<VTKFile type="UnstructuredGrid" version="1,0" byte_order="LittleEndian">
<UnstructuredGrid>
<Piece NumberOfPoints="5802" NumberOfCells="5680">
<Points>
<DataArray type="Float64" NumberOfComponents="3" format="ascii">
-0.1100000000000E+01 -0.4731587125634E+01  0.0000000000000E+00
 0.0000000000000E+00 -0.4731587125634E+01  0.0000000000000E+00
 0.1100000000000E+01 -0.4731587125634E+01  0.0000000000000E+00
-0.1191315091097E+01 -0.1825930012610E+01  0.0000000000000E+00
-0.5956575398395E+00 -0.1755172846926E+01  0.0000000000000E+00
 0.5956575512579E+00 -0.1755172847830E+01  0.0000000000000E+00
 0.1191315091097E+01 -0.1825930012610E+01  0.0000000000000E+00
-0.1487255332335E+01  0.3711246317436E+00  0.0000000000000E+00
 0.1487255329206E+01  0.3711246337271E+00  0.0000000000000E+00
-0.6187500000000E+00 -0.4973806884503E+00  0.0000000000000E+00
 0.6187500000000E+00 -0.4973806884503E+00  0.0000000000000E+00
-0.1072500000000E+01 -0.4731587125634E+01  0.0000000000000E+00
-0.1045000000000E+01 -0.4731587125634E+01  0.0000000000000E+00
-0.1017500000000E+01 -0.4731587125634E+01  0.0000000000000E+00
-0.9900000000000E+00 -0.4731587125634E+01  0.0000000000000E+00
-0.9625000000000E+00 -0.4731587125634E+01  0.0000000000000E+00
-0.9350000000000E+00 -0.4731587125634E+01  0.0000000000000E+00
-0.9075000000000E+00 -0.4731587125634E+01  0.0000000000000E+00
-0.8800000000000E+00 -0.4731587125634E+01  0.0000000000000E+00
-0.8525000000000E+00 -0.4731587125634E+01  0.0000000000000E+00
-0.8250000000000E+00 -0.4731587125634E+01  0.0000000000000E+00
-0.7975000000000E+00 -0.4731587125634E+01  0.0000000000000E+00
-0.7700000000000E+00 -0.4731587125634E+01  0.0000000000000E+00
-0.7425000000000E+00 -0.4731587125634E+01  0.0000000000000E+00
-0.7150000000000E+00 -0.4731587125634E+01  0.0000000000000E+00
-0.6875000000000E+00 -0.4731587125634E+01  0.0000000000000E+00
-0.6600000000000E+00 -0.4731587125634E+01  0.0000000000000E+00
-0.6325000000000E+00 -0.4731587125634E+01  0.0000000000000E+00
-0.6050000000000E+00 -0.4731587125634E+01  0.0000000000000E+00
-0.5775000000000E+00 -0.4731587125634E+01  0.0000000000000E+00
-0.5500000000000E+00 -0.4731587125634E+01  0.0000000000000E+00
-0.5225000000000E+00 -0.4731587125634E+01  0.0000000000000E+00
-0.4950000000000E+00 -0.4731587125634E+01  0.0000000000000E+00
-0.4675000000000E+00 -0.4731587125634E+01  0.0000000000000E+00
-0.4400000000000E+00 -0.4731587125634E+01  0.0000000000000E+00
-0.4125000000000E+00 -0.4731587125634E+01  0.0000000000000E+00
-0.3850000000000E+00 -0.4731587125634E+01  0.0000000000000E+00
-0.3575000000000E+00 -0.4731587125634E+01  0.0000000000000E+00
-0.3300000000000E+00 -0.4731587125634E+01  0.0000000000000E+00
-0.3025000000000E+00 -0.4731587125634E+01  0.0000000000000E+00
-0.2750000000000E+00 -0.4731587125634E+01  0.0000000000000E+00
-0.2475000000000E+00 -0.4731587125634E+01  0.0000000000000E+00
-0.2200000000000E+00 -0.4731587125634E+01  0.0000000000000E+00
-0.1925000000000E+00 -0.4731587125634E+01  0.0000000000000E+00
-0.1650000000000E+00 -0.4731587125634E+01  0.0000000000000E+00
-0.1375000000000E+00 -0.4731587125634E+01  0.0000000000000E+00
-0.1100000000000E+00 -0.4731587125634E+01  0.0000000000000E+00
-0.8250000000000E-01 -0.4731587125634E+01  0.0000000000000E+00
-0.5500000000000E-01 -0.4731587125634E+01  0.0000000000000E+00
-0.2750000000000E-01 -0.4731587125634E+01  0.0000000000000E+00
 0.2750000000000E-01 -0.4731587125634E+01  0.0000000000000E+00
 0.5500000000000E-01 -0.4731587125634E+01  0.0000000000000E+00
 0.8250000000000E-01 -0.4731587125634E+01  0.0000000000000E+00
 0.1100000000000E+00 -0.4731587125634E+01  0.0000000000000E+00
 0.1375000000000E+00 -0.4731587125634E+01  0.0000000000000E+00
 0.1650000000000E+00 -0.4731587125634E+01  0.0000000000000E+00
 0.1925000000000E+00 -0.4731587125634E+01  0.0000000000000E+00
 0.2200000000000E+00 -0.4731587125634E+01  0.0000000000000E+00
 0.2475000000000E+00 -0.4731587125634E+01  0.0000000000000E+00
 0.2750000000000E+00 -0.4731587125634E+01  0.0000000000000E+00
 0.3025000000000E+00 -0.4731587125634E+01  0.0000000000000E+00
 0.3300000000000E+00 -0.4731587125634E+01  0.0000000000000E+00
 0.3575000000000E+00 -0.4731587125634E+01  0.0000000000000E+00
 0.3850000000000E+00 -0.4731587125634E+01  0.0000000000000E+00
 0.4125000000000E+00 -0.4731587125634E+01  0.0000000000000E+00
 0.4400000000000E+00 -0.4731587125634E+01  0.0000000000000E+00
 0.4675000000000E+00 -0.4731587125634E+01  0.0000000000000E+00
 0.4950000000000E+00 -0.4731587125634E+01  0.0000000000000E+00
 0.5225000000000E+00 -0.4731587125634E+01  0.0000000000000E+00
 0.5500000000000E+00 -0.4731587125634E+01  0.0000000000000E+00
 0.5775000000000E+00 -0.4731587125634E+01  0.0000000000000E+00
 0.6050000000000E+00 -0.4731587125634E+01  0.0000000000000E+00
 0.6325000000000E+00 -0.4731587125634E+01  0.0000000000000E+00
 0.6600000000000E+00 -0.4731587125634E+01  0.0000000000000E+00
 0.6875000000000E+00 -0.4731587125634E+01  0.0000000000000E+00
 0.7150000000000E+00 -0.4731587125634E+01  0.0000000000000E+00
 0.7425000000000E+00 -0.4731587125634E+01  0.0000000000000E+00
 0.7700000000000E+00 -0.4731587125634E+01  0.0000000000000E+00
 0.7975000000000E+00 -0.4731587125634E+01  0.0000000000000E+00
 0.8250000000000E+00 -0.4731587125634E+01  0.0000000000000E+00
 0.8525000000000E+00 -0.4731587125634E+01  0.0000000000000E+00
 0.8800000000000E+00 -0.4731587125634E+01  0.0000000000000E+00
 0.9075000000000E+00 -0.4731587125634E+01  0.0000000000000E+00
 0.9350000000000E+00 -0.4731587125634E+01  0.0000000000000E+00
 0.9625000000000E+00 -0.4731587125634E+01  0.0000000000000E+00
 0.9900000000000E+00 -0.4731587125634E+01  0.0000000000000E+00
 0.1017500000000E+01 -0.4731587125634E+01  0.0000000000000E+00
 0.1045000000000E+01 -0.4731587125634E+01  0.0000000000000E+00
 0.1072500000000E+01 -0.4731587125634E+01  0.0000000000000E+00
-0.1161675590434E+01 -0.1821293974842E+01  0.0000000000000E+00
-0.1132018469080E+01 -0.1816772081031E+01  0.0000000000000E+00
-0.1102344135527E+01 -0.1812364599475E+01  0.0000000000000E+00
-0.1072653001422E+01 -0.1808071792594E+01  0.0000000000000E+00
-0.1042945459471E+01 -0.1803893913795E+01  0.0000000000000E+00
-0.1013221952450E+01 -0.1799831217138E+01  0.0000000000000E+00
-0.9834829017084E+00 -0.1795883946982E+01  0.0000000000000E+00
-0.9537287316532E+00 -0.1792052341512E+01  0.0000000000000E+00
-0.9239598612408E+00 -0.1788336631619E+01  0.0000000000000E+00
-0.8941767210493E+00 -0.1784737043031E+01  0.0000000000000E+00
-0.8643797539566E+00 -0.1781253796152E+01  0.0000000000000E+00
-0.8345693957871E+00 -0.1777887103664E+01  0.0000000000000E+00
-0.8047460850418E+00 -0.1774637171701E+01  0.0000000000000E+00
-0.7749102599775E+00 -0.1771504199483E+01  0.0000000000000E+00
-0.7450623578572E+00 -0.1768488379244E+01  0.0000000000000E+00
-0.7152028352234E+00 -0.1765589898169E+01  0.0000000000000E+00
-0.6853321404180E+00 -0.1762808935500E+01  0.0000000000000E+00
-0.6554507240472E+00 -0.1760145663610E+01  0.0000000000000E+00
-0.6255590388957E+00 -0.1757600247935E+01  0.0000000000000E+00
-0.5659320403842E+00 -0.1752877555980E+01  0.0000000000000E+00
-0.5361977827764E+00 -0.1750699115345E+01  0.0000000000000E+00
-0.5064551822954E+00 -0.1748637656849E+01  0.0000000000000E+00
-0.4767046834532E+00 -0.1746693307634E+01  0.0000000000000E+00
-0.4469467825907E+00 -0.1744866190914E+01  0.0000000000000E+00
-0.4171818756954E+00 -0.1743156416506E+01  0.0000000000000E+00
-0.3874104734057E+00 -0.1741564093885E+01  0.0000000000000E+00
-0.3576330176963E+00 -0.1740089321191E+01  0.0000000000000E+00
-0.3278499563594E+00 -0.1738732189839E+01  0.0000000000000E+00
-0.2980617833702E+00 -0.1737492785992E+01  0.0000000000000E+00
-0.2682689204519E+00 -0.1736371185422E+01  0.0000000000000E+00
-0.2384718656336E+00 -0.1735367459648E+01  0.0000000000000E+00
-0.2086710716336E+00 -0.1734481671049E+01  0.0000000000000E+00
-0.1788669979735E+00 -0.1733713874997E+01  0.0000000000000E+00
-0.1490601279746E+00 -0.1733064120054E+01  0.0000000000000E+00
-0.1192509059245E+00 -0.1732532446511E+01  0.0000000000000E+00
-0.8943981808141E-01 -0.1732118888112E+01  0.0000000000000E+00
-0.5962732433722E-01 -0.1731823470688E+01  0.0000000000000E+00
-0.2981389296327E-01 -0.1731646212812E+01  0.0000000000000E+00
 0.5727055524263E-08 -0.1731587125634E+01  0.0000000000000E+00
 0.2981390441730E-01 -0.1731646212857E+01  0.0000000000000E+00
 0.5962733579097E-01 -0.1731823470779E+01  0.0000000000000E+00
 0.8943982953471E-01 -0.1732118888248E+01  0.0000000000000E+00
 0.1192509173772E+00 -0.1732532446692E+01  0.0000000000000E+00
 0.1490601394265E+00 -0.1733064120281E+01  0.0000000000000E+00
 0.1788670094244E+00 -0.1733713875269E+01  0.0000000000000E+00
 0.2086710830833E+00 -0.1734481671367E+01  0.0000000000000E+00
 0.2384718770819E+00 -0.1735367460011E+01  0.0000000000000E+00
 0.2682689318987E+00 -0.1736371185830E+01  0.0000000000000E+00
 0.2980617948153E+00 -0.1737492786445E+01  0.0000000000000E+00
 0.3278499678026E+00 -0.1738732190338E+01  0.0000000000000E+00
 0.3576330291375E+00 -0.1740089321735E+01  0.0000000000000E+00
 0.3874104848446E+00 -0.1741564094474E+01  0.0000000000000E+00
 0.4171818871319E+00 -0.1743156417141E+01  0.0000000000000E+00
 0.4469467940246E+00 -0.1744866191594E+01  0.0000000000000E+00
 0.4767046948843E+00 -0.1746693308359E+01  0.0000000000000E+00
 0.5064551937236E+00 -0.1748637657619E+01  0.0000000000000E+00
 0.5361977942015E+00 -0.1750699116160E+01  0.0000000000000E+00
 0.5659320518060E+00 -0.1752877556840E+01  0.0000000000000E+00
 0.6255590497397E+00 -0.1757600248837E+01  0.0000000000000E+00
 0.6554507343169E+00 -0.1760145664505E+01  0.0000000000000E+00
 0.6853321501138E+00 -0.1762808936384E+01  0.0000000000000E+00
 0.7152028443456E+00 -0.1765589899036E+01  0.0000000000000E+00
 0.7450623664059E+00 -0.1768488380091E+01  0.0000000000000E+00
 0.7749102679531E+00 -0.1771504200305E+01  0.0000000000000E+00
 0.8047460924447E+00 -0.1774637172493E+01  0.0000000000000E+00
 0.8345694026177E+00 -0.1777887104422E+01  0.0000000000000E+00
 0.8643797602152E+00 -0.1781253796871E+01  0.0000000000000E+00
 0.8941767267363E+00 -0.1784737043707E+01  0.0000000000000E+00
 0.9239598663567E+00 -0.1788336632248E+01  0.0000000000000E+00
 0.9537287361985E+00 -0.1792052342089E+01  0.0000000000000E+00
 0.9834829056835E+00 -0.1795883947502E+01  0.0000000000000E+00
 0.1013221955855E+01 -0.1799831217596E+01  0.0000000000000E+00
 0.1042945462307E+01 -0.1803893914188E+01  0.0000000000000E+00
 0.1072653003690E+01 -0.1808071792917E+01  0.0000000000000E+00
 0.1102344137227E+01 -0.1812364599724E+01  0.0000000000000E+00
 0.1132018470213E+01 -0.1816772081202E+01  0.0000000000000E+00
 0.1161675591000E+01 -0.1821293974929E+01  0.0000000000000E+00
-0.1213355268613E+01 -0.1711966308233E+01  0.0000000000000E+00
-0.1238854526170E+01 -0.1598727811073E+01  0.0000000000000E+00
-0.1268466688037E+01 -0.1486497481512E+01  0.0000000000000E+00
-0.1303342965295E+01 -0.1375796643044E+01  0.0000000000000E+00
-0.1345040310075E+01 -0.1267489592785E+01  0.0000000000000E+00
-0.1392581470401E+01 -0.1161597043208E+01  0.0000000000000E+00
-0.1439083524730E+01 -0.1055246799568E+01  0.0000000000000E+00
-0.1480944100518E+01 -0.9469891138312E+00  0.0000000000000E+00
-0.1518131836329E+01 -0.8370360644333E+00  0.0000000000000E+00
-0.1551041415331E+01 -0.7257267337723E+00  0.0000000000000E+00
-0.1579720048034E+01 -0.6132533876738E+00  0.0000000000000E+00
-0.1603836412081E+01 -0.4997150980206E+00  0.0000000000000E+00
-0.1623384157755E+01 -0.3853015140723E+00  0.0000000000000E+00
-0.1638101487121E+01 -0.2701686503839E+00  0.0000000000000E+00
-0.1647164985397E+01 -0.1544579176162E+00  0.0000000000000E+00
-0.1649971232607E+01 -0.3842453929912E-01  0.0000000000000E+00
-0.1647980696334E+01  0.7761284988695E-01  0.0000000000000E+00
-0.1626874369891E+01  0.1914362508587E+00  0.0000000000000E+00
-0.1572796829836E+01  0.2935193328390E+00  0.0000000000000E+00
-0.1418305908641E+01  0.4022416062919E+00  0.0000000000000E+00
-0.1345676864211E+01  0.4236315892164E+00  0.0000000000000E+00
-0.1271121572232E+01  0.4368480112286E+00  0.0000000000000E+00
-0.1195563418735E+01  0.4416990799735E+00  0.0000000000000E+00
-0.1119906317278E+01  0.4384406277265E+00  0.0000000000000E+00
-0.1044756289719E+01  0.4290110284082E+00  0.0000000000000E+00
-0.9703274447726E+00  0.4149459401020E+00  0.0000000000000E+00
-0.8965853652262E+00  0.3976148229097E+00  0.0000000000000E+00
-0.8232882160705E+00  0.3784769972153E+00  0.0000000000000E+00
-0.7500778072402E+00  0.3590082550316E+00  0.0000000000000E+00
-0.6765282087393E+00  0.3408715871599E+00  0.0000000000000E+00
-0.6024721689929E+00  0.3249314759684E+00  0.0000000000000E+00
-0.5279626734789E+00  0.3112660660816E+00  0.0000000000000E+00
-0.4530942500529E+00  0.2997252351383E+00  0.0000000000000E+00
-0.3779502175627E+00  0.2901382908398E+00  0.0000000000000E+00
-0.3025960047097E+00  0.2823699994777E+00  0.0000000000000E+00
-0.2270833670538E+00  0.2763314545000E+00  0.0000000000000E+00
-0.1514548639988E+00  0.2719804032214E+00  0.0000000000000E+00
-0.7574795049362E-01  0.2693218404769E+00  0.0000000000000E+00
-0.1822076423075E-08  0.2684128743665E+00  0.0000000000000E+00
 0.7574794685078E-01  0.2693218403904E+00  0.0000000000000E+00
 0.1514548603582E+00  0.2719804030525E+00  0.0000000000000E+00
 0.2270833634172E+00  0.2763314542500E+00  0.0000000000000E+00
 0.3025960010827E+00  0.2823699991460E+00  0.0000000000000E+00
 0.3779502139414E+00  0.2901382904224E+00  0.0000000000000E+00
 0.4530942464462E+00  0.2997252346305E+00  0.0000000000000E+00
 0.5279626698826E+00  0.3112660654745E+00  0.0000000000000E+00
 0.6024721654224E+00  0.3249314752557E+00  0.0000000000000E+00
 0.6765282051910E+00  0.3408715863362E+00  0.0000000000000E+00
 0.7500778037128E+00  0.3590082541141E+00  0.0000000000000E+00
 0.8232882125500E+00  0.3784769962749E+00  0.0000000000000E+00
 0.8965853616918E+00  0.3976148220208E+00  0.0000000000000E+00
 0.9703274412081E+00  0.4149459393403E+00  0.0000000000000E+00
 0.1044756286115E+01  0.4290110278460E+00  0.0000000000000E+00
 0.1119906313643E+01  0.4384406274322E+00  0.0000000000000E+00
 0.1195563415086E+01  0.4416990800252E+00  0.0000000000000E+00
 0.1271121568610E+01  0.4368480116963E+00  0.0000000000000E+00
 0.1345676860666E+01  0.4236315901228E+00  0.0000000000000E+00
 0.1418305905243E+01  0.4022416076848E+00  0.0000000000000E+00
 0.1572796827692E+01  0.2935193356292E+00  0.0000000000000E+00
 0.1626874368892E+01  0.1914362540528E+00  0.0000000000000E+00
 0.1647980696148E+01  0.7761285305478E-01  0.0000000000000E+00
 0.1649971232614E+01 -0.3842453631130E-01  0.0000000000000E+00
 0.1647164985510E+01 -0.1544579148168E+00  0.0000000000000E+00
 0.1638101487343E+01 -0.2701686477783E+00  0.0000000000000E+00
 0.1623384158054E+01 -0.3853015116666E+00  0.0000000000000E+00
 0.1603836412438E+01 -0.4997150958130E+00  0.0000000000000E+00
 0.1579720048441E+01 -0.6132533856674E+00  0.0000000000000E+00
 0.1551041415774E+01 -0.7257267319674E+00  0.0000000000000E+00
 0.1518131836796E+01 -0.8370360628288E+00  0.0000000000000E+00
 0.1480944100999E+01 -0.9469891124298E+00  0.0000000000000E+00
 0.1439083525216E+01 -0.1055246798366E+01  0.0000000000000E+00
 0.1392581470861E+01 -0.1161597042198E+01  0.0000000000000E+00
 0.1345040310428E+01 -0.1267489591933E+01  0.0000000000000E+00
 0.1303342965506E+01 -0.1375796642335E+01  0.0000000000000E+00
 0.1268466688140E+01 -0.1486497480965E+01  0.0000000000000E+00
 0.1238854526204E+01 -0.1598727810699E+01  0.0000000000000E+00
 0.1213355268613E+01 -0.1711966308043E+01  0.0000000000000E+00
-0.1100000000000E+01 -0.4660595750534E+01  0.0000000000000E+00
-0.1100000000000E+01 -0.4589604523337E+01  0.0000000000000E+00
-0.1100000000000E+01 -0.4518612860194E+01  0.0000000000000E+00
-0.1100000000000E+01 -0.4447621396074E+01  0.0000000000000E+00
-0.1100000000000E+01 -0.4376629946073E+01  0.0000000000000E+00
-0.1100000000000E+01 -0.4305638469395E+01  0.0000000000000E+00
-0.1100000000000E+01 -0.4234647034675E+01  0.0000000000000E+00
-0.1100000000000E+01 -0.4163655573930E+01  0.0000000000000E+00
-0.1100000000000E+01 -0.4092664118400E+01  0.0000000000000E+00
-0.1100000000000E+01 -0.4021672670707E+01  0.0000000000000E+00
-0.1100000000000E+01 -0.3950681208157E+01  0.0000000000000E+00
-0.1100000000000E+01 -0.3879689768887E+01  0.0000000000000E+00
-0.1100000000000E+01 -0.3808698298634E+01  0.0000000000000E+00
-0.1100000000000E+01 -0.3737706770464E+01  0.0000000000000E+00
-0.1100000000000E+01 -0.3666715262498E+01  0.0000000000000E+00
-0.1100000000000E+01 -0.3595723839456E+01  0.0000000000000E+00
-0.1100000000000E+01 -0.3524731789668E+01  0.0000000000000E+00
-0.1100000000000E+01 -0.3453740926047E+01  0.0000000000000E+00
-0.1100000000000E+01 -0.3382749460249E+01  0.0000000000000E+00
-0.1100000000000E+01 -0.3311758072240E+01  0.0000000000000E+00
-0.1100000000000E+01 -0.3240766774652E+01  0.0000000000000E+00
-0.1100000000000E+01 -0.3169775441240E+01  0.0000000000000E+00
-0.1100000000000E+01 -0.3098784076079E+01  0.0000000000000E+00
-0.1100019380481E+01 -0.3027792649889E+01  0.0000000000000E+00
-0.1100182969515E+01 -0.2956801452749E+01  0.0000000000000E+00
-0.1100664097718E+01 -0.2885811820573E+01  0.0000000000000E+00
-0.1101620767933E+01 -0.2814827030427E+01  0.0000000000000E+00
-0.1103169283693E+01 -0.2743852764288E+01  0.0000000000000E+00
-0.1105384238767E+01 -0.2672896168192E+01  0.0000000000000E+00
-0.1108313328915E+01 -0.2601965572023E+01  0.0000000000000E+00
-0.1111994457710E+01 -0.2531069964563E+01  0.0000000000000E+00
-0.1116470504631E+01 -0.2460220060781E+01  0.0000000000000E+00
-0.1121800458045E+01 -0.2389429442476E+01  0.0000000000000E+00
-0.1127980999498E+01 -0.2318707927775E+01  0.0000000000000E+00
-0.1134925652832E+01 -0.2248057274554E+01  0.0000000000000E+00
-0.1142572685777E+01 -0.2177479159635E+01  0.0000000000000E+00
-0.1150886195216E+01 -0.2106976362838E+01  0.0000000000000E+00
-0.1159854464778E+01 -0.2036553785977E+01  0.0000000000000E+00
-0.1169495475345E+01 -0.1966220321347E+01  0.0000000000000E+00
-0.1179881536539E+01 -0.1895993177716E+01  0.0000000000000E+00
 0.1179881536541E+01 -0.1895993177715E+01  0.0000000000000E+00
 0.1169495475345E+01 -0.1966220321347E+01  0.0000000000000E+00
 0.1159854464777E+01 -0.2036553785977E+01  0.0000000000000E+00
 0.1150886195214E+01 -0.2106976362838E+01  0.0000000000000E+00
 0.1142572685775E+01 -0.2177479159635E+01  0.0000000000000E+00
 0.1134925652830E+01 -0.2248057274554E+01  0.0000000000000E+00
 0.1127980999496E+01 -0.2318707927775E+01  0.0000000000000E+00
 0.1121800458043E+01 -0.2389429442476E+01  0.0000000000000E+00
 0.1116470504629E+01 -0.2460220060781E+01  0.0000000000000E+00
 0.1111994457707E+01 -0.2531069964563E+01  0.0000000000000E+00
 0.1108313328912E+01 -0.2601965572023E+01  0.0000000000000E+00
 0.1105384238765E+01 -0.2672896168191E+01  0.0000000000000E+00
 0.1103169283691E+01 -0.2743852764287E+01  0.0000000000000E+00
 0.1101620767933E+01 -0.2814827030427E+01  0.0000000000000E+00
 0.1100664097717E+01 -0.2885811820573E+01  0.0000000000000E+00
 0.1100182969515E+01 -0.2956801452748E+01  0.0000000000000E+00
 0.1100019380481E+01 -0.3027792649889E+01  0.0000000000000E+00
 0.1100000000000E+01 -0.3098784076079E+01  0.0000000000000E+00
 0.1100000000000E+01 -0.3169775441240E+01  0.0000000000000E+00
 0.1100000000000E+01 -0.3240766774652E+01  0.0000000000000E+00
 0.1100000000000E+01 -0.3311758072240E+01  0.0000000000000E+00
 0.1100000000000E+01 -0.3382749460249E+01  0.0000000000000E+00
 0.1100000000000E+01 -0.3453740926047E+01  0.0000000000000E+00
 0.1100000000000E+01 -0.3524731789668E+01  0.0000000000000E+00
 0.1100000000000E+01 -0.3595723839456E+01  0.0000000000000E+00
 0.1100000000000E+01 -0.3666715262498E+01  0.0000000000000E+00
 0.1100000000000E+01 -0.3737706770464E+01  0.0000000000000E+00
 0.1100000000000E+01 -0.3808698298633E+01  0.0000000000000E+00
 0.1100000000000E+01 -0.3879689768887E+01  0.0000000000000E+00
 0.1100000000000E+01 -0.3950681208157E+01  0.0000000000000E+00
 0.1100000000000E+01 -0.4021672670707E+01  0.0000000000000E+00
 0.1100000000000E+01 -0.4092664118399E+01  0.0000000000000E+00
 0.1100000000000E+01 -0.4163655573930E+01  0.0000000000000E+00
 0.1100000000000E+01 -0.4234647034675E+01  0.0000000000000E+00
 0.1100000000000E+01 -0.4305638469395E+01  0.0000000000000E+00
 0.1100000000000E+01 -0.4376629946073E+01  0.0000000000000E+00
 0.1100000000000E+01 -0.4447621396074E+01  0.0000000000000E+00
 0.1100000000000E+01 -0.4518612860194E+01  0.0000000000000E+00
 0.1100000000000E+01 -0.4589604523337E+01  0.0000000000000E+00
 0.1100000000000E+01 -0.4660595750534E+01  0.0000000000000E+00
-0.5884638695905E+00 -0.4894641513885E+00  0.0000000000000E+00
-0.5580825246164E+00 -0.4819218154218E+00  0.0000000000000E+00
-0.5276095633171E+00 -0.4747582607812E+00  0.0000000000000E+00
-0.4970490688930E+00 -0.4679779933456E+00  0.0000000000000E+00
-0.4664052113280E+00 -0.4615853306416E+00  0.0000000000000E+00
-0.4356821841498E+00 -0.4555843826271E+00  0.0000000000000E+00
-0.4048845338533E+00 -0.4499791064130E+00  0.0000000000000E+00
-0.3740168397343E+00 -0.4447732294152E+00  0.0000000000000E+00
-0.3430839130773E+00 -0.4399702753278E+00  0.0000000000000E+00
-0.3120906320172E+00 -0.4355735248917E+00  0.0000000000000E+00
-0.2810420500145E+00 -0.4315860232937E+00  0.0000000000000E+00
-0.2499433335888E+00 -0.4280105603977E+00  0.0000000000000E+00
-0.2187997508610E+00 -0.4248496608797E+00  0.0000000000000E+00
-0.1876166729319E+00 -0.4221055764161E+00  0.0000000000000E+00
-0.1563995773423E+00 -0.4197802779940E+00  0.0000000000000E+00
-0.1251540094126E+00 -0.4178754457584E+00  0.0000000000000E+00
-0.9388558172344E-01 -0.4163924636598E+00  0.0000000000000E+00
-0.6259996113275E-01 -0.4153324139295E+00  0.0000000000000E+00
-0.3130285547239E-01 -0.4146960727333E+00  0.0000000000000E+00
-0.2220446049250E-15 -0.4144839070419E+00  0.0000000000000E+00
 0.3130285547239E-01 -0.4146960727333E+00  0.0000000000000E+00
 0.6259996113275E-01 -0.4153324139295E+00  0.0000000000000E+00
 0.9388558172344E-01 -0.4163924636598E+00  0.0000000000000E+00
 0.1251540094126E+00 -0.4178754457584E+00  0.0000000000000E+00
 0.1563995773423E+00 -0.4197802779940E+00  0.0000000000000E+00
 0.1876166729319E+00 -0.4221055764161E+00  0.0000000000000E+00
 0.2187997508610E+00 -0.4248496608797E+00  0.0000000000000E+00
 0.2499433335888E+00 -0.4280105603977E+00  0.0000000000000E+00
 0.2810420500145E+00 -0.4315860232937E+00  0.0000000000000E+00
 0.3120906320172E+00 -0.4355735248917E+00  0.0000000000000E+00
 0.3430839130773E+00 -0.4399702753278E+00  0.0000000000000E+00
 0.3740168397343E+00 -0.4447732294152E+00  0.0000000000000E+00
 0.4048845338533E+00 -0.4499791064130E+00  0.0000000000000E+00
 0.4356821841498E+00 -0.4555843826271E+00  0.0000000000000E+00
 0.4664052113280E+00 -0.4615853306416E+00  0.0000000000000E+00
 0.4970490688930E+00 -0.4679779933456E+00  0.0000000000000E+00
 0.5276095633171E+00 -0.4747582607812E+00  0.0000000000000E+00
 0.5580825246164E+00 -0.4819218154218E+00  0.0000000000000E+00
 0.5884638695905E+00 -0.4894641513885E+00  0.0000000000000E+00
-0.6186694182519E+00 -0.5602854202626E+00  0.0000000000000E+00
-0.6184121778050E+00 -0.6231895804302E+00  0.0000000000000E+00
-0.6179522181120E+00 -0.6860925653381E+00  0.0000000000000E+00
-0.6172599449830E+00 -0.7489933811583E+00  0.0000000000000E+00
-0.6163035973388E+00 -0.8118907743073E+00  0.0000000000000E+00
-0.6150531470475E+00 -0.8747829429232E+00  0.0000000000000E+00
-0.6134887983150E+00 -0.9376681601377E+00  0.0000000000000E+00
-0.6116160329111E+00 -0.1000544889820E+01  0.0000000000000E+00
-0.6094851916442E+00 -0.1063413466424E+01  0.0000000000000E+00
-0.6072037720657E+00 -0.1126276767718E+01  0.0000000000000E+00
-0.6049223524117E+00 -0.1189140069010E+01  0.0000000000000E+00
-0.6027915109277E+00 -0.1252008645607E+01  0.0000000000000E+00
-0.6009187451903E+00 -0.1314885375279E+01  0.0000000000000E+00
-0.5993543960372E+00 -0.1377770592483E+01  0.0000000000000E+00
-0.5981039452651E+00 -0.1440662761090E+01  0.0000000000000E+00
-0.5971475971003E+00 -0.1503560154231E+01  0.0000000000000E+00
-0.5964553234260E+00 -0.1566460970045E+01  0.0000000000000E+00
-0.5959953631729E+00 -0.1629363954949E+01  0.0000000000000E+00
-0.5957381221583E+00 -0.1692268115114E+01  0.0000000000000E+00
 0.6186694182523E+00 -0.5602854202973E+00  0.0000000000000E+00
 0.6184121778088E+00 -0.6231895804997E+00  0.0000000000000E+00
 0.6179522181269E+00 -0.6860925654424E+00  0.0000000000000E+00
 0.6172599450237E+00 -0.7489933812976E+00  0.0000000000000E+00
 0.6163035974300E+00 -0.8118907744820E+00  0.0000000000000E+00
 0.6150531472289E+00 -0.8747829431345E+00  0.0000000000000E+00
 0.6134887986468E+00 -0.9376681603875E+00  0.0000000000000E+00
 0.6116160334801E+00 -0.1000544890112E+01  0.0000000000000E+00
 0.6094851925666E+00 -0.1063413466762E+01  0.0000000000000E+00
 0.6072037734828E+00 -0.1126276768110E+01  0.0000000000000E+00
 0.6049223544747E+00 -0.1189140069460E+01  0.0000000000000E+00
 0.6027915137782E+00 -0.1252008646118E+01  0.0000000000000E+00
 0.6009187489451E+00 -0.1314885375852E+01  0.0000000000000E+00
 0.5993544007835E+00 -0.1377770593115E+01  0.0000000000000E+00
 0.5981039510633E+00 -0.1440662761777E+01  0.0000000000000E+00
 0.5971476039902E+00 -0.1503560154969E+01  0.0000000000000E+00
 0.5964553314325E+00 -0.1566460970831E+01  0.0000000000000E+00
 0.5959953723106E+00 -0.1629363955777E+01  0.0000000000000E+00
 0.5957381324349E+00 -0.1692268115982E+01  0.0000000000000E+00
-0.6621752666167E+00 -0.4539554224406E+00  0.0000000000000E+00
-0.7056005332335E+00 -0.4105301564309E+00  0.0000000000000E+00
-0.7490257998502E+00 -0.3671048904212E+00  0.0000000000000E+00
-0.7924510664670E+00 -0.3236796244115E+00  0.0000000000000E+00
-0.8358763330837E+00 -0.2802543584018E+00  0.0000000000000E+00
-0.8793015997004E+00 -0.2368290923921E+00  0.0000000000000E+00
-0.9227268663172E+00 -0.1934038263824E+00  0.0000000000000E+00
-0.9661521329339E+00 -0.1499785603727E+00  0.0000000000000E+00
-0.1009577399551E+01 -0.1065532943630E+00  0.0000000000000E+00
-0.1053002666167E+01 -0.6312802835334E-01  0.0000000000000E+00
-0.1096427932784E+01 -0.1970276234365E-01  0.0000000000000E+00
-0.1139853199401E+01  0.2372250366604E-01  0.0000000000000E+00
-0.1183278466018E+01  0.6714776967573E-01  0.0000000000000E+00
-0.1226703732634E+01  0.1105730356854E+00  0.0000000000000E+00
-0.1270128999251E+01  0.1539983016951E+00  0.0000000000000E+00
-0.1313554265868E+01  0.1974235677048E+00  0.0000000000000E+00
-0.1356979532485E+01  0.2408488337145E+00  0.0000000000000E+00
-0.1400404799101E+01  0.2842740997242E+00  0.0000000000000E+00
-0.1443830065718E+01  0.3276993657339E+00  0.0000000000000E+00
 0.6621752664603E+00 -0.4539554223414E+00  0.0000000000000E+00
 0.7056005329206E+00 -0.4105301562325E+00  0.0000000000000E+00
 0.7490257993809E+00 -0.3671048901237E+00  0.0000000000000E+00
 0.7924510658412E+00 -0.3236796240148E+00  0.0000000000000E+00
 0.8358763323015E+00 -0.2802543579059E+00  0.0000000000000E+00
 0.8793015987618E+00 -0.2368290917971E+00  0.0000000000000E+00
 0.9227268652221E+00 -0.1934038256882E+00  0.0000000000000E+00
 0.9661521316824E+00 -0.1499785595793E+00  0.0000000000000E+00
 0.1009577398143E+01 -0.1065532934705E+00  0.0000000000000E+00
 0.1053002664603E+01 -0.6312802736160E-01  0.0000000000000E+00
 0.1096427931063E+01 -0.1970276125273E-01  0.0000000000000E+00
 0.1139853197524E+01  0.2372250485614E-01  0.0000000000000E+00
 0.1183278463984E+01  0.6714777096501E-01  0.0000000000000E+00
 0.1226703730444E+01  0.1105730370739E+00  0.0000000000000E+00
 0.1270128996905E+01  0.1539983031827E+00  0.0000000000000E+00
 0.1313554263365E+01  0.1974235692916E+00  0.0000000000000E+00
 0.1356979529825E+01  0.2408488354005E+00  0.0000000000000E+00
 0.1400404796285E+01  0.2842741015093E+00  0.0000000000000E+00
 0.1443830062746E+01  0.3276993676182E+00  0.0000000000000E+00
-0.1072503587165E+01 -0.4660482676314E+01  0.0000000000000E+00
-0.1072507174322E+01 -0.4589378375132E+01  0.0000000000000E+00
-0.1072510761501E+01 -0.4518273637310E+01  0.0000000000000E+00
-0.1072514348670E+01 -0.4447169098828E+01  0.0000000000000E+00
-0.1072517935839E+01 -0.4376064574487E+01  0.0000000000000E+00
-0.1072521523008E+01 -0.4304960023427E+01  0.0000000000000E+00
-0.1072525110176E+01 -0.4233855514392E+01  0.0000000000000E+00
-0.1072528697345E+01 -0.4162750979291E+01  0.0000000000000E+00
-0.1072532284514E+01 -0.4091646449412E+01  0.0000000000000E+00
-0.1072535871682E+01 -0.4020541927384E+01  0.0000000000000E+00
-0.1072539458851E+01 -0.3949437390474E+01  0.0000000000000E+00
-0.1072543046019E+01 -0.3878332876881E+01  0.0000000000000E+00
-0.1072546633189E+01 -0.3807228332256E+01  0.0000000000000E+00
-0.1072550220361E+01 -0.3736123729622E+01  0.0000000000000E+00
-0.1072553807532E+01 -0.3665019147225E+01  0.0000000000000E+00
-0.1072557394699E+01 -0.3593914649887E+01  0.0000000000000E+00
-0.1072560981898E+01 -0.3522809524803E+01  0.0000000000000E+00
-0.1072564569037E+01 -0.3451705587777E+01  0.0000000000000E+00
-0.1072568156206E+01 -0.3380601047615E+01  0.0000000000000E+00
-0.1072571743371E+01 -0.3309496585365E+01  0.0000000000000E+00
-0.1072575330532E+01 -0.3238392213680E+01  0.0000000000000E+00
-0.1072578917695E+01 -0.3167287806114E+01  0.0000000000000E+00
-0.1072582504859E+01 -0.3096183366749E+01  0.0000000000000E+00
-0.1072604987210E+01 -0.3025078866253E+01  0.0000000000000E+00
-0.1072768067061E+01 -0.2953974594875E+01  0.0000000000000E+00
-0.1073240734738E+01 -0.2882871888659E+01  0.0000000000000E+00
-0.1074177036625E+01 -0.2811774024513E+01  0.0000000000000E+00
-0.1075690363951E+01 -0.2740686684501E+01  0.0000000000000E+00
-0.1077853442627E+01 -0.2669617014531E+01  0.0000000000000E+00
-0.1080712774083E+01 -0.2598573344661E+01  0.0000000000000E+00
-0.1084305312776E+01 -0.2527564663401E+01  0.0000000000000E+00
-0.1088672864462E+01 -0.2456601685752E+01  0.0000000000000E+00
-0.1093872940397E+01 -0.2385697993847E+01  0.0000000000000E+00
-0.1099902305238E+01 -0.2314863405415E+01  0.0000000000000E+00
-0.1106676648231E+01 -0.2244099678337E+01  0.0000000000000E+00
-0.1114135782912E+01 -0.2173408489510E+01  0.0000000000000E+00
-0.1122244705194E+01 -0.2102792618679E+01  0.0000000000000E+00
-0.1130991992091E+01 -0.2032256967667E+01  0.0000000000000E+00
-0.1140395174223E+01 -0.1961810429153E+01  0.0000000000000E+00
-0.1150524750544E+01 -0.1891470211900E+01  0.0000000000000E+00
-0.1045006744548E+01 -0.4660372386096E+01  0.0000000000000E+00
-0.1045013489082E+01 -0.4589157794926E+01  0.0000000000000E+00
-0.1045020233658E+01 -0.4517942766438E+01  0.0000000000000E+00
-0.1045026978215E+01 -0.4446727937600E+01  0.0000000000000E+00
-0.1045033722770E+01 -0.4375513122924E+01  0.0000000000000E+00
-0.1045040467328E+01 -0.4304298281489E+01  0.0000000000000E+00
-0.1045047211882E+01 -0.4233083482143E+01  0.0000000000000E+00
-0.1045053956438E+01 -0.4161868656690E+01  0.0000000000000E+00
-0.1045060700994E+01 -0.4090653836468E+01  0.0000000000000E+00
-0.1045067445549E+01 -0.4019439024110E+01  0.0000000000000E+00
-0.1045074190105E+01 -0.3948224196846E+01  0.0000000000000E+00
-0.1045080934660E+01 -0.3877009392935E+01  0.0000000000000E+00
-0.1045087679217E+01 -0.3805794557944E+01  0.0000000000000E+00
-0.1045094423780E+01 -0.3734579664855E+01  0.0000000000000E+00
-0.1045101168341E+01 -0.3663364792032E+01  0.0000000000000E+00
-0.1045107912893E+01 -0.3592150004402E+01  0.0000000000000E+00
-0.1045114657506E+01 -0.3520934588052E+01  0.0000000000000E+00
-0.1045121402005E+01 -0.3449720361602E+01  0.0000000000000E+00
-0.1045128146562E+01 -0.3378505531081E+01  0.0000000000000E+00
-0.1045134891112E+01 -0.3307290778593E+01  0.0000000000000E+00
-0.1045141635652E+01 -0.3236076116811E+01  0.0000000000000E+00
-0.1045148380197E+01 -0.3164861419091E+01  0.0000000000000E+00
-0.1045155124744E+01 -0.3093646689524E+01  0.0000000000000E+00
-0.1045180279185E+01 -0.3022431898726E+01  0.0000000000000E+00
-0.1045342420071E+01 -0.2951217337114E+01  0.0000000000000E+00
-0.1045806197445E+01 -0.2880004340854E+01  0.0000000000000E+00
-0.1046721701225E+01 -0.2808796186706E+01  0.0000000000000E+00
-0.1048199410343E+01 -0.2737598556815E+01  0.0000000000000E+00
-0.1050310182850E+01 -0.2666418596963E+01  0.0000000000000E+00
-0.1053099325844E+01 -0.2595264637382E+01  0.0000000000000E+00
-0.1056602844668E+01 -0.2524145666314E+01  0.0000000000000E+00
-0.1060861471353E+01 -0.2453072398792E+01  0.0000000000000E+00
-0.1065931240050E+01 -0.2382058417274E+01  0.0000000000000E+00
-0.1071808998522E+01 -0.2311113539101E+01  0.0000000000000E+00
-0.1078412601419E+01 -0.2240239522158E+01  0.0000000000000E+00
-0.1085683408080E+01 -0.2169438043419E+01  0.0000000000000E+00
-0.1093587313453E+01 -0.2098711882551E+01  0.0000000000000E+00
-0.1102113187936E+01 -0.2028065941388E+01  0.0000000000000E+00
-0.1111278111887E+01 -0.1957509112984E+01  0.0000000000000E+00
-0.1121150773592E+01 -0.1887058606097E+01  0.0000000000000E+00
-0.1017509482115E+01 -0.4660264886424E+01  0.0000000000000E+00
-0.1017518964210E+01 -0.4588942795806E+01  0.0000000000000E+00
-0.1017528446364E+01 -0.4517620267209E+01  0.0000000000000E+00
-0.1017537928491E+01 -0.4446297938565E+01  0.0000000000000E+00
-0.1017547410616E+01 -0.4374975624103E+01  0.0000000000000E+00
-0.1017556892744E+01 -0.4303653282842E+01  0.0000000000000E+00
-0.1017566374867E+01 -0.4232330983734E+01  0.0000000000000E+00
-0.1017575856993E+01 -0.4161008658479E+01  0.0000000000000E+00
-0.1017585339119E+01 -0.4089686338463E+01  0.0000000000000E+00
-0.1017594821244E+01 -0.4018364026323E+01  0.0000000000000E+00
-0.1017604303371E+01 -0.3947041699254E+01  0.0000000000000E+00
-0.1017613785494E+01 -0.3875719395574E+01  0.0000000000000E+00
-0.1017623267622E+01 -0.3804397060767E+01  0.0000000000000E+00
-0.1017632749757E+01 -0.3733074667774E+01  0.0000000000000E+00
-0.1017642231890E+01 -0.3661752295078E+01  0.0000000000000E+00
-0.1017651714011E+01 -0.3590430007703E+01  0.0000000000000E+00
-0.1017661196216E+01 -0.3519107090659E+01  0.0000000000000E+00
-0.1017670678263E+01 -0.3447785365312E+01  0.0000000000000E+00
-0.1017680160390E+01 -0.3376463034981E+01  0.0000000000000E+00
-0.1017689642507E+01 -0.3305140782802E+01  0.0000000000000E+00
-0.1017699124612E+01 -0.3233818621464E+01  0.0000000000000E+00
-0.1017708606721E+01 -0.3162496424136E+01  0.0000000000000E+00
-0.1017718088835E+01 -0.3091174194911E+01  0.0000000000000E+00
-0.1017745495548E+01 -0.3019851904360E+01  0.0000000000000E+00
-0.1017906277653E+01 -0.2948529843060E+01  0.0000000000000E+00
-0.1018360744909E+01 -0.2877209347299E+01  0.0000000000000E+00
-0.1019255030769E+01 -0.2805893693688E+01  0.0000000000000E+00
-0.1020696701869E+01 -0.2734588564456E+01  0.0000000000000E+00
-0.1022754748397E+01 -0.2663301105260E+01  0.0000000000000E+00
-0.1025473283124E+01 -0.2592039646501E+01  0.0000000000000E+00
-0.1028887362274E+01 -0.2520813176160E+01  0.0000000000000E+00
-0.1033036644157E+01 -0.2449632409301E+01  0.0000000000000E+00
-0.1037975685816E+01 -0.2378510928701E+01  0.0000000000000E+00
-0.1043701418122E+01 -0.2307458551321E+01  0.0000000000000E+00
-0.1050133861127E+01 -0.2236477035050E+01  0.0000000000000E+00
-0.1057215919976E+01 -0.2165568056937E+01  0.0000000000000E+00
-0.1064914388649E+01 -0.2094734396573E+01  0.0000000000000E+00
-0.1073218430927E+01 -0.2023980955804E+01  0.0000000000000E+00
-0.1082144676909E+01 -0.1953316628048E+01  0.0000000000000E+00
-0.1091760004215E+01 -0.1882758622058E+01  0.0000000000000E+00
-0.9900118099064E+00 -0.4660160183698E+01  0.0000000000000E+00
-0.9900236197882E+00 -0.4588733390572E+01  0.0000000000000E+00
-0.9900354297426E+00 -0.4517306158826E+01  0.0000000000000E+00
-0.9900472396638E+00 -0.4445879127324E+01  0.0000000000000E+00
-0.9900590495827E+00 -0.4374452110027E+01  0.0000000000000E+00
-0.9900708595060E+00 -0.4303025065890E+01  0.0000000000000E+00
-0.9900826694223E+00 -0.4231598063968E+01  0.0000000000000E+00
-0.9900944793430E+00 -0.4160171035861E+01  0.0000000000000E+00
-0.9901062892628E+00 -0.4088744013001E+01  0.0000000000000E+00
-0.9901180991813E+00 -0.4017316998028E+01  0.0000000000000E+00
-0.9901299091023E+00 -0.3945889968104E+01  0.0000000000000E+00
-0.9901417190194E+00 -0.3874462961605E+01  0.0000000000000E+00
-0.9901535289416E+00 -0.3803035923932E+01  0.0000000000000E+00
-0.9901653388735E+00 -0.3731608827986E+01  0.0000000000000E+00
-0.9901771488020E+00 -0.3660181752369E+01  0.0000000000000E+00
-0.9901889587164E+00 -0.3588754762198E+01  0.0000000000000E+00
-0.9902007687351E+00 -0.3517327141434E+01  0.0000000000000E+00
-0.9902125785564E+00 -0.3445900714115E+01  0.0000000000000E+00
-0.9902243884779E+00 -0.3374473680925E+01  0.0000000000000E+00
-0.9902361983865E+00 -0.3303046726000E+01  0.0000000000000E+00
-0.9902480082800E+00 -0.3231619862052E+01  0.0000000000000E+00
-0.9902598181795E+00 -0.3160192962059E+01  0.0000000000000E+00
-0.9902716280843E+00 -0.3088766030123E+01  0.0000000000000E+00
-0.9903008772941E+00 -0.3017339036768E+01  0.0000000000000E+00
-0.9904598908441E+00 -0.2945912272726E+01  0.0000000000000E+00
-0.9909046382074E+00 -0.2874487074405E+01  0.0000000000000E+00
-0.9917772963762E+00 -0.2803066718274E+01  0.0000000000000E+00
-0.9931825196868E+00 -0.2731656886637E+01  0.0000000000000E+00
-0.9951874304676E+00 -0.2660264725035E+01  0.0000000000000E+00
-0.9978349471605E+00 -0.2588898564031E+01  0.0000000000000E+00
-0.1001159176873E+01 -0.2517567391354E+01  0.0000000000000E+00
-0.1005198704189E+01 -0.2446281922097E+01  0.0000000000000E+00
-0.1010006609051E+01 -0.2375055739345E+01  0.0000000000000E+00
-0.1015579905431E+01 -0.2303898659692E+01  0.0000000000000E+00
-0.1021840778788E+01 -0.2232812441032E+01  0.0000000000000E+00
-0.1028733680069E+01 -0.2161798760483E+01  0.0000000000000E+00
-0.1036226302287E+01 -0.2090860397566E+01  0.0000000000000E+00
-0.1044308102607E+01 -0.2020002254134E+01  0.0000000000000E+00
-0.1052995260869E+01 -0.1949233223964E+01  0.0000000000000E+00
-0.1062352844026E+01 -0.1878570515803E+01  0.0000000000000E+00
-0.9625137375235E+00 -0.4660058284100E+01  0.0000000000000E+00
-0.9625274750185E+00 -0.4588529591588E+01  0.0000000000000E+00
-0.9625412125977E+00 -0.4517000459829E+01  0.0000000000000E+00
-0.9625549501385E+00 -0.4445471528601E+01  0.0000000000000E+00
-0.9625686876766E+00 -0.4373942611598E+01  0.0000000000000E+00
-0.9625824252198E+00 -0.4302413667716E+01  0.0000000000000E+00
-0.9625961627548E+00 -0.4230884766111E+01  0.0000000000000E+00
-0.9626099002950E+00 -0.4159355838283E+01  0.0000000000000E+00
-0.9626236378341E+00 -0.4087826915708E+01  0.0000000000000E+00
-0.9626373753717E+00 -0.4016298001032E+01  0.0000000000000E+00
-0.9626511129121E+00 -0.3944769071385E+01  0.0000000000000E+00
-0.9626648504481E+00 -0.3873240165195E+01  0.0000000000000E+00
-0.9626785879900E+00 -0.3801711227786E+01  0.0000000000000E+00
-0.9626923255432E+00 -0.3730182232023E+01  0.0000000000000E+00
-0.9627060630925E+00 -0.3658653256616E+01  0.0000000000000E+00
-0.9627198006253E+00 -0.3587124366778E+01  0.0000000000000E+00
-0.9627335382794E+00 -0.3515594845447E+01  0.0000000000000E+00
-0.9627472757039E+00 -0.3444066519263E+01  0.0000000000000E+00
-0.9627610132450E+00 -0.3372537586345E+01  0.0000000000000E+00
-0.9627747507711E+00 -0.3301008731803E+01  0.0000000000000E+00
-0.9627884882796E+00 -0.3229479968367E+01  0.0000000000000E+00
-0.9628022257951E+00 -0.3157951168836E+01  0.0000000000000E+00
-0.9628159633167E+00 -0.3086422337316E+01  0.0000000000000E+00
-0.9628466548485E+00 -0.3014893444285E+01  0.0000000000000E+00
-0.9630034996671E+00 -0.2943364780630E+01  0.0000000000000E+00
-0.9634381269610E+00 -0.2871837682872E+01  0.0000000000000E+00
-0.9642887572571E+00 -0.2800315427341E+01  0.0000000000000E+00
-0.9656571325932E+00 -0.2728803696419E+01  0.0000000000000E+00
-0.9676085074361E+00 -0.2657309635530E+01  0.0000000000000E+00
-0.9701846058996E+00 -0.2585841575395E+01  0.0000000000000E+00
-0.9734185859714E+00 -0.2514408503499E+01  0.0000000000000E+00
-0.9773479585130E+00 -0.2443021134961E+01  0.0000000000000E+00
-0.9820243263633E+00 -0.2371693053170E+01  0.0000000000000E+00
-0.9874447865971E+00 -0.2300434074359E+01  0.0000000000000E+00
-0.9935336900779E+00 -0.2229245956427E+01  0.0000000000000E+00
-0.1000237033557E+01 -0.2158130376562E+01  0.0000000000000E+00
-0.1007523409081E+01 -0.2087090114213E+01  0.0000000000000E+00
-0.1015382567198E+01 -0.2016130071245E+01  0.0000000000000E+00
-0.1023830237492E+01 -0.1945259141781E+01  0.0000000000000E+00
-0.1032929676247E+01 -0.1874494534560E+01  0.0000000000000E+00
-0.9350152757427E+00 -0.4659959193825E+01  0.0000000000000E+00
-0.9350305514535E+00 -0.4588331411245E+01  0.0000000000000E+00
-0.9350458272582E+00 -0.4516703188809E+01  0.0000000000000E+00
-0.9350611030201E+00 -0.4445075167182E+01  0.0000000000000E+00
-0.9350763787789E+00 -0.4373447159799E+01  0.0000000000000E+00
-0.9350916545434E+00 -0.4301819125501E+01  0.0000000000000E+00
-0.9351069302989E+00 -0.4230191133537E+01  0.0000000000000E+00
-0.9351222060600E+00 -0.4158563115315E+01  0.0000000000000E+00
-0.9351374818200E+00 -0.4086935102354E+01  0.0000000000000E+00
-0.9351527575783E+00 -0.4015307097302E+01  0.0000000000000E+00
-0.9351680333398E+00 -0.3943679077257E+01  0.0000000000000E+00
-0.9351833090963E+00 -0.3872051080703E+01  0.0000000000000E+00
-0.9351985848595E+00 -0.3800423052887E+01  0.0000000000000E+00
-0.9352138606351E+00 -0.3728794966635E+01  0.0000000000000E+00
-0.9352291364064E+00 -0.3657166900768E+01  0.0000000000000E+00
-0.9352444121594E+00 -0.3585538920588E+01  0.0000000000000E+00
-0.9352596880473E+00 -0.3513910308040E+01  0.0000000000000E+00
-0.9352749636799E+00 -0.3442282892296E+01  0.0000000000000E+00
-0.9352902394421E+00 -0.3370654868976E+01  0.0000000000000E+00
-0.9353055151876E+00 -0.3299026924142E+01  0.0000000000000E+00
-0.9353207909136E+00 -0.3227399070539E+01  0.0000000000000E+00
-0.9353360666473E+00 -0.3155771180791E+01  0.0000000000000E+00
-0.9353513423878E+00 -0.3084143259010E+01  0.0000000000000E+00
-0.9353830868434E+00 -0.3012515275629E+01  0.0000000000000E+00
-0.9355373735330E+00 -0.2940887521685E+01  0.0000000000000E+00
-0.9359614913613E+00 -0.2869261333809E+01  0.0000000000000E+00
-0.9367897043898E+00 -0.2797639988196E+01  0.0000000000000E+00
-0.9381208423587E+00 -0.2726029167304E+01  0.0000000000000E+00
-0.9400182918724E+00 -0.2654436016443E+01  0.0000000000000E+00
-0.9425225827175E+00 -0.2582868866489E+01  0.0000000000000E+00
-0.9456659237619E+00 -0.2511336704686E+01  0.0000000000000E+00
-0.9494847521435E+00 -0.2439850246183E+01  0.0000000000000E+00
-0.9540291935997E+00 -0.2368423074660E+01  0.0000000000000E+00
-0.9592964283062E+00 -0.2297065006004E+01  0.0000000000000E+00
-0.9652129725315E+00 -0.2225777798115E+01  0.0000000000000E+00
-0.9717263688312E+00 -0.2154563128249E+01  0.0000000000000E+00
-0.9788061082853E+00 -0.2083423775788E+01  0.0000000000000E+00
-0.9864422348236E+00 -0.2012364642606E+01  0.0000000000000E+00
-0.9946500277763E+00 -0.1941394623162E+01  0.0000000000000E+00
-0.1003490932759E+01 -0.1870530926191E+01  0.0000000000000E+00
-0.9075164348415E+00 -0.4659862918834E+01  0.0000000000000E+00
-0.9075328696488E+00 -0.4588138861463E+01  0.0000000000000E+00
-0.9075493045571E+00 -0.4516414363646E+01  0.0000000000000E+00
-0.9075657394192E+00 -0.4444690066907E+01  0.0000000000000E+00
-0.9075821742781E+00 -0.4372965784431E+01  0.0000000000000E+00
-0.9075986091431E+00 -0.4301241475005E+01  0.0000000000000E+00
-0.9076150439985E+00 -0.4229517207969E+01  0.0000000000000E+00
-0.9076314788598E+00 -0.4157792914640E+01  0.0000000000000E+00
-0.9076479137200E+00 -0.4086068626578E+01  0.0000000000000E+00
-0.9076643485783E+00 -0.4014344346436E+01  0.0000000000000E+00
-0.9076807834401E+00 -0.3942620051282E+01  0.0000000000000E+00
-0.9076972182965E+00 -0.3870895779649E+01  0.0000000000000E+00
-0.9077136531601E+00 -0.3799171476713E+01  0.0000000000000E+00
-0.9077300880371E+00 -0.3727447115263E+01  0.0000000000000E+00
-0.9077465229094E+00 -0.3655722774225E+01  0.0000000000000E+00
-0.9077629577620E+00 -0.3583998518988E+01  0.0000000000000E+00
-0.9077793927597E+00 -0.3512273630535E+01  0.0000000000000E+00
-0.9077958274829E+00 -0.3440549940493E+01  0.0000000000000E+00
-0.9078122623454E+00 -0.3368825642059E+01  0.0000000000000E+00
-0.9078286971899E+00 -0.3297101422216E+01  0.0000000000000E+00
-0.9078451320135E+00 -0.3225377293728E+01  0.0000000000000E+00
-0.9078615668454E+00 -0.3153653129045E+01  0.0000000000000E+00
-0.9078780016846E+00 -0.3081928932287E+01  0.0000000000000E+00
-0.9079104199434E+00 -0.3010204673842E+01  0.0000000000000E+00
-0.9080617693840E+00 -0.2938480644892E+01  0.0000000000000E+00
-0.9084749986280E+00 -0.2866758182177E+01  0.0000000000000E+00
-0.9092804152714E+00 -0.2795040561762E+01  0.0000000000000E+00
-0.9105739367573E+00 -0.2723333466175E+01  0.0000000000000E+00
-0.9124170818274E+00 -0.2651644040617E+01  0.0000000000000E+00
-0.9148491859419E+00 -0.2579980616114E+01  0.0000000000000E+00
-0.9179015088477E+00 -0.2508352179677E+01  0.0000000000000E+00
-0.9216094139598E+00 -0.2436769446484E+01  0.0000000000000E+00
-0.9260215499149E+00 -0.2365246000499E+01  0.0000000000000E+00
-0.9311351799888E+00 -0.2293791657267E+01  0.0000000000000E+00
-0.9368789858541E+00 -0.2222408174696E+01  0.0000000000000E+00
-0.9432020558717E+00 -0.2151097230106E+01  0.0000000000000E+00
-0.9500747801533E+00 -0.2079861602812E+01  0.0000000000000E+00
-0.9574874960124E+00 -0.2008706194698E+01  0.0000000000000E+00
-0.9654550325253E+00 -0.1937639900549E+01  0.0000000000000E+00
-0.9740370246404E+00 -0.1866679929097E+01  0.0000000000000E+00
-0.8800172251723E+00 -0.4659769464936E+01  0.0000000000000E+00
-0.8800344503086E+00 -0.4587951953862E+01  0.0000000000000E+00
-0.8800516755508E+00 -0.4516134001767E+01  0.0000000000000E+00
-0.8800689007447E+00 -0.4444316251013E+01  0.0000000000000E+00
-0.8800861259351E+00 -0.4372498514541E+01  0.0000000000000E+00
-0.8801033511320E+00 -0.4300680751083E+01  0.0000000000000E+00
-0.8801205763187E+00 -0.4228863030071E+01  0.0000000000000E+00
-0.8801378015118E+00 -0.4157045282730E+01  0.0000000000000E+00
-0.8801550267036E+00 -0.4085227540665E+01  0.0000000000000E+00
-0.8801722518934E+00 -0.4013409806530E+01  0.0000000000000E+00
-0.8801894770869E+00 -0.3941592057363E+01  0.0000000000000E+00
-0.8802067022748E+00 -0.3869774331747E+01  0.0000000000000E+00
-0.8802239274701E+00 -0.3797956574788E+01  0.0000000000000E+00
-0.8802411526795E+00 -0.3726138759238E+01  0.0000000000000E+00
-0.8802583778840E+00 -0.3654320964127E+01  0.0000000000000E+00
-0.8802756030679E+00 -0.3582503254930E+01  0.0000000000000E+00
-0.8802928284039E+00 -0.3510684911690E+01  0.0000000000000E+00
-0.8803100534520E+00 -0.3438867768424E+01  0.0000000000000E+00
-0.8803272786463E+00 -0.3367050015972E+01  0.0000000000000E+00
-0.8803445038217E+00 -0.3295232342214E+01  0.0000000000000E+00
-0.8803617289752E+00 -0.3223414759930E+01  0.0000000000000E+00
-0.8803789541373E+00 -0.3151597141404E+01  0.0000000000000E+00
-0.8803961793072E+00 -0.3079779490761E+01  0.0000000000000E+00
-0.8804289026007E+00 -0.3007961778347E+01  0.0000000000000E+00
-0.8805769460245E+00 -0.2936144295485E+01  0.0000000000000E+00
-0.8809789179176E+00 -0.2864328379021E+01  0.0000000000000E+00
-0.8817611694101E+00 -0.2792517304890E+01  0.0000000000000E+00
-0.8830167056487E+00 -0.2720716755693E+01  0.0000000000000E+00
-0.8848051775121E+00 -0.2648933876522E+01  0.0000000000000E+00
-0.8871647261348E+00 -0.2577176998550E+01  0.0000000000000E+00
-0.8901256621418E+00 -0.2505455108563E+01  0.0000000000000E+00
-0.8937222752253E+00 -0.2433778921763E+01  0.0000000000000E+00
-0.8980017369228E+00 -0.2362162022393E+01  0.0000000000000E+00
-0.9029613936084E+00 -0.2290614225668E+01  0.0000000000000E+00
-0.9085320923593E+00 -0.2219137289498E+01  0.0000000000000E+00
-0.9146644673410E+00 -0.2147732891269E+01  0.0000000000000E+00
-0.9213298076975E+00 -0.2076403810231E+01  0.0000000000000E+00
-0.9285187441254E+00 -0.2005154948275E+01  0.0000000000000E+00
-0.9362456554485E+00 -0.1933995200506E+01  0.0000000000000E+00
-0.9445683659478E+00 -0.1862941775651E+01  0.0000000000000E+00
-0.8525176569623E+00 -0.4659678837762E+01  0.0000000000000E+00
-0.8525353138878E+00 -0.4587770699704E+01  0.0000000000000E+00
-0.8525529709217E+00 -0.4515862120068E+01  0.0000000000000E+00
-0.8525706279061E+00 -0.4443953742027E+01  0.0000000000000E+00
-0.8525882848871E+00 -0.4372045378286E+01  0.0000000000000E+00
-0.8526059418746E+00 -0.4300136987525E+01  0.0000000000000E+00
-0.8526235988517E+00 -0.4228228639263E+01  0.0000000000000E+00
-0.8526412558353E+00 -0.4156320264640E+01  0.0000000000000E+00
-0.8526589128176E+00 -0.4084411895299E+01  0.0000000000000E+00
-0.8526765697980E+00 -0.4012503533897E+01  0.0000000000000E+00
-0.8526942267820E+00 -0.3940595157445E+01  0.0000000000000E+00
-0.8527118837602E+00 -0.3868686804574E+01  0.0000000000000E+00
-0.8527295407462E+00 -0.3796778420320E+01  0.0000000000000E+00
-0.8527471977466E+00 -0.3724869977402E+01  0.0000000000000E+00
-0.8527648547419E+00 -0.3652961554948E+01  0.0000000000000E+00
-0.8527825117161E+00 -0.3581053218515E+01  0.0000000000000E+00
-0.8528001688462E+00 -0.3509144247241E+01  0.0000000000000E+00
-0.8528178256813E+00 -0.3437236477454E+01  0.0000000000000E+00
-0.8528354826661E+00 -0.3365328097713E+01  0.0000000000000E+00
-0.8528531396316E+00 -0.3293419796766E+01  0.0000000000000E+00
-0.8528707965746E+00 -0.3221511587407E+01  0.0000000000000E+00
-0.8528884535265E+00 -0.3149603341761E+01  0.0000000000000E+00
-0.8529061104864E+00 -0.3077695063957E+01  0.0000000000000E+00
-0.8529387802737E+00 -0.3005786724301E+01  0.0000000000000E+00
-0.8530831591395E+00 -0.2933878614253E+01  0.0000000000000E+00
-0.8534735151404E+00 -0.2861972070759E+01  0.0000000000000E+00
-0.8542322429400E+00 -0.2790070369632E+01  0.0000000000000E+00
-0.8554494353881E+00 -0.2718179193539E+01  0.0000000000000E+00
-0.8571828755004E+00 -0.2646305687471E+01  0.0000000000000E+00
-0.8594695100855E+00 -0.2574458182743E+01  0.0000000000000E+00
-0.8623387006461E+00 -0.2502645665919E+01  0.0000000000000E+00
-0.8658236631514E+00 -0.2430878852229E+01  0.0000000000000E+00
-0.8699700920406E+00 -0.2359171326182E+01  0.0000000000000E+00
-0.8747754167849E+00 -0.2287532902676E+01  0.0000000000000E+00
-0.8801726498660E+00 -0.2215965339624E+01  0.0000000000000E+00
-0.8861139712552E+00 -0.2144470314473E+01  0.0000000000000E+00
-0.8925715691276E+00 -0.2073050606409E+01  0.0000000000000E+00
-0.8995363675637E+00 -0.2001711117336E+01  0.0000000000000E+00
-0.9070222951358E+00 -0.1930460742663E+01  0.0000000000000E+00
-0.9150853654571E+00 -0.1859316691115E+01  0.0000000000000E+00
-0.8250177407139E+00 -0.4659591042819E+01  0.0000000000000E+00
-0.8250354813908E+00 -0.4587595110000E+01  0.0000000000000E+00
-0.8250532221767E+00 -0.4515598735065E+01  0.0000000000000E+00
-0.8250709629128E+00 -0.4443602561971E+01  0.0000000000000E+00
-0.8250887036454E+00 -0.4371606403194E+01  0.0000000000000E+00
-0.8251064443847E+00 -0.4299610217364E+01  0.0000000000000E+00
-0.8251241851135E+00 -0.4227614074085E+01  0.0000000000000E+00
-0.8251419258488E+00 -0.4155617904413E+01  0.0000000000000E+00
-0.8251596665828E+00 -0.4083621740029E+01  0.0000000000000E+00
-0.8251774073148E+00 -0.4011625583594E+01  0.0000000000000E+00
-0.8251951480505E+00 -0.3939629412091E+01  0.0000000000000E+00
-0.8252128887805E+00 -0.3867633264198E+01  0.0000000000000E+00
-0.8252306295181E+00 -0.3795637084882E+01  0.0000000000000E+00
-0.8252483702703E+00 -0.3723640846831E+01  0.0000000000000E+00
-0.8252661110174E+00 -0.3651644629270E+01  0.0000000000000E+00
-0.8252838517432E+00 -0.3579648497835E+01  0.0000000000000E+00
-0.8253015926257E+00 -0.3507651730783E+01  0.0000000000000E+00
-0.8253193332118E+00 -0.3435656166686E+01  0.0000000000000E+00
-0.8253370739484E+00 -0.3363659991889E+01  0.0000000000000E+00
-0.8253548146655E+00 -0.3291663895982E+01  0.0000000000000E+00
-0.8253725553600E+00 -0.3219667891776E+01  0.0000000000000E+00
-0.8253902960635E+00 -0.3147671851239E+01  0.0000000000000E+00
-0.8254080367749E+00 -0.3075675778504E+01  0.0000000000000E+00
-0.8254403050173E+00 -0.3003679643838E+01  0.0000000000000E+00
-0.8255806712862E+00 -0.2931683738833E+01  0.0000000000000E+00
-0.8259590633559E+00 -0.2859689400535E+01  0.0000000000000E+00
-0.8266939194225E+00 -0.2787699904637E+01  0.0000000000000E+00
-0.8278724200392E+00 -0.2715720933871E+01  0.0000000000000E+00
-0.8295504803575E+00 -0.2643759633128E+01  0.0000000000000E+00
-0.8317638528612E+00 -0.2571824333859E+01  0.0000000000000E+00
-0.8345409499295E+00 -0.2499924022419E+01  0.0000000000000E+00
-0.8379139138084E+00 -0.2428069414060E+01  0.0000000000000E+00
-0.8419269618398E+00 -0.2356274093551E+01  0.0000000000000E+00
-0.8465776065910E+00 -0.2284547875482E+01  0.0000000000000E+00
-0.8518010259485E+00 -0.2212892517768E+01  0.0000000000000E+00
-0.8575509456891E+00 -0.2141309697916E+01  0.0000000000000E+00
-0.8638004530197E+00 -0.2069802195054E+01  0.0000000000000E+00
-0.8705407654042E+00 -0.1998374911091E+01  0.0000000000000E+00
-0.8777853611645E+00 -0.1927036741736E+01  0.0000000000000E+00
-0.8855884432463E+00 -0.1855804895709E+01  0.0000000000000E+00
-0.7975174872200E+00 -0.4659506085482E+01  0.0000000000000E+00
-0.7975349744037E+00 -0.4587425195502E+01  0.0000000000000E+00
-0.7975524616947E+00 -0.4515343862885E+01  0.0000000000000E+00
-0.7975699489366E+00 -0.4443262732347E+01  0.0000000000000E+00
-0.7975874361751E+00 -0.4371181616143E+01  0.0000000000000E+00
-0.7976049234202E+00 -0.4299100472854E+01  0.0000000000000E+00
-0.7976224106549E+00 -0.4227019372167E+01  0.0000000000000E+00
-0.7976398978961E+00 -0.4154938245055E+01  0.0000000000000E+00
-0.7976573851359E+00 -0.4082857123237E+01  0.0000000000000E+00
-0.7976748723739E+00 -0.4010776009378E+01  0.0000000000000E+00
-0.7976923596155E+00 -0.3938694880433E+01  0.0000000000000E+00
-0.7977098468513E+00 -0.3866613775126E+01  0.0000000000000E+00
-0.7977273340948E+00 -0.3794532638359E+01  0.0000000000000E+00
-0.7977448213526E+00 -0.3722451442787E+01  0.0000000000000E+00
-0.7977623086053E+00 -0.3650370267730E+01  0.0000000000000E+00
-0.7977797958372E+00 -0.3578289178900E+01  0.0000000000000E+00
-0.7977972832234E+00 -0.3506207453703E+01  0.0000000000000E+00
-0.7978147703175E+00 -0.3434126932881E+01  0.0000000000000E+00
-0.7978322575599E+00 -0.3362045800638E+01  0.0000000000000E+00
-0.7978497447831E+00 -0.3289964747379E+01  0.0000000000000E+00
-0.7978672319841E+00 -0.3217883785928E+01  0.0000000000000E+00
-0.7978847191938E+00 -0.3145802788103E+01  0.0000000000000E+00
-0.7979022064114E+00 -0.3073721758043E+01  0.0000000000000E+00
-0.7979337358632E+00 -0.3001640665976E+01  0.0000000000000E+00
-0.7980697522901E+00 -0.2929559803621E+01  0.0000000000000E+00
-0.7984358431845E+00 -0.2857480508120E+01  0.0000000000000E+00
-0.7991464902748E+00 -0.2785406055050E+01  0.0000000000000E+00
-0.8002859618180E+00 -0.2713342127208E+01  0.0000000000000E+00
-0.8019083051015E+00 -0.2641295869387E+01  0.0000000000000E+00
-0.8040480782847E+00 -0.2569275613171E+01  0.0000000000000E+00
-0.8067327446223E+00 -0.2497290344709E+01  0.0000000000000E+00
-0.8099933726376E+00 -0.2425350779278E+01  0.0000000000000E+00
-0.8138727025763E+00 -0.2353470501899E+01  0.0000000000000E+00
-0.8183683301003E+00 -0.2281659326859E+01  0.0000000000000E+00
-0.8234175985009E+00 -0.2209919012080E+01  0.0000000000000E+00
-0.8289757793607E+00 -0.2138251235127E+01  0.0000000000000E+00
-0.8350168589179E+00 -0.2066658775066E+01  0.0000000000000E+00
-0.8415323480198E+00 -0.1995146533818E+01  0.0000000000000E+00
-0.8485352747396E+00 -0.1923723407379E+01  0.0000000000000E+00
-0.8560780313548E+00 -0.1852406604464E+01  0.0000000000000E+00
-0.7700169071112E+00 -0.4659423970938E+01  0.0000000000000E+00
-0.7700338141872E+00 -0.4587260966585E+01  0.0000000000000E+00
-0.7700507213671E+00 -0.4515097519091E+01  0.0000000000000E+00
-0.7700676284995E+00 -0.4442934273906E+01  0.0000000000000E+00
-0.7700845356285E+00 -0.4370771043071E+01  0.0000000000000E+00
-0.7701014427640E+00 -0.4298607785120E+01  0.0000000000000E+00
-0.7701183498894E+00 -0.4226444569820E+01  0.0000000000000E+00
-0.7701352570210E+00 -0.4154281328065E+01  0.0000000000000E+00
-0.7701521641514E+00 -0.4082118091610E+01  0.0000000000000E+00
-0.7701690712799E+00 -0.4009954863123E+01  0.0000000000000E+00
-0.7701859784119E+00 -0.3937791619533E+01  0.0000000000000E+00
-0.7702028855385E+00 -0.3865628399607E+01  0.0000000000000E+00
-0.7702197926723E+00 -0.3793465148187E+01  0.0000000000000E+00
-0.7702366998200E+00 -0.3721301837894E+01  0.0000000000000E+00
-0.7702536069629E+00 -0.3649138548138E+01  0.0000000000000E+00
-0.7702705140855E+00 -0.3576975344709E+01  0.0000000000000E+00
-0.7702874213574E+00 -0.3504811504187E+01  0.0000000000000E+00
-0.7703043283468E+00 -0.3432648869413E+01  0.0000000000000E+00
-0.7703212354797E+00 -0.3360485622521E+01  0.0000000000000E+00
-0.7703381425940E+00 -0.3288322454703E+01  0.0000000000000E+00
-0.7703550496867E+00 -0.3216159378797E+01  0.0000000000000E+00
-0.7703719567880E+00 -0.3143996266477E+01  0.0000000000000E+00
-0.7703888638969E+00 -0.3071833121884E+01  0.0000000000000E+00
-0.7704193279429E+00 -0.2999669915210E+01  0.0000000000000E+00
-0.7705506679129E+00 -0.2927506938299E+01  0.0000000000000E+00
-0.7709041310181E+00 -0.2855345528385E+01  0.0000000000000E+00
-0.7715902425191E+00 -0.2783188960931E+01  0.0000000000000E+00
-0.7726903583770E+00 -0.2711042918797E+01  0.0000000000000E+00
-0.7742566580147E+00 -0.2638914546683E+01  0.0000000000000E+00
-0.7763225052677E+00 -0.2566812176300E+01  0.0000000000000E+00
-0.7789144142657E+00 -0.2494744793600E+01  0.0000000000000E+00
-0.7820623798096E+00 -0.2422723113881E+01  0.0000000000000E+00
-0.7858076650495E+00 -0.2350760722408E+01  0.0000000000000E+00
-0.7901479487410E+00 -0.2278867433179E+01  0.0000000000000E+00
-0.7950227395800E+00 -0.2207045004120E+01  0.0000000000000E+00
-0.8003888549551E+00 -0.2135295112850E+01  0.0000000000000E+00
-0.8062211801355E+00 -0.2063620538380E+01  0.0000000000000E+00
-0.8125115193522E+00 -0.1992026182637E+01  0.0000000000000E+00
-0.8192724504302E+00 -0.1920520941899E+01  0.0000000000000E+00
-0.8265545549795E+00 -0.1849122024875E+01  0.0000000000000E+00
-0.7425160110831E+00 -0.4659344704214E+01  0.0000000000000E+00
-0.7425320221329E+00 -0.4587102433304E+01  0.0000000000000E+00
-0.7425480332810E+00 -0.4514859718765E+01  0.0000000000000E+00
-0.7425640443842E+00 -0.4442617206757E+01  0.0000000000000E+00
-0.7425800554842E+00 -0.4370374709116E+01  0.0000000000000E+00
-0.7425960665902E+00 -0.4298132184328E+01  0.0000000000000E+00
-0.7426120776868E+00 -0.4225889702238E+01  0.0000000000000E+00
-0.7426280887892E+00 -0.4153647193664E+01  0.0000000000000E+00
-0.7426440998905E+00 -0.4081404690396E+01  0.0000000000000E+00
-0.7426601109900E+00 -0.4009162195105E+01  0.0000000000000E+00
-0.7426761220928E+00 -0.3936919684694E+01  0.0000000000000E+00
-0.7426921331904E+00 -0.3864677197973E+01  0.0000000000000E+00
-0.7427081442950E+00 -0.3792434679724E+01  0.0000000000000E+00
-0.7427241554126E+00 -0.3720192102536E+01  0.0000000000000E+00
-0.7427401665257E+00 -0.3647949545909E+01  0.0000000000000E+00
-0.7427561776197E+00 -0.3575707075704E+01  0.0000000000000E+00
-0.7427721888549E+00 -0.3503463967706E+01  0.0000000000000E+00
-0.7427881998227E+00 -0.3431222066779E+01  0.0000000000000E+00
-0.7428042109263E+00 -0.3358979553063E+01  0.0000000000000E+00
-0.7428202220123E+00 -0.3286737118507E+01  0.0000000000000E+00
-0.7428362330780E+00 -0.3214494775965E+01  0.0000000000000E+00
-0.7428522441517E+00 -0.3142252396968E+01  0.0000000000000E+00
-0.7428682552326E+00 -0.3070009985662E+01  0.0000000000000E+00
-0.7428973379532E+00 -0.2997767512206E+01  0.0000000000000E+00
-0.7430236855472E+00 -0.2925525268560E+01  0.0000000000000E+00
-0.7433642049450E+00 -0.2853284592048E+01  0.0000000000000E+00
-0.7440254649391E+00 -0.2781048758026E+01  0.0000000000000E+00
-0.7450859091951E+00 -0.2708823449412E+01  0.0000000000000E+00
-0.7465958492710E+00 -0.2636615810817E+01  0.0000000000000E+00
-0.7485874546793E+00 -0.2564434174075E+01  0.0000000000000E+00
-0.7510862904237E+00 -0.2492287524946E+01  0.0000000000000E+00
-0.7541212775826E+00 -0.2420186578752E+01  0.0000000000000E+00
-0.7577322022120E+00 -0.2348144920990E+01  0.0000000000000E+00
-0.7619168261599E+00 -0.2276172365381E+01  0.0000000000000E+00
-0.7666168235266E+00 -0.2204270669853E+01  0.0000000000000E+00
-0.7717905575071E+00 -0.2132441512079E+01  0.0000000000000E+00
-0.7774138124011E+00 -0.2060687671016E+01  0.0000000000000E+00
-0.7834786858233E+00 -0.1989014048599E+01  0.0000000000000E+00
-0.7899973053517E+00 -0.1917429541373E+01  0.0000000000000E+00
-0.7970184419288E+00 -0.1845951358046E+01  0.0000000000000E+00
-0.7150148098282E+00 -0.4659268290171E+01  0.0000000000000E+00
-0.7150296196255E+00 -0.4586949605377E+01  0.0000000000000E+00
-0.7150444295138E+00 -0.4514630476484E+01  0.0000000000000E+00
-0.7150592393606E+00 -0.4442311550338E+01  0.0000000000000E+00
-0.7150740492044E+00 -0.4369992638572E+01  0.0000000000000E+00
-0.7150888590538E+00 -0.4297673699632E+01  0.0000000000000E+00
-0.7151036688944E+00 -0.4225354803435E+01  0.0000000000000E+00
-0.7151184787405E+00 -0.4153035880725E+01  0.0000000000000E+00
-0.7151332885855E+00 -0.4080716963328E+01  0.0000000000000E+00
-0.7151480984288E+00 -0.4008398053915E+01  0.0000000000000E+00
-0.7151629082753E+00 -0.3936079129367E+01  0.0000000000000E+00
-0.7151777181168E+00 -0.3863760228534E+01  0.0000000000000E+00
-0.7151925279649E+00 -0.3791441296138E+01  0.0000000000000E+00
-0.7152073378250E+00 -0.3719122304743E+01  0.0000000000000E+00
-0.7152221476809E+00 -0.3646803333930E+01  0.0000000000000E+00
-0.7152369575191E+00 -0.3574484449629E+01  0.0000000000000E+00
-0.7152517674881E+00 -0.3502164926862E+01  0.0000000000000E+00
-0.7152665772096E+00 -0.3429846612442E+01  0.0000000000000E+00
-0.7152813870567E+00 -0.3357527684586E+01  0.0000000000000E+00
-0.7152961968876E+00 -0.3285208835972E+01  0.0000000000000E+00
-0.7153110066996E+00 -0.3212890079470E+01  0.0000000000000E+00
-0.7153258165191E+00 -0.3140571286475E+01  0.0000000000000E+00
-0.7153406263452E+00 -0.3068252461137E+01  0.0000000000000E+00
-0.7153680225135E+00 -0.2995933573580E+01  0.0000000000000E+00
-0.7154890725045E+00 -0.2923614915879E+01  0.0000000000000E+00
-0.7158163429684E+00 -0.2851297825445E+01  0.0000000000000E+00
-0.7164524462290E+00 -0.2778985577529E+01  0.0000000000000E+00
-0.7174729136566E+00 -0.2706683855107E+01  0.0000000000000E+00
-0.7189261889441E+00 -0.2634399802702E+01  0.0000000000000E+00
-0.7208432472812E+00 -0.2562141752268E+01  0.0000000000000E+00
-0.7232487045449E+00 -0.2489918689380E+01  0.0000000000000E+00
-0.7261704080913E+00 -0.2417741329381E+01  0.0000000000000E+00
-0.7296466668831E+00 -0.2345623257995E+01  0.0000000000000E+00
-0.7336753258596E+00 -0.2273574288674E+01  0.0000000000000E+00
-0.7382002245257E+00 -0.2201596179347E+01  0.0000000000000E+00
-0.7431812718828E+00 -0.2129690607742E+01  0.0000000000000E+00
-0.7485951512610E+00 -0.2057860352761E+01  0.0000000000000E+00
-0.7544342536587E+00 -0.1986110316347E+01  0.0000000000000E+00
-0.7607102564081E+00 -0.1914449395305E+01  0.0000000000000E+00
-0.7674701197840E+00 -0.1842894798340E+01  0.0000000000000E+00
-0.6875133140180E+00 -0.4659194733497E+01  0.0000000000000E+00
-0.6875266280083E+00 -0.4586802492181E+01  0.0000000000000E+00
-0.6875399420804E+00 -0.4514409806315E+01  0.0000000000000E+00
-0.6875532561151E+00 -0.4442017323401E+01  0.0000000000000E+00
-0.6875665701472E+00 -0.4369624854884E+01  0.0000000000000E+00
-0.6875798841843E+00 -0.4297232359164E+01  0.0000000000000E+00
-0.6875931982135E+00 -0.4224839906230E+01  0.0000000000000E+00
-0.6876065122476E+00 -0.4152447426757E+01  0.0000000000000E+00
-0.6876198262808E+00 -0.4080054952602E+01  0.0000000000000E+00
-0.6876331403124E+00 -0.4007662486439E+01  0.0000000000000E+00
-0.6876464543469E+00 -0.3935270005125E+01  0.0000000000000E+00
-0.6876597683769E+00 -0.3862877547551E+01  0.0000000000000E+00
-0.6876730824128E+00 -0.3790485058383E+01  0.0000000000000E+00
-0.6876863964596E+00 -0.3718092510154E+01  0.0000000000000E+00
-0.6876997105025E+00 -0.3645699982529E+01  0.0000000000000E+00
-0.6877130245296E+00 -0.3573307541504E+01  0.0000000000000E+00
-0.6877263386741E+00 -0.3500914461363E+01  0.0000000000000E+00
-0.6877396525963E+00 -0.3428522590798E+01  0.0000000000000E+00
-0.6877529666313E+00 -0.3356130106173E+01  0.0000000000000E+00
-0.6877662806518E+00 -0.3283737700872E+01  0.0000000000000E+00
-0.6877795946553E+00 -0.3211345387775E+01  0.0000000000000E+00
-0.6877929086655E+00 -0.3138953038149E+01  0.0000000000000E+00
-0.6878062226817E+00 -0.3066560656146E+01  0.0000000000000E+00
-0.6878316377421E+00 -0.2994168211858E+01  0.0000000000000E+00
-0.6879470955743E+00 -0.2921775997472E+01  0.0000000000000E+00
-0.6882608225479E+00 -0.2849385350480E+01  0.0000000000000E+00
-0.6888714745171E+00 -0.2776999546033E+01  0.0000000000000E+00
-0.6898516705568E+00 -0.2704624267162E+01  0.0000000000000E+00
-0.6912479864942E+00 -0.2632266658308E+01  0.0000000000000E+00
-0.6930902031963E+00 -0.2559935051537E+01  0.0000000000000E+00
-0.6954019874130E+00 -0.2487638432247E+01  0.0000000000000E+00
-0.6982101127777E+00 -0.2415387515803E+01  0.0000000000000E+00
-0.7015514111604E+00 -0.2343195888146E+01  0.0000000000000E+00
-0.7054238105909E+00 -0.2271073362469E+01  0.0000000000000E+00
-0.7097733159789E+00 -0.2199021696703E+01  0.0000000000000E+00
-0.7145613821325E+00 -0.2127042568627E+01  0.0000000000000E+00
-0.7197655914124E+00 -0.2055138757093E+01  0.0000000000000E+00
-0.7253786282006E+00 -0.1983315164049E+01  0.0000000000000E+00
-0.7314117195845E+00 -0.1911580686551E+01  0.0000000000000E+00
-0.7379100151708E+00 -0.1839952533300E+01  0.0000000000000E+00
-0.6600115347780E+00 -0.4659124038756E+01  0.0000000000000E+00
-0.6600230695320E+00 -0.4586661102847E+01  0.0000000000000E+00
-0.6600346043568E+00 -0.4514197721954E+01  0.0000000000000E+00
-0.6600461391493E+00 -0.4441734544211E+01  0.0000000000000E+00
-0.6600576739395E+00 -0.4369271380878E+01  0.0000000000000E+00
-0.6600692087340E+00 -0.4296808190316E+01  0.0000000000000E+00
-0.6600807435217E+00 -0.4224345042582E+01  0.0000000000000E+00
-0.6600922783136E+00 -0.4151881868284E+01  0.0000000000000E+00
-0.6601038131047E+00 -0.4079418699308E+01  0.0000000000000E+00
-0.6601153478945E+00 -0.4006955538333E+01  0.0000000000000E+00
-0.6601268826867E+00 -0.3934492362191E+01  0.0000000000000E+00
-0.6601384174751E+00 -0.3862029209812E+01  0.0000000000000E+00
-0.6601499522686E+00 -0.3789566025808E+01  0.0000000000000E+00
-0.6601614870715E+00 -0.3717102782687E+01  0.0000000000000E+00
-0.6601730218711E+00 -0.3644639560188E+01  0.0000000000000E+00
-0.6601845566569E+00 -0.3572176424375E+01  0.0000000000000E+00
-0.6601960915445E+00 -0.3499712648821E+01  0.0000000000000E+00
-0.6602076262394E+00 -0.3427250084026E+01  0.0000000000000E+00
-0.6602191610322E+00 -0.3354786904570E+01  0.0000000000000E+00
-0.6602306958123E+00 -0.3282323804515E+01  0.0000000000000E+00
-0.6602422305777E+00 -0.3209860796755E+01  0.0000000000000E+00
-0.6602537653490E+00 -0.3137397752429E+01  0.0000000000000E+00
-0.6602653001253E+00 -0.3064934675696E+01  0.0000000000000E+00
-0.6602884506478E+00 -0.2992471536614E+01  0.0000000000000E+00
-0.6603980328915E+00 -0.2920008627477E+01  0.0000000000000E+00
-0.6606979329459E+00 -0.2847547285856E+01  0.0000000000000E+00
-0.6612828501955E+00 -0.2775090786807E+01  0.0000000000000E+00
-0.6622224914199E+00 -0.2702644813413E+01  0.0000000000000E+00
-0.6635615645806E+00 -0.2630216510033E+01  0.0000000000000E+00
-0.6653286562223E+00 -0.2557814208847E+01  0.0000000000000E+00
-0.6675464839670E+00 -0.2485446895079E+01  0.0000000000000E+00
-0.6702407477259E+00 -0.2413125284116E+01  0.0000000000000E+00
-0.6734468022770E+00 -0.2340862962106E+01  0.0000000000000E+00
-0.6771626587394E+00 -0.2268669741993E+01  0.0000000000000E+00
-0.6813364874278E+00 -0.2196547381714E+01  0.0000000000000E+00
-0.6859312889571E+00 -0.2124497559093E+01  0.0000000000000E+00
-0.6909255447183E+00 -0.2052523052934E+01  0.0000000000000E+00
-0.6963122324769E+00 -0.1980628765193E+01  0.0000000000000E+00
-0.7021021290765E+00 -0.1908823593166E+01  0.0000000000000E+00
-0.7083385734561E+00 -0.1837124745548E+01  0.0000000000000E+00
-0.6325094830437E+00 -0.4659056210321E+01  0.0000000000000E+00
-0.6325189660676E+00 -0.4586525446119E+01  0.0000000000000E+00
-0.6325284491498E+00 -0.4513994236516E+01  0.0000000000000E+00
-0.6325379322054E+00 -0.4441463230253E+01  0.0000000000000E+00
-0.6325474152591E+00 -0.4368932238414E+01  0.0000000000000E+00
-0.6325568983163E+00 -0.4296401219321E+01  0.0000000000000E+00
-0.6325663813680E+00 -0.4223870243095E+01  0.0000000000000E+00
-0.6325758644231E+00 -0.4151339240280E+01  0.0000000000000E+00
-0.6325853474776E+00 -0.4078808242792E+01  0.0000000000000E+00
-0.6325948305309E+00 -0.4006277253313E+01  0.0000000000000E+00
-0.6326043135863E+00 -0.3933746248653E+01  0.0000000000000E+00
-0.6326137966386E+00 -0.3861215267778E+01  0.0000000000000E+00
-0.6326232796950E+00 -0.3788684255248E+01  0.0000000000000E+00
-0.6326327627591E+00 -0.3716153183546E+01  0.0000000000000E+00
-0.6326422458206E+00 -0.3643622132486E+01  0.0000000000000E+00
-0.6326517288707E+00 -0.3571091168192E+01  0.0000000000000E+00
-0.6326612120045E+00 -0.3498559563559E+01  0.0000000000000E+00
-0.6326706949798E+00 -0.3426029170817E+01  0.0000000000000E+00
-0.6326801780356E+00 -0.3353498162840E+01  0.0000000000000E+00
-0.6326896610811E+00 -0.3280967234338E+01  0.0000000000000E+00
-0.6326991441144E+00 -0.3208436398218E+01  0.0000000000000E+00
-0.6327086271525E+00 -0.3135905525497E+01  0.0000000000000E+00
-0.6327181101949E+00 -0.3063374620339E+01  0.0000000000000E+00
-0.6327387236849E+00 -0.2990843652771E+01  0.0000000000000E+00
-0.6328421578459E+00 -0.2918312915189E+01  0.0000000000000E+00
-0.6331279584877E+00 -0.2845783745241E+01  0.0000000000000E+00
-0.6336868685247E+00 -0.2773259417889E+01  0.0000000000000E+00
-0.6345856824418E+00 -0.2700745616269E+01  0.0000000000000E+00
-0.6358672403342E+00 -0.2628249484662E+01  0.0000000000000E+00
-0.6375589344252E+00 -0.2555779355352E+01  0.0000000000000E+00
-0.6396825332080E+00 -0.2483344213402E+01  0.0000000000000E+00
-0.6422626628715E+00 -0.2410954774215E+01  0.0000000000000E+00
-0.6453332011029E+00 -0.2338624624143E+01  0.0000000000000E+00
-0.6488922421098E+00 -0.2266363575889E+01  0.0000000000000E+00
-0.6528901216113E+00 -0.2194173387393E+01  0.0000000000000E+00
-0.6572913860296E+00 -0.2122055736525E+01  0.0000000000000E+00
-0.6620754157856E+00 -0.2050013402043E+01  0.0000000000000E+00
-0.6672354820285E+00 -0.1978051285908E+01  0.0000000000000E+00
-0.6727819113590E+00 -0.1906178285648E+01  0.0000000000000E+00
-0.6787562320482E+00 -0.1834411609955E+01  0.0000000000000E+00
-0.6050071698059E+00 -0.4658991252397E+01  0.0000000000000E+00
-0.6050143395968E+00 -0.4586395530405E+01  0.0000000000000E+00
-0.6050215094317E+00 -0.4513799362613E+01  0.0000000000000E+00
-0.6050286792466E+00 -0.4441203398345E+01  0.0000000000000E+00
-0.6050358490600E+00 -0.4368607448512E+01  0.0000000000000E+00
-0.6050430188761E+00 -0.4296011471401E+01  0.0000000000000E+00
-0.6050501886880E+00 -0.4223415537196E+01  0.0000000000000E+00
-0.6050573585025E+00 -0.4150819576378E+01  0.0000000000000E+00
-0.6050645283165E+00 -0.4078223620892E+01  0.0000000000000E+00
-0.6050716981297E+00 -0.4005627673422E+01  0.0000000000000E+00
-0.6050788679444E+00 -0.3933031710757E+01  0.0000000000000E+00
-0.6050860377568E+00 -0.3860435771899E+01  0.0000000000000E+00
-0.6050932075722E+00 -0.3787839801358E+01  0.0000000000000E+00
-0.6051003773936E+00 -0.3715243771590E+01  0.0000000000000E+00
-0.6051075472128E+00 -0.3642647762484E+01  0.0000000000000E+00
-0.6051147170235E+00 -0.3570051840222E+01  0.0000000000000E+00
-0.6051218868976E+00 -0.3497455277047E+01  0.0000000000000E+00
-0.6051290566518E+00 -0.3424859926848E+01  0.0000000000000E+00
-0.6051362264668E+00 -0.3352263960863E+01  0.0000000000000E+00
-0.6051433962740E+00 -0.3279668074425E+01  0.0000000000000E+00
-0.6051505660720E+00 -0.3207072280451E+01  0.0000000000000E+00
-0.6051577358736E+00 -0.3134476449843E+01  0.0000000000000E+00
-0.6051649056785E+00 -0.3061880586770E+01  0.0000000000000E+00
-0.6051827206324E+00 -0.2989284661228E+01  0.0000000000000E+00
-0.6052797452072E+00 -0.2916688965711E+01  0.0000000000000E+00
-0.6055511849337E+00 -0.2844094837942E+01  0.0000000000000E+00
-0.6060838262558E+00 -0.2771505552792E+01  0.0000000000000E+00
-0.6069415513641E+00 -0.2698926793447E+01  0.0000000000000E+00
-0.6081653324871E+00 -0.2626365704114E+01  0.0000000000000E+00
-0.6097813675272E+00 -0.2553830617177E+01  0.0000000000000E+00
-0.6118104758481E+00 -0.2481330517544E+01  0.0000000000000E+00
-0.6142762099169E+00 -0.2408876120636E+01  0.0000000000000E+00
-0.6172109703304E+00 -0.2336481012995E+01  0.0000000000000E+00
-0.6206129343837E+00 -0.2264155007098E+01  0.0000000000000E+00
-0.6244346032008E+00 -0.2191899860885E+01  0.0000000000000E+00
-0.6286420690109E+00 -0.2119717252272E+01  0.0000000000000E+00
-0.6332156112646E+00 -0.2047609959972E+01  0.0000000000000E+00
-0.6381487944950E+00 -0.1975582885952E+01  0.0000000000000E+00
-0.6434514950607E+00 -0.1903644927961E+01  0.0000000000000E+00
-0.6491634305650E+00 -0.1831813294687E+01  0.0000000000000E+00
-0.5775046061084E+00 -0.4658929169017E+01  0.0000000000000E+00
-0.5775092122072E+00 -0.4586271363775E+01  0.0000000000000E+00
-0.5775138183343E+00 -0.4513613112352E+01  0.0000000000000E+00
-0.5775184244485E+00 -0.4440955064626E+01  0.0000000000000E+00
-0.5775230305618E+00 -0.4368297031349E+01  0.0000000000000E+00
-0.5775276366768E+00 -0.4295638970769E+01  0.0000000000000E+00
-0.5775322427890E+00 -0.4222980953132E+01  0.0000000000000E+00
-0.5775368489030E+00 -0.4150322908860E+01  0.0000000000000E+00
-0.5775414550166E+00 -0.4077664869924E+01  0.0000000000000E+00
-0.5775460611297E+00 -0.4005006839010E+01  0.0000000000000E+00
-0.5775506672438E+00 -0.3932348792890E+01  0.0000000000000E+00
-0.5775552733564E+00 -0.3859690770596E+01  0.0000000000000E+00
-0.5775598794710E+00 -0.3787032716592E+01  0.0000000000000E+00
-0.5775644855893E+00 -0.3714374603311E+01  0.0000000000000E+00
-0.5775690917063E+00 -0.3641716510709E+01  0.0000000000000E+00
-0.5775736978178E+00 -0.3569058505025E+01  0.0000000000000E+00
-0.5775783039700E+00 -0.3496399857880E+01  0.0000000000000E+00
-0.5775829100452E+00 -0.3423742424750E+01  0.0000000000000E+00
-0.5775875161595E+00 -0.3351084375306E+01  0.0000000000000E+00
-0.5775921222688E+00 -0.3278426405476E+01  0.0000000000000E+00
-0.5775967283721E+00 -0.3205768528191E+01  0.0000000000000E+00
-0.5776013344778E+00 -0.3133110614240E+01  0.0000000000000E+00
-0.5776059405856E+00 -0.3060452667796E+01  0.0000000000000E+00
-0.5776207065436E+00 -0.2987794658827E+01  0.0000000000000E+00
-0.5777110710727E+00 -0.2915136879922E+01  0.0000000000000E+00
-0.5779678994248E+00 -0.2842480668871E+01  0.0000000000000E+00
-0.5784740215735E+00 -0.2769829300463E+01  0.0000000000000E+00
-0.5792904074149E+00 -0.2697188457929E+01  0.0000000000000E+00
-0.5804561613110E+00 -0.2624565285406E+01  0.0000000000000E+00
-0.5819962868433E+00 -0.2551968115375E+01  0.0000000000000E+00
-0.5839306542459E+00 -0.2479405932593E+01  0.0000000000000E+00
-0.5862817422636E+00 -0.2406889452499E+01  0.0000000000000E+00
-0.5890804744040E+00 -0.2334432261820E+01  0.0000000000000E+00
-0.5923251110489E+00 -0.2262044172811E+01  0.0000000000000E+00
-0.5959703187267E+00 -0.2189726943418E+01  0.0000000000000E+00
-0.5999837354740E+00 -0.2117482251598E+01  0.0000000000000E+00
-0.6043465397710E+00 -0.2045312876019E+01  0.0000000000000E+00
-0.6090525895346E+00 -0.1973223718658E+01  0.0000000000000E+00
-0.6141113108821E+00 -0.1901223677472E+01  0.0000000000000E+00
-0.6195606107491E+00 -0.1829329961147E+01  0.0000000000000E+00
-0.5500018030462E+00 -0.4658869964047E+01  0.0000000000000E+00
-0.5500036060886E+00 -0.4586152953959E+01  0.0000000000000E+00
-0.5500054091420E+00 -0.4513435497326E+01  0.0000000000000E+00
-0.5500072121905E+00 -0.4440718244555E+01  0.0000000000000E+00
-0.5500090152385E+00 -0.4368001006246E+01  0.0000000000000E+00
-0.5500108182873E+00 -0.4295283740612E+01  0.0000000000000E+00
-0.5500126213350E+00 -0.4222566517955E+01  0.0000000000000E+00
-0.5500144243833E+00 -0.4149849268642E+01  0.0000000000000E+00
-0.5500162274315E+00 -0.4077132024669E+01  0.0000000000000E+00
-0.5500180304795E+00 -0.4004414788725E+01  0.0000000000000E+00
-0.5500198335279E+00 -0.3931697537561E+01  0.0000000000000E+00
-0.5500216365757E+00 -0.3858980310244E+01  0.0000000000000E+00
-0.5500234396243E+00 -0.3786263051191E+01  0.0000000000000E+00
-0.5500252426743E+00 -0.3713545732813E+01  0.0000000000000E+00
-0.5500270457239E+00 -0.3640828435130E+01  0.0000000000000E+00
-0.5500288487712E+00 -0.3568111224436E+01  0.0000000000000E+00
-0.5500306518345E+00 -0.3495393371759E+01  0.0000000000000E+00
-0.5500324548677E+00 -0.3422676734085E+01  0.0000000000000E+00
-0.5500342579162E+00 -0.3349959479596E+01  0.0000000000000E+00
-0.5500360609627E+00 -0.3277242304786E+01  0.0000000000000E+00
-0.5500378640069E+00 -0.3204525222595E+01  0.0000000000000E+00
-0.5500396670520E+00 -0.3131808103709E+01  0.0000000000000E+00
-0.5500414700979E+00 -0.3059090952303E+01  0.0000000000000E+00
-0.5500529476950E+00 -0.2986373738320E+01  0.0000000000000E+00
-0.5501364128136E+00 -0.2913656754436E+01  0.0000000000000E+00
-0.5503783904272E+00 -0.2840941338509E+01  0.0000000000000E+00
-0.5508577540385E+00 -0.2768230765247E+01  0.0000000000000E+00
-0.5516325612498E+00 -0.2695530717925E+01  0.0000000000000E+00
-0.5527400485558E+00 -0.2622848340613E+01  0.0000000000000E+00
-0.5542040252180E+00 -0.2550191965884E+01  0.0000000000000E+00
-0.5560434123399E+00 -0.2477570578353E+01  0.0000000000000E+00
-0.5582796149445E+00 -0.2404994893474E+01  0.0000000000000E+00
-0.5609420794508E+00 -0.2332478498149E+01  0.0000000000000E+00
-0.5640291493261E+00 -0.2260031204427E+01  0.0000000000000E+00
-0.5674976565036E+00 -0.2187654770253E+01  0.0000000000000E+00
-0.5713167848275E+00 -0.2115350873628E+01  0.0000000000000E+00
-0.5754686118071E+00 -0.2043122293177E+01  0.0000000000000E+00
-0.5799472887431E+00 -0.1970973930881E+01  0.0000000000000E+00
-0.5847617915126E+00 -0.1898914684902E+01  0.0000000000000E+00
-0.5899482163835E+00 -0.1826961763921E+01  0.0000000000000E+00
-0.5225031123729E+00 -0.4658813981278E+01  0.0000000000000E+00
-0.5225062247393E+00 -0.4586040988536E+01  0.0000000000000E+00
-0.5225093371249E+00 -0.4513267548907E+01  0.0000000000000E+00
-0.5225124495017E+00 -0.4440494313297E+01  0.0000000000000E+00
-0.5225155618779E+00 -0.4367721092158E+01  0.0000000000000E+00
-0.5225186742552E+00 -0.4294947843675E+01  0.0000000000000E+00
-0.5225217866308E+00 -0.4222174638202E+01  0.0000000000000E+00
-0.5225248990074E+00 -0.4149401406051E+01  0.0000000000000E+00
-0.5225280113839E+00 -0.4076628179245E+01  0.0000000000000E+00
-0.5225311237600E+00 -0.4003854960475E+01  0.0000000000000E+00
-0.5225342361367E+00 -0.3931081726473E+01  0.0000000000000E+00
-0.5225373485124E+00 -0.3858308516336E+01  0.0000000000000E+00
-0.5225404608895E+00 -0.3785535274437E+01  0.0000000000000E+00
-0.5225435732691E+00 -0.3712761973169E+01  0.0000000000000E+00
-0.5225466856479E+00 -0.3639988692612E+01  0.0000000000000E+00
-0.5225497980229E+00 -0.3567215499111E+01  0.0000000000000E+00
-0.5225529104254E+00 -0.3494441663132E+01  0.0000000000000E+00
-0.5225560227759E+00 -0.3421669043092E+01  0.0000000000000E+00
-0.5225591351527E+00 -0.3348895805762E+01  0.0000000000000E+00
-0.5225622475262E+00 -0.3276122648172E+01  0.0000000000000E+00
-0.5225653598957E+00 -0.3203349583273E+01  0.0000000000000E+00
-0.5225684722668E+00 -0.3130576481651E+01  0.0000000000000E+00
-0.5225715846393E+00 -0.3057803347483E+01  0.0000000000000E+00
-0.5225838878364E+00 -0.2985030150688E+01  0.0000000000000E+00
-0.5226645791765E+00 -0.2912257184026E+01  0.0000000000000E+00
-0.5228958573808E+00 -0.2839485785418E+01  0.0000000000000E+00
-0.5233526522770E+00 -0.2766719229496E+01  0.0000000000000E+00
-0.5240901185848E+00 -0.2693963199577E+01  0.0000000000000E+00
-0.5251436309752E+00 -0.2621224839666E+01  0.0000000000000E+00
-0.5265358082435E+00 -0.2548512482425E+01  0.0000000000000E+00
-0.5282846254413E+00 -0.2475835112332E+01  0.0000000000000E+00
-0.5304104173394E+00 -0.2403203444858E+01  0.0000000000000E+00
-0.5329411580310E+00 -0.2330631067071E+01  0.0000000000000E+00
-0.5358752738152E+00 -0.2258127790822E+01  0.0000000000000E+00
-0.5391717550294E+00 -0.2185695374059E+01  0.0000000000000E+00
-0.5428013263252E+00 -0.2113335494818E+01  0.0000000000000E+00
-0.5467469613379E+00 -0.2041050931690E+01  0.0000000000000E+00
-0.5510031038032E+00 -0.1968846586659E+01  0.0000000000000E+00
-0.5555782807994E+00 -0.1896731358076E+01  0.0000000000000E+00
-0.5605067837800E+00 -0.1824722454622E+01  0.0000000000000E+00
-0.4950042080534E+00 -0.4658760848519E+01  0.0000000000000E+00
-0.4950084160981E+00 -0.4585934723130E+01  0.0000000000000E+00
-0.4950126241686E+00 -0.4513108150526E+01  0.0000000000000E+00
-0.4950168322273E+00 -0.4440281782090E+01  0.0000000000000E+00
-0.4950210402851E+00 -0.4367455428137E+01  0.0000000000000E+00
-0.4950252483446E+00 -0.4294629046819E+01  0.0000000000000E+00
-0.4950294564015E+00 -0.4221802708543E+01  0.0000000000000E+00
-0.4950336644600E+00 -0.4148976343569E+01  0.0000000000000E+00
-0.4950378725182E+00 -0.4076149983944E+01  0.0000000000000E+00
-0.4950420805759E+00 -0.4003323632361E+01  0.0000000000000E+00
-0.4950462886345E+00 -0.3930497265535E+01  0.0000000000000E+00
-0.4950504966917E+00 -0.3857670922591E+01  0.0000000000000E+00
-0.4950547047508E+00 -0.3784844547863E+01  0.0000000000000E+00
-0.4950589128133E+00 -0.3712018113721E+01  0.0000000000000E+00
-0.4950631208746E+00 -0.3639191700306E+01  0.0000000000000E+00
-0.4950673289308E+00 -0.3566365374010E+01  0.0000000000000E+00
-0.4950715370242E+00 -0.3493538404768E+01  0.0000000000000E+00
-0.4950757450473E+00 -0.3420712652352E+01  0.0000000000000E+00
-0.4950799531061E+00 -0.3347886282195E+01  0.0000000000000E+00
-0.4950841611603E+00 -0.3275059991837E+01  0.0000000000000E+00
-0.4950883692091E+00 -0.3202233794237E+01  0.0000000000000E+00
-0.4950925772601E+00 -0.3129407559887E+01  0.0000000000000E+00
-0.4950967853129E+00 -0.3056581292968E+01  0.0000000000000E+00
-0.4951097004640E+00 -0.2983754963374E+01  0.0000000000000E+00
-0.4951874043817E+00 -0.2910928863946E+01  0.0000000000000E+00
-0.4954077695377E+00 -0.2838104332664E+01  0.0000000000000E+00
-0.4958417820870E+00 -0.2765284644087E+01  0.0000000000000E+00
-0.4965416938684E+00 -0.2692475481572E+01  0.0000000000000E+00
-0.4975410177298E+00 -0.2619683989065E+01  0.0000000000000E+00
-0.4988611820019E+00 -0.2546918499309E+01  0.0000000000000E+00
-0.5005192156838E+00 -0.2474187996655E+01  0.0000000000000E+00
-0.5025343832951E+00 -0.2401503196589E+01  0.0000000000000E+00
-0.5049331866049E+00 -0.2328877686334E+01  0.0000000000000E+00
-0.5077141347430E+00 -0.2256321277556E+01  0.0000000000000E+00
-0.5108383764496E+00 -0.2183835728204E+01  0.0000000000000E+00
-0.5142781771833E+00 -0.2111422716353E+01  0.0000000000000E+00
-0.5180174067047E+00 -0.2039085020552E+01  0.0000000000000E+00
-0.5220508011842E+00 -0.1966827542795E+01  0.0000000000000E+00
-0.5263864389021E+00 -0.1894659181612E+01  0.0000000000000E+00
-0.5310568064991E+00 -0.1822597145681E+01  0.0000000000000E+00
-0.4675051002525E+00 -0.4658710568986E+01  0.0000000000000E+00
-0.4675102004944E+00 -0.4585834164169E+01  0.0000000000000E+00
-0.4675153007675E+00 -0.4512957311829E+01  0.0000000000000E+00
-0.4675204010264E+00 -0.4440080663798E+01  0.0000000000000E+00
-0.4675255012843E+00 -0.4367204030259E+01  0.0000000000000E+00
-0.4675306015441E+00 -0.4294327369336E+01  0.0000000000000E+00
-0.4675357018008E+00 -0.4221450751485E+01  0.0000000000000E+00
-0.4675408020595E+00 -0.4148574106919E+01  0.0000000000000E+00
-0.4675459023178E+00 -0.4075697467704E+01  0.0000000000000E+00
-0.4675510025755E+00 -0.4002820836537E+01  0.0000000000000E+00
-0.4675561028342E+00 -0.3929944190116E+01  0.0000000000000E+00
-0.4675612030913E+00 -0.3857067567594E+01  0.0000000000000E+00
-0.4675663033506E+00 -0.3784190913266E+01  0.0000000000000E+00
-0.4675714036141E+00 -0.3711314199484E+01  0.0000000000000E+00
-0.4675765038762E+00 -0.3638437506442E+01  0.0000000000000E+00
-0.4675816041321E+00 -0.3565560900580E+01  0.0000000000000E+00
-0.4675867044331E+00 -0.3492683651327E+01  0.0000000000000E+00
-0.4675918046488E+00 -0.3419807619741E+01  0.0000000000000E+00
-0.4675969049078E+00 -0.3346930969987E+01  0.0000000000000E+00
-0.4676020051612E+00 -0.3274054400087E+01  0.0000000000000E+00
-0.4676071054081E+00 -0.3201177923009E+01  0.0000000000000E+00
-0.4676122056576E+00 -0.3128301409157E+01  0.0000000000000E+00
-0.4676173059094E+00 -0.3055424862712E+01  0.0000000000000E+00
-0.4676306295327E+00 -0.2982548253547E+01  0.0000000000000E+00
-0.4677051425463E+00 -0.2909671874579E+01  0.0000000000000E+00
-0.4679143911723E+00 -0.2836797063844E+01  0.0000000000000E+00
-0.4683254178920E+00 -0.2763927095833E+01  0.0000000000000E+00
-0.4689875716638E+00 -0.2691067653940E+01  0.0000000000000E+00
-0.4699325035119E+00 -0.2618225882054E+01  0.0000000000000E+00
-0.4711804513026E+00 -0.2545410112997E+01  0.0000000000000E+00
-0.4727474979822E+00 -0.2472629330997E+01  0.0000000000000E+00
-0.4746518378190E+00 -0.2399894251555E+01  0.0000000000000E+00
-0.4769185002582E+00 -0.2327218462044E+01  0.0000000000000E+00
-0.4795460772598E+00 -0.2254611773950E+01  0.0000000000000E+00
-0.4824978759672E+00 -0.2182075945228E+01  0.0000000000000E+00
-0.4857477026460E+00 -0.2109612653982E+01  0.0000000000000E+00
-0.4892803231818E+00 -0.2037224678732E+01  0.0000000000000E+00
-0.4930907661800E+00 -0.1964916921473E+01  0.0000000000000E+00
-0.4971866611237E+00 -0.1892698280907E+01  0.0000000000000E+00
-0.5015986898404E+00 -0.1820585965710E+01  0.0000000000000E+00
-0.4400057998211E+00 -0.4658663145781E+01  0.0000000000000E+00
-0.4400115996301E+00 -0.4585739317857E+01  0.0000000000000E+00
-0.4400173994747E+00 -0.4512815042119E+01  0.0000000000000E+00
-0.4400231993031E+00 -0.4439890970823E+01  0.0000000000000E+00
-0.4400289991303E+00 -0.4366966914029E+01  0.0000000000000E+00
-0.4400347989596E+00 -0.4294042829833E+01  0.0000000000000E+00
-0.4400405987856E+00 -0.4221118788737E+01  0.0000000000000E+00
-0.4400463986137E+00 -0.4148194720907E+01  0.0000000000000E+00
-0.4400521984413E+00 -0.4075270658434E+01  0.0000000000000E+00
-0.4400579982683E+00 -0.4002346604013E+01  0.0000000000000E+00
-0.4400637980966E+00 -0.3929422534328E+01  0.0000000000000E+00
-0.4400695979229E+00 -0.3856498488558E+01  0.0000000000000E+00
-0.4400753977517E+00 -0.3783574410961E+01  0.0000000000000E+00
-0.4400811975853E+00 -0.3710650273871E+01  0.0000000000000E+00
-0.4400869974173E+00 -0.3637726157535E+01  0.0000000000000E+00
-0.4400927972423E+00 -0.3564802128435E+01  0.0000000000000E+00
-0.4400985971185E+00 -0.3491877455526E+01  0.0000000000000E+00
-0.4401043968978E+00 -0.3418954001076E+01  0.0000000000000E+00
-0.4401101967263E+00 -0.3346029928056E+01  0.0000000000000E+00
-0.4401159965484E+00 -0.3273105934943E+01  0.0000000000000E+00
-0.4401217963631E+00 -0.3200182034711E+01  0.0000000000000E+00
-0.4401275961808E+00 -0.3127258097681E+01  0.0000000000000E+00
-0.4401333960011E+00 -0.3054334128038E+01  0.0000000000000E+00
-0.4401469354660E+00 -0.2981410095632E+01  0.0000000000000E+00
-0.4402180649440E+00 -0.2908486293451E+01  0.0000000000000E+00
-0.4404160044070E+00 -0.2835564059586E+01  0.0000000000000E+00
-0.4408038526617E+00 -0.2762646668462E+01  0.0000000000000E+00
-0.4414280557851E+00 -0.2689739803510E+01  0.0000000000000E+00
-0.4423184029774E+00 -0.2616850608563E+01  0.0000000000000E+00
-0.4434939416404E+00 -0.2543987416518E+01  0.0000000000000E+00
-0.4449698086669E+00 -0.2471159211489E+01  0.0000000000000E+00
-0.4467631280738E+00 -0.2398376708990E+01  0.0000000000000E+00
-0.4488974569826E+00 -0.2325653496533E+01  0.0000000000000E+00
-0.4513714701828E+00 -0.2252999385440E+01  0.0000000000000E+00
-0.4541506332215E+00 -0.2180416133664E+01  0.0000000000000E+00
-0.4572102931718E+00 -0.2107905419345E+01  0.0000000000000E+00
-0.4605361120445E+00 -0.2035470020967E+01  0.0000000000000E+00
-0.4641234108799E+00 -0.1963114840532E+01  0.0000000000000E+00
-0.4679793703646E+00 -0.1890848776901E+01  0.0000000000000E+00
-0.4721328675123E+00 -0.1818689038749E+01  0.0000000000000E+00
-0.4125063188255E+00 -0.4658618581908E+01  0.0000000000000E+00
-0.4125126376377E+00 -0.4585650190204E+01  0.0000000000000E+00
-0.4125189564888E+00 -0.4512681350412E+01  0.0000000000000E+00
-0.4125252753222E+00 -0.4439712715187E+01  0.0000000000000E+00
-0.4125315941543E+00 -0.4366744094473E+01  0.0000000000000E+00
-0.4125379129888E+00 -0.4293775446340E+01  0.0000000000000E+00
-0.4125442318196E+00 -0.4220806841334E+01  0.0000000000000E+00
-0.4125505506527E+00 -0.4147838209578E+01  0.0000000000000E+00
-0.4125568694853E+00 -0.4074869583181E+01  0.0000000000000E+00
-0.4125631883172E+00 -0.4001900964841E+01  0.0000000000000E+00
-0.4125695071504E+00 -0.3928932331228E+01  0.0000000000000E+00
-0.4125758259816E+00 -0.3855963721545E+01  0.0000000000000E+00
-0.4125821448155E+00 -0.3782995080015E+01  0.0000000000000E+00
-0.4125884636546E+00 -0.3710026378956E+01  0.0000000000000E+00
-0.4125947824919E+00 -0.3637057698663E+01  0.0000000000000E+00
-0.4126011013216E+00 -0.3564089105661E+01  0.0000000000000E+00
-0.4126074202071E+00 -0.3491119868455E+01  0.0000000000000E+00
-0.4126137389871E+00 -0.3418151850454E+01  0.0000000000000E+00
-0.4126200578206E+00 -0.3345183213504E+01  0.0000000000000E+00
-0.4126263766472E+00 -0.3272214656509E+01  0.0000000000000E+00
-0.4126326954657E+00 -0.3199246192453E+01  0.0000000000000E+00
-0.4126390142875E+00 -0.3126277691576E+01  0.0000000000000E+00
-0.4126453331121E+00 -0.3053309158066E+01  0.0000000000000E+00
-0.4126589078544E+00 -0.2980340561753E+01  0.0000000000000E+00
-0.4127264732346E+00 -0.2907372195693E+01  0.0000000000000E+00
-0.4129129229765E+00 -0.2834405398026E+01  0.0000000000000E+00
-0.4132774122137E+00 -0.2761443443115E+01  0.0000000000000E+00
-0.4138634841439E+00 -0.2688492014427E+01  0.0000000000000E+00
-0.4146990661436E+00 -0.2615558255743E+01  0.0000000000000E+00
-0.4158020151508E+00 -0.2542650500030E+01  0.0000000000000E+00
-0.4171865220053E+00 -0.2469777731294E+01  0.0000000000000E+00
-0.4188686404727E+00 -0.2396950665061E+01  0.0000000000000E+00
-0.4208704553524E+00 -0.2324182888976E+01  0.0000000000000E+00
-0.4231907242625E+00 -0.2251484214202E+01  0.0000000000000E+00
-0.4257970711529E+00 -0.2178856398696E+01  0.0000000000000E+00
-0.4286663839034E+00 -0.2106301120627E+01  0.0000000000000E+00
-0.4317852206497E+00 -0.2033821158450E+01  0.0000000000000E+00
-0.4351491948666E+00 -0.1961421414169E+01  0.0000000000000E+00
-0.4387650384451E+00 -0.1889110786798E+01  0.0000000000000E+00
-0.4426598235861E+00 -0.1816906485009E+01  0.0000000000000E+00
-0.3850066669832E+00 -0.4658576880046E+01  0.0000000000000E+00
-0.3850133339525E+00 -0.4585566786567E+01  0.0000000000000E+00
-0.3850200009627E+00 -0.4512556244743E+01  0.0000000000000E+00
-0.3850266679543E+00 -0.4439545907604E+01  0.0000000000000E+00
-0.3850333349445E+00 -0.4366535584984E+01  0.0000000000000E+00
-0.3850400019372E+00 -0.4293525234929E+01  0.0000000000000E+00
-0.3850466689260E+00 -0.4220514928026E+01  0.0000000000000E+00
-0.3850533359172E+00 -0.4147504594357E+01  0.0000000000000E+00
-0.3850600029079E+00 -0.4074494266050E+01  0.0000000000000E+00
-0.3850666698979E+00 -0.4001483945806E+01  0.0000000000000E+00
-0.3850733368893E+00 -0.3928473610280E+01  0.0000000000000E+00
-0.3850800038785E+00 -0.3855463298697E+01  0.0000000000000E+00
-0.3850866708707E+00 -0.3782452955249E+01  0.0000000000000E+00
-0.3850933378682E+00 -0.3709442552238E+01  0.0000000000000E+00
-0.3851000048639E+00 -0.3636432170005E+01  0.0000000000000E+00
-0.3851066718516E+00 -0.3563421875112E+01  0.0000000000000E+00
-0.3851133388981E+00 -0.3490410935648E+01  0.0000000000000E+00
-0.3851200058333E+00 -0.3417401216084E+01  0.0000000000000E+00
-0.3851266728250E+00 -0.3344390877219E+01  0.0000000000000E+00
-0.3851333398094E+00 -0.3271380618355E+01  0.0000000000000E+00
-0.3851400067853E+00 -0.3198370452482E+01  0.0000000000000E+00
-0.3851466737645E+00 -0.3125360249768E+01  0.0000000000000E+00
-0.3851533407468E+00 -0.3052350014401E+01  0.0000000000000E+00
-0.3851667799195E+00 -0.2979339716195E+01  0.0000000000000E+00
-0.3852306103528E+00 -0.2906329648266E+01  0.0000000000000E+00
-0.3854053995203E+00 -0.2833321148803E+01  0.0000000000000E+00
-0.3857463588799E+00 -0.2760317492112E+01  0.0000000000000E+00
-0.3862941287481E+00 -0.2687324361690E+01  0.0000000000000E+00
-0.3870747746768E+00 -0.2614348901271E+01  0.0000000000000E+00
-0.3881049631399E+00 -0.2541399443887E+01  0.0000000000000E+00
-0.3893979389227E+00 -0.2468484973444E+01  0.0000000000000E+00
-0.3909686855394E+00 -0.2395616205479E+01  0.0000000000000E+00
-0.3928378154667E+00 -0.2322806727761E+01  0.0000000000000E+00
-0.3950041691510E+00 -0.2250066351305E+01  0.0000000000000E+00
-0.3974375289459E+00 -0.2177396834071E+01  0.0000000000000E+00
-0.4001163235393E+00 -0.2104799854255E+01  0.0000000000000E+00
-0.4030280071917E+00 -0.2032278190284E+01  0.0000000000000E+00
-0.4061684858133E+00 -0.1959836744166E+01  0.0000000000000E+00
-0.4095440424992E+00 -0.1887484415058E+01  0.0000000000000E+00
-0.4131799446368E+00 -0.1815238411627E+01  0.0000000000000E+00
-0.3575068566982E+00 -0.4658538042865E+01  0.0000000000000E+00
-0.3575137133821E+00 -0.4585489112285E+01  0.0000000000000E+00
-0.3575205701081E+00 -0.4512439733123E+01  0.0000000000000E+00
-0.3575274268148E+00 -0.4439390558754E+01  0.0000000000000E+00
-0.3575342835202E+00 -0.4366341398912E+01  0.0000000000000E+00
-0.3575411402282E+00 -0.4293292211620E+01  0.0000000000000E+00
-0.3575479969321E+00 -0.4220243067503E+01  0.0000000000000E+00
-0.3575548536386E+00 -0.4147193896606E+01  0.0000000000000E+00
-0.3575617103445E+00 -0.4074144731074E+01  0.0000000000000E+00
-0.3575685670497E+00 -0.4001095573609E+01  0.0000000000000E+00
-0.3575754237563E+00 -0.3928046400854E+01  0.0000000000000E+00
-0.3575822804607E+00 -0.3854997252054E+01  0.0000000000000E+00
-0.3575891371681E+00 -0.3781948071373E+01  0.0000000000000E+00
-0.3575959938810E+00 -0.3708898831097E+01  0.0000000000000E+00
-0.3576028505920E+00 -0.3635849611611E+01  0.0000000000000E+00
-0.3576097072948E+00 -0.3562800479510E+01  0.0000000000000E+00
-0.3576165640582E+00 -0.3489750702496E+01  0.0000000000000E+00
-0.3576234207069E+00 -0.3416702146031E+01  0.0000000000000E+00
-0.3576302774139E+00 -0.3343652969935E+01  0.0000000000000E+00
-0.3576371341133E+00 -0.3270603873882E+01  0.0000000000000E+00
-0.3576439908040E+00 -0.3197554870871E+01  0.0000000000000E+00
-0.3576508474981E+00 -0.3124505830998E+01  0.0000000000000E+00
-0.3576577041953E+00 -0.3051456758456E+01  0.0000000000000E+00
-0.3576708493558E+00 -0.2978407623039E+01  0.0000000000000E+00
-0.3577307864007E+00 -0.2905358717923E+01  0.0000000000000E+00
-0.3578937565552E+00 -0.2832311381340E+01  0.0000000000000E+00
-0.3582110276026E+00 -0.2759268887544E+01  0.0000000000000E+00
-0.3587203369794E+00 -0.2686236920060E+01  0.0000000000000E+00
-0.3594458884130E+00 -0.2613222622579E+01  0.0000000000000E+00
-0.3604031579141E+00 -0.2540234328192E+01  0.0000000000000E+00
-0.3616044442134E+00 -0.2467281020712E+01  0.0000000000000E+00
-0.3630636605739E+00 -0.2394373415687E+01  0.0000000000000E+00
-0.3647999471507E+00 -0.2321525101001E+01  0.0000000000000E+00
-0.3668122272178E+00 -0.2248745887532E+01  0.0000000000000E+00
-0.3690724415322E+00 -0.2176037533241E+01  0.0000000000000E+00
-0.3715605595890E+00 -0.2103401716352E+01  0.0000000000000E+00
-0.3742649317735E+00 -0.2030841215263E+01  0.0000000000000E+00
-0.3771817564307E+00 -0.1958360931988E+01  0.0000000000000E+00
-0.3803168678611E+00 -0.1885969765814E+01  0.0000000000000E+00
-0.3836937286386E+00 -0.1813684925408E+01  0.0000000000000E+00
-0.3300068987676E+00 -0.4658502072758E+01  0.0000000000000E+00
-0.3300137975208E+00 -0.4585417172147E+01  0.0000000000000E+00
-0.3300206963164E+00 -0.4512331822732E+01  0.0000000000000E+00
-0.3300275950926E+00 -0.4439246678212E+01  0.0000000000000E+00
-0.3300344938675E+00 -0.4366161548225E+01  0.0000000000000E+00
-0.3300413926450E+00 -0.4293076390776E+01  0.0000000000000E+00
-0.3300482914184E+00 -0.4219991276521E+01  0.0000000000000E+00
-0.3300551901943E+00 -0.4146906135475E+01  0.0000000000000E+00
-0.3300620889697E+00 -0.4073820999796E+01  0.0000000000000E+00
-0.3300689877443E+00 -0.4000735872187E+01  0.0000000000000E+00
-0.3300758865204E+00 -0.3927650729281E+01  0.0000000000000E+00
-0.3300827852943E+00 -0.3854565610343E+01  0.0000000000000E+00
-0.3300896840711E+00 -0.3781480459507E+01  0.0000000000000E+00
-0.3300965828536E+00 -0.3708395249047E+01  0.0000000000000E+00
-0.3301034816341E+00 -0.3635310059386E+01  0.0000000000000E+00
-0.3301103804063E+00 -0.3562224957155E+01  0.0000000000000E+00
-0.3301172792395E+00 -0.3489139209693E+01  0.0000000000000E+00
-0.3301241779574E+00 -0.3416054683381E+01  0.0000000000000E+00
-0.3301310767338E+00 -0.3342969537132E+01  0.0000000000000E+00
-0.3301379755026E+00 -0.3269884470966E+01  0.0000000000000E+00
-0.3301448742627E+00 -0.3196799497888E+01  0.0000000000000E+00
-0.3301517730262E+00 -0.3123714487929E+01  0.0000000000000E+00
-0.3301586717929E+00 -0.3050629445286E+01  0.0000000000000E+00
-0.3301713752953E+00 -0.2977544339735E+01  0.0000000000000E+00
-0.3302272713064E+00 -0.2904459464508E+01  0.0000000000000E+00
-0.3303782748028E+00 -0.2831376157875E+01  0.0000000000000E+00
-0.3306717098932E+00 -0.2758297694042E+01  0.0000000000000E+00
-0.3311424111341E+00 -0.2685229756563E+01  0.0000000000000E+00
-0.3318127204285E+00 -0.2612179489085E+01  0.0000000000000E+00
-0.3326969233240E+00 -0.2539155224757E+01  0.0000000000000E+00
-0.3338063724964E+00 -0.2466165947304E+01  0.0000000000000E+00
-0.3351539109577E+00 -0.2393222372285E+01  0.0000000000000E+00
-0.3367572065418E+00 -0.2320338087689E+01  0.0000000000000E+00
-0.3386152653497E+00 -0.2247522904270E+01  0.0000000000000E+00
-0.3407021865415E+00 -0.2174778579988E+01  0.0000000000000E+00
-0.3429994804201E+00 -0.2102106793092E+01  0.0000000000000E+00
-0.3454963934951E+00 -0.2029510321956E+01  0.0000000000000E+00
-0.3481894165466E+00 -0.1956994068596E+01  0.0000000000000E+00
-0.3510839350807E+00 -0.1884566932422E+01  0.0000000000000E+00
-0.3542016068581E+00 -0.1812246122100E+01  0.0000000000000E+00
-0.3025068041260E+00 -0.4658468971956E+01  0.0000000000000E+00
-0.3025136082379E+00 -0.4585350970612E+01  0.0000000000000E+00
-0.3025204123915E+00 -0.4512232520260E+01  0.0000000000000E+00
-0.3025272165261E+00 -0.4439114274896E+01  0.0000000000000E+00
-0.3025340206593E+00 -0.4365996044072E+01  0.0000000000000E+00
-0.3025408247951E+00 -0.4292877785773E+01  0.0000000000000E+00
-0.3025476289268E+00 -0.4219759570689E+01  0.0000000000000E+00
-0.3025544330610E+00 -0.4146641328800E+01  0.0000000000000E+00
-0.3025612371948E+00 -0.4073523092281E+01  0.0000000000000E+00
-0.3025680413278E+00 -0.4000404863836E+01  0.0000000000000E+00
-0.3025748454622E+00 -0.3927286620088E+01  0.0000000000000E+00
-0.3025816495944E+00 -0.3854168400317E+01  0.0000000000000E+00
-0.3025884537295E+00 -0.3781050148635E+01  0.0000000000000E+00
-0.3025952578702E+00 -0.3707931837301E+01  0.0000000000000E+00
-0.3026020620090E+00 -0.3634813546776E+01  0.0000000000000E+00
-0.3026088661396E+00 -0.3561695343720E+01  0.0000000000000E+00
-0.3026156703303E+00 -0.3488576495141E+01  0.0000000000000E+00
-0.3026224744073E+00 -0.3415458868265E+01  0.0000000000000E+00
-0.3026292785420E+00 -0.3342340621172E+01  0.0000000000000E+00
-0.3026360826693E+00 -0.3269222454198E+01  0.0000000000000E+00
-0.3026428867879E+00 -0.3196104380354E+01  0.0000000000000E+00
-0.3026496909099E+00 -0.3122986269612E+01  0.0000000000000E+00
-0.3026564950350E+00 -0.3049868126171E+01  0.0000000000000E+00
-0.3026686201683E+00 -0.2976749919793E+01  0.0000000000000E+00
-0.3027203384337E+00 -0.2903631943759E+01  0.0000000000000E+00
-0.3028592385586E+00 -0.2830515536376E+01  0.0000000000000E+00
-0.3031287009763E+00 -0.2757403971806E+01  0.0000000000000E+00
-0.3035606573625E+00 -0.2684302933626E+01  0.0000000000000E+00
-0.3041755877955E+00 -0.2611219565447E+01  0.0000000000000E+00
-0.3049865873595E+00 -0.2538162200469E+01  0.0000000000000E+00
-0.3060040626750E+00 -0.2465139822337E+01  0.0000000000000E+00
-0.3072397865029E+00 -0.2392163146619E+01  0.0000000000000E+00
-0.3087099543557E+00 -0.2319245761402E+01  0.0000000000000E+00
-0.3104136551612E+00 -0.2246397477324E+01  0.0000000000000E+00
-0.3123271464832E+00 -0.2173620052345E+01  0.0000000000000E+00
-0.3144334794324E+00 -0.2100915164739E+01  0.0000000000000E+00
-0.3167227966432E+00 -0.2028285592855E+01  0.0000000000000E+00
-0.3191918813306E+00 -0.1955736238713E+01  0.0000000000000E+00
-0.3218456702067E+00 -0.1883276001836E+01  0.0000000000000E+00
-0.3247040162189E+00 -0.1810922090887E+01  0.0000000000000E+00
-0.2750065847907E+00 -0.4658438742560E+01  0.0000000000000E+00
-0.2750131695678E+00 -0.4585290511882E+01  0.0000000000000E+00
-0.2750197543852E+00 -0.4512141832011E+01  0.0000000000000E+00
-0.2750263391843E+00 -0.4438993357213E+01  0.0000000000000E+00
-0.2750329239819E+00 -0.4365844896960E+01  0.0000000000000E+00
-0.2750395087821E+00 -0.4292696409222E+01  0.0000000000000E+00
-0.2750460935784E+00 -0.4219547964716E+01  0.0000000000000E+00
-0.2750526783771E+00 -0.4146399493394E+01  0.0000000000000E+00
-0.2750592631753E+00 -0.4073251027445E+01  0.0000000000000E+00
-0.2750658479728E+00 -0.4000102569572E+01  0.0000000000000E+00
-0.2750724327716E+00 -0.3926954096390E+01  0.0000000000000E+00
-0.2750790175683E+00 -0.3853805647195E+01  0.0000000000000E+00
-0.2750856023679E+00 -0.3780657166076E+01  0.0000000000000E+00
-0.2750921871729E+00 -0.3707508625281E+01  0.0000000000000E+00
-0.2750987719759E+00 -0.3634360105303E+01  0.0000000000000E+00
-0.2751053567711E+00 -0.3561211672831E+01  0.0000000000000E+00
-0.2751119416245E+00 -0.3488062594568E+01  0.0000000000000E+00
-0.2751185263678E+00 -0.3414914738513E+01  0.0000000000000E+00
-0.2751251111669E+00 -0.3341766261985E+01  0.0000000000000E+00
-0.2751316959589E+00 -0.3268617865609E+01  0.0000000000000E+00
-0.2751382807424E+00 -0.3195469562401E+01  0.0000000000000E+00
-0.2751448655293E+00 -0.3122321222281E+01  0.0000000000000E+00
-0.2751514503191E+00 -0.3049172849447E+01  0.0000000000000E+00
-0.2751628723896E+00 -0.2976024413650E+01  0.0000000000000E+00
-0.2752102882170E+00 -0.2902876208215E+01  0.0000000000000E+00
-0.2753369602811E+00 -0.2829729571484E+01  0.0000000000000E+00
-0.2755823253407E+00 -0.2756587777576E+01  0.0000000000000E+00
-0.2759754121923E+00 -0.2683456510093E+01  0.0000000000000E+00
-0.2765348390895E+00 -0.2610342912610E+01  0.0000000000000E+00
-0.2772725106540E+00 -0.2537255318374E+01  0.0000000000000E+00
-0.2781978874511E+00 -0.2464202710958E+01  0.0000000000000E+00
-0.2793216719906E+00 -0.2391195805938E+01  0.0000000000000E+00
-0.2806585874648E+00 -0.2318248191491E+01  0.0000000000000E+00
-0.2822078056280E+00 -0.2245369678147E+01  0.0000000000000E+00
-0.2839477424465E+00 -0.2172562023869E+01  0.0000000000000E+00
-0.2858629898386E+00 -0.2099826906950E+01  0.0000000000000E+00
-0.2879445865631E+00 -0.2027167105719E+01  0.0000000000000E+00
-0.2901896082697E+00 -0.1954587522199E+01  0.0000000000000E+00
-0.2926025428774E+00 -0.1882097056015E+01  0.0000000000000E+00
-0.2952014385204E+00 -0.1809712915830E+01  0.0000000000000E+00
-0.2475062510879E+00 -0.4658411386417E+01  0.0000000000000E+00
-0.2475125021628E+00 -0.4585235799654E+01  0.0000000000000E+00
-0.2475187532761E+00 -0.4512059763530E+01  0.0000000000000E+00
-0.2475250043718E+00 -0.4438883932554E+01  0.0000000000000E+00
-0.2475312554664E+00 -0.4365708116131E+01  0.0000000000000E+00
-0.2475375065632E+00 -0.4292532272210E+01  0.0000000000000E+00
-0.2475437576564E+00 -0.4219356471539E+01  0.0000000000000E+00
-0.2475500087518E+00 -0.4146180644042E+01  0.0000000000000E+00
-0.2475562598468E+00 -0.4073004821919E+01  0.0000000000000E+00
-0.2475625109411E+00 -0.3999829007876E+01  0.0000000000000E+00
-0.2475687620368E+00 -0.3926653178517E+01  0.0000000000000E+00
-0.2475750131303E+00 -0.3853477373156E+01  0.0000000000000E+00
-0.2475812642266E+00 -0.3780301535857E+01  0.0000000000000E+00
-0.2475875153280E+00 -0.3707125638860E+01  0.0000000000000E+00
-0.2475937664276E+00 -0.3633949762689E+01  0.0000000000000E+00
-0.2476000175198E+00 -0.3560773974055E+01  0.0000000000000E+00
-0.2476062686671E+00 -0.3487597539390E+01  0.0000000000000E+00
-0.2476125197100E+00 -0.3414422327390E+01  0.0000000000000E+00
-0.2476187708059E+00 -0.3341246494684E+01  0.0000000000000E+00
-0.2476250218949E+00 -0.3268070742161E+01  0.0000000000000E+00
-0.2476312729760E+00 -0.3194895082840E+01  0.0000000000000E+00
-0.2476375240603E+00 -0.3121719386594E+01  0.0000000000000E+00
-0.2476437751473E+00 -0.3048543657622E+01  0.0000000000000E+00
-0.2476543797871E+00 -0.2975367865661E+01  0.0000000000000E+00
-0.2476973788073E+00 -0.2902192304079E+01  0.0000000000000E+00
-0.2478117084387E+00 -0.2829018311249E+01  0.0000000000000E+00
-0.2480328617639E+00 -0.2755849161253E+01  0.0000000000000E+00
-0.2483869646989E+00 -0.2682690537711E+01  0.0000000000000E+00
-0.2488907736722E+00 -0.2609549584168E+01  0.0000000000000E+00
-0.2495550028424E+00 -0.2536434633916E+01  0.0000000000000E+00
-0.2503881667191E+00 -0.2463354670459E+01  0.0000000000000E+00
-0.2513998975606E+00 -0.2390320409382E+01  0.0000000000000E+00
-0.2526034462390E+00 -0.2317345438943E+01  0.0000000000000E+00
-0.2539980673341E+00 -0.2244439569574E+01  0.0000000000000E+00
-0.2555643352162E+00 -0.2171604559242E+01  0.0000000000000E+00
-0.2572883826116E+00 -0.2098842086256E+01  0.0000000000000E+00
-0.2591621444036E+00 -0.2026154928927E+01  0.0000000000000E+00
-0.2611829886770E+00 -0.1953547989281E+01  0.0000000000000E+00
-0.2633549545578E+00 -0.1881030167037E+01  0.0000000000000E+00
-0.2656942853663E+00 -0.1808618670854E+01  0.0000000000000E+00
-0.2200058151317E+00 -0.4658386905273E+01  0.0000000000000E+00
-0.2200116302512E+00 -0.4585186837416E+01  0.0000000000000E+00
-0.2200174454065E+00 -0.4511986320049E+01  0.0000000000000E+00
-0.2200232605455E+00 -0.4438786007899E+01  0.0000000000000E+00
-0.2200290756833E+00 -0.4365585710305E+01  0.0000000000000E+00
-0.2200348908233E+00 -0.4292385385205E+01  0.0000000000000E+00
-0.2200407059598E+00 -0.4219185103369E+01  0.0000000000000E+00
-0.2200465210985E+00 -0.4145984794698E+01  0.0000000000000E+00
-0.2200523362367E+00 -0.4072784491403E+01  0.0000000000000E+00
-0.2200581513744E+00 -0.3999584196191E+01  0.0000000000000E+00
-0.2200639665132E+00 -0.3926383885658E+01  0.0000000000000E+00
-0.2200697816501E+00 -0.3853183599130E+01  0.0000000000000E+00
-0.2200755967896E+00 -0.3779983280655E+01  0.0000000000000E+00
-0.2200814119338E+00 -0.3706782902461E+01  0.0000000000000E+00
-0.2200872270764E+00 -0.3633582545100E+01  0.0000000000000E+00
-0.2200930422120E+00 -0.3560382275305E+01  0.0000000000000E+00
-0.2200988573989E+00 -0.3487181359263E+01  0.0000000000000E+00
-0.2201046724887E+00 -0.3413981666295E+01  0.0000000000000E+00
-0.2201104876278E+00 -0.3340781352414E+01  0.0000000000000E+00
-0.2201163027605E+00 -0.3267581118742E+01  0.0000000000000E+00
-0.2201221178858E+00 -0.3194380978304E+01  0.0000000000000E+00
-0.2201279330141E+00 -0.3121180800927E+01  0.0000000000000E+00
-0.2201337481449E+00 -0.3047980590815E+01  0.0000000000000E+00
-0.2201434331007E+00 -0.2974780317691E+01  0.0000000000000E+00
-0.2201819130612E+00 -0.2901580274962E+01  0.0000000000000E+00
-0.2202837980092E+00 -0.2828381801026E+01  0.0000000000000E+00
-0.2204806373518E+00 -0.2755188169933E+01  0.0000000000000E+00
-0.2207956541254E+00 -0.2682005065322E+01  0.0000000000000E+00
-0.2212437429334E+00 -0.2608839630710E+01  0.0000000000000E+00
-0.2218344274720E+00 -0.2535700199426E+01  0.0000000000000E+00
-0.2225752761947E+00 -0.2462595754916E+01  0.0000000000000E+00
-0.2234748511090E+00 -0.2389537012771E+01  0.0000000000000E+00
-0.2245449307669E+00 -0.2316537561322E+01  0.0000000000000E+00
-0.2257848525739E+00 -0.2243607210915E+01  0.0000000000000E+00
-0.2271773493033E+00 -0.2170747719517E+01  0.0000000000000E+00
-0.2287100944895E+00 -0.2097960765455E+01  0.0000000000000E+00
-0.2303759191400E+00 -0.2025249127022E+01  0.0000000000000E+00
-0.2321724837746E+00 -0.1952617706247E+01  0.0000000000000E+00
-0.2341033787265E+00 -0.1880075402931E+01  0.0000000000000E+00
-0.2361830425028E+00 -0.1807639425734E+01  0.0000000000000E+00
-0.1925052879758E+00 -0.4658365300648E+01  0.0000000000000E+00
-0.1925105759406E+00 -0.4585143628212E+01  0.0000000000000E+00
-0.1925158639379E+00 -0.4511921506133E+01  0.0000000000000E+00
-0.1925211519204E+00 -0.4438699589331E+01  0.0000000000000E+00
-0.1925264399018E+00 -0.4365477687090E+01  0.0000000000000E+00
-0.1925317278851E+00 -0.4292255757335E+01  0.0000000000000E+00
-0.1925370158654E+00 -0.4219033870856E+01  0.0000000000000E+00
-0.1925423038476E+00 -0.4145811957534E+01  0.0000000000000E+00
-0.1925475918294E+00 -0.4072590049591E+01  0.0000000000000E+00
-0.1925528798106E+00 -0.3999368149732E+01  0.0000000000000E+00
-0.1925581677930E+00 -0.3926146234548E+01  0.0000000000000E+00
-0.1925634557736E+00 -0.3852924343376E+01  0.0000000000000E+00
-0.1925687437565E+00 -0.3779702420247E+01  0.0000000000000E+00
-0.1925740317437E+00 -0.3706480437382E+01  0.0000000000000E+00
-0.1925793197294E+00 -0.3633258475356E+01  0.0000000000000E+00
-0.1925846077088E+00 -0.3560036600922E+01  0.0000000000000E+00
-0.1925898957349E+00 -0.3486814080050E+01  0.0000000000000E+00
-0.1925951836726E+00 -0.3413592782614E+01  0.0000000000000E+00
-0.1926004716552E+00 -0.3340370864080E+01  0.0000000000000E+00
-0.1926057596320E+00 -0.3267149025780E+01  0.0000000000000E+00
-0.1926110476020E+00 -0.3193927280741E+01  0.0000000000000E+00
-0.1926163355748E+00 -0.3120705498753E+01  0.0000000000000E+00
-0.1926216235498E+00 -0.3047483684019E+01  0.0000000000000E+00
-0.1926302976219E+00 -0.2974261806254E+01  0.0000000000000E+00
-0.1926641673231E+00 -0.2901040158897E+01  0.0000000000000E+00
-0.1927535163882E+00 -0.2827820080371E+01  0.0000000000000E+00
-0.1929259505487E+00 -0.2754604844696E+01  0.0000000000000E+00
-0.1932017899616E+00 -0.2681400135527E+01  0.0000000000000E+00
-0.1935940674049E+00 -0.2608213096357E+01  0.0000000000000E+00
-0.1941111161126E+00 -0.2535052060547E+01  0.0000000000000E+00
-0.1947595584820E+00 -0.2461926011493E+01  0.0000000000000E+00
-0.1955468862697E+00 -0.2388845664791E+01  0.0000000000000E+00
-0.1964834057080E+00 -0.2315824608836E+01  0.0000000000000E+00
-0.1975685370274E+00 -0.2242872653898E+01  0.0000000000000E+00
-0.1987871714047E+00 -0.2169991557945E+01  0.0000000000000E+00
-0.2001285231822E+00 -0.2097182999318E+01  0.0000000000000E+00
-0.2015863194915E+00 -0.2024449756296E+01  0.0000000000000E+00
-0.2031585132875E+00 -0.1951796730910E+01  0.0000000000000E+00
-0.2048482461110E+00 -0.1879232823034E+01  0.0000000000000E+00
-0.2066681516558E+00 -0.1806775241326E+01  0.0000000000000E+00
-0.1650046808342E+00 -0.4658346573894E+01  0.0000000000000E+00
-0.1650093616587E+00 -0.4585106174743E+01  0.0000000000000E+00
-0.1650140425120E+00 -0.4511865325833E+01  0.0000000000000E+00
-0.1650187233521E+00 -0.4438624682253E+01  0.0000000000000E+00
-0.1650234041912E+00 -0.4365384053239E+01  0.0000000000000E+00
-0.1650280850322E+00 -0.4292143396702E+01  0.0000000000000E+00
-0.1650327658704E+00 -0.4218902783454E+01  0.0000000000000E+00
-0.1650374467102E+00 -0.4145662143355E+01  0.0000000000000E+00
-0.1650421275498E+00 -0.4072421508636E+01  0.0000000000000E+00
-0.1650468083888E+00 -0.3999180882004E+01  0.0000000000000E+00
-0.1650514892288E+00 -0.3925940240043E+01  0.0000000000000E+00
-0.1650561700673E+00 -0.3852699622099E+01  0.0000000000000E+00
-0.1650608509078E+00 -0.3779458972191E+01  0.0000000000000E+00
-0.1650655317521E+00 -0.3706218262532E+01  0.0000000000000E+00
-0.1650702125951E+00 -0.3632977573716E+01  0.0000000000000E+00
-0.1650748934325E+00 -0.3559736972516E+01  0.0000000000000E+00
-0.1650795743113E+00 -0.3486495724711E+01  0.0000000000000E+00
-0.1650842551118E+00 -0.3413255700655E+01  0.0000000000000E+00
-0.1650889359520E+00 -0.3340015055344E+01  0.0000000000000E+00
-0.1650936167871E+00 -0.3266774490286E+01  0.0000000000000E+00
-0.1650982976162E+00 -0.3193534018513E+01  0.0000000000000E+00
-0.1651029784477E+00 -0.3120293509782E+01  0.0000000000000E+00
-0.1651076592813E+00 -0.3047052968296E+01  0.0000000000000E+00
-0.1651152424838E+00 -0.2973812363763E+01  0.0000000000000E+00
-0.1651444219395E+00 -0.2900571989649E+01  0.0000000000000E+00
-0.1652211551347E+00 -0.2827333184399E+01  0.0000000000000E+00
-0.1653691041251E+00 -0.2754099222006E+01  0.0000000000000E+00
-0.1656056861875E+00 -0.2680875786140E+01  0.0000000000000E+00
-0.1659420722746E+00 -0.2607670020273E+01  0.0000000000000E+00
-0.1663854051581E+00 -0.2534490257795E+01  0.0000000000000E+00
-0.1669413611788E+00 -0.2461345482056E+01  0.0000000000000E+00
-0.1676163618420E+00 -0.2388246408658E+01  0.0000000000000E+00
-0.1684192410609E+00 -0.2315206626052E+01  0.0000000000000E+00
-0.1693495018906E+00 -0.2242235944441E+01  0.0000000000000E+00
-0.1703941939114E+00 -0.2169336121793E+01  0.0000000000000E+00
-0.1715440722738E+00 -0.2096508836464E+01  0.0000000000000E+00
-0.1727937602337E+00 -0.2023756866719E+01  0.0000000000000E+00
-0.1741415031809E+00 -0.1951085114590E+01  0.0000000000000E+00
-0.1755899938642E+00 -0.1878502480015E+01  0.0000000000000E+00
-0.1771500611639E+00 -0.1806026171652E+01  0.0000000000000E+00
-0.1375040054788E+00 -0.4658330726195E+01  0.0000000000000E+00
-0.1375080109493E+00 -0.4585074479377E+01  0.0000000000000E+00
-0.1375120164444E+00 -0.4511817782703E+01  0.0000000000000E+00
-0.1375160219283E+00 -0.4438561291404E+01  0.0000000000000E+00
-0.1375200274113E+00 -0.4365304814673E+01  0.0000000000000E+00
-0.1375240328959E+00 -0.4292048310415E+01  0.0000000000000E+00
-0.1375280383781E+00 -0.4218791849453E+01  0.0000000000000E+00
-0.1375320438618E+00 -0.4145535361636E+01  0.0000000000000E+00
-0.1375360493451E+00 -0.4072278879200E+01  0.0000000000000E+00
-0.1375400548281E+00 -0.3999022404852E+01  0.0000000000000E+00
-0.1375440603118E+00 -0.3925765915171E+01  0.0000000000000E+00
-0.1375480657943E+00 -0.3852509449514E+01  0.0000000000000E+00
-0.1375520712785E+00 -0.3779252951886E+01  0.0000000000000E+00
-0.1375560767660E+00 -0.3705996394492E+01  0.0000000000000E+00
-0.1375600822523E+00 -0.3632739857948E+01  0.0000000000000E+00
-0.1375640877338E+00 -0.3559483409037E+01  0.0000000000000E+00
-0.1375680932507E+00 -0.3486226313383E+01  0.0000000000000E+00
-0.1375720987007E+00 -0.3412970441741E+01  0.0000000000000E+00
-0.1375761041846E+00 -0.3339713948710E+01  0.0000000000000E+00
-0.1375801096642E+00 -0.3266457535950E+01  0.0000000000000E+00
-0.1375841151387E+00 -0.3193201216495E+01  0.0000000000000E+00
-0.1375881206152E+00 -0.3119944860073E+01  0.0000000000000E+00
-0.1375921260934E+00 -0.3046688470890E+01  0.0000000000000E+00
-0.1375985502126E+00 -0.2973432018646E+01  0.0000000000000E+00
-0.1376229712097E+00 -0.2900175796830E+01  0.0000000000000E+00
-0.1376870203236E+00 -0.2826921143905E+01  0.0000000000000E+00
-0.1378104159346E+00 -0.2753671333843E+01  0.0000000000000E+00
-0.1380076724401E+00 -0.2680432050327E+01  0.0000000000000E+00
-0.1382880989677E+00 -0.2607210436809E+01  0.0000000000000E+00
-0.1386576478271E+00 -0.2534014826704E+01  0.0000000000000E+00
-0.1391210493026E+00 -0.2460854203325E+01  0.0000000000000E+00
-0.1396836546487E+00 -0.2387739282277E+01  0.0000000000000E+00
-0.1403528254594E+00 -0.2314683652058E+01  0.0000000000000E+00
-0.1411281476146E+00 -0.2241697122816E+01  0.0000000000000E+00
-0.1419988290975E+00 -0.2168781452520E+01  0.0000000000000E+00
-0.1429571658668E+00 -0.2095938319535E+01  0.0000000000000E+00
-0.1439986773022E+00 -0.2023170502116E+01  0.0000000000000E+00
-0.1451219012286E+00 -0.1950482902297E+01  0.0000000000000E+00
-0.1463290816030E+00 -0.1877884420070E+01  0.0000000000000E+00
-0.1476292424924E+00 -0.1805392264092E+01  0.0000000000000E+00
-0.1100032727679E+00 -0.4658317758532E+01  0.0000000000000E+00
-0.1100065455290E+00 -0.4585048544080E+01  0.0000000000000E+00
-0.1100098183102E+00 -0.4511778879691E+01  0.0000000000000E+00
-0.1100130910822E+00 -0.4438509420714E+01  0.0000000000000E+00
-0.1100163638535E+00 -0.4365239976307E+01  0.0000000000000E+00
-0.1100196366261E+00 -0.4291970504368E+01  0.0000000000000E+00
-0.1100229093967E+00 -0.4218701075733E+01  0.0000000000000E+00
-0.1100261821686E+00 -0.4145431620239E+01  0.0000000000000E+00
-0.1100294549402E+00 -0.4072162170125E+01  0.0000000000000E+00
-0.1100327277114E+00 -0.3998892728102E+01  0.0000000000000E+00
-0.1100360004834E+00 -0.3925623270744E+01  0.0000000000000E+00
-0.1100392732542E+00 -0.3852353837413E+01  0.0000000000000E+00
-0.1100425460265E+00 -0.3779084372104E+01  0.0000000000000E+00
-0.1100458188015E+00 -0.3705814847021E+01  0.0000000000000E+00
-0.1100490915755E+00 -0.3632545342790E+01  0.0000000000000E+00
-0.1100523643456E+00 -0.3559275926208E+01  0.0000000000000E+00
-0.1100556371446E+00 -0.3486005862769E+01  0.0000000000000E+00
-0.1100589098889E+00 -0.3412737023558E+01  0.0000000000000E+00
-0.1100621826610E+00 -0.3339467562849E+01  0.0000000000000E+00
-0.1100654554295E+00 -0.3266198182424E+01  0.0000000000000E+00
-0.1100687281938E+00 -0.3192928895321E+01  0.0000000000000E+00
-0.1100720009598E+00 -0.3119659571245E+01  0.0000000000000E+00
-0.1100752737272E+00 -0.3046390214401E+01  0.0000000000000E+00
-0.1100804814074E+00 -0.2973120794485E+01  0.0000000000000E+00
-0.1101000865895E+00 -0.2899851605005E+01  0.0000000000000E+00
-0.1101513942642E+00 -0.2826583984439E+01  0.0000000000000E+00
-0.1102501791352E+00 -0.2753321206740E+01  0.0000000000000E+00
-0.1104080527204E+00 -0.2680068955602E+01  0.0000000000000E+00
-0.1106324623216E+00 -0.2606834374461E+01  0.0000000000000E+00
-0.1109281697863E+00 -0.2533625796754E+01  0.0000000000000E+00
-0.1112989593421E+00 -0.2460452205761E+01  0.0000000000000E+00
-0.1117491119923E+00 -0.2387324317091E+01  0.0000000000000E+00
-0.1122845170118E+00 -0.2314255719281E+01  0.0000000000000E+00
-0.1129048431049E+00 -0.2241256222433E+01  0.0000000000000E+00
-0.1136014566584E+00 -0.2168327584516E+01  0.0000000000000E+00
-0.1143681944392E+00 -0.2095471483905E+01  0.0000000000000E+00
-0.1152014719513E+00 -0.2022690698846E+01  0.0000000000000E+00
-0.1161001194546E+00 -0.1949990131373E+01  0.0000000000000E+00
-0.1170659321143E+00 -0.1877378681522E+01  0.0000000000000E+00
-0.1181061291839E+00 -0.1804873557950E+01  0.0000000000000E+00
-0.8250249454314E-01 -0.4658307671731E+01  0.0000000000000E+00
-0.8250498908109E-01 -0.4585028370497E+01  0.0000000000000E+00
-0.8250748363435E-01 -0.4511748619267E+01  0.0000000000000E+00
-0.8250997818062E-01 -0.4438469073475E+01  0.0000000000000E+00
-0.8251247272640E-01 -0.4365189542255E+01  0.0000000000000E+00
-0.8251496727311E-01 -0.4291909983500E+01  0.0000000000000E+00
-0.8251746181835E-01 -0.4218630468056E+01  0.0000000000000E+00
-0.8251995636450E-01 -0.4145350925747E+01  0.0000000000000E+00
-0.8252245091047E-01 -0.4072071388821E+01  0.0000000000000E+00
-0.8252494545616E-01 -0.3998791859985E+01  0.0000000000000E+00
-0.8252744000238E-01 -0.3925512315813E+01  0.0000000000000E+00
-0.8252993454778E-01 -0.3852232795671E+01  0.0000000000000E+00
-0.8253242909426E-01 -0.3778953243548E+01  0.0000000000000E+00
-0.8253492364278E-01 -0.3705673631641E+01  0.0000000000000E+00
-0.8253741819059E-01 -0.3632394040589E+01  0.0000000000000E+00
-0.8253991273542E-01 -0.3559114537199E+01  0.0000000000000E+00
-0.8254240730227E-01 -0.3485834386862E+01  0.0000000000000E+00
-0.8254490182744E-01 -0.3412555460923E+01  0.0000000000000E+00
-0.8254739637377E-01 -0.3339275913399E+01  0.0000000000000E+00
-0.8254989091737E-01 -0.3265996446170E+01  0.0000000000000E+00
-0.8255238545779E-01 -0.3192717072277E+01  0.0000000000000E+00
-0.8255487999946E-01 -0.3119437661405E+01  0.0000000000000E+00
-0.8255737454226E-01 -0.3046158217761E+01  0.0000000000000E+00
-0.8256132026964E-01 -0.2972878711036E+01  0.0000000000000E+00
-0.8257606412342E-01 -0.2899599434752E+01  0.0000000000000E+00
-0.8261458484651E-01 -0.2826321727400E+01  0.0000000000000E+00
-0.8268871346684E-01 -0.2753048862920E+01  0.0000000000000E+00
-0.8280715862262E-01 -0.2679786525011E+01  0.0000000000000E+00
-0.8297550579031E-01 -0.2606541857099E+01  0.0000000000000E+00
-0.8319732635544E-01 -0.2533323192637E+01  0.0000000000000E+00
-0.8347545848869E-01 -0.2460139514879E+01  0.0000000000000E+00
-0.8381311294265E-01 -0.2387001539440E+01  0.0000000000000E+00
-0.8421470667327E-01 -0.2313922854883E+01  0.0000000000000E+00
-0.8467999120903E-01 -0.2240913271277E+01  0.0000000000000E+00
-0.8520249134003E-01 -0.2167974546591E+01  0.0000000000000E+00
-0.8577758464144E-01 -0.2095108359206E+01  0.0000000000000E+00
-0.8640258274117E-01 -0.2022317487362E+01  0.0000000000000E+00
-0.8707660833415E-01 -0.1949606833093E+01  0.0000000000000E+00
-0.8780100779414E-01 -0.1876985296471E+01  0.0000000000000E+00
-0.8858119556126E-01 -0.1804470086151E+01  0.0000000000000E+00
-0.5500168202915E-01 -0.4658300466420E+01  0.0000000000000E+00
-0.5500336405479E-01 -0.4585013959890E+01  0.0000000000000E+00
-0.5500504609076E-01 -0.4511727003319E+01  0.0000000000000E+00
-0.5500672812202E-01 -0.4438440252207E+01  0.0000000000000E+00
-0.5500841015294E-01 -0.4365153515669E+01  0.0000000000000E+00
-0.5501009218450E-01 -0.4291866751592E+01  0.0000000000000E+00
-0.5501177421506E-01 -0.4218580030830E+01  0.0000000000000E+00
-0.5501345624623E-01 -0.4145293283201E+01  0.0000000000000E+00
-0.5501513827729E-01 -0.4072006540956E+01  0.0000000000000E+00
-0.5501682030815E-01 -0.3998719806802E+01  0.0000000000000E+00
-0.5501850233937E-01 -0.3925433057309E+01  0.0000000000000E+00
-0.5502018437004E-01 -0.3852146331850E+01  0.0000000000000E+00
-0.5502186640144E-01 -0.3778859574406E+01  0.0000000000000E+00
-0.5502354843422E-01 -0.3705572757172E+01  0.0000000000000E+00
-0.5502523046651E-01 -0.3632285960796E+01  0.0000000000000E+00
-0.5502691249680E-01 -0.3558999252090E+01  0.0000000000000E+00
-0.5502859454193E-01 -0.3485711896373E+01  0.0000000000000E+00
-0.5503027655896E-01 -0.3412425765174E+01  0.0000000000000E+00
-0.5503195859026E-01 -0.3339139012330E+01  0.0000000000000E+00
-0.5503364061971E-01 -0.3265852339789E+01  0.0000000000000E+00
-0.5503532264702E-01 -0.3192565760592E+01  0.0000000000000E+00
-0.5503700467518E-01 -0.3119279144413E+01  0.0000000000000E+00
-0.5503868670409E-01 -0.3045992495459E+01  0.0000000000000E+00
-0.5504133618940E-01 -0.2972705783417E+01  0.0000000000000E+00
-0.5505118442552E-01 -0.2899419301821E+01  0.0000000000000E+00
-0.5507688390763E-01 -0.2826134389170E+01  0.0000000000000E+00
-0.5512632198758E-01 -0.2752854319392E+01  0.0000000000000E+00
-0.5520530442408E-01 -0.2679584776194E+01  0.0000000000000E+00
-0.5531755486806E-01 -0.2606332902993E+01  0.0000000000000E+00
-0.5546545424311E-01 -0.2533107033253E+01  0.0000000000000E+00
-0.5565089466302E-01 -0.2459916150211E+01  0.0000000000000E+00
-0.5587601662944E-01 -0.2386770969482E+01  0.0000000000000E+00
-0.5614376477954E-01 -0.2313685079654E+01  0.0000000000000E+00
-0.5645397346590E-01 -0.2240668290768E+01  0.0000000000000E+00
-0.5680232588196E-01 -0.2167722360794E+01  0.0000000000000E+00
-0.5718574041112E-01 -0.2094848968118E+01  0.0000000000000E+00
-0.5760242480531E-01 -0.2022050890974E+01  0.0000000000000E+00
-0.5805179419448E-01 -0.1949333031399E+01  0.0000000000000E+00
-0.5853474616100E-01 -0.1876704289487E+01  0.0000000000000E+00
-0.5905489033159E-01 -0.1804181873893E+01  0.0000000000000E+00
-0.2750084664702E-01 -0.4658296143052E+01  0.0000000000000E+00
-0.2750169329227E-01 -0.4585005313163E+01  0.0000000000000E+00
-0.2750253994273E-01 -0.4511714033207E+01  0.0000000000000E+00
-0.2750338659081E-01 -0.4438422958722E+01  0.0000000000000E+00
-0.2750423323872E-01 -0.4365131898811E+01  0.0000000000000E+00
-0.2750507988695E-01 -0.4291840811361E+01  0.0000000000000E+00
-0.2750592653468E-01 -0.4218549767228E+01  0.0000000000000E+00
-0.2750677318272E-01 -0.4145258696226E+01  0.0000000000000E+00
-0.2750761983069E-01 -0.4071967630608E+01  0.0000000000000E+00
-0.2750846647858E-01 -0.3998676573082E+01  0.0000000000000E+00
-0.2750931312664E-01 -0.3925385500216E+01  0.0000000000000E+00
-0.2751015977442E-01 -0.3852094451385E+01  0.0000000000000E+00
-0.2751100642257E-01 -0.3778803370567E+01  0.0000000000000E+00
-0.2751185307142E-01 -0.3705512229957E+01  0.0000000000000E+00
-0.2751269972002E-01 -0.3632221110204E+01  0.0000000000000E+00
-0.2751354636761E-01 -0.3558930078128E+01  0.0000000000000E+00
-0.2751439302267E-01 -0.3485638399002E+01  0.0000000000000E+00
-0.2751523966359E-01 -0.3412347944467E+01  0.0000000000000E+00
-0.2751608631169E-01 -0.3339056868249E+01  0.0000000000000E+00
-0.2751693295887E-01 -0.3265765872339E+01  0.0000000000000E+00
-0.2751777960496E-01 -0.3192474969780E+01  0.0000000000000E+00
-0.2751862625148E-01 -0.3119184030236E+01  0.0000000000000E+00
-0.2751947289838E-01 -0.3045893057915E+01  0.0000000000000E+00
-0.2752080327345E-01 -0.2972602022502E+01  0.0000000000000E+00
-0.2752573302372E-01 -0.2899311217538E+01  0.0000000000000E+00
-0.2753858839655E-01 -0.2826021981525E+01  0.0000000000000E+00
-0.2756331306764E-01 -0.2752737588388E+01  0.0000000000000E+00
-0.2760280991616E-01 -0.2679463721835E+01  0.0000000000000E+00
-0.2765894076745E-01 -0.2606207525280E+01  0.0000000000000E+00
-0.2773289608320E-01 -0.2532977332192E+01  0.0000000000000E+00
-0.2782562192022E-01 -0.2459782125798E+01  0.0000000000000E+00
-0.2793818852921E-01 -0.2386632621716E+01  0.0000000000000E+00
-0.2807206822860E-01 -0.2313542408544E+01  0.0000000000000E+00
-0.2822717819500E-01 -0.2240521296308E+01  0.0000000000000E+00
-0.2840136002521E-01 -0.2167571042980E+01  0.0000000000000E+00
-0.2859307291094E-01 -0.2094693326949E+01  0.0000000000000E+00
-0.2880142072809E-01 -0.2021890926444E+01  0.0000000000000E+00
-0.2902611104167E-01 -0.1949168743503E+01  0.0000000000000E+00
-0.2926759264271E-01 -0.1876535678237E+01  0.0000000000000E+00
-0.2952767034453E-01 -0.1804008939299E+01  0.0000000000000E+00
 0.1341298349319E-09 -0.4658294701900E+01  0.0000000000000E+00
 0.2682591914974E-09 -0.4585002430862E+01  0.0000000000000E+00
 0.4023890727755E-09 -0.4511709709747E+01  0.0000000000000E+00
 0.5365191106208E-09 -0.4438417194108E+01  0.0000000000000E+00
 0.6706488917047E-09 -0.4365124693044E+01  0.0000000000000E+00
 0.8047786975213E-09 -0.4291832164439E+01  0.0000000000000E+00
 0.9389087816031E-09 -0.4218539679152E+01  0.0000000000000E+00
 0.1073038417292E-08 -0.4145247166996E+01  0.0000000000000E+00
 0.1207168223132E-08 -0.4071954660224E+01  0.0000000000000E+00
 0.1341298166205E-08 -0.3998662161544E+01  0.0000000000000E+00
 0.1475427971981E-08 -0.3925369647524E+01  0.0000000000000E+00
 0.1609557676437E-08 -0.3852077157540E+01  0.0000000000000E+00
 0.1743687719413E-08 -0.3778784635568E+01  0.0000000000000E+00
 0.1877817404503E-08 -0.3705492053802E+01  0.0000000000000E+00
 0.2011947688216E-08 -0.3632199492894E+01  0.0000000000000E+00
 0.2146077332986E-08 -0.3558907019664E+01  0.0000000000000E+00
 0.2280208460759E-08 -0.3485613899373E+01  0.0000000000000E+00
 0.2414336866020E-08 -0.3412322003696E+01  0.0000000000000E+00
 0.2548466983496E-08 -0.3339029486324E+01  0.0000000000000E+00
 0.2682596670357E-08 -0.3265737049261E+01  0.0000000000000E+00
 0.2816726179303E-08 -0.3192444705551E+01  0.0000000000000E+00
 0.2950855647716E-08 -0.3119152324855E+01  0.0000000000000E+00
 0.3084985400642E-08 -0.3045859911382E+01  0.0000000000000E+00
 0.3219175563967E-08 -0.2972567434816E+01  0.0000000000000E+00
 0.3353698875709E-08 -0.2899275188699E+01  0.0000000000000E+00
 0.3488929101874E-08 -0.2825984511537E+01  0.0000000000000E+00
 0.3625244852689E-08 -0.2752698677250E+01  0.0000000000000E+00
 0.3762956718963E-08 -0.2679423369550E+01  0.0000000000000E+00
 0.3902297562747E-08 -0.2606165731846E+01  0.0000000000000E+00
 0.4043435531594E-08 -0.2532934097612E+01  0.0000000000000E+00
 0.4186557924346E-08 -0.2459737450072E+01  0.0000000000000E+00
 0.4331879640973E-08 -0.2386586504841E+01  0.0000000000000E+00
 0.4479654786937E-08 -0.2313494850525E+01  0.0000000000000E+00
 0.4629287886613E-08 -0.2240472297144E+01  0.0000000000000E+00
 0.4780639212689E-08 -0.2167520602668E+01  0.0000000000000E+00
 0.4933757186728E-08 -0.2094641445488E+01  0.0000000000000E+00
 0.5088733054618E-08 -0.2021837603833E+01  0.0000000000000E+00
 0.5245556699726E-08 -0.1949113979741E+01  0.0000000000000E+00
 0.5404454798979E-08 -0.1876479473326E+01  0.0000000000000E+00
 0.5565504075676E-08 -0.1803951293244E+01  0.0000000000000E+00
 0.2750084691528E-01 -0.4658296143053E+01  0.0000000000000E+00
 0.2750169382879E-01 -0.4585005313166E+01  0.0000000000000E+00
 0.2750254074750E-01 -0.4511714033210E+01  0.0000000000000E+00
 0.2750338766384E-01 -0.4438422958726E+01  0.0000000000000E+00
 0.2750423458000E-01 -0.4365131898817E+01  0.0000000000000E+00
 0.2750508149649E-01 -0.4291840811368E+01  0.0000000000000E+00
 0.2750592841248E-01 -0.4218549767235E+01  0.0000000000000E+00
 0.2750677532877E-01 -0.4145258696235E+01  0.0000000000000E+00
 0.2750762224501E-01 -0.4071967630618E+01  0.0000000000000E+00
 0.2750846916115E-01 -0.3998676573093E+01  0.0000000000000E+00
 0.2750931607747E-01 -0.3925385500228E+01  0.0000000000000E+00
 0.2751016299351E-01 -0.3852094451398E+01  0.0000000000000E+00
 0.2751100990992E-01 -0.3778803370582E+01  0.0000000000000E+00
 0.2751185682702E-01 -0.3705512229972E+01  0.0000000000000E+00
 0.2751270374388E-01 -0.3632221110221E+01  0.0000000000000E+00
 0.2751355065973E-01 -0.3558930078145E+01  0.0000000000000E+00
 0.2751439758305E-01 -0.3485638399021E+01  0.0000000000000E+00
 0.2751524449223E-01 -0.3412347944487E+01  0.0000000000000E+00
 0.2751609140859E-01 -0.3339056868270E+01  0.0000000000000E+00
 0.2751693832401E-01 -0.3265765872362E+01  0.0000000000000E+00
 0.2751778523836E-01 -0.3192474969803E+01  0.0000000000000E+00
 0.2751863215314E-01 -0.3119184030260E+01  0.0000000000000E+00
 0.2751947906830E-01 -0.3045893057940E+01  0.0000000000000E+00
 0.2752080971174E-01 -0.2972602022528E+01  0.0000000000000E+00
 0.2752573973106E-01 -0.2899311217565E+01  0.0000000000000E+00
 0.2753859537435E-01 -0.2826021981554E+01  0.0000000000000E+00
 0.2756332031807E-01 -0.2752737588418E+01  0.0000000000000E+00
 0.2760281744201E-01 -0.2679463721866E+01  0.0000000000000E+00
 0.2765894857198E-01 -0.2606207525312E+01  0.0000000000000E+00
 0.2773290417001E-01 -0.2532977332225E+01  0.0000000000000E+00
 0.2782563029327E-01 -0.2459782125833E+01  0.0000000000000E+00
 0.2793819719290E-01 -0.2386632621751E+01  0.0000000000000E+00
 0.2807207718784E-01 -0.2313542408580E+01  0.0000000000000E+00
 0.2822718745350E-01 -0.2240521296346E+01  0.0000000000000E+00
 0.2840136958642E-01 -0.2167571043019E+01  0.0000000000000E+00
 0.2859308277837E-01 -0.2094693326988E+01  0.0000000000000E+00
 0.2880143090548E-01 -0.2021890926485E+01  0.0000000000000E+00
 0.2902612153270E-01 -0.1949168743545E+01  0.0000000000000E+00
 0.2926760345153E-01 -0.1876535678280E+01  0.0000000000000E+00
 0.2952768147545E-01 -0.1804008939343E+01  0.0000000000000E+00
 0.5500168229740E-01 -0.4658300466422E+01  0.0000000000000E+00
 0.5500336459129E-01 -0.4585013959894E+01  0.0000000000000E+00
 0.5500504689552E-01 -0.4511727003325E+01  0.0000000000000E+00
 0.5500672919502E-01 -0.4438440252216E+01  0.0000000000000E+00
 0.5500841149420E-01 -0.4365153515680E+01  0.0000000000000E+00
 0.5501009379400E-01 -0.4291866751605E+01  0.0000000000000E+00
 0.5501177609281E-01 -0.4218580030846E+01  0.0000000000000E+00
 0.5501345839224E-01 -0.4145293283219E+01  0.0000000000000E+00
 0.5501514069154E-01 -0.4072006540976E+01  0.0000000000000E+00
 0.5501682299066E-01 -0.3998719806824E+01  0.0000000000000E+00
 0.5501850529013E-01 -0.3925433057334E+01  0.0000000000000E+00
 0.5502018758905E-01 -0.3852146331877E+01  0.0000000000000E+00
 0.5502186988871E-01 -0.3778859574434E+01  0.0000000000000E+00
 0.5502355218973E-01 -0.3705572757203E+01  0.0000000000000E+00
 0.5502523449028E-01 -0.3632285960829E+01  0.0000000000000E+00
 0.5502691678881E-01 -0.3558999252125E+01  0.0000000000000E+00
 0.5502859910220E-01 -0.3485711896410E+01  0.0000000000000E+00
 0.5503028138748E-01 -0.3412425765214E+01  0.0000000000000E+00
 0.5503196368702E-01 -0.3339139012372E+01  0.0000000000000E+00
 0.5503364598473E-01 -0.3265852339833E+01  0.0000000000000E+00
 0.5503532828029E-01 -0.3192565760638E+01  0.0000000000000E+00
 0.5503701057670E-01 -0.3119279144462E+01  0.0000000000000E+00
 0.5503869287386E-01 -0.3045992495510E+01  0.0000000000000E+00
 0.5504134262754E-01 -0.2972705783470E+01  0.0000000000000E+00
 0.5505119113270E-01 -0.2899419301877E+01  0.0000000000000E+00
 0.5507689088526E-01 -0.2826134389227E+01  0.0000000000000E+00
 0.5512632923783E-01 -0.2752854319452E+01  0.0000000000000E+00
 0.5520531194975E-01 -0.2679584776256E+01  0.0000000000000E+00
 0.5531756267240E-01 -0.2606332903057E+01  0.0000000000000E+00
 0.5546546232972E-01 -0.2533107033319E+01  0.0000000000000E+00
 0.5565090303586E-01 -0.2459916150279E+01  0.0000000000000E+00
 0.5587602529292E-01 -0.2386770969553E+01  0.0000000000000E+00
 0.5614377373856E-01 -0.2313685079727E+01  0.0000000000000E+00
 0.5645398272418E-01 -0.2240668290843E+01  0.0000000000000E+00
 0.5680233544293E-01 -0.2167722360871E+01  0.0000000000000E+00
 0.5718575027832E-01 -0.2094848968198E+01  0.0000000000000E+00
 0.5760243498245E-01 -0.2022050891056E+01  0.0000000000000E+00
 0.5805180468526E-01 -0.1949333031483E+01  0.0000000000000E+00
 0.5853475696956E-01 -0.1876704289573E+01  0.0000000000000E+00
 0.5905490146225E-01 -0.1804181873982E+01  0.0000000000000E+00
 0.8250249481138E-01 -0.4658307671734E+01  0.0000000000000E+00
 0.8250498961757E-01 -0.4585028370504E+01  0.0000000000000E+00
 0.8250748443907E-01 -0.4511748619277E+01  0.0000000000000E+00
 0.8250997925358E-01 -0.4438469073488E+01  0.0000000000000E+00
 0.8251247406760E-01 -0.4365189542272E+01  0.0000000000000E+00
 0.8251496888255E-01 -0.4291909983520E+01  0.0000000000000E+00
 0.8251746369603E-01 -0.4218630468079E+01  0.0000000000000E+00
 0.8251995851042E-01 -0.4145350925774E+01  0.0000000000000E+00
 0.8252245332463E-01 -0.4072071388851E+01  0.0000000000000E+00
 0.8252494813856E-01 -0.3998791860019E+01  0.0000000000000E+00
 0.8252744295302E-01 -0.3925512315849E+01  0.0000000000000E+00
 0.8252993776665E-01 -0.3852232795711E+01  0.0000000000000E+00
 0.8253243258138E-01 -0.3778953243591E+01  0.0000000000000E+00
 0.8253492739814E-01 -0.3705673631687E+01  0.0000000000000E+00
 0.8253742221419E-01 -0.3632394040639E+01  0.0000000000000E+00
 0.8253991702726E-01 -0.3559114537252E+01  0.0000000000000E+00
 0.8254241186235E-01 -0.3485834386918E+01  0.0000000000000E+00
 0.8254490665576E-01 -0.3412555460983E+01  0.0000000000000E+00
 0.8254740147033E-01 -0.3339275913462E+01  0.0000000000000E+00
 0.8254989628217E-01 -0.3265996446236E+01  0.0000000000000E+00
 0.8255239109082E-01 -0.3192717072346E+01  0.0000000000000E+00
 0.8255488590074E-01 -0.3119437661478E+01  0.0000000000000E+00
 0.8255738071177E-01 -0.3046158217837E+01  0.0000000000000E+00
 0.8256132670752E-01 -0.2972878711115E+01  0.0000000000000E+00
 0.8257607083032E-01 -0.2899599434835E+01  0.0000000000000E+00
 0.8261459182386E-01 -0.2826321727487E+01  0.0000000000000E+00
 0.8268872071680E-01 -0.2753048863010E+01  0.0000000000000E+00
 0.8280716614798E-01 -0.2679786525104E+01  0.0000000000000E+00
 0.8297551359434E-01 -0.2606541857195E+01  0.0000000000000E+00
 0.8319733444172E-01 -0.2533323192736E+01  0.0000000000000E+00
 0.8347546686119E-01 -0.2460139514982E+01  0.0000000000000E+00
 0.8381312160577E-01 -0.2387001539546E+01  0.0000000000000E+00
 0.8421471563193E-01 -0.2313922854993E+01  0.0000000000000E+00
 0.8468000046694E-01 -0.2240913271390E+01  0.0000000000000E+00
 0.8520250090062E-01 -0.2167974546707E+01  0.0000000000000E+00
 0.8577759450824E-01 -0.2095108359326E+01  0.0000000000000E+00
 0.8640259291791E-01 -0.2022317487484E+01  0.0000000000000E+00
 0.8707661882451E-01 -0.1949606833219E+01  0.0000000000000E+00
 0.8780101860228E-01 -0.1876985296600E+01  0.0000000000000E+00
 0.8858120669148E-01 -0.1804470086283E+01  0.0000000000000E+00
 0.1100032730361E+00 -0.4658317758537E+01  0.0000000000000E+00
 0.1100065460654E+00 -0.4585048544088E+01  0.0000000000000E+00
 0.1100098191148E+00 -0.4511778879705E+01  0.0000000000000E+00
 0.1100130921551E+00 -0.4438509420732E+01  0.0000000000000E+00
 0.1100163651946E+00 -0.4365239976329E+01  0.0000000000000E+00
 0.1100196382354E+00 -0.4291970504395E+01  0.0000000000000E+00
 0.1100229112743E+00 -0.4218701075764E+01  0.0000000000000E+00
 0.1100261843144E+00 -0.4145431620274E+01  0.0000000000000E+00
 0.1100294573542E+00 -0.4072162170165E+01  0.0000000000000E+00
 0.1100327303937E+00 -0.3998892728146E+01  0.0000000000000E+00
 0.1100360034338E+00 -0.3925623270792E+01  0.0000000000000E+00
 0.1100392764729E+00 -0.3852353837466E+01  0.0000000000000E+00
 0.1100425495134E+00 -0.3779084372162E+01  0.0000000000000E+00
 0.1100458225566E+00 -0.3705814847083E+01  0.0000000000000E+00
 0.1100490955988E+00 -0.3632545342856E+01  0.0000000000000E+00
 0.1100523686372E+00 -0.3559275926279E+01  0.0000000000000E+00
 0.1100556417044E+00 -0.3486005862844E+01  0.0000000000000E+00
 0.1100589147169E+00 -0.3412737023638E+01  0.0000000000000E+00
 0.1100621877573E+00 -0.3339467562933E+01  0.0000000000000E+00
 0.1100654607940E+00 -0.3266198182512E+01  0.0000000000000E+00
 0.1100687338265E+00 -0.3192928895414E+01  0.0000000000000E+00
 0.1100720068607E+00 -0.3119659571342E+01  0.0000000000000E+00
 0.1100752798964E+00 -0.3046390214503E+01  0.0000000000000E+00
 0.1100804878449E+00 -0.2973120794592E+01  0.0000000000000E+00
 0.1101000932960E+00 -0.2899851605116E+01  0.0000000000000E+00
 0.1101514012411E+00 -0.2826583984554E+01  0.0000000000000E+00
 0.1102501863848E+00 -0.2753321206860E+01  0.0000000000000E+00
 0.1104080602454E+00 -0.2680068955726E+01  0.0000000000000E+00
 0.1106324701252E+00 -0.2606834374589E+01  0.0000000000000E+00
 0.1109281778722E+00 -0.2533625796887E+01  0.0000000000000E+00
 0.1112989677141E+00 -0.2460452205898E+01  0.0000000000000E+00
 0.1117491206549E+00 -0.2387324317233E+01  0.0000000000000E+00
 0.1122845259700E+00 -0.2314255719427E+01  0.0000000000000E+00
 0.1129048523623E+00 -0.2241256222584E+01  0.0000000000000E+00
 0.1136014662184E+00 -0.2168327584671E+01  0.0000000000000E+00
 0.1143682043055E+00 -0.2095471484065E+01  0.0000000000000E+00
 0.1152014821275E+00 -0.2022690699009E+01  0.0000000000000E+00
 0.1161001299444E+00 -0.1949990131541E+01  0.0000000000000E+00
 0.1170659429218E+00 -0.1877378681695E+01  0.0000000000000E+00
 0.1181061403135E+00 -0.1804873558127E+01  0.0000000000000E+00
 0.1375040057470E+00 -0.4658330726200E+01  0.0000000000000E+00
 0.1375080114857E+00 -0.4585074479388E+01  0.0000000000000E+00
 0.1375120172490E+00 -0.4511817782720E+01  0.0000000000000E+00
 0.1375160230011E+00 -0.4438561291426E+01  0.0000000000000E+00
 0.1375200287523E+00 -0.4365304814701E+01  0.0000000000000E+00
 0.1375240345051E+00 -0.4292048310448E+01  0.0000000000000E+00
 0.1375280402555E+00 -0.4218791849492E+01  0.0000000000000E+00
 0.1375320460074E+00 -0.4145535361680E+01  0.0000000000000E+00
 0.1375360517590E+00 -0.4072278879250E+01  0.0000000000000E+00
 0.1375400575101E+00 -0.3999022404907E+01  0.0000000000000E+00
 0.1375440632621E+00 -0.3925765915232E+01  0.0000000000000E+00
 0.1375480690127E+00 -0.3852509449581E+01  0.0000000000000E+00
 0.1375520747651E+00 -0.3779252951958E+01  0.0000000000000E+00
 0.1375560805208E+00 -0.3705996394570E+01  0.0000000000000E+00
 0.1375600862754E+00 -0.3632739858031E+01  0.0000000000000E+00
 0.1375640920251E+00 -0.3559483409126E+01  0.0000000000000E+00
 0.1375680978102E+00 -0.3486226313477E+01  0.0000000000000E+00
 0.1375721035284E+00 -0.3412970441841E+01  0.0000000000000E+00
 0.1375761092805E+00 -0.3339713948815E+01  0.0000000000000E+00
 0.1375801150283E+00 -0.3266457536060E+01  0.0000000000000E+00
 0.1375841207710E+00 -0.3193201216611E+01  0.0000000000000E+00
 0.1375881265157E+00 -0.3119944860195E+01  0.0000000000000E+00
 0.1375921322621E+00 -0.3046688471017E+01  0.0000000000000E+00
 0.1375985566497E+00 -0.2973432018779E+01  0.0000000000000E+00
 0.1376229779157E+00 -0.2900175796968E+01  0.0000000000000E+00
 0.1376870273001E+00 -0.2826921144049E+01  0.0000000000000E+00
 0.1378104231836E+00 -0.2753671333993E+01  0.0000000000000E+00
 0.1380076799644E+00 -0.2680432050482E+01  0.0000000000000E+00
 0.1382881067707E+00 -0.2607210436969E+01  0.0000000000000E+00
 0.1386576559123E+00 -0.2534014826870E+01  0.0000000000000E+00
 0.1391210576740E+00 -0.2460854203496E+01  0.0000000000000E+00
 0.1396836633107E+00 -0.2387739282454E+01  0.0000000000000E+00
 0.1403528344169E+00 -0.2314683652241E+01  0.0000000000000E+00
 0.1411281568713E+00 -0.2241697123004E+01  0.0000000000000E+00
 0.1419988386569E+00 -0.2168781452713E+01  0.0000000000000E+00
 0.1429571757323E+00 -0.2095938319734E+01  0.0000000000000E+00
 0.1439986874777E+00 -0.2023170502321E+01  0.0000000000000E+00
 0.1451219117177E+00 -0.1950482902508E+01  0.0000000000000E+00
 0.1463290924098E+00 -0.1877884420286E+01  0.0000000000000E+00
 0.1476292536212E+00 -0.1805392264313E+01  0.0000000000000E+00
 0.1650046811024E+00 -0.4658346573901E+01  0.0000000000000E+00
 0.1650093621951E+00 -0.4585106174756E+01  0.0000000000000E+00
 0.1650140433165E+00 -0.4511865325853E+01  0.0000000000000E+00
 0.1650187244248E+00 -0.4438624682280E+01  0.0000000000000E+00
 0.1650234055322E+00 -0.4365384053272E+01  0.0000000000000E+00
 0.1650280866413E+00 -0.4292143396742E+01  0.0000000000000E+00
 0.1650327677476E+00 -0.4218902783500E+01  0.0000000000000E+00
 0.1650374488557E+00 -0.4145662143408E+01  0.0000000000000E+00
 0.1650421299634E+00 -0.4072421508696E+01  0.0000000000000E+00
 0.1650468110706E+00 -0.3999180882070E+01  0.0000000000000E+00
 0.1650514921788E+00 -0.3925940240116E+01  0.0000000000000E+00
 0.1650561732855E+00 -0.3852699622179E+01  0.0000000000000E+00
 0.1650608543942E+00 -0.3779458972278E+01  0.0000000000000E+00
 0.1650655355067E+00 -0.3706218262625E+01  0.0000000000000E+00
 0.1650702166179E+00 -0.3632977573816E+01  0.0000000000000E+00
 0.1650748977234E+00 -0.3559736972622E+01  0.0000000000000E+00
 0.1650795788703E+00 -0.3486495724824E+01  0.0000000000000E+00
 0.1650842599390E+00 -0.3413255700775E+01  0.0000000000000E+00
 0.1650889410474E+00 -0.3340015055470E+01  0.0000000000000E+00
 0.1650936221507E+00 -0.3266774490419E+01  0.0000000000000E+00
 0.1650983032480E+00 -0.3193534018653E+01  0.0000000000000E+00
 0.1651029843477E+00 -0.3120293509928E+01  0.0000000000000E+00
 0.1651076654495E+00 -0.3047052968449E+01  0.0000000000000E+00
 0.1651152489203E+00 -0.2973812363923E+01  0.0000000000000E+00
 0.1651444286449E+00 -0.2900571989815E+01  0.0000000000000E+00
 0.1652211621105E+00 -0.2827333184571E+01  0.0000000000000E+00
 0.1653691113735E+00 -0.2754099222185E+01  0.0000000000000E+00
 0.1656056937112E+00 -0.2680875786326E+01  0.0000000000000E+00
 0.1659420800769E+00 -0.2607670020465E+01  0.0000000000000E+00
 0.1663854132426E+00 -0.2534490257994E+01  0.0000000000000E+00
 0.1669413695495E+00 -0.2461345482262E+01  0.0000000000000E+00
 0.1676163705033E+00 -0.2388246408871E+01  0.0000000000000E+00
 0.1684192500176E+00 -0.2315206626271E+01  0.0000000000000E+00
 0.1693495111465E+00 -0.2242235944667E+01  0.0000000000000E+00
 0.1703942034699E+00 -0.2169336122026E+01  0.0000000000000E+00
 0.1715440821385E+00 -0.2096508836703E+01  0.0000000000000E+00
 0.1727937704082E+00 -0.2023756866964E+01  0.0000000000000E+00
 0.1741415136690E+00 -0.1951085114842E+01  0.0000000000000E+00
 0.1755900046701E+00 -0.1878502480274E+01  0.0000000000000E+00
 0.1771500722917E+00 -0.1806026171918E+01  0.0000000000000E+00
 0.1925052882440E+00 -0.4658365300656E+01  0.0000000000000E+00
 0.1925105764769E+00 -0.4585143628228E+01  0.0000000000000E+00
 0.1925158647424E+00 -0.4511921506156E+01  0.0000000000000E+00
 0.1925211529930E+00 -0.4438699589362E+01  0.0000000000000E+00
 0.1925264412425E+00 -0.4365477687129E+01  0.0000000000000E+00
 0.1925317294941E+00 -0.4292255757381E+01  0.0000000000000E+00
 0.1925370177425E+00 -0.4219033870910E+01  0.0000000000000E+00
 0.1925423059928E+00 -0.4145811957596E+01  0.0000000000000E+00
 0.1925475942428E+00 -0.4072590049661E+01  0.0000000000000E+00
 0.1925528824922E+00 -0.3999368149810E+01  0.0000000000000E+00
 0.1925581707427E+00 -0.3926146234633E+01  0.0000000000000E+00
 0.1925634589914E+00 -0.3852924343469E+01  0.0000000000000E+00
 0.1925687472425E+00 -0.3779702420348E+01  0.0000000000000E+00
 0.1925740354978E+00 -0.3706480437491E+01  0.0000000000000E+00
 0.1925793237517E+00 -0.3633258475472E+01  0.0000000000000E+00
 0.1925846119993E+00 -0.3560036601046E+01  0.0000000000000E+00
 0.1925899002935E+00 -0.3486814080182E+01  0.0000000000000E+00
 0.1925951884994E+00 -0.3413592782753E+01  0.0000000000000E+00
 0.1926004767501E+00 -0.3340370864228E+01  0.0000000000000E+00
 0.1926057649950E+00 -0.3267149025935E+01  0.0000000000000E+00
 0.1926110532332E+00 -0.3193927280904E+01  0.0000000000000E+00
 0.1926163414741E+00 -0.3120705498923E+01  0.0000000000000E+00
 0.1926216297173E+00 -0.3047483684197E+01  0.0000000000000E+00
 0.1926303040577E+00 -0.2974261806440E+01  0.0000000000000E+00
 0.1926641740278E+00 -0.2901040159091E+01  0.0000000000000E+00
 0.1927535233632E+00 -0.2827820080573E+01  0.0000000000000E+00
 0.1929259577963E+00 -0.2754604844905E+01  0.0000000000000E+00
 0.1932017974845E+00 -0.2681400135744E+01  0.0000000000000E+00
 0.1935940752064E+00 -0.2608213096582E+01  0.0000000000000E+00
 0.1941111241963E+00 -0.2535052060780E+01  0.0000000000000E+00
 0.1947595668518E+00 -0.2461926011733E+01  0.0000000000000E+00
 0.1955468949300E+00 -0.2388845665039E+01  0.0000000000000E+00
 0.1964834146637E+00 -0.2315824609092E+01  0.0000000000000E+00
 0.1975685462823E+00 -0.2242872654162E+01  0.0000000000000E+00
 0.1987871809622E+00 -0.2169991558216E+01  0.0000000000000E+00
 0.2001285330459E+00 -0.2097182999597E+01  0.0000000000000E+00
 0.2015863296650E+00 -0.2024449756583E+01  0.0000000000000E+00
 0.2031585237745E+00 -0.1951796731204E+01  0.0000000000000E+00
 0.2048482569157E+00 -0.1879232823336E+01  0.0000000000000E+00
 0.2066681627825E+00 -0.1806775241636E+01  0.0000000000000E+00
 0.2200058153998E+00 -0.4658386905282E+01  0.0000000000000E+00
 0.2200116307875E+00 -0.4585186837434E+01  0.0000000000000E+00
 0.2200174462108E+00 -0.4511986320076E+01  0.0000000000000E+00
 0.2200232616179E+00 -0.4438786007934E+01  0.0000000000000E+00
 0.2200290770239E+00 -0.4365585710349E+01  0.0000000000000E+00
 0.2200348924320E+00 -0.4292385385258E+01  0.0000000000000E+00
 0.2200407078366E+00 -0.4219185103431E+01  0.0000000000000E+00
 0.2200465232434E+00 -0.4145984794769E+01  0.0000000000000E+00
 0.2200523386498E+00 -0.4072784491483E+01  0.0000000000000E+00
 0.2200581540556E+00 -0.3999584196280E+01  0.0000000000000E+00
 0.2200639694625E+00 -0.3926383885756E+01  0.0000000000000E+00
 0.2200697848676E+00 -0.3853183599236E+01  0.0000000000000E+00
 0.2200756002751E+00 -0.3779983280770E+01  0.0000000000000E+00
 0.2200814156875E+00 -0.3706782902585E+01  0.0000000000000E+00
 0.2200872310981E+00 -0.3633582545232E+01  0.0000000000000E+00
 0.2200930465019E+00 -0.3560382275447E+01  0.0000000000000E+00
 0.2200988619569E+00 -0.3487181359413E+01  0.0000000000000E+00
 0.2201046773148E+00 -0.3413981666454E+01  0.0000000000000E+00
 0.2201104927220E+00 -0.3340781352582E+01  0.0000000000000E+00
 0.2201163081229E+00 -0.3267581118919E+01  0.0000000000000E+00
 0.2201221235163E+00 -0.3194380978490E+01  0.0000000000000E+00
 0.2201279389127E+00 -0.3121180801122E+01  0.0000000000000E+00
 0.2201337543117E+00 -0.3047980591018E+01  0.0000000000000E+00
 0.2201434395357E+00 -0.2974780317904E+01  0.0000000000000E+00
 0.2201819197651E+00 -0.2901580275183E+01  0.0000000000000E+00
 0.2202838049834E+00 -0.2828381801256E+01  0.0000000000000E+00
 0.2204806445985E+00 -0.2755188170172E+01  0.0000000000000E+00
 0.2207956616474E+00 -0.2682005065570E+01  0.0000000000000E+00
 0.2212437507339E+00 -0.2608839630967E+01  0.0000000000000E+00
 0.2218344355546E+00 -0.2535700199692E+01  0.0000000000000E+00
 0.2225752845634E+00 -0.2462595755191E+01  0.0000000000000E+00
 0.2234748597682E+00 -0.2389537013054E+01  0.0000000000000E+00
 0.2245449397216E+00 -0.2316537561614E+01  0.0000000000000E+00
 0.2257848618277E+00 -0.2243607211216E+01  0.0000000000000E+00
 0.2271773588597E+00 -0.2170747719827E+01  0.0000000000000E+00
 0.2287101043520E+00 -0.2097960765773E+01  0.0000000000000E+00
 0.2303759293123E+00 -0.2025249127350E+01  0.0000000000000E+00
 0.2321724942604E+00 -0.1952617706584E+01  0.0000000000000E+00
 0.2341033895299E+00 -0.1880075403276E+01  0.0000000000000E+00
 0.2361830536282E+00 -0.1807639426087E+01  0.0000000000000E+00
 0.2475062513560E+00 -0.4658411386427E+01  0.0000000000000E+00
 0.2475125026990E+00 -0.4585235799674E+01  0.0000000000000E+00
 0.2475187540803E+00 -0.4512059763560E+01  0.0000000000000E+00
 0.2475250054442E+00 -0.4438883932594E+01  0.0000000000000E+00
 0.2475312568068E+00 -0.4365708116181E+01  0.0000000000000E+00
 0.2475375081717E+00 -0.4292532272270E+01  0.0000000000000E+00
 0.2475437595330E+00 -0.4219356471609E+01  0.0000000000000E+00
 0.2475500108965E+00 -0.4146180644121E+01  0.0000000000000E+00
 0.2475562622596E+00 -0.4073004822009E+01  0.0000000000000E+00
 0.2475625136220E+00 -0.3999829007976E+01  0.0000000000000E+00
 0.2475687649857E+00 -0.3926653178627E+01  0.0000000000000E+00
 0.2475750163473E+00 -0.3853477373275E+01  0.0000000000000E+00
 0.2475812677117E+00 -0.3780301535987E+01  0.0000000000000E+00
 0.2475875190812E+00 -0.3707125639000E+01  0.0000000000000E+00
 0.2475937704489E+00 -0.3633949762838E+01  0.0000000000000E+00
 0.2476000218091E+00 -0.3560773974215E+01  0.0000000000000E+00
 0.2476062732245E+00 -0.3487597539559E+01  0.0000000000000E+00
 0.2476125245354E+00 -0.3414422327569E+01  0.0000000000000E+00
 0.2476187758994E+00 -0.3341246494873E+01  0.0000000000000E+00
 0.2476250272566E+00 -0.3268070742360E+01  0.0000000000000E+00
 0.2476312786057E+00 -0.3194895083049E+01  0.0000000000000E+00
 0.2476375299581E+00 -0.3121719386813E+01  0.0000000000000E+00
 0.2476437813132E+00 -0.3048543657851E+01  0.0000000000000E+00
 0.2476543862212E+00 -0.2975367865900E+01  0.0000000000000E+00
 0.2476973855103E+00 -0.2902192304328E+01  0.0000000000000E+00
 0.2478117154120E+00 -0.2829018311508E+01  0.0000000000000E+00
 0.2480328690096E+00 -0.2755849161521E+01  0.0000000000000E+00
 0.2483869722199E+00 -0.2682690537989E+01  0.0000000000000E+00
 0.2488907814716E+00 -0.2609549584457E+01  0.0000000000000E+00
 0.2495550109240E+00 -0.2536434634215E+01  0.0000000000000E+00
 0.2503881750867E+00 -0.2463354670768E+01  0.0000000000000E+00
 0.2513999062187E+00 -0.2390320409700E+01  0.0000000000000E+00
 0.2526034551925E+00 -0.2317345439271E+01  0.0000000000000E+00
 0.2539980765867E+00 -0.2244439569913E+01  0.0000000000000E+00
 0.2555643447712E+00 -0.2171604559590E+01  0.0000000000000E+00
 0.2572883924727E+00 -0.2098842086614E+01  0.0000000000000E+00
 0.2591621545745E+00 -0.2026154929295E+01  0.0000000000000E+00
 0.2611829991614E+00 -0.1953547989660E+01  0.0000000000000E+00
 0.2633549653598E+00 -0.1881030167425E+01  0.0000000000000E+00
 0.2656942964902E+00 -0.1808618671252E+01  0.0000000000000E+00
 0.2750065850588E+00 -0.4658438742571E+01  0.0000000000000E+00
 0.2750131701039E+00 -0.4585290511904E+01  0.0000000000000E+00
 0.2750197551894E+00 -0.4512141832045E+01  0.0000000000000E+00
 0.2750263402564E+00 -0.4438993357257E+01  0.0000000000000E+00
 0.2750329253222E+00 -0.4365844897016E+01  0.0000000000000E+00
 0.2750395103904E+00 -0.4292696409288E+01  0.0000000000000E+00
 0.2750460954547E+00 -0.4219547964793E+01  0.0000000000000E+00
 0.2750526805214E+00 -0.4146399493482E+01  0.0000000000000E+00
 0.2750592655877E+00 -0.4073251027544E+01  0.0000000000000E+00
 0.2750658506532E+00 -0.4000102569683E+01  0.0000000000000E+00
 0.2750724357201E+00 -0.3926954096512E+01  0.0000000000000E+00
 0.2750790207848E+00 -0.3853805647328E+01  0.0000000000000E+00
 0.2750856058524E+00 -0.3780657166220E+01  0.0000000000000E+00
 0.2750921909254E+00 -0.3707508625436E+01  0.0000000000000E+00
 0.2750987759965E+00 -0.3634360105469E+01  0.0000000000000E+00
 0.2751053610598E+00 -0.3561211673007E+01  0.0000000000000E+00
 0.2751119461812E+00 -0.3488062594756E+01  0.0000000000000E+00
 0.2751185311925E+00 -0.3414914738712E+01  0.0000000000000E+00
 0.2751251162597E+00 -0.3341766262195E+01  0.0000000000000E+00
 0.2751317013197E+00 -0.3268617865830E+01  0.0000000000000E+00
 0.2751382863713E+00 -0.3195469562633E+01  0.0000000000000E+00
 0.2751448714262E+00 -0.3122321222524E+01  0.0000000000000E+00
 0.2751514564841E+00 -0.3049172849702E+01  0.0000000000000E+00
 0.2751628788227E+00 -0.2976024413916E+01  0.0000000000000E+00
 0.2752102949189E+00 -0.2902876208491E+01  0.0000000000000E+00
 0.2753369672533E+00 -0.2829729571771E+01  0.0000000000000E+00
 0.2755823325853E+00 -0.2756587777875E+01  0.0000000000000E+00
 0.2759754197121E+00 -0.2683456510402E+01  0.0000000000000E+00
 0.2765348468877E+00 -0.2610342912930E+01  0.0000000000000E+00
 0.2772725187343E+00 -0.2537255318706E+01  0.0000000000000E+00
 0.2781978958174E+00 -0.2464202711301E+01  0.0000000000000E+00
 0.2793216806473E+00 -0.2391195806292E+01  0.0000000000000E+00
 0.2806585964169E+00 -0.2318248191856E+01  0.0000000000000E+00
 0.2822078148791E+00 -0.2245369678523E+01  0.0000000000000E+00
 0.2839477520001E+00 -0.2172562024256E+01  0.0000000000000E+00
 0.2858629996983E+00 -0.2099826907348E+01  0.0000000000000E+00
 0.2879445967325E+00 -0.2027167106128E+01  0.0000000000000E+00
 0.2901896187525E+00 -0.1954587522619E+01  0.0000000000000E+00
 0.2926025536778E+00 -0.1882097056446E+01  0.0000000000000E+00
 0.2952014496426E+00 -0.1809712916272E+01  0.0000000000000E+00
 0.3025068043940E+00 -0.4658468971968E+01  0.0000000000000E+00
 0.3025136087739E+00 -0.4585350970636E+01  0.0000000000000E+00
 0.3025204131955E+00 -0.4512232520297E+01  0.0000000000000E+00
 0.3025272175981E+00 -0.4439114274945E+01  0.0000000000000E+00
 0.3025340219993E+00 -0.4365996044133E+01  0.0000000000000E+00
 0.3025408264030E+00 -0.4292877785846E+01  0.0000000000000E+00
 0.3025476308028E+00 -0.4219759570774E+01  0.0000000000000E+00
 0.3025544352050E+00 -0.4146641328897E+01  0.0000000000000E+00
 0.3025612396067E+00 -0.4073523092391E+01  0.0000000000000E+00
 0.3025680440077E+00 -0.4000404863958E+01  0.0000000000000E+00
 0.3025748484101E+00 -0.3927286620221E+01  0.0000000000000E+00
 0.3025816528103E+00 -0.3854168400463E+01  0.0000000000000E+00
 0.3025884572134E+00 -0.3781050148793E+01  0.0000000000000E+00
 0.3025952616221E+00 -0.3707931837471E+01  0.0000000000000E+00
 0.3026020660289E+00 -0.3634813546959E+01  0.0000000000000E+00
 0.3026088704275E+00 -0.3561695343915E+01  0.0000000000000E+00
 0.3026156748862E+00 -0.3488576495348E+01  0.0000000000000E+00
 0.3026224792312E+00 -0.3415458868484E+01  0.0000000000000E+00
 0.3026292836339E+00 -0.3342340621403E+01  0.0000000000000E+00
 0.3026360880292E+00 -0.3269222454441E+01  0.0000000000000E+00
 0.3026428924158E+00 -0.3196104380609E+01  0.0000000000000E+00
 0.3026496968058E+00 -0.3122986269880E+01  0.0000000000000E+00
 0.3026565011989E+00 -0.3049868126451E+01  0.0000000000000E+00
 0.3026686266003E+00 -0.2976749920085E+01  0.0000000000000E+00
 0.3027203451345E+00 -0.2903631944063E+01  0.0000000000000E+00
 0.3028592455296E+00 -0.2830515536692E+01  0.0000000000000E+00
 0.3031287082196E+00 -0.2757403972134E+01  0.0000000000000E+00
 0.3035606648810E+00 -0.2684302933966E+01  0.0000000000000E+00
 0.3041755955924E+00 -0.2611219565799E+01  0.0000000000000E+00
 0.3049865954384E+00 -0.2538162200834E+01  0.0000000000000E+00
 0.3060040710399E+00 -0.2465139822714E+01  0.0000000000000E+00
 0.3072397951582E+00 -0.2392163147008E+01  0.0000000000000E+00
 0.3087099633062E+00 -0.2319245761804E+01  0.0000000000000E+00
 0.3104136644108E+00 -0.2246397477737E+01  0.0000000000000E+00
 0.3123271560352E+00 -0.2173620052771E+01  0.0000000000000E+00
 0.3144334892904E+00 -0.2100915165177E+01  0.0000000000000E+00
 0.3167228068109E+00 -0.2028285593305E+01  0.0000000000000E+00
 0.3191918918116E+00 -0.1955736239175E+01  0.0000000000000E+00
 0.3218456810053E+00 -0.1883276002310E+01  0.0000000000000E+00
 0.3247040273393E+00 -0.1810922091373E+01  0.0000000000000E+00
 0.3300068990355E+00 -0.4658502072771E+01  0.0000000000000E+00
 0.3300137980567E+00 -0.4585417172174E+01  0.0000000000000E+00
 0.3300206971202E+00 -0.4512331822772E+01  0.0000000000000E+00
 0.3300275961644E+00 -0.4439246678265E+01  0.0000000000000E+00
 0.3300344952072E+00 -0.4366161548291E+01  0.0000000000000E+00
 0.3300413942526E+00 -0.4293076390855E+01  0.0000000000000E+00
 0.3300482932940E+00 -0.4219991276614E+01  0.0000000000000E+00
 0.3300551923378E+00 -0.4146906135581E+01  0.0000000000000E+00
 0.3300620913812E+00 -0.4073820999915E+01  0.0000000000000E+00
 0.3300689904238E+00 -0.4000735872320E+01  0.0000000000000E+00
 0.3300758894678E+00 -0.3927650729427E+01  0.0000000000000E+00
 0.3300827885096E+00 -0.3854565610502E+01  0.0000000000000E+00
 0.3300896875544E+00 -0.3781480459680E+01  0.0000000000000E+00
 0.3300965866048E+00 -0.3708395249233E+01  0.0000000000000E+00
 0.3301034856532E+00 -0.3635310059585E+01  0.0000000000000E+00
 0.3301103846934E+00 -0.3562224957367E+01  0.0000000000000E+00
 0.3301172837945E+00 -0.3489139209918E+01  0.0000000000000E+00
 0.3301241827804E+00 -0.3416054683619E+01  0.0000000000000E+00
 0.3301310818247E+00 -0.3342969537384E+01  0.0000000000000E+00
 0.3301379808615E+00 -0.3269884471232E+01  0.0000000000000E+00
 0.3301448798895E+00 -0.3196799498167E+01  0.0000000000000E+00
 0.3301517789210E+00 -0.3123714488221E+01  0.0000000000000E+00
 0.3301586779556E+00 -0.3050629445591E+01  0.0000000000000E+00
 0.3301713817261E+00 -0.2977544340053E+01  0.0000000000000E+00
 0.3302272780059E+00 -0.2904459464839E+01  0.0000000000000E+00
 0.3303782817725E+00 -0.2831376158220E+01  0.0000000000000E+00
 0.3306717171352E+00 -0.2758297694401E+01  0.0000000000000E+00
 0.3311424186512E+00 -0.2685229756934E+01  0.0000000000000E+00
 0.3318127282240E+00 -0.2612179489470E+01  0.0000000000000E+00
 0.3326969314014E+00 -0.2539155225155E+01  0.0000000000000E+00
 0.3338063808598E+00 -0.2466165947716E+01  0.0000000000000E+00
 0.3351539196114E+00 -0.2393222372710E+01  0.0000000000000E+00
 0.3367572154907E+00 -0.2320338088127E+01  0.0000000000000E+00
 0.3386152745975E+00 -0.2247522904721E+01  0.0000000000000E+00
 0.3407021960918E+00 -0.2174778580452E+01  0.0000000000000E+00
 0.3429994902762E+00 -0.2102106793569E+01  0.0000000000000E+00
 0.3454964036609E+00 -0.2029510322446E+01  0.0000000000000E+00
 0.3481894270257E+00 -0.1956994069100E+01  0.0000000000000E+00
 0.3510839458773E+00 -0.1884566932939E+01  0.0000000000000E+00
 0.3542016179765E+00 -0.1812246122631E+01  0.0000000000000E+00
 0.3575068569661E+00 -0.4658538042879E+01  0.0000000000000E+00
 0.3575137139178E+00 -0.4585489112314E+01  0.0000000000000E+00
 0.3575205709117E+00 -0.4512439733166E+01  0.0000000000000E+00
 0.3575274278864E+00 -0.4439390558811E+01  0.0000000000000E+00
 0.3575342848597E+00 -0.4366341398983E+01  0.0000000000000E+00
 0.3575411418356E+00 -0.4293292211706E+01  0.0000000000000E+00
 0.3575479988074E+00 -0.4220243067603E+01  0.0000000000000E+00
 0.3575548557817E+00 -0.4147193896721E+01  0.0000000000000E+00
 0.3575617127555E+00 -0.4074144731204E+01  0.0000000000000E+00
 0.3575685697286E+00 -0.4001095573752E+01  0.0000000000000E+00
 0.3575754267031E+00 -0.3928046401012E+01  0.0000000000000E+00
 0.3575822836754E+00 -0.3854997252227E+01  0.0000000000000E+00
 0.3575891406506E+00 -0.3781948071560E+01  0.0000000000000E+00
 0.3575959976315E+00 -0.3708898831298E+01  0.0000000000000E+00
 0.3576028546104E+00 -0.3635849611826E+01  0.0000000000000E+00
 0.3576097115811E+00 -0.3562800479740E+01  0.0000000000000E+00
 0.3576165686123E+00 -0.3489750702740E+01  0.0000000000000E+00
 0.3576234255290E+00 -0.3416702146290E+01  0.0000000000000E+00
 0.3576302825038E+00 -0.3343652970208E+01  0.0000000000000E+00
 0.3576371394711E+00 -0.3270603874170E+01  0.0000000000000E+00
 0.3576439964297E+00 -0.3197554871173E+01  0.0000000000000E+00
 0.3576508533917E+00 -0.3124505831314E+01  0.0000000000000E+00
 0.3576577103568E+00 -0.3051456758786E+01  0.0000000000000E+00
 0.3576708557852E+00 -0.2978407623384E+01  0.0000000000000E+00
 0.3577307930988E+00 -0.2905358718283E+01  0.0000000000000E+00
 0.3578937635234E+00 -0.2832311381714E+01  0.0000000000000E+00
 0.3582110348432E+00 -0.2759268887932E+01  0.0000000000000E+00
 0.3587203444949E+00 -0.2686236920463E+01  0.0000000000000E+00
 0.3594458962068E+00 -0.2613222622996E+01  0.0000000000000E+00
 0.3604031659898E+00 -0.2540234328623E+01  0.0000000000000E+00
 0.3616044525750E+00 -0.2467281021158E+01  0.0000000000000E+00
 0.3630636692258E+00 -0.2394373416147E+01  0.0000000000000E+00
 0.3647999560978E+00 -0.2321525101475E+01  0.0000000000000E+00
 0.3668122364638E+00 -0.2248745888021E+01  0.0000000000000E+00
 0.3690724510805E+00 -0.2176037533744E+01  0.0000000000000E+00
 0.3715605694432E+00 -0.2103401716869E+01  0.0000000000000E+00
 0.3742649419373E+00 -0.2030841215795E+01  0.0000000000000E+00
 0.3771817669077E+00 -0.1958360932534E+01  0.0000000000000E+00
 0.3803168786556E+00 -0.1885969766374E+01  0.0000000000000E+00
 0.3836937397548E+00 -0.1813684925983E+01  0.0000000000000E+00
 0.3850066672510E+00 -0.4658576880061E+01  0.0000000000000E+00
 0.3850133344881E+00 -0.4585566786598E+01  0.0000000000000E+00
 0.3850200017662E+00 -0.4512556244790E+01  0.0000000000000E+00
 0.3850266690256E+00 -0.4439545907666E+01  0.0000000000000E+00
 0.3850333362836E+00 -0.4366535585061E+01  0.0000000000000E+00
 0.3850400035442E+00 -0.4293525235022E+01  0.0000000000000E+00
 0.3850466708008E+00 -0.4220514928134E+01  0.0000000000000E+00
 0.3850533380599E+00 -0.4147504594480E+01  0.0000000000000E+00
 0.3850600053184E+00 -0.4074494266190E+01  0.0000000000000E+00
 0.3850666725763E+00 -0.4001483945960E+01  0.0000000000000E+00
 0.3850733398355E+00 -0.3928473610450E+01  0.0000000000000E+00
 0.3850800070925E+00 -0.3855463298882E+01  0.0000000000000E+00
 0.3850866743525E+00 -0.3782452955450E+01  0.0000000000000E+00
 0.3850933416179E+00 -0.3709442552454E+01  0.0000000000000E+00
 0.3851000088814E+00 -0.3636432170237E+01  0.0000000000000E+00
 0.3851066761369E+00 -0.3563421875359E+01  0.0000000000000E+00
 0.3851133434512E+00 -0.3490410935911E+01  0.0000000000000E+00
 0.3851200106542E+00 -0.3417401216363E+01  0.0000000000000E+00
 0.3851266779138E+00 -0.3344390877513E+01  0.0000000000000E+00
 0.3851333451660E+00 -0.3271380618664E+01  0.0000000000000E+00
 0.3851400124097E+00 -0.3198370452807E+01  0.0000000000000E+00
 0.3851466796568E+00 -0.3125360250108E+01  0.0000000000000E+00
 0.3851533469069E+00 -0.3052350014757E+01  0.0000000000000E+00
 0.3851667863476E+00 -0.2979339716566E+01  0.0000000000000E+00
 0.3852306170495E+00 -0.2906329648653E+01  0.0000000000000E+00
 0.3854054064870E+00 -0.2833321149205E+01  0.0000000000000E+00
 0.3857463661188E+00 -0.2760317492529E+01  0.0000000000000E+00
 0.3862941362620E+00 -0.2687324362123E+01  0.0000000000000E+00
 0.3870747824689E+00 -0.2614348901720E+01  0.0000000000000E+00
 0.3881049712139E+00 -0.2541399444351E+01  0.0000000000000E+00
 0.3893979472826E+00 -0.2468484973924E+01  0.0000000000000E+00
 0.3909686941895E+00 -0.2395616205974E+01  0.0000000000000E+00
 0.3928378244118E+00 -0.2322806728271E+01  0.0000000000000E+00
 0.3950041783950E+00 -0.2250066351831E+01  0.0000000000000E+00
 0.3974375384922E+00 -0.2177396834612E+01  0.0000000000000E+00
 0.4001163333914E+00 -0.2104799854812E+01  0.0000000000000E+00
 0.4030280173533E+00 -0.2032278190856E+01  0.0000000000000E+00
 0.4061684962881E+00 -0.1959836744754E+01  0.0000000000000E+00
 0.4095440532914E+00 -0.1887484415661E+01  0.0000000000000E+00
 0.4131799557506E+00 -0.1815238412246E+01  0.0000000000000E+00
 0.4125063190932E+00 -0.4658618581925E+01  0.0000000000000E+00
 0.4125126381733E+00 -0.4585650190237E+01  0.0000000000000E+00
 0.4125189572921E+00 -0.4512681350462E+01  0.0000000000000E+00
 0.4125252763933E+00 -0.4439712715254E+01  0.0000000000000E+00
 0.4125315954932E+00 -0.4366744094556E+01  0.0000000000000E+00
 0.4125379145954E+00 -0.4293775446440E+01  0.0000000000000E+00
 0.4125442336940E+00 -0.4220806841450E+01  0.0000000000000E+00
 0.4125505527948E+00 -0.4147838209710E+01  0.0000000000000E+00
 0.4125568718952E+00 -0.4074869583330E+01  0.0000000000000E+00
 0.4125631909949E+00 -0.4001900965006E+01  0.0000000000000E+00
 0.4125695100959E+00 -0.3928932331410E+01  0.0000000000000E+00
 0.4125758291948E+00 -0.3855963721744E+01  0.0000000000000E+00
 0.4125821482965E+00 -0.3782995080231E+01  0.0000000000000E+00
 0.4125884674034E+00 -0.3710026379188E+01  0.0000000000000E+00
 0.4125947865084E+00 -0.3637057698912E+01  0.0000000000000E+00
 0.4126011056059E+00 -0.3564089105926E+01  0.0000000000000E+00
 0.4126074247592E+00 -0.3491119868737E+01  0.0000000000000E+00
 0.4126137438069E+00 -0.3418151850752E+01  0.0000000000000E+00
 0.4126200629082E+00 -0.3345183213819E+01  0.0000000000000E+00
 0.4126263820025E+00 -0.3272214656840E+01  0.0000000000000E+00
 0.4126327010889E+00 -0.3199246192801E+01  0.0000000000000E+00
 0.4126390201784E+00 -0.3126277691941E+01  0.0000000000000E+00
 0.4126453392707E+00 -0.3053309158447E+01  0.0000000000000E+00
 0.4126589142810E+00 -0.2980340562151E+01  0.0000000000000E+00
 0.4127264799297E+00 -0.2907372196107E+01  0.0000000000000E+00
 0.4129129299416E+00 -0.2834405398456E+01  0.0000000000000E+00
 0.4132774194510E+00 -0.2761443443563E+01  0.0000000000000E+00
 0.4138634916560E+00 -0.2688492014891E+01  0.0000000000000E+00
 0.4146990739339E+00 -0.2615558256224E+01  0.0000000000000E+00
 0.4158020232230E+00 -0.2542650500527E+01  0.0000000000000E+00
 0.4171865303632E+00 -0.2469777731808E+01  0.0000000000000E+00
 0.4188686491207E+00 -0.2396950665591E+01  0.0000000000000E+00
 0.4208704642954E+00 -0.2324182889523E+01  0.0000000000000E+00
 0.4231907335043E+00 -0.2251484214766E+01  0.0000000000000E+00
 0.4257970806970E+00 -0.2178856399276E+01  0.0000000000000E+00
 0.4286663937532E+00 -0.2106301121224E+01  0.0000000000000E+00
 0.4317852308089E+00 -0.2033821159063E+01  0.0000000000000E+00
 0.4351492053391E+00 -0.1961421414798E+01  0.0000000000000E+00
 0.4387650492349E+00 -0.1889110787444E+01  0.0000000000000E+00
 0.4426598346975E+00 -0.1816906485672E+01  0.0000000000000E+00
 0.4400058000888E+00 -0.4658663145799E+01  0.0000000000000E+00
 0.4400116001655E+00 -0.4585739317892E+01  0.0000000000000E+00
 0.4400174002778E+00 -0.4512815042172E+01  0.0000000000000E+00
 0.4400232003739E+00 -0.4439890970894E+01  0.0000000000000E+00
 0.4400290004688E+00 -0.4366966914117E+01  0.0000000000000E+00
 0.4400348005658E+00 -0.4294042829939E+01  0.0000000000000E+00
 0.4400406006595E+00 -0.4221118788861E+01  0.0000000000000E+00
 0.4400464007553E+00 -0.4148194721049E+01  0.0000000000000E+00
 0.4400522008506E+00 -0.4075270658593E+01  0.0000000000000E+00
 0.4400580009453E+00 -0.4002346604189E+01  0.0000000000000E+00
 0.4400638010413E+00 -0.3929422534522E+01  0.0000000000000E+00
 0.4400696011353E+00 -0.3856498488770E+01  0.0000000000000E+00
 0.4400754012318E+00 -0.3783574411191E+01  0.0000000000000E+00
 0.4400812013331E+00 -0.3710650274118E+01  0.0000000000000E+00
 0.4400870014328E+00 -0.3637726157800E+01  0.0000000000000E+00
 0.4400928015255E+00 -0.3564802128718E+01  0.0000000000000E+00
 0.4400986016694E+00 -0.3491877455827E+01  0.0000000000000E+00
 0.4401044017164E+00 -0.3418954001394E+01  0.0000000000000E+00
 0.4401102018126E+00 -0.3346029928392E+01  0.0000000000000E+00
 0.4401160019024E+00 -0.3273105935296E+01  0.0000000000000E+00
 0.4401218019848E+00 -0.3200182035083E+01  0.0000000000000E+00
 0.4401276020702E+00 -0.3127258098070E+01  0.0000000000000E+00
 0.4401334021582E+00 -0.3054334128444E+01  0.0000000000000E+00
 0.4401469418909E+00 -0.2981410096056E+01  0.0000000000000E+00
 0.4402180716374E+00 -0.2908486293893E+01  0.0000000000000E+00
 0.4404160113703E+00 -0.2835564060045E+01  0.0000000000000E+00
 0.4408038598970E+00 -0.2762646668939E+01  0.0000000000000E+00
 0.4414280632953E+00 -0.2689739804004E+01  0.0000000000000E+00
 0.4423184107658E+00 -0.2616850609075E+01  0.0000000000000E+00
 0.4434939497105E+00 -0.2543987417048E+01  0.0000000000000E+00
 0.4449698170227E+00 -0.2471159212037E+01  0.0000000000000E+00
 0.4467631367197E+00 -0.2398376709555E+01  0.0000000000000E+00
 0.4488974659235E+00 -0.2325653497116E+01  0.0000000000000E+00
 0.4513714794224E+00 -0.2252999386040E+01  0.0000000000000E+00
 0.4541506427632E+00 -0.2180416134282E+01  0.0000000000000E+00
 0.4572103030192E+00 -0.2107905419981E+01  0.0000000000000E+00
 0.4605361222013E+00 -0.2035470021620E+01  0.0000000000000E+00
 0.4641234213498E+00 -0.1963114841203E+01  0.0000000000000E+00
 0.4679793811517E+00 -0.1890848777590E+01  0.0000000000000E+00
 0.4721328786209E+00 -0.1818689039456E+01  0.0000000000000E+00
 0.4675051005201E+00 -0.4658710569005E+01  0.0000000000000E+00
 0.4675102010296E+00 -0.4585834164207E+01  0.0000000000000E+00
 0.4675153015704E+00 -0.4512957311885E+01  0.0000000000000E+00
 0.4675204020969E+00 -0.4440080663873E+01  0.0000000000000E+00
 0.4675255026224E+00 -0.4367204030353E+01  0.0000000000000E+00
 0.4675306031498E+00 -0.4294327369449E+01  0.0000000000000E+00
 0.4675357036742E+00 -0.4221450751617E+01  0.0000000000000E+00
 0.4675408042005E+00 -0.4148574107069E+01  0.0000000000000E+00
 0.4675459047264E+00 -0.4075697467873E+01  0.0000000000000E+00
 0.4675510052517E+00 -0.4002820836724E+01  0.0000000000000E+00
 0.4675561057781E+00 -0.3929944190322E+01  0.0000000000000E+00
 0.4675612063029E+00 -0.3857067567819E+01  0.0000000000000E+00
 0.4675663068298E+00 -0.3784190913510E+01  0.0000000000000E+00
 0.4675714073609E+00 -0.3711314199746E+01  0.0000000000000E+00
 0.4675765078906E+00 -0.3638437506723E+01  0.0000000000000E+00
 0.4675816084142E+00 -0.3565560900880E+01  0.0000000000000E+00
 0.4675867089827E+00 -0.3492683651646E+01  0.0000000000000E+00
 0.4675918094661E+00 -0.3419807620078E+01  0.0000000000000E+00
 0.4675969099927E+00 -0.3346930970343E+01  0.0000000000000E+00
 0.4676020105138E+00 -0.3274054400462E+01  0.0000000000000E+00
 0.4676071110283E+00 -0.3201177923403E+01  0.0000000000000E+00
 0.4676122115455E+00 -0.3128301409569E+01  0.0000000000000E+00
 0.4676173120649E+00 -0.3055424863144E+01  0.0000000000000E+00
 0.4676306359560E+00 -0.2982548253998E+01  0.0000000000000E+00
 0.4677051492379E+00 -0.2909671875048E+01  0.0000000000000E+00
 0.4679143981338E+00 -0.2836797064332E+01  0.0000000000000E+00
 0.4683254251255E+00 -0.2763927096339E+01  0.0000000000000E+00
 0.4689875791721E+00 -0.2691067654466E+01  0.0000000000000E+00
 0.4699325112982E+00 -0.2618225882598E+01  0.0000000000000E+00
 0.4711804593705E+00 -0.2545410113560E+01  0.0000000000000E+00
 0.4727475063358E+00 -0.2472629331579E+01  0.0000000000000E+00
 0.4746518464626E+00 -0.2399894252155E+01  0.0000000000000E+00
 0.4769185091967E+00 -0.2327218462663E+01  0.0000000000000E+00
 0.4795460864969E+00 -0.2254611774588E+01  0.0000000000000E+00
 0.4824978855064E+00 -0.2182075945884E+01  0.0000000000000E+00
 0.4857477124908E+00 -0.2109612654658E+01  0.0000000000000E+00
 0.4892803333359E+00 -0.2037224679426E+01  0.0000000000000E+00
 0.4930907766471E+00 -0.1964916922187E+01  0.0000000000000E+00
 0.4971866719080E+00 -0.1892698281639E+01  0.0000000000000E+00
 0.5015987009462E+00 -0.1820585966460E+01  0.0000000000000E+00
 0.4950042083210E+00 -0.4658760848539E+01  0.0000000000000E+00
 0.4950084166332E+00 -0.4585934723169E+01  0.0000000000000E+00
 0.4950126249712E+00 -0.4513108150585E+01  0.0000000000000E+00
 0.4950168332975E+00 -0.4440281782170E+01  0.0000000000000E+00
 0.4950210416229E+00 -0.4367455428237E+01  0.0000000000000E+00
 0.4950252499499E+00 -0.4294629046938E+01  0.0000000000000E+00
 0.4950294582744E+00 -0.4221802708682E+01  0.0000000000000E+00
 0.4950336666004E+00 -0.4148976343728E+01  0.0000000000000E+00
 0.4950378749262E+00 -0.4076149984123E+01  0.0000000000000E+00
 0.4950420832514E+00 -0.4003323632559E+01  0.0000000000000E+00
 0.4950462915776E+00 -0.3930497265753E+01  0.0000000000000E+00
 0.4950504999024E+00 -0.3857670922829E+01  0.0000000000000E+00
 0.4950547082290E+00 -0.3784844548121E+01  0.0000000000000E+00
 0.4950589165590E+00 -0.3712018113999E+01  0.0000000000000E+00
 0.4950631248879E+00 -0.3639191700604E+01  0.0000000000000E+00
 0.4950673332117E+00 -0.3566365374328E+01  0.0000000000000E+00
 0.4950715415726E+00 -0.3493538405106E+01  0.0000000000000E+00
 0.4950757498633E+00 -0.3420712652710E+01  0.0000000000000E+00
 0.4950799581896E+00 -0.3347886282572E+01  0.0000000000000E+00
 0.4950841665114E+00 -0.3275059992234E+01  0.0000000000000E+00
 0.4950883748277E+00 -0.3202233794654E+01  0.0000000000000E+00
 0.4950925831462E+00 -0.3129407560324E+01  0.0000000000000E+00
 0.4950967914666E+00 -0.3056581293425E+01  0.0000000000000E+00
 0.4951097068853E+00 -0.2983754963851E+01  0.0000000000000E+00
 0.4951874110714E+00 -0.2910928864443E+01  0.0000000000000E+00
 0.4954077764972E+00 -0.2838104333180E+01  0.0000000000000E+00
 0.4958417893184E+00 -0.2765284644623E+01  0.0000000000000E+00
 0.4965417013745E+00 -0.2692475482128E+01  0.0000000000000E+00
 0.4975410255139E+00 -0.2619683989641E+01  0.0000000000000E+00
 0.4988611900675E+00 -0.2546918499905E+01  0.0000000000000E+00
 0.5005192240350E+00 -0.2474187997271E+01  0.0000000000000E+00
 0.5025343919363E+00 -0.2401503197224E+01  0.0000000000000E+00
 0.5049331955409E+00 -0.2328877686990E+01  0.0000000000000E+00
 0.5077141439775E+00 -0.2256321278231E+01  0.0000000000000E+00
 0.5108383859861E+00 -0.2183835728900E+01  0.0000000000000E+00
 0.5142781870254E+00 -0.2111422717068E+01  0.0000000000000E+00
 0.5180174168560E+00 -0.2039085021287E+01  0.0000000000000E+00
 0.5220508116484E+00 -0.1966827543550E+01  0.0000000000000E+00
 0.5263864496834E+00 -0.1894659182387E+01  0.0000000000000E+00
 0.5310568176018E+00 -0.1822597146475E+01  0.0000000000000E+00
 0.5225031126404E+00 -0.4658813981299E+01  0.0000000000000E+00
 0.5225062252743E+00 -0.4586040988578E+01  0.0000000000000E+00
 0.5225093379273E+00 -0.4513267548970E+01  0.0000000000000E+00
 0.5225124505716E+00 -0.4440494313380E+01  0.0000000000000E+00
 0.5225155632152E+00 -0.4367721092263E+01  0.0000000000000E+00
 0.5225186758601E+00 -0.4294947843801E+01  0.0000000000000E+00
 0.5225217885031E+00 -0.4222174638349E+01  0.0000000000000E+00
 0.5225249011472E+00 -0.4149401406219E+01  0.0000000000000E+00
 0.5225280137911E+00 -0.4076628179434E+01  0.0000000000000E+00
 0.5225311264347E+00 -0.4003854960684E+01  0.0000000000000E+00
 0.5225342390789E+00 -0.3931081726703E+01  0.0000000000000E+00
 0.5225373517221E+00 -0.3858308516587E+01  0.0000000000000E+00
 0.5225404643666E+00 -0.3785535274710E+01  0.0000000000000E+00
 0.5225435770137E+00 -0.3712761973463E+01  0.0000000000000E+00
 0.5225466896599E+00 -0.3639988692926E+01  0.0000000000000E+00
 0.5225498023024E+00 -0.3567215499446E+01  0.0000000000000E+00
 0.5225529149724E+00 -0.3494441663489E+01  0.0000000000000E+00
 0.5225560275903E+00 -0.3421669043470E+01  0.0000000000000E+00
 0.5225591402347E+00 -0.3348895806160E+01  0.0000000000000E+00
 0.5225622528757E+00 -0.3276122648591E+01  0.0000000000000E+00
 0.5225653655126E+00 -0.3203349583713E+01  0.0000000000000E+00
 0.5225684781512E+00 -0.3130576482112E+01  0.0000000000000E+00
 0.5225715907911E+00 -0.3057803347965E+01  0.0000000000000E+00
 0.5225838942559E+00 -0.2985030151191E+01  0.0000000000000E+00
 0.5226645858642E+00 -0.2912257184550E+01  0.0000000000000E+00
 0.5228958643382E+00 -0.2839485785963E+01  0.0000000000000E+00
 0.5233526595062E+00 -0.2766719230062E+01  0.0000000000000E+00
 0.5240901260887E+00 -0.2693963200164E+01  0.0000000000000E+00
 0.5251436387569E+00 -0.2621224840274E+01  0.0000000000000E+00
 0.5265358163068E+00 -0.2548512483054E+01  0.0000000000000E+00
 0.5282846337900E+00 -0.2475835112982E+01  0.0000000000000E+00
 0.5304104259779E+00 -0.2403203445529E+01  0.0000000000000E+00
 0.5329411669643E+00 -0.2330631067763E+01  0.0000000000000E+00
 0.5358752830470E+00 -0.2258127791534E+01  0.0000000000000E+00
 0.5391717645631E+00 -0.2185695374792E+01  0.0000000000000E+00
 0.5428013361643E+00 -0.2113335495573E+01  0.0000000000000E+00
 0.5467469714862E+00 -0.2041050932465E+01  0.0000000000000E+00
 0.5510031142644E+00 -0.1968846587455E+01  0.0000000000000E+00
 0.5555782915776E+00 -0.1896731358894E+01  0.0000000000000E+00
 0.5605067948795E+00 -0.1824722455461E+01  0.0000000000000E+00
 0.5500018033136E+00 -0.4658869964069E+01  0.0000000000000E+00
 0.5500036066233E+00 -0.4586152954003E+01  0.0000000000000E+00
 0.5500054099442E+00 -0.4513435497392E+01  0.0000000000000E+00
 0.5500072132600E+00 -0.4440718244644E+01  0.0000000000000E+00
 0.5500090165755E+00 -0.4368001006356E+01  0.0000000000000E+00
 0.5500108198916E+00 -0.4295283740744E+01  0.0000000000000E+00
 0.5500126232067E+00 -0.4222566518110E+01  0.0000000000000E+00
 0.5500144265224E+00 -0.4149849268818E+01  0.0000000000000E+00
 0.5500162298380E+00 -0.4077132024867E+01  0.0000000000000E+00
 0.5500180331534E+00 -0.4004414788945E+01  0.0000000000000E+00
 0.5500198364692E+00 -0.3931697537804E+01  0.0000000000000E+00
 0.5500216397843E+00 -0.3858980310509E+01  0.0000000000000E+00
 0.5500234431003E+00 -0.3786263051477E+01  0.0000000000000E+00
 0.5500252464177E+00 -0.3713545733121E+01  0.0000000000000E+00
 0.5500270497347E+00 -0.3640828435461E+01  0.0000000000000E+00
 0.5500288530494E+00 -0.3568111224789E+01  0.0000000000000E+00
 0.5500306563801E+00 -0.3495393372134E+01  0.0000000000000E+00
 0.5500324596807E+00 -0.3422676734482E+01  0.0000000000000E+00
 0.5500342629965E+00 -0.3349959480015E+01  0.0000000000000E+00
 0.5500360663104E+00 -0.3277242305227E+01  0.0000000000000E+00
 0.5500378696220E+00 -0.3204525223058E+01  0.0000000000000E+00
 0.5500396729345E+00 -0.3131808104194E+01  0.0000000000000E+00
 0.5500414762478E+00 -0.3059090952810E+01  0.0000000000000E+00
 0.5500529541124E+00 -0.2986373738849E+01  0.0000000000000E+00
 0.5501364194992E+00 -0.2913656754987E+01  0.0000000000000E+00
 0.5503783973824E+00 -0.2840941339082E+01  0.0000000000000E+00
 0.5508577612655E+00 -0.2768230765842E+01  0.0000000000000E+00
 0.5516325687513E+00 -0.2695530718543E+01  0.0000000000000E+00
 0.5527400563351E+00 -0.2622848341252E+01  0.0000000000000E+00
 0.5542040332787E+00 -0.2550191966546E+01  0.0000000000000E+00
 0.5560434206860E+00 -0.2477570579036E+01  0.0000000000000E+00
 0.5582796235804E+00 -0.2404994894179E+01  0.0000000000000E+00
 0.5609420883813E+00 -0.2332478498877E+01  0.0000000000000E+00
 0.5640291585551E+00 -0.2260031205176E+01  0.0000000000000E+00
 0.5674976660344E+00 -0.2187654771025E+01  0.0000000000000E+00
 0.5713167946636E+00 -0.2115350874421E+01  0.0000000000000E+00
 0.5754686219523E+00 -0.2043122293992E+01  0.0000000000000E+00
 0.5799472992011E+00 -0.1970973931719E+01  0.0000000000000E+00
 0.5847618022875E+00 -0.1898914685761E+01  0.0000000000000E+00
 0.5899482274796E+00 -0.1826961764802E+01  0.0000000000000E+00
 0.5775046063623E+00 -0.4658929169039E+01  0.0000000000000E+00
 0.5775092127151E+00 -0.4586271363819E+01  0.0000000000000E+00
 0.5775138190961E+00 -0.4513613112418E+01  0.0000000000000E+00
 0.5775184254642E+00 -0.4440955064714E+01  0.0000000000000E+00
 0.5775230318314E+00 -0.4368297031459E+01  0.0000000000000E+00
 0.5775276382004E+00 -0.4295638970901E+01  0.0000000000000E+00
 0.5775322445666E+00 -0.4222980953286E+01  0.0000000000000E+00
 0.5775368509345E+00 -0.4150322909036E+01  0.0000000000000E+00
 0.5775414573020E+00 -0.4077664870122E+01  0.0000000000000E+00
 0.5775460636691E+00 -0.4005006839230E+01  0.0000000000000E+00
 0.5775506700371E+00 -0.3932348793131E+01  0.0000000000000E+00
 0.5775552764036E+00 -0.3859690770860E+01  0.0000000000000E+00
 0.5775598827721E+00 -0.3787032716878E+01  0.0000000000000E+00
 0.5775644891444E+00 -0.3714374603619E+01  0.0000000000000E+00
 0.5775690955153E+00 -0.3641716511039E+01  0.0000000000000E+00
 0.5775737018808E+00 -0.3569058505377E+01  0.0000000000000E+00
 0.5775783082869E+00 -0.3496399858254E+01  0.0000000000000E+00
 0.5775829146160E+00 -0.3423742425146E+01  0.0000000000000E+00
 0.5775875209843E+00 -0.3351084375724E+01  0.0000000000000E+00
 0.5775921273474E+00 -0.3278426405916E+01  0.0000000000000E+00
 0.5775967337047E+00 -0.3205768528653E+01  0.0000000000000E+00
 0.5776013400644E+00 -0.3133110614724E+01  0.0000000000000E+00
 0.5776059464261E+00 -0.3060452668301E+01  0.0000000000000E+00
 0.5776207126381E+00 -0.2987794659355E+01  0.0000000000000E+00
 0.5777110774219E+00 -0.2915136880472E+01  0.0000000000000E+00
 0.5779679060300E+00 -0.2842480669443E+01  0.0000000000000E+00
 0.5784740284367E+00 -0.2769829301057E+01  0.0000000000000E+00
 0.5792904145389E+00 -0.2697188458545E+01  0.0000000000000E+00
 0.5804561686988E+00 -0.2624565286044E+01  0.0000000000000E+00
 0.5819962944983E+00 -0.2551968116035E+01  0.0000000000000E+00
 0.5839306621719E+00 -0.2479405933275E+01  0.0000000000000E+00
 0.5862817504648E+00 -0.2406889453203E+01  0.0000000000000E+00
 0.5890804828851E+00 -0.2334432262545E+01  0.0000000000000E+00
 0.5923251198134E+00 -0.2262044173559E+01  0.0000000000000E+00
 0.5959703277778E+00 -0.2189726944188E+01  0.0000000000000E+00
 0.5999837448152E+00 -0.2117482252390E+01  0.0000000000000E+00
 0.6043465494057E+00 -0.2045312876833E+01  0.0000000000000E+00
 0.6090525994664E+00 -0.1973223719494E+01  0.0000000000000E+00
 0.6141113211150E+00 -0.1901223678329E+01  0.0000000000000E+00
 0.6195606212872E+00 -0.1829329962027E+01  0.0000000000000E+00
 0.6050071700463E+00 -0.4658991252418E+01  0.0000000000000E+00
 0.6050143400778E+00 -0.4586395530448E+01  0.0000000000000E+00
 0.6050215101532E+00 -0.4513799362679E+01  0.0000000000000E+00
 0.6050286802085E+00 -0.4441203398432E+01  0.0000000000000E+00
 0.6050358502624E+00 -0.4368607448621E+01  0.0000000000000E+00
 0.6050430203191E+00 -0.4296011471532E+01  0.0000000000000E+00
 0.6050501903714E+00 -0.4223415537349E+01  0.0000000000000E+00
 0.6050573604264E+00 -0.4150819576553E+01  0.0000000000000E+00
 0.6050645304809E+00 -0.4078223621089E+01  0.0000000000000E+00
 0.6050717005346E+00 -0.4005627673640E+01  0.0000000000000E+00
 0.6050788705898E+00 -0.3933031710997E+01  0.0000000000000E+00
 0.6050860406426E+00 -0.3860435772161E+01  0.0000000000000E+00
 0.6050932106985E+00 -0.3787839801641E+01  0.0000000000000E+00
 0.6051003807603E+00 -0.3715243771896E+01  0.0000000000000E+00
 0.6051075508201E+00 -0.3642647762811E+01  0.0000000000000E+00
 0.6051147208713E+00 -0.3570051840571E+01  0.0000000000000E+00
 0.6051218909858E+00 -0.3497455277418E+01  0.0000000000000E+00
 0.6051290609805E+00 -0.3424859927241E+01  0.0000000000000E+00
 0.6051362310360E+00 -0.3352263961278E+01  0.0000000000000E+00
 0.6051434010836E+00 -0.3279668074861E+01  0.0000000000000E+00
 0.6051505711222E+00 -0.3207072280909E+01  0.0000000000000E+00
 0.6051577411643E+00 -0.3134476450324E+01  0.0000000000000E+00
 0.6051649112096E+00 -0.3061880587272E+01  0.0000000000000E+00
 0.6051827264041E+00 -0.2989284661751E+01  0.0000000000000E+00
 0.6052797512201E+00 -0.2916688966257E+01  0.0000000000000E+00
 0.6055511911890E+00 -0.2844094838509E+01  0.0000000000000E+00
 0.6060838327555E+00 -0.2771505553381E+01  0.0000000000000E+00
 0.6069415581107E+00 -0.2698926794058E+01  0.0000000000000E+00
 0.6081653394835E+00 -0.2626365704746E+01  0.0000000000000E+00
 0.6097813747766E+00 -0.2553830617832E+01  0.0000000000000E+00
 0.6118104833542E+00 -0.2481330518221E+01  0.0000000000000E+00
 0.6142762176836E+00 -0.2408876121334E+01  0.0000000000000E+00
 0.6172109783622E+00 -0.2336481013715E+01  0.0000000000000E+00
 0.6206129426840E+00 -0.2264155007840E+01  0.0000000000000E+00
 0.6244346117725E+00 -0.2191899861649E+01  0.0000000000000E+00
 0.6286420778573E+00 -0.2119717253058E+01  0.0000000000000E+00
 0.6332156203890E+00 -0.2047609960779E+01  0.0000000000000E+00
 0.6381488039008E+00 -0.1975582886781E+01  0.0000000000000E+00
 0.6434515047517E+00 -0.1903644928812E+01  0.0000000000000E+00
 0.6491634405451E+00 -0.1831813295560E+01  0.0000000000000E+00
 0.6325094832707E+00 -0.4659056210343E+01  0.0000000000000E+00
 0.6325189665217E+00 -0.4586525446162E+01  0.0000000000000E+00
 0.6325284498309E+00 -0.4513994236580E+01  0.0000000000000E+00
 0.6325379331135E+00 -0.4441463230339E+01  0.0000000000000E+00
 0.6325474163943E+00 -0.4368932238522E+01  0.0000000000000E+00
 0.6325568996786E+00 -0.4296401219450E+01  0.0000000000000E+00
 0.6325663829573E+00 -0.4223870243246E+01  0.0000000000000E+00
 0.6325758662394E+00 -0.4151339240452E+01  0.0000000000000E+00
 0.6325853495209E+00 -0.4078808242986E+01  0.0000000000000E+00
 0.6325948328014E+00 -0.4006277253528E+01  0.0000000000000E+00
 0.6326043160838E+00 -0.3933746248890E+01  0.0000000000000E+00
 0.6326137993631E+00 -0.3861215268037E+01  0.0000000000000E+00
 0.6326232826465E+00 -0.3788684255529E+01  0.0000000000000E+00
 0.6326327659377E+00 -0.3716153183848E+01  0.0000000000000E+00
 0.6326422492262E+00 -0.3643622132809E+01  0.0000000000000E+00
 0.6326517325033E+00 -0.3571091168537E+01  0.0000000000000E+00
 0.6326612158642E+00 -0.3498559563925E+01  0.0000000000000E+00
 0.6326706990666E+00 -0.3426029171205E+01  0.0000000000000E+00
 0.6326801823494E+00 -0.3353498163249E+01  0.0000000000000E+00
 0.6326896656219E+00 -0.3280967234769E+01  0.0000000000000E+00
 0.6326991488823E+00 -0.3208436398670E+01  0.0000000000000E+00
 0.6327086321474E+00 -0.3135905525971E+01  0.0000000000000E+00
 0.6327181154168E+00 -0.3063374620834E+01  0.0000000000000E+00
 0.6327387291340E+00 -0.2990843653288E+01  0.0000000000000E+00
 0.6328421635227E+00 -0.2918312915727E+01  0.0000000000000E+00
 0.6331279643934E+00 -0.2845783745801E+01  0.0000000000000E+00
 0.6336868746610E+00 -0.2773259418471E+01  0.0000000000000E+00
 0.6345856888113E+00 -0.2700745616872E+01  0.0000000000000E+00
 0.6358672469395E+00 -0.2628249485287E+01  0.0000000000000E+00
 0.6375589412693E+00 -0.2555779355998E+01  0.0000000000000E+00
 0.6396825402943E+00 -0.2483344214070E+01  0.0000000000000E+00
 0.6422626702039E+00 -0.2410954774905E+01  0.0000000000000E+00
 0.6453332086857E+00 -0.2338624624854E+01  0.0000000000000E+00
 0.6488922499460E+00 -0.2266363576622E+01  0.0000000000000E+00
 0.6528901297038E+00 -0.2194173388147E+01  0.0000000000000E+00
 0.6572913943814E+00 -0.2122055737301E+01  0.0000000000000E+00
 0.6620754243999E+00 -0.2050013402840E+01  0.0000000000000E+00
 0.6672354909085E+00 -0.1978051286727E+01  0.0000000000000E+00
 0.6727819205084E+00 -0.1906178286488E+01  0.0000000000000E+00
 0.6787562414707E+00 -0.1834411610816E+01  0.0000000000000E+00
 0.6600115349916E+00 -0.4659124038777E+01  0.0000000000000E+00
 0.6600230699592E+00 -0.4586661102889E+01  0.0000000000000E+00
 0.6600346049976E+00 -0.4514197722017E+01  0.0000000000000E+00
 0.6600461400037E+00 -0.4441734544296E+01  0.0000000000000E+00
 0.6600576750075E+00 -0.4369271380984E+01  0.0000000000000E+00
 0.6600692100156E+00 -0.4296808190443E+01  0.0000000000000E+00
 0.6600807450169E+00 -0.4224345042731E+01  0.0000000000000E+00
 0.6600922800224E+00 -0.4151881868453E+01  0.0000000000000E+00
 0.6601038150271E+00 -0.4079418699498E+01  0.0000000000000E+00
 0.6601153500305E+00 -0.4006955538544E+01  0.0000000000000E+00
 0.6601268850364E+00 -0.3934492362423E+01  0.0000000000000E+00
 0.6601384200384E+00 -0.3862029210066E+01  0.0000000000000E+00
 0.6601499550455E+00 -0.3789566026083E+01  0.0000000000000E+00
 0.6601614900620E+00 -0.3717102782983E+01  0.0000000000000E+00
 0.6601730250752E+00 -0.3644639560506E+01  0.0000000000000E+00
 0.6601845600746E+00 -0.3572176424713E+01  0.0000000000000E+00
 0.6601960951758E+00 -0.3499712649181E+01  0.0000000000000E+00
 0.6602076300843E+00 -0.3427250084407E+01  0.0000000000000E+00
 0.6602191650907E+00 -0.3354786904972E+01  0.0000000000000E+00
 0.6602307000844E+00 -0.3282323804938E+01  0.0000000000000E+00
 0.6602422350634E+00 -0.3209860797199E+01  0.0000000000000E+00
 0.6602537700482E+00 -0.3137397752895E+01  0.0000000000000E+00
 0.6602653050382E+00 -0.3064934676183E+01  0.0000000000000E+00
 0.6602884557744E+00 -0.2992471537122E+01  0.0000000000000E+00
 0.6603980382323E+00 -0.2920008628006E+01  0.0000000000000E+00
 0.6606979385021E+00 -0.2847547286406E+01  0.0000000000000E+00
 0.6612828559686E+00 -0.2775090787378E+01  0.0000000000000E+00
 0.6622224974123E+00 -0.2702644814005E+01  0.0000000000000E+00
 0.6635615707948E+00 -0.2630216510647E+01  0.0000000000000E+00
 0.6653286626613E+00 -0.2557814209481E+01  0.0000000000000E+00
 0.6675464906339E+00 -0.2485446895735E+01  0.0000000000000E+00
 0.6702407546242E+00 -0.2413125284793E+01  0.0000000000000E+00
 0.6734468094109E+00 -0.2340862962804E+01  0.0000000000000E+00
 0.6771626661118E+00 -0.2268669742713E+01  0.0000000000000E+00
 0.6813364950413E+00 -0.2196547382455E+01  0.0000000000000E+00
 0.6859312968146E+00 -0.2124497559855E+01  0.0000000000000E+00
 0.6909255528227E+00 -0.2052523053717E+01  0.0000000000000E+00
 0.6963122408314E+00 -0.1980628765997E+01  0.0000000000000E+00
 0.7021021376845E+00 -0.1908823593990E+01  0.0000000000000E+00
 0.7083385823212E+00 -0.1837124746394E+01  0.0000000000000E+00
 0.6875133142182E+00 -0.4659194733517E+01  0.0000000000000E+00
 0.6875266284087E+00 -0.4586802492222E+01  0.0000000000000E+00
 0.6875399426809E+00 -0.4514409806377E+01  0.0000000000000E+00
 0.6875532569158E+00 -0.4442017323484E+01  0.0000000000000E+00
 0.6875665711481E+00 -0.4369624854987E+01  0.0000000000000E+00
 0.6875798853854E+00 -0.4297232359288E+01  0.0000000000000E+00
 0.6875931996148E+00 -0.4224839906374E+01  0.0000000000000E+00
 0.6876065138490E+00 -0.4152447426922E+01  0.0000000000000E+00
 0.6876198280823E+00 -0.4080054952788E+01  0.0000000000000E+00
 0.6876331423142E+00 -0.4007662486646E+01  0.0000000000000E+00
 0.6876464565488E+00 -0.3935270005352E+01  0.0000000000000E+00
 0.6876597707790E+00 -0.3862877547799E+01  0.0000000000000E+00
 0.6876730850151E+00 -0.3790485058651E+01  0.0000000000000E+00
 0.6876863992620E+00 -0.3718092510443E+01  0.0000000000000E+00
 0.6876997135052E+00 -0.3645699982838E+01  0.0000000000000E+00
 0.6877130277324E+00 -0.3573307541834E+01  0.0000000000000E+00
 0.6877263420771E+00 -0.3500914461714E+01  0.0000000000000E+00
 0.6877396561994E+00 -0.3428522591170E+01  0.0000000000000E+00
 0.6877529704346E+00 -0.3356130106565E+01  0.0000000000000E+00
 0.6877662846553E+00 -0.3283737701285E+01  0.0000000000000E+00
 0.6877795988589E+00 -0.3211345388209E+01  0.0000000000000E+00
 0.6877929130693E+00 -0.3138953038603E+01  0.0000000000000E+00
 0.6878062272857E+00 -0.3066560656621E+01  0.0000000000000E+00
 0.6878316425464E+00 -0.2994168212354E+01  0.0000000000000E+00
 0.6879471005793E+00 -0.2921775997988E+01  0.0000000000000E+00
 0.6882608277547E+00 -0.2849385351017E+01  0.0000000000000E+00
 0.6888714799273E+00 -0.2776999546590E+01  0.0000000000000E+00
 0.6898516761724E+00 -0.2704624267741E+01  0.0000000000000E+00
 0.6912479923176E+00 -0.2632266658906E+01  0.0000000000000E+00
 0.6930902092303E+00 -0.2559935052156E+01  0.0000000000000E+00
 0.6954019936605E+00 -0.2487638432887E+01  0.0000000000000E+00
 0.6982101192422E+00 -0.2415387516464E+01  0.0000000000000E+00
 0.7015514178457E+00 -0.2343195888828E+01  0.0000000000000E+00
 0.7054238174997E+00 -0.2271073363171E+01  0.0000000000000E+00
 0.7097733231136E+00 -0.2199021697426E+01  0.0000000000000E+00
 0.7145613894959E+00 -0.2127042569371E+01  0.0000000000000E+00
 0.7197655990073E+00 -0.2055138757856E+01  0.0000000000000E+00
 0.7253786360298E+00 -0.1983315164833E+01  0.0000000000000E+00
 0.7314117276514E+00 -0.1911580687357E+01  0.0000000000000E+00
 0.7379100234788E+00 -0.1839952534126E+01  0.0000000000000E+00
 0.7150148100149E+00 -0.4659268290191E+01  0.0000000000000E+00
 0.7150296199990E+00 -0.4586949605417E+01  0.0000000000000E+00
 0.7150444300741E+00 -0.4514630476544E+01  0.0000000000000E+00
 0.7150592401076E+00 -0.4442311550418E+01  0.0000000000000E+00
 0.7150740501382E+00 -0.4369992638672E+01  0.0000000000000E+00
 0.7150888601743E+00 -0.4297673699752E+01  0.0000000000000E+00
 0.7151036702017E+00 -0.4225354803575E+01  0.0000000000000E+00
 0.7151184802345E+00 -0.4153035880886E+01  0.0000000000000E+00
 0.7151332902662E+00 -0.4080716963508E+01  0.0000000000000E+00
 0.7151481002963E+00 -0.4008398054116E+01  0.0000000000000E+00
 0.7151629103295E+00 -0.3936079129587E+01  0.0000000000000E+00
 0.7151777203579E+00 -0.3863760228774E+01  0.0000000000000E+00
 0.7151925303927E+00 -0.3791441296399E+01  0.0000000000000E+00
 0.7152073404395E+00 -0.3719122305024E+01  0.0000000000000E+00
 0.7152221504822E+00 -0.3646803334230E+01  0.0000000000000E+00
 0.7152369605072E+00 -0.3574484449950E+01  0.0000000000000E+00
 0.7152517706629E+00 -0.3502164927202E+01  0.0000000000000E+00
 0.7152665805711E+00 -0.3429846612803E+01  0.0000000000000E+00
 0.7152813906050E+00 -0.3357527684966E+01  0.0000000000000E+00
 0.7152962006226E+00 -0.3285208836373E+01  0.0000000000000E+00
 0.7153110106214E+00 -0.3212890079891E+01  0.0000000000000E+00
 0.7153258206276E+00 -0.3140571286916E+01  0.0000000000000E+00
 0.7153406306405E+00 -0.3068252461598E+01  0.0000000000000E+00
 0.7153680269957E+00 -0.2995933574060E+01  0.0000000000000E+00
 0.7154890771739E+00 -0.2923614916380E+01  0.0000000000000E+00
 0.7158163478261E+00 -0.2851297825966E+01  0.0000000000000E+00
 0.7164524512764E+00 -0.2778985578070E+01  0.0000000000000E+00
 0.7174729188955E+00 -0.2706683855668E+01  0.0000000000000E+00
 0.7189261943769E+00 -0.2634399803283E+01  0.0000000000000E+00
 0.7208432529104E+00 -0.2562141752869E+01  0.0000000000000E+00
 0.7232487103733E+00 -0.2489918690001E+01  0.0000000000000E+00
 0.7261704141222E+00 -0.2417741330022E+01  0.0000000000000E+00
 0.7296466731201E+00 -0.2345623258656E+01  0.0000000000000E+00
 0.7336753323051E+00 -0.2273574289355E+01  0.0000000000000E+00
 0.7382002311820E+00 -0.2201596180048E+01  0.0000000000000E+00
 0.7431812787523E+00 -0.2129690608463E+01  0.0000000000000E+00
 0.7485951583465E+00 -0.2057860353502E+01  0.0000000000000E+00
 0.7544342609629E+00 -0.1986110317108E+01  0.0000000000000E+00
 0.7607102639342E+00 -0.1914449396087E+01  0.0000000000000E+00
 0.7674701275352E+00 -0.1842894799141E+01  0.0000000000000E+00
 0.7425160112565E+00 -0.4659344704234E+01  0.0000000000000E+00
 0.7425320224796E+00 -0.4587102433343E+01  0.0000000000000E+00
 0.7425480338010E+00 -0.4514859718823E+01  0.0000000000000E+00
 0.7425640450775E+00 -0.4442617206834E+01  0.0000000000000E+00
 0.7425800563509E+00 -0.4370374709212E+01  0.0000000000000E+00
 0.7425960676302E+00 -0.4298132184444E+01  0.0000000000000E+00
 0.7426120789002E+00 -0.4225889702373E+01  0.0000000000000E+00
 0.7426280901759E+00 -0.4153647193819E+01  0.0000000000000E+00
 0.7426441014505E+00 -0.4081404690570E+01  0.0000000000000E+00
 0.7426601127234E+00 -0.4009162195299E+01  0.0000000000000E+00
 0.7426761239995E+00 -0.3936919684906E+01  0.0000000000000E+00
 0.7426921352705E+00 -0.3864677198205E+01  0.0000000000000E+00
 0.7427081465484E+00 -0.3792434679975E+01  0.0000000000000E+00
 0.7427241578394E+00 -0.3720192102807E+01  0.0000000000000E+00
 0.7427401691258E+00 -0.3647949546199E+01  0.0000000000000E+00
 0.7427561803931E+00 -0.3575707076013E+01  0.0000000000000E+00
 0.7427721918017E+00 -0.3503463968034E+01  0.0000000000000E+00
 0.7427882029428E+00 -0.3431222067126E+01  0.0000000000000E+00
 0.7428042142197E+00 -0.3358979553430E+01  0.0000000000000E+00
 0.7428202254791E+00 -0.3286737118893E+01  0.0000000000000E+00
 0.7428362367181E+00 -0.3214494776370E+01  0.0000000000000E+00
 0.7428522479651E+00 -0.3142252397393E+01  0.0000000000000E+00
 0.7428682592193E+00 -0.3070009986107E+01  0.0000000000000E+00
 0.7428973421134E+00 -0.2997767512669E+01  0.0000000000000E+00
 0.7430236898812E+00 -0.2925525269043E+01  0.0000000000000E+00
 0.7433642094537E+00 -0.2853284592550E+01  0.0000000000000E+00
 0.7440254696239E+00 -0.2781048758547E+01  0.0000000000000E+00
 0.7450859140576E+00 -0.2708823449953E+01  0.0000000000000E+00
 0.7465958543135E+00 -0.2636615811377E+01  0.0000000000000E+00
 0.7485874599040E+00 -0.2564434174655E+01  0.0000000000000E+00
 0.7510862958333E+00 -0.2492287525545E+01  0.0000000000000E+00
 0.7541212831801E+00 -0.2420186579370E+01  0.0000000000000E+00
 0.7577322080008E+00 -0.2348144921627E+01  0.0000000000000E+00
 0.7619168321423E+00 -0.2276172366038E+01  0.0000000000000E+00
 0.7666168297047E+00 -0.2204270670529E+01  0.0000000000000E+00
 0.7717905638831E+00 -0.2132441512775E+01  0.0000000000000E+00
 0.7774138189777E+00 -0.2060687671731E+01  0.0000000000000E+00
 0.7834786926029E+00 -0.1989014049333E+01  0.0000000000000E+00
 0.7899973123374E+00 -0.1917429542126E+01  0.0000000000000E+00
 0.7970184491235E+00 -0.1845951358818E+01  0.0000000000000E+00
 0.7700169072712E+00 -0.4659423970956E+01  0.0000000000000E+00
 0.7700338145071E+00 -0.4587260966622E+01  0.0000000000000E+00
 0.7700507218468E+00 -0.4515097519146E+01  0.0000000000000E+00
 0.7700676291392E+00 -0.4442934273980E+01  0.0000000000000E+00
 0.7700845364282E+00 -0.4370771043164E+01  0.0000000000000E+00
 0.7701014437236E+00 -0.4298607785231E+01  0.0000000000000E+00
 0.7701183510089E+00 -0.4226444569949E+01  0.0000000000000E+00
 0.7701352583005E+00 -0.4154281328213E+01  0.0000000000000E+00
 0.7701521655908E+00 -0.4082118091776E+01  0.0000000000000E+00
 0.7701690728792E+00 -0.4009954863308E+01  0.0000000000000E+00
 0.7701859801712E+00 -0.3937791619736E+01  0.0000000000000E+00
 0.7702028874577E+00 -0.3865628399829E+01  0.0000000000000E+00
 0.7702197947515E+00 -0.3793465148427E+01  0.0000000000000E+00
 0.7702367020591E+00 -0.3721301838152E+01  0.0000000000000E+00
 0.7702536093619E+00 -0.3649138548415E+01  0.0000000000000E+00
 0.7702705166445E+00 -0.3576975345005E+01  0.0000000000000E+00
 0.7702874240763E+00 -0.3504811504502E+01  0.0000000000000E+00
 0.7703043312257E+00 -0.3432648869745E+01  0.0000000000000E+00
 0.7703212385184E+00 -0.3360485622873E+01  0.0000000000000E+00
 0.7703381457926E+00 -0.3288322455072E+01  0.0000000000000E+00
 0.7703550530453E+00 -0.3216159379186E+01  0.0000000000000E+00
 0.7703719603066E+00 -0.3143996266884E+01  0.0000000000000E+00
 0.7703888675754E+00 -0.3071833122309E+01  0.0000000000000E+00
 0.7704193317813E+00 -0.2999669915654E+01  0.0000000000000E+00
 0.7705506719117E+00 -0.2927506938761E+01  0.0000000000000E+00
 0.7709041351781E+00 -0.2855345528865E+01  0.0000000000000E+00
 0.7715902468416E+00 -0.2783188961430E+01  0.0000000000000E+00
 0.7726903628635E+00 -0.2711042919314E+01  0.0000000000000E+00
 0.7742566626671E+00 -0.2638914547219E+01  0.0000000000000E+00
 0.7763225100882E+00 -0.2566812176855E+01  0.0000000000000E+00
 0.7789144192568E+00 -0.2494744794173E+01  0.0000000000000E+00
 0.7820623849740E+00 -0.2422723114472E+01  0.0000000000000E+00
 0.7858076703905E+00 -0.2350760723017E+01  0.0000000000000E+00
 0.7901479542606E+00 -0.2278867433808E+01  0.0000000000000E+00
 0.7950227452801E+00 -0.2207045004767E+01  0.0000000000000E+00
 0.8003888608380E+00 -0.2135295113515E+01  0.0000000000000E+00
 0.8062211862034E+00 -0.2063620539063E+01  0.0000000000000E+00
 0.8125115256075E+00 -0.1992026183340E+01  0.0000000000000E+00
 0.8192724568757E+00 -0.1920520942619E+01  0.0000000000000E+00
 0.8265545616180E+00 -0.1849122025614E+01  0.0000000000000E+00
 0.7975174873666E+00 -0.4659506085499E+01  0.0000000000000E+00
 0.7975349746967E+00 -0.4587425195538E+01  0.0000000000000E+00
 0.7975524621343E+00 -0.4515343862938E+01  0.0000000000000E+00
 0.7975699495228E+00 -0.4443262732417E+01  0.0000000000000E+00
 0.7975874369078E+00 -0.4371181616231E+01  0.0000000000000E+00
 0.7976049242994E+00 -0.4299100472959E+01  0.0000000000000E+00
 0.7976224116807E+00 -0.4227019372289E+01  0.0000000000000E+00
 0.7976398990684E+00 -0.4154938245195E+01  0.0000000000000E+00
 0.7976573864548E+00 -0.4082857123395E+01  0.0000000000000E+00
 0.7976748738393E+00 -0.4010776009554E+01  0.0000000000000E+00
 0.7976923612274E+00 -0.3938694880626E+01  0.0000000000000E+00
 0.7977098486098E+00 -0.3866613775336E+01  0.0000000000000E+00
 0.7977273359998E+00 -0.3794532638587E+01  0.0000000000000E+00
 0.7977448234041E+00 -0.3722451443033E+01  0.0000000000000E+00
 0.7977623108034E+00 -0.3650370267993E+01  0.0000000000000E+00
 0.7977797981818E+00 -0.3578289179181E+01  0.0000000000000E+00
 0.7977972857146E+00 -0.3506207454001E+01  0.0000000000000E+00
 0.7978147729552E+00 -0.3434126933196E+01  0.0000000000000E+00
 0.7978322603441E+00 -0.3362045800972E+01  0.0000000000000E+00
 0.7978497477139E+00 -0.3289964747730E+01  0.0000000000000E+00
 0.7978672350614E+00 -0.3217883786296E+01  0.0000000000000E+00
 0.7978847224177E+00 -0.3145802788489E+01  0.0000000000000E+00
 0.7979022097818E+00 -0.3073721758446E+01  0.0000000000000E+00
 0.7979337393802E+00 -0.3001640666396E+01  0.0000000000000E+00
 0.7980697559540E+00 -0.2929559804059E+01  0.0000000000000E+00
 0.7984358469961E+00 -0.2857480508576E+01  0.0000000000000E+00
 0.7991464942352E+00 -0.2785406055523E+01  0.0000000000000E+00
 0.8002859659286E+00 -0.2713342127699E+01  0.0000000000000E+00
 0.8019083093641E+00 -0.2641295869896E+01  0.0000000000000E+00
 0.8040480827013E+00 -0.2569275613697E+01  0.0000000000000E+00
 0.8067327491951E+00 -0.2497290345253E+01  0.0000000000000E+00
 0.8099933773693E+00 -0.2425350779840E+01  0.0000000000000E+00
 0.8138727074699E+00 -0.2353470502477E+01  0.0000000000000E+00
 0.8183683351576E+00 -0.2281659327455E+01  0.0000000000000E+00
 0.8234176037235E+00 -0.2209919012694E+01  0.0000000000000E+00
 0.8289757847507E+00 -0.2138251235758E+01  0.0000000000000E+00
 0.8350168644774E+00 -0.2066658775715E+01  0.0000000000000E+00
 0.8415323537512E+00 -0.1995146534484E+01  0.0000000000000E+00
 0.8485352806454E+00 -0.1923723408063E+01  0.0000000000000E+00
 0.8560780374376E+00 -0.1852406605166E+01  0.0000000000000E+00
 0.8250177408470E+00 -0.4659591042836E+01  0.0000000000000E+00
 0.8250354816571E+00 -0.4587595110033E+01  0.0000000000000E+00
 0.8250532225761E+00 -0.4515598735114E+01  0.0000000000000E+00
 0.8250709634454E+00 -0.4443602562037E+01  0.0000000000000E+00
 0.8250887043112E+00 -0.4371606403276E+01  0.0000000000000E+00
 0.8251064451836E+00 -0.4299610217462E+01  0.0000000000000E+00
 0.8251241860456E+00 -0.4227614074200E+01  0.0000000000000E+00
 0.8251419269140E+00 -0.4155617904545E+01  0.0000000000000E+00
 0.8251596677812E+00 -0.4083621740177E+01  0.0000000000000E+00
 0.8251774086463E+00 -0.4011625583759E+01  0.0000000000000E+00
 0.8251951495152E+00 -0.3939629412272E+01  0.0000000000000E+00
 0.8252128903783E+00 -0.3867633264395E+01  0.0000000000000E+00
 0.8252306312491E+00 -0.3795637085097E+01  0.0000000000000E+00
 0.8252483721344E+00 -0.3723640847062E+01  0.0000000000000E+00
 0.8252661130147E+00 -0.3651644629517E+01  0.0000000000000E+00
 0.8252838538737E+00 -0.3579648498099E+01  0.0000000000000E+00
 0.8253015948893E+00 -0.3507651731063E+01  0.0000000000000E+00
 0.8253193356086E+00 -0.3435656166982E+01  0.0000000000000E+00
 0.8253370764783E+00 -0.3363659992202E+01  0.0000000000000E+00
 0.8253548173285E+00 -0.3291663896312E+01  0.0000000000000E+00
 0.8253725581562E+00 -0.3219667892122E+01  0.0000000000000E+00
 0.8253902989928E+00 -0.3147671851602E+01  0.0000000000000E+00
 0.8254080398374E+00 -0.3075675778883E+01  0.0000000000000E+00
 0.8254403082130E+00 -0.3003679644234E+01  0.0000000000000E+00
 0.8255806746155E+00 -0.2931683739246E+01  0.0000000000000E+00
 0.8259590668194E+00 -0.2859689400964E+01  0.0000000000000E+00
 0.8266939230211E+00 -0.2787699905082E+01  0.0000000000000E+00
 0.8278724237742E+00 -0.2715720934332E+01  0.0000000000000E+00
 0.8295504842306E+00 -0.2643759633606E+01  0.0000000000000E+00
 0.8317638568742E+00 -0.2571824334354E+01  0.0000000000000E+00
 0.8345409540844E+00 -0.2499924022930E+01  0.0000000000000E+00
 0.8379139181077E+00 -0.2428069414587E+01  0.0000000000000E+00
 0.8419269662863E+00 -0.2356274094095E+01  0.0000000000000E+00
 0.8465776111862E+00 -0.2284547876042E+01  0.0000000000000E+00
 0.8518010306940E+00 -0.2212892518345E+01  0.0000000000000E+00
 0.8575509505866E+00 -0.2141309698510E+01  0.0000000000000E+00
 0.8638004580713E+00 -0.2069802195663E+01  0.0000000000000E+00
 0.8705407706120E+00 -0.1998374911717E+01  0.0000000000000E+00
 0.8777853665310E+00 -0.1927036742379E+01  0.0000000000000E+00
 0.8855884487738E+00 -0.1855804896368E+01  0.0000000000000E+00
 0.8525176570821E+00 -0.4659678837778E+01  0.0000000000000E+00
 0.8525353141273E+00 -0.4587770699734E+01  0.0000000000000E+00
 0.8525529712811E+00 -0.4515862120114E+01  0.0000000000000E+00
 0.8525706283853E+00 -0.4443953742088E+01  0.0000000000000E+00
 0.8525882854860E+00 -0.4372045378363E+01  0.0000000000000E+00
 0.8526059425933E+00 -0.4300136987617E+01  0.0000000000000E+00
 0.8526235996902E+00 -0.4228228639370E+01  0.0000000000000E+00
 0.8526412567936E+00 -0.4156320264763E+01  0.0000000000000E+00
 0.8526589138956E+00 -0.4084411895437E+01  0.0000000000000E+00
 0.8526765709957E+00 -0.4012503534050E+01  0.0000000000000E+00
 0.8526942280996E+00 -0.3940595157614E+01  0.0000000000000E+00
 0.8527118851976E+00 -0.3868686804758E+01  0.0000000000000E+00
 0.8527295423033E+00 -0.3796778420520E+01  0.0000000000000E+00
 0.8527471994235E+00 -0.3724869977616E+01  0.0000000000000E+00
 0.8527648565386E+00 -0.3652961555178E+01  0.0000000000000E+00
 0.8527825136326E+00 -0.3581053218760E+01  0.0000000000000E+00
 0.8528001708824E+00 -0.3509144247501E+01  0.0000000000000E+00
 0.8528178278373E+00 -0.3437236477730E+01  0.0000000000000E+00
 0.8528354849419E+00 -0.3365328098005E+01  0.0000000000000E+00
 0.8528531420272E+00 -0.3293419797072E+01  0.0000000000000E+00
 0.8528707990900E+00 -0.3221511587729E+01  0.0000000000000E+00
 0.8528884561617E+00 -0.3149603342098E+01  0.0000000000000E+00
 0.8529061132413E+00 -0.3077695064310E+01  0.0000000000000E+00
 0.8529387831484E+00 -0.3005786724669E+01  0.0000000000000E+00
 0.8530831621344E+00 -0.2933878614636E+01  0.0000000000000E+00
 0.8534735182559E+00 -0.2861972071157E+01  0.0000000000000E+00
 0.8542322461771E+00 -0.2790070370046E+01  0.0000000000000E+00
 0.8554494387479E+00 -0.2718179193968E+01  0.0000000000000E+00
 0.8571828789842E+00 -0.2646305687916E+01  0.0000000000000E+00
 0.8594695136951E+00 -0.2574458183202E+01  0.0000000000000E+00
 0.8623387043834E+00 -0.2502645666394E+01  0.0000000000000E+00
 0.8658236670186E+00 -0.2430878852720E+01  0.0000000000000E+00
 0.8699700960402E+00 -0.2359171326688E+01  0.0000000000000E+00
 0.8747754209183E+00 -0.2287532903197E+01  0.0000000000000E+00
 0.8801726541347E+00 -0.2215965340160E+01  0.0000000000000E+00
 0.8861139756606E+00 -0.2144470315024E+01  0.0000000000000E+00
 0.8925715736717E+00 -0.2073050606976E+01  0.0000000000000E+00
 0.8995363722484E+00 -0.2001711117918E+01  0.0000000000000E+00
 0.9070222999633E+00 -0.1930460743261E+01  0.0000000000000E+00
 0.9150853704297E+00 -0.1859316691727E+01  0.0000000000000E+00
 0.8800172252787E+00 -0.4659769464950E+01  0.0000000000000E+00
 0.8800344505215E+00 -0.4587951953890E+01  0.0000000000000E+00
 0.8800516758700E+00 -0.4516134001809E+01  0.0000000000000E+00
 0.8800689011703E+00 -0.4444316251069E+01  0.0000000000000E+00
 0.8800861264672E+00 -0.4372498514612E+01  0.0000000000000E+00
 0.8801033517705E+00 -0.4300680751167E+01  0.0000000000000E+00
 0.8801205770637E+00 -0.4228863030169E+01  0.0000000000000E+00
 0.8801378023631E+00 -0.4157045282843E+01  0.0000000000000E+00
 0.8801550276613E+00 -0.4085227540792E+01  0.0000000000000E+00
 0.8801722529576E+00 -0.4013409806670E+01  0.0000000000000E+00
 0.8801894782575E+00 -0.3941592057517E+01  0.0000000000000E+00
 0.8802067035518E+00 -0.3869774331916E+01  0.0000000000000E+00
 0.8802239288535E+00 -0.3797956574971E+01  0.0000000000000E+00
 0.8802411541693E+00 -0.3726138759435E+01  0.0000000000000E+00
 0.8802583794803E+00 -0.3654320964338E+01  0.0000000000000E+00
 0.8802756047706E+00 -0.3582503255154E+01  0.0000000000000E+00
 0.8802928302130E+00 -0.3510684911929E+01  0.0000000000000E+00
 0.8803100553675E+00 -0.3438867768677E+01  0.0000000000000E+00
 0.8803272806682E+00 -0.3367050016239E+01  0.0000000000000E+00
 0.8803445059500E+00 -0.3295232342495E+01  0.0000000000000E+00
 0.8803617312099E+00 -0.3223414760225E+01  0.0000000000000E+00
 0.8803789564785E+00 -0.3151597141714E+01  0.0000000000000E+00
 0.8803961817547E+00 -0.3079779491084E+01  0.0000000000000E+00
 0.8804289051548E+00 -0.3007961778684E+01  0.0000000000000E+00
 0.8805769486853E+00 -0.2936144295837E+01  0.0000000000000E+00
 0.8809789206855E+00 -0.2864328379386E+01  0.0000000000000E+00
 0.8817611722860E+00 -0.2792517305270E+01  0.0000000000000E+00
 0.8830167086335E+00 -0.2720716756086E+01  0.0000000000000E+00
 0.8848051806072E+00 -0.2648933876929E+01  0.0000000000000E+00
 0.8871647293415E+00 -0.2577176998972E+01  0.0000000000000E+00
 0.8901256654619E+00 -0.2505455108999E+01  0.0000000000000E+00
 0.8937222786608E+00 -0.2433778922213E+01  0.0000000000000E+00
 0.8980017404761E+00 -0.2362162022856E+01  0.0000000000000E+00
 0.9029613972806E+00 -0.2290614226146E+01  0.0000000000000E+00
 0.9085320961515E+00 -0.2219137289990E+01  0.0000000000000E+00
 0.9146644712548E+00 -0.2147732891775E+01  0.0000000000000E+00
 0.9213298117345E+00 -0.2076403810750E+01  0.0000000000000E+00
 0.9285187482873E+00 -0.2005154948809E+01  0.0000000000000E+00
 0.9362456597375E+00 -0.1933995201054E+01  0.0000000000000E+00
 0.9445683703660E+00 -0.1862941776213E+01  0.0000000000000E+00
 0.9075164349346E+00 -0.4659862918846E+01  0.0000000000000E+00
 0.9075328698350E+00 -0.4588138861488E+01  0.0000000000000E+00
 0.9075493048363E+00 -0.4516414363684E+01  0.0000000000000E+00
 0.9075657397915E+00 -0.4444690066958E+01  0.0000000000000E+00
 0.9075821747434E+00 -0.4372965784495E+01  0.0000000000000E+00
 0.9075986097015E+00 -0.4301241475081E+01  0.0000000000000E+00
 0.9076150446499E+00 -0.4229517208058E+01  0.0000000000000E+00
 0.9076314796044E+00 -0.4157792914741E+01  0.0000000000000E+00
 0.9076479145576E+00 -0.4086068626692E+01  0.0000000000000E+00
 0.9076643495090E+00 -0.4014344346563E+01  0.0000000000000E+00
 0.9076807844639E+00 -0.3942620051422E+01  0.0000000000000E+00
 0.9076972194133E+00 -0.3870895779802E+01  0.0000000000000E+00
 0.9077136543699E+00 -0.3799171476878E+01  0.0000000000000E+00
 0.9077300893400E+00 -0.3727447115440E+01  0.0000000000000E+00
 0.9077465243053E+00 -0.3655722774415E+01  0.0000000000000E+00
 0.9077629592511E+00 -0.3583998519191E+01  0.0000000000000E+00
 0.9077793943419E+00 -0.3512273630750E+01  0.0000000000000E+00
 0.9077958291580E+00 -0.3440549940721E+01  0.0000000000000E+00
 0.9078122641136E+00 -0.3368825642300E+01  0.0000000000000E+00
 0.9078286990512E+00 -0.3297101422470E+01  0.0000000000000E+00
 0.9078451339679E+00 -0.3225377293994E+01  0.0000000000000E+00
 0.9078615688929E+00 -0.3153653129324E+01  0.0000000000000E+00
 0.9078780038252E+00 -0.3081928932578E+01  0.0000000000000E+00
 0.9079104221770E+00 -0.3010204674146E+01  0.0000000000000E+00
 0.9080617717110E+00 -0.2938480645209E+01  0.0000000000000E+00
 0.9084750010487E+00 -0.2866758182507E+01  0.0000000000000E+00
 0.9092804177864E+00 -0.2795040562104E+01  0.0000000000000E+00
 0.9105739393675E+00 -0.2723333466530E+01  0.0000000000000E+00
 0.9124170845339E+00 -0.2651644040984E+01  0.0000000000000E+00
 0.9148491887460E+00 -0.2579980616494E+01  0.0000000000000E+00
 0.9179015117509E+00 -0.2508352180070E+01  0.0000000000000E+00
 0.9216094169639E+00 -0.2436769446890E+01  0.0000000000000E+00
 0.9260215530222E+00 -0.2365246000917E+01  0.0000000000000E+00
 0.9311351832001E+00 -0.2293791657698E+01  0.0000000000000E+00
 0.9368789891704E+00 -0.2222408175140E+01  0.0000000000000E+00
 0.9432020592942E+00 -0.2151097230562E+01  0.0000000000000E+00
 0.9500747836836E+00 -0.2079861603281E+01  0.0000000000000E+00
 0.9574874996521E+00 -0.2008706195179E+01  0.0000000000000E+00
 0.9654550362763E+00 -0.1937639901043E+01  0.0000000000000E+00
 0.9740370285046E+00 -0.1866679929603E+01  0.0000000000000E+00
 0.9350152758224E+00 -0.4659959193836E+01  0.0000000000000E+00
 0.9350305516130E+00 -0.4588331411267E+01  0.0000000000000E+00
 0.9350458274974E+00 -0.4516703188842E+01  0.0000000000000E+00
 0.9350611033390E+00 -0.4445075167227E+01  0.0000000000000E+00
 0.9350763791775E+00 -0.4373447159855E+01  0.0000000000000E+00
 0.9350916550218E+00 -0.4301819125568E+01  0.0000000000000E+00
 0.9351069308570E+00 -0.4230191133616E+01  0.0000000000000E+00
 0.9351222066979E+00 -0.4158563115405E+01  0.0000000000000E+00
 0.9351374825376E+00 -0.4086935102455E+01  0.0000000000000E+00
 0.9351527583756E+00 -0.4015307097413E+01  0.0000000000000E+00
 0.9351680342168E+00 -0.3943679077380E+01  0.0000000000000E+00
 0.9351833100531E+00 -0.3872051080837E+01  0.0000000000000E+00
 0.9351985858960E+00 -0.3800423053032E+01  0.0000000000000E+00
 0.9352138617513E+00 -0.3728794966791E+01  0.0000000000000E+00
 0.9352291376023E+00 -0.3657166900936E+01  0.0000000000000E+00
 0.9352444134350E+00 -0.3585538920767E+01  0.0000000000000E+00
 0.9352596894026E+00 -0.3513910308230E+01  0.0000000000000E+00
 0.9352749651150E+00 -0.3442282892497E+01  0.0000000000000E+00
 0.9352902409569E+00 -0.3370654869188E+01  0.0000000000000E+00
 0.9353055167821E+00 -0.3299026924365E+01  0.0000000000000E+00
 0.9353207925879E+00 -0.3227399070774E+01  0.0000000000000E+00
 0.9353360684013E+00 -0.3155771181037E+01  0.0000000000000E+00
 0.9353513442216E+00 -0.3084143259268E+01  0.0000000000000E+00
 0.9353830887569E+00 -0.3012515275898E+01  0.0000000000000E+00
 0.9355373755264E+00 -0.2940887521964E+01  0.0000000000000E+00
 0.9359614934350E+00 -0.2869261334099E+01  0.0000000000000E+00
 0.9367897065442E+00 -0.2797639988499E+01  0.0000000000000E+00
 0.9381208445946E+00 -0.2726029167618E+01  0.0000000000000E+00
 0.9400182941908E+00 -0.2654436016767E+01  0.0000000000000E+00
 0.9425225851194E+00 -0.2582868866825E+01  0.0000000000000E+00
 0.9456659262486E+00 -0.2511336705033E+01  0.0000000000000E+00
 0.9494847547168E+00 -0.2439850246541E+01  0.0000000000000E+00
 0.9540291962613E+00 -0.2368423075029E+01  0.0000000000000E+00
 0.9592964310570E+00 -0.2297065006384E+01  0.0000000000000E+00
 0.9652129753722E+00 -0.2225777798506E+01  0.0000000000000E+00
 0.9717263717630E+00 -0.2154563128652E+01  0.0000000000000E+00
 0.9788061113094E+00 -0.2083423776202E+01  0.0000000000000E+00
 0.9864422379415E+00 -0.2012364643031E+01  0.0000000000000E+00
 0.9946500309898E+00 -0.1941394623598E+01  0.0000000000000E+00
 0.1003490936070E+01 -0.1870530926638E+01  0.0000000000000E+00
 0.9625137375899E+00 -0.4660058284109E+01  0.0000000000000E+00
 0.9625274751513E+00 -0.4588529591607E+01  0.0000000000000E+00
 0.9625412127970E+00 -0.4517000459858E+01  0.0000000000000E+00
 0.9625549504041E+00 -0.4445471528639E+01  0.0000000000000E+00
 0.9625686880086E+00 -0.4373942611646E+01  0.0000000000000E+00
 0.9625824256182E+00 -0.4302413667774E+01  0.0000000000000E+00
 0.9625961632197E+00 -0.4230884766178E+01  0.0000000000000E+00
 0.9626099008262E+00 -0.4159355838359E+01  0.0000000000000E+00
 0.9626236384317E+00 -0.4087826915795E+01  0.0000000000000E+00
 0.9626373760357E+00 -0.4016298001128E+01  0.0000000000000E+00
 0.9626511136426E+00 -0.3944769071490E+01  0.0000000000000E+00
 0.9626648512449E+00 -0.3873240165310E+01  0.0000000000000E+00
 0.9626785888533E+00 -0.3801711227911E+01  0.0000000000000E+00
 0.9626923264728E+00 -0.3730182232157E+01  0.0000000000000E+00
 0.9627060640885E+00 -0.3658653256760E+01  0.0000000000000E+00
 0.9627198016877E+00 -0.3587124366931E+01  0.0000000000000E+00
 0.9627335394082E+00 -0.3515594845610E+01  0.0000000000000E+00
 0.9627472768992E+00 -0.3444066519436E+01  0.0000000000000E+00
 0.9627610145067E+00 -0.3372537586527E+01  0.0000000000000E+00
 0.9627747520991E+00 -0.3301008731995E+01  0.0000000000000E+00
 0.9627884896741E+00 -0.3229479968569E+01  0.0000000000000E+00
 0.9628022272560E+00 -0.3157951169047E+01  0.0000000000000E+00
 0.9628159648440E+00 -0.3086422337537E+01  0.0000000000000E+00
 0.9628466564423E+00 -0.3014893444515E+01  0.0000000000000E+00
 0.9630035013274E+00 -0.2943364780869E+01  0.0000000000000E+00
 0.9634381286881E+00 -0.2871837683121E+01  0.0000000000000E+00
 0.9642887590514E+00 -0.2800315427600E+01  0.0000000000000E+00
 0.9656571344553E+00 -0.2728803696687E+01  0.0000000000000E+00
 0.9676085093668E+00 -0.2657309635808E+01  0.0000000000000E+00
 0.9701846078996E+00 -0.2585841575683E+01  0.0000000000000E+00
 0.9734185880421E+00 -0.2514408503796E+01  0.0000000000000E+00
 0.9773479606558E+00 -0.2443021135268E+01  0.0000000000000E+00
 0.9820243285798E+00 -0.2371693053486E+01  0.0000000000000E+00
 0.9874447888878E+00 -0.2300434074685E+01  0.0000000000000E+00
 0.9935336924435E+00 -0.2229245956763E+01  0.0000000000000E+00
 0.1000237035998E+01 -0.2158130376907E+01  0.0000000000000E+00
 0.1007523411600E+01 -0.2087090114568E+01  0.0000000000000E+00
 0.1015382569795E+01 -0.2016130071610E+01  0.0000000000000E+00
 0.1023830240168E+01 -0.1945259142154E+01  0.0000000000000E+00
 0.1032929679005E+01 -0.1874494534943E+01  0.0000000000000E+00
 0.9900118099595E+00 -0.4660160183706E+01  0.0000000000000E+00
 0.9900236198944E+00 -0.4588733390588E+01  0.0000000000000E+00
 0.9900354299019E+00 -0.4517306158849E+01  0.0000000000000E+00
 0.9900472398762E+00 -0.4445879127356E+01  0.0000000000000E+00
 0.9900590498481E+00 -0.4374452110066E+01  0.0000000000000E+00
 0.9900708598246E+00 -0.4303025065937E+01  0.0000000000000E+00
 0.9900826697940E+00 -0.4231598064023E+01  0.0000000000000E+00
 0.9900944797677E+00 -0.4160171035925E+01  0.0000000000000E+00
 0.9901062897406E+00 -0.4088744013072E+01  0.0000000000000E+00
 0.9901180997122E+00 -0.4017316998107E+01  0.0000000000000E+00
 0.9901299096863E+00 -0.3945889968191E+01  0.0000000000000E+00
 0.9901417196565E+00 -0.3874462961699E+01  0.0000000000000E+00
 0.9901535296318E+00 -0.3803035924034E+01  0.0000000000000E+00
 0.9901653396168E+00 -0.3731608828097E+01  0.0000000000000E+00
 0.9901771495984E+00 -0.3660181752487E+01  0.0000000000000E+00
 0.9901889595659E+00 -0.3588754762324E+01  0.0000000000000E+00
 0.9902007696377E+00 -0.3517327141568E+01  0.0000000000000E+00
 0.9902125795121E+00 -0.3445900714257E+01  0.0000000000000E+00
 0.9902243894867E+00 -0.3374473681074E+01  0.0000000000000E+00
 0.9902361994483E+00 -0.3303046726158E+01  0.0000000000000E+00
 0.9902480093950E+00 -0.3231619862217E+01  0.0000000000000E+00
 0.9902598193475E+00 -0.3160192962233E+01  0.0000000000000E+00
 0.9902716293054E+00 -0.3088766030305E+01  0.0000000000000E+00
 0.9903008785684E+00 -0.3017339036957E+01  0.0000000000000E+00
 0.9904598921716E+00 -0.2945912272923E+01  0.0000000000000E+00
 0.9909046395882E+00 -0.2874487074610E+01  0.0000000000000E+00
 0.9917772978107E+00 -0.2803066718486E+01  0.0000000000000E+00
 0.9931825211753E+00 -0.2731656886858E+01  0.0000000000000E+00
 0.9951874320109E+00 -0.2660264725264E+01  0.0000000000000E+00
 0.9978349487592E+00 -0.2588898564268E+01  0.0000000000000E+00
 0.1001159178528E+01 -0.2517567391599E+01  0.0000000000000E+00
 0.1005198705901E+01 -0.2446281922349E+01  0.0000000000000E+00
 0.1010006610822E+01 -0.2375055739605E+01  0.0000000000000E+00
 0.1015579907262E+01 -0.2303898659960E+01  0.0000000000000E+00
 0.1021840780679E+01 -0.2232812441308E+01  0.0000000000000E+00
 0.1028733682020E+01 -0.2161798760767E+01  0.0000000000000E+00
 0.1036226304300E+01 -0.2090860397857E+01  0.0000000000000E+00
 0.1044308104682E+01 -0.2020002254434E+01  0.0000000000000E+00
 0.1052995263009E+01 -0.1949233224272E+01  0.0000000000000E+00
 0.1062352846232E+01 -0.1878570516118E+01  0.0000000000000E+00
 0.1017509482155E+01 -0.4660264886430E+01  0.0000000000000E+00
 0.1017518964290E+01 -0.4588942795818E+01  0.0000000000000E+00
 0.1017528446483E+01 -0.4517620267227E+01  0.0000000000000E+00
 0.1017537928650E+01 -0.4446297938589E+01  0.0000000000000E+00
 0.1017547410815E+01 -0.4374975624134E+01  0.0000000000000E+00
 0.1017556892983E+01 -0.4303653282878E+01  0.0000000000000E+00
 0.1017566375146E+01 -0.4232330983776E+01  0.0000000000000E+00
 0.1017575857312E+01 -0.4161008658528E+01  0.0000000000000E+00
 0.1017585339477E+01 -0.4089686338518E+01  0.0000000000000E+00
 0.1017594821642E+01 -0.4018364026383E+01  0.0000000000000E+00
 0.1017604303808E+01 -0.3947041699321E+01  0.0000000000000E+00
 0.1017613785972E+01 -0.3875719395647E+01  0.0000000000000E+00
 0.1017623268139E+01 -0.3804397060846E+01  0.0000000000000E+00
 0.1017632750314E+01 -0.3733074667859E+01  0.0000000000000E+00
 0.1017642232487E+01 -0.3661752295169E+01  0.0000000000000E+00
 0.1017651714648E+01 -0.3590430007800E+01  0.0000000000000E+00
 0.1017661196893E+01 -0.3519107090763E+01  0.0000000000000E+00
 0.1017670678979E+01 -0.3447785365421E+01  0.0000000000000E+00
 0.1017680161146E+01 -0.3376463035097E+01  0.0000000000000E+00
 0.1017689643303E+01 -0.3305140782923E+01  0.0000000000000E+00
 0.1017699125447E+01 -0.3233818621592E+01  0.0000000000000E+00
 0.1017708607596E+01 -0.3162496424270E+01  0.0000000000000E+00
 0.1017718089750E+01 -0.3091174195051E+01  0.0000000000000E+00
 0.1017745496503E+01 -0.3019851904506E+01  0.0000000000000E+00
 0.1017906278648E+01 -0.2948529843212E+01  0.0000000000000E+00
 0.1018360745944E+01 -0.2877209347457E+01  0.0000000000000E+00
 0.1019255031844E+01 -0.2805893693852E+01  0.0000000000000E+00
 0.1020696702984E+01 -0.2734588564626E+01  0.0000000000000E+00
 0.1022754749553E+01 -0.2663301105436E+01  0.0000000000000E+00
 0.1025473284322E+01 -0.2592039646683E+01  0.0000000000000E+00
 0.1028887363514E+01 -0.2520813176348E+01  0.0000000000000E+00
 0.1033036645440E+01 -0.2449632409496E+01  0.0000000000000E+00
 0.1037975687144E+01 -0.2378510928901E+01  0.0000000000000E+00
 0.1043701419494E+01 -0.2307458551527E+01  0.0000000000000E+00
 0.1050133862544E+01 -0.2236477035263E+01  0.0000000000000E+00
 0.1057215921438E+01 -0.2165568057156E+01  0.0000000000000E+00
 0.1064914390158E+01 -0.2094734396797E+01  0.0000000000000E+00
 0.1073218432483E+01 -0.2023980956034E+01  0.0000000000000E+00
 0.1082144678514E+01 -0.1953316628284E+01  0.0000000000000E+00
 0.1091760005868E+01 -0.1882758622300E+01  0.0000000000000E+00
 0.1045006744575E+01 -0.4660372386100E+01  0.0000000000000E+00
 0.1045013489135E+01 -0.4589157794934E+01  0.0000000000000E+00
 0.1045020233737E+01 -0.4517942766450E+01  0.0000000000000E+00
 0.1045026978321E+01 -0.4446727937617E+01  0.0000000000000E+00
 0.1045033722903E+01 -0.4375513122945E+01  0.0000000000000E+00
 0.1045040467487E+01 -0.4304298281514E+01  0.0000000000000E+00
 0.1045047212067E+01 -0.4233083482172E+01  0.0000000000000E+00
 0.1045053956650E+01 -0.4161868656724E+01  0.0000000000000E+00
 0.1045060701232E+01 -0.4090653836506E+01  0.0000000000000E+00
 0.1045067445814E+01 -0.4019439024151E+01  0.0000000000000E+00
 0.1045074190397E+01 -0.3948224196891E+01  0.0000000000000E+00
 0.1045080934978E+01 -0.3877009392985E+01  0.0000000000000E+00
 0.1045087679562E+01 -0.3805794557998E+01  0.0000000000000E+00
 0.1045094424151E+01 -0.3734579664913E+01  0.0000000000000E+00
 0.1045101168738E+01 -0.3663364792095E+01  0.0000000000000E+00
 0.1045107913318E+01 -0.3592150004468E+01  0.0000000000000E+00
 0.1045114657956E+01 -0.3520934588123E+01  0.0000000000000E+00
 0.1045121402483E+01 -0.3449720361677E+01  0.0000000000000E+00
 0.1045128147066E+01 -0.3378505531160E+01  0.0000000000000E+00
 0.1045134891642E+01 -0.3307290778676E+01  0.0000000000000E+00
 0.1045141636209E+01 -0.3236076116898E+01  0.0000000000000E+00
 0.1045148380780E+01 -0.3164861419183E+01  0.0000000000000E+00
 0.1045155125354E+01 -0.3093646689619E+01  0.0000000000000E+00
 0.1045180279821E+01 -0.3022431898826E+01  0.0000000000000E+00
 0.1045342420734E+01 -0.2951217337218E+01  0.0000000000000E+00
 0.1045806198134E+01 -0.2880004340962E+01  0.0000000000000E+00
 0.1046721701941E+01 -0.2808796186818E+01  0.0000000000000E+00
 0.1048199411086E+01 -0.2737598556931E+01  0.0000000000000E+00
 0.1050310183620E+01 -0.2666418597083E+01  0.0000000000000E+00
 0.1053099326642E+01 -0.2595264637507E+01  0.0000000000000E+00
 0.1056602845493E+01 -0.2524145666443E+01  0.0000000000000E+00
 0.1060861472207E+01 -0.2453072398925E+01  0.0000000000000E+00
 0.1065931240934E+01 -0.2382058417411E+01  0.0000000000000E+00
 0.1071808999436E+01 -0.2311113539242E+01  0.0000000000000E+00
 0.1078412602362E+01 -0.2240239522303E+01  0.0000000000000E+00
 0.1085683409054E+01 -0.2169438043568E+01  0.0000000000000E+00
 0.1093587314458E+01 -0.2098711882704E+01  0.0000000000000E+00
 0.1102113188972E+01 -0.2028065941545E+01  0.0000000000000E+00
 0.1111278112956E+01 -0.1957509113146E+01  0.0000000000000E+00
 0.1121150774694E+01 -0.1887058606262E+01  0.0000000000000E+00
 0.1072503587178E+01 -0.4660482676316E+01  0.0000000000000E+00
 0.1072507174348E+01 -0.4589378375137E+01  0.0000000000000E+00
 0.1072510761541E+01 -0.4518273637316E+01  0.0000000000000E+00
 0.1072514348723E+01 -0.4447169098837E+01  0.0000000000000E+00
 0.1072517935905E+01 -0.4376064574498E+01  0.0000000000000E+00
 0.1072521523088E+01 -0.4304960023440E+01  0.0000000000000E+00
 0.1072525110269E+01 -0.4233855514407E+01  0.0000000000000E+00
 0.1072528697451E+01 -0.4162750979308E+01  0.0000000000000E+00
 0.1072532284633E+01 -0.4091646449431E+01  0.0000000000000E+00
 0.1072535871815E+01 -0.4020541927405E+01  0.0000000000000E+00
 0.1072539458997E+01 -0.3949437390497E+01  0.0000000000000E+00
 0.1072543046178E+01 -0.3878332876907E+01  0.0000000000000E+00
 0.1072546633361E+01 -0.3807228332284E+01  0.0000000000000E+00
 0.1072550220546E+01 -0.3736123729652E+01  0.0000000000000E+00
 0.1072553807731E+01 -0.3665019147257E+01  0.0000000000000E+00
 0.1072557394911E+01 -0.3593914649921E+01  0.0000000000000E+00
 0.1072560982123E+01 -0.3522809524840E+01  0.0000000000000E+00
 0.1072564569275E+01 -0.3451705587815E+01  0.0000000000000E+00
 0.1072568156458E+01 -0.3380601047655E+01  0.0000000000000E+00
 0.1072571743636E+01 -0.3309496585407E+01  0.0000000000000E+00
 0.1072575330810E+01 -0.3238392213725E+01  0.0000000000000E+00
 0.1072578917986E+01 -0.3167287806161E+01  0.0000000000000E+00
 0.1072582505164E+01 -0.3096183366798E+01  0.0000000000000E+00
 0.1072604987528E+01 -0.3025078866304E+01  0.0000000000000E+00
 0.1072768067392E+01 -0.2953974594929E+01  0.0000000000000E+00
 0.1073240735083E+01 -0.2882871888714E+01  0.0000000000000E+00
 0.1074177036982E+01 -0.2811774024571E+01  0.0000000000000E+00
 0.1075690364322E+01 -0.2740686684561E+01  0.0000000000000E+00
 0.1077853443011E+01 -0.2669617014592E+01  0.0000000000000E+00
 0.1080712774480E+01 -0.2598573344725E+01  0.0000000000000E+00
 0.1084305313187E+01 -0.2527564663467E+01  0.0000000000000E+00
 0.1088672864887E+01 -0.2456601685821E+01  0.0000000000000E+00
 0.1093872940837E+01 -0.2385697993918E+01  0.0000000000000E+00
 0.1099902305694E+01 -0.2314863405488E+01  0.0000000000000E+00
 0.1106676648702E+01 -0.2244099678411E+01  0.0000000000000E+00
 0.1114135783397E+01 -0.2173408489587E+01  0.0000000000000E+00
 0.1122244705695E+01 -0.2102792618758E+01  0.0000000000000E+00
 0.1130991992608E+01 -0.2032256967748E+01  0.0000000000000E+00
 0.1140395174757E+01 -0.1961810429236E+01  0.0000000000000E+00
 0.1150524751096E+01 -0.1891470211985E+01  0.0000000000000E+00
-0.5660382933727E+00 -0.1689691761343E+01  0.0000000000000E+00
-0.5663123720575E+00 -0.1626506538788E+01  0.0000000000000E+00
-0.5667790339879E+00 -0.1563322491581E+01  0.0000000000000E+00
-0.5674663936241E+00 -0.1500140613648E+01  0.0000000000000E+00
-0.5684046240156E+00 -0.1436962158218E+01  0.0000000000000E+00
-0.5696222518212E+00 -0.1373788927613E+01  0.0000000000000E+00
-0.5711380830886E+00 -0.1310622648082E+01  0.0000000000000E+00
-0.5729469100487E+00 -0.1247464856343E+01  0.0000000000000E+00
-0.5750009089678E+00 -0.1184315217396E+01  0.0000000000000E+00
-0.5771979571333E+00 -0.1121170853713E+01  0.0000000000000E+00
-0.5793950052231E+00 -0.1058026490028E+01  0.0000000000000E+00
-0.5814490039253E+00 -0.9948768510738E+00  0.0000000000000E+00
-0.5832578305519E+00 -0.9317190593259E+00  0.0000000000000E+00
-0.5847736613987E+00 -0.8685527797851E+00  0.0000000000000E+00
-0.5859912887235E+00 -0.8053795491707E+00  0.0000000000000E+00
-0.5869295185944E+00 -0.7422010937332E+00  0.0000000000000E+00
-0.5876168776851E+00 -0.6790192157949E+00  0.0000000000000E+00
-0.5880835390555E+00 -0.6158351685841E+00  0.0000000000000E+00
-0.5883576171726E+00 -0.5526499460259E+00  0.0000000000000E+00
-0.5363253834601E+00 -0.1687245125446E+01  0.0000000000000E+00
-0.5366119768712E+00 -0.1623791708043E+01  0.0000000000000E+00
-0.5370810175640E+00 -0.1560339466072E+01  0.0000000000000E+00
-0.5377591402814E+00 -0.1496889393551E+01  0.0000000000000E+00
-0.5386749300523E+00 -0.1433442743371E+01  0.0000000000000E+00
-0.5398554120886E+00 -0.1370001318292E+01  0.0000000000000E+00
-0.5413184027050E+00 -0.1306566843974E+01  0.0000000000000E+00
-0.5430589681685E+00 -0.1243140857698E+01  0.0000000000000E+00
-0.5450318018343E+00 -0.1179723023941E+01  0.0000000000000E+00
-0.5471401558424E+00 -0.1116310465411E+01  0.0000000000000E+00
-0.5492485097748E+00 -0.1052897906879E+01  0.0000000000000E+00
-0.5512213432236E+00 -0.9894800731148E+00  0.0000000000000E+00
-0.5529619083535E+00 -0.9260540868295E+00  0.0000000000000E+00
-0.5544248985495E+00 -0.8626196125025E+00  0.0000000000000E+00
-0.5556053801049E+00 -0.7991781874149E+00  0.0000000000000E+00
-0.5565211693552E+00 -0.7357315372274E+00  0.0000000000000E+00
-0.5571992915272E+00 -0.6722814647015E+00  0.0000000000000E+00
-0.5576683316600E+00 -0.6088292227269E+00  0.0000000000000E+00
-0.5579549245034E+00 -0.5453758053214E+00  0.0000000000000E+00
-0.5065999670663E+00 -0.1684928561672E+01  0.0000000000000E+00
-0.5068949115904E+00 -0.1621220039384E+01  0.0000000000000E+00
-0.5073621674199E+00 -0.1557512692609E+01  0.0000000000000E+00
-0.5080268895799E+00 -0.1493807515451E+01  0.0000000000000E+00
-0.5089160750712E+00 -0.1430105760479E+01  0.0000000000000E+00
-0.5100552476636E+00 -0.1366409230871E+01  0.0000000000000E+00
-0.5114612339286E+00 -0.1302719651727E+01  0.0000000000000E+00
-0.5131293741780E+00 -0.1239038560861E+01  0.0000000000000E+00
-0.5150168788513E+00 -0.1175365622255E+01  0.0000000000000E+00
-0.5170323749522E+00 -0.1111697958841E+01  0.0000000000000E+00
-0.5190478709775E+00 -0.1048030295425E+01  0.0000000000000E+00
-0.5209353754338E+00 -0.9843573568131E+00  0.0000000000000E+00
-0.5226035153497E+00 -0.9206762659386E+00  0.0000000000000E+00
-0.5240095011942E+00 -0.8569866867857E+00  0.0000000000000E+00
-0.5251486733057E+00 -0.7932901571698E+00  0.0000000000000E+00
-0.5260378582764E+00 -0.7295884021909E+00  0.0000000000000E+00
-0.5267025798910E+00 -0.6658832250280E+00  0.0000000000000E+00
-0.5271698351604E+00 -0.6021758782489E+00  0.0000000000000E+00
-0.5274647791169E+00 -0.5384673559593E+00  0.0000000000000E+00
-0.4768626705487E+00 -0.1682742416099E+01  0.0000000000000E+00
-0.4771619844321E+00 -0.1618792097827E+01  0.0000000000000E+00
-0.4776234736490E+00 -0.1554842955143E+01  0.0000000000000E+00
-0.4782708135087E+00 -0.1490895982235E+01  0.0000000000000E+00
-0.4791294129793E+00 -0.1426952431367E+01  0.0000000000000E+00
-0.4802232943955E+00 -0.1363014106112E+01  0.0000000000000E+00
-0.4815682945772E+00 -0.1299082731039E+01  0.0000000000000E+00
-0.4831600278892E+00 -0.1235159844468E+01  0.0000000000000E+00
-0.4849582218467E+00 -0.1171245109912E+01  0.0000000000000E+00
-0.4868768783191E+00 -0.1107335650514E+01  0.0000000000000E+00
-0.4887955347158E+00 -0.1043426191114E+01  0.0000000000000E+00
-0.4905937284563E+00 -0.9795114565527E+00  0.0000000000000E+00
-0.4921854614348E+00 -0.9155885699739E+00  0.0000000000000E+00
-0.4935304611959E+00 -0.8516571948924E+00  0.0000000000000E+00
-0.4946243421312E+00 -0.7877188696299E+00  0.0000000000000E+00
-0.4954829410813E+00 -0.7237753187550E+00  0.0000000000000E+00
-0.4961302803955E+00 -0.6598283458425E+00  0.0000000000000E+00
-0.4965917690524E+00 -0.5958792031548E+00  0.0000000000000E+00
-0.4968910823681E+00 -0.5319288848814E+00  0.0000000000000E+00
-0.4471141738714E+00 -0.1680687021658E+01  0.0000000000000E+00
-0.4474140589931E+00 -0.1616508426019E+01  0.0000000000000E+00
-0.4478659834921E+00 -0.1552331006037E+01  0.0000000000000E+00
-0.4484921429651E+00 -0.1488155755982E+01  0.0000000000000E+00
-0.4493163583450E+00 -0.1423983927828E+01  0.0000000000000E+00
-0.4503611505400E+00 -0.1359817325524E+01  0.0000000000000E+00
-0.4516413666112E+00 -0.1295657673134E+01  0.0000000000000E+00
-0.4531528949840E+00 -0.1231506509458E+01  0.0000000000000E+00
-0.4548579802386E+00 -0.1167363497567E+01  0.0000000000000E+00
-0.4566759991053E+00 -0.1103225760801E+01  0.0000000000000E+00
-0.4584940178964E+00 -0.1039088024033E+01  0.0000000000000E+00
-0.4601991029340E+00 -0.9749450121357E+00  0.0000000000000E+00
-0.4617106309733E+00 -0.9107938484529E+00  0.0000000000000E+00
-0.4629908466239E+00 -0.8466341960555E+00  0.0000000000000E+00
-0.4640356383381E+00 -0.7824675937435E+00  0.0000000000000E+00
-0.4648598531975E+00 -0.7182957655835E+00  0.0000000000000E+00
-0.4654860121251E+00 -0.6541205155242E+00  0.0000000000000E+00
-0.4659379360640E+00 -0.5899430955397E+00  0.0000000000000E+00
-0.4662378206180E+00 -0.5257644998984E+00  0.0000000000000E+00
-0.4173550630559E+00 -0.1678762688173E+01  0.0000000000000E+00
-0.4176519113029E+00 -0.1614369533789E+01  0.0000000000000E+00
-0.4180906629569E+00 -0.1549977555129E+01  0.0000000000000E+00
-0.4186920339012E+00 -0.1485587746537E+01  0.0000000000000E+00
-0.4194782570266E+00 -0.1421201359716E+01  0.0000000000000E+00
-0.4204703518181E+00 -0.1356820198965E+01  0.0000000000000E+00
-0.4216821755688E+00 -0.1292445987879E+01  0.0000000000000E+00
-0.4231098907729E+00 -0.1228080265706E+01  0.0000000000000E+00
-0.4247182590719E+00 -0.1163722695099E+01  0.0000000000000E+00
-0.4264320320686E+00 -0.1099370399588E+01  0.0000000000000E+00
-0.4281458049896E+00 -0.1035018104075E+01  0.0000000000000E+00
-0.4297541730716E+00 -0.9706605334635E+00  0.0000000000000E+00
-0.4311818879422E+00 -0.9062948112837E+00  0.0000000000000E+00
-0.4323937112723E+00 -0.8419206001903E+00  0.0000000000000E+00
-0.4333858055829E+00 -0.7775394394327E+00  0.0000000000000E+00
-0.4341720281878E+00 -0.7131530526057E+00  0.0000000000000E+00
-0.4347733985867E+00 -0.6487632440093E+00  0.0000000000000E+00
-0.4352121496806E+00 -0.5843712653468E+00  0.0000000000000E+00
-0.4355089973599E+00 -0.5199781109607E+00  0.0000000000000E+00
-0.3875860504174E+00 -0.1676969717501E+01  0.0000000000000E+00
-0.3878764553724E+00 -0.1612375915377E+01  0.0000000000000E+00
-0.3882986277719E+00 -0.1547783289039E+01  0.0000000000000E+00
-0.3888718037880E+00 -0.1483192832901E+01  0.0000000000000E+00
-0.3896166282662E+00 -0.1418605798412E+01  0.0000000000000E+00
-0.3905526192750E+00 -0.1354023990201E+01  0.0000000000000E+00
-0.3916926443324E+00 -0.1289449131420E+01  0.0000000000000E+00
-0.3930331400086E+00 -0.1224882761738E+01  0.0000000000000E+00
-0.3945413849981E+00 -0.1160324543420E+01  0.0000000000000E+00
-0.3961475057755E+00 -0.1095771600169E+01  0.0000000000000E+00
-0.3977536264772E+00 -0.1031218656915E+01  0.0000000000000E+00
-0.3992618712497E+00 -0.9666604385923E+00  0.0000000000000E+00
-0.4006023665923E+00 -0.9020940689044E+00  0.0000000000000E+00
-0.4017423912293E+00 -0.8375192101168E+00  0.0000000000000E+00
-0.4026783817572E+00 -0.7729374018990E+00  0.0000000000000E+00
-0.4034232057148E+00 -0.7083503674049E+00  0.0000000000000E+00
-0.4039963811855E+00 -0.6437599112629E+00  0.0000000000000E+00
-0.4044185530250E+00 -0.5791672849229E+00  0.0000000000000E+00
-0.4047089574122E+00 -0.5145734827967E+00  0.0000000000000E+00
-0.3578077848507E+00 -0.1675308389248E+01  0.0000000000000E+00
-0.3580885470070E+00 -0.1610528031852E+01  0.0000000000000E+00
-0.3584909406433E+00 -0.1545748850301E+01  0.0000000000000E+00
-0.3590327222207E+00 -0.1480971839072E+01  0.0000000000000E+00
-0.3597329485350E+00 -0.1416198249379E+01  0.0000000000000E+00
-0.3606096362428E+00 -0.1351429886156E+01  0.0000000000000E+00
-0.3616746630801E+00 -0.1286668472146E+01  0.0000000000000E+00
-0.3629247396993E+00 -0.1221915547408E+01  0.0000000000000E+00
-0.3643296618428E+00 -0.1157170773845E+01  0.0000000000000E+00
-0.3658249308613E+00 -0.1092431275322E+01  0.0000000000000E+00
-0.3673201998042E+00 -0.1027691776797E+01  0.0000000000000E+00
-0.3687251217307E+00 -0.9629470032288E+00  0.0000000000000E+00
-0.3699751980164E+00 -0.8981940784852E+00  0.0000000000000E+00
-0.3710402244331E+00 -0.8334326644688E+00  0.0000000000000E+00
-0.3719169116601E+00 -0.7686643012399E+00  0.0000000000000E+00
-0.3726171374538E+00 -0.7038907115421E+00  0.0000000000000E+00
-0.3731589184858E+00 -0.6391137003095E+00  0.0000000000000E+00
-0.3735613115620E+00 -0.5743345187563E+00  0.0000000000000E+00
-0.3738420731506E+00 -0.5095541613588E+00  0.0000000000000E+00
-0.3280209322967E+00 -0.1673778966441E+01  0.0000000000000E+00
-0.3282890703009E+00 -0.1608826317856E+01  0.0000000000000E+00
-0.3286687038227E+00 -0.1543874845170E+01  0.0000000000000E+00
-0.3291761096142E+00 -0.1478925542919E+01  0.0000000000000E+00
-0.3298287564176E+00 -0.1413979662100E+01  0.0000000000000E+00
-0.3306431594830E+00 -0.1349039007928E+01  0.0000000000000E+00
-0.3316302067577E+00 -0.1284105302768E+01  0.0000000000000E+00
-0.3327868829826E+00 -0.1219180087040E+01  0.0000000000000E+00
-0.3340855009420E+00 -0.1154263022312E+01  0.0000000000000E+00
-0.3354669368643E+00 -0.1089351232600E+01  0.0000000000000E+00
-0.3368483727111E+00 -0.1024439442887E+01  0.0000000000000E+00
-0.3381469904534E+00 -0.9595223781546E+00  0.0000000000000E+00
-0.3393036663448E+00 -0.8945971624215E+00  0.0000000000000E+00
-0.3402907131989E+00 -0.8296634572558E+00  0.0000000000000E+00
-0.3411051157835E+00 -0.7647228030786E+00  0.0000000000000E+00
-0.3417577620663E+00 -0.6997769222548E+00  0.0000000000000E+00
-0.3422651673124E+00 -0.6348276200005E+00  0.0000000000000E+00
-0.3426448002742E+00 -0.5698761473125E+00  0.0000000000000E+00
-0.3429129377106E+00 -0.5049234987264E+00  0.0000000000000E+00
-0.2982262059385E+00 -0.1672381694973E+01  0.0000000000000E+00
-0.2984789576442E+00 -0.1607271179011E+01  0.0000000000000E+00
-0.2988330689080E+00 -0.1542161838997E+01  0.0000000000000E+00
-0.2993033367739E+00 -0.1477054669522E+01  0.0000000000000E+00
-0.2999056419273E+00 -0.1411950921383E+01  0.0000000000000E+00
-0.3006549982166E+00 -0.1346852400053E+01  0.0000000000000E+00
-0.3015613037944E+00 -0.1281760827552E+01  0.0000000000000E+00
-0.3026218174963E+00 -0.1216677744629E+01  0.0000000000000E+00
-0.3038113691420E+00 -0.1151602812546E+01  0.0000000000000E+00
-0.3050762098397E+00 -0.1086533155457E+01  0.0000000000000E+00
-0.3063410504618E+00 -0.1021463498367E+01  0.0000000000000E+00
-0.3075306018905E+00 -0.9563885662797E+00  0.0000000000000E+00
-0.3085911152588E+00 -0.8913054833521E+00  0.0000000000000E+00
-0.3094974204161E+00 -0.8262139108455E+00  0.0000000000000E+00
-0.3102467762245E+00 -0.7611153895116E+00  0.0000000000000E+00
-0.3108490808573E+00 -0.6960116413682E+00  0.0000000000000E+00
-0.3113193481778E+00 -0.6309044718900E+00  0.0000000000000E+00
-0.3116734588816E+00 -0.5657951318742E+00  0.0000000000000E+00
-0.3119262100196E+00 -0.5006846159113E+00  0.0000000000000E+00
-0.2684242591111E+00 -0.1671116799086E+01  0.0000000000000E+00
-0.2686590939796E+00 -0.1605862988030E+01  0.0000000000000E+00
-0.2689851524448E+00 -0.1540610352966E+01  0.0000000000000E+00
-0.2694157518426E+00 -0.1475359888535E+01  0.0000000000000E+00
-0.2699651847983E+00 -0.1410112845353E+01  0.0000000000000E+00
-0.2706469637623E+00 -0.1344871029129E+01  0.0000000000000E+00
-0.2714699970866E+00 -0.1279636161565E+01  0.0000000000000E+00
-0.2724318177065E+00 -0.1214409783713E+01  0.0000000000000E+00
-0.2735097724737E+00 -0.1149191556555E+01  0.0000000000000E+00
-0.2746554873792E+00 -0.1083978604371E+01  0.0000000000000E+00
-0.2758012022091E+00 -0.1018765652186E+01  0.0000000000000E+00
-0.2768791567593E+00 -0.9535474250252E+00  0.0000000000000E+00
-0.2778409770457E+00 -0.8883210471688E+00  0.0000000000000E+00
-0.2786640099495E+00 -0.8230861796004E+00  0.0000000000000E+00
-0.2793457884325E+00 -0.7578443633719E+00  0.0000000000000E+00
-0.2798952208677E+00 -0.6925973201861E+00  0.0000000000000E+00
-0.2803258197201E+00 -0.6273468557523E+00  0.0000000000000E+00
-0.2806518776252E+00 -0.5620942206867E+00  0.0000000000000E+00
-0.2808867119260E+00 -0.4968404096294E+00  0.0000000000000E+00
-0.2386158232353E+00 -0.1669984486219E+01  0.0000000000000E+00
-0.2388304441249E+00 -0.1604602088268E+01  0.0000000000000E+00
-0.2391261526536E+00 -0.1539220866350E+01  0.0000000000000E+00
-0.2395147864510E+00 -0.1473841815148E+01  0.0000000000000E+00
-0.2400090500797E+00 -0.1408466185117E+01  0.0000000000000E+00
-0.2406209545962E+00 -0.1343095782177E+01  0.0000000000000E+00
-0.2413584185475E+00 -0.1277732327748E+01  0.0000000000000E+00
-0.2422192489735E+00 -0.1212377363149E+01  0.0000000000000E+00
-0.2431833097518E+00 -0.1147030549114E+01  0.0000000000000E+00
-0.2442076017572E+00 -0.1081689010035E+01  0.0000000000000E+00
-0.2452318936869E+00 -0.1016347470955E+01  0.0000000000000E+00
-0.2461959542483E+00 -0.9510006569173E+00  0.0000000000000E+00
-0.2470567843406E+00 -0.8856456923147E+00  0.0000000000000E+00
-0.2477942478714E+00 -0.8202822378808E+00  0.0000000000000E+00
-0.2484061519071E+00 -0.7549118349370E+00  0.0000000000000E+00
-0.2489004150152E+00 -0.6895362049032E+00  0.0000000000000E+00
-0.2492890482672E+00 -0.6241571536992E+00  0.0000000000000E+00
-0.2495847562358E+00 -0.5587759317790E+00  0.0000000000000E+00
-0.2497993765577E+00 -0.4933935338269E+00  0.0000000000000E+00
-0.2088015918171E+00 -0.1668984941864E+01  0.0000000000000E+00
-0.2089939423704E+00 -0.1603488788333E+01  0.0000000000000E+00
-0.2092572446060E+00 -0.1537993810870E+01  0.0000000000000E+00
-0.2096018564480E+00 -0.1472501004198E+01  0.0000000000000E+00
-0.2100388943936E+00 -0.1407011618628E+01  0.0000000000000E+00
-0.2105788681090E+00 -0.1341527460266E+01  0.0000000000000E+00
-0.2112287063315E+00 -0.1276050250282E+01  0.0000000000000E+00
-0.2119864902098E+00 -0.1210581530234E+01  0.0000000000000E+00
-0.2128346006438E+00 -0.1145120960635E+01  0.0000000000000E+00
-0.2137354133933E+00 -0.1079665665975E+01  0.0000000000000E+00
-0.2146362260672E+00 -0.1014210371315E+01  0.0000000000000E+00
-0.2154843362842E+00 -0.9487498017129E+00  0.0000000000000E+00
-0.2162421198289E+00 -0.8832810816616E+00  0.0000000000000E+00
-0.2168919576308E+00 -0.8178038716736E+00  0.0000000000000E+00
-0.2174319308654E+00 -0.7523197133084E+00  0.0000000000000E+00
-0.2178689682905E+00 -0.6868303277357E+00  0.0000000000000E+00
-0.2182135795869E+00 -0.6213375210618E+00  0.0000000000000E+00
-0.2184768812625E+00 -0.5558425435970E+00  0.0000000000000E+00
-0.2186692312481E+00 -0.4903463900649E+00  0.0000000000000E+00
-0.1789822699684E+00 -0.1668118331209E+01  0.0000000000000E+00
-0.1791505394161E+00 -0.1602523363227E+01  0.0000000000000E+00
-0.1793796245881E+00 -0.1536929571344E+01  0.0000000000000E+00
-0.1796784037030E+00 -0.1471337950318E+01  0.0000000000000E+00
-0.1800564051905E+00 -0.1405749750333E+01  0.0000000000000E+00
-0.1805226373288E+00 -0.1340166777658E+01  0.0000000000000E+00
-0.1810830390415E+00 -0.1274590753246E+01  0.0000000000000E+00
-0.1817359655899E+00 -0.1209023218861E+01  0.0000000000000E+00
-0.1824663148931E+00 -0.1143463834825E+01  0.0000000000000E+00
-0.1832418375987E+00 -0.1077909725716E+01  0.0000000000000E+00
-0.1840173602287E+00 -0.1012355616605E+01  0.0000000000000E+00
-0.1847477093150E+00 -0.9467962325665E+00  0.0000000000000E+00
-0.1854006355298E+00 -0.8812286981792E+00  0.0000000000000E+00
-0.1859610368220E+00 -0.8156526737635E+00  0.0000000000000E+00
-0.1864272684794E+00 -0.7500697010859E+00  0.0000000000000E+00
-0.1868052694463E+00 -0.6844815010990E+00  0.0000000000000E+00
-0.1871040480158E+00 -0.6188898800707E+00  0.0000000000000E+00
-0.1873331326277E+00 -0.5532960881865E+00  0.0000000000000E+00
-0.1875014015077E+00 -0.4877011202043E+00  0.0000000000000E+00
-0.1491585906986E+00 -0.1667384798938E+01  0.0000000000000E+00
-0.1493012179629E+00 -0.1601706053757E+01  0.0000000000000E+00
-0.1494945249966E+00 -0.1536028484701E+01  0.0000000000000E+00
-0.1497459103137E+00 -0.1470353086556E+01  0.0000000000000E+00
-0.1500633142746E+00 -0.1404681109403E+01  0.0000000000000E+00
-0.1504542437727E+00 -0.1339014359645E+01  0.0000000000000E+00
-0.1509236479144E+00 -0.1273354558052E+01  0.0000000000000E+00
-0.1514701560771E+00 -0.1207703246565E+01  0.0000000000000E+00
-0.1520811831954E+00 -0.1142060085341E+01  0.0000000000000E+00
-0.1527298548045E+00 -0.1076422199032E+01  0.0000000000000E+00
-0.1533785263379E+00 -0.1010784312722E+01  0.0000000000000E+00
-0.1539895532392E+00 -0.9451411514961E+00  0.0000000000000E+00
-0.1545360610683E+00 -0.8794898400065E+00  0.0000000000000E+00
-0.1550054647896E+00 -0.8138300384108E+00  0.0000000000000E+00
-0.1553963938067E+00 -0.7481632886510E+00  0.0000000000000E+00
-0.1557137972470E+00 -0.6824913114955E+00  0.0000000000000E+00
-0.1559651820187E+00 -0.6168159133492E+00  0.0000000000000E+00
-0.1561584884923E+00 -0.5511383442921E+00  0.0000000000000E+00
-0.1563011151890E+00 -0.4854595991108E+00  0.0000000000000E+00
-0.1193312533689E+00 -0.1666784467333E+01  0.0000000000000E+00
-0.1194469324420E+00 -0.1601037064197E+01  0.0000000000000E+00
-0.1196031553282E+00 -0.1535290837207E+01  0.0000000000000E+00
-0.1198058408375E+00 -0.1469546781173E+01  0.0000000000000E+00
-0.1200613412589E+00 -0.1403806146089E+01  0.0000000000000E+00
-0.1203756621029E+00 -0.1338070738472E+01  0.0000000000000E+00
-0.1207527626561E+00 -0.1272342278939E+01  0.0000000000000E+00
-0.1211915464142E+00 -0.1206622309575E+01  0.0000000000000E+00
-0.1216819453254E+00 -0.1140910490406E+01  0.0000000000000E+00
-0.1222024598146E+00 -0.1075203946141E+01  0.0000000000000E+00
-0.1227229742282E+00 -0.1009497401875E+01  0.0000000000000E+00
-0.1232133729224E+00 -0.9437855827039E+00  0.0000000000000E+00
-0.1236521563469E+00 -0.8780656133384E+00  0.0000000000000E+00
-0.1240292564796E+00 -0.8123371538032E+00  0.0000000000000E+00
-0.1243435768427E+00 -0.7466017461841E+00  0.0000000000000E+00
-0.1245990767436E+00 -0.6808611110984E+00  0.0000000000000E+00
-0.1248017617074E+00 -0.6151170550636E+00  0.0000000000000E+00
-0.1249579840336E+00 -0.5493708280728E+00  0.0000000000000E+00
-0.1250736625389E+00 -0.4836234249364E+00  0.0000000000000E+00
-0.8950100053862E-01 -0.1666317437650E+01  0.0000000000000E+00
-0.8958868171560E-01 -0.1600516563313E+01  0.0000000000000E+00
-0.8970677075129E-01 -0.1534716865139E+01  0.0000000000000E+00
-0.8985970675196E-01 -0.1468919337956E+01  0.0000000000000E+00
-0.9005225393426E-01 -0.1403125231690E+01  0.0000000000000E+00
-0.9028891642774E-01 -0.1337336352946E+01  0.0000000000000E+00
-0.9057266369673E-01 -0.1271554422224E+01  0.0000000000000E+00
-0.9090267335780E-01 -0.1205780981720E+01  0.0000000000000E+00
-0.9127139437015E-01 -0.1140015691357E+01  0.0000000000000E+00
-0.9166270204846E-01 -0.1074255675890E+01  0.0000000000000E+00
-0.9205400965113E-01 -0.1008495660424E+01  0.0000000000000E+00
-0.9242273044648E-01 -0.9427303700588E+00  0.0000000000000E+00
-0.9275273977399E-01 -0.8769569295541E+00  0.0000000000000E+00
-0.9303648662245E-01 -0.8111749988302E+00  0.0000000000000E+00
-0.9327314863504E-01 -0.7453861200848E+00  0.0000000000000E+00
-0.9346569529677E-01 -0.6795920138176E+00  0.0000000000000E+00
-0.9361863075200E-01 -0.6137944866337E+00  0.0000000000000E+00
-0.9373671922766E-01 -0.5479947884587E+00  0.0000000000000E+00
-0.9382439983693E-01 -0.4821939141214E+00  0.0000000000000E+00
-0.5966855245610E-01 -0.1665983788540E+01  0.0000000000000E+00
-0.5972744638703E-01 -0.1600144682577E+01  0.0000000000000E+00
-0.5980661222241E-01 -0.1534306752788E+01  0.0000000000000E+00
-0.5990900936510E-01 -0.1468470994015E+01  0.0000000000000E+00
-0.6003781395841E-01 -0.1402638656136E+01  0.0000000000000E+00
-0.6019602875215E-01 -0.1336811545818E+01  0.0000000000000E+00
-0.6038563338675E-01 -0.1270991383477E+01  0.0000000000000E+00
-0.6060607960119E-01 -0.1205179711391E+01  0.0000000000000E+00
-0.6085233336420E-01 -0.1139376189405E+01  0.0000000000000E+00
-0.6111364488103E-01 -0.1073577942312E+01  0.0000000000000E+00
-0.6137495632221E-01 -0.1007779695218E+01  0.0000000000000E+00
-0.6162120986821E-01 -0.9419761732318E+00  0.0000000000000E+00
-0.6184165574910E-01 -0.8761645011445E+00  0.0000000000000E+00
-0.6203125996316E-01 -0.8103443388026E+00  0.0000000000000E+00
-0.6218947427602E-01 -0.7445172284838E+00  0.0000000000000E+00
-0.6231827834875E-01 -0.6786848906039E+00  0.0000000000000E+00
-0.6242067494601E-01 -0.6128491318304E+00  0.0000000000000E+00
-0.6249984022135E-01 -0.5470112020407E+00  0.0000000000000E+00
-0.6255873358457E-01 -0.4811720960768E+00  0.0000000000000E+00
-0.2983463937156E-01 -0.1665783576456E+01  0.0000000000000E+00
-0.2986421868488E-01 -0.1599921516320E+01  0.0000000000000E+00
-0.2990393394841E-01 -0.1534060632365E+01  0.0000000000000E+00
-0.2995526486180E-01 -0.1468201919441E+01  0.0000000000000E+00
-0.3001979949427E-01 -0.1402346627397E+01  0.0000000000000E+00
-0.3009903921680E-01 -0.1336496562938E+01  0.0000000000000E+00
-0.3019397384468E-01 -0.1270653446429E+01  0.0000000000000E+00
-0.3030432924049E-01 -0.1204818820196E+01  0.0000000000000E+00
-0.3042758838143E-01 -0.1138992344041E+01  0.0000000000000E+00
-0.3055837636388E-01 -0.1073171142774E+01  0.0000000000000E+00
-0.3068916427068E-01 -0.1007349941507E+01  0.0000000000000E+00
-0.3081242319462E-01 -0.9415234653514E+00  0.0000000000000E+00
-0.3092277825687E-01 -0.8756888391178E+00  0.0000000000000E+00
-0.3101771246422E-01 -0.8098457226084E+00  0.0000000000000E+00
-0.3109695170586E-01 -0.7439956581489E+00  0.0000000000000E+00
-0.3116148581776E-01 -0.6781403661046E+00  0.0000000000000E+00
-0.3121281618571E-01 -0.6122816531806E+00  0.0000000000000E+00
-0.3125253088920E-01 -0.5464207692254E+00  0.0000000000000E+00
-0.3128210963481E-01 -0.4805587090888E+00  0.0000000000000E+00
 0.5155270009526E-08 -0.1665716835338E+01  0.0000000000000E+00
 0.4584959176113E-08 -0.1599847121274E+01  0.0000000000000E+00
 0.4018463728957E-08 -0.1533978583394E+01  0.0000000000000E+00
 0.3459266843676E-08 -0.1468112216549E+01  0.0000000000000E+00
 0.2912509056810E-08 -0.1402249270580E+01  0.0000000000000E+00
 0.2385636992076E-08 -0.1336391552204E+01  0.0000000000000E+00
 0.1889014992709E-08 -0.1270540781768E+01  0.0000000000000E+00
 0.1435985985768E-08 -0.1204698501615E+01  0.0000000000000E+00
 0.1041351324883E-08 -0.1138864371533E+01  0.0000000000000E+00
 0.7174784089279E-09 -0.1073035516338E+01  0.0000000000000E+00
 0.4692479852428E-09 -0.1007206661143E+01  0.0000000000000E+00
 0.2916178775732E-09 -0.9413725310599E+00  0.0000000000000E+00
 0.1721481202976E-09 -0.8755302509073E+00  0.0000000000000E+00
 0.9605798026668E-10 -0.8096794804718E+00  0.0000000000000E+00
 0.5007317610023E-10 -0.7438217620953E+00  0.0000000000000E+00
 0.2389664789049E-10 -0.6779588161260E+00  0.0000000000000E+00
 0.1013572289531E-10 -0.6120924492818E+00  0.0000000000000E+00
 0.3684762219914E-11 -0.5462239114012E+00  0.0000000000000E+00
 0.1082633505902E-11 -0.4803541973369E+00  0.0000000000000E+00
 0.2983464968201E-01 -0.1665783576500E+01  0.0000000000000E+00
 0.2986422785471E-01 -0.1599921516362E+01  0.0000000000000E+00
 0.2990394198526E-01 -0.1534060632404E+01  0.0000000000000E+00
 0.2995527178026E-01 -0.1468201919478E+01  0.0000000000000E+00
 0.3001980531922E-01 -0.1402346627432E+01  0.0000000000000E+00
 0.3009904398801E-01 -0.1336496562970E+01  0.0000000000000E+00
 0.3019397762265E-01 -0.1270653446458E+01  0.0000000000000E+00
 0.3030433211240E-01 -0.1204818820222E+01  0.0000000000000E+00
 0.3042759046408E-01 -0.1138992344063E+01  0.0000000000000E+00
 0.3055837779879E-01 -0.1073171142794E+01  0.0000000000000E+00
 0.3068916520914E-01 -0.1007349941524E+01  0.0000000000000E+00
 0.3081242377782E-01 -0.9415234653661E+00  0.0000000000000E+00
 0.3092277860113E-01 -0.8756888391304E+00  0.0000000000000E+00
 0.3101771265631E-01 -0.8098457226190E+00  0.0000000000000E+00
 0.3109695180599E-01 -0.7439956581577E+00  0.0000000000000E+00
 0.3116148586553E-01 -0.6781403661116E+00  0.0000000000000E+00
 0.3121281620596E-01 -0.6122816531859E+00  0.0000000000000E+00
 0.3125253089656E-01 -0.5464207692289E+00  0.0000000000000E+00
 0.3128210963697E-01 -0.4805587090906E+00  0.0000000000000E+00
 0.5966856276630E-01 -0.1665983788628E+01  0.0000000000000E+00
 0.5972745555662E-01 -0.1600144682660E+01  0.0000000000000E+00
 0.5980662025903E-01 -0.1534306752866E+01  0.0000000000000E+00
 0.5990901628335E-01 -0.1468470994089E+01  0.0000000000000E+00
 0.6003781978316E-01 -0.1402638656205E+01  0.0000000000000E+00
 0.6019603352318E-01 -0.1336811545881E+01  0.0000000000000E+00
 0.6038563716454E-01 -0.1270991383534E+01  0.0000000000000E+00
 0.6060608247295E-01 -0.1205179711442E+01  0.0000000000000E+00
 0.6085233544670E-01 -0.1139376189450E+01  0.0000000000000E+00
 0.6111364631580E-01 -0.1073577942351E+01  0.0000000000000E+00
 0.6137495726055E-01 -0.1007779695252E+01  0.0000000000000E+00
 0.6162121045131E-01 -0.9419761732611E+00  0.0000000000000E+00
 0.6184165609327E-01 -0.8761645011696E+00  0.0000000000000E+00
 0.6203126015517E-01 -0.8103443388238E+00  0.0000000000000E+00
 0.6218947437608E-01 -0.7445172285014E+00  0.0000000000000E+00
 0.6231827839647E-01 -0.6786848906179E+00  0.0000000000000E+00
 0.6242067496623E-01 -0.6128491318409E+00  0.0000000000000E+00
 0.6249984022868E-01 -0.5470112020477E+00  0.0000000000000E+00
 0.6255873358672E-01 -0.4811720960803E+00  0.0000000000000E+00
 0.8950101084839E-01 -0.1666317437781E+01  0.0000000000000E+00
 0.8958869088479E-01 -0.1600516563438E+01  0.0000000000000E+00
 0.8970677878753E-01 -0.1534716865257E+01  0.0000000000000E+00
 0.8985971366985E-01 -0.1468919338067E+01  0.0000000000000E+00
 0.9005225975868E-01 -0.1403125231793E+01  0.0000000000000E+00
 0.9028892119845E-01 -0.1337336353041E+01  0.0000000000000E+00
 0.9057266747424E-01 -0.1271554422310E+01  0.0000000000000E+00
 0.9090267622929E-01 -0.1205780981797E+01  0.0000000000000E+00
 0.9127139645241E-01 -0.1140015691424E+01  0.0000000000000E+00
 0.9166270348301E-01 -0.1074255675949E+01  0.0000000000000E+00
 0.9205401058927E-01 -0.1008495660475E+01  0.0000000000000E+00
 0.9242273102939E-01 -0.9427303701028E+00  0.0000000000000E+00
 0.9275274011800E-01 -0.8769569295918E+00  0.0000000000000E+00
 0.9303648681432E-01 -0.8111749988621E+00  0.0000000000000E+00
 0.9327314873499E-01 -0.7453861201111E+00  0.0000000000000E+00
 0.9346569534440E-01 -0.6795920138386E+00  0.0000000000000E+00
 0.9361863077215E-01 -0.6137944866494E+00  0.0000000000000E+00
 0.9373671923494E-01 -0.5479947884691E+00  0.0000000000000E+00
 0.9382439983905E-01 -0.4821939141266E+00  0.0000000000000E+00
 0.1193312636781E+00 -0.1666784467507E+01  0.0000000000000E+00
 0.1194469416106E+00 -0.1601037064363E+01  0.0000000000000E+00
 0.1196031633639E+00 -0.1535290837365E+01  0.0000000000000E+00
 0.1198058477548E+00 -0.1469546781322E+01  0.0000000000000E+00
 0.1200613470828E+00 -0.1403806146227E+01  0.0000000000000E+00
 0.1203756668731E+00 -0.1338070738599E+01  0.0000000000000E+00
 0.1207527664332E+00 -0.1272342279054E+01  0.0000000000000E+00
 0.1211915492853E+00 -0.1206622309678E+01  0.0000000000000E+00
 0.1216819474073E+00 -0.1140910490496E+01  0.0000000000000E+00
 0.1222024612488E+00 -0.1075203946219E+01  0.0000000000000E+00
 0.1227229751660E+00 -0.1009497401943E+01  0.0000000000000E+00
 0.1232133735050E+00 -0.9437855827625E+00  0.0000000000000E+00
 0.1236521566907E+00 -0.8780656133886E+00  0.0000000000000E+00
 0.1240292566713E+00 -0.8123371538457E+00  0.0000000000000E+00
 0.1243435769425E+00 -0.7466017462192E+00  0.0000000000000E+00
 0.1245990767911E+00 -0.6808611111264E+00  0.0000000000000E+00
 0.1248017617275E+00 -0.6151170550845E+00  0.0000000000000E+00
 0.1249579840408E+00 -0.5493708280868E+00  0.0000000000000E+00
 0.1250736625410E+00 -0.4836234249434E+00  0.0000000000000E+00
 0.1491586010070E+00 -0.1667384799156E+01  0.0000000000000E+00
 0.1493012271308E+00 -0.1601706053965E+01  0.0000000000000E+00
 0.1494945330316E+00 -0.1536028484898E+01  0.0000000000000E+00
 0.1497459172305E+00 -0.1470353086742E+01  0.0000000000000E+00
 0.1500633200979E+00 -0.1404681109575E+01  0.0000000000000E+00
 0.1504542485424E+00 -0.1339014359804E+01  0.0000000000000E+00
 0.1509236516910E+00 -0.1273354558196E+01  0.0000000000000E+00
 0.1514701589477E+00 -0.1207703246693E+01  0.0000000000000E+00
 0.1520811852768E+00 -0.1142060085454E+01  0.0000000000000E+00
 0.1527298562383E+00 -0.1076422199130E+01  0.0000000000000E+00
 0.1533785272754E+00 -0.1010784312807E+01  0.0000000000000E+00
 0.1539895538216E+00 -0.9451411515694E+00  0.0000000000000E+00
 0.1545360614118E+00 -0.8794898400693E+00  0.0000000000000E+00
 0.1550054649810E+00 -0.8138300384639E+00  0.0000000000000E+00
 0.1553963939063E+00 -0.7481632886949E+00  0.0000000000000E+00
 0.1557137972944E+00 -0.6824913115305E+00  0.0000000000000E+00
 0.1559651820386E+00 -0.6168159133754E+00  0.0000000000000E+00
 0.1561584884995E+00 -0.5511383443096E+00  0.0000000000000E+00
 0.1563011151911E+00 -0.4854595991195E+00  0.0000000000000E+00
 0.1789822802759E+00 -0.1668118331470E+01  0.0000000000000E+00
 0.1791505485831E+00 -0.1602523363477E+01  0.0000000000000E+00
 0.1793796326223E+00 -0.1536929571581E+01  0.0000000000000E+00
 0.1796784106189E+00 -0.1471337950540E+01  0.0000000000000E+00
 0.1800564110131E+00 -0.1405749750540E+01  0.0000000000000E+00
 0.1805226420978E+00 -0.1340166777849E+01  0.0000000000000E+00
 0.1810830428174E+00 -0.1274590753418E+01  0.0000000000000E+00
 0.1817359684599E+00 -0.1209023219015E+01  0.0000000000000E+00
 0.1824663169740E+00 -0.1143463834961E+01  0.0000000000000E+00
 0.1832418390321E+00 -0.1077909725833E+01  0.0000000000000E+00
 0.1840173611658E+00 -0.1012355616707E+01  0.0000000000000E+00
 0.1847477098969E+00 -0.9467962326544E+00  0.0000000000000E+00
 0.1854006358730E+00 -0.8812286982545E+00  0.0000000000000E+00
 0.1859610370131E+00 -0.8156526738272E+00  0.0000000000000E+00
 0.1864272685787E+00 -0.7500697011386E+00  0.0000000000000E+00
 0.1868052694934E+00 -0.6844815011410E+00  0.0000000000000E+00
 0.1871040480356E+00 -0.6188898801021E+00  0.0000000000000E+00
 0.1873331326348E+00 -0.5532960882075E+00  0.0000000000000E+00
 0.1875014015097E+00 -0.4877011202147E+00  0.0000000000000E+00
 0.2088016021235E+00 -0.1668984942169E+01  0.0000000000000E+00
 0.2089939515364E+00 -0.1603488788624E+01  0.0000000000000E+00
 0.2092572526392E+00 -0.1537993811146E+01  0.0000000000000E+00
 0.2096018633630E+00 -0.1472501004457E+01  0.0000000000000E+00
 0.2100389002153E+00 -0.1407011618869E+01  0.0000000000000E+00
 0.2105788728772E+00 -0.1341527460488E+01  0.0000000000000E+00
 0.2112287101067E+00 -0.1276050250483E+01  0.0000000000000E+00
 0.2119864930791E+00 -0.1210581530413E+01  0.0000000000000E+00
 0.2128346027241E+00 -0.1145120960792E+01  0.0000000000000E+00
 0.2137354148261E+00 -0.1079665666113E+01  0.0000000000000E+00
 0.2146362270037E+00 -0.1014210371434E+01  0.0000000000000E+00
 0.2154843368657E+00 -0.9487498018155E+00  0.0000000000000E+00
 0.2162421201716E+00 -0.8832810817495E+00  0.0000000000000E+00
 0.2168919578216E+00 -0.8178038717479E+00  0.0000000000000E+00
 0.2174319309644E+00 -0.7523197133698E+00  0.0000000000000E+00
 0.2178689683374E+00 -0.6868303277847E+00  0.0000000000000E+00
 0.2182135796066E+00 -0.6213375210985E+00  0.0000000000000E+00
 0.2184768812695E+00 -0.5558425436214E+00  0.0000000000000E+00
 0.2186692312501E+00 -0.4903463900771E+00  0.0000000000000E+00
 0.2386158335404E+00 -0.1669984486568E+01  0.0000000000000E+00
 0.2388304532896E+00 -0.1604602088601E+01  0.0000000000000E+00
 0.2391261606856E+00 -0.1539220866665E+01  0.0000000000000E+00
 0.2395147933649E+00 -0.1473841815444E+01  0.0000000000000E+00
 0.2400090559004E+00 -0.1408466185393E+01  0.0000000000000E+00
 0.2406209593635E+00 -0.1343095782431E+01  0.0000000000000E+00
 0.2413584223218E+00 -0.1277732327977E+01  0.0000000000000E+00
 0.2422192518420E+00 -0.1212377363354E+01  0.0000000000000E+00
 0.2431833118313E+00 -0.1147030549294E+01  0.0000000000000E+00
 0.2442076031893E+00 -0.1081689010192E+01  0.0000000000000E+00
 0.2452318946228E+00 -0.1016347471091E+01  0.0000000000000E+00
 0.2461959548292E+00 -0.9510006570345E+00  0.0000000000000E+00
 0.2470567846829E+00 -0.8856456924151E+00  0.0000000000000E+00
 0.2477942480618E+00 -0.8202822379657E+00  0.0000000000000E+00
 0.2484061520058E+00 -0.7549118350073E+00  0.0000000000000E+00
 0.2489004150619E+00 -0.6895362049592E+00  0.0000000000000E+00
 0.2492890482866E+00 -0.6241571537411E+00  0.0000000000000E+00
 0.2495847562426E+00 -0.5587759318069E+00  0.0000000000000E+00
 0.2497993765596E+00 -0.4933935338409E+00  0.0000000000000E+00
 0.2684242694147E+00 -0.1671116799478E+01  0.0000000000000E+00
 0.2686591031430E+00 -0.1605862988404E+01  0.0000000000000E+00
 0.2689851604755E+00 -0.1540610353321E+01  0.0000000000000E+00
 0.2694157587553E+00 -0.1475359888869E+01  0.0000000000000E+00
 0.2699651906179E+00 -0.1410112845663E+01  0.0000000000000E+00
 0.2706469685284E+00 -0.1344871029414E+01  0.0000000000000E+00
 0.2714700008599E+00 -0.1279636161824E+01  0.0000000000000E+00
 0.2724318205741E+00 -0.1214409783944E+01  0.0000000000000E+00
 0.2735097745524E+00 -0.1149191556758E+01  0.0000000000000E+00
 0.2746554888105E+00 -0.1083978604548E+01  0.0000000000000E+00
 0.2758012031444E+00 -0.1018765652339E+01  0.0000000000000E+00
 0.2768791573396E+00 -0.9535474251570E+00  0.0000000000000E+00
 0.2778409773874E+00 -0.8883210472817E+00  0.0000000000000E+00
 0.2786640101394E+00 -0.8230861796958E+00  0.0000000000000E+00
 0.2793457885309E+00 -0.7578443634509E+00  0.0000000000000E+00
 0.2798952209140E+00 -0.6925973202491E+00  0.0000000000000E+00
 0.2803258197392E+00 -0.6273468557994E+00  0.0000000000000E+00
 0.2806518776318E+00 -0.5620942207181E+00  0.0000000000000E+00
 0.2808867119278E+00 -0.4968404096451E+00  0.0000000000000E+00
 0.2982262162405E+00 -0.1672381695408E+01  0.0000000000000E+00
 0.2984789668060E+00 -0.1607271179427E+01  0.0000000000000E+00
 0.2988330769373E+00 -0.1542161839391E+01  0.0000000000000E+00
 0.2993033436852E+00 -0.1477054669892E+01  0.0000000000000E+00
 0.2999056477456E+00 -0.1411950921727E+01  0.0000000000000E+00
 0.3006550029816E+00 -0.1346852400370E+01  0.0000000000000E+00
 0.3015613075666E+00 -0.1281760827839E+01  0.0000000000000E+00
 0.3026218203629E+00 -0.1216677744886E+01  0.0000000000000E+00
 0.3038113712198E+00 -0.1151602812772E+01  0.0000000000000E+00
 0.3050762112702E+00 -0.1086533155653E+01  0.0000000000000E+00
 0.3063410513962E+00 -0.1021463498536E+01  0.0000000000000E+00
 0.3075306024701E+00 -0.9563885664261E+00  0.0000000000000E+00
 0.3085911155999E+00 -0.8913054834775E+00  0.0000000000000E+00
 0.3094974206055E+00 -0.8262139109515E+00  0.0000000000000E+00
 0.3102467763224E+00 -0.7611153895993E+00  0.0000000000000E+00
 0.3108490809033E+00 -0.6960116414382E+00  0.0000000000000E+00
 0.3113193481967E+00 -0.6309044719423E+00  0.0000000000000E+00
 0.3116734588881E+00 -0.5657951319091E+00  0.0000000000000E+00
 0.3119262100213E+00 -0.5006846159287E+00  0.0000000000000E+00
 0.3280209425970E+00 -0.1673778966920E+01  0.0000000000000E+00
 0.3282890794610E+00 -0.1608826318313E+01  0.0000000000000E+00
 0.3286687118504E+00 -0.1543874845604E+01  0.0000000000000E+00
 0.3291761165241E+00 -0.1478925543327E+01  0.0000000000000E+00
 0.3298287622345E+00 -0.1413979662479E+01  0.0000000000000E+00
 0.3306431642467E+00 -0.1349039008277E+01  0.0000000000000E+00
 0.3316302105286E+00 -0.1284105303084E+01  0.0000000000000E+00
 0.3327868858481E+00 -0.1219180087322E+01  0.0000000000000E+00
 0.3340855030187E+00 -0.1154263022560E+01  0.0000000000000E+00
 0.3354669382939E+00 -0.1089351232816E+01  0.0000000000000E+00
 0.3368483736447E+00 -0.1024439443074E+01  0.0000000000000E+00
 0.3381469910323E+00 -0.9595223783156E+00  0.0000000000000E+00
 0.3393036666853E+00 -0.8945971625594E+00  0.0000000000000E+00
 0.3402907133878E+00 -0.8296634573724E+00  0.0000000000000E+00
 0.3411051158809E+00 -0.7647228031751E+00  0.0000000000000E+00
 0.3417577621119E+00 -0.6997769223317E+00  0.0000000000000E+00
 0.3422651673310E+00 -0.6348276200581E+00  0.0000000000000E+00
 0.3426448002805E+00 -0.5698761473508E+00  0.0000000000000E+00
 0.3429129377122E+00 -0.5049234987456E+00  0.0000000000000E+00
 0.3578077951490E+00 -0.1675308389770E+01  0.0000000000000E+00
 0.3580885561653E+00 -0.1610528032351E+01  0.0000000000000E+00
 0.3584909486692E+00 -0.1545748850774E+01  0.0000000000000E+00
 0.3590327291289E+00 -0.1480971839517E+01  0.0000000000000E+00
 0.3597329543503E+00 -0.1416198249793E+01  0.0000000000000E+00
 0.3606096410050E+00 -0.1351429886536E+01  0.0000000000000E+00
 0.3616746668497E+00 -0.1286668472490E+01  0.0000000000000E+00
 0.3629247425635E+00 -0.1221915547716E+01  0.0000000000000E+00
 0.3643296639184E+00 -0.1157170774115E+01  0.0000000000000E+00
 0.3658249322898E+00 -0.1092431275557E+01  0.0000000000000E+00
 0.3673202007369E+00 -0.1027691777001E+01  0.0000000000000E+00
 0.3687251223088E+00 -0.9629470034044E+00  0.0000000000000E+00
 0.3699751983561E+00 -0.8981940786356E+00  0.0000000000000E+00
 0.3710402246213E+00 -0.8334326645960E+00  0.0000000000000E+00
 0.3719169117570E+00 -0.7686643013451E+00  0.0000000000000E+00
 0.3726171374990E+00 -0.7038907116260E+00  0.0000000000000E+00
 0.3731589185041E+00 -0.6391137003723E+00  0.0000000000000E+00
 0.3735613115680E+00 -0.5743345187982E+00  0.0000000000000E+00
 0.3738420731521E+00 -0.5095541613797E+00  0.0000000000000E+00
 0.3875860607136E+00 -0.1676969718067E+01  0.0000000000000E+00
 0.3878764645286E+00 -0.1612375915917E+01  0.0000000000000E+00
 0.3882986357959E+00 -0.1547783289551E+01  0.0000000000000E+00
 0.3888718106944E+00 -0.1483192833383E+01  0.0000000000000E+00
 0.3896166340798E+00 -0.1418605798860E+01  0.0000000000000E+00
 0.3905526240356E+00 -0.1354023990612E+01  0.0000000000000E+00
 0.3916926481006E+00 -0.1289449131793E+01  0.0000000000000E+00
 0.3930331428715E+00 -0.1224882762071E+01  0.0000000000000E+00
 0.3945413870725E+00 -0.1160324543713E+01  0.0000000000000E+00
 0.3961475072028E+00 -0.1095771600424E+01  0.0000000000000E+00
 0.3977536274088E+00 -0.1031218657136E+01  0.0000000000000E+00
 0.3992618718269E+00 -0.9666604387825E+00  0.0000000000000E+00
 0.4006023669313E+00 -0.9020940690673E+00  0.0000000000000E+00
 0.4017423914168E+00 -0.8375192102545E+00  0.0000000000000E+00
 0.4026783818535E+00 -0.7729374020130E+00  0.0000000000000E+00
 0.4034232057596E+00 -0.7083503674957E+00  0.0000000000000E+00
 0.4039963812035E+00 -0.6437599113309E+00  0.0000000000000E+00
 0.4044185530308E+00 -0.5791672849682E+00  0.0000000000000E+00
 0.4047089574136E+00 -0.5145734828194E+00  0.0000000000000E+00
 0.4173550733497E+00 -0.1678762688782E+01  0.0000000000000E+00
 0.4176519204570E+00 -0.1614369534370E+01  0.0000000000000E+00
 0.4180906709789E+00 -0.1549977555680E+01  0.0000000000000E+00
 0.4186920408057E+00 -0.1485587747055E+01  0.0000000000000E+00
 0.4194782628384E+00 -0.1421201360198E+01  0.0000000000000E+00
 0.4204703565771E+00 -0.1356820199408E+01  0.0000000000000E+00
 0.4216821793354E+00 -0.1292445988280E+01  0.0000000000000E+00
 0.4231098936343E+00 -0.1228080266064E+01  0.0000000000000E+00
 0.4247182611449E+00 -0.1163722695415E+01  0.0000000000000E+00
 0.4264320334947E+00 -0.1099370399863E+01  0.0000000000000E+00
 0.4281458059202E+00 -0.1035018104312E+01  0.0000000000000E+00
 0.4297541736479E+00 -0.9706605336683E+00  0.0000000000000E+00
 0.4311818882803E+00 -0.9062948114591E+00  0.0000000000000E+00
 0.4323937114591E+00 -0.8419206003386E+00  0.0000000000000E+00
 0.4333858056787E+00 -0.7775394395554E+00  0.0000000000000E+00
 0.4341720282321E+00 -0.7131530527035E+00  0.0000000000000E+00
 0.4347733986043E+00 -0.6487632440825E+00  0.0000000000000E+00
 0.4352121496862E+00 -0.5843712653956E+00  0.0000000000000E+00
 0.4355089973612E+00 -0.5199781109850E+00  0.0000000000000E+00
 0.4471141841628E+00 -0.1680687022310E+01  0.0000000000000E+00
 0.4474140681449E+00 -0.1616508426641E+01  0.0000000000000E+00
 0.4478659915118E+00 -0.1552331006628E+01  0.0000000000000E+00
 0.4484921498675E+00 -0.1488155756537E+01  0.0000000000000E+00
 0.4493163641549E+00 -0.1423983928345E+01  0.0000000000000E+00
 0.4503611552972E+00 -0.1359817325998E+01  0.0000000000000E+00
 0.4516413703761E+00 -0.1295657673564E+01  0.0000000000000E+00
 0.4531528978439E+00 -0.1231506509842E+01  0.0000000000000E+00
 0.4548579823102E+00 -0.1167363497905E+01  0.0000000000000E+00
 0.4566760005302E+00 -0.1103225761095E+01  0.0000000000000E+00
 0.4584940188258E+00 -0.1039088024287E+01  0.0000000000000E+00
 0.4601991035092E+00 -0.9749450123550E+00  0.0000000000000E+00
 0.4617106313106E+00 -0.9107938486407E+00  0.0000000000000E+00
 0.4629908468100E+00 -0.8466341962143E+00  0.0000000000000E+00
 0.4640356384332E+00 -0.7824675938748E+00  0.0000000000000E+00
 0.4648598532412E+00 -0.7182957656882E+00  0.0000000000000E+00
 0.4654860121423E+00 -0.6541205156026E+00  0.0000000000000E+00
 0.4659379360693E+00 -0.5899430955919E+00  0.0000000000000E+00
 0.4662378206191E+00 -0.5257644999245E+00  0.0000000000000E+00
 0.4768626808375E+00 -0.1682742416794E+01  0.0000000000000E+00
 0.4771619935814E+00 -0.1618792098491E+01  0.0000000000000E+00
 0.4776234816665E+00 -0.1554842955773E+01  0.0000000000000E+00
 0.4782708204089E+00 -0.1490895982827E+01  0.0000000000000E+00
 0.4791294187871E+00 -0.1426952431917E+01  0.0000000000000E+00
 0.4802232991507E+00 -0.1363014106618E+01  0.0000000000000E+00
 0.4815682983403E+00 -0.1299082731497E+01  0.0000000000000E+00
 0.4831600307474E+00 -0.1235159844877E+01  0.0000000000000E+00
 0.4849582239168E+00 -0.1171245110272E+01  0.0000000000000E+00
 0.4868768797426E+00 -0.1107335650828E+01  0.0000000000000E+00
 0.4887955356439E+00 -0.1043426191385E+01  0.0000000000000E+00
 0.4905937290304E+00 -0.9795114567866E+00  0.0000000000000E+00
 0.4921854617710E+00 -0.9155885701742E+00  0.0000000000000E+00
 0.4935304613811E+00 -0.8516571950617E+00  0.0000000000000E+00
 0.4946243422257E+00 -0.7877188697700E+00  0.0000000000000E+00
 0.4954829411245E+00 -0.7237753188667E+00  0.0000000000000E+00
 0.4961302804124E+00 -0.6598283459261E+00  0.0000000000000E+00
 0.4965917690575E+00 -0.5958792032105E+00  0.0000000000000E+00
 0.4968910823691E+00 -0.5319288849093E+00  0.0000000000000E+00
 0.5065999773523E+00 -0.1684928562411E+01  0.0000000000000E+00
 0.5068949207371E+00 -0.1621220040089E+01  0.0000000000000E+00
 0.5073621754349E+00 -0.1557512693277E+01  0.0000000000000E+00
 0.5080268964777E+00 -0.1493807516079E+01  0.0000000000000E+00
 0.5089160808768E+00 -0.1430105761064E+01  0.0000000000000E+00
 0.5100552524167E+00 -0.1366409231408E+01  0.0000000000000E+00
 0.5114612376898E+00 -0.1302719652214E+01  0.0000000000000E+00
 0.5131293770345E+00 -0.1239038561295E+01  0.0000000000000E+00
 0.5150168809198E+00 -0.1175365622638E+01  0.0000000000000E+00
 0.5170323763743E+00 -0.1111697959174E+01  0.0000000000000E+00
 0.5190478719044E+00 -0.1048030295713E+01  0.0000000000000E+00
 0.5209353760067E+00 -0.9843573570614E+00  0.0000000000000E+00
 0.5226035156849E+00 -0.9206762661513E+00  0.0000000000000E+00
 0.5240095013785E+00 -0.8569866869656E+00  0.0000000000000E+00
 0.5251486733994E+00 -0.7932901573186E+00  0.0000000000000E+00
 0.5260378583190E+00 -0.7295884023095E+00  0.0000000000000E+00
 0.5267025799074E+00 -0.6658832251168E+00  0.0000000000000E+00
 0.5271698351652E+00 -0.6021758783080E+00  0.0000000000000E+00
 0.5274647791177E+00 -0.5384673559889E+00  0.0000000000000E+00
 0.5363253937430E+00 -0.1687245126228E+01  0.0000000000000E+00
 0.5366119860150E+00 -0.1623791708789E+01  0.0000000000000E+00
 0.5370810255763E+00 -0.1560339466780E+01  0.0000000000000E+00
 0.5377591471768E+00 -0.1496889394217E+01  0.0000000000000E+00
 0.5386749358556E+00 -0.1433442743990E+01  0.0000000000000E+00
 0.5398554168395E+00 -0.1370001318861E+01  0.0000000000000E+00
 0.5413184064642E+00 -0.1306566844490E+01  0.0000000000000E+00
 0.5430589710231E+00 -0.1243140858158E+01  0.0000000000000E+00
 0.5450318039010E+00 -0.1179723024346E+01  0.0000000000000E+00
 0.5471401572628E+00 -0.1116310465763E+01  0.0000000000000E+00
 0.5492485107003E+00 -0.1052897907183E+01  0.0000000000000E+00
 0.5512213437952E+00 -0.9894800733776E+00  0.0000000000000E+00
 0.5529619086877E+00 -0.9260540870546E+00  0.0000000000000E+00
 0.5544248987329E+00 -0.8626196126929E+00  0.0000000000000E+00
 0.5556053801978E+00 -0.7991781875723E+00  0.0000000000000E+00
 0.5565211693972E+00 -0.7357315373529E+00  0.0000000000000E+00
 0.5571992915431E+00 -0.6722814647954E+00  0.0000000000000E+00
 0.5576683316644E+00 -0.6088292227895E+00  0.0000000000000E+00
 0.5579549245041E+00 -0.5453758053527E+00  0.0000000000000E+00
 0.5660383036526E+00 -0.1689691762168E+01  0.0000000000000E+00
 0.5663123811983E+00 -0.1626506539575E+01  0.0000000000000E+00
 0.5667790419974E+00 -0.1563322492327E+01  0.0000000000000E+00
 0.5674664005168E+00 -0.1500140614350E+01  0.0000000000000E+00
 0.5684046298164E+00 -0.1436962158871E+01  0.0000000000000E+00
 0.5696222565698E+00 -0.1373788928213E+01  0.0000000000000E+00
 0.5711380868456E+00 -0.1310622648626E+01  0.0000000000000E+00
 0.5729469129013E+00 -0.1247464856829E+01  0.0000000000000E+00
 0.5750009110328E+00 -0.1184315217823E+01  0.0000000000000E+00
 0.5771979585521E+00 -0.1121170854085E+01  0.0000000000000E+00
 0.5793950061471E+00 -0.1058026490350E+01  0.0000000000000E+00
 0.5814490044956E+00 -0.9948768513511E+00  0.0000000000000E+00
 0.5832578308849E+00 -0.9317190595634E+00  0.0000000000000E+00
 0.5847736615812E+00 -0.8685527799859E+00  0.0000000000000E+00
 0.5859912888156E+00 -0.8053795493368E+00  0.0000000000000E+00
 0.5869295186357E+00 -0.7422010938657E+00  0.0000000000000E+00
 0.5876168777006E+00 -0.6790192158940E+00  0.0000000000000E+00
 0.5880835390597E+00 -0.6158351686501E+00  0.0000000000000E+00
 0.5883576171732E+00 -0.5526499460589E+00  0.0000000000000E+00
-0.1182610616184E+01 -0.1709938151910E+01  0.0000000000000E+00
-0.1206840600949E+01 -0.1599271303952E+01  0.0000000000000E+00
-0.1234987980858E+01 -0.1489562273115E+01  0.0000000000000E+00
-0.1268147886288E+01 -0.1381306365269E+01  0.0000000000000E+00
-0.1307801009883E+01 -0.1275324724782E+01  0.0000000000000E+00
-0.1353020462603E+01 -0.1171637126831E+01  0.0000000000000E+00
-0.1397268459649E+01 -0.1067515066351E+01  0.0000000000000E+00
-0.1437122473078E+01 -0.9615813592161E+00  0.0000000000000E+00
-0.1472550192246E+01 -0.8540374650362E+00  0.0000000000000E+00
-0.1503921191345E+01 -0.7452053677059E+00  0.0000000000000E+00
-0.1531272791497E+01 -0.6352674555980E+00  0.0000000000000E+00
-0.1554282707568E+01 -0.5243175831196E+00  0.0000000000000E+00
-0.1572939532414E+01 -0.4125357734460E+00  0.0000000000000E+00
-0.1586992041029E+01 -0.3000702231276E+00  0.0000000000000E+00
-0.1595657715404E+01 -0.1870553481994E+00  0.0000000000000E+00
-0.1598364296081E+01 -0.7373369945448E-01  0.0000000000000E+00
-0.1596500729268E+01  0.3959193470411E-01  0.0000000000000E+00
-0.1576465557885E+01  0.1508144777421E+00  0.0000000000000E+00
-0.1525097607493E+01  0.2508838507572E+00  0.0000000000000E+00
-0.1151849224518E+01 -0.1708018429854E+01  0.0000000000000E+00
-0.1174810817950E+01 -0.1599917521458E+01  0.0000000000000E+00
-0.1201494297363E+01 -0.1492724079797E+01  0.0000000000000E+00
-0.1232938712419E+01 -0.1386907393241E+01  0.0000000000000E+00
-0.1270548496269E+01 -0.1283245453469E+01  0.0000000000000E+00
-0.1313447122937E+01 -0.1181757097507E+01  0.0000000000000E+00
-0.1355441944237E+01 -0.1079857510625E+01  0.0000000000000E+00
-0.1393290276807E+01 -0.9762420726324E+00  0.0000000000000E+00
-0.1426958860821E+01 -0.8711016241228E+00  0.0000000000000E+00
-0.1456792161492E+01 -0.7647410505408E+00  0.0000000000000E+00
-0.1482817610549E+01 -0.6573328628486E+00  0.0000000000000E+00
-0.1504721960076E+01 -0.5489656979899E+00  0.0000000000000E+00
-0.1522488745507E+01 -0.4398099530286E+00  0.0000000000000E+00
-0.1535877314757E+01 -0.3300060065687E+00  0.0000000000000E+00
-0.1544146046571E+01 -0.2196812801132E+00  0.0000000000000E+00
-0.1546753842042E+01 -0.1090656515018E+00  0.0000000000000E+00
-0.1545018125930E+01  0.1553936656996E-02  0.0000000000000E+00
-0.1526054989336E+01  0.1101813215066E+00  0.0000000000000E+00
-0.1477397507004E+01  0.2082426775406E+00  0.0000000000000E+00
-0.1121071481666E+01 -0.1706207396943E+01  0.0000000000000E+00
-0.1142765544784E+01 -0.1600666705050E+01  0.0000000000000E+00
-0.1167985984722E+01 -0.1495983129601E+01  0.0000000000000E+00
-0.1197715770410E+01 -0.1392599941581E+01  0.0000000000000E+00
-0.1233283075506E+01 -0.1291251980047E+01  0.0000000000000E+00
-0.1273861737223E+01 -0.1191957143015E+01  0.0000000000000E+00
-0.1313604243862E+01 -0.1092274306747E+01  0.0000000000000E+00
-0.1349447756621E+01 -0.9909714150146E+00  0.0000000000000E+00
-0.1381358066526E+01 -0.8882286892072E+00  0.0000000000000E+00
-0.1409654529800E+01 -0.7843339163719E+00  0.0000000000000E+00
-0.1434354688775E+01 -0.6794497301018E+00  0.0000000000000E+00
-0.1455154332752E+01 -0.5736595498896E+00  0.0000000000000E+00
-0.1472031939748E+01 -0.4671241466607E+00  0.0000000000000E+00
-0.1484757430585E+01 -0.3599760811308E+00  0.0000000000000E+00
-0.1492630080751E+01 -0.2523357803654E+00  0.0000000000000E+00
-0.1495139951914E+01 -0.1444204490327E+00  0.0000000000000E+00
-0.1493532947327E+01 -0.3650118443096E-01  0.0000000000000E+00
-0.1475642704875E+01  0.6953675537040E-01  0.0000000000000E+00
-0.1429696548673E+01  0.1655957997913E+00  0.0000000000000E+00
-0.1090277778680E+01 -0.1704505302474E+01  0.0000000000000E+00
-0.1110705151904E+01 -0.1601519090901E+01  0.0000000000000E+00
-0.1134463392784E+01 -0.1499339645572E+01  0.0000000000000E+00
-0.1162479389508E+01 -0.1398384220211E+01  0.0000000000000E+00
-0.1196005056235E+01 -0.1299344501311E+01  0.0000000000000E+00
-0.1234264593488E+01 -0.1202237447020E+01  0.0000000000000E+00
-0.1271755625938E+01 -0.1104765625254E+01  0.0000000000000E+00
-0.1305595159327E+01 -0.1005769543773E+01  0.0000000000000E+00
-0.1335748035559E+01 -0.9054188045732E+00  0.0000000000000E+00
-0.1362508501866E+01 -0.8039840963573E+00  0.0000000000000E+00
-0.1385884211173E+01 -0.7016181753908E+00  0.0000000000000E+00
-0.1405579989997E+01 -0.5983992437282E+00  0.0000000000000E+00
-0.1421569258942E+01 -0.4944784461285E+00  0.0000000000000E+00
-0.1433632511731E+01 -0.3899805254777E+00  0.0000000000000E+00
-0.1441109920573E+01 -0.2850189144976E+00  0.0000000000000E+00
-0.1443522707747E+01 -0.1797981444669E+00  0.0000000000000E+00
-0.1442045254927E+01 -0.7457346785855E-01  0.0000000000000E+00
-0.1425228745440E+01  0.2888075313570E-01  0.0000000000000E+00
-0.1381994752957E+01  0.1229432044031E+00  0.0000000000000E+00
-0.1059468488513E+01 -0.1702912387231E+01  0.0000000000000E+00
-0.1078629992469E+01 -0.1602474907163E+01  0.0000000000000E+00
-0.1100926854868E+01 -0.1502793843219E+01  0.0000000000000E+00
-0.1127229883123E+01 -0.1404260431974E+01  0.0000000000000E+00
-0.1158714731872E+01 -0.1307523207410E+01  0.0000000000000E+00
-0.1194655965084E+01 -0.1212598186943E+01  0.0000000000000E+00
-0.1229896343770E+01 -0.1117331630845E+01  0.0000000000000E+00
-0.1261732718247E+01 -0.1020636610909E+01  0.0000000000000E+00
-0.1290128981326E+01 -0.9226721095494E+00  0.0000000000000E+00
-0.1315354271230E+01 -0.8236917171689E+00  0.0000000000000E+00
-0.1337406351476E+01 -0.7238383127460E+00  0.0000000000000E+00
-0.1355999085795E+01 -0.6231848809079E+00  0.0000000000000E+00
-0.1371100837377E+01 -0.5218729402175E+00  0.0000000000000E+00
-0.1382502672845E+01 -0.4200194157871E+00  0.0000000000000E+00
-0.1389585661121E+01 -0.3177307460877E+00  0.0000000000000E+00
-0.1391902185134E+01 -0.2151987887865E+00  0.0000000000000E+00
-0.1390555104895E+01 -0.1126629520127E+00  0.0000000000000E+00
-0.1374813148038E+01 -0.1178671098245E-01  0.0000000000000E+00
-0.1334292138156E+01  0.8028487832643E-01  0.0000000000000E+00
-0.1028644031902E+01 -0.1701428892511E+01  0.0000000000000E+00
-0.1046540465220E+01 -0.1603534382381E+01  0.0000000000000E+00
-0.1067376747767E+01 -0.1506345938346E+01  0.0000000000000E+00
-0.1091967606169E+01 -0.1410228779957E+01  0.0000000000000E+00
-0.1121412435542E+01 -0.1315788288743E+01  0.0000000000000E+00
-0.1155036163413E+01 -0.1223039540529E+01  0.0000000000000E+00
-0.1188026687019E+01 -0.1129972488601E+01  0.0000000000000E+00
-0.1217860701239E+01 -0.1035572768820E+01  0.0000000000000E+00
-0.1244501149814E+01 -0.9399887438216E+00  0.0000000000000E+00
-0.1268192061956E+01 -0.8434569057652E+00  0.0000000000000E+00
-0.1288921311765E+01 -0.7461102563833E+00  0.0000000000000E+00
-0.1306411800184E+01 -0.6480165628883E+00  0.0000000000000E+00
-0.1320626833000E+01 -0.5493077176197E+00  0.0000000000000E+00
-0.1331368049718E+01 -0.4500928279743E+00  0.0000000000000E+00
-0.1338057415963E+01 -0.3504713382674E+00  0.0000000000000E+00
-0.1340278475341E+01 -0.2506224323349E+00  0.0000000000000E+00
-0.1339062566136E+01 -0.1507696744498E+00  0.0000000000000E+00
-0.1324395959008E+01 -0.5246566180157E-01  0.0000000000000E+00
-0.1286588727643E+01  0.3762080931293E-01  0.0000000000000E+00
-0.9978048091164E+00 -0.1700055050454E+01  0.0000000000000E+00
-0.1014436949344E+01 -0.1604697736472E+01  0.0000000000000E+00
-0.1033813429585E+01 -0.1509996138651E+01  0.0000000000000E+00
-0.1056692895666E+01 -0.1416289459633E+01  0.0000000000000E+00
-0.1084098483174E+01 -0.1324139928563E+01  0.0000000000000E+00
-0.1115405483312E+01 -0.1233561678802E+01  0.0000000000000E+00
-0.1146146929431E+01 -0.1142688357325E+01  0.0000000000000E+00
-0.1173979360959E+01 -0.1050578164083E+01  0.0000000000000E+00
-0.1198864772593E+01 -0.9573688417442E+00  0.0000000000000E+00
-0.1221022084529E+01 -0.8632797842780E+00  0.0000000000000E+00
-0.1240429281443E+01 -0.7684341162128E+00  0.0000000000000E+00
-0.1256818301491E+01 -0.6728943873585E+00  0.0000000000000E+00
-0.1270147393055E+01 -0.5767828638030E+00  0.0000000000000E+00
-0.1280228768520E+01 -0.4802008352871E+00  0.0000000000000E+00
-0.1286525290197E+01 -0.3832407520642E+00  0.0000000000000E+00
-0.1288651662395E+01 -0.2860691239199E+00  0.0000000000000E+00
-0.1287567701612E+01 -0.1888936717586E+00  0.0000000000000E+00
-0.1273977220288E+01 -0.9315612371048E-01  0.0000000000000E+00
-0.1238884542376E+01 -0.5049014836915E-02  0.0000000000000E+00
-0.9669512233292E+00 -0.1698791087330E+01  0.0000000000000E+00
-0.9823198267800E+00 -0.1605965183794E+01  0.0000000000000E+00
-0.1000237261024E+01 -0.1513744646577E+01  0.0000000000000E+00
-0.1021406091078E+01 -0.1422442661535E+01  0.0000000000000E+00
-0.1046773192995E+01 -0.1332578305487E+01  0.0000000000000E+00
-0.1075764221763E+01 -0.1244164768467E+01  0.0000000000000E+00
-0.1104257346747E+01 -0.1155479391803E+01  0.0000000000000E+00
-0.1130088951907E+01 -0.1065652939568E+01  0.0000000000000E+00
-0.1153220082925E+01 -0.9748125342746E+00  0.0000000000000E+00
-0.1173844550973E+01 -0.8831604717515E+00  0.0000000000000E+00
-0.1191930451300E+01 -0.7908099993657E+00  0.0000000000000E+00
-0.1207218759270E+01 -0.6978184495369E+00  0.0000000000000E+00
-0.1219662665868E+01 -0.6042984620743E+00  0.0000000000000E+00
-0.1229084956349E+01 -0.5103435091204E+00  0.0000000000000E+00
-0.1234989389694E+01 -0.4160390469624E+00  0.0000000000000E+00
-0.1237021830944E+01 -0.3215389111147E+00  0.0000000000000E+00
-0.1236070574753E+01 -0.2270349796020E+00  0.0000000000000E+00
-0.1223556974129E+01 -0.1338581204802E+00  0.0000000000000E+00
-0.1191179603475E+01 -0.4772460601326E-01  0.0000000000000E+00
-0.9360836724979E+00 -0.1697637222502E+01  0.0000000000000E+00
-0.9501894744693E+00 -0.1607336932178E+01  0.0000000000000E+00
-0.9666485979921E+00 -0.1517591658418E+01  0.0000000000000E+00
-0.9861075272542E+00 -0.1428688570411E+01  0.0000000000000E+00
-0.1009436878761E+01 -0.1341103592706E+01  0.0000000000000E+00
-0.1036112671401E+01 -0.1254848971143E+01  0.0000000000000E+00
-0.1062358210486E+01 -0.1168345742088E+01  0.0000000000000E+00
-0.1086189724515E+01 -0.1080797233774E+01  0.0000000000000E+00
-0.1107567310176E+01 -0.9923199483614E+00  0.0000000000000E+00
-0.1126659669612E+01 -0.9030990835921E+00  0.0000000000000E+00
-0.1143425008638E+01 -0.8132380097123E+00  0.0000000000000E+00
-0.1157613339827E+01 -0.7227888417635E+00  0.0000000000000E+00
-0.1169172796767E+01 -0.6318545932468E+00  0.0000000000000E+00
-0.1177936737578E+01 -0.5405209187650E+00  0.0000000000000E+00
-0.1183449817901E+01 -0.4488662807332E+00  0.0000000000000E+00
-0.1185389063541E+01 -0.3570318401726E+00  0.0000000000000E+00
-0.1184571247236E+01 -0.2651936327164E+00  0.0000000000000E+00
-0.1173135261469E+01 -0.1745716753379E+00  0.0000000000000E+00
-0.1143473931327E+01 -0.9040597589074E-01  0.0000000000000E+00
-0.9052025656608E+00 -0.1696593670407E+01  0.0000000000000E+00
-0.9180462799102E+00 -0.1608813184770E+01  0.0000000000000E+00
-0.9330478064465E+00 -0.1521537366029E+01  0.0000000000000E+00
-0.9507975486092E+00 -0.1435027366826E+01  0.0000000000000E+00
-0.9720898633460E+00 -0.1349715959497E+01  0.0000000000000E+00
-0.9964511335561E+00 -0.1265614444814E+01  0.0000000000000E+00
-0.1020449800433E+01 -0.1181287554874E+01  0.0000000000000E+00
-0.1042281937024E+01 -0.1096011182100E+01  0.0000000000000E+00
-0.1061906691047E+01 -0.1009891208114E+01  0.0000000000000E+00
-0.1079467655605E+01 -0.9230957326186E+00  0.0000000000000E+00
-0.1094913147077E+01 -0.8357182487808E+00  0.0000000000000E+00
-0.1108002215241E+01 -0.7478056542760E+00  0.0000000000000E+00
-0.1118677936293E+01 -0.6594513362685E+00  0.0000000000000E+00
-0.1126784241210E+01 -0.5707331318790E+00  0.0000000000000E+00
-0.1131906682287E+01 -0.4817225097452E+00  0.0000000000000E+00
-0.1133753446117E+01 -0.3925479561725E+00  0.0000000000000E+00
-0.1133069783463E+01 -0.3033696648919E+00  0.0000000000000E+00
-0.1122712125213E+01 -0.2152968108032E+00  0.0000000000000E+00
-0.1095767547380E+01 -0.1330931357309E+00  0.0000000000000E+00
-0.8743083235843E+00 -0.1695660640404E+01  0.0000000000000E+00
-0.8858906417741E+00 -0.1610394139888E+01  0.0000000000000E+00
-0.8994352629835E+00 -0.1525581956693E+01  0.0000000000000E+00
-0.9154765096915E+00 -0.1441459227032E+01  0.0000000000000E+00
-0.9347324792844E+00 -0.1358415571095E+01  0.0000000000000E+00
-0.9567799187723E+00 -0.1276461343713E+01  0.0000000000000E+00
-0.9785324051374E+00 -0.1194304973383E+01  0.0000000000000E+00
-0.9983658559628E+00 -0.1111294916756E+01  0.0000000000000E+00
-0.1016238470020E+01 -0.1027526434715E+01  0.0000000000000E+00
-0.1032268731369E+01 -0.9431505289813E+00  0.0000000000000E+00
-0.1046395066944E+01 -0.8582508156835E+00  0.0000000000000E+00
-0.1058385563728E+01 -0.7728689751435E+00  0.0000000000000E+00
-0.1068178240529E+01 -0.6870887681605E+00  0.0000000000000E+00
-0.1075627601174E+01 -0.6009802144323E+00  0.0000000000000E+00
-0.1080360094597E+01 -0.5146077889146E+00  0.0000000000000E+00
-0.1082115068208E+01 -0.4280873029753E+00  0.0000000000000E+00
-0.1081566250735E+01 -0.3415631089346E+00  0.0000000000000E+00
-0.1072287610372E+01 -0.2560335486556E+00  0.0000000000000E+00
-0.1048060474216E+01 -0.1757860963612E+00  0.0000000000000E+00
-0.8434013602891E+00 -0.1694838334539E+01  0.0000000000000E+00
-0.8537229522776E+00 -0.1612079988939E+01  0.0000000000000E+00
-0.8658113380143E+00 -0.1529725611177E+01  0.0000000000000E+00
-0.8801447591061E+00 -0.1447984321162E+01  0.0000000000000E+00
-0.8973650533733E+00 -0.1367202586994E+01  0.0000000000000E+00
-0.9170993320358E+00 -0.1287389816692E+01  0.0000000000000E+00
-0.9366063077746E+00 -0.1207398135830E+01  0.0000000000000E+00
-0.9544417426990E+00 -0.1126648565315E+01  0.0000000000000E+00
-0.9705628866563E+00 -0.1045225745102E+01  0.0000000000000E+00
-0.9850631146560E+00 -0.9632635789787E+00  0.0000000000000E+00
-0.9978709641868E+00 -0.8808358060813E+00  0.0000000000000E+00
-0.1008763559434E+01 -0.7979788893896E+00  0.0000000000000E+00
-0.1017673861820E+01 -0.7147669633096E+00  0.0000000000000E+00
-0.1024466948015E+01 -0.6312622301750E+00  0.0000000000000E+00
-0.1028810163580E+01 -0.5475221713554E+00  0.0000000000000E+00
-0.1030474016764E+01 -0.4636499230587E+00  0.0000000000000E+00
-0.1030060714210E+01 -0.3797739966868E+00  0.0000000000000E+00
-0.1021861760353E+01 -0.2967819101190E+00  0.0000000000000E+00
-0.1000352733534E+01 -0.2184848683968E+00  0.0000000000000E+00
-0.8124820923393E+00 -0.1694126948634E+01  0.0000000000000E+00
-0.8215436060466E+00 -0.1613870917436E+01  0.0000000000000E+00
-0.8321764042262E+00 -0.1533968504685E+01  0.0000000000000E+00
-0.8448026476007E+00 -0.1454602814107E+01  0.0000000000000E+00
-0.8599879144201E+00 -0.1376077161776E+01  0.0000000000000E+00
-0.8774096802096E+00 -0.1298400008021E+01  0.0000000000000E+00
-0.8946717932639E+00 -0.1220567176174E+01  0.0000000000000E+00
-0.9105098602098E+00 -0.1142072251424E+01  0.0000000000000E+00
-0.9248801819917E+00 -0.1062989252608E+01  0.0000000000000E+00
-0.9378510245649E+00 -0.9834349856361E+00  0.0000000000000E+00
-0.9493410359662E+00 -0.9034733126893E+00  0.0000000000000E+00
-0.9591363775820E+00 -0.8231354794195E+00  0.0000000000000E+00
-0.9671649534541E+00 -0.7424859938115E+00  0.0000000000000E+00
-0.9733024130866E+00 -0.6615792408938E+00  0.0000000000000E+00
-0.9772569986568E+00 -0.5804657085455E+00  0.0000000000000E+00
-0.9788303792791E+00 -0.4992358575917E+00  0.0000000000000E+00
-0.9785532394554E+00 -0.4180023590096E+00  0.0000000000000E+00
-0.9714346188367E+00 -0.3375419157624E+00  0.0000000000000E+00
-0.9526443471667E+00 -0.2611894621254E+00  0.0000000000000E+00
-0.7815509360540E+00 -0.1693526671952E+01  0.0000000000000E+00
-0.7893529974569E+00 -0.1615767104683E+01  0.0000000000000E+00
-0.7985308340446E+00 -0.1538310806561E+01  0.0000000000000E+00
-0.8094505256421E+00 -0.1461314865248E+01  0.0000000000000E+00
-0.8226013909215E+00 -0.1385039444855E+01  0.0000000000000E+00
-0.8377112698082E+00 -0.1309492057141E+01  0.0000000000000E+00
-0.8527291461403E+00 -0.1233812223881E+01  0.0000000000000E+00
-0.8665704710604E+00 -0.1157566094584E+01  0.0000000000000E+00
-0.8791905966306E+00 -0.1080817066771E+01  0.0000000000000E+00
-0.8906326797461E+00 -0.1003664848526E+01  0.0000000000000E+00
-0.9008054789872E+00 -0.9261634251201E+00  0.0000000000000E+00
-0.9095041929406E+00 -0.8483388248877E+00  0.0000000000000E+00
-0.9166516682694E+00 -0.7702459293638E+00  0.0000000000000E+00
-0.9221341273071E+00 -0.6919313063309E+00  0.0000000000000E+00
-0.9257007088365E+00 -0.6134384502728E+00  0.0000000000000E+00
-0.9271842428608E+00 -0.5348451464090E+00  0.0000000000000E+00
-0.9270438916883E+00 -0.4562482257846E+00  0.0000000000000E+00
-0.9210062292211E+00 -0.3783135855268E+00  0.0000000000000E+00
-0.9049353367833E+00 -0.3038998875393E+00  0.0000000000000E+00
-0.7506083067926E+00 -0.1693037687126E+01  0.0000000000000E+00
-0.7571515199521E+00 -0.1617768723708E+01  0.0000000000000E+00
-0.7648749989831E+00 -0.1542752680226E+01  0.0000000000000E+00
-0.7740887427956E+00 -0.1468120628396E+01  0.0000000000000E+00
-0.7852058104717E+00 -0.1394089580419E+01  0.0000000000000E+00
-0.7980044064311E+00 -0.1320666098610E+01  0.0000000000000E+00
-0.8107786500141E+00 -0.1247133403882E+01  0.0000000000000E+00
-0.8226238368907E+00 -0.1173130210103E+01  0.0000000000000E+00
-0.8334943702607E+00 -0.1098709293284E+01  0.0000000000000E+00
-0.8434082979516E+00 -0.1023953263733E+01  0.0000000000000E+00
-0.8522644890822E+00 -0.9489062298512E+00  0.0000000000000E+00
-0.8598671794387E+00 -0.8735890026696E+00  0.0000000000000E+00
-0.8661341583082E+00 -0.7980468372435E+00  0.0000000000000E+00
-0.8709622208482E+00 -0.7223184841673E+00  0.0000000000000E+00
-0.8741414024410E+00 -0.6464404446253E+00  0.0000000000000E+00
-0.8755356940038E+00 -0.5704778280057E+00  0.0000000000000E+00
-0.8755327355947E+00 -0.4945116259155E+00  0.0000000000000E+00
-0.8705766344891E+00 -0.4190969387318E+00  0.0000000000000E+00
-0.8572257238154E+00 -0.3466161543434E+00  0.0000000000000E+00
-0.7196546383067E+00 -0.1692660171955E+01  0.0000000000000E+00
-0.7249395845113E+00 -0.1619875942931E+01  0.0000000000000E+00
-0.7312092872703E+00 -0.1547294284722E+01  0.0000000000000E+00
-0.7387176645684E+00 -0.1475020253223E+01  0.0000000000000E+00
-0.7478015158933E+00 -0.1403227708788E+01  0.0000000000000E+00
-0.7582894102453E+00 -0.1331922263408E+01  0.0000000000000E+00
-0.7688206023893E+00 -0.1260530837814E+01  0.0000000000000E+00
-0.7786702325147E+00 -0.1188764710264E+01  0.0000000000000E+00
-0.7877917549782E+00 -0.1116666035064E+01  0.0000000000000E+00
-0.7961781085352E+00 -0.1044300324802E+01  0.0000000000000E+00
-0.8037182728390E+00 -0.9717018110512E+00  0.0000000000000E+00
-0.8102255208740E+00 -0.8988860875506E+00  0.0000000000000E+00
-0.8156125845540E+00 -0.8258887828474E+00  0.0000000000000E+00
-0.8197868318547E+00 -0.7527408304077E+00  0.0000000000000E+00
-0.8225791947468E+00 -0.6794717382122E+00  0.0000000000000E+00
-0.8238848250832E+00 -0.6061339395944E+00  0.0000000000000E+00
-0.8240198406246E+00 -0.5327925872182E+00  0.0000000000000E+00
-0.8201458810983E+00 -0.4598919938240E+00  0.0000000000000E+00
-0.8095155315770E+00 -0.3893382716925E+00  0.0000000000000E+00
-0.6886903565093E+00 -0.1692394296717E+01  0.0000000000000E+00
-0.6927175946182E+00 -0.1622088923663E+01  0.0000000000000E+00
-0.6975340799601E+00 -0.1551935772397E+01  0.0000000000000E+00
-0.7033376495840E+00 -0.1482013883113E+01  0.0000000000000E+00
-0.7103888433793E+00 -0.1412453964381E+01  0.0000000000000E+00
-0.7185665950094E+00 -0.1343260676984E+01  0.0000000000000E+00
-0.7268552945909E+00 -0.1274004642159E+01  0.0000000000000E+00
-0.7347099268254E+00 -0.1204469702582E+01  0.0000000000000E+00
-0.7420829972449E+00 -0.1134687390663E+01  0.0000000000000E+00
-0.7489423355285E+00 -0.1064706121319E+01  0.0000000000000E+00
-0.7551670318599E+00 -0.9945502493410E+00  0.0000000000000E+00
-0.7605793964204E+00 -0.9242301511863E+00  0.0000000000000E+00
-0.7650871037535E+00 -0.8537718288664E+00  0.0000000000000E+00
-0.7686080946470E+00 -0.7831983987784E+00  0.0000000000000E+00
-0.7710141976503E+00 -0.7125323757957E+00  0.0000000000000E+00
-0.7722317255725E+00 -0.6418135169728E+00  0.0000000000000E+00
-0.7725052738312E+00 -0.5710911365270E+00  0.0000000000000E+00
-0.7697140137222E+00 -0.5006987686882E+00  0.0000000000000E+00
-0.7618047823999E+00 -0.4320662485312E+00  0.0000000000000E+00
-0.6577158894649E+00 -0.1692240225162E+01  0.0000000000000E+00
-0.6604859557950E+00 -0.1624407821033E+01  0.0000000000000E+00
-0.6638497600319E+00 -0.1556677289756E+01  0.0000000000000E+00
-0.6679490582789E+00 -0.1489101655950E+01  0.0000000000000E+00
-0.6729681308228E+00 -0.1421768476460E+01  0.0000000000000E+00
-0.6788362760697E+00 -0.1354681459979E+01  0.0000000000000E+00
-0.6848830194189E+00 -0.1287554928934E+01  0.0000000000000E+00
-0.6907431900779E+00 -0.1220245290453E+01  0.0000000000000E+00
-0.6963683447720E+00 -0.1152773454854E+01  0.0000000000000E+00
-0.7017012040992E+00 -0.1085170739436E+01  0.0000000000000E+00
-0.7066109687703E+00 -0.1017451622250E+01  0.0000000000000E+00
-0.7109289861621E+00 -0.9496212624844E+00  0.0000000000000E+00
-0.7145578734505E+00 -0.8816960355872E+00  0.0000000000000E+00
-0.7174261442299E+00 -0.8136912409452E+00  0.0000000000000E+00
-0.7194465236187E+00 -0.7456224004210E+00  0.0000000000000E+00
-0.7205764854021E+00 -0.6775165945656E+00  0.0000000000000E+00
-0.7209891026108E+00 -0.6094072996466E+00  0.0000000000000E+00
-0.7192810772636E+00 -0.5415172805228E+00  0.0000000000000E+00
-0.7140934987308E+00 -0.4748000934607E+00  0.0000000000000E+00
-0.6267316673077E+00 -0.1692198114453E+01  0.0000000000000E+00
-0.6282450755248E+00 -0.1626832783928E+01  0.0000000000000E+00
-0.6301567123173E+00 -0.1561518977415E+01  0.0000000000000E+00
-0.6325522528331E+00 -0.1496283704073E+01  0.0000000000000E+00
-0.6355397177521E+00 -0.1431171369089E+01  0.0000000000000E+00
-0.6390987702994E+00 -0.1366184728180E+01  0.0000000000000E+00
-0.6429040710920E+00 -0.1301181805651E+01  0.0000000000000E+00
-0.6467702938377E+00 -0.1236091573113E+01  0.0000000000000E+00
-0.6506480464722E+00 -0.1170924318597E+01  0.0000000000000E+00
-0.6544549405083E+00 -0.1105694261838E+01  0.0000000000000E+00
-0.6580502871802E+00 -0.1040406004188E+01  0.0000000000000E+00
-0.6612744710591E+00 -0.9750594875815E+00  0.0000000000000E+00
-0.6640250519556E+00 -0.9096614608717E+00  0.0000000000000E+00
-0.6662411162656E+00 -0.8442194064959E+00  0.0000000000000E+00
-0.6678762856675E+00 -0.7787418534021E+00  0.0000000000000E+00
-0.6689191949418E+00 -0.7132432054128E+00  0.0000000000000E+00
-0.6694713946900E+00 -0.6477411013437E+00  0.0000000000000E+00
-0.6688471168461E+00 -0.5823475458340E+00  0.0000000000000E+00
-0.6663817031269E+00 -0.5175398147359E+00  0.0000000000000E+00
 0.6267316770671E+00 -0.1692198115309E+01  0.0000000000000E+00
 0.6282450842043E+00 -0.1626832784735E+01  0.0000000000000E+00
 0.6301567199257E+00 -0.1561518978170E+01  0.0000000000000E+00
 0.6325522593862E+00 -0.1496283704774E+01  0.0000000000000E+00
 0.6355397232755E+00 -0.1431171369731E+01  0.0000000000000E+00
 0.6390987748289E+00 -0.1366184728759E+01  0.0000000000000E+00
 0.6429040746811E+00 -0.1301181806162E+01  0.0000000000000E+00
 0.6467702965677E+00 -0.1236091573554E+01  0.0000000000000E+00
 0.6506480484535E+00 -0.1170924318967E+01  0.0000000000000E+00
 0.6544549418750E+00 -0.1105694262141E+01  0.0000000000000E+00
 0.6580502880753E+00 -0.1040406004428E+01  0.0000000000000E+00
 0.6612744716160E+00 -0.9750594877654E+00  0.0000000000000E+00
 0.6640250522846E+00 -0.9096614610038E+00  0.0000000000000E+00
 0.6662411164480E+00 -0.8442194065791E+00  0.0000000000000E+00
 0.6678762857589E+00 -0.7787418534389E+00  0.0000000000000E+00
 0.6689191949800E+00 -0.7132432054044E+00  0.0000000000000E+00
 0.6694713946944E+00 -0.6477411012908E+00  0.0000000000000E+00
 0.6688471167994E+00 -0.5823475457445E+00  0.0000000000000E+00
 0.6663817030200E+00 -0.5175398146315E+00  0.0000000000000E+00
 0.6577158987074E+00 -0.1692240226002E+01  0.0000000000000E+00
 0.6604859640163E+00 -0.1624407821814E+01  0.0000000000000E+00
 0.6638497672423E+00 -0.1556677290478E+01  0.0000000000000E+00
 0.6679490644955E+00 -0.1489101656609E+01  0.0000000000000E+00
 0.6729681360715E+00 -0.1421768477054E+01  0.0000000000000E+00
 0.6788362803826E+00 -0.1354681460503E+01  0.0000000000000E+00
 0.6848830228425E+00 -0.1287554929381E+01  0.0000000000000E+00
 0.6907431926874E+00 -0.1220245290822E+01  0.0000000000000E+00
 0.6963683466717E+00 -0.1152773455142E+01  0.0000000000000E+00
 0.7017012054155E+00 -0.1085170739648E+01  0.0000000000000E+00
 0.7066109696382E+00 -0.1017451622390E+01  0.0000000000000E+00
 0.7109289867072E+00 -0.9496212625587E+00  0.0000000000000E+00
 0.7145578737767E+00 -0.8816960355999E+00  0.0000000000000E+00
 0.7174261444133E+00 -0.8136912408991E+00  0.0000000000000E+00
 0.7194465237104E+00 -0.7456224003186E+00  0.0000000000000E+00
 0.7205764854380E+00 -0.6775165944084E+00  0.0000000000000E+00
 0.7209891026047E+00 -0.6094072994359E+00  0.0000000000000E+00
 0.7192810771664E+00 -0.5415172802740E+00  0.0000000000000E+00
 0.7140934985165E+00 -0.4748000932170E+00  0.0000000000000E+00
 0.6886903652351E+00 -0.1692394297536E+01  0.0000000000000E+00
 0.6927176023816E+00 -0.1622088924415E+01  0.0000000000000E+00
 0.6975340867727E+00 -0.1551935773080E+01  0.0000000000000E+00
 0.7033376554643E+00 -0.1482013883727E+01  0.0000000000000E+00
 0.7103888483534E+00 -0.1412453964924E+01  0.0000000000000E+00
 0.7185665991058E+00 -0.1343260677450E+01  0.0000000000000E+00
 0.7268552978490E+00 -0.1274004642540E+01  0.0000000000000E+00
 0.7347099293146E+00 -0.1204469702875E+01  0.0000000000000E+00
 0.7420829990631E+00 -0.1134687390868E+01  0.0000000000000E+00
 0.7489423367946E+00 -0.1064706121439E+01  0.0000000000000E+00
 0.7551670327006E+00 -0.9945502493794E+00  0.0000000000000E+00
 0.7605793969537E+00 -0.9242301511490E+00  0.0000000000000E+00
 0.7650871040769E+00 -0.8537718287581E+00  0.0000000000000E+00
 0.7686080948315E+00 -0.7831983986016E+00  0.0000000000000E+00
 0.7710141977424E+00 -0.7125323755530E+00  0.0000000000000E+00
 0.7722317256061E+00 -0.6418135166660E+00  0.0000000000000E+00
 0.7725052738146E+00 -0.5710911361576E+00  0.0000000000000E+00
 0.7697140135745E+00 -0.5006987682796E+00  0.0000000000000E+00
 0.7618047820783E+00 -0.4320662481480E+00  0.0000000000000E+00
 0.7196546465161E+00 -0.1692660172748E+01  0.0000000000000E+00
 0.7249395918170E+00 -0.1619875943648E+01  0.0000000000000E+00
 0.7312092936854E+00 -0.1547294285363E+01  0.0000000000000E+00
 0.7387176701125E+00 -0.1475020253788E+01  0.0000000000000E+00
 0.7478015205931E+00 -0.1403227709276E+01  0.0000000000000E+00
 0.7582894141255E+00 -0.1331922263812E+01  0.0000000000000E+00
 0.7688206054822E+00 -0.1260530838125E+01  0.0000000000000E+00
 0.7786702348837E+00 -0.1188764710478E+01  0.0000000000000E+00
 0.7877917567151E+00 -0.1116666035182E+01  0.0000000000000E+00
 0.7961781097513E+00 -0.1044300324826E+01  0.0000000000000E+00
 0.8037182736528E+00 -0.9717018109855E+00  0.0000000000000E+00
 0.8102255213957E+00 -0.8988860874001E+00  0.0000000000000E+00
 0.8156125848748E+00 -0.8258887826165E+00  0.0000000000000E+00
 0.8197868320404E+00 -0.7527408300988E+00  0.0000000000000E+00
 0.8225791948393E+00 -0.6794717378281E+00  0.0000000000000E+00
 0.8238848251146E+00 -0.6061339391370E+00  0.0000000000000E+00
 0.8240198405976E+00 -0.5327925866896E+00  0.0000000000000E+00
 0.8201458809002E+00 -0.4598919932551E+00  0.0000000000000E+00
 0.8095155311481E+00 -0.3893382711694E+00  0.0000000000000E+00
 0.7506083144858E+00 -0.1693037687890E+01  0.0000000000000E+00
 0.7571515268004E+00 -0.1617768724388E+01  0.0000000000000E+00
 0.7648750050008E+00 -0.1542752680822E+01  0.0000000000000E+00
 0.7740887480037E+00 -0.1468120628908E+01  0.0000000000000E+00
 0.7852058148974E+00 -0.1394089580847E+01  0.0000000000000E+00
 0.7980044100952E+00 -0.1320666098949E+01  0.0000000000000E+00
 0.8107786529419E+00 -0.1247133404121E+01  0.0000000000000E+00
 0.8226238391398E+00 -0.1173130210237E+01  0.0000000000000E+00
 0.8334943719163E+00 -0.1098709293313E+01  0.0000000000000E+00
 0.8434082991177E+00 -0.1023953263659E+01  0.0000000000000E+00
 0.8522644898690E+00 -0.9489062296793E+00  0.0000000000000E+00
 0.8598671799488E+00 -0.8735890024040E+00  0.0000000000000E+00
 0.8661341586265E+00 -0.7980468368884E+00  0.0000000000000E+00
 0.8709622210352E+00 -0.7223184837249E+00  0.0000000000000E+00
 0.8741414025340E+00 -0.6464404440986E+00  0.0000000000000E+00
 0.8755356940330E+00 -0.5704778273969E+00  0.0000000000000E+00
 0.8755327355573E+00 -0.4945116252270E+00  0.0000000000000E+00
 0.8705766342406E+00 -0.4190969380022E+00  0.0000000000000E+00
 0.8572257232791E+00 -0.3466161536803E+00  0.0000000000000E+00
 0.7815509432313E+00 -0.1693526672682E+01  0.0000000000000E+00
 0.7893530038481E+00 -0.1615767105320E+01  0.0000000000000E+00
 0.7985308396653E+00 -0.1538310807107E+01  0.0000000000000E+00
 0.8094505305145E+00 -0.1461314865704E+01  0.0000000000000E+00
 0.8226013950733E+00 -0.1385039445222E+01  0.0000000000000E+00
 0.8377112732565E+00 -0.1309492057412E+01  0.0000000000000E+00
 0.8527291489033E+00 -0.1233812224044E+01  0.0000000000000E+00
 0.8665704731897E+00 -0.1157566094634E+01  0.0000000000000E+00
 0.8791905982052E+00 -0.1080817066708E+01  0.0000000000000E+00
 0.8906326808624E+00 -0.1003664848353E+01  0.0000000000000E+00
 0.9008054797473E+00 -0.9261634248400E+00  0.0000000000000E+00
 0.9095041934393E+00 -0.8483388245051E+00  0.0000000000000E+00
 0.9166516685853E+00 -0.7702459288830E+00  0.0000000000000E+00
 0.9221341274954E+00 -0.6919313057536E+00  0.0000000000000E+00
 0.9257007089301E+00 -0.6134384496025E+00  0.0000000000000E+00
 0.9271842428878E+00 -0.5348451456479E+00  0.0000000000000E+00
 0.9270438916406E+00 -0.4562482249355E+00  0.0000000000000E+00
 0.9210062289222E+00 -0.3783135846360E+00  0.0000000000000E+00
 0.9049353361397E+00 -0.3038998867360E+00  0.0000000000000E+00
 0.8124820990011E+00 -0.1694126949326E+01  0.0000000000000E+00
 0.8215436119809E+00 -0.1613870918028E+01  0.0000000000000E+00
 0.8321764094502E+00 -0.1533968505178E+01  0.0000000000000E+00
 0.8448026521377E+00 -0.1454602814503E+01  0.0000000000000E+00
 0.8599879182983E+00 -0.1376077162078E+01  0.0000000000000E+00
 0.8774096834423E+00 -0.1298400008221E+01  0.0000000000000E+00
 0.8946717958622E+00 -0.1220567176258E+01  0.0000000000000E+00
 0.9105098622195E+00 -0.1142072251388E+01  0.0000000000000E+00
 0.9248801834856E+00 -0.1062989252451E+01  0.0000000000000E+00
 0.9378510256317E+00 -0.9834349853607E+00  0.0000000000000E+00
 0.9493410366997E+00 -0.9034733122990E+00  0.0000000000000E+00
 0.9591363780693E+00 -0.8231354789182E+00  0.0000000000000E+00
 0.9671649537677E+00 -0.7424859932034E+00  0.0000000000000E+00
 0.9733024132764E+00 -0.6615792401804E+00  0.0000000000000E+00
 0.9772569987510E+00 -0.5804657077303E+00  0.0000000000000E+00
 0.9788303793041E+00 -0.4992358566774E+00  0.0000000000000E+00
 0.9785532393974E+00 -0.4180023579992E+00  0.0000000000000E+00
 0.9714346184875E+00 -0.3375419147100E+00  0.0000000000000E+00
 0.9526443464158E+00 -0.2611894611816E+00  0.0000000000000E+00
 0.8434013664357E+00 -0.1694838335189E+01  0.0000000000000E+00
 0.8537229577554E+00 -0.1612079989481E+01  0.0000000000000E+00
 0.8658113428418E+00 -0.1529725611613E+01  0.0000000000000E+00
 0.8801447633080E+00 -0.1447984321494E+01  0.0000000000000E+00
 0.8973650569782E+00 -0.1367202587227E+01  0.0000000000000E+00
 0.9170993350532E+00 -0.1287389816818E+01  0.0000000000000E+00
 0.9366063102086E+00 -0.1207398135833E+01  0.0000000000000E+00
 0.9544417445893E+00 -0.1126648565190E+01  0.0000000000000E+00
 0.9705628880695E+00 -0.1045225744848E+01  0.0000000000000E+00
 0.9850631156734E+00 -0.9632635785991E+00  0.0000000000000E+00
 0.9978709648940E+00 -0.8808358055787E+00  0.0000000000000E+00
 0.1008763559910E+01 -0.7979788887677E+00  0.0000000000000E+00
 0.1017673862132E+01 -0.7147669625726E+00  0.0000000000000E+00
 0.1024466948207E+01 -0.6312622293241E+00  0.0000000000000E+00
 0.1028810163675E+01 -0.5475221703943E+00  0.0000000000000E+00
 0.1030474016787E+01 -0.4636499219902E+00  0.0000000000000E+00
 0.1030060714142E+01 -0.3797739955145E+00  0.0000000000000E+00
 0.1021861759954E+01 -0.2967819089046E+00  0.0000000000000E+00
 0.1000352732676E+01 -0.2184848673123E+00  0.0000000000000E+00
 0.8743083292160E+00 -0.1695660641007E+01  0.0000000000000E+00
 0.8858906467958E+00 -0.1610394140375E+01  0.0000000000000E+00
 0.8994352674149E+00 -0.1525581957067E+01  0.0000000000000E+00
 0.9154765135586E+00 -0.1441459227297E+01  0.0000000000000E+00
 0.9347324826162E+00 -0.1358415571256E+01  0.0000000000000E+00
 0.9567799215746E+00 -0.1276461343761E+01  0.0000000000000E+00
 0.9785324074072E+00 -0.1194304973301E+01  0.0000000000000E+00
 0.9983658577340E+00 -0.1111294916539E+01  0.0000000000000E+00
 0.1016238471353E+01 -0.1027526434362E+01  0.0000000000000E+00
 0.1032268732337E+01 -0.9431505284951E+00  0.0000000000000E+00
 0.1046395067625E+01 -0.8582508150666E+00  0.0000000000000E+00
 0.1058385564193E+01 -0.7728689743992E+00  0.0000000000000E+00
 0.1068178240839E+01 -0.6870887672930E+00  0.0000000000000E+00
 0.1075627601367E+01 -0.6009802134425E+00  0.0000000000000E+00
 0.1080360094693E+01 -0.5146077878065E+00  0.0000000000000E+00
 0.1082115068229E+01 -0.4280873017517E+00  0.0000000000000E+00
 0.1081566250656E+01 -0.3415631075997E+00  0.0000000000000E+00
 0.1072287609923E+01 -0.2560335472787E+00  0.0000000000000E+00
 0.1048060473251E+01 -0.1757860951357E+00  0.0000000000000E+00
 0.9052025707781E+00 -0.1696593670959E+01  0.0000000000000E+00
 0.9180462844761E+00 -0.1608813185199E+01  0.0000000000000E+00
 0.9330478104822E+00 -0.1521537366339E+01  0.0000000000000E+00
 0.9507975521418E+00 -0.1435027367020E+01  0.0000000000000E+00
 0.9720898664051E+00 -0.1349715959582E+01  0.0000000000000E+00
 0.9964511361435E+00 -0.1265614444782E+01  0.0000000000000E+00
 0.1020449802539E+01 -0.1181287554705E+01  0.0000000000000E+00
 0.1042281938676E+01 -0.1096011181789E+01  0.0000000000000E+00
 0.1061906692299E+01 -0.1009891207660E+01  0.0000000000000E+00
 0.1079467656524E+01 -0.9230957320237E+00  0.0000000000000E+00
 0.1094913147732E+01 -0.8357182480476E+00  0.0000000000000E+00
 0.1108002215695E+01 -0.7478056534076E+00  0.0000000000000E+00
 0.1118677936601E+01 -0.6594513352690E+00  0.0000000000000E+00
 0.1126784241405E+01 -0.5707331307489E+00  0.0000000000000E+00
 0.1131906682383E+01 -0.4817225084889E+00  0.0000000000000E+00
 0.1133753446136E+01 -0.3925479547930E+00  0.0000000000000E+00
 0.1133069783374E+01 -0.3033696633937E+00  0.0000000000000E+00
 0.1122712124713E+01 -0.2152968092632E+00  0.0000000000000E+00
 0.1095767546307E+01 -0.1330931343643E+00  0.0000000000000E+00
 0.9360836771012E+00 -0.1697637222998E+01  0.0000000000000E+00
 0.9501894785799E+00 -0.1607336932545E+01  0.0000000000000E+00
 0.9666486016325E+00 -0.1517591658659E+01  0.0000000000000E+00
 0.9861075304526E+00 -0.1428688570531E+01  0.0000000000000E+00
 0.1009436881547E+01 -0.1341103592713E+01  0.0000000000000E+00
 0.1036112673774E+01 -0.1254848971027E+01  0.0000000000000E+00
 0.1062358212428E+01 -0.1168345741829E+01  0.0000000000000E+00
 0.1086189726049E+01 -0.1080797233366E+01  0.0000000000000E+00
 0.1107567311349E+01 -0.9923199478029E+00  0.0000000000000E+00
 0.1126659670482E+01 -0.9030990828862E+00  0.0000000000000E+00
 0.1143425009267E+01 -0.8132380088607E+00  0.0000000000000E+00
 0.1157613340271E+01 -0.7227888407692E+00  0.0000000000000E+00
 0.1169172797073E+01 -0.6318545921137E+00  0.0000000000000E+00
 0.1177936737775E+01 -0.5405209174934E+00  0.0000000000000E+00
 0.1183449817999E+01 -0.4488662793275E+00  0.0000000000000E+00
 0.1185389063559E+01 -0.3570318386362E+00  0.0000000000000E+00
 0.1184571247138E+01 -0.2651936310542E+00  0.0000000000000E+00
 0.1173135260919E+01 -0.1745716736346E+00  0.0000000000000E+00
 0.1143473930147E+01 -0.9040597438278E-01  0.0000000000000E+00
 0.9669512274189E+00 -0.1698791087767E+01  0.0000000000000E+00
 0.9823198304356E+00 -0.1605965184095E+01  0.0000000000000E+00
 0.1000237264269E+01 -0.1513744646745E+01  0.0000000000000E+00
 0.1021406093943E+01 -0.1422442661578E+01  0.0000000000000E+00
 0.1046773195509E+01 -0.1332578305411E+01  0.0000000000000E+00
 0.1075764223922E+01 -0.1244164768264E+01  0.0000000000000E+00
 0.1104257348526E+01 -0.1155479391450E+01  0.0000000000000E+00
 0.1130088953323E+01 -0.1065652939060E+01  0.0000000000000E+00
 0.1153220084018E+01 -0.9748125336096E+00  0.0000000000000E+00
 0.1173844551794E+01 -0.8831604709323E+00  0.0000000000000E+00
 0.1191930451903E+01 -0.7908099983938E+00  0.0000000000000E+00
 0.1207218759703E+01 -0.6978184484149E+00  0.0000000000000E+00
 0.1219662666172E+01 -0.6042984608059E+00  0.0000000000000E+00
 0.1229084956548E+01 -0.5103435077058E+00  0.0000000000000E+00
 0.1234989389793E+01 -0.4160390454063E+00  0.0000000000000E+00
 0.1237021830960E+01 -0.3215389094206E+00  0.0000000000000E+00
 0.1236070574644E+01 -0.2270349777752E+00  0.0000000000000E+00
 0.1223556973529E+01 -0.1338581186130E+00  0.0000000000000E+00
 0.1191179602188E+01 -0.4772460436371E-01  0.0000000000000E+00
 0.9978048126931E+00 -0.1700055050828E+01  0.0000000000000E+00
 0.1014436952546E+01 -0.1604697736702E+01  0.0000000000000E+00
 0.1033813432435E+01 -0.1509996138743E+01  0.0000000000000E+00
 0.1056692898198E+01 -0.1416289459594E+01  0.0000000000000E+00
 0.1084098485417E+01 -0.1324139928402E+01  0.0000000000000E+00
 0.1115405485257E+01 -0.1233561678510E+01  0.0000000000000E+00
 0.1146146931048E+01 -0.1142688356877E+01  0.0000000000000E+00
 0.1173979362256E+01 -0.1050578163472E+01  0.0000000000000E+00
 0.1198864773607E+01 -0.9573688409702E+00  0.0000000000000E+00
 0.1221022085302E+01 -0.8632797833433E+00  0.0000000000000E+00
 0.1240429282021E+01 -0.7684341151186E+00  0.0000000000000E+00
 0.1256818301914E+01 -0.6728943861069E+00  0.0000000000000E+00
 0.1270147393358E+01 -0.5767828623979E+00  0.0000000000000E+00
 0.1280228768722E+01 -0.4802008337283E+00  0.0000000000000E+00
 0.1286525290297E+01 -0.3832407503566E+00  0.0000000000000E+00
 0.1288651662409E+01 -0.2860691220672E+00  0.0000000000000E+00
 0.1287567701494E+01 -0.1888936697665E+00  0.0000000000000E+00
 0.1273977219637E+01 -0.9315612167893E-01  0.0000000000000E+00
 0.1238884540982E+01 -0.5049013045556E-02  0.0000000000000E+00
 0.1028644034966E+01 -0.1701428892817E+01  0.0000000000000E+00
 0.1046540467967E+01 -0.1603534382536E+01  0.0000000000000E+00
 0.1067376750223E+01 -0.1506345938358E+01  0.0000000000000E+00
 0.1091967608368E+01 -0.1410228779832E+01  0.0000000000000E+00
 0.1121412437513E+01 -0.1315788288493E+01  0.0000000000000E+00
 0.1155036165145E+01 -0.1223039540143E+01  0.0000000000000E+00
 0.1188026688472E+01 -0.1129972488054E+01  0.0000000000000E+00
 0.1217860702418E+01 -0.1035572768105E+01  0.0000000000000E+00
 0.1244501150748E+01 -0.9399887429363E+00  0.0000000000000E+00
 0.1268192062681E+01 -0.8434569047128E+00  0.0000000000000E+00
 0.1288921312318E+01 -0.7461102551647E+00  0.0000000000000E+00
 0.1306411800597E+01 -0.6480165615055E+00  0.0000000000000E+00
 0.1320626833301E+01 -0.5493077160762E+00  0.0000000000000E+00
 0.1331368049922E+01 -0.4500928262700E+00  0.0000000000000E+00
 0.1338057416065E+01 -0.3504713364071E+00  0.0000000000000E+00
 0.1340278475353E+01 -0.2506224303227E+00  0.0000000000000E+00
 0.1339062566007E+01 -0.1507696722917E+00  0.0000000000000E+00
 0.1324395958307E+01 -0.5246565960526E-01  0.0000000000000E+00
 0.1286588726141E+01  0.3762081124632E-01  0.0000000000000E+00
 0.1059468491065E+01 -0.1702912387465E+01  0.0000000000000E+00
 0.1078629994763E+01 -0.1602474907241E+01  0.0000000000000E+00
 0.1100926856931E+01 -0.1502793843147E+01  0.0000000000000E+00
 0.1127229884989E+01 -0.1404260431761E+01  0.0000000000000E+00
 0.1158714733573E+01 -0.1307523207068E+01  0.0000000000000E+00
 0.1194655966603E+01 -0.1212598186461E+01  0.0000000000000E+00
 0.1229896345061E+01 -0.1117331630195E+01  0.0000000000000E+00
 0.1261732719309E+01 -0.1020636610086E+01  0.0000000000000E+00
 0.1290128982182E+01 -0.9226721085503E+00  0.0000000000000E+00
 0.1315354271908E+01 -0.8236917159966E+00  0.0000000000000E+00
 0.1337406352004E+01 -0.7238383114011E+00  0.0000000000000E+00
 0.1355999086198E+01 -0.6231848793920E+00  0.0000000000000E+00
 0.1371100837678E+01 -0.5218729385342E+00  0.0000000000000E+00
 0.1382502673051E+01 -0.4200194139358E+00  0.0000000000000E+00
 0.1389585661224E+01 -0.3177307440737E+00  0.0000000000000E+00
 0.1391902185146E+01 -0.2151987866139E+00  0.0000000000000E+00
 0.1390555104757E+01 -0.1126629496880E+00  0.0000000000000E+00
 0.1374813147288E+01 -0.1178670862095E-01  0.0000000000000E+00
 0.1334292136548E+01  0.8028488040208E-01  0.0000000000000E+00
 0.1090277780720E+01 -0.1704505302632E+01  0.0000000000000E+00
 0.1110705153744E+01 -0.1601519090897E+01  0.0000000000000E+00
 0.1134463394454E+01 -0.1499339645413E+01  0.0000000000000E+00
 0.1162479391042E+01 -0.1398384219907E+01  0.0000000000000E+00
 0.1196005057665E+01 -0.1299344500874E+01  0.0000000000000E+00
 0.1234264594794E+01 -0.1202237446439E+01  0.0000000000000E+00
 0.1271755627067E+01 -0.1104765624500E+01  0.0000000000000E+00
 0.1305595160272E+01 -0.1005769542839E+01  0.0000000000000E+00
 0.1335748036337E+01 -0.9054188034578E+00  0.0000000000000E+00
 0.1362508502496E+01 -0.8039840950629E+00  0.0000000000000E+00
 0.1385884211676E+01 -0.7016181739175E+00  0.0000000000000E+00
 0.1405579990391E+01 -0.5983992420775E+00  0.0000000000000E+00
 0.1421569259242E+01 -0.4944784443039E+00  0.0000000000000E+00
 0.1433632511940E+01 -0.3899805234782E+00  0.0000000000000E+00
 0.1441109920678E+01 -0.2850189123287E+00  0.0000000000000E+00
 0.1443522707758E+01 -0.1797981421330E+00  0.0000000000000E+00
 0.1442045254780E+01 -0.7457346536650E-01  0.0000000000000E+00
 0.1425228744639E+01  0.2888075566284E-01  0.0000000000000E+00
 0.1381994751242E+01  0.1229432066213E+00  0.0000000000000E+00
 0.1121071483195E+01 -0.1706207397020E+01  0.0000000000000E+00
 0.1142765546172E+01 -0.1600666704959E+01  0.0000000000000E+00
 0.1167985985999E+01 -0.1495983129350E+01  0.0000000000000E+00
 0.1197715771612E+01 -0.1392599941181E+01  0.0000000000000E+00
 0.1233283076667E+01 -0.1291251979511E+01  0.0000000000000E+00
 0.1273861738317E+01 -0.1191957142331E+01  0.0000000000000E+00
 0.1313604244830E+01 -0.1092274305885E+01  0.0000000000000E+00
 0.1349447757450E+01 -0.9909714139681E+00  0.0000000000000E+00
 0.1381358067225E+01 -0.8882286879731E+00  0.0000000000000E+00
 0.1409654530383E+01 -0.7843339149532E+00  0.0000000000000E+00
 0.1434354689253E+01 -0.6794497284982E+00  0.0000000000000E+00
 0.1455154333136E+01 -0.5736595481023E+00  0.0000000000000E+00
 0.1472031940047E+01 -0.4671241446931E+00  0.0000000000000E+00
 0.1484757430797E+01 -0.3599760789818E+00  0.0000000000000E+00
 0.1492630080857E+01 -0.2523357780405E+00  0.0000000000000E+00
 0.1495139951924E+01 -0.1444204465366E+00  0.0000000000000E+00
 0.1493532947170E+01 -0.3650118177095E-01  0.0000000000000E+00
 0.1475642704025E+01  0.6953675806361E-01  0.0000000000000E+00
 0.1429696546851E+01  0.1655958021522E+00  0.0000000000000E+00
 0.1151849225537E+01 -0.1708018429846E+01  0.0000000000000E+00
 0.1174810818886E+01 -0.1599917521276E+01  0.0000000000000E+00
 0.1201494298248E+01 -0.1492724079452E+01  0.0000000000000E+00
 0.1232938713290E+01 -0.1386907392741E+01  0.0000000000000E+00
 0.1270548497160E+01 -0.1283245452831E+01  0.0000000000000E+00
 0.1313447123819E+01 -0.1181757096718E+01  0.0000000000000E+00
 0.1355441945044E+01 -0.1079857509653E+01  0.0000000000000E+00
 0.1393290277519E+01 -0.9762420714703E+00  0.0000000000000E+00
 0.1426958861442E+01 -0.8711016227676E+00  0.0000000000000E+00
 0.1456792162028E+01 -0.7647410489956E+00  0.0000000000000E+00
 0.1482817611003E+01 -0.6573328611127E+00  0.0000000000000E+00
 0.1504721960451E+01 -0.5489656960643E+00  0.0000000000000E+00
 0.1522488745806E+01 -0.4398099509165E+00  0.0000000000000E+00
 0.1535877314972E+01 -0.3300060042687E+00  0.0000000000000E+00
 0.1544146046680E+01 -0.2196812776312E+00  0.0000000000000E+00
 0.1546753842050E+01 -0.1090656488427E+00  0.0000000000000E+00
 0.1545018125764E+01  0.1553939485621E-02  0.0000000000000E+00
 0.1526054988436E+01  0.1101813243664E+00  0.0000000000000E+00
 0.1477397505075E+01  0.2082426800443E+00  0.0000000000000E+00
 0.1182610616693E+01 -0.1709938151813E+01  0.0000000000000E+00
 0.1206840601434E+01 -0.1599271303676E+01  0.0000000000000E+00
 0.1234987981351E+01 -0.1489562272670E+01  0.0000000000000E+00
 0.1268147886829E+01 -0.1381306364667E+01  0.0000000000000E+00
 0.1307801010505E+01 -0.1275324724039E+01  0.0000000000000E+00
 0.1353020463274E+01 -0.1171637125933E+01  0.0000000000000E+00
 0.1397268460295E+01 -0.1067515065265E+01  0.0000000000000E+00
 0.1437122473674E+01 -0.9615813579356E+00  0.0000000000000E+00
 0.1472550192790E+01 -0.8540374635575E+00  0.0000000000000E+00
 0.1503921191834E+01 -0.7452053660319E+00  0.0000000000000E+00
 0.1531272791928E+01 -0.6352674537278E+00  0.0000000000000E+00
 0.1554282707934E+01 -0.5243175810539E+00  0.0000000000000E+00
 0.1572939532713E+01 -0.4125357711880E+00  0.0000000000000E+00
 0.1586992041247E+01 -0.3000702206755E+00  0.0000000000000E+00
 0.1595657715515E+01 -0.1870553455593E+00  0.0000000000000E+00
 0.1598364296089E+01 -0.7373369663145E-01  0.0000000000000E+00
 0.1596500729092E+01  0.3959193770200E-01  0.0000000000000E+00
 0.1576465556935E+01  0.1508144807688E+00  0.0000000000000E+00
 0.1525097605457E+01  0.2508838534040E+00  0.0000000000000E+00
-0.6299559715430E+00 -0.4448788635045E+00  0.0000000000000E+00
-0.6714480734955E+00 -0.4002935756204E+00  0.0000000000000E+00
-0.7129401754481E+00 -0.3557082877364E+00  0.0000000000000E+00
-0.7544322774006E+00 -0.3111229998524E+00  0.0000000000000E+00
-0.7959243793531E+00 -0.2665377119684E+00  0.0000000000000E+00
-0.8374164813057E+00 -0.2219524240844E+00  0.0000000000000E+00
-0.8789085832582E+00 -0.1773671362004E+00  0.0000000000000E+00
-0.9204006852108E+00 -0.1327818483163E+00  0.0000000000000E+00
-0.9618927871633E+00 -0.8819656043232E-01  0.0000000000000E+00
-0.1003384889116E+01 -0.4361127254831E-01  0.0000000000000E+00
-0.1044876991068E+01  0.9740153357094E-03  0.0000000000000E+00
-0.1086369093021E+01  0.4555930321973E-01  0.0000000000000E+00
-0.1127861194973E+01  0.9014459110374E-01  0.0000000000000E+00
-0.1169353296926E+01  0.1347298789878E+00  0.0000000000000E+00
-0.1210845398879E+01  0.1793151668718E+00  0.0000000000000E+00
-0.1252337500831E+01  0.2239004547558E+00  0.0000000000000E+00
-0.1293829602784E+01  0.2684857426398E+00  0.0000000000000E+00
-0.1335321704736E+01  0.3130710305238E+00  0.0000000000000E+00
-0.1376813806689E+01  0.3576563184078E+00  0.0000000000000E+00
-0.5974622415961E+00 -0.4366441451899E+00  0.0000000000000E+00
-0.6368419585758E+00 -0.3913664749580E+00  0.0000000000000E+00
-0.6762216755556E+00 -0.3460888047261E+00  0.0000000000000E+00
-0.7156013925353E+00 -0.3008111344942E+00  0.0000000000000E+00
-0.7549811095150E+00 -0.2555334642623E+00  0.0000000000000E+00
-0.7943608264947E+00 -0.2102557940303E+00  0.0000000000000E+00
-0.8337405434744E+00 -0.1649781237984E+00  0.0000000000000E+00
-0.8731202604541E+00 -0.1197004535665E+00  0.0000000000000E+00
-0.9124999774338E+00 -0.7442278333461E-01  0.0000000000000E+00
-0.9518796944135E+00 -0.2914511310269E-01  0.0000000000000E+00
-0.9912594113932E+00  0.1613255712922E-01  0.0000000000000E+00
-0.1030639128373E+01  0.6141022736114E-01  0.0000000000000E+00
-0.1070018845353E+01  0.1066878975930E+00  0.0000000000000E+00
-0.1109398562332E+01  0.1519655678250E+00  0.0000000000000E+00
-0.1148778279312E+01  0.1972432380569E+00  0.0000000000000E+00
-0.1188157996292E+01  0.2425209082888E+00  0.0000000000000E+00
-0.1227537713272E+01  0.2877985785207E+00  0.0000000000000E+00
-0.1266917430251E+01  0.3330762487526E+00  0.0000000000000E+00
-0.1306297147231E+01  0.3783539189845E+00  0.0000000000000E+00
-0.5647851637629E+00 -0.4291779471807E+00  0.0000000000000E+00
-0.6019607642087E+00 -0.3835976335802E+00  0.0000000000000E+00
-0.6391363646544E+00 -0.3380173199797E+00  0.0000000000000E+00
-0.6763119651002E+00 -0.2924370063792E+00  0.0000000000000E+00
-0.7134875655459E+00 -0.2468566927788E+00  0.0000000000000E+00
-0.7506631659917E+00 -0.2012763791783E+00  0.0000000000000E+00
-0.7878387664375E+00 -0.1556960655778E+00  0.0000000000000E+00
-0.8250143668832E+00 -0.1101157519773E+00  0.0000000000000E+00
-0.8621899673290E+00 -0.6453543837680E-01  0.0000000000000E+00
-0.8993655677748E+00 -0.1895512477632E-01  0.0000000000000E+00
-0.9365411682205E+00  0.2662518882417E-01  0.0000000000000E+00
-0.9737167686663E+00  0.7220550242466E-01  0.0000000000000E+00
-0.1010892369112E+01  0.1177858160251E+00  0.0000000000000E+00
-0.1048067969558E+01  0.1633661296256E+00  0.0000000000000E+00
-0.1085243570004E+01  0.2089464432261E+00  0.0000000000000E+00
-0.1122419170449E+01  0.2545267568266E+00  0.0000000000000E+00
-0.1159594770895E+01  0.3001070704271E+00  0.0000000000000E+00
-0.1196770371341E+01  0.3456873840276E+00  0.0000000000000E+00
-0.1233945971787E+01  0.3912676976281E+00  0.0000000000000E+00
-0.5319747863850E+00 -0.4224941396796E+00  0.0000000000000E+00
-0.5669005038771E+00 -0.3770102860137E+00  0.0000000000000E+00
-0.6018262213692E+00 -0.3315264323477E+00  0.0000000000000E+00
-0.6367519388613E+00 -0.2860425786818E+00  0.0000000000000E+00
-0.6716776563534E+00 -0.2405587250158E+00  0.0000000000000E+00
-0.7066033738455E+00 -0.1950748713499E+00  0.0000000000000E+00
-0.7415290913375E+00 -0.1495910176839E+00  0.0000000000000E+00
-0.7764548088296E+00 -0.1041071640180E+00  0.0000000000000E+00
-0.8113805263217E+00 -0.5862331035200E-01  0.0000000000000E+00
-0.8463062438138E+00 -0.1313945668605E-01  0.0000000000000E+00
-0.8812319613059E+00  0.3234439697990E-01  0.0000000000000E+00
-0.9161576787979E+00  0.7782825064585E-01  0.0000000000000E+00
-0.9510833962900E+00  0.1233121043118E+00  0.0000000000000E+00
-0.9860091137821E+00  0.1687959579778E+00  0.0000000000000E+00
-0.1020934831274E+01  0.2142798116437E+00  0.0000000000000E+00
-0.1055860548766E+01  0.2597636653097E+00  0.0000000000000E+00
-0.1090786266258E+01  0.3052475189756E+00  0.0000000000000E+00
-0.1125711983750E+01  0.3507313726416E+00  0.0000000000000E+00
-0.1160637701243E+01  0.3962152263075E+00  0.0000000000000E+00
-0.4990802666255E+00 -0.4165840327232E+00  0.0000000000000E+00
-0.5317553219230E+00 -0.3715827348048E+00  0.0000000000000E+00
-0.5644303772205E+00 -0.3265814368864E+00  0.0000000000000E+00
-0.5971054325179E+00 -0.2815801389680E+00  0.0000000000000E+00
-0.6297804878154E+00 -0.2365788410496E+00  0.0000000000000E+00
-0.6624555431129E+00 -0.1915775431312E+00  0.0000000000000E+00
-0.6951305984104E+00 -0.1465762452128E+00  0.0000000000000E+00
-0.7278056537078E+00 -0.1015749472944E+00  0.0000000000000E+00
-0.7604807090053E+00 -0.5657364937598E-01  0.0000000000000E+00
-0.7931557643028E+00 -0.1157235145757E-01  0.0000000000000E+00
-0.8258308196003E+00  0.3342894646083E-01  0.0000000000000E+00
-0.8585058748978E+00  0.7843024437923E-01  0.0000000000000E+00
-0.8911809301952E+00  0.1234315422976E+00  0.0000000000000E+00
-0.9238559854927E+00  0.1684328402160E+00  0.0000000000000E+00
-0.9565310407902E+00  0.2134341381344E+00  0.0000000000000E+00
-0.9892060960877E+00  0.2584354360528E+00  0.0000000000000E+00
-0.1021881151385E+01  0.3034367339713E+00  0.0000000000000E+00
-0.1054556206683E+01  0.3484380318897E+00  0.0000000000000E+00
-0.1087231261980E+01  0.3934393298081E+00  0.0000000000000E+00
-0.4661358894282E+00 -0.4113546120754E+00  0.0000000000000E+00
-0.4965895947067E+00 -0.3671248415236E+00  0.0000000000000E+00
-0.5270432999851E+00 -0.3228950709718E+00  0.0000000000000E+00
-0.5574970052636E+00 -0.2786653004201E+00  0.0000000000000E+00
-0.5879507105420E+00 -0.2344355298683E+00  0.0000000000000E+00
-0.6184044158205E+00 -0.1902057593165E+00  0.0000000000000E+00
-0.6488581210989E+00 -0.1459759887648E+00  0.0000000000000E+00
-0.6793118263774E+00 -0.1017462182130E+00  0.0000000000000E+00
-0.7097655316558E+00 -0.5751644766124E-01  0.0000000000000E+00
-0.7402192369343E+00 -0.1328667710947E-01  0.0000000000000E+00
-0.7706729422127E+00  0.3094309344230E-01  0.0000000000000E+00
-0.8011266474912E+00  0.7517286399407E-01  0.0000000000000E+00
-0.8315803527696E+00  0.1194026345458E+00  0.0000000000000E+00
-0.8620340580481E+00  0.1636324050976E+00  0.0000000000000E+00
-0.8924877633265E+00  0.2078621756494E+00  0.0000000000000E+00
-0.9229414686050E+00  0.2520919462011E+00  0.0000000000000E+00
-0.9533951738834E+00  0.2963217167529E+00  0.0000000000000E+00
-0.9838488791619E+00  0.3405514873047E+00  0.0000000000000E+00
-0.1014302584440E+01  0.3847812578564E+00  0.0000000000000E+00
-0.4331566793992E+00 -0.4067328540872E+00  0.0000000000000E+00
-0.4614288249452E+00 -0.3634866017615E+00  0.0000000000000E+00
-0.4897009704912E+00 -0.3202403494357E+00  0.0000000000000E+00
-0.5179731160371E+00 -0.2769940971100E+00  0.0000000000000E+00
-0.5462452615831E+00 -0.2337478447842E+00  0.0000000000000E+00
-0.5745174071291E+00 -0.1905015924585E+00  0.0000000000000E+00
-0.6027895526750E+00 -0.1472553401327E+00  0.0000000000000E+00
-0.6310616982210E+00 -0.1040090878070E+00  0.0000000000000E+00
-0.6593338437670E+00 -0.6076283548125E-01  0.0000000000000E+00
-0.6876059893129E+00 -0.1751658315551E-01  0.0000000000000E+00
-0.7158781348589E+00  0.2572966917024E-01  0.0000000000000E+00
-0.7441502804048E+00  0.6897592149599E-01  0.0000000000000E+00
-0.7724224259508E+00  0.1122221738217E+00  0.0000000000000E+00
-0.8006945714968E+00  0.1554684261475E+00  0.0000000000000E+00
-0.8289667170427E+00  0.1987146784732E+00  0.0000000000000E+00
-0.8572388625887E+00  0.2419609307990E+00  0.0000000000000E+00
-0.8855110081347E+00  0.2852071831247E+00  0.0000000000000E+00
-0.9137831536806E+00  0.3284534354505E+00  0.0000000000000E+00
-0.9420552992266E+00  0.3716996877762E+00  0.0000000000000E+00
-0.4001452660089E+00 -0.4026538267990E+00  0.0000000000000E+00
-0.4262736922835E+00 -0.3605344241827E+00  0.0000000000000E+00
-0.4524021185581E+00 -0.3184150215665E+00  0.0000000000000E+00
-0.4785305448327E+00 -0.2762956189502E+00  0.0000000000000E+00
-0.5046589711073E+00 -0.2341762163340E+00  0.0000000000000E+00
-0.5307873973819E+00 -0.1920568137177E+00  0.0000000000000E+00
-0.5569158236565E+00 -0.1499374111015E+00  0.0000000000000E+00
-0.5830442499311E+00 -0.1078180084852E+00  0.0000000000000E+00
-0.6091726762057E+00 -0.6569860586900E-01  0.0000000000000E+00
-0.6353011024803E+00 -0.2357920325275E-01  0.0000000000000E+00
-0.6614295287548E+00  0.1854019936350E-01  0.0000000000000E+00
-0.6875579550294E+00  0.6065960197974E-01  0.0000000000000E+00
-0.7136863813040E+00  0.1027790045960E+00  0.0000000000000E+00
-0.7398148075786E+00  0.1448984072122E+00  0.0000000000000E+00
-0.7659432338532E+00  0.1870178098285E+00  0.0000000000000E+00
-0.7920716601278E+00  0.2291372124447E+00  0.0000000000000E+00
-0.8182000864024E+00  0.2712566150610E+00  0.0000000000000E+00
-0.8443285126770E+00  0.3133760176772E+00  0.0000000000000E+00
-0.8704569389516E+00  0.3554954202935E+00  0.0000000000000E+00
-0.3670941282270E+00 -0.3990479117006E+00  0.0000000000000E+00
-0.3911043433766E+00 -0.3581255480735E+00  0.0000000000000E+00
-0.4151145585263E+00 -0.3172031844463E+00  0.0000000000000E+00
-0.4391247736759E+00 -0.2762808208192E+00  0.0000000000000E+00
-0.4631349888256E+00 -0.2353584571920E+00  0.0000000000000E+00
-0.4871452039753E+00 -0.1944360935648E+00  0.0000000000000E+00
-0.5111554191249E+00 -0.1535137299377E+00  0.0000000000000E+00
-0.5351656342746E+00 -0.1125913663105E+00  0.0000000000000E+00
-0.5591758494243E+00 -0.7166900268338E-01  0.0000000000000E+00
-0.5831860645739E+00 -0.3074663905622E-01  0.0000000000000E+00
-0.6071962797236E+00  0.1017572457094E-01  0.0000000000000E+00
-0.6312064948732E+00  0.5109808819809E-01  0.0000000000000E+00
-0.6552167100229E+00  0.9202045182525E-01  0.0000000000000E+00
-0.6792269251726E+00  0.1329428154524E+00  0.0000000000000E+00
-0.7032371403222E+00  0.1738651790796E+00  0.0000000000000E+00
-0.7272473554719E+00  0.2147875427067E+00  0.0000000000000E+00
-0.7512575706216E+00  0.2557099063339E+00  0.0000000000000E+00
-0.7752677857712E+00  0.2966322699610E+00  0.0000000000000E+00
-0.7992780009209E+00  0.3375546335882E+00  0.0000000000000E+00
-0.3339899907783E+00 -0.3958444358955E+00  0.0000000000000E+00
-0.3558893495395E+00 -0.3561153468993E+00  0.0000000000000E+00
-0.3777887083006E+00 -0.3163862579032E+00  0.0000000000000E+00
-0.3996880670618E+00 -0.2766571689070E+00  0.0000000000000E+00
-0.4215874258230E+00 -0.2369280799109E+00  0.0000000000000E+00
-0.4434867845841E+00 -0.1971989909147E+00  0.0000000000000E+00
-0.4653861433453E+00 -0.1574699019185E+00  0.0000000000000E+00
-0.4872855021064E+00 -0.1177408129224E+00  0.0000000000000E+00
-0.5091848608676E+00 -0.7801172392620E-01  0.0000000000000E+00
-0.5310842196287E+00 -0.3828263493003E-01  0.0000000000000E+00
-0.5529835783899E+00  0.1446454066132E-02  0.0000000000000E+00
-0.5748829371510E+00  0.4117554306230E-01  0.0000000000000E+00
-0.5967822959122E+00  0.8090463205846E-01  0.0000000000000E+00
-0.6186816546733E+00  0.1206337210546E+00  0.0000000000000E+00
-0.6405810134345E+00  0.1603628100508E+00  0.0000000000000E+00
-0.6624803721956E+00  0.2000918990470E+00  0.0000000000000E+00
-0.6843797309568E+00  0.2398209880431E+00  0.0000000000000E+00
-0.7062790897179E+00  0.2795500770393E+00  0.0000000000000E+00
-0.7281784484791E+00  0.3192791660354E+00  0.0000000000000E+00
-0.3008163579508E+00 -0.3929631427710E+00  0.0000000000000E+00
-0.3205906658870E+00 -0.3543402622484E+00  0.0000000000000E+00
-0.3403649738232E+00 -0.3157173817257E+00  0.0000000000000E+00
-0.3601392817595E+00 -0.2770945012030E+00  0.0000000000000E+00
-0.3799135896957E+00 -0.2384716206803E+00  0.0000000000000E+00
-0.3996878976320E+00 -0.1998487401576E+00  0.0000000000000E+00
-0.4194622055682E+00 -0.1612258596350E+00  0.0000000000000E+00
-0.4392365135044E+00 -0.1226029791123E+00  0.0000000000000E+00
-0.4590108214407E+00 -0.8398009858960E-01  0.0000000000000E+00
-0.4787851293769E+00 -0.4535721806692E-01  0.0000000000000E+00
-0.4985594373131E+00 -0.6734337544235E-02  0.0000000000000E+00
-0.5183337452494E+00  0.3188854297845E-01  0.0000000000000E+00
-0.5381080531856E+00  0.7051142350113E-01  0.0000000000000E+00
-0.5578823611218E+00  0.1091343040238E+00  0.0000000000000E+00
-0.5776566690581E+00  0.1477571845465E+00  0.0000000000000E+00
-0.5974309769943E+00  0.1863800650692E+00  0.0000000000000E+00
-0.6172052849306E+00  0.2250029455919E+00  0.0000000000000E+00
-0.6369795928668E+00  0.2636258261145E+00  0.0000000000000E+00
-0.6567539008030E+00  0.3022487066372E+00  0.0000000000000E+00
-0.2675697753590E+00 -0.3903634585794E+00  0.0000000000000E+00
-0.2851962171292E+00 -0.3527163567611E+00  0.0000000000000E+00
-0.3028226588994E+00 -0.3150692549428E+00  0.0000000000000E+00
-0.3204491006696E+00 -0.2774221531245E+00  0.0000000000000E+00
-0.3380755424398E+00 -0.2397750513062E+00  0.0000000000000E+00
-0.3557019842100E+00 -0.2021279494878E+00  0.0000000000000E+00
-0.3733284259802E+00 -0.1644808476695E+00  0.0000000000000E+00
-0.3909548677504E+00 -0.1268337458512E+00  0.0000000000000E+00
-0.4085813095206E+00 -0.8918664403293E-01  0.0000000000000E+00
-0.4262077512908E+00 -0.5153954221463E-01  0.0000000000000E+00
-0.4438341930610E+00 -0.1389244039632E-01  0.0000000000000E+00
-0.4614606348312E+00  0.2375466142199E-01  0.0000000000000E+00
-0.4790870766014E+00  0.6140176324029E-01  0.0000000000000E+00
-0.4967135183717E+00  0.9904886505860E-01  0.0000000000000E+00
-0.5143399601419E+00  0.1366959668769E+00  0.0000000000000E+00
-0.5319664019121E+00  0.1743430686952E+00  0.0000000000000E+00
-0.5495928436823E+00  0.2119901705135E+00  0.0000000000000E+00
-0.5672192854525E+00  0.2496372723318E+00  0.0000000000000E+00
-0.5848457272227E+00  0.2872843741501E+00  0.0000000000000E+00
-0.2342578969919E+00 -0.3880438745316E+00  0.0000000000000E+00
-0.2497160431228E+00 -0.3512380881835E+00  0.0000000000000E+00
-0.2651741892537E+00 -0.3144323018355E+00  0.0000000000000E+00
-0.2806323353846E+00 -0.2776265154874E+00  0.0000000000000E+00
-0.2960904815155E+00 -0.2408207291393E+00  0.0000000000000E+00
-0.3115486276463E+00 -0.2040149427913E+00  0.0000000000000E+00
-0.3270067737772E+00 -0.1672091564432E+00  0.0000000000000E+00
-0.3424649199081E+00 -0.1304033700952E+00  0.0000000000000E+00
-0.3579230660390E+00 -0.9359758374711E-01  0.0000000000000E+00
-0.3733812121699E+00 -0.5679179739905E-01  0.0000000000000E+00
-0.3888393583008E+00 -0.1998601105098E-01  0.0000000000000E+00
-0.4042975044317E+00  0.1681977529708E-01  0.0000000000000E+00
-0.4197556505626E+00  0.5362556164514E-01  0.0000000000000E+00
-0.4352137966935E+00  0.9043134799320E-01  0.0000000000000E+00
-0.4506719428244E+00  0.1272371343413E+00  0.0000000000000E+00
-0.4661300889553E+00  0.1640429206893E+00  0.0000000000000E+00
-0.4815882350862E+00  0.2008487070374E+00  0.0000000000000E+00
-0.4970463812171E+00  0.2376544933854E+00  0.0000000000000E+00
-0.5125045273480E+00  0.2744602797335E+00  0.0000000000000E+00
-0.2008905517879E+00 -0.3860140358384E+00  0.0000000000000E+00
-0.2141644306440E+00 -0.3499224952607E+00  0.0000000000000E+00
-0.2274383095000E+00 -0.3138309546829E+00  0.0000000000000E+00
-0.2407121883561E+00 -0.2777394141052E+00  0.0000000000000E+00
-0.2539860672121E+00 -0.2416478735275E+00  0.0000000000000E+00
-0.2672599460682E+00 -0.2055563329498E+00  0.0000000000000E+00
-0.2805338249242E+00 -0.1694647923721E+00  0.0000000000000E+00
-0.2938077037803E+00 -0.1333732517943E+00  0.0000000000000E+00
-0.3070815826363E+00 -0.9728171121661E-01  0.0000000000000E+00
-0.3203554614924E+00 -0.6119017063889E-01  0.0000000000000E+00
-0.3336293403484E+00 -0.2509863006116E-01  0.0000000000000E+00
-0.3469032192045E+00  0.1099291051656E-01  0.0000000000000E+00
-0.3601770980605E+00  0.4708445109428E-01  0.0000000000000E+00
-0.3734509769166E+00  0.8317599167200E-01  0.0000000000000E+00
-0.3867248557726E+00  0.1192675322497E+00  0.0000000000000E+00
-0.3999987346287E+00  0.1553590728274E+00  0.0000000000000E+00
-0.4132726134847E+00  0.1914506134052E+00  0.0000000000000E+00
-0.4265464923408E+00  0.2275421539829E+00  0.0000000000000E+00
-0.4398203711968E+00  0.2636336945606E+00  0.0000000000000E+00
-0.1674771093533E+00 -0.3842843495524E+00  0.0000000000000E+00
-0.1785546413643E+00 -0.3487884211107E+00  0.0000000000000E+00
-0.1896321733754E+00 -0.3132924926690E+00  0.0000000000000E+00
-0.2007097053864E+00 -0.2777965642273E+00  0.0000000000000E+00
-0.2117872373974E+00 -0.2423006357856E+00  0.0000000000000E+00
-0.2228647694084E+00 -0.2068047073439E+00  0.0000000000000E+00
-0.2339423014194E+00 -0.1713087789022E+00  0.0000000000000E+00
-0.2450198334305E+00 -0.1358128504605E+00  0.0000000000000E+00
-0.2560973654415E+00 -0.1003169220188E+00  0.0000000000000E+00
-0.2671748974525E+00 -0.6482099357711E-01  0.0000000000000E+00
-0.2782524294635E+00 -0.2932506513542E-01  0.0000000000000E+00
-0.2893299614745E+00  0.6170863306275E-02  0.0000000000000E+00
-0.3004074934856E+00  0.4166679174797E-01  0.0000000000000E+00
-0.3114850254966E+00  0.7716272018966E-01  0.0000000000000E+00
-0.3225625575076E+00  0.1126586486314E+00  0.0000000000000E+00
-0.3336400895186E+00  0.1481545770730E+00  0.0000000000000E+00
-0.3447176215296E+00  0.1836505055147E+00  0.0000000000000E+00
-0.3557951535407E+00  0.2191464339564E+00  0.0000000000000E+00
-0.3668726855517E+00  0.2546423623981E+00  0.0000000000000E+00
-0.1340261091775E+00 -0.3828631734966E+00  0.0000000000000E+00
-0.1428982089424E+00 -0.3478509012348E+00  0.0000000000000E+00
-0.1517703087072E+00 -0.3128386289729E+00  0.0000000000000E+00
-0.1606424084721E+00 -0.2778263567111E+00  0.0000000000000E+00
-0.1695145082369E+00 -0.2428140844493E+00  0.0000000000000E+00
-0.1783866080018E+00 -0.2078018121875E+00  0.0000000000000E+00
-0.1872587077666E+00 -0.1727895399257E+00  0.0000000000000E+00
-0.1961308075315E+00 -0.1377772676639E+00  0.0000000000000E+00
-0.2050029072963E+00 -0.1027649954021E+00  0.0000000000000E+00
-0.2138750070612E+00 -0.6775272314032E-01  0.0000000000000E+00
-0.2227471068260E+00 -0.3274045087851E-01  0.0000000000000E+00
-0.2316192065909E+00  0.2271821383293E-02  0.0000000000000E+00
-0.2404913063557E+00  0.3728409364510E-01  0.0000000000000E+00
-0.2493634061206E+00  0.7229636590690E-01  0.0000000000000E+00
-0.2582355058855E+00  0.1073086381687E+00  0.0000000000000E+00
-0.2671076056503E+00  0.1423209104305E+00  0.0000000000000E+00
-0.2759797054152E+00  0.1773331826923E+00  0.0000000000000E+00
-0.2848518051800E+00  0.2123454549541E+00  0.0000000000000E+00
-0.2937239049449E+00  0.2473577272159E+00  0.0000000000000E+00
-0.1005454709900E+00 -0.3817562677518E+00  0.0000000000000E+00
-0.1072053602565E+00 -0.3471200718438E+00  0.0000000000000E+00
-0.1138652495230E+00 -0.3124838759358E+00  0.0000000000000E+00
-0.1205251387895E+00 -0.2778476800278E+00  0.0000000000000E+00
-0.1271850280560E+00 -0.2432114841198E+00  0.0000000000000E+00
-0.1338449173226E+00 -0.2085752882118E+00  0.0000000000000E+00
-0.1405048065891E+00 -0.1739390923039E+00  0.0000000000000E+00
-0.1471646958556E+00 -0.1393028963959E+00  0.0000000000000E+00
-0.1538245851221E+00 -0.1046667004879E+00  0.0000000000000E+00
-0.1604844743886E+00 -0.7003050457989E-01  0.0000000000000E+00
-0.1671443636552E+00 -0.3539430867190E-01  0.0000000000000E+00
-0.1738042529217E+00 -0.7581127639062E-03  0.0000000000000E+00
-0.1804641421882E+00  0.3387808314408E-01  0.0000000000000E+00
-0.1871240314547E+00  0.6851427905207E-01  0.0000000000000E+00
-0.1937839207212E+00  0.1031504749601E+00  0.0000000000000E+00
-0.2004438099878E+00  0.1377866708681E+00  0.0000000000000E+00
-0.2071036992543E+00  0.1724228667760E+00  0.0000000000000E+00
-0.2137635885208E+00  0.2070590626840E+00  0.0000000000000E+00
-0.2204234777873E+00  0.2416952585920E+00  0.0000000000000E+00
-0.6704270627605E-01 -0.3809667730720E+00  0.0000000000000E+00
-0.7148545141935E-01 -0.3466011322144E+00  0.0000000000000E+00
-0.7592819656265E-01 -0.3122354913569E+00  0.0000000000000E+00
-0.8037094170595E-01 -0.2778698504993E+00  0.0000000000000E+00
-0.8481368684925E-01 -0.2435042096418E+00  0.0000000000000E+00
-0.8925643199255E-01 -0.2091385687842E+00  0.0000000000000E+00
-0.9369917713585E-01 -0.1747729279267E+00  0.0000000000000E+00
-0.9814192227916E-01 -0.1404072870692E+00  0.0000000000000E+00
-0.1025846674225E+00 -0.1060416462116E+00  0.0000000000000E+00
-0.1070274125658E+00 -0.7167600535407E-01  0.0000000000000E+00
-0.1114701577091E+00 -0.3731036449652E-01  0.0000000000000E+00
-0.1159129028524E+00 -0.2944723638973E-02  0.0000000000000E+00
-0.1203556479957E+00  0.3142091721857E-01  0.0000000000000E+00
-0.1247983931390E+00  0.6578655807612E-01  0.0000000000000E+00
-0.1292411382823E+00  0.1001521989337E+00  0.0000000000000E+00
-0.1336838834256E+00  0.1345178397912E+00  0.0000000000000E+00
-0.1381266285689E+00  0.1688834806488E+00  0.0000000000000E+00
-0.1425693737122E+00  0.2032491215063E+00  0.0000000000000E+00
-0.1470121188555E+00  0.2376147623638E+00  0.0000000000000E+00
-0.3352511022345E-01 -0.3804951770728E+00  0.0000000000000E+00
-0.3574736497451E-01 -0.3462942814123E+00  0.0000000000000E+00
-0.3796961972557E-01 -0.3120933857518E+00  0.0000000000000E+00
-0.4019187447663E-01 -0.2778924900913E+00  0.0000000000000E+00
-0.4241412922770E-01 -0.2436915944307E+00  0.0000000000000E+00
-0.4463638397876E-01 -0.2094906987702E+00  0.0000000000000E+00
-0.4685863872982E-01 -0.1752898031097E+00  0.0000000000000E+00
-0.4908089348088E-01 -0.1410889074492E+00  0.0000000000000E+00
-0.5130314823194E-01 -0.1068880117887E+00  0.0000000000000E+00
-0.5352540298300E-01 -0.7268711612818E-01  0.0000000000000E+00
-0.5574765773406E-01 -0.3848622046767E-01  0.0000000000000E+00
-0.5796991248513E-01 -0.4285324807157E-02  0.0000000000000E+00
-0.6019216723619E-01  0.2991557085336E-01  0.0000000000000E+00
-0.6241442198725E-01  0.6411646651387E-01  0.0000000000000E+00
-0.6463667673831E-01  0.9831736217438E-01  0.0000000000000E+00
-0.6685893148937E-01  0.1325182578349E+00  0.0000000000000E+00
-0.6908118624043E-01  0.1667191534954E+00  0.0000000000000E+00
-0.7130344099149E-01  0.2009200491559E+00  0.0000000000000E+00
-0.7352569574256E-01  0.2351209448164E+00  0.0000000000000E+00
-0.9110398056435E-10 -0.3803390679715E+00  0.0000000000000E+00
-0.1822079030259E-09 -0.3461942289011E+00  0.0000000000000E+00
-0.2733118393653E-09 -0.3120493898306E+00  0.0000000000000E+00
-0.3644157479491E-09 -0.2779045507602E+00  0.0000000000000E+00
-0.4555194483661E-09 -0.2437597116898E+00  0.0000000000000E+00
-0.5466233153165E-09 -0.2096148726194E+00  0.0000000000000E+00
-0.6377270712447E-09 -0.1754700335490E+00  0.0000000000000E+00
-0.7288309381951E-09 -0.1413251944785E+00  0.0000000000000E+00
-0.8199346941232E-09 -0.1071803554081E+00  0.0000000000000E+00
-0.9110384500514E-09 -0.7303551633770E-01  0.0000000000000E+00
-0.1002142205980E-08 -0.3889067726728E-01  0.0000000000000E+00
-0.1093246128441E-08 -0.4745838196866E-02  0.0000000000000E+00
-0.1184349828858E-08  0.2939900087355E-01  0.0000000000000E+00
-0.1275453529275E-08  0.6354383994397E-01  0.0000000000000E+00
-0.1366557229692E-08  0.9768867901439E-01  0.0000000000000E+00
-0.1457661263176E-08  0.1318335180848E+00  0.0000000000000E+00
-0.1548765074615E-08  0.1659783571552E+00  0.0000000000000E+00
-0.1639868886055E-08  0.2001231962256E+00  0.0000000000000E+00
-0.1730972586471E-08  0.2342680352961E+00  0.0000000000000E+00
 0.3352511004131E-01 -0.3804951770771E+00  0.0000000000000E+00
 0.3574736461023E-01 -0.3462942814209E+00  0.0000000000000E+00
 0.3796961917915E-01 -0.3120933857647E+00  0.0000000000000E+00
 0.4019187374807E-01 -0.2778924901086E+00  0.0000000000000E+00
 0.4241412831699E-01 -0.2436915944524E+00  0.0000000000000E+00
 0.4463638288591E-01 -0.2094906987962E+00  0.0000000000000E+00
 0.4685863745483E-01 -0.1752898031400E+00  0.0000000000000E+00
 0.4908089202375E-01 -0.1410889074838E+00  0.0000000000000E+00
 0.5130314659267E-01 -0.1068880118276E+00  0.0000000000000E+00
 0.5352540116158E-01 -0.7268711617143E-01  0.0000000000000E+00
 0.5574765573050E-01 -0.3848622051524E-01  0.0000000000000E+00
 0.5796991029942E-01 -0.4285324859053E-02  0.0000000000000E+00
 0.6019216486834E-01  0.2991557079713E-01  0.0000000000000E+00
 0.6241441943726E-01  0.6411646645332E-01  0.0000000000000E+00
 0.6463667400618E-01  0.9831736210951E-01  0.0000000000000E+00
 0.6685892857510E-01  0.1325182577657E+00  0.0000000000000E+00
 0.6908118314402E-01  0.1667191534219E+00  0.0000000000000E+00
 0.7130343771294E-01  0.2009200490781E+00  0.0000000000000E+00
 0.7352569228186E-01  0.2351209447343E+00  0.0000000000000E+00
 0.6704270609402E-01 -0.3809667730804E+00  0.0000000000000E+00
 0.7148545105530E-01 -0.3466011322313E+00  0.0000000000000E+00
 0.7592819601657E-01 -0.3122354913822E+00  0.0000000000000E+00
 0.8037094097785E-01 -0.2778698505331E+00  0.0000000000000E+00
 0.8481368593912E-01 -0.2435042096840E+00  0.0000000000000E+00
 0.8925643090040E-01 -0.2091385688349E+00  0.0000000000000E+00
 0.9369917586167E-01 -0.1747729279858E+00  0.0000000000000E+00
 0.9814192082294E-01 -0.1404072871367E+00  0.0000000000000E+00
 0.1025846657842E+00 -0.1060416462876E+00  0.0000000000000E+00
 0.1070274107455E+00 -0.7167600543851E-01  0.0000000000000E+00
 0.1114701557068E+00 -0.3731036458941E-01  0.0000000000000E+00
 0.1159129006680E+00 -0.2944723740310E-02  0.0000000000000E+00
 0.1203556456293E+00  0.3142091710879E-01  0.0000000000000E+00
 0.1247983905906E+00  0.6578655795789E-01  0.0000000000000E+00
 0.1292411355519E+00  0.1001521988070E+00  0.0000000000000E+00
 0.1336838805131E+00  0.1345178396561E+00  0.0000000000000E+00
 0.1381266254744E+00  0.1688834805052E+00  0.0000000000000E+00
 0.1425693704357E+00  0.2032491213543E+00  0.0000000000000E+00
 0.1470121153970E+00  0.2376147622034E+00  0.0000000000000E+00
 0.1005454708081E+00 -0.3817562677643E+00  0.0000000000000E+00
 0.1072053598928E+00 -0.3471200718688E+00  0.0000000000000E+00
 0.1138652489775E+00 -0.3124838759733E+00  0.0000000000000E+00
 0.1205251380622E+00 -0.2778476800778E+00  0.0000000000000E+00
 0.1271850271469E+00 -0.2432114841823E+00  0.0000000000000E+00
 0.1338449162316E+00 -0.2085752882868E+00  0.0000000000000E+00
 0.1405048053163E+00 -0.1739390923913E+00  0.0000000000000E+00
 0.1471646944009E+00 -0.1393028964959E+00  0.0000000000000E+00
 0.1538245834856E+00 -0.1046667006004E+00  0.0000000000000E+00
 0.1604844725703E+00 -0.7003050470487E-01  0.0000000000000E+00
 0.1671443616550E+00 -0.3539430880938E-01  0.0000000000000E+00
 0.1738042507397E+00 -0.7581129138917E-03  0.0000000000000E+00
 0.1804641398244E+00  0.3387808298160E-01  0.0000000000000E+00
 0.1871240289091E+00  0.6851427887709E-01  0.0000000000000E+00
 0.1937839179937E+00  0.1031504747726E+00  0.0000000000000E+00
 0.2004438070784E+00  0.1377866706681E+00  0.0000000000000E+00
 0.2071036961631E+00  0.1724228665636E+00  0.0000000000000E+00
 0.2137635852478E+00  0.2070590624591E+00  0.0000000000000E+00
 0.2204234743325E+00  0.2416952583545E+00  0.0000000000000E+00
 0.1340261089962E+00 -0.3828631735131E+00  0.0000000000000E+00
 0.1428982085797E+00 -0.3478509012679E+00  0.0000000000000E+00
 0.1517703081632E+00 -0.3128386290227E+00  0.0000000000000E+00
 0.1606424077467E+00 -0.2778263567775E+00  0.0000000000000E+00
 0.1695145073302E+00 -0.2428140845323E+00  0.0000000000000E+00
 0.1783866069137E+00 -0.2078018122871E+00  0.0000000000000E+00
 0.1872587064972E+00 -0.1727895400418E+00  0.0000000000000E+00
 0.1961308060807E+00 -0.1377772677966E+00  0.0000000000000E+00
 0.2050029056642E+00 -0.1027649955514E+00  0.0000000000000E+00
 0.2138750052477E+00 -0.6775272330619E-01  0.0000000000000E+00
 0.2227471048312E+00 -0.3274045106098E-01  0.0000000000000E+00
 0.2316192044147E+00  0.2271821184241E-02  0.0000000000000E+00
 0.2404913039982E+00  0.3728409342946E-01  0.0000000000000E+00
 0.2493634035817E+00  0.7229636567468E-01  0.0000000000000E+00
 0.2582355031652E+00  0.1073086379199E+00  0.0000000000000E+00
 0.2671076027487E+00  0.1423209101651E+00  0.0000000000000E+00
 0.2759797023322E+00  0.1773331824103E+00  0.0000000000000E+00
 0.2848518019157E+00  0.2123454546555E+00  0.0000000000000E+00
 0.2937239014992E+00  0.2473577269008E+00  0.0000000000000E+00
 0.1674771091722E+00 -0.3842843495732E+00  0.0000000000000E+00
 0.1785546410022E+00 -0.3487884211524E+00  0.0000000000000E+00
 0.1896321728322E+00 -0.3132924927316E+00  0.0000000000000E+00
 0.2007097046621E+00 -0.2777965643107E+00  0.0000000000000E+00
 0.2117872364921E+00 -0.2423006358899E+00  0.0000000000000E+00
 0.2228647683220E+00 -0.2068047074691E+00  0.0000000000000E+00
 0.2339423001520E+00 -0.1713087790483E+00  0.0000000000000E+00
 0.2450198319819E+00 -0.1358128506275E+00  0.0000000000000E+00
 0.2560973638119E+00 -0.1003169222066E+00  0.0000000000000E+00
 0.2671748956418E+00 -0.6482099378580E-01  0.0000000000000E+00
 0.2782524274718E+00 -0.2932506536498E-01  0.0000000000000E+00
 0.2893299593017E+00  0.6170863055847E-02  0.0000000000000E+00
 0.3004074911317E+00  0.4166679147667E-01  0.0000000000000E+00
 0.3114850229616E+00  0.7716271989750E-01  0.0000000000000E+00
 0.3225625547916E+00  0.1126586483183E+00  0.0000000000000E+00
 0.3336400866215E+00  0.1481545767391E+00  0.0000000000000E+00
 0.3447176184515E+00  0.1836505051600E+00  0.0000000000000E+00
 0.3557951502814E+00  0.2191464335808E+00  0.0000000000000E+00
 0.3668726821114E+00  0.2546423620016E+00  0.0000000000000E+00
 0.2008905516076E+00 -0.3860140358638E+00  0.0000000000000E+00
 0.2141644302833E+00 -0.3499224953114E+00  0.0000000000000E+00
 0.2274383089590E+00 -0.3138309547591E+00  0.0000000000000E+00
 0.2407121876348E+00 -0.2777394142068E+00  0.0000000000000E+00
 0.2539860663105E+00 -0.2416478736544E+00  0.0000000000000E+00
 0.2672599449862E+00 -0.2055563331021E+00  0.0000000000000E+00
 0.2805338236619E+00 -0.1694647925498E+00  0.0000000000000E+00
 0.2938077023376E+00 -0.1333732519975E+00  0.0000000000000E+00
 0.3070815810133E+00 -0.9728171144512E-01  0.0000000000000E+00
 0.3203554596891E+00 -0.6119017089279E-01  0.0000000000000E+00
 0.3336293383648E+00 -0.2509863034046E-01  0.0000000000000E+00
 0.3469032170405E+00  0.1099291021187E-01  0.0000000000000E+00
 0.3601770957162E+00  0.4708445076420E-01  0.0000000000000E+00
 0.3734509743919E+00  0.8317599131653E-01  0.0000000000000E+00
 0.3867248530677E+00  0.1192675318689E+00  0.0000000000000E+00
 0.3999987317434E+00  0.1553590724212E+00  0.0000000000000E+00
 0.4132726104191E+00  0.1914506129735E+00  0.0000000000000E+00
 0.4265464890948E+00  0.2275421535259E+00  0.0000000000000E+00
 0.4398203677705E+00  0.2636336940782E+00  0.0000000000000E+00
 0.2342578968120E+00 -0.3880438745619E+00  0.0000000000000E+00
 0.2497160427631E+00 -0.3512380882442E+00  0.0000000000000E+00
 0.2651741887142E+00 -0.3144323019265E+00  0.0000000000000E+00
 0.2806323346653E+00 -0.2776265156088E+00  0.0000000000000E+00
 0.2960904806164E+00 -0.2408207292911E+00  0.0000000000000E+00
 0.3115486265674E+00 -0.2040149429734E+00  0.0000000000000E+00
 0.3270067725185E+00 -0.1672091566557E+00  0.0000000000000E+00
 0.3424649184696E+00 -0.1304033703380E+00  0.0000000000000E+00
 0.3579230644207E+00 -0.9359758402027E-01  0.0000000000000E+00
 0.3733812103718E+00 -0.5679179770256E-01  0.0000000000000E+00
 0.3888393563228E+00 -0.1998601138485E-01  0.0000000000000E+00
 0.4042975022739E+00  0.1681977493285E-01  0.0000000000000E+00
 0.4197556482250E+00  0.5362556125056E-01  0.0000000000000E+00
 0.4352137941761E+00  0.9043134756827E-01  0.0000000000000E+00
 0.4506719401272E+00  0.1272371338860E+00  0.0000000000000E+00
 0.4661300860782E+00  0.1640429202037E+00  0.0000000000000E+00
 0.4815882320293E+00  0.2008487065214E+00  0.0000000000000E+00
 0.4970463779804E+00  0.2376544928391E+00  0.0000000000000E+00
 0.5125045239315E+00  0.2744602791568E+00  0.0000000000000E+00
 0.2675697751805E+00 -0.3903634586150E+00  0.0000000000000E+00
 0.2851962167721E+00 -0.3527163568323E+00  0.0000000000000E+00
 0.3028226583638E+00 -0.3150692550497E+00  0.0000000000000E+00
 0.3204490999555E+00 -0.2774221532670E+00  0.0000000000000E+00
 0.3380755415472E+00 -0.2397750514843E+00  0.0000000000000E+00
 0.3557019831389E+00 -0.2021279497017E+00  0.0000000000000E+00
 0.3733284247305E+00 -0.1644808479190E+00  0.0000000000000E+00
 0.3909548663222E+00 -0.1268337461363E+00  0.0000000000000E+00
 0.4085813079139E+00 -0.8918664435365E-01  0.0000000000000E+00
 0.4262077495056E+00 -0.5153954257098E-01  0.0000000000000E+00
 0.4438341910973E+00 -0.1389244078831E-01  0.0000000000000E+00
 0.4614606326889E+00  0.2375466099436E-01  0.0000000000000E+00
 0.4790870742806E+00  0.6140176277703E-01  0.0000000000000E+00
 0.4967135158723E+00  0.9904886455970E-01  0.0000000000000E+00
 0.5143399574640E+00  0.1366959663424E+00  0.0000000000000E+00
 0.5319663990557E+00  0.1743430681250E+00  0.0000000000000E+00
 0.5495928406473E+00  0.2119901699077E+00  0.0000000000000E+00
 0.5672192822390E+00  0.2496372716904E+00  0.0000000000000E+00
 0.5848457238307E+00  0.2872843734730E+00  0.0000000000000E+00
 0.3008163577734E+00 -0.3929631428122E+00  0.0000000000000E+00
 0.3205906655322E+00 -0.3543402623307E+00  0.0000000000000E+00
 0.3403649732910E+00 -0.3157173818492E+00  0.0000000000000E+00
 0.3601392810498E+00 -0.2770945013677E+00  0.0000000000000E+00
 0.3799135888087E+00 -0.2384716208863E+00  0.0000000000000E+00
 0.3996878965675E+00 -0.1998487404048E+00  0.0000000000000E+00
 0.4194622043263E+00 -0.1612258599233E+00  0.0000000000000E+00
 0.4392365120851E+00 -0.1226029794418E+00  0.0000000000000E+00
 0.4590108198439E+00 -0.8398009896027E-01  0.0000000000000E+00
 0.4787851276028E+00 -0.4535721847878E-01  0.0000000000000E+00
 0.4985594353616E+00 -0.6734337997284E-02  0.0000000000000E+00
 0.5183337431204E+00  0.3188854248421E-01  0.0000000000000E+00
 0.5381080508792E+00  0.7051142296571E-01  0.0000000000000E+00
 0.5578823586381E+00  0.1091343034472E+00  0.0000000000000E+00
 0.5776566663969E+00  0.1477571839287E+00  0.0000000000000E+00
 0.5974309741557E+00  0.1863800644102E+00  0.0000000000000E+00
 0.6172052819145E+00  0.2250029448917E+00  0.0000000000000E+00
 0.6369795896734E+00  0.2636258253732E+00  0.0000000000000E+00
 0.6567538974322E+00  0.3022487058547E+00  0.0000000000000E+00
 0.3339899906020E+00 -0.3958444359414E+00  0.0000000000000E+00
 0.3558893491867E+00 -0.3561153469911E+00  0.0000000000000E+00
 0.3777887077715E+00 -0.3163862580408E+00  0.0000000000000E+00
 0.3996880663563E+00 -0.2766571690905E+00  0.0000000000000E+00
 0.4215874249411E+00 -0.2369280801402E+00  0.0000000000000E+00
 0.4434867835259E+00 -0.1971989911899E+00  0.0000000000000E+00
 0.4653861421107E+00 -0.1574699022396E+00  0.0000000000000E+00
 0.4872855006954E+00 -0.1177408132894E+00  0.0000000000000E+00
 0.5091848592802E+00 -0.7801172433906E-01  0.0000000000000E+00
 0.5310842178650E+00 -0.3828263538877E-01  0.0000000000000E+00
 0.5529835764498E+00  0.1446453561517E-02  0.0000000000000E+00
 0.5748829350346E+00  0.4117554251181E-01  0.0000000000000E+00
 0.5967822936193E+00  0.8090463146210E-01  0.0000000000000E+00
 0.6186816522041E+00  0.1206337204124E+00  0.0000000000000E+00
 0.6405810107889E+00  0.1603628093627E+00  0.0000000000000E+00
 0.6624803693737E+00  0.2000918983130E+00  0.0000000000000E+00
 0.6843797279585E+00  0.2398209872633E+00  0.0000000000000E+00
 0.7062790865433E+00  0.2795500762135E+00  0.0000000000000E+00
 0.7281784451280E+00  0.3192791651638E+00  0.0000000000000E+00
 0.3670941280509E+00 -0.3990479117477E+00  0.0000000000000E+00
 0.3911043430246E+00 -0.3581255481675E+00  0.0000000000000E+00
 0.4151145579982E+00 -0.3172031845874E+00  0.0000000000000E+00
 0.4391247729718E+00 -0.2762808210073E+00  0.0000000000000E+00
 0.4631349879455E+00 -0.2353584574271E+00  0.0000000000000E+00
 0.4871452029191E+00 -0.1944360938470E+00  0.0000000000000E+00
 0.5111554178927E+00 -0.1535137302669E+00  0.0000000000000E+00
 0.5351656328664E+00 -0.1125913666867E+00  0.0000000000000E+00
 0.5591758478400E+00 -0.7166900310660E-01  0.0000000000000E+00
 0.5831860628136E+00 -0.3074663952647E-01  0.0000000000000E+00
 0.6071962777873E+00  0.1017572405366E-01  0.0000000000000E+00
 0.6312064927609E+00  0.5109808763380E-01  0.0000000000000E+00
 0.6552167077345E+00  0.9202045121393E-01  0.0000000000000E+00
 0.6792269227082E+00  0.1329428147941E+00  0.0000000000000E+00
 0.7032371376818E+00  0.1738651783742E+00  0.0000000000000E+00
 0.7272473526555E+00  0.2147875419543E+00  0.0000000000000E+00
 0.7512575676291E+00  0.2557099055345E+00  0.0000000000000E+00
 0.7752677826027E+00  0.2966322691146E+00  0.0000000000000E+00
 0.7992779975764E+00  0.3375546326947E+00  0.0000000000000E+00
 0.4001452658322E+00 -0.4026538268434E+00  0.0000000000000E+00
 0.4262736919301E+00 -0.3605344242716E+00  0.0000000000000E+00
 0.4524021180279E+00 -0.3184150216998E+00  0.0000000000000E+00
 0.4785305441258E+00 -0.2762956191280E+00  0.0000000000000E+00
 0.5046589702237E+00 -0.2341762165562E+00  0.0000000000000E+00
 0.5307873963216E+00 -0.1920568139844E+00  0.0000000000000E+00
 0.5569158224194E+00 -0.1499374114126E+00  0.0000000000000E+00
 0.5830442485173E+00 -0.1078180088408E+00  0.0000000000000E+00
 0.6091726746152E+00 -0.6569860626900E-01  0.0000000000000E+00
 0.6353011007131E+00 -0.2357920369720E-01  0.0000000000000E+00
 0.6614295268109E+00  0.1854019887460E-01  0.0000000000000E+00
 0.6875579529088E+00  0.6065960144641E-01  0.0000000000000E+00
 0.7136863790067E+00  0.1027790040182E+00  0.0000000000000E+00
 0.7398148051046E+00  0.1448984065900E+00  0.0000000000000E+00
 0.7659432312024E+00  0.1870178091618E+00  0.0000000000000E+00
 0.7920716573003E+00  0.2291372117336E+00  0.0000000000000E+00
 0.8182000833982E+00  0.2712566143054E+00  0.0000000000000E+00
 0.8443285094961E+00  0.3133760168772E+00  0.0000000000000E+00
 0.8704569355939E+00  0.3554954194490E+00  0.0000000000000E+00
 0.4331566792210E+00 -0.4067328541253E+00  0.0000000000000E+00
 0.4614288245888E+00 -0.3634866018376E+00  0.0000000000000E+00
 0.4897009699565E+00 -0.3202403495500E+00  0.0000000000000E+00
 0.5179731153242E+00 -0.2769940972623E+00  0.0000000000000E+00
 0.5462452606920E+00 -0.2337478449747E+00  0.0000000000000E+00
 0.5745174060597E+00 -0.1905015926870E+00  0.0000000000000E+00
 0.6027895514275E+00 -0.1472553403993E+00  0.0000000000000E+00
 0.6310616967952E+00 -0.1040090881117E+00  0.0000000000000E+00
 0.6593338421629E+00 -0.6076283582400E-01  0.0000000000000E+00
 0.6876059875307E+00 -0.1751658353633E-01  0.0000000000000E+00
 0.7158781328984E+00  0.2572966875133E-01  0.0000000000000E+00
 0.7441502782662E+00  0.6897592103899E-01  0.0000000000000E+00
 0.7724224236339E+00  0.1122221733267E+00  0.0000000000000E+00
 0.8006945690017E+00  0.1554684256143E+00  0.0000000000000E+00
 0.8289667143694E+00  0.1987146779020E+00  0.0000000000000E+00
 0.8572388597371E+00  0.2419609301896E+00  0.0000000000000E+00
 0.8855110051049E+00  0.2852071824773E+00  0.0000000000000E+00
 0.9137831504726E+00  0.3284534347650E+00  0.0000000000000E+00
 0.9420552958404E+00  0.3716996870526E+00  0.0000000000000E+00
 0.4661358892480E+00 -0.4113546121035E+00  0.0000000000000E+00
 0.4965895943463E+00 -0.3671248415798E+00  0.0000000000000E+00
 0.5270432994446E+00 -0.3228950710562E+00  0.0000000000000E+00
 0.5574970045428E+00 -0.2786653005325E+00  0.0000000000000E+00
 0.5879507096411E+00 -0.2344355300089E+00  0.0000000000000E+00
 0.6184044147394E+00 -0.1902057594852E+00  0.0000000000000E+00
 0.6488581198376E+00 -0.1459759889615E+00  0.0000000000000E+00
 0.6793118249359E+00 -0.1017462184379E+00  0.0000000000000E+00
 0.7097655300342E+00 -0.5751644791423E-01  0.0000000000000E+00
 0.7402192351324E+00 -0.1328667739058E-01  0.0000000000000E+00
 0.7706729402307E+00  0.3094309313308E-01  0.0000000000000E+00
 0.8011266453290E+00  0.7517286365674E-01  0.0000000000000E+00
 0.8315803504272E+00  0.1194026341804E+00  0.0000000000000E+00
 0.8620340555255E+00  0.1636324047041E+00  0.0000000000000E+00
 0.8924877606238E+00  0.2078621752277E+00  0.0000000000000E+00
 0.9229414657220E+00  0.2520919457514E+00  0.0000000000000E+00
 0.9533951708203E+00  0.2963217162750E+00  0.0000000000000E+00
 0.9838488759186E+00  0.3405514867987E+00  0.0000000000000E+00
 0.1014302581017E+01  0.3847812573223E+00  0.0000000000000E+00
 0.4990802664438E+00 -0.4165840327379E+00  0.0000000000000E+00
 0.5317553215595E+00 -0.3715827348342E+00  0.0000000000000E+00
 0.5644303766752E+00 -0.3265814369305E+00  0.0000000000000E+00
 0.5971054317909E+00 -0.2815801390268E+00  0.0000000000000E+00
 0.6297804869067E+00 -0.2365788411232E+00  0.0000000000000E+00
 0.6624555420224E+00 -0.1915775432195E+00  0.0000000000000E+00
 0.6951305971381E+00 -0.1465762453158E+00  0.0000000000000E+00
 0.7278056522539E+00 -0.1015749474121E+00  0.0000000000000E+00
 0.7604807073696E+00 -0.5657364950839E-01  0.0000000000000E+00
 0.7931557624853E+00 -0.1157235160470E-01  0.0000000000000E+00
 0.8258308176011E+00  0.3342894629900E-01  0.0000000000000E+00
 0.8585058727168E+00  0.7843024420269E-01  0.0000000000000E+00
 0.8911809278325E+00  0.1234315421064E+00  0.0000000000000E+00
 0.9238559829483E+00  0.1684328400101E+00  0.0000000000000E+00
 0.9565310380640E+00  0.2134341379138E+00  0.0000000000000E+00
 0.9892060931797E+00  0.2584354358175E+00  0.0000000000000E+00
 0.1021881148295E+01  0.3034367337211E+00  0.0000000000000E+00
 0.1054556203411E+01  0.3484380316248E+00  0.0000000000000E+00
 0.1087231258527E+01  0.3934393295285E+00  0.0000000000000E+00
 0.5319747862026E+00 -0.4224941396770E+00  0.0000000000000E+00
 0.5669005035122E+00 -0.3770102860085E+00  0.0000000000000E+00
 0.6018262208219E+00 -0.3315264323400E+00  0.0000000000000E+00
 0.6367519381315E+00 -0.2860425786714E+00  0.0000000000000E+00
 0.6716776554412E+00 -0.2405587250029E+00  0.0000000000000E+00
 0.7066033727508E+00 -0.1950748713344E+00  0.0000000000000E+00
 0.7415290900604E+00 -0.1495910176658E+00  0.0000000000000E+00
 0.7764548073701E+00 -0.1041071639973E+00  0.0000000000000E+00
 0.8113805246797E+00 -0.5862331032874E-01  0.0000000000000E+00
 0.8463062419894E+00 -0.1313945666021E-01  0.0000000000000E+00
 0.8812319592990E+00  0.3234439700833E-01  0.0000000000000E+00
 0.9161576766086E+00  0.7782825067687E-01  0.0000000000000E+00
 0.9510833939183E+00  0.1233121043454E+00  0.0000000000000E+00
 0.9860091112279E+00  0.1687959580139E+00  0.0000000000000E+00
 0.1020934828538E+01  0.2142798116825E+00  0.0000000000000E+00
 0.1055860545847E+01  0.2597636653510E+00  0.0000000000000E+00
 0.1090786263157E+01  0.3052475190195E+00  0.0000000000000E+00
 0.1125711980466E+01  0.3507313726881E+00  0.0000000000000E+00
 0.1160637697776E+01  0.3962152263566E+00  0.0000000000000E+00
 0.5647851635818E+00 -0.4291779471573E+00  0.0000000000000E+00
 0.6019607638464E+00 -0.3835976335334E+00  0.0000000000000E+00
 0.6391363641111E+00 -0.3380173199096E+00  0.0000000000000E+00
 0.6763119643757E+00 -0.2924370062857E+00  0.0000000000000E+00
 0.7134875646404E+00 -0.2468566926618E+00  0.0000000000000E+00
 0.7506631649050E+00 -0.2012763790380E+00  0.0000000000000E+00
 0.7878387651697E+00 -0.1556960654141E+00  0.0000000000000E+00
 0.8250143654344E+00 -0.1101157517902E+00  0.0000000000000E+00
 0.8621899656990E+00 -0.6453543816633E-01  0.0000000000000E+00
 0.8993655659637E+00 -0.1895512454246E-01  0.0000000000000E+00
 0.9365411662283E+00  0.2662518908141E-01  0.0000000000000E+00
 0.9737167664930E+00  0.7220550270529E-01  0.0000000000000E+00
 0.1010892366758E+01  0.1177858163292E+00  0.0000000000000E+00
 0.1048067967022E+01  0.1633661299530E+00  0.0000000000000E+00
 0.1085243567287E+01  0.2089464435769E+00  0.0000000000000E+00
 0.1122419167552E+01  0.2545267572008E+00  0.0000000000000E+00
 0.1159594767816E+01  0.3001070708247E+00  0.0000000000000E+00
 0.1196770368081E+01  0.3456873844485E+00  0.0000000000000E+00
 0.1233945968346E+01  0.3912676980724E+00  0.0000000000000E+00
 0.5974622414189E+00 -0.4366441451446E+00  0.0000000000000E+00
 0.6368419582214E+00 -0.3913664748674E+00  0.0000000000000E+00
 0.6762216750239E+00 -0.3460888045901E+00  0.0000000000000E+00
 0.7156013918264E+00 -0.3008111343129E+00  0.0000000000000E+00
 0.7549811086289E+00 -0.2555334640357E+00  0.0000000000000E+00
 0.7943608254314E+00 -0.2102557937584E+00  0.0000000000000E+00
 0.8337405422339E+00 -0.1649781234812E+00  0.0000000000000E+00
 0.8731202590364E+00 -0.1197004532040E+00  0.0000000000000E+00
 0.9124999758389E+00 -0.7442278292673E-01  0.0000000000000E+00
 0.9518796926414E+00 -0.2914511264950E-01  0.0000000000000E+00
 0.9912594094439E+00  0.1613255762773E-01  0.0000000000000E+00
 0.1030639126246E+01  0.6141022790496E-01  0.0000000000000E+00
 0.1070018843049E+01  0.1066878981822E+00  0.0000000000000E+00
 0.1109398559851E+01  0.1519655684594E+00  0.0000000000000E+00
 0.1148778276654E+01  0.1972432387367E+00  0.0000000000000E+00
 0.1188157993456E+01  0.2425209090139E+00  0.0000000000000E+00
 0.1227537710259E+01  0.2877985792911E+00  0.0000000000000E+00
 0.1266917427061E+01  0.3330762495684E+00  0.0000000000000E+00
 0.1306297143864E+01  0.3783539198456E+00  0.0000000000000E+00
 0.6299559713731E+00 -0.4448788634348E+00  0.0000000000000E+00
 0.6714480731557E+00 -0.4002935754811E+00  0.0000000000000E+00
 0.7129401749383E+00 -0.3557082875275E+00  0.0000000000000E+00
 0.7544322767209E+00 -0.3111229995738E+00  0.0000000000000E+00
 0.7959243785035E+00 -0.2665377116201E+00  0.0000000000000E+00
 0.8374164802861E+00 -0.2219524236665E+00  0.0000000000000E+00
 0.8789085820687E+00 -0.1773671357128E+00  0.0000000000000E+00
 0.9204006838513E+00 -0.1327818477591E+00  0.0000000000000E+00
 0.9618927856339E+00 -0.8819655980548E-01  0.0000000000000E+00
 0.1003384887417E+01 -0.4361127185182E-01  0.0000000000000E+00
 0.1044876989199E+01  0.9740161018481E-03  0.0000000000000E+00
 0.1086369090982E+01  0.4555930405551E-01  0.0000000000000E+00
 0.1127861192764E+01  0.9014459200918E-01  0.0000000000000E+00
 0.1169353294547E+01  0.1347298799628E+00  0.0000000000000E+00
 0.1210845396330E+01  0.1793151679165E+00  0.0000000000000E+00
 0.1252337498112E+01  0.2239004558702E+00  0.0000000000000E+00
 0.1293829599895E+01  0.2684857438238E+00  0.0000000000000E+00
 0.1335321701677E+01  0.3130710317775E+00  0.0000000000000E+00
 0.1376813803460E+01  0.3576563197312E+00  0.0000000000000E+00
</DataArray>
</Points>
<Cells>
<DataArray type="Int64" Name="connectivity" format="ascii">
0 11 438 243
243 438 439 244
244 439 440 245
245 440 441 246
246 441 442 247
247 442 443 248
248 443 444 249
249 444 445 250
250 445 446 251
251 446 447 252
252 447 448 253
253 448 449 254
254 449 450 255
255 450 451 256
256 451 452 257
257 452 453 258
258 453 454 259
259 454 455 260
260 455 456 261
261 456 457 262
262 457 458 263
263 458 459 264
264 459 460 265
265 460 461 266
266 461 462 267
267 462 463 268
268 463 464 269
269 464 465 270
270 465 466 271
271 466 467 272
272 467 468 273
273 468 469 274
274 469 470 275
275 470 471 276
276 471 472 277
277 472 473 278
278 473 474 279
279 474 475 280
280 475 476 281
281 476 477 282
282 477 89 3
11 12 478 438
438 478 479 439
439 479 480 440
440 480 481 441
441 481 482 442
442 482 483 443
443 483 484 444
444 484 485 445
445 485 486 446
446 486 487 447
447 487 488 448
448 488 489 449
449 489 490 450
450 490 491 451
451 491 492 452
452 492 493 453
453 493 494 454
454 494 495 455
455 495 496 456
456 496 497 457
457 497 498 458
458 498 499 459
459 499 500 460
460 500 501 461
461 501 502 462
462 502 503 463
463 503 504 464
464 504 505 465
465 505 506 466
466 506 507 467
467 507 508 468
468 508 509 469
469 509 510 470
470 510 511 471
471 511 512 472
472 512 513 473
473 513 514 474
474 514 515 475
475 515 516 476
476 516 517 477
477 517 90 89
12 13 518 478
478 518 519 479
479 519 520 480
480 520 521 481
481 521 522 482
482 522 523 483
483 523 524 484
484 524 525 485
485 525 526 486
486 526 527 487
487 527 528 488
488 528 529 489
489 529 530 490
490 530 531 491
491 531 532 492
492 532 533 493
493 533 534 494
494 534 535 495
495 535 536 496
496 536 537 497
497 537 538 498
498 538 539 499
499 539 540 500
500 540 541 501
501 541 542 502
502 542 543 503
503 543 544 504
504 544 545 505
505 545 546 506
506 546 547 507
507 547 548 508
508 548 549 509
509 549 550 510
510 550 551 511
511 551 552 512
512 552 553 513
513 553 554 514
514 554 555 515
515 555 556 516
516 556 557 517
517 557 91 90
13 14 558 518
518 558 559 519
519 559 560 520
520 560 561 521
521 561 562 522
522 562 563 523
523 563 564 524
524 564 565 525
525 565 566 526
526 566 567 527
527 567 568 528
528 568 569 529
529 569 570 530
530 570 571 531
531 571 572 532
532 572 573 533
533 573 574 534
534 574 575 535
535 575 576 536
536 576 577 537
537 577 578 538
538 578 579 539
539 579 580 540
540 580 581 541
541 581 582 542
542 582 583 543
543 583 584 544
544 584 585 545
545 585 586 546
546 586 587 547
547 587 588 548
548 588 589 549
549 589 590 550
550 590 591 551
551 591 592 552
552 592 593 553
553 593 594 554
554 594 595 555
555 595 596 556
556 596 597 557
557 597 92 91
14 15 598 558
558 598 599 559
559 599 600 560
560 600 601 561
561 601 602 562
562 602 603 563
563 603 604 564
564 604 605 565
565 605 606 566
566 606 607 567
567 607 608 568
568 608 609 569
569 609 610 570
570 610 611 571
571 611 612 572
572 612 613 573
573 613 614 574
574 614 615 575
575 615 616 576
576 616 617 577
577 617 618 578
578 618 619 579
579 619 620 580
580 620 621 581
581 621 622 582
582 622 623 583
583 623 624 584
584 624 625 585
585 625 626 586
586 626 627 587
587 627 628 588
588 628 629 589
589 629 630 590
590 630 631 591
591 631 632 592
592 632 633 593
593 633 634 594
594 634 635 595
595 635 636 596
596 636 637 597
597 637 93 92
15 16 638 598
598 638 639 599
599 639 640 600
600 640 641 601
601 641 642 602
602 642 643 603
603 643 644 604
604 644 645 605
605 645 646 606
606 646 647 607
607 647 648 608
608 648 649 609
609 649 650 610
610 650 651 611
611 651 652 612
612 652 653 613
613 653 654 614
614 654 655 615
615 655 656 616
616 656 657 617
617 657 658 618
618 658 659 619
619 659 660 620
620 660 661 621
621 661 662 622
622 662 663 623
623 663 664 624
624 664 665 625
625 665 666 626
626 666 667 627
627 667 668 628
628 668 669 629
629 669 670 630
630 670 671 631
631 671 672 632
632 672 673 633
633 673 674 634
634 674 675 635
635 675 676 636
636 676 677 637
637 677 94 93
16 17 678 638
638 678 679 639
639 679 680 640
640 680 681 641
641 681 682 642
642 682 683 643
643 683 684 644
644 684 685 645
645 685 686 646
646 686 687 647
647 687 688 648
648 688 689 649
649 689 690 650
650 690 691 651
651 691 692 652
652 692 693 653
653 693 694 654
654 694 695 655
655 695 696 656
656 696 697 657
657 697 698 658
658 698 699 659
659 699 700 660
660 700 701 661
661 701 702 662
662 702 703 663
663 703 704 664
664 704 705 665
665 705 706 666
666 706 707 667
667 707 708 668
668 708 709 669
669 709 710 670
670 710 711 671
671 711 712 672
672 712 713 673
673 713 714 674
674 714 715 675
675 715 716 676
676 716 717 677
677 717 95 94
17 18 718 678
678 718 719 679
679 719 720 680
680 720 721 681
681 721 722 682
682 722 723 683
683 723 724 684
684 724 725 685
685 725 726 686
686 726 727 687
687 727 728 688
688 728 729 689
689 729 730 690
690 730 731 691
691 731 732 692
692 732 733 693
693 733 734 694
694 734 735 695
695 735 736 696
696 736 737 697
697 737 738 698
698 738 739 699
699 739 740 700
700 740 741 701
701 741 742 702
702 742 743 703
703 743 744 704
704 744 745 705
705 745 746 706
706 746 747 707
707 747 748 708
708 748 749 709
709 749 750 710
710 750 751 711
711 751 752 712
712 752 753 713
713 753 754 714
714 754 755 715
715 755 756 716
716 756 757 717
717 757 96 95
18 19 758 718
718 758 759 719
719 759 760 720
720 760 761 721
721 761 762 722
722 762 763 723
723 763 764 724
724 764 765 725
725 765 766 726
726 766 767 727
727 767 768 728
728 768 769 729
729 769 770 730
730 770 771 731
731 771 772 732
732 772 773 733
733 773 774 734
734 774 775 735
735 775 776 736
736 776 777 737
737 777 778 738
738 778 779 739
739 779 780 740
740 780 781 741
741 781 782 742
742 782 783 743
743 783 784 744
744 784 785 745
745 785 786 746
746 786 787 747
747 787 788 748
748 788 789 749
749 789 790 750
750 790 791 751
751 791 792 752
752 792 793 753
753 793 794 754
754 794 795 755
755 795 796 756
756 796 797 757
757 797 97 96
19 20 798 758
758 798 799 759
759 799 800 760
760 800 801 761
761 801 802 762
762 802 803 763
763 803 804 764
764 804 805 765
765 805 806 766
766 806 807 767
767 807 808 768
768 808 809 769
769 809 810 770
770 810 811 771
771 811 812 772
772 812 813 773
773 813 814 774
774 814 815 775
775 815 816 776
776 816 817 777
777 817 818 778
778 818 819 779
779 819 820 780
780 820 821 781
781 821 822 782
782 822 823 783
783 823 824 784
784 824 825 785
785 825 826 786
786 826 827 787
787 827 828 788
788 828 829 789
789 829 830 790
790 830 831 791
791 831 832 792
792 832 833 793
793 833 834 794
794 834 835 795
795 835 836 796
796 836 837 797
797 837 98 97
20 21 838 798
798 838 839 799
799 839 840 800
800 840 841 801
801 841 842 802
802 842 843 803
803 843 844 804
804 844 845 805
805 845 846 806
806 846 847 807
807 847 848 808
808 848 849 809
809 849 850 810
810 850 851 811
811 851 852 812
812 852 853 813
813 853 854 814
814 854 855 815
815 855 856 816
816 856 857 817
817 857 858 818
818 858 859 819
819 859 860 820
820 860 861 821
821 861 862 822
822 862 863 823
823 863 864 824
824 864 865 825
825 865 866 826
826 866 867 827
827 867 868 828
828 868 869 829
829 869 870 830
830 870 871 831
831 871 872 832
832 872 873 833
833 873 874 834
834 874 875 835
835 875 876 836
836 876 877 837
837 877 99 98
21 22 878 838
838 878 879 839
839 879 880 840
840 880 881 841
841 881 882 842
842 882 883 843
843 883 884 844
844 884 885 845
845 885 886 846
846 886 887 847
847 887 888 848
848 888 889 849
849 889 890 850
850 890 891 851
851 891 892 852
852 892 893 853
853 893 894 854
854 894 895 855
855 895 896 856
856 896 897 857
857 897 898 858
858 898 899 859
859 899 900 860
860 900 901 861
861 901 902 862
862 902 903 863
863 903 904 864
864 904 905 865
865 905 906 866
866 906 907 867
867 907 908 868
868 908 909 869
869 909 910 870
870 910 911 871
871 911 912 872
872 912 913 873
873 913 914 874
874 914 915 875
875 915 916 876
876 916 917 877
877 917 100 99
22 23 918 878
878 918 919 879
879 919 920 880
880 920 921 881
881 921 922 882
882 922 923 883
883 923 924 884
884 924 925 885
885 925 926 886
886 926 927 887
887 927 928 888
888 928 929 889
889 929 930 890
890 930 931 891
891 931 932 892
892 932 933 893
893 933 934 894
894 934 935 895
895 935 936 896
896 936 937 897
897 937 938 898
898 938 939 899
899 939 940 900
900 940 941 901
901 941 942 902
902 942 943 903
903 943 944 904
904 944 945 905
905 945 946 906
906 946 947 907
907 947 948 908
908 948 949 909
909 949 950 910
910 950 951 911
911 951 952 912
912 952 953 913
913 953 954 914
914 954 955 915
915 955 956 916
916 956 957 917
917 957 101 100
23 24 958 918
918 958 959 919
919 959 960 920
920 960 961 921
921 961 962 922
922 962 963 923
923 963 964 924
924 964 965 925
925 965 966 926
926 966 967 927
927 967 968 928
928 968 969 929
929 969 970 930
930 970 971 931
931 971 972 932
932 972 973 933
933 973 974 934
934 974 975 935
935 975 976 936
936 976 977 937
937 977 978 938
938 978 979 939
939 979 980 940
940 980 981 941
941 981 982 942
942 982 983 943
943 983 984 944
944 984 985 945
945 985 986 946
946 986 987 947
947 987 988 948
948 988 989 949
949 989 990 950
950 990 991 951
951 991 992 952
952 992 993 953
953 993 994 954
954 994 995 955
955 995 996 956
956 996 997 957
957 997 102 101
24 25 998 958
958 998 999 959
959 999 1000 960
960 1000 1001 961
961 1001 1002 962
962 1002 1003 963
963 1003 1004 964
964 1004 1005 965
965 1005 1006 966
966 1006 1007 967
967 1007 1008 968
968 1008 1009 969
969 1009 1010 970
970 1010 1011 971
971 1011 1012 972
972 1012 1013 973
973 1013 1014 974
974 1014 1015 975
975 1015 1016 976
976 1016 1017 977
977 1017 1018 978
978 1018 1019 979
979 1019 1020 980
980 1020 1021 981
981 1021 1022 982
982 1022 1023 983
983 1023 1024 984
984 1024 1025 985
985 1025 1026 986
986 1026 1027 987
987 1027 1028 988
988 1028 1029 989
989 1029 1030 990
990 1030 1031 991
991 1031 1032 992
992 1032 1033 993
993 1033 1034 994
994 1034 1035 995
995 1035 1036 996
996 1036 1037 997
997 1037 103 102
25 26 1038 998
998 1038 1039 999
999 1039 1040 1000
1000 1040 1041 1001
1001 1041 1042 1002
1002 1042 1043 1003
1003 1043 1044 1004
1004 1044 1045 1005
1005 1045 1046 1006
1006 1046 1047 1007
1007 1047 1048 1008
1008 1048 1049 1009
1009 1049 1050 1010
1010 1050 1051 1011
1011 1051 1052 1012
1012 1052 1053 1013
1013 1053 1054 1014
1014 1054 1055 1015
1015 1055 1056 1016
1016 1056 1057 1017
1017 1057 1058 1018
1018 1058 1059 1019
1019 1059 1060 1020
1020 1060 1061 1021
1021 1061 1062 1022
1022 1062 1063 1023
1023 1063 1064 1024
1024 1064 1065 1025
1025 1065 1066 1026
1026 1066 1067 1027
1027 1067 1068 1028
1028 1068 1069 1029
1029 1069 1070 1030
1030 1070 1071 1031
1031 1071 1072 1032
1032 1072 1073 1033
1033 1073 1074 1034
1034 1074 1075 1035
1035 1075 1076 1036
1036 1076 1077 1037
1037 1077 104 103
26 27 1078 1038
1038 1078 1079 1039
1039 1079 1080 1040
1040 1080 1081 1041
1041 1081 1082 1042
1042 1082 1083 1043
1043 1083 1084 1044
1044 1084 1085 1045
1045 1085 1086 1046
1046 1086 1087 1047
1047 1087 1088 1048
1048 1088 1089 1049
1049 1089 1090 1050
1050 1090 1091 1051
1051 1091 1092 1052
1052 1092 1093 1053
1053 1093 1094 1054
1054 1094 1095 1055
1055 1095 1096 1056
1056 1096 1097 1057
1057 1097 1098 1058
1058 1098 1099 1059
1059 1099 1100 1060
1060 1100 1101 1061
1061 1101 1102 1062
1062 1102 1103 1063
1063 1103 1104 1064
1064 1104 1105 1065
1065 1105 1106 1066
1066 1106 1107 1067
1067 1107 1108 1068
1068 1108 1109 1069
1069 1109 1110 1070
1070 1110 1111 1071
1071 1111 1112 1072
1072 1112 1113 1073
1073 1113 1114 1074
1074 1114 1115 1075
1075 1115 1116 1076
1076 1116 1117 1077
1077 1117 105 104
27 28 1118 1078
1078 1118 1119 1079
1079 1119 1120 1080
1080 1120 1121 1081
1081 1121 1122 1082
1082 1122 1123 1083
1083 1123 1124 1084
1084 1124 1125 1085
1085 1125 1126 1086
1086 1126 1127 1087
1087 1127 1128 1088
1088 1128 1129 1089
1089 1129 1130 1090
1090 1130 1131 1091
1091 1131 1132 1092
1092 1132 1133 1093
1093 1133 1134 1094
1094 1134 1135 1095
1095 1135 1136 1096
1096 1136 1137 1097
1097 1137 1138 1098
1098 1138 1139 1099
1099 1139 1140 1100
1100 1140 1141 1101
1101 1141 1142 1102
1102 1142 1143 1103
1103 1143 1144 1104
1104 1144 1145 1105
1105 1145 1146 1106
1106 1146 1147 1107
1107 1147 1148 1108
1108 1148 1149 1109
1109 1149 1150 1110
1110 1150 1151 1111
1111 1151 1152 1112
1112 1152 1153 1113
1113 1153 1154 1114
1114 1154 1155 1115
1115 1155 1156 1116
1116 1156 1157 1117
1117 1157 106 105
28 29 1158 1118
1118 1158 1159 1119
1119 1159 1160 1120
1120 1160 1161 1121
1121 1161 1162 1122
1122 1162 1163 1123
1123 1163 1164 1124
1124 1164 1165 1125
1125 1165 1166 1126
1126 1166 1167 1127
1127 1167 1168 1128
1128 1168 1169 1129
1129 1169 1170 1130
1130 1170 1171 1131
1131 1171 1172 1132
1132 1172 1173 1133
1133 1173 1174 1134
1134 1174 1175 1135
1135 1175 1176 1136
1136 1176 1177 1137
1137 1177 1178 1138
1138 1178 1179 1139
1139 1179 1180 1140
1140 1180 1181 1141
1141 1181 1182 1142
1142 1182 1183 1143
1143 1183 1184 1144
1144 1184 1185 1145
1145 1185 1186 1146
1146 1186 1187 1147
1147 1187 1188 1148
1148 1188 1189 1149
1149 1189 1190 1150
1150 1190 1191 1151
1151 1191 1192 1152
1152 1192 1193 1153
1153 1193 1194 1154
1154 1194 1195 1155
1155 1195 1196 1156
1156 1196 1197 1157
1157 1197 107 106
29 30 1198 1158
1158 1198 1199 1159
1159 1199 1200 1160
1160 1200 1201 1161
1161 1201 1202 1162
1162 1202 1203 1163
1163 1203 1204 1164
1164 1204 1205 1165
1165 1205 1206 1166
1166 1206 1207 1167
1167 1207 1208 1168
1168 1208 1209 1169
1169 1209 1210 1170
1170 1210 1211 1171
1171 1211 1212 1172
1172 1212 1213 1173
1173 1213 1214 1174
1174 1214 1215 1175
1175 1215 1216 1176
1176 1216 1217 1177
1177 1217 1218 1178
1178 1218 1219 1179
1179 1219 1220 1180
1180 1220 1221 1181
1181 1221 1222 1182
1182 1222 1223 1183
1183 1223 1224 1184
1184 1224 1225 1185
1185 1225 1226 1186
1186 1226 1227 1187
1187 1227 1228 1188
1188 1228 1229 1189
1189 1229 1230 1190
1190 1230 1231 1191
1191 1231 1232 1192
1192 1232 1233 1193
1193 1233 1234 1194
1194 1234 1235 1195
1195 1235 1236 1196
1196 1236 1237 1197
1197 1237 4 107
30 31 1238 1198
1198 1238 1239 1199
1199 1239 1240 1200
1200 1240 1241 1201
1201 1241 1242 1202
1202 1242 1243 1203
1203 1243 1244 1204
1204 1244 1245 1205
1205 1245 1246 1206
1206 1246 1247 1207
1207 1247 1248 1208
1208 1248 1249 1209
1209 1249 1250 1210
1210 1250 1251 1211
1211 1251 1252 1212
1212 1252 1253 1213
1213 1253 1254 1214
1214 1254 1255 1215
1215 1255 1256 1216
1216 1256 1257 1217
1217 1257 1258 1218
1218 1258 1259 1219
1219 1259 1260 1220
1220 1260 1261 1221
1221 1261 1262 1222
1222 1262 1263 1223
1223 1263 1264 1224
1224 1264 1265 1225
1225 1265 1266 1226
1226 1266 1267 1227
1227 1267 1268 1228
1228 1268 1269 1229
1229 1269 1270 1230
1230 1270 1271 1231
1231 1271 1272 1232
1232 1272 1273 1233
1233 1273 1274 1234
1234 1274 1275 1235
1235 1275 1276 1236
1236 1276 1277 1237
1237 1277 108 4
31 32 1278 1238
1238 1278 1279 1239
1239 1279 1280 1240
1240 1280 1281 1241
1241 1281 1282 1242
1242 1282 1283 1243
1243 1283 1284 1244
1244 1284 1285 1245
1245 1285 1286 1246
1246 1286 1287 1247
1247 1287 1288 1248
1248 1288 1289 1249
1249 1289 1290 1250
1250 1290 1291 1251
1251 1291 1292 1252
1252 1292 1293 1253
1253 1293 1294 1254
1254 1294 1295 1255
1255 1295 1296 1256
1256 1296 1297 1257
1257 1297 1298 1258
1258 1298 1299 1259
1259 1299 1300 1260
1260 1300 1301 1261
1261 1301 1302 1262
1262 1302 1303 1263
1263 1303 1304 1264
1264 1304 1305 1265
1265 1305 1306 1266
1266 1306 1307 1267
1267 1307 1308 1268
1268 1308 1309 1269
1269 1309 1310 1270
1270 1310 1311 1271
1271 1311 1312 1272
1272 1312 1313 1273
1273 1313 1314 1274
1274 1314 1315 1275
1275 1315 1316 1276
1276 1316 1317 1277
1277 1317 109 108
32 33 1318 1278
1278 1318 1319 1279
1279 1319 1320 1280
1280 1320 1321 1281
1281 1321 1322 1282
1282 1322 1323 1283
1283 1323 1324 1284
1284 1324 1325 1285
1285 1325 1326 1286
1286 1326 1327 1287
1287 1327 1328 1288
1288 1328 1329 1289
1289 1329 1330 1290
1290 1330 1331 1291
1291 1331 1332 1292
1292 1332 1333 1293
1293 1333 1334 1294
1294 1334 1335 1295
1295 1335 1336 1296
1296 1336 1337 1297
1297 1337 1338 1298
1298 1338 1339 1299
1299 1339 1340 1300
1300 1340 1341 1301
1301 1341 1342 1302
1302 1342 1343 1303
1303 1343 1344 1304
1304 1344 1345 1305
1305 1345 1346 1306
1306 1346 1347 1307
1307 1347 1348 1308
1308 1348 1349 1309
1309 1349 1350 1310
1310 1350 1351 1311
1311 1351 1352 1312
1312 1352 1353 1313
1313 1353 1354 1314
1314 1354 1355 1315
1315 1355 1356 1316
1316 1356 1357 1317
1317 1357 110 109
33 34 1358 1318
1318 1358 1359 1319
1319 1359 1360 1320
1320 1360 1361 1321
1321 1361 1362 1322
1322 1362 1363 1323
1323 1363 1364 1324
1324 1364 1365 1325
1325 1365 1366 1326
1326 1366 1367 1327
1327 1367 1368 1328
1328 1368 1369 1329
1329 1369 1370 1330
1330 1370 1371 1331
1331 1371 1372 1332
1332 1372 1373 1333
1333 1373 1374 1334
1334 1374 1375 1335
1335 1375 1376 1336
1336 1376 1377 1337
1337 1377 1378 1338
1338 1378 1379 1339
1339 1379 1380 1340
1340 1380 1381 1341
1341 1381 1382 1342
1342 1382 1383 1343
1343 1383 1384 1344
1344 1384 1385 1345
1345 1385 1386 1346
1346 1386 1387 1347
1347 1387 1388 1348
1348 1388 1389 1349
1349 1389 1390 1350
1350 1390 1391 1351
1351 1391 1392 1352
1352 1392 1393 1353
1353 1393 1394 1354
1354 1394 1395 1355
1355 1395 1396 1356
1356 1396 1397 1357
1357 1397 111 110
34 35 1398 1358
1358 1398 1399 1359
1359 1399 1400 1360
1360 1400 1401 1361
1361 1401 1402 1362
1362 1402 1403 1363
1363 1403 1404 1364
1364 1404 1405 1365
1365 1405 1406 1366
1366 1406 1407 1367
1367 1407 1408 1368
1368 1408 1409 1369
1369 1409 1410 1370
1370 1410 1411 1371
1371 1411 1412 1372
1372 1412 1413 1373
1373 1413 1414 1374
1374 1414 1415 1375
1375 1415 1416 1376
1376 1416 1417 1377
1377 1417 1418 1378
1378 1418 1419 1379
1379 1419 1420 1380
1380 1420 1421 1381
1381 1421 1422 1382
1382 1422 1423 1383
1383 1423 1424 1384
1384 1424 1425 1385
1385 1425 1426 1386
1386 1426 1427 1387
1387 1427 1428 1388
1388 1428 1429 1389
1389 1429 1430 1390
1390 1430 1431 1391
1391 1431 1432 1392
1392 1432 1433 1393
1393 1433 1434 1394
1394 1434 1435 1395
1395 1435 1436 1396
1396 1436 1437 1397
1397 1437 112 111
35 36 1438 1398
1398 1438 1439 1399
1399 1439 1440 1400
1400 1440 1441 1401
1401 1441 1442 1402
1402 1442 1443 1403
1403 1443 1444 1404
1404 1444 1445 1405
1405 1445 1446 1406
1406 1446 1447 1407
1407 1447 1448 1408
1408 1448 1449 1409
1409 1449 1450 1410
1410 1450 1451 1411
1411 1451 1452 1412
1412 1452 1453 1413
1413 1453 1454 1414
1414 1454 1455 1415
1415 1455 1456 1416
1416 1456 1457 1417
1417 1457 1458 1418
1418 1458 1459 1419
1419 1459 1460 1420
1420 1460 1461 1421
1421 1461 1462 1422
1422 1462 1463 1423
1423 1463 1464 1424
1424 1464 1465 1425
1425 1465 1466 1426
1426 1466 1467 1427
1427 1467 1468 1428
1428 1468 1469 1429
1429 1469 1470 1430
1430 1470 1471 1431
1431 1471 1472 1432
1432 1472 1473 1433
1433 1473 1474 1434
1434 1474 1475 1435
1435 1475 1476 1436
1436 1476 1477 1437
1437 1477 113 112
36 37 1478 1438
1438 1478 1479 1439
1439 1479 1480 1440
1440 1480 1481 1441
1441 1481 1482 1442
1442 1482 1483 1443
1443 1483 1484 1444
1444 1484 1485 1445
1445 1485 1486 1446
1446 1486 1487 1447
1447 1487 1488 1448
1448 1488 1489 1449
1449 1489 1490 1450
1450 1490 1491 1451
1451 1491 1492 1452
1452 1492 1493 1453
1453 1493 1494 1454
1454 1494 1495 1455
1455 1495 1496 1456
1456 1496 1497 1457
1457 1497 1498 1458
1458 1498 1499 1459
1459 1499 1500 1460
1460 1500 1501 1461
1461 1501 1502 1462
1462 1502 1503 1463
1463 1503 1504 1464
1464 1504 1505 1465
1465 1505 1506 1466
1466 1506 1507 1467
1467 1507 1508 1468
1468 1508 1509 1469
1469 1509 1510 1470
1470 1510 1511 1471
1471 1511 1512 1472
1472 1512 1513 1473
1473 1513 1514 1474
1474 1514 1515 1475
1475 1515 1516 1476
1476 1516 1517 1477
1477 1517 114 113
37 38 1518 1478
1478 1518 1519 1479
1479 1519 1520 1480
1480 1520 1521 1481
1481 1521 1522 1482
1482 1522 1523 1483
1483 1523 1524 1484
1484 1524 1525 1485
1485 1525 1526 1486
1486 1526 1527 1487
1487 1527 1528 1488
1488 1528 1529 1489
1489 1529 1530 1490
1490 1530 1531 1491
1491 1531 1532 1492
1492 1532 1533 1493
1493 1533 1534 1494
1494 1534 1535 1495
1495 1535 1536 1496
1496 1536 1537 1497
1497 1537 1538 1498
1498 1538 1539 1499
1499 1539 1540 1500
1500 1540 1541 1501
1501 1541 1542 1502
1502 1542 1543 1503
1503 1543 1544 1504
1504 1544 1545 1505
1505 1545 1546 1506
1506 1546 1547 1507
1507 1547 1548 1508
1508 1548 1549 1509
1509 1549 1550 1510
1510 1550 1551 1511
1511 1551 1552 1512
1512 1552 1553 1513
1513 1553 1554 1514
1514 1554 1555 1515
1515 1555 1556 1516
1516 1556 1557 1517
1517 1557 115 114
38 39 1558 1518
1518 1558 1559 1519
1519 1559 1560 1520
1520 1560 1561 1521
1521 1561 1562 1522
1522 1562 1563 1523
1523 1563 1564 1524
1524 1564 1565 1525
1525 1565 1566 1526
1526 1566 1567 1527
1527 1567 1568 1528
1528 1568 1569 1529
1529 1569 1570 1530
1530 1570 1571 1531
1531 1571 1572 1532
1532 1572 1573 1533
1533 1573 1574 1534
1534 1574 1575 1535
1535 1575 1576 1536
1536 1576 1577 1537
1537 1577 1578 1538
1538 1578 1579 1539
1539 1579 1580 1540
1540 1580 1581 1541
1541 1581 1582 1542
1542 1582 1583 1543
1543 1583 1584 1544
1544 1584 1585 1545
1545 1585 1586 1546
1546 1586 1587 1547
1547 1587 1588 1548
1548 1588 1589 1549
1549 1589 1590 1550
1550 1590 1591 1551
1551 1591 1592 1552
1552 1592 1593 1553
1553 1593 1594 1554
1554 1594 1595 1555
1555 1595 1596 1556
1556 1596 1597 1557
1557 1597 116 115
39 40 1598 1558
1558 1598 1599 1559
1559 1599 1600 1560
1560 1600 1601 1561
1561 1601 1602 1562
1562 1602 1603 1563
1563 1603 1604 1564
1564 1604 1605 1565
1565 1605 1606 1566
1566 1606 1607 1567
1567 1607 1608 1568
1568 1608 1609 1569
1569 1609 1610 1570
1570 1610 1611 1571
1571 1611 1612 1572
1572 1612 1613 1573
1573 1613 1614 1574
1574 1614 1615 1575
1575 1615 1616 1576
1576 1616 1617 1577
1577 1617 1618 1578
1578 1618 1619 1579
1579 1619 1620 1580
1580 1620 1621 1581
1581 1621 1622 1582
1582 1622 1623 1583
1583 1623 1624 1584
1584 1624 1625 1585
1585 1625 1626 1586
1586 1626 1627 1587
1587 1627 1628 1588
1588 1628 1629 1589
1589 1629 1630 1590
1590 1630 1631 1591
1591 1631 1632 1592
1592 1632 1633 1593
1593 1633 1634 1594
1594 1634 1635 1595
1595 1635 1636 1596
1596 1636 1637 1597
1597 1637 117 116
40 41 1638 1598
1598 1638 1639 1599
1599 1639 1640 1600
1600 1640 1641 1601
1601 1641 1642 1602
1602 1642 1643 1603
1603 1643 1644 1604
1604 1644 1645 1605
1605 1645 1646 1606
1606 1646 1647 1607
1607 1647 1648 1608
1608 1648 1649 1609
1609 1649 1650 1610
1610 1650 1651 1611
1611 1651 1652 1612
1612 1652 1653 1613
1613 1653 1654 1614
1614 1654 1655 1615
1615 1655 1656 1616
1616 1656 1657 1617
1617 1657 1658 1618
1618 1658 1659 1619
1619 1659 1660 1620
1620 1660 1661 1621
1621 1661 1662 1622
1622 1662 1663 1623
1623 1663 1664 1624
1624 1664 1665 1625
1625 1665 1666 1626
1626 1666 1667 1627
1627 1667 1668 1628
1628 1668 1669 1629
1629 1669 1670 1630
1630 1670 1671 1631
1631 1671 1672 1632
1632 1672 1673 1633
1633 1673 1674 1634
1634 1674 1675 1635
1635 1675 1676 1636
1636 1676 1677 1637
1637 1677 118 117
41 42 1678 1638
1638 1678 1679 1639
1639 1679 1680 1640
1640 1680 1681 1641
1641 1681 1682 1642
1642 1682 1683 1643
1643 1683 1684 1644
1644 1684 1685 1645
1645 1685 1686 1646
1646 1686 1687 1647
1647 1687 1688 1648
1648 1688 1689 1649
1649 1689 1690 1650
1650 1690 1691 1651
1651 1691 1692 1652
1652 1692 1693 1653
1653 1693 1694 1654
1654 1694 1695 1655
1655 1695 1696 1656
1656 1696 1697 1657
1657 1697 1698 1658
1658 1698 1699 1659
1659 1699 1700 1660
1660 1700 1701 1661
1661 1701 1702 1662
1662 1702 1703 1663
1663 1703 1704 1664
1664 1704 1705 1665
1665 1705 1706 1666
1666 1706 1707 1667
1667 1707 1708 1668
1668 1708 1709 1669
1669 1709 1710 1670
1670 1710 1711 1671
1671 1711 1712 1672
1672 1712 1713 1673
1673 1713 1714 1674
1674 1714 1715 1675
1675 1715 1716 1676
1676 1716 1717 1677
1677 1717 119 118
42 43 1718 1678
1678 1718 1719 1679
1679 1719 1720 1680
1680 1720 1721 1681
1681 1721 1722 1682
1682 1722 1723 1683
1683 1723 1724 1684
1684 1724 1725 1685
1685 1725 1726 1686
1686 1726 1727 1687
1687 1727 1728 1688
1688 1728 1729 1689
1689 1729 1730 1690
1690 1730 1731 1691
1691 1731 1732 1692
1692 1732 1733 1693
1693 1733 1734 1694
1694 1734 1735 1695
1695 1735 1736 1696
1696 1736 1737 1697
1697 1737 1738 1698
1698 1738 1739 1699
1699 1739 1740 1700
1700 1740 1741 1701
1701 1741 1742 1702
1702 1742 1743 1703
1703 1743 1744 1704
1704 1744 1745 1705
1705 1745 1746 1706
1706 1746 1747 1707
1707 1747 1748 1708
1708 1748 1749 1709
1709 1749 1750 1710
1710 1750 1751 1711
1711 1751 1752 1712
1712 1752 1753 1713
1713 1753 1754 1714
1714 1754 1755 1715
1715 1755 1756 1716
1716 1756 1757 1717
1717 1757 120 119
43 44 1758 1718
1718 1758 1759 1719
1719 1759 1760 1720
1720 1760 1761 1721
1721 1761 1762 1722
1722 1762 1763 1723
1723 1763 1764 1724
1724 1764 1765 1725
1725 1765 1766 1726
1726 1766 1767 1727
1727 1767 1768 1728
1728 1768 1769 1729
1729 1769 1770 1730
1730 1770 1771 1731
1731 1771 1772 1732
1732 1772 1773 1733
1733 1773 1774 1734
1734 1774 1775 1735
1735 1775 1776 1736
1736 1776 1777 1737
1737 1777 1778 1738
1738 1778 1779 1739
1739 1779 1780 1740
1740 1780 1781 1741
1741 1781 1782 1742
1742 1782 1783 1743
1743 1783 1784 1744
1744 1784 1785 1745
1745 1785 1786 1746
1746 1786 1787 1747
1747 1787 1788 1748
1748 1788 1789 1749
1749 1789 1790 1750
1750 1790 1791 1751
1751 1791 1792 1752
1752 1792 1793 1753
1753 1793 1794 1754
1754 1794 1795 1755
1755 1795 1796 1756
1756 1796 1797 1757
1757 1797 121 120
44 45 1798 1758
1758 1798 1799 1759
1759 1799 1800 1760
1760 1800 1801 1761
1761 1801 1802 1762
1762 1802 1803 1763
1763 1803 1804 1764
1764 1804 1805 1765
1765 1805 1806 1766
1766 1806 1807 1767
1767 1807 1808 1768
1768 1808 1809 1769
1769 1809 1810 1770
1770 1810 1811 1771
1771 1811 1812 1772
1772 1812 1813 1773
1773 1813 1814 1774
1774 1814 1815 1775
1775 1815 1816 1776
1776 1816 1817 1777
1777 1817 1818 1778
1778 1818 1819 1779
1779 1819 1820 1780
1780 1820 1821 1781
1781 1821 1822 1782
1782 1822 1823 1783
1783 1823 1824 1784
1784 1824 1825 1785
1785 1825 1826 1786
1786 1826 1827 1787
1787 1827 1828 1788
1788 1828 1829 1789
1789 1829 1830 1790
1790 1830 1831 1791
1791 1831 1832 1792
1792 1832 1833 1793
1793 1833 1834 1794
1794 1834 1835 1795
1795 1835 1836 1796
1796 1836 1837 1797
1797 1837 122 121
45 46 1838 1798
1798 1838 1839 1799
1799 1839 1840 1800
1800 1840 1841 1801
1801 1841 1842 1802
1802 1842 1843 1803
1803 1843 1844 1804
1804 1844 1845 1805
1805 1845 1846 1806
1806 1846 1847 1807
1807 1847 1848 1808
1808 1848 1849 1809
1809 1849 1850 1810
1810 1850 1851 1811
1811 1851 1852 1812
1812 1852 1853 1813
1813 1853 1854 1814
1814 1854 1855 1815
1815 1855 1856 1816
1816 1856 1857 1817
1817 1857 1858 1818
1818 1858 1859 1819
1819 1859 1860 1820
1820 1860 1861 1821
1821 1861 1862 1822
1822 1862 1863 1823
1823 1863 1864 1824
1824 1864 1865 1825
1825 1865 1866 1826
1826 1866 1867 1827
1827 1867 1868 1828
1828 1868 1869 1829
1829 1869 1870 1830
1830 1870 1871 1831
1831 1871 1872 1832
1832 1872 1873 1833
1833 1873 1874 1834
1834 1874 1875 1835
1835 1875 1876 1836
1836 1876 1877 1837
1837 1877 123 122
46 47 1878 1838
1838 1878 1879 1839
1839 1879 1880 1840
1840 1880 1881 1841
1841 1881 1882 1842
1842 1882 1883 1843
1843 1883 1884 1844
1844 1884 1885 1845
1845 1885 1886 1846
1846 1886 1887 1847
1847 1887 1888 1848
1848 1888 1889 1849
1849 1889 1890 1850
1850 1890 1891 1851
1851 1891 1892 1852
1852 1892 1893 1853
1853 1893 1894 1854
1854 1894 1895 1855
1855 1895 1896 1856
1856 1896 1897 1857
1857 1897 1898 1858
1858 1898 1899 1859
1859 1899 1900 1860
1860 1900 1901 1861
1861 1901 1902 1862
1862 1902 1903 1863
1863 1903 1904 1864
1864 1904 1905 1865
1865 1905 1906 1866
1866 1906 1907 1867
1867 1907 1908 1868
1868 1908 1909 1869
1869 1909 1910 1870
1870 1910 1911 1871
1871 1911 1912 1872
1872 1912 1913 1873
1873 1913 1914 1874
1874 1914 1915 1875
1875 1915 1916 1876
1876 1916 1917 1877
1877 1917 124 123
47 48 1918 1878
1878 1918 1919 1879
1879 1919 1920 1880
1880 1920 1921 1881
1881 1921 1922 1882
1882 1922 1923 1883
1883 1923 1924 1884
1884 1924 1925 1885
1885 1925 1926 1886
1886 1926 1927 1887
1887 1927 1928 1888
1888 1928 1929 1889
1889 1929 1930 1890
1890 1930 1931 1891
1891 1931 1932 1892
1892 1932 1933 1893
1893 1933 1934 1894
1894 1934 1935 1895
1895 1935 1936 1896
1896 1936 1937 1897
1897 1937 1938 1898
1898 1938 1939 1899
1899 1939 1940 1900
1900 1940 1941 1901
1901 1941 1942 1902
1902 1942 1943 1903
1903 1943 1944 1904
1904 1944 1945 1905
1905 1945 1946 1906
1906 1946 1947 1907
1907 1947 1948 1908
1908 1948 1949 1909
1909 1949 1950 1910
1910 1950 1951 1911
1911 1951 1952 1912
1912 1952 1953 1913
1913 1953 1954 1914
1914 1954 1955 1915
1915 1955 1956 1916
1916 1956 1957 1917
1917 1957 125 124
48 49 1958 1918
1918 1958 1959 1919
1919 1959 1960 1920
1920 1960 1961 1921
1921 1961 1962 1922
1922 1962 1963 1923
1923 1963 1964 1924
1924 1964 1965 1925
1925 1965 1966 1926
1926 1966 1967 1927
1927 1967 1968 1928
1928 1968 1969 1929
1929 1969 1970 1930
1930 1970 1971 1931
1931 1971 1972 1932
1932 1972 1973 1933
1933 1973 1974 1934
1934 1974 1975 1935
1935 1975 1976 1936
1936 1976 1977 1937
1937 1977 1978 1938
1938 1978 1979 1939
1939 1979 1980 1940
1940 1980 1981 1941
1941 1981 1982 1942
1942 1982 1983 1943
1943 1983 1984 1944
1944 1984 1985 1945
1945 1985 1986 1946
1946 1986 1987 1947
1947 1987 1988 1948
1948 1988 1989 1949
1949 1989 1990 1950
1950 1990 1991 1951
1951 1991 1992 1952
1952 1992 1993 1953
1953 1993 1994 1954
1954 1994 1995 1955
1955 1995 1996 1956
1956 1996 1997 1957
1957 1997 126 125
49 1 1998 1958
1958 1998 1999 1959
1959 1999 2000 1960
1960 2000 2001 1961
1961 2001 2002 1962
1962 2002 2003 1963
1963 2003 2004 1964
1964 2004 2005 1965
1965 2005 2006 1966
1966 2006 2007 1967
1967 2007 2008 1968
1968 2008 2009 1969
1969 2009 2010 1970
1970 2010 2011 1971
1971 2011 2012 1972
1972 2012 2013 1973
1973 2013 2014 1974
1974 2014 2015 1975
1975 2015 2016 1976
1976 2016 2017 1977
1977 2017 2018 1978
1978 2018 2019 1979
1979 2019 2020 1980
1980 2020 2021 1981
1981 2021 2022 1982
1982 2022 2023 1983
1983 2023 2024 1984
1984 2024 2025 1985
1985 2025 2026 1986
1986 2026 2027 1987
1987 2027 2028 1988
1988 2028 2029 1989
1989 2029 2030 1990
1990 2030 2031 1991
1991 2031 2032 1992
1992 2032 2033 1993
1993 2033 2034 1994
1994 2034 2035 1995
1995 2035 2036 1996
1996 2036 2037 1997
1997 2037 127 126
1 50 2038 1998
1998 2038 2039 1999
1999 2039 2040 2000
2000 2040 2041 2001
2001 2041 2042 2002
2002 2042 2043 2003
2003 2043 2044 2004
2004 2044 2045 2005
2005 2045 2046 2006
2006 2046 2047 2007
2007 2047 2048 2008
2008 2048 2049 2009
2009 2049 2050 2010
2010 2050 2051 2011
2011 2051 2052 2012
2012 2052 2053 2013
2013 2053 2054 2014
2014 2054 2055 2015
2015 2055 2056 2016
2016 2056 2057 2017
2017 2057 2058 2018
2018 2058 2059 2019
2019 2059 2060 2020
2020 2060 2061 2021
2021 2061 2062 2022
2022 2062 2063 2023
2023 2063 2064 2024
2024 2064 2065 2025
2025 2065 2066 2026
2026 2066 2067 2027
2027 2067 2068 2028
2028 2068 2069 2029
2029 2069 2070 2030
2030 2070 2071 2031
2031 2071 2072 2032
2032 2072 2073 2033
2033 2073 2074 2034
2034 2074 2075 2035
2035 2075 2076 2036
2036 2076 2077 2037
2037 2077 128 127
50 51 2078 2038
2038 2078 2079 2039
2039 2079 2080 2040
2040 2080 2081 2041
2041 2081 2082 2042
2042 2082 2083 2043
2043 2083 2084 2044
2044 2084 2085 2045
2045 2085 2086 2046
2046 2086 2087 2047
2047 2087 2088 2048
2048 2088 2089 2049
2049 2089 2090 2050
2050 2090 2091 2051
2051 2091 2092 2052
2052 2092 2093 2053
2053 2093 2094 2054
2054 2094 2095 2055
2055 2095 2096 2056
2056 2096 2097 2057
2057 2097 2098 2058
2058 2098 2099 2059
2059 2099 2100 2060
2060 2100 2101 2061
2061 2101 2102 2062
2062 2102 2103 2063
2063 2103 2104 2064
2064 2104 2105 2065
2065 2105 2106 2066
2066 2106 2107 2067
2067 2107 2108 2068
2068 2108 2109 2069
2069 2109 2110 2070
2070 2110 2111 2071
2071 2111 2112 2072
2072 2112 2113 2073
2073 2113 2114 2074
2074 2114 2115 2075
2075 2115 2116 2076
2076 2116 2117 2077
2077 2117 129 128
51 52 2118 2078
2078 2118 2119 2079
2079 2119 2120 2080
2080 2120 2121 2081
2081 2121 2122 2082
2082 2122 2123 2083
2083 2123 2124 2084
2084 2124 2125 2085
2085 2125 2126 2086
2086 2126 2127 2087
2087 2127 2128 2088
2088 2128 2129 2089
2089 2129 2130 2090
2090 2130 2131 2091
2091 2131 2132 2092
2092 2132 2133 2093
2093 2133 2134 2094
2094 2134 2135 2095
2095 2135 2136 2096
2096 2136 2137 2097
2097 2137 2138 2098
2098 2138 2139 2099
2099 2139 2140 2100
2100 2140 2141 2101
2101 2141 2142 2102
2102 2142 2143 2103
2103 2143 2144 2104
2104 2144 2145 2105
2105 2145 2146 2106
2106 2146 2147 2107
2107 2147 2148 2108
2108 2148 2149 2109
2109 2149 2150 2110
2110 2150 2151 2111
2111 2151 2152 2112
2112 2152 2153 2113
2113 2153 2154 2114
2114 2154 2155 2115
2115 2155 2156 2116
2116 2156 2157 2117
2117 2157 130 129
52 53 2158 2118
2118 2158 2159 2119
2119 2159 2160 2120
2120 2160 2161 2121
2121 2161 2162 2122
2122 2162 2163 2123
2123 2163 2164 2124
2124 2164 2165 2125
2125 2165 2166 2126
2126 2166 2167 2127
2127 2167 2168 2128
2128 2168 2169 2129
2129 2169 2170 2130
2130 2170 2171 2131
2131 2171 2172 2132
2132 2172 2173 2133
2133 2173 2174 2134
2134 2174 2175 2135
2135 2175 2176 2136
2136 2176 2177 2137
2137 2177 2178 2138
2138 2178 2179 2139
2139 2179 2180 2140
2140 2180 2181 2141
2141 2181 2182 2142
2142 2182 2183 2143
2143 2183 2184 2144
2144 2184 2185 2145
2145 2185 2186 2146
2146 2186 2187 2147
2147 2187 2188 2148
2148 2188 2189 2149
2149 2189 2190 2150
2150 2190 2191 2151
2151 2191 2192 2152
2152 2192 2193 2153
2153 2193 2194 2154
2154 2194 2195 2155
2155 2195 2196 2156
2156 2196 2197 2157
2157 2197 131 130
53 54 2198 2158
2158 2198 2199 2159
2159 2199 2200 2160
2160 2200 2201 2161
2161 2201 2202 2162
2162 2202 2203 2163
2163 2203 2204 2164
2164 2204 2205 2165
2165 2205 2206 2166
2166 2206 2207 2167
2167 2207 2208 2168
2168 2208 2209 2169
2169 2209 2210 2170
2170 2210 2211 2171
2171 2211 2212 2172
2172 2212 2213 2173
2173 2213 2214 2174
2174 2214 2215 2175
2175 2215 2216 2176
2176 2216 2217 2177
2177 2217 2218 2178
2178 2218 2219 2179
2179 2219 2220 2180
2180 2220 2221 2181
2181 2221 2222 2182
2182 2222 2223 2183
2183 2223 2224 2184
2184 2224 2225 2185
2185 2225 2226 2186
2186 2226 2227 2187
2187 2227 2228 2188
2188 2228 2229 2189
2189 2229 2230 2190
2190 2230 2231 2191
2191 2231 2232 2192
2192 2232 2233 2193
2193 2233 2234 2194
2194 2234 2235 2195
2195 2235 2236 2196
2196 2236 2237 2197
2197 2237 132 131
54 55 2238 2198
2198 2238 2239 2199
2199 2239 2240 2200
2200 2240 2241 2201
2201 2241 2242 2202
2202 2242 2243 2203
2203 2243 2244 2204
2204 2244 2245 2205
2205 2245 2246 2206
2206 2246 2247 2207
2207 2247 2248 2208
2208 2248 2249 2209
2209 2249 2250 2210
2210 2250 2251 2211
2211 2251 2252 2212
2212 2252 2253 2213
2213 2253 2254 2214
2214 2254 2255 2215
2215 2255 2256 2216
2216 2256 2257 2217
2217 2257 2258 2218
2218 2258 2259 2219
2219 2259 2260 2220
2220 2260 2261 2221
2221 2261 2262 2222
2222 2262 2263 2223
2223 2263 2264 2224
2224 2264 2265 2225
2225 2265 2266 2226
2226 2266 2267 2227
2227 2267 2268 2228
2228 2268 2269 2229
2229 2269 2270 2230
2230 2270 2271 2231
2231 2271 2272 2232
2232 2272 2273 2233
2233 2273 2274 2234
2234 2274 2275 2235
2235 2275 2276 2236
2236 2276 2277 2237
2237 2277 133 132
55 56 2278 2238
2238 2278 2279 2239
2239 2279 2280 2240
2240 2280 2281 2241
2241 2281 2282 2242
2242 2282 2283 2243
2243 2283 2284 2244
2244 2284 2285 2245
2245 2285 2286 2246
2246 2286 2287 2247
2247 2287 2288 2248
2248 2288 2289 2249
2249 2289 2290 2250
2250 2290 2291 2251
2251 2291 2292 2252
2252 2292 2293 2253
2253 2293 2294 2254
2254 2294 2295 2255
2255 2295 2296 2256
2256 2296 2297 2257
2257 2297 2298 2258
2258 2298 2299 2259
2259 2299 2300 2260
2260 2300 2301 2261
2261 2301 2302 2262
2262 2302 2303 2263
2263 2303 2304 2264
2264 2304 2305 2265
2265 2305 2306 2266
2266 2306 2307 2267
2267 2307 2308 2268
2268 2308 2309 2269
2269 2309 2310 2270
2270 2310 2311 2271
2271 2311 2312 2272
2272 2312 2313 2273
2273 2313 2314 2274
2274 2314 2315 2275
2275 2315 2316 2276
2276 2316 2317 2277
2277 2317 134 133
56 57 2318 2278
2278 2318 2319 2279
2279 2319 2320 2280
2280 2320 2321 2281
2281 2321 2322 2282
2282 2322 2323 2283
2283 2323 2324 2284
2284 2324 2325 2285
2285 2325 2326 2286
2286 2326 2327 2287
2287 2327 2328 2288
2288 2328 2329 2289
2289 2329 2330 2290
2290 2330 2331 2291
2291 2331 2332 2292
2292 2332 2333 2293
2293 2333 2334 2294
2294 2334 2335 2295
2295 2335 2336 2296
2296 2336 2337 2297
2297 2337 2338 2298
2298 2338 2339 2299
2299 2339 2340 2300
2300 2340 2341 2301
2301 2341 2342 2302
2302 2342 2343 2303
2303 2343 2344 2304
2304 2344 2345 2305
2305 2345 2346 2306
2306 2346 2347 2307
2307 2347 2348 2308
2308 2348 2349 2309
2309 2349 2350 2310
2310 2350 2351 2311
2311 2351 2352 2312
2312 2352 2353 2313
2313 2353 2354 2314
2314 2354 2355 2315
2315 2355 2356 2316
2316 2356 2357 2317
2317 2357 135 134
57 58 2358 2318
2318 2358 2359 2319
2319 2359 2360 2320
2320 2360 2361 2321
2321 2361 2362 2322
2322 2362 2363 2323
2323 2363 2364 2324
2324 2364 2365 2325
2325 2365 2366 2326
2326 2366 2367 2327
2327 2367 2368 2328
2328 2368 2369 2329
2329 2369 2370 2330
2330 2370 2371 2331
2331 2371 2372 2332
2332 2372 2373 2333
2333 2373 2374 2334
2334 2374 2375 2335
2335 2375 2376 2336
2336 2376 2377 2337
2337 2377 2378 2338
2338 2378 2379 2339
2339 2379 2380 2340
2340 2380 2381 2341
2341 2381 2382 2342
2342 2382 2383 2343
2343 2383 2384 2344
2344 2384 2385 2345
2345 2385 2386 2346
2346 2386 2387 2347
2347 2387 2388 2348
2348 2388 2389 2349
2349 2389 2390 2350
2350 2390 2391 2351
2351 2391 2392 2352
2352 2392 2393 2353
2353 2393 2394 2354
2354 2394 2395 2355
2355 2395 2396 2356
2356 2396 2397 2357
2357 2397 136 135
58 59 2398 2358
2358 2398 2399 2359
2359 2399 2400 2360
2360 2400 2401 2361
2361 2401 2402 2362
2362 2402 2403 2363
2363 2403 2404 2364
2364 2404 2405 2365
2365 2405 2406 2366
2366 2406 2407 2367
2367 2407 2408 2368
2368 2408 2409 2369
2369 2409 2410 2370
2370 2410 2411 2371
2371 2411 2412 2372
2372 2412 2413 2373
2373 2413 2414 2374
2374 2414 2415 2375
2375 2415 2416 2376
2376 2416 2417 2377
2377 2417 2418 2378
2378 2418 2419 2379
2379 2419 2420 2380
2380 2420 2421 2381
2381 2421 2422 2382
2382 2422 2423 2383
2383 2423 2424 2384
2384 2424 2425 2385
2385 2425 2426 2386
2386 2426 2427 2387
2387 2427 2428 2388
2388 2428 2429 2389
2389 2429 2430 2390
2390 2430 2431 2391
2391 2431 2432 2392
2392 2432 2433 2393
2393 2433 2434 2394
2394 2434 2435 2395
2395 2435 2436 2396
2396 2436 2437 2397
2397 2437 137 136
59 60 2438 2398
2398 2438 2439 2399
2399 2439 2440 2400
2400 2440 2441 2401
2401 2441 2442 2402
2402 2442 2443 2403
2403 2443 2444 2404
2404 2444 2445 2405
2405 2445 2446 2406
2406 2446 2447 2407
2407 2447 2448 2408
2408 2448 2449 2409
2409 2449 2450 2410
2410 2450 2451 2411
2411 2451 2452 2412
2412 2452 2453 2413
2413 2453 2454 2414
2414 2454 2455 2415
2415 2455 2456 2416
2416 2456 2457 2417
2417 2457 2458 2418
2418 2458 2459 2419
2419 2459 2460 2420
2420 2460 2461 2421
2421 2461 2462 2422
2422 2462 2463 2423
2423 2463 2464 2424
2424 2464 2465 2425
2425 2465 2466 2426
2426 2466 2467 2427
2427 2467 2468 2428
2428 2468 2469 2429
2429 2469 2470 2430
2430 2470 2471 2431
2431 2471 2472 2432
2432 2472 2473 2433
2433 2473 2474 2434
2434 2474 2475 2435
2435 2475 2476 2436
2436 2476 2477 2437
2437 2477 138 137
60 61 2478 2438
2438 2478 2479 2439
2439 2479 2480 2440
2440 2480 2481 2441
2441 2481 2482 2442
2442 2482 2483 2443
2443 2483 2484 2444
2444 2484 2485 2445
2445 2485 2486 2446
2446 2486 2487 2447
2447 2487 2488 2448
2448 2488 2489 2449
2449 2489 2490 2450
2450 2490 2491 2451
2451 2491 2492 2452
2452 2492 2493 2453
2453 2493 2494 2454
2454 2494 2495 2455
2455 2495 2496 2456
2456 2496 2497 2457
2457 2497 2498 2458
2458 2498 2499 2459
2459 2499 2500 2460
2460 2500 2501 2461
2461 2501 2502 2462
2462 2502 2503 2463
2463 2503 2504 2464
2464 2504 2505 2465
2465 2505 2506 2466
2466 2506 2507 2467
2467 2507 2508 2468
2468 2508 2509 2469
2469 2509 2510 2470
2470 2510 2511 2471
2471 2511 2512 2472
2472 2512 2513 2473
2473 2513 2514 2474
2474 2514 2515 2475
2475 2515 2516 2476
2476 2516 2517 2477
2477 2517 139 138
61 62 2518 2478
2478 2518 2519 2479
2479 2519 2520 2480
2480 2520 2521 2481
2481 2521 2522 2482
2482 2522 2523 2483
2483 2523 2524 2484
2484 2524 2525 2485
2485 2525 2526 2486
2486 2526 2527 2487
2487 2527 2528 2488
2488 2528 2529 2489
2489 2529 2530 2490
2490 2530 2531 2491
2491 2531 2532 2492
2492 2532 2533 2493
2493 2533 2534 2494
2494 2534 2535 2495
2495 2535 2536 2496
2496 2536 2537 2497
2497 2537 2538 2498
2498 2538 2539 2499
2499 2539 2540 2500
2500 2540 2541 2501
2501 2541 2542 2502
2502 2542 2543 2503
2503 2543 2544 2504
2504 2544 2545 2505
2505 2545 2546 2506
2506 2546 2547 2507
2507 2547 2548 2508
2508 2548 2549 2509
2509 2549 2550 2510
2510 2550 2551 2511
2511 2551 2552 2512
2512 2552 2553 2513
2513 2553 2554 2514
2514 2554 2555 2515
2515 2555 2556 2516
2516 2556 2557 2517
2517 2557 140 139
62 63 2558 2518
2518 2558 2559 2519
2519 2559 2560 2520
2520 2560 2561 2521
2521 2561 2562 2522
2522 2562 2563 2523
2523 2563 2564 2524
2524 2564 2565 2525
2525 2565 2566 2526
2526 2566 2567 2527
2527 2567 2568 2528
2528 2568 2569 2529
2529 2569 2570 2530
2530 2570 2571 2531
2531 2571 2572 2532
2532 2572 2573 2533
2533 2573 2574 2534
2534 2574 2575 2535
2535 2575 2576 2536
2536 2576 2577 2537
2537 2577 2578 2538
2538 2578 2579 2539
2539 2579 2580 2540
2540 2580 2581 2541
2541 2581 2582 2542
2542 2582 2583 2543
2543 2583 2584 2544
2544 2584 2585 2545
2545 2585 2586 2546
2546 2586 2587 2547
2547 2587 2588 2548
2548 2588 2589 2549
2549 2589 2590 2550
2550 2590 2591 2551
2551 2591 2592 2552
2552 2592 2593 2553
2553 2593 2594 2554
2554 2594 2595 2555
2555 2595 2596 2556
2556 2596 2597 2557
2557 2597 141 140
63 64 2598 2558
2558 2598 2599 2559
2559 2599 2600 2560
2560 2600 2601 2561
2561 2601 2602 2562
2562 2602 2603 2563
2563 2603 2604 2564
2564 2604 2605 2565
2565 2605 2606 2566
2566 2606 2607 2567
2567 2607 2608 2568
2568 2608 2609 2569
2569 2609 2610 2570
2570 2610 2611 2571
2571 2611 2612 2572
2572 2612 2613 2573
2573 2613 2614 2574
2574 2614 2615 2575
2575 2615 2616 2576
2576 2616 2617 2577
2577 2617 2618 2578
2578 2618 2619 2579
2579 2619 2620 2580
2580 2620 2621 2581
2581 2621 2622 2582
2582 2622 2623 2583
2583 2623 2624 2584
2584 2624 2625 2585
2585 2625 2626 2586
2586 2626 2627 2587
2587 2627 2628 2588
2588 2628 2629 2589
2589 2629 2630 2590
2590 2630 2631 2591
2591 2631 2632 2592
2592 2632 2633 2593
2593 2633 2634 2594
2594 2634 2635 2595
2595 2635 2636 2596
2596 2636 2637 2597
2597 2637 142 141
64 65 2638 2598
2598 2638 2639 2599
2599 2639 2640 2600
2600 2640 2641 2601
2601 2641 2642 2602
2602 2642 2643 2603
2603 2643 2644 2604
2604 2644 2645 2605
2605 2645 2646 2606
2606 2646 2647 2607
2607 2647 2648 2608
2608 2648 2649 2609
2609 2649 2650 2610
2610 2650 2651 2611
2611 2651 2652 2612
2612 2652 2653 2613
2613 2653 2654 2614
2614 2654 2655 2615
2615 2655 2656 2616
2616 2656 2657 2617
2617 2657 2658 2618
2618 2658 2659 2619
2619 2659 2660 2620
2620 2660 2661 2621
2621 2661 2662 2622
2622 2662 2663 2623
2623 2663 2664 2624
2624 2664 2665 2625
2625 2665 2666 2626
2626 2666 2667 2627
2627 2667 2668 2628
2628 2668 2669 2629
2629 2669 2670 2630
2630 2670 2671 2631
2631 2671 2672 2632
2632 2672 2673 2633
2633 2673 2674 2634
2634 2674 2675 2635
2635 2675 2676 2636
2636 2676 2677 2637
2637 2677 143 142
65 66 2678 2638
2638 2678 2679 2639
2639 2679 2680 2640
2640 2680 2681 2641
2641 2681 2682 2642
2642 2682 2683 2643
2643 2683 2684 2644
2644 2684 2685 2645
2645 2685 2686 2646
2646 2686 2687 2647
2647 2687 2688 2648
2648 2688 2689 2649
2649 2689 2690 2650
2650 2690 2691 2651
2651 2691 2692 2652
2652 2692 2693 2653
2653 2693 2694 2654
2654 2694 2695 2655
2655 2695 2696 2656
2656 2696 2697 2657
2657 2697 2698 2658
2658 2698 2699 2659
2659 2699 2700 2660
2660 2700 2701 2661
2661 2701 2702 2662
2662 2702 2703 2663
2663 2703 2704 2664
2664 2704 2705 2665
2665 2705 2706 2666
2666 2706 2707 2667
2667 2707 2708 2668
2668 2708 2709 2669
2669 2709 2710 2670
2670 2710 2711 2671
2671 2711 2712 2672
2672 2712 2713 2673
2673 2713 2714 2674
2674 2714 2715 2675
2675 2715 2716 2676
2676 2716 2717 2677
2677 2717 144 143
66 67 2718 2678
2678 2718 2719 2679
2679 2719 2720 2680
2680 2720 2721 2681
2681 2721 2722 2682
2682 2722 2723 2683
2683 2723 2724 2684
2684 2724 2725 2685
2685 2725 2726 2686
2686 2726 2727 2687
2687 2727 2728 2688
2688 2728 2729 2689
2689 2729 2730 2690
2690 2730 2731 2691
2691 2731 2732 2692
2692 2732 2733 2693
2693 2733 2734 2694
2694 2734 2735 2695
2695 2735 2736 2696
2696 2736 2737 2697
2697 2737 2738 2698
2698 2738 2739 2699
2699 2739 2740 2700
2700 2740 2741 2701
2701 2741 2742 2702
2702 2742 2743 2703
2703 2743 2744 2704
2704 2744 2745 2705
2705 2745 2746 2706
2706 2746 2747 2707
2707 2747 2748 2708
2708 2748 2749 2709
2709 2749 2750 2710
2710 2750 2751 2711
2711 2751 2752 2712
2712 2752 2753 2713
2713 2753 2754 2714
2714 2754 2755 2715
2715 2755 2756 2716
2716 2756 2757 2717
2717 2757 145 144
67 68 2758 2718
2718 2758 2759 2719
2719 2759 2760 2720
2720 2760 2761 2721
2721 2761 2762 2722
2722 2762 2763 2723
2723 2763 2764 2724
2724 2764 2765 2725
2725 2765 2766 2726
2726 2766 2767 2727
2727 2767 2768 2728
2728 2768 2769 2729
2729 2769 2770 2730
2730 2770 2771 2731
2731 2771 2772 2732
2732 2772 2773 2733
2733 2773 2774 2734
2734 2774 2775 2735
2735 2775 2776 2736
2736 2776 2777 2737
2737 2777 2778 2738
2738 2778 2779 2739
2739 2779 2780 2740
2740 2780 2781 2741
2741 2781 2782 2742
2742 2782 2783 2743
2743 2783 2784 2744
2744 2784 2785 2745
2745 2785 2786 2746
2746 2786 2787 2747
2747 2787 2788 2748
2748 2788 2789 2749
2749 2789 2790 2750
2750 2790 2791 2751
2751 2791 2792 2752
2752 2792 2793 2753
2753 2793 2794 2754
2754 2794 2795 2755
2755 2795 2796 2756
2756 2796 2797 2757
2757 2797 146 145
68 69 2798 2758
2758 2798 2799 2759
2759 2799 2800 2760
2760 2800 2801 2761
2761 2801 2802 2762
2762 2802 2803 2763
2763 2803 2804 2764
2764 2804 2805 2765
2765 2805 2806 2766
2766 2806 2807 2767
2767 2807 2808 2768
2768 2808 2809 2769
2769 2809 2810 2770
2770 2810 2811 2771
2771 2811 2812 2772
2772 2812 2813 2773
2773 2813 2814 2774
2774 2814 2815 2775
2775 2815 2816 2776
2776 2816 2817 2777
2777 2817 2818 2778
2778 2818 2819 2779
2779 2819 2820 2780
2780 2820 2821 2781
2781 2821 2822 2782
2782 2822 2823 2783
2783 2823 2824 2784
2784 2824 2825 2785
2785 2825 2826 2786
2786 2826 2827 2787
2787 2827 2828 2788
2788 2828 2829 2789
2789 2829 2830 2790
2790 2830 2831 2791
2791 2831 2832 2792
2792 2832 2833 2793
2793 2833 2834 2794
2794 2834 2835 2795
2795 2835 2836 2796
2796 2836 2837 2797
2797 2837 5 146
69 70 2838 2798
2798 2838 2839 2799
2799 2839 2840 2800
2800 2840 2841 2801
2801 2841 2842 2802
2802 2842 2843 2803
2803 2843 2844 2804
2804 2844 2845 2805
2805 2845 2846 2806
2806 2846 2847 2807
2807 2847 2848 2808
2808 2848 2849 2809
2809 2849 2850 2810
2810 2850 2851 2811
2811 2851 2852 2812
2812 2852 2853 2813
2813 2853 2854 2814
2814 2854 2855 2815
2815 2855 2856 2816
2816 2856 2857 2817
2817 2857 2858 2818
2818 2858 2859 2819
2819 2859 2860 2820
2820 2860 2861 2821
2821 2861 2862 2822
2822 2862 2863 2823
2823 2863 2864 2824
2824 2864 2865 2825
2825 2865 2866 2826
2826 2866 2867 2827
2827 2867 2868 2828
2828 2868 2869 2829
2829 2869 2870 2830
2830 2870 2871 2831
2831 2871 2872 2832
2832 2872 2873 2833
2833 2873 2874 2834
2834 2874 2875 2835
2835 2875 2876 2836
2836 2876 2877 2837
2837 2877 147 5
70 71 2878 2838
2838 2878 2879 2839
2839 2879 2880 2840
2840 2880 2881 2841
2841 2881 2882 2842
2842 2882 2883 2843
2843 2883 2884 2844
2844 2884 2885 2845
2845 2885 2886 2846
2846 2886 2887 2847
2847 2887 2888 2848
2848 2888 2889 2849
2849 2889 2890 2850
2850 2890 2891 2851
2851 2891 2892 2852
2852 2892 2893 2853
2853 2893 2894 2854
2854 2894 2895 2855
2855 2895 2896 2856
2856 2896 2897 2857
2857 2897 2898 2858
2858 2898 2899 2859
2859 2899 2900 2860
2860 2900 2901 2861
2861 2901 2902 2862
2862 2902 2903 2863
2863 2903 2904 2864
2864 2904 2905 2865
2865 2905 2906 2866
2866 2906 2907 2867
2867 2907 2908 2868
2868 2908 2909 2869
2869 2909 2910 2870
2870 2910 2911 2871
2871 2911 2912 2872
2872 2912 2913 2873
2873 2913 2914 2874
2874 2914 2915 2875
2875 2915 2916 2876
2876 2916 2917 2877
2877 2917 148 147
71 72 2918 2878
2878 2918 2919 2879
2879 2919 2920 2880
2880 2920 2921 2881
2881 2921 2922 2882
2882 2922 2923 2883
2883 2923 2924 2884
2884 2924 2925 2885
2885 2925 2926 2886
2886 2926 2927 2887
2887 2927 2928 2888
2888 2928 2929 2889
2889 2929 2930 2890
2890 2930 2931 2891
2891 2931 2932 2892
2892 2932 2933 2893
2893 2933 2934 2894
2894 2934 2935 2895
2895 2935 2936 2896
2896 2936 2937 2897
2897 2937 2938 2898
2898 2938 2939 2899
2899 2939 2940 2900
2900 2940 2941 2901
2901 2941 2942 2902
2902 2942 2943 2903
2903 2943 2944 2904
2904 2944 2945 2905
2905 2945 2946 2906
2906 2946 2947 2907
2907 2947 2948 2908
2908 2948 2949 2909
2909 2949 2950 2910
2910 2950 2951 2911
2911 2951 2952 2912
2912 2952 2953 2913
2913 2953 2954 2914
2914 2954 2955 2915
2915 2955 2956 2916
2916 2956 2957 2917
2917 2957 149 148
72 73 2958 2918
2918 2958 2959 2919
2919 2959 2960 2920
2920 2960 2961 2921
2921 2961 2962 2922
2922 2962 2963 2923
2923 2963 2964 2924
2924 2964 2965 2925
2925 2965 2966 2926
2926 2966 2967 2927
2927 2967 2968 2928
2928 2968 2969 2929
2929 2969 2970 2930
2930 2970 2971 2931
2931 2971 2972 2932
2932 2972 2973 2933
2933 2973 2974 2934
2934 2974 2975 2935
2935 2975 2976 2936
2936 2976 2977 2937
2937 2977 2978 2938
2938 2978 2979 2939
2939 2979 2980 2940
2940 2980 2981 2941
2941 2981 2982 2942
2942 2982 2983 2943
2943 2983 2984 2944
2944 2984 2985 2945
2945 2985 2986 2946
2946 2986 2987 2947
2947 2987 2988 2948
2948 2988 2989 2949
2949 2989 2990 2950
2950 2990 2991 2951
2951 2991 2992 2952
2952 2992 2993 2953
2953 2993 2994 2954
2954 2994 2995 2955
2955 2995 2996 2956
2956 2996 2997 2957
2957 2997 150 149
73 74 2998 2958
2958 2998 2999 2959
2959 2999 3000 2960
2960 3000 3001 2961
2961 3001 3002 2962
2962 3002 3003 2963
2963 3003 3004 2964
2964 3004 3005 2965
2965 3005 3006 2966
2966 3006 3007 2967
2967 3007 3008 2968
2968 3008 3009 2969
2969 3009 3010 2970
2970 3010 3011 2971
2971 3011 3012 2972
2972 3012 3013 2973
2973 3013 3014 2974
2974 3014 3015 2975
2975 3015 3016 2976
2976 3016 3017 2977
2977 3017 3018 2978
2978 3018 3019 2979
2979 3019 3020 2980
2980 3020 3021 2981
2981 3021 3022 2982
2982 3022 3023 2983
2983 3023 3024 2984
2984 3024 3025 2985
2985 3025 3026 2986
2986 3026 3027 2987
2987 3027 3028 2988
2988 3028 3029 2989
2989 3029 3030 2990
2990 3030 3031 2991
2991 3031 3032 2992
2992 3032 3033 2993
2993 3033 3034 2994
2994 3034 3035 2995
2995 3035 3036 2996
2996 3036 3037 2997
2997 3037 151 150
74 75 3038 2998
2998 3038 3039 2999
2999 3039 3040 3000
3000 3040 3041 3001
3001 3041 3042 3002
3002 3042 3043 3003
3003 3043 3044 3004
3004 3044 3045 3005
3005 3045 3046 3006
3006 3046 3047 3007
3007 3047 3048 3008
3008 3048 3049 3009
3009 3049 3050 3010
3010 3050 3051 3011
3011 3051 3052 3012
3012 3052 3053 3013
3013 3053 3054 3014
3014 3054 3055 3015
3015 3055 3056 3016
3016 3056 3057 3017
3017 3057 3058 3018
3018 3058 3059 3019
3019 3059 3060 3020
3020 3060 3061 3021
3021 3061 3062 3022
3022 3062 3063 3023
3023 3063 3064 3024
3024 3064 3065 3025
3025 3065 3066 3026
3026 3066 3067 3027
3027 3067 3068 3028
3028 3068 3069 3029
3029 3069 3070 3030
3030 3070 3071 3031
3031 3071 3072 3032
3032 3072 3073 3033
3033 3073 3074 3034
3034 3074 3075 3035
3035 3075 3076 3036
3036 3076 3077 3037
3037 3077 152 151
75 76 3078 3038
3038 3078 3079 3039
3039 3079 3080 3040
3040 3080 3081 3041
3041 3081 3082 3042
3042 3082 3083 3043
3043 3083 3084 3044
3044 3084 3085 3045
3045 3085 3086 3046
3046 3086 3087 3047
3047 3087 3088 3048
3048 3088 3089 3049
3049 3089 3090 3050
3050 3090 3091 3051
3051 3091 3092 3052
3052 3092 3093 3053
3053 3093 3094 3054
3054 3094 3095 3055
3055 3095 3096 3056
3056 3096 3097 3057
3057 3097 3098 3058
3058 3098 3099 3059
3059 3099 3100 3060
3060 3100 3101 3061
3061 3101 3102 3062
3062 3102 3103 3063
3063 3103 3104 3064
3064 3104 3105 3065
3065 3105 3106 3066
3066 3106 3107 3067
3067 3107 3108 3068
3068 3108 3109 3069
3069 3109 3110 3070
3070 3110 3111 3071
3071 3111 3112 3072
3072 3112 3113 3073
3073 3113 3114 3074
3074 3114 3115 3075
3075 3115 3116 3076
3076 3116 3117 3077
3077 3117 153 152
76 77 3118 3078
3078 3118 3119 3079
3079 3119 3120 3080
3080 3120 3121 3081
3081 3121 3122 3082
3082 3122 3123 3083
3083 3123 3124 3084
3084 3124 3125 3085
3085 3125 3126 3086
3086 3126 3127 3087
3087 3127 3128 3088
3088 3128 3129 3089
3089 3129 3130 3090
3090 3130 3131 3091
3091 3131 3132 3092
3092 3132 3133 3093
3093 3133 3134 3094
3094 3134 3135 3095
3095 3135 3136 3096
3096 3136 3137 3097
3097 3137 3138 3098
3098 3138 3139 3099
3099 3139 3140 3100
3100 3140 3141 3101
3101 3141 3142 3102
3102 3142 3143 3103
3103 3143 3144 3104
3104 3144 3145 3105
3105 3145 3146 3106
3106 3146 3147 3107
3107 3147 3148 3108
3108 3148 3149 3109
3109 3149 3150 3110
3110 3150 3151 3111
3111 3151 3152 3112
3112 3152 3153 3113
3113 3153 3154 3114
3114 3154 3155 3115
3115 3155 3156 3116
3116 3156 3157 3117
3117 3157 154 153
77 78 3158 3118
3118 3158 3159 3119
3119 3159 3160 3120
3120 3160 3161 3121
3121 3161 3162 3122
3122 3162 3163 3123
3123 3163 3164 3124
3124 3164 3165 3125
3125 3165 3166 3126
3126 3166 3167 3127
3127 3167 3168 3128
3128 3168 3169 3129
3129 3169 3170 3130
3130 3170 3171 3131
3131 3171 3172 3132
3132 3172 3173 3133
3133 3173 3174 3134
3134 3174 3175 3135
3135 3175 3176 3136
3136 3176 3177 3137
3137 3177 3178 3138
3138 3178 3179 3139
3139 3179 3180 3140
3140 3180 3181 3141
3141 3181 3182 3142
3142 3182 3183 3143
3143 3183 3184 3144
3144 3184 3185 3145
3145 3185 3186 3146
3146 3186 3187 3147
3147 3187 3188 3148
3148 3188 3189 3149
3149 3189 3190 3150
3150 3190 3191 3151
3151 3191 3192 3152
3152 3192 3193 3153
3153 3193 3194 3154
3154 3194 3195 3155
3155 3195 3196 3156
3156 3196 3197 3157
3157 3197 155 154
78 79 3198 3158
3158 3198 3199 3159
3159 3199 3200 3160
3160 3200 3201 3161
3161 3201 3202 3162
3162 3202 3203 3163
3163 3203 3204 3164
3164 3204 3205 3165
3165 3205 3206 3166
3166 3206 3207 3167
3167 3207 3208 3168
3168 3208 3209 3169
3169 3209 3210 3170
3170 3210 3211 3171
3171 3211 3212 3172
3172 3212 3213 3173
3173 3213 3214 3174
3174 3214 3215 3175
3175 3215 3216 3176
3176 3216 3217 3177
3177 3217 3218 3178
3178 3218 3219 3179
3179 3219 3220 3180
3180 3220 3221 3181
3181 3221 3222 3182
3182 3222 3223 3183
3183 3223 3224 3184
3184 3224 3225 3185
3185 3225 3226 3186
3186 3226 3227 3187
3187 3227 3228 3188
3188 3228 3229 3189
3189 3229 3230 3190
3190 3230 3231 3191
3191 3231 3232 3192
3192 3232 3233 3193
3193 3233 3234 3194
3194 3234 3235 3195
3195 3235 3236 3196
3196 3236 3237 3197
3197 3237 156 155
79 80 3238 3198
3198 3238 3239 3199
3199 3239 3240 3200
3200 3240 3241 3201
3201 3241 3242 3202
3202 3242 3243 3203
3203 3243 3244 3204
3204 3244 3245 3205
3205 3245 3246 3206
3206 3246 3247 3207
3207 3247 3248 3208
3208 3248 3249 3209
3209 3249 3250 3210
3210 3250 3251 3211
3211 3251 3252 3212
3212 3252 3253 3213
3213 3253 3254 3214
3214 3254 3255 3215
3215 3255 3256 3216
3216 3256 3257 3217
3217 3257 3258 3218
3218 3258 3259 3219
3219 3259 3260 3220
3220 3260 3261 3221
3221 3261 3262 3222
3222 3262 3263 3223
3223 3263 3264 3224
3224 3264 3265 3225
3225 3265 3266 3226
3226 3266 3267 3227
3227 3267 3268 3228
3228 3268 3269 3229
3229 3269 3270 3230
3230 3270 3271 3231
3231 3271 3272 3232
3232 3272 3273 3233
3233 3273 3274 3234
3234 3274 3275 3235
3235 3275 3276 3236
3236 3276 3277 3237
3237 3277 157 156
80 81 3278 3238
3238 3278 3279 3239
3239 3279 3280 3240
3240 3280 3281 3241
3241 3281 3282 3242
3242 3282 3283 3243
3243 3283 3284 3244
3244 3284 3285 3245
3245 3285 3286 3246
3246 3286 3287 3247
3247 3287 3288 3248
3248 3288 3289 3249
3249 3289 3290 3250
3250 3290 3291 3251
3251 3291 3292 3252
3252 3292 3293 3253
3253 3293 3294 3254
3254 3294 3295 3255
3255 3295 3296 3256
3256 3296 3297 3257
3257 3297 3298 3258
3258 3298 3299 3259
3259 3299 3300 3260
3260 3300 3301 3261
3261 3301 3302 3262
3262 3302 3303 3263
3263 3303 3304 3264
3264 3304 3305 3265
3265 3305 3306 3266
3266 3306 3307 3267
3267 3307 3308 3268
3268 3308 3309 3269
3269 3309 3310 3270
3270 3310 3311 3271
3271 3311 3312 3272
3272 3312 3313 3273
3273 3313 3314 3274
3274 3314 3315 3275
3275 3315 3316 3276
3276 3316 3317 3277
3277 3317 158 157
81 82 3318 3278
3278 3318 3319 3279
3279 3319 3320 3280
3280 3320 3321 3281
3281 3321 3322 3282
3282 3322 3323 3283
3283 3323 3324 3284
3284 3324 3325 3285
3285 3325 3326 3286
3286 3326 3327 3287
3287 3327 3328 3288
3288 3328 3329 3289
3289 3329 3330 3290
3290 3330 3331 3291
3291 3331 3332 3292
3292 3332 3333 3293
3293 3333 3334 3294
3294 3334 3335 3295
3295 3335 3336 3296
3296 3336 3337 3297
3297 3337 3338 3298
3298 3338 3339 3299
3299 3339 3340 3300
3300 3340 3341 3301
3301 3341 3342 3302
3302 3342 3343 3303
3303 3343 3344 3304
3304 3344 3345 3305
3305 3345 3346 3306
3306 3346 3347 3307
3307 3347 3348 3308
3308 3348 3349 3309
3309 3349 3350 3310
3310 3350 3351 3311
3311 3351 3352 3312
3312 3352 3353 3313
3313 3353 3354 3314
3314 3354 3355 3315
3315 3355 3356 3316
3316 3356 3357 3317
3317 3357 159 158
82 83 3358 3318
3318 3358 3359 3319
3319 3359 3360 3320
3320 3360 3361 3321
3321 3361 3362 3322
3322 3362 3363 3323
3323 3363 3364 3324
3324 3364 3365 3325
3325 3365 3366 3326
3326 3366 3367 3327
3327 3367 3368 3328
3328 3368 3369 3329
3329 3369 3370 3330
3330 3370 3371 3331
3331 3371 3372 3332
3332 3372 3373 3333
3333 3373 3374 3334
3334 3374 3375 3335
3335 3375 3376 3336
3336 3376 3377 3337
3337 3377 3378 3338
3338 3378 3379 3339
3339 3379 3380 3340
3340 3380 3381 3341
3341 3381 3382 3342
3342 3382 3383 3343
3343 3383 3384 3344
3344 3384 3385 3345
3345 3385 3386 3346
3346 3386 3387 3347
3347 3387 3388 3348
3348 3388 3389 3349
3349 3389 3390 3350
3350 3390 3391 3351
3351 3391 3392 3352
3352 3392 3393 3353
3353 3393 3394 3354
3354 3394 3395 3355
3355 3395 3396 3356
3356 3396 3397 3357
3357 3397 160 159
83 84 3398 3358
3358 3398 3399 3359
3359 3399 3400 3360
3360 3400 3401 3361
3361 3401 3402 3362
3362 3402 3403 3363
3363 3403 3404 3364
3364 3404 3405 3365
3365 3405 3406 3366
3366 3406 3407 3367
3367 3407 3408 3368
3368 3408 3409 3369
3369 3409 3410 3370
3370 3410 3411 3371
3371 3411 3412 3372
3372 3412 3413 3373
3373 3413 3414 3374
3374 3414 3415 3375
3375 3415 3416 3376
3376 3416 3417 3377
3377 3417 3418 3378
3378 3418 3419 3379
3379 3419 3420 3380
3380 3420 3421 3381
3381 3421 3422 3382
3382 3422 3423 3383
3383 3423 3424 3384
3384 3424 3425 3385
3385 3425 3426 3386
3386 3426 3427 3387
3387 3427 3428 3388
3388 3428 3429 3389
3389 3429 3430 3390
3390 3430 3431 3391
3391 3431 3432 3392
3392 3432 3433 3393
3393 3433 3434 3394
3394 3434 3435 3395
3395 3435 3436 3396
3396 3436 3437 3397
3397 3437 161 160
84 85 3438 3398
3398 3438 3439 3399
3399 3439 3440 3400
3400 3440 3441 3401
3401 3441 3442 3402
3402 3442 3443 3403
3403 3443 3444 3404
3404 3444 3445 3405
3405 3445 3446 3406
3406 3446 3447 3407
3407 3447 3448 3408
3408 3448 3449 3409
3409 3449 3450 3410
3410 3450 3451 3411
3411 3451 3452 3412
3412 3452 3453 3413
3413 3453 3454 3414
3414 3454 3455 3415
3415 3455 3456 3416
3416 3456 3457 3417
3417 3457 3458 3418
3418 3458 3459 3419
3419 3459 3460 3420
3420 3460 3461 3421
3421 3461 3462 3422
3422 3462 3463 3423
3423 3463 3464 3424
3424 3464 3465 3425
3425 3465 3466 3426
3426 3466 3467 3427
3427 3467 3468 3428
3428 3468 3469 3429
3429 3469 3470 3430
3430 3470 3471 3431
3431 3471 3472 3432
3432 3472 3473 3433
3433 3473 3474 3434
3434 3474 3475 3435
3435 3475 3476 3436
3436 3476 3477 3437
3437 3477 162 161
85 86 3478 3438
3438 3478 3479 3439
3439 3479 3480 3440
3440 3480 3481 3441
3441 3481 3482 3442
3442 3482 3483 3443
3443 3483 3484 3444
3444 3484 3485 3445
3445 3485 3486 3446
3446 3486 3487 3447
3447 3487 3488 3448
3448 3488 3489 3449
3449 3489 3490 3450
3450 3490 3491 3451
3451 3491 3492 3452
3452 3492 3493 3453
3453 3493 3494 3454
3454 3494 3495 3455
3455 3495 3496 3456
3456 3496 3497 3457
3457 3497 3498 3458
3458 3498 3499 3459
3459 3499 3500 3460
3460 3500 3501 3461
3461 3501 3502 3462
3462 3502 3503 3463
3463 3503 3504 3464
3464 3504 3505 3465
3465 3505 3506 3466
3466 3506 3507 3467
3467 3507 3508 3468
3468 3508 3509 3469
3469 3509 3510 3470
3470 3510 3511 3471
3471 3511 3512 3472
3472 3512 3513 3473
3473 3513 3514 3474
3474 3514 3515 3475
3475 3515 3516 3476
3476 3516 3517 3477
3477 3517 163 162
86 87 3518 3478
3478 3518 3519 3479
3479 3519 3520 3480
3480 3520 3521 3481
3481 3521 3522 3482
3482 3522 3523 3483
3483 3523 3524 3484
3484 3524 3525 3485
3485 3525 3526 3486
3486 3526 3527 3487
3487 3527 3528 3488
3488 3528 3529 3489
3489 3529 3530 3490
3490 3530 3531 3491
3491 3531 3532 3492
3492 3532 3533 3493
3493 3533 3534 3494
3494 3534 3535 3495
3495 3535 3536 3496
3496 3536 3537 3497
3497 3537 3538 3498
3498 3538 3539 3499
3499 3539 3540 3500
3500 3540 3541 3501
3501 3541 3542 3502
3502 3542 3543 3503
3503 3543 3544 3504
3504 3544 3545 3505
3505 3545 3546 3506
3506 3546 3547 3507
3507 3547 3548 3508
3508 3548 3549 3509
3509 3549 3550 3510
3510 3550 3551 3511
3511 3551 3552 3512
3512 3552 3553 3513
3513 3553 3554 3514
3514 3554 3555 3515
3515 3555 3556 3516
3516 3556 3557 3517
3517 3557 164 163
87 88 3558 3518
3518 3558 3559 3519
3519 3559 3560 3520
3520 3560 3561 3521
3521 3561 3562 3522
3522 3562 3563 3523
3523 3563 3564 3524
3524 3564 3565 3525
3525 3565 3566 3526
3526 3566 3567 3527
3527 3567 3568 3528
3528 3568 3569 3529
3529 3569 3570 3530
3530 3570 3571 3531
3531 3571 3572 3532
3532 3572 3573 3533
3533 3573 3574 3534
3534 3574 3575 3535
3535 3575 3576 3536
3536 3576 3577 3537
3537 3577 3578 3538
3538 3578 3579 3539
3539 3579 3580 3540
3540 3580 3581 3541
3541 3581 3582 3542
3542 3582 3583 3543
3543 3583 3584 3544
3544 3584 3585 3545
3545 3585 3586 3546
3546 3586 3587 3547
3547 3587 3588 3548
3548 3588 3589 3549
3549 3589 3590 3550
3550 3590 3591 3551
3551 3591 3592 3552
3552 3592 3593 3553
3553 3593 3594 3554
3554 3594 3595 3555
3555 3595 3596 3556
3556 3596 3597 3557
3557 3597 165 164
88 2 322 3558
3558 322 321 3559
3559 321 320 3560
3560 320 319 3561
3561 319 318 3562
3562 318 317 3563
3563 317 316 3564
3564 316 315 3565
3565 315 314 3566
3566 314 313 3567
3567 313 312 3568
3568 312 311 3569
3569 311 310 3570
3570 310 309 3571
3571 309 308 3572
3572 308 307 3573
3573 307 306 3574
3574 306 305 3575
3575 305 304 3576
3576 304 303 3577
3577 303 302 3578
3578 302 301 3579
3579 301 300 3580
3580 300 299 3581
3581 299 298 3582
3582 298 297 3583
3583 297 296 3584
3584 296 295 3585
3585 295 294 3586
3586 294 293 3587
3587 293 292 3588
3588 292 291 3589
3589 291 290 3590
3590 290 289 3591
3591 289 288 3592
3592 288 287 3593
3593 287 286 3594
3594 286 285 3595
3595 285 284 3596
3596 284 283 3597
3597 283 6 165
4 108 3598 380
380 3598 3599 379
379 3599 3600 378
378 3600 3601 377
377 3601 3602 376
376 3602 3603 375
375 3603 3604 374
374 3604 3605 373
373 3605 3606 372
372 3606 3607 371
371 3607 3608 370
370 3608 3609 369
369 3609 3610 368
368 3610 3611 367
367 3611 3612 366
366 3612 3613 365
365 3613 3614 364
364 3614 3615 363
363 3615 3616 362
362 3616 323 9
108 109 3617 3598
3598 3617 3618 3599
3599 3618 3619 3600
3600 3619 3620 3601
3601 3620 3621 3602
3602 3621 3622 3603
3603 3622 3623 3604
3604 3623 3624 3605
3605 3624 3625 3606
3606 3625 3626 3607
3607 3626 3627 3608
3608 3627 3628 3609
3609 3628 3629 3610
3610 3629 3630 3611
3611 3630 3631 3612
3612 3631 3632 3613
3613 3632 3633 3614
3614 3633 3634 3615
3615 3634 3635 3616
3616 3635 324 323
109 110 3636 3617
3617 3636 3637 3618
3618 3637 3638 3619
3619 3638 3639 3620
3620 3639 3640 3621
3621 3640 3641 3622
3622 3641 3642 3623
3623 3642 3643 3624
3624 3643 3644 3625
3625 3644 3645 3626
3626 3645 3646 3627
3627 3646 3647 3628
3628 3647 3648 3629
3629 3648 3649 3630
3630 3649 3650 3631
3631 3650 3651 3632
3632 3651 3652 3633
3633 3652 3653 3634
3634 3653 3654 3635
3635 3654 325 324
110 111 3655 3636
3636 3655 3656 3637
3637 3656 3657 3638
3638 3657 3658 3639
3639 3658 3659 3640
3640 3659 3660 3641
3641 3660 3661 3642
3642 3661 3662 3643
3643 3662 3663 3644
3644 3663 3664 3645
3645 3664 3665 3646
3646 3665 3666 3647
3647 3666 3667 3648
3648 3667 3668 3649
3649 3668 3669 3650
3650 3669 3670 3651
3651 3670 3671 3652
3652 3671 3672 3653
3653 3672 3673 3654
3654 3673 326 325
111 112 3674 3655
3655 3674 3675 3656
3656 3675 3676 3657
3657 3676 3677 3658
3658 3677 3678 3659
3659 3678 3679 3660
3660 3679 3680 3661
3661 3680 3681 3662
3662 3681 3682 3663
3663 3682 3683 3664
3664 3683 3684 3665
3665 3684 3685 3666
3666 3685 3686 3667
3667 3686 3687 3668
3668 3687 3688 3669
3669 3688 3689 3670
3670 3689 3690 3671
3671 3690 3691 3672
3672 3691 3692 3673
3673 3692 327 326
112 113 3693 3674
3674 3693 3694 3675
3675 3694 3695 3676
3676 3695 3696 3677
3677 3696 3697 3678
3678 3697 3698 3679
3679 3698 3699 3680
3680 3699 3700 3681
3681 3700 3701 3682
3682 3701 3702 3683
3683 3702 3703 3684
3684 3703 3704 3685
3685 3704 3705 3686
3686 3705 3706 3687
3687 3706 3707 3688
3688 3707 3708 3689
3689 3708 3709 3690
3690 3709 3710 3691
3691 3710 3711 3692
3692 3711 328 327
113 114 3712 3693
3693 3712 3713 3694
3694 3713 3714 3695
3695 3714 3715 3696
3696 3715 3716 3697
3697 3716 3717 3698
3698 3717 3718 3699
3699 3718 3719 3700
3700 3719 3720 3701
3701 3720 3721 3702
3702 3721 3722 3703
3703 3722 3723 3704
3704 3723 3724 3705
3705 3724 3725 3706
3706 3725 3726 3707
3707 3726 3727 3708
3708 3727 3728 3709
3709 3728 3729 3710
3710 3729 3730 3711
3711 3730 329 328
114 115 3731 3712
3712 3731 3732 3713
3713 3732 3733 3714
3714 3733 3734 3715
3715 3734 3735 3716
3716 3735 3736 3717
3717 3736 3737 3718
3718 3737 3738 3719
3719 3738 3739 3720
3720 3739 3740 3721
3721 3740 3741 3722
3722 3741 3742 3723
3723 3742 3743 3724
3724 3743 3744 3725
3725 3744 3745 3726
3726 3745 3746 3727
3727 3746 3747 3728
3728 3747 3748 3729
3729 3748 3749 3730
3730 3749 330 329
115 116 3750 3731
3731 3750 3751 3732
3732 3751 3752 3733
3733 3752 3753 3734
3734 3753 3754 3735
3735 3754 3755 3736
3736 3755 3756 3737
3737 3756 3757 3738
3738 3757 3758 3739
3739 3758 3759 3740
3740 3759 3760 3741
3741 3760 3761 3742
3742 3761 3762 3743
3743 3762 3763 3744
3744 3763 3764 3745
3745 3764 3765 3746
3746 3765 3766 3747
3747 3766 3767 3748
3748 3767 3768 3749
3749 3768 331 330
116 117 3769 3750
3750 3769 3770 3751
3751 3770 3771 3752
3752 3771 3772 3753
3753 3772 3773 3754
3754 3773 3774 3755
3755 3774 3775 3756
3756 3775 3776 3757
3757 3776 3777 3758
3758 3777 3778 3759
3759 3778 3779 3760
3760 3779 3780 3761
3761 3780 3781 3762
3762 3781 3782 3763
3763 3782 3783 3764
3764 3783 3784 3765
3765 3784 3785 3766
3766 3785 3786 3767
3767 3786 3787 3768
3768 3787 332 331
117 118 3788 3769
3769 3788 3789 3770
3770 3789 3790 3771
3771 3790 3791 3772
3772 3791 3792 3773
3773 3792 3793 3774
3774 3793 3794 3775
3775 3794 3795 3776
3776 3795 3796 3777
3777 3796 3797 3778
3778 3797 3798 3779
3779 3798 3799 3780
3780 3799 3800 3781
3781 3800 3801 3782
3782 3801 3802 3783
3783 3802 3803 3784
3784 3803 3804 3785
3785 3804 3805 3786
3786 3805 3806 3787
3787 3806 333 332
118 119 3807 3788
3788 3807 3808 3789
3789 3808 3809 3790
3790 3809 3810 3791
3791 3810 3811 3792
3792 3811 3812 3793
3793 3812 3813 3794
3794 3813 3814 3795
3795 3814 3815 3796
3796 3815 3816 3797
3797 3816 3817 3798
3798 3817 3818 3799
3799 3818 3819 3800
3800 3819 3820 3801
3801 3820 3821 3802
3802 3821 3822 3803
3803 3822 3823 3804
3804 3823 3824 3805
3805 3824 3825 3806
3806 3825 334 333
119 120 3826 3807
3807 3826 3827 3808
3808 3827 3828 3809
3809 3828 3829 3810
3810 3829 3830 3811
3811 3830 3831 3812
3812 3831 3832 3813
3813 3832 3833 3814
3814 3833 3834 3815
3815 3834 3835 3816
3816 3835 3836 3817
3817 3836 3837 3818
3818 3837 3838 3819
3819 3838 3839 3820
3820 3839 3840 3821
3821 3840 3841 3822
3822 3841 3842 3823
3823 3842 3843 3824
3824 3843 3844 3825
3825 3844 335 334
120 121 3845 3826
3826 3845 3846 3827
3827 3846 3847 3828
3828 3847 3848 3829
3829 3848 3849 3830
3830 3849 3850 3831
3831 3850 3851 3832
3832 3851 3852 3833
3833 3852 3853 3834
3834 3853 3854 3835
3835 3854 3855 3836
3836 3855 3856 3837
3837 3856 3857 3838
3838 3857 3858 3839
3839 3858 3859 3840
3840 3859 3860 3841
3841 3860 3861 3842
3842 3861 3862 3843
3843 3862 3863 3844
3844 3863 336 335
121 122 3864 3845
3845 3864 3865 3846
3846 3865 3866 3847
3847 3866 3867 3848
3848 3867 3868 3849
3849 3868 3869 3850
3850 3869 3870 3851
3851 3870 3871 3852
3852 3871 3872 3853
3853 3872 3873 3854
3854 3873 3874 3855
3855 3874 3875 3856
3856 3875 3876 3857
3857 3876 3877 3858
3858 3877 3878 3859
3859 3878 3879 3860
3860 3879 3880 3861
3861 3880 3881 3862
3862 3881 3882 3863
3863 3882 337 336
122 123 3883 3864
3864 3883 3884 3865
3865 3884 3885 3866
3866 3885 3886 3867
3867 3886 3887 3868
3868 3887 3888 3869
3869 3888 3889 3870
3870 3889 3890 3871
3871 3890 3891 3872
3872 3891 3892 3873
3873 3892 3893 3874
3874 3893 3894 3875
3875 3894 3895 3876
3876 3895 3896 3877
3877 3896 3897 3878
3878 3897 3898 3879
3879 3898 3899 3880
3880 3899 3900 3881
3881 3900 3901 3882
3882 3901 338 337
123 124 3902 3883
3883 3902 3903 3884
3884 3903 3904 3885
3885 3904 3905 3886
3886 3905 3906 3887
3887 3906 3907 3888
3888 3907 3908 3889
3889 3908 3909 3890
3890 3909 3910 3891
3891 3910 3911 3892
3892 3911 3912 3893
3893 3912 3913 3894
3894 3913 3914 3895
3895 3914 3915 3896
3896 3915 3916 3897
3897 3916 3917 3898
3898 3917 3918 3899
3899 3918 3919 3900
3900 3919 3920 3901
3901 3920 339 338
124 125 3921 3902
3902 3921 3922 3903
3903 3922 3923 3904
3904 3923 3924 3905
3905 3924 3925 3906
3906 3925 3926 3907
3907 3926 3927 3908
3908 3927 3928 3909
3909 3928 3929 3910
3910 3929 3930 3911
3911 3930 3931 3912
3912 3931 3932 3913
3913 3932 3933 3914
3914 3933 3934 3915
3915 3934 3935 3916
3916 3935 3936 3917
3917 3936 3937 3918
3918 3937 3938 3919
3919 3938 3939 3920
3920 3939 340 339
125 126 3940 3921
3921 3940 3941 3922
3922 3941 3942 3923
3923 3942 3943 3924
3924 3943 3944 3925
3925 3944 3945 3926
3926 3945 3946 3927
3927 3946 3947 3928
3928 3947 3948 3929
3929 3948 3949 3930
3930 3949 3950 3931
3931 3950 3951 3932
3932 3951 3952 3933
3933 3952 3953 3934
3934 3953 3954 3935
3935 3954 3955 3936
3936 3955 3956 3937
3937 3956 3957 3938
3938 3957 3958 3939
3939 3958 341 340
126 127 3959 3940
3940 3959 3960 3941
3941 3960 3961 3942
3942 3961 3962 3943
3943 3962 3963 3944
3944 3963 3964 3945
3945 3964 3965 3946
3946 3965 3966 3947
3947 3966 3967 3948
3948 3967 3968 3949
3949 3968 3969 3950
3950 3969 3970 3951
3951 3970 3971 3952
3952 3971 3972 3953
3953 3972 3973 3954
3954 3973 3974 3955
3955 3974 3975 3956
3956 3975 3976 3957
3957 3976 3977 3958
3958 3977 342 341
127 128 3978 3959
3959 3978 3979 3960
3960 3979 3980 3961
3961 3980 3981 3962
3962 3981 3982 3963
3963 3982 3983 3964
3964 3983 3984 3965
3965 3984 3985 3966
3966 3985 3986 3967
3967 3986 3987 3968
3968 3987 3988 3969
3969 3988 3989 3970
3970 3989 3990 3971
3971 3990 3991 3972
3972 3991 3992 3973
3973 3992 3993 3974
3974 3993 3994 3975
3975 3994 3995 3976
3976 3995 3996 3977
3977 3996 343 342
128 129 3997 3978
3978 3997 3998 3979
3979 3998 3999 3980
3980 3999 4000 3981
3981 4000 4001 3982
3982 4001 4002 3983
3983 4002 4003 3984
3984 4003 4004 3985
3985 4004 4005 3986
3986 4005 4006 3987
3987 4006 4007 3988
3988 4007 4008 3989
3989 4008 4009 3990
3990 4009 4010 3991
3991 4010 4011 3992
3992 4011 4012 3993
3993 4012 4013 3994
3994 4013 4014 3995
3995 4014 4015 3996
3996 4015 344 343
129 130 4016 3997
3997 4016 4017 3998
3998 4017 4018 3999
3999 4018 4019 4000
4000 4019 4020 4001
4001 4020 4021 4002
4002 4021 4022 4003
4003 4022 4023 4004
4004 4023 4024 4005
4005 4024 4025 4006
4006 4025 4026 4007
4007 4026 4027 4008
4008 4027 4028 4009
4009 4028 4029 4010
4010 4029 4030 4011
4011 4030 4031 4012
4012 4031 4032 4013
4013 4032 4033 4014
4014 4033 4034 4015
4015 4034 345 344
130 131 4035 4016
4016 4035 4036 4017
4017 4036 4037 4018
4018 4037 4038 4019
4019 4038 4039 4020
4020 4039 4040 4021
4021 4040 4041 4022
4022 4041 4042 4023
4023 4042 4043 4024
4024 4043 4044 4025
4025 4044 4045 4026
4026 4045 4046 4027
4027 4046 4047 4028
4028 4047 4048 4029
4029 4048 4049 4030
4030 4049 4050 4031
4031 4050 4051 4032
4032 4051 4052 4033
4033 4052 4053 4034
4034 4053 346 345
131 132 4054 4035
4035 4054 4055 4036
4036 4055 4056 4037
4037 4056 4057 4038
4038 4057 4058 4039
4039 4058 4059 4040
4040 4059 4060 4041
4041 4060 4061 4042
4042 4061 4062 4043
4043 4062 4063 4044
4044 4063 4064 4045
4045 4064 4065 4046
4046 4065 4066 4047
4047 4066 4067 4048
4048 4067 4068 4049
4049 4068 4069 4050
4050 4069 4070 4051
4051 4070 4071 4052
4052 4071 4072 4053
4053 4072 347 346
132 133 4073 4054
4054 4073 4074 4055
4055 4074 4075 4056
4056 4075 4076 4057
4057 4076 4077 4058
4058 4077 4078 4059
4059 4078 4079 4060
4060 4079 4080 4061
4061 4080 4081 4062
4062 4081 4082 4063
4063 4082 4083 4064
4064 4083 4084 4065
4065 4084 4085 4066
4066 4085 4086 4067
4067 4086 4087 4068
4068 4087 4088 4069
4069 4088 4089 4070
4070 4089 4090 4071
4071 4090 4091 4072
4072 4091 348 347
133 134 4092 4073
4073 4092 4093 4074
4074 4093 4094 4075
4075 4094 4095 4076
4076 4095 4096 4077
4077 4096 4097 4078
4078 4097 4098 4079
4079 4098 4099 4080
4080 4099 4100 4081
4081 4100 4101 4082
4082 4101 4102 4083
4083 4102 4103 4084
4084 4103 4104 4085
4085 4104 4105 4086
4086 4105 4106 4087
4087 4106 4107 4088
4088 4107 4108 4089
4089 4108 4109 4090
4090 4109 4110 4091
4091 4110 349 348
134 135 4111 4092
4092 4111 4112 4093
4093 4112 4113 4094
4094 4113 4114 4095
4095 4114 4115 4096
4096 4115 4116 4097
4097 4116 4117 4098
4098 4117 4118 4099
4099 4118 4119 4100
4100 4119 4120 4101
4101 4120 4121 4102
4102 4121 4122 4103
4103 4122 4123 4104
4104 4123 4124 4105
4105 4124 4125 4106
4106 4125 4126 4107
4107 4126 4127 4108
4108 4127 4128 4109
4109 4128 4129 4110
4110 4129 350 349
135 136 4130 4111
4111 4130 4131 4112
4112 4131 4132 4113
4113 4132 4133 4114
4114 4133 4134 4115
4115 4134 4135 4116
4116 4135 4136 4117
4117 4136 4137 4118
4118 4137 4138 4119
4119 4138 4139 4120
4120 4139 4140 4121
4121 4140 4141 4122
4122 4141 4142 4123
4123 4142 4143 4124
4124 4143 4144 4125
4125 4144 4145 4126
4126 4145 4146 4127
4127 4146 4147 4128
4128 4147 4148 4129
4129 4148 351 350
136 137 4149 4130
4130 4149 4150 4131
4131 4150 4151 4132
4132 4151 4152 4133
4133 4152 4153 4134
4134 4153 4154 4135
4135 4154 4155 4136
4136 4155 4156 4137
4137 4156 4157 4138
4138 4157 4158 4139
4139 4158 4159 4140
4140 4159 4160 4141
4141 4160 4161 4142
4142 4161 4162 4143
4143 4162 4163 4144
4144 4163 4164 4145
4145 4164 4165 4146
4146 4165 4166 4147
4147 4166 4167 4148
4148 4167 352 351
137 138 4168 4149
4149 4168 4169 4150
4150 4169 4170 4151
4151 4170 4171 4152
4152 4171 4172 4153
4153 4172 4173 4154
4154 4173 4174 4155
4155 4174 4175 4156
4156 4175 4176 4157
4157 4176 4177 4158
4158 4177 4178 4159
4159 4178 4179 4160
4160 4179 4180 4161
4161 4180 4181 4162
4162 4181 4182 4163
4163 4182 4183 4164
4164 4183 4184 4165
4165 4184 4185 4166
4166 4185 4186 4167
4167 4186 353 352
138 139 4187 4168
4168 4187 4188 4169
4169 4188 4189 4170
4170 4189 4190 4171
4171 4190 4191 4172
4172 4191 4192 4173
4173 4192 4193 4174
4174 4193 4194 4175
4175 4194 4195 4176
4176 4195 4196 4177
4177 4196 4197 4178
4178 4197 4198 4179
4179 4198 4199 4180
4180 4199 4200 4181
4181 4200 4201 4182
4182 4201 4202 4183
4183 4202 4203 4184
4184 4203 4204 4185
4185 4204 4205 4186
4186 4205 354 353
139 140 4206 4187
4187 4206 4207 4188
4188 4207 4208 4189
4189 4208 4209 4190
4190 4209 4210 4191
4191 4210 4211 4192
4192 4211 4212 4193
4193 4212 4213 4194
4194 4213 4214 4195
4195 4214 4215 4196
4196 4215 4216 4197
4197 4216 4217 4198
4198 4217 4218 4199
4199 4218 4219 4200
4200 4219 4220 4201
4201 4220 4221 4202
4202 4221 4222 4203
4203 4222 4223 4204
4204 4223 4224 4205
4205 4224 355 354
140 141 4225 4206
4206 4225 4226 4207
4207 4226 4227 4208
4208 4227 4228 4209
4209 4228 4229 4210
4210 4229 4230 4211
4211 4230 4231 4212
4212 4231 4232 4213
4213 4232 4233 4214
4214 4233 4234 4215
4215 4234 4235 4216
4216 4235 4236 4217
4217 4236 4237 4218
4218 4237 4238 4219
4219 4238 4239 4220
4220 4239 4240 4221
4221 4240 4241 4222
4222 4241 4242 4223
4223 4242 4243 4224
4224 4243 356 355
141 142 4244 4225
4225 4244 4245 4226
4226 4245 4246 4227
4227 4246 4247 4228
4228 4247 4248 4229
4229 4248 4249 4230
4230 4249 4250 4231
4231 4250 4251 4232
4232 4251 4252 4233
4233 4252 4253 4234
4234 4253 4254 4235
4235 4254 4255 4236
4236 4255 4256 4237
4237 4256 4257 4238
4238 4257 4258 4239
4239 4258 4259 4240
4240 4259 4260 4241
4241 4260 4261 4242
4242 4261 4262 4243
4243 4262 357 356
142 143 4263 4244
4244 4263 4264 4245
4245 4264 4265 4246
4246 4265 4266 4247
4247 4266 4267 4248
4248 4267 4268 4249
4249 4268 4269 4250
4250 4269 4270 4251
4251 4270 4271 4252
4252 4271 4272 4253
4253 4272 4273 4254
4254 4273 4274 4255
4255 4274 4275 4256
4256 4275 4276 4257
4257 4276 4277 4258
4258 4277 4278 4259
4259 4278 4279 4260
4260 4279 4280 4261
4261 4280 4281 4262
4262 4281 358 357
143 144 4282 4263
4263 4282 4283 4264
4264 4283 4284 4265
4265 4284 4285 4266
4266 4285 4286 4267
4267 4286 4287 4268
4268 4287 4288 4269
4269 4288 4289 4270
4270 4289 4290 4271
4271 4290 4291 4272
4272 4291 4292 4273
4273 4292 4293 4274
4274 4293 4294 4275
4275 4294 4295 4276
4276 4295 4296 4277
4277 4296 4297 4278
4278 4297 4298 4279
4279 4298 4299 4280
4280 4299 4300 4281
4281 4300 359 358
144 145 4301 4282
4282 4301 4302 4283
4283 4302 4303 4284
4284 4303 4304 4285
4285 4304 4305 4286
4286 4305 4306 4287
4287 4306 4307 4288
4288 4307 4308 4289
4289 4308 4309 4290
4290 4309 4310 4291
4291 4310 4311 4292
4292 4311 4312 4293
4293 4312 4313 4294
4294 4313 4314 4295
4295 4314 4315 4296
4296 4315 4316 4297
4297 4316 4317 4298
4298 4317 4318 4299
4299 4318 4319 4300
4300 4319 360 359
145 146 4320 4301
4301 4320 4321 4302
4302 4321 4322 4303
4303 4322 4323 4304
4304 4323 4324 4305
4305 4324 4325 4306
4306 4325 4326 4307
4307 4326 4327 4308
4308 4327 4328 4309
4309 4328 4329 4310
4310 4329 4330 4311
4311 4330 4331 4312
4312 4331 4332 4313
4313 4332 4333 4314
4314 4333 4334 4315
4315 4334 4335 4316
4316 4335 4336 4317
4317 4336 4337 4318
4318 4337 4338 4319
4319 4338 361 360
146 5 399 4320
4320 399 398 4321
4321 398 397 4322
4322 397 396 4323
4323 396 395 4324
4324 395 394 4325
4325 394 393 4326
4326 393 392 4327
4327 392 391 4328
4328 391 390 4329
4329 390 389 4330
4330 389 388 4331
4331 388 387 4332
4332 387 386 4333
4333 386 385 4334
4334 385 384 4335
4335 384 383 4336
4336 383 382 4337
4337 382 381 4338
4338 381 10 361
3 89 4339 166
166 4339 4340 167
167 4340 4341 168
168 4341 4342 169
169 4342 4343 170
170 4343 4344 171
171 4344 4345 172
172 4345 4346 173
173 4346 4347 174
174 4347 4348 175
175 4348 4349 176
176 4349 4350 177
177 4350 4351 178
178 4351 4352 179
179 4352 4353 180
180 4353 4354 181
181 4354 4355 182
182 4355 4356 183
183 4356 4357 184
184 4357 418 7
89 90 4358 4339
4339 4358 4359 4340
4340 4359 4360 4341
4341 4360 4361 4342
4342 4361 4362 4343
4343 4362 4363 4344
4344 4363 4364 4345
4345 4364 4365 4346
4346 4365 4366 4347
4347 4366 4367 4348
4348 4367 4368 4349
4349 4368 4369 4350
4350 4369 4370 4351
4351 4370 4371 4352
4352 4371 4372 4353
4353 4372 4373 4354
4354 4373 4374 4355
4355 4374 4375 4356
4356 4375 4376 4357
4357 4376 417 418
90 91 4377 4358
4358 4377 4378 4359
4359 4378 4379 4360
4360 4379 4380 4361
4361 4380 4381 4362
4362 4381 4382 4363
4363 4382 4383 4364
4364 4383 4384 4365
4365 4384 4385 4366
4366 4385 4386 4367
4367 4386 4387 4368
4368 4387 4388 4369
4369 4388 4389 4370
4370 4389 4390 4371
4371 4390 4391 4372
4372 4391 4392 4373
4373 4392 4393 4374
4374 4393 4394 4375
4375 4394 4395 4376
4376 4395 416 417
91 92 4396 4377
4377 4396 4397 4378
4378 4397 4398 4379
4379 4398 4399 4380
4380 4399 4400 4381
4381 4400 4401 4382
4382 4401 4402 4383
4383 4402 4403 4384
4384 4403 4404 4385
4385 4404 4405 4386
4386 4405 4406 4387
4387 4406 4407 4388
4388 4407 4408 4389
4389 4408 4409 4390
4390 4409 4410 4391
4391 4410 4411 4392
4392 4411 4412 4393
4393 4412 4413 4394
4394 4413 4414 4395
4395 4414 415 416
92 93 4415 4396
4396 4415 4416 4397
4397 4416 4417 4398
4398 4417 4418 4399
4399 4418 4419 4400
4400 4419 4420 4401
4401 4420 4421 4402
4402 4421 4422 4403
4403 4422 4423 4404
4404 4423 4424 4405
4405 4424 4425 4406
4406 4425 4426 4407
4407 4426 4427 4408
4408 4427 4428 4409
4409 4428 4429 4410
4410 4429 4430 4411
4411 4430 4431 4412
4412 4431 4432 4413
4413 4432 4433 4414
4414 4433 414 415
93 94 4434 4415
4415 4434 4435 4416
4416 4435 4436 4417
4417 4436 4437 4418
4418 4437 4438 4419
4419 4438 4439 4420
4420 4439 4440 4421
4421 4440 4441 4422
4422 4441 4442 4423
4423 4442 4443 4424
4424 4443 4444 4425
4425 4444 4445 4426
4426 4445 4446 4427
4427 4446 4447 4428
4428 4447 4448 4429
4429 4448 4449 4430
4430 4449 4450 4431
4431 4450 4451 4432
4432 4451 4452 4433
4433 4452 413 414
94 95 4453 4434
4434 4453 4454 4435
4435 4454 4455 4436
4436 4455 4456 4437
4437 4456 4457 4438
4438 4457 4458 4439
4439 4458 4459 4440
4440 4459 4460 4441
4441 4460 4461 4442
4442 4461 4462 4443
4443 4462 4463 4444
4444 4463 4464 4445
4445 4464 4465 4446
4446 4465 4466 4447
4447 4466 4467 4448
4448 4467 4468 4449
4449 4468 4469 4450
4450 4469 4470 4451
4451 4470 4471 4452
4452 4471 412 413
95 96 4472 4453
4453 4472 4473 4454
4454 4473 4474 4455
4455 4474 4475 4456
4456 4475 4476 4457
4457 4476 4477 4458
4458 4477 4478 4459
4459 4478 4479 4460
4460 4479 4480 4461
4461 4480 4481 4462
4462 4481 4482 4463
4463 4482 4483 4464
4464 4483 4484 4465
4465 4484 4485 4466
4466 4485 4486 4467
4467 4486 4487 4468
4468 4487 4488 4469
4469 4488 4489 4470
4470 4489 4490 4471
4471 4490 411 412
96 97 4491 4472
4472 4491 4492 4473
4473 4492 4493 4474
4474 4493 4494 4475
4475 4494 4495 4476
4476 4495 4496 4477
4477 4496 4497 4478
4478 4497 4498 4479
4479 4498 4499 4480
4480 4499 4500 4481
4481 4500 4501 4482
4482 4501 4502 4483
4483 4502 4503 4484
4484 4503 4504 4485
4485 4504 4505 4486
4486 4505 4506 4487
4487 4506 4507 4488
4488 4507 4508 4489
4489 4508 4509 4490
4490 4509 410 411
97 98 4510 4491
4491 4510 4511 4492
4492 4511 4512 4493
4493 4512 4513 4494
4494 4513 4514 4495
4495 4514 4515 4496
4496 4515 4516 4497
4497 4516 4517 4498
4498 4517 4518 4499
4499 4518 4519 4500
4500 4519 4520 4501
4501 4520 4521 4502
4502 4521 4522 4503
4503 4522 4523 4504
4504 4523 4524 4505
4505 4524 4525 4506
4506 4525 4526 4507
4507 4526 4527 4508
4508 4527 4528 4509
4509 4528 409 410
98 99 4529 4510
4510 4529 4530 4511
4511 4530 4531 4512
4512 4531 4532 4513
4513 4532 4533 4514
4514 4533 4534 4515
4515 4534 4535 4516
4516 4535 4536 4517
4517 4536 4537 4518
4518 4537 4538 4519
4519 4538 4539 4520
4520 4539 4540 4521
4521 4540 4541 4522
4522 4541 4542 4523
4523 4542 4543 4524
4524 4543 4544 4525
4525 4544 4545 4526
4526 4545 4546 4527
4527 4546 4547 4528
4528 4547 408 409
99 100 4548 4529
4529 4548 4549 4530
4530 4549 4550 4531
4531 4550 4551 4532
4532 4551 4552 4533
4533 4552 4553 4534
4534 4553 4554 4535
4535 4554 4555 4536
4536 4555 4556 4537
4537 4556 4557 4538
4538 4557 4558 4539
4539 4558 4559 4540
4540 4559 4560 4541
4541 4560 4561 4542
4542 4561 4562 4543
4543 4562 4563 4544
4544 4563 4564 4545
4545 4564 4565 4546
4546 4565 4566 4547
4547 4566 407 408
100 101 4567 4548
4548 4567 4568 4549
4549 4568 4569 4550
4550 4569 4570 4551
4551 4570 4571 4552
4552 4571 4572 4553
4553 4572 4573 4554
4554 4573 4574 4555
4555 4574 4575 4556
4556 4575 4576 4557
4557 4576 4577 4558
4558 4577 4578 4559
4559 4578 4579 4560
4560 4579 4580 4561
4561 4580 4581 4562
4562 4581 4582 4563
4563 4582 4583 4564
4564 4583 4584 4565
4565 4584 4585 4566
4566 4585 406 407
101 102 4586 4567
4567 4586 4587 4568
4568 4587 4588 4569
4569 4588 4589 4570
4570 4589 4590 4571
4571 4590 4591 4572
4572 4591 4592 4573
4573 4592 4593 4574
4574 4593 4594 4575
4575 4594 4595 4576
4576 4595 4596 4577
4577 4596 4597 4578
4578 4597 4598 4579
4579 4598 4599 4580
4580 4599 4600 4581
4581 4600 4601 4582
4582 4601 4602 4583
4583 4602 4603 4584
4584 4603 4604 4585
4585 4604 405 406
102 103 4605 4586
4586 4605 4606 4587
4587 4606 4607 4588
4588 4607 4608 4589
4589 4608 4609 4590
4590 4609 4610 4591
4591 4610 4611 4592
4592 4611 4612 4593
4593 4612 4613 4594
4594 4613 4614 4595
4595 4614 4615 4596
4596 4615 4616 4597
4597 4616 4617 4598
4598 4617 4618 4599
4599 4618 4619 4600
4600 4619 4620 4601
4601 4620 4621 4602
4602 4621 4622 4603
4603 4622 4623 4604
4604 4623 404 405
103 104 4624 4605
4605 4624 4625 4606
4606 4625 4626 4607
4607 4626 4627 4608
4608 4627 4628 4609
4609 4628 4629 4610
4610 4629 4630 4611
4611 4630 4631 4612
4612 4631 4632 4613
4613 4632 4633 4614
4614 4633 4634 4615
4615 4634 4635 4616
4616 4635 4636 4617
4617 4636 4637 4618
4618 4637 4638 4619
4619 4638 4639 4620
4620 4639 4640 4621
4621 4640 4641 4622
4622 4641 4642 4623
4623 4642 403 404
104 105 4643 4624
4624 4643 4644 4625
4625 4644 4645 4626
4626 4645 4646 4627
4627 4646 4647 4628
4628 4647 4648 4629
4629 4648 4649 4630
4630 4649 4650 4631
4631 4650 4651 4632
4632 4651 4652 4633
4633 4652 4653 4634
4634 4653 4654 4635
4635 4654 4655 4636
4636 4655 4656 4637
4637 4656 4657 4638
4638 4657 4658 4639
4639 4658 4659 4640
4640 4659 4660 4641
4641 4660 4661 4642
4642 4661 402 403
105 106 4662 4643
4643 4662 4663 4644
4644 4663 4664 4645
4645 4664 4665 4646
4646 4665 4666 4647
4647 4666 4667 4648
4648 4667 4668 4649
4649 4668 4669 4650
4650 4669 4670 4651
4651 4670 4671 4652
4652 4671 4672 4653
4653 4672 4673 4654
4654 4673 4674 4655
4655 4674 4675 4656
4656 4675 4676 4657
4657 4676 4677 4658
4658 4677 4678 4659
4659 4678 4679 4660
4660 4679 4680 4661
4661 4680 401 402
106 107 4681 4662
4662 4681 4682 4663
4663 4682 4683 4664
4664 4683 4684 4665
4665 4684 4685 4666
4666 4685 4686 4667
4667 4686 4687 4668
4668 4687 4688 4669
4669 4688 4689 4670
4670 4689 4690 4671
4671 4690 4691 4672
4672 4691 4692 4673
4673 4692 4693 4674
4674 4693 4694 4675
4675 4694 4695 4676
4676 4695 4696 4677
4677 4696 4697 4678
4678 4697 4698 4679
4679 4698 4699 4680
4680 4699 400 401
107 4 380 4681
4681 380 379 4682
4682 379 378 4683
4683 378 377 4684
4684 377 376 4685
4685 376 375 4686
4686 375 374 4687
4687 374 373 4688
4688 373 372 4689
4689 372 371 4690
4690 371 370 4691
4691 370 369 4692
4692 369 368 4693
4693 368 367 4694
4694 367 366 4695
4695 366 365 4696
4696 365 364 4697
4697 364 363 4698
4698 363 362 4699
4699 362 9 400
5 147 4700 399
399 4700 4701 398
398 4701 4702 397
397 4702 4703 396
396 4703 4704 395
395 4704 4705 394
394 4705 4706 393
393 4706 4707 392
392 4707 4708 391
391 4708 4709 390
390 4709 4710 389
389 4710 4711 388
388 4711 4712 387
387 4712 4713 386
386 4713 4714 385
385 4714 4715 384
384 4715 4716 383
383 4716 4717 382
382 4717 4718 381
381 4718 419 10
147 148 4719 4700
4700 4719 4720 4701
4701 4720 4721 4702
4702 4721 4722 4703
4703 4722 4723 4704
4704 4723 4724 4705
4705 4724 4725 4706
4706 4725 4726 4707
4707 4726 4727 4708
4708 4727 4728 4709
4709 4728 4729 4710
4710 4729 4730 4711
4711 4730 4731 4712
4712 4731 4732 4713
4713 4732 4733 4714
4714 4733 4734 4715
4715 4734 4735 4716
4716 4735 4736 4717
4717 4736 4737 4718
4718 4737 420 419
148 149 4738 4719
4719 4738 4739 4720
4720 4739 4740 4721
4721 4740 4741 4722
4722 4741 4742 4723
4723 4742 4743 4724
4724 4743 4744 4725
4725 4744 4745 4726
4726 4745 4746 4727
4727 4746 4747 4728
4728 4747 4748 4729
4729 4748 4749 4730
4730 4749 4750 4731
4731 4750 4751 4732
4732 4751 4752 4733
4733 4752 4753 4734
4734 4753 4754 4735
4735 4754 4755 4736
4736 4755 4756 4737
4737 4756 421 420
149 150 4757 4738
4738 4757 4758 4739
4739 4758 4759 4740
4740 4759 4760 4741
4741 4760 4761 4742
4742 4761 4762 4743
4743 4762 4763 4744
4744 4763 4764 4745
4745 4764 4765 4746
4746 4765 4766 4747
4747 4766 4767 4748
4748 4767 4768 4749
4749 4768 4769 4750
4750 4769 4770 4751
4751 4770 4771 4752
4752 4771 4772 4753
4753 4772 4773 4754
4754 4773 4774 4755
4755 4774 4775 4756
4756 4775 422 421
150 151 4776 4757
4757 4776 4777 4758
4758 4777 4778 4759
4759 4778 4779 4760
4760 4779 4780 4761
4761 4780 4781 4762
4762 4781 4782 4763
4763 4782 4783 4764
4764 4783 4784 4765
4765 4784 4785 4766
4766 4785 4786 4767
4767 4786 4787 4768
4768 4787 4788 4769
4769 4788 4789 4770
4770 4789 4790 4771
4771 4790 4791 4772
4772 4791 4792 4773
4773 4792 4793 4774
4774 4793 4794 4775
4775 4794 423 422
151 152 4795 4776
4776 4795 4796 4777
4777 4796 4797 4778
4778 4797 4798 4779
4779 4798 4799 4780
4780 4799 4800 4781
4781 4800 4801 4782
4782 4801 4802 4783
4783 4802 4803 4784
4784 4803 4804 4785
4785 4804 4805 4786
4786 4805 4806 4787
4787 4806 4807 4788
4788 4807 4808 4789
4789 4808 4809 4790
4790 4809 4810 4791
4791 4810 4811 4792
4792 4811 4812 4793
4793 4812 4813 4794
4794 4813 424 423
152 153 4814 4795
4795 4814 4815 4796
4796 4815 4816 4797
4797 4816 4817 4798
4798 4817 4818 4799
4799 4818 4819 4800
4800 4819 4820 4801
4801 4820 4821 4802
4802 4821 4822 4803
4803 4822 4823 4804
4804 4823 4824 4805
4805 4824 4825 4806
4806 4825 4826 4807
4807 4826 4827 4808
4808 4827 4828 4809
4809 4828 4829 4810
4810 4829 4830 4811
4811 4830 4831 4812
4812 4831 4832 4813
4813 4832 425 424
153 154 4833 4814
4814 4833 4834 4815
4815 4834 4835 4816
4816 4835 4836 4817
4817 4836 4837 4818
4818 4837 4838 4819
4819 4838 4839 4820
4820 4839 4840 4821
4821 4840 4841 4822
4822 4841 4842 4823
4823 4842 4843 4824
4824 4843 4844 4825
4825 4844 4845 4826
4826 4845 4846 4827
4827 4846 4847 4828
4828 4847 4848 4829
4829 4848 4849 4830
4830 4849 4850 4831
4831 4850 4851 4832
4832 4851 426 425
154 155 4852 4833
4833 4852 4853 4834
4834 4853 4854 4835
4835 4854 4855 4836
4836 4855 4856 4837
4837 4856 4857 4838
4838 4857 4858 4839
4839 4858 4859 4840
4840 4859 4860 4841
4841 4860 4861 4842
4842 4861 4862 4843
4843 4862 4863 4844
4844 4863 4864 4845
4845 4864 4865 4846
4846 4865 4866 4847
4847 4866 4867 4848
4848 4867 4868 4849
4849 4868 4869 4850
4850 4869 4870 4851
4851 4870 427 426
155 156 4871 4852
4852 4871 4872 4853
4853 4872 4873 4854
4854 4873 4874 4855
4855 4874 4875 4856
4856 4875 4876 4857
4857 4876 4877 4858
4858 4877 4878 4859
4859 4878 4879 4860
4860 4879 4880 4861
4861 4880 4881 4862
4862 4881 4882 4863
4863 4882 4883 4864
4864 4883 4884 4865
4865 4884 4885 4866
4866 4885 4886 4867
4867 4886 4887 4868
4868 4887 4888 4869
4869 4888 4889 4870
4870 4889 428 427
156 157 4890 4871
4871 4890 4891 4872
4872 4891 4892 4873
4873 4892 4893 4874
4874 4893 4894 4875
4875 4894 4895 4876
4876 4895 4896 4877
4877 4896 4897 4878
4878 4897 4898 4879
4879 4898 4899 4880
4880 4899 4900 4881
4881 4900 4901 4882
4882 4901 4902 4883
4883 4902 4903 4884
4884 4903 4904 4885
4885 4904 4905 4886
4886 4905 4906 4887
4887 4906 4907 4888
4888 4907 4908 4889
4889 4908 429 428
157 158 4909 4890
4890 4909 4910 4891
4891 4910 4911 4892
4892 4911 4912 4893
4893 4912 4913 4894
4894 4913 4914 4895
4895 4914 4915 4896
4896 4915 4916 4897
4897 4916 4917 4898
4898 4917 4918 4899
4899 4918 4919 4900
4900 4919 4920 4901
4901 4920 4921 4902
4902 4921 4922 4903
4903 4922 4923 4904
4904 4923 4924 4905
4905 4924 4925 4906
4906 4925 4926 4907
4907 4926 4927 4908
4908 4927 430 429
158 159 4928 4909
4909 4928 4929 4910
4910 4929 4930 4911
4911 4930 4931 4912
4912 4931 4932 4913
4913 4932 4933 4914
4914 4933 4934 4915
4915 4934 4935 4916
4916 4935 4936 4917
4917 4936 4937 4918
4918 4937 4938 4919
4919 4938 4939 4920
4920 4939 4940 4921
4921 4940 4941 4922
4922 4941 4942 4923
4923 4942 4943 4924
4924 4943 4944 4925
4925 4944 4945 4926
4926 4945 4946 4927
4927 4946 431 430
159 160 4947 4928
4928 4947 4948 4929
4929 4948 4949 4930
4930 4949 4950 4931
4931 4950 4951 4932
4932 4951 4952 4933
4933 4952 4953 4934
4934 4953 4954 4935
4935 4954 4955 4936
4936 4955 4956 4937
4937 4956 4957 4938
4938 4957 4958 4939
4939 4958 4959 4940
4940 4959 4960 4941
4941 4960 4961 4942
4942 4961 4962 4943
4943 4962 4963 4944
4944 4963 4964 4945
4945 4964 4965 4946
4946 4965 432 431
160 161 4966 4947
4947 4966 4967 4948
4948 4967 4968 4949
4949 4968 4969 4950
4950 4969 4970 4951
4951 4970 4971 4952
4952 4971 4972 4953
4953 4972 4973 4954
4954 4973 4974 4955
4955 4974 4975 4956
4956 4975 4976 4957
4957 4976 4977 4958
4958 4977 4978 4959
4959 4978 4979 4960
4960 4979 4980 4961
4961 4980 4981 4962
4962 4981 4982 4963
4963 4982 4983 4964
4964 4983 4984 4965
4965 4984 433 432
161 162 4985 4966
4966 4985 4986 4967
4967 4986 4987 4968
4968 4987 4988 4969
4969 4988 4989 4970
4970 4989 4990 4971
4971 4990 4991 4972
4972 4991 4992 4973
4973 4992 4993 4974
4974 4993 4994 4975
4975 4994 4995 4976
4976 4995 4996 4977
4977 4996 4997 4978
4978 4997 4998 4979
4979 4998 4999 4980
4980 4999 5000 4981
4981 5000 5001 4982
4982 5001 5002 4983
4983 5002 5003 4984
4984 5003 434 433
162 163 5004 4985
4985 5004 5005 4986
4986 5005 5006 4987
4987 5006 5007 4988
4988 5007 5008 4989
4989 5008 5009 4990
4990 5009 5010 4991
4991 5010 5011 4992
4992 5011 5012 4993
4993 5012 5013 4994
4994 5013 5014 4995
4995 5014 5015 4996
4996 5015 5016 4997
4997 5016 5017 4998
4998 5017 5018 4999
4999 5018 5019 5000
5000 5019 5020 5001
5001 5020 5021 5002
5002 5021 5022 5003
5003 5022 435 434
163 164 5023 5004
5004 5023 5024 5005
5005 5024 5025 5006
5006 5025 5026 5007
5007 5026 5027 5008
5008 5027 5028 5009
5009 5028 5029 5010
5010 5029 5030 5011
5011 5030 5031 5012
5012 5031 5032 5013
5013 5032 5033 5014
5014 5033 5034 5015
5015 5034 5035 5016
5016 5035 5036 5017
5017 5036 5037 5018
5018 5037 5038 5019
5019 5038 5039 5020
5020 5039 5040 5021
5021 5040 5041 5022
5022 5041 436 435
164 165 5042 5023
5023 5042 5043 5024
5024 5043 5044 5025
5025 5044 5045 5026
5026 5045 5046 5027
5027 5046 5047 5028
5028 5047 5048 5029
5029 5048 5049 5030
5030 5049 5050 5031
5031 5050 5051 5032
5032 5051 5052 5033
5033 5052 5053 5034
5034 5053 5054 5035
5035 5054 5055 5036
5036 5055 5056 5037
5037 5056 5057 5038
5038 5057 5058 5039
5039 5058 5059 5040
5040 5059 5060 5041
5041 5060 437 436
165 6 242 5042
5042 242 241 5043
5043 241 240 5044
5044 240 239 5045
5045 239 238 5046
5046 238 237 5047
5047 237 236 5048
5048 236 235 5049
5049 235 234 5050
5050 234 233 5051
5051 233 232 5052
5052 232 231 5053
5053 231 230 5054
5054 230 229 5055
5055 229 228 5056
5056 228 227 5057
5057 227 226 5058
5058 226 225 5059
5059 225 224 5060
5060 224 8 437
9 323 5061 400
400 5061 5062 401
401 5062 5063 402
402 5063 5064 403
403 5064 5065 404
404 5065 5066 405
405 5066 5067 406
406 5067 5068 407
407 5068 5069 408
408 5069 5070 409
409 5070 5071 410
410 5071 5072 411
411 5072 5073 412
412 5073 5074 413
413 5074 5075 414
414 5075 5076 415
415 5076 5077 416
416 5077 5078 417
417 5078 5079 418
418 5079 185 7
323 324 5080 5061
5061 5080 5081 5062
5062 5081 5082 5063
5063 5082 5083 5064
5064 5083 5084 5065
5065 5084 5085 5066
5066 5085 5086 5067
5067 5086 5087 5068
5068 5087 5088 5069
5069 5088 5089 5070
5070 5089 5090 5071
5071 5090 5091 5072
5072 5091 5092 5073
5073 5092 5093 5074
5074 5093 5094 5075
5075 5094 5095 5076
5076 5095 5096 5077
5077 5096 5097 5078
5078 5097 5098 5079
5079 5098 186 185
324 325 5099 5080
5080 5099 5100 5081
5081 5100 5101 5082
5082 5101 5102 5083
5083 5102 5103 5084
5084 5103 5104 5085
5085 5104 5105 5086
5086 5105 5106 5087
5087 5106 5107 5088
5088 5107 5108 5089
5089 5108 5109 5090
5090 5109 5110 5091
5091 5110 5111 5092
5092 5111 5112 5093
5093 5112 5113 5094
5094 5113 5114 5095
5095 5114 5115 5096
5096 5115 5116 5097
5097 5116 5117 5098
5098 5117 187 186
325 326 5118 5099
5099 5118 5119 5100
5100 5119 5120 5101
5101 5120 5121 5102
5102 5121 5122 5103
5103 5122 5123 5104
5104 5123 5124 5105
5105 5124 5125 5106
5106 5125 5126 5107
5107 5126 5127 5108
5108 5127 5128 5109
5109 5128 5129 5110
5110 5129 5130 5111
5111 5130 5131 5112
5112 5131 5132 5113
5113 5132 5133 5114
5114 5133 5134 5115
5115 5134 5135 5116
5116 5135 5136 5117
5117 5136 188 187
326 327 5137 5118
5118 5137 5138 5119
5119 5138 5139 5120
5120 5139 5140 5121
5121 5140 5141 5122
5122 5141 5142 5123
5123 5142 5143 5124
5124 5143 5144 5125
5125 5144 5145 5126
5126 5145 5146 5127
5127 5146 5147 5128
5128 5147 5148 5129
5129 5148 5149 5130
5130 5149 5150 5131
5131 5150 5151 5132
5132 5151 5152 5133
5133 5152 5153 5134
5134 5153 5154 5135
5135 5154 5155 5136
5136 5155 189 188
327 328 5156 5137
5137 5156 5157 5138
5138 5157 5158 5139
5139 5158 5159 5140
5140 5159 5160 5141
5141 5160 5161 5142
5142 5161 5162 5143
5143 5162 5163 5144
5144 5163 5164 5145
5145 5164 5165 5146
5146 5165 5166 5147
5147 5166 5167 5148
5148 5167 5168 5149
5149 5168 5169 5150
5150 5169 5170 5151
5151 5170 5171 5152
5152 5171 5172 5153
5153 5172 5173 5154
5154 5173 5174 5155
5155 5174 190 189
328 329 5175 5156
5156 5175 5176 5157
5157 5176 5177 5158
5158 5177 5178 5159
5159 5178 5179 5160
5160 5179 5180 5161
5161 5180 5181 5162
5162 5181 5182 5163
5163 5182 5183 5164
5164 5183 5184 5165
5165 5184 5185 5166
5166 5185 5186 5167
5167 5186 5187 5168
5168 5187 5188 5169
5169 5188 5189 5170
5170 5189 5190 5171
5171 5190 5191 5172
5172 5191 5192 5173
5173 5192 5193 5174
5174 5193 191 190
329 330 5194 5175
5175 5194 5195 5176
5176 5195 5196 5177
5177 5196 5197 5178
5178 5197 5198 5179
5179 5198 5199 5180
5180 5199 5200 5181
5181 5200 5201 5182
5182 5201 5202 5183
5183 5202 5203 5184
5184 5203 5204 5185
5185 5204 5205 5186
5186 5205 5206 5187
5187 5206 5207 5188
5188 5207 5208 5189
5189 5208 5209 5190
5190 5209 5210 5191
5191 5210 5211 5192
5192 5211 5212 5193
5193 5212 192 191
330 331 5213 5194
5194 5213 5214 5195
5195 5214 5215 5196
5196 5215 5216 5197
5197 5216 5217 5198
5198 5217 5218 5199
5199 5218 5219 5200
5200 5219 5220 5201
5201 5220 5221 5202
5202 5221 5222 5203
5203 5222 5223 5204
5204 5223 5224 5205
5205 5224 5225 5206
5206 5225 5226 5207
5207 5226 5227 5208
5208 5227 5228 5209
5209 5228 5229 5210
5210 5229 5230 5211
5211 5230 5231 5212
5212 5231 193 192
331 332 5232 5213
5213 5232 5233 5214
5214 5233 5234 5215
5215 5234 5235 5216
5216 5235 5236 5217
5217 5236 5237 5218
5218 5237 5238 5219
5219 5238 5239 5220
5220 5239 5240 5221
5221 5240 5241 5222
5222 5241 5242 5223
5223 5242 5243 5224
5224 5243 5244 5225
5225 5244 5245 5226
5226 5245 5246 5227
5227 5246 5247 5228
5228 5247 5248 5229
5229 5248 5249 5230
5230 5249 5250 5231
5231 5250 194 193
332 333 5251 5232
5232 5251 5252 5233
5233 5252 5253 5234
5234 5253 5254 5235
5235 5254 5255 5236
5236 5255 5256 5237
5237 5256 5257 5238
5238 5257 5258 5239
5239 5258 5259 5240
5240 5259 5260 5241
5241 5260 5261 5242
5242 5261 5262 5243
5243 5262 5263 5244
5244 5263 5264 5245
5245 5264 5265 5246
5246 5265 5266 5247
5247 5266 5267 5248
5248 5267 5268 5249
5249 5268 5269 5250
5250 5269 195 194
333 334 5270 5251
5251 5270 5271 5252
5252 5271 5272 5253
5253 5272 5273 5254
5254 5273 5274 5255
5255 5274 5275 5256
5256 5275 5276 5257
5257 5276 5277 5258
5258 5277 5278 5259
5259 5278 5279 5260
5260 5279 5280 5261
5261 5280 5281 5262
5262 5281 5282 5263
5263 5282 5283 5264
5264 5283 5284 5265
5265 5284 5285 5266
5266 5285 5286 5267
5267 5286 5287 5268
5268 5287 5288 5269
5269 5288 196 195
334 335 5289 5270
5270 5289 5290 5271
5271 5290 5291 5272
5272 5291 5292 5273
5273 5292 5293 5274
5274 5293 5294 5275
5275 5294 5295 5276
5276 5295 5296 5277
5277 5296 5297 5278
5278 5297 5298 5279
5279 5298 5299 5280
5280 5299 5300 5281
5281 5300 5301 5282
5282 5301 5302 5283
5283 5302 5303 5284
5284 5303 5304 5285
5285 5304 5305 5286
5286 5305 5306 5287
5287 5306 5307 5288
5288 5307 197 196
335 336 5308 5289
5289 5308 5309 5290
5290 5309 5310 5291
5291 5310 5311 5292
5292 5311 5312 5293
5293 5312 5313 5294
5294 5313 5314 5295
5295 5314 5315 5296
5296 5315 5316 5297
5297 5316 5317 5298
5298 5317 5318 5299
5299 5318 5319 5300
5300 5319 5320 5301
5301 5320 5321 5302
5302 5321 5322 5303
5303 5322 5323 5304
5304 5323 5324 5305
5305 5324 5325 5306
5306 5325 5326 5307
5307 5326 198 197
336 337 5327 5308
5308 5327 5328 5309
5309 5328 5329 5310
5310 5329 5330 5311
5311 5330 5331 5312
5312 5331 5332 5313
5313 5332 5333 5314
5314 5333 5334 5315
5315 5334 5335 5316
5316 5335 5336 5317
5317 5336 5337 5318
5318 5337 5338 5319
5319 5338 5339 5320
5320 5339 5340 5321
5321 5340 5341 5322
5322 5341 5342 5323
5323 5342 5343 5324
5324 5343 5344 5325
5325 5344 5345 5326
5326 5345 199 198
337 338 5346 5327
5327 5346 5347 5328
5328 5347 5348 5329
5329 5348 5349 5330
5330 5349 5350 5331
5331 5350 5351 5332
5332 5351 5352 5333
5333 5352 5353 5334
5334 5353 5354 5335
5335 5354 5355 5336
5336 5355 5356 5337
5337 5356 5357 5338
5338 5357 5358 5339
5339 5358 5359 5340
5340 5359 5360 5341
5341 5360 5361 5342
5342 5361 5362 5343
5343 5362 5363 5344
5344 5363 5364 5345
5345 5364 200 199
338 339 5365 5346
5346 5365 5366 5347
5347 5366 5367 5348
5348 5367 5368 5349
5349 5368 5369 5350
5350 5369 5370 5351
5351 5370 5371 5352
5352 5371 5372 5353
5353 5372 5373 5354
5354 5373 5374 5355
5355 5374 5375 5356
5356 5375 5376 5357
5357 5376 5377 5358
5358 5377 5378 5359
5359 5378 5379 5360
5360 5379 5380 5361
5361 5380 5381 5362
5362 5381 5382 5363
5363 5382 5383 5364
5364 5383 201 200
339 340 5384 5365
5365 5384 5385 5366
5366 5385 5386 5367
5367 5386 5387 5368
5368 5387 5388 5369
5369 5388 5389 5370
5370 5389 5390 5371
5371 5390 5391 5372
5372 5391 5392 5373
5373 5392 5393 5374
5374 5393 5394 5375
5375 5394 5395 5376
5376 5395 5396 5377
5377 5396 5397 5378
5378 5397 5398 5379
5379 5398 5399 5380
5380 5399 5400 5381
5381 5400 5401 5382
5382 5401 5402 5383
5383 5402 202 201
340 341 5403 5384
5384 5403 5404 5385
5385 5404 5405 5386
5386 5405 5406 5387
5387 5406 5407 5388
5388 5407 5408 5389
5389 5408 5409 5390
5390 5409 5410 5391
5391 5410 5411 5392
5392 5411 5412 5393
5393 5412 5413 5394
5394 5413 5414 5395
5395 5414 5415 5396
5396 5415 5416 5397
5397 5416 5417 5398
5398 5417 5418 5399
5399 5418 5419 5400
5400 5419 5420 5401
5401 5420 5421 5402
5402 5421 203 202
341 342 5422 5403
5403 5422 5423 5404
5404 5423 5424 5405
5405 5424 5425 5406
5406 5425 5426 5407
5407 5426 5427 5408
5408 5427 5428 5409
5409 5428 5429 5410
5410 5429 5430 5411
5411 5430 5431 5412
5412 5431 5432 5413
5413 5432 5433 5414
5414 5433 5434 5415
5415 5434 5435 5416
5416 5435 5436 5417
5417 5436 5437 5418
5418 5437 5438 5419
5419 5438 5439 5420
5420 5439 5440 5421
5421 5440 204 203
342 343 5441 5422
5422 5441 5442 5423
5423 5442 5443 5424
5424 5443 5444 5425
5425 5444 5445 5426
5426 5445 5446 5427
5427 5446 5447 5428
5428 5447 5448 5429
5429 5448 5449 5430
5430 5449 5450 5431
5431 5450 5451 5432
5432 5451 5452 5433
5433 5452 5453 5434
5434 5453 5454 5435
5435 5454 5455 5436
5436 5455 5456 5437
5437 5456 5457 5438
5438 5457 5458 5439
5439 5458 5459 5440
5440 5459 205 204
343 344 5460 5441
5441 5460 5461 5442
5442 5461 5462 5443
5443 5462 5463 5444
5444 5463 5464 5445
5445 5464 5465 5446
5446 5465 5466 5447
5447 5466 5467 5448
5448 5467 5468 5449
5449 5468 5469 5450
5450 5469 5470 5451
5451 5470 5471 5452
5452 5471 5472 5453
5453 5472 5473 5454
5454 5473 5474 5455
5455 5474 5475 5456
5456 5475 5476 5457
5457 5476 5477 5458
5458 5477 5478 5459
5459 5478 206 205
344 345 5479 5460
5460 5479 5480 5461
5461 5480 5481 5462
5462 5481 5482 5463
5463 5482 5483 5464
5464 5483 5484 5465
5465 5484 5485 5466
5466 5485 5486 5467
5467 5486 5487 5468
5468 5487 5488 5469
5469 5488 5489 5470
5470 5489 5490 5471
5471 5490 5491 5472
5472 5491 5492 5473
5473 5492 5493 5474
5474 5493 5494 5475
5475 5494 5495 5476
5476 5495 5496 5477
5477 5496 5497 5478
5478 5497 207 206
345 346 5498 5479
5479 5498 5499 5480
5480 5499 5500 5481
5481 5500 5501 5482
5482 5501 5502 5483
5483 5502 5503 5484
5484 5503 5504 5485
5485 5504 5505 5486
5486 5505 5506 5487
5487 5506 5507 5488
5488 5507 5508 5489
5489 5508 5509 5490
5490 5509 5510 5491
5491 5510 5511 5492
5492 5511 5512 5493
5493 5512 5513 5494
5494 5513 5514 5495
5495 5514 5515 5496
5496 5515 5516 5497
5497 5516 208 207
346 347 5517 5498
5498 5517 5518 5499
5499 5518 5519 5500
5500 5519 5520 5501
5501 5520 5521 5502
5502 5521 5522 5503
5503 5522 5523 5504
5504 5523 5524 5505
5505 5524 5525 5506
5506 5525 5526 5507
5507 5526 5527 5508
5508 5527 5528 5509
5509 5528 5529 5510
5510 5529 5530 5511
5511 5530 5531 5512
5512 5531 5532 5513
5513 5532 5533 5514
5514 5533 5534 5515
5515 5534 5535 5516
5516 5535 209 208
347 348 5536 5517
5517 5536 5537 5518
5518 5537 5538 5519
5519 5538 5539 5520
5520 5539 5540 5521
5521 5540 5541 5522
5522 5541 5542 5523
5523 5542 5543 5524
5524 5543 5544 5525
5525 5544 5545 5526
5526 5545 5546 5527
5527 5546 5547 5528
5528 5547 5548 5529
5529 5548 5549 5530
5530 5549 5550 5531
5531 5550 5551 5532
5532 5551 5552 5533
5533 5552 5553 5534
5534 5553 5554 5535
5535 5554 210 209
348 349 5555 5536
5536 5555 5556 5537
5537 5556 5557 5538
5538 5557 5558 5539
5539 5558 5559 5540
5540 5559 5560 5541
5541 5560 5561 5542
5542 5561 5562 5543
5543 5562 5563 5544
5544 5563 5564 5545
5545 5564 5565 5546
5546 5565 5566 5547
5547 5566 5567 5548
5548 5567 5568 5549
5549 5568 5569 5550
5550 5569 5570 5551
5551 5570 5571 5552
5552 5571 5572 5553
5553 5572 5573 5554
5554 5573 211 210
349 350 5574 5555
5555 5574 5575 5556
5556 5575 5576 5557
5557 5576 5577 5558
5558 5577 5578 5559
5559 5578 5579 5560
5560 5579 5580 5561
5561 5580 5581 5562
5562 5581 5582 5563
5563 5582 5583 5564
5564 5583 5584 5565
5565 5584 5585 5566
5566 5585 5586 5567
5567 5586 5587 5568
5568 5587 5588 5569
5569 5588 5589 5570
5570 5589 5590 5571
5571 5590 5591 5572
5572 5591 5592 5573
5573 5592 212 211
350 351 5593 5574
5574 5593 5594 5575
5575 5594 5595 5576
5576 5595 5596 5577
5577 5596 5597 5578
5578 5597 5598 5579
5579 5598 5599 5580
5580 5599 5600 5581
5581 5600 5601 5582
5582 5601 5602 5583
5583 5602 5603 5584
5584 5603 5604 5585
5585 5604 5605 5586
5586 5605 5606 5587
5587 5606 5607 5588
5588 5607 5608 5589
5589 5608 5609 5590
5590 5609 5610 5591
5591 5610 5611 5592
5592 5611 213 212
351 352 5612 5593
5593 5612 5613 5594
5594 5613 5614 5595
5595 5614 5615 5596
5596 5615 5616 5597
5597 5616 5617 5598
5598 5617 5618 5599
5599 5618 5619 5600
5600 5619 5620 5601
5601 5620 5621 5602
5602 5621 5622 5603
5603 5622 5623 5604
5604 5623 5624 5605
5605 5624 5625 5606
5606 5625 5626 5607
5607 5626 5627 5608
5608 5627 5628 5609
5609 5628 5629 5610
5610 5629 5630 5611
5611 5630 214 213
352 353 5631 5612
5612 5631 5632 5613
5613 5632 5633 5614
5614 5633 5634 5615
5615 5634 5635 5616
5616 5635 5636 5617
5617 5636 5637 5618
5618 5637 5638 5619
5619 5638 5639 5620
5620 5639 5640 5621
5621 5640 5641 5622
5622 5641 5642 5623
5623 5642 5643 5624
5624 5643 5644 5625
5625 5644 5645 5626
5626 5645 5646 5627
5627 5646 5647 5628
5628 5647 5648 5629
5629 5648 5649 5630
5630 5649 215 214
353 354 5650 5631
5631 5650 5651 5632
5632 5651 5652 5633
5633 5652 5653 5634
5634 5653 5654 5635
5635 5654 5655 5636
5636 5655 5656 5637
5637 5656 5657 5638
5638 5657 5658 5639
5639 5658 5659 5640
5640 5659 5660 5641
5641 5660 5661 5642
5642 5661 5662 5643
5643 5662 5663 5644
5644 5663 5664 5645
5645 5664 5665 5646
5646 5665 5666 5647
5647 5666 5667 5648
5648 5667 5668 5649
5649 5668 216 215
354 355 5669 5650
5650 5669 5670 5651
5651 5670 5671 5652
5652 5671 5672 5653
5653 5672 5673 5654
5654 5673 5674 5655
5655 5674 5675 5656
5656 5675 5676 5657
5657 5676 5677 5658
5658 5677 5678 5659
5659 5678 5679 5660
5660 5679 5680 5661
5661 5680 5681 5662
5662 5681 5682 5663
5663 5682 5683 5664
5664 5683 5684 5665
5665 5684 5685 5666
5666 5685 5686 5667
5667 5686 5687 5668
5668 5687 217 216
355 356 5688 5669
5669 5688 5689 5670
5670 5689 5690 5671
5671 5690 5691 5672
5672 5691 5692 5673
5673 5692 5693 5674
5674 5693 5694 5675
5675 5694 5695 5676
5676 5695 5696 5677
5677 5696 5697 5678
5678 5697 5698 5679
5679 5698 5699 5680
5680 5699 5700 5681
5681 5700 5701 5682
5682 5701 5702 5683
5683 5702 5703 5684
5684 5703 5704 5685
5685 5704 5705 5686
5686 5705 5706 5687
5687 5706 218 217
356 357 5707 5688
5688 5707 5708 5689
5689 5708 5709 5690
5690 5709 5710 5691
5691 5710 5711 5692
5692 5711 5712 5693
5693 5712 5713 5694
5694 5713 5714 5695
5695 5714 5715 5696
5696 5715 5716 5697
5697 5716 5717 5698
5698 5717 5718 5699
5699 5718 5719 5700
5700 5719 5720 5701
5701 5720 5721 5702
5702 5721 5722 5703
5703 5722 5723 5704
5704 5723 5724 5705
5705 5724 5725 5706
5706 5725 219 218
357 358 5726 5707
5707 5726 5727 5708
5708 5727 5728 5709
5709 5728 5729 5710
5710 5729 5730 5711
5711 5730 5731 5712
5712 5731 5732 5713
5713 5732 5733 5714
5714 5733 5734 5715
5715 5734 5735 5716
5716 5735 5736 5717
5717 5736 5737 5718
5718 5737 5738 5719
5719 5738 5739 5720
5720 5739 5740 5721
5721 5740 5741 5722
5722 5741 5742 5723
5723 5742 5743 5724
5724 5743 5744 5725
5725 5744 220 219
358 359 5745 5726
5726 5745 5746 5727
5727 5746 5747 5728
5728 5747 5748 5729
5729 5748 5749 5730
5730 5749 5750 5731
5731 5750 5751 5732
5732 5751 5752 5733
5733 5752 5753 5734
5734 5753 5754 5735
5735 5754 5755 5736
5736 5755 5756 5737
5737 5756 5757 5738
5738 5757 5758 5739
5739 5758 5759 5740
5740 5759 5760 5741
5741 5760 5761 5742
5742 5761 5762 5743
5743 5762 5763 5744
5744 5763 221 220
359 360 5764 5745
5745 5764 5765 5746
5746 5765 5766 5747
5747 5766 5767 5748
5748 5767 5768 5749
5749 5768 5769 5750
5750 5769 5770 5751
5751 5770 5771 5752
5752 5771 5772 5753
5753 5772 5773 5754
5754 5773 5774 5755
5755 5774 5775 5756
5756 5775 5776 5757
5757 5776 5777 5758
5758 5777 5778 5759
5759 5778 5779 5760
5760 5779 5780 5761
5761 5780 5781 5762
5762 5781 5782 5763
5763 5782 222 221
360 361 5783 5764
5764 5783 5784 5765
5765 5784 5785 5766
5766 5785 5786 5767
5767 5786 5787 5768
5768 5787 5788 5769
5769 5788 5789 5770
5770 5789 5790 5771
5771 5790 5791 5772
5772 5791 5792 5773
5773 5792 5793 5774
5774 5793 5794 5775
5775 5794 5795 5776
5776 5795 5796 5777
5777 5796 5797 5778
5778 5797 5798 5779
5779 5798 5799 5780
5780 5799 5800 5781
5781 5800 5801 5782
5782 5801 223 222
361 10 419 5783
5783 419 420 5784
5784 420 421 5785
5785 421 422 5786
5786 422 423 5787
5787 423 424 5788
5788 424 425 5789
5789 425 426 5790
5790 426 427 5791
5791 427 428 5792
5792 428 429 5793
5793 429 430 5794
5794 430 431 5795
5795 431 432 5796
5796 432 433 5797
5797 433 434 5798
5798 434 435 5799
5799 435 436 5800
5800 436 437 5801
5801 437 8 223
</DataArray>
<DataArray type="Int64" Name="offsets" format="ascii">
4
8
12
16
20
24
28
32
36
40
44
48
52
56
60
64
68
72
76
80
84
88
92
96
100
104
108
112
116
120
124
128
132
136
140
144
148
152
156
160
164
168
172
176
180
184
188
192
196
200
204
208
212
216
220
224
228
232
236
240
244
248
252
256
260
264
268
272
276
280
284
288
292
296
300
304
308
312
316
320
324
328
332
336
340
344
348
352
356
360
364
368
372
376
380
384
388
392
396
400
404
408
412
416
420
424
428
432
436
440
444
448
452
456
460
464
468
472
476
480
484
488
492
496
500
504
508
512
516
520
524
528
532
536
540
544
548
552
556
560
564
568
572
576
580
584
588
592
596
600
604
608
612
616
620
624
628
632
636
640
644
648
652
656
660
664
668
672
676
680
684
688
692
696
700
704
708
712
716
720
724
728
732
736
740
744
748
752
756
760
764
768
772
776
780
784
788
792
796
800
804
808
812
816
820
824
828
832
836
840
844
848
852
856
860
864
868
872
876
880
884
888
892
896
900
904
908
912
916
920
924
928
932
936
940
944
948
952
956
960
964
968
972
976
980
984
988
992
996
1000
1004
1008
1012
1016
1020
1024
1028
1032
1036
1040
1044
1048
1052
1056
1060
1064
1068
1072
1076
1080
1084
1088
1092
1096
1100
1104
1108
1112
1116
1120
1124
1128
1132
1136
1140
1144
1148
1152
1156
1160
1164
1168
1172
1176
1180
1184
1188
1192
1196
1200
1204
1208
1212
1216
1220
1224
1228
1232
1236
1240
1244
1248
1252
1256
1260
1264
1268
1272
1276
1280
1284
1288
1292
1296
1300
1304
1308
1312
1316
1320
1324
1328
1332
1336
1340
1344
1348
1352
1356
1360
1364
1368
1372
1376
1380
1384
1388
1392
1396
1400
1404
1408
1412
1416
1420
1424
1428
1432
1436
1440
1444
1448
1452
1456
1460
1464
1468
1472
1476
1480
1484
1488
1492
1496
1500
1504
1508
1512
1516
1520
1524
1528
1532
1536
1540
1544
1548
1552
1556
1560
1564
1568
1572
1576
1580
1584
1588
1592
1596
1600
1604
1608
1612
1616
1620
1624
1628
1632
1636
1640
1644
1648
1652
1656
1660
1664
1668
1672
1676
1680
1684
1688
1692
1696
1700
1704
1708
1712
1716
1720
1724
1728
1732
1736
1740
1744
1748
1752
1756
1760
1764
1768
1772
1776
1780
1784
1788
1792
1796
1800
1804
1808
1812
1816
1820
1824
1828
1832
1836
1840
1844
1848
1852
1856
1860
1864
1868
1872
1876
1880
1884
1888
1892
1896
1900
1904
1908
1912
1916
1920
1924
1928
1932
1936
1940
1944
1948
1952
1956
1960
1964
1968
1972
1976
1980
1984
1988
1992
1996
2000
2004
2008
2012
2016
2020
2024
2028
2032
2036
2040
2044
2048
2052
2056
2060
2064
2068
2072
2076
2080
2084
2088
2092
2096
2100
2104
2108
2112
2116
2120
2124
2128
2132
2136
2140
2144
2148
2152
2156
2160
2164
2168
2172
2176
2180
2184
2188
2192
2196
2200
2204
2208
2212
2216
2220
2224
2228
2232
2236
2240
2244
2248
2252
2256
2260
2264
2268
2272
2276
2280
2284
2288
2292
2296
2300
2304
2308
2312
2316
2320
2324
2328
2332
2336
2340
2344
2348
2352
2356
2360
2364
2368
2372
2376
2380
2384
2388
2392
2396
2400
2404
2408
2412
2416
2420
2424
2428
2432
2436
2440
2444
2448
2452
2456
2460
2464
2468
2472
2476
2480
2484
2488
2492
2496
2500
2504
2508
2512
2516
2520
2524
2528
2532
2536
2540
2544
2548
2552
2556
2560
2564
2568
2572
2576
2580
2584
2588
2592
2596
2600
2604
2608
2612
2616
2620
2624
2628
2632
2636
2640
2644
2648
2652
2656
2660
2664
2668
2672
2676
2680
2684
2688
2692
2696
2700
2704
2708
2712
2716
2720
2724
2728
2732
2736
2740
2744
2748
2752
2756
2760
2764
2768
2772
2776
2780
2784
2788
2792
2796
2800
2804
2808
2812
2816
2820
2824
2828
2832
2836
2840
2844
2848
2852
2856
2860
2864
2868
2872
2876
2880
2884
2888
2892
2896
2900
2904
2908
2912
2916
2920
2924
2928
2932
2936
2940
2944
2948
2952
2956
2960
2964
2968
2972
2976
2980
2984
2988
2992
2996
3000
3004
3008
3012
3016
3020
3024
3028
3032
3036
3040
3044
3048
3052
3056
3060
3064
3068
3072
3076
3080
3084
3088
3092
3096
3100
3104
3108
3112
3116
3120
3124
3128
3132
3136
3140
3144
3148
3152
3156
3160
3164
3168
3172
3176
3180
3184
3188
3192
3196
3200
3204
3208
3212
3216
3220
3224
3228
3232
3236
3240
3244
3248
3252
3256
3260
3264
3268
3272
3276
3280
3284
3288
3292
3296
3300
3304
3308
3312
3316
3320
3324
3328
3332
3336
3340
3344
3348
3352
3356
3360
3364
3368
3372
3376
3380
3384
3388
3392
3396
3400
3404
3408
3412
3416
3420
3424
3428
3432
3436
3440
3444
3448
3452
3456
3460
3464
3468
3472
3476
3480
3484
3488
3492
3496
3500
3504
3508
3512
3516
3520
3524
3528
3532
3536
3540
3544
3548
3552
3556
3560
3564
3568
3572
3576
3580
3584
3588
3592
3596
3600
3604
3608
3612
3616
3620
3624
3628
3632
3636
3640
3644
3648
3652
3656
3660
3664
3668
3672
3676
3680
3684
3688
3692
3696
3700
3704
3708
3712
3716
3720
3724
3728
3732
3736
3740
3744
3748
3752
3756
3760
3764
3768
3772
3776
3780
3784
3788
3792
3796
3800
3804
3808
3812
3816
3820
3824
3828
3832
3836
3840
3844
3848
3852
3856
3860
3864
3868
3872
3876
3880
3884
3888
3892
3896
3900
3904
3908
3912
3916
3920
3924
3928
3932
3936
3940
3944
3948
3952
3956
3960
3964
3968
3972
3976
3980
3984
3988
3992
3996
4000
4004
4008
4012
4016
4020
4024
4028
4032
4036
4040
4044
4048
4052
4056
4060
4064
4068
4072
4076
4080
4084
4088
4092
4096
4100
4104
4108
4112
4116
4120
4124
4128
4132
4136
4140
4144
4148
4152
4156
4160
4164
4168
4172
4176
4180
4184
4188
4192
4196
4200
4204
4208
4212
4216
4220
4224
4228
4232
4236
4240
4244
4248
4252
4256
4260
4264
4268
4272
4276
4280
4284
4288
4292
4296
4300
4304
4308
4312
4316
4320
4324
4328
4332
4336
4340
4344
4348
4352
4356
4360
4364
4368
4372
4376
4380
4384
4388
4392
4396
4400
4404
4408
4412
4416
4420
4424
4428
4432
4436
4440
4444
4448
4452
4456
4460
4464
4468
4472
4476
4480
4484
4488
4492
4496
4500
4504
4508
4512
4516
4520
4524
4528
4532
4536
4540
4544
4548
4552
4556
4560
4564
4568
4572
4576
4580
4584
4588
4592
4596
4600
4604
4608
4612
4616
4620
4624
4628
4632
4636
4640
4644
4648
4652
4656
4660
4664
4668
4672
4676
4680
4684
4688
4692
4696
4700
4704
4708
4712
4716
4720
4724
4728
4732
4736
4740
4744
4748
4752
4756
4760
4764
4768
4772
4776
4780
4784
4788
4792
4796
4800
4804
4808
4812
4816
4820
4824
4828
4832
4836
4840
4844
4848
4852
4856
4860
4864
4868
4872
4876
4880
4884
4888
4892
4896
4900
4904
4908
4912
4916
4920
4924
4928
4932
4936
4940
4944
4948
4952
4956
4960
4964
4968
4972
4976
4980
4984
4988
4992
4996
5000
5004
5008
5012
5016
5020
5024
5028
5032
5036
5040
5044
5048
5052
5056
5060
5064
5068
5072
5076
5080
5084
5088
5092
5096
5100
5104
5108
5112
5116
5120
5124
5128
5132
5136
5140
5144
5148
5152
5156
5160
5164
5168
5172
5176
5180
5184
5188
5192
5196
5200
5204
5208
5212
5216
5220
5224
5228
5232
5236
5240
5244
5248
5252
5256
5260
5264
5268
5272
5276
5280
5284
5288
5292
5296
5300
5304
5308
5312
5316
5320
5324
5328
5332
5336
5340
5344
5348
5352
5356
5360
5364
5368
5372
5376
5380
5384
5388
5392
5396
5400
5404
5408
5412
5416
5420
5424
5428
5432
5436
5440
5444
5448
5452
5456
5460
5464
5468
5472
5476
5480
5484
5488
5492
5496
5500
5504
5508
5512
5516
5520
5524
5528
5532
5536
5540
5544
5548
5552
5556
5560
5564
5568
5572
5576
5580
5584
5588
5592
5596
5600
5604
5608
5612
5616
5620
5624
5628
5632
5636
5640
5644
5648
5652
5656
5660
5664
5668
5672
5676
5680
5684
5688
5692
5696
5700
5704
5708
5712
5716
5720
5724
5728
5732
5736
5740
5744
5748
5752
5756
5760
5764
5768
5772
5776
5780
5784
5788
5792
5796
5800
5804
5808
5812
5816
5820
5824
5828
5832
5836
5840
5844
5848
5852
5856
5860
5864
5868
5872
5876
5880
5884
5888
5892
5896
5900
5904
5908
5912
5916
5920
5924
5928
5932
5936
5940
5944
5948
5952
5956
5960
5964
5968
5972
5976
5980
5984
5988
5992
5996
6000
6004
6008
6012
6016
6020
6024
6028
6032
6036
6040
6044
6048
6052
6056
6060
6064
6068
6072
6076
6080
6084
6088
6092
6096
6100
6104
6108
6112
6116
6120
6124
6128
6132
6136
6140
6144
6148
6152
6156
6160
6164
6168
6172
6176
6180
6184
6188
6192
6196
6200
6204
6208
6212
6216
6220
6224
6228
6232
6236
6240
6244
6248
6252
6256
6260
6264
6268
6272
6276
6280
6284
6288
6292
6296
6300
6304
6308
6312
6316
6320
6324
6328
6332
6336
6340
6344
6348
6352
6356
6360
6364
6368
6372
6376
6380
6384
6388
6392
6396
6400
6404
6408
6412
6416
6420
6424
6428
6432
6436
6440
6444
6448
6452
6456
6460
6464
6468
6472
6476
6480
6484
6488
6492
6496
6500
6504
6508
6512
6516
6520
6524
6528
6532
6536
6540
6544
6548
6552
6556
6560
6564
6568
6572
6576
6580
6584
6588
6592
6596
6600
6604
6608
6612
6616
6620
6624
6628
6632
6636
6640
6644
6648
6652
6656
6660
6664
6668
6672
6676
6680
6684
6688
6692
6696
6700
6704
6708
6712
6716
6720
6724
6728
6732
6736
6740
6744
6748
6752
6756
6760
6764
6768
6772
6776
6780
6784
6788
6792
6796
6800
6804
6808
6812
6816
6820
6824
6828
6832
6836
6840
6844
6848
6852
6856
6860
6864
6868
6872
6876
6880
6884
6888
6892
6896
6900
6904
6908
6912
6916
6920
6924
6928
6932
6936
6940
6944
6948
6952
6956
6960
6964
6968
6972
6976
6980
6984
6988
6992
6996
7000
7004
7008
7012
7016
7020
7024
7028
7032
7036
7040
7044
7048
7052
7056
7060
7064
7068
7072
7076
7080
7084
7088
7092
7096
7100
7104
7108
7112
7116
7120
7124
7128
7132
7136
7140
7144
7148
7152
7156
7160
7164
7168
7172
7176
7180
7184
7188
7192
7196
7200
7204
7208
7212
7216
7220
7224
7228
7232
7236
7240
7244
7248
7252
7256
7260
7264
7268
7272
7276
7280
7284
7288
7292
7296
7300
7304
7308
7312
7316
7320
7324
7328
7332
7336
7340
7344
7348
7352
7356
7360
7364
7368
7372
7376
7380
7384
7388
7392
7396
7400
7404
7408
7412
7416
7420
7424
7428
7432
7436
7440
7444
7448
7452
7456
7460
7464
7468
7472
7476
7480
7484
7488
7492
7496
7500
7504
7508
7512
7516
7520
7524
7528
7532
7536
7540
7544
7548
7552
7556
7560
7564
7568
7572
7576
7580
7584
7588
7592
7596
7600
7604
7608
7612
7616
7620
7624
7628
7632
7636
7640
7644
7648
7652
7656
7660
7664
7668
7672
7676
7680
7684
7688
7692
7696
7700
7704
7708
7712
7716
7720
7724
7728
7732
7736
7740
7744
7748
7752
7756
7760
7764
7768
7772
7776
7780
7784
7788
7792
7796
7800
7804
7808
7812
7816
7820
7824
7828
7832
7836
7840
7844
7848
7852
7856
7860
7864
7868
7872
7876
7880
7884
7888
7892
7896
7900
7904
7908
7912
7916
7920
7924
7928
7932
7936
7940
7944
7948
7952
7956
7960
7964
7968
7972
7976
7980
7984
7988
7992
7996
8000
8004
8008
8012
8016
8020
8024
8028
8032
8036
8040
8044
8048
8052
8056
8060
8064
8068
8072
8076
8080
8084
8088
8092
8096
8100
8104
8108
8112
8116
8120
8124
8128
8132
8136
8140
8144
8148
8152
8156
8160
8164
8168
8172
8176
8180
8184
8188
8192
8196
8200
8204
8208
8212
8216
8220
8224
8228
8232
8236
8240
8244
8248
8252
8256
8260
8264
8268
8272
8276
8280
8284
8288
8292
8296
8300
8304
8308
8312
8316
8320
8324
8328
8332
8336
8340
8344
8348
8352
8356
8360
8364
8368
8372
8376
8380
8384
8388
8392
8396
8400
8404
8408
8412
8416
8420
8424
8428
8432
8436
8440
8444
8448
8452
8456
8460
8464
8468
8472
8476
8480
8484
8488
8492
8496
8500
8504
8508
8512
8516
8520
8524
8528
8532
8536
8540
8544
8548
8552
8556
8560
8564
8568
8572
8576
8580
8584
8588
8592
8596
8600
8604
8608
8612
8616
8620
8624
8628
8632
8636
8640
8644
8648
8652
8656
8660
8664
8668
8672
8676
8680
8684
8688
8692
8696
8700
8704
8708
8712
8716
8720
8724
8728
8732
8736
8740
8744
8748
8752
8756
8760
8764
8768
8772
8776
8780
8784
8788
8792
8796
8800
8804
8808
8812
8816
8820
8824
8828
8832
8836
8840
8844
8848
8852
8856
8860
8864
8868
8872
8876
8880
8884
8888
8892
8896
8900
8904
8908
8912
8916
8920
8924
8928
8932
8936
8940
8944
8948
8952
8956
8960
8964
8968
8972
8976
8980
8984
8988
8992
8996
9000
9004
9008
9012
9016
9020
9024
9028
9032
9036
9040
9044
9048
9052
9056
9060
9064
9068
9072
9076
9080
9084
9088
9092
9096
9100
9104
9108
9112
9116
9120
9124
9128
9132
9136
9140
9144
9148
9152
9156
9160
9164
9168
9172
9176
9180
9184
9188
9192
9196
9200
9204
9208
9212
9216
9220
9224
9228
9232
9236
9240
9244
9248
9252
9256
9260
9264
9268
9272
9276
9280
9284
9288
9292
9296
9300
9304
9308
9312
9316
9320
9324
9328
9332
9336
9340
9344
9348
9352
9356
9360
9364
9368
9372
9376
9380
9384
9388
9392
9396
9400
9404
9408
9412
9416
9420
9424
9428
9432
9436
9440
9444
9448
9452
9456
9460
9464
9468
9472
9476
9480
9484
9488
9492
9496
9500
9504
9508
9512
9516
9520
9524
9528
9532
9536
9540
9544
9548
9552
9556
9560
9564
9568
9572
9576
9580
9584
9588
9592
9596
9600
9604
9608
9612
9616
9620
9624
9628
9632
9636
9640
9644
9648
9652
9656
9660
9664
9668
9672
9676
9680
9684
9688
9692
9696
9700
9704
9708
9712
9716
9720
9724
9728
9732
9736
9740
9744
9748
9752
9756
9760
9764
9768
9772
9776
9780
9784
9788
9792
9796
9800
9804
9808
9812
9816
9820
9824
9828
9832
9836
9840
9844
9848
9852
9856
9860
9864
9868
9872
9876
9880
9884
9888
9892
9896
9900
9904
9908
9912
9916
9920
9924
9928
9932
9936
9940
9944
9948
9952
9956
9960
9964
9968
9972
9976
9980
9984
9988
9992
9996
10000
10004
10008
10012
10016
10020
10024
10028
10032
10036
10040
10044
10048
10052
10056
10060
10064
10068
10072
10076
10080
10084
10088
10092
10096
10100
10104
10108
10112
10116
10120
10124
10128
10132
10136
10140
10144
10148
10152
10156
10160
10164
10168
10172
10176
10180
10184
10188
10192
10196
10200
10204
10208
10212
10216
10220
10224
10228
10232
10236
10240
10244
10248
10252
10256
10260
10264
10268
10272
10276
10280
10284
10288
10292
10296
10300
10304
10308
10312
10316
10320
10324
10328
10332
10336
10340
10344
10348
10352
10356
10360
10364
10368
10372
10376
10380
10384
10388
10392
10396
10400
10404
10408
10412
10416
10420
10424
10428
10432
10436
10440
10444
10448
10452
10456
10460
10464
10468
10472
10476
10480
10484
10488
10492
10496
10500
10504
10508
10512
10516
10520
10524
10528
10532
10536
10540
10544
10548
10552
10556
10560
10564
10568
10572
10576
10580
10584
10588
10592
10596
10600
10604
10608
10612
10616
10620
10624
10628
10632
10636
10640
10644
10648
10652
10656
10660
10664
10668
10672
10676
10680
10684
10688
10692
10696
10700
10704
10708
10712
10716
10720
10724
10728
10732
10736
10740
10744
10748
10752
10756
10760
10764
10768
10772
10776
10780
10784
10788
10792
10796
10800
10804
10808
10812
10816
10820
10824
10828
10832
10836
10840
10844
10848
10852
10856
10860
10864
10868
10872
10876
10880
10884
10888
10892
10896
10900
10904
10908
10912
10916
10920
10924
10928
10932
10936
10940
10944
10948
10952
10956
10960
10964
10968
10972
10976
10980
10984
10988
10992
10996
11000
11004
11008
11012
11016
11020
11024
11028
11032
11036
11040
11044
11048
11052
11056
11060
11064
11068
11072
11076
11080
11084
11088
11092
11096
11100
11104
11108
11112
11116
11120
11124
11128
11132
11136
11140
11144
11148
11152
11156
11160
11164
11168
11172
11176
11180
11184
11188
11192
11196
11200
11204
11208
11212
11216
11220
11224
11228
11232
11236
11240
11244
11248
11252
11256
11260
11264
11268
11272
11276
11280
11284
11288
11292
11296
11300
11304
11308
11312
11316
11320
11324
11328
11332
11336
11340
11344
11348
11352
11356
11360
11364
11368
11372
11376
11380
11384
11388
11392
11396
11400
11404
11408
11412
11416
11420
11424
11428
11432
11436
11440
11444
11448
11452
11456
11460
11464
11468
11472
11476
11480
11484
11488
11492
11496
11500
11504
11508
11512
11516
11520
11524
11528
11532
11536
11540
11544
11548
11552
11556
11560
11564
11568
11572
11576
11580
11584
11588
11592
11596
11600
11604
11608
11612
11616
11620
11624
11628
11632
11636
11640
11644
11648
11652
11656
11660
11664
11668
11672
11676
11680
11684
11688
11692
11696
11700
11704
11708
11712
11716
11720
11724
11728
11732
11736
11740
11744
11748
11752
11756
11760
11764
11768
11772
11776
11780
11784
11788
11792
11796
11800
11804
11808
11812
11816
11820
11824
11828
11832
11836
11840
11844
11848
11852
11856
11860
11864
11868
11872
11876
11880
11884
11888
11892
11896
11900
11904
11908
11912
11916
11920
11924
11928
11932
11936
11940
11944
11948
11952
11956
11960
11964
11968
11972
11976
11980
11984
11988
11992
11996
12000
12004
12008
12012
12016
12020
12024
12028
12032
12036
12040
12044
12048
12052
12056
12060
12064
12068
12072
12076
12080
12084
12088
12092
12096
12100
12104
12108
12112
12116
12120
12124
12128
12132
12136
12140
12144
12148
12152
12156
12160
12164
12168
12172
12176
12180
12184
12188
12192
12196
12200
12204
12208
12212
12216
12220
12224
12228
12232
12236
12240
12244
12248
12252
12256
12260
12264
12268
12272
12276
12280
12284
12288
12292
12296
12300
12304
12308
12312
12316
12320
12324
12328
12332
12336
12340
12344
12348
12352
12356
12360
12364
12368
12372
12376
12380
12384
12388
12392
12396
12400
12404
12408
12412
12416
12420
12424
12428
12432
12436
12440
12444
12448
12452
12456
12460
12464
12468
12472
12476
12480
12484
12488
12492
12496
12500
12504
12508
12512
12516
12520
12524
12528
12532
12536
12540
12544
12548
12552
12556
12560
12564
12568
12572
12576
12580
12584
12588
12592
12596
12600
12604
12608
12612
12616
12620
12624
12628
12632
12636
12640
12644
12648
12652
12656
12660
12664
12668
12672
12676
12680
12684
12688
12692
12696
12700
12704
12708
12712
12716
12720
12724
12728
12732
12736
12740
12744
12748
12752
12756
12760
12764
12768
12772
12776
12780
12784
12788
12792
12796
12800
12804
12808
12812
12816
12820
12824
12828
12832
12836
12840
12844
12848
12852
12856
12860
12864
12868
12872
12876
12880
12884
12888
12892
12896
12900
12904
12908
12912
12916
12920
12924
12928
12932
12936
12940
12944
12948
12952
12956
12960
12964
12968
12972
12976
12980
12984
12988
12992
12996
13000
13004
13008
13012
13016
13020
13024
13028
13032
13036
13040
13044
13048
13052
13056
13060
13064
13068
13072
13076
13080
13084
13088
13092
13096
13100
13104
13108
13112
13116
13120
13124
13128
13132
13136
13140
13144
13148
13152
13156
13160
13164
13168
13172
13176
13180
13184
13188
13192
13196
13200
13204
13208
13212
13216
13220
13224
13228
13232
13236
13240
13244
13248
13252
13256
13260
13264
13268
13272
13276
13280
13284
13288
13292
13296
13300
13304
13308
13312
13316
13320
13324
13328
13332
13336
13340
13344
13348
13352
13356
13360
13364
13368
13372
13376
13380
13384
13388
13392
13396
13400
13404
13408
13412
13416
13420
13424
13428
13432
13436
13440
13444
13448
13452
13456
13460
13464
13468
13472
13476
13480
13484
13488
13492
13496
13500
13504
13508
13512
13516
13520
13524
13528
13532
13536
13540
13544
13548
13552
13556
13560
13564
13568
13572
13576
13580
13584
13588
13592
13596
13600
13604
13608
13612
13616
13620
13624
13628
13632
13636
13640
13644
13648
13652
13656
13660
13664
13668
13672
13676
13680
13684
13688
13692
13696
13700
13704
13708
13712
13716
13720
13724
13728
13732
13736
13740
13744
13748
13752
13756
13760
13764
13768
13772
13776
13780
13784
13788
13792
13796
13800
13804
13808
13812
13816
13820
13824
13828
13832
13836
13840
13844
13848
13852
13856
13860
13864
13868
13872
13876
13880
13884
13888
13892
13896
13900
13904
13908
13912
13916
13920
13924
13928
13932
13936
13940
13944
13948
13952
13956
13960
13964
13968
13972
13976
13980
13984
13988
13992
13996
14000
14004
14008
14012
14016
14020
14024
14028
14032
14036
14040
14044
14048
14052
14056
14060
14064
14068
14072
14076
14080
14084
14088
14092
14096
14100
14104
14108
14112
14116
14120
14124
14128
14132
14136
14140
14144
14148
14152
14156
14160
14164
14168
14172
14176
14180
14184
14188
14192
14196
14200
14204
14208
14212
14216
14220
14224
14228
14232
14236
14240
14244
14248
14252
14256
14260
14264
14268
14272
14276
14280
14284
14288
14292
14296
14300
14304
14308
14312
14316
14320
14324
14328
14332
14336
14340
14344
14348
14352
14356
14360
14364
14368
14372
14376
14380
14384
14388
14392
14396
14400
14404
14408
14412
14416
14420
14424
14428
14432
14436
14440
14444
14448
14452
14456
14460
14464
14468
14472
14476
14480
14484
14488
14492
14496
14500
14504
14508
14512
14516
14520
14524
14528
14532
14536
14540
14544
14548
14552
14556
14560
14564
14568
14572
14576
14580
14584
14588
14592
14596
14600
14604
14608
14612
14616
14620
14624
14628
14632
14636
14640
14644
14648
14652
14656
14660
14664
14668
14672
14676
14680
14684
14688
14692
14696
14700
14704
14708
14712
14716
14720
14724
14728
14732
14736
14740
14744
14748
14752
14756
14760
14764
14768
14772
14776
14780
14784
14788
14792
14796
14800
14804
14808
14812
14816
14820
14824
14828
14832
14836
14840
14844
14848
14852
14856
14860
14864
14868
14872
14876
14880
14884
14888
14892
14896
14900
14904
14908
14912
14916
14920
14924
14928
14932
14936
14940
14944
14948
14952
14956
14960
14964
14968
14972
14976
14980
14984
14988
14992
14996
15000
15004
15008
15012
15016
15020
15024
15028
15032
15036
15040
15044
15048
15052
15056
15060
15064
15068
15072
15076
15080
15084
15088
15092
15096
15100
15104
15108
15112
15116
15120
15124
15128
15132
15136
15140
15144
15148
15152
15156
15160
15164
15168
15172
15176
15180
15184
15188
15192
15196
15200
15204
15208
15212
15216
15220
15224
15228
15232
15236
15240
15244
15248
15252
15256
15260
15264
15268
15272
15276
15280
15284
15288
15292
15296
15300
15304
15308
15312
15316
15320
15324
15328
15332
15336
15340
15344
15348
15352
15356
15360
15364
15368
15372
15376
15380
15384
15388
15392
15396
15400
15404
15408
15412
15416
15420
15424
15428
15432
15436
15440
15444
15448
15452
15456
15460
15464
15468
15472
15476
15480
15484
15488
15492
15496
15500
15504
15508
15512
15516
15520
15524
15528
15532
15536
15540
15544
15548
15552
15556
15560
15564
15568
15572
15576
15580
15584
15588
15592
15596
15600
15604
15608
15612
15616
15620
15624
15628
15632
15636
15640
15644
15648
15652
15656
15660
15664
15668
15672
15676
15680
15684
15688
15692
15696
15700
15704
15708
15712
15716
15720
15724
15728
15732
15736
15740
15744
15748
15752
15756
15760
15764
15768
15772
15776
15780
15784
15788
15792
15796
15800
15804
15808
15812
15816
15820
15824
15828
15832
15836
15840
15844
15848
15852
15856
15860
15864
15868
15872
15876
15880
15884
15888
15892
15896
15900
15904
15908
15912
15916
15920
15924
15928
15932
15936
15940
15944
15948
15952
15956
15960
15964
15968
15972
15976
15980
15984
15988
15992
15996
16000
16004
16008
16012
16016
16020
16024
16028
16032
16036
16040
16044
16048
16052
16056
16060
16064
16068
16072
16076
16080
16084
16088
16092
16096
16100
16104
16108
16112
16116
16120
16124
16128
16132
16136
16140
16144
16148
16152
16156
16160
16164
16168
16172
16176
16180
16184
16188
16192
16196
16200
16204
16208
16212
16216
16220
16224
16228
16232
16236
16240
16244
16248
16252
16256
16260
16264
16268
16272
16276
16280
16284
16288
16292
16296
16300
16304
16308
16312
16316
16320
16324
16328
16332
16336
16340
16344
16348
16352
16356
16360
16364
16368
16372
16376
16380
16384
16388
16392
16396
16400
16404
16408
16412
16416
16420
16424
16428
16432
16436
16440
16444
16448
16452
16456
16460
16464
16468
16472
16476
16480
16484
16488
16492
16496
16500
16504
16508
16512
16516
16520
16524
16528
16532
16536
16540
16544
16548
16552
16556
16560
16564
16568
16572
16576
16580
16584
16588
16592
16596
16600
16604
16608
16612
16616
16620
16624
16628
16632
16636
16640
16644
16648
16652
16656
16660
16664
16668
16672
16676
16680
16684
16688
16692
16696
16700
16704
16708
16712
16716
16720
16724
16728
16732
16736
16740
16744
16748
16752
16756
16760
16764
16768
16772
16776
16780
16784
16788
16792
16796
16800
16804
16808
16812
16816
16820
16824
16828
16832
16836
16840
16844
16848
16852
16856
16860
16864
16868
16872
16876
16880
16884
16888
16892
16896
16900
16904
16908
16912
16916
16920
16924
16928
16932
16936
16940
16944
16948
16952
16956
16960
16964
16968
16972
16976
16980
16984
16988
16992
16996
17000
17004
17008
17012
17016
17020
17024
17028
17032
17036
17040
17044
17048
17052
17056
17060
17064
17068
17072
17076
17080
17084
17088
17092
17096
17100
17104
17108
17112
17116
17120
17124
17128
17132
17136
17140
17144
17148
17152
17156
17160
17164
17168
17172
17176
17180
17184
17188
17192
17196
17200
17204
17208
17212
17216
17220
17224
17228
17232
17236
17240
17244
17248
17252
17256
17260
17264
17268
17272
17276
17280
17284
17288
17292
17296
17300
17304
17308
17312
17316
17320
17324
17328
17332
17336
17340
17344
17348
17352
17356
17360
17364
17368
17372
17376
17380
17384
17388
17392
17396
17400
17404
17408
17412
17416
17420
17424
17428
17432
17436
17440
17444
17448
17452
17456
17460
17464
17468
17472
17476
17480
17484
17488
17492
17496
17500
17504
17508
17512
17516
17520
17524
17528
17532
17536
17540
17544
17548
17552
17556
17560
17564
17568
17572
17576
17580
17584
17588
17592
17596
17600
17604
17608
17612
17616
17620
17624
17628
17632
17636
17640
17644
17648
17652
17656
17660
17664
17668
17672
17676
17680
17684
17688
17692
17696
17700
17704
17708
17712
17716
17720
17724
17728
17732
17736
17740
17744
17748
17752
17756
17760
17764
17768
17772
17776
17780
17784
17788
17792
17796
17800
17804
17808
17812
17816
17820
17824
17828
17832
17836
17840
17844
17848
17852
17856
17860
17864
17868
17872
17876
17880
17884
17888
17892
17896
17900
17904
17908
17912
17916
17920
17924
17928
17932
17936
17940
17944
17948
17952
17956
17960
17964
17968
17972
17976
17980
17984
17988
17992
17996
18000
18004
18008
18012
18016
18020
18024
18028
18032
18036
18040
18044
18048
18052
18056
18060
18064
18068
18072
18076
18080
18084
18088
18092
18096
18100
18104
18108
18112
18116
18120
18124
18128
18132
18136
18140
18144
18148
18152
18156
18160
18164
18168
18172
18176
18180
18184
18188
18192
18196
18200
18204
18208
18212
18216
18220
18224
18228
18232
18236
18240
18244
18248
18252
18256
18260
18264
18268
18272
18276
18280
18284
18288
18292
18296
18300
18304
18308
18312
18316
18320
18324
18328
18332
18336
18340
18344
18348
18352
18356
18360
18364
18368
18372
18376
18380
18384
18388
18392
18396
18400
18404
18408
18412
18416
18420
18424
18428
18432
18436
18440
18444
18448
18452
18456
18460
18464
18468
18472
18476
18480
18484
18488
18492
18496
18500
18504
18508
18512
18516
18520
18524
18528
18532
18536
18540
18544
18548
18552
18556
18560
18564
18568
18572
18576
18580
18584
18588
18592
18596
18600
18604
18608
18612
18616
18620
18624
18628
18632
18636
18640
18644
18648
18652
18656
18660
18664
18668
18672
18676
18680
18684
18688
18692
18696
18700
18704
18708
18712
18716
18720
18724
18728
18732
18736
18740
18744
18748
18752
18756
18760
18764
18768
18772
18776
18780
18784
18788
18792
18796
18800
18804
18808
18812
18816
18820
18824
18828
18832
18836
18840
18844
18848
18852
18856
18860
18864
18868
18872
18876
18880
18884
18888
18892
18896
18900
18904
18908
18912
18916
18920
18924
18928
18932
18936
18940
18944
18948
18952
18956
18960
18964
18968
18972
18976
18980
18984
18988
18992
18996
19000
19004
19008
19012
19016
19020
19024
19028
19032
19036
19040
19044
19048
19052
19056
19060
19064
19068
19072
19076
19080
19084
19088
19092
19096
19100
19104
19108
19112
19116
19120
19124
19128
19132
19136
19140
19144
19148
19152
19156
19160
19164
19168
19172
19176
19180
19184
19188
19192
19196
19200
19204
19208
19212
19216
19220
19224
19228
19232
19236
19240
19244
19248
19252
19256
19260
19264
19268
19272
19276
19280
19284
19288
19292
19296
19300
19304
19308
19312
19316
19320
19324
19328
19332
19336
19340
19344
19348
19352
19356
19360
19364
19368
19372
19376
19380
19384
19388
19392
19396
19400
19404
19408
19412
19416
19420
19424
19428
19432
19436
19440
19444
19448
19452
19456
19460
19464
19468
19472
19476
19480
19484
19488
19492
19496
19500
19504
19508
19512
19516
19520
19524
19528
19532
19536
19540
19544
19548
19552
19556
19560
19564
19568
19572
19576
19580
19584
19588
19592
19596
19600
19604
19608
19612
19616
19620
19624
19628
19632
19636
19640
19644
19648
19652
19656
19660
19664
19668
19672
19676
19680
19684
19688
19692
19696
19700
19704
19708
19712
19716
19720
19724
19728
19732
19736
19740
19744
19748
19752
19756
19760
19764
19768
19772
19776
19780
19784
19788
19792
19796
19800
19804
19808
19812
19816
19820
19824
19828
19832
19836
19840
19844
19848
19852
19856
19860
19864
19868
19872
19876
19880
19884
19888
19892
19896
19900
19904
19908
19912
19916
19920
19924
19928
19932
19936
19940
19944
19948
19952
19956
19960
19964
19968
19972
19976
19980
19984
19988
19992
19996
20000
20004
20008
20012
20016
20020
20024
20028
20032
20036
20040
20044
20048
20052
20056
20060
20064
20068
20072
20076
20080
20084
20088
20092
20096
20100
20104
20108
20112
20116
20120
20124
20128
20132
20136
20140
20144
20148
20152
20156
20160
20164
20168
20172
20176
20180
20184
20188
20192
20196
20200
20204
20208
20212
20216
20220
20224
20228
20232
20236
20240
20244
20248
20252
20256
20260
20264
20268
20272
20276
20280
20284
20288
20292
20296
20300
20304
20308
20312
20316
20320
20324
20328
20332
20336
20340
20344
20348
20352
20356
20360
20364
20368
20372
20376
20380
20384
20388
20392
20396
20400
20404
20408
20412
20416
20420
20424
20428
20432
20436
20440
20444
20448
20452
20456
20460
20464
20468
20472
20476
20480
20484
20488
20492
20496
20500
20504
20508
20512
20516
20520
20524
20528
20532
20536
20540
20544
20548
20552
20556
20560
20564
20568
20572
20576
20580
20584
20588
20592
20596
20600
20604
20608
20612
20616
20620
20624
20628
20632
20636
20640
20644
20648
20652
20656
20660
20664
20668
20672
20676
20680
20684
20688
20692
20696
20700
20704
20708
20712
20716
20720
20724
20728
20732
20736
20740
20744
20748
20752
20756
20760
20764
20768
20772
20776
20780
20784
20788
20792
20796
20800
20804
20808
20812
20816
20820
20824
20828
20832
20836
20840
20844
20848
20852
20856
20860
20864
20868
20872
20876
20880
20884
20888
20892
20896
20900
20904
20908
20912
20916
20920
20924
20928
20932
20936
20940
20944
20948
20952
20956
20960
20964
20968
20972
20976
20980
20984
20988
20992
20996
21000
21004
21008
21012
21016
21020
21024
21028
21032
21036
21040
21044
21048
21052
21056
21060
21064
21068
21072
21076
21080
21084
21088
21092
21096
21100
21104
21108
21112
21116
21120
21124
21128
21132
21136
21140
21144
21148
21152
21156
21160
21164
21168
21172
21176
21180
21184
21188
21192
21196
21200
21204
21208
21212
21216
21220
21224
21228
21232
21236
21240
21244
21248
21252
21256
21260
21264
21268
21272
21276
21280
21284
21288
21292
21296
21300
21304
21308
21312
21316
21320
21324
21328
21332
21336
21340
21344
21348
21352
21356
21360
21364
21368
21372
21376
21380
21384
21388
21392
21396
21400
21404
21408
21412
21416
21420
21424
21428
21432
21436
21440
21444
21448
21452
21456
21460
21464
21468
21472
21476
21480
21484
21488
21492
21496
21500
21504
21508
21512
21516
21520
21524
21528
21532
21536
21540
21544
21548
21552
21556
21560
21564
21568
21572
21576
21580
21584
21588
21592
21596
21600
21604
21608
21612
21616
21620
21624
21628
21632
21636
21640
21644
21648
21652
21656
21660
21664
21668
21672
21676
21680
21684
21688
21692
21696
21700
21704
21708
21712
21716
21720
21724
21728
21732
21736
21740
21744
21748
21752
21756
21760
21764
21768
21772
21776
21780
21784
21788
21792
21796
21800
21804
21808
21812
21816
21820
21824
21828
21832
21836
21840
21844
21848
21852
21856
21860
21864
21868
21872
21876
21880
21884
21888
21892
21896
21900
21904
21908
21912
21916
21920
21924
21928
21932
21936
21940
21944
21948
21952
21956
21960
21964
21968
21972
21976
21980
21984
21988
21992
21996
22000
22004
22008
22012
22016
22020
22024
22028
22032
22036
22040
22044
22048
22052
22056
22060
22064
22068
22072
22076
22080
22084
22088
22092
22096
22100
22104
22108
22112
22116
22120
22124
22128
22132
22136
22140
22144
22148
22152
22156
22160
22164
22168
22172
22176
22180
22184
22188
22192
22196
22200
22204
22208
22212
22216
22220
22224
22228
22232
22236
22240
22244
22248
22252
22256
22260
22264
22268
22272
22276
22280
22284
22288
22292
22296
22300
22304
22308
22312
22316
22320
22324
22328
22332
22336
22340
22344
22348
22352
22356
22360
22364
22368
22372
22376
22380
22384
22388
22392
22396
22400
22404
22408
22412
22416
22420
22424
22428
22432
22436
22440
22444
22448
22452
22456
22460
22464
22468
22472
22476
22480
22484
22488
22492
22496
22500
22504
22508
22512
22516
22520
22524
22528
22532
22536
22540
22544
22548
22552
22556
22560
22564
22568
22572
22576
22580
22584
22588
22592
22596
22600
22604
22608
22612
22616
22620
22624
22628
22632
22636
22640
22644
22648
22652
22656
22660
22664
22668
22672
22676
22680
22684
22688
22692
22696
22700
22704
22708
22712
22716
22720
</DataArray>
<DataArray type="Int64" Name="types" format="ascii">
9
9
9
9
9
9
9
9
9
9
9
9
9
9
9
9
9
9
9
9
9
9
9
9
9
9
9
9
9
9
9
9
9
9
9
9
9
9
9
9
9
9
9
9
9
9
9
9
9
9
9
9
9
9
9
9
9
9
9
9
9
9
9
9
9
9
9
9
9
9
9
9
9
9
9
9
9
9
9
9
9
9
9
9
9
9
9
9
9
9
9
9
9
9
9
9
9
9
9
9
9
9
9
9
9
9
9
9
9
9
9
9
9
9
9
9
9
9
9
9
9
9
9
9
9
9
9
9
9
9
9
9
9
9
9
9
9
9
9
9
9
9
9
9
9
9
9
9
9
9
9
9
9
9
9
9
9
9
9
9
9
9
9
9
9
9
9
9
9
9
9
9
9
9
9
9
9
9
9
9
9
9
9
9
9
9
9
9
9
9
9
9
9
9
9
9
9
9
9
9
9
9
9
9
9
9
9
9
9
9
9
9
9
9
9
9
9
9
9
9
9
9
9
9
9
9
9
9
9
9
9
9
9
9
9
9
9
9
9
9
9
9
9
9
9
9
9
9
9
9
9
9
9
9
9
9
9
9
9
9
9
9
9
9
9
9
9
9
9
9
9
9
9
9
9
9
9
9
9
9
9
9
9
9
9
9
9
9
9
9
9
9
9
9
9
9
9
9
9
9
9
9
9
9
9
9
9
9
9
9
9
9
9
9
9
9
9
9
9
9
9
9
9
9
9
9
9
9
9
9
9
9
9
9
9
9
9
9
9
9
9
9
9
9
9
9
9
9
9
9
9
9
9
9
9
9
9
9
9
9
9
9
9
9
9
9
9
9
9
9
9
9
9
9
9
9
9
9
9
9
9
9
9
9
9
9
9
9
9
9
9
9
9
9
9
9
9
9
9
9
9
9
9
9
9
9
9
9
9
9
9
9
9
9
9
9
9
9
9
9
9
9
9
9
9
9
9
9
9
9
9
9
9
9
9
9
9
9
9
9
9
9
9
9
9
9
9
9
9
9
9
9
9
9
9
9
9
9
9
9
9
9
9
9
9
9
9
9
9
9
9
9
9
9
9
9
9
9
9
9
9
9
9
9
9
9
9
9
9
9
9
9
9
9
9
9
9
9
9
9
9
9
9
9
9
9
9
9
9
9
9
9
9
9
9
9
9
9
9
9
9
9
9
9
9
9
9
9
9
9
9
9
9
9
9
9
9
9
9
9
9
9
9
9
9
9
9
9
9
9
9
9
9
9
9
9
9
9
9
9
9
9
9
9
9
9
9
9
9
9
9
9
9
9
9
9
9
9
9
9
9
9
9
9
9
9
9
9
9
9
9
9
9
9
9
9
9
9
9
9
9
9
9
9
9
9
9
9
9
9
9
9
9
9
9
9
9
9
9
9
9
9
9
9
9
9
9
9
9
9
9
9
9
9
9
9
9
9
9
9
9
9
9
9
9
9
9
9
9
9
9
9
9
9
9
9
9
9
9
9
9
9
9
9
9
9
9
9
9
9
9
9
9
9
9
9
9
9
9
9
9
9
9
9
9
9
9
9
9
9
9
9
9
9
9
9
9
9
9
9
9
9
9
9
9
9
9
9
9
9
9
9
9
9
9
9
9
9
9
9
9
9
9
9
9
9
9
9
9
9
9
9
9
9
9
9
9
9
9
9
9
9
9
9
9
9
9
9
9
9
9
9
9
9
9
9
9
9
9
9
9
9
9
9
9
9
9
9
9
9
9
9
9
9
9
9
9
9
9
9
9
9
9
9
9
9
9
9
9
9
9
9
9
9
9
9
9
9
9
9
9
9
9
9
9
9
9
9
9
9
9
9
9
9
9
9
9
9
9
9
9
9
9
9
9
9
9
9
9
9
9
9
9
9
9
9
9
9
9
9
9
9
9
9
9
9
9
9
9
9
9
9
9
9
9
9
9
9
9
9
9
9
9
9
9
9
9
9
9
9
9
9
9
9
9
9
9
9
9
9
9
9
9
9
9
9
9
9
9
9
9
9
9
9
9
9
9
9
9
9
9
9
9
9
9
9
9
9
9
9
9
9
9
9
9
9
9
9
9
9
9
9
9
9
9
9
9
9
9
9
9
9
9
9
9
9
9
9
9
9
9
9
9
9
9
9
9
9
9
9
9
9
9
9
9
9
9
9
9
9
9
9
9
9
9
9
9
9
9
9
9
9
9
9
9
9
9
9
9
9
9
9
9
9
9
9
9
9
9
9
9
9
9
9
9
9
9
9
9
9
9
9
9
9
9
9
9
9
9
9
9
9
9
9
9
9
9
9
9
9
9
9
9
9
9
9
9
9
9
9
9
9
9
9
9
9
9
9
9
9
9
9
9
9
9
9
9
9
9
9
9
9
9
9
9
9
9
9
9
9
9
9
9
9
9
9
9
9
9
9
9
9
9
9
9
9
9
9
9
9
9
9
9
9
9
9
9
9
9
9
9
9
9
9
9
9
9
9
9
9
9
9
9
9
9
9
9
9
9
9
9
9
9
9
9
9
9
9
9
9
9
9
9
9
9
9
9
9
9
9
9
9
9
9
9
9
9
9
9
9
9
9
9
9
9
9
9
9
9
9
9
9
9
9
9
9
9
9
9
9
9
9
9
9
9
9
9
9
9
9
9
9
9
9
9
9
9
9
9
9
9
9
9
9
9
9
9
9
9
9
9
9
9
9
9
9
9
9
9
9
9
9
9
9
9
9
9
9
9
9
9
9
9
9
9
9
9
9
9
9
9
9
9
9
9
9
9
9
9
9
9
9
9
9
9
9
9
9
9
9
9
9
9
9
9
9
9
9
9
9
9
9
9
9
9
9
9
9
9
9
9
9
9
9
9
9
9
9
9
9
9
9
9
9
9
9
9
9
9
9
9
9
9
9
9
9
9
9
9
9
9
9
9
9
9
9
9
9
9
9
9
9
9
9
9
9
9
9
9
9
9
9
9
9
9
9
9
9
9
9
9
9
9
9
9
9
9
9
9
9
9
9
9
9
9
9
9
9
9
9
9
9
9
9
9
9
9
9
9
9
9
9
9
9
9
9
9
9
9
9
9
9
9
9
9
9
9
9
9
9
9
9
9
9
9
9
9
9
9
9
9
9
9
9
9
9
9
9
9
9
9
9
9
9
9
9
9
9
9
9
9
9
9
9
9
9
9
9
9
9
9
9
9
9
9
9
9
9
9
9
9
9
9
9
9
9
9
9
9
9
9
9
9
9
9
9
9
9
9
9
9
9
9
9
9
9
9
9
9
9
9
9
9
9
9
9
9
9
9
9
9
9
9
9
9
9
9
9
9
9
9
9
9
9
9
9
9
9
9
9
9
9
9
9
9
9
9
9
9
9
9
9
9
9
9
9
9
9
9
9
9
9
9
9
9
9
9
9
9
9
9
9
9
9
9
9
9
9
9
9
9
9
9
9
9
9
9
9
9
9
9
9
9
9
9
9
9
9
9
9
9
9
9
9
9
9
9
9
9
9
9
9
9
9
9
9
9
9
9
9
9
9
9
9
9
9
9
9
9
9
9
9
9
9
9
9
9
9
9
9
9
9
9
9
9
9
9
9
9
9
9
9
9
9
9
9
9
9
9
9
9
9
9
9
9
9
9
9
9
9
9
9
9
9
9
9
9
9
9
9
9
9
9
9
9
9
9
9
9
9
9
9
9
9
9
9
9
9
9
9
9
9
9
9
9
9
9
9
9
9
9
9
9
9
9
9
9
9
9
9
9
9
9
9
9
9
9
9
9
9
9
9
9
9
9
9
9
9
9
9
9
9
9
9
9
9
9
9
9
9
9
9
9
9
9
9
9
9
9
9
9
9
9
9
9
9
9
9
9
9
9
9
9
9
9
9
9
9
9
9
9
9
9
9
9
9
9
9
9
9
9
9
9
9
9
9
9
9
9
9
9
9
9
9
9
9
9
9
9
9
9
9
9
9
9
9
9
9
9
9
9
9
9
9
9
9
9
9
9
9
9
9
9
9
9
9
9
9
9
9
9
9
9
9
9
9
9
9
9
9
9
9
9
9
9
9
9
9
9
9
9
9
9
9
9
9
9
9
9
9
9
9
9
9
9
9
9
9
9
9
9
9
9
9
9
9
9
9
9
9
9
9
9
9
9
9
9
9
9
9
9
9
9
9
9
9
9
9
9
9
9
9
9
9
9
9
9
9
9
9
9
9
9
9
9
9
9
9
9
9
9
9
9
9
9
9
9
9
9
9
9
9
9
9
9
9
9
9
9
9
9
9
9
9
9
9
9
9
9
9
9
9
9
9
9
9
9
9
9
9
9
9
9
9
9
9
9
9
9
9
9
9
9
9
9
9
9
9
9
9
9
9
9
9
9
9
9
9
9
9
9
9
9
9
9
9
9
9
9
9
9
9
9
9
9
9
9
9
9
9
9
9
9
9
9
9
9
9
9
9
9
9
9
9
9
9
9
9
9
9
9
9
9
9
9
9
9
9
9
9
9
9
9
9
9
9
9
9
9
9
9
9
9
9
9
9
9
9
9
9
9
9
9
9
9
9
9
9
9
9
9
9
9
9
9
9
9
9
9
9
9
9
9
9
9
9
9
9
9
9
9
9
9
9
9
9
9
9
9
9
9
9
9
9
9
9
9
9
9
9
9
9
9
9
9
9
9
9
9
9
9
9
9
9
9
9
9
9
9
9
9
9
9
9
9
9
9
9
9
9
9
9
9
9
9
9
9
9
9
9
9
9
9
9
9
9
9
9
9
9
9
9
9
9
9
9
9
9
9
9
9
9
9
9
9
9
9
9
9
9
9
9
9
9
9
9
9
9
9
9
9
9
9
9
9
9
9
9
9
9
9
9
9
9
9
9
9
9
9
9
9
9
9
9
9
9
9
9
9
9
9
9
9
9
9
9
9
9
9
9
9
9
9
9
9
9
9
9
9
9
9
9
9
9
9
9
9
9
9
9
9
9
9
9
9
9
9
9
9
9
9
9
9
9
9
9
9
9
9
9
9
9
9
9
9
9
9
9
9
9
9
9
9
9
9
9
9
9
9
9
9
9
9
9
9
9
9
9
9
9
9
9
9
9
9
9
9
9
9
9
9
9
9
9
9
9
9
9
9
9
9
9
9
9
9
9
9
9
9
9
9
9
9
9
9
9
9
9
9
9
9
9
9
9
9
9
9
9
9
9
9
9
9
9
9
9
9
9
9
9
9
9
9
9
9
9
9
9
9
9
9
9
9
9
9
9
9
9
9
9
9
9
9
9
9
9
9
9
9
9
9
9
9
9
9
9
9
9
9
9
9
9
9
9
9
9
9
9
9
9
9
9
9
9
9
9
9
9
9
9
9
9
9
9
9
9
9
9
9
9
9
9
9
9
9
9
9
9
9
9
9
9
9
9
9
9
9
9
9
9
9
9
9
9
9
9
9
9
9
9
9
9
9
9
9
9
9
9
9
9
9
9
9
9
9
9
9
9
9
9
9
9
9
9
9
9
9
9
9
9
9
9
9
9
9
9
9
9
9
9
9
9
9
9
9
9
9
9
9
9
9
9
9
9
9
9
9
9
9
9
9
9
9
9
9
9
9
9
9
9
9
9
9
9
9
9
9
9
9
9
9
9
9
9
9
9
9
9
9
9
9
9
9
9
9
9
9
9
9
9
9
9
9
9
9
9
9
9
9
9
9
9
9
9
9
9
9
9
9
9
9
9
9
9
9
9
9
9
9
9
9
9
9
9
9
9
9
9
9
9
9
9
9
9
9
9
9
9
9
9
9
9
9
9
9
9
9
9
9
9
9
9
9
9
9
9
9
9
9
9
9
9
9
9
9
9
9
9
9
9
9
9
9
9
9
9
9
9
9
9
9
9
9
9
9
9
9
9
9
9
9
9
9
9
9
9
9
9
9
9
9
9
9
9
9
9
9
9
9
9
9
9
9
9
9
9
9
9
9
9
9
9
9
9
9
9
9
9
9
9
9
9
9
9
9
9
9
9
9
9
9
9
9
9
9
9
9
9
9
9
9
9
9
9
9
9
9
9
9
9
9
9
9
9
9
9
9
9
9
9
9
9
9
9
9
9
9
9
9
9
9
9
9
9
9
9
9
9
9
9
9
9
9
9
9
9
9
9
9
9
9
9
9
9
9
9
9
9
9
9
9
9
9
9
9
9
9
9
9
9
9
9
9
9
9
9
9
9
9
9
9
9
9
9
9
9
9
9
9
9
9
9
9
9
9
9
9
9
9
9
9
9
9
9
9
9
9
9
9
9
9
9
9
9
9
9
9
9
9
9
9
9
9
9
9
9
9
9
9
9
9
9
9
9
9
9
9
9
9
9
9
9
9
9
9
9
9
9
9
9
9
9
9
9
9
9
9
9
9
9
9
9
9
9
9
9
9
9
9
9
9
9
9
9
9
9
9
9
9
9
9
9
9
9
9
9
9
9
9
9
9
9
9
9
9
9
9
9
9
9
9
9
9
9
9
9
9
9
9
9
9
9
9
9
9
9
9
9
9
9
9
9
9
9
9
9
9
9
9
9
9
9
9
9
9
9
9
9
9
9
9
9
9
9
9
9
9
9
9
9
9
9
9
9
9
9
9
9
9
9
9
9
9
9
9
9
9
9
9
9
9
9
9
9
9
9
9
9
9
9
9
9
9
9
9
9
9
9
9
9
9
9
9
9
9
9
9
9
9
9
9
9
9
9
9
9
9
9
9
9
9
9
9
9
9
9
9
9
9
9
9
9
9
9
9
9
9
9
9
9
9
9
9
9
9
9
9
9
9
9
9
9
9
9
9
9
9
9
9
9
9
9
9
9
9
9
9
9
9
9
9
9
9
9
9
9
9
9
9
9
9
9
9
9
9
9
9
9
9
9
9
9
9
9
9
9
9
9
9
9
9
9
9
9
9
9
9
9
9
9
9
9
9
9
9
9
9
9
9
9
9
9
9
9
9
9
9
9
9
9
9
9
9
9
9
9
9
9
9
9
9
9
9
9
9
9
9
9
9
9
9
9
9
9
9
9
9
9
9
9
9
9
9
9
9
9
9
9
9
9
9
9
9
9
9
9
9
9
9
9
9
9
9
9
9
9
9
9
9
9
9
9
9
9
9
9
9
9
9
9
9
9
9
9
9
9
9
9
9
9
9
9
9
9
9
9
9
9
9
9
9
9
9
9
9
9
9
9
9
9
9
9
9
9
9
9
9
9
9
9
9
9
9
9
9
9
9
9
9
9
9
9
9
9
9
9
9
9
9
9
9
9
9
9
9
9
9
9
9
9
9
9
9
9
9
9
9
9
9
9
9
9
9
9
9
9
9
9
9
9
9
9
9
9
9
9
9
9
9
9
9
9
9
9
9
9
9
9
9
9
9
9
9
9
9
9
9
9
9
9
9
9
9
9
9
9
9
9
9
9
9
9
9
9
9
9
9
9
9
9
9
9
9
9
9
9
9
9
9
9
9
9
9
9
9
9
9
9
9
9
9
9
9
9
9
9
9
9
9
9
9
9
9
9
9
9
9
9
9
9
9
9
9
9
9
9
9
9
9
9
9
9
9
9
9
9
9
9
9
9
9
9
9
9
9
9
9
9
9
9
9
9
9
9
9
9
9
9
9
9
9
9
9
9
9
9
9
9
9
9
9
9
9
9
9
9
9
9
9
9
9
9
9
9
9
9
9
9
9
9
9
9
9
9
9
9
9
9
9
9
9
9
9
9
9
9
9
9
9
9
9
9
9
9
9
9
9
9
9
9
9
9
9
9
9
9
9
9
9
9
9
9
9
9
9
9
9
9
9
9
9
9
9
9
9
9
9
9
9
9
9
9
9
9
9
9
9
9
9
9
9
9
9
9
9
9
9
9
9
9
9
9
9
9
9
9
9
9
9
9
9
9
9
9
9
9
9
9
9
9
9
9
9
9
9
9
9
9
9
9
9
9
9
9
9
9
9
9
9
9
9
9
9
9
9
9
9
9
9
9
9
9
9
9
9
9
9
9
9
9
9
9
9
9
9
9
9
9
9
9
9
9
9
9
9
9
9
9
9
9
9
9
9
9
9
9
9
9
9
9
9
9
9
9
9
9
9
9
9
9
9
9
9
9
9
9
9
9
9
9
9
9
9
9
9
9
9
9
9
9
9
9
9
9
9
9
9
9
9
9
9
9
9
9
9
9
9
9
9
9
9
9
9
9
9
9
9
9
9
9
9
9
9
9
9
9
9
9
9
9
9
9
9
9
9
9
9
9
9
9
9
9
9
9
9
9
9
9
9
9
9
9
9
9
9
9
9
9
9
9
9
9
9
9
9
9
9
9
9
9
9
9
9
9
9
9
9
9
9
9
9
9
9
9
9
9
9
9
9
9
9
9
9
9
9
9
9
9
9
9
9
9
9
9
9
9
9
9
9
9
9
9
9
9
9
9
9
9
9
9
9
9
9
9
9
9
9
9
9
9
9
9
9
9
9
9
9
9
9
9
9
9
9
9
9
9
9
9
9
9
9
9
9
9
9
9
9
9
9
9
9
9
9
9
9
9
9
9
9
9
9
9
9
9
9
9
9
9
9
9
9
9
9
9
9
9
9
9
9
9
9
9
9
9
9
9
9
9
9
9
9
9
9
9
9
9
9
9
9
9
9
9
9
9
9
9
9
9
9
9
9
9
9
9
9
9
9
9
9
9
9
9
9
9
9
9
9
9
9
9
9
9
9
9
9
9
9
9
9
9
9
9
9
9
9
9
9
9
9
9
9
9
9
9
9
9
9
9
9
9
9
9
9
9
9
9
9
9
9
9
9
9
9
9
9
9
9
9
9
9
9
9
9
9
9
9
9
9
9
9
9
9
9
9
9
9
9
9
9
9
9
9
9
9
9
9
9
9
9
9
9
9
9
9
9
9
9
9
9
9
9
9
9
9
9
9
9
9
9
9
9
9
9
9
9
9
9
9
9
9
9
9
9
9
9
9
9
9
9
9
9
9
9
9
9
9
9
9
9
9
9
9
9
9
9
9
9
9
9
9
9
9
9
9
9
9
9
9
9
9
9
9
9
9
9
9
9
9
9
9
9
9
9
9
9
9
9
9
9
9
9
9
9
9
9
9
9
9
9
9
9
9
9
9
9
9
9
9
9
9
9
9
9
9
9
9
9
9
9
9
9
9
9
9
9
9
9
9
9
9
9
9
9
9
9
9
9
9
9
9
9
9
9
9
9
9
9
9
9
9
9
9
9
9
9
9
9
9
9
9
9
9
9
9
9
9
9
9
9
9
9
9
9
9
9
9
9
9
9
9
9
9
9
9
9
9
9
9
9
9
9
9
9
9
9
9
9
9
9
9
9
9
9
9
9
9
9
9
9
9
9
9
9
9
9
9
9
9
9
9
9
9
9
9
9
9
9
9
9
9
9
9
9
9
9
9
9
9
9
9
9
9
9
9
9
9
9
9
9
9
9
9
9
9
9
9
9
9
9
9
9
9
9
9
9
9
9
9
9
9
9
9
9
9
9
9
9
9
9
9
9
9
9
9
9
9
9
9
9
9
9
9
9
9
9
9
9
9
9
9
9
9
9
9
9
9
9
9
9
9
9
9
9
9
9
9
9
9
9
9
9
9
9
9
9
9
9
9
9
9
9
9
9
9
9
9
9
9
9
9
9
9
9
9
9
9
9
9
9
9
9
9
9
9
9
9
9
9
9
9
9
9
9
9
9
9
9
9
9
9
9
9
9
9
9
9
9
9
9
9
9
9
9
9
9
9
9
9
9
9
9
9
9
9
9
9
9
9
9
9
9
9
9
9
9
9
9
9
9
9
9
9
9
9
9
9
9
9
9
9
9
9
9
9
9
9
9
9
9
9
9
9
9
9
9
9
9
9
9
9
9
9
9
9
9
9
9
9
9
9
9
9
9
9
9
9
9
9
9
9
9
9
9
9
9
9
9
9
9
9
9
9
9
9
9
9
9
9
9
9
9
9
9
9
9
9
9
9
9
9
9
9
9
9
9
9
9
9
9
9
9
9
9
9
9
9
9
9
9
9
9
9
9
9
9
9
9
9
9
9
9
9
9
9
9
9
9
9
9
9
9
9
9
9
9
9
9
9
9
9
9
9
9
9
9
9
9
9
9
9
9
9
9
9
9
9
9
9
9
9
9
9
9
9
9
9
9
9
9
9
9
9
9
9
9
9
9
9
9
9
9
9
9
9
9
9
9
9
9
9
9
9
9
9
9
9
9
9
9
9
9
9
9
9
9
9
9
9
9
9
9
9
9
9
9
9
9
9
9
9
9
9
9
9
9
9
9
9
9
9
9
9
9
9
9
9
9
9
9
9
9
9
9
9
9
9
9
9
9
9
9
9
9
9
9
9
9
9
9
9
9
9
9
9
9
9
9
9
9
9
9
9
9
9
9
9
9
9
9
9
9
9
9
9
9
9
9
9
9
9
9
9
9
9
9
9
9
9
9
9
9
9
9
9
9
9
9
9
9
9
9
9
9
9
9
9
9
9
9
9
9
9
9
9
9
9
9
9
9
9
9
9
9
9
9
9
9
9
9
9
9
9
9
9
9
9
9
9
9
9
9
9
9
9
9
9
9
9
9
9
9
9
9
9
9
9
9
9
9
9
9
9
9
9
9
9
9
9
9
9
9
9
9
9
9
9
9
9
9
9
9
9
9
9
9
9
9
9
9
9
9
9
9
9
9
9
9
9
9
9
9
9
9
9
9
9
9
9
9
9
9
9
9
9
9
9
9
9
9
9
9
9
9
9
9
9
9
9
9
9
9
9
9
9
9
9
9
9
9
9
9
9
9
9
9
9
9
9
9
9
9
9
9
9
9
9
9
9
9
9
9
9
9
9
9
9
9
9
9
9
9
9
9
9
9
9
9
9
9
9
9
9
9
9
9
9
9
9
9
9
9
9
9
9
9
9
9
9
9
9
9
9
9
9
9
9
9
9
9
9
9
9
9
9
9
9
9
9
9
9
9
9
9
9
9
9
9
9
9
9
9
9
9
9
9
9
9
9
9
9
9
9
9
9
9
9
9
9
9
9
9
9
9
9
9
9
9
9
9
9
9
9
9
9
9
9
9
9
9
9
9
9
9
9
9
9
9
9
9
9
9
9
9
9
9
9
9
9
9
9
9
9
9
9
9
9
9
9
9
9
9
9
9
9
9
9
9
9
9
9
9
9
9
9
9
9
9
9
9
9
9
9
9
9
9
9
9
9
9
9
9
9
9
9
9
9
9
9
9
9
9
9
9
9
9
9
9
9
9
9
9
9
9
9
9
9
9
9
9
9
9
9
9
9
9
9
9
9
9
9
9
9
9
9
9
9
9
9
9
9
9
9
9
9
9
9
9
9
9
9
9
9
9
9
9
9
9
9
9
9
9
9
9
9
9
9
9
9
9
9
9
9
9
9
9
9
9
9
9
9
9
9
9
9
9
9
9
9
9
9
9
9
9
9
9
9
9
9
9
9
9
9
9
9
9
9
9
9
9
9
9
9
9
9
9
9
9
9
9
9
9
9
9
9
9
9
9
9
9
9
9
9
9
9
9
9
9
9
9
9
9
9
9
9
9
9
9
9
9
9
9
9
9
9
9
9
9
9
9
9
9
9
9
9
9
9
9
9
9
9
9
9
9
9
9
9
9
9
9
9
9
9
9
9
9
9
9
9
9
9
9
9
9
9
9
9
9
9
9
9
9
9
9
9
9
9
9
9
9
9
9
9
9
9
9
9
9
9
9
9
9
9
9
9
9
9
9
9
9
9
9
9
9
9
9
9
9
9
9
9
9
9
9
9
9
9
9
9
9
9
9
9
9
9
9
9
9
9
9
9
9
9
9
9
9
9
9
9
9
9
9
9
9
9
9
9
9
9
9
9
9
9
9
9
9
9
9
9
9
9
9
9
9
9
9
9
9
9
9
9
9
9
9
9
9
9
9
9
9
9
9
9
9
9
9
9
9
9
9
9
9
9
9
9
9
9
9
9
9
9
9
9
9
9
9
9
9
9
9
9
9
9
9
9
9
9
9
9
9
9
9
9
9
9
9
9
9
9
9
9
9
9
9
9
9
9
9
9
9
9
9
9
9
9
9
9
9
9
9
9
9
9
9
9
9
9
9
9
9
9
9
9
9
9
9
9
9
9
9
9
9
9
9
9
9
9
9
9
9
9
9
9
9
9
9
9
9
9
9
9
9
9
9
9
9
9
9
9
9
9
9
9
9
9
9
9
9
9
9
9
9
9
9
9
9
9
9
9
9
9
9
9
9
9
9
9
9
9
9
9
9
9
9
9
9
9
9
9
9
9
9
9
9
9
9
9
9
9
9
9
9
9
9
9
9
9
9
9
9
9
9
9
9
9
9
9
9
9
9
9
9
9
9
9
9
9
9
9
9
9
9
9
9
9
9
9
9
9
9
9
9
9
9
9
9
9
9
9
9
9
9
9
9
9
9
9
9
9
9
9
9
9
9
9
9
9
9
9
9
9
9
9
9
9
9
9
9
9
9
9
9
9
9
9
9
9
9
9
9
9
9
9
9
9
9
9
9
9
9
9
9
9
9
9
9
9
9
9
9
9
9
9
9
9
9
9
9
9
9
9
9
9
9
9
9
9
9
9
9
9
9
9
9
9
9
9
9
9
9
9
9
9
9
9
9
9
9
9
9
9
9
9
9
9
9
9
9
9
9
9
9
9
9
9
9
9
9
9
9
9
9
9
9
9
9
9
9
9
9
9
9
9
9
9
9
9
9
9
9
9
9
9
9
9
9
9
9
9
9
9
9
9
9
9
9
9
9
9
9
9
</DataArray>
</Cells>
<PointData Vectors="'U'">
<DataArray type="Float64" Name="U" NumberOfComponents="2" ComponentName0="U1" ComponentName1="U2" format="ascii">
-0.6341878333232E-37 -0.1597463583857E-36
 0.1463041914419E-38 -0.4382037657166E-37
-0.2484499948565E-37  0.6291965341813E-37
-0.4464359730409E-01 -0.4411206208059E-01
-0.3784554051681E-01 -0.1996716948880E-01
-0.3280973087624E-01  0.1742726175801E-02
-0.3210748645241E-01  0.1269611414712E-01
-0.9225701740116E+00 -0.6796800622122E+00
-0.5326183037465E+00  0.1937392416816E+00
-0.5109734277833E+00 -0.3863552515348E+00
-0.2442428397879E+00 -0.4534131350472E-01
-0.2611853875669E-37 -0.2087053254652E-36
-0.2749191186050E-37 -0.1859224283339E-36
-0.2544427044345E-37 -0.1734875730545E-36
-0.2309895151273E-37 -0.1648991355281E-36
-0.2094187705761E-37 -0.1581921623406E-36
-0.1902548313808E-37 -0.1525641579734E-36
-0.1732464188972E-37 -0.1476190987257E-36
-0.1580515124253E-37 -0.1431362373340E-36
-0.1443711590006E-37 -0.1389818156548E-36
-0.1319652983604E-37 -0.1350696985725E-36
-0.1206443119981E-37 -0.1313417670080E-36
-0.1102578244927E-37 -0.1277573180561E-36
-0.1006853071137E-37 -0.1242869615315E-36
-0.9182895070002E-38 -0.1209089247453E-36
-0.8360840199921E-38 -0.1176067214107E-36
-0.7595688237359E-38 -0.1143676294475E-36
-0.6881830488962E-38 -0.1111816674145E-36
-0.6214510871740E-38 -0.1080408885789E-36
-0.5589662033937E-38 -0.1049388842085E-36
-0.5003932276516E-38 -0.1018705109671E-36
-0.4453979007297E-38 -0.9883116850549E-37
-0.3937234550523E-38 -0.9581745166225E-37
-0.3451389114364E-38 -0.9282631183100E-37
-0.2994370882130E-38 -0.8985516280217E-37
-0.2564336274057E-38 -0.8690179022391E-37
-0.2159639020773E-38 -0.8396427998006E-37
-0.1778803206011E-38 -0.8104096251137E-37
-0.1420501137469E-38 -0.7813036905638E-37
-0.1083534957954E-38 -0.7523119613097E-37
-0.7668212199935E-39 -0.7234227660979E-37
-0.4693782933352E-39 -0.6946255623849E-37
-0.1903156529430E-39 -0.6659107385576E-37
 0.7117490737442E-40 -0.6372694525078E-37
 0.3158265698416E-39 -0.6086934943333E-37
 0.5443036085114E-39 -0.5801751706683E-37
 0.7572062826864E-39 -0.5517072076523E-37
 0.9550749013977E-39 -0.5232826661162E-37
 0.1138392998001E-38 -0.4948948705423E-37
 0.1307589775215E-38 -0.4665373463421E-37
 0.1605074761952E-38 -0.4098879000835E-37
 0.1733962955223E-38 -0.3815835778550E-37
 0.1849930521908E-38 -0.3532846466160E-37
 0.1953150457387E-38 -0.3249849388889E-37
 0.2043743755975E-38 -0.2966782407061E-37
 0.2121777982709E-38 -0.2683582613976E-37
 0.2187265199344E-38 -0.2400186060648E-37
 0.2240159370288E-38 -0.2116527463791E-37
 0.2280353110550E-38 -0.1832539928887E-37
 0.2307673647446E-38 -0.1548154650142E-37
 0.2321878103601E-38 -0.1263300579874E-37
 0.2322647673984E-38 -0.9779040864252E-38
 0.2309580816884E-38 -0.6918885222768E-38
 0.2282185139408E-38 -0.4051737562243E-38
 0.2239867612847E-38 -0.1176755864173E-38
 0.2181923130891E-38  0.1706949868106E-38
 0.2107520589865E-38  0.4600326365050E-38
 0.2015686438859E-38  0.7504389098638E-38
 0.1905285920593E-38  0.1042023861680E-37
 0.1775089318093E-38  0.1334911794023E-37
 0.1623460636925E-38  0.1629212312283E-37
 0.1448498876318E-38  0.1925096715608E-37
 0.1248201824045E-38  0.2222727499718E-37
 0.1020110431867E-38  0.2522298632348E-37
 0.7613269400232E-39  0.2824039251399E-37
 0.4684185974599E-39  0.3128225596758E-37
 0.1372900213897E-39  0.3435198625006E-37
-0.2369864940643E-39  0.3745390262482E-37
-0.6603993398220E-39  0.4059363503809E-37
-0.1140308472597E-38  0.4377875479163E-37
-0.1685871711696E-38  0.4701980193388E-37
-0.2308625820613E-38  0.5033203056460E-37
-0.3023246254750E-38  0.5373852954145E-37
-0.3848390854317E-38  0.5727617402785E-37
-0.4806973662188E-38  0.6100796576783E-37
-0.5922710220796E-38  0.6505166225825E-37
-0.7197676299262E-38  0.6965740682083E-37
-0.8487146323179E-38  0.7547030913960E-37
-0.8701619051519E-38  0.8473697781141E-37
-0.4365928462834E-01 -0.4032899217122E-01
-0.4296896664277E-01 -0.3786818860367E-01
-0.4240758764956E-01 -0.3599029562105E-01
-0.4193910775494E-01 -0.3442610589530E-01
-0.4153593494011E-01 -0.3305793008940E-01
-0.4117913068665E-01 -0.3182438119570E-01
-0.4085586773644E-01 -0.3068997680907E-01
-0.4055754927204E-01 -0.2963247838631E-01
-0.4027837158564E-01 -0.2863700060473E-01
-0.4001435164071E-01 -0.2769302255840E-01
-0.3976269588986E-01 -0.2679276761354E-01
-0.3952139820689E-01 -0.2593027306634E-01
-0.3928898468459E-01 -0.2510082909743E-01
-0.3906435059327E-01 -0.2430062396944E-01
-0.3884665574630E-01 -0.2352651068254E-01
-0.3863525833760E-01 -0.2277584847107E-01
-0.3842967561599E-01 -0.2204638929525E-01
-0.3822957318226E-01 -0.2133619622855E-01
-0.3803477297220E-01 -0.2064355864145E-01
-0.3766091132407E-01 -0.1930994851634E-01
-0.3747955078832E-01 -0.1866505119639E-01
-0.3730146729219E-01 -0.1803201865104E-01
-0.3712667608583E-01 -0.1741005893462E-01
-0.3695516232788E-01 -0.1679837751411E-01
-0.3678689427328E-01 -0.1619621676731E-01
-0.3662183279847E-01 -0.1560287155897E-01
-0.3645993635355E-01 -0.1501768591908E-01
-0.3630116476398E-01 -0.1444005179390E-01
-0.3614548117102E-01 -0.1386940602486E-01
-0.3599285212053E-01 -0.1330522418201E-01
-0.3584324846029E-01 -0.1274701974376E-01
-0.3569664449726E-01 -0.1219433843232E-01
-0.3555301788038E-01 -0.1164675619690E-01
-0.3541234920157E-01 -0.1110387681437E-01
-0.3527462119091E-01 -0.1056532831665E-01
-0.3513981859189E-01 -0.1003076228680E-01
-0.3500792735301E-01 -0.9499850652548E-02
-0.3487893432907E-01 -0.8972284535180E-02
-0.3475282682349E-01 -0.8447772516682E-02
-0.3462959217575E-01 -0.7926039077567E-02
-0.3450921742105E-01 -0.7406823305022E-02
-0.3439168898503E-01 -0.6889877714671E-02
-0.3427699238255E-01 -0.6374967037647E-02
-0.3416511194966E-01 -0.5861867084667E-02
-0.3405603076145E-01 -0.5350364408500E-02
-0.3394973019949E-01 -0.4840254283614E-02
-0.3384619010084E-01 -0.4331341340504E-02
-0.3374538841072E-01 -0.3823437826353E-02
-0.3364730115840E-01 -0.3316363338208E-02
-0.3355190256392E-01 -0.2809945270465E-02
-0.3345916461936E-01 -0.2304016459971E-02
-0.3336905759968E-01 -0.1798417635153E-02
-0.3328154983427E-01 -0.1292995637833E-02
-0.3319660824713E-01 -0.7876048283158E-03
-0.3311419969153E-01 -0.2821099604187E-03
-0.3303429297944E-01  0.2236140863630E-03
-0.3295686924170E-01  0.7296704242033E-03
-0.3288193308357E-01  0.1236136491618E-02
-0.3273878691473E-01  0.2253265621986E-02
-0.3267040146999E-01  0.2765244631127E-02
-0.3260436798564E-01  0.3278466971284E-02
-0.3254065579854E-01  0.3793010596518E-02
-0.3247925851337E-01  0.4308974068937E-02
-0.3242019351406E-01  0.4826469747072E-02
-0.3236350274409E-01  0.5345619005504E-02
-0.3230926181584E-01  0.5866554934143E-02
-0.3225759474392E-01  0.6389428847958E-02
-0.3220869621348E-01  0.6914423986847E-02
-0.3216286497717E-01  0.7441780473237E-02
-0.3212055432004E-01  0.7971840112025E-02
-0.3208244854167E-01  0.8505129252287E-02
-0.3204957820857E-01  0.9042514274828E-02
-0.3202348879278E-01  0.9585504440874E-02
-0.3200646947868E-01  0.1013686850249E-01
-0.3200179990565E-01  0.1070196514348E-01
-0.3201383559028E-01  0.1129187381860E-01
-0.3204696966931E-01  0.1193247595116E-01
-0.1904456096831E+00 -0.1420991343058E+00
-0.2642939383016E+00 -0.2266339333470E+00
-0.3233428013207E+00 -0.2968216654456E+00
-0.3752258483842E+00 -0.3614313055226E+00
-0.4239909557186E+00 -0.4222039386824E+00
-0.4718900451666E+00 -0.4782032851767E+00
-0.5196069678170E+00 -0.5256936527012E+00
-0.5664429295742E+00 -0.5648390880635E+00
-0.6118850630456E+00 -0.5975366006912E+00
-0.6557777583307E+00 -0.6249597128853E+00
-0.6979687078404E+00 -0.6476334038246E+00
-0.7381773840205E+00 -0.6657709947105E+00
-0.7760426951176E+00 -0.6796649671394E+00
-0.8111142006128E+00 -0.6894954621975E+00
-0.8428264583094E+00 -0.6953727933499E+00
-0.8706060958128E+00 -0.6976562951793E+00
-0.8940613548509E+00 -0.6972609848010E+00
-0.9115910160522E+00 -0.6926367160223E+00
-0.9212128009797E+00 -0.6848439072601E+00
-0.9203781793812E+00 -0.6806500342291E+00
-0.9160840865554E+00 -0.6863911039628E+00
-0.9110990893063E+00 -0.6947446032447E+00
-0.9063876686124E+00 -0.7030421770359E+00
-0.9015753857704E+00 -0.7095547793987E+00
-0.8957239763410E+00 -0.7134097864564E+00
-0.8879430515102E+00 -0.7141618992042E+00
-0.8774888297787E+00 -0.7116724946043E+00
-0.8638897828200E+00 -0.7060287774212E+00
-0.8470467940059E+00 -0.6973995686503E+00
-0.8274299552728E+00 -0.6859338109667E+00
-0.8057949291090E+00 -0.6714978871391E+00
-0.7828403772902E+00 -0.6538303340537E+00
-0.7591492381248E+00 -0.6327481048385E+00
-0.7352126645889E+00 -0.6081598794199E+00
-0.7114585065293E+00 -0.5800472990227E+00
-0.6882716109788E+00 -0.5484547677770E+00
-0.6660076823442E+00 -0.5134894557227E+00
-0.6450054287569E+00 -0.4753291168931E+00
-0.6256020415876E+00 -0.4342381317377E+00
-0.6081114651023E+00 -0.3905847866631E+00
-0.5926953202646E+00 -0.3448454077158E+00
-0.5794001334677E+00 -0.2976984243615E+00
-0.5681929639839E+00 -0.2501202518446E+00
-0.5590117485358E+00 -0.2035353542934E+00
-0.5519217430215E+00 -0.1601705621824E+00
-0.5471776276558E+00 -0.1226217582229E+00
-0.5445588370805E+00 -0.9064201328236E-01
-0.5436596729830E+00 -0.6213262280278E-01
-0.5444422589479E+00 -0.3598354946351E-01
-0.5465626074823E+00 -0.1144464659498E-01
-0.5493816230698E+00  0.1212506538238E-01
-0.5523175087333E+00  0.3520080584616E-01
-0.5548112598396E+00  0.5811948966877E-01
-0.5563423134297E+00  0.8107709280387E-01
-0.5563451094054E+00  0.1041391533554E+00
-0.5541253023466E+00  0.1272158759542E+00
-0.5495163377165E+00  0.1500653415194E+00
-0.5425231394875E+00  0.1724152441203E+00
-0.5079934040402E+00  0.2204350174002E+00
-0.4752690765795E+00  0.2373171204285E+00
-0.4383902401097E+00  0.2434239772839E+00
-0.4006850732562E+00  0.2428023416516E+00
-0.3632663045076E+00  0.2399476629015E+00
-0.3264369765482E+00  0.2344105150265E+00
-0.2905460850562E+00  0.2264046483002E+00
-0.2559035115597E+00  0.2162531462687E+00
-0.2227958514660E+00  0.2041398822444E+00
-0.1915043198360E+00  0.1901812083889E+00
-0.1622828580810E+00  0.1746003473864E+00
-0.1353828723024E+00  0.1575136178658E+00
-0.1111132563339E+00  0.1388815136024E+00
-0.8995454406642E-01  0.1185791337634E+00
-0.7243779349221E-01  0.9721864465209E-01
-0.5880228849386E-01  0.7645802260072E-01
-0.4930588600699E-01  0.5696045457988E-01
-0.4390175553766E-01  0.3921935906022E-01
-0.4116911802495E-01  0.2381335100674E-01
-0.6314052661959E-03 -0.1177924132066E-02
-0.1041507442554E-02 -0.2064820160338E-02
-0.1407082936328E-02 -0.2914249712174E-02
-0.1757267182806E-02 -0.3741086984488E-02
-0.2110833504229E-02 -0.4556007394716E-02
-0.2476908183267E-02 -0.5363727047107E-02
-0.2861743534317E-02 -0.6166672984080E-02
-0.3269413001696E-02 -0.6966213838646E-02
-0.3702790933198E-02 -0.7763135865749E-02
-0.4163916585135E-02 -0.8557918697678E-02
-0.4654260454352E-02 -0.9350877176398E-02
-0.5174881875327E-02 -0.1014224742899E-01
-0.5726540182108E-02 -0.1093224351651E-01
-0.6309770901905E-02 -0.1172109430424E-01
-0.6924941992086E-02 -0.1250907162671E-01
-0.7572298461939E-02 -0.1329651635002E-01
-0.8252004923789E-02 -0.1408387056643E-01
-0.8964142924855E-02 -0.1487166751980E-01
-0.9708796781364E-02 -0.1566063056277E-01
-0.1048601759845E-01 -0.1645164948175E-01
-0.1129587740094E-01 -0.1724587938294E-01
-0.1213848439539E-01 -0.1804484554889E-01
-0.1301401922586E-01 -0.1885073529524E-01
-0.1392312294108E-01 -0.1966722555711E-01
-0.1486752551536E-01 -0.2049978300568E-01
-0.1584974384151E-01 -0.2135357087403E-01
-0.1687252299056E-01 -0.2223269178705E-01
-0.1793863312067E-01 -0.2314051694110E-01
-0.1905100942065E-01 -0.2408037782283E-01
-0.2021309708449E-01 -0.2505628690753E-01
-0.2142933218628E-01 -0.2607352800755E-01
-0.2270576434728E-01 -0.2713909451119E-01
-0.2405068778722E-01 -0.2826151922344E-01
-0.2547497988468E-01 -0.2944989684586E-01
-0.2699361379639E-01 -0.3071656744279E-01
-0.2862851717965E-01 -0.3208227901988E-01
-0.3041717966178E-01 -0.3358115590420E-01
-0.3241337365651E-01 -0.3527075652512E-01
-0.3478111289513E-01 -0.3725880525645E-01
-0.3755798967681E-01 -0.3992233960307E-01
-0.3043347480947E-01  0.1212629609494E-01
-0.2922116252357E-01  0.1172371077353E-01
-0.2803372811073E-01  0.1140936031271E-01
-0.2686804932609E-01  0.1113487715512E-01
-0.2570959491020E-01  0.1088465355033E-01
-0.2455600291602E-01  0.1064946246666E-01
-0.2340688260071E-01  0.1042346405520E-01
-0.2226367420194E-01  0.1020311173118E-01
-0.2112866473864E-01  0.9986608188674E-02
-0.2000468299945E-01  0.9771877585825E-02
-0.1889475215950E-01  0.9556507562587E-02
-0.1780189499101E-01  0.9338857465330E-02
-0.1672903988066E-01  0.9117890190508E-02
-0.1567892089434E-01  0.8892909291033E-02
-0.1465396496401E-01  0.8663249829368E-02
-0.1365619930935E-01  0.8427956795352E-02
-0.1268720400485E-01  0.8185593602682E-02
-0.1174819790220E-01  0.7934349156822E-02
-0.1084028124247E-01  0.7672744347704E-02
-0.9964636250862E-02  0.7400665410935E-02
-0.9122417843542E-02  0.7118477688527E-02
-0.8314663066761E-02  0.6826641452606E-02
-0.7542303065404E-02  0.6525642580507E-02
-0.6806182447722E-02  0.6215973916965E-02
-0.6107038621911E-02  0.5898113066816E-02
-0.5445572653816E-02  0.5572545897787E-02
-0.4822393269345E-02  0.5239741871056E-02
-0.4238052157720E-02  0.4900172397649E-02
-0.3693033625987E-02  0.4554313799162E-02
-0.3187744982245E-02  0.4202654056558E-02
-0.2722500331432E-02  0.3845700958519E-02
-0.2297492972872E-02  0.3483989943419E-02
-0.1912748580787E-02  0.3118088557612E-02
-0.1568055048317E-02  0.2748596567131E-02
-0.1262839838471E-02  0.2376135837027E-02
-0.9959927400305E-03  0.2001308252066E-02
-0.7654141898510E-03  0.1624613196799E-02
-0.5676091683155E-03  0.1246158765167E-02
-0.3946431406901E-03  0.8645524016624E-03
-0.2333286244206E-03  0.4789760481033E-03
-0.5037575148864E+00 -0.3822060581934E+00
-0.4963566078518E+00 -0.3778253724874E+00
-0.4887842483418E+00 -0.3731886393985E+00
-0.4810566157492E+00 -0.3682737928875E+00
-0.4731915618865E+00 -0.3630614853647E+00
-0.4652081191115E+00 -0.3575353523469E+00
-0.4571262475204E+00 -0.3516820206516E+00
-0.4489664789529E+00 -0.3454910208391E+00
-0.4407497456622E+00 -0.3389548591320E+00
-0.4324971509174E+00 -0.3320689998072E+00
-0.4242298407978E+00 -0.3248318825026E+00
-0.4159689209578E+00 -0.3172448132083E+00
-0.4077354413275E+00 -0.3093120976176E+00
-0.3995503436598E+00 -0.3010412453568E+00
-0.3914343406495E+00 -0.2924430555546E+00
-0.3834077365002E+00 -0.2835316118498E+00
-0.3754902258463E+00 -0.2743242275126E+00
-0.3677006673601E+00 -0.2648413318355E+00
-0.3600568430550E+00 -0.2551063000794E+00
-0.3525752112824E+00 -0.2451452239637E+00
-0.3452706624889E+00 -0.2349866206162E+00
-0.3381562805893E+00 -0.2246611193612E+00
-0.3312431246078E+00 -0.2142011308351E+00
-0.3245400217993E+00 -0.2036404040237E+00
-0.3180533998853E+00 -0.1930135226099E+00
-0.3117871739889E+00 -0.1823553561469E+00
-0.3057426993038E+00 -0.1717004640566E+00
-0.2999188058037E+00 -0.1610824471769E+00
-0.2943119164126E+00 -0.1505332621387E+00
-0.2889162493930E+00 -0.1400826114415E+00
-0.2837240427635E+00 -0.1297575429243E+00
-0.2787257985549E+00 -0.1195821717723E+00
-0.2739106072046E+00 -0.1095772585763E+00
-0.2692665598321E+00 -0.9976000188092E-01
-0.2647811243298E+00 -0.9014388316042E-01
-0.2604415023652E+00 -0.8073888220413E-01
-0.2562347200800E+00 -0.7155184552953E-01
-0.2521471124606E+00 -0.6258698102287E-01
-0.2481625252517E+00 -0.5384691263208E-01
-0.4876334220256E+00 -0.3634829330197E+00
-0.4641224807753E+00 -0.3407056582434E+00
-0.4404139777113E+00 -0.3180360636884E+00
-0.4164867473394E+00 -0.2954981063827E+00
-0.3923331234167E+00 -0.2731195327839E+00
-0.3679533170873E+00 -0.2509325574709E+00
-0.3433525411280E+00 -0.2289804928724E+00
-0.3185493703924E+00 -0.2073244150307E+00
-0.2935826529758E+00 -0.1860488553459E+00
-0.2685157189668E+00 -0.1652649461016E+00
-0.2434326690866E+00 -0.1451070146514E+00
-0.2184273528224E+00 -0.1257247670184E+00
-0.1935961718774E+00 -0.1072782860212E+00
-0.1690443409282E+00 -0.8993928098220E-01
-0.1449034434772E+00 -0.7389325045729E-01
-0.1213410104096E+00 -0.5933655946368E-01
-0.9855668102292E-01 -0.4647306844191E-01
-0.7680489367385E-01 -0.3550973785438E-01
-0.5642445796157E-01 -0.2663598343891E-01
-0.2243399439354E+00 -0.4206656642756E-01
-0.2049703892289E+00 -0.3887302912404E-01
-0.1861785251317E+00 -0.3570978209926E-01
-0.1680082368567E+00 -0.3259110346504E-01
-0.1505074154096E+00 -0.2954381381363E-01
-0.1337267150500E+00 -0.2659310760645E-01
-0.1177305993836E+00 -0.2375880150742E-01
-0.1025943919842E+00 -0.2105294433151E-01
-0.8840299115913E-01 -0.1847858971263E-01
-0.7525157719985E-01 -0.1603129379280E-01
-0.6324754154168E-01 -0.1370451408069E-01
-0.5251293739267E-01 -0.1149590160067E-01
-0.4318690587765E-01 -0.9409528124505E-02
-0.3542663552983E-01 -0.7452832351055E-02
-0.2940787795727E-01 -0.5632592337039E-02
-0.2532286413096E-01 -0.3951384096616E-02
-0.2337606070889E-01 -0.2400745275125E-02
-0.2379350216905E-01 -0.9579790987906E-03
-0.2683729361659E-01  0.4112409511475E-03
-0.5415933921332E+00 -0.4121588675585E+00
-0.5721639478635E+00 -0.4377219326712E+00
-0.6025284945137E+00 -0.4628324196102E+00
-0.6325262561399E+00 -0.4872860271975E+00
-0.6619946489436E+00 -0.5108864218516E+00
-0.6907694097266E+00 -0.5334461242498E+00
-0.7186841654424E+00 -0.5547883626940E+00
-0.7455700012188E+00 -0.5747491423434E+00
-0.7712549958318E+00 -0.5931794049156E+00
-0.7955636625922E+00 -0.6099473150636E+00
-0.8183162866596E+00 -0.6249408708803E+00
-0.8393282509790E+00 -0.6380711886519E+00
-0.8584095949263E+00 -0.6492769944992E+00
-0.8753652805717E+00 -0.6585310911379E+00
-0.8899969939208E+00 -0.6658498898115E+00
-0.9021078795559E+00 -0.6713075958575E+00
-0.9115127594523E+00 -0.6750575837383E+00
-0.9180596171152E+00 -0.6773659071979E+00
-0.9216791573753E+00 -0.6786678629168E+00
-0.2563362134973E+00 -0.3596805983474E-01
-0.2690867464047E+00 -0.2589159374933E-01
-0.2824818115566E+00 -0.1523725679687E-01
-0.2964524577886E+00 -0.4118220721234E-02
-0.3109161192531E+00  0.7364007754011E-02
-0.3257812051068E+00  0.1911664640752E-01
-0.3409499043967E+00  0.3105809306891E-01
-0.3563212656446E+00  0.4312065833441E-01
-0.3717952697539E+00  0.5525315237228E-01
-0.3872776110042E+00  0.6742270122792E-01
-0.4026847257013E+00  0.7961539081414E-01
-0.4179484569287E+00  0.9183538760944E-01
-0.4330196243317E+00  0.1041022975552E+00
-0.4478697217998E+00  0.1164467431674E+00
-0.4624900979162E+00  0.1289044940797E+00
-0.4768883755896E+00  0.1415099148502E+00
-0.4910824730460E+00  0.1542897770652E+00
-0.5050932292093E+00  0.1672584083603E+00
-0.5189364574078E+00  0.1804141077992E+00
-0.5221590405782E-03 -0.9946481406438E-03
-0.9622513614424E-03 -0.1930796506681E-02
-0.1327241166820E-02 -0.2784651195522E-02
-0.1680500538087E-02 -0.3612931552847E-02
-0.2035497736979E-02 -0.4424909063306E-02
-0.2402988244279E-02 -0.5227199750108E-02
-0.2789097025773E-02 -0.6022987514504E-02
-0.3198049539684E-02 -0.6814158398115E-02
-0.3632750425602E-02 -0.7601838543780E-02
-0.4095267993169E-02 -0.8386744763182E-02
-0.4587084756330E-02 -0.9169362585737E-02
-0.5109265555702E-02 -0.9950053950785E-02
-0.5662569887208E-02 -0.1072912714813E-01
-0.6247529924026E-02 -0.1150688216483E-01
-0.6864507504974E-02 -0.1228364440729E-01
-0.7513739204634E-02 -0.1305979439504E-01
-0.8195378980697E-02 -0.1383580240488E-01
-0.8909495284821E-02 -0.1461221992474E-01
-0.9656156416523E-02 -0.1538977901477E-01
-0.1043539327931E-01 -0.1616936869182E-01
-0.1124725118472E-01 -0.1695213145300E-01
-0.1209179842142E-01 -0.1773956573683E-01
-0.1296916781600E-01 -0.1853370155974E-01
-0.1387998569444E-01 -0.1933737211623E-01
-0.1482604003594E-01 -0.2015489519259E-01
-0.1580994852956E-01 -0.2099090416835E-01
-0.1683453830882E-01 -0.2184948120967E-01
-0.1790262113019E-01 -0.2273413258855E-01
-0.1901714128939E-01 -0.2364819497825E-01
-0.2018154509670E-01 -0.2459537732902E-01
-0.2140029363213E-01 -0.2558025775733E-01
-0.2267952213806E-01 -0.2660863427706E-01
-0.2402760182492E-01 -0.2768790211086E-01
-0.2545543900305E-01 -0.2882621838004E-01
-0.2697784064917E-01 -0.3003328824090E-01
-0.2861778369546E-01 -0.3132420535093E-01
-0.3040968824820E-01 -0.3272328579372E-01
-0.3242723521421E-01 -0.3426111547870E-01
-0.3474672692853E-01 -0.3603294160262E-01
-0.3793587888710E-01 -0.3792537078475E-01
-0.4458434032563E-03 -0.9005034661372E-03
-0.8777932913263E-03 -0.1806996504748E-02
-0.1249566447147E-02 -0.2664892777290E-02
-0.1604086204133E-02 -0.3489429828409E-02
-0.1960958715864E-02 -0.4296712215151E-02
-0.2329848508872E-02 -0.5092424658135E-02
-0.2717309492502E-02 -0.5880377596238E-02
-0.3127583112715E-02 -0.6662728547142E-02
-0.3563635370395E-02 -0.7440850133208E-02
-0.4027558403371E-02 -0.8215637449107E-02
-0.4520850482313E-02 -0.8987712612900E-02
-0.5044583379670E-02 -0.9757541227561E-02
-0.5599518444578E-02 -0.1052551058460E-01
-0.6186185860280E-02 -0.1129198032681E-01
-0.6804942603124E-02 -0.1205731986373E-01
-0.7456017974916E-02 -0.1282194042156E-01
-0.8139556499994E-02 -0.1358633083083E-01
-0.8855614863194E-02 -0.1435104975302E-01
-0.9604247072826E-02 -0.1511682304436E-01
-0.1038546652025E-01 -0.1588451761799E-01
-0.1119929638072E-01 -0.1665522947981E-01
-0.1204578077243E-01 -0.1743035384482E-01
-0.1292507557328E-01 -0.1821162172276E-01
-0.1383787221082E-01 -0.1900123163731E-01
-0.1478598117581E-01 -0.1980274790407E-01
-0.1577202126820E-01 -0.2062032141991E-01
-0.1679884319306E-01 -0.2145786482298E-01
-0.1786929594672E-01 -0.2231882538073E-01
-0.1898637091436E-01 -0.2320638434904E-01
-0.2015357636257E-01 -0.2412385153895E-01
-0.2137547207648E-01 -0.2507506816150E-01
-0.2265829483429E-01 -0.2606477532806E-01
-0.2401047969584E-01 -0.2709911573642E-01
-0.2544305462723E-01 -0.2818453921710E-01
-0.2697143925361E-01 -0.2932746341583E-01
-0.2861873514540E-01 -0.3053732545582E-01
-0.3042451483538E-01 -0.3182470288654E-01
-0.3245324367541E-01 -0.3320946407744E-01
-0.3484542786597E-01 -0.3466916663893E-01
-0.3817884925335E-01 -0.3610640211073E-01
-0.3900053143677E-03 -0.8405820240205E-03
-0.8001334960974E-03 -0.1707492322376E-02
-0.1173135764814E-02 -0.2553757528253E-02
-0.1529255318597E-02 -0.3371943431725E-02
-0.1887456075738E-02 -0.4171973544198E-02
-0.2257733050059E-02 -0.4959886022762E-02
-0.2646504460366E-02 -0.5739186205783E-02
-0.3058098742105E-02 -0.6512185079859E-02
-0.3495501374763E-02 -0.7280368329938E-02
-0.3960828291359E-02 -0.8044748642494E-02
-0.4455589688061E-02 -0.8806044712888E-02
-0.4980864018044E-02 -0.9564800768770E-02
-0.5537414608711E-02 -0.1032146573011E-01
-0.6125770307025E-02 -0.1107644602045E-01
-0.6746284115144E-02 -0.1183014452714E-01
-0.7399179201293E-02 -0.1258299355954E-01
-0.8084592098201E-02 -0.1333549061049E-01
-0.8802569661291E-02 -0.1408819016891E-01
-0.9553154492948E-02 -0.1484179731828E-01
-0.1033634721504E-01 -0.1559713659333E-01
-0.1115215830640E-01 -0.1635522504537E-01
-0.1200063622288E-01 -0.1711729736891E-01
-0.1288199829232E-01 -0.1788476708086E-01
-0.1379701791307E-01 -0.1865934049831E-01
-0.1474751256675E-01 -0.1944403093211E-01
-0.1573606292628E-01 -0.2024256418198E-01
-0.1676551022631E-01 -0.2105859836215E-01
-0.1783873795051E-01 -0.2189539203924E-01
-0.1895880931326E-01 -0.2275586002789E-01
-0.2012933868827E-01 -0.2364284938680E-01
-0.2135502298746E-01 -0.2455947222106E-01
-0.2264222843873E-01 -0.2550945668574E-01
-0.2399950756029E-01 -0.2649758589446E-01
-0.2543825101991E-01 -0.2752826325505E-01
-0.2697451171568E-01 -0.2860463364148E-01
-0.2863318105948E-01 -0.2972973911872E-01
-0.3045533459211E-01 -0.3090573850475E-01
-0.3251265965039E-01 -0.3212605844594E-01
-0.3498402613890E-01 -0.3333615981811E-01
-0.3828957627946E-01 -0.3452929843760E-01
-0.3469969538773E-03 -0.7973017677438E-03
-0.7316706507415E-03 -0.1626847624721E-02
-0.1099985731240E-02 -0.2453216320495E-02
-0.1456411428833E-02 -0.3260531942436E-02
-0.1815465922484E-02 -0.4051238288737E-02
-0.2186856907517E-02 -0.4829922298866E-02
-0.2576836529877E-02 -0.5599702976975E-02
-0.2989692925648E-02 -0.6362750617314E-02
-0.3428416053801E-02 -0.7120569170874E-02
-0.3895126730997E-02 -0.7874217107826E-02
-0.4391341314614E-02 -0.8624469223838E-02
-0.4918141455537E-02 -0.9371921112258E-02
-0.5476291241234E-02 -0.1011706469807E-01
-0.6066317948622E-02 -0.1086033934464E-01
-0.6688571082477E-02 -0.1160217026048E-01
-0.7343268706085E-02 -0.1234300086277E-01
-0.8030540976792E-02 -0.1308332734392E-01
-0.8750427362253E-02 -0.1382368892597E-01
-0.9502962896884E-02 -0.1456475627328E-01
-0.1028814181548E-01 -0.1530729334823E-01
-0.1110597527758E-01 -0.1605221153063E-01
-0.1195654020190E-01 -0.1680055880978E-01
-0.1284013158572E-01 -0.1755345040132E-01
-0.1375760213681E-01 -0.1831219796124E-01
-0.1471076899535E-01 -0.1907938009432E-01
-0.1570216299005E-01 -0.1985834038240E-01
-0.1673460246698E-01 -0.2065243813241E-01
-0.1781100489644E-01 -0.2146466165190E-01
-0.1893452168644E-01 -0.2229758829090E-01
-0.2010890005171E-01 -0.2315357104099E-01
-0.2133899871071E-01 -0.2403501015287E-01
-0.2263134530097E-01 -0.2494465083093E-01
-0.2399470704747E-01 -0.2588588339436E-01
-0.2544092762343E-01 -0.2686108542949E-01
-0.2698702152403E-01 -0.2787016553697E-01
-0.2865945047208E-01 -0.2891128995178E-01
-0.3050161737144E-01 -0.2997835323544E-01
-0.3259415593607E-01 -0.3104999462906E-01
-0.3511061968018E-01 -0.3208671691623E-01
-0.3830246809105E-01 -0.3314244363090E-01
-0.3124319912674E-03 -0.7633170703128E-03
-0.6718824767603E-03 -0.1559537105040E-02
-0.1031441877256E-02 -0.2362760425854E-02
-0.1386169570724E-02 -0.3155437062970E-02
-0.1745349227891E-02 -0.3934699249371E-02
-0.2117470394295E-02 -0.4702798931848E-02
-0.2508460705058E-02 -0.5462143974781E-02
-0.2922473215918E-02 -0.6214610463789E-02
-0.3362454304076E-02 -0.6961604040324E-02
-0.3830509481257E-02 -0.7704166977145E-02
-0.4328149574719E-02 -0.8443088003378E-02
-0.4856453877147E-02 -0.9178986767501E-02
-0.5416184399091E-02 -0.9912378920551E-02
-0.6007865762947E-02 -0.1064372249018E-01
-0.6631843978595E-02 -0.1137345355581E-01
-0.7288332868042E-02 -0.1210201659597E-01
-0.7977457922816E-02 -0.1282989674554E-01
-0.8699254027908E-02 -0.1355760750366E-01
-0.9453753123209E-02 -0.1428577292155E-01
-0.1024095063738E-01 -0.1501508119972E-01
-0.1106087183677E-01 -0.1574632081828E-01
-0.1191363841877E-01 -0.1648034705946E-01
-0.1279962705457E-01 -0.1721800582829E-01
-0.1371976170770E-01 -0.1796028265679E-01
-0.1467585635350E-01 -0.1870939372896E-01
-0.1567039287759E-01 -0.1946833170119E-01
-0.1670616496602E-01 -0.2024013678382E-01
-0.1778612573611E-01 -0.2102748089550E-01
-0.1891352425345E-01 -0.2183256570015E-01
-0.2009225493313E-01 -0.2265724330368E-01
-0.2132735338206E-01 -0.2350323165633E-01
-0.2262554326996E-01 -0.2437234003717E-01
-0.2399586687122E-01 -0.2526664284661E-01
-0.2545070238134E-01 -0.2618664547758E-01
-0.2700803132861E-01 -0.2712960347577E-01
-0.2869566929407E-01 -0.2808999083291E-01
-0.3055935471653E-01 -0.2905632122192E-01
-0.3268149996038E-01 -0.3000626009561E-01
-0.3520497438763E-01 -0.3092638951399E-01
-0.3825195390976E-01 -0.3189513018041E-01
-0.2837144013909E-03 -0.7350148291070E-03
-0.6195449953802E-03 -0.1501629321236E-02
-0.9679868122946E-03 -0.2280944123295E-02
-0.1319065307190E-02 -0.3056509949843E-02
-0.1677432689689E-02 -0.3822417898089E-02
-0.2049803728771E-02 -0.4578655820841E-02
-0.2441534791634E-02 -0.5326666226830E-02
-0.2856549478915E-02 -0.6067908248677E-02
-0.3297695759786E-02 -0.6803599433828E-02
-0.3767036530978E-02 -0.7534706570394E-02
-0.4266062476594E-02 -0.8261993627775E-02
-0.4795842530543E-02 -0.8986077495357E-02
-0.5357132452732E-02 -0.9707478549723E-02
-0.5950452255174E-02 -0.1042665921459E-01
-0.6576143975934E-02 -0.1114405504554E-01
-0.7234417842507E-02 -0.1186010173282E-01
-0.7925396393949E-02 -0.1257526406572E-01
-0.8649112918446E-02 -0.1329002031978E-01
-0.9405601070467E-02 -0.1400493755979E-01
-0.1019486523852E-01 -0.1472061697476E-01
-0.1101695604616E-01 -0.1543771560595E-01
-0.1187204942207E-01 -0.1615690104569E-01
-0.1276060160328E-01 -0.1687877925963E-01
-0.1368359923496E-01 -0.1760405945587E-01
-0.1464285295847E-01 -0.1833464376955E-01
-0.1564080203844E-01 -0.1907319847480E-01
-0.1668021958184E-01 -0.1982243953224E-01
-0.1776409684391E-01 -0.2058470208652E-01
-0.1889578446831E-01 -0.2136179948473E-01
-0.2007932890012E-01 -0.2215509621689E-01
-0.2131995015239E-01 -0.2296567297681E-01
-0.2262458739803E-01 -0.2379448532475E-01
-0.2400258652237E-01 -0.2464243786428E-01
-0.2546685187699E-01 -0.2550848283464E-01
-0.2703616664053E-01 -0.2638793817730E-01
-0.2873931168436E-01 -0.2727298171280E-01
-0.3062265838654E-01 -0.2815073790187E-01
-0.3276254453266E-01 -0.2900560912821E-01
-0.3526351210558E-01 -0.2984579113440E-01
-0.3816171440172E-01 -0.3075236962255E-01
-0.2592354453935E-03 -0.7104172008439E-03
-0.5734212312308E-03 -0.1450460751457E-02
-0.9095845537103E-03 -0.2206220641002E-02
-0.1255428307075E-02 -0.2963278000771E-02
-0.1611991468474E-02 -0.3714314443703E-02
-0.1984059522626E-02 -0.4457537477569E-02
-0.2376207825100E-02 -0.5193363972289E-02
-0.2792030088554E-02 -0.5922748774480E-02
-0.3234221081641E-02 -0.6646656172386E-02
-0.3704770001172E-02 -0.7365927969001E-02
-0.4205130219607E-02 -0.8081268654860E-02
-0.4736350561255E-02 -0.8793267576575E-02
-0.5299175143463E-02 -0.9502431693523E-02
-0.5894116642591E-02 -0.1020921404787E-01
-0.6521512172019E-02 -0.1091403864323E-01
-0.7181568758632E-02 -0.1161732298069E-01
-0.7874407609313E-02 -0.1231950291506E-01
-0.8600063402100E-02 -0.1302101317991E-01
-0.9358576276734E-02 -0.1372235559087E-01
-0.1014996664628E-01 -0.1442403711922E-01
-0.1097431884532E-01 -0.1512658134497E-01
-0.1183186744336E-01 -0.1583047862421E-01
-0.1272314337912E-01 -0.1653612184133E-01
-0.1364918839943E-01 -0.1724398155890E-01
-0.1461181106378E-01 -0.1795568089716E-01
-0.1561341607733E-01 -0.1867358102782E-01
-0.1665676214286E-01 -0.1940007886644E-01
-0.1774488059722E-01 -0.2013717098758E-01
-0.1888122276168E-01 -0.2088628942055E-01
-0.2006998425463E-01 -0.2164834099565E-01
-0.2131656685033E-01 -0.2242383222471E-01
-0.2262812489953E-01 -0.2321297731570E-01
-0.2401429310152E-01 -0.2401571567579E-01
-0.2548840603095E-01 -0.2482984803291E-01
-0.2706976446644E-01 -0.2564951539135E-01
-0.2878738521270E-01 -0.2646613651809E-01
-0.3068587007292E-01 -0.2726859727705E-01
-0.3283033958107E-01 -0.2805026385867E-01
-0.3528931621150E-01 -0.2883308109368E-01
-0.3804674177370E-01 -0.2969063282552E-01
-0.2379517729436E-03 -0.6883556424708E-03
-0.5324477246084E-03 -0.1404221192798E-02
-0.8559394817388E-03 -0.2137226431292E-02
-0.1195390027181E-02 -0.2875117002026E-02
-0.1549224389088E-02 -0.3610183967297E-02
-0.1920406974333E-02 -0.4339409261750E-02
-0.2312613157042E-02 -0.5062275512204E-02
-0.2729017447403E-02 -0.5779199734951E-02
-0.3172109104328E-02 -0.6490850393254E-02
-0.3643772066031E-02 -0.7197907012283E-02
-0.4145403748157E-02 -0.7900985406368E-02
-0.4678021913100E-02 -0.8600625421457E-02
-0.5242352713425E-02 -0.9297303953349E-02
-0.5838898108451E-02 -0.9991451763114E-02
-0.6467988895783E-02 -0.1068347093131E-01
-0.7129829015534E-02 -0.1137375203745E-01
-0.7824539780273E-02 -0.1206269429569E-01
-0.8552160067442E-02 -0.1275068191820E-01
-0.9312740876709E-02 -0.1343814541167E-01
-0.1010632447984E-01 -0.1412549389903E-01
-0.1093303446302E-01 -0.1481311991186E-01
-0.1179316502645E-01 -0.1550134938010E-01
-0.1268731591785E-01 -0.1619038594121E-01
-0.1361657763833E-01 -0.1688049135947E-01
-0.1458275844389E-01 -0.1757303730335E-01
-0.1558823631124E-01 -0.1827009998962E-01
-0.1663576151239E-01 -0.1897376997306E-01
-0.1772840575990E-01 -0.1968571687548E-01
-0.1886971573178E-01 -0.2040701318107E-01
-0.2006402613155E-01 -0.2113815194379E-01
-0.2131690626391E-01 -0.2187914427550E-01
-0.2263570269825E-01 -0.2262959881513E-01
-0.2403027983023E-01 -0.2338872849245E-01
-0.2551423786556E-01 -0.2415360735254E-01
-0.2710700421347E-01 -0.2491794874478E-01
-0.2883688887931E-01 -0.2567374865794E-01
-0.3074458234774E-01 -0.2641337132052E-01
-0.3288182113980E-01 -0.2713835348802E-01
-0.3528743065737E-01 -0.2787761250894E-01
-0.3791629172162E-01 -0.2869379428858E-01
-0.2191579369111E-03 -0.6680983909080E-03
-0.4957588524588E-03 -0.1361659940228E-02
-0.8066510488527E-03 -0.2072840960372E-02
-0.1138933897954E-02 -0.2791373316297E-02
-0.1489248228605E-02 -0.3509737827950E-02
-0.1858976222971E-02 -0.4224171668956E-02
-0.2250864306641E-02 -0.4933391684575E-02
-0.2667604352591E-02 -0.5637295066048E-02
-0.3111434324638E-02 -0.6336235002169E-02
-0.3584103115752E-02 -0.7030703812602E-02
-0.4086933389896E-02 -0.7721205970029E-02
-0.4620900287646E-02 -0.8408213316264E-02
-0.5186705067075E-02 -0.9092158002473E-02
-0.5784835085272E-02 -0.9773436825339E-02
-0.6415613049906E-02 -0.1045242047096E-01
-0.7079239635203E-02 -0.1112946471668E-01
-0.7775837437392E-02 -0.1180492544788E-01
-0.8505452005682E-02 -0.1247913079222E-01
-0.9268148910796E-02 -0.1315243599240E-01
-0.1006399667545E-01 -0.1382515158820E-01
-0.1089316126959E-01 -0.1449754431685E-01
-0.1175599529457E-01 -0.1516978925114E-01
-0.1265316120173E-01 -0.1584192190112E-01
-0.1358579290757E-01 -0.1651402003563E-01
-0.1455570001443E-01 -0.1718722729943E-01
-0.1556524030435E-01 -0.1786335512360E-01
-0.1661716005320E-01 -0.1854420590519E-01
-0.1771456926290E-01 -0.1923114351911E-01
-0.1886110035679E-01 -0.1992491356201E-01
-0.2006120999102E-01 -0.2062564990368E-01
-0.2132060872038E-01 -0.2133295857233E-01
-0.2264678993462E-01 -0.2204599201745E-01
-0.2404975123991E-01 -0.2276348475127E-01
-0.2554314341128E-01 -0.2348219264898E-01
-0.2714606275110E-01 -0.2419605844525E-01
-0.2888517672387E-01 -0.2489857803098E-01
-0.3079582076429E-01 -0.2558610324297E-01
-0.3291634240659E-01 -0.2626639898220E-01
-0.3526291715693E-01 -0.2697065634428E-01
-0.3777609010976E-01 -0.2775043148848E-01
-0.2023589576568E-03 -0.6491654211559E-03
-0.4626632943055E-03 -0.1321895538417E-02
-0.7612964689108E-03 -0.2012169383373E-02
-0.1085946889492E-02 -0.2711429507177E-02
-0.1432106453555E-02 -0.3412645421885E-02
-0.1799856349648E-02 -0.4111677144634E-02
-0.2191052433761E-02 -0.4806664457489E-02
-0.2607871488821E-02 -0.5497039324145E-02
-0.3052264852569E-02 -0.6182841706883E-02
-0.3525820195718E-02 -0.6864363677181E-02
-0.4029767652150E-02 -0.7541982501208E-02
-0.4565028202917E-02 -0.8216087375416E-02
-0.5132271007533E-02 -0.8887053317331E-02
-0.5731964604686E-02 -0.9555232952450E-02
-0.6364421525770E-02 -0.1022095719524E-01
-0.7029838707765E-02 -0.1088454013318E-01
-0.7728340887943E-02 -0.1154628873996E-01
-0.8459982298021E-02 -0.1220647091161E-01
-0.9224845969997E-02 -0.1286536455805E-01
-0.1002302962742E-01 -0.1352318312183E-01
-0.1085474282142E-01 -0.1418007453368E-01
-0.1172039391728E-01 -0.1483607656213E-01
-0.1262070207740E-01 -0.1549107551408E-01
-0.1355683994909E-01 -0.1614498672013E-01
-0.1453061953918E-01 -0.1679874698717E-01
-0.1554438311453E-01 -0.1745392366413E-01
-0.1660087513789E-01 -0.1811205321774E-01
-0.1770323901861E-01 -0.1877422166425E-01
-0.1885517912313E-01 -0.1944088796146E-01
-0.2006125020853E-01 -0.2011188862130E-01
-0.2132726636461E-01 -0.2078652126037E-01
-0.2266080307219E-01 -0.2146363442243E-01
-0.2407186730388E-01 -0.2214172170928E-01
-0.2557391610151E-01 -0.2281758132926E-01
-0.2718525155190E-01 -0.2348588735342E-01
-0.2893013422363E-01 -0.2414211831829E-01
-0.3083784531790E-01 -0.2478636010117E-01
-0.3293458732915E-01 -0.2543053561248E-01
-0.3522018673583E-01 -0.2610524759021E-01
-0.3762973639311E-01 -0.2685216324616E-01
-0.1871960612277E-03 -0.6312295968847E-03
-0.4326110370205E-03 -0.1284294202019E-02
-0.7194711813545E-03 -0.1954504709657E-02
-0.1036260089548E-02 -0.2634732773395E-02
-0.1377784085295E-02 -0.3318565897241E-02
-0.1743097396663E-02 -0.4001747141682E-02
-0.2133245388366E-02 -0.4682015652466E-02
-0.2549885892330E-02 -0.5358412427933E-02
-0.2994660889495E-02 -0.6030683460573E-02
-0.3468975725998E-02 -0.6698918299075E-02
-0.3973952184402E-02 -0.7363357712657E-02
-0.4510446153040E-02 -0.8024297608495E-02
-0.5079087543366E-02 -0.8682045967519E-02
-0.5680321706781E-02 -0.9336902691273E-02
-0.6314448681533E-02 -0.9989151781566E-02
-0.6981660917497E-02 -0.1063905983916E-01
-0.7682085789653E-02 -0.1128688048876E-01
-0.8415787681582E-02 -0.1193281860185E-01
-0.9182869095030E-02 -0.1257707430393E-01
-0.9983458576945E-02 -0.1321976706890E-01
-0.1081780895429E-01 -0.1386093401288E-01
-0.1168638082985E-01 -0.1450048879711E-01
-0.1258994427279E-01 -0.1513818575236E-01
-0.1352970628379E-01 -0.1577379722331E-01
-0.1450748143301E-01 -0.1640807316187E-01
-0.1552559904954E-01 -0.1704235817944E-01
-0.1658680140566E-01 -0.1767794783491E-01
-0.1769425749305E-01 -0.1831568255264E-01
-0.1885172584742E-01 -0.1895577962104E-01
-0.2006382939832E-01 -0.1959784375373E-01
-0.2133643829616E-01 -0.2024096176593E-01
-0.2267713094279E-01 -0.2088382395311E-01
-0.2409578377048E-01 -0.2152489493842E-01
-0.2560541062465E-01 -0.2216130511487E-01
-0.2722310737224E-01 -0.2278878472803E-01
-0.2897020848534E-01 -0.2340492023498E-01
-0.3086984657773E-01 -0.2401290311899E-01
-0.3293787923073E-01 -0.2462705262739E-01
-0.3516286641388E-01 -0.2527583947775E-01
-0.3747954902304E-01 -0.2599263197005E-01
-0.1734017367861E-03 -0.6140607370736E-03
-0.4051630006520E-03 -0.1248391450220E-02
-0.6808062182177E-03 -0.1899289483902E-02
-0.9896771633477E-03 -0.2560802739494E-02
-0.1326223262642E-02 -0.3227168780364E-02
-0.1688715108022E-02 -0.3894186962462E-02
-0.2077488262521E-02 -0.4559345399018E-02
-0.2493700266658E-02 -0.5221374447536E-02
-0.2938673722253E-02 -0.5879757109060E-02
-0.3413616516072E-02 -0.6534387131463E-02
-0.3919528918019E-02 -0.7185365495509E-02
-0.4457191880864E-02 -0.7832888070033E-02
-0.5027189274997E-02 -0.8477188444768E-02
-0.5629938916064E-02 -0.9118506996483E-02
-0.6265725888415E-02 -0.9757074997750E-02
-0.6934737152025E-02 -0.1039310691232E-01
-0.7637102837643E-02 -0.1102679972353E-01
-0.8372898373035E-02 -0.1165829373712E-01
-0.9142246866787E-02 -0.1228771218717E-01
-0.9945308149494E-02 -0.1291508489137E-01
-0.1078237687016E-01 -0.1354034668129E-01
-0.1165396176998E-01 -0.1416329982885E-01
-0.1256087816882E-01 -0.1478358261885E-01
-0.1350436306257E-01 -0.1540084245727E-01
-0.1448623266389E-01 -0.1601566174284E-01
-0.1550880378861E-01 -0.1662918419708E-01
-0.1657481353952E-01 -0.1724249122931E-01
-0.1768744579991E-01 -0.1785621242534E-01
-0.1885049193331E-01 -0.1847037058150E-01
-0.2006860804783E-01 -0.1908440459765E-01
-0.2134766557632E-01 -0.1969728408918E-01
-0.2269515794256E-01 -0.2030767262026E-01
-0.2412068664228E-01 -0.2091418199433E-01
-0.2563659024811E-01 -0.2151448361717E-01
-0.2725843408870E-01 -0.2210552481656E-01
-0.2900435548350E-01 -0.2268688282737E-01
-0.3089165968109E-01 -0.2326411227532E-01
-0.3292777736317E-01 -0.2385259446354E-01
-0.3509386481942E-01 -0.2447797445377E-01
-0.3732706520727E-01 -0.2516687005159E-01
-0.1607715613276E-03 -0.5974924325425E-03
-0.3799662246055E-03 -0.1213840794570E-02
-0.6449735402365E-03 -0.1846083049923E-02
-0.9459929569516E-03 -0.2489228994924E-02
-0.1277336930915E-02 -0.3138145762293E-02
-0.1636696921849E-02 -0.3788797319696E-02
-0.2023805130591E-02 -0.4438539792838E-02
-0.2439353050219E-02 -0.5085870247158E-02
-0.2884345201525E-02 -0.5730046122135E-02
-0.3359783087029E-02 -0.6370778916498E-02
-0.3866535405088E-02 -0.7008031695864E-02
-0.4405299788575E-02 -0.7641897151307E-02
-0.4976607886263E-02 -0.8272529619134E-02
-0.5580845808602E-02 -0.8900104926077E-02
-0.6218281167988E-02 -0.9524797160582E-02
-0.6889094214128E-02 -0.1014676516211E-01
-0.7593417576417E-02 -0.1076614709076E-01
-0.8331338043914E-02 -0.1138301827283E-01
-0.9102999654233E-02 -0.1199742703851E-01
-0.9908592995624E-02 -0.1260931869605E-01
-0.1074845221187E-01 -0.1321853456804E-01
-0.1162312969682E-01 -0.1382477775144E-01
-0.1253348043165E-01 -0.1442758540797E-01
-0.1348076685507E-01 -0.1502649705095E-01
-0.1446680474400E-01 -0.1562194635443E-01
-0.1549389675310E-01 -0.1621489822456E-01
-0.1656476937480E-01 -0.1680624748369E-01
-0.1768260808930E-01 -0.1739644853761E-01
-0.1885121277597E-01 -0.1798537690595E-01
-0.2007523398433E-01 -0.1857236917503E-01
-0.2136048522797E-01 -0.1915636331880E-01
-0.2271428415861E-01 -0.1973610832242E-01
-0.2414581907510E-01 -0.2031049836116E-01
-0.2566655563466E-01 -0.2087787505403E-01
-0.2729030667922E-01 -0.2143643245738E-01
-0.2903195267762E-01 -0.2198748388407E-01
-0.3090353644380E-01 -0.2253823797402E-01
-0.3290585790380E-01 -0.2310420622217E-01
-0.3501549358462E-01 -0.2370802178056E-01
-0.3717333638137E-01 -0.2437089628509E-01
-0.1491459530705E-03 -0.5814015562830E-03
-0.3567345262971E-03 -0.1180379530028E-02
-0.6116854475914E-03 -0.1794535364660E-02
-0.9050049574478E-03 -0.2419664197255E-02
-0.1231019813789E-02 -0.3051216330934E-02
-0.1587008110686E-02 -0.3685382570402E-02
-0.1972201530869E-02 -0.4319477350071E-02
-0.2386869077099E-02 -0.4951833746742E-02
-0.2831707628354E-02 -0.5581523238316E-02
-0.3307509265704E-02 -0.6208093237335E-02
-0.3815004336928E-02 -0.6831374940939E-02
-0.4354800471527E-02 -0.7451357916856E-02
-0.4927371727396E-02 -0.8068114725791E-02
-0.5533068655765E-02 -0.8681753352474E-02
-0.6172138903884E-02 -0.9292387598997E-02
-0.6844754615790E-02 -0.9900118337953E-02
-0.7551050308863E-02 -0.1050502377497E-01
-0.8291123905645E-02 -0.1110711483884E-01
-0.9065139962533E-02 -0.1170636781978E-01
-0.9873318480204E-02 -0.1230264923691E-01
-0.1071603010405E-01 -0.1289571574096E-01
-0.1159386611486E-01 -0.1348518297583E-01
-0.1250771554809E-01 -0.1407050108641E-01
-0.1345886139832E-01 -0.1465111794570E-01
-0.1444911577518E-01 -0.1522733687760E-01
-0.1548076362183E-01 -0.1579996593101E-01
-0.1655651318137E-01 -0.1636974088939E-01
-0.1767953603733E-01 -0.1693697622160E-01
-0.1885361405955E-01 -0.1750144560957E-01
-0.2008335127436E-01 -0.1806244197650E-01
-0.2137444262905E-01 -0.1861894624770E-01
-0.2273394170749E-01 -0.1916988270403E-01
-0.2417050004022E-01 -0.1971452157100E-01
-0.2569455708202E-01 -0.2025193402238E-01
-0.2731805126059E-01 -0.2078149745173E-01
-0.2905270603952E-01 -0.2130594793284E-01
-0.3090597901939E-01 -0.2183354063330E-01
-0.3287360506879E-01 -0.2237931235845E-01
-0.3492958862478E-01 -0.2296297942866E-01
-0.3701910444712E-01 -0.2360145048438E-01
-0.1383979993656E-03 -0.5656951679682E-03
-0.3352337110897E-03 -0.1147805505448E-02
-0.5806913395726E-03 -0.1744366654977E-02
-0.8665198935544E-03 -0.2351815789168E-02
-0.1187156701763E-02 -0.2966129479599E-02
-0.1539597428153E-02 -0.3583756115410E-02
-0.1922667288605E-02 -0.4202034130322E-02
-0.2336260667115E-02 -0.4819191665960E-02
-0.2780783980814E-02 -0.5434152937162E-02
-0.3256822024925E-02 -0.6046322043426E-02
-0.3764963236609E-02 -0.6655407494963E-02
-0.4305720377870E-02 -0.7261298487625E-02
-0.4879505494997E-02 -0.7863985400370E-02
-0.5486630150543E-02 -0.8463506720462E-02
-0.6127319632354E-02 -0.9059914165028E-02
-0.6801736455209E-02 -0.9653249394479E-02
-0.7510016095885E-02 -0.1024353050150E-01
-0.8252266887410E-02 -0.1083070546386E-01
-0.9028672856477E-02 -0.1141468208771E-01
-0.9839481401101E-02 -0.1199525420275E-01
-0.1068509616474E-01 -0.1257210256803E-01
-0.1156614233116E-01 -0.1314476662060E-01
-0.1248353729777E-01 -0.1371262288903E-01
-0.1343857931849E-01 -0.1427504314410E-01
-0.1443307251812E-01 -0.1483221819216E-01
-0.1546927890668E-01 -0.1538482070460E-01
-0.1654987898786E-01 -0.1593345425099E-01
-0.1767801326230E-01 -0.1647832710878E-01
-0.1885741771268E-01 -0.1701915334101E-01
-0.2009260822469E-01 -0.1755523425920E-01
-0.2138910189335E-01 -0.1808565559092E-01
-0.2275360694971E-01 -0.1860958371921E-01
-0.2419413512287E-01 -0.1912672019194E-01
-0.2571999397127E-01 -0.1963686928710E-01
-0.2734121281146E-01 -0.2014047047055E-01
-0.2906656583060E-01 -0.2064136273535E-01
-0.3089962520222E-01 -0.2114836243069E-01
-0.3283236474843E-01 -0.2167567164552E-01
-0.3483761304986E-01 -0.2224032733674E-01
-0.3686490827513E-01 -0.2285581379916E-01
-0.1284251157007E-03 -0.5503018882776E-03
-0.3152703304079E-03 -0.1115961064134E-02
-0.5517735253019E-03 -0.1695351812500E-02
-0.8303571659050E-03 -0.2285437819094E-02
-0.1145628441767E-02 -0.2882663094505E-02
-0.1494401965105E-02 -0.3483743606493E-02
-0.1875179376724E-02 -0.4086087592001E-02
-0.2287528984504E-02 -0.4687866687632E-02
-0.2731588407567E-02 -0.5287893685718E-02
-0.3207741538308E-02 -0.5885451118940E-02
-0.3716434314852E-02 -0.6480136137484E-02
-0.4258081593208E-02 -0.7071742482910E-02
-0.4833030012306E-02 -0.7660179791046E-02
-0.5441549220653E-02 -0.8245416894037E-02
-0.6083839914691E-02 -0.8827442847452E-02
-0.6760053376343E-02 -0.9406239880793E-02
-0.7470324840277E-02 -0.9981766698427E-02
-0.8214771893165E-02 -0.1055391051315E-01
-0.8993596441921E-02 -0.1112251474035E-01
-0.9807070726665E-02 -0.1168730685391E-01
-0.1065562749268E-01 -0.1224790036386E-01
-0.1153992066371E-01 -0.1280376928013E-01
-0.1246089017821E-01 -0.1335422926108E-01
-0.1341984382282E-01 -0.1389859079888E-01
-0.1441857244916E-01 -0.1443694933054E-01
-0.1545930851227E-01 -0.1496986280339E-01
-0.1654469383290E-01 -0.1549782807968E-01
-0.1767781951612E-01 -0.1602097863949E-01
-0.1886234732672E-01 -0.1653900685639E-01
-0.2010266424987E-01 -0.1705126675614E-01
-0.2140405403179E-01 -0.1755699726810E-01
-0.2277280864139E-01 -0.1805565156800E-01
-0.2421622059346E-01 -0.1854738484770E-01
-0.2574240555182E-01 -0.1903269726677E-01
-0.2735951871539E-01 -0.1951293945284E-01
-0.2907365652889E-01 -0.1999275729516E-01
-0.3088517284847E-01 -0.2048116010618E-01
-0.3278333220067E-01 -0.2099132802836E-01
-0.3474073869845E-01 -0.2153791863399E-01
-0.3671114840512E-01 -0.2213168350939E-01
-0.1191431894394E-03 -0.5351660650093E-03
-0.2966831285207E-03 -0.1084721747951E-02
-0.5247429292808E-03 -0.1647308466572E-02
-0.7963502736722E-03 -0.2220323505006E-02
-0.1106316089246E-02 -0.2800622066141E-02
-0.1451351123848E-02 -0.3385184532566E-02
-0.1829704597932E-02 -0.3971519299315E-02
-0.2240665506572E-02 -0.4557779975770E-02
-0.2684126892329E-02 -0.5142699848462E-02
-0.3160281389202E-02 -0.5725461371627E-02
-0.3669434447238E-02 -0.6305562933716E-02
-0.4211901717135E-02 -0.6882709381143E-02
-0.4787962080293E-02 -0.7456732594058E-02
-0.5397840899813E-02 -0.8027532921934E-02
-0.6041712261829E-02 -0.8595037297753E-02
-0.6719714578650E-02 -0.9159169239896E-02
-0.7431981418575E-02 -0.9719829575546E-02
-0.8178638098123E-02 -0.1027684756120E-01
-0.8959902366299E-02 -0.1083000672282E-01
-0.9776068321321E-02 -0.1137897463427E-01
-0.1062759361299E-01 -0.1192330600241E-01
-0.1151515559333E-01 -0.1246241972075E-01
-0.1243971077500E-01 -0.1299558267891E-01
-0.1340257034406E-01 -0.1352205815317E-01
-0.1440550576908E-01 -0.1404186251312E-01
-0.1545071222186E-01 -0.1455545849695E-01
-0.1654078086541E-01 -0.1506325996843E-01
-0.1767873455608E-01 -0.1556535401834E-01
-0.1886813293222E-01 -0.1606144426206E-01
-0.2011319552150E-01 -0.1655097349406E-01
-0.2141892293166E-01 -0.1703336898947E-01
-0.2279113247231E-01 -0.1750839550071E-01
-0.2423634231803E-01 -0.1797665777956E-01
-0.2576145673494E-01 -0.1843928771145E-01
-0.2737284317078E-01 -0.1889838698356E-01
-0.2907422154439E-01 -0.1935915111563E-01
-0.3086333214656E-01 -0.1983051510411E-01
-0.3272755754509E-01 -0.2032456423217E-01
-0.3463990864902E-01 -0.2085389567574E-01
-0.3655812456683E-01 -0.2142708125529E-01
-0.1104823772625E-03 -0.5202437331633E-03
-0.2793365068533E-03 -0.1053988222298E-02
-0.4994350877327E-03 -0.1600087865140E-02
-0.7643470307239E-03 -0.2156298773809E-02
-0.1069103675743E-02 -0.2719835819100E-02
-0.1410369769180E-02 -0.3287932715127E-02
-0.1786201994535E-02 -0.3858216729465E-02
-0.2195653515061E-02 -0.4428853149351E-02
-0.2638398044108E-02 -0.4998523327899E-02
-0.3114448920987E-02 -0.5566330021185E-02
-0.3623975279592E-02 -0.6131686002125E-02
-0.4167193849626E-02 -0.6694214935525E-02
-0.4744314423297E-02 -0.7253675181349E-02
-0.5355516283131E-02 -0.7809900924254E-02
-0.6000945136813E-02 -0.8362758505637E-02
-0.6680724900426E-02 -0.8912114291046E-02
-0.7394985880614E-02 -0.9457813428452E-02
-0.8143859300842E-02 -0.9999630541113E-02
-0.8927576353572E-02 -0.1053729406607E-01
-0.9746449677806E-02 -0.1107041816682E-01
-0.1060095740375E-01 -0.1159850694842E-01
-0.1149179488077E-01 -0.1212093401653E-01
-0.1241992908954E-01 -0.1263692893193E-01
-0.1338666813233E-01 -0.1314572098830E-01
-0.1439375733463E-01 -0.1364726278535E-01
-0.1544334605262E-01 -0.1414193996623E-01
-0.1653796220941E-01 -0.1463010494467E-01
-0.1768054158985E-01 -0.1511182341683E-01
-0.1887451501800E-01 -0.1558683779604E-01
-0.2012389932028E-01 -0.1605470738424E-01
-0.2143336923189E-01 -0.1651507058539E-01
-0.2280822249971E-01 -0.1696801156455E-01
-0.2425417095756E-01 -0.1741456081622E-01
-0.2577692153623E-01 -0.1785640235006E-01
-0.2738117505905E-01 -0.1829623339504E-01
-0.2906858107563E-01 -0.1873958478820E-01
-0.3083479668390E-01 -0.1919513352438E-01
-0.3266596027790E-01 -0.1967386394125E-01
-0.3453588638013E-01 -0.2018662462715E-01
-0.3640605126048E-01 -0.2074028190673E-01
-0.1023840292320E-03 -0.5054997600533E-03
-0.2631154969748E-03 -0.1023680412977E-02
-0.4757065862704E-03 -0.1553567874763E-02
-0.7342090783833E-03 -0.2093216778701E-02
-0.1033879954594E-02 -0.2640155652493E-02
-0.1371380648146E-02 -0.3191856072589E-02
-0.1744624927496E-02 -0.3746074350980E-02
-0.2152469521468E-02 -0.4301009738478E-02
-0.2594393940800E-02 -0.4855314892842E-02
-0.3070245676712E-02 -0.5408031615215E-02
-0.3580063423494E-02 -0.5958500192929E-02
-0.4123966657368E-02 -0.6506271547519E-02
-0.4702095703388E-02 -0.7051035712452E-02
-0.5314582542281E-02 -0.7592563979844E-02
-0.5961543010521E-02 -0.8130664489031E-02
-0.6643084949707E-02 -0.8665148742427E-02
-0.7359333688977E-02 -0.9195808993640E-02
-0.8110424302559E-02 -0.9722368970634E-02
-0.8896598747350E-02 -0.1024450702811E-01
-0.9718184634978E-02 -0.1076179037094E-01
-0.1057567598831E-01 -0.1127368041796E-01
-0.1146978063629E-01 -0.1177951481240E-01
-0.1240146980908E-01 -0.1227849653305E-01
-0.1337204177269E-01 -0.1276983322055E-01
-0.1438320848243E-01 -0.1325342785836E-01
-0.1543706444094E-01 -0.1372960550333E-01
-0.1653606154858E-01 -0.1419867625790E-01
-0.1768303025294E-01 -0.1466070576679E-01
-0.1888124777973E-01 -0.1511549733370E-01
-0.2013449716085E-01 -0.1556274655056E-01
-0.2144709236563E-01 -0.1600231474232E-01
-0.2282378018487E-01 -0.1643459964870E-01
-0.2426945482820E-01 -0.1686102007284E-01
-0.2578866619858E-01 -0.1728372605060E-01
-0.2738459016499E-01 -0.1770586739537E-01
-0.2905710154212E-01 -0.1813313863538E-01
-0.3080022537512E-01 -0.1857383647171E-01
-0.3259934864032E-01 -0.1903789125167E-01
-0.3442929779160E-01 -0.1953463267684E-01
-0.3625505345113E-01 -0.2006976359105E-01
-0.9479839736181E-04 -0.4909057984111E-03
-0.2479218666360E-03 -0.9937331800571E-03
-0.4534319717347E-03 -0.1507647581747E-02
-0.7058110228615E-03 -0.2030953311930E-02
-0.1000539417294E-02 -0.2561452125792E-02
-0.1334306200308E-02 -0.3096835934592E-02
-0.1704922822401E-02 -0.3634994156909E-02
-0.2111084581576E-02 -0.4174176207363E-02
-0.2552100983536E-02 -0.4713025224469E-02
-0.3027667898916E-02 -0.5250538882985E-02
-0.3537700724583E-02 -0.5785997684405E-02
-0.4082224510532E-02 -0.6318888608348E-02
-0.4661310598398E-02 -0.6848839246298E-02
-0.5275042997355E-02 -0.7375562036116E-02
-0.5923506467774E-02 -0.7898810025887E-02
-0.6606791278939E-02 -0.8418342766044E-02
-0.7325015993333E-02 -0.8933902889499E-02
-0.8078317308188E-02 -0.9445167290379E-02
-0.8866945057896E-02 -0.9951769373382E-02
-0.9691238079626E-02 -0.1045323573821E-01
-0.1055170159373E-01 -0.1094899271027E-01
-0.1144905034118E-01 -0.1143835076710E-01
-0.1238425351349E-01 -0.1192049632226E-01
-0.1335859261505E-01 -0.1239462672057E-01
-0.1437373872266E-01 -0.1286060822697E-01
-0.1543172222651E-01 -0.1331872007136E-01
-0.1653490639500E-01 -0.1376924663083E-01
-0.1768599909061E-01 -0.1421227111882E-01
-0.1888810160385E-01 -0.1464767450704E-01
-0.2014473678387E-01 -0.1507530115947E-01
-0.2145983106191E-01 -0.1549523776390E-01
-0.2283756165907E-01 -0.1590817936498E-01
-0.2428201153584E-01 -0.1631588726602E-01
-0.2579663302351E-01 -0.1672089132999E-01
-0.2738322849092E-01 -0.1712666788531E-01
-0.2904017213370E-01 -0.1753894137849E-01
-0.3076023797095E-01 -0.1796555473144E-01
-0.3252841916465E-01 -0.1841544863933E-01
-0.3432071856192E-01 -0.1889665612109E-01
-0.3610504884511E-01 -0.1941395951091E-01
-0.8768331020666E-04 -0.4764383971851E-03
-0.2336737502320E-03 -0.9640976743493E-03
-0.4325077013128E-03 -0.1462257603881E-02
-0.6790511831840E-03 -0.1969432689841E-02
-0.9690006000447E-03 -0.2483662783188E-02
-0.1299094020016E-02 -0.3002841960918E-02
-0.1667073011759E-02 -0.3524992420755E-02
-0.2071501762360E-02 -0.4048424918379E-02
-0.2511542305533E-02 -0.4571788475004E-02
-0.2986753209188E-02 -0.5094051377712E-02
-0.3496934503502E-02 -0.5614446293171E-02
-0.4042020521297E-02 -0.6132405138197E-02
-0.4622014820397E-02 -0.6647499443495E-02
-0.5236953246509E-02 -0.7159387493061E-02
-0.5886888526428E-02 -0.7667771042982E-02
-0.6571891911097E-02 -0.8172361242944E-02
-0.7292073306990E-02 -0.8672854924557E-02
-0.8047568605076E-02 -0.9168886617203E-02
-0.8838632385360E-02 -0.9660050149638E-02
-0.9665610735576E-02 -0.1014583790988E-01
-0.1052901520992E-01 -0.1062564855284E-01
-0.1142956178800E-01 -0.1109877380107E-01
-0.1236821125851E-01 -0.1156439288707E-01
-0.1334622137685E-01 -0.1202170328916E-01
-0.1436521485401E-01 -0.1247054627647E-01
-0.1542714900989E-01 -0.1291116832418E-01
-0.1653428681017E-01 -0.1334384208824E-01
-0.1768919836199E-01 -0.1376868210522E-01
-0.1889479056653E-01 -0.1418565828486E-01
-0.2015430627409E-01 -0.1459476889112E-01
-0.2147126794001E-01 -0.1499631948543E-01
-0.2284927957541E-01 -0.1539127700942E-01
-0.2429163836511E-01 -0.1578169337064E-01
-0.2580077783831E-01 -0.1617039431874E-01
-0.2737728725241E-01 -0.1656107340610E-01
-0.2901829727995E-01 -0.1695938398009E-01
-0.3071564947028E-01 -0.1737267935076E-01
-0.3245422432243E-01 -0.1780898613789E-01
-0.3421120865366E-01 -0.1827526411124E-01
-0.3595729749768E-01 -0.1877533892950E-01
-0.8100168735553E-04 -0.4620792360678E-03
-0.2202949685977E-03 -0.9347257634399E-03
-0.4128295062595E-03 -0.1417314024227E-02
-0.6538139620294E-03 -0.1908536267356E-02
-0.9391511104246E-03 -0.2406640094008E-02
-0.1265643135119E-02 -0.2909704078700E-02
-0.1630988065290E-02 -0.3415880217501E-02
-0.2033645442154E-02 -0.3923548154682E-02
-0.2472650777557E-02 -0.4431375158136E-02
-0.2947439549816E-02 -0.4938312971641E-02
-0.3457704928564E-02 -0.5443557512561E-02
-0.4003294978787E-02 -0.5946494333759E-02
-0.4584147330223E-02 -0.6446645469485E-02
-0.5200249961247E-02 -0.6943620072601E-02
-0.5851622924545E-02 -0.7437072731382E-02
-0.6538317182696E-02 -0.7926669992643E-02
-0.7260432174905E-02 -0.8412066821883E-02
-0.8018100586300E-02 -0.8892859803208E-02
-0.8811578642717E-02 -0.9368608316099E-02
-0.9641215785632E-02 -0.9838776479254E-02
-0.1050752518075E-01 -0.1030274204776E-01
-0.1141121855394E-01 -0.1075978555871E-01
-0.1235324209326E-01 -0.1120908741174E-01
-0.1333482292233E-01 -0.1164985435772E-01
-0.1435752793359E-01 -0.1208191271387E-01
-0.1542323254014E-01 -0.1250548710983E-01
-0.1653408821858E-01 -0.1292084973593E-01
-0.1769251333278E-01 -0.1332815677839E-01
-0.1890120418380E-01 -0.1372747421900E-01
-0.2016310747489E-01 -0.1411895467925E-01
-0.2148133056812E-01 -0.1450311154822E-01
-0.2285890723440E-01 -0.1488115534580E-01
-0.2429838035767E-01 -0.1525537814862E-01
-0.2580124395622E-01 -0.1562882727720E-01
-0.2736702105158E-01 -0.1600532463143E-01
-0.2899181639184E-01 -0.1639037981300E-01
-0.3066679388358E-01 -0.1679084152345E-01
-0.3237690946729E-01 -0.1721390781827E-01
-0.3410056007902E-01 -0.1766558267961E-01
-0.3581088227387E-01 -0.1814905167532E-01
-0.7472158173953E-04 -0.4478125141556E-03
-0.2077216756470E-03 -0.9055807015930E-03
-0.3943116513752E-03 -0.1372757867482E-02
-0.6300066517424E-03 -0.1848187463073E-02
-0.9109045967158E-03 -0.2330298696581E-02
-0.1233881678732E-02 -0.2817337874311E-02
-0.1596613279372E-02 -0.3307581980965E-02
-0.1997476932773E-02 -0.3799484161128E-02
-0.2435400663770E-02 -0.4291739593645E-02
-0.2909710557174E-02 -0.4783294468956E-02
-0.3420001663838E-02 -0.5273318066020E-02
-0.3966040741211E-02 -0.5761157954834E-02
-0.4547701865135E-02 -0.6246293317806E-02
-0.5164925852139E-02 -0.6728289474114E-02
-0.5817699709417E-02 -0.7206758301234E-02
-0.6506052980990E-02 -0.7681325845330E-02
-0.7230072868466E-02 -0.8151609360088E-02
-0.7989886434408E-02 -0.8617171996724E-02
-0.8785748419242E-02 -0.9077543751603E-02
-0.9618007715370E-02 -0.9532166184840E-02
-0.1048717441854E-01 -0.9980402513742E-02
-0.1139395059274E-01 -0.1042152906644E-01
-0.1233926173838E-01 -0.1085473495179E-01
-0.1332429760612E-01 -0.1127924426007E-01
-0.1435056203927E-01 -0.1169487702689E-01
-0.1541984017731E-01 -0.1210184513201E-01
-0.1653416181585E-01 -0.1250042913331E-01
-0.1769578145877E-01 -0.1289083403428E-01
-0.1890717174485E-01 -0.1327322510978E-01
-0.2017097190479E-01 -0.1364790535448E-01
-0.2148986981043E-01 -0.1401558066821E-01
-0.2286634019823E-01 -0.1437767419903E-01
-0.2430221105394E-01 -0.1473666912607E-01
-0.2579811968833E-01 -0.1509576814480E-01
-0.2735266150606E-01 -0.1545884920605E-01
-0.2896110622314E-01 -0.1583122676399E-01
-0.3061414387628E-01 -0.1621924947920E-01
-0.3229694869934E-01 -0.1662936055880E-01
-0.3398909180503E-01 -0.1706675601053E-01
-0.3566588413163E-01 -0.1753407090581E-01
-0.6881504700592E-04 -0.4336250833274E-03
-0.1958978721738E-03 -0.8766316932859E-03
-0.3768780369609E-03 -0.1328539274544E-02
-0.6075453173869E-03 -0.1788320612432E-02
-0.8841808301974E-03 -0.2254564077363E-02
-0.1203740759877E-02 -0.2725668136530E-02
-0.1563894231624E-02 -0.3200028874650E-02
-0.1962955963389E-02 -0.3676175334509E-02
-0.2399763576431E-02 -0.4152838017808E-02
-0.2873546725368E-02 -0.4628966857733E-02
-0.3383811087249E-02 -0.5103713602712E-02
-0.3930247404460E-02 -0.5576395787843E-02
-0.4512668978615E-02 -0.6046456331837E-02
-0.5130970520718E-02 -0.6513422164609E-02
-0.5785105870988E-02 -0.6976867132861E-02
-0.6475082172342E-02 -0.7436381096642E-02
-0.7200972685911E-02 -0.7891547894813E-02
-0.7962896456487E-02 -0.8341901789220E-02
-0.8761103621086E-02 -0.8786948351768E-02
-0.9595938659232E-02 -0.9226112030647E-02
-0.1046790399916E-01 -0.9658747438100E-02
-0.1137768676534E-01 -0.1008413306278E-01
-0.1232618585757E-01 -0.1050147344939E-01
-0.1331454714913E-01 -0.1091001702177E-01
-0.1434420455888E-01 -0.1130958484762E-01
-0.1541684521813E-01 -0.1170038340077E-01
-0.1653436820918E-01 -0.1208270817093E-01
-0.1769885405087E-01 -0.1245681730129E-01
-0.1891254179701E-01 -0.1282297523542E-01
-0.2017775641448E-01 -0.1318162784459E-01
-0.2149676780413E-01 -0.1353365530705E-01
-0.2287150949286E-01 -0.1388066149490E-01
-0.2430313934549E-01 -0.1422527451619E-01
-0.2579152105746E-01 -0.1457079488214E-01
-0.2733445082476E-01 -0.1492109890982E-01
-0.2892652778353E-01 -0.1528127221062E-01
-0.3055813261454E-01 -0.1565717797859E-01
-0.3221475406474E-01 -0.1605458177872E-01
-0.3387709038580E-01 -0.1647798666616E-01
-0.3552234857415E-01 -0.1692959330373E-01
-0.6325748960507E-04 -0.4195059191433E-03
-0.1847741864238E-03 -0.8478527820913E-03
-0.3604608754814E-03 -0.1284615868273E-02
-0.5863538875179E-03 -0.1728879199074E-02
-0.8589054165983E-03 -0.2179371059802E-02
-0.1175154707044E-02 -0.2634627840837E-02
-0.1532777328282E-02 -0.3093158293387E-02
-0.1930041317768E-02 -0.3553568123627E-02
-0.2365709068937E-02 -0.4014628720295E-02
-0.2838925900246E-02 -0.4475301544430E-02
-0.3349116682749E-02 -0.4934728935218E-02
-0.3895901615148E-02 -0.5392205833946E-02
-0.4479036305430E-02 -0.5847145320446E-02
-0.5098370707692E-02 -0.6299041417958E-02
-0.5753825600923E-02 -0.6747434747465E-02
-0.6445384895387E-02 -0.7191883425909E-02
-0.7173106297802E-02 -0.7631942247396E-02
-0.7937098494770E-02 -0.8067121103663E-02
-0.8737603954360E-02 -0.8496905952200E-02
-0.9574958958926E-02 -0.8920709284501E-02
-0.1044965379599E-01 -0.9337882595162E-02
-0.1136235554863E-01 -0.9747712288441E-02
-0.1231393083747E-01 -0.1014942425762E-01
-0.1330547547664E-01 -0.1054229719873E-01
-0.1433834705310E-01 -0.1092615921118E-01
-0.1541412771530E-01 -0.1130121705007E-01
-0.1653457807283E-01 -0.1166778562295E-01
-0.1770159657301E-01 -0.1202617803503E-01
-0.1891718179718E-01 -0.1237675500022E-01
-0.2018334180053E-01 -0.1272009511846E-01
-0.2150193508188E-01 -0.1305723285057E-01
-0.2287437688542E-01 -0.1338992120681E-01
-0.2430120292590E-01 -0.1372089090057E-01
-0.2578158439232E-01 -0.1405349117652E-01
-0.2731263515588E-01 -0.1439155186766E-01
-0.2888842445447E-01 -0.1473990928172E-01
-0.3049915383465E-01 -0.1510396406809E-01
-0.3213069098515E-01 -0.1548887591081E-01
-0.3376479783186E-01 -0.1589855953429E-01
-0.3538033359164E-01 -0.1633486871274E-01
-0.5802714929229E-04 -0.4054457179810E-03
-0.1743068804835E-03 -0.8192219563622E-03
-0.3449995779722E-03 -0.1240951429070E-02
-0.5663633244812E-03 -0.1669814356533E-02
-0.8350094511263E-03 -0.2104662443327E-02
-0.1148061172527E-02 -0.2544157130064E-02
-0.1503210194735E-02 -0.2986913231602E-02
-0.1898691337194E-02 -0.3431612709940E-02
-0.2333205129726E-02 -0.3877071912599E-02
-0.2805823705153E-02 -0.4322270290871E-02
-0.3315899385127E-02 -0.4766347955987E-02
-0.3862987347748E-02 -0.5208584148939E-02
-0.4446788795367E-02 -0.5648368291681E-02
-0.5067110509926E-02 -0.6085166931047E-02
-0.5723840517746E-02 -0.6518492306684E-02
-0.6416938815644E-02 -0.6947875288775E-02
-0.7146446047981E-02 -0.7372846007274E-02
-0.7912458285832E-02 -0.7792894429626E-02
-0.8715207349511E-02 -0.8207491524765E-02
-0.9555017655715E-02 -0.8616042668906E-02
-0.1043236303998E-01 -0.9017901270310E-02
-0.1134788566051E-01 -0.9412366789088E-02
-0.1230241447025E-01 -0.9798691578202E-02
-0.1329698943926E-01 -0.1017618952241E-01
-0.1433288597394E-01 -0.1054470050228E-01
-0.1541157511835E-01 -0.1090443570460E-01
-0.1653467258723E-01 -0.1125573207758E-01
-0.1770388869143E-01 -0.1159895736832E-01
-0.1892097750827E-01 -0.1193456343839E-01
-0.2018763121927E-01 -0.1226324958708E-01
-0.2150530766797E-01 -0.1258618374228E-01
-0.2287493046486E-01 -0.1290523771117E-01
-0.2429646257627E-01 -0.1322320682923E-01
-0.2576846016084E-01 -0.1354344800530E-01
-0.2728745983657E-01 -0.1386971053618E-01
-0.2884712008582E-01 -0.1420657131666E-01
-0.3043756553268E-01 -0.1455899590173E-01
-0.3204508239861E-01 -0.1493160512134E-01
-0.3365242479933E-01 -0.1532781503332E-01
-0.3523990288854E-01 -0.1574919395731E-01
-0.5310468075504E-04 -0.3914365808885E-03
-0.1644570430909E-03 -0.7907204447566E-03
-0.3304398288798E-03 -0.1197514850123E-02
-0.5475109038273E-03 -0.1611083678077E-02
-0.8124291872283E-03 -0.2030387919453E-02
-0.1122401191748E-02 -0.2454202524750E-02
-0.1475142011623E-02 -0.2881241857690E-02
-0.1868864394331E-02 -0.3310262915192E-02
-0.2302218685932E-02 -0.3740129887485E-02
-0.2774214013615E-02 -0.4169845538188E-02
-0.3284138000483E-02 -0.4598554057050E-02
-0.3831486276451E-02 -0.5025525315298E-02
-0.4415909052293E-02 -0.5450130956264E-02
-0.5037171706517E-02 -0.5871815354974E-02
-0.5695129999212E-02 -0.6290067180010E-02
-0.6389719480638E-02 -0.6704394538524E-02
-0.7120962343833E-02 -0.7114307232201E-02
-0.7888939893709E-02 -0.7519279633659E-02
-0.8693870440274E-02 -0.7918772134924E-02
-0.9536063013973E-02 -0.8312187507221E-02
-0.1041597088309E-01 -0.8698885642233E-02
-0.1133420665506E-01 -0.9078183587885E-02
-0.1229155656565E-01 -0.9449364488733E-02
-0.1328899941468E-01 -0.9811781359700E-02
-0.1432772320777E-01 -0.1016528944240E-01
-0.1540908267822E-01 -0.1051010710656E-01
-0.1653454358294E-01 -0.1084659432783E-01
-0.1770562398485E-01 -0.1117517138608E-01
-0.1892383205059E-01 -0.1149637445307E-01
-0.2019054832503E-01 -0.1181101028099E-01
-0.2150684408676E-01 -0.1212035937620E-01
-0.2287318048360E-01 -0.1242638387351E-01
-0.2428899717442E-01 -0.1273191025600E-01
-0.2575230807723E-01 -0.1304026932208E-01
-0.2725916600427E-01 -0.1335510478243E-01
-0.2880291879708E-01 -0.1368073169737E-01
-0.3037369343001E-01 -0.1402171031574E-01
-0.3195821558251E-01 -0.1438218381530E-01
-0.3354015930685E-01 -0.1476514347458E-01
-0.3510112125966E-01 -0.1517191640146E-01
-0.4847281301903E-04 -0.3774717609609E-03
-0.1551899231097E-03 -0.7623321386165E-03
-0.3167327972060E-03 -0.1154279254182E-02
-0.5297395583663E-03 -0.1552650161391E-02
-0.7911056760326E-03 -0.1956503031062E-02
-0.1098119140256E-02 -0.2364716047436E-02
-0.1448523712440E-02 -0.2776096867495E-02
-0.1840519222684E-02 -0.3189475766357E-02
-0.2272715972469E-02 -0.3603766729807E-02
-0.2744069300937E-02 -0.4018000185531E-02
-0.3253809516396E-02 -0.4431329908651E-02
-0.3801378043021E-02 -0.4843022171510E-02
-0.4386377571556E-02 -0.5252436377200E-02
-0.5008533982850E-02 -0.5658999849876E-02
-0.5667671410776E-02 -0.6062182401531E-02
-0.6363700568606E-02 -0.6461473790316E-02
-0.7096623937689E-02 -0.6856367732698E-02
-0.7866506032357E-02 -0.7246327182653E-02
-0.8673548931277E-02 -0.7630806127881E-02
-0.9518042934056E-02 -0.8009208901295E-02
-0.1040041685282E-01 -0.8380905985981E-02
-0.1132124941042E-01 -0.8745235954618E-02
-0.1228127945663E-01 -0.9101516327482E-02
-0.1328141980191E-01 -0.9449142274265E-02
-0.1432276650828E-01 -0.9787986901147E-02
-0.1540655373914E-01 -0.1011827726102E-01
-0.1653409357460E-01 -0.1044039593790E-01
-0.1770670956169E-01 -0.1075481218449E-01
-0.1892566490787E-01 -0.1106213838940E-01
-0.2019203546305E-01 -0.1136327485295E-01
-0.2150652260169E-01 -0.1165959426732E-01
-0.2286915568021E-01 -0.1195312288953E-01
-0.2427889947121E-01 -0.1224668931578E-01
-0.2573329313353E-01 -0.1254357094619E-01
-0.2722798804948E-01 -0.1284728820901E-01
-0.2875610494850E-01 -0.1316189748090E-01
-0.3030783379177E-01 -0.1349158414310E-01
-0.3187034729950E-01 -0.1384006827850E-01
-0.3342817044798E-01 -0.1420997650250E-01
-0.3496405032852E-01 -0.1460242838859E-01
-0.4411607155609E-04 -0.3635454599131E-03
-0.1464743833315E-03 -0.7340431302288E-03
-0.3038344790523E-03 -0.1111221287204E-02
-0.5129973150341E-03 -0.1494481361353E-02
-0.7709844403997E-03 -0.1882968336414E-02
-0.1075162680055E-02 -0.2275654531303E-02
-0.1423308152665E-02 -0.2671435008678E-02
-0.1813615224218E-02 -0.3069211240908E-02
-0.2244662899525E-02 -0.3467948244323E-02
-0.2715361017812E-02 -0.3866707645930E-02
-0.3224889454707E-02 -0.4264657592388E-02
-0.3772640582250E-02 -0.4661065984916E-02
-0.4358173043979E-02 -0.5055285159968E-02
-0.4981175224824E-02 -0.5446730283742E-02
-0.5641440403129E-02 -0.5834856879636E-02
-0.6338854201065E-02 -0.6219140652807E-02
-0.7073398263214E-02 -0.6599063343661E-02
-0.7845118430878E-02 -0.6974080479403E-02
-0.8654197993049E-02 -0.7343643557221E-02
-0.9500905373995E-02 -0.7707162287069E-02
-0.1038564129340E-01 -0.8064021394498E-02
-0.1130894657710E-01 -0.8413584338237E-02
-0.1227150843414E-01 -0.8755205889601E-02
-0.1327416940906E-01 -0.9088325547653E-02
-0.1431792978434E-01 -0.9412835811530E-02
-0.1540389984851E-01 -0.9728972819084E-02
-0.1653323558443E-01 -0.1003714016291E-01
-0.1770706545941E-01 -0.1033785137119E-01
-0.1892641074694E-01 -0.1063178610231E-01
-0.2019205176940E-01 -0.1091992409674E-01
-0.2150433853577E-01 -0.1120371074991E-01
-0.2286289994071E-01 -0.1148521270482E-01
-0.2426627250142E-01 -0.1176723585237E-01
-0.2571158250674E-01 -0.1205298255775E-01
-0.2719415199016E-01 -0.1234583817647E-01
-0.2870694380190E-01 -0.1264960744531E-01
-0.3024025658159E-01 -0.1296813070672E-01
-0.3178170848354E-01 -0.1330475280973E-01
-0.3331661123377E-01 -0.1366178476725E-01
-0.3482874745499E-01 -0.1404016552857E-01
-0.4002055008172E-04 -0.3496526627219E-03
-0.1382824486409E-03 -0.7058413350769E-03
-0.2917051427069E-03 -0.1068320533069E-02
-0.4972368016121E-03 -0.1436548673041E-02
-0.7520151665182E-03 -0.1809748679127E-02
-0.1053482677174E-02 -0.2186978988309E-02
-0.1399450223715E-02 -0.2567216613820E-02
-0.1788112715584E-02 -0.2949431979466E-02
-0.2218025365629E-02 -0.3332641824124E-02
-0.2688059921742E-02 -0.3715941829197E-02
-0.3197352194112E-02 -0.4098518656597E-02
-0.3745250426248E-02 -0.4479646546400E-02
-0.4331272644048E-02 -0.4858675565370E-02
-0.4955071799184E-02 -0.5235013353994E-02
-0.5616411194861E-02 -0.5608105527916E-02
-0.6315151237225E-02 -0.5977417877186E-02
-0.7051251748557E-02 -0.6342424107107E-02
-0.7824738169009E-02 -0.6702576100281E-02
-0.8635772619673E-02 -0.7057326503572E-02
-0.9484598725211E-02 -0.7406093864815E-02
-0.1037158575109E-01 -0.7748280355695E-02
-0.1129723295889E-01 -0.8083277131327E-02
-0.1226217210147E-01 -0.8410478425599E-02
-0.1326717174615E-01 -0.8729369464296E-02
-0.1431313327921E-01 -0.9039862798296E-02
-0.1540104074851E-01 -0.9342203105800E-02
-0.1653189284861E-01 -0.9636812421170E-02
-0.1770662394837E-01 -0.9924242996981E-02
-0.1892601819718E-01 -0.1020523230400E-01
-0.2019057133332E-01 -0.1048082557143E-01
-0.2150030181185E-01 -0.1075252260997E-01
-0.2285446937903E-01 -0.1102240924636E-01
-0.2425122660542E-01 -0.1129324774432E-01
-0.2568734317234E-01 -0.1156814863715E-01
-0.2715787444503E-01 -0.1185035508336E-01
-0.2865568243175E-01 -0.1214342979620E-01
-0.3017120829453E-01 -0.1245089647577E-01
-0.3169250784483E-01 -0.1277576638232E-01
-0.3320562053202E-01 -0.1312007534653E-01
-0.3469526553881E-01 -0.1348460387812E-01
-0.3617372220795E-04 -0.3357890012302E-03
-0.1305889300296E-03 -0.6777161751739E-03
-0.2803088573940E-03 -0.1025559012557E-02
-0.4824148119284E-03 -0.1378826698203E-02
-0.7341514105674E-03 -0.1736812511344E-02
-0.1033033092503E-02 -0.2098653977749E-02
-0.1376906912411E-02 -0.2463405071907E-02
-0.1763973108269E-02 -0.2830102876762E-02
-0.2192769504881E-02 -0.3197816144678E-02
-0.2662136348720E-02 -0.3565676905104E-02
-0.3171171240270E-02 -0.3932893911205E-02
-0.3719182962085E-02 -0.4298751964839E-02
-0.4305652274876E-02 -0.4662603280804E-02
-0.4930198791657E-02 -0.5023852322706E-02
-0.5592556811938E-02 -0.5381938960485E-02
-0.6292561522701E-02 -0.5736323016386E-02
-0.7030150080205E-02 -0.6086473905464E-02
-0.7805325959067E-02 -0.6431843418157E-02
-0.8618227928237E-02 -0.6771888707369E-02
-0.9469072125000E-02 -0.7106040266203E-02
-0.1035819329083E-01 -0.7433720482555E-02
-0.1128604581898E-01 -0.7754350496592E-02
-0.1225320264663E-01 -0.8067365602195E-02
-0.1326035522898E-01 -0.8372297448482E-02
-0.1430830365526E-01 -0.8669078533920E-02
-0.1539790427267E-01 -0.8957960733425E-02
-0.1652999843857E-01 -0.9239381187823E-02
-0.1770532877840E-01 -0.9513924720465E-02
-0.1892444862764E-01 -0.9782376933446E-02
-0.2018758144753E-01 -0.1004583502546E-01
-0.2149443470605E-01 -0.1030583630804E-01
-0.2284392977068E-01 -0.1056446708711E-01
-0.2423387691270E-01 -0.1082442860328E-01
-0.2566073998182E-01 -0.1108872684493E-01
-0.2711936189235E-01 -0.1136045927181E-01
-0.2860255053525E-01 -0.1164295775280E-01
-0.3010091412143E-01 -0.1193945585344E-01
-0.3160293428835E-01 -0.1225266737768E-01
-0.3309532408331E-01 -0.1258438663140E-01
-0.3456365263342E-01 -0.1293525425307E-01
-0.3256428638423E-04 -0.3219506424886E-03
-0.1233711150024E-03 -0.6496583252906E-03
-0.2696131021642E-03 -0.9829207870543E-03
-0.4684919405133E-03 -0.1321292750851E-02
-0.7173503494417E-03 -0.1664131377952E-02
-0.1013770891326E-02 -0.2010647149684E-02
-0.1355637363923E-02 -0.2359966490083E-02
-0.1741159089675E-02 -0.2711190888928E-02
-0.2168861942268E-02 -0.3063441115871E-02
-0.2637560505016E-02 -0.3415887382538E-02
-0.3146319528688E-02 -0.3767763610963E-02
-0.3694412732804E-02 -0.4118368934067E-02
-0.4281286863757E-02 -0.4467061757496E-02
-0.4906530299113E-02 -0.4813247418838E-02
-0.5569849380937E-02 -0.5156363961832E-02
-0.6271054188242E-02 -0.5495868972194E-02
-0.7010058509959E-02 -0.5831231101508E-02
-0.7786842461172E-02 -0.6161905355766E-02
-0.8601519479013E-02 -0.6487356460560E-02
-0.9454275774626E-02 -0.6807029613090E-02
-0.1034540880078E-01 -0.7120369771389E-02
-0.1127532515376E-01 -0.7426829860420E-02
-0.1224453606077E-01 -0.7725887269976E-02
-0.1325365330682E-01 -0.8017120146121E-02
-0.1430337398297E-01 -0.8300480172576E-02
-0.1539442613444E-01 -0.8576224417650E-02
-0.1652749477558E-01 -0.8844801204906E-02
-0.1770313434278E-01 -0.9106821389375E-02
-0.1892167489836E-01 -0.9363109032716E-02
-0.2018308092940E-01 -0.9614800417674E-02
-0.2148676980870E-01 -0.9863454910422E-02
-0.2283135435568E-01 -0.1011114298193E-01
-0.2421434134444E-01 -0.1036049059037E-01
-0.2563193434461E-01 -0.1061438986681E-01
-0.2707881050695E-01 -0.1087579183132E-01
-0.2854776167251E-01 -0.1114780950543E-01
-0.3002958033622E-01 -0.1143341074583E-01
-0.3151315953683E-01 -0.1173504325519E-01
-0.3298583626686E-01 -0.1205428810160E-01
-0.3443395291773E-01 -0.1239166166282E-01
-0.2918203728289E-04 -0.3081341945781E-03
-0.1166085080001E-03 -0.6216594919193E-03
-0.2595884310670E-03 -0.9403916017747E-03
-0.4554322579502E-03 -0.1263926391341E-02
-0.7015725418936E-03 -0.1591679395721E-02
-0.9956559302034E-03 -0.1922928729557E-02
-0.1335602895465E-02 -0.2256869229781E-02
-0.1719634738376E-02 -0.2592664642622E-02
-0.2146269975554E-02 -0.2929487562289E-02
-0.2614302683796E-02 -0.3266547843650E-02
-0.3122769653392E-02 -0.3603107219853E-02
-0.3670913665696E-02 -0.3938482504765E-02
-0.4258150585854E-02 -0.4272041972076E-02
-0.4884039649782E-02 -0.4603195578411E-02
-0.5548260349417E-02 -0.4931383201397E-02
-0.6250597874139E-02 -0.5256063686311E-02
-0.6990942085911E-02 -0.5576708213517E-02
-0.7769248521000E-02 -0.5892778057251E-02
-0.8585603517094E-02 -0.6203748290847E-02
-0.9440161178337E-02 -0.6509081234303E-02
-0.1033317921785E-01 -0.6808246374176E-02
-0.1126501388855E-01 -0.7100729766591E-02
-0.1223611228010E-01 -0.7386051426102E-02
-0.1324700451724E-01 -0.7663835523856E-02
-0.1429828366418E-01 -0.7934051609180E-02
-0.1539054966323E-01 -0.8196959410142E-02
-0.1652433311616E-01 -0.8453014081406E-02
-0.1770000485034E-01 -0.8702845769479E-02
-0.1891768017423E-01 -0.8947307517797E-02
-0.2017707857626E-01 -0.9187562581816E-02
-0.2147734819894E-01 -0.9425178434923E-02
-0.2281682191938E-01 -0.9662195637109E-02
-0.2419273890372E-01 -0.9901153355833E-02
-0.2560108310464E-01 -0.1014482334944E-01
-0.2703640595845E-01 -0.1039601151891E-01
-0.2849151409369E-01 -0.1065762431974E-01
-0.2995739583698E-01 -0.1093238621451E-01
-0.3142333962047E-01 -0.1122250605518E-01
-0.3287726076522E-01 -0.1152937561262E-01
-0.3430620651825E-01 -0.1185340010400E-01
-0.2601775989584E-04 -0.2943366283607E-03
-0.1102826165841E-03 -0.5937122330397E-03
-0.2502081956839E-03 -0.8979585980858E-03
-0.4432030394646E-03 -0.1206709054536E-02
-0.6867817275012E-03 -0.1519432844279E-02
-0.9786508635995E-03 -0.1835471126479E-02
-0.1316767016202E-02 -0.2154083577539E-02
-0.1699365639698E-02 -0.2474494194821E-02
-0.2124961758630E-02 -0.2795927079077E-02
-0.2592333488772E-02 -0.3117632888871E-02
-0.3100494109868E-02 -0.3438903431569E-02
-0.3648659321551E-02 -0.3759076166059E-02
-0.4236217113734E-02 -0.4077532558314E-02
-0.4862699651746E-02 -0.4393690620730E-02
-0.5527760734346E-02 -0.4706995454483E-02
-0.6231160979926E-02 -0.5016910411772E-02
-0.6972765903652E-02 -0.5322912247978E-02
-0.7752505420525E-02 -0.5624471297228E-02
-0.8570437217887E-02 -0.5921075465784E-02
-0.9426681375391E-02 -0.6212206286494E-02
-0.1032145373394E-01 -0.6497359360409E-02
-0.1125505804045E-01 -0.6776054805101E-02
-0.1222787528148E-01 -0.7047855336543E-02
-0.1324035248248E-01 -0.7312430209077E-02
-0.1429297828894E-01 -0.7569765055816E-02
-0.1538622547392E-01 -0.7820119318338E-02
-0.1652047298327E-01 -0.8063950343052E-02
-0.1769591347382E-01 -0.8301900779559E-02
-0.1891245676860E-01 -0.8534843510845E-02
-0.2016959172820E-01 -0.8763957517084E-02
-0.2146621782286E-01 -0.8990805912689E-02
-0.2280041517468E-01 -0.9217387329880E-02
-0.2416918834011E-01 -0.9446145020897E-02
-0.2556833780825E-01 -0.9679726130051E-02
-0.2699232354203E-01 -0.9920794262691E-02
-0.2843399178152E-01 -0.1017206150407E-01
-0.2988453380801E-01 -0.1043602919279E-01
-0.3133361656044E-01 -0.1071469105913E-01
-0.3276969171776E-01 -0.1100926993658E-01
-0.3418045004991E-01 -0.1132007082030E-01
-0.2306314233518E-04 -0.2805552113579E-03
-0.1043767742516E-03 -0.5658098046328E-03
-0.2414483124163E-03 -0.8556100659508E-03
-0.4317745328087E-03 -0.1149623724716E-02
-0.6729446490493E-03 -0.1447369800206E-02
-0.9627210544427E-03 -0.1748248571285E-02
-0.1299095434246E-02 -0.2051581426197E-02
-0.1680318977429E-02 -0.2356650782138E-02
-0.2104906456118E-02 -0.2662731858462E-02
-0.2571624028754E-02 -0.2969117037328E-02
-0.3079465510913E-02 -0.3275130133670E-02
-0.3627623119451E-02 -0.3580131861656E-02
-0.4215459844510E-02 -0.3883519865593E-02
-0.4842482819929E-02 -0.4184723343684E-02
-0.5508321348623E-02 -0.4483195733814E-02
-0.6212711890530E-02 -0.4778407885085E-02
-0.6955495331176E-02 -0.5069844921111E-02
-0.7736575098935E-02 -0.5356988764331E-02
-0.8555978898656E-02 -0.5639342354232E-02
-0.9413791133656E-02 -0.5916408211982E-02
-0.1031018395915E-01 -0.6187709291724E-02
-0.1124540683410E-01 -0.6452800324964E-02
-0.1221977312776E-01 -0.6711286407826E-02
-0.1323364585501E-01 -0.6962880538158E-02
-0.1428740944534E-01 -0.7207582277027E-02
-0.1538141110035E-01 -0.7445647525950E-02
-0.1651588158315E-01 -0.7677531016234E-02
-0.1769084151890E-01 -0.7903881188057E-02
-0.1890600505753E-01 -0.8125582061696E-02
-0.2016064496362E-01 -0.8343818005824E-02
-0.2145343207015E-01 -0.8560136739035E-02
-0.2278221939444E-01 -0.8776484817353E-02
-0.2414380707666E-01 -0.8995202497375E-02
-0.2553384418184E-01 -0.9218809895966E-02
-0.2694672838991E-01 -0.9449832209408E-02
-0.2837536539048E-01 -0.9690799013456E-02
-0.2981115311153E-01 -0.9944006864054E-02
-0.3124411973072E-01 -0.1021125506905E-01
-0.3266321462721E-01 -0.1049361489162E-01
-0.3405671693366E-01 -0.1079130017836E-01
-0.2031070437055E-04 -0.2667874509640E-03
-0.9887599404189E-04 -0.5379460266102E-03
-0.2332870676877E-03 -0.8133352238610E-03
-0.4211197600037E-03 -0.1092654639688E-02
-0.6600308956002E-03 -0.1375469792762E-02
-0.9478344883596E-03 -0.1661236759365E-02
-0.1282556051648E-02 -0.1949335937354E-02
-0.1662463602242E-02 -0.2239106524760E-02
-0.2086074368450E-02 -0.2529874444073E-02
-0.2552146080438E-02 -0.2820974529592E-02
-0.3059656770924E-02 -0.3111764250215E-02
-0.3607778531107E-02 -0.3401629861586E-02
-0.4195852097500E-02 -0.3689987850108E-02
-0.4823361573888E-02 -0.3976281427958E-02
-0.5489912997734E-02 -0.4259975204429E-02
-0.6195219170956E-02 -0.4540550253763E-02
-0.6939096199998E-02 -0.4817502604986E-02
-0.7721420336842E-02 -0.5090328035361E-02
-0.8542188190106E-02 -0.5358546440842E-02
-0.9401447099876E-02 -0.5621682808109E-02
-0.1029932403850E-01 -0.5879288362123E-02
-0.1123601276825E-01 -0.6130952661668E-02
-0.1221175796270E-01 -0.6376322516690E-02
-0.1322683821392E-01 -0.6615152999234E-02
-0.1428153448567E-01 -0.6847455149003E-02
-0.1537607059719E-01 -0.7073477859248E-02
-0.1651053321090E-01 -0.7293668373132E-02
-0.1768477761295E-01 -0.7508674382912E-02
-0.1889833245483E-01 -0.7719382856944E-02
-0.2015026890363E-01 -0.7926974144506E-02
-0.2143904850469E-01 -0.8132970885922E-02
-0.2276232122411E-01 -0.8339259088538E-02
-0.2411671030439E-01 -0.8548070669395E-02
-0.2549774170689E-01 -0.8761797756676E-02
-0.2689977564870E-01 -0.8982831744228E-02
-0.2831579298358E-01 -0.9213531061720E-02
-0.2973739933118E-01 -0.9456004030991E-02
-0.3115496681357E-01 -0.9711873618367E-02
-0.3255790688230E-01 -0.9982074354933E-02
-0.3393503732640E-01 -0.1026673640950E-01
-0.1775373979108E-04 -0.2530310468521E-03
-0.9376685025203E-04 -0.5101151733255E-03
-0.2257049600523E-03 -0.7711240424157E-03
-0.4112143563728E-03 -0.1035787058153E-02
-0.6480127760215E-03 -0.1303713540642E-02
-0.9339617081733E-03 -0.1574412590290E-02
-0.1267118970191E-02 -0.1847321316223E-02
-0.1645770104783E-02 -0.2121834260959E-02
-0.2068437059447E-02 -0.2397327638967E-02
-0.2533872254795E-02 -0.2673179313595E-02
-0.3041041296759E-02 -0.2948781803613E-02
-0.3589099285261E-02 -0.3223548895356E-02
-0.4177367324883E-02 -0.3496918275008E-02
-0.4805308450290E-02 -0.3768349702142E-02
-0.5472506691232E-02 -0.4037321515059E-02
-0.6178651774311E-02 -0.4303327478895E-02
-0.6923535006539E-02 -0.4565876809628E-02
-0.7707004946322E-02 -0.4824481148260E-02
-0.8529026208221E-02 -0.5078679003642E-02
-0.9389607943804E-02 -0.5328019024873E-02
-0.1028883075567E-01 -0.5572081331887E-02
-0.1122683166298E-01 -0.5810490223145E-02
-0.1220378598147E-01 -0.6042933261636E-02
-0.1321988793470E-01 -0.6269205657848E-02
-0.1427531626896E-01 -0.6489327259590E-02
-0.1537017412839E-01 -0.6703536349097E-02
-0.1650440866337E-01 -0.6912267825554E-02
-0.1767771693379E-01 -0.7116162343875E-02
-0.1888945247276E-01 -0.7316102191097E-02
-0.2013849915759E-01 -0.7513255209556E-02
-0.2142312779458E-01 -0.7709110543746E-02
-0.2274080774338E-01 -0.7905486668961E-02
-0.2408801035202E-01 -0.8104503281765E-02
-0.2546016346291E-01 -0.8308424699789E-02
-0.2685161088567E-01 -0.8519513576704E-02
-0.2825542095254E-01 -0.8739967961929E-02
-0.2966340599258E-01 -0.8971722840481E-02
-0.3106626500541E-01 -0.9216240644787E-02
-0.3245383866998E-01 -0.9474331859829E-02
-0.3381543857959E-01 -0.9746049079099E-02
-0.1538627026166E-04 -0.2392838489331E-03
-0.8903738224503E-04 -0.4823118731196E-03
-0.2186845694766E-03 -0.7289670770225E-03
-0.4020364338490E-03 -0.9790070301124E-03
-0.6368652068144E-03 -0.1232082677451E-02
-0.9210757488668E-03 -0.1487753873176E-02
-0.1252756483592E-02 -0.1745512521824E-02
-0.1630210863467E-02 -0.2004807281249E-02
-0.2051967450347E-02 -0.2265064274299E-02
-0.2516776124888E-02 -0.2525704850162E-02
-0.3023593137382E-02 -0.2786157753554E-02
-0.3571559529595E-02 -0.3045866017944E-02
-0.4159979279178E-02 -0.3304290596906E-02
-0.4788296271557E-02 -0.3560910044892E-02
-0.5456073809517E-02 -0.3815218713812E-02
-0.6162979204006E-02 -0.4066725265320E-02
-0.6908779066404E-02 -0.4314954131726E-02
-0.7693293912575E-02 -0.4559434576025E-02
-0.8516455676655E-02 -0.4799725121959E-02
-0.9378234452250E-02 -0.5035399017057E-02
-0.1027866358690E-01 -0.5266065634611E-02
-0.1121782265828E-01 -0.5491383661646E-02
-0.1219581735568E-01 -0.5711080206929E-02
-0.1321275801955E-01 -0.5924988475231E-02
-0.1426872287361E-01 -0.6133134294806E-02
-0.1536369754050E-01 -0.6335741667725E-02
-0.1649749465716E-01 -0.6533228377855E-02
-0.1766966046954E-01 -0.6726222057662E-02
-0.1887938384295E-01 -0.6915593268881E-02
-0.2012537535593E-01 -0.7102489753885E-02
-0.2140573274575E-01 -0.7288359911597E-02
-0.2271776562374E-01 -0.7474949014662E-02
-0.2405781610733E-01 -0.7664261881323E-02
-0.2542123593204E-01 -0.7858436077919E-02
-0.2680237032509E-01 -0.8059610833342E-02
-0.2819438461622E-01 -0.8269833927639E-02
-0.2958929532688E-01 -0.8490880392183E-02
-0.3097811167569E-01 -0.8724065949790E-02
-0.3235107328728E-01 -0.8970087883841E-02
-0.3369794504661E-01 -0.9228926155043E-02
-0.1320300962689E-04 -0.2255438215830E-03
-0.8467701948896E-04 -0.4545310247247E-03
-0.2122104549506E-03 -0.6868553308644E-03
-0.3935664738508E-03 -0.9223012119197E-03
-0.6265656252700E-03 -0.1160559535561E-02
-0.9091520904809E-03 -0.1401239103139E-02
-0.1239443079905E-02 -0.1643885060812E-02
-0.1615760096528E-02 -0.1887999160090E-02
-0.2036639914804E-02 -0.2133057092402E-02
-0.2500832353885E-02 -0.2378524053826E-02
-0.3007287134688E-02 -0.2623865996469E-02
-0.3555133995614E-02 -0.2868556665820E-02
-0.4143662185402E-02 -0.3112082075718E-02
-0.4772298320282E-02 -0.3353941546899E-02
-0.5440586276493E-02 -0.3593647462704E-02
-0.6148171680820E-02 -0.3830725331746E-02
-0.6894796671462E-02 -0.4064716585872E-02
-0.7680253535381E-02 -0.4295169626871E-02
-0.8504441045216E-02 -0.4521664154949E-02
-0.9367289615193E-02 -0.4743798711545E-02
-0.1026878474290E-01 -0.4961212043696E-02
-0.1120894819762E-01 -0.5173596648473E-02
-0.1218781614197E-01 -0.5380717771492E-02
-0.1320541591274E-01 -0.5582444311722E-02
-0.1426172730137E-01 -0.5778805148928E-02
-0.1535662193960E-01 -0.5970006326291E-02
-0.1648978327020E-01 -0.6156443878145E-02
-0.1766061432995E-01 -0.6338726771919E-02
-0.1886814972392E-01 -0.6517707393972E-02
-0.2011094030873E-01 -0.6694506649609E-02
-0.2138692749755E-01 -0.6870526010611E-02
-0.2269328047363E-01 -0.7047433026162E-02
-0.2402623263267E-01 -0.7227115993639E-02
-0.2538107898213E-01 -0.7411587457309E-02
-0.2675218123158E-01 -0.7602868636470E-02
-0.2813280893897E-01 -0.7802866470218E-02
-0.2951517915846E-01 -0.8013208034148E-02
-0.3089059520299E-01 -0.8235074427504E-02
-0.3224966772308E-01 -0.8469058995388E-02
-0.3358257826883E-01 -0.8715073032075E-02
-0.1119933728962E-04 -0.2118090120668E-03
-0.8067652436725E-04 -0.4267677221889E-03
-0.2062690749760E-03 -0.6447801300414E-03
-0.3857872426571E-03 -0.8656566948926E-03
-0.6170939195448E-03 -0.1089126941337E-02
-0.8981686190944E-03 -0.1314847242864E-02
-0.1227155442399E-02 -0.1542414776633E-02
-0.1602393904164E-02 -0.1771383570795E-02
-0.2022430357884E-02 -0.2001278599809E-02
-0.2486016803355E-02 -0.2231609190127E-02
-0.2992099052787E-02 -0.2461879308261E-02
-0.3539798141336E-02 -0.2691594643283E-02
-0.4128390890924E-02 -0.2920267801800E-02
-0.4757288491218E-02 -0.3147420576685E-02
-0.5426016709404E-02 -0.3372585141650E-02
-0.6134200286384E-02 -0.3595305554585E-02
-0.6881557222215E-02 -0.3815141792083E-02
-0.7667851544514E-02 -0.4031662681132E-02
-0.8492948581001E-02 -0.4244470034968E-02
-0.9356738683479E-02 -0.4453188164875E-02
-0.1025915918203E-01 -0.4657485101514E-02
-0.1120017398354E-01 -0.4857086380569E-02
-0.1217975016529E-01 -0.5051793815404E-02
-0.1319783329621E-01 -0.5241509590122E-02
-0.1425430717047E-01 -0.5426262653803E-02
-0.1534893327109E-01 -0.5606237448808E-02
-0.1648127140460E-01 -0.5781803802629E-02
-0.1765058910194E-01 -0.5953546741440E-02
-0.1885577697769E-01 -0.6122294615257E-02
-0.2009523925556E-01 -0.6289135564058E-02
-0.2136677682316E-01 -0.6455418920571E-02
-0.2266743628485E-01 -0.6622730991484E-02
-0.2399336085416E-01 -0.6792842748054E-02
-0.2533980586987E-01 -0.6967643940397E-02
-0.2670116224057E-01 -0.7149043178306E-02
-0.2807080912036E-01 -0.7338815298499E-02
-0.2944115960685E-01 -0.7538450151211E-02
-0.3080379560039E-01 -0.7749004767250E-02
-0.3214967303103E-01 -0.7970976454827E-02
-0.3346935696895E-01 -0.8204210992080E-02
-0.9371279845018E-05 -0.1980775226370E-03
-0.7702795131874E-04 -0.3990171881625E-03
-0.2008487294787E-03 -0.6027330120914E-03
-0.3786837286749E-03 -0.8090608515414E-03
-0.6084323765820E-03 -0.1017768030392E-02
-0.8881055986393E-03 -0.1228557524355E-02
-0.1215872453392E-02 -0.1441077657089E-02
-0.1590090306635E-02 -0.1654934115914E-02
-0.2009316285870E-02 -0.1869700932658E-02
-0.2472306629298E-02 -0.2084931782731E-02
-0.2978005693617E-02 -0.2300169295246E-02
-0.3525528279991E-02 -0.2514952116364E-02
-0.4114141001459E-02 -0.2728820730807E-02
-0.4743241429524E-02 -0.2941320854715E-02
-0.5412338554730E-02 -0.3152005961387E-02
-0.6121037092090E-02 -0.3360440121022E-02
-0.6869031344555E-02 -0.3566203172151E-02
-0.7656057198230E-02 -0.3768885435573E-02
-0.8481946441178E-02 -0.3968111565581E-02
-0.9346549206990E-02 -0.4163531921048E-02
-0.1024975460337E-01 -0.4354843542508E-02
-0.1119146891365E-01 -0.4541804072594E-02
-0.1217159088500E-01 -0.4724250201158E-02
-0.1318998587284E-01 -0.4902114920918E-02
-0.1424644440523E-01 -0.5075424255398E-02
-0.1534062190848E-01 -0.5244337477919E-02
-0.1647196027576E-01 -0.5409193957224E-02
-0.1763959925213E-01 -0.5570549880415E-02
-0.1884229551595E-01 -0.5729204274277E-02
-0.2007831920550E-01 -0.5886207341832E-02
-0.2134534553281E-01 -0.6042851939751E-02
-0.2264031498068E-01 -0.6200640482477E-02
-0.2395929733320E-01 -0.6361226496317E-02
-0.2529752328814E-01 -0.6526379526367E-02
-0.2664942368323E-01 -0.6697900873218E-02
-0.2800849113245E-01 -0.6877441325846E-02
-0.2936732970879E-01 -0.7066363077925E-02
-0.3071778506186E-01 -0.7265608291092E-02
-0.3205113464930E-01 -0.7475584960770E-02
-0.3335829703269E-01 -0.7696075821529E-02
-0.7715500322063E-05 -0.1843474856825E-03
-0.7372462097984E-04 -0.3712747142126E-03
-0.1959395214712E-03 -0.5607056259995E-03
-0.3722431000972E-03 -0.7525011974243E-03
-0.6005656470018E-03 -0.9464660814960E-03
-0.8789456535065E-03 -0.1142349270902E-02
-0.1205575201747E-02 -0.1339849662283E-02
-0.1578829279568E-02 -0.1538624177376E-02
-0.1997276868418E-02 -0.1738295741045E-02
-0.2459680367482E-02 -0.1938462539134E-02
-0.2964985000411E-02 -0.2138706364058E-02
-0.3512301696144E-02 -0.2338599626936E-02
-0.4100889004559E-02 -0.2537711740717E-02
-0.4730132656648E-02 -0.2735613552089E-02
-0.5399526211651E-02 -0.2931881103572E-02
-0.6108655275177E-02 -0.3126099711654E-02
-0.6857190992983E-02 -0.3317870177430E-02
-0.7644841367284E-02 -0.3506805180193E-02
-0.8471404730384E-02 -0.3692552752003E-02
-0.9336691056762E-02 -0.3874789400309E-02
-0.1024054142372E-01 -0.4053240744224E-02
-0.1118280500172E-01 -0.4227695472111E-02
-0.1216331324901E-01 -0.4398023371431E-02
-0.1318185314342E-01 -0.4564185735830E-02
-0.1423812492775E-01 -0.4726202689437E-02
-0.1533168225692E-01 -0.4884204870423E-02
-0.1646185493222E-01 -0.5038497161098E-02
-0.1762766257915E-01 -0.5189602392347E-02
-0.1882773771563E-01 -0.5338285532282E-02
-0.2006022836340E-01 -0.5485554377137E-02
-0.2132269797282E-01 -0.5632641756143E-02
-0.2261199605701E-01 -0.5780964293954E-02
-0.2392413411248E-01 -0.5932058513121E-02
-0.2525433145481E-01 -0.6087576595123E-02
-0.2659706791202E-01 -0.6249217670998E-02
-0.2794595222110E-01 -0.6418515867164E-02
-0.2929377398513E-01 -0.6596714221269E-02
-0.3063262845898E-01 -0.6784648015698E-02
-0.3195409269750E-01 -0.6982641634417E-02
-0.3324941150920E-01 -0.7190416681622E-02
-0.6229294564146E-05 -0.1706170412459E-03
-0.7076110829114E-04 -0.3435356063662E-03
-0.1915333370193E-03 -0.5186896405422E-03
-0.3664546814147E-03 -0.6959652641733E-03
-0.5934807256457E-03 -0.8752043636625E-03
-0.8706737610121E-03 -0.1056201733011E-02
-0.1196246993494E-02 -0.1238706566157E-02
-0.1568592786140E-02 -0.1422426778906E-02
-0.1986292992747E-02 -0.1607034083914E-02
-0.2448118007659E-02 -0.1792171285117E-02
-0.2953016148351E-02 -0.1977459698792E-02
-0.3500096748377E-02 -0.2162506112914E-02
-0.4088612379582E-02 -0.2346909694125E-02
-0.4717938682775E-02 -0.2530267393844E-02
-0.5387555142066E-02 -0.2712178864718E-02
-0.6097029221129E-02 -0.2892251685816E-02
-0.6846009539723E-02 -0.3070108517533E-02
-0.7634176604333E-02 -0.3245385073215E-02
-0.8461295543087E-02 -0.3417753125840E-02
-0.9327136432024E-02 -0.3586915276980E-02
-0.1023149274017E-01 -0.3752625160575E-02
-0.1117415728630E-01 -0.3914701348555E-02
-0.1215489553892E-01 -0.4073044890638E-02
-0.1317341818028E-01 -0.4227642873888E-02
-0.1422933835501E-01 -0.4378506597668E-02
-0.1532211237357E-01 -0.4525734721897E-02
-0.1645096380692E-01 -0.4669593849539E-02
-0.1761479971380E-01 -0.4810569313210E-02
-0.1881213789866E-01 -0.4949387810159E-02
-0.2004101563308E-01 -0.5087010906273E-02
-0.2129889760674E-01 -0.5224608554760E-02
-0.2258255629922E-01 -0.5363510342945E-02
-0.2388795861793E-01 -0.5505136686278E-02
-0.2521032422533E-01 -0.5651025411588E-02
-0.2654418961186E-01 -0.5802778417519E-02
-0.2788328135948E-01 -0.5961819903466E-02
-0.2922056894191E-01 -0.6129281264065E-02
-0.3054838377476E-01 -0.6305897803574E-02
-0.3185858223224E-01 -0.6491915100290E-02
-0.3314271060402E-01 -0.6686995082055E-02
-0.4910594467377E-05 -0.1568843162725E-03
-0.6813324390343E-04 -0.3157951341847E-03
-0.1876238425229E-03 -0.4766766579801E-03
-0.3613099476568E-03 -0.6394404794315E-03
-0.5871669467278E-03 -0.8039659910889E-03
-0.8632772529093E-03 -0.9700939322126E-03
-0.1187873365005E-02 -0.1137623804844E-02
-0.1559364805783E-02 -0.1306314453252E-02
-0.1976347309608E-02 -0.1475886325985E-02
-0.2437601056380E-02 -0.1646026898032E-02
-0.2942079622033E-02 -0.1816397233573E-02
-0.3488892957990E-02 -0.1986638920420E-02
-0.4077289693476E-02 -0.2156381488974E-02
-0.4706637105090E-02 -0.2325248747026E-02
-0.5376401966406E-02 -0.2492864780906E-02
-0.6086134611762E-02 -0.2658860243191E-02
-0.6835461849274E-02 -0.2822880360019E-02
-0.7624037198535E-02 -0.2984584380805E-02
-0.8451592991067E-02 -0.3143668027084E-02
-0.9317859852687E-02 -0.3299859805666E-02
-0.1022258427920E-01 -0.3452940693126E-02
-0.1116550372780E-01 -0.3602757908410E-02
-0.1214631920742E-01 -0.3749241899530E-02
-0.1316466739897E-01 -0.3892403066480E-02
-0.1422007770218E-01 -0.4032241028750E-02
-0.1531191360492E-01 -0.4168819262260E-02
-0.1643929829823E-01 -0.4302362536083E-02
-0.1760103366271E-01 -0.4433314905742E-02
-0.1879553186799E-01 -0.4562361076644E-02
-0.2002073018577E-01 -0.4690413152093E-02
-0.2127400666328E-01 -0.4818575987660E-02
-0.2255206955692E-01 -0.4948091447562E-02
-0.2385085359741E-01 -0.5080265107180E-02
-0.2516558921071E-01 -0.5216523551182E-02
-0.2649087608106E-01 -0.5358376154171E-02
-0.2782055964042E-01 -0.5507143297457E-02
-0.2914778349338E-01 -0.5663851326439E-02
-0.3046510246106E-01 -0.5829141475632E-02
-0.3176463344447E-01 -0.6003184529364E-02
-0.3303820164215E-01 -0.6185583817654E-02
-0.3757977989645E-05 -0.1431474051452E-03
-0.6583812863819E-04 -0.2880484824409E-03
-0.1842064989030E-03 -0.4346581318191E-03
-0.3568025358897E-03 -0.5829140524545E-03
-0.5816159932270E-03 -0.7327337853044E-03
-0.8567458258417E-03 -0.8840045132976E-03
-0.1180442099011E-02 -0.1036576334114E-02
-0.1551131360082E-02 -0.1190259118474E-02
-0.1967424272038E-02 -0.1344822043109E-02
-0.2428112589666E-02 -0.1499997247408E-02
-0.2932157281192E-02 -0.1655485631060E-02
-0.3478671085309E-02 -0.1810963820362E-02
-0.4066900684056E-02 -0.1966092112155E-02
-0.4696206693650E-02 -0.2120521709989E-02
-0.5366044547183E-02 -0.2273901751913E-02
-0.6075948501064E-02 -0.2425886582617E-02
-0.6825524340696E-02 -0.2576144524533E-02
-0.7614399217872E-02 -0.2724358707689E-02
-0.8442273218811E-02 -0.2870248872501E-02
-0.9308838140329E-02 -0.3013569128258E-02
-0.1021379433554E-01 -0.3154127036395E-02
-0.1115682509785E-01 -0.3291797176462E-02
-0.1213756871163E-01 -0.3426537527048E-02
-0.1315559033141E-01 -0.3558379370309E-02
-0.1421033909484E-01 -0.3687307877849E-02
-0.1530109024277E-01 -0.3813348281943E-02
-0.1642687238105E-01 -0.3936680199381E-02
-0.1758638939433E-01 -0.4057702976191E-02
-0.1877795649698E-01 -0.4177056061465E-02
-0.1999942108924E-01 -0.4295599401565E-02
-0.2124808584554E-01 -0.4414371090947E-02
-0.2252060657141E-01 -0.4534525071404E-02
-0.2381289709354E-01 -0.4657253647794E-02
-0.2512020790302E-01 -0.4783875332523E-02
-0.2643720749023E-01 -0.4915811442494E-02
-0.2775786062233E-01 -0.5054284048610E-02
-0.2907547932753E-01 -0.5200220177820E-02
-0.3038282974527E-01 -0.5354171982908E-02
-0.3167227182783E-01 -0.5516238747624E-02
-0.3293588903191E-01 -0.5685965975458E-02
-0.2770686050703E-05 -0.1294043514536E-03
-0.6387416121119E-04 -0.2602907062217E-03
-0.1812785929708E-03 -0.3926252913199E-03
-0.3529282743513E-03 -0.5263728711927E-03
-0.5768219211462E-03 -0.6614901549558E-03
-0.8510715618316E-03 -0.7979116215357E-03
-0.1173943245207E-02 -0.9355385199650E-03
-0.1543880538441E-02 -0.1074231996065E-02
-0.1959510170375E-02 -0.1213809978492E-02
-0.2419637299888E-02 -0.1354049195873E-02
-0.2923232419832E-02 -0.1494690331257E-02
-0.3469413199494E-02 -0.1635445106025E-02
-0.4057426337372E-02 -0.1776004785582E-02
-0.4686627472103E-02 -0.1916048306420E-02
-0.5356462068130E-02 -0.2055250282998E-02
-0.6066449387294E-02 -0.2193289192041E-02
-0.6816175046732E-02 -0.2329856821879E-02
-0.7605240548938E-02 -0.2464660386628E-02
-0.8433314417185E-02 -0.2597443596676E-02
-0.9300050398714E-02 -0.2727985767119E-02
-0.1020510371252E-01 -0.2856120222502E-02
-0.1114810487298E-01 -0.2981747589246E-02
-0.1212863135519E-01 -0.3104851527036E-02
-0.1314617941395E-01 -0.3225481838140E-02
-0.1420012150461E-01 -0.3343606577862E-02
-0.1528964921398E-01 -0.3459209825223E-02
-0.1641370226389E-01 -0.3572422955517E-02
-0.1757089348404E-01 -0.3683597498568E-02
-0.1875944939068E-01 -0.3793324802792E-02
-0.1997713701877E-01 -0.3902410449608E-02
-0.2122119412726E-01 -0.4011824604950E-02
-0.2248823488840E-01 -0.4122633511799E-02
-0.2377416249276E-01 -0.4235918024060E-02
-0.2507425586225E-01 -0.4352891778842E-02
-0.2638325718692E-01 -0.4474892258217E-02
-0.2769525071147E-01 -0.4603048156813E-02
-0.2900371131230E-01 -0.4738192096351E-02
-0.3030160500000E-01 -0.4880791264455E-02
-0.3158151844778E-01 -0.5030876068266E-02
-0.3283577437279E-01 -0.5187934701371E-02
-0.1948646448920E-05 -0.1156531290163E-03
-0.6224107892288E-04 -0.2325166814478E-03
-0.1788392846666E-03 -0.3505690552403E-03
-0.3496852264093E-03 -0.4698033804439E-03
-0.5727811940170E-03 -0.5902169466638E-03
-0.8462489522530E-03 -0.7117927388509E-03
-0.1168369136982E-02 -0.8344839734358E-03
-0.1537602513114E-02 -0.9582034554347E-03
-0.1952593151161E-02 -0.1082817904042E-02
-0.2412161522498E-02 -0.1208148480540E-02
-0.2915289802408E-02 -0.1333975452903E-02
-0.3461102723481E-02 -0.1460045512381E-02
-0.4048848938861E-02 -0.1586080900425E-02
-0.4677880771179E-02 -0.1711788431431E-02
-0.5347635085283E-02 -0.1836868440189E-02
-0.6057617256330E-02 -0.1961023810944E-02
-0.6807393643691E-02 -0.2083970022026E-02
-0.7596540907235E-02 -0.2205438450714E-02
-0.8424696807729E-02 -0.2325196627187E-02
-0.9291477965494E-02 -0.2443048601130E-02
-0.1019649563474E-01 -0.2558852594968E-02
-0.1113932910259E-01 -0.2672533961737E-02
-0.1211949710724E-01 -0.2784100230570E-02
-0.1313642975584E-01 -0.2893617446426E-02
-0.1418942646919E-01 -0.3001033988398E-02
-0.1527759975918E-01 -0.3106290022725E-02
-0.1639980603923E-01 -0.3209465812362E-02
-0.1755457375511E-01 -0.3310862266216E-02
-0.1874004854177E-01 -0.3411020170334E-02
-0.1995392595612E-01 -0.3510688970125E-02
-0.2119338852174E-01 -0.3610770175807E-02
-0.2245501871780E-01 -0.3712242924932E-02
-0.2373471848453E-01 -0.3816078650913E-02
-0.2502780276706E-01 -0.3923389323088E-02
-0.2632909181200E-01 -0.4035432577357E-02
-0.2763278930487E-01 -0.4153248123437E-02
-0.2893252762047E-01 -0.4277578309656E-02
-0.3022146180449E-01 -0.4408808629019E-02
-0.3149238988886E-01 -0.4546902584993E-02
-0.3273785623045E-01 -0.4691291357925E-02
-0.1292505476160E-05 -0.1018916242578E-03
-0.6094001316603E-04 -0.2047210614715E-03
-0.1768896734117E-03 -0.3084799600962E-03
-0.3470737542145E-03 -0.4131914876209E-03
-0.5694927345748E-03 -0.5188953416377E-03
-0.8422749348613E-03 -0.6256245887214E-03
-0.1163714417105E-02 -0.7333854812617E-03
-0.1532289560277E-02 -0.8421429847600E-03
-0.1946663240771E-02 -0.9518126414911E-03
-0.2405673267721E-02 -0.1062259790279E-02
-0.2908315706362E-02 -0.1173303929618E-02
-0.3453724487384E-02 -0.1284726411947E-02
-0.4041152135358E-02 -0.1396280272747E-02
-0.4669949295453E-02 -0.1507700166997E-02
-0.5339545593607E-02 -0.1618712225914E-02
-0.6049433642653E-02 -0.1729043866955E-02
-0.6799161500886E-02 -0.1838434352780E-02
-0.7588281868950E-02 -0.1946639195109E-02
-0.8416402650512E-02 -0.2053449510029E-02
-0.9283104389949E-02 -0.2158693554563E-02
-0.1018795568995E-01 -0.2262253559498E-02
-0.1113048631019E-01 -0.2364078296719E-02
-0.1211015846037E-01 -0.2464197408249E-02
-0.1312633895410E-01 -0.2562691002061E-02
-0.1417825786860E-01 -0.2659485335471E-02
-0.1526495318005E-01 -0.2754474049312E-02
-0.1638520341717E-01 -0.2847683627832E-02
-0.1753745902015E-01 -0.2939361830267E-02
-0.1871979210613E-01 -0.3029996763120E-02
-0.1992983502730E-01 -0.3120280354239E-02
-0.2116472400831E-01 -0.3211045120737E-02
-0.2242101896789E-01 -0.3303184013934E-02
-0.2369462921006E-01 -0.3397561260905E-02
-0.2498091266924E-01 -0.3495190377519E-02
-0.2627477163690E-01 -0.3597252928003E-02
-0.2757052917904E-01 -0.3704703521859E-02
-0.2886197014016E-01 -0.3818197615239E-02
-0.3014242835318E-01 -0.3938041434146E-02
-0.3140489863040E-01 -0.4064132883080E-02
-0.3264213042322E-01 -0.4195846217229E-02
-0.8036676699479E-06 -0.8811761633410E-04
-0.5997355954817E-04 -0.1768982245135E-03
-0.1754328815552E-03 -0.2663480690444E-03
-0.3450965971181E-03 -0.3565224365534E-03
-0.5669579850198E-03 -0.4475057058330E-03
-0.8391489312987E-03 -0.5393829778615E-03
-0.1159976055728E-02 -0.6322148533595E-03
-0.1527936066384E-02 -0.7260190545798E-03
-0.1941712348918E-02 -0.8207599474201E-03
-0.2400162228175E-02 -0.9163466731693E-03
-0.2902297937779E-02 -0.1012637437825E-02
-0.3447264752940E-02 -0.1109447759765E-02
-0.4034320966521E-02 -0.1206561101742E-02
-0.4662817158136E-02 -0.1303739749966E-02
-0.5332177060456E-02 -0.1400735553823E-02
-0.6041881656180E-02 -0.1497300455062E-02
-0.6791461695238E-02 -0.1593197481260E-02
-0.7580446867526E-02 -0.1688206158672E-02
-0.8408416216810E-02 -0.1782140888878E-02
-0.9274915376026E-02 -0.1874853570744E-02
-0.1017947173708E-01 -0.1966249547688E-02
-0.1112156736219E-01 -0.2056299732733E-02
-0.1210061025765E-01 -0.2145054194824E-02
-0.1311590687920E-01 -0.2232605034005E-02
-0.1416662167388E-01 -0.2318854058146E-02
-0.1525172255995E-01 -0.2403645911362E-02
-0.1636991543216E-01 -0.2486950821100E-02
-0.1751957879274E-01 -0.2568961116373E-02
-0.1869871814130E-01 -0.2650110412921E-02
-0.1990491029036E-01 -0.2731032083190E-02
-0.2113525338749E-01 -0.2812489657698E-02
-0.2238629317710E-01 -0.2895291110114E-02
-0.2365395426678E-01 -0.2980195841934E-02
-0.2493364405238E-01 -0.3068122143982E-02
-0.2622035064572E-01 -0.3160179099576E-02
-0.2750851656162E-01 -0.3257239639584E-02
-0.2879207451214E-01 -0.3359874988956E-02
-0.3006452745145E-01 -0.3468313674890E-02
-0.3131905298983E-01 -0.3582388578784E-02
-0.3254858985744E-01 -0.3701416885916E-02
-0.4843448103202E-06 -0.7432875670215E-04
-0.5934586515568E-04 -0.1490422209691E-03
-0.1744741586300E-03 -0.2241628831856E-03
-0.3437589696136E-03 -0.2997806899601E-03
-0.5651809818883E-03 -0.3760274594434E-03
-0.8368728929856E-03 -0.4530426718795E-03
-0.1157153371271E-02 -0.5309428217208E-03
-0.1524538533758E-02 -0.6097990517364E-03
-0.1937734269758E-02 -0.6896244882621E-03
-0.2395619784131E-02 -0.7703715539597E-03
-0.2897225845764E-02 -0.8519364553311E-03
-0.3441711238298E-02 -0.9341681906029E-03
-0.4028341898372E-02 -0.1016880103054E-02
-0.4656469919726E-02 -0.1099861739480E-02
-0.5325514464532E-02 -0.1182890448943E-02
-0.6034946016144E-02 -0.1265742569592E-02
-0.6784279034454E-02 -0.1348204776937E-02
-0.7573021200476E-02 -0.1430080417086E-02
-0.8400723773959E-02 -0.1511206826758E-02
-0.9266898739837E-02 -0.1591458959789E-02
-0.1017103383165E-01 -0.1670764387200E-02
-0.1111256535753E-01 -0.1749114931668E-02
-0.1209084954480E-01 -0.1826579487574E-02
-0.1310513549141E-01 -0.1903260194128E-02
-0.1415452573304E-01 -0.1979032201796E-02
-0.1523792252987E-01 -0.2053688820620E-02
-0.1635396420437E-01 -0.2127141713564E-02
-0.1750096306415E-01 -0.2199525718048E-02
-0.1867686442116E-01 -0.2271218414798E-02
-0.1987919660996E-01 -0.2342793882108E-02
-0.2110502723252E-01 -0.2414946971701E-02
-0.2235089554942E-01 -0.2488402147224E-02
-0.2361274882069E-01 -0.2563816523495E-02
-0.2488605000007E-01 -0.2642016426332E-02
-0.2616587672783E-01 -0.2724041905854E-02
-0.2744679131648E-01 -0.2810687226569E-02
-0.2872287029223E-01 -0.2902441361098E-02
-0.2998777667051E-01 -0.2999455818781E-02
-0.3123485729109E-01 -0.3101498192728E-02
-0.3245722465817E-01 -0.3207828138817E-02
-0.3376153594892E-06 -0.6052254692194E-04
-0.5906273469418E-04 -0.1211467166554E-03
-0.1740210076469E-03 -0.1819132476862E-03
-0.3430686785369E-03 -0.2429498087839E-03
-0.5641684434007E-03 -0.3044389493224E-03
-0.8354513516182E-03 -0.3665772833034E-03
-0.1155248049323E-02 -0.4295389628842E-03
-0.1522095579963E-02 -0.4934492482815E-03
-0.1934724674899E-02 -0.5583698608254E-03
-0.2392039000541E-02 -0.6242958065569E-03
-0.2893090329511E-02 -0.6911603836161E-03
-0.3437053136888E-02 -0.7588451882827E-03
-0.4023202852444E-02 -0.8271927227926E-03
-0.4650894623782E-02 -0.8960192741555E-03
-0.5319544333458E-02 -0.9651273472417E-03
-0.6028613085130E-02 -0.1034317445828E-02
-0.6777600082064E-02 -0.1103399695057E-02
-0.7565992040024E-02 -0.1172201007442E-02
-0.8393313576355E-02 -0.1240581270428E-02
-0.9259044376133E-02 -0.1308437900403E-02
-0.1016263416340E-01 -0.1375719837362E-02
-0.1110347553338E-01 -0.1442438643249E-02
-0.1208087544313E-01 -0.1508680533499E-02
-0.1309402868283E-01 -0.1574555859658E-02
-0.1414197958854E-01 -0.1639911027241E-02
-0.1522356907236E-01 -0.1704485800414E-02
-0.1633737274598E-01 -0.1768131121512E-02
-0.1748164213213E-01 -0.1830922464290E-02
-0.1865426830963E-01 -0.1893180057840E-02
-0.1985273759700E-01 -0.1955418202474E-02
-0.2107409390960E-01 -0.2018263639684E-02
-0.2231487705857E-01 -0.2082359023746E-02
-0.2357106378347E-01 -0.2148261878463E-02
-0.2483817842019E-01 -0.2216709882921E-02
-0.2611139191421E-01 -0.2288677408915E-02
-0.2738538715762E-01 -0.2364882722986E-02
-0.2865438112965E-01 -0.2445733898382E-02
-0.2991218852496E-01 -0.2531305198338E-02
-0.3115231210533E-01 -0.2621297653301E-02
-0.3236802243843E-01 -0.2714912435996E-02
-0.3674958677149E-06 -0.4669631161744E-04
-0.5913175764317E-04 -0.9320491989996E-04
-0.1740833345701E-03 -0.1395872267414E-03
-0.3430362582791E-03 -0.1860122840280E-03
-0.5639298649768E-03 -0.2327172571745E-03
-0.8348914669837E-03 -0.2799590772410E-03
-0.1154264149672E-02 -0.3279715164066E-03
-0.1520607918794E-02 -0.3769346392821E-03
-0.1932681083906E-02 -0.4269584480970E-03
-0.2389414598967E-02 -0.4780796215567E-03
-0.2889883818374E-02 -0.5302674188977E-03
-0.3433281107535E-02 -0.5834349522041E-03
-0.4018893204297E-02 -0.6374529925979E-03
-0.4646079800007E-02 -0.6921639101221E-03
-0.5314254746496E-02 -0.7473949121761E-03
-0.6022870866124E-02 -0.8029703512562E-03
-0.6771413143489E-02 -0.8587235389116E-03
-0.7559348403024E-02 -0.9145046575957E-03
-0.8386175814277E-02 -0.9701957421945E-03
-0.9251344181304E-02 -0.1025716088625E-02
-0.1015426694923E-01 -0.1081035188325E-02
-0.1109429512486E-01 -0.1136183247165E-02
-0.1207068897443E-01 -0.1191262406201E-02
-0.1308259206900E-01 -0.1246389536069E-02
-0.1412899424055E-01 -0.1301380330507E-02
-0.1520867926593E-01 -0.1355918912837E-02
-0.1632016470071E-01 -0.1409793480917E-02
-0.1746164635311E-01 -0.1463018431795E-02
-0.1863096654445E-01 -0.1515855514119E-02
-0.1982557544054E-01 -0.1568758976897E-02
-0.2104249946715E-01 -0.1622288240603E-02
-0.2227828539111E-01 -0.1677006059925E-02
-0.2352894578934E-01 -0.1733373223678E-02
-0.2479007202115E-01 -0.1792042175337E-02
-0.2605693230984E-01 -0.1853924928795E-02
-0.2732433149524E-01 -0.1919666151952E-02
-0.2858662450558E-01 -0.1989593828779E-02
-0.2983777015003E-01 -0.2063703854743E-02
-0.3107141399057E-01 -0.2141628200704E-02
-0.3228096811322E-01 -0.2222507765905E-02
-0.5790266114412E-06 -0.3284717010937E-04
-0.5956246104925E-04 -0.6520951085463E-04
-0.1746736270403E-03 -0.9717199167277E-04
-0.3436751308574E-03 -0.1289494035301E-03
-0.5644776309707E-03 -0.1608380765775E-03
-0.8352030827534E-03 -0.1931588904294E-03
-0.1154208116513E-02 -0.2262073691492E-03
-0.1520078343872E-02 -0.2602190042205E-03
-0.1931602840250E-02 -0.2953515604439E-03
-0.2387742939910E-02 -0.3316822248367E-03
-0.2887600268214E-02 -0.3692148442813E-03
-0.3430387286918E-02 -0.4078927600359E-03
-0.4015403810282E-02 -0.4476139615057E-03
-0.4642015501243E-02 -0.4882461222700E-03
-0.5309635376682E-02 -0.5296406065979E-03
-0.6017709044439E-02 -0.5716452298450E-03
-0.6765708302584E-02 -0.6141161780326E-03
-0.7553081177290E-02 -0.6569265791030E-03
-0.8379302625526E-02 -0.6999802073088E-03
-0.9243792046314E-02 -0.7432176780567E-03
-0.1014592840409E-01 -0.7866282711195E-03
-0.1108502331151E-01 -0.8302598287682E-03
-0.1206029298278E-01 -0.8742291422119E-03
-0.1307083288882E-01 -0.9186580486102E-03
-0.1411558203212E-01 -0.9633296842549E-03
-0.1519327116731E-01 -0.1007870545087E-02
-0.1630236424015E-01 -0.1052004174052E-02
-0.1744100607388E-01 -0.1095682307252E-02
-0.1860699522759E-01 -0.1139107231649E-02
-0.1979775097840E-01 -0.1182673036704E-02
-0.2101028780042E-01 -0.1226872790532E-02
-0.2224116520515E-01 -0.1272191443384E-02
-0.2348643753032E-01 -0.1318996072277E-02
-0.2474176868949E-01 -0.1367857431542E-02
-0.2600252847200E-01 -0.1419628530118E-02
-0.2726364577233E-01 -0.1474882645397E-02
-0.2851961199602E-01 -0.1533868050058E-02
-0.2976452353421E-01 -0.1596500362357E-02
-0.3099215589556E-01 -0.1662338570946E-02
-0.3219604459720E-01 -0.1730460072517E-02
-0.9783739468974E-06 -0.1897199973024E-04
-0.6036649085810E-04 -0.3715254421961E-04
-0.1758071626624E-03 -0.5465365902151E-04
-0.3450017859654E-03 -0.7174104402096E-04
-0.5658271313342E-03 -0.8877549037456E-04
-0.8363987725341E-03 -0.1061459232847E-03
-0.1155088768043E-02 -0.1242118790669E-03
-0.1520511685000E-02 -0.1432647653458E-03
-0.1931491056416E-02 -0.1635093209642E-03
-0.2387021972051E-02 -0.1850617775863E-03
-0.2886235122581E-02 -0.2079589318406E-03
-0.3428365264316E-02 -0.2321728612658E-03
-0.4012726993435E-02 -0.2576275730447E-03
-0.4638693295983E-02 -0.2842151592482E-03
-0.5305677484609E-02 -0.3118105215170E-03
-0.6013118977401E-02 -0.3402845011383E-03
-0.6760477402218E-02 -0.3695158141936E-03
-0.7547183088485E-02 -0.3994001961385E-03
-0.8372688044428E-02 -0.4298627608579E-03
-0.9236383783859E-02 -0.4608649186090E-03
-0.1013761664263E-01 -0.4924150410477E-03
-0.1107566109061E-01 -0.5245776991145E-03
-0.1204969197819E-01 -0.5574831894579E-03
-0.1305875981951E-01 -0.5912569113661E-03
-0.1410175644008E-01 -0.6256477204613E-03
-0.1517736358750E-01 -0.6602225999904E-03
-0.1628399583856E-01 -0.6946386231646E-03
-0.1741975142264E-01 -0.7287833801254E-03
-0.1858238965156E-01 -0.7627988218941E-03
-0.1976930357550E-01 -0.7970188879673E-03
-0.2097750059033E-01 -0.8318713979456E-03
-0.2220355812275E-01 -0.8677657515700E-03
-0.2344357777503E-01 -0.9049785111484E-03
-0.2469330148892E-01 -0.9440024724059E-03
-0.2594820533769E-01 -0.9856351033739E-03
-0.2720334527349E-01 -0.1030380378948E-02
-0.2845334890525E-01 -0.1078406916807E-02
-0.2969244497408E-01 -0.1129547616857E-02
-0.3091452671291E-01 -0.1183283103105E-02
-0.3211323282309E-01 -0.1238621622417E-02
-0.1572952936646E-05 -0.5067393421356E-05
-0.6155782840088E-04 -0.9025341302949E-05
-0.1775022542632E-03 -0.1201711893274E-04
-0.3470359877203E-03 -0.1436546574095E-04
-0.5679968897309E-03 -0.1650177535843E-04
-0.8384938845776E-03 -0.1888759320089E-04
-0.1156917278120E-02 -0.2194879855012E-04
-0.1521914756129E-02 -0.2603298461509E-04
-0.1932348554191E-02 -0.3139072791833E-04
-0.2387251182016E-02 -0.3817549186563E-04
-0.2885785279955E-02 -0.4645509990186E-04
-0.3427210067447E-02 -0.5622866807578E-04
-0.4010856544857E-02 -0.6744488504113E-04
-0.4636106280214E-02 -0.8001929018321E-04
-0.5302373935097E-02 -0.9384964927429E-04
-0.6009093710462E-02 -0.1088293599823E-03
-0.6755714055000E-02 -0.1248593075304E-03
-0.7541648701278E-02 -0.1418574969778E-03
-0.8366327989727E-02 -0.1597700022476E-03
-0.9229117099692E-02 -0.1785785501043E-03
-0.1012933163098E-01 -0.1983099850818E-03
-0.1106621120700E-01 -0.2190448098665E-03
-0.1203889204329E-01 -0.2409258231134E-03
-0.1304638286187E-01 -0.2640807381230E-03
-0.1408753194410E-01 -0.2882225318219E-03
-0.1516097595453E-01 -0.3128568853665E-03
-0.1626508414452E-01 -0.3375726672216E-03
-0.1739791220907E-01 -0.3621919076357E-03
-0.1855718425023E-01 -0.3867954137662E-03
-0.1974027114620E-01 -0.4116570529895E-03
-0.2094417741008E-01 -0.4371405861401E-03
-0.2216550291765E-01 -0.4635822427805E-03
-0.2340040161144E-01 -0.4911714454321E-03
-0.2464469890827E-01 -0.5203269974132E-03
-0.2589398241937E-01 -0.5517944980493E-03
-0.2714343923358E-01 -0.5860106580775E-03
-0.2838783422383E-01 -0.6230642045750E-03
-0.2962152476665E-01 -0.6627027653941E-03
-0.3083851098897E-01 -0.7043222614348E-03
-0.3203251233092E-01 -0.7468523565522E-03
-0.2371574628477E-05  0.8870392180989E-05
-0.6315304846641E-04  0.1918164012495E-04
-0.1797805366100E-03  0.3075416730834E-04
-0.3498010076702E-03  0.4320092175226E-04
-0.5710086974997E-03  0.5601280822979E-04
-0.8415065761076E-03  0.6865060699339E-04
-0.1159707139485E-02  0.8061977644583E-04
-0.1524296284063E-02  0.9151659686060E-04
-0.1934179789071E-02  0.1010462285500E-03
-0.2388431533018E-02  0.1090201915516E-03
-0.2886249054327E-02  0.1153418613435E-03
-0.3426918145160E-02  0.1199869797745E-03
-0.4009787724547E-02  0.1229836302597E-03
-0.4634249090732E-02  0.1243938608827E-03
-0.5299719217132E-02  0.1242977469584E-03
-0.6005627998420E-02  0.1227798176866E-03
-0.6751413661280E-02  0.1199173805688E-03
-0.7536474430436E-02  0.1157704862800E-03
-0.8360220265715E-02  0.1103724500681E-03
-0.9221991581046E-02  0.1037216515979E-03
-0.1012107515987E-01  0.9577330587052E-04
-0.1105667810865E-01  0.8643165466149E-04
-0.1202790077025E-01  0.7554224909170E-04
-0.1303371325938E-01  0.6297614461091E-04
-0.1407292393272E-01  0.4905771100176E-04
-0.1514412821575E-01  0.3434426516210E-04
-0.1624565389400E-01  0.1931681135127E-04
-0.1737551786793E-01  0.4220247792463E-05
-0.1853141259609E-01 -0.1096430723287E-04
-0.1971069022803E-01 -0.2645074271949E-04
-0.2091035589129E-01 -0.4253998057947E-04
-0.2212703577214E-01 -0.5949754414074E-04
-0.2335694076712E-01 -0.7742926729289E-04
-0.2459598518967E-01 -0.9668421326209E-04
-0.2583987406480E-01 -0.1179601033188E-03
-0.2708393100444E-01 -0.1416284971767E-03
-0.2832306069748E-01 -0.1676975511899E-03
-0.2955174686422E-01 -0.1958272530504E-03
-0.3076408820345E-01 -0.2253233463214E-03
-0.3195386188871E-01 -0.2550223658600E-03
-0.3384623754228E-05  0.2284550422194E-04
-0.6517162762925E-04  0.4747897873144E-04
-0.1826673008913E-03  0.7367844118786E-04
-0.3533238843425E-03  0.1009838874394E-03
-0.5748877476304E-03  0.1288003361507E-03
-0.8454578275084E-03  0.1565053751176E-03
-0.1163474096919E-02  0.1835336060790E-03
-0.1527666805075E-02  0.2094257057576E-03
-0.1936990744177E-02  0.2338446873386E-03
-0.2390565374757E-02  0.2565697257920E-03
-0.2887626107191E-02  0.2774779363865E-03
-0.3427487319732E-02  0.2965220007370E-03
-0.4009517228353E-02  0.3137083207922E-03
-0.4633117879941E-02  0.3290776042156E-03
-0.5297709419949E-02  0.3426884808824E-03
-0.6002718277161E-02  0.3546038842527E-03
-0.6747573372014E-02  0.3648796621107E-03
-0.7531658491252E-02  0.3735542221068E-03
-0.8354364497313E-02  0.3806405787139E-03
-0.9215008613668E-02  0.3861175781731E-03
-0.1011285074073E-01  0.3899229332910E-03
-0.1104706781863E-01  0.3919461768356E-03
-0.1201672710575E-01  0.3920218992910E-03
-0.1302076331497E-01  0.3900208316342E-03
-0.1405794849349E-01  0.3863060207546E-03
-0.1512684060737E-01  0.3814993829054E-03
-0.1622572967041E-01  0.3761534046462E-03
-0.1735259722587E-01  0.3705812579235E-03
-0.1850510719426E-01  0.3648267801104E-03
-0.1968059582454E-01  0.3587360058155E-03
-0.2087607163079E-01  0.3520696672725E-03
-0.2208819024764E-01  0.3446304545759E-03
-0.2331322360858E-01  0.3363924177119E-03
-0.2454718029780E-01  0.3270716249797E-03
-0.2578588929605E-01  0.3160138557963E-03
-0.2702481769509E-01  0.3029102468651E-03
-0.2825901446276E-01  0.2878345339109E-03
-0.2948308810765E-01  0.2712173891236E-03
-0.3069123049017E-01  0.2538440864089E-03
-0.3187725900727E-01  0.2369887530950E-03
-0.4624274343136E-05  0.3686257512137E-04
-0.6763631442848E-04  0.7587848435117E-04
-0.1861918868048E-03  0.1167759339501E-03
-0.3576357138041E-03  0.1590116832875E-03
-0.5796627698540E-03  0.2018954519176E-03
-0.8503714393862E-03  0.2447156969795E-03
-0.1168236060073E-02  0.2868342506435E-03
-0.1532038548902E-02  0.3277373402699E-03
-0.1940788824229E-02  0.3670486056779E-03
-0.2393656366817E-02  0.4045180566317E-03
-0.2889917405318E-02  0.4399994080355E-03
-0.3428916775769E-02  0.4734245265508E-03
-0.4010043201355E-02  0.5047797412171E-03
-0.4632710346441E-02  0.5340854986717E-03
-0.5296342274341E-02  0.5613796797859E-03
-0.6000362710469E-02  0.5867040741757E-03
-0.6744192137261E-02  0.6100933887936E-03
-0.7527200947184E-02  0.6315646554806E-03
-0.8348762175227E-02  0.6511108522117E-03
-0.9208171423230E-02  0.6686915842748E-03
-0.1010466364189E-01  0.6842274012840E-03
-0.1103738796432E-01  0.6975935366213E-03
-0.1200538137150E-01  0.7086141373893E-03
-0.1300754640263E-01  0.7171603289092E-03
-0.1404262241865E-01  0.7236350171432E-03
-0.1510913366190E-01  0.7287262184105E-03
-0.1620533592743E-01  0.7330594557721E-03
-0.1732917855984E-01  0.7370175134102E-03
-0.1847829960295E-01  0.7407077885362E-03
-0.1965002161793E-01  0.7440362803453E-03
-0.2084135852360E-01  0.7468242995981E-03
-0.2204899774636E-01  0.7489403049516E-03
-0.2326927571947E-01  0.7504344015299E-03
-0.2449830051226E-01  0.7510828165963E-03
-0.2573203241336E-01  0.7502697893178E-03
-0.2696609044842E-01  0.7477466640299E-03
-0.2819567552535E-01  0.7436694459036E-03
-0.2941551917949E-01  0.7385678092987E-03
-0.3061990046744E-01  0.7333098897925E-03
-0.3180267717246E-01  0.7292860971279E-03
-0.6104753292464E-05  0.5092683321348E-04
-0.7057357462660E-04  0.1043934612125E-03
-0.1903881403992E-03  0.1600692642092E-03
-0.3627719671798E-03  0.2173154860409E-03
-0.5853661519604E-03  0.2753357493957E-03
-0.8562739909842E-03  0.3333231123635E-03
-0.1174012970171E-02  0.3905652181095E-03
-0.1537425279628E-02  0.4464958346410E-03
-0.1945582712008E-02  0.5007027866737E-03
-0.2397709367978E-02  0.5529106522316E-03
-0.2893125144181E-02  0.6029529157065E-03
-0.3431207011129E-02  0.6507430038960E-03
-0.4011365207198E-02  0.6962488049631E-03
-0.4633025714028E-02  0.7394715569431E-03
-0.5295617133987E-02  0.7804290441080E-03
-0.5998561168102E-02  0.8191423188116E-03
-0.6741270677097E-02  0.8556252237502E-03
-0.7523103671152E-02  0.8898736395915E-03
-0.8343416606130E-02  0.9218607216381E-03
-0.9201485013155E-02  0.9515270565111E-03
-0.1009652081220E-01  0.9787762676444E-03
-0.1102764768373E-01  0.1003469556235E-02
-0.1199387514935E-01  0.1025420961009E-02
-0.1299407682772E-01  0.1044502518701E-02
-0.1402696303945E-01  0.1061158013209E-02
-0.1509102801919E-01  0.1076142949447E-02
-0.1618449678485E-01  0.1090157381785E-02
-0.1730528939229E-01  0.1103655047556E-02
-0.1845102024996E-01  0.1116807821129E-02
-0.1961899983517E-01  0.1129581859700E-02
-0.2080624870621E-01  0.1141858171754E-02
-0.2200948755189E-01  0.1153568683594E-02
-0.2322511999825E-01  0.1164835682550E-02
-0.2444935857508E-01  0.1175490153650E-02
-0.2567830279858E-01  0.1184949119072E-02
-0.2690773468923E-01  0.1193020567027E-02
-0.2813301559910E-01  0.1199945393965E-02
-0.2934900842397E-01  0.1206353811487E-02
-0.3055004660828E-01  0.1213225988375E-02
-0.3173007688982E-01  0.1221953103745E-02
-0.7842664473827E-05  0.6504425530312E-04
-0.7401412875340E-04  0.1330390223134E-03
-0.1952949522016E-03  0.2035839129772E-03
-0.3687728352572E-03  0.2759298842794E-03
-0.5920340419907E-03  0.3491621439461E-03
-0.8631947563661E-03  0.4223719025658E-03
-0.1180826625443E-02  0.4947719752743E-03
-0.1543842108914E-02  0.5657467424929E-03
-0.1951382213388E-02  0.6348526897048E-03
-0.2402730327607E-02  0.7017932820056E-03
-0.2897252683052E-02  0.7663852264146E-03
-0.3434359806013E-02  0.8285259671845E-03
-0.4013484220250E-02  0.8881665600767E-03
-0.4634064737311E-02  0.9452900217688E-03
-0.5295534987055E-02  0.9998946201454E-03
-0.5997315238045E-02  0.1051981012090E-02
-0.6738811491176E-02  0.1101542397818E-02
-0.7519370350760E-02  0.1148553682046E-02
-0.8338332913163E-02  0.1192968358436E-02
-0.9194956160397E-02  0.1234708147465E-02
-0.1008843087138E-01  0.1273659881838E-02
-0.1101785760816E-01  0.1309670852382E-02
-0.1198222125242E-01  0.1342545133199E-02
-0.1298036978256E-01  0.1372155972424E-02
-0.1401098816400E-01  0.1398988868829E-02
-0.1507254434834E-01  0.1423868074014E-02
-0.1616323594186E-01  0.1447569596269E-02
-0.1728095641058E-01  0.1470619468557E-02
-0.1842329838202E-01  0.1493255056934E-02
-0.1958756126094E-01  0.1515503076346E-02
-0.2077077267441E-01  0.1537303641376E-02
-0.2196968707649E-01  0.1558650116633E-02
-0.2318077705702E-01  0.1579733160026E-02
-0.2440036405107E-01  0.1600432737452E-02
-0.2562469552174E-01  0.1620192005739E-02
-0.2684972905323E-01  0.1638871413356E-02
-0.2807100207718E-01  0.1656797705553E-02
-0.2928350659092E-01  0.1674713732500E-02
-0.3048165484528E-01  0.1693705195618E-02
-0.3165928294274E-01  0.1715253997260E-02
-0.9857479365398E-05  0.7922310064569E-04
-0.7799401366333E-04  0.1618404365537E-03
-0.2009575984648E-03  0.2473679635651E-03
-0.3756845439629E-03  0.3349287645982E-03
-0.5997072853500E-03  0.4234756509763E-03
-0.8711658809628E-03  0.5119915570142E-03
-0.1188699638693E-02  0.5996149032459E-03
-0.1551302697667E-02  0.6856850264078E-03
-0.1958193117715E-02  0.7697324961082E-03
-0.2408718211045E-02  0.8514444752800E-03
-0.2902292963876E-02  0.9306244725277E-03
-0.3438362601403E-02  0.1007156309097E-02
-0.4016382470072E-02  0.1080975609422E-02
-0.4635804553712E-02  0.1152047907199E-02
-0.5296067882106E-02  0.1220352276488E-02
-0.5996591804597E-02  0.1285869065802E-02
-0.6736776164302E-02  0.1348570804630E-02
-0.7515957077498E-02  0.1408411343385E-02
-0.8333461427803E-02  0.1465324416245E-02
-0.9188529073379E-02  0.1519212746666E-02
-0.1008033142283E-01  0.1569946192561E-02
-0.1100794812623E-01  0.1617357888068E-02
-0.1197034212820E-01  0.1661241669602E-02
-0.1296633895494E-01  0.1701471877884E-02
-0.1399460182718E-01  0.1738576308481E-02
-0.1505357602920E-01  0.1773449109858E-02
-0.1614143491384E-01  0.1806943658309E-02
-0.1725604770026E-01  0.1839659706043E-02
-0.1839498655515E-01  0.1871901321102E-02
-0.1955554009696E-01  0.1903756521404E-02
-0.2073474254522E-01  0.1935224429191E-02
-0.2192938161520E-01  0.1966358363485E-02
-0.2313599973898E-01  0.1997413917013E-02
-0.2435103150624E-01  0.2028314029503E-02
-0.2557088208903E-01  0.2058520327654E-02
-0.2679170174243E-01  0.2087940280856E-02
-0.2800922185321E-01  0.2116987829376E-02
-0.2921858430237E-01  0.2146531441990E-02
-0.3041422982011E-01  0.2177777871965E-02
-0.3159002277496E-01  0.2212322450887E-02
-0.1217172660589E-04  0.9346973244107E-04
-0.8255445736005E-04  0.1908096293673E-03
-0.2074268397922E-03  0.2914350597748E-03
-0.3835577233471E-03  0.3943198203825E-03
-0.6084299300774E-03  0.4982685453103E-03
-0.8802225209517E-03  0.6021499522939E-03
-0.1197659038762E-02  0.7050302282546E-03
-0.1559828232071E-02  0.8062098061289E-03
-0.1966033407494E-02  0.9052000304316E-03
-0.2415690187761E-02  0.1001677249622E-02
-0.2908264289012E-02  0.1095435619427E-02
-0.3443236345053E-02  0.1186347755873E-02
-0.4020084715626E-02  0.1274335242499E-02
-0.4638274650429E-02  0.1359346862966E-02
-0.5297250788281E-02  0.1441342850250E-02
-0.5996431976850E-02  0.1520283404226E-02
-0.6735212557800E-02  0.1596120466061E-02
-0.7512919064892E-02  0.1668786896878E-02
-0.8328865322424E-02  0.1738196731326E-02
-0.9182275505277E-02  0.1804233724783E-02
-0.1007230344729E-01  0.1866750710460E-02
-0.1099801014375E-01  0.1925566501845E-02
-0.1195833940992E-01  0.1980464437657E-02
-0.1295209768766E-01  0.2031319765230E-02
-0.1397793031039E-01  0.2078702976769E-02
-0.1503426378012E-01  0.2123579034073E-02
-0.1611925058139E-01  0.2166879885937E-02
-0.1723073814554E-01  0.2209280303896E-02
-0.1836627943298E-01  0.2251152286356E-02
-0.1952315222763E-01  0.2292646105748E-02
-0.2069839615216E-01  0.2333820194399E-02
-0.2188883048533E-01  0.2374786837431E-02
-0.2309106675708E-01  0.2415863438297E-02
-0.2430165523071E-01  0.2457009609480E-02
-0.2551716799210E-01  0.2497696544477E-02
-0.2673396586070E-01  0.2537870789087E-02
-0.2794800053799E-01  0.2578034286322E-02
-0.2915457558067E-01  0.2619190378071E-02
-0.3034818221526E-01  0.2662714986302E-02
-0.3152252998181E-01  0.2710245164638E-02
-0.1481196506531E-04  0.1077934974874E-03
-0.8774360726656E-04  0.2199702144825E-03
-0.2147609584363E-03  0.3358234582204E-03
-0.3924490512367E-03  0.4541518854574E-03
-0.6182496377038E-03  0.5735943801142E-03
-0.8904009254614E-03  0.6929005678997E-03
-0.1207730627218E-02  0.8110688711252E-03
-0.1569436430991E-02  0.9273690340817E-03
-0.1974915201222E-02  0.1041301116567E-02
-0.2423654823537E-02  0.1152536636241E-02
-0.2915173179463E-02  0.1260864278676E-02
-0.3448986563762E-02  0.1366147707549E-02
-0.4024596208143E-02  0.1468295640851E-02
-0.4641480501135E-02  0.1567240648682E-02
-0.5299089762262E-02  0.1662924319375E-02
-0.5996842673879E-02  0.1755286747935E-02
-0.6734128684839E-02  0.1844259286815E-02
-0.7510265617431E-02  0.1929753814052E-02
-0.8324555350355E-02  0.2011664679608E-02
-0.9176207756591E-02  0.2089856651686E-02
-0.1006436081038E-01  0.2164165413805E-02
-0.1098805902694E-01  0.2234395164228E-02
-0.1194622985226E-01  0.2300318278196E-02
-0.1293766403302E-01  0.2361810453628E-02
-0.1396099296466E-01  0.2419485010744E-02
-0.1501462836388E-01  0.2474378402695E-02
-0.1609670529140E-01  0.2527502168688E-02
-0.1720505179419E-01  0.2579607303659E-02
-0.1833720265933E-01  0.2631135024038E-02
-0.1949042433803E-01  0.2682299105874E-02
-0.2066175989162E-01  0.2733218188073E-02
-0.2184805725922E-01  0.2784063376667E-02
-0.2304599467203E-01  0.2835211572026E-02
-0.2425223892346E-01  0.2886652965687E-02
-0.2546353741779E-01  0.2937858154322E-02
-0.2667648247467E-01  0.2988802682778E-02
-0.2788727680914E-01  0.3040072762025E-02
-0.2909141907874E-01  0.3092826827715E-02
-0.3028343535108E-01  0.3148623098467E-02
-0.3145687142673E-01  0.3209281233400E-02
-0.1780947167012E-04  0.1222056356128E-03
-0.9361761855295E-04  0.2493502530591E-03
-0.2230264863811E-03  0.3805777879647E-03
-0.4024213960818E-03  0.5144803670490E-03
-0.6292176197835E-03  0.6495119369272E-03
-0.9017388916423E-03  0.7843001141287E-03
-0.1218940711809E-02  0.9177831550867E-03
-0.1580145227009E-02  0.1049210784893E-02
-0.1984850955768E-02  0.1178080982589E-02
-0.2432621311598E-02  0.1304066769897E-02
-0.2923027096425E-02  0.1426955121849E-02
-0.3455619999961E-02  0.1546602716515E-02
-0.4029923634625E-02  0.1662906289234E-02
-0.4645429181068E-02  0.1775782491759E-02
-0.5301592581058E-02  0.1885154283635E-02
-0.5997832615082E-02  0.1990941570329E-02
-0.6733534407355E-02  0.2093055026946E-02
-0.7508007910407E-02  0.2191385496038E-02
-0.8320544132424E-02  0.2285807619449E-02
-0.9170339959868E-02  0.2376167125630E-02
-0.1005651912400E-01  0.2462282368470E-02
-0.1097811172410E-01  0.2543942524167E-02
-0.1193403152200E-01  0.2620908339128E-02
-0.1292305696818E-01  0.2693055222055E-02
-0.1394380957580E-01  0.2761039148821E-02
-0.1499469042136E-01  0.2825968449819E-02
-0.1607382069684E-01  0.2888935017697E-02
-0.1717901147686E-01  0.2950767103095E-02
-0.1830778026785E-01  0.3011976421170E-02
-0.1945738133641E-01  0.3072841774683E-02
-0.2062485852875E-01  0.3133543572380E-02
-0.2180708432887E-01  0.3194312667517E-02
-0.2300079941236E-01  0.3255584384986E-02
-0.2420278563735E-01  0.3317374068176E-02
-0.2540997269796E-01  0.3379140736081E-02
-0.2661920667164E-01  0.3440875180035E-02
-0.2782698158175E-01  0.3503242047034E-02
-0.2902903329352E-01  0.3567566539229E-02
-0.3021993533434E-01  0.3635641775365E-02
-0.3139302809482E-01  0.3709518428311E-02
-0.2120129957538E-04  0.1367198474164E-03
-0.1002422267552E-03  0.2789835505009E-03
-0.2322993372630E-03  0.4257506082951E-03
-0.4135440710494E-03  0.5753684445358E-03
-0.6413882420065E-03  0.7260857296336E-03
-0.9142751456445E-03  0.8764084276942E-03
-0.1231315558931E-02  0.1025226368524E-02
-0.1591972393141E-02  0.1171782728501E-02
-0.1995853255574E-02  0.1315583777242E-02
-0.2442599376092E-02  0.1456310492634E-02
-0.2931834413526E-02  0.1593751569173E-02
-0.3463144620446E-02  0.1727758242476E-02
-0.4036075142949E-02  0.1858215776573E-02
-0.4650129396781E-02  0.1985024917619E-02
-0.5304768769879E-02  0.2108089811967E-02
-0.5999412342777E-02  0.2227309953823E-02
-0.6733441452260E-02  0.2342575161072E-02
-0.7506159001141E-02  0.2453755131243E-02
-0.8316846167727E-02  0.2560704744456E-02
-0.9164688097550E-02  0.2663250621063E-02
-0.1004879577922E-01  0.2761193577257E-02
-0.1096818681750E-01  0.2854307276036E-02
-0.1192176386478E-01  0.2942339985657E-02
-0.1290829646497E-01  0.3025165793599E-02
-0.1392640042069E-01  0.3103482818627E-02
-0.1497447049677E-01  0.3178471298963E-02
-0.1605061773291E-01  0.3251303901951E-02
-0.1715263871832E-01  0.3322886890029E-02
-0.1827803452231E-01  0.3393803646021E-02
-0.1942404614445E-01  0.3464399727926E-02
-0.2058771500735E-01  0.3534919574525E-02
-0.2176593288632E-01  0.3605656008769E-02
-0.2295549660933E-01  0.3677103438341E-02
-0.2415329871739E-01  0.3749298382423E-02
-0.2535645533916E-01  0.3821676872929E-02
-0.2656208925696E-01  0.3894227866179E-02
-0.2776703411011E-01  0.3967681323910E-02
-0.2896732432092E-01  0.4043541092388E-02
-0.3015761265706E-01  0.4123887173696E-02
-0.3133097099755E-01  0.4211049762830E-02
-0.2503167331987E-04  0.1513531126684E-03
-0.1076947430813E-03  0.3089114105754E-03
-0.2426660765230E-03  0.4714044254223E-03
-0.4258929284327E-03  0.6368884671287E-03
-0.6548183707203E-03  0.8033864366243E-03
-0.9280485310577E-03  0.9692881638450E-03
-0.1244880756774E-02  0.1133452127069E-02
-0.1604935152812E-02  0.1295131462523E-02
-0.2007934618365E-02  0.1453852005939E-02
-0.2453599200727E-02  0.1609308918628E-02
-0.2941604412126E-02  0.1761295463355E-02
-0.3471569642935E-02  0.1909658405038E-02
-0.4043060379635E-02  0.2054271600295E-02
-0.4655591524544E-02  0.2195019585615E-02
-0.5308629635854E-02  0.2331787296367E-02
-0.6001594248695E-02  0.2464453452965E-02
-0.6733863430014E-02  0.2592886744698E-02
-0.7504733841202E-02  0.2716935559639E-02
-0.8313477844700E-02  0.2836434940599E-02
-0.9159270021304E-02  0.2951192335597E-02
-0.1004120998525E-01  0.3060990820679E-02
-0.1095830458935E-01  0.3165588010135E-02
-0.1190944779579E-01  0.3264718689718E-02
-0.1289340359262E-01  0.3358254302231E-02
-0.1390878636307E-01  0.3446934220750E-02
-0.1495398910369E-01  0.3532010194547E-02
-0.1602711662773E-01  0.3614735637804E-02
-0.1712595366561E-01  0.3696095167190E-02
-0.1824798574178E-01  0.3776744739662E-02
-0.1939043942355E-01  0.3857098475673E-02
-0.2055035014013E-01  0.3937467769107E-02
-0.2172462273400E-01  0.4018211108496E-02
-0.2291010182010E-01  0.4099884930216E-02
-0.2410378268687E-01  0.4182545368638E-02
-0.2530296775269E-01  0.4265594841371E-02
-0.2650507785298E-01  0.4348999665509E-02
-0.2770734259734E-01  0.4433533582149E-02
-0.2890617975264E-01  0.4520883621586E-02
-0.3009637848722E-01  0.4613469893299E-02
-0.3127066902436E-01  0.4713971031568E-02
-0.2935385965280E-04  0.1661268672959E-03
-0.1160666000696E-03  0.3391850604890E-03
-0.2542253046404E-03  0.5176143052354E-03
-0.4395501744576E-03  0.6991235447164E-03
-0.6695663691413E-03  0.8814911604562E-03
-0.9430969757232E-03  0.1063004185083E-02
-0.1259660500287E-02  0.1242513476394E-02
-0.1619049794177E-02  0.1419301679508E-02
-0.2021107334394E-02  0.1592925877049E-02
-0.2465631393360E-02  0.1763100953511E-02
-0.2952347305925E-02  0.1929626719256E-02
-0.3480905584055E-02  0.2092345720127E-02
-0.4050890542620E-02  0.2251119955380E-02
-0.4661827659310E-02  0.2405817107098E-02
-0.5313188309565E-02  0.2556302284042E-02
-0.6004392606653E-02  0.2702432931701E-02
-0.6734815858139E-02  0.2844056250655E-02
-0.7503749292243E-02  0.2980999102596E-02
-0.8310457454616E-02  0.3113076602228E-02
-0.9154105474361E-02  0.3240076985272E-02
-0.1003378281589E-01  0.3361765431096E-02
-0.1094848710469E-01  0.3477882979805E-02
-0.1189710582016E-01  0.3588149822524E-02
-0.1287840066326E-01  0.3692433158163E-02
-0.1389098900245E-01  0.3791512319508E-02
-0.1493326685004E-01  0.3886709663030E-02
-0.1600333696923E-01  0.3979358743114E-02
-0.1709897505648E-01  0.4070522284336E-02
-0.1821765213144E-01  0.4160929257839E-02
-0.1935657925081E-01  0.4251064035710E-02
-0.2051278217043E-01  0.4341308436738E-02
-0.2168317189454E-01  0.4432091877361E-02
-0.2286463052131E-01  0.4524038586702E-02
-0.2405424413573E-01  0.4617226419594E-02
-0.2524949523833E-01  0.4711016070852E-02
-0.2644811934474E-01  0.4805327706560E-02
-0.2764780447211E-01  0.4900946351570E-02
-0.2884546405255E-01  0.4999732856972E-02
-0.3003612005116E-01  0.5104502289260E-02
-0.3121209171567E-01  0.5218381770939E-02
-0.3423272483178E-04  0.1810687263921E-03
-0.1254666178607E-03  0.3698690588595E-03
-0.2670890796157E-03  0.5644712700900E-03
-0.4546037244182E-03  0.7621692928347E-03
-0.6856906311765E-03  0.9604833726012E-03
-0.9594562209595E-03  0.1157622542661E-02
-0.1275676826739E-02  0.1352461711417E-02
-0.1634331320115E-02  0.1544335199876E-02
-0.2035383359609E-02  0.1732842616323E-02
-0.2478706996841E-02  0.1917722840257E-02
-0.2964074298417E-02  0.2098783032623E-02
-0.3491164327943E-02  0.2275860914952E-02
-0.4059578445235E-02  0.2448805615684E-02
-0.4668851668210E-02  0.2617466967687E-02
-0.5318459786512E-02  0.2781689425865E-02
-0.6007823601746E-02  0.2941308530339E-02
-0.6736316178015E-02  0.3096149550305E-02
-0.7503224131165E-02  0.3246017553567E-02
-0.8307805189750E-02  0.3390707623838E-02
-0.9149216094864E-02  0.3529988786276E-02
-0.1002653723766E-01  0.3663608258131E-02
-0.1093875828303E-01  0.3791290061121E-02
-0.1188476215416E-01  0.3912738644087E-02
-0.1286331139171E-01  0.4027815125600E-02
-0.1387303084904E-01  0.4137337078784E-02
-0.1491232459544E-01  0.4242695971130E-02
-0.1597929780121E-01  0.4345304157484E-02
-0.1707172019843E-01  0.4446301417359E-02
-0.1818704958401E-01  0.4546489445848E-02
-0.1932248069593E-01  0.4646424160297E-02
-0.2047502613280E-01  0.4746561589483E-02
-0.2164159589157E-01  0.4847408858277E-02
-0.2281909769470E-01  0.4949666994824E-02
-0.2400469230329E-01  0.5053442722833E-02
-0.2519602825949E-01  0.5158052022171E-02
-0.2639116338840E-01  0.5263345131824E-02
-0.2758830797296E-01  0.5370073085291E-02
-0.2878501431894E-01  0.5480239383027E-02
-0.2997669325080E-01  0.5597105778860E-02
-0.3115520798624E-01  0.5724387603752E-02
-0.3974830529206E-04  0.1962150641356E-03
-0.1360252098948E-03  0.4010461575319E-03
-0.2813842121972E-03  0.6120866961435E-03
-0.4711458263078E-03  0.8261355826688E-03
-0.7032475233289E-03  0.1040452270714E-02
-0.9771583203469E-03  0.1253208856527E-02
-0.1292948851924E-02  0.1463344812581E-02
-0.1650793174362E-02  0.1670269806643E-02
-0.2050774286298E-02  0.1873635678723E-02
-0.2492837559324E-02  0.2073207638633E-02
-0.2976797681884E-02  0.2268799528188E-02
-0.3502359223086E-02  0.2460242673420E-02
-0.4069138599991E-02  0.2647371729991E-02
-0.4676679259357E-02  0.2830017345582E-02
-0.5324460982232E-02  0.3008002301280E-02
-0.6011905373278E-02  0.3181139489558E-02
-0.6738383785999E-02  0.3349231733189E-02
-0.7503179069256E-02  0.3512061988995E-02
-0.8305543153602E-02  0.3669405191828E-02
-0.9144625429616E-02  0.3821011209848E-02
-0.1001949815148E-01  0.3966609370305E-02
-0.1092914399554E-01  0.4105906403500E-02
-0.1187244289208E-01  0.4238589938456E-02
-0.1284816112497E-01  0.4364513012896E-02
-0.1385493559211E-01  0.4484529298145E-02
-0.1489118372134E-01  0.4600097196573E-02
-0.1595501784137E-01  0.4712705608329E-02
-0.1704420506231E-01  0.4823569240825E-02
-0.1815619156365E-01  0.4933561162603E-02
-0.1928815541501E-01  0.5043309368972E-02
-0.2043709311848E-01  0.5153347841765E-02
-0.2159990677327E-01  0.5264269474537E-02
-0.2277351698295E-01  0.5376864524144E-02
-0.2395513925223E-01  0.5491282086304E-02
-0.2514256492115E-01  0.5606798945951E-02
-0.2633416744349E-01  0.5723176048764E-02
-0.2752873626954E-01  0.5841072847383E-02
-0.2872463683408E-01  0.5962572460110E-02
-0.2991791131297E-01  0.6091419454762E-02
-0.3109998199676E-01  0.6232105152775E-02
-0.4600091304404E-04  0.2116149805228E-03
-0.1478997970633E-03  0.4328243598456E-03
-0.2972531012164E-03  0.6605979694515E-03
-0.4892705609575E-03  0.8911480132177E-03
-0.7222886133638E-03  0.1121491196241E-02
-0.9962299673228E-03  0.1349825946683E-02
-0.1311492089830E-02  0.1575205517522E-02
-0.1668447094080E-02  0.1797137962218E-02
-0.2067291414308E-02  0.2015333954612E-02
-0.2508035272383E-02  0.2229584744927E-02
-0.2990530978293E-02  0.2439708465604E-02
-0.3514505203104E-02  0.2645527445362E-02
-0.4079587314796E-02  0.2846859684014E-02
-0.4685328056184E-02  0.3043514997659E-02
-0.5331210789152E-02  0.3235293314066E-02
-0.6016658057487E-02  0.3421984050558E-02
-0.6741040062753E-02  0.3603367011112E-02
-0.7503636766418E-02  0.3779202674991E-02
-0.8303695359853E-02  0.3949245683726E-02
-0.9140358928275E-02  0.4113226850332E-02
-0.1001269241059E-01  0.4270857862439E-02
-0.1091967214528E-01  0.4421828165421E-02
-0.1186017617489E-01  0.4565807710829E-02
-0.1283297709902E-01  0.4702639415598E-02
-0.1383672842252E-01  0.4833210521481E-02
-0.1486986647762E-01  0.4959043424433E-02
-0.1593051578618E-01  0.5081700183330E-02
-0.1701644445352E-01  0.5202466905962E-02
-0.1812508903166E-01  0.5322285221635E-02
-0.1925361121144E-01  0.5441854520231E-02
-0.2039898937616E-01  0.5561789943569E-02
-0.2155811175710E-01  0.5682779024543E-02
-0.2272789917007E-01  0.5805716902487E-02
-0.2390559916882E-01  0.5930815801810E-02
-0.2508911307720E-01  0.6057331188911E-02
-0.2627710332317E-01  0.6184927410801E-02
-0.2746897528533E-01  0.6314107557852E-02
-0.2866410550855E-01  0.6446928277159E-02
-0.2985952838145E-01  0.6587613712198E-02
-0.3104636412388E-01  0.6741672432648E-02
-0.5311863117224E-04  0.2273365861193E-03
-0.1612817226244E-03  0.4653473477539E-03
-0.3148534696141E-03  0.7101756150122E-03
-0.5090696699276E-03  0.9573485040869E-03
-0.7428571150821E-03  0.1203694569092E-02
-0.1016690791479E-02  0.1447530539664E-02
-0.1331317971282E-02  0.1688079039709E-02
-0.1687303143414E-02  0.1924965442077E-02
-0.2084945945035E-02  0.2157960987767E-02
-0.2524313185549E-02  0.2386879452601E-02
-0.3005289124921E-02  0.2611538989869E-02
-0.3527618932287E-02  0.2831749294598E-02
-0.4090942802143E-02  0.3047308993616E-02
-0.4694817678362E-02  0.3258005169794E-02
-0.5338730137208E-02  0.3463613606986E-02
-0.6022103833453E-02  0.3663899371221E-02
-0.6744308405951E-02  0.3858618638865E-02
-0.7504621847167E-02  0.4047508995726E-02
-0.8302287726647E-02  0.4230304596723E-02
-0.9136443921424E-02  0.4406717324215E-02
-0.1000614881338E-01  0.4576441677693E-02
-0.1091037272698E-01  0.4739150226151E-02
-0.1184799236035E-01  0.4894494812448E-02
-0.1281778873133E-01  0.5042306354497E-02
-0.1381843642985E-01  0.5183502845807E-02
-0.1484839643861E-01  0.5319666893625E-02
-0.1590581074523E-01  0.5452428937998E-02
-0.1698845231080E-01  0.5583141158439E-02
-0.1809375047009E-01  0.5712808990100E-02
-0.1921885162561E-01  0.5842200778519E-02
-0.2036071530682E-01  0.5972014868675E-02
-0.2151621152680E-01  0.6103042393125E-02
-0.2268224990393E-01  0.6236301563633E-02
-0.2385608639513E-01  0.6372095786842E-02
-0.2503569130788E-01  0.6509692868515E-02
-0.2621996495387E-01  0.6648676107222E-02
-0.2740892687631E-01  0.6789333663246E-02
-0.2860316510285E-01  0.6933538366346E-02
-0.2980121728724E-01  0.7085911463068E-02
-0.3099427303073E-01  0.7253267916823E-02
-0.6126864733547E-04  0.2434773090283E-03
-0.1764048842482E-03  0.4988101639450E-03
-0.3343558113388E-03  0.7610318975529E-03
-0.5306259988029E-03  0.1024893864036E-02
-0.7649836282348E-03  0.1287152620123E-02
-0.1038551884109E-02  0.1546368957406E-02
-0.1352433702714E-02  0.1801990522705E-02
-0.1707369977890E-02  0.2053769948238E-02
-0.2103749315292E-02  0.2301534235545E-02
-0.2541685501887E-02  0.2545112563513E-02
-0.3021088704379E-02  0.2784316920102E-02
-0.3541718974383E-02  0.3018939768234E-02
-0.4103225300009E-02  0.3248757202661E-02
-0.4705169828868E-02  0.3473531497011E-02
-0.5347042058960E-02  0.3693012953703E-02
-0.6028266974482E-02  0.3906941409563E-02
-0.6748214270748E-02  0.4115048796192E-02
-0.7506160925290E-02  0.4317049343193E-02
-0.8301348073916E-02  0.4512656443811E-02
-0.9132909586521E-02  0.4701563139546E-02
-0.9999898067155E-02  0.4883447379546E-02
-0.1090127785677E-01  0.5057965791058E-02
-0.1183592418771E-01  0.5224752380848E-02
-0.1280262795263E-01  0.5383624666493E-02
-0.1380008909371E-01  0.5535528472089E-02
-0.1482679910408E-01  0.5682101936629E-02
-0.1588092285231E-01  0.5825037391694E-02
-0.1696024218688E-01  0.5965745458798E-02
-0.1806218206481E-01  0.6105288115118E-02
-0.1918387562461E-01  0.6244497859302E-02
-0.2032226443145E-01  0.6384156379980E-02
-0.2147419825217E-01  0.6525166487541E-02
-0.2263656665333E-01  0.6668688975980E-02
-0.2380661181348E-01  0.6815152587742E-02
-0.2498232758915E-01  0.6963888407376E-02
-0.2616277609944E-01  0.7114449640022E-02
-0.2734852903041E-01  0.7266883329965E-02
-0.2854154454436E-01  0.7422674626544E-02
-0.2974254189646E-01  0.7586620213754E-02
-0.3094356129876E-01  0.7767144357465E-02
-0.7067495871584E-04  0.2601814913541E-03
-0.1935559263977E-03  0.5334832124909E-03
-0.3559363891169E-03  0.8134302018987E-03
-0.5540037700231E-03  0.1093950261484E-02
-0.7886815886080E-03  0.1371943130885E-02
-0.1061814963629E-02  0.1646371936661E-02
-0.1374842606784E-02  0.1916952443419E-02
-0.1728655377559E-02  0.2183559827665E-02
-0.2123713683013E-02  0.2446064468123E-02
-0.2560167954384E-02  0.2704300134396E-02
-0.3037948214355E-02  0.2958064657885E-02
-0.3556825978534E-02  0.3207127872967E-02
-0.4116457197489E-02  0.3451239879895E-02
-0.4716408379426E-02  0.3690135999160E-02
-0.5356171750543E-02  0.3923539746685E-02
-0.6035173895501E-02  0.4151164907464E-02
-0.6752785208371E-02  0.4372718579260E-02
-0.7508282628197E-02  0.4587891134437E-02
-0.8300906114393E-02  0.4796374807977E-02
-0.9129786885439E-02  0.4997843757974E-02
-0.9993972691226E-02  0.5191960124811E-02
-0.1089242172508E-01  0.5378366151199E-02
-0.1182400688533E-01  0.5556679344448E-02
-0.1278752953559E-01  0.5726703384117E-02
-0.1378171884464E-01  0.5889409242892E-02
-0.1480510263790E-01  0.6046484993160E-02
-0.1585587405396E-01  0.6199676241053E-02
-0.1693182791185E-01  0.6350441478410E-02
-0.1803038805015E-01  0.6499888785267E-02
-0.1914867740558E-01  0.6648906997157E-02
-0.2028362236030E-01  0.6798358585958E-02
-0.2143205336573E-01  0.6949264035722E-02
-0.2259083492011E-01  0.7102945823955E-02
-0.2375717730095E-01  0.7259995777164E-02
-0.2492905406326E-01  0.7419874243157E-02
-0.2610559508266E-01  0.7582200551117E-02
-0.2728778358013E-01  0.7746828653318E-02
-0.2847898919014E-01  0.7914643163527E-02
-0.2968292807617E-01  0.8090179151517E-02
-0.3089395103959E-01  0.8283689570856E-02
-0.8164703823657E-04  0.2776718990785E-03
-0.2130846358509E-03  0.5697495277924E-03
-0.3797619608497E-03  0.8676925602277E-03
-0.5792351869103E-03  0.1164680012610E-02
-0.8139434707885E-03  0.1458119650779E-02
-0.1086472693063E-02  0.1747549087969E-02
-0.1398545027054E-02  0.2032962174979E-02
-0.1751167067376E-02  0.2314332952576E-02
-0.2144852567491E-02  0.2591555320918E-02
-0.2579778256389E-02  0.2864453328147E-02
-0.3055888371581E-02  0.3132801156227E-02
-0.3572962879244E-02  0.3396340077617E-02
-0.4130663164635E-02  0.3654790614032E-02
-0.4728559456559E-02  0.3907859052109E-02
-0.5366146633487E-02  0.4155240941553E-02
-0.6042853204613E-02  0.4396623314722E-02
-0.6758050915072E-02  0.4631687919995E-02
-0.7511017639658E-02  0.4860100752618E-02
-0.8300993464733E-02  0.5081532334801E-02
-0.9127108500616E-02  0.5295637626799E-02
-0.9988406871874E-02  0.5502063613290E-02
-0.1088384046614E-01  0.5700440341592E-02
-0.1181227821158E-01  0.5890371664323E-02
-0.1277253142993E-01  0.6071648697076E-02
-0.1376336173943E-01  0.6245265715375E-02
-0.1478333882215E-01  0.6412954242761E-02
-0.1583068917048E-01  0.6576501846612E-02
-0.1690322453954E-01  0.6737400525004E-02
-0.1799837132242E-01  0.6896790060197E-02
-0.1911324644318E-01  0.7055604140003E-02
-0.2024476593929E-01  0.7214779989803E-02
-0.2138974530546E-01  0.7375458332532E-02
-0.2254502397252E-01  0.7539139755228E-02
-0.2370776853439E-01  0.7706617075021E-02
-0.2487589668334E-01  0.7877554170383E-02
-0.2604851139001E-01  0.8051776536357E-02
-0.2722678842567E-01  0.8229119041975E-02
-0.2841532562695E-01  0.8409747281617E-02
-0.2962164727602E-01  0.8597220534134E-02
-0.3084491633942E-01  0.8803534154570E-02
-0.9462808264882E-04  0.2963095367166E-03
-0.2354097389644E-03  0.6081630013579E-03
-0.4059597909141E-03  0.9241976231554E-03
-0.6063042588052E-03  0.1237215222727E-02
-0.8407397657201E-03  0.1545697014469E-02
-0.1112510538759E-02  0.1849884004297E-02
-0.1423539774427E-02  0.2149999874807E-02
-0.1774913842037E-02  0.2446075886873E-02
-0.2167181631470E-02  0.2738003076192E-02
-0.2600536610721E-02  0.3025578401021E-02
-0.3074932439678E-02  0.3308541970840E-02
-0.3590155101616E-02  0.3586600355820E-02
-0.4145870279919E-02  0.3859441017917E-02
-0.4741651522997E-02  0.4126739343990E-02
-0.5376996413161E-02  0.4388161966667E-02
-0.6051335755505E-02  0.4643368661604E-02
-0.6764043289611E-02  0.4892015440006E-02
-0.7514398763633E-02  0.5133743415517E-02
-0.8301643689130E-02  0.5368200669728E-02
-0.9124908786097E-02  0.5595022214077E-02
-0.9983236263446E-02  0.5813840091164E-02
-0.1087557189959E-01  0.6024274780488E-02
-0.1180077836472E-01  0.6225921326688E-02
-0.1275767506136E-01  0.6418562420977E-02
-0.1374505825721E-01  0.6603215667168E-02
-0.1476154427516E-01  0.6781648794166E-02
-0.1580539729089E-01  0.6955676487791E-02
-0.1687444963066E-01  0.7126804926765E-02
-0.1796613437190E-01  0.7296186297940E-02
-0.1907756784864E-01  0.7464783384180E-02
-0.2020566270327E-01  0.7633598034051E-02
-0.2134722742767E-01  0.7803889060338E-02
-0.2249908231658E-01  0.7977346032476E-02
-0.2365834681224E-01  0.8154996642089E-02
-0.2482285982337E-01  0.8336782093200E-02
-0.2599162682462E-01  0.8522895414315E-02
-0.2716576208736E-01  0.8713485032714E-02
-0.2835057525407E-01  0.8908180937141E-02
-0.2955784964686E-01  0.9108630866499E-02
-0.3079547526990E-01  0.9327743019197E-02
-0.1102796049162E-03  0.3167159233534E-03
-0.2610056591162E-03  0.6495375673600E-03
-0.4345632716163E-03  0.9833483819538E-03
-0.6351329537704E-03  0.1311612480795E-02
-0.8690236256682E-03  0.1634638477983E-02
-0.1139909884256E-02  0.1953330880205E-02
-0.1449826079886E-02  0.2268026714724E-02
-0.1799907019150E-02  0.2578763603369E-02
-0.2190719560188E-02  0.2885396755823E-02
-0.2622466262126E-02  0.3187676905892E-02
-0.3095106566313E-02  0.3485299473398E-02
-0.3608430760336E-02  0.3777930350812E-02
-0.4162108145601E-02  0.4065220835074E-02
-0.4755715444661E-02  0.4346813921477E-02
-0.5388753123494E-02  0.4622346716754E-02
-0.6060654689320E-02  0.4891451512925E-02
-0.6770796486738E-02  0.5153758386671E-02
-0.7518460997847E-02  0.5408883130004E-02
-0.8302892376218E-02  0.5656450508226E-02
-0.9123223749444E-02  0.5896074260332E-02
-0.9978497727019E-02  0.6127370721458E-02
-0.1086765506576E-01  0.6349953259753E-02
-0.1178954963493E-01  0.6563415371164E-02
-0.1274300549352E-01  0.6767540125702E-02
-0.1372685419260E-01  0.6963372168581E-02
-0.1473976196667E-01  0.7152707659522E-02
-0.1578003354206E-01  0.7337368719513E-02
-0.1684552488922E-01  0.7518849775456E-02
-0.1793368052922E-01  0.7698290092955E-02
-0.1904162305163E-01  0.7876661046814E-02
-0.2016627069999E-01  0.8055014523412E-02
-0.2130443634623E-01  0.8234719570632E-02
-0.2245293310836E-01  0.8417657077390E-02
-0.2360884039925E-01  0.8605113021839E-02
-0.2476990892369E-01  0.8797373926785E-02
-0.2593501546202E-01  0.8995144085893E-02
-0.2710503036618E-01  0.9199320204059E-02
-0.2828512325526E-01  0.9409782856856E-02
-0.2949073382271E-01  0.9625548881229E-02
-0.3074384076175E-01  0.9858153229709E-02
-0.1296357900488E-03  0.3400489686554E-03
-0.2903284084493E-03  0.6950689027565E-03
-0.4654238935946E-03  0.1045457224638E-02
-0.6655851165956E-03  0.1387793451152E-02
-0.8987423441003E-03  0.1724853798910E-02
-0.1168650969947E-02  0.2057810856737E-02
-0.1477406434841E-02  0.2386984010865E-02
-0.1826162080866E-02  0.2712359918642E-02
-0.2215488983339E-02  0.3033718427685E-02
-0.2645594079062E-02  0.3350746096379E-02
-0.3116440106539E-02  0.3663083131858E-02
-0.3627820845821E-02  0.3970349562911E-02
-0.4179408986361E-02  0.4272158022317E-02
-0.4770784543940E-02  0.4568118179859E-02
-0.5401451161861E-02  0.4857837461422E-02
-0.6070845473366E-02  0.5140920810087E-02
-0.6778346977648E-02  0.5416972431424E-02
-0.7523241631397E-02  0.5685582481801E-02
-0.8304777282271E-02  0.5946351456743E-02
-0.9122091144874E-02  0.6198869921993E-02
-0.9974229086497E-02  0.6442736106255E-02
-0.1086012952517E-01  0.6677557164766E-02
-0.1177863566886E-01  0.6902934637972E-02
-0.1272857137454E-01  0.7118668293145E-02
-0.1370880171370E-01  0.7325840509216E-02
-0.1471804319110E-01  0.7526267907356E-02
-0.1575464139521E-01  0.7721753311333E-02
-0.1681647828933E-01  0.7913744519310E-02
-0.1790101561934E-01  0.8103335193568E-02
-0.1900539093557E-01  0.8291479671900E-02
-0.2012653886658E-01  0.8479261215180E-02
-0.2126129107563E-01  0.8668144626633E-02
-0.2240647044426E-01  0.8860194253887E-02
-0.2355913479355E-01  0.9056957823289E-02
-0.2471695650204E-01  0.9259121556570E-02
-0.2587867132873E-01  0.9468019525642E-02
-0.2704492029654E-01  0.9685609656470E-02
-0.2821989515208E-01  0.9913553118453E-02
-0.2942003936651E-01  0.1014908624844E-01
-0.3068689882430E-01  0.1039793925653E-01
-0.1543930038218E-03  0.3687178073664E-03
-0.3235581271739E-03  0.7464039424446E-03
-0.4981086412838E-03  0.1110434960129E-02
-0.6975207966207E-03  0.1465531863306E-02
-0.9298449131183E-03  0.1816207502905E-02
-0.1198716269717E-02  0.2163203766252E-02
-0.1506290919590E-02  0.2506796624631E-02
-0.1853699898702E-02  0.2846817621120E-02
-0.2241517612930E-02  0.3182944296157E-02
-0.2669951058071E-02  0.3514779587360E-02
-0.3138965938802E-02  0.3841900095837E-02
-0.3648359374784E-02  0.4163875789235E-02
-0.4197807717730E-02  0.4480279089754E-02
-0.4786894620306E-02  0.4790686118776E-02
-0.5415127291578E-02  0.5094675038199E-02
-0.6081945907548E-02  0.5391824020123E-02
-0.6786733582795E-02  0.5681711797647E-02
-0.7528780321614E-02  0.5963902784827E-02
-0.8307338488534E-02  0.6237972255214E-02
-0.9121550695387E-02  0.6503485340920E-02
-0.9970468976269E-02  0.6760017755479E-02
-0.1085303430162E-01  0.7007167144564E-02
-0.1176807996935E-01  0.7244553256011E-02
-0.1271442436119E-01  0.7472021028424E-02
-0.1369096053283E-01  0.7690714551219E-02
-0.1469645004768E-01  0.7902462911205E-02
-0.1572927551464E-01  0.8109011911974E-02
-0.1678734662262E-01  0.8311715674174E-02
-0.1786814991081E-01  0.8511580723171E-02
-0.1896884915842E-01  0.8709513384349E-02
-0.2008640810983E-01  0.8906606388086E-02
-0.2121769252637E-01  0.9104400837576E-02
-0.2235955808429E-01  0.9305120597443E-02
-0.2350906191279E-01  0.9510562552551E-02
-0.2466384641804E-01  0.9721806557132E-02
-0.2582248795943E-01  0.9940981490935E-02
-0.2698551660728E-01  0.1017109064760E-01
-0.2815629934524E-01  0.1041695124773E-01
-0.2934720412429E-01  0.1067911280151E-01
-0.3061965505453E-01  0.1095241298312E-01
-0.1874317021434E-03  0.4086514653257E-03
-0.3597909561851E-03  0.8049407971518E-03
-0.5319818963325E-03  0.1177250022369E-02
-0.7309066003142E-03  0.1544682618578E-02
-0.9622521216071E-03  0.1908439790818E-02
-0.1230111581698E-02  0.2269372142952E-02
-0.1536495852979E-02  0.2627369267045E-02
-0.1882549701939E-02  0.2982081375543E-02
-0.2268838824716E-02  0.3333045485138E-02
-0.2695572907931E-02  0.3679768194854E-02
-0.3162720696211E-02  0.4021755664871E-02
-0.3670083512696E-02  0.4358525391606E-02
-0.4217341985100E-02  0.4689609181660E-02
-0.4804083955309E-02  0.5014550268789E-02
-0.5429820639490E-02  0.5332898646799E-02
-0.6093996137349E-02  0.5644206817234E-02
-0.6795997526056E-02  0.5948028841480E-02
-0.7535119220231E-02  0.6243903600334E-02
-0.8310618620904E-02  0.6531380295703E-02
-0.9121644579225E-02  0.6809996218796E-02
-0.9967257219288E-02  0.7079299035881E-02
-0.1084640666867E-01  0.7338865723224E-02
-0.1175792321401E-01  0.7588337804677E-02
-0.1270061782170E-01  0.7827653821348E-02
-0.1367339955176E-01  0.8058070116534E-02
-0.1467505890843E-01  0.8281418652578E-02
-0.1570400555159E-01  0.8499332431454E-02
-0.1675817883135E-01  0.8713008521482E-02
-0.1783510063707E-01  0.8923314483856E-02
-0.1893197602352E-01  0.9131072070385E-02
-0.2004581281018E-01  0.9337359832236E-02
-0.2117352622618E-01  0.9543774161407E-02
-0.2231202514448E-01  0.9752659627250E-02
-0.2345840746153E-01  0.9966007247927E-02
-0.2461029978575E-01  0.1018528729192E-01
-0.2576631832555E-01  0.1041333735892E-01
-0.2692646028747E-01  0.1065479973820E-01
-0.2809523033859E-01  0.1091578537112E-01
-0.2927741930998E-01  0.1121047916501E-01
-0.3053586486288E-01  0.1152875779415E-01
-0.5529102914868E-01 -0.2573762455559E-01
-0.7475479286228E-01 -0.3431685217605E-01
-0.9566238608572E-01 -0.4493835681995E-01
-0.1176937456836E+00 -0.5743452939052E-01
-0.1405959235296E+00 -0.7161528084736E-01
-0.1641649896025E+00 -0.8729040804712E-01
-0.1882288692258E+00 -0.1042752204280E+00
-0.2126485659547E+00 -0.1223935786279E+00
-0.2373094221492E+00 -0.1414805310343E+00
-0.2621064026871E+00 -0.1613809173492E+00
-0.2869388141252E+00 -0.1819488873753E+00
-0.3117168863482E+00 -0.2030527151729E+00
-0.3363718917127E+00 -0.2245821604472E+00
-0.3608597155022E+00 -0.2464519516147E+00
-0.3851569133208E+00 -0.2685994131864E+00
-0.4092540394185E+00 -0.2909794581946E+00
-0.4331490699772E+00 -0.3135573593480E+00
-0.4568497806896E+00 -0.3363043425102E+00
-0.4803756524016E+00 -0.3591965693838E+00
-0.5418095318356E-01 -0.2486648595403E-01
-0.7274808285419E-01 -0.3316850801633E-01
-0.9282580956318E-01 -0.4347091912478E-01
-0.1141100644143E+00 -0.5562052671092E-01
-0.1363511362412E+00 -0.6944272902209E-01
-0.1593420511352E+00 -0.8475961519555E-01
-0.1829068349225E+00 -0.1013969374743E+00
-0.2069000904191E+00 -0.1191874131088E+00
-0.2311990255870E+00 -0.1379730058042E+00
-0.2556910263919E+00 -0.1576039388547E+00
-0.2802692684126E+00 -0.1779386915528E+00
-0.3048387994410E+00 -0.1988486664432E+00
-0.3293258473985E+00 -0.2202251203077E+00
-0.3536812276484E+00 -0.2419826934956E+00
-0.3778766686419E+00 -0.2640575179639E+00
-0.4018988087069E+00 -0.2864025006698E+00
-0.4257438199918E+00 -0.3089810613913E+00
-0.4494187402762E+00 -0.3317630317947E+00
-0.4729441182647E+00 -0.3547210030662E+00
-0.5309104244316E-01 -0.2401872298545E-01
-0.7077936051047E-01 -0.3206038898573E-01
-0.9004021565824E-01 -0.4206214224519E-01
-0.1105838951058E+00 -0.5388302595108E-01
-0.1321642924959E+00 -0.6736120244400E-01
-0.1545725872967E+00 -0.8232996105422E-01
-0.1776294023465E+00 -0.9862467313830E-01
-0.2011837096662E+00 -0.1160864023554E+00
-0.2251056430525E+00 -0.1345639750729E+00
-0.2492759393775E+00 -0.1539132421948E+00
-0.2735823120879E+00 -0.1739973699907E+00
-0.2979251001479E+00 -0.1946912977335E+00
-0.3222258457191E+00 -0.2158882506486E+00
-0.3464305446777E+00 -0.2375032310837E+00
-0.3705063400663E+00 -0.2594714559043E+00
-0.3944361909741E+00 -0.2817441470380E+00
-0.4182143293432E+00 -0.3042829468463E+00
-0.4418473774651E+00 -0.3270557529344E+00
-0.4653571284885E+00 -0.3500337159691E+00
-0.5201884862030E-01 -0.2319242623079E-01
-0.6884424636309E-01 -0.3098786685243E-01
-0.8730053731955E-01 -0.4070476937222E-01
-0.1071105690886E+00 -0.5221173112215E-01
-0.1280319889718E+00 -0.6535786132725E-01
-0.1498548520213E+00 -0.7998643534254E-01
-0.1723968244684E+00 -0.9594174779351E-01
-0.1955018721310E+00 -0.1130727439137E+00
-0.2190339225902E+00 -0.1312349612074E+00
-0.2428678636221E+00 -0.1502899783851E+00
-0.2668865598994E+00 -0.1701058753702E+00
-0.2909861029633E+00 -0.1905614264347E+00
-0.3150837216929E+00 -0.2115521771266E+00
-0.3391209034674E+00 -0.2329938426947E+00
-0.3630604797632E+00 -0.2548210598549E+00
-0.3868819335593E+00 -0.2769836618844E+00
-0.4105776029240E+00 -0.2994416669125E+00
-0.4341536028042E+00 -0.3221616170228E+00
-0.4576324066620E+00 -0.3451142544106E+00
-0.5096257265754E-01 -0.2238571282302E-01
-0.6693946947087E-01 -0.2994703386848E-01
-0.8460298690604E-01 -0.3939229011080E-01
-0.1036867442674E+00 -0.5059758953069E-01
-0.1239519948653E+00 -0.6342132047903E-01
-0.1451881242546E+00 -0.7771572096469E-01
-0.1672101775641E+00 -0.9333332679382E-01
-0.1898576425258E+00 -0.1101305231226E+00
-0.2129889606541E+00 -0.1279693564778E+00
-0.2364738580331E+00 -0.1467171322357E+00
-0.2601909071953E+00 -0.1662469635974E+00
-0.2840323980778E+00 -0.1864416600030E+00
-0.3079116287937E+00 -0.2071993551129E+00
-0.3317659088642E+00 -0.2284367893218E+00
-0.3555540359455E+00 -0.2500883484379E+00
-0.3792522181894E+00 -0.2721028152914E+00
-0.4028508653674E+00 -0.2944389913787E+00
-0.4263553008606E+00 -0.3170625963115E+00
-0.4497879372146E+00 -0.3399445835835E+00
-0.4992094062708E-01 -0.2159691227344E-01
-0.6506269793259E-01 -0.2893441812853E-01
-0.8194490078143E-01 -0.3811899669596E-01
-0.1003101966698E+00 -0.4903260593850E-01
-0.1199230998515E+00 -0.6154152594230E-01
-0.1405725602541E+00 -0.7550601973377E-01
-0.1620712543746E+00 -0.9078623372202E-01
-0.1842546315348E+00 -0.1072455566589E+00
-0.2069762532182E+00 -0.1247523083843E+00
-0.2301012773599E+00 -0.1431794480168E+00
-0.2535044877296E+00 -0.1624051583702E+00
-0.2770747977791E+00 -0.1823164077310E+00
-0.3007219526926E+00 -0.2028141275432E+00
-0.3243794137669E+00 -0.2238163632194E+00
-0.3480022118428E+00 -0.2452575805509E+00
-0.3715634314234E+00 -0.2670859037486E+00
-0.3950514581261E+00 -0.2892593519492E+00
-0.4184704697015E+00 -0.3117432773991E+00
-0.4418421284434E+00 -0.3345091369286E+00
-0.4889314159135E-01 -0.2082452575837E-01
-0.6321241831588E-01 -0.2794696913613E-01
-0.7932460246696E-01 -0.3687988294220E-01
-0.9697970170930E-01 -0.4750976903301E-01
-0.1159450135502E+00 -0.5970963449116E-01
-0.1360091251442E+00 -0.7334693367013E-01
-0.1569825236509E+00 -0.8828883040929E-01
-0.1786969869790E+00 -0.1044052930587E+00
-0.2010017096930E+00 -0.1215706541288E+00
-0.2237577976109E+00 -0.1396634015075E+00
-0.2468367000062E+00 -0.1585667617689E+00
-0.2701243526824E+00 -0.1781719282706E+00
-0.2935273097982E+00 -0.1983827948269E+00
-0.3169754991737E+00 -0.2191189653399E+00
-0.3404204229030E+00 -0.2403153130985E+00
-0.3638321448952E+00 -0.2619196924175E+00
-0.3871968967161E+00 -0.2838897465329E+00
-0.4105173628990E+00 -0.3061908083730E+00
-0.4338138927757E+00 -0.3287949659493E+00
-0.4787875618571E-01 -0.2006721044106E-01
-0.6138780532553E-01 -0.2698200081097E-01
-0.7674124668442E-01 -0.3567056551562E-01
-0.9369487734600E-01 -0.4602293832480E-01
-0.1120182209968E+00 -0.5791788909116E-01
-0.1314994598544E+00 -0.7122932549837E-01
-0.1519470118499E+00 -0.8583087777227E-01
-0.1731892893401E+00 -0.1015986828218E+00
-0.1950715578499E+00 -0.1184128099394E+00
-0.2174513220526E+00 -0.1361571132708E+00
-0.2401971056563E+00 -0.1547197917017E+00
-0.2631922355358E+00 -0.1739962862526E+00
-0.2863404129839E+00 -0.1938935810583E+00
-0.3095683223149E+00 -0.2143330653079E+00
-0.3328241419733E+00 -0.2352503254463E+00
-0.3560749805949E+00 -0.2565933027383E+00
-0.3793047764882E+00 -0.2783196138289E+00
-0.4025144133539E+00 -0.3003948346617E+00
-0.4257225112397E+00 -0.3227917250897E+00
-0.4687770154495E-01 -0.1932376447804E-01
-0.5958862249714E-01 -0.2603715477710E-01
-0.7419470389978E-01 -0.3448721929588E-01
-0.9045607453302E-01 -0.4456676079178E-01
-0.1081438889378E+00 -0.5615952219619E-01
-0.1270458043790E+00 -0.6914521842719E-01
-0.1469682436094E+00 -0.8340343827952E-01
-0.1677365091286E+00 -0.9881609272631E-01
-0.1891923139363E+00 -0.1152687039064E+00
-0.2111899576325E+00 -0.1326503039050E+00
-0.2335954054076E+00 -0.1508539592248E+00
-0.2562897118429E+00 -0.1697793473186E+00
-0.2791740351765E+00 -0.1893366384184E+00
-0.3021720776739E+00 -0.2094492026501E+00
-0.3252288684361E+00 -0.2300536099859E+00
-0.3483086006335E+00 -0.2510981961798E+00
-0.3713927854610E+00 -0.2725408366300E+00
-0.3944802488490E+00 -0.2943475446511E+00
-0.4175875976312E+00 -0.3164917657475E+00
-0.4589018009534E-01 -0.1859311196282E-01
-0.5781513128635E-01 -0.2511036394828E-01
-0.7168545207184E-01 -0.3332651757448E-01
-0.8726426936478E-01 -0.4313659124164E-01
-0.1043237667434E+00 -0.5442866398105E-01
-0.1226509080958E+00 -0.6708769827960E-01
-0.1420501613653E+00 -0.8099877824297E-01
-0.1623439347012E+00 -0.9604921397311E-01
-0.1833707152425E+00 -0.1121296949032E+00
-0.2049819471145E+00 -0.1291342260217E+00
-0.2270413657245E+00 -0.1469606128254E+00
-0.2494280577026E+00 -0.1655127309163E+00
-0.2720409183567E+00 -0.1847040022674E+00
-0.2948009011730E+00 -0.2044599385550E+00
-0.3176500346121E+00 -0.2247183197052E+00
-0.3405496209556E+00 -0.2454281266419E+00
-0.3634786232295E+00 -0.2665477142173E+00
-0.3864335995605E+00 -0.2880436735851E+00
-0.4094289559127E+00 -0.3098901553988E+00
-0.4491662827796E-01 -0.1787428495971E-01
-0.5606800247191E-01 -0.2419981551145E-01
-0.6921447058023E-01 -0.3218557371953E-01
-0.8412095544078E-01 -0.4172841637014E-01
-0.1005600854735E+00 -0.5272025493889E-01
-0.1183179375293E+00 -0.6505082071451E-01
-0.1371970425166E+00 -0.7861027494736E-01
-0.1570170985283E+00 -0.9329097430673E-01
-0.1776136532760E+00 -0.1089884937098E+00
-0.1988356057397E+00 -0.1256015965357E+00
-0.2205447556728E+00 -0.1430326817377E+00
-0.2426184951066E+00 -0.1611897625323E+00
-0.2649537078768E+00 -0.1799895495004E+00
-0.2874688065285E+00 -0.1993598192010E+00
-0.3101029479852E+00 -0.2192397400442E+00
-0.3328145609902E+00 -0.2395791298910E+00
-0.3555799550507E+00 -0.2603369814143E+00
-0.3783932465327E+00 -0.2814805561755E+00
-0.4012665051278E+00 -0.3029847394808E+00
-0.4395767858191E-01 -0.1716641320552E-01
-0.5434825076437E-01 -0.2330392472563E-01
-0.6678316273202E-01 -0.3106189722293E-01
-0.8102806626125E-01 -0.4033879578637E-01
-0.9685548608965E-01 -0.5102997683846E-01
-0.1140504113195E+00 -0.6302953682696E-01
-0.1324134408092E+00 -0.7623234096433E-01
-0.1517617237657E+00 -0.9053546456765E-01
-0.1719281229583E+00 -0.1058390944156E+00
-0.1927592697166E+00 -0.1220465340574E+00
-0.2141152916587E+00 -0.1390646188999E+00
-0.2358721311033E+00 -0.1568054207564E+00
-0.2579248858604E+00 -0.1751889484612E+00
-0.2801896139819E+00 -0.1941453292721E+00
-0.3026027163048E+00 -0.2136152502864E+00
-0.3251197643223E+00 -0.2335495006889E+00
-0.3477143251802E+00 -0.2539078102733E+00
-0.3703779254725E+00 -0.2746581551709E+00
-0.3931201785831E+00 -0.2957761684800E+00
-0.4301411711152E-01 -0.1646870862868E-01
-0.5265716246803E-01 -0.2242130389789E-01
-0.6439326751783E-01 -0.2995334530481E-01
-0.7798788223273E-01 -0.3896479835094E-01
-0.9321292790201E-01 -0.4935417783675E-01
-0.1098521121808E+00 -0.6101961110619E-01
-0.1277041024894E+00 -0.7386033851794E-01
-0.1465836443196E+00 -0.8777785255894E-01
-0.1663211451715E+00 -0.1026766901242E+00
-0.1867612191591E+00 -0.1184644777253E+00
-0.2077625587986E+00 -0.1350523232259E+00
-0.2291998763911E+00 -0.1523562628979E+00
-0.2509666867004E+00 -0.1702995884105E+00
-0.2729768628515E+00 -0.1888148275659E+00
-0.2951641568419E+00 -0.2078442701526E+00
-0.3174813029127E+00 -0.2273397574429E+00
-0.3398990539942E+00 -0.2472618007782E+00
-0.3624062183380E+00 -0.2675790858457E+00
-0.3850098310983E+00 -0.2882679674294E+00
-0.4208685078050E-01 -0.1578045545652E-01
-0.5099623977603E-01 -0.2155073931365E-01
-0.6204679229486E-01 -0.2885808496131E-01
-0.7500296058932E-01 -0.3760395089701E-01
-0.8963562058375E-01 -0.4768981107197E-01
-0.1057270225336E+00 -0.5901755316662E-01
-0.1230739057726E+00 -0.7149050717838E-01
-0.1414887474974E+00 -0.8501430904993E-01
-0.1607997110201E+00 -0.9949759896681E-01
-0.1808496218710E+00 -0.1148521141560E+00
-0.2014959521844E+00 -0.1309930678232E+00
-0.2226123824515E+00 -0.1478403547324E+00
-0.2440910288768E+00 -0.1653205117516E+00
-0.2658437368966E+00 -0.1833684840769E+00
-0.2878017135609E+00 -0.2019282058754E+00
-0.3099148834377E+00 -0.2209526028383E+00
-0.3321511310160E+00 -0.2404029627407E+00
-0.3544964343595E+00 -0.2602486289450E+00
-0.3769551204375E+00 -0.2804666067348E+00
-0.4117687694515E-01 -0.1510100067114E-01
-0.4936714927482E-01 -0.2069116958659E-01
-0.5974594985214E-01 -0.2777455740519E-01
-0.7207606866560E-01 -0.3625418979690E-01
-0.8612695804250E-01 -0.4603437584376E-01
-0.1016792606210E+00 -0.5702055118955E-01
-0.1185277996148E+00 -0.6911989188129E-01
-0.1364829149910E+00 -0.8224193227883E-01
-0.1553707237649E+00 -0.9629918647238E-01
-0.1750324744722E+00 -0.1112072985170E+00
-0.1953246153404E+00 -0.1268854202613E+00
-0.2161199756041E+00 -0.1432571905533E+00
-0.2373094429533E+00 -0.1602523350786E+00
-0.2588029843730E+00 -0.1778082043164E+00
-0.2805293667558E+00 -0.1958703812308E+00
-0.3024357433686E+00 -0.2143928659333E+00
-0.3244870946364E+00 -0.2333376740929E+00
-0.3466664727093E+00 -0.2526747123178E+00
-0.3689753599229E+00 -0.2723815174624E+00
-0.4028525403210E-01 -0.1442974379358E-01
-0.4777167199150E-01 -0.1984166396083E-01
-0.5749309631518E-01 -0.2670144291903E-01
-0.6921011636718E-01 -0.3491381286057E-01
-0.8269044950775E-01 -0.4438585837441E-01
-0.9771301198887E-01 -0.5502640359988E-01
-0.1140707362027E+00 -0.6674626734360E-01
-0.1315719561639E+00 -0.7945866659332E-01
-0.1500409319406E+00 -0.9307977950501E-01
-0.1693175338634E+00 -0.1075289644382E+00
-0.1892573683138E+00 -0.1227291489418E+00
-0.2097325799021E+00 -0.1386075966339E+00
-0.2306329872883E+00 -0.1550971508764E+00
-0.2518668242080E+00 -0.1721375311405E+00
-0.2733605267626E+00 -0.1896759421248E+00
-0.2950585288341E+00 -0.2076674126412E+00
-0.3169228910515E+00 -0.2260746007920E+00
-0.3389336614182E+00 -0.2448678439481E+00
-0.3610893422690E+00 -0.2640250433417E+00
-0.3941307958595E-01 -0.1376613095708E-01
-0.4621166605299E-01 -0.1900140652765E-01
-0.5529068514324E-01 -0.2563763321610E-01
-0.6640810681944E-01 -0.3358144002074E-01
-0.7932967001428E-01 -0.4274268216760E-01
-0.9383248113610E-01 -0.5303346069230E-01
-0.1097076240687E+00 -0.6436807235749E-01
-0.1267615621758E+00 -0.7666323049035E-01
-0.1448168833497E+00 -0.8983858874826E-01
-0.1637122694478E+00 -0.1038170413018E+00
-0.1833026561590E+00 -0.1185251353975E+00
-0.2034596596727E+00 -0.1338936388454E+00
-0.2240721821300E+00 -0.1498584311178E+00
-0.2450468687269E+00 -0.1663615454666E+00
-0.2663079419130E+00 -0.1833517559805E+00
-0.2877971840846E+00 -0.2007850455506E+00
-0.3094737419164E+00 -0.2186245989021E+00
-0.3313146016107E+00 -0.2368410187266E+00
-0.3533151614587E+00 -0.2554123587015E+00
-0.3856146684126E-01 -0.1310964650649E-01
-0.4468902674355E-01 -0.1816967803302E-01
-0.5314121682307E-01 -0.2458220123874E-01
-0.6367308067874E-01 -0.3225597088798E-01
-0.7604820256539E-01 -0.4110365420639E-01
-0.9004183320794E-01 -0.5104056067362E-01
-0.1054432700306E+00 -0.6198433677507E-01
-0.1220572481343E+00 -0.7385503538606E-01
-0.1397048667140E+00 -0.8657561978684E-01
-0.1582238030120E+00 -0.1000723578836E+00
-0.1774684853489E+00 -0.1142752706073E+00
-0.1973101503709E+00 -0.1291185118243E+00
-0.2176369324035E+00 -0.1445409096896E+00
-0.2383540353931E+00 -0.1604867426556E+00
-0.2593835957945E+00 -0.1769062829963E+00
-0.2806648306116E+00 -0.1937563710268E+00
-0.3021540019431E+00 -0.2110005786295E+00
-0.3238250009309E+00 -0.2286095817887E+00
-0.3456700195778E+00 -0.2465613373761E+00
-0.3773152705136E-01 -0.1245980768547E-01
-0.4320565621074E-01 -0.1734584186519E-01
-0.5104720076922E-01 -0.2353437617885E-01
-0.6100807412509E-01 -0.3093654832182E-01
-0.7284959475193E-01 -0.3946791760764E-01
-0.8634515052798E-01 -0.4904697223455E-01
-0.1012823360899E+00 -0.5959461473208E-01
-0.1174643101427E+00 -0.7103410996039E-01
-0.1347108680278E+00 -0.8329158871057E-01
-0.1528588629999E+00 -0.9629654905275E-01
-0.1717623741093E+00 -0.1099823524464E+00
-0.1912924026655E+00 -0.1242864267963E+00
-0.2113364627635E+00 -0.1391504603049E+00
-0.2317984695611E+00 -0.1545209003635E+00
-0.2525986140370E+00 -0.1703494338981E+00
-0.2736736541366E+00 -0.1865936468939E+00
-0.2949770223280E+00 -0.2032173421132E+00
-0.3164795093851E+00 -0.2201910576748E+00
-0.3381700295474E+00 -0.2374923778478E+00
-0.3692435321343E-01 -0.1181615905266E-01
-0.4176343546608E-01 -0.1652933012901E-01
-0.4901111969609E-01 -0.2249351880756E-01
-0.5841607900456E-01 -0.2962252228756E-01
-0.6973731699950E-01 -0.3783490424142E-01
-0.8274639027517E-01 -0.4705233648371E-01
-0.9722929713098E-01 -0.5719891637614E-01
-0.1129877829837E+00 -0.6820102190283E-01
-0.1298405275909E+00 -0.7998783376506E-01
-0.1476237397009E+00 -0.9249195689151E-01
-0.1661913040480E+00 -0.1056499756049E+00
-0.1854141282705E+00 -0.1194024895075E+00
-0.2051792548537E+00 -0.1336939616377E+00
-0.2253894698716E+00 -0.1484729301081E+00
-0.2459631741373E+00 -0.1636924072395E+00
-0.2668347949307E+00 -0.1793106049222E+00
-0.2879550176129E+00 -0.1952913909259E+00
-0.3092915579796E+00 -0.2116049426864E+00
-0.3308300175255E+00 -0.2282281817697E+00
-0.3614100634334E-01 -0.1117826750269E-01
-0.4036420062616E-01 -0.1571963076510E-01
-0.4703539912993E-01 -0.2145909822388E-01
-0.5590000842508E-01 -0.2831341532858E-01
-0.6671472627593E-01 -0.3620428893358E-01
-0.7924934754715E-01 -0.4505661019678E-01
-0.9328840396131E-01 -0.5479764040601E-01
-0.1086324031955E+00 -0.6535679971483E-01
-0.1250991026155E+00 -0.7666622602542E-01
-0.1425242463334E+00 -0.8866152947715E-01
-0.1607616781113E+00 -0.1012824174085E+00
-0.1796823526057E+00 -0.1144725718016E+00
-0.1991729919190E+00 -0.1281791532442E+00
-0.2191354214983E+00 -0.1423527160630E+00
-0.2394864235465E+00 -0.1569475096411E+00
-0.2601582466445E+00 -0.1719222513296E+00
-0.2810989408773E+00 -0.1872407061815E+00
-0.3022732057126E+00 -0.2028724646917E+00
-0.3236633333847E+00 -0.2187934893242E+00
-0.3538250436468E-01 -0.1054571792213E-01
-0.3900972349758E-01 -0.1491627569361E-01
-0.4512238222875E-01 -0.2043066996938E-01
-0.5346266806503E-01 -0.2700888962760E-01
-0.6378503561759E-01 -0.3457594531202E-01
-0.7585762426125E-01 -0.4306001057669E-01
-0.8946365223877E-01 -0.5239150778731E-01
-0.1044025781820E+00 -0.6250285512500E-01
-0.1204914361623E+00 -0.7332907984793E-01
-0.1375656869176E+00 -0.8480871827530E-01
-0.1554792859469E+00 -0.9688452067018E-01
-0.1741033756065E+00 -0.1095031781296E+00
-0.1933245123884E+00 -0.1226144836892E+00
-0.2130437392133E+00 -0.1361709426026E+00
-0.2331764083706E+00 -0.1501279605348E+00
-0.2536527662985E+00 -0.1644446467423E+00
-0.2744183702695E+00 -0.1790845025140E+00
-0.2954349967361E+00 -0.1940163118746E+00
-0.3166816731893E+00 -0.2092147882882E+00
-0.3464981331749E-01 -0.9918109217660E-02
-0.3770169601114E-01 -0.1411882960975E-01
-0.4327430928174E-01 -0.1940785505638E-01
-0.5110673249749E-01 -0.2570871517618E-01
-0.6095128876043E-01 -0.3294990284997E-01
-0.7257460320397E-01 -0.4106296116834E-01
-0.8575875666135E-01 -0.4998149642588E-01
-0.1003023608463E+00 -0.5964090607806E-01
-0.1160219320594E+00 -0.6997906327777E-01
-0.1327528308167E+00 -0.8093737457247E-01
-0.1503492768469E+00 -0.9246157427699E-01
-0.1686827412285E+00 -0.1045013079994E+00
-0.1876397734392E+00 -0.1170089522093E+00
-0.2071208218258E+00 -0.1299389122571E+00
-0.2270400148358E+00 -0.1432476833577E+00
-0.2473257982954E+00 -0.1568946676957E+00
-0.2679214101544E+00 -0.1708429576261E+00
-0.2887858318052E+00 -0.1850603301490E+00
-0.3098949082964E+00 -0.1995199877425E+00
-0.3394384066852E-01 -0.9295050472049E-02
-0.3644171813068E-01 -0.1332687908268E-01
-0.4149330140075E-01 -0.1839031948914E-01
-0.4883472597662E-01 -0.2441273861443E-01
-0.5821633929911E-01 -0.3132630471160E-01
-0.6940342666695E-01 -0.3906603863233E-01
-0.8217712991164E-01 -0.4756877665141E-01
-0.9633542933497E-01 -0.5677290034524E-01
-0.1116945355353E+00 -0.6661910870229E-01
-0.1280898938786E+00 -0.7705164552469E-01
-0.1453761404727E+00 -0.8801919242245E-01
-0.1634252162035E+00 -0.9947431565153E-01
-0.1821238255329E+00 -0.1113719456129E+00
-0.2013720195130E+00 -0.1236683562048E+00
-0.2210829256847E+00 -0.1363210857019E+00
-0.2411834153496E+00 -0.1492897523965E+00
-0.2616146110503E+00 -0.1625369196799E+00
-0.2823328592976E+00 -0.1760291883451E+00
-0.3033109359339E+00 -0.1897380327468E+00
-0.3326543089716E-01 -0.8676157282521E-02
-0.3523128949945E-01 -0.1254002196365E-01
-0.3978134872578E-01 -0.1737775427368E-01
-0.4664900805281E-01 -0.2312085278833E-01
-0.5558283478065E-01 -0.2970536656157E-01
-0.6634698011482E-01 -0.3706992070267E-01
-0.7872186684186E-01 -0.4515464803880E-01
-0.9250507242767E-01 -0.5390094052132E-01
-0.1075127201647E+00 -0.6325232478839E-01
-0.1235805268713E+00 -0.7315587117035E-01
-0.1405636961966E+00 -0.8356319417460E-01
-0.1583347790762E+00 -0.9442976902207E-01
-0.1767807992239E+00 -0.1057130728724E+00
-0.1958016157116E+00 -0.1173712401587E+00
-0.2153095936585E+00 -0.1293628316286E+00
-0.2352302792283E+00 -0.1416476340992E+00
-0.2555029122540E+00 -0.1541875958867E+00
-0.2760813929885E+00 -0.1669480146962E+00
-0.2969355633041E+00 -0.1798984783517E+00
-0.3261536424085E-01 -0.8061049051704E-02
-0.3407180627371E-01 -0.1175785794820E-01
-0.3814030502031E-01 -0.1636985692039E-01
-0.4455176622049E-01 -0.2183296828722E-01
-0.5305320819279E-01 -0.2808733793974E-01
-0.6340788354381E-01 -0.3507533732193E-01
-0.7539573670355E-01 -0.4274047998493E-01
-0.8881418347393E-01 -0.5102721327451E-01
-0.1034794840956E+00 -0.5988191304231E-01
-0.1192278142324E+00 -0.6925448623847E-01
-0.1359150941361E+00 -0.7909948771638E-01
-0.1534146226805E+00 -0.8937531283582E-01
-0.1716139075201E+00 -0.1000420027500E+00
-0.1904128270358E+00 -0.1110595714797E+00
-0.2097232358679E+00 -0.1223876124303E+00
-0.2294696256786E+00 -0.1339860686881E+00
-0.2495896125991E+00 -0.1458162287521E+00
-0.2700348630188E+00 -0.1578420121408E+00
-0.2907724320832E+00 -0.1700310325719E+00
-0.3199435557784E-01 -0.7449344192170E-02
-0.3296455803072E-01 -0.1097997660539E-01
-0.3657188180692E-01 -0.1536631004063E-01
-0.4254500736523E-01 -0.2054898183752E-01
-0.5062966757624E-01 -0.2647246038316E-01
-0.6058848054990E-01 -0.3308301849709E-01
-0.7220117302450E-01 -0.4032764903168E-01
-0.8526525232828E-01 -0.4815391541866E-01
-0.9959734510302E-01 -0.5651108132220E-01
-0.1150342730200E+00 -0.6535191907117E-01
-0.1314328183563E+00 -0.7463395181998E-01
-0.1486671613555E+00 -0.8431852889871E-01
-0.1666254561479E+00 -0.9436829831915E-01
-0.1852078148514E+00 -0.1047452025126E+00
-0.2043258442403E+00 -0.1154099124136E+00
-0.2239032707420E+00 -0.1263225550584E+00
-0.2438763690870E+00 -0.1374437609057E+00
-0.2641948024811E+00 -0.1487360548480E+00
-0.2848229884697E+00 -0.1601650690946E+00
-0.3140305889707E-01 -0.6840658293944E-02
-0.3191073379198E-01 -0.1020594877369E-01
-0.3507765393427E-01 -0.1436676408919E-01
-0.4063056212982E-01 -0.1926875003591E-01
-0.4831419958906E-01 -0.2486093237839E-01
-0.5789084218150E-01 -0.3109365061173E-01
-0.6914027901556E-01 -0.3791748628730E-01
-0.8186037355940E-01 -0.4528319169169E-01
-0.9586835276615E-01 -0.5314297061298E-01
-0.1110018700581E+00 -0.6145250526879E-01
-0.1271187096772E+00 -0.7017233329245E-01
-0.1440940595788E+00 -0.7926681321513E-01
-0.1618168774499E+00 -0.8870126858537E-01
-0.1801877231042E+00 -0.9843965062394E-01
-0.1991182253730E+00 -0.1084437903167E+00
-0.2185316506362E+00 -0.1186740692229E+00
-0.2383632350056E+00 -0.1290905096756E+00
-0.2585608816306E+00 -0.1396542854483E+00
-0.2790865122542E+00 -0.1503291222203E+00
-0.3084207132913E-01 -0.6234599057364E-02
-0.3091142687145E-01 -0.9435313765040E-02
-0.3365906259950E-01 -0.1337081513682E-01
-0.3881008516446E-01 -0.1799205763154E-01
-0.4610856755568E-01 -0.2325286861439E-01
-0.5531676426837E-01 -0.2910782688517E-01
-0.6621482587208E-01 -0.3551121886552E-01
-0.7860124741120E-01 -0.4241706648768E-01
-0.9229409375583E-01 -0.4978057585827E-01
-0.1071320331750E+00 -0.5756039573447E-01
-0.1229739843110E+00 -0.6572013935567E-01
-0.1396962589953E+00 -0.7422724857960E-01
-0.1571887660329E+00 -0.8304981589861E-01
-0.1753527219172E+00 -0.9215391406306E-01
-0.1941000508540E+00 -0.1015026565675E+00
-0.2133538779755E+00 -0.1110567947490E+00
-0.2330487229740E+00 -0.1207758387838E+00
-0.2531309801513E+00 -0.1306197067319E+00
-0.2735602022298E+00 -0.1405503637521E+00
-0.3031194174126E-01 -0.5630762465474E-02
-0.2996764684025E-01 -0.8667567599060E-02
-0.3231742680255E-01 -0.1237798407922E-01
-0.3708506447759E-01 -0.1671858837055E-01
-0.4401431914813E-01 -0.2164826343257E-01
-0.5286777503765E-01 -0.2712600387361E-01
-0.6342626213838E-01 -0.3310991925086E-01
-0.7548919269791E-01 -0.3955738546658E-01
-0.8887571008698E-01 -0.4642667884169E-01
-0.1034256767716E+00 -0.5367947930690E-01
-0.1189992687698E+00 -0.6128254749568E-01
-0.1354740244061E+00 -0.6920649757919E-01
-0.1527409367919E+00 -0.7742230633276E-01
-0.1707020774485E+00 -0.8589831271708E-01
-0.1892699379161E+00 -0.9459907714423E-01
-0.2083678329067E+00 -0.1034858825380E+00
-0.2279299096510E+00 -0.1125178649337E+00
-0.2479013141887E+00 -0.1216538177720E+00
-0.2682393371452E+00 -0.1308541309045E+00
-0.2981318300038E-01 -0.5028728901723E-02
-0.2908033668530E-01 -0.7902150385929E-02
-0.3105396010926E-01 -0.1138769499193E-01
-0.3545683565298E-01 -0.1544789590065E-01
-0.4203279856277E-01 -0.2004695580944E-01
-0.5054514718630E-01 -0.2514846106427E-01
-0.6077572770635E-01 -0.3071445917057E-01
-0.7252516459212E-01 -0.3670576300792E-01
-0.8561392261426E-01 -0.4308378846905E-01
-0.9988323327999E-01 -0.4981331490139E-01
-0.1151946419775E+00 -0.5686432761988E-01
-0.1314269993005E+00 -0.6421071107751E-01
-0.1484724958949E+00 -0.7182645834527E-01
-0.1662342387424E+00 -0.7968234887372E-01
-0.1846255509279E+00 -0.8774459841503E-01
-0.2035702783352E+00 -0.9597523380585E-01
-0.2230025683287E+00 -0.1043331948242E+00
-0.2428665979270E+00 -0.1127763006419E+00
-0.2631174866467E+00 -0.1212635556865E+00
-0.2934628521308E-01 -0.4428054604074E-02
-0.2825039011265E-01 -0.7138426960397E-02
-0.2986978540031E-01 -0.1039924569928E-01
-0.3392659174544E-01 -0.1417936704337E-01
-0.4016515270811E-01 -0.1844858744988E-01
-0.4834990315011E-01 -0.2317525426834E-01
-0.5826406073558E-01 -0.2832545760021E-01
-0.6970976528033E-01 -0.3386352398966E-01
-0.8250904745922E-01 -0.3975407590503E-01
-0.9650467792186E-01 -0.4596506003051E-01
-0.1115596718611E+00 -0.5246976359230E-01
-0.1275542585280E+00 -0.5924544044425E-01
-0.1443819133933E+00 -0.6626923973247E-01
-0.1619469319044E+00 -0.7351457943682E-01
-0.1801637154463E+00 -0.8094958474568E-01
-0.1989569908048E+00 -0.8853729786542E-01
-0.2182613181061E+00 -0.9623668503200E-01
-0.2380202212340E+00 -0.1040047501869E+00
-0.2581867332972E+00 -0.1117992850405E+00
-0.2891173825008E-01 -0.3828266516767E-02
-0.2747868167180E-01 -0.6375669528970E-02
-0.2876596324942E-01 -0.9411781296996E-02
-0.3249540679267E-01 -0.1291219099681E-01
-0.3841235129315E-01 -0.1685257063721E-01
-0.4628283503006E-01 -0.2120618204677E-01
-0.5589181989871E-01 -0.2594324416534E-01
-0.6704327005220E-01 -0.3103166251921E-01
-0.7956102723396E-01 -0.3643932802524E-01
-0.9328956702665E-01 -0.4213741956351E-01
-0.1080934643291E+00 -0.4810259854560E-01
-0.1238543734237E+00 -0.5431557900781E-01
-0.1404671107990E+00 -0.6075679991873E-01
-0.1578372738993E+00 -0.6740252655774E-01
-0.1758805559435E+00 -0.7422309218239E-01
-0.1945229146076E+00 -0.8118290018069E-01
-0.2136997899582E+00 -0.8824123032051E-01
-0.2333544356675E+00 -0.9535443779460E-01
-0.2534379003178E+00 -0.1024792117177E+00
-0.2851005655033E-01 -0.3228848641691E-02
-0.2676609685237E-01 -0.5613027829036E-02
-0.2774351590686E-01 -0.8424254403455E-02
-0.3116425152941E-01 -0.1164531795527E-01
-0.3677519796142E-01 -0.1525804855962E-01
-0.4434451635092E-01 -0.1924074711789E-01
-0.5365930011814E-01 -0.2356781875650E-01
-0.6452564857256E-01 -0.2821079790366E-01
-0.7676945884487E-01 -0.3314089942436E-01
-0.9023707389075E-01 -0.3833259582565E-01
-0.1047947106318E+00 -0.4376598728677E-01
-0.1203254777005E+00 -0.4942532177376E-01
-0.1367255558093E+00 -0.5529443604424E-01
-0.1539019053740E+00 -0.6135263747357E-01
-0.1717716660498E+00 -0.6757279673941E-01
-0.1902623551375E+00 -0.7392112141030E-01
-0.2093108273370E+00 -0.8035760140145E-01
-0.2288605650665E+00 -0.8683814123897E-01
-0.2488608224790E+00 -0.9331830341373E-01
-0.2814181600745E-01 -0.2629225665460E-02
-0.2611357366914E-01 -0.4849489692496E-02
-0.2680345805171E-01 -0.7435378342553E-02
-0.2993401217506E-01 -0.1037741543464E-01
-0.3525434316885E-01 -0.1366385942618E-01
-0.4253531572005E-01 -0.1727812286438E-01
-0.5156654975810E-01 -0.2119881604971E-01
-0.6215658615016E-01 -0.2540113311497E-01
-0.7413361839297E-01 -0.2985966382143E-01
-0.8734601720092E-01 -0.3455223423858E-01
-0.1016617210072E+00 -0.3946244173039E-01
-0.1169653123017E+00 -0.4457812023599E-01
-0.1331543332449E+00 -0.4988656738431E-01
-0.1501371064595E+00 -0.5537026649993E-01
-0.1678322778001E+00 -0.6100494724818E-01
-0.1861691800117E+00 -0.6675916702515E-01
-0.2050866784266E+00 -0.7259423180244E-01
-0.2245291751896E+00 -0.7846591216392E-01
-0.2444445591184E+00 -0.8432841933658E-01
-0.2780770574603E-01 -0.2028732479738E-02
-0.2552215489937E-01 -0.4083824667124E-02
-0.2594682972161E-01 -0.6443564064643E-02
-0.2880550860351E-01 -0.9106828200597E-02
-0.3385030043239E-01 -0.1206850983422E-01
-0.4085541882495E-01 -0.1531713687482E-01
-0.4961340139257E-01 -0.1883548835140E-01
-0.5993552236822E-01 -0.2260243594617E-01
-0.7165250698323E-01 -0.2659599119174E-01
-0.8461491217640E-01 -0.3079739771194E-01
-0.9869248001859E-01 -0.3519380896002E-01
-0.1137712882485E+00 -0.3977667950775E-01
-0.1297502277086E+00 -0.4453677483229E-01
-0.1465389370162E+00 -0.4945978270887E-01
-0.1640574911890E+00 -0.5452447616123E-01
-0.1822371247116E+00 -0.5970239044211E-01
-0.2010192917849E+00 -0.6495705750530E-01
-0.2203502750594E+00 -0.7024487269073E-01
-0.2401775819043E+00 -0.7551828032128E-01
-0.2750860626300E-01 -0.1426566645579E-02
-0.2499304436314E-01 -0.3314455895060E-02
-0.2517471055020E-01 -0.5446839436313E-02
-0.2777949059351E-01 -0.7831513801097E-02
-0.3256344025286E-01 -0.1047014912835E-01
-0.3930483152543E-01 -0.1335623470335E-01
-0.4779947862946E-01 -0.1647666859752E-01
-0.5786166384888E-01 -0.1981399260746E-01
-0.6932486671054E-01 -0.2334968893960E-01
-0.8204198648656E-01 -0.2706849355206E-01
-0.9588465781867E-01 -0.3096118741918E-01
-0.1107404893784E+00 -0.3502287868246E-01
-0.1265097261352E+00 -0.3924776079248E-01
-0.1431032622083E+00 -0.4362462224065E-01
-0.1604424406934E+00 -0.4813522561569E-01
-0.1784601285179E+00 -0.5275435138803E-01
-0.1971006909022E+00 -0.5744926826641E-01
-0.2163134761544E+00 -0.6217858937728E-01
-0.2360476720852E+00 -0.6689314527179E-01
-0.2724571563181E-01 -0.8215561476379E-03
-0.2452767239182E-01 -0.2539341518326E-02
-0.2448821998561E-01 -0.4442665504191E-02
-0.2685662123272E-01 -0.6549093102652E-02
-0.3139401837012E-01 -0.8866552442155E-02
-0.3788340561077E-01 -0.1139348747519E-01
-0.4612423828243E-01 -0.1412078042379E-01
-0.5593403947206E-01 -0.1703461981181E-01
-0.6714924706838E-01 -0.2012000600450E-01
-0.7962525168532E-01 -0.2336526969959E-01
-0.9323568044010E-01 -0.2676491613518E-01
-0.1078697302914E+00 -0.3031775805588E-01
-0.1234290506918E+00 -0.3402137231182E-01
-0.1398257855708E+00 -0.3786743067302E-01
-0.1569823464005E+00 -0.4184034345661E-01
-0.1748328746082E+00 -0.4591783462370E-01
-0.1933238171711E+00 -0.5007110392827E-01
-0.2124084311618E+00 -0.5426624891945E-01
-0.2320416515726E+00 -0.5845376624581E-01
-0.2702090178863E-01 -0.2123278390150E-03
-0.2412771452595E-01 -0.1754849644792E-02
-0.2388829746789E-01 -0.3428326317801E-02
-0.2603754053927E-01 -0.5256769696104E-02
-0.3034216286228E-01 -0.7255106805956E-02
-0.3659084162269E-01 -0.9426564360993E-02
-0.4458698326591E-01 -0.1176584774615E-01
-0.5415153580461E-01 -0.1426265076820E-01
-0.6512404459241E-01 -0.1690559973180E-01
-0.7736254576202E-01 -0.1968677165825E-01
-0.9074277049847E-01 -0.2260450930065E-01
-0.1051555795900E+00 -0.2566142684283E-01
-0.1205041330379E+00 -0.2885848319171E-01
-0.1367019381242E+00 -0.3219002850734E-01
-0.1536724082781E+00 -0.3564248654621E-01
-0.1713504833953E+00 -0.3919571073797E-01
-0.1896843692992E+00 -0.4282338889587E-01
-0.2086266457144E+00 -0.4649837746853E-01
-0.2281440309457E+00 -0.5019346150430E-01
-0.1736845529749E+00 -0.1116238176403E+00
-0.2511010053847E+00 -0.1972326140850E+00
-0.3110872160127E+00 -0.2685736650431E+00
-0.3638749032020E+00 -0.3323823633034E+00
-0.4135172764700E+00 -0.3922149495352E+00
-0.4619163855940E+00 -0.4481195794640E+00
-0.5094512857968E+00 -0.4968084639076E+00
-0.5558352124924E+00 -0.5375722267604E+00
-0.6008275997159E+00 -0.5718153988537E+00
-0.6443645405289E+00 -0.6007459658865E+00
-0.6863436137595E+00 -0.6250126966007E+00
-0.7265326101359E+00 -0.6449057689639E+00
-0.7646189303622E+00 -0.6607385699435E+00
-0.8001964631837E+00 -0.6727101270443E+00
-0.8327365491643E+00 -0.6809242022634E+00
-0.8616689284970E+00 -0.6856691303927E+00
-0.8866077904619E+00 -0.6876211931592E+00
-0.9060271784333E+00 -0.6855463815968E+00
-0.9178920809143E+00 -0.6808457383492E+00
-0.1580478206643E+00 -0.9556488455407E-01
-0.2362265057820E+00 -0.1708892652546E+00
-0.2979715581004E+00 -0.2412698127740E+00
-0.3516449729684E+00 -0.3043826513770E+00
-0.4019263152979E+00 -0.3633190965193E+00
-0.4506262202610E+00 -0.4187535366185E+00
-0.4980701379709E+00 -0.4679092495224E+00
-0.5441383614861E+00 -0.5098590946920E+00
-0.5887481337875E+00 -0.5455470642999E+00
-0.6319287443357E+00 -0.5759979953501E+00
-0.6736481105902E+00 -0.6018743831418E+00
-0.7137357636975E+00 -0.6235240197614E+00
-0.7519331328259E+00 -0.6412973695465E+00
-0.7878847806394E+00 -0.6554111400658E+00
-0.8211107428857E+00 -0.6659711756335E+00
-0.8510835027378E+00 -0.6732236805554E+00
-0.8774267414290E+00 -0.6778003495439E+00
-0.8985846571056E+00 -0.6785649951639E+00
-0.9124057330396E+00 -0.6769330687650E+00
-0.1446424939848E+00 -0.8419257142762E-01
-0.2211331292106E+00 -0.1499507616490E+00
-0.2839039040179E+00 -0.2159333704347E+00
-0.3385298360419E+00 -0.2775711555455E+00
-0.3893080367630E+00 -0.3354475190640E+00
-0.4381778342349E+00 -0.3901368474551E+00
-0.4855067737513E+00 -0.4392973172250E+00
-0.5313031434746E+00 -0.4819901797048E+00
-0.5755758688645E+00 -0.5188715151506E+00
-0.6184115596664E+00 -0.5507441548648E+00
-0.6598401734129E+00 -0.5781919070818E+00
-0.6997558457917E+00 -0.6015710819460E+00
-0.7379607052441E+00 -0.6212553369742E+00
-0.7741547308326E+00 -0.6374821662443E+00
-0.8079132069689E+00 -0.6503664741009E+00
-0.8387578081922E+00 -0.6601487088012E+00
-0.8663410282125E+00 -0.6674371076086E+00
-0.8890284467924E+00 -0.6711415524526E+00
-0.9044857629990E+00 -0.6724527556307E+00
-0.1331053886111E+00 -0.7545744586429E-01
-0.2066445311412E+00 -0.1328493703857E+00
-0.2693247397166E+00 -0.1934508344916E+00
-0.3245660857453E+00 -0.2523457008708E+00
-0.3757356993672E+00 -0.3086867515199E+00
-0.4246717038698E+00 -0.3623322963671E+00
-0.4718316925026E+00 -0.4111424402883E+00
-0.5173401811534E+00 -0.4542004589713E+00
-0.5612803340175E+00 -0.4919722423666E+00
-0.6037711997746E+00 -0.5250760261881E+00
-0.6448836071506E+00 -0.5539850102113E+00
-0.6845670805046E+00 -0.5790197148466E+00
-0.7226843771600E+00 -0.6005505597517E+00
-0.7589931560546E+00 -0.6188276857331E+00
-0.7931244456328E+00 -0.6339801527094E+00
-0.8246520324559E+00 -0.6462505578568E+00
-0.8532711721609E+00 -0.6562347700180E+00
-0.8772452943398E+00 -0.6628362604454E+00
-0.8940349333814E+00 -0.6668844928822E+00
-0.1231184615059E+00 -0.6841741659345E-01
-0.1930271278094E+00 -0.1186265704695E+00
-0.2546806409615E+00 -0.1736978492350E+00
-0.3099654114470E+00 -0.2290855626732E+00
-0.3612982761494E+00 -0.2832485135199E+00
-0.4101930980652E+00 -0.3354609256414E+00
-0.4571151508445E+00 -0.3835865964477E+00
-0.5022899113455E+00 -0.4266733466007E+00
-0.5458684597415E+00 -0.4650286168133E+00
-0.5879930741662E+00 -0.4991214757079E+00
-0.6287580774101E+00 -0.5293176357967E+00
-0.6681536327317E+00 -0.5558799077473E+00
-0.7060962641271E+00 -0.5791506353256E+00
-0.7423988220851E+00 -0.5993784981830E+00
-0.7767463625425E+00 -0.6167019600154E+00
-0.8087651226779E+00 -0.6313647231243E+00
-0.8382022335170E+00 -0.6439483037270E+00
-0.8632176415172E+00 -0.6533139430634E+00
-0.8810780345715E+00 -0.6598710368016E+00
-0.1144178431404E+00 -0.6257574846221E-01
-0.1803562513395E+00 -0.1066244251417E+00
-0.2402710552018E+00 -0.1563814696994E+00
-0.2949988054460E+00 -0.2078868335437E+00
-0.3461499305434E+00 -0.2593521669158E+00
-0.3948389786498E+00 -0.3096951797584E+00
-0.4414331036941E+00 -0.3567827034558E+00
-0.4862087263631E+00 -0.3995726456342E+00
-0.5293738050855E+00 -0.4382069539868E+00
-0.5710900410832E+00 -0.4730217232706E+00
-0.6114648002642E+00 -0.5042855774833E+00
-0.6505152291888E+00 -0.5321978948632E+00
-0.6882011482804E+00 -0.5570571800970E+00
-0.7243844008329E+00 -0.5790960918372E+00
-0.7588002363734E+00 -0.5984529535884E+00
-0.7911261031726E+00 -0.6153652137582E+00
-0.8211659190067E+00 -0.6303929334679E+00
-0.8469907764832E+00 -0.6423364802377E+00
-0.8657083210295E+00 -0.6511786591104E+00
-0.1067916169286E+00 -0.5762884830236E-01
-0.1686243853430E+00 -0.9638238651177E-01
-0.2262860309266E+00 -0.1411880439482E+00
-0.2799131754519E+00 -0.1886993771089E+00
-0.3304870456356E+00 -0.2371217028556E+00
-0.3787396787550E+00 -0.2852098521789E+00
-0.4248785636524E+00 -0.3308978246238E+00
-0.4691686653534E+00 -0.3730610526343E+00
-0.5118503076099E+00 -0.4116674577467E+00
-0.5530987601952E+00 -0.4469225697679E+00
-0.5930276744899E+00 -0.4790045551015E+00
-0.6316706019244E+00 -0.5080498752987E+00
-0.6690197793604E+00 -0.5343052667222E+00
-0.7049779209907E+00 -0.5579761990797E+00
-0.7393251545103E+00 -0.5791905143656E+00
-0.7717875200692E+00 -0.5981699208747E+00
-0.8022267300057E+00 -0.6154439627077E+00
-0.8286505839603E+00 -0.6297488227408E+00
-0.8480572939346E+00 -0.6406673684737E+00
-0.1000682710806E+00 -0.5337484881174E-01
-0.1577882049360E+00 -0.8756321201768E-01
-0.2128406477891E+00 -0.1278310332387E+00
-0.2649110160845E+00 -0.1714011986973E+00
-0.3145128730065E+00 -0.2165942127847E+00
-0.3620549302363E+00 -0.2621349617447E+00
-0.4075697656442E+00 -0.3060923685856E+00
-0.4512614624453E+00 -0.3473015033191E+00
-0.4933713216503E+00 -0.3855694485781E+00
-0.5340771131877E+00 -0.4209731752792E+00
-0.5734923466000E+00 -0.4536034136639E+00
-0.6116586815806E+00 -0.4835351951837E+00
-0.6485908537458E+00 -0.5109600033928E+00
-0.6842239634182E+00 -0.5360487542762E+00
-0.7183770085074E+00 -0.5589102617117E+00
-0.7508208864954E+00 -0.5797417010338E+00
-0.7814726556187E+00 -0.5990332722030E+00
-0.8083092894616E+00 -0.6154658557024E+00
-0.8282774497069E+00 -0.6282697392435E+00
-0.9410774739361E-01 -0.4967104753395E-01
-0.1477893568571E+00 -0.7991126271470E-01
-0.2000001599753E+00 -0.1160599198841E+00
-0.2501498743264E+00 -0.1558406399750E+00
-0.2984171838342E+00 -0.1977433854647E+00
-0.3449585031195E+00 -0.2405450510049E+00
-0.3896480229967E+00 -0.2824975290988E+00
-0.4326008589034E+00 -0.3224466076444E+00
-0.4740305715053E+00 -0.3600694910773E+00
-0.5141034173048E+00 -0.3953250200211E+00
-0.5529252377184E+00 -0.4282204051117E+00
-0.5905385555041E+00 -0.4587710800482E+00
-0.6269717638702E+00 -0.4871121165552E+00
-0.6621842707632E+00 -0.5133754973090E+00
-0.6960278709308E+00 -0.5376450565615E+00
-0.7283138185703E+00 -0.5600868699185E+00
-0.7590092733537E+00 -0.5811444533366E+00
-0.7860966860277E+00 -0.5994615582891E+00
-0.8065324853956E+00 -0.6139758262972E+00
-0.8879474280710E-01 -0.4641208420736E-01
-0.1385644762038E+00 -0.7322728094907E-01
-0.1877966433192E+00 -0.1056587844399E+00
-0.2357482541298E+00 -0.1418580061817E+00
-0.2823669070275E+00 -0.1805016365346E+00
-0.3276243466822E+00 -0.2204640706292E+00
-0.3712694263214E+00 -0.2602052279006E+00
-0.4133202323981E+00 -0.2986264827642E+00
-0.4539419689510E+00 -0.3353142255613E+00
-0.4932761036205E+00 -0.3701280305536E+00
-0.5314129043661E+00 -0.4029995977517E+00
-0.5683890417834E+00 -0.4338882985883E+00
-0.6042385949004E+00 -0.4628735430900E+00
-0.6389378272116E+00 -0.4900463355951E+00
-0.6723655132255E+00 -0.5154621206991E+00
-0.7043683174994E+00 -0.5392519929669E+00
-0.7349562009525E+00 -0.5618075318325E+00
-0.7621549282174E+00 -0.5817602284533E+00
-0.7829919773684E+00 -0.5978223053031E+00
-0.8403374778361E-01 -0.4351764293234E-01
-0.1300502046478E+00 -0.6735257330795E-01
-0.1762400052284E+00 -0.9644212079304E-01
-0.2217926201393E+00 -0.1292965185513E+00
-0.2665032919459E+00 -0.1647765973481E+00
-0.3102169551843E+00 -0.2018755663169E+00
-0.3525955459447E+00 -0.2392672729510E+00
-0.3935669339076E+00 -0.2759413685499E+00
-0.4332369911898E+00 -0.3114324144027E+00
-0.4717124557649E+00 -0.3455244943016E+00
-0.5090611558664E+00 -0.3780860504155E+00
-0.5453080133399E+00 -0.4090266149228E+00
-0.5804856930363E+00 -0.4383729150741E+00
-0.6145805554583E+00 -0.4661750836253E+00
-0.6474929240004E+00 -0.4924590682721E+00
-0.6790997184502E+00 -0.5173197003223E+00
-0.7094450353607E+00 -0.5410936158396E+00
-0.7366355820838E+00 -0.5624292983072E+00
-0.7578287139507E+00 -0.5798845172792E+00
-0.7974530983699E-01 -0.4092503184808E-01
-0.1221857603247E+00 -0.6215864401332E-01
-0.1653253609776E+00 -0.8825043140232E-01
-0.2083438209040E+00 -0.1180076515499E+00
-0.2509424248565E+00 -0.1504625582012E+00
-0.2928856922597E+00 -0.1847331951063E+00
-0.3337855093782E+00 -0.2196995500608E+00
-0.3734955488942E+00 -0.2544593279942E+00
-0.4120601599315E+00 -0.2885292790660E+00
-0.4495458598433E+00 -0.3216428226629E+00
-0.4859933168871E+00 -0.3536201037494E+00
-0.5214112033846E+00 -0.3843295708648E+00
-0.5558248121243E+00 -0.4137506070543E+00
-0.5892246757769E+00 -0.4418947056575E+00
-0.6215277208558E+00 -0.4687592948168E+00
-0.6526359480645E+00 -0.4944039762130E+00
-0.6826181468601E+00 -0.5191096164545E+00
-0.7096980238430E+00 -0.5415732808243E+00
-0.7312175314974E+00 -0.5602704594945E+00
-0.7586317046322E-01 -0.3858444319596E-01
-0.1149142472147E+00 -0.5754013552096E-01
-0.1550380828819E+00 -0.8094631714741E-01
-0.1954425166062E+00 -0.1078535419761E+00
-0.2357773118272E+00 -0.1374481627303E+00
-0.2757620366649E+00 -0.1689698381785E+00
-0.3149901547935E+00 -0.2014882131842E+00
-0.3532615525327E+00 -0.2342176053174E+00
-0.3905637057022E+00 -0.2666838579457E+00
-0.4269218597639E+00 -0.2985927439925E+00
-0.4623474505782E+00 -0.3297318507264E+00
-0.4968302444282E+00 -0.3599389201683E+00
-0.5303836929529E+00 -0.3891533229309E+00
-0.5629976437588E+00 -0.4173520812616E+00
-0.5946013193281E+00 -0.4445069008794E+00
-0.6251168075696E+00 -0.4706451392505E+00
-0.6546278680690E+00 -0.4959930702497E+00
-0.6815085685638E+00 -0.5193284767189E+00
-0.7033349281938E+00 -0.5391160225757E+00
-0.7233202723988E-01 -0.3645577162456E-01
-0.1081832794317E+00 -0.5340983775137E-01
-0.1453573206858E+00 -0.7441118000127E-01
-0.1831136148808E+00 -0.9870784984061E-01
-0.2210805596820E+00 -0.1256214896218E+00
-0.2589587650220E+00 -0.1545049116818E+00
-0.2963481517650E+00 -0.1845961710925E+00
-0.3330160372159E+00 -0.2152260572194E+00
-0.3689022935417E+00 -0.2459489366661E+00
-0.4039936152676E+00 -0.2764624870254E+00
-0.4382727513906E+00 -0.3065366516123E+00
-0.4717099088038E+00 -0.3359893396875E+00
-0.5043039651546E+00 -0.3647285219428E+00
-0.5360405384143E+00 -0.3927024199691E+00
-0.5668576874360E+00 -0.4198612429429E+00
-0.5966930194681E+00 -0.4462045864059E+00
-0.6256357080216E+00 -0.4719070215893E+00
-0.6522398873660E+00 -0.4958581504507E+00
-0.6743590078699E+00 -0.5165809706144E+00
-0.6910576032368E-01 -0.3450638456982E-01
-0.1019452256983E+00 -0.4969503412888E-01
-0.1362585004030E+00 -0.6854248407133E-01
-0.1713698558091E+00 -0.9045580625111E-01
-0.2069071729052E+00 -0.1148733677250E+00
-0.2425703474724E+00 -0.1412500159039E+00
-0.2779837306607E+00 -0.1689690722154E+00
-0.3129016991170E+00 -0.1974714994743E+00
-0.3472283419345E+00 -0.2263527713813E+00
-0.3809173304801E+00 -0.2553178620381E+00
-0.4139255073808E+00 -0.2841321012566E+00
-0.4462047459468E+00 -0.3126039619442E+00
-0.4777384175612E+00 -0.3406191140861E+00
-0.5085058504701E+00 -0.3681035809852E+00
-0.5384515506671E+00 -0.3949912343620E+00
-0.5675248048572E+00 -0.4212593378352E+00
-0.5958112665234E+00 -0.4470349145821E+00
-0.6220703673892E+00 -0.4713479807283E+00
-0.6444694823964E+00 -0.4928453321373E+00
-0.6614601756740E-01 -0.3270948713249E-01
-0.9615723883840E-01 -0.4633473145381E-01
-0.1277151197185E+00 -0.6325146711557E-01
-0.1602146980828E+00 -0.8299384568654E-01
-0.1932972379983E+00 -0.1050995040918E+00
-0.2266740652478E+00 -0.1291132114279E+00
-0.2600056356258E+00 -0.1545404848350E+00
-0.2930500178634E+00 -0.1809222425182E+00
-0.3256881727740E+00 -0.2079018802430E+00
-0.3578480513886E+00 -0.2352028554606E+00
-0.3894650340337E+00 -0.2625964809382E+00
-0.4204754289813E+00 -0.2898910322759E+00
-0.4508478361051E+00 -0.3169587887174E+00
-0.4805547579977E+00 -0.3437105685293E+00
-0.5095460146063E+00 -0.3700695221337E+00
-0.5377798148059E+00 -0.3959963869982E+00
-0.5653305314438E+00 -0.4215754483796E+00
-0.5911830720640E+00 -0.4460016956775E+00
-0.6138475378701E+00 -0.4681060411540E+00
-0.6342109468891E-01 -0.3104287431681E-01
-0.9078115421473E-01 -0.4327741986384E-01
-0.1197000147354E+00 -0.5846122177379E-01
-0.1496446249236E+00 -0.7622901621396E-01
-0.1802783777948E+00 -0.9620182629950E-01
-0.2113315238315E+00 -0.1180021934853E+00
-0.2425069546639E+00 -0.1412362029090E+00
-0.2735794463145E+00 -0.1655323943757E+00
-0.3044190216448E+00 -0.1905843414901E+00
-0.3349360337690E+00 -0.2161412928050E+00
-0.3650498721296E+00 -0.2419885220634E+00
-0.3946851224143E+00 -0.2679417874850E+00
-0.4237976978519E+00 -0.2938682146717E+00
-0.4523541279745E+00 -0.3196704095554E+00
-0.4803097366176E+00 -0.3452665761574E+00
-0.5076303562426E+00 -0.3706067335861E+00
-0.5343732327975E+00 -0.3957372332582E+00
-0.5597638296064E+00 -0.4200368607735E+00
-0.5826752965809E+00 -0.4425738568775E+00
-0.6090510235988E-01 -0.2948766984894E-01
-0.8578328527385E-01 -0.4047926595115E-01
-0.1121862192852E+00 -0.5410491642412E-01
-0.1396509363414E+00 -0.7007846369021E-01
-0.1678680001093E+00 -0.8808928635671E-01
-0.1965903795311E+00 -0.1078266214539E+00
-0.2255655894333E+00 -0.1289777299923E+00
-0.2545944341998E+00 -0.1512457304860E+00
-0.2835468579406E+00 -0.1743732307004E+00
-0.3123237609475E+00 -0.1981392031662E+00
-0.3408344326430E+00 -0.2223482800304E+00
-0.3689961338960E+00 -0.2468295992433E+00
-0.3967550612991E+00 -0.2714523453706E+00
-0.4240736549573E+00 -0.2961176567942E+00
-0.4509140929412E+00 -0.3207446911431E+00
-0.4772501692617E+00 -0.3452786597086E+00
-0.5031190386039E+00 -0.3697327070754E+00
-0.5279977142268E+00 -0.3936805525308E+00
-0.5511342035195E+00 -0.4164707849851E+00
-0.5857763792838E-01 -0.2802781278383E-01
-0.8113413044697E-01 -0.3790099730926E-01
-0.1051470491450E+00 -0.5012514771039E-01
-0.1302213198692E+00 -0.6446889785262E-01
-0.1560753232985E+00 -0.8067834779435E-01
-0.1824861869265E+00 -0.9849974929497E-01
-0.2092451631344E+00 -0.1176849839116E+00
-0.2361850941731E+00 -0.1379990148653E+00
-0.2631848913869E+00 -0.1592299184029E+00
-0.2901435595965E+00 -0.1811875468939E+00
-0.3169660988057E+00 -0.2036988841106E+00
-0.3435669318018E+00 -0.2266104082392E+00
-0.3698858693802E+00 -0.2497991817267E+00
-0.3958836041519E+00 -0.2731710452761E+00
-0.4215311149802E+00 -0.2966522042451E+00
-0.4468118330823E+00 -0.3201896926499E+00
-0.4717430243387E+00 -0.3437693700881E+00
-0.4960628659833E+00 -0.3671636299352E+00
-0.5194005873650E+00 -0.3900280817421E+00
-0.2645953728756E-01  0.1015080359102E-02
-0.2333387444961E-01 -0.1800954492457E-03
-0.2299918037565E-01 -0.1368230797742E-02
-0.2515999390116E-01 -0.2585891267490E-02
-0.2955819567125E-01 -0.3848849146597E-02
-0.3596241554944E-01 -0.5160311777260E-02
-0.4418070948600E-01 -0.6538230838798E-02
-0.5404445871498E-01 -0.7997315141673E-02
-0.6539430232426E-01 -0.9540436830295E-02
-0.7808619811635E-01 -0.1117102399318E-01
-0.9199376797763E-01 -0.1289998961350E-01
-0.1070068907551E+00 -0.1474477072546E-01
-0.1230273072769E+00 -0.1671874439188E-01
-0.1399685776920E+00 -0.1883051610895E-01
-0.1577554092527E+00 -0.2108706222903E-01
-0.1763213713295E+00 -0.2349073317673E-01
-0.1956053010529E+00 -0.2602523173167E-01
-0.2155327681717E+00 -0.2885337599833E-01
-0.2359066386344E+00 -0.3217473708806E-01
-0.2612830688589E-01  0.1629223456109E-02
-0.2295601700788E-01  0.6480619714313E-03
-0.2274303249373E-01 -0.2384353118899E-03
-0.2515830220257E-01 -0.1069128041178E-02
-0.2991384463263E-01 -0.1853851335406E-02
-0.3675192735480E-01 -0.2590992911342E-02
-0.4547867478440E-01 -0.3322210044216E-02
-0.5593035803229E-01 -0.4086338884452E-02
-0.6794472913888E-01 -0.4898245401790E-02
-0.8137265094732E-01 -0.5770372262150E-02
-0.9608326008478E-01 -0.6723964873778E-02
-0.1119632899783E+00 -0.7789711072200E-02
-0.1289107842464E+00 -0.8992323350636E-02
-0.1468363041216E+00 -0.1035493300548E-01
-0.1656615131173E+00 -0.1190708844473E-01
-0.1853125999356E+00 -0.1367516630537E-01
-0.2057123695209E+00 -0.1564251958822E-01
-0.2267480890509E+00 -0.1815724583980E-01
-0.2480478334571E+00 -0.2159078217555E-01
-0.2584842426602E-01  0.2265134622107E-02
-0.2267159829322E-01  0.1534921355830E-02
-0.2261940414443E-01  0.1001104859336E-02
-0.2532927669345E-01  0.6149548693821E-03
-0.3048520630944E-01  0.3715316437489E-03
-0.3780388579687E-01  0.2760692352889E-03
-0.4708693048288E-01  0.2602399343030E-03
-0.5817355356625E-01  0.2578103252446E-03
-0.7089800161096E-01  0.2397398588733E-03
-0.8510573885033E-01  0.1827833770662E-03
-0.1006610043066E+00  0.5346034938105E-04
-0.1174466435247E+00 -0.1942184011903E-03
-0.1353561072609E+00 -0.5978581594058E-03
-0.1542953451193E+00 -0.1196050771980E-02
-0.1741803787144E+00 -0.2040343116891E-02
-0.1949278413954E+00 -0.3176329370708E-02
-0.2164476690894E+00 -0.4576782260268E-02
-0.2385832929795E+00 -0.6769473314422E-02
-0.2608260682014E+00 -0.1032087891166E-01
-0.2562676324327E-01  0.2926677096927E-02
-0.2249110933910E-01  0.2490783710135E-02
-0.2263983608795E-01  0.2364031720038E-02
-0.2568323103274E-01  0.2483699068615E-02
-0.3128069210121E-01  0.2847403304036E-02
-0.3912415162203E-01  0.3462869827021E-02
-0.4900807022953E-01  0.4231467195705E-02
-0.6077267948348E-01  0.5055881137556E-02
-0.7424815422783E-01  0.5890527566925E-02
-0.8927416350233E-01  0.6699567222087E-02
-0.1057095260922E+00  0.7435638076943E-02
-0.1234324511723E+00  0.8036022289196E-02
-0.1423311170535E+00  0.8449815003866E-02
-0.1623059825400E+00  0.8623631329152E-02
-0.1832666253563E+00  0.8485993394061E-02
-0.2051212395300E+00  0.7975741974384E-02
-0.2277717175199E+00  0.7135577683263E-02
-0.2510215191836E+00  0.5245530578745E-02
-0.2742149303233E+00  0.1511205733967E-02
-0.2547161135074E-01  0.3618209886408E-02
-0.2242566711457E-01  0.3525718253125E-02
-0.2281524282540E-01  0.3865411533071E-02
-0.2622924583373E-01  0.4555675108087E-02
-0.3230663629477E-01  0.5594989903181E-02
-0.4071574088892E-01  0.6992248049882E-02
-0.5124111325774E-01  0.8614295724039E-02
-0.6372213730407E-01  0.1032861820430E-01
-0.7798434734659E-01  0.1207073363824E-01
-0.9386118880368E-01  0.1379062303425E-01
-0.1112055993761E+00  0.1542578565697E-01
-0.1298906625932E+00  0.1689594400514E-01
-0.1497991022746E+00  0.1813719610500E-01
-0.1708258468708E+00  0.1908241685034E-01
-0.1928744239475E+00  0.1964147742601E-01
-0.2158461466575E+00  0.1973876016769E-01
-0.2396393388598E+00  0.1943180978858E-01
-0.2640119957138E+00  0.1779413697525E-01
-0.2881456903788E+00  0.1379783069835E-01
-0.2539249516220E-01  0.4344424803400E-02
-0.2248699363567E-01  0.4650726071030E-02
-0.2315611764180E-01  0.5521439192239E-02
-0.2697501121033E-01  0.6850766357156E-02
-0.3356721815112E-01  0.8636580227897E-02
-0.4257877588605E-01  0.1088781012301E-01
-0.5378155280226E-01  0.1343192383406E-01
-0.6701227351078E-01  0.1609672907203E-01
-0.8209125924514E-01  0.1879660994727E-01
-0.9884532939178E-01  0.2146607116559E-01
-0.1171212646657E+00  0.2402658706073E-01
-0.1367868955283E+00  0.2637987986864E-01
-0.1577197364428E+00  0.2844960844489E-01
-0.1798095688142E+00  0.3015569841352E-01
-0.2029543403156E+00  0.3138966183019E-01
-0.2270493565762E+00  0.3206094535714E-01
-0.2519901686412E+00  0.3224004502671E-01
-0.2774817275766E+00  0.3078630283655E-01
-0.3025305895452E+00  0.2644122951901E-01
-0.2540021320905E-01  0.5110622805734E-02
-0.2268739188461E-01  0.5877935310041E-02
-0.2367245469586E-01  0.7349677698721E-02
-0.2792675137466E-01  0.9390130342826E-02
-0.3506436114298E-01  0.1199548991184E-01
-0.4471046470481E-01  0.1517383629187E-01
-0.5662144031083E-01  0.1870781759085E-01
-0.7062960590681E-01  0.2238075910785E-01
-0.8654947982641E-01  0.2608385410966E-01
-0.1042009236171E+00  0.2973513697237E-01
-0.1234245252206E+00  0.3323948925612E-01
-0.1440830601065E+00  0.3648045913635E-01
-0.1660492800322E+00  0.3936993768753E-01
-0.1892081484208E+00  0.4181548080344E-01
-0.2134520393096E+00  0.4369009701131E-01
-0.2386697404244E+00  0.4488759906109E-01
-0.2647524500311E+00  0.4549081078336E-01
-0.2913450865767E+00  0.4414099988395E-01
-0.3172726678567E+00  0.3935670420808E-01
-0.2550692570213E-01  0.5922831836991E-02
-0.2303970091588E-01  0.7220810684944E-02
-0.2437363438424E-01  0.9369168298264E-02
-0.2908909978091E-01  0.1219622679191E-01
-0.3679765446577E-01  0.1569599872241E-01
-0.4710509726167E-01  0.1987518523783E-01
-0.5974949249116E-01  0.2446557268261E-01
-0.7455704908226E-01  0.2920089017524E-01
-0.9133585474160E-01  0.3394729114427E-01
-0.1098985826020E+00  0.3860566176181E-01
-0.1300798475141E+00  0.4306405492223E-01
-0.1517378037853E+00  0.4718798079766E-01
-0.1747408621689E+00  0.5087847474709E-01
-0.1989691658054E+00  0.5403140365337E-01
-0.2243088171074E+00  0.5650125848951E-01
-0.2506404655591E+00  0.5816610788395E-01
-0.2778479240645E+00  0.5912173722050E-01
-0.3055110170421E+00  0.5778964044714E-01
-0.3322717197074E+00  0.5247417086329E-01
-0.2572627629964E-01  0.6787929370861E-02
-0.2355724101083E-01  0.8694306537840E-02
-0.2526827978118E-01  0.1160051741685E-01
-0.3046496600163E-01  0.1529280802214E-01
-0.3876428162015E-01  0.1976328143153E-01
-0.4975406007716E-01  0.2501718118852E-01
-0.6315120166191E-01  0.3072874942737E-01
-0.7877411619385E-01  0.3657668350301E-01
-0.9642377346338E-01  0.4240048495547E-01
-0.1159055681669E+00  0.4808359119820E-01
-0.1370486256731E+00  0.5349744345249E-01
-0.1597070543574E+00  0.5849014422543E-01
-0.1837451548529E+00  0.6295326357175E-01
-0.2090377725730E+00  0.6677205793800E-01
-0.2354633698624E+00  0.6978295449136E-01
-0.2628920489986E+00  0.7184888007705E-01
-0.2911965142930E+00  0.7308030229567E-01
-0.3198885499381E+00  0.7167791468382E-01
-0.3474291791842E+00  0.6574012873367E-01
-0.2607353093560E-01  0.7713768558672E-02
-0.2425374239380E-01  0.1031500311440E-01
-0.2636409695418E-01  0.1406594462472E-01
-0.3205540484399E-01  0.1870488225822E-01
-0.4095896663917E-01  0.2422332669333E-01
-0.5264586160100E-01  0.3062550608803E-01
-0.6680893455261E-01  0.3752070556275E-01
-0.8325708315714E-01  0.4452679595807E-01
-0.1017834134090E+00  0.5145530613528E-01
-0.1221861601761E+00  0.5817244901533E-01
-0.1442897192579E+00  0.6453396191712E-01
-0.1679447738048E+00  0.7037193410691E-01
-0.1930114209240E+00  0.7557056576585E-01
-0.2193582006116E+00  0.8000614521897E-01
-0.2468539984422E+00  0.8349801776968E-01
-0.2753554990741E+00  0.8589518865050E-01
-0.3047204055474E+00  0.8732529404454E-01
-0.3343913800909E+00  0.8576691250192E-01
-0.3626527499519E+00  0.7911897297045E-01
-0.2656572451851E-01  0.8709319807911E-02
-0.2514325066174E-01  0.1210122466596E-01
-0.2766770448310E-01  0.1678928740594E-01
-0.3385950243834E-01  0.2245864144155E-01
-0.4337394556700E-01  0.2910285596591E-01
-0.5576616042676E-01  0.3672612076195E-01
-0.7070199970182E-01  0.4486444993102E-01
-0.8797910287975E-01  0.5306866897044E-01
-0.1073819564455E+00  0.6112142403231E-01
-0.1287020659385E+00  0.6887273298496E-01
-0.1517601296900E+00  0.7616458951152E-01
-0.1764039397713E+00  0.8281552685252E-01
-0.2024888374524E+00  0.8870530340730E-01
-0.2298754973094E+00  0.9370341665901E-01
-0.2584208631895E+00  0.9761349889746E-01
-0.2879651714409E+00  0.1002722271337E+00
-0.3183474695896E+00  0.1018274079503E+00
-0.3489417251179E+00  0.1000333006638E+00
-0.3778607601860E+00  0.9259323314992E-01
-0.2722180531306E-01  0.9784837293453E-02
-0.2623999905917E-01  0.1407313346207E-01
-0.2918445882507E-01  0.1979594329525E-01
-0.3587429784710E-01  0.2658134715291E-01
-0.4599897219697E-01  0.3442926536561E-01
-0.5909777852691E-01  0.4334525742529E-01
-0.7480665092976E-01  0.5278253655229E-01
-0.9291025136371E-01  0.6221815410209E-01
-0.1131837982871E+00  0.7140563931914E-01
-0.1354129264908E+00  0.8018114206328E-01
-0.1594158641337E+00  0.8837641559718E-01
-0.1850377434898E+00  0.9580020565578E-01
-0.2121279798222E+00  0.1023315158028E+00
-0.2405372795592E+00  0.1078355003369E+00
-0.2701080316369E+00  0.1121015134486E+00
-0.3006611383726E+00  0.1149555733544E+00
-0.3320139504817E+00  0.1165689950392E+00
-0.3634733730380E+00  0.1144683543306E+00
-0.3929858627434E+00  0.1061623580529E+00
-0.2806276361860E-01  0.1095207018820E-01
-0.2755823419017E-01  0.1625278783080E-01
-0.3091828874388E-01  0.2311271588391E-01
-0.3809477268236E-01  0.3110116874047E-01
-0.4882136886507E-01  0.4023064312188E-01
-0.6262066167745E-01  0.5050955989546E-01
-0.7909597160521E-01  0.6129701345721E-01
-0.9801748566181E-01  0.7198898701634E-01
-0.1191507943033E+00  0.8231092142113E-01
-0.1422770016397E+00  0.9208955362052E-01
-0.1672130438460E+00  0.1011520217111E+00
-0.1938009807936E+00  0.1093024043479E+00
-0.2218823502306E+00  0.1164229817676E+00
-0.2512953246297E+00  0.1223767504302E+00
-0.2818651255666E+00  0.1269398525090E+00
-0.3133909089848E+00  0.1299291177174E+00
-0.3456662720993E+00  0.1315429432398E+00
-0.3779336712337E+00  0.1290757263683E+00
-0.4079775643905E+00  0.1198398743797E+00
-0.2911171969258E-01  0.1222455687787E-01
-0.2911196768317E-01  0.1866413733677E-01
-0.3287156070443E-01  0.2676748851701E-01
-0.4051396524140E-01  0.3604695376738E-01
-0.5182612750551E-01  0.4653595905275E-01
-0.6631170160355E-01  0.5824648627849E-01
-0.8353954585030E-01  0.7042939020833E-01
-0.1032645100723E+00  0.8239189607306E-01
-0.1252426451234E+00  0.9383493626554E-01
-0.1492521672373E+00  0.1045837144502E+00
-0.1751093176346E+00  0.1144689732907E+00
-0.2026515785862E+00  0.1232961196072E+00
-0.2317098005507E+00  0.1309541870485E+00
-0.2621068156561E+00  0.1373051950891E+00
-0.2936484038430E+00  0.1421123644742E+00
-0.3261103706168E+00  0.1451844565860E+00
-0.3592618329872E+00  0.1467507229730E+00
-0.3922842018131E+00  0.1438680446746E+00
-0.4228030783358E+00  0.1336490093584E+00
-0.3039392642704E-01  0.1361809802657E-01
-0.3091459590564E-01  0.2133291796549E-01
-0.3504502395777E-01  0.3078856037298E-01
-0.4312332146047E-01  0.4144790919450E-01
-0.5499604735257E-01  0.5337564337989E-01
-0.7014423113806E-01  0.6658517750195E-01
-0.8810278333138E-01  0.8020044964348E-01
-0.1086116258369E+00  0.9343292667154E-01
-0.1314176527406E+00  0.1059678111468E+00
-0.1562974144423E+00  0.1176418096060E+00
-0.1830655946648E+00  0.1282998233405E+00
-0.2115521109327E+00  0.1377540300619E+00
-0.2415736407441E+00  0.1459017569775E+00
-0.2729350625277E+00  0.1526035298575E+00
-0.3054211692520E+00  0.1576090271218E+00
-0.3387838918007E+00  0.1607197611271E+00
-0.3727687325905E+00  0.1621997736129E+00
-0.4065000053184E+00  0.1588626988489E+00
-0.4374461666775E+00  0.1476172201252E+00
-0.3193659481907E-01  0.1515169837258E-01
-0.3297825383996E-01  0.2428637187483E-01
-0.3743794750437E-01  0.3520327182275E-01
-0.4591353724146E-01  0.4733315459914E-01
-0.5831179335592E-01  0.6078312735110E-01
-0.7408679979637E-01  0.7555803774471E-01
-0.9274576532794E-01  0.9062936357134E-01
-0.1140158894408E+00  0.1051101777569E+00
-0.1376342689888E+00  0.1186890943718E+00
-0.1633750151602E+00  0.1312335143543E+00
-0.1910479519810E+00  0.1426132957587E+00
-0.2204710113031E+00  0.1526496059338E+00
-0.2514431811294E+00  0.1612462398536E+00
-0.2837495745622E+00  0.1682599145598E+00
-0.3171534907643E+00  0.1734255812430E+00
-0.3513836415004E+00  0.1765382234040E+00
-0.3861645063042E+00  0.1779005904298E+00
-0.4205674191169E+00  0.1740774327714E+00
-0.4519039612646E+00  0.1617704043702E+00
-0.3376836114735E-01  0.1684978496183E-01
-0.3531245392521E-01  0.2755281056383E-01
-0.4004885399821E-01  0.4003459748906E-01
-0.4887638179678E-01  0.5373151372368E-01
-0.6175145533031E-01  0.6879852051486E-01
-0.7810033115827E-01  0.8520330984091E-01
-0.9742189002931E-01  0.1017301360550E+00
-0.1194324040534E+00  0.1174081533569E+00
-0.1438539478343E+00  0.1319645800188E+00
-0.1704532745419E+00  0.1453207914561E+00
-0.1990292522483E+00  0.1573773657630E+00
-0.2293830522264E+00  0.1679600477779E+00
-0.2612935186458E+00  0.1769737200158E+00
-0.2945255094116E+00  0.1842681799413E+00
-0.3288213788557E+00  0.1895626713142E+00
-0.3638883075796E+00  0.1926463267269E+00
-0.3994340838052E+00  0.1938640462355E+00
-0.4344808007873E+00  0.1895264532840E+00
-0.4661821319572E+00  0.1761277054743E+00
-0.3591738758002E-01  0.1875020489778E-01
-0.3792110849014E-01  0.3115905906290E-01
-0.4287780373648E-01  0.4529360288968E-01
-0.5200916327785E-01  0.6067154738047E-01
-0.6528702443371E-01  0.7747974564967E-01
-0.8213317443393E-01  0.9556460057168E-01
-0.1020777233458E+00  0.1135030018005E+00
-0.1248180151213E+00  0.1302897470033E+00
-0.1500455899850E+00  0.1457452160872E+00
-0.1775091093106E+00  0.1598623987237E+00
-0.2069896494922E+00  0.1725642097956E+00
-0.2382687527490E+00  0.1836690763001E+00
-0.2711046306421E+00  0.1930764729196E+00
-0.3052427179571E+00  0.2006272371689E+00
-0.3404056928495E+00  0.2060246146051E+00
-0.3762814989049E+00  0.2090524459416E+00
-0.4125672611407E+00  0.2100995687634E+00
-0.4482385100555E+00  0.2052177493408E+00
-0.4802889234899E+00  0.1906974851874E+00
-0.3840783615221E-01  0.2092592174144E-01
-0.4078925196637E-01  0.3513358425084E-01
-0.4594194195961E-01  0.5093751110702E-01
-0.5531747379005E-01  0.6821176112569E-01
-0.6887413476398E-01  0.8691179159021E-01
-0.8611566412664E-01  0.1066838788879E+00
-0.1066565026524E+00  0.1259175462913E+00
-0.1301392249362E+00  0.1436881534712E+00
-0.1561903838593E+00  0.1599733870073E+00
-0.1845286610950E+00  0.1748227619790E+00
-0.2149153097131E+00  0.1881549104617E+00
-0.2471129321252E+00  0.1997678534602E+00
-0.2808601164726E+00  0.2095523956355E+00
-0.3158847223237E+00  0.2173396280546E+00
-0.3518911269019E+00  0.2228181810015E+00
-0.3885502424691E+00  0.2257661801485E+00
-0.4255559774466E+00  0.2266154023848E+00
-0.4618381646530E+00  0.2211516819310E+00
-0.4942283925872E+00  0.2054743936489E+00
-0.5341453937153E+00 -0.4081025721964E+00
-0.5645602825297E+00 -0.4338075232959E+00
-0.5948476651559E+00 -0.4591305669776E+00
-0.6248533108926E+00 -0.4838711883390E+00
-0.6544212286610E+00 -0.5078324801398E+00
-0.6833913644744E+00 -0.5308247211522E+00
-0.7115987406737E+00 -0.5526673225349E+00
-0.7388727945021E+00 -0.5731905706599E+00
-0.7650367548557E+00 -0.5922373267896E+00
-0.7899068843988E+00 -0.6096647120040E+00
-0.8132915019705E+00 -0.6253458843927E+00
-0.8349897679458E+00 -0.6391721469302E+00
-0.8547903231982E+00 -0.6510557909955E+00
-0.8724700387978E+00 -0.6609342990132E+00
-0.8877933760941E+00 -0.6687768317471E+00
-0.9005131577582E+00 -0.6745943807671E+00
-0.9103738826209E+00 -0.6784558604055E+00
-0.9171191434311E+00 -0.6805147265084E+00
-0.9205080368940E+00 -0.6810587781537E+00
-0.5262517365242E+00 -0.4036151526318E+00
-0.5562319662887E+00 -0.4292729849801E+00
-0.5861602241867E+00 -0.4546260919809E+00
-0.6158935204318E+00 -0.4794876260590E+00
-0.6452849947073E+00 -0.5036679978227E+00
-0.6741821370814E+00 -0.5269814140314E+00
-0.7024252643322E+00 -0.5492489392341E+00
-0.7298464881536E+00 -0.5703004859807E+00
-0.7562688174766E+00 -0.5899764154628E+00
-0.7815051631358E+00 -0.6081289442626E+00
-0.8053570538160E+00 -0.6246234588419E+00
-0.8276129165153E+00 -0.6393398994520E+00
-0.8480458235487E+00 -0.6521745007203E+00
-0.8664106907544E+00 -0.6630423558403E+00
-0.8824410306121E+00 -0.6718815118004E+00
-0.8958454583365E+00 -0.6786596197322E+00
-0.9063038266788E+00 -0.6833845944697E+00
-0.9134610230906E+00 -0.6861217105714E+00
-0.9169085802930E+00 -0.6870229642400E+00
-0.5179875518064E+00 -0.3987009392648E+00
-0.5473209239187E+00 -0.4241486140390E+00
-0.5766683832541E+00 -0.4493745880171E+00
-0.6059030019902E+00 -0.4742075416099E+00
-0.6348905306077E+00 -0.4984702699723E+00
-0.6634890717740E+00 -0.5219857581417E+00
-0.6915477376174E+00 -0.5445810653591E+00
-0.7189053603596E+00 -0.5660897904444E+00
-0.7453893332060E+00 -0.5863538609093E+00
-0.7708143791164E+00 -0.6052249438082E+00
-0.7949810122048E+00 -0.6225656144187E+00
-0.8176734341727E+00 -0.6382504067380E+00
-0.8386565899387E+00 -0.6521669468302E+00
-0.8576720970760E+00 -0.6642175078266E+00
-0.8744327800346E+00 -0.6743215145957E+00
-0.8886155507329E+00 -0.6824197348649E+00
-0.8998522006725E+00 -0.6884809939164E+00
-0.9077158763111E+00 -0.6925118048894E+00
-0.9116932723610E+00 -0.6945676014073E+00
-0.5093843616892E+00 -0.3933313863794E+00
-0.5378764505822E+00 -0.4183946975255E+00
-0.5664382622791E+00 -0.4433218825274E+00
-0.5949613205019E+00 -0.4679581121797E+00
-0.6233271949092E+00 -0.4921411841678E+00
-0.6514079374938E+00 -0.5157064632364E+00
-0.6790651776019E+00 -0.5384906155862E+00
-0.7061488678566E+00 -0.5603343226061E+00
-0.7324960037478E+00 -0.5810842818060E+00
-0.7579292738901E+00 -0.6005947347216E+00
-0.7822554390345E+00 -0.6187286395813E+00
-0.8052631503517E+00 -0.6353585698410E+00
-0.8267198328003E+00 -0.6503674532605E+00
-0.8463671703150E+00 -0.6636493594866E+00
-0.8639146527663E+00 -0.6751106898946E+00
-0.8790306453941E+00 -0.6846722921986E+00
-0.8913305918212E+00 -0.6922730759978E+00
-0.9003625666072E+00 -0.6978750090030E+00
-0.9055893091637E+00 -0.7014656998137E+00
-0.5004838947962E+00 -0.3874927215589E+00
-0.5279656295441E+00 -0.4119981587431E+00
-0.5555621463052E+00 -0.4364511843793E+00
-0.5831840480881E+00 -0.4607139237915E+00
-0.6107306027099E+00 -0.4846406651253E+00
-0.6380904471076E+00 -0.5080814792772E+00
-0.6651409925588E+00 -0.5308853890092E+00
-0.6917473288095E+00 -0.5529029492583E+00
-0.7177609800203E+00 -0.5739883034056E+00
-0.7430185805060E+00 -0.5940008005515E+00
-0.7673403580404E+00 -0.6128062252240E+00
-0.7905281840647E+00 -0.6302776581653E+00
-0.8123628281633E+00 -0.6462959915027E+00
-0.8325999136099E+00 -0.6607501707120E+00
-0.8509639179707E+00 -0.6735373368593E+00
-0.8671394610670E+00 -0.6845632038033E+00
-0.8807593468942E+00 -0.6937431808377E+00
-0.8913901407494E+00 -0.7010047376964E+00
-0.8985223102678E+00 -0.7062896305402E+00
-0.4913548502835E+00 -0.3812052993615E+00
-0.5177083272971E+00 -0.4050123483592E+00
-0.5442115256267E+00 -0.4288448810965E+00
-0.5707932705979E+00 -0.4525817977044E+00
-0.5973708732937E+00 -0.4760942794482E+00
-0.6238507692721E+00 -0.4992482001076E+00
-0.6501280756404E+00 -0.5219065560489E+00
-0.6760856444171E+00 -0.5439316725105E+00
-0.7015929249238E+00 -0.5651871139978E+00
-0.7265047522850E+00 -0.5855392829918E+00
-0.7506600343210E+00 -0.6048586872210E+00
-0.7738801884858E+00 -0.6230208353897E+00
-0.7959670578416E+00 -0.6399067070983E+00
-0.8166998860717E+00 -0.6554027513095E+00
-0.8358307386022E+00 -0.6694004160503E+00
-0.8530775277032E+00 -0.6817953326934E+00
-0.8681136465375E+00 -0.6924865523902E+00
-0.8805536400747E+00 -0.7013767858669E+00
-0.8899374702067E+00 -0.7083760710414E+00
-0.4820527350482E+00 -0.3744834099350E+00
-0.5071967444922E+00 -0.3974766973833E+00
-0.5325160976701E+00 -0.4205648949934E+00
-0.5579561193645E+00 -0.4436431607988E+00
-0.5834513887846E+00 -0.4665993959097E+00
-0.6089261424891E+00 -0.4893156474816E+00
-0.6342938606679E+00 -0.5116697923774E+00
-0.6594564258284E+00 -0.5335372439574E+00
-0.6843031004184E+00 -0.5547925610886E+00
-0.7087094526282E+00 -0.5753108927114E+00
-0.7325362625540E+00 -0.5949691995219E+00
-0.7556283529399E+00 -0.6136471785515E+00
-0.7778131950728E+00 -0.6312277923687E+00
-0.7988990217264E+00 -0.6475972826133E+00
-0.8186720069726E+00 -0.6626445406670E+00
-0.8368918043792E+00 -0.6762597471318E+00
-0.8532842760104E+00 -0.6883323661482E+00
-0.8675295279103E+00 -0.6987491723144E+00
-0.8792414205056E+00 -0.7073949169643E+00
-0.4726264330087E+00 -0.3673400665942E+00
-0.4965089727045E+00 -0.3894262322391E+00
-0.5205840681657E+00 -0.4116666215653E+00
-0.5448113883238E+00 -0.4339719146321E+00
-0.5691412604527E+00 -0.4562461907153E+00
-0.5935147829273E+00 -0.4783875564743E+00
-0.6178633713087E+00 -0.5002891651307E+00
-0.6421079792955E+00 -0.5218403994809E+00
-0.6661581740541E+00 -0.5429280933734E+00
-0.6899111856869E+00 -0.5634377122774E+00
-0.7132509964782E+00 -0.5832544240395E+00
-0.7360474839100E+00 -0.6022639795122E+00
-0.7581555761704E+00 -0.6203532970069E+00
-0.7794143091506E+00 -0.6374106084828E+00
-0.7996455694856E+00 -0.6533249812125E+00
-0.8186521202105E+00 -0.6679849833145E+00
-0.8362141323325E+00 -0.6812762397081E+00
-0.8520824513012E+00 -0.6930777558869E+00
-0.8659648036549E+00 -0.7032573773404E+00
-0.4631234480060E+00 -0.3597911602419E+00
-0.4857197829768E+00 -0.3808996615248E+00
-0.5085184154998E+00 -0.4022108269871E+00
-0.5314910854083E+00 -0.4236499202111E+00
-0.5546019317081E+00 -0.4451363561734E+00
-0.5778073337420E+00 -0.4665837779888E+00
-0.6010553906454E+00 -0.4879005406694E+00
-0.6242851738672E+00 -0.5089904182774E+00
-0.6474258739307E+00 -0.5297534262655E+00
-0.6703959416876E+00 -0.5500866864429E+00
-0.6931023018272E+00 -0.5698852720696E+00
-0.7154396940887E+00 -0.5890429630253E+00
-0.7372901750364E+00 -0.6074528198031E+00
-0.7585227883483E+00 -0.6250074503621E+00
-0.7789933780851E+00 -0.6415987913609E+00
-0.7985444646397E+00 -0.6571171428180E+00
-0.8170049742599E+00 -0.6714490597064E+00
-0.8341893637402E+00 -0.6844734210474E+00
-0.8498945510860E+00 -0.6960545397401E+00
-0.4535899493236E+00 -0.3518542447734E+00
-0.4749009998865E+00 -0.3719367078298E+00
-0.4964175644116E+00 -0.3922593110418E+00
-0.5181212876642E+00 -0.4127607909255E+00
-0.5399880517912E+00 -0.4333748103644E+00
-0.5619876027063E+00 -0.4540296780075E+00
-0.5840829678551E+00 -0.4746484359887E+00
-0.6062297243281E+00 -0.4951491788559E+00
-0.6283751921707E+00 -0.5154455205785E+00
-0.6504576301649E+00 -0.5354471531860E+00
-0.6724055093093E+00 -0.5550604491859E+00
-0.6941369363655E+00 -0.5741890555565E+00
-0.7155592987356E+00 -0.5927344121866E+00
-0.7365692054385E+00 -0.6105961018012E+00
-0.7570528123281E+00 -0.6276718970529E+00
-0.7768866510703E+00 -0.6438573016003E+00
-0.7959391642368E+00 -0.6590442512949E+00
-0.8140733271364E+00 -0.6731183803207E+00
-0.8311514541390E+00 -0.6859535077299E+00
-0.4440745441259E+00 -0.3435512433885E+00
-0.4641292769401E+00 -0.3625833618615E+00
-0.4843872139283E+00 -0.3818825791080E+00
-0.5048379933310E+00 -0.4013998463697E+00
-0.5254672540313E+00 -0.4210817815552E+00
-0.5462561239421E+00 -0.4408701846895E+00
-0.5671806001928E+00 -0.4607018547326E+00
-0.5882108308336E+00 -0.4805086155602E+00
-0.6093103374422E+00 -0.5002174949552E+00
-0.6304352328413E+00 -0.5197510200566E+00
-0.6515334970609E+00 -0.5390276005203E+00
-0.6725443821536E+00 -0.5579619696998E+00
-0.6933980253896E+00 -0.5764656464128E+00
-0.7140153645641E+00 -0.5944473661630E+00
-0.7343084753159E+00 -0.6118134103380E+00
-0.7541815035432E+00 -0.6284677310944E+00
-0.7735324726777E+00 -0.6443117228309E+00
-0.7922565050862E+00 -0.6592434083727E+00
-0.8102516245973E+00 -0.6731557119369E+00
-0.4346158578402E+00 -0.3348951882896E+00
-0.4534612945430E+00 -0.3528648492730E+00
-0.4725030432084E+00 -0.3711184021918E+00
-0.4917371163424E+00 -0.3896176923049E+00
-0.5111571180415E+00 -0.4083209219853E+00
-0.5307536765887E+00 -0.4271820709176E+00
-0.5505138255024E+00 -0.4461505409347E+00
-0.5704203131380E+00 -0.4651709719244E+00
-0.5904508543729E+00 -0.4841831970571E+00
-0.6105773567147E+00 -0.5031223199496E+00
-0.6307651663355E+00 -0.5219189041169E+00
-0.6509723907034E+00 -0.5404992674643E+00
-0.6711493655837E+00 -0.5587858732031E+00
-0.6912383470800E+00 -0.5766978053181E+00
-0.7111735276269E+00 -0.5941513139648E+00
-0.7308815039455E+00 -0.6110604178774E+00
-0.7502823758880E+00 -0.6273375643355E+00
-0.7692917216738E+00 -0.6428944028909E+00
-0.7878237365976E+00 -0.6576429230518E+00
-0.4252420126107E+00 -0.3258910643367E+00
-0.4429328460324E+00 -0.3427870579566E+00
-0.4608093918838E+00 -0.3599736789675E+00
-0.4788726692520E+00 -0.3774223228070E+00
-0.4971226624044E+00 -0.3951013959315E+00
-0.5155577753660E+00 -0.4129757105546E+00
-0.5341742586552E+00 -0.4310060304257E+00
-0.5529655750442E+00 -0.4491487424789E+00
-0.5719216994989E+00 -0.4673556407935E+00
-0.5910283658851E+00 -0.4855738201834E+00
-0.6102662859847E+00 -0.5037456846140E+00
-0.6296103774217E+00 -0.5218090805494E+00
-0.6490290468727E+00 -0.5396975680524E+00
-0.6684835830531E+00 -0.5573408446553E+00
-0.6879277193005E+00 -0.5746653416812E+00
-0.7073074270220E+00 -0.5915950246506E+00
-0.7265609919845E+00 -0.6080524567401E+00
-0.7456193833959E+00 -0.6239602376554E+00
-0.7644067189237E+00 -0.6392430276863E+00
-0.4159775576468E+00 -0.3165439726704E+00
-0.4325728419378E+00 -0.3323528278694E+00
-0.4493404305844E+00 -0.3484490482469E+00
-0.4662851784318E+00 -0.3648122036289E+00
-0.4834120532608E+00 -0.3814195082237E+00
-0.5007256726860E+00 -0.3982452303811E+00
-0.5182298192375E+00 -0.4152601923839E+00
-0.5359268974808E+00 -0.4324313501993E+00
-0.5538173158949E+00 -0.4497214500000E+00
-0.5718987891462E+00 -0.4670887669994E+00
-0.5901655666041E+00 -0.4844869401624E+00
-0.6086076020218E+00 -0.5018649228187E+00
-0.6272096872831E+00 -0.5191670740185E+00
-0.6459505784289E+00 -0.5363334190579E+00
-0.6648021415452E+00 -0.5533001113146E+00
-0.6837285341212E+00 -0.5700001340901E+00
-0.7026854097423E+00 -0.5863642934790E+00
-0.7216190832284E+00 -0.6023225677125E+00
-0.7404655528225E+00 -0.6178058558555E+00
-0.4068461687484E+00 -0.3068623108311E+00
-0.4224087983134E+00 -0.3215682996703E+00
-0.4381284809141E+00 -0.3365484935796E+00
-0.4540128919995E+00 -0.3517892254144E+00
-0.4700707549648E+00 -0.3672750881670E+00
-0.4863114964317E+00 -0.3829883844282E+00
-0.5027448832494E+00 -0.3989086202368E+00
-0.5193806059383E+00 -0.4150120371193E+00
-0.5362277834157E+00 -0.4312711817628E+00
-0.5532943712312E+00 -0.4476545203327E+00
-0.5705864617028E+00 -0.4641261123648E+00
-0.5881074704416E+00 -0.4806453665432E+00
-0.6058572101258E+00 -0.4971669067900E+00
-0.6238308581289E+00 -0.5136405810411E+00
-0.6420178266314E+00 -0.5300116459951E+00
-0.6604005371161E+00 -0.5462211585682E+00
-0.6789530785816E+00 -0.5622065996268E+00
-0.6976397031653E+00 -0.5779027500286E+00
-0.7164131237290E+00 -0.5932428310174E+00
-0.3978713355590E+00 -0.2968586944709E+00
-0.4124683379806E+00 -0.3104448097517E+00
-0.4272063304663E+00 -0.3242822527506E+00
-0.4420949321328E+00 -0.3383626830089E+00
-0.4571455515970E+00 -0.3526766061593E+00
-0.4723711743737E+00 -0.3672128816487E+00
-0.4877861422149E+00 -0.3819582436339E+00
-0.5034058912712E+00 -0.3968968257470E+00
-0.5192466198357E+00 -0.4120096858742E+00
-0.5353248588376E+00 -0.4272743336423E+00
-0.5516569199745E+00 -0.4426642705840E+00
-0.5682581985500E+00 -0.4581485605999E+00
-0.5851423119918E+00 -0.4736914557040E+00
-0.6023200615838E+00 -0.4892521077436E+00
-0.6197982139058E+00 -0.5047843984465E+00
-0.6375781065872E+00 -0.5202369146728E+00
-0.6556540842877E+00 -0.5355530806791E+00
-0.6740117439052E+00 -0.5506714395532E+00
-0.6926259310770E+00 -0.5655260862248E+00
-0.3890763799690E+00 -0.2865501401195E+00
-0.4027793866399E+00 -0.2989993470524E+00
-0.4166075878946E+00 -0.3116675812890E+00
-0.4305718095634E+00 -0.3245503895008E+00
-0.4446852331330E+00 -0.3376426978757E+00
-0.4589633111448E+00 -0.3509383944266E+00
-0.4734236946040E+00 -0.3644299062171E+00
-0.4880861424938E+00 -0.3781077560165E+00
-0.5029723839572E+00 -0.3919600879276E+00
-0.5181059025861E+00 -0.4059721565576E+00
-0.5335116099437E+00 -0.4201257799209E+00
-0.5492153729483E+00 -0.4343987629855E+00
-0.5652433589074E+00 -0.4487643067483E+00
-0.5816211656322E+00 -0.4631904264227E+00
-0.5983727156737E+00 -0.4776394097502E+00
-0.6155189159745E+00 -0.4920673483291E+00
-0.6330761135503E+00 -0.5064237648566E+00
-0.6510544027291E+00 -0.5206513277617E+00
-0.6694557398917E+00 -0.5346855900600E+00
-0.3804842444405E+00 -0.2759579729515E+00
-0.3933699442824E+00 -0.2872545118252E+00
-0.4063664117985E+00 -0.2987287923340E+00
-0.4194850961434E+00 -0.3103788370633E+00
-0.4327402084820E+00 -0.3222025010784E+00
-0.4461487473510E+00 -0.3341971431581E+00
-0.4597305648824E+00 -0.3463592853608E+00
-0.4735084485464E+00 -0.3586842392898E+00
-0.4875081928701E+00 -0.3711656816466E+00
-0.5017586331218E+00 -0.3837951643534E+00
-0.5162916079985E+00 -0.3965615472629E+00
-0.5311418114662E+00 -0.4094503453346E+00
-0.5463464863183E+00 -0.4224429883628E+00
-0.5619449066141E+00 -0.4355160011602E+00
-0.5779775988009E+00 -0.4486401263024E+00
-0.5944852713089E+00 -0.4617794285372E+00
-0.6115074702179E+00 -0.4748904327999E+00
-0.6290810588881E+00 -0.4879213428836E+00
-0.6472387703030E+00 -0.5008113121081E+00
-0.3721172402454E+00 -0.2651076371637E+00
-0.3842677955955E+00 -0.2752383292783E+00
-0.3965171557348E+00 -0.2854971008044E+00
-0.4088769825651E+00 -0.2958831079728E+00
-0.4213619611923E+00 -0.3063956842391E+00
-0.4339899066409E+00 -0.3170341112815E+00
-0.4467819452616E+00 -0.3277973815635E+00
-0.4597627510200E+00 -0.3386839277876E+00
-0.4729608190992E+00 -0.3496912970788E+00
-0.4864087577497E+00 -0.3608157478590E+00
-0.5001435744317E+00 -0.3720517463736E+00
-0.5142069234569E+00 -0.3833913388695E+00
-0.5286452690805E+00 -0.3948233760799E+00
-0.5435099005399E+00 -0.4063325715525E+00
-0.5588567167517E+00 -0.4178983886337E+00
-0.5747456888051E+00 -0.4294937781565E+00
-0.5912399309094E+00 -0.4410838325784E+00
-0.6084043954012E+00 -0.4526244750900E+00
-0.6263044253883E+00 -0.4640613704090E+00
-0.3639968479182E+00 -0.2540284825236E+00
-0.3755003312643E+00 -0.2629840693710E+00
-0.3870941831971E+00 -0.2720104982630E+00
-0.3987900598154E+00 -0.2811068349654E+00
-0.4106027726443E+00 -0.2902725382328E+00
-0.4225504416252E+00 -0.2995073341185E+00
-0.4346547546009E+00 -0.3088110938865E+00
-0.4469413211110E+00 -0.3181836915427E+00
-0.4594401133407E+00 -0.3276248183149E+00
-0.4721859891538E+00 -0.3371337296772E+00
-0.4852192907997E+00 -0.3467088963096E+00
-0.4985865070643E+00 -0.3563475241025E+00
-0.5123409739693E+00 -0.3660449006386E+00
-0.5265435657606E+00 -0.3757935182659E+00
-0.5412632889538E+00 -0.3855819213090E+00
-0.5565776337408E+00 -0.3953932371194E+00
-0.5725724737623E+00 -0.4052033982066E+00
-0.5893412894317E+00 -0.4149791640709E+00
-0.6069835082114E+00 -0.4246762080128E+00
-0.3561427028046E+00 -0.2427528455552E+00
-0.3670927314440E+00 -0.2505287040571E+00
-0.3781292062787E+00 -0.2583115861367E+00
-0.3892637593143E+00 -0.2660994232399E+00
-0.4005112046560E+00 -0.2738906165568E+00
-0.4118896956271E+00 -0.2816840099831E+00
-0.4234210145506E+00 -0.2894788852656E+00
-0.4351309893124E+00 -0.2972749594067E+00
-0.4470500399778E+00 -0.3050723660816E+00
-0.4592138657720E+00 -0.3128716012804E+00
-0.4716642882530E+00 -0.3206734084138E+00
-0.4844502695952E+00 -0.3284785690559E+00
-0.4976291231286E+00 -0.3362875512307E+00
-0.5112679210905E+00 -0.3440999461666E+00
-0.5254450702953E+00 -0.3519135957069E+00
-0.5402519486463E+00 -0.3597232785912E+00
-0.5557943324649E+00 -0.3675188004478E+00
-0.5721931016099E+00 -0.3752823861468E+00
-0.5895835508936E+00 -0.3829854411910E+00
-0.3485697113612E+00 -0.2313138549107E+00
-0.3590623987366E+00 -0.2379088286183E+00
-0.3696429519454E+00 -0.2444416275935E+00
-0.3803231547315E+00 -0.2509082575942E+00
-0.3911179185595E+00 -0.2573051384241E+00
-0.4020453979701E+00 -0.2636291645337E+00
-0.4131272550687E+00 -0.2698778096335E+00
-0.4243890708616E+00 -0.2760492610980E+00
-0.4358609126953E+00 -0.2821425743441E+00
-0.4475780793344E+00 -0.2881578389855E+00
-0.4595820587393E+00 -0.2940963467662E+00
-0.4719217491417E+00 -0.2999607451038E+00
-0.4846550117567E+00 -0.3057551472713E+00
-0.4978506418809E+00 -0.3114851463169E+00
-0.5115908575046E+00 -0.3171576362463E+00
-0.5259743884778E+00 -0.3227802660151E+00
-0.5411201463232E+00 -0.3283602165612E+00
-0.5571710478363E+00 -0.3339017833164E+00
-0.5742968332362E+00 -0.3394022228717E+00
-0.3412902246970E+00 -0.2197471088251E+00
-0.3514235050063E+00 -0.2251643958131E+00
-0.3616520896774E+00 -0.2304464103041E+00
-0.3719882745504E+00 -0.2355867771706E+00
-0.3824473757503E+00 -0.2405793765170E+00
-0.3930477534375E+00 -0.2454184808866E+00
-0.4038109933354E+00 -0.2500989576596E+00
-0.4147622392940E+00 -0.2546165268813E+00
-0.4259306833669E+00 -0.2589680750032E+00
-0.4373502354466E+00 -0.2631520324785E+00
-0.4490604136769E+00 -0.2671688284740E+00
-0.4611075222474E+00 -0.2710214392674E+00
-0.4735462191421E+00 -0.2747160472432E+00
-0.4864416298599E+00 -0.2782628214985E+00
-0.4998722447750E+00 -0.2816768105096E+00
-0.5139339611255E+00 -0.2849788802474E+00
-0.5287457964357E+00 -0.2881964857609E+00
-0.5444579575839E+00 -0.2913636834854E+00
-0.5612619503135E+00 -0.2945188155303E+00
-0.3343144602508E+00 -0.2080906336814E+00
-0.3441880041146E+00 -0.2123390793261E+00
-0.3541707984127E+00 -0.2163770140719E+00
-0.3642761789570E+00 -0.2201956589311E+00
-0.3745203609145E+00 -0.2237862883636E+00
-0.3849223216064E+00 -0.2271404473791E+00
-0.3955038454659E+00 -0.2302502493883E+00
-0.4062897085241E+00 -0.2331087469532E+00
-0.4173079933538E+00 -0.2357103854184E+00
-0.4285905411143E+00 -0.2380515639724E+00
-0.4401735661483E+00 -0.2401313426445E+00
-0.4520984837596E+00 -0.2419523498027E+00
-0.4644130398160E+00 -0.2435219657623E+00
-0.4771728943050E+00 -0.2448538875556E+00
-0.4904439248897E+00 -0.2459702215062E+00
-0.5043057370337E+00 -0.2469043077391E+00
-0.5188573133391E+00 -0.2477045407665E+00
-0.5342266955011E+00 -0.2484394633282E+00
-0.5505889822867E+00 -0.2492037966570E+00
-0.3276501871596E+00 -0.1963841547941E+00
-0.3373651304692E+00 -0.1994792974628E+00
-0.3472100268753E+00 -0.2022885615638E+00
-0.3571999102164E+00 -0.2048012708422E+00
-0.3673525153654E+00 -0.2070066615487E+00
-0.3776879742916E+00 -0.2088942166475E+00
-0.3882286803381E+00 -0.2104540882786E+00
-0.3989992673414E+00 -0.2116775998227E+00
-0.4100266644037E+00 -0.2125578451802E+00
-0.4213402000883E+00 -0.2130904231322E+00
-0.4329717409333E+00 -0.2132743644012E+00
-0.4449558599092E+00 -0.2131133337507E+00
-0.4573300442535E+00 -0.2126172259220E+00
-0.4701349758868E+00 -0.2118043329555E+00
-0.4834149683925E+00 -0.2107043613470E+00
-0.4972187596369E+00 -0.2093627595592E+00
-0.5116011735556E+00 -0.2078471779336E+00
-0.5266269963045E+00 -0.2062576035933E+00
-0.5423816341537E+00 -0.2047437110381E+00
-0.3213025246391E+00 -0.1846683321834E+00
-0.3309610720259E+00 -0.1866331979779E+00
-0.3407769964707E+00 -0.1882389071185E+00
-0.3507677508261E+00 -0.1894740136454E+00
-0.3609532246152E+00 -0.1903270652328E+00
-0.3713552124771E+00 -0.1907871523477E+00
-0.3819970638144E+00 -0.1908445470123E+00
-0.3929034113167E+00 -0.1904914232883E+00
-0.4040998953252E+00 -0.1897226857249E+00
-0.4156128111902E+00 -0.1885369538029E+00
-0.4274686056333E+00 -0.1869377686705E+00
-0.4396931338166E+00 -0.1849351098992E+00
-0.4523105571308E+00 -0.1825473414102E+00
-0.4653417036186E+00 -0.1798037571395E+00
-0.4788016074641E+00 -0.1767479868184E+00
-0.4926957546318E+00 -0.1734426925468E+00
-0.5070141575437E+00 -0.1699763273748E+00
-0.5217216955677E+00 -0.1664735843999E+00
-0.5367405078625E+00 -0.1631131419927E+00
-0.3152738137518E+00 -0.1729839187523E+00
-0.3249787355519E+00 -0.1738495086919E+00
-0.3348748269909E+00 -0.1742870748627E+00
-0.3449826352313E+00 -0.1742861886396E+00
-0.3553246731910E+00 -0.1738369210530E+00
-0.3659246234132E+00 -0.1729307760643E+00
-0.3768067404682E+00 -0.1715617061322E+00
-0.3879952798749E+00 -0.1697272110272E+00
-0.3995138164871E+00 -0.1674295583213E+00
-0.4113843274122E+00 -0.1646771792952E+00
-0.4236259032996E+00 -0.1614862991122E+00
-0.4362529138859E+00 -0.1578828601879E+00
-0.4492723787594E+00 -0.1539047939089E+00
-0.4626801582961E+00 -0.1496046856399E+00
-0.4764553322230E+00 -0.1450528532191E+00
-0.4905516465331E+00 -0.1403407956724E+00
-0.5048839322151E+00 -0.1355848133806E+00
-0.5193047995515E+00 -0.1309290863197E+00
-0.5335613634305E+00 -0.1265462768678E+00
-0.3095633969994E+00 -0.1613707188891E+00
-0.3194172785729E+00 -0.1611759837588E+00
-0.3295018143896E+00 -0.1604909517697E+00
-0.3398411202269E+00 -0.1593085219695E+00
-0.3504603881200E+00 -0.1576231645841E+00
-0.3613847917485E+00 -0.1554324121667E+00
-0.3726385944055E+00 -0.1527383752185E+00
-0.3842441982521E+00 -0.1495492932764E+00
-0.3962209400593E+00 -0.1458811580426E+00
-0.4085834629164E+00 -0.1417594366880E+00
-0.4213394829904E+00 -0.1372208945581E+00
-0.4344867266373E+00 -0.1323154691036E+00
-0.4480087292196E+00 -0.1271080734217E+00
-0.4618690447633E+00 -0.1216800885893E+00
-0.4760031747889E+00 -0.1161300961562E+00
-0.4903071197642E+00 -0.1105730125762E+00
-0.5046206872069E+00 -0.1051359794198E+00
-0.5187026071115E+00 -0.9994756173470E-01
-0.5321907952332E+00 -0.9511171376516E-01
-0.3041666985911E+00 -0.1498660349689E+00
-0.3142702321103E+00 -0.1486568636684E+00
-0.3246486600994E+00 -0.1469035043827E+00
-0.3353297777328E+00 -0.1446047126914E+00
-0.3463408781931E+00 -0.1417624542151E+00
-0.3577073526000E+00 -0.1383840302306E+00
-0.3694514638066E+00 -0.1344840470365E+00
-0.3815909350667E+00 -0.1300862408937E+00
-0.3941371169923E+00 -0.1252251656809E+00
-0.4070925515580E+00 -0.1199477003113E+00
-0.4204477645084E+00 -0.1143142560212E+00
-0.4341771040160E+00 -0.1083994613376E+00
-0.4482334152300E+00 -0.1022919637873E+00
-0.4625413108646E+00 -0.9609278840393E-01
-0.4769888017670E+00 -0.8991139048595E-01
-0.4914171767570E+00 -0.8385805672157E-01
-0.5056096358844E+00 -0.7803052425296E-01
-0.5192811440055E+00 -0.7249147386537E-01
-0.5320815282697E+00 -0.6723238406906E-01
-0.2990717447762E+00 -0.1385017195209E+00
-0.3095184824316E+00 -0.1363275752078E+00
-0.3202880152912E+00 -0.1335650442406E+00
-0.3314114284854E+00 -0.1302211209843E+00
-0.3429167763099E+00 -0.1263080825318E+00
-0.3548274577667E+00 -0.1218461699842E+00
-0.3671606924840E+00 -0.1168657456071E+00
-0.3799256538660E+00 -0.1114089498138E+00
-0.3931210349465E+00 -0.1055308353312E+00
-0.4067319312315E+00 -0.9929986238520E-01
-0.4207259869989E+00 -0.9279753048831E-01
-0.4350488088920E+00 -0.8611680509836E-01
-0.4496187418029E+00 -0.7935886857673E-01
-0.4643212847983E+00 -0.7262758063432E-01
-0.4790038110447E+00 -0.6602088154982E-01
-0.4934721027554E+00 -0.5961826690982E-01
-0.5074920625706E+00 -0.5346363739734E-01
-0.5208042690322E+00 -0.4754408044755E-01
-0.5331679337119E+00 -0.4177119906181E-01
-0.2942496606599E+00 -0.1272981982838E+00
-0.3051111063943E+00 -0.1242034270921E+00
-0.3163456694075E+00 -0.1204868988144E+00
-0.3279866875110E+00 -0.1161657388816E+00
-0.3400607979184E+00 -0.1112646469096E+00
-0.3525863485217E+00 -0.1058188860578E+00
-0.3655717560637E+00 -0.9987616787486E-01
-0.3790133460401E+00 -0.9349754029865E-01
-0.3928925575469E+00 -0.8675728245146E-01
-0.4071725667159E+00 -0.7974168449374E-01
-0.4217945016589E+00 -0.7254648489420E-01
-0.4366735608073E+00 -0.6527266396350E-01
-0.4516955640880E+00 -0.5802025941144E-01
-0.4667148402672E+00 -0.5087990405140E-01
-0.4815550079757E+00 -0.4392195826697E-01
-0.4960153244103E+00 -0.3718360269782E-01
-0.5098870355222E+00 -0.3065548345357E-01
-0.5229861284903E+00 -0.2427242154594E-01
-0.5352044303120E+00 -0.1791712035743E-01
-0.2896554731845E+00 -0.1162659328985E+00
-0.3009666635087E+00 -0.1122828931128E+00
-0.3127023428245E+00 -0.1076565896024E+00
-0.3248962571202E+00 -0.1024153438112E+00
-0.3375706161964E+00 -0.9659734506556E-01
-0.3507350550744E+00 -0.9025354047451E-01
-0.3643852310663E+00 -0.8344867059847E-01
-0.3785007074717E+00 -0.7626078712219E-01
-0.3930422473602E+00 -0.6877939490957E-01
-0.4079488400284E+00 -0.6110219907773E-01
-0.4231349277634E+00 -0.5333035769177E-01
-0.4384884781702E+00 -0.4556213904285E-01
-0.4538708151921E+00 -0.3788497757366E-01
-0.4691195274644E+00 -0.3036615148278E-01
-0.4840563344739E+00 -0.2304276257537E-01
-0.4985023932409E+00 -0.1591255339001E-01
-0.5123035776767E+00 -0.8928573209839E-02
-0.5253653579120E+00 -0.2002510798014E-02
-0.5376879534389E+00  0.4978871346297E-02
-0.2852467320866E+00 -0.1054171226670E+00
-0.2970102164736E+00 -0.1005708333230E+00
-0.3092493027012E+00 -0.9507178456131E-01
-0.3219954382083E+00 -0.8895941022465E-01
-0.3352627611108E+00 -0.8228521228654E-01
-0.3490484092903E+00 -0.7511501422529E-01
-0.3633318466437E+00 -0.6752854503599E-01
-0.3780732314768E+00 -0.5961714137179E-01
-0.3932113410971E+00 -0.5147995861516E-01
-0.4086617108492E+00 -0.4321886496800E-01
-0.4243157332775E+00 -0.3493211075138E-01
-0.4400415891851E+00 -0.2670692904318E-01
-0.4556880694989E+00 -0.1861141172990E-01
-0.4710925640326E+00 -0.1068635186365E-01
-0.4860945922486E+00 -0.2938296035915E-02
-0.5005558122923E+00  0.4664158041156E-02
-0.5143854586049E+00  0.1218796822744E-01
-0.5275653929768E+00  0.1972449356284E-01
-0.5401628245267E+00  0.2736963527996E-01
-0.2809812353324E+00 -0.9476444841553E-01
-0.2931684902954E+00 -0.8907611999821E-01
-0.3058809018828E+00 -0.8273670767450E-01
-0.3191439948848E+00 -0.7579538486654E-01
-0.3329598670694E+00 -0.6831565140765E-01
-0.3473098338258E+00 -0.6037623106162E-01
-0.3621549731126E+00 -0.5206864081318E-01
-0.3774353544081E+00 -0.4349284744396E-01
-0.3930690434030E+00 -0.3475174880731E-01
-0.4089518768791E+00 -0.2594480053877E-01
-0.4249589252607E+00 -0.1716103595250E-01
-0.4409485258215E+00 -0.8471806629464E-02
-0.4567697569639E+00  0.7617893622860E-04
-0.4722741087498E+00  0.8466577136095E-02
-0.4873316057786E+00  0.1671648950311E-01
-0.5018502817958E+00  0.2487507914961E-01
-0.5157951930713E+00  0.3301598727469E-01
-0.5291996502194E+00  0.4122321291900E-01
-0.5421600483279E+00  0.4957323425512E-01
-0.2768188136678E+00 -0.8432204510977E-01
-0.2893732821288E+00 -0.7781344588043E-01
-0.3024996183304E+00 -0.7066454518216E-01
-0.3162128397891E+00 -0.6293178018477E-01
-0.3304991384655E+00 -0.5468863385787E-01
-0.3453218129919E+00 -0.4602421077773E-01
-0.3606232107676E+00 -0.3703815837319E-01
-0.3763249290523E+00 -0.2783434099386E-01
-0.3923280633859E+00 -0.1851408944678E-01
-0.4085148009512E+00 -0.9169409580246E-02
-0.4247522382356E+00  0.1236885542793E-03
-0.4408990438583E+00  0.9311362842043E-02
-0.4568153721051E+00  0.1836695461780E-01
-0.4723759906292E+00  0.2729387637754E-01
-0.4874856654856E+00  0.3612514040390E-01
-0.5020942291810E+00  0.4491831138992E-01
-0.5162067123715E+00  0.5374537435376E-01
-0.5298828765085E+00  0.6267877811076E-01
-0.5432228977402E+00  0.7177734077015E-01
-0.2727176123826E+00 -0.7410478596677E-01
-0.2855537054776E+00 -0.6680149668415E-01
-0.2990040012282E+00 -0.5887464396610E-01
-0.3130673253884E+00 -0.5038486159169E-01
-0.3277109058668E+00 -0.4141382781001E-01
-0.3428796608491E+00 -0.3205856479972E-01
-0.3584991754382E+00 -0.2242331321075E-01
-0.3744764124457E+00 -0.1261141176862E-01
-0.3907010879723E+00 -0.2718297651377E-02
-0.4070489740638E+00  0.7174802976190E-02
-0.4233875957339E+00  0.1700648078562E-01
-0.4395845174067E+00  0.2673969665423E-01
-0.4555180478832E+00  0.3636463091682E-01
-0.4710895833936E+00  0.4589897145124E-01
-0.4862358192455E+00  0.5538474677683E-01
-0.5009378364065E+00  0.6488115301518E-01
-0.5152232957087E+00  0.7445379923783E-01
-0.5291590047435E+00  0.8416236136517E-01
-0.5428348588452E+00  0.9405011223645E-01
-0.2686310101670E+00 -0.6412996239551E-01
-0.2816298818081E+00 -0.5606580193791E-01
-0.2952781553723E+00 -0.4739625500197E-01
-0.3095521467946E+00 -0.3818432714665E-01
-0.3243987174571E+00 -0.2851904863749E-01
-0.3397470608850E+00 -0.1850378398775E-01
-0.3555103526861E+00 -0.8243528801759E-02
-0.3715863624057E+00  0.2163050937266E-02
-0.3878599855446E+00  0.1262974981371E-01
-0.4042078698958E+00  0.2308792417613E-01
-0.4205051841209E+00  0.3349065319239E-01
-0.4366342612960E+00  0.4381556091874E-01
-0.4524944960056E+00  0.5406568943963E-01
-0.4680122739333E+00  0.6426774663087E-01
-0.4831489722243E+00  0.7446720848151E-01
-0.4979045170232E+00  0.8472028201629E-01
-0.5123143207464E+00  0.9508370041395E-01
-0.5264392639623E+00  0.1056044669377E+00
-0.5403518305543E+00  0.1163121564119E+00
-0.2645414226720E+00 -0.5442329542609E-01
-0.2775818364555E+00 -0.4564596632615E-01
-0.2912971943095E+00 -0.3627578566233E-01
-0.3056329311626E+00 -0.2637878673535E-01
-0.3205200573592E+00 -0.1605629930002E-01
-0.3358776394056E+00 -0.5414824631949E-02
-0.3516114062933E+00  0.5444192529285E-02
-0.3676153888208E+00  0.1643035060000E-01
-0.3837754658970E+00  0.2746874873256E-01
-0.3999747984395E+00  0.3850370720788E-01
-0.4161007464995E+00  0.4950150357911E-01
-0.4320527779523E+00  0.6045164792993E-01
-0.4477505176430E+00  0.7136615497711E-01
-0.4631406441069E+00  0.8227635322292E-01
-0.4782009565413E+00  0.9322706379445E-01
-0.4929399665081E+00  0.1042685604235E+00
-0.5073912135167E+00  0.1154475082036E+00
-0.5216033785490E+00  0.1267987140536E+00
-0.5356289079548E+00  0.1383393941348E+00
-0.2604404851762E+00 -0.4501244909466E-01
-0.2734153196513E+00 -0.3558072672289E-01
-0.2870622611160E+00 -0.2554384356443E-01
-0.3013068571778E+00 -0.1500286615831E-01
-0.3160749308962E+00 -0.4066754765756E-02
-0.3312791012534E+00  0.7161052028324E-02
-0.3468217583565E+00  0.1858735556895E-01
-0.3625975116650E+00  0.3013255316741E-01
-0.3784975680222E+00  0.4173380284991E-01
-0.3944151978958E+00  0.5334762716500E-01
-0.4102520101554E+00  0.6495147012407E-01
-0.4259244124182E+00  0.7654372363499E-01
-0.4413694029119E+00  0.8814181670464E-01
-0.4565485861613E+00  0.9977814247003E-01
-0.4714492398981E+00  0.1114939544503E+00
-0.4860815998769E+00  0.1233318887853E+00
-0.5004724345002E+00  0.1353283028531E+00
-0.5146561484411E+00  0.1475067757342E+00
-0.5286659931637E+00  0.1598737089547E+00
</DataArray>
</PointData>
   <DataArray type="Float64" Name="Load" NumberOfComponents="1"    ComponentName0="Load" format="ascii">
 0.6826275982409E+01
 0.6194983481954E+01
 0.5708204999192E+01
 0.5562277016253E+01
 0.5464500272538E+01
 0.5408525765177E+01
 0.5370521672675E+01
 0.5343624394645E+01
 0.5323098583744E+01
 0.5306598096990E+01
 0.5292778733144E+01
 0.5280969772336E+01
 0.5270909735569E+01
 0.5262622976744E+01
 0.5256347048461E+01
 0.5252497908280E+01
 0.5251659585674E+01
 0.5254597305845E+01
 0.5262289377639E+01
 0.5276003507396E+01
 0.5297430648088E+01
 0.5328996846649E+01
 0.5374613320119E+01
 0.5439927250560E+01
 0.5526198431204E+01
 0.5627616540764E+01
 0.5737641852284E+01
 0.5853059820842E+01
 0.5974688316488E+01
 0.6106425621924E+01
 0.6253749520783E+01
 0.6422198679586E+01
 0.6615694743604E+01
 0.6842087346095E+01
 0.7124405355600E+01
 0.7492032064862E+01
 0.8008124179194E+01
 0.8655187194681E+01
 0.1004945858222E+02
 0.1005705765543E+02
 0.1965568718451E+02
 0.5862146971090E+01
 0.6105537033927E+01
 0.5739509147407E+01
 0.5535170391121E+01
 0.5428797202076E+01
 0.5358026412471E+01
 0.5310971782506E+01
 0.5276984123066E+01
 0.5251270951949E+01
 0.5230868893387E+01
 0.5214131182521E+01
 0.5200138162368E+01
 0.5188451212701E+01
 0.5178957056704E+01
 0.5171783981435E+01
 0.5167256669412E+01
 0.5165878693988E+01
 0.5168337044538E+01
 0.5175529708386E+01
 0.5188623580466E+01
 0.5209164731461E+01
 0.5239266771591E+01
 0.5281471086558E+01
 0.5337758146041E+01
 0.5408040061418E+01
 0.5489788330589E+01
 0.5579662119490E+01
 0.5675538921365E+01
 0.5777367201972E+01
 0.5886871626295E+01
 0.6006660097086E+01
 0.6139529753358E+01
 0.6289004761501E+01
 0.6461243636686E+01
 0.6664702939264E+01
 0.6913629179306E+01
 0.7199692669749E+01
 0.7573680677827E+01
 0.7748253513996E+01
 0.6722115784795E+01
 0.1311132927175E+02
 0.5316351689274E+01
 0.5765749092157E+01
 0.5670158638404E+01
 0.5484389154014E+01
 0.5373720851143E+01
 0.5298646166549E+01
 0.5245659262943E+01
 0.5206859920878E+01
 0.5177129667706E+01
 0.5153533183283E+01
 0.5134264538769E+01
 0.5118279030172E+01
 0.5105019420554E+01
 0.5094270249703E+01
 0.5086068456702E+01
 0.5080654108829E+01
 0.5078446985755E+01
 0.5080043768614E+01
 0.5086233708088E+01
 0.5098032946544E+01
 0.5116739056640E+01
 0.5143878645447E+01
 0.5180660591421E+01
 0.5227354688077E+01
 0.5283446769863E+01
 0.5347864718008E+01
 0.5419058504155E+01
 0.5495614555921E+01
 0.5576857920856E+01
 0.5662874670060E+01
 0.5754129698247E+01
 0.5851411503759E+01
 0.5956329099897E+01
 0.6070173653588E+01
 0.6192073272050E+01
 0.6312639855748E+01
 0.6409149929822E+01
 0.6422614630872E+01
 0.5883934797043E+01
 0.5414828128668E+01
 0.1094067439764E+02
 0.4953935590916E+01
 0.5431569309716E+01
 0.5510799635316E+01
 0.5401447693100E+01
 0.5301322339503E+01
 0.5228575073845E+01
 0.5174034188019E+01
 0.5132612824705E+01
 0.5100240539568E+01
 0.5074245805161E+01
 0.5052916356607E+01
 0.5035189445440E+01
 0.5020459108299E+01
 0.5008445781260E+01
 0.4999116305192E+01
 0.4992635075187E+01
 0.4989337468635E+01
 0.4989719553783E+01
 0.4994438925133E+01
 0.5004319925246E+01
 0.5020327387771E+01
 0.5043340280334E+01
 0.5073612776300E+01
 0.5110598302567E+01
 0.5153653053116E+01
 0.5202364867748E+01
 0.5256076274700E+01
 0.5313743606148E+01
 0.5374209535346E+01
 0.5436347523710E+01
 0.5499030017643E+01
 0.5561274601306E+01
 0.5622051724464E+01
 0.5678140779778E+01
 0.5720025446255E+01
 0.5726168908971E+01
 0.5657904336954E+01
 0.5389528102607E+01
 0.4755394231444E+01
 0.5093169861384E+01
 0.9808763494628E+01
 0.4686969705531E+01
 0.5140570458578E+01
 0.5315365534597E+01
 0.5285603718922E+01
 0.5212443551985E+01
 0.5147845136091E+01
 0.5095648035557E+01
 0.5053907590398E+01
 0.5020280136562E+01
 0.4992748738405E+01
 0.4969877207227E+01
 0.4950705048355E+01
 0.4934643956714E+01
 0.4921390880938E+01
 0.4910865273050E+01
 0.4903166827879E+01
 0.4898548232543E+01
 0.4897398009840E+01
 0.4900225879258E+01
 0.4907635184798E+01
 0.4920224749536E+01
 0.4938302328324E+01
 0.4961496475578E+01
 0.4988868808540E+01
 0.5019732498135E+01
 0.5053936816477E+01
 0.5091198129694E+01
 0.5130595543975E+01
 0.5170583783215E+01
 0.5209156226879E+01
 0.5243984972184E+01
 0.5272495768451E+01
 0.5291227656525E+01
 0.5293223353906E+01
 0.5263630705469E+01
 0.5176158885183E+01
 0.4982762474341E+01
 0.4598294639375E+01
 0.4169056568362E+01
 0.5111105169587E+01
 0.9045394420631E+01
 0.4475370540431E+01
 0.4891165622172E+01
 0.5112995743437E+01
 0.5147404787688E+01
 0.5108165714591E+01
 0.5057187012012E+01
 0.5010505241129E+01
 0.4970596326391E+01
 0.4937066766098E+01
 0.4908864604377E+01
 0.4884994343005E+01
 0.4864700818413E+01
 0.4847477627853E+01
 0.4833037303619E+01
 0.4821275237812E+01
 0.4812238713821E+01
 0.4806101742362E+01
 0.4803142412193E+01
 0.4803713641722E+01
 0.4808185717717E+01
 0.4816805872220E+01
 0.4829428271460E+01
 0.4845287871455E+01
 0.4863259031108E+01
 0.4882625752141E+01
 0.4903289233105E+01
 0.4925053685004E+01
 0.4946971276526E+01
 0.4967187763495E+01
 0.4983076863410E+01
 0.4991420364854E+01
 0.4988372915018E+01
 0.4968629615287E+01
 0.4922914217309E+01
 0.4834675175035E+01
 0.4678065417599E+01
 0.4416453928495E+01
 0.4049069737491E+01
 0.3910972021697E+01
 0.5195933665015E+01
 0.8460209507383E+01
 0.4298441267466E+01
 0.4675403698992E+01
 0.4916505980702E+01
 0.4997282476465E+01
 0.4991538113520E+01
 0.4957599665955E+01
 0.4918989972441E+01
 0.4882726276568E+01
 0.4850542385780E+01
 0.4822498178969E+01
 0.4798170031991E+01
 0.4777091384884E+01
 0.4758893761269E+01
 0.4743341302393E+01
 0.4730327868387E+01
 0.4719861395967E+01
 0.4712043389080E+01
 0.4707042776474E+01
 0.4705054631900E+01
 0.4706221822599E+01
 0.4710482183518E+01
 0.4717350435178E+01
 0.4725820732930E+01
 0.4734679031637E+01
 0.4743173188383E+01
 0.4751148838567E+01
 0.4758352205406E+01
 0.4763737232116E+01
 0.4765219569434E+01
 0.4759767298495E+01
 0.4743565966496E+01
 0.4711926406055E+01
 0.4658500747202E+01
 0.4573379834006E+01
 0.4441291578057E+01
 0.4242779600736E+01
 0.3967546277461E+01
 0.3693269530127E+01
 0.3829481767827E+01
 0.5259449939236E+01
 0.7982197564856E+01
 0.4144524491097E+01
 0.4485720555505E+01
 0.4730649989806E+01
 0.4842693281891E+01
 0.4866275812132E+01
 0.4850491929379E+01
 0.4821708488112E+01
 0.4790523968796E+01
 0.4760758968295E+01
 0.4733630321514E+01
 0.4709359363965E+01
 0.4687829709152E+01
 0.4668855303422E+01
 0.4652282990761E+01
 0.4638025819051E+01
 0.4626065618811E+01
 0.4616439438417E+01
 0.4609212304266E+01
 0.4604428093743E+01
 0.4602021427453E+01
 0.4601673864343E+01
 0.4602656431064E+01
 0.4603820766677E+01
 0.4603912781819E+01
 0.4602136424962E+01
 0.4598233999746E+01
 0.4591832816520E+01
 0.4581773435900E+01
 0.4565825725722E+01
 0.4540742874345E+01
 0.4502409731451E+01
 0.4445775217289E+01
 0.4364329823397E+01
 0.4249076153977E+01
 0.4088530640781E+01
 0.3874362501506E+01
 0.3626420480152E+01
 0.3476478469257E+01
 0.3831025489349E+01
 0.5282929083350E+01
 0.7577519800054E+01
 0.4006607500107E+01
 0.4316110208884E+01
 0.4556495246666E+01
 0.4688306261638E+01
 0.4735773936444E+01
 0.4737507393992E+01
 0.4719429464634E+01
 0.4694346995788E+01
 0.4667864534658E+01
 0.4642309129769E+01
 0.4618566229931E+01
 0.4596904872402E+01
 0.4577353127312E+01
 0.4559865249083E+01
 0.4544391550505E+01
 0.4530900628721E+01
 0.4519374614465E+01
 0.4509783440696E+01
 0.4502032833794E+01
 0.4495876528007E+01
 0.4490793630584E+01
 0.4485886944562E+01
 0.4479928946963E+01
 0.4471650746494E+01
 0.4460210829605E+01
 0.4445237003202E+01
 0.4426228220990E+01
 0.4401933832316E+01
 0.4370068623169E+01
 0.4327349655273E+01
 0.4269653035101E+01
 0.4192054037313E+01
 0.4088704148671E+01
 0.3952780373856E+01
 0.3778445227221E+01
 0.3570586641888E+01
 0.3375339106532E+01
 0.3353021799589E+01
 0.3863344014452E+01
 0.5269675618126E+01
 0.7226808423819E+01
 0.3880243913659E+01
 0.4162035870191E+01
 0.4393531679132E+01
 0.4536789265698E+01
 0.4602733002870E+01
 0.4620284662685E+01
 0.4613016737379E+01
 0.4594643004257E+01
 0.4572082773948E+01
 0.4548640217310E+01
 0.4525837827575E+01
 0.4504339031436E+01
 0.4484404057837E+01
 0.4466112191783E+01
 0.4449465804981E+01
 0.4434432289046E+01
 0.4420949419030E+01
 0.4408903687015E+01
 0.4398080221559E+01
 0.4388082874631E+01
 0.4378237780282E+01
 0.4367537501423E+01
 0.4354717261610E+01
 0.4338509081133E+01
 0.4318032123136E+01
 0.4292811273162E+01
 0.4262238352719E+01
 0.4225016783647E+01
 0.4178901146639E+01
 0.4120740847342E+01
 0.4046679130938E+01
 0.3952364541823E+01
 0.3833289614296E+01
 0.3685716042253E+01
 0.3510424969352E+01
 0.3325127573829E+01
 0.3195124163359E+01
 0.3288586817473E+01
 0.3899888866120E+01
 0.5228038890748E+01
 0.6917520879679E+01
 0.3762489446549E+01
 0.4020112616436E+01
 0.4240657891410E+01
 0.4389511869249E+01
 0.4469129308015E+01
 0.4500294038441E+01
 0.4503353600199E+01
 0.4491913036940E+01
 0.4473691900559E+01
 0.4452775632468E+01
 0.4431258426049E+01
 0.4410183691724E+01
 0.4390048434659E+01
 0.4371067282334E+01
 0.4353305811298E+01
 0.4336740988182E+01
 0.4321277318901E+01
 0.4306731464808E+01
 0.4292788090533E+01
 0.4278932625451E+01
 0.4264381480977E+01
 0.4248061337018E+01
 0.4228699327653E+01
 0.4205041101608E+01
 0.4176179520136E+01
 0.4141561923327E+01
 0.4100511548041E+01
 0.4051743806940E+01
 0.3993147993029E+01
 0.3921860641761E+01
 0.3834537098109E+01
 0.3727769606015E+01
 0.3598888376537E+01
 0.3447757318170E+01
 0.3281864245318E+01
 0.3129754144532E+01
 0.3068347211955E+01
 0.3259033442442E+01
 0.3928601856779E+01
 0.5166015832974E+01
 0.6640901544095E+01
 0.3651321867036E+01
 0.3887809980011E+01
 0.4096629834741E+01
 0.4247047486381E+01
 0.4336322526524E+01
 0.4378763346492E+01
 0.4391279640972E+01
 0.4386677627163E+01
 0.4373004836363E+01
 0.4354902344619E+01
 0.4334942649176E+01
 0.4314515537299E+01
 0.4294347302105E+01
 0.4274791158310E+01
 0.4255983265552E+01
 0.4237919395125E+01
 0.4220481892541E+01
 0.4203432236118E+01
 0.4186375701365E+01
 0.4168709255342E+01
 0.4149576404061E+01
 0.4127872211012E+01
 0.4102337507636E+01
 0.4071744154860E+01
 0.4035176957809E+01
 0.3992038808217E+01
 0.3941631424431E+01
 0.3882744982372E+01
 0.3813493633370E+01
 0.3731436738712E+01
 0.3633943105140E+01
 0.3518823027281E+01
 0.3385544451953E+01
 0.3237711141458E+01
 0.3088923555331E+01
 0.2975869841356E+01
 0.2980453107400E+01
 0.3248216630870E+01
 0.3945002912154E+01
 0.5089934138954E+01
 0.6390549411586E+01
 0.3545308239942E+01
 0.3763220899707E+01
 0.3960254293930E+01
 0.4109502678322E+01
 0.4205195094866E+01
 0.4256665523664E+01
 0.4277549597245E+01
 0.4279448047122E+01
 0.4270351399920E+01
 0.4255231177689E+01
 0.4237028639912E+01
 0.4217432045516E+01
 0.4197379378121E+01
 0.4177359275538E+01
 0.4157582187196E+01
 0.4138070169687E+01
 0.4118694076580E+01
 0.4099175052278E+01
 0.4079059760114E+01
 0.4057684123668E+01
 0.4034149681677E+01
 0.4007346856205E+01
 0.3976047750317E+01
 0.3939063849731E+01
 0.3895493523484E+01
 0.3844731749746E+01
 0.3786108351682E+01
 0.3718550096799E+01
 0.3640476781510E+01
 0.3549981976785E+01
 0.3445297719672E+01
 0.3325624388531E+01
 0.3192680475656E+01
 0.3053632713673E+01
 0.2927187069779E+01
 0.2855396199217E+01
 0.2919887989882E+01
 0.3245805641957E+01
 0.3948317126901E+01
 0.5004449824822E+01
 0.6161637752685E+01
 0.3443405570107E+01
 0.3644892630241E+01
 0.3830462386372E+01
 0.3976723954410E+01
 0.4076280130840E+01
 0.4134739716511E+01
 0.4162813209580E+01
 0.4170704822523E+01
 0.4166063125299E+01
 0.4153986721193E+01
 0.4137671451918E+01
 0.4119047076399E+01
 0.4099237928387E+01
 0.4078859459536E+01
 0.4058196724344E+01
 0.4037303702859E+01
 0.4016049598700E+01
 0.3994129588803E+01
 0.3971051353968E+01
 0.3946114210310E+01
 0.3918403596045E+01
 0.3886827020932E+01
 0.3850202977951E+01
 0.3807396824642E+01
 0.3757543742950E+01
 0.3700067691847E+01
 0.3634374681176E+01
 0.3559584699270E+01
 0.3474490858119E+01
 0.3377804338733E+01
 0.3268715792884E+01
 0.3147889776837E+01
 0.3019248237107E+01
 0.2893122457668E+01
 0.2792140259662E+01
 0.2761188863892E+01
 0.2877802780399E+01
 0.3245468137912E+01
 0.3939430308560E+01
 0.4912885631766E+01
 0.5950440582251E+01
 0.3344836801847E+01
 0.3531705455908E+01
 0.3706327929557E+01
 0.3848424011256E+01
 0.3949864704947E+01
 0.4013526374768E+01
 0.4047610741265E+01
 0.4060883892035E+01
 0.4060461193770E+01
 0.4051398540991E+01
 0.4037036921640E+01
 0.4019486591001E+01
 0.4000027641365E+01
 0.3979389427982E+01
 0.3957928955552E+01
 0.3935735928845E+01
 0.3912686628903E+01
 0.3888463640101E+01
 0.3862553616979E+01
 0.3834240639920E+01
 0.3802615651444E+01
 0.3766621146053E+01
 0.3725135552240E+01
 0.3677092744253E+01
 0.3621688079692E+01
 0.3558409534638E+01
 0.3486783041795E+01
 0.3406170262295E+01
 0.3315789604020E+01
 0.3215023733501E+01
 0.3104064792842E+01
 0.2985029931449E+01
 0.2863875625192E+01
 0.2753571349915E+01
 0.2679473472017E+01
 0.2687172222964E+01
 0.2847606830647E+01
 0.3243505495948E+01
 0.3919856846693E+01
 0.4817593406537E+01
 0.5754024310643E+01
 0.3249011113509E+01
 0.3422786025323E+01
 0.3587061798553E+01
 0.3724256917758E+01
 0.3826067938953E+01
 0.3893405103855E+01
 0.3932378441336E+01
 0.3950369471316E+01
 0.3953847635119E+01
 0.3947693901088E+01
 0.3935296216623E+01
 0.3918884650597E+01
 0.3899861616181E+01
 0.3879054372565E+01
 0.3856886763665E+01
 0.3833486276308E+01
 0.3808743698132E+01
 0.3782341063866E+01
 0.3753760003297E+01
 0.3722287782393E+01
 0.3687038895064E+01
 0.3647005817209E+01
 0.3601139247310E+01
 0.3548456021318E+01
 0.3488233907475E+01
 0.3420056509492E+01
 0.3343607226734E+01
 0.3258527788495E+01
 0.3164496918871E+01
 0.3061593720229E+01
 0.2951007721480E+01
 0.2836228521034E+01
 0.2724996996236E+01
 0.2632343730577E+01
 0.2585250434927E+01
 0.2628321419988E+01
 0.2824504217697E+01
 0.3237890858970E+01
 0.3891239418819E+01
 0.4720256995552E+01
 0.5570037888985E+01
 0.3155471174376E+01
 0.3317445181082E+01
 0.3471997068067E+01
 0.3603861618922E+01
 0.3704897787533E+01
 0.3774629668193E+01
 0.3817459334832E+01
 0.3839492059540E+01
 0.3846499564246E+01
 0.3843092040890E+01
 0.3832621145221E+01
 0.3817379771398E+01
 0.3798858513604E+01
 0.3777964629841E+01
 0.3755181795733E+01
 0.3730675756928E+01
 0.3704357853631E+01
 0.3675920086846E+01
 0.3644853000171E+01
 0.3610462721606E+01
 0.3571902354234E+01
 0.3528227037876E+01
 0.3478470931913E+01
 0.3421747472340E+01
 0.3357436982003E+01
 0.3285245823352E+01
 0.3205045113266E+01
 0.3116784059969E+01
 0.3020619734536E+01
 0.2917326114753E+01
 0.2809046992777E+01
 0.2700514649082E+01
 0.2600959812125E+01
 0.2526901529588E+01
 0.2505983962397E+01
 0.2580569206266E+01
 0.2805076674825E+01
 0.3227617988033E+01
 0.3855111188702E+01
 0.4622130088506E+01
 0.5396565236220E+01
 0.3063857330820E+01
 0.3215133012012E+01
 0.3360571808033E+01
 0.3486886083480E+01
 0.3586291237542E+01
 0.3657357905524E+01
 0.3703116162581E+01
 0.3728530002344E+01
 0.3738666004949E+01
 0.3737799957088E+01
 0.3729180279280E+01
 0.3715111706764E+01
 0.3697139937027E+01
 0.3676233497483E+01
 0.3652927554807E+01
 0.3627425223210E+01
 0.3599663057653E+01
 0.3569351935780E+01
 0.3536003198303E+01
 0.3498955003697E+01
 0.3457411571935E+01
 0.3410501426729E+01
 0.3357352154701E+01
 0.3297186087193E+01
 0.3229503455475E+01
 0.3154155398095E+01
 0.3071223205943E+01
 0.2980979868361E+01
 0.2884062865725E+01
 0.2781916713341E+01
 0.2677566454531E+01
 0.2576825860318E+01
 0.2490105950890E+01
 0.2434880728747E+01
 0.2438653571660E+01
 0.2540680247724E+01
 0.2786941191027E+01
 0.3212275869615E+01
 0.3812766238527E+01
 0.4524224197211E+01
 0.5232004893408E+01
 0.2973882728649E+01
 0.3115406031727E+01
 0.3252312553737E+01
 0.3372999800290E+01
 0.3470142195027E+01
 0.3541676111360E+01
 0.3589544506614E+01
 0.3617713263372E+01
 0.3630566761755E+01
 0.3632009554977E+01
 0.3625135896754E+01
 0.3612218707286E+01
 0.3594828102694E+01
 0.3573975252125E+01
 0.3550237672311E+01
 0.3523853831706E+01
 0.3494788843898E+01
 0.3462779776952E+01
 0.3427368677544E+01
 0.3387936631241E+01
 0.3343749264201E+01
 0.3294017442632E+01
 0.3237970783579E+01
 0.3174951037763E+01
 0.3104592450205E+01
 0.3026907551081E+01
 0.2942202448621E+01
 0.2851079630312E+01
 0.2754644894203E+01
 0.2654970677012E+01
 0.2555869575157E+01
 0.2464059934831E+01
 0.2390829743290E+01
 0.2354132308103E+01
 0.2380688923547E+01
 0.2506119768556E+01
 0.2768473351269E+01
 0.3191822284620E+01
 0.3765106482375E+01
 0.4427485793488E+01
 0.5074967029729E+01
 0.2885315701441E+01
 0.3017902892991E+01
 0.3146819637096E+01
 0.3261899362721E+01
 0.3356320472385E+01
 0.3427618285902E+01
 0.3476884990924E+01
 0.3507228349802E+01
 0.3522392777247E+01
 0.3525895947665E+01
 0.3520641674926E+01
 0.3508835245042E+01
 0.3492043801320E+01
 0.3471303370391E+01
 0.3447224354281E+01
 0.3420077690168E+01
 0.3389859188212E+01
 0.3356337894633E+01
 0.3319094620329E+01
 0.3277562223379E+01
 0.3231076056546E+01
 0.3178936637696E+01
 0.3120482713319E+01
 0.3055183899999E+01
 0.2982819067100E+01
 0.2903573346694E+01
 0.2817984855381E+01
 0.2726981719942E+01
 0.2632114137328E+01
 0.2536026323919E+01
 0.2443212461942E+01
 0.2361115264251E+01
 0.2301616236155E+01
 0.2282738924042E+01
 0.2329933024635E+01
 0.2474934367835E+01
 0.2748581995787E+01
 0.3166477284403E+01
 0.3712661305040E+01
 0.4332437598097E+01
 0.4924279225031E+01
 0.2797968035584E+01
 0.2922336712181E+01
 0.3043773290895E+01
 0.3153338021312E+01
 0.3244722034448E+01
 0.3315227896662E+01
 0.3365289810588E+01
 0.3397287726071E+01
 0.3414379411966E+01
 0.3419696175238E+01
 0.3415928037798E+01
 0.3405184725778E+01
 0.3389006954743E+01
 0.3368439321568E+01
 0.3344115810484E+01
 0.3316336380761E+01
 0.3285128658388E+01
 0.3250298063997E+01
 0.3211470520917E+01
 0.3168137608694E+01
 0.3119710852787E+01
 0.3065585991504E+01
 0.3005216158111E+01
 0.2938204716912E+01
 0.2864481835156E+01
 0.2784410780412E+01
 0.2698761396553E+01
 0.2608774457172E+01
 0.2516410222695E+01
 0.2424818166594E+01
 0.2339061346126E+01
 0.2267130768100E+01
 0.2221244945607E+01
 0.2219157217947E+01
 0.2284701057677E+01
 0.2445697306582E+01
 0.2726655879774E+01
 0.3136508003699E+01
 0.3656745022504E+01
 0.4236129867004E+01
 0.4793228233139E+01
 0.2711685043066E+01
 0.2828461753141E+01
 0.2942886660801E+01
 0.3047069438382E+01
 0.3135202138076E+01
 0.3204475049691E+01
 0.3254820071636E+01
 0.3288006777203E+01
 0.3306664539332E+01
 0.3313550236955E+01
 0.3311127316771E+01
 0.3301389207858E+01
 0.3285830728067E+01
 0.3265490510033E+01
 0.3241017210512E+01
 0.3212735953134E+01
 0.3180706371526E+01
 0.3144773351356E+01
 0.3104612699894E+01
 0.3059779968544E+01
 0.3009767648677E+01
 0.2954070709403E+01
 0.2892260223992E+01
 0.2824076833228E+01
 0.2749605203422E+01
 0.2669387496424E+01
 0.2584419092596E+01
 0.2496233834862E+01
 0.2407161311411E+01
 0.2320785312586E+01
 0.2242626172663E+01
 0.2181059701060E+01
 0.2148417548949E+01
 0.2161910164787E+01
 0.2243531229336E+01
 0.2417318864017E+01
 0.2702314026084E+01
 0.3102402404369E+01
 0.3597496786742E+01
 0.4140808930480E+01
 0.4667376409912E+01
 0.2626333079762E+01
 0.2736060467936E+01
 0.2843893563072E+01
 0.2942843079026E+01
 0.3027578349416E+01
 0.3095263234463E+01
 0.3145452118310E+01
 0.3179407707699E+01
 0.3199289933862E+01
 0.3207500752457E+01
 0.3206272537999E+01
 0.3197467939820E+01
 0.3182520205060E+01
 0.3162449322733E+01
 0.3137910266060E+01
 0.3109249192145E+01
 0.3076557120834E+01
 0.3039720311574E+01
 0.2998467814555E+01
 0.2952422912471E+01
 0.2901162423395E+01
 0.2844283194262E+01
 0.2781476282346E+01
 0.2712621088878E+01
 0.2637957084694E+01
 0.2558202310623E+01
 0.2474567165538E+01
 0.2388854793091E+01
 0.2303720458463E+01
 0.2223111614385E+01
 0.2152900867363E+01
 0.2101702601242E+01
 0.2081771962090E+01
 0.2109564977407E+01
 0.2205111923638E+01
 0.2388888194701E+01
 0.2675299927854E+01
 0.3064378973107E+01
 0.3535440067917E+01
 0.4046166471073E+01
 0.4542662723019E+01
 0.2541801905393E+01
 0.2644959142913E+01
 0.2746583391086E+01
 0.2840462646989E+01
 0.2921713581434E+01
 0.2987533559013E+01
 0.3037198714643E+01
 0.3071554703489E+01
 0.3092349204038E+01
 0.3101653654071E+01
 0.3101471435173E+01
 0.3093525467062E+01
 0.3079175447259E+01
 0.3059412068331E+01
 0.3034889063126E+01
 0.3005969455763E+01
 0.2972774431094E+01
 0.2935232545862E+01
 0.2893128222490E+01
 0.2846154891158E+01
 0.2793975693590E+01
 0.2736290594869E+01
 0.2672911037605E+01
 0.2603854491344E+01
 0.2529512623136E+01
 0.2450772731688E+01
 0.2369045770415E+01
 0.2286376840537E+01
 0.2205701190157E+01
 0.2131260568007E+01
 0.2069182040029E+01
 0.2028188900135E+01
 0.2020301236759E+01
 0.2061064454742E+01
 0.2168503249793E+01
 0.2359819671897E+01
 0.2645536790203E+01
 0.3022827971685E+01
 0.3471048793382E+01
 0.3952195077995E+01
 0.4420581957132E+01
 0.2457997931606E+01
 0.2555009898337E+01
 0.2650774497983E+01
 0.2739753197014E+01
 0.2817477745446E+01
 0.2881220023944E+01
 0.2930056435277E+01
 0.2964492576756E+01
 0.2985917641107E+01
 0.2996099627451E+01
 0.2996819891173E+01
 0.2989657286814E+01
 0.2975889332987E+01
 0.2956468766951E+01
 0.2932041419146E+01
 0.2902983110340E+01
 0.2869443506256E+01
 0.2831393539324E+01
 0.2788674048061E+01
 0.2741049820567E+01
 0.2688271065145E+01
 0.2630140773330E+01
 0.2566589607876E+01
 0.2497770402478E+01
 0.2424221852945E+01
 0.2346990916215E+01
 0.2267671659302E+01
 0.2188521591031E+01
 0.2112709970202E+01
 0.2044706721425E+01
 0.1990804353945E+01
 0.1959722333895E+01
 0.1963116615085E+01
 0.2015514385322E+01
 0.2132957906355E+01
 0.2329696969311E+01
 0.2613046898447E+01
 0.2978109997148E+01
 0.3404742860419E+01
 0.3858951400213E+01
 0.4301167388387E+01
 0.2374840964783E+01
 0.2466085957931E+01
 0.2556309292381E+01
 0.2640558657092E+01
 0.2714748545241E+01
 0.2776252683665E+01
 0.2824009547868E+01
 0.2858250072649E+01
 0.2880054397072E+01
 0.2890915183469E+01
 0.2892402187190E+01
 0.2885949590952E+01
 0.2872747046342E+01
 0.2853702560201E+01
 0.2829448331108E+01
 0.2800369100266E+01
 0.2766640987627E+01
 0.2728276665581E+01
 0.2685173482896E+01
 0.2637167719452E+01
 0.2584096248173E+01
 0.2525863754896E+01
 0.2462517503885E+01
 0.2394341187477E+01
 0.2322013193442E+01
 0.2246728190185E+01
 0.2170243853459E+01
 0.2094999542193E+01
 0.2024353677575E+01
 0.1962942823399E+01
 0.1917145471920E+01
 0.1895581065930E+01
 0.1909439483202E+01
 0.1972164293672E+01
 0.2097886784088E+01
 0.2298235678935E+01
 0.2577909402956E+01
 0.2930559112575E+01
 0.3336855834055E+01
 0.3766362940227E+01
 0.4184247855837E+01
 0.2292261688570E+01
 0.2378077819562E+01
 0.2463050266526E+01
 0.2542739509347E+01
 0.2613411698273E+01
 0.2672559896904E+01
 0.2719033100498E+01
 0.2752842726232E+01
 0.2774804555541E+01
 0.2786163855018E+01
 0.2788291493494E+01
 0.2782479290732E+01
 0.2769825850999E+01
 0.2751189396556E+01
 0.2727183688755E+01
 0.2698198774547E+01
 0.2664434961506E+01
 0.2625945431933E+01
 0.2582683315913E+01
 0.2534555564962E+01
 0.2481484280301E+01
 0.2423473376410E+01
 0.2360682788766E+01
 0.2293521002466E+01
 0.2222796994506E+01
 0.2149839458885E+01
 0.2076548936878E+01
 0.2005516077385E+01
 0.1940245789854E+01
 0.1885485133661E+01
 0.1847628843478E+01
 0.1835115797996E+01
 0.1858592434062E+01
 0.1930388772767E+01
 0.2062830582877E+01
 0.2265250398749E+01
 0.2540236779275E+01
 0.2880474279819E+01
 0.3267621832784E+01
 0.3674332921664E+01
 0.4069613755701E+01
 0.2210199678629E+01
 0.2290890177799E+01
 0.2370876715859E+01
 0.2446170669996E+01
 0.2513360761602E+01
 0.2570069861042E+01
 0.2615095310038E+01
 0.2648275244641E+01
 0.2670200986912E+01
 0.2681897372344E+01
 0.2684550446988E+01
 0.2679314170886E+01
 0.2667194998684E+01
 0.2648997840487E+01
 0.2625314095594E+01
 0.2596535804212E+01
 0.2562885039786E+01
 0.2524453777811E+01
 0.2481249495101E+01
 0.2433248157724E+01
 0.2380454737043E+01
 0.2322968896668E+01
 0.2261058163407E+01
 0.2195248446231E+01
 0.2126468841810E+01
 0.2056167209186E+01
 0.1986365692535E+01
 0.1919776472670E+01
 0.1860011178407E+01
 0.1811877007857E+01
 0.1781724671165E+01
 0.1777746448857E+01
 0.1809989826002E+01
 0.1889670303438E+01
 0.2027435532440E+01
 0.2230629130264E+01
 0.2500158898033E+01
 0.2828112149846E+01
 0.3197207699153E+01
 0.3582774869883E+01
 0.3957051510115E+01
 0.2128601811716E+01
 0.2204439430887E+01
 0.2279682001701E+01
 0.2350739560835E+01
 0.2414496691251E+01
 0.2468711587116E+01
 0.2512159353047E+01
 0.2544543431346E+01
 0.2566265938882E+01
 0.2578156734309E+01
 0.2581231723628E+01
 0.2576513083257E+01
 0.2564915686791E+01
 0.2547188922088E+01
 0.2523898713807E+01
 0.2495436103619E+01
 0.2462042422185E+01
 0.2423846330283E+01
 0.2380907619699E+01
 0.2333268889197E+01
 0.2281014814488E+01
 0.2224336443793E+01
 0.2163602840303E+01
 0.2099448926865E+01
 0.2032912464375E+01
 0.1965544948731E+01
 0.1899468948795E+01
 0.1837489834062E+01
 0.1783289547526E+01
 0.1741690937296E+01
 0.1718949394031E+01
 0.1722957792088E+01
 0.1763128234453E+01
 0.1849583600627E+01
 0.1991432882781E+01
 0.2194313774912E+01
 0.2457811338727E+01
 0.2773690586291E+01
 0.3125739547339E+01
 0.3491617817416E+01
 0.3846355263669E+01
 0.2047420983339E+01
 0.2118651665842E+01
 0.2189371291402E+01
 0.2256344422716E+01
 0.2316727309694E+01
 0.2368415547446E+01
 0.2410184780361E+01
 0.2441635833240E+01
 0.2463012508737E+01
 0.2474973309115E+01
 0.2478378745359E+01
 0.2474126336488E+01
 0.2463041242128E+01
 0.2445816224501E+01
 0.2422989349232E+01
 0.2394947989455E+01
 0.2361950190966E+01
 0.2324158884573E+01
 0.2281683647883E+01
 0.2234630713018E+01
 0.2183160601089E+01
 0.2127550629335E+01
 0.2068264546629E+01
 0.2006037094689E+01
 0.1942002608956E+01
 0.1877800467266E+01
 0.1815633056720E+01
 0.1758372444834E+01
 0.1709738083086E+01
 0.1674529708837E+01
 0.1658864422677E+01
 0.1670294778567E+01
 0.1717577411275E+01
 0.1809781805461E+01
 0.1954622113198E+01
 0.2156285350372E+01
 0.2413328724210E+01
 0.2717396012830E+01
 0.3053318958240E+01
 0.3400804009453E+01
 0.3737331817853E+01
 0.1966615061069E+01
 0.2033460998880E+01
 0.2099859651007E+01
 0.2162892797857E+01
 0.2219966669157E+01
 0.2269114002090E+01
 0.2309128529027E+01
 0.2339535025149E+01
 0.2360445853569E+01
 0.2372369776863E+01
 0.2376026305623E+01
 0.2372196047406E+01
 0.2361617282283E+01
 0.2344925946946E+01
 0.2322630499507E+01
 0.2295112284466E+01
 0.2262643528113E+01
 0.2225418781825E+01
 0.2183594474056E+01
 0.2137336955787E+01
 0.2086878154845E+01
 0.2032575926187E+01
 0.1974981235904E+01
 0.1914918907369E+01
 0.1853607442200E+01
 0.1792758490206E+01
 0.1734634599045E+01
 0.1682150182504E+01
 0.1639033057757E+01
 0.1610026532657E+01
 0.1601074053221E+01
 0.1619357499540E+01
 0.1672971655724E+01
 0.1769984284741E+01
 0.1916857126621E+01
 0.2116552908038E+01
 0.2366841398953E+01
 0.2659390263464E+01
 0.2980031700524E+01
 0.3310285378876E+01
 0.3629802678698E+01
 0.1886146023935E+01
 0.1948808210846E+01
 0.2011070450455E+01
 0.2070300205076E+01
 0.2124134410735E+01
 0.2170741153560E+01
 0.2208945692290E+01
 0.2238218679484E+01
 0.2258564268891E+01
 0.2270361035169E+01
 0.2274201236190E+01
 0.2270756586516E+01
 0.2260682000728E+01
 0.2244557104484E+01
 0.2222859541252E+01
 0.2195962555916E+01
 0.2164150058540E+01
 0.2127645400924E+01
 0.2086648605268E+01
 0.2041382208700E+01
 0.1992144637916E+01
 0.1939368071711E+01
 0.1883682778423E+01
 0.1825993607132E+01
 0.1767590773605E+01
 0.1710243037363E+01
 0.1656254674003E+01
 0.1608560391041E+01
 0.1570870827619E+01
 0.1547844611453E+01
 0.1545223036032E+01
 0.1569796211964E+01
 0.1629001905934E+01
 0.1729966114335E+01
 0.1878035121139E+01
 0.2075145499619E+01
 0.2318474122388E+01
 0.2599816030800E+01
 0.2905952530639E+01
 0.3220021019446E+01
 0.3523604988636E+01
 0.1805979250798E+01
 0.1864639613944E+01
 0.1922934017799E+01
 0.1978488975619E+01
 0.2029155129048E+01
 0.2073233164529E+01
 0.2109590079305E+01
 0.2137660429454E+01
 0.2157360115015E+01
 0.2168955022893E+01
 0.2172923054286E+01
 0.2169835047431E+01
 0.2160266500587E+01
 0.2144741786189E+01
 0.2123706975100E+01
 0.2097525404517E+01
 0.2066490231756E+01
 0.2030850673249E+01
 0.1990846841964E+01
 0.1946753201401E+01
 0.1898929406219E+01
 0.1847875390407E+01
 0.1794292523440E+01
 0.1739155505624E+01
 0.1683814004031E+01
 0.1630079410658E+01
 0.1580280709558E+01
 0.1537353208365E+01
 0.1504968271274E+01
 0.1487676244497E+01
 0.1490993907187E+01
 0.1521306510619E+01
 0.1585408562034E+01
 0.1689549081529E+01
 0.1838087686088E+01
 0.2032106397741E+01
 0.2268345746609E+01
 0.2538800883118E+01
 0.2831147961023E+01
 0.3129975652374E+01
 0.3418591742560E+01
 0.1726082924306E+01
 0.1780906097569E+01
 0.1835386487235E+01
 0.1887387216092E+01
 0.1934957740869E+01
 0.1976528058588E+01
 0.2011014585796E+01
 0.2037830531631E+01
 0.2056820575150E+01
 0.2068153426056E+01
 0.2072204539935E+01
 0.2069451681540E+01
 0.2060395113394E+01
 0.2045505404982E+01
 0.2025196659256E+01
 0.1999820731885E+01
 0.1969677667167E+01
 0.1935039542449E+01
 0.1896182881837E+01
 0.1853429573299E+01
 0.1807194965714E+01
 0.1758039944923E+01
 0.1706728640761E+01
 0.1654295486510E+01
 0.1602137718029E+01
 0.1552095745141E+01
 0.1506507767675E+01
 0.1468292341752E+01
 0.1441062697644E+01
 0.1429241514204E+01
 0.1438104126967E+01
 0.1473624657474E+01
 0.1541974972936E+01
 0.1648593977029E+01
 0.1796973646896E+01
 0.1987488858463E+01
 0.2216569247394E+01
 0.2476460082825E+01
 0.2755677905963E+01
 0.3040118659407E+01
 0.3314631343897E+01
 0.1646427531405E+01
 0.1697562330962E+01
 0.1748368828281E+01
 0.1796927914585E+01
 0.1841474912424E+01
 0.1880565591501E+01
 0.1913171481001E+01
 0.1938696437350E+01
 0.1956928351943E+01
 0.1967952369820E+01
 0.1972052347919E+01
 0.1969620406920E+01
 0.1961085819520E+01
 0.1946867065117E+01
 0.1927346167627E+01
 0.1902862132721E+01
 0.1873719619245E+01
 0.1840210535223E+01
 0.1802644022075E+01
 0.1761384726488E+01
 0.1716897987959E+01
 0.1669798716298E+01
 0.1620905451636E+01
 0.1571302446350E+01
 0.1522423154108E+01
 0.1476124374994E+01
 0.1434739611498E+01
 0.1401155585832E+01
 0.1378911532477E+01
 0.1372286863885E+01
 0.1386303308583E+01
 0.1426523299456E+01
 0.1498521727882E+01
 0.1606994165804E+01
 0.1754673455091E+01
 0.1941353121534E+01
 0.2163252043124E+01
 0.2412898783047E+01
 0.2679597010274E+01
 0.2950423761509E+01
 0.3211607117987E+01
 0.1566985439313E+01
 0.1614566080348E+01
 0.1661826002703E+01
 0.1707048138997E+01
 0.1748642504347E+01
 0.1785287058383E+01
 0.1816012571887E+01
 0.1840223218743E+01
 0.1857662227210E+01
 0.1868342999518E+01
 0.1872467538286E+01
 0.1870349259834E+01
 0.1862350625998E+01
 0.1848839892433E+01
 0.1830167108077E+01
 0.1806657238302E+01
 0.1778617380456E+01
 0.1746356252525E+01
 0.1710211761350E+01
 0.1670586554058E+01
 0.1627990172134E+01
 0.1583084595883E+01
 0.1536734529547E+01
 0.1490064456934E+01
 0.1444533344524E+01
 0.1402002821222E+01
 0.1364789363647E+01
 0.1335734936337E+01
 0.1318291658991E+01
 0.1316583454176E+01
 0.1335370421242E+01
 0.1379807435775E+01
 0.1454901556293E+01
 0.1564670127567E+01
 0.1711184675780E+01
 0.1893764156026E+01
 0.2108496295309E+01
 0.2348213611957E+01
 0.2602955583197E+01
 0.2860868759133E+01
 0.3109416430952E+01
 0.1487730533751E+01
 0.1531877627340E+01
 0.1575706241458E+01
 0.1617688337209E+01
 0.1656399068646E+01
 0.1690635094549E+01
 0.1719489318091E+01
 0.1742373929855E+01
 0.1758997566492E+01
 0.1769312031871E+01
 0.1773446106990E+01
 0.1771640873061E+01
 0.1764195990700E+01
 0.1751431422480E+01
 0.1733665502858E+01
 0.1711208120483E+01
 0.1684366738299E+01
 0.1653463904528E+01
 0.1618862431492E+01
 0.1580998180057E+01
 0.1540419095931E+01
 0.1497827337614E+01
 0.1454125726543E+01
 0.1410469813043E+01
 0.1368334098763E+01
 0.1329574587212E+01
 0.1296479954241E+01
 0.1271836507727E+01
 0.1258998622081E+01
 0.1261925495460E+01
 0.1285111137156E+01
 0.1333310759178E+01
 0.1410994887989E+01
 0.1521564915231E+01
 0.1666518431360E+01
 0.1844790036162E+01
 0.2052399279795E+01
 0.2282493978203E+01
 0.2525800443772E+01
 0.2771435455886E+01
 0.3007969805086E+01
 0.1408637908420E+01
 0.1449459267290E+01
 0.1489960416461E+01
 0.1528791718131E+01
 0.1564685386714E+01
 0.1596553468511E+01
 0.1623552899880E+01
 0.1645109902011E+01
 0.1660906759634E+01
 0.1670842257706E+01
 0.1674979488809E+01
 0.1673492945831E+01
 0.1666623252253E+01
 0.1654644002068E+01
 0.1637842184005E+01
 0.1616511706993E+01
 0.1590958435622E+01
 0.1561515837184E+01
 0.1528567805702E+01
 0.1492578657398E+01
 0.1454129001828E+01
 0.1413954418605E+01
 0.1372988076507E+01
 0.1332407923047E+01
 0.1293694797204E+01
 0.1258689740637E+01
 0.1229644350616E+01
 0.1209280258600E+01
 0.1200845706151E+01
 0.1208128563039E+01
 0.1235355314698E+01
 0.1286892334333E+01
 0.1366705984227E+01
 0.1477640366016E+01
 0.1620696579321E+01
 0.1794500756285E+01
 0.1995053769059E+01
 0.2215823145859E+01
 0.2448175643865E+01
 0.2682109597855E+01
 0.2907189975912E+01
 0.1329683594828E+01
 0.1367274870119E+01
 0.1404541486546E+01
 0.1440303696774E+01
 0.1473444040181E+01
 0.1502986867749E+01
 0.1528154244461E+01
 0.1548390978050E+01
 0.1563359596939E+01
 0.1572912988762E+01
 0.1577055018174E+01
 0.1575898685277E+01
 0.1569629041431E+01
 0.1558475177188E+01
 0.1542693174829E+01
 0.1522560177901E+01
 0.1498378603275E+01
 0.1470490018874E+01
 0.1439295651465E+01
 0.1405283591908E+01
 0.1369061487493E+01
 0.1331391778390E+01
 0.1293230548693E+01
 0.1255770020608E+01
 0.1220488980280E+01
 0.1189205275646E+01
 0.1164125571433E+01
 0.1147899533764E+01
 0.1143662895829E+01
 0.1155027896485E+01
 0.1185954602073E+01
 0.1240433568254E+01
 0.1321959546640E+01
 0.1432873912725E+01
 0.1573749438240E+01
 0.1742967336546E+01
 0.1936548374829E+01
 0.2148279090507E+01
 0.2370123022964E+01
 0.2592880719608E+01
 0.2807010831956E+01
 0.1250844326767E+01
 0.1285289497853E+01
 0.1319404015104E+01
 0.1352171409756E+01
 0.1382619034422E+01
 0.1409880711047E+01
 0.1433244055526E+01
 0.1452175736853E+01
 0.1466323635017E+01
 0.1475500503167E+01
 0.1479656402516E+01
 0.1478847274696E+01
 0.1473205731074E+01
 0.1462918127130E+01
 0.1448210120892E+01
 0.1429341410750E+01
 0.1406609236885E+01
 0.1380360563331E+01
 0.1351010308736E+01
 0.1319065777450E+01
 0.1285156189804E+01
 0.1250064531099E+01
 0.1214762751169E+01
 0.1180449803180E+01
 0.1148594845406E+01
 0.1120985374131E+01
 0.1099776608916E+01
 0.1087540547916E+01
 0.1087295839511E+01
 0.1102476790628E+01
 0.1136780248580E+01
 0.1193835529706E+01
 0.1276697818858E+01
 0.1387255967037E+01
 0.1525714022704E+01
 0.1690261228497E+01
 0.1876967949241E+01
 0.2079935295137E+01
 0.2291682745095E+01
 0.2503742041441E+01
 0.2707376466409E+01
 0.1172097331771E+01
 0.1203469063434E+01
 0.1234503739401E+01
 0.1264343280979E+01
 0.1292155457499E+01
 0.1317180973745E+01
 0.1338772833514E+01
 0.1356421693081E+01
 0.1369764531348E+01
 0.1378578460815E+01
 0.1382764171157E+01
 0.1382324324081E+01
 0.1377341873577E+01
 0.1367962088645E+01
 0.1354380710159E+01
 0.1336839410656E+01
 0.1315628651371E+01
 0.1291098220265E+01
 0.1263673223152E+01
 0.1233875770797E+01
 0.1202351390754E+01
 0.1169897579471E+01
 0.1137495514975E+01
 0.1106343931472E+01
 0.1077895590634E+01
 0.1053901510642E+01
 0.1036460209077E+01
 0.1028061763865E+01
 0.1031604767858E+01
 0.1050345024394E+01
 0.1087721057637E+01
 0.1147016530843E+01
 0.1230878062642E+01
 0.1340787724686E+01
 0.1476632627862E+01
 0.1636453888672E+01
 0.1816393954777E+01
 0.2010861405542E+01
 0.2212893696063E+01
 0.2414690262542E+01
 0.2608240170683E+01
 0.1093420144775E+01
 0.1121780025566E+01
 0.1149797188298E+01
 0.1176768640345E+01
 0.1201999186734E+01
 0.1224834047956E+01
 0.1244690916492E+01
 0.1261085506568E+01
 0.1273646383362E+01
 0.1282118323735E+01
 0.1286356133384E+01
 0.1286312335354E+01
 0.1282022657953E+01
 0.1273592802620E+01
 0.1261189116080E+01
 0.1245034761095E+01
 0.1225411951235E+01
 0.1202670874307E+01
 0.1177243477580E+01
 0.1149662452318E+01
 0.1120584594191E+01
 0.1090816182627E+01
 0.1061341414061E+01
 0.1033352448205E+01
 0.1008279666532E+01
 0.9878324650568E+00
 0.9740485751068E+00
 0.9693332288002E+00
 0.9764634249937E+00
 0.9985173747845E+00
 0.1038681513090E+01
 0.1099909980096E+01
 0.1184470389580E+01
 0.1293479351477E+01
 0.1426551725341E+01
 0.1581616516820E+01
 0.1754904847305E+01
 0.1941123816560E+01
 0.2133793811246E+01
 0.2325725322357E+01
 0.2509563463399E+01
 0.1014790439505E+01
 0.1040189113279E+01
 0.1065241343339E+01
 0.1089397395495E+01
 0.1112096650507E+01
 0.1132786653158E+01
 0.1150948562789E+01
 0.1166123224910E+01
 0.1177932094947E+01
 0.1186089801712E+01
 0.1190407862485E+01
 0.1190791195827E+01
 0.1187230397521E+01
 0.1179792992858E+01
 0.1168616472630E+01
 0.1153905104550E+01
 0.1135931526534E+01
 0.1115044063289E+01
 0.1091678334369E+01
 0.1066373586323E+01
 0.1039793088685E+01
 0.1012746494349E+01
 0.9862152391400E+00
 0.9613791356236E+00
 0.9396409569501E+00
 0.9226642644975E+00
 0.9124230153629E+00
 0.9112358882220E+00
 0.9217580275983E+00
 0.9468922233588E+00
 0.9895800739117E+00
 0.1052462483574E+01
 0.1137455903990E+01
 0.1245348490457E+01
 0.1375521115406E+01
 0.1525819930464E+01
 0.1692576475977E+01
 0.1870786206654E+01
 0.2054420343206E+01
 0.2236850132022E+01
 0.2411315157883E+01
 0.9361858735341E+00
 0.9586630750142E+00
 0.9807933407061E+00
 0.1002179760749E+01
 0.1022394658397E+01
 0.1040985818783E+01
 0.1057496102765E+01
 0.1071490588747E+01
 0.1082583798593E+01
 0.1090461347868E+01
 0.1094893226176E+01
 0.1095738716242E+01
 0.1092945061356E+01
 0.1086542887925E+01
 0.1076641391220E+01
 0.1063425662793E+01
 0.1047157584867E+01
 0.1028181527173E+01
 0.1006933800805E+01
 0.9839563946788E+00
 0.9599145110289E+00
 0.9356160867353E+00
 0.9120344400698E+00
 0.8903318254798E+00
 0.8718789009754E+00
 0.8582900650500E+00
 0.8514735445163E+00
 0.8536608834409E+00
 0.8673862536490E+00
 0.8953802502196E+00
 0.9403476216343E+00
 0.1004632163721E+01
 0.1089825107885E+01
 0.1196419029728E+01
 0.1323593280107E+01
 0.1469134542484E+01
 0.1629482491143E+01
 0.1799910021270E+01
 0.1974810060886E+01
 0.2148070257146E+01
 0.2313470441973E+01
 0.8575839436547E+00
 0.8771684502455E+00
 0.8964102190845E+00
 0.9150660601461E+00
 0.9328403304261E+00
 0.9493789818724E+00
 0.9642842109502E+00
 0.9771434541209E+00
 0.9875633865513E+00
 0.9952007539827E+00
 0.9997850085615E+00
 0.1001131254208E+01
 0.9991448870148E+00
 0.9938208216617E+00
 0.9852405544109E+00
 0.9735698321918E+00
 0.9590587560132E+00
 0.9420458259973E+00
 0.9229652578714E+00
 0.9023581851136E+00
 0.8808874520768E+00
 0.8593544998282E+00
 0.8387195745359E+00
 0.8201226947941E+00
 0.8048985838482E+00
 0.7946099954393E+00
 0.7910984550594E+00
 0.7965088457457E+00
 0.8132562697229E+00
 0.8439032184841E+00
 0.8909260539644E+00
 0.9563871749365E+00
 0.1041576532788E+01
 0.1146720087600E+01
 0.1270822900637E+01
 0.1411630425518E+01
 0.1565694767152E+01
 0.1728554922630E+01
 0.1894999392602E+01
 0.2059393554298E+01
 0.2216009964798E+01
 0.7789618492058E+00
 0.7956713684405E+00
 0.8120487341922E+00
 0.8280066485256E+00
 0.8433811943215E+00
 0.8579142899002E+00
 0.8712644026277E+00
 0.8830384421906E+00
 0.8928332612524E+00
 0.9002759520858E+00
 0.9050557252445E+00
 0.9069445201633E+00
 0.9058071686407E+00
 0.9016040051687E+00
 0.8943894797182E+00
 0.8843099492749E+00
 0.8716028673856E+00
 0.8565991282682E+00
 0.8397282566469E+00
 0.8215271401043E+00
 0.8026522101466E+00
 0.7838939185922E+00
 0.7661948569692E+00
 0.7506686306728E+00
 0.7386108677031E+00
 0.7315310215525E+00
 0.7312039087416E+00
 0.7396892308303E+00
 0.7592858365326E+00
 0.7923928842912E+00
 0.8412670518292E+00
 0.9077044319926E+00
 0.9927156027445E+00
 0.1096285215161E+01
 0.1217266548426E+01
 0.1353377495578E+01
 0.1501283899902E+01
 0.1656779284310E+01
 0.1815024592803E+01
 0.1970829834958E+01
 0.2118919007746E+01
 0.7002963607720E+00
 0.7141373802032E+00
 0.7276652699382E+00
 0.7409520170698E+00
 0.7539655550180E+00
 0.7665412422202E+00
 0.7783899035337E+00
 0.7891339661433E+00
 0.7983574456253E+00
 0.8056561481215E+00
 0.8106787410082E+00
 0.8131546603124E+00
 0.8129093027512E+00
 0.8098695439023E+00
 0.8040635218199E+00
 0.7956182923322E+00
 0.7847579556340E+00
 0.7718042357222E+00
 0.7571795484456E+00
 0.7414133306229E+00
 0.7251517505487E+00
 0.7091700247269E+00
 0.6943888380801E+00
 0.6818916724324E+00
 0.6729325463181E+00
 0.6689667946279E+00
 0.6717034962425E+00
 0.6831196354583E+00
 0.7054014337406E+00
 0.7407899726232E+00
 0.7913309550127E+00
 0.8585684757492E+00
 0.9432536398716E+00
 0.1045151717749E+01
 0.1162982449814E+01
 0.1294445721982E+01
 0.1436319696503E+01
 0.1584640648224E+01
 0.1734921828132E+01
 0.1882390413292E+01
 0.2022186572332E+01
 0.6215636943602E+00
 0.6325313529387E+00
 0.6432159436115E+00
 0.6538532688630E+00
 0.6645434115253E+00
 0.6752120160213E+00
 0.6856172801145E+00
 0.6953920358927E+00
 0.7041034464475E+00
 0.7113136624777E+00
 0.7166300437453E+00
 0.7197399514524E+00
 0.7204304129661E+00
 0.7185960133035E+00
 0.7142394242772E+00
 0.7074686324117E+00
 0.6984938328789E+00
 0.6876261687597E+00
 0.6752786767647E+00
 0.6619702811105E+00
 0.6483331869622E+00
 0.6351233164911E+00
 0.6232354728249E+00
 0.6137197431972E+00
 0.6077866868027E+00
 0.6068376026396E+00
 0.6125178552415E+00
 0.6267251734787E+00
 0.6515374792712E+00
 0.6890432944924E+00
 0.7410858180451E+00
 0.8089705391798E+00
 0.8932070666077E+00
 0.9933601468836E+00
 0.1108030384660E+01
 0.1234905446905E+01
 0.1370871776148E+01
 0.1512196299014E+01
 0.1654727349375E+01
 0.1794087695374E+01
 0.1925804533625E+01
 0.5427393949689E+00
 0.5508174960098E+00
 0.5586571068940E+00
 0.5666633528141E+00
 0.5750684974384E+00
 0.5838841964737E+00
 0.5929096260197E+00
 0.6017816479040E+00
 0.6100456444171E+00
 0.6172271945477E+00
 0.6228913304523E+00
 0.6266837086906E+00
 0.6283541117877E+00
 0.6277661216590E+00
 0.6248979326354E+00
 0.6198388389380E+00
 0.6127847129352E+00
 0.6040348201898E+00
 0.5939906372159E+00
 0.5831575797326E+00
 0.5721502487535E+00
 0.5617013073427E+00
 0.5526759098709E+00
 0.5460879080751E+00
 0.5431032957424E+00
 0.5450704784992E+00
 0.5535743477564E+00
 0.5704378931501E+00
 0.5976356281491E+00
 0.6371089979801E+00
 0.6905066390110E+00
 0.7589077977511E+00
 0.8425967763047E+00
 0.9409539239512E+00
 0.1052471675521E+01
 0.1174827776371E+01
 0.1305010264219E+01
 0.1439503963844E+01
 0.1574477753704E+01
 0.1705934757527E+01
 0.1829766801356E+01
 0.4637982412709E+00
 0.4689596814256E+00
 0.4739467482729E+00
 0.4793400272773E+00
 0.4855028859087E+00
 0.4925267067590E+00
 0.5002432816280E+00
 0.5082857535748E+00
 0.5161721071666E+00
 0.5233882549490E+00
 0.5294559867295E+00
 0.5339798433540E+00
 0.5366737232195E+00
 0.5373717037794E+00
 0.5360286626902E+00
 0.5327157081937E+00
 0.5276140558898E+00
 0.5210098304479E+00
 0.5132907445196E+00
 0.5049456344626E+00
 0.4965677563415E+00
 0.4888624960649E+00
 0.4826617143619E+00
 0.4789406545345E+00
 0.4788205876505E+00
 0.4835995651627E+00
 0.4948067892595E+00
 0.5141961920666E+00
 0.5436441146341E+00
 0.5849499326938E+00
 0.6395747443043E+00
 0.7083827766815E+00
 0.7914476279574E+00
 0.8879790354025E+00
 0.9963691940014E+00
 0.1114284963250E+01
 0.1238806516031E+01
 0.1366622614248E+01
 0.1494210321266E+01
 0.1617944828829E+01
 0.1734068326964E+01
 0.3847142154509E+00
 0.3869225439136E+00
 0.3890482438140E+00
 0.3918533363311E+00
 0.3958282980007E+00
 0.4011340967686E+00
 0.4076237484560E+00
 0.4149174843269E+00
 0.4225001894361E+00
 0.4298156624644E+00
 0.4363423710511E+00
 0.4416450555473E+00
 0.4454036151465E+00
 0.4474244542749E+00
 0.4476404769843E+00
 0.4461051775269E+00
 0.4429847449539E+00
 0.4385507610762E+00
 0.4331747232558E+00
 0.4273254702461E+00
 0.4215707808258E+00
 0.4165844448004E+00
 0.4131614045410E+00
 0.4122365486836E+00
 0.4148876957711E+00
 0.4223671730015E+00
 0.4361554297662E+00
 0.4579443545897E+00
 0.4895172781256E+00
 0.5325352994237E+00
 0.5882775111530E+00
 0.6574030863879E+00
 0.7397882201368E+00
 0.8344839438505E+00
 0.9397875243481E+00
 0.1053350924829E+01
 0.1172334047946E+01
 0.1293613644286E+01
 0.1413963787235E+01
 0.1530130974353E+01
 0.1638704218924E+01
 0.3054606753473E+00
 0.3046748728484E+00
 0.3039411176750E+00
 0.3042067459689E+00
 0.3060778644919E+00
 0.3097663547977E+00
 0.3151295116950E+00
 0.3217641523815E+00
 0.3291180988618E+00
 0.3365934532467E+00
 0.3436279081636E+00
 0.3497495684817E+00
 0.3546072902658E+00
 0.3579821268814E+00
 0.3597864604054E+00
 0.3600565975375E+00
 0.3589429849795E+00
 0.3567007171146E+00
 0.3536818764804E+00
 0.3503309607463E+00
 0.3471851632534E+00
 0.3448816147977E+00
 0.3441746506270E+00
 0.3459581781858E+00
 0.3512703934083E+00
 0.3613260877446E+00
 0.3775671896781E+00
 0.4016320501577E+00
 0.4352151475999E+00
 0.4798405219096E+00
 0.5366083798958E+00
 0.6059814116549E+00
 0.6876508275367E+00
 0.7805195578203E+00
 0.8827930858948E+00
 0.9921016411067E+00
 0.1105669383855E+01
 0.1220542199571E+01
 0.1333779430261E+01
 0.1442505720248E+01
 0.1543668490127E+01
 0.2260112805280E+00
 0.2222014280917E+00
 0.2186582646858E+00
 0.2165110646239E+00
 0.2164479806390E+00
 0.2186888472483E+00
 0.2230644134117E+00
 0.2291375001041E+00
 0.2363236142452E+00
 0.2439942202153E+00
 0.2515571609512E+00
 0.2585121096348E+00
 0.2644821409361E+00
 0.2692258433408E+00
 0.2726361241826E+00
 0.2747315875070E+00
 0.2756449066805E+00
 0.2756110696746E+00
 0.2749574982066E+00
 0.2740976769694E+00
 0.2735308214870E+00
 0.2738507603863E+00
 0.2757676079932E+00
 0.2801363192865E+00
 0.2879647418038E+00
 0.3004451820880E+00
 0.3189967223902E+00
 0.3452139532489E+00
 0.3807033222389E+00
 0.4268477006134E+00
 0.4845675392823E+00
 0.5541360928598E+00
 0.6350717802874E+00
 0.7261395008715E+00
 0.8254544372841E+00
 0.9306156208385E+00
 0.1038892958879E+01
 0.1147478934541E+01
 0.1253703094481E+01
 0.1355081207212E+01
 0.1448952675819E+01
 0.1463446626817E+00
 0.1395585124040E+00
 0.1334688805067E+00
 0.1293619468858E+00
 0.1278812178279E+00
 0.1291015493622E+00
 0.1327376169482E+00
 0.1383191731098E+00
 0.1452855670779E+00
 0.1530420111194E+00
 0.1610134730295E+00
 0.1686968487602E+00
 0.1756995521886E+00
 0.1817589363262E+00
 0.1867451421484E+00
 0.1906533227588E+00
 0.1935907610730E+00
 0.1957627695926E+00
 0.1974604890262E+00
 0.1990532123025E+00
 0.2009890992385E+00
 0.2038089049100E+00
 0.2081765305408E+00
 0.2149180177678E+00
 0.2250338987544E+00
 0.2397239985855E+00
 0.2604094140318E+00
 0.2886494427777E+00
 0.3259532897446E+00
 0.3735470411923E+00
 0.4321636903999E+00
 0.5018925876959E+00
 0.5820924429501E+00
 0.6714007382619E+00
 0.7678427711497E+00
 0.8689743711314E+00
 0.9720898243526E+00
 0.1074501956013E+01
 0.1173788499176E+01
 0.1267870312924E+01
 0.1354544036745E+01
 0.6648476260802E-01
 0.5741815631891E-01
 0.5093343346636E-01
 0.4842781965102E-01
 0.4922558807247E-01
 0.5177934977588E-01
 0.5516322147494E-01
 0.5927682603173E-01
 0.6433249367922E-01
 0.7039710187443E-01
 0.7725088267569E-01
 0.8448733020419E-01
 0.9167267573195E-01
 0.9845606817697E-01
 0.1046156713300E+00
 0.1100633498745E+00
 0.1148303202633E+00
 0.1190473349334E+00
 0.1229276305564E+00
 0.1267582499683E+00
 0.1309059184158E+00
 0.1358434020450E+00
 0.1421981948295E+00
 0.1508076044683E+00
 0.1627295908770E+00
 0.1792373498037E+00
 0.2017901378344E+00
 0.2319023470293E+00
 0.2709436270734E+00
 0.3199402407104E+00
 0.3794178002167E+00
 0.4492864183054E+00
 0.5287611200235E+00
 0.6163646904188E+00
 0.7100326411187E+00
 0.8072628827903E+00
 0.9053498185171E+00
 0.1001698296266E+01
 0.1094102230398E+01
 0.1180889938895E+01
 0.1260422792451E+01
 0.1484090272595E-01
 0.3212591001592E-01
 0.4907582199647E-01
 0.6321856907893E-01
 0.7308956782394E-01
 0.7820171367373E-01
 0.7888767767595E-01
 0.7603346571422E-01
 0.7081031676545E-01
 0.6446977316523E-01
 0.5820852303465E-01
 0.5306185752864E-01
 0.4976840654820E-01
 0.4861502238614E-01
 0.4939945581001E-01
 0.5161255411591E-01
 0.5470746765641E-01
 0.5826941816511E-01
 0.6206264490645E-01
 0.6602731999787E-01
 0.7028683624654E-01
 0.7519114494100E-01
 0.8139173631825E-01
 0.8990292620570E-01
 0.1020499419142E+00
 0.1193156998456E+00
 0.1431746491999E+00
 0.1749410902529E+00
 0.2156638858820E+00
 0.2660488333960E+00
 0.3263713468410E+00
 0.3963692497314E+00
 0.4751369132194E+00
 0.5610994842967E+00
 0.6521033739928E+00
 0.7455707267651E+00
 0.8387674809980E+00
 0.9291639191238E+00
 0.1014730989725E+01
 0.1094170033785E+01
 0.1166558199249E+01
 0.9470813092741E-01
 0.1136737577794E+00
 0.1325460144410E+00
 0.1484507408065E+00
 0.1595415674188E+00
 0.1651389827154E+00
 0.1655183457862E+00
 0.1615555158267E+00
 0.1543860979452E+00
 0.1451560088794E+00
 0.1348758143343E+00
 0.1243568457654E+00
 0.1141983264695E+00
 0.1047995285194E+00
 0.9637989266243E-01
 0.8899863813468E-01
 0.8257244553941E-01
 0.7689513860253E-01
 0.7166586585311E-01
 0.6653652194042E-01
 0.6119776400262E-01
 0.5555308665279E-01
 0.5010528961541E-01
 0.4673924596040E-01
 0.4934396562260E-01
 0.6176339819326E-01
 0.8481214019511E-01
 0.1177397226060E+00
 0.1601269566796E+00
 0.2119357679207E+00
 0.2731046630754E+00
 0.3432210286517E+00
 0.4212968396630E+00
 0.5056838610504E+00
 0.5941410875992E+00
 0.6839937837316E+00
 0.7724422455573E+00
 0.8569991576930E+00
 0.9357883774637E+00
 0.1007775227443E+01
 0.1072902631108E+01
 0.1756359589767E+00
 0.1981228129517E+00
 0.2201114317630E+00
 0.2385073248108E+00
 0.2513240692979E+00
 0.2578754675527E+00
 0.2585312944077E+00
 0.2542984854926E+00
 0.2464297291737E+00
 0.2361504756227E+00
 0.2245106295560E+00
 0.2123283903130E+00
 0.2001879394621E+00
 0.1884616000212E+00
 0.1773384965700E+00
 0.1668507056325E+00
 0.1568937392337E+00
 0.1472419484096E+00
 0.1375601451307E+00
 0.1274147737379E+00
 0.1162870895239E+00
 0.1035914813876E+00
 0.8870916350728E-01
 0.7108509695484E-01
 0.5061891651384E-01
 0.2998327584676E-01
 0.2932366747257E-01
 0.6028667622231E-01
 0.1044223153021E+00
 0.1577725731145E+00
 0.2197829260926E+00
 0.2899763747435E+00
 0.3673499905642E+00
 0.4502146197412E+00
 0.5362425458717E+00
 0.6226363044257E+00
 0.7064829229387E+00
 0.7852978710141E+00
 0.8574087427294E+00
 0.9218593596182E+00
 0.9793774573058E+00
 0.2570318652746E+00
 0.2834895010547E+00
 0.3090257694051E+00
 0.3302031889063E+00
 0.3448859092888E+00
 0.3524295301426E+00
 0.3533597768584E+00
 0.3488657688529E+00
 0.3403519336729E+00
 0.3291452250005E+00
 0.3163508277562E+00
 0.3028092755235E+00
 0.2891077290088E+00
 0.2756125942694E+00
 0.2625052237510E+00
 0.2498125181428E+00
 0.2374301008195E+00
 0.2251391811783E+00
 0.2126182961184E+00
 0.1994530622799E+00
 0.1851453576757E+00
 0.1691216268253E+00
 0.1507398649158E+00
 0.1293034524797E+00
 0.1041124247396E+00
 0.7447180185195E-01
 0.3966276521962E-01
 0.3593875590179E-02
 0.4913523182290E-01
 0.1041164238900E+00
 0.1667905191398E+00
 0.2368870110810E+00
 0.3134670767449E+00
 0.3948205314302E+00
 0.4785230079343E+00
 0.5616129237733E+00
 0.6410140827024E+00
 0.7141548960990E+00
 0.7796646819004E+00
 0.8368006856615E+00
 0.8858921204736E+00
 0.3389200966464E+00
 0.3696859650731E+00
 0.3990510420489E+00
 0.4231554054561E+00
 0.4397101248240E+00
 0.4481588325479E+00
 0.4492404427902E+00
 0.4443699111623E+00
 0.4351272194719E+00
 0.4229493627830E+00
 0.4089972481638E+00
 0.3941316405858E+00
 0.3789410396009E+00
 0.3637858028152E+00
 0.3488407991383E+00
 0.3341298818111E+00
 0.3195511635907E+00
 0.3048951803898E+00
 0.2898575524736E+00
 0.2740497743062E+00
 0.2570097942496E+00
 0.2382119261016E+00
 0.2170753992538E+00
 0.1929799215350E+00
 0.1653225841119E+00
 0.1335328067522E+00
 0.9705986313699E-01
 0.5568727591320E-01
 0.1707581464036E-01
 0.5382647374104E-01
 0.1152274755510E+00
 0.1844902683295E+00
 0.2599463848989E+00
 0.3396913233174E+00
 0.4211270696094E+00
 0.5010631016299E+00
 0.5761560412387E+00
 0.6437420383054E+00
 0.7024249185066E+00
 0.7530912971725E+00
 0.7929467825256E+00
 0.4213545558869E+00
 0.4567784626997E+00
 0.4902319000770E+00
 0.5173623060364E+00
 0.5357369359698E+00
 0.5449472172565E+00
 0.5460108208179E+00
 0.5406132872886E+00
 0.5305301058497E+00
 0.5173111375944E+00
 0.5021678342173E+00
 0.4859741818976E+00
 0.4693141007385E+00
 0.4525378968904E+00
 0.4358116728759E+00
 0.4191551002318E+00
 0.4024681514771E+00
 0.3855499831083E+00
 0.3681120969131E+00
 0.3497900034814E+00
 0.3301553964148E+00
 0.3087283032285E+00
 0.2849881821290E+00
 0.2583919997276E+00
 0.2284352090343E+00
 0.1946659782473E+00
 0.1566595266327E+00
 0.1141917679617E+00
 0.6840020659386E-01
 0.3472577097638E-01
 0.6938958702422E-01
 0.1340323454225E+00
 0.2072464350624E+00
 0.2849952620456E+00
 0.3641047632170E+00
 0.4409843207979E+00
 0.5119096379719E+00
 0.5739004957874E+00
 0.6259236610871E+00
 0.6685729661412E+00
 0.7067703732033E+00
 0.5043995535595E+00
 0.5448662748419E+00
 0.5826695548224E+00
 0.6128922550784E+00
 0.6329826591923E+00
 0.6427596621053E+00
 0.6435974416786E+00
 0.6374989951875E+00
 0.6264513449057E+00
 0.6121145707210E+00
 0.5957408945847E+00
 0.5782073460204E+00
 0.5600853098483E+00
 0.5417096938881E+00
 0.5232346039654E+00
 0.5046737121950E+00
 0.4859277656198E+00
 0.4668035795864E+00
 0.4470271647892E+00
 0.4262558347344E+00
 0.4040917292260E+00
 0.3800962059188E+00
 0.3538035775519E+00
 0.3247412030444E+00
 0.2924917772314E+00
 0.2566995528507E+00
 0.2170172520355E+00
 0.1731853109381E+00
 0.1254949918560E+00
 0.7714395151776E-01
 0.5124273000121E-01
 0.8995956492056E-01
 0.1567565042769E+00
 0.2313253620350E+00
 0.3077763271368E+00
 0.3816122134066E+00
 0.4484593794922E+00
 0.5049062233361E+00
 0.5497731748449E+00
 0.5851853478517E+00
 0.6152716122975E+00
 0.5881285151576E+00
 0.6340657695474E+00
 0.6764849493822E+00
 0.7098265402501E+00
 0.7314658299271E+00
 0.7415552045761E+00
 0.7419174332647E+00
 0.7349208599864E+00
 0.7227743352116E+00
 0.7072390040146E+00
 0.6895933984771E+00
 0.6707047559522E+00
 0.6511226985446E+00
 0.6311608650347E+00
 0.6109579602419E+00
 0.5905198297489E+00
 0.5697470090798E+00
 0.5484532141001E+00
 0.5263778879162E+00
 0.5031982726504E+00
 0.4785439733153E+00
 0.4520136180044E+00
 0.4231916236258E+00
 0.3916706770511E+00
 0.3571149396551E+00
 0.3192569887268E+00
 0.2778188413124E+00
 0.2325338760350E+00
 0.1833872007452E+00
 0.1314689363297E+00
 0.8297860197463E-01
 0.6793263541104E-01
 0.1123963581300E+00
 0.1800847806693E+00
 0.2528570951700E+00
 0.3234442230866E+00
 0.3862757869751E+00
 0.4371188999502E+00
 0.4746243202439E+00
 0.5016761032928E+00
 0.5227954596924E+00
 0.6726304793827E+00
 0.7245302628053E+00
 0.7718463553688E+00
 0.8082935448204E+00
 0.8312500528058E+00
 0.8413412320839E+00
 0.8409457761773E+00
 0.8328434724447E+00
 0.8194667117124E+00
 0.8026606079661E+00
 0.7837106248181E+00
 0.7634590500122E+00
 0.7424237145040E+00
 0.7208910174518E+00
 0.6989810145585E+00
 0.6766901240095E+00
 0.6539179342170E+00
 0.6304845885569E+00
 0.6061422133766E+00
 0.5805864418707E+00
 0.5534716529866E+00
 0.5244299454292E+00
 0.4930915608590E+00
 0.4591107200160E+00
 0.4222303951435E+00
 0.3822701685109E+00
 0.3390236808557E+00
 0.2922412828800E+00
 0.2417702686413E+00
 0.1879856576938E+00
 0.1331737162729E+00
 0.8759935485479E-01
 0.8518461141797E-01
 0.1343580681715E+00
 0.2004641265896E+00
 0.2670342848851E+00
 0.3257353587069E+00
 0.3708957514048E+00
 0.4005799412510E+00
 0.4181269477445E+00
 0.4300154675652E+00
 0.7580119376423E+00
 0.8164439568632E+00
 0.8689513440875E+00
 0.9084354576158E+00
 0.9323971966231E+00
 0.9421168942563E+00
 0.9406513164369E+00
 0.9312313506501E+00
 0.9165022794067E+00
 0.8983666095493E+00
 0.8780923869532E+00
 0.8564799526568E+00
 0.8340050325828E+00
 0.8109211130029E+00
 0.7873267789239E+00
 0.7632078161757E+00
 0.7384624771057E+00
 0.7129171905590E+00
 0.6863363543075E+00
 0.6584327604005E+00
 0.6288830442940E+00
 0.5973489556379E+00
 0.5635022123784E+00
 0.5270550883313E+00
 0.4878279954231E+00
 0.4457288043737E+00
 0.4006281182729E+00
 0.3523115701396E+00
 0.3005647721038E+00
 0.2454371437523E+00
 0.1878989599456E+00
 0.1319264671984E+00
 0.9255618622725E-01
 0.1022328028984E+00
 0.1531425073776E+00
 0.2134208524944E+00
 0.2674548068481E+00
 0.3067254772426E+00
 0.3279577991891E+00
 0.3349183976872E+00
 0.3368697849155E+00
 0.8444021994489E+00
 0.9100295578383E+00
 0.9680293913260E+00
 0.1010402692855E+01
 0.1034956891582E+01
 0.1043862517348E+01
 0.1040988355358E+01
 0.1030042440490E+01
 0.1013855312786E+01
 0.9943494847828E+00
 0.9727466133688E+00
 0.9497869852148E+00
 0.9258942248802E+00
 0.9012839270453E+00
 0.8760310457790E+00
 0.8501100515078E+00
 0.8234178778885E+00
 0.7957874558023E+00
 0.7669954019489E+00
 0.7367707590623E+00
 0.7048100436533E+00
 0.6708006384730E+00
 0.6344509047106E+00
 0.5955273024031E+00
 0.5539265247080E+00
 0.5096469570131E+00
 0.4626423486892E+00
 0.4127483092433E+00
 0.3597319202039E+00
 0.3034747232757E+00
 0.2443598952268E+00
 0.1842012547267E+00
 0.1291675757592E+00
 0.9854953149555E-01
 0.1171439189983E+00
 0.1648424000266E+00
 0.2125443910529E+00
 0.2454052099707E+00
 0.2574130916857E+00
 0.2524267533690E+00
 0.2432025558041E+00
 0.9319611826598E+00
 0.1005559124149E+01
 0.1069345814997E+01
 0.1114347201074E+01
 0.1138955042617E+01
 0.1146529914635E+01
 0.1141890865704E+01
 0.1129225096098E+01
 0.1111498597751E+01
 0.1090604999880E+01
 0.1067686947361E+01
 0.1043406492357E+01
 0.1018126182318E+01
 0.9920198423604E+00
 0.9651375084659E+00
 0.9374422698424E+00
 0.9088301968381E+00
 0.8791413078955E+00
 0.8481647739631E+00
 0.8156453700607E+00
 0.7812973205035E+00
 0.7448293627422E+00
 0.7059808844016E+00
 0.6645677319218E+00
 0.6205611921580E+00
 0.5740524185380E+00
 0.5250844787282E+00
 0.4735554137258E+00
 0.4192428613002E+00
 0.3619421979171E+00
 0.3017306919516E+00
 0.2394795641678E+00
 0.1781037269333E+00
 0.1262010566361E+00
 0.1048914980195E+00
 0.1265600801551E+00
 0.1633043823367E+00
 0.1884335924420E+00
 0.1901812951980E+00
 0.1713832282047E+00
 0.1489250520509E+00
 0.1020890768018E+01
 0.1103369138718E+01
 0.1173205932827E+01
 0.1220412235728E+01
 0.1244379301900E+01
 0.1250032390246E+01
 0.1243268385349E+01
 0.1228717329281E+01
 0.1209403637916E+01
 0.1187132223339E+01
 0.1162932235300E+01
 0.1137370593182E+01
 0.1110741591419E+01
 0.1083174908763E+01
 0.1054695432371E+01
 0.1025255485172E+01
 0.9947511689757E+00
 0.9630305291384E+00
 0.9298960347250E+00
 0.8951081647106E+00
 0.8583970324421E+00
 0.8194882515998E+00
 0.7781456360058E+00
 0.7342282053870E+00
 0.6877789815064E+00
 0.6389834609763E+00
 0.5879795995086E+00
 0.5347386781257E+00
 0.4790712981127E+00
 0.4207386512673E+00
 0.3596509826142E+00
 0.2961938024229E+00
 0.2318789793665E+00
 0.1708710338591E+00
 0.1238229232380E+00
 0.1093050791701E+00
 0.1249917547547E+00
 0.1390664652273E+00
 0.1291944722596E+00
 0.9451132553729E-01
 0.5527163741170E-01
 0.1111451662594E+01
 0.1203881373716E+01
 0.1279957981951E+01
 0.1328715631273E+01
 0.1351159869840E+01
 0.1354234301391E+01
 0.1345003749824E+01
 0.1328448108117E+01
 0.1307542435904E+01
 0.1283934720544E+01
 0.1258507002654E+01
 0.1231717060339E+01
 0.1203786362536E+01
 0.1174799933534E+01
 0.1144758479484E+01
 0.1113604879171E+01
 0.1081236566569E+01
 0.1047510856237E+01
 0.1012244662170E+01
 0.9752147466850E+00
 0.9361658954351E+00
 0.8948361291498E+00
 0.8510060192932E+00
 0.8045696814369E+00
 0.7556371822169E+00
 0.7044885340799E+00
 0.6513608944294E+00
 0.5963079603222E+00
 0.5391921488342E+00
 0.4797798998536E+00
 0.4179006478008E+00
 0.3536713242345E+00
 0.2878831183768E+00
 0.2227589014898E+00
 0.1637067144275E+00
 0.1220471592426E+00
 0.1079985806343E+00
 0.1050062099927E+00
 0.8380245443626E-01
 0.4562027619385E-01
 0.5067013387945E-01
 0.1203989065953E+01
 0.1307631841379E+01
 0.1389992061650E+01
 0.1439322357683E+01
 0.1459144246915E+01
 0.1458941017586E+01
 0.1446953543708E+01
 0.1428340889161E+01
 0.1405890606156E+01
 0.1381022545248E+01
 0.1354442485004E+01
 0.1326489662792E+01
 0.1297311509499E+01
 0.1266950055490E+01
 0.1235384077697E+01
 0.1202549023771E+01
 0.1168345294828E+01
 0.1132640923478E+01
 0.1095268763354E+01
 0.1056023154968E+01
 0.1014663285271E+01
 0.9709355272919E+00
 0.9246285573726E+00
 0.8756612266059E+00
 0.8242033779544E+00
 0.7706274294535E+00
 0.7152719232247E+00
 0.6582800768527E+00
 0.5995826627880E+00
 0.5389855174423E+00
 0.4763032607058E+00
 0.4115166943263E+00
 0.3450089460170E+00
 0.2779808606090E+00
 0.2134066300886E+00
 0.1578136162838E+00
 0.1203981523736E+00
 0.9903152626754E-01
 0.7809234478831E-01
 0.9104556047265E-01
 0.1481817606931E+00
 0.1298972864933E+01
 0.1415311004269E+01
 0.1503729586630E+01
 0.1552200004362E+01
 0.1568065233093E+01
 0.1563891460998E+01
 0.1548952727895E+01
 0.1528319665225E+01
 0.1504431660673E+01
 0.1478414802886E+01
 0.1450777987065E+01
 0.1421738747442E+01
 0.1391373253195E+01
 0.1359684563136E+01
 0.1326633073908E+01
 0.1292149442833E+01
 0.1256138897380E+01
 0.1218481695429E+01
 0.1179028341098E+01
 0.1137592816360E+01
 0.1093949809759E+01
 0.1047851072902E+01
 0.9990841078677E+00
 0.9475795207066E+00
 0.8935561997954E+00
 0.8374734084055E+00
 0.7797698906739E+00
 0.7206825743375E+00
 0.6602251278616E+00
 0.5982749072202E+00
 0.5346908556739E+00
 0.4694204098175E+00
 0.4026270701915E+00
 0.3348977863948E+00
 0.2678208337161E+00
 0.2053763758962E+00
 0.1549545384228E+00
 0.1222555009367E+00
 0.1121145299228E+00
 0.1632578945024E+00
 0.2512461991953E+00
 0.1397062666867E+01
 0.1527819249940E+01
 0.1621592026749E+01
 0.1667147836828E+01
 0.1677503396580E+01
 0.1668757390501E+01
 0.1650825190876E+01
 0.1628317571691E+01
 0.1603162212426E+01
 0.1576142562757E+01
 0.1547562372594E+01
 0.1517521883793E+01
 0.1486033184553E+01
 0.1453066792412E+01
 0.1418569498743E+01
 0.1382470327775E+01
 0.1344681272695E+01
 0.1305096183390E+01
 0.1263584905687E+01
 0.1219983822174E+01
 0.1174086051251E+01
 0.1125647834589E+01
 0.1074446403600E+01
 0.1020408382578E+01
 0.9637864543235E+00
 0.9051160856199E+00
 0.8449298838572E+00
 0.7835585065678E+00
 0.7211109381586E+00
 0.6575676729385E+00
 0.5928899772840E+00
 0.5270866805415E+00
 0.4602516391223E+00
 0.3926076771520E+00
 0.3248109815989E+00
 0.2590544727318E+00
 0.2010974262440E+00
 0.1609752968935E+00
 0.1576376746926E+00
 0.2358685202929E+00
 0.3590709196311E+00
 0.1499217030181E+01
 0.1646341554868E+01
 0.1743926041490E+01
 0.1783686684553E+01
 0.1786850133361E+01
 0.1773156320673E+01
 0.1752401636353E+01
 0.1728287606760E+01
 0.1702097773808E+01
 0.1674251915288E+01
 0.1644855531452E+01
 0.1613904463522E+01
 0.1581358401558E+01
 0.1547164027909E+01
 0.1511260368167E+01
 0.1473578328360E+01
 0.1434038518096E+01
 0.1392549369347E+01
 0.1349001384718E+01
 0.1303256503869E+01
 0.1255131394944E+01
 0.1204389389209E+01
 0.1150790080143E+01
 0.1094237934933E+01
 0.1034998410333E+01
 0.9736650730866E+00
 0.9108502360596E+00
 0.8469724187674E+00
 0.7822460352051E+00
 0.7167867590743E+00
 0.6507172718227E+00
 0.5842027124363E+00
 0.5174109898847E+00
 0.4504137751441E+00
 0.3832471842075E+00
 0.3166114405943E+00
 0.2540506711061E+00
 0.2066552086223E+00
 0.2032652909897E+00
 0.3044523205882E+00
 0.4729427043964E+00
 0.1606885071084E+01
 0.1772441088048E+01
 0.1870838014070E+01
 0.1900895737753E+01
 0.1895288380468E+01
 0.1876687476423E+01
 0.1853544388017E+01
 0.1828214395938E+01
 0.1801278803495E+01
 0.1772806914436E+01
 0.1742729656265E+01
 0.1710960152203E+01
 0.1677421541808E+01
 0.1642047341818E+01
 0.1604775459558E+01
 0.1565542353827E+01
 0.1524278831394E+01
 0.1480908274508E+01
 0.1435342318731E+01
 0.1387471370303E+01
 0.1337142975320E+01
 0.1284135420598E+01
 0.1228187750315E+01
 0.1169162942202E+01
 0.1107311028514E+01
 0.1043254481961E+01
 0.9776592675895E+00
 0.9110177514406E+00
 0.8436577556460E+00
 0.7758637535561E+00
 0.7079806795115E+00
 0.6404263827078E+00
 0.5735907021969E+00
 0.5076118411942E+00
 0.4422269884708E+00
 0.3770013285989E+00
 0.3126767901627E+00
 0.2576865620484E+00
 0.2466639591959E+00
 0.3659071735699E+00
 0.5948088357331E+00
 0.1722360340333E+01
 0.1908152270663E+01
 0.2001840993104E+01
 0.2017193305365E+01
 0.2001829772954E+01
 0.1978998644380E+01
 0.1954174698863E+01
 0.1928125908448E+01
 0.1900776651484E+01
 0.1871892031062E+01
 0.1841270165692E+01
 0.1808771081510E+01
 0.1774300626276E+01
 0.1737791300432E+01
 0.1699186994223E+01
 0.1658433313758E+01
 0.1615472390544E+01
 0.1570242087467E+01
 0.1522674315713E+01
 0.1472689534590E+01
 0.1420174918853E+01
 0.1364938720050E+01
 0.1306705528918E+01
 0.1245279629938E+01
 0.1180858854372E+01
 0.1114048487716E+01
 0.1045523775481E+01
 0.9758258996883E+00
 0.9054030699052E+00
 0.8347459693499E+00
 0.7644846413208E+00
 0.6953848570896E+00
 0.6282085663522E+00
 0.5633951340635E+00
 0.5007409999458E+00
 0.4392749046057E+00
 0.3771238745716E+00
 0.3162406749112E+00
 0.2896994746280E+00
 0.4169032880643E+00
 0.7273653628407E+00
 0.1849476987601E+01
 0.2055980097882E+01
 0.2135115277403E+01
 0.2130115340199E+01
 0.2105481094850E+01
 0.2079875523978E+01
 0.2054294261664E+01
 0.2028105647369E+01
 0.2000698566857E+01
 0.1971613785388E+01
 0.1940576192417E+01
 0.1907427706401E+01
 0.1872078693818E+01
 0.1834473526666E+01
 0.1794569221640E+01
 0.1752323793048E+01
 0.1707691198155E+01
 0.1660622313776E+01
 0.1611066757891E+01
 0.1558973884346E+01
 0.1504278394712E+01
 0.1446841707059E+01
 0.1386396238346E+01
 0.1322679961623E+01
 0.1255792283445E+01
 0.1186248456732E+01
 0.1114659925021E+01
 0.1041577313651E+01
 0.9675781940779E+00
 0.8934049881563E+00
 0.8200384194825E+00
 0.7486816852692E+00
 0.6806094987079E+00
 0.6168097715437E+00
 0.5575331423184E+00
 0.5019998906054E+00
 0.4472467170776E+00
 0.3867378532194E+00
 0.3390676493255E+00
 0.4547378305957E+00
 0.8744731332890E+00
 0.1995094730951E+01
 0.2218429815651E+01
 0.2265999738474E+01
 0.2236353575930E+01
 0.2205625445160E+01
 0.2179297476171E+01
 0.2154001713839E+01
 0.2128306193834E+01
 0.2101189660937E+01
 0.2072101774359E+01
 0.2040760368235E+01
 0.2007028278500E+01
 0.1970843176289E+01
 0.1932174082411E+01
 0.1890997872770E+01
 0.1847287622400E+01
 0.1801008845796E+01
 0.1752122861326E+01
 0.1700592603515E+01
 0.1646391159371E+01
 0.1589503369038E+01
 0.1529873013431E+01
 0.1467289071586E+01
 0.1401441506974E+01
 0.1332276761916E+01
 0.1260102512747E+01
 0.1185347442025E+01
 0.1108515060597E+01
 0.1030329495811E+01
 0.9518459442254E+00
 0.8744670325444E+00
 0.7999100663891E+00
 0.7300802315465E+00
 0.6667358785754E+00
 0.6110524316201E+00
 0.5630634042906E+00
 0.5210842074464E+00
 0.4738707395537E+00
 0.4087569302511E+00
 0.4815575810924E+00
 0.1042429483455E+01
 0.2172634548281E+01
 0.2395505946743E+01
 0.2384205734368E+01
 0.2332948849966E+01
 0.2302480849092E+01
 0.2277368243480E+01
 0.2253544133938E+01
 0.2228948913238E+01
 0.2202434382916E+01
 0.2173508412149E+01
 0.2141947838321E+01
 0.2107677955132E+01
 0.2070685008503E+01
 0.2030974699101E+01
 0.1988549508494E+01
 0.1943399368849E+01
 0.1895500209207E+01
 0.1844820071456E+01
 0.1791329062457E+01
 0.1735014794274E+01
 0.1675903604854E+01
 0.1614046013562E+01
 0.1549373869677E+01
 0.1481609423602E+01
 0.1410490583630E+01
 0.1335919346159E+01
 0.1257948445079E+01
 0.1176961343693E+01
 0.1093865816727E+01
 0.1010116492985E+01
 0.9276234607453E+00
 0.8486729608152E+00
 0.7758755939886E+00
 0.7119218794994E+00
 0.6593663023469E+00
 0.6199062897215E+00
 0.5939145058012E+00
 0.5774504118187E+00
 0.5221361789966E+00
 0.5171912376072E+00
 0.1244966201160E+01
 0.2411950629482E+01
 0.2572770445448E+01
 0.2471309540257E+01
 0.2421569110908E+01
 0.2396366317929E+01
 0.2374469520005E+01
 0.2353330545051E+01
 0.2330314475787E+01
 0.2304659239655E+01
 0.2276005631997E+01
 0.2244275013307E+01
 0.2209487251560E+01
 0.2171697468635E+01
 0.2130957762671E+01
 0.2087300693637E+01
 0.2040733669190E+01
 0.1991240949350E+01
 0.1938792600444E+01
 0.1883357934264E+01
 0.1824927204322E+01
 0.1763546384487E+01
 0.1699364718308E+01
 0.1632576846097E+01
 0.1563162851212E+01
 0.1490621729143E+01
 0.1414089480976E+01
 0.1332932368187E+01
 0.1247337321634E+01
 0.1158472009487E+01
 0.1068315370040E+01
 0.9793961711420E+00
 0.8946157740149E+00
 0.8172476265170E+00
 0.7510633986184E+00
 0.7001771397664E+00
 0.6693160837599E+00
 0.6605341008462E+00
 0.6828316949628E+00
 0.7045784367229E+00
 0.6275613527959E+00
 0.1527345950812E+01
 0.2794415061642E+01
 0.2656046981868E+01
 0.2527309811878E+01
 0.2506674490460E+01
 0.2487155456383E+01
 0.2471664106271E+01
 0.2453783323483E+01
 0.2432780649719E+01
 0.2408116373162E+01
 0.2379784701629E+01
 0.2347886240114E+01
 0.2312570323157E+01
 0.2273974612120E+01
 0.2232205093940E+01
 0.2187326936718E+01
 0.2139364479824E+01
 0.2088306692341E+01
 0.2034121114031E+01
 0.1976765768592E+01
 0.1916220181616E+01
 0.1852522977302E+01
 0.1785854568381E+01
 0.1716722986264E+01
 0.1645945632825E+01
 0.1572871084328E+01
 0.1495118142235E+01
 0.1410908930735E+01
 0.1320186537670E+01
 0.1224523223218E+01
 0.1126600956134E+01
 0.1029710153539E+01
 0.9374466837009E+00
 0.8535598089097E+00
 0.7827140470137E+00
 0.7313831934693E+00
 0.7063437003189E+00
 0.7178073457400E+00
 0.7670429005580E+00
 0.9253906803243E+00
 0.9542011941383E+00
 0.2128876049012E+01
 0.5416959315112E+00
 0.7884080670946E+00
 0.1024210632879E+01
 0.1239979734268E+01
 0.1432580686875E+01
 0.1601786857113E+01
 0.1748209973316E+01
 0.1873238710614E+01
 0.1979118392067E+01
 0.2068404836213E+01
 0.2143531814562E+01
 0.2206713633869E+01
 0.2259966713970E+01
 0.2305081718274E+01
 0.2343572540664E+01
 0.2376652117301E+01
 0.2405064053954E+01
 0.2429144421406E+01
 0.2449322686203E+01
 0.2465748253628E+01
 0.5168058264101E+00
 0.7562794691467E+00
 0.9859596322433E+00
 0.1197773981453E+01
 0.1388482063064E+01
 0.1557471813526E+01
 0.1705117179904E+01
 0.1832530037872E+01
 0.1941589651510E+01
 0.2034516477108E+01
 0.2113505310339E+01
 0.2180609563705E+01
 0.2237736332388E+01
 0.2286613508131E+01
 0.2328739010542E+01
 0.2365313646505E+01
 0.2397085165494E+01
 0.2424512029206E+01
 0.2447876947902E+01
 0.2466761885265E+01
 0.4936376062993E+00
 0.7265119682578E+00
 0.9505276266406E+00
 0.1158347229396E+01
 0.1346823160466E+01
 0.1515094355494E+01
 0.1663322684376E+01
 0.1792408831511E+01
 0.1903941740214E+01
 0.1999854989356E+01
 0.2082121569680E+01
 0.2152638166253E+01
 0.2213200576023E+01
 0.2265463470199E+01
 0.2310877033817E+01
 0.2350605999461E+01
 0.2385426586448E+01
 0.2415809797517E+01
 0.2441976989788E+01
 0.2463778657983E+01
 0.4719609199313E+00
 0.6988539324850E+00
 0.9175028472669E+00
 0.1121308933058E+01
 0.1307259481103E+01
 0.1474358550986E+01
 0.1622611185771E+01
 0.1752744148866E+01
 0.1866110767334E+01
 0.1964401482564E+01
 0.2049389244514E+01
 0.2122819936094E+01
 0.2186375836608E+01
 0.2241627208663E+01
 0.2289961826432E+01
 0.2332505841984E+01
 0.2370039165248E+01
 0.2403053818705E+01
 0.2431857624119E+01
 0.2456622728463E+01
 0.4516309271441E+00
 0.6730163073279E+00
 0.8865497617233E+00
 0.1086310004325E+01
 0.1269481037566E+01
 0.1435007320131E+01
 0.1582787114503E+01
 0.1713407286214E+01
 0.1828026529414E+01
 0.1928128835386E+01
 0.2015308339647E+01
 0.2091167866008E+01
 0.2157275470552E+01
 0.2215111264163E+01
 0.2265995303569E+01
 0.2311011214157E+01
 0.2350941154878E+01
 0.2386325154395E+01
 0.2417585921004E+01
 0.2445168407558E+01
 0.4325210332459E+00
 0.6487603076994E+00
 0.8573677094284E+00
 0.1053046715828E+01
 0.1233212387114E+01
 0.1396810830181E+01
 0.1543673244172E+01
 0.1674276371388E+01
 0.1789617913003E+01
 0.1891005674016E+01
 0.1979874378684E+01
 0.2057692581218E+01
 0.2125916206058E+01
 0.2185934093862E+01
 0.2238997357536E+01
 0.2286149448091E+01
 0.2328179867163E+01
 0.2365683786787E+01
 0.2399191593380E+01
 0.2429340556433E+01
 0.4145220814107E+00
 0.6258786357941E+00
 0.8296966593478E+00
 0.1021251608916E+01
 0.1198210029454E+01
 0.1359563597894E+01
 0.1505109188920E+01
 0.1635238661273E+01
 0.1750816717423E+01
 0.1853000377563E+01
 0.1943082358203E+01
 0.2022406451545E+01
 0.2092320908356E+01
 0.2154125335059E+01
 0.2209004278145E+01
 0.2257965615409E+01
 0.2301808503346E+01
 0.2341180002614E+01
 0.2376696047018E+01
 0.2409109499084E+01
 0.3975390429523E+00
 0.6041925818920E+00
 0.8033109869817E+00
 0.9906908723274E+00
 0.1164258699716E+01
 0.1323082639194E+01
 0.1466950869308E+01
 0.1596191737346E+01
 0.1711560273092E+01
 0.1814084198228E+01
 0.1904929875373E+01
 0.1985326186484E+01
 0.2056519777672E+01
 0.2119725260721E+01
 0.2176064746890E+01
 0.2226514625124E+01
 0.2271883214953E+01
 0.2312860844048E+01
 0.2350124095428E+01
 0.2384478843482E+01
 0.3814890677035E+00
 0.5835479025609E+00
 0.7780154477855E+00
 0.9611604891547E+00
 0.1131168927944E+01
 0.1287205785454E+01
 0.1429070067894E+01
 0.1557044266146E+01
 0.1671793191074E+01
 0.1774233513667E+01
 0.1865419323349E+01
 0.1946474444266E+01
 0.2018550915145E+01
 0.2082783727692E+01
 0.2140237053367E+01
 0.2191858670347E+01
 0.2238463587166E+01
 0.2280775301607E+01
 0.2319508813880E+01
 0.2355478464772E+01
 0.3662997915292E+00
 0.5638117332188E+00
 0.7536415049688E+00
 0.9324831828419E+00
 0.1098774873144E+01
 0.1251790494264E+01
 0.1391354106152E+01
 0.1517716604623E+01
 0.1631468700724E+01
 0.1733431529410E+01
 0.1824559517351E+01
 0.1905880977664E+01
 0.1978460647984E+01
 0.2043359571996E+01
 0.2101588119466E+01
 0.2154067078407E+01
 0.2201614654384E+01
 0.2244978079913E+01
 0.2284894415146E+01
 0.2322159928120E+01
 0.3519077847244E+00
 0.5448698068891E+00
 0.7300441271653E+00
 0.9045056013972E+00
 0.1066932328733E+01
 0.1216712641982E+01
 0.1353705383976E+01
 0.1478141043342E+01
 0.1590549456116E+01
 0.1691669363226E+01
 0.1782366728737E+01
 0.1863583332468E+01
 0.1936303743949E+01
 0.2001520485574E+01
 0.2060193573871E+01
 0.2113217360901E+01
 0.2161409352178E+01
 0.2205532698622E+01
 0.2246336849599E+01
 0.2284591529654E+01
 0.3382572199483E+00
 0.5266240849864E+00
 0.7070990512518E+00
 0.8770959021531E+00
 0.1035516969713E+01
 0.1181865449632E+01
 0.1316040919972E+01
 0.1438261911625E+01
 0.1549008076235E+01
 0.1648946806063E+01
 0.1738865429941E+01
 0.1819627404432E+01
 0.1892143759709E+01
 0.1957343363197E+01
 0.2016138529473E+01
 0.2069396873764E+01
 0.2117931207269E+01
 0.2162514318084E+01
 0.2203903519348E+01
 0.2242847388814E+01
 0.3252986903360E+00
 0.5089906744154E+00
 0.6847003742277E+00
 0.8501415817119E+00
 0.1004422715044E+01
 0.1147158402688E+01
 0.1278291779489E+01
 0.1398035458194E+01
 0.1506827371458E+01
 0.1605272733451E+01
 0.1694088731034E+01
 0.1774067811364E+01
 0.1846053388216E+01
 0.1910914823606E+01
 0.1969518587263E+01
 0.2022704581429E+01
 0.2071276913137E+01
 0.2116012734939E+01
 0.2157675074959E+01
 0.2197002890711E+01
 0.3129881663411E+00
 0.4918979740483E+00
 0.6627584005084E+00
 0.8235474925999E+00
 0.9735601663342E+00
 0.1112516149716E+01
 0.1240402397222E+01
 0.1357429548744E+01
 0.1464000329949E+01
 0.1560665263686E+01
 0.1648078605598E+01
 0.1726968146902E+01
 0.1798114799723E+01
 0.1862331797886E+01
 0.1920440883477E+01
 0.1973252729182E+01
 0.2021558714545E+01
 0.2066135604956E+01
 0.2107750707619E+01
 0.2147144456922E+01
 0.3012861250286E+00
 0.4752850760755E+00
 0.6411977653587E+00
 0.7972340846528E+00
 0.9428551845829E+00
 0.1077877457866E+01
 0.1202329886403E+01
 0.1316423286332E+01
 0.1420529980401E+01
 0.1515151777360E+01
 0.1600885999334E+01
 0.1678401163799E+01
 0.1748419956500E+01
 0.1811702093902E+01
 0.1869025040648E+01
 0.1921168284327E+01
 0.1968906419101E+01
 0.2013011305131E+01
 0.2054252901076E+01
 0.2093380487282E+01
 0.2901567765212E+00
 0.4591003165982E+00
 0.6199557083636E+00
 0.7711357403099E+00
 0.9122474799150E+00
 0.1043194107116E+01
 0.1164043224640E+01
 0.1275006456085E+01
 0.1376429042783E+01
 0.1468768712296E+01
 0.1552570724620E+01
 0.1628448764672E+01
 0.1697070745246E+01
 0.1759144751354E+01
 0.1815403829973E+01
 0.1866593962930E+01
 0.1913468836781E+01
 0.1956790883522E+01
 0.1997330196349E+01
 0.2035847677640E+01
 0.2795674169037E+00
 0.4432999991588E+00
 0.5989805263155E+00
 0.7451992500765E+00
 0.8816892808125E+00
 0.1008429805878E+01
 0.1125522410913E+01
 0.1233178897462E+01
 0.1331719473525E+01
 0.1421561234084E+01
 0.1503201223556E+01
 0.1577201855235E+01
 0.1644178951113E+01
 0.1704790187320E+01
 0.1759723535195E+01
 0.1809688836223E+01
 0.1855414640349E+01
 0.1897649211844E+01
 0.1937159019700E+01
 0.1974715061171E+01
 0.2694878690825E+00
 0.4278472455694E+00
 0.5782301527439E+00
 0.7193823802858E+00
 0.8511440448776E+00
 0.9735590995763E+00
 0.1086757573731E+01
 0.1190949791598E+01
 0.1286431897178E+01
 0.1373582773127E+01
 0.1452854182621E+01
 0.1524760030775E+01
 0.1589866032401E+01
 0.1648780087024E+01
 0.1702143981252E+01
 0.1750628500430E+01
 0.1794932680334E+01
 0.1835785553063E+01
 0.1873944939174E+01
 0.1910186762849E+01
 0.2598899970826E+00
 0.4127109448549E+00
 0.5576708335216E+00
 0.6936525058368E+00
 0.8205851906692E+00
 0.9385662573213E+00
 0.1047748019154E+01
 0.1148336854279E+01
 0.1240604913927E+01
 0.1324894411935E+01
 0.1401613972662E+01
 0.1471231057311E+01
 0.1534262646785E+01
 0.1591266986838E+01
 0.1642838182352E+01
 0.1689604788465E+01
 0.1732231773350E+01
 0.1771423557435E+01
 0.1807923255454E+01
 0.1842503689589E+01
 0.2507472956314E+00
 0.3978648070699E+00
 0.5372759094248E+00
 0.6679853308866E+00
 0.7899948863782E+00
 0.9034441827898E+00
 0.1008501271901E+01
 0.1105365491682E+01
 0.1194284340275E+01
 0.1275564175925E+01
 0.1349571959657E+01
 0.1416730183257E+01
 0.1477507956523E+01
 0.1532413573410E+01
 0.1581991637953E+01
 0.1626825070284E+01
 0.1667540029606E+01
 0.1704810682685E+01
 0.1739358782568E+01
 0.1771944097597E+01
 0.2420345245217E+00
 0.3832864814768E+00
 0.5170246614043E+00
 0.6423636535941E+00
 0.7593628552053E+00
 0.8681933130699E+00
 0.9690320765189E+00
 0.1062067888453E+01
 0.1147522353836E+01
 0.1225666198304E+01
 0.1296825655138E+01
 0.1361379248699E+01
 0.1419748679597E+01
 0.1472391668729E+01
 0.1519801253957E+01
 0.1562511127774E+01
 0.1601103730091E+01
 0.1636217092553E+01
 0.1668544666653E+01
 0.1698822730209E+01
 0.2337273859277E+00
 0.3689567365842E+00
 0.4969012199194E+00
 0.6167761842001E+00
 0.7286852152981E+00
 0.8328205303579E+00
 0.9293613883324E+00
 0.1018482060574E+01
 0.1100376575258E+01
 0.1175279790488E+01
 0.1243477734469E+01
 0.1305305616450E+01
 0.1361137907076E+01
 0.1411380918120E+01
 0.1456473900304E+01
 0.1496897608283E+01
 0.1533185741003E+01
 0.1565934192531E+01
 0.1595800952792E+01
 0.1623489514424E+01
 0.2258022324251E+00
 0.3548586885475E+00
 0.4768935261151E+00
 0.5912164094418E+00
 0.6979633537149E+00
 0.7973380915869E+00
 0.8895153634957E+00
 0.9746508853407E+00
 0.1052909101329E+01
 0.1124488432585E+01
 0.1189634937016E+01
 0.1248640937964E+01
 0.1301833698496E+01
 0.1349567190108E+01
 0.1392224608037E+01
 0.1430230038752E+01
 0.1464063430814E+01
 0.1494272648206E+01
 0.1521473529020E+01
 0.1546328753929E+01
 0.2182357926062E+00
 0.3409770619156E+00
 0.4569923302273E+00
 0.5656814932185E+00
 0.6672028301039E+00
 0.7617625768559E+00
 0.8495243531738E+00
 0.9306211168666E+00
 0.1005185500386E+01
 0.1073378697043E+01
 0.1135406862709E+01
 0.1191519769537E+01
 0.1241997470901E+01
 0.1287140702056E+01
 0.1327274411040E+01
 0.1362762389787E+01
 0.1394025995711E+01
 0.1421559612760E+01
 0.1445931392189E+01
 0.1467757409588E+01
 0.2110049044071E+00
 0.3272974707451E+00
 0.4371902176459E+00
 0.5401712094583E+00
 0.6364123123444E+00
 0.7261138642881E+00
 0.8094219137534E+00
 0.8864424026102E+00
 0.9572737886647E+00
 0.1022039126736E+01
 0.1080904688308E+01
 0.1134078063634E+01
 0.1181792207128E+01
 0.1224293895371E+01
 0.1261847849234E+01
 0.1294754180748E+01
 0.1323371153073E+01
 0.1348134924612E+01
 0.1369561974994E+01
 0.1388219461945E+01
 0.2040862532490E+00
 0.3138057181761E+00
 0.4174806669826E+00
 0.5146869208789E+00
 0.6056025667934E+00
 0.6904141609640E+00
 0.7692438679738E+00
 0.8421663401668E+00
 0.9092434307163E+00
 0.9705591139531E+00
 0.1026239852239E+01
 0.1076451585527E+01
 0.1121380534118E+01
 0.1161219110732E+01
 0.1196170177375E+01
 0.1226467153627E+01
 0.1252401192980E+01
 0.1274346392346E+01
 0.1292765409867E+01
 0.1308178415745E+01
 0.1974560859103E+00
 0.3004870778718E+00
 0.3978571012232E+00
 0.4892305661024E+00
 0.5747854682486E+00
 0.6546870571975E+00
 0.7290273863488E+00
 0.7978455470462E+00
 0.8611643418360E+00
 0.9190277647751E+00
 0.9715226991570E+00
 0.1018774252449E+01
 0.1060922674622E+01
 0.1098106075281E+01
 0.1130464303204E+01
 0.1158161542443E+01
 0.1181418403048E+01
 0.1200544178462E+01
 0.1215947628297E+01
 0.1228108083134E+01
 0.1910899092511E+00
 0.2873255666437E+00
 0.3783119551915E+00
 0.4638036945879E+00
 0.5439730826356E+00
 0.6189566660625E+00
 0.6888101566280E+00
 0.7535328166037E+00
 0.8131059722193E+00
 0.8675328358232E+00
 0.9168611771027E+00
 0.9611764906085E+00
 0.1000574367778E+01
 0.1035139300990E+01
 0.1064947571189E+01
 0.1090092086421E+01
 0.1110720019155E+01
 0.1127074281032E+01
 0.1139511858920E+01
 0.1148480656170E+01
 0.1849621444941E+00
 0.2743031761661E+00
 0.3588357313325E+00
 0.4384065302749E+00
 0.5131768091393E+00
 0.5832468357510E+00
 0.6486296272768E+00
 0.7092803463443E+00
 0.7651364638634E+00
 0.8161597432784E+00
 0.8623595962829E+00
 0.9037836235643E+00
 0.9404847704838E+00
 0.9724954071244E+00
 0.9998284287383E+00
 0.1022503898310E+01
 0.1040592916988E+01
 0.1054271285652E+01
 0.1063848399709E+01
 0.1069751940102E+01
 0.1790457131122E+00
 0.2613990262413E+00
 0.3394160172064E+00
 0.4130370507355E+00
 0.4824065772268E+00
 0.5475804308954E+00
 0.6085223184923E+00
 0.6651390331316E+00
 0.7173218841800E+00
 0.7649906663807E+00
 0.8081174930589E+00
 0.8467143500570E+00
 0.8807943981906E+00
 0.9103404188702E+00
 0.9353030439551E+00
 0.9556283484843E+00
 0.9713084604648E+00
 0.9824512271601E+00
 0.9893238052652E+00
 0.9923469653028E+00
 0.1733115491441E+00
 0.2485884408092E+00
 0.3200365001890E+00
 0.3876901556456E+00
 0.4516701952033E+00
 0.5119787847487E+00
 0.5685232989783E+00
 0.6211579318293E+00
 0.6697256415732E+00
 0.7141038727228E+00
 0.7542287564691E+00
 0.7900794897657E+00
 0.8216332763641E+00
 0.8488271755538E+00
 0.8715519766624E+00
 0.8896791212534E+00
 0.9031179256270E+00
 0.9119059174909E+00
 0.9162727973790E+00
 0.9166528023759E+00
 0.1677279584768E+00
 0.2358418422567E+00
 0.3006758948458E+00
 0.3623568608303E+00
 0.4209727864419E+00
 0.4764612375904E+00
 0.5286657157055E+00
 0.5773837455202E+00
 0.6224079504107E+00
 0.6635731582913E+00
 0.7007809599003E+00
 0.7339809923387E+00
 0.7631193083858E+00
 0.7880927947581E+00
 0.8087367527938E+00
 0.8248482718756E+00
 0.8362485015365E+00
 0.8428991645304E+00
 0.8449952248258E+00
 0.8430169579554E+00
 0.1622597965552E+00
 0.2231234351722E+00
 0.2813068406091E+00
 0.3370236469640E+00
 0.3903164673270E+00
 0.4410448932580E+00
 0.4889804765089E+00
 0.5338604204416E+00
 0.5754254097627E+00
 0.6134674849203E+00
 0.6478550440173E+00
 0.6785114471932E+00
 0.7053571479715E+00
 0.7282563778611E+00
 0.7469962897915E+00
 0.7613020142907E+00
 0.7708995688166E+00
 0.7756642634701E+00
 0.7757541161081E+00
 0.7717383175039E+00
 0.1568673170837E+00
 0.2103895452521E+00
 0.2618947520993E+00
 0.3116720557491E+00
 0.3597003524078E+00
 0.4057446366733E+00
 0.4494960727240E+00
 0.4906288125742E+00
 0.5288306532094E+00
 0.5638507895246E+00
 0.5955254082495E+00
 0.6237543479754E+00
 0.6484380287984E+00
 0.6694174087408E+00
 0.6864431797652E+00
 0.6991757279513E+00
 0.7072385655121E+00
 0.7104023985487E+00
 0.7087735189514E+00
 0.7030569041577E+00
 0.1515044826072E+00
 0.1975863583985E+00
 0.2423967022086E+00
 0.2862786821275E+00
 0.3291210269931E+00
 0.3705733680885E+00
 0.4102384397228E+00
 0.4477262666859E+00
 0.4826718794359E+00
 0.5147817262537E+00
 0.5438601721195E+00
 0.5697850755403E+00
 0.5924410140933E+00
 0.6116555033170E+00
 0.6271599946249E+00
 0.6385667501689E+00
 0.6453944571629E+00
 0.6472812549204E+00
 0.6442408016550E+00
 0.6371526176278E+00
 0.1461162188165E+00
 0.1846469719191E+00
 0.2227605050451E+00
 0.2608163322644E+00
 0.2985737248428E+00
 0.3355426675353E+00
 0.3712308982774E+00
 0.4051862511629E+00
 0.4369923581637E+00
 0.4663133481240E+00
 0.4929215451464E+00
 0.5166725632786E+00
 0.5374363483263E+00
 0.5550337630246E+00
 0.5691971558328E+00
 0.5795243476791E+00
 0.5854439185832E+00
 0.5864320713908E+00
 0.5823181117558E+00
 0.5741588529350E+00
 0.1406338047816E+00
 0.1714859073398E+00
 0.2029259924546E+00
 0.2352563798807E+00
 0.2680548199805E+00
 0.3006630691184E+00
 0.3324940165272E+00
 0.3630378263967E+00
 0.3918295887011E+00
 0.4184922990143E+00
 0.4427656245100E+00
 0.4644808189417E+00
 0.4834899476773E+00
 0.4996075130324E+00
 0.5125795419870E+00
 0.5220353739771E+00
 0.5273835610216E+00
 0.5279300186134E+00
 0.5231680182915E+00
 0.5142084214927E+00
 0.1349625251814E+00
 0.1579976097584E+00
 0.1828261904703E+00
 0.2095795632695E+00
 0.2375620506266E+00
 0.2659442563496E+00
 0.2940458998569E+00
 0.3213051589016E+00
 0.3472142300500E+00
 0.3713576446492E+00
 0.3934415591343E+00
 0.4132693655081E+00
 0.4306680800919E+00
 0.4454355821676E+00
 0.4573313173420E+00
 0.4660355676391E+00
 0.4710547835240E+00
 0.4717375327676E+00
 0.4669663159435E+00
 0.4575501035680E+00
 0.1289653788846E+00
 0.1440113304572E+00
 0.1624450501272E+00
 0.1837745918704E+00
 0.2070909200786E+00
 0.2313969136232E+00
 0.2559036966613E+00
 0.2800065582129E+00
 0.3031685378979E+00
 0.3249397454071E+00
 0.3449899552946E+00
 0.3630918267377E+00
 0.3790386613060E+00
 0.3925928386048E+00
 0.4035008058067E+00
 0.4114932872456E+00
 0.4161513259730E+00
 0.4173260994048E+00
 0.4139401086850E+00
 0.4048393125379E+00
 0.1221723962840E+00
 0.1296571952483E+00
 0.1418421827083E+00
 0.1578041811962E+00
 0.1766323132623E+00
 0.1970447625268E+00
 0.2180839605390E+00
 0.2391498365555E+00
 0.2597057115181E+00
 0.2792585733140E+00
 0.2974405980042E+00
 0.3139919685381E+00
 0.3286664467606E+00
 0.3411715215213E+00
 0.3511937590302E+00
 0.3584446165508E+00
 0.3625769464562E+00
 0.3635931673776E+00
 0.3624585135781E+00
 0.3593317243017E+00
 0.3736001235656E+01
 0.3663095660737E+01
 0.2754803853529E+01
 0.2249945326299E+01
 0.1788460543819E+01
 0.1369128501323E+01
 0.1074701704710E+01
 0.9198259548844E+00
 0.8234248534558E+00
 0.7386506408748E+00
 0.6527740821704E+00
 0.5633005172747E+00
 0.4684419610646E+00
 0.3682014185046E+00
 0.2659580178900E+00
 0.1659160468147E+00
 0.6720656160994E-01
 0.4223121808507E-02
 0.7600147285978E-02
 0.4664845985351E-01
 0.3195231624703E+01
 0.3841538741821E+01
 0.3018921860848E+01
 0.2411471456058E+01
 0.1963967266401E+01
 0.1588357368931E+01
 0.1306361495059E+01
 0.1121593157808E+01
 0.9959681050611E+00
 0.8956520546199E+00
 0.8038999763343E+00
 0.7134739080007E+00
 0.6202361145227E+00
 0.5228332674673E+00
 0.4226208852861E+00
 0.3208951632229E+00
 0.2146778961374E+00
 0.1366752409681E+00
 0.1134725136401E+00
 0.1599396064944E+00
 0.2746897629192E+01
 0.3592717074916E+01
 0.3158997578105E+01
 0.2583488734153E+01
 0.2133317324786E+01
 0.1781284947517E+01
 0.1512199285159E+01
 0.1318993595567E+01
 0.1176305946491E+01
 0.1062067271589E+01
 0.9626684142451E+00
 0.8697436534447E+00
 0.7775653630205E+00
 0.6830838015232E+00
 0.5859936441463E+00
 0.4863610111778E+00
 0.3818713921587E+00
 0.2985925330985E+00
 0.2691426024481E+00
 0.3171358351408E+00
 0.2392899282678E+01
 0.3287527774275E+01
 0.3137497651036E+01
 0.2710487397127E+01
 0.2291969850369E+01
 0.1956020928782E+01
 0.1698219344317E+01
 0.1504999654515E+01
 0.1355353772810E+01
 0.1232569783351E+01
 0.1126752040925E+01
 0.1030923356993E+01
 0.9392513896752E+00
 0.8476636411253E+00
 0.7546611709851E+00
 0.6597912902773E+00
 0.5610961483923E+00
 0.4788557422247E+00
 0.4480660241043E+00
 0.4978025898486E+00
 0.2105539853697E+01
 0.2987843329091E+01
 0.3033691668119E+01
 0.2764603377773E+01
 0.2421034315744E+01
 0.2112644051740E+01
 0.1867215037487E+01
 0.1678143483078E+01
 0.1527662146242E+01
 0.1401657985630E+01
 0.1292396028342E+01
 0.1194674616977E+01
 0.1103593989366E+01
 0.1014946530966E+01
 0.9266258064634E+00
 0.8378486376280E+00
 0.7469442693198E+00
 0.6690646238981E+00
 0.6391382181605E+00
 0.6890966223376E+00
 0.1868002984016E+01
 0.2710916891735E+01
 0.2888855054243E+01
 0.2758545693673E+01
 0.2506681728697E+01
 0.2244094156177E+01
 0.2018269907274E+01
 0.1837325257205E+01
 0.1690157683048E+01
 0.1565083324534E+01
 0.1455636058121E+01
 0.1357925973728E+01
 0.1268241508001E+01
 0.1182854882522E+01
 0.1099551125623E+01
 0.1017414532911E+01
 0.9349422705859E+00
 0.8629262409738E+00
 0.8347064022253E+00
 0.8830061144230E+00
 0.1668898512571E+01
 0.2460455022989E+01
 0.2725708830113E+01
 0.2708421797727E+01
 0.2548518796209E+01
 0.2343493460222E+01
 0.2147369258111E+01
 0.1980279825796E+01
 0.1840327097420E+01
 0.1719598064436E+01
 0.1612938730637E+01
 0.1517429312284E+01
 0.1430425124559E+01
 0.1348925334352E+01
 0.1270935930892E+01
 0.1195570755794E+01
 0.1121455316066E+01
 0.1055795543817E+01
 0.1029436562196E+01
 0.1074340178659E+01
 0.1500224901851E+01
 0.2235953846105E+01
 0.2556859976714E+01
 0.2627911261920E+01
 0.2551786687756E+01
 0.2408576246111E+01
 0.2250300488699E+01
 0.2103720110519E+01
 0.1975417631492E+01
 0.1862334301020E+01
 0.1761203435155E+01
 0.1670079303118E+01
 0.1587252078371E+01
 0.1510492757092E+01
 0.1438187171402E+01
 0.1369588611750E+01
 0.1303464033035E+01
 0.1244160693402E+01
 0.1219508065476E+01
 0.1259621703792E+01
 0.1356106241579E+01
 0.2035506052526E+01
 0.2389465397167E+01
 0.2527430031744E+01
 0.2523432613512E+01
 0.2440636176279E+01
 0.2324798288786E+01
 0.2204525771936E+01
 0.2092512222634E+01
 0.1990503089910E+01
 0.1897583947839E+01
 0.1812981521950E+01
 0.1735894390022E+01
 0.1664861161525E+01
 0.1598711646392E+01
 0.1536900089954E+01
 0.1478370228678E+01
 0.1425248610931E+01
 0.1402074245691E+01
 0.1436426370927E+01
 0.1232079271305E+01
 0.1856812996357E+01
 0.2227598653237E+01
 0.2414646133420E+01
 0.2470310442125E+01
 0.2443003058155E+01
 0.2370728253389E+01
 0.2280705142022E+01
 0.2189065457285E+01
 0.2101481278773E+01
 0.2019425390211E+01
 0.1943443514424E+01
 0.1873671375870E+01
 0.1809419216479E+01
 0.1749993384358E+01
 0.1695086693472E+01
 0.1643859574824E+01
 0.1596755568752E+01
 0.1574905554562E+01
 0.1602966478948E+01
 0.1124661265217E+01
 0.1697563113521E+01
 0.2073520294022E+01
 0.2295129838329E+01
 0.2398506223479E+01
 0.2419892569587E+01
 0.2389592352082E+01
 0.2331649212082E+01
 0.2263359256486E+01
 0.2193090710454E+01
 0.2124363362487E+01
 0.2059011285745E+01
 0.1998100351133E+01
 0.1941711281083E+01
 0.1889650529328E+01
 0.1841881131102E+01
 0.1797820081592E+01
 0.1756675598758E+01
 0.1736158191412E+01
 0.1757830428305E+01
 0.1031076765621E+01
 0.1555573579585E+01
 0.1928386721435E+01
 0.2172896766295E+01
 0.2313159492020E+01
 0.2375702560742E+01
 0.2383927661138E+01
 0.2357980103417E+01
 0.2314672479392E+01
 0.2263838006600E+01
 0.2210495624802E+01
 0.2157569514983E+01
 0.2106966072075E+01
 0.2059499012929E+01
 0.2015483198993E+01
 0.1975180546363E+01
 0.1938302667405E+01
 0.1903200511678E+01
 0.1884231307222E+01
 0.1899827112245E+01
 0.9490772843474E+00
 0.1428837050120E+01
 0.1792662904711E+01
 0.2050815530300E+01
 0.2218489626240E+01
 0.2314627248281E+01
 0.2356809762766E+01
 0.2361246940800E+01
 0.2343231159203E+01
 0.2313017754276E+01
 0.2276523246609E+01
 0.2237461758260E+01
 0.2198412688324E+01
 0.2160833639948E+01
 0.2125527846085E+01
 0.2093074990729E+01
 0.2063514517404E+01
 0.2034670933516E+01
 0.2017686361522E+01
 0.2027901486412E+01
 0.8768176409108E+00
 0.1315529517375E+01
 0.1666372075280E+01
 0.1930904532434E+01
 0.2117895754671E+01
 0.2240468741241E+01
 0.2311497958250E+01
 0.2343611075582E+01
 0.2350044116006E+01
 0.2340691236802E+01
 0.2321813379026E+01
 0.2297581986823E+01
 0.2271034432370E+01
 0.2244136300833E+01
 0.2218123853010E+01
 0.2193894834879E+01
 0.2171840808013E+01
 0.2149564661138E+01
 0.2135209137709E+01
 0.2141096897220E+01
 0.8127677528488E+00
 0.1214002132002E+01
 0.1549252517845E+01
 0.1814547427296E+01
 0.2014074124745E+01
 0.2156562407499E+01
 0.2251202344698E+01
 0.2307578331999E+01
 0.2336702373976E+01
 0.2347586084801E+01
 0.2346384247519E+01
 0.2337412828829E+01
 0.2323939381553E+01
 0.2308270933789E+01
 0.2291986707490E+01
 0.2276276403648E+01
 0.2261893000448E+01
 0.2246514325764E+01
 0.2235599591483E+01
 0.2238545512144E+01
 0.7556466687544E+00
 0.1122766637669E+01
 0.1440859900780E+01
 0.1702652088053E+01
 0.1909130720587E+01
 0.2065764663590E+01
 0.2178940888191E+01
 0.2255792454092E+01
 0.2305186361327E+01
 0.2334959851621E+01
 0.2350833892238E+01
 0.2357008780241E+01
 0.2356771174162E+01
 0.2352592294903E+01
 0.2346275046564E+01
 0.2339240448917E+01
 0.2332584262594E+01
 0.2324353097473E+01
 0.2317779029135E+01
 0.2319470760018E+01
 0.7043700222654E+00
 0.1040476069593E+01
 0.1340639890846E+01
 0.1595771242058E+01
 0.1804682491849E+01
 0.1970472169747E+01
 0.2097457998066E+01
 0.2190885408363E+01
 0.2257700750048E+01
 0.2304457788342E+01
 0.2336237849517E+01
 0.2356935286382E+01
 0.2369684363113E+01
 0.2376954004786E+01
 0.2380633568395E+01
 0.2382272770546E+01
 0.2383235436685E+01
 0.2382200841762E+01
 0.2380813782734E+01
 0.2383185651113E+01
 0.6579959077739E+00
 0.9659106014070E+00
 0.1247982570410E+01
 0.1494208090825E+01
 0.1701941769580E+01
 0.1872652773282E+01
 0.2009183158298E+01
 0.2115374235845E+01
 0.2196543321461E+01
 0.2257983452563E+01
 0.2304038200794E+01
 0.2338180670592E+01
 0.2363277423551E+01
 0.2381664043444E+01
 0.2395183706119E+01
 0.2405378437874E+01
 0.2413712453140E+01
 0.2419626149375E+01
 0.2423987871925E+01
 0.2429070475092E+01
 0.6156741236956E+00
 0.8978993931552E+00
 0.1162355433514E+01
 0.1398099606539E+01
 0.1601772230667E+01
 0.1773877317678E+01
 0.1916213165077E+01
 0.2031595106057E+01
 0.2124007444742E+01
 0.2197592466040E+01
 0.2255943280676E+01
 0.2302063548141E+01
 0.2338499730635E+01
 0.2367383014339E+01
 0.2390424385407E+01
 0.2409031794375E+01
 0.2424533868307E+01
 0.2436953284813E+01
 0.2447046437586E+01
 0.2456550641506E+01
 0.5761450935014E+00
 0.8358489137143E+00
 0.1083464433745E+01
 0.1307430563972E+01
 0.1504719232532E+01
 0.1675326766210E+01
 0.1820317369318E+01
 0.1941670343561E+01
 0.2042311368905E+01
 0.2125411302847E+01
 0.2193854906297E+01
 0.2250165777084E+01
 0.2296571662102E+01
 0.2334997895032E+01
 0.2367022937993E+01
 0.2393908408668E+01
 0.2416671871036E+01
 0.2435525868365E+01
 0.2451060623911E+01
 0.2465197206890E+01
 0.1120584203535E+00
 0.1131218422709E+00
 0.1184968674212E+00
 0.1288255596375E+00
 0.1427229086719E+00
 0.1586103764828E+00
 0.1752555373240E+00
 0.1923022202954E+00
 0.2093023219036E+00
 0.2256901453633E+00
 0.2410382921579E+00
 0.2550522010641E+00
 0.2674945017256E+00
 0.2780875883150E+00
 0.2865754634448E+00
 0.2928452169505E+00
 0.2971650149975E+00
 0.2999539576182E+00
 0.3037230540822E+00
 0.3118801166494E+00
 0.1033618735832E+00
 0.9509704159629E-01
 0.9338232949448E-01
 0.9759775670775E-01
 0.1059948132047E+00
 0.1165735965946E+00
 0.1280345541760E+00
 0.1402830465003E+00
 0.1529821631619E+00
 0.1655152140403E+00
 0.1773965987019E+00
 0.1883178271669E+00
 0.1980882376927E+00
 0.2065312401298E+00
 0.2136018465904E+00
 0.2195581779680E+00
 0.2250170133162E+00
 0.2304938984164E+00
 0.2380164287828E+00
 0.2405142144442E+00
 0.9413359319408E-01
 0.7518483185775E-01
 0.6599395429345E-01
 0.6426670650524E-01
 0.6743347117673E-01
 0.7305532522285E-01
 0.7979634967819E-01
 0.8778710002769E-01
 0.9676303574476E-01
 0.1060652000684E+00
 0.1151807742651E+00
 0.1238259318779E+00
 0.1318726081664E+00
 0.1392371341594E+00
 0.1460103528453E+00
 0.1525022717262E+00
 0.1589200662193E+00
 0.1652887221472E+00
 0.1713702102155E+00
 0.1743366093302E+00
 0.8385893180724E-01
 0.5340617721643E-01
 0.3653379466490E-01
 0.2926663792172E-01
 0.2772159797867E-01
 0.2886982683792E-01
 0.3139887652752E-01
 0.3567269321408E-01
 0.4151051618422E-01
 0.4823292282335E-01
 0.5531509723762E-01
 0.6249439452996E-01
 0.6966858541295E-01
 0.7676104598158E-01
 0.8382392957490E-01
 0.9095036872662E-01
 0.9780626572937E-01
 0.1040025912458E+00
 0.1105104230334E+00
 0.1185847966205E+00
 0.7231092180001E-01
 0.2953205306593E-01
 0.7919868493051E-02
 0.1245486496952E-01
 0.1767520775948E-01
 0.2004730393887E-01
 0.2077519788191E-01
 0.1934371278872E-01
 0.1601088374595E-01
 0.1180817921922E-01
 0.8367486100928E-02
 0.8816660573462E-02
 0.1359516818910E-01
 0.2019443974312E-01
 0.2755938653118E-01
 0.3528843209487E-01
 0.4260746944601E-01
 0.4961917404046E-01
 0.5892930065461E-01
 0.7298729272918E-01
 0.5927419126474E-01
 0.4787762880062E-02
 0.3135908039758E-01
 0.4967887339586E-01
 0.5939491970166E-01
 0.6513257966713E-01
 0.6864410553830E-01
 0.6921552819687E-01
 0.6700090425479E-01
 0.6280241763647E-01
 0.5719143048032E-01
 0.5044980917719E-01
 0.4276921199949E-01
 0.3441385936902E-01
 0.2561452138898E-01
 0.1674678608755E-01
 0.9087679925737E-02
 0.6769263454836E-02
 0.1767311040139E-01
 0.3733483454008E-01
 0.4454795101335E-01
 0.2642474110865E-01
 0.6775803105855E-01
 0.9066541245308E-01
 0.1033485783250E+00
 0.1114279748649E+00
 0.1168449621231E+00
 0.1187161664550E+00
 0.1171847309016E+00
 0.1131057395623E+00
 0.1070879231987E+00
 0.9946105710900E-01
 0.9049739490066E-01
 0.8053945365226E-01
 0.6983020071480E-01
 0.5858860370849E-01
 0.4737183635567E-01
 0.3444239113408E-01
 0.1595757909910E-01
 0.1142569778532E-01
 0.2801069394458E-01
 0.5820558915472E-01
 0.1069029066557E+00
 0.1334409282912E+00
 0.1481185284485E+00
 0.1575926535993E+00
 0.1640062559925E+00
 0.1663192141326E+00
 0.1646678971455E+00
 0.1599554545153E+00
 0.1528368837247E+00
 0.1437107896210E+00
 0.1329413624870E+00
 0.1209358065605E+00
 0.1079293731620E+00
 0.9404128427390E-01
 0.7961621200956E-01
 0.6234496931758E-01
 0.3828033079582E-01
 0.7241808288803E-02
 0.1061103779078E-01
 0.9323052169258E-01
 0.1485886936312E+00
 0.1776885356152E+00
 0.1932700217490E+00
 0.2031110332591E+00
 0.2095628480828E+00
 0.2114369667454E+00
 0.2088601089875E+00
 0.2027724855198E+00
 0.1938807640691E+00
 0.1826646239396E+00
 0.1695738253537E+00
 0.1550444661012E+00
 0.1392566886942E+00
 0.1221957654264E+00
 0.1040007386216E+00
 0.8204642965757E-01
 0.5273188277473E-01
 0.1645615537883E-01
 0.1550340369484E-01
 0.1316694606965E+00
 0.1927642674453E+00
 0.2231553979000E+00
 0.2384184433039E+00
 0.2475187413467E+00
 0.2530058605779E+00
 0.2535473754203E+00
 0.2492510957333E+00
 0.2410799040262E+00
 0.2297992141692E+00
 0.2159799827984E+00
 0.2001441344961E+00
 0.1827193640036E+00
 0.1637976707018E+00
 0.1432251009155E+00
 0.1209707188379E+00
 0.9431687638206E-01
 0.6017604644332E-01
 0.1963479985792E-01
 0.3916168488717E-01
 0.1737576457574E+00
 0.2393742183787E+00
 0.2695739044251E+00
 0.2831726974201E+00
 0.2903531944832E+00
 0.2938317419036E+00
 0.2921373321255E+00
 0.2853480935550E+00
 0.2744367326487E+00
 0.2602389641312E+00
 0.2434234752221E+00
 0.2245604262053E+00
 0.2040278000071E+00
 0.1818066796900E+00
 0.1576178212563E+00
 0.1313102298522E+00
 0.1002714519628E+00
 0.6200261451009E-01
 0.1807611303473E-01
 0.6692061328745E-01
 0.2197346323211E+00
 0.2883333419837E+00
 0.3166501463531E+00
 0.3271308257857E+00
 0.3311467073098E+00
 0.3315269835472E+00
 0.3266819336733E+00
 0.3166579308527E+00
 0.3024309290205E+00
 0.2849200486690E+00
 0.2648840381448E+00
 0.2428965374232E+00
 0.2192352974883E+00
 0.1937552112625E+00
 0.1660806833383E+00
 0.1360023052187E+00
 0.1011889806506E+00
 0.5975350855037E-01
 0.1352275042661E-01
 0.9855468707903E-01
 0.2698277337139E+00
 0.3395158635060E+00
 0.3640669763779E+00
 0.3698890703916E+00
 0.3694256825186E+00
 0.3655510170234E+00
 0.3566218080351E+00
 0.3426750137536E+00
 0.3246879473309E+00
 0.3036619188013E+00
 0.2804023735661E+00
 0.2554076654926E+00
 0.2287946952800E+00
 0.2002883202141E+00
 0.1694632198819E+00
 0.1361273705937E+00
 0.9839039719966E-01
 0.5496929911382E-01
 0.7772965904149E-02
 0.1344161834452E+00
 0.3242345423269E+00
 0.3927467931913E+00
 0.4114981457813E+00
 0.4110618388280E+00
 0.4047067047456E+00
 0.3953035354303E+00
 0.3813292710929E+00
 0.3628749350888E+00
 0.3408988526118E+00
 0.3164297488524E+00
 0.2902090452132E+00
 0.2625408752860E+00
 0.2333225009051E+00
 0.2021694744191E+00
 0.1686770136873E+00
 0.1327604921318E+00
 0.9311536815858E-01
 0.4903651953301E-01
 0.2892455194879E-02
 0.1749560048970E+00
 0.3830939113828E+00
 0.4477914118557E+00
 0.4586409993336E+00
 0.4503173826920E+00
 0.4364777537382E+00
 0.4200579864537E+00
 0.4000612105818E+00
 0.3767288254859E+00
 0.3508852335784E+00
 0.3234050768450E+00
 0.2947623705780E+00
 0.2649276116962E+00
 0.2335535781707E+00
 0.2002109217275E+00
 0.1646106301763E+00
 0.1268708517719E+00
 0.8640498037399E-01
 0.4304451523100E-01
 0.3387269573485E-02
 0.2206623477123E+00
 0.4464280471109E+00
 0.5043381428453E+00
 0.5052895244575E+00
 0.4874403055488E+00
 0.4641328675722E+00
 0.4388331499079E+00
 0.4119126293295E+00
 0.3837799722545E+00
 0.3547220428577E+00
 0.3250720229384E+00
 0.2947631606245E+00
 0.2633402028125E+00
 0.2302697062397E+00
 0.1951956316732E+00
 0.1580510914510E+00
 0.1192370209062E+00
 0.7900899547266E-01
 0.3767794561442E-01
 0.5254895276334E-02
 0.2720229866211E+00
 0.5140085324685E+00
 0.5619585007631E+00
 0.5515197748029E+00
 0.5224234233345E+00
 0.4867801096919E+00
 0.4501613671703E+00
 0.4158583025471E+00
 0.3838454715404E+00
 0.3529195808810E+00
 0.3222784265429E+00
 0.2911059843233E+00
 0.2585994041037E+00
 0.2242109496465E+00
 0.1878078305004E+00
 0.1496280125311E+00
 0.1103934106523E+00
 0.7133327690052E-01
 0.3316687777118E-01
 0.5368636559247E-02
 0.3294382295455E+00
 0.5849355659264E+00
 0.6200692906276E+00
 0.5981577313860E+00
 0.5555836132011E+00
 0.5026217850949E+00
 0.4519177616743E+00
 0.4110311243399E+00
 0.3773926747244E+00
 0.3466042265867E+00
 0.3161784628217E+00
 0.2847327270559E+00
 0.2514490980409E+00
 0.2159990115685E+00
 0.1785929467655E+00
 0.1397972227667E+00
 0.1006170327573E+00
 0.6343232401607E-01
 0.2929201349539E-01
 0.4003001664508E-02
 0.3930962668614E+00
 0.6562937711291E+00
 0.6776743169973E+00
 0.6488664074384E+00
 0.5863675681854E+00
 0.5081960005635E+00
 0.4414399088250E+00
 0.3974458112618E+00
 0.3660696166752E+00
 0.3374666338236E+00
 0.3079576753000E+00
 0.2764270680150E+00
 0.2424625316174E+00
 0.2060973245271E+00
 0.1679629193433E+00
 0.1288727017294E+00
 0.8997185285875E-01
 0.5501987280135E-01
 0.2540354127645E-01
 0.2123890507088E-02
 0.4593916285694E+00
 0.7098224494332E+00
 0.7438434542132E+00
 0.7080023099104E+00
 0.6119537676160E+00
 0.4974921636108E+00
 0.4163820393990E+00
 0.3776361027654E+00
 0.3527731765179E+00
 0.3271802804413E+00
 0.2984101589705E+00
 0.2667086598608E+00
 0.2320768460714E+00
 0.1947739064533E+00
 0.1561487170788E+00
 0.1172808561130E+00
 0.7842451270222E-01
 0.4528228641039E-01
 0.2030529711337E-01
 0.9307281129151E-03
 0.2475688937813E+01
 0.2471054617159E+01
 0.2448565655518E+01
 0.2409232124794E+01
 0.2353333960811E+01
 0.2281140805460E+01
 0.2193095406569E+01
 0.2089804669779E+01
 0.1972010754517E+01
 0.1840561796847E+01
 0.1696392678634E+01
 0.1540524675705E+01
 0.1374097011038E+01
 0.1198449595352E+01
 0.1015285863036E+01
 0.8269626237250E+00
 0.6370033733152E+00
 0.4510985826380E+00
 0.2794629382486E+00
 0.1463303334573E+00
 0.2480141995567E+01
 0.2484009442643E+01
 0.2471900899824E+01
 0.2443336595497E+01
 0.2398531460108E+01
 0.2337762234902E+01
 0.2261394579855E+01
 0.2169927495958E+01
 0.2063995641411E+01
 0.1944354556099E+01
 0.1811863557377E+01
 0.1667479088410E+01
 0.1512272574865E+01
 0.1347491571167E+01
 0.1174689896028E+01
 0.9959615009612E+00
 0.8143309385795E+00
 0.6344240998061E+00
 0.4639188057916E+00
 0.3191456635914E+00
 0.2481116700611E+01
 0.2492088075452E+01
 0.2489121426912E+01
 0.2470941458865E+01
 0.2437216769790E+01
 0.2388006315171E+01
 0.2323530419022E+01
 0.2244144279172E+01
 0.2150339391575E+01
 0.2042737065813E+01
 0.1922075561380E+01
 0.1789200094757E+01
 0.1645068847602E+01
 0.1490792634150E+01
 0.1327731134745E+01
 0.1157670822394E+01
 0.9830944644731E+00
 0.8074968004876E+00
 0.6355559200569E+00
 0.4711011395745E+00
 0.2478138540893E+01
 0.2495366600891E+01
 0.2500476202516E+01
 0.2491866724767E+01
 0.2468772619765E+01
 0.2430906057454E+01
 0.2378240714679E+01
 0.2310921182805E+01
 0.2229237163276E+01
 0.2133610438806E+01
 0.2024578517089E+01
 0.1902774924424E+01
 0.1768913606313E+01
 0.1623790581994E+01
 0.1468321643729E+01
 0.1303636298499E+01
 0.1131229232845E+01
 0.9530512733921E+00
 0.7710163209865E+00
 0.5832127703617E+00
 0.2470824540616E+01
 0.2493588862279E+01
 0.2505822013866E+01
 0.2505863571998E+01
 0.2492679779173E+01
 0.2465674945486E+01
 0.2424539259006E+01
 0.2369161007287E+01
 0.2299584098900E+01
 0.2215985100966E+01
 0.2118650703104E+01
 0.2007948021776E+01
 0.1884287817553E+01
 0.1748086738882E+01
 0.1599741284761E+01
 0.1439633595820E+01
 0.1268187351901E+01
 0.1085946780630E+01
 0.8932993549215E+00
 0.6897104108945E+00
 0.2458928965977E+01
 0.2486567376702E+01
 0.2505027999605E+01
 0.2512752248328E+01
 0.2508587264053E+01
 0.2491718277703E+01
 0.2461584968983E+01
 0.2417819108194E+01
 0.2360206107513E+01
 0.2288659532382E+01
 0.2203196165291E+01
 0.2103902039831E+01
 0.1990884047889E+01
 0.1864205904817E+01
 0.1723813079028E+01
 0.1569462164912E+01
 0.1400692769254E+01
 0.1216922075309E+01
 0.1017831318268E+01
 0.8040984231792E+00
 0.2442288878204E+01
 0.2474180141238E+01
 0.2498051670141E+01
 0.2512531983469E+01
 0.2516461109285E+01
 0.2508901048409E+01
 0.2489105972205E+01
 0.2456489443380E+01
 0.2410598914554E+01
 0.2351095532766E+01
 0.2277732270266E+01
 0.2190322344178E+01
 0.2088690311060E+01
 0.1972599351898E+01
 0.1841650797563E+01
 0.1695159549053E+01
 0.1532034060854E+01
 0.1350763675512E+01
 0.1149889199683E+01
 0.9293561131334E+00
 0.2420794702058E+01
 0.2456309878405E+01
 0.2484816568474E+01
 0.2505162812495E+01
 0.2516257499341E+01
 0.2517123301378E+01
 0.2506903628913E+01
 0.2484854422326E+01
 0.2450333189995E+01
 0.2402787488498E+01
 0.2341739774926E+01
 0.2266762870413E+01
 0.2177438752899E+01
 0.2073292104902E+01
 0.1953688757220E+01
 0.1817689315124E+01
 0.1663854386029E+01
 0.1490036757958E+01
 0.1293294666495E+01
 0.1071030965683E+01
 0.2394392065810E+01
 0.2432871178618E+01
 0.2465245858895E+01
 0.2490585217729E+01
 0.2507911144897E+01
 0.2516270987982E+01
 0.2514766166030E+01
 0.2502561286664E+01
 0.2478885588970E+01
 0.2443030618712E+01
 0.2394343359948E+01
 0.2332211187967E+01
 0.2256032886402E+01
 0.2165167729306E+01
 0.2058851403267E+01
 0.1936061996736E+01
 0.1795310117303E+01
 0.1634304620675E+01
 0.1449425331461E+01
 0.1234868868570E+01
 0.2363071692238E+01
 0.2403809016521E+01
 0.2439271202688E+01
 0.2468730419095E+01
 0.2491340524599E+01
 0.2506215735127E+01
 0.2512469506020E+01
 0.2509233999463E+01
 0.2495670667671E+01
 0.2470976255851E+01
 0.2434384767029E+01
 0.2385163444343E+01
 0.2322598890025E+01
 0.2245967385672E+01
 0.2154480380696E+01
 0.2047190389187E+01
 0.1922829591715E+01
 0.1779523916565E+01
 0.1614231667458E+01
 0.1421333249244E+01
 0.2326864301029E+01
 0.2369102516992E+01
 0.2406843668436E+01
 0.2439532161179E+01
 0.2466454431342E+01
 0.2486814175335E+01
 0.2499773045177E+01
 0.2504474666906E+01
 0.2500060791423E+01
 0.2485683783679E+01
 0.2460516817401E+01
 0.2423761267658E+01
 0.2374649423121E+01
 0.2312439426934E+01
 0.2236397876072E+01
 0.2145762949382E+01
 0.2039676109250E+01
 0.1917059198361E+01
 0.1776387849656E+01
 0.1615295199135E+01
 0.2285817824904E+01
 0.2328743109577E+01
 0.2367916118539E+01
 0.2402914845910E+01
 0.2433148722484E+01
 0.2457920061730E+01
 0.2476460537379E+01
 0.2487955058911E+01
 0.2491559852703E+01
 0.2486418530130E+01
 0.2471678000891E+01
 0.2446504808994E+01
 0.2410101650176E+01
 0.2361723415334E+01
 0.2300692110100E+01
 0.2226410623223E+01
 0.2138377184128E+01
 0.2036209057776E+01
 0.1919710145598E+01
 0.1789145321511E+01
 0.2240002522273E+01
 0.2282759182144E+01
 0.2322472097076E+01
 0.2358820722069E+01
 0.2391325101171E+01
 0.2419388341497E+01
 0.2442325137350E+01
 0.2459382067087E+01
 0.2469754285878E+01
 0.2472601784859E+01
 0.2467067259252E+01
 0.2452296818986E+01
 0.2427464284733E+01
 0.2391799727478E+01
 0.2344623457563E+01
 0.2285388242640E+01
 0.2213736001042E+01
 0.2129582550749E+01
 0.2033261648744E+01
 0.1925765264911E+01
 0.2189512100345E+01
 0.2231226260051E+01
 0.2270549883660E+01
 0.2307245653786E+01
 0.2340933493866E+01
 0.2371116501470E+01
 0.2397200359366E+01
 0.2418508005990E+01
 0.2434292372280E+01
 0.2443749711112E+01
 0.2446035531038E+01
 0.2440284674625E+01
 0.2425636719842E+01
 0.2401267717962E+01
 0.2366429493403E+01
 0.2320498621093E+01
 0.2263038905085E+01
 0.2193882960390E+01
 0.2113234258188E+01
 0.2021772872455E+01
 0.2134463224259E+01
 0.2174259442997E+01
 0.2212242638165E+01
 0.2248250319477E+01
 0.2281994544478E+01
 0.2313076588913E+01
 0.2340998214102E+01
 0.2365170013212E+01
 0.2384918602516E+01
 0.2399494637159E+01
 0.2408083512143E+01
 0.2409820386384E+01
 0.2403810878633E+01
 0.2389158419596E+01
 0.2364998840773E+01
 0.2330542436401E+01
 0.2285123613938E+01
 0.2228257609289E+01
 0.2159699917565E+01
 0.2079496393998E+01
 0.2075001328168E+01
 0.2112013741118E+01
 0.2147699299431E+01
 0.2181965642249E+01
 0.2214611040830E+01
 0.2245332623259E+01
 0.2273731445759E+01
 0.2299314932447E+01
 0.2321497985056E+01
 0.2339604323412E+01
 0.2352869688900E+01
 0.2360448526014E+01
 0.2361425620011E+01
 0.2354833798378E+01
 0.2339678051623E+01
 0.2314965223751E+01
 0.2279736877574E+01
 0.2233102461074E+01
 0.2174272972598E+01
 0.2102596602153E+01
 0.2011307563461E+01
 0.2044689736449E+01
 0.2077129752078E+01
 0.2108600113555E+01
 0.2138979211821E+01
 0.2168056599992E+01
 0.2195534015720E+01
 0.2221023101386E+01
 0.2244040911445E+01
 0.2264004392361E+01
 0.2280225133163E+01
 0.2291905831249E+01
 0.2298140044381E+01
 0.2297916758385E+01
 0.2290130826097E+01
 0.2273599075443E+01
 0.2247079681649E+01
 0.2209289321151E+01
 0.2158914017974E+01
 0.2094627235036E+01
 0.1943604793069E+01
 0.1972540756294E+01
 0.2000812642610E+01
 0.2028449621179E+01
 0.2055402133810E+01
 0.2081546556737E+01
 0.2106684195568E+01
 0.2130535961704E+01
 0.2152733666213E+01
 0.2172808694451E+01
 0.2190178859123E+01
 0.2204134443703E+01
 0.2213824828504E+01
 0.2218247588490E+01
 0.2216242369745E+01
 0.2206491710312E+01
 0.2187529428087E+01
 0.2157753210524E+01
 0.2115426105297E+01
 0.2058648688643E+01
 0.1872162051838E+01
 0.1895879843646E+01
 0.1919104270545E+01
 0.1941908925324E+01
 0.1964305027849E+01
 0.1986246954641E+01
 0.2007630927552E+01
 0.2028288610587E+01
 0.2047976340863E+01
 0.2066360265120E+01
 0.2082997515723E+01
 0.2097313659544E+01
 0.2108577057636E+01
 0.2115871609096E+01
 0.2118070751396E+01
 0.2113817448361E+01
 0.2101516338722E+01
 0.2079343487707E+01
 0.2045273852451E+01
 0.1997070492416E+01
 0.1797297443860E+01
 0.1815085965870E+01
 0.1832447659831E+01
 0.1849483896903E+01
 0.1866251847946E+01
 0.1882771162976E+01
 0.1899023742375E+01
 0.1914948336953E+01
 0.1930430374200E+01
 0.1945286840554E+01
 0.1959245659122E+01
 0.1971918782447E+01
 0.1982768244591E+01
 0.1991064920938E+01
 0.1995841185932E+01
 0.1995841828858E+01
 0.1989483168920E+01
 0.1974836944191E+01
 0.1949664403055E+01
 0.1911557554730E+01
 0.1719380549382E+01
 0.1730610236899E+01
 0.1741381263342E+01
 0.1751803388176E+01
 0.1761961859945E+01
 0.1771924827483E+01
 0.1781745450333E+01
 0.1791459398838E+01
 0.1801078021248E+01
 0.1810576788705E+01
 0.1819878016288E+01
 0.1828826217787E+01
 0.1837153778139E+01
 0.1844434010954E+01
 0.1850018489502E+01
 0.1852956833437E+01
 0.1851902786471E+01
 0.1845024773133E+01
 0.1829955301605E+01
 0.1803863761746E+01
 0.1638835080272E+01
 0.1642980245079E+01
 0.1646544381791E+01
 0.1649627009108E+01
 0.1652321372943E+01
 0.1654724070689E+01
 0.1656940322690E+01
 0.1659085745470E+01
 0.1661285093329E+01
 0.1663667822767E+01
 0.1666359603838E+01
 0.1669467996094E+01
 0.1673059240620E+01
 0.1677121234831E+01
 0.1681504929034E+01
 0.1685832521057E+01
 0.1689356783158E+01
 0.1690760593130E+01
 0.1687919985969E+01
 0.1677621361633E+01
 0.1556128041396E+01
 0.1552784274420E+01
 0.1548661238391E+01
 0.1543829687410E+01
 0.1538370359076E+01
 0.1532386913907E+01
 0.1526014666241E+01
 0.1519427028112E+01
 0.1512840920591E+01
 0.1506521782988E+01
 0.1500788181253E+01
 0.1496015255753E+01
 0.1492635084419E+01
 0.1491129952179E+01
 0.1492010494904E+01
 0.1495762625214E+01
 0.1502731276027E+01
 0.1512876277329E+01
 0.1525315048790E+01
 0.1537713402054E+01
 0.1471772198224E+01
 0.1460675336129E+01
 0.1448547329681E+01
 0.1435411943087E+01
 0.1421318810490E+01
 0.1406359512615E+01
 0.1390678975847E+01
 0.1374485696972E+01
 0.1358063298573E+01
 0.1341785234698E+01
 0.1326134115316E+01
 0.1311726991163E+01
 0.1299347870279E+01
 0.1289988409249E+01
 0.1284896408305E+01
 0.1285627426110E+01
 0.1294081483193E+01
 0.1312467635906E+01
 0.1342980232211E+01
 0.1386795365435E+01
 0.1386322299925E+01
 0.1367368970297E+01
 0.1347107610025E+01
 0.1325499550254E+01
 0.1302550662683E+01
 0.1278329344376E+01
 0.1252978480685E+01
 0.1226727226128E+01
 0.1199906548021E+01
 0.1172971540399E+01
 0.1146533452824E+01
 0.1121405103575E+01
 0.1098664937380E+01
 0.1079747789306E+01
 0.1066575140412E+01
 0.1061745784399E+01
 0.1068821223069E+01
 0.1092759781797E+01
 0.1140566196059E+01
 0.1221448720503E+01
 0.1300366486650E+01
 0.1273634000050E+01
 0.1245325757684E+01
 0.1215331543565E+01
 0.1183612988772E+01
 0.1150220684132E+01
 0.1115303441202E+01
 0.1079118614214E+01
 0.1042048638194E+01
 0.1004627362782E+01
 0.9675797329818E+00
 0.9318796062953E+00
 0.8988331849312E+00
 0.8702005005554E+00
 0.8483766990157E+00
 0.8366731177256E+00
 0.8397786861065E+00
 0.8645760682303E+00
 0.9217815198309E+00
 0.1030076437708E+01
 0.1214515788438E+01
 0.1180280185877E+01
 0.1144248157513E+01
 0.1106240407123E+01
 0.1066194693938E+01
 0.1024176869935E+01
 0.9803836275435E+00
 0.9351489511673E+00
 0.8889597417534E+00
 0.8424835232824E+00
 0.7966107292010E+00
 0.7525149587411E+00
 0.7117366188973E+00
 0.6762989296161E+00
 0.6488714372749E+00
 0.6330080726739E+00
 0.6335095641140E+00
 0.6570255620206E+00
 0.7131346699373E+00
 0.8174166785911E+00
 0.1129391400931E+01
 0.1088141086189E+01
 0.1044957363198E+01
 0.9996132126912E+00
 0.9520727540485E+00
 0.9024878348819E+00
 0.8511906763400E+00
 0.7986958811182E+00
 0.7457158213970E+00
 0.6931899141934E+00
 0.6423271363503E+00
 0.5946607132999E+00
 0.5521132207949E+00
 0.5170682008677E+00
 0.4924387320045E+00
 0.4817085901751E+00
 0.4888866373548E+00
 0.5181982571762E+00
 0.5730496162118E+00
 0.6509181439799E+00
 0.1045607381484E+01
 0.9980424937926E+00
 0.9485138076494E+00
 0.8967915179240E+00
 0.8429442980301E+00
 0.7873084944097E+00
 0.7304643695982E+00
 0.6732298114442E+00
 0.6166710483900E+00
 0.5621254730786E+00
 0.5112295290222E+00
 0.4659421881932E+00
 0.4285497493379E+00
 0.4016278111996E+00
 0.3879164103298E+00
 0.3900257532534E+00
 0.4098069747601E+00
 0.4470448653374E+00
 0.4965382884575E+00
 0.5421979200448E+00
 0.9637502280273E+00
 0.9107561614961E+00
 0.8558734670914E+00
 0.7989386860950E+00
 0.7402187464978E+00
 0.6803360458489E+00
 0.6202153090482E+00
 0.5610571484006E+00
 0.5043291329357E+00
 0.4517602296353E+00
 0.4053222261399E+00
 0.3671780750526E+00
 0.3395696417562E+00
 0.3246039063409E+00
 0.3238759502360E+00
 0.3378369870590E+00
 0.3647740460852E+00
 0.3992194590939E+00
 0.4298781171631E+00
 0.4396715388294E+00
 0.8843522863309E+00
 0.8269344000093E+00
 0.7677887552477E+00
 0.7069052873602E+00
 0.6448464391766E+00
 0.5826038709377E+00
 0.5214965890138E+00
 0.4631085718383E+00
 0.4092422954379E+00
 0.3618626634123E+00
 0.3230065871856E+00
 0.2946321445112E+00
 0.2783769502459E+00
 0.2751908935143E+00
 0.2848099257211E+00
 0.3050528998624E+00
 0.3309788307742E+00
 0.3541699683593E+00
 0.3632129834101E+00
 0.3469119655062E+00
 0.8078631483859E+00
 0.7470604539610E+00
 0.6847535463556E+00
 0.6211790341436E+00
 0.5572883374366E+00
 0.4944914506985E+00
 0.4344874291308E+00
 0.3791556932658E+00
 0.3304633523253E+00
 0.2903517849657E+00
 0.2605746091225E+00
 0.2424645775928E+00
 0.2366132385155E+00
 0.2424622079849E+00
 0.2578351625996E+00
 0.2784950984383E+00
 0.2979406530916E+00
 0.3079440973080E+00
 0.3004904878200E+00
 0.2709509220461E+00
 0.7346568389649E+00
 0.6714873693209E+00
 0.6070649867253E+00
 0.5419758022247E+00
 0.4776422994279E+00
 0.4158942074938E+00
 0.3587245496633E+00
 0.3081418047838E+00
 0.2660421973399E+00
 0.2340565755190E+00
 0.2133470050204E+00
 0.2043447553478E+00
 0.2064412222600E+00
 0.2176741832604E+00
 0.2344910489447E+00
 0.2517334161287E+00
 0.2630968143732E+00
 0.2623683676102E+00
 0.2454075905580E+00
 0.2120682460553E+00
 0.6650381020054E+00
 0.6004549276394E+00
 0.5348349885631E+00
 0.4692522535535E+00
 0.4056681717048E+00
 0.3462782509732E+00
 0.2932183551989E+00
 0.2484119995207E+00
 0.2134433587033E+00
 0.1894011423967E+00
 0.1766800582211E+00
 0.1747519394852E+00
 0.1819490866884E+00
 0.1953302037758E+00
 0.2107248175991E+00
 0.2230910236231E+00
 0.2273354747960E+00
 0.2195960582009E+00
 0.1985977959347E+00
 0.1662739332809E+00
 0.5992364267924E+00
 0.5340732140339E+00
 0.4679765417615E+00
 0.4027174725822E+00
 0.3408431326813E+00
 0.2847975824313E+00
 0.2366528338805E+00
 0.1980242171905E+00
 0.1699916669081E+00
 0.1529809900259E+00
 0.1466061537358E+00
 0.1495157020193E+00
 0.1593070982394E+00
 0.1725799327401E+00
 0.1852031121342E+00
 0.1928731843495E+00
 0.1919751170803E+00
 0.1805607148842E+00
 0.1589993117612E+00
 0.1298159606279E+00
 0.5374036030472E+00
 0.4722896535106E+00
 0.4061777673401E+00
 0.3418504486183E+00
 0.2824461413117E+00
 0.2304450868580E+00
 0.1876076976325E+00
 0.1550424296440E+00
 0.1332282624176E+00
 0.1219362024374E+00
 0.1201222127046E+00
 0.1258608256408E+00
 0.1363849290326E+00
 0.1482800951759E+00
 0.1578713238239E+00
 0.1618146487280E+00
 0.1578120566744E+00
 0.1452132844037E+00
 0.1251630346879E+00
 0.1000594313346E+00
 0.4796190549508E+00
 0.4148514284710E+00
 0.3488903141522E+00
 0.2859882203199E+00
 0.2297237246419E+00
 0.1822714376914E+00
 0.1447755535899E+00
 0.1177446929949E+00
 0.1010864921531E+00
 0.9403719924667E-01
 0.9509838889513E-01
 0.1020498462036E+00
 0.1120842521882E+00
 0.1220782614885E+00
 0.1290028517145E+00
 0.1304412586322E+00
 0.1250982991619E+00
 0.1131001266799E+00
 0.9588317935818E-01
 0.7557485677684E-01
 0.4259221542215E+00
 0.3612363231390E+00
 0.2953147260020E+00
 0.2344140030337E+00
 0.1820975756524E+00
 0.1394663647467E+00
 0.1069753832745E+00
 0.8463146938367E-01
 0.7191754021918E-01
 0.6771771253305E-01
 0.7029559506193E-01
 0.7737151934108E-01
 0.8631540074082E-01
 0.9443779436200E-01
 0.9936120480068E-01
 0.9942268525309E-01
 0.9399907823923E-01
 0.8361254821094E-01
 0.6974616196733E-01
 0.5443028474610E-01
 0.3763077377914E+00
 0.3100041572680E+00
 0.2440048013027E+00
 0.1869149742259E+00
 0.1393103895883E+00
 0.1013823268572E+00
 0.7324528525085E-01
 0.5462219292009E-01
 0.4473818679721E-01
 0.4228753952501E-01
 0.4545778196841E-01
 0.5205420760315E-01
 0.5972606268697E-01
 0.6624178190462E-01
 0.6979281646996E-01
 0.6928134611973E-01
 0.6450677403379E-01
 0.5617509665525E-01
 0.4570912460934E-01
 0.3515326932485E-01
 0.3284289734075E+00
 0.2561481452642E+00
 0.1959591855313E+00
 0.1444654364155E+00
 0.1014471580351E+00
 0.6755209474687E-01
 0.4288066562912E-01
 0.2699541084236E-01
 0.1894913228742E-01
 0.1737321469618E-01
 0.2049737829071E-01
 0.2628104227903E-01
 0.3269373498707E-01
 0.3794463390379E-01
 0.4070081788526E-01
 0.4027357589621E-01
 0.3670969943053E-01
 0.3075684054334E-01
 0.2374865708816E-01
 0.1736869621132E-01
</DataArray>
<CellData Tensors="'E_Centroid','S_Centroid'">
<DataArray type="Float64" Name="E_Centroid" NumberOfComponents="4" ComponentName0="E11" ComponentName1="E22" ComponentName2="E33" ComponentName3="E12" format="ascii">
 0.2003115747635E-02 -0.1528940216629E-01  0.0000000000000E+00 -0.4754219843631E-02
 0.3464894917428E-02 -0.1282956214417E-01  0.0000000000000E+00 -0.1338149718795E-03
 0.2946498527334E-02 -0.1198669767513E-01  0.0000000000000E+00 -0.2233102235561E-03
 0.2920001514508E-02 -0.1164776052145E-01  0.0000000000000E+00 -0.9412900806735E-04
 0.2859441340337E-02 -0.1144916489756E-01  0.0000000000000E+00 -0.5799906690093E-04
 0.2832518994650E-02 -0.1133030935208E-01  0.0000000000000E+00 -0.3655801565766E-04
 0.2812233004233E-02 -0.1125094980346E-01  0.0000000000000E+00 -0.2539077844342E-04
 0.2798326362756E-02 -0.1119448286803E-01  0.0000000000000E+00 -0.1897153663621E-04
 0.2787584186793E-02 -0.1115147840818E-01  0.0000000000000E+00 -0.1520478233769E-04
 0.2778969571309E-02 -0.1111689362969E-01  0.0000000000000E+00 -0.1284700081258E-04
 0.2771741285278E-02 -0.1108793740394E-01  0.0000000000000E+00 -0.1120243438454E-04
 0.2765561546992E-02 -0.1106319565250E-01  0.0000000000000E+00 -0.9832622766937E-05
 0.2760292493693E-02 -0.1104212121864E-01  0.0000000000000E+00 -0.8445649024247E-05
 0.2755948233052E-02 -0.1102476421919E-01  0.0000000000000E+00 -0.6828193002434E-05
 0.2752653180446E-02 -0.1101162229869E-01  0.0000000000000E+00 -0.4807330370032E-05
 0.2750624873167E-02 -0.1100356704935E-01  0.0000000000000E+00 -0.2224578928955E-05
 0.2750168775888E-02 -0.1100182221965E-01  0.0000000000000E+00  0.1082577107347E-05
 0.2751683750172E-02 -0.1100799214313E-01  0.0000000000000E+00  0.5305660464805E-05
 0.2755680735324E-02 -0.1102412721984E-01  0.0000000000000E+00  0.1068747829042E-04
 0.2762819320457E-02 -0.1105288604907E-01  0.0000000000000E+00  0.1757210652253E-04
 0.2773977209490E-02 -0.1109781625190E-01  0.0000000000000E+00  0.2650555406014E-04
 0.2790416015364E-02 -0.1116400610921E-01  0.0000000000000E+00  0.3846614055231E-04
 0.2813844167562E-02 -0.1125987582334E-01  0.0000000000000E+00  0.5687369035462E-04
 0.2845982901949E-02 -0.1139807963331E-01  0.0000000000000E+00  0.9552733395796E-04
 0.2887131352785E-02 -0.1158149636989E-01  0.0000000000000E+00  0.1790628263310E-03
 0.2935213976306E-02 -0.1179730844193E-01  0.0000000000000E+00  0.3259106528814E-03
 0.2987181014533E-02 -0.1203156528171E-01  0.0000000000000E+00  0.5385151264024E-03
 0.3040975732692E-02 -0.1227778058659E-01  0.0000000000000E+00  0.8092779655652E-03
 0.3096231384293E-02 -0.1253819543577E-01  0.0000000000000E+00  0.1128999456193E-02
 0.3153999236087E-02 -0.1282163215054E-01  0.0000000000000E+00  0.1492766655817E-02
 0.3215979721830E-02 -0.1314033727867E-01  0.0000000000000E+00  0.1902617948890E-02
 0.3283670923559E-02 -0.1350683552939E-01  0.0000000000000E+00  0.2367479136133E-02
 0.3359024869663E-02 -0.1392939645636E-01  0.0000000000000E+00  0.2894013928357E-02
 0.3446376071468E-02 -0.1442430178805E-01  0.0000000000000E+00  0.3477949624427E-02
 0.3557774314757E-02 -0.1503978926262E-01  0.0000000000000E+00  0.4126679079132E-02
 0.3694792778148E-02 -0.1584648157608E-01  0.0000000000000E+00  0.4884803226258E-02
 0.3922570144593E-02 -0.1695561713071E-01  0.0000000000000E+00  0.5846741351520E-02
 0.4014205423242E-02 -0.1847238133506E-01  0.0000000000000E+00  0.7230303863813E-02
 0.5248712152911E-02 -0.2106213768993E-01  0.0000000000000E+00  0.9147031686285E-02
 0.5962013995015E-03 -0.2383331460966E-01  0.0000000000000E+00  0.1641810196448E-01
 0.2386219548930E-01 -0.3047526868495E-01  0.0000000000000E+00  0.1521016564297E-01
 0.1401276431084E-02 -0.1331607958191E-01  0.0000000000000E+00 -0.5063004546519E-02
 0.2960528151553E-02 -0.1294697858895E-01  0.0000000000000E+00 -0.2085953776067E-02
 0.3000632728697E-02 -0.1202716947824E-01  0.0000000000000E+00 -0.6263661882254E-03
 0.2872578769010E-02 -0.1161310677542E-01  0.0000000000000E+00 -0.3851986822782E-03
 0.2836340319933E-02 -0.1137730458809E-01  0.0000000000000E+00 -0.2175709873453E-03
 0.2800964044904E-02 -0.1122792270924E-01  0.0000000000000E+00 -0.1417836046411E-03
 0.2778804528376E-02 -0.1112769290176E-01  0.0000000000000E+00 -0.9781952528549E-04
 0.2761951282135E-02 -0.1105586131610E-01  0.0000000000000E+00 -0.7242865431956E-04
 0.2749092618163E-02 -0.1100158978421E-01  0.0000000000000E+00 -0.5681643124952E-04
 0.2738717775821E-02 -0.1095864290958E-01  0.0000000000000E+00 -0.4671110277998E-04
 0.2730109599516E-02 -0.1092347405982E-01  0.0000000000000E+00 -0.3955823240365E-04
 0.2722834273844E-02 -0.1089412477276E-01  0.0000000000000E+00 -0.3379675314968E-04
 0.2716695548249E-02 -0.1086965387890E-01  0.0000000000000E+00 -0.2838896538548E-04
 0.2711650449979E-02 -0.1084981317411E-01  0.0000000000000E+00 -0.2259152288273E-04
 0.2707774171519E-02 -0.1083486606844E-01  0.0000000000000E+00 -0.1581688516503E-04
 0.2705238403426E-02 -0.1082549163773E-01  0.0000000000000E+00 -0.7545014294924E-05
 0.2704302813207E-02 -0.1082274752222E-01  0.0000000000000E+00  0.2745758559020E-05
 0.2705316536161E-02 -0.1082807999180E-01  0.0000000000000E+00  0.1564380841573E-04
 0.2708730099330E-02 -0.1084338340710E-01  0.0000000000000E+00  0.3188883982702E-04
 0.2715115751167E-02 -0.1087112819668E-01  0.0000000000000E+00  0.5251382971078E-04
 0.2725208057172E-02 -0.1091460328535E-01  0.0000000000000E+00  0.7911570849234E-04
 0.2739882873488E-02 -0.1097839043746E-01  0.0000000000000E+00  0.1147258020716E-03
 0.2759285405609E-02 -0.1106860356017E-01  0.0000000000000E+00  0.1662189541870E-03
 0.2782423869459E-02 -0.1119074189370E-01  0.0000000000000E+00  0.2448508600296E-03
 0.2808807417455E-02 -0.1134491313522E-01  0.0000000000000E+00  0.3633658989135E-03
 0.2838856450647E-02 -0.1152465384604E-01  0.0000000000000E+00  0.5322337497413E-03
 0.2872442660683E-02 -0.1172188457132E-01  0.0000000000000E+00  0.7561520651998E-03
 0.2908668497230E-02 -0.1193201591854E-01  0.0000000000000E+00  0.1034148677877E-02
 0.2946559555798E-02 -0.1215556678125E-01  0.0000000000000E+00  0.1363448598332E-02
 0.2985394402335E-02 -0.1239722179228E-01  0.0000000000000E+00  0.1743126406382E-02
 0.3024515386930E-02 -0.1266377251404E-01  0.0000000000000E+00  0.2176058124534E-02
 0.3063904299837E-02 -0.1296203985786E-01  0.0000000000000E+00  0.2667491799576E-02
 0.3105481590047E-02 -0.1329933297026E-01  0.0000000000000E+00  0.3223189086914E-02
 0.3152188223232E-02 -0.1368871373533E-01  0.0000000000000E+00  0.3853679836776E-02
 0.3201001320957E-02 -0.1415273399548E-01  0.0000000000000E+00  0.4584041168028E-02
 0.3256904681754E-02 -0.1472276952291E-01  0.0000000000000E+00  0.5457933474857E-02
 0.3260057458313E-02 -0.1541702174455E-01  0.0000000000000E+00  0.6601729686517E-02
 0.3351670148641E-02 -0.1626774351937E-01  0.0000000000000E+00  0.7984520131355E-02
 0.2690811663790E-02 -0.1710381481449E-01  0.0000000000000E+00  0.1109176196362E-01
 0.1037726045390E-02 -0.1558916437917E-01  0.0000000000000E+00  0.1055568034093E-01
 0.1846740526175E-01 -0.1786611793054E-01  0.0000000000000E+00  0.3249788817169E-02
 0.1026750439161E-02 -0.1221484725241E-01  0.0000000000000E+00 -0.4750555833404E-02
 0.2462241334670E-02 -0.1244139465349E-01  0.0000000000000E+00 -0.2935475670306E-02
 0.2853415488063E-02 -0.1195542744102E-01  0.0000000000000E+00 -0.1277165183956E-02
 0.2819400759972E-02 -0.1152438388904E-01  0.0000000000000E+00 -0.6693864335403E-03
 0.2786464868100E-02 -0.1127592363523E-01  0.0000000000000E+00 -0.4119255604081E-03
 0.2760600585041E-02 -0.1110969830687E-01  0.0000000000000E+00 -0.2661472010259E-03
 0.2738691786360E-02 -0.1099480620126E-01  0.0000000000000E+00 -0.1858349845929E-03
 0.2721787455368E-02 -0.1091125006706E-01  0.0000000000000E+00 -0.1373112834113E-03
 0.2708046648786E-02 -0.1084774915636E-01  0.0000000000000E+00 -0.1070629568863E-03
 0.2696718181710E-02 -0.1079763089137E-01  0.0000000000000E+00 -0.8705996993497E-04
 0.2687153314873E-02 -0.1075691419254E-01  0.0000000000000E+00 -0.7278265362737E-04
 0.2678990946599E-02 -0.1072328656524E-01  0.0000000000000E+00 -0.6139401798899E-04
 0.2672035865258E-02 -0.1069551626355E-01  0.0000000000000E+00 -0.5102256532799E-04
 0.2666229788584E-02 -0.1067311555452E-01  0.0000000000000E+00 -0.4033142162627E-04
 0.2661618654680E-02 -0.1065614409116E-01  0.0000000000000E+00 -0.2827668707431E-04
 0.2658335805573E-02 -0.1064509970558E-01  0.0000000000000E+00 -0.1394921890954E-04
 0.2656592037955E-02 -0.1064086781187E-01  0.0000000000000E+00  0.3544311461878E-05
 0.2656672382472E-02 -0.1064471667960E-01  0.0000000000000E+00  0.2519164162296E-04
 0.2658935976214E-02 -0.1065833580348E-01  0.0000000000000E+00  0.5221323518673E-04
 0.2663811467793E-02 -0.1068392282905E-01  0.0000000000000E+00  0.8627672178729E-04
 0.2671769184298E-02 -0.1072433533964E-01  0.0000000000000E+00  0.1299213139099E-03
 0.2682998064785E-02 -0.1078317786661E-01  0.0000000000000E+00  0.1876009156704E-03
 0.2696483048701E-02 -0.1086407936587E-01  0.0000000000000E+00  0.2665779570936E-03
 0.2710258910030E-02 -0.1096900291135E-01  0.0000000000000E+00  0.3749773711942E-03
 0.2723736283058E-02 -0.1109707445281E-01  0.0000000000000E+00  0.5196485763995E-03
 0.2738294716330E-02 -0.1124474704110E-01  0.0000000000000E+00  0.7067640060462E-03
 0.2755179308037E-02 -0.1140740251208E-01  0.0000000000000E+00  0.9413406470581E-03
 0.2774215930697E-02 -0.1158170248055E-01  0.0000000000000E+00  0.1225987688540E-02
 0.2794094570460E-02 -0.1176686248847E-01  0.0000000000000E+00  0.1561803353899E-02
 0.2812909969332E-02 -0.1196434137650E-01  0.0000000000000E+00  0.1950193804432E-02
 0.2828598373696E-02 -0.1217661409456E-01  0.0000000000000E+00  0.2393776265458E-02
 0.2839981943880E-02 -0.1240634670062E-01  0.0000000000000E+00  0.2895947294899E-02
 0.2847534522155E-02 -0.1265711033687E-01  0.0000000000000E+00  0.3462838616226E-02
 0.2849281163500E-02 -0.1293328286966E-01  0.0000000000000E+00  0.4108963221479E-02
 0.2838338420179E-02 -0.1323710864813E-01  0.0000000000000E+00  0.4856314082562E-02
 0.2791059612659E-02 -0.1356074517248E-01  0.0000000000000E+00  0.5747095668976E-02
 0.2686846789842E-02 -0.1386152087269E-01  0.0000000000000E+00  0.6787493082762E-02
 0.2438990638388E-02 -0.1404937405521E-01  0.0000000000000E+00  0.8143571881321E-02
 0.1473307165898E-02 -0.1332702987391E-01  0.0000000000000E+00  0.9292574446701E-02
 0.2521322350529E-02 -0.1155017391623E-01  0.0000000000000E+00  0.4667350711042E-02
 0.1659174866805E-01 -0.1368133983593E-01  0.0000000000000E+00 -0.2800265929681E-03
 0.7918320526454E-03 -0.1147373706695E-01  0.0000000000000E+00 -0.4354009179503E-02
 0.2058807041998E-02 -0.1188385285276E-01  0.0000000000000E+00 -0.3246180399703E-02
 0.2624761729339E-02 -0.1171673679393E-01  0.0000000000000E+00 -0.1786198495634E-02
 0.2721752809671E-02 -0.1138650439403E-01  0.0000000000000E+00 -0.9845700097177E-03
 0.2720462589622E-02 -0.1114290671572E-01  0.0000000000000E+00 -0.6107283692970E-03
 0.2707619798905E-02 -0.1097373898566E-01  0.0000000000000E+00 -0.4050012430878E-03
 0.2691827210988E-02 -0.1085098673809E-01  0.0000000000000E+00 -0.2845540768786E-03
 0.2677041473296E-02 -0.1075961475847E-01  0.0000000000000E+00 -0.2112878764841E-03
 0.2664005520698E-02 -0.1068918849499E-01  0.0000000000000E+00 -0.1644566073107E-03
 0.2652586969440E-02 -0.1063326953167E-01  0.0000000000000E+00 -0.1330333210432E-03
 0.2642585229804E-02 -0.1058780765168E-01  0.0000000000000E+00 -0.1103845131198E-03
 0.2633806950283E-02 -0.1055033466544E-01  0.0000000000000E+00 -0.9238768946815E-04
 0.2626141864624E-02 -0.1051944319326E-01  0.0000000000000E+00 -0.7629191669237E-04
 0.2619557527730E-02 -0.1049447162975E-01  0.0000000000000E+00 -0.6013675467734E-04
 0.2614094778582E-02 -0.1047531170210E-01  0.0000000000000E+00 -0.4239975549328E-04
 0.2609858692858E-02 -0.1046229512160E-01  0.0000000000000E+00 -0.2177127021757E-04
 0.2607010763675E-02 -0.1045613385226E-01  0.0000000000000E+00  0.3013553407788E-05
 0.2605760624631E-02 -0.1045790046304E-01  0.0000000000000E+00  0.3332664866729E-04
 0.2606351260558E-02 -0.1046903999646E-01  0.0000000000000E+00  0.7082710285522E-04
 0.2609023665565E-02 -0.1049140621274E-01  0.0000000000000E+00  0.1177246741260E-03
 0.2613890090359E-02 -0.1052728168287E-01  0.0000000000000E+00  0.1772632059007E-03
 0.2620479751455E-02 -0.1057912658121E-01  0.0000000000000E+00  0.2544242212971E-03
 0.2627104002212E-02 -0.1064868243046E-01  0.0000000000000E+00  0.3556486103359E-03
 0.2631561369256E-02 -0.1073606908111E-01  0.0000000000000E+00  0.4865187007857E-03
 0.2633350905242E-02 -0.1084003064807E-01  0.0000000000000E+00  0.6507262829709E-03
 0.2634139554126E-02 -0.1095843752945E-01  0.0000000000000E+00  0.8520693867727E-03
 0.2635680642497E-02 -0.1108851277759E-01  0.0000000000000E+00  0.1095224547145E-02
 0.2638149723797E-02 -0.1122758775963E-01  0.0000000000000E+00  0.1384386050958E-02
 0.2640045766303E-02 -0.1137382120041E-01  0.0000000000000E+00  0.1722628438292E-02
 0.2638773446570E-02 -0.1152615621598E-01  0.0000000000000E+00  0.2112279911248E-02
 0.2631418686491E-02 -0.1168372429729E-01  0.0000000000000E+00  0.2555200915820E-02
 0.2615810282249E-02 -0.1184550272191E-01  0.0000000000000E+00  0.3053220609926E-02
 0.2590196038710E-02 -0.1201005760086E-01  0.0000000000000E+00  0.3611066442656E-02
 0.2549728503549E-02 -0.1217258728297E-01  0.0000000000000E+00  0.4238514652265E-02
 0.2480871446872E-02 -0.1231845875044E-01  0.0000000000000E+00  0.4948242763289E-02
 0.2359756202978E-02 -0.1241013160011E-01  0.0000000000000E+00  0.5738039934614E-02
 0.2155582793608E-02 -0.1237224709351E-01  0.0000000000000E+00  0.6575915480444E-02
 0.1749204406463E-02 -0.1197125353477E-01  0.0000000000000E+00  0.7313015616543E-02
 0.1290651964372E-02 -0.1071275500558E-01  0.0000000000000E+00  0.6435683707243E-02
 0.4040318067454E-02 -0.9691948273761E-02  0.0000000000000E+00  0.9244232816792E-03
 0.1528234923304E-01 -0.1182719871160E-01  0.0000000000000E+00 -0.1142338077440E-02
 0.6370222399923E-03 -0.1091667994853E-01  0.0000000000000E+00 -0.3974552190330E-02
 0.1744625067717E-02 -0.1137219193182E-01  0.0000000000000E+00 -0.3299834231673E-02
 0.2380889285332E-02 -0.1139869525968E-01  0.0000000000000E+00 -0.2116565077244E-02
 0.2588521890724E-02 -0.1119154223483E-01  0.0000000000000E+00 -0.1272649607493E-02
 0.2636572880676E-02 -0.1098143200314E-01  0.0000000000000E+00 -0.8095467704594E-03
 0.2643427218591E-02 -0.1081916787202E-01  0.0000000000000E+00 -0.5480008125301E-03
 0.2637538895395E-02 -0.1069557883473E-01  0.0000000000000E+00 -0.3902165986667E-03
 0.2627486017466E-02 -0.1060028463022E-01  0.0000000000000E+00 -0.2916039939187E-03
 0.2616622805352E-02 -0.1052534692446E-01  0.0000000000000E+00 -0.2274426787254E-03
 0.2606060974651E-02 -0.1046510299076E-01  0.0000000000000E+00 -0.1836567374616E-03
 0.2596181877820E-02 -0.1041579117207E-01  0.0000000000000E+00 -0.1517953382057E-03
 0.2587106588105E-02 -0.1037498422649E-01  0.0000000000000E+00 -0.1264760897223E-03
 0.2578877899500E-02 -0.1034121612739E-01  0.0000000000000E+00 -0.1040896971980E-03
 0.2571534851547E-02 -0.1031372028372E-01  0.0000000000000E+00 -0.8205109943110E-04
 0.2565137966395E-02 -0.1029225948314E-01  0.0000000000000E+00 -0.5835874835339E-04
 0.2559776413665E-02 -0.1027701787083E-01  0.0000000000000E+00 -0.3130636271792E-04
 0.2555564591695E-02 -0.1026853662710E-01  0.0000000000000E+00  0.7287480212337E-06
 0.2552629724215E-02 -0.1026768027221E-01  0.0000000000000E+00  0.3947193502662E-04
 0.2551082535604E-02 -0.1027562035498E-01  0.0000000000000E+00  0.8695835447747E-04
 0.2550946689507E-02 -0.1029381490588E-01  0.0000000000000E+00  0.1458145760335E-03
 0.2551961671830E-02 -0.1032389942841E-01  0.0000000000000E+00  0.2196660043132E-03
 0.2553147058472E-02 -0.1036727552999E-01  0.0000000000000E+00  0.3133953885344E-03
 0.2552493443543E-02 -0.1042436522532E-01  0.0000000000000E+00  0.4322743461190E-03
 0.2547865369814E-02 -0.1049428061664E-01  0.0000000000000E+00  0.5799985345732E-03
 0.2538870034424E-02 -0.1057558248402E-01  0.0000000000000E+00  0.7584686813292E-03
 0.2527150220942E-02 -0.1066679169270E-01  0.0000000000000E+00  0.9700813356175E-03
 0.2514517232979E-02 -0.1076600307970E-01  0.0000000000000E+00  0.1218900712357E-02
 0.2501249679928E-02 -0.1087077584414E-01  0.0000000000000E+00  0.1509468915096E-02
 0.2485755186177E-02 -0.1097837446175E-01  0.0000000000000E+00  0.1845449274524E-02
 0.2465105661101E-02 -0.1108580009706E-01  0.0000000000000E+00  0.2229048028334E-02
 0.2435926033699E-02 -0.1118953949467E-01  0.0000000000000E+00  0.2660874737112E-02
 0.2395188365299E-02 -0.1128522458138E-01  0.0000000000000E+00  0.3140632027363E-02
 0.2339582326292E-02 -0.1136647645352E-01  0.0000000000000E+00  0.3668940273058E-02
 0.2262162450862E-02 -0.1142068662608E-01  0.0000000000000E+00  0.4246893302356E-02
 0.2148613282304E-02 -0.1142061439771E-01  0.0000000000000E+00  0.4866161880156E-02
 0.1979453849871E-02 -0.1131420815469E-01  0.0000000000000E+00  0.5485227765556E-02
 0.1728435412179E-02 -0.1100036041468E-01  0.0000000000000E+00  0.5987071283038E-02
 0.1402770430648E-02 -0.1026745352109E-01  0.0000000000000E+00  0.5911441002291E-02
 0.1651309228126E-02 -0.9077356647793E-02  0.0000000000000E+00  0.3784925608990E-02
 0.5219331031338E-02 -0.8793829549913E-02  0.0000000000000E+00 -0.1129584289378E-02
 0.1423298374789E-01 -0.1075373463441E-01  0.0000000000000E+00 -0.1265136210817E-02
 0.5296551755736E-03 -0.1046626287453E-01  0.0000000000000E+00 -0.3630725590494E-02
 0.1500103356350E-02 -0.1091663742848E-01  0.0000000000000E+00 -0.3229891943432E-02
 0.2150166899566E-02 -0.1105400086013E-01  0.0000000000000E+00 -0.2304795759895E-02
 0.2436455164276E-02 -0.1095401278152E-01  0.0000000000000E+00 -0.1504741485042E-02
 0.2536827423708E-02 -0.1079272706534E-01  0.0000000000000E+00 -0.9956303964020E-03
 0.2568993665483E-02 -0.1064710044192E-01  0.0000000000000E+00 -0.6889902782391E-03
 0.2576120288948E-02 -0.1052838777671E-01  0.0000000000000E+00 -0.4982801914502E-03
 0.2573014245520E-02 -0.1043296502125E-01  0.0000000000000E+00 -0.3757521754675E-03
 0.2565759606863E-02 -0.1035587088829E-01  0.0000000000000E+00 -0.2943659414097E-03
 0.2556969804510E-02 -0.1029281025296E-01  0.0000000000000E+00 -0.2379151767326E-03
 0.2547792584311E-02 -0.1024059123638E-01  0.0000000000000E+00 -0.1963906838093E-03
 0.2538762678474E-02 -0.1019701402579E-01  0.0000000000000E+00 -0.1633100647458E-03
 0.2530145755700E-02 -0.1016066469939E-01  0.0000000000000E+00 -0.1342647424505E-03
 0.2522093369100E-02 -0.1013073991882E-01  0.0000000000000E+00 -0.1060776047718E-03
 0.2514711076218E-02 -0.1010691366626E-01  0.0000000000000E+00 -0.7628708593022E-04
 0.2508085641402E-02 -0.1008924352681E-01  0.0000000000000E+00 -0.4280911017457E-04
 0.2502289264515E-02 -0.1007810637503E-01  0.0000000000000E+00 -0.3689411637170E-05
 0.2497364823130E-02 -0.1007415279294E-01  0.0000000000000E+00  0.4310707073157E-04
 0.2493283555319E-02 -0.1007826362876E-01  0.0000000000000E+00  0.9991494117267E-04
 0.2489846030009E-02 -0.1009147518384E-01  0.0000000000000E+00  0.1696284852293E-03
 0.2486460856074E-02 -0.1011478257255E-01  0.0000000000000E+00  0.2559613308210E-03
 0.2481803404459E-02 -0.1014870511959E-01  0.0000000000000E+00  0.3633491780851E-03
 0.2473765255630E-02 -0.1019276376289E-01  0.0000000000000E+00  0.4958969708078E-03
 0.2460386499799E-02 -0.1024548954397E-01  0.0000000000000E+00  0.6559264030532E-03
 0.2441354581459E-02 -0.1030531241663E-01  0.0000000000000E+00  0.8442506171283E-03
 0.2418149335754E-02 -0.1037098357802E-01  0.0000000000000E+00  0.1062336600506E-02
 0.2392428196249E-02 -0.1044091020633E-01  0.0000000000000E+00  0.1313486064591E-02
 0.2364445723088E-02 -0.1051259611641E-01  0.0000000000000E+00  0.1601819394827E-02
 0.2332603012298E-02 -0.1058254693684E-01  0.0000000000000E+00  0.1930625612603E-02
 0.2293908429690E-02 -0.1064627968223E-01  0.0000000000000E+00  0.2301213143365E-02
 0.2244826214819E-02 -0.1069819619041E-01  0.0000000000000E+00  0.2712414275377E-02
 0.2181888119894E-02 -0.1073109394035E-01  0.0000000000000E+00  0.3160859686658E-02
 0.2101058487131E-02 -0.1073454181664E-01  0.0000000000000E+00  0.3641279994250E-02
 0.1995366063565E-02 -0.1069025829634E-01  0.0000000000000E+00  0.4142690124387E-02
 0.1853954652663E-02 -0.1056462238368E-01  0.0000000000000E+00  0.4633676357853E-02
 0.1667039324802E-02 -0.1030062964498E-01  0.0000000000000E+00  0.5032911239608E-02
 0.1443945527805E-02 -0.9803493624106E-02  0.0000000000000E+00  0.5131377102234E-02
 0.1345698605262E-02 -0.8974783804713E-02  0.0000000000000E+00  0.4354639854670E-02
 0.2214531922697E-02 -0.8081048961422E-02  0.0000000000000E+00  0.1707017697717E-02
 0.6044329735665E-02 -0.8296247777872E-02  0.0000000000000E+00 -0.2174795326385E-02
 0.1335319403776E-01 -0.1001298037137E-01  0.0000000000000E+00 -0.1205260107905E-02
 0.4517111621155E-03 -0.1008298377738E-01  0.0000000000000E+00 -0.3322536137890E-02
 0.1307578802009E-02 -0.1050989374724E-01  0.0000000000000E+00 -0.3101274230175E-02
 0.1942472015804E-02 -0.1070784792185E-01  0.0000000000000E+00 -0.2392323801022E-02
 0.2278795768303E-02 -0.1069059921141E-01  0.0000000000000E+00 -0.1675901276136E-02
 0.2425897720030E-02 -0.1058108665277E-01  0.0000000000000E+00 -0.1158626007121E-02
 0.2485747936517E-02 -0.1045900150621E-01  0.0000000000000E+00 -0.8224521324190E-03
 0.2508220833744E-02 -0.1034990806852E-01  0.0000000000000E+00 -0.6049659045969E-03
 0.2513801506575E-02 -0.1025764889959E-01  0.0000000000000E+00 -0.4612532594944E-03
 0.2511415468228E-02 -0.1018061601110E-01  0.0000000000000E+00 -0.3636407723275E-03
 0.2505249037720E-02 -0.1011620000006E-01  0.0000000000000E+00 -0.2947747557884E-03
 0.2497333682673E-02 -0.1006202382700E-01  0.0000000000000E+00 -0.2435223844638E-03
 0.2488697542751E-02 -0.1001626653827E-01  0.0000000000000E+00 -0.2025076616666E-03
 0.2479884284937E-02 -0.9977666930981E-02  0.0000000000000E+00 -0.1666317912690E-03
 0.2471195033236E-02 -0.9945448428632E-02  0.0000000000000E+00 -0.1321839068975E-03
 0.2462803875007E-02 -0.9919235644338E-02  0.0000000000000E+00 -0.9628062136385E-04
 0.2454809312527E-02 -0.9898982073769E-02  0.0000000000000E+00 -0.5649228257257E-04
 0.2447248703954E-02 -0.9884910370401E-02  0.0000000000000E+00 -0.1057028632850E-04
 0.2440083683761E-02 -0.9877458062851E-02  0.0000000000000E+00  0.4377700202110E-04
 0.2433148752846E-02 -0.9877210647040E-02  0.0000000000000E+00  0.1090981863022E-03
 0.2426037874849E-02 -0.9884785041050E-02  0.0000000000000E+00  0.1884075243012E-03
 0.2417897032239E-02 -0.9900592938056E-02  0.0000000000000E+00  0.2852878144761E-03
 0.2407198498113E-02 -0.9924455527882E-02  0.0000000000000E+00  0.4035693393151E-03
 0.2391863989775E-02 -0.9955279537702E-02  0.0000000000000E+00  0.5463135119812E-03
 0.2370135518175E-02 -0.9991238989046E-02  0.0000000000000E+00  0.7148270597860E-03
 0.2341749097436E-02 -0.1003063714981E-01  0.0000000000000E+00  0.9091944323381E-03
 0.2307974007498E-02 -0.1007222405252E-01  0.0000000000000E+00  0.1130163211201E-02
 0.2270238843679E-02 -0.1011441153887E-01  0.0000000000000E+00  0.1380166697245E-02
 0.2228735336044E-02 -0.1015449842713E-01  0.0000000000000E+00  0.1662425080498E-02
 0.2181945399179E-02 -0.1018836617353E-01  0.0000000000000E+00  0.1979209732506E-02
 0.2127028441074E-02 -0.1021043048549E-01  0.0000000000000E+00  0.2330366332982E-02
 0.2060597561657E-02 -0.1021352717134E-01  0.0000000000000E+00  0.2712435650141E-02
 0.1979270462754E-02 -0.1018832655012E-01  0.0000000000000E+00  0.3118218515434E-02
 0.1879365363071E-02 -0.1012161806721E-01  0.0000000000000E+00  0.3535387317418E-02
 0.1756024448790E-02 -0.9992236626985E-02  0.0000000000000E+00  0.3939915647308E-02
 0.1605036522736E-02 -0.9765561136575E-02  0.0000000000000E+00  0.4278703833995E-02
 0.1433491649901E-02 -0.9389965624729E-02  0.0000000000000E+00  0.4434438189976E-02
 0.1301208806239E-02 -0.8804592122270E-02  0.0000000000000E+00  0.4144826498866E-02
 0.1480265277371E-02 -0.8030522570440E-02  0.0000000000000E+00  0.2889025299017E-02
 0.2801484276174E-02 -0.7464006314159E-02  0.0000000000000E+00  0.1949400137118E-03
 0.6586892752427E-02 -0.7966734812081E-02  0.0000000000000E+00 -0.2664948450171E-02
 0.1260342285961E-01 -0.9442063659553E-02  0.0000000000000E+00 -0.1124770811698E-02
 0.3928667530277E-03 -0.9744604891155E-02  0.0000000000000E+00 -0.3045933690351E-02
 0.1153612710895E-02 -0.1014246656470E-01  0.0000000000000E+00 -0.2946590411823E-02
 0.1759503533883E-02 -0.1037108976799E-01  0.0000000000000E+00 -0.2411700373082E-02
 0.2123962420269E-02 -0.1041400480242E-01  0.0000000000000E+00 -0.1792140090626E-02
 0.2308798312608E-02 -0.1035223269027E-01  0.0000000000000E+00 -0.1293522303320E-02
 0.2395686476962E-02 -0.1025696369456E-01  0.0000000000000E+00 -0.9439199453199E-03
 0.2434729254006E-02 -0.1016101740944E-01  0.0000000000000E+00 -0.7071663186686E-03
 0.2450235447230E-02 -0.1007462523564E-01  0.0000000000000E+00 -0.5458975556030E-03
 0.2453726308586E-02 -0.9999615302754E-02  0.0000000000000E+00 -0.4337732380652E-03
 0.2450925993288E-02 -0.9935205292136E-02  0.0000000000000E+00 -0.3532363090892E-03
 0.2444786895086E-02 -0.9879990142388E-02  0.0000000000000E+00 -0.2925396217437E-03
 0.2436880574441E-02 -0.9832646326707E-02  0.0000000000000E+00 -0.2436703660644E-03
 0.2428068522953E-02 -0.9792148172167E-02  0.0000000000000E+00 -0.2009804623565E-03
 0.2418831191516E-02 -0.9757802266578E-02  0.0000000000000E+00 -0.1603072974420E-03
 0.2409431946060E-02 -0.9729220730554E-02  0.0000000000000E+00 -0.1183996511102E-03
 0.2399994979895E-02 -0.9706275998078E-02  0.0000000000000E+00 -0.7252620093029E-04
 0.2390532261529E-02 -0.9689049770102E-02  0.0000000000000E+00 -0.2018993042238E-04
 0.2380932048036E-02 -0.9677773934861E-02  0.0000000000000E+00  0.4109809218816E-04
 0.2370904282604E-02 -0.9672746454892E-02  0.0000000000000E+00  0.1140135852766E-03
 0.2359867922167E-02 -0.9674190193739E-02  0.0000000000000E+00  0.2015625093557E-03
 0.2346780340847E-02 -0.9682013308373E-02  0.0000000000000E+00  0.3070527126174E-03
 0.2330018980825E-02 -0.9695500143530E-02  0.0000000000000E+00  0.4336617809224E-03
 0.2307606595574E-02 -0.9713135949772E-02  0.0000000000000E+00  0.5835542174413E-03
 0.2277981239002E-02 -0.9732860006380E-02  0.0000000000000E+00  0.7572594006860E-03
 0.2240906778246E-02 -0.9752843853958E-02  0.0000000000000E+00  0.9543075342510E-03
 0.2197445525508E-02 -0.9771716950307E-02  0.0000000000000E+00  0.1174803785720E-02
 0.2148800377862E-02 -0.9787744264489E-02  0.0000000000000E+00  0.1420233409850E-02
 0.2095120666057E-02 -0.9797968887705E-02  0.0000000000000E+00  0.1692625918175E-02
 0.2035063431166E-02 -0.9797793155724E-02  0.0000000000000E+00  0.1992827280134E-02
 0.1966132239369E-02 -0.9780874408957E-02  0.0000000000000E+00  0.2318828292164E-02
 0.1885408097209E-02 -0.9739003761283E-02  0.0000000000000E+00  0.2664499161851E-02
 0.1790177075952E-02 -0.9661538463161E-02  0.0000000000000E+00  0.3018364361307E-02
 0.1678217799817E-02 -0.9533960472164E-02  0.0000000000000E+00  0.3360743758532E-02
 0.1548554046793E-02 -0.9334939524115E-02  0.0000000000000E+00  0.3655482236053E-02
 0.1406233926468E-02 -0.9033490095581E-02  0.0000000000000E+00  0.3831447022512E-02
 0.1279775694753E-02 -0.8592293664374E-02  0.0000000000000E+00  0.3747752627475E-02
 0.1276025122379E-02 -0.7994956288807E-02  0.0000000000000E+00  0.3138362474855E-02
 0.1720772282778E-02 -0.7348999102392E-02  0.0000000000000E+00  0.1620662731960E-02
 0.3332560745790E-02 -0.7063475973353E-02  0.0000000000000E+00 -0.8641797700907E-03
 0.6923679297427E-02 -0.7709767049008E-02  0.0000000000000E+00 -0.2862295708366E-02
 0.1195617178033E-01 -0.8972492470442E-02  0.0000000000000E+00 -0.1063000334581E-02
 0.3469492946866E-03 -0.9437687882786E-02  0.0000000000000E+00 -0.2796473773189E-02
 0.1028441794140E-02 -0.9806082460438E-02  0.0000000000000E+00 -0.2782614233533E-02
 0.1599648102939E-02 -0.1004766150545E-01  0.0000000000000E+00 -0.2386091645896E-02
 0.1976639755813E-02 -0.1013263844224E-01  0.0000000000000E+00 -0.1862938855725E-02
 0.2189752869882E-02 -0.1011165973528E-01  0.0000000000000E+00 -0.1399600596774E-02
 0.2301023971941E-02 -0.1004351636344E-01  0.0000000000000E+00 -0.1050537156273E-02
 0.2356719106529E-02 -0.9962868847755E-02  0.0000000000000E+00 -0.8024444275893E-03
 0.2382849915908E-02 -0.9884405852794E-02  0.0000000000000E+00 -0.6278272514967E-03
 0.2392942697342E-02 -0.9813059758828E-02  0.0000000000000E+00 -0.5034201349933E-03
 0.2394108848814E-02 -0.9749869293977E-02  0.0000000000000E+00 -0.4123653406037E-03
 0.2390193126684E-02 -0.9694470938622E-02  0.0000000000000E+00 -0.3428121487178E-03
 0.2383325295844E-02 -0.9646116607225E-02  0.0000000000000E+00 -0.2863965397632E-03
 0.2374707673682E-02 -0.9604079076077E-02  0.0000000000000E+00 -0.2370840695631E-03
 0.2365021075868E-02 -0.9567794785874E-02  0.0000000000000E+00 -0.1903597169962E-03
 0.2354635075823E-02 -0.9536896363537E-02  0.0000000000000E+00 -0.1426712376314E-03
 0.2343712692190E-02 -0.9511197862416E-02  0.0000000000000E+00 -0.9103879154487E-04
 0.2332251512657E-02 -0.9490655883709E-02  0.0000000000000E+00 -0.3276917539494E-04
 0.2320078415671E-02 -0.9475309990894E-02  0.0000000000000E+00  0.3476185926529E-04
 0.2306798292214E-02 -0.9465189164763E-02  0.0000000000000E+00  0.1142755029077E-03
 0.2291694357040E-02 -0.9460162460265E-02  0.0000000000000E+00  0.2086679271073E-03
 0.2273604297536E-02 -0.9459719601874E-02  0.0000000000000E+00  0.3208875300647E-03
 0.2250889448526E-02 -0.9462739707779E-02  0.0000000000000E+00  0.4534700775633E-03
 0.2221710408443E-02 -0.9467416853645E-02  0.0000000000000E+00  0.6078162655136E-03
 0.2184686625379E-02 -0.9471527319319E-02  0.0000000000000E+00  0.7838296391889E-03
 0.2139603265993E-02 -0.9473111744231E-02  0.0000000000000E+00  0.9805624180056E-03
 0.2087348635115E-02 -0.9470629878454E-02  0.0000000000000E+00  0.1197491773044E-02
 0.2028946601693E-02 -0.9462145944332E-02  0.0000000000000E+00  0.1435100120145E-02
 0.1964560823006E-02 -0.9444464994761E-02  0.0000000000000E+00  0.1694064261338E-02
 0.1893125266189E-02 -0.9412667877587E-02  0.0000000000000E+00  0.1973571175416E-02
 0.1812670242925E-02 -0.9359977337408E-02  0.0000000000000E+00  0.2269527344156E-02
 0.1721060448509E-02 -0.9277660002421E-02  0.0000000000000E+00  0.2572944326111E-02
 0.1616819992136E-02 -0.9154607948092E-02  0.0000000000000E+00  0.2868012068653E-02
 0.1500140453812E-02 -0.8976439617169E-02  0.0000000000000E+00  0.3128232365744E-02
 0.1375234508143E-02 -0.8723998475559E-02  0.0000000000000E+00  0.3307489430912E-02
 0.1257997392855E-02 -0.8373588528274E-02  0.0000000000000E+00  0.3322436623286E-02
 0.1198479126626E-02 -0.7907080948710E-02  0.0000000000000E+00  0.3025260141595E-02
 0.1337034793453E-02 -0.7349115603174E-02  0.0000000000000E+00  0.2184161940950E-02
 0.2006378509480E-02 -0.6854234252050E-02  0.0000000000000E+00  0.5740600265635E-03
 0.3780342836992E-02 -0.6784632084948E-02  0.0000000000000E+00 -0.1590003856318E-02
 0.7115792320204E-02 -0.7486393621911E-02  0.0000000000000E+00 -0.2910040853212E-02
 0.1139025201820E-01 -0.8571014263740E-02  0.0000000000000E+00 -0.1023575722754E-02
 0.3101120495614E-03 -0.9153656024484E-02  0.0000000000000E+00 -0.2570221516756E-02
 0.9250435724461E-03 -0.9494187839733E-02  0.0000000000000E+00 -0.2618070747141E-02
 0.1460180324905E-02 -0.9738285086927E-02  0.0000000000000E+00 -0.2331403619547E-02
 0.1839053026601E-02 -0.9851655639512E-02  0.0000000000000E+00 -0.1897856801884E-02
 0.2071893849180E-02 -0.9863911460991E-02  0.0000000000000E+00 -0.1478727822205E-02
 0.2203861412937E-02 -0.9821262126362E-02  0.0000000000000E+00 -0.1141038357328E-02
 0.2275352401695E-02 -0.9756792032632E-02  0.0000000000000E+00 -0.8890889524189E-03
 0.2312274725940E-02 -0.9687659351116E-02  0.0000000000000E+00 -0.7055615830515E-03
 0.2329401180675E-02 -0.9621267967914E-02  0.0000000000000E+00 -0.5714293030511E-03
 0.2334973558354E-02 -0.9560330367574E-02  0.0000000000000E+00 -0.4713177133682E-03
 0.2333644986612E-02 -0.9505518145583E-02  0.0000000000000E+00 -0.3937482284800E-03
 0.2328085132843E-02 -0.9456694654951E-02  0.0000000000000E+00 -0.3302936436375E-03
 0.2319842411232E-02 -0.9413472589584E-02  0.0000000000000E+00 -0.2747074621344E-03
 0.2309809707872E-02 -0.9375453906191E-02  0.0000000000000E+00 -0.2222326017961E-03
 0.2298475207948E-02 -0.9342319764954E-02  0.0000000000000E+00 -0.1690917494303E-03
 0.2286052493816E-02 -0.9313847395905E-02  0.0000000000000E+00 -0.1121163593801E-03
 0.2272536735229E-02 -0.9289886016407E-02  0.0000000000000E+00 -0.4847309190970E-04
 0.2257708547374E-02 -0.9270301045741E-02  0.0000000000000E+00  0.2453612888748E-04
 0.2241091900506E-02 -0.9254878974668E-02  0.0000000000000E+00  0.1096058410820E-03
 0.2221875519091E-02 -0.9243182927717E-02  0.0000000000000E+00  0.2094476165935E-03
 0.2198836808769E-02 -0.9234365151231E-02  0.0000000000000E+00  0.3266080647755E-03
 0.2170376694702E-02 -0.9227003957769E-02  0.0000000000000E+00  0.4630185887508E-03
 0.2134811812904E-02 -0.9219092721540E-02  0.0000000000000E+00  0.6194250864446E-03
 0.2090929830703E-02 -0.9208292322948E-02  0.0000000000000E+00  0.7951995019316E-03
 0.2038543514315E-02 -0.9192523772880E-02  0.0000000000000E+00  0.9889426803839E-03
 0.1978416502017E-02 -0.9170073147156E-02  0.0000000000000E+00  0.1199494749695E-02
 0.1911462842061E-02 -0.9138810933063E-02  0.0000000000000E+00  0.1426307268306E-02
 0.1837937137890E-02 -0.9095366541979E-02  0.0000000000000E+00  0.1668635106294E-02
 0.1757155869745E-02 -0.9034666748206E-02  0.0000000000000E+00  0.1923907208009E-02
 0.1667847419269E-02 -0.8949808900144E-02  0.0000000000000E+00  0.2185869222773E-02
 0.1568952217919E-02 -0.8832036628370E-02  0.0000000000000E+00  0.2442697143721E-02
 0.1460723455885E-02 -0.8670582054552E-02  0.0000000000000E+00  0.2674573001454E-02
 0.1346474331170E-02 -0.8452458695847E-02  0.0000000000000E+00  0.2849348536104E-02
 0.1236371253875E-02 -0.8162490644669E-02  0.0000000000000E+00  0.2913965564982E-02
 0.1157352913714E-02 -0.7786511035865E-02  0.0000000000000E+00  0.2779901898636E-02
 0.1177497267442E-02 -0.7326136844725E-02  0.0000000000000E+00  0.2307853071168E-02
 0.1454781396845E-02 -0.6836702287697E-02  0.0000000000000E+00  0.1320879191295E-02
 0.2298626054656E-02 -0.6488128020559E-02  0.0000000000000E+00 -0.2653198822142E-03
 0.4142131469482E-02 -0.6573971434089E-02  0.0000000000000E+00 -0.2080065862151E-02
 0.7207465481259E-02 -0.7280838995961E-02  0.0000000000000E+00 -0.2884275343331E-02
 0.1088912447535E-01 -0.8219196227150E-02  0.0000000000000E+00 -0.1001502775688E-02
 0.2798641255280E-03 -0.8886789381389E-02  0.0000000000000E+00 -0.2363895104385E-02
 0.8383469301881E-03 -0.9201741286950E-02  0.0000000000000E+00 -0.2457468913769E-02
 0.1338216896240E-02 -0.9442271044110E-02  0.0000000000000E+00 -0.2258411626575E-02
 0.1711935324511E-02 -0.9574016511672E-02  0.0000000000000E+00 -0.1905257133053E-02
 0.1957343028202E-02 -0.9612445489275E-02  0.0000000000000E+00 -0.1534018410158E-02
 0.2105997265761E-02 -0.9592602602731E-02  0.0000000000000E+00 -0.1215409126762E-02
 0.2191776321733E-02 -0.9544177788730E-02  0.0000000000000E+00 -0.9660982194683E-03
 0.2239188467213E-02 -0.9485153541167E-02  0.0000000000000E+00 -0.7780031405303E-03
 0.2263496544879E-02 -0.9424653237061E-02  0.0000000000000E+00 -0.6368582653103E-03
 0.2273748870613E-02 -0.9366805135252E-02  0.0000000000000E+00 -0.5293582978096E-03
 0.2275278440579E-02 -0.9313245273786E-02  0.0000000000000E+00 -0.4448083870849E-03
 0.2271248363244E-02 -0.9264446108166E-02  0.0000000000000E+00 -0.3749882883324E-03
 0.2263541581128E-02 -0.9220380226211E-02  0.0000000000000E+00 -0.3136139177181E-03
 0.2253265362365E-02 -0.9180839223560E-02  0.0000000000000E+00 -0.2558013859677E-03
 0.2241034052328E-02 -0.9145575175240E-02  0.0000000000000E+00 -0.1976295742222E-03
 0.2227121671241E-02 -0.9114348254218E-02  0.0000000000000E+00 -0.1358050255212E-03
 0.2211533239900E-02 -0.9086919092948E-02  0.0000000000000E+00 -0.6741176772795E-04
 0.2194020123597E-02 -0.9063000673679E-02  0.0000000000000E+00  0.1026365532231E-04
 0.2174051582710E-02 -0.9042168438874E-02  0.0000000000000E+00  0.9982836047281E-04
 0.2150761452500E-02 -0.9023729750638E-02  0.0000000000000E+00  0.2037575101403E-03
 0.2122915882091E-02 -0.9006572167698E-02  0.0000000000000E+00  0.3241811843248E-03
 0.2088994420712E-02 -0.8989055597989E-02  0.0000000000000E+00  0.4624731534932E-03
 0.2047478652896E-02 -0.8969038384844E-02  0.0000000000000E+00  0.6188098204730E-03
 0.1997316539475E-02 -0.8944102942528E-02  0.0000000000000E+00  0.7920898632741E-03
 0.1938364737007E-02 -0.8912072375854E-02  0.0000000000000E+00  0.9804676317724E-03
 0.1871319619606E-02 -0.8871084053513E-02  0.0000000000000E+00  0.1182135197862E-02
 0.1797064100449E-02 -0.8818858746155E-02  0.0000000000000E+00  0.1395513278746E-02
 0.1716028465169E-02 -0.8751939553553E-02  0.0000000000000E+00  0.1618436473459E-02
 0.1628015108857E-02 -0.8665270134876E-02  0.0000000000000E+00  0.1846584164233E-02
 0.1532604005404E-02 -0.8552112653664E-02  0.0000000000000E+00  0.2071603625152E-02
 0.1430057405104E-02 -0.8404147185832E-02  0.0000000000000E+00  0.2279060183450E-02
 0.1322726107025E-02 -0.8211646055498E-02  0.0000000000000E+00  0.2445772521684E-02
 0.1217469328979E-02 -0.7964003087520E-02  0.0000000000000E+00  0.2535531363388E-02
 0.1130579521166E-02 -0.7651196022512E-02  0.0000000000000E+00  0.2491784545280E-02
 0.1098938064834E-02 -0.7269296682301E-02  0.0000000000000E+00  0.2227735470045E-02
 0.1203273163767E-02 -0.6837138850962E-02  0.0000000000000E+00  0.1623759118304E-02
 0.1605300515478E-02 -0.6428963983365E-02  0.0000000000000E+00  0.5637381501529E-03
 0.2575402051084E-02 -0.6209242393553E-02  0.0000000000000E+00 -0.9267217312307E-03
 0.4425560232678E-02 -0.6401751164846E-02  0.0000000000000E+00 -0.2406424033794E-02
 0.7229509936779E-02 -0.7086735822033E-02  0.0000000000000E+00 -0.2824726790377E-02
 0.1043996665982E-01 -0.7905578969740E-02  0.0000000000000E+00 -0.9911253899365E-03
 0.2545354715678E-03 -0.8633131860211E-02  0.0000000000000E+00 -0.2174804484270E-02
 0.7646530745286E-03 -0.8924889071468E-02  0.0000000000000E+00 -0.2303057634522E-02
 0.1231098104350E-02 -0.9158384871783E-02  0.0000000000000E+00 -0.2174384446946E-02
 0.1595170859738E-02 -0.9301279264110E-02  0.0000000000000E+00 -0.1891996459330E-02
 0.1847415444251E-02 -0.9359753011572E-02  0.0000000000000E+00 -0.1568985602207E-02
 0.2008861590933E-02 -0.9359598880326E-02  0.0000000000000E+00 -0.1274479979303E-02
 0.2107044510953E-02 -0.9326376278815E-02  0.0000000000000E+00 -0.1033086380877E-02
 0.2164274671944E-02 -0.9277702179755E-02  0.0000000000000E+00 -0.8444223156438E-03
 0.2195656300413E-02 -0.9223692439628E-02  0.0000000000000E+00 -0.6989779031393E-03
 0.2210701150185E-02 -0.9169570620933E-02  0.0000000000000E+00 -0.5858711577484E-03
 0.2215263895583E-02 -0.9117817035360E-02  0.0000000000000E+00 -0.4955151186149E-03
 0.2212932567371E-02 -0.9069478533095E-02  0.0000000000000E+00 -0.4201339960304E-03
 0.2205898455008E-02 -0.9024887734977E-02  0.0000000000000E+00 -0.3535709349752E-03
 0.2195476685843E-02 -0.8984038649750E-02  0.0000000000000E+00 -0.2909295979040E-03
 0.2182410434533E-02 -0.8946770720441E-02  0.0000000000000E+00 -0.2282279402555E-03
 0.2167041838226E-02 -0.8912844519032E-02  0.0000000000000E+00 -0.1621127629512E-03
 0.2149397702802E-02 -0.8881951182640E-02  0.0000000000000E+00 -0.8964229451738E-04
 0.2129217844800E-02 -0.8853675062195E-02  0.0000000000000E+00 -0.8141356343305E-05
 0.2105943071892E-02 -0.8827414309233E-02  0.0000000000000E+00  0.8486042239422E-04
 0.2078688286945E-02 -0.8802269547360E-02  0.0000000000000E+00  0.1915682442285E-03
 0.2046247841000E-02 -0.8776927231480E-02  0.0000000000000E+00  0.3136978998795E-03
 0.2007207406181E-02 -0.8749594454124E-02  0.0000000000000E+00  0.4521129043276E-03
 0.1960218451627E-02 -0.8718044971293E-02  0.0000000000000E+00  0.6064860794783E-03
 0.1904387205902E-02 -0.8679815593816E-02  0.0000000000000E+00  0.7752803897365E-03
 0.1839637332453E-02 -0.8632661800922E-02  0.0000000000000E+00  0.9562029181895E-03
 0.1766657799735E-02 -0.8574615061410E-02  0.0000000000000E+00  0.1146796026032E-02
 0.1686380191082E-02 -0.8503311472456E-02  0.0000000000000E+00  0.1344477457511E-02
 0.1599494719262E-02 -0.8415310667254E-02  0.0000000000000E+00  0.1545719450960E-02
 0.1506384325811E-02 -0.8305739958366E-02  0.0000000000000E+00  0.1744547157217E-02
 0.1407607778155E-02 -0.8168289022586E-02  0.0000000000000E+00  0.1930691704204E-02
 0.1304931684125E-02 -0.7995469755701E-02  0.0000000000000E+00  0.2087501673643E-02
 0.1203028515555E-02 -0.7779149642649E-02  0.0000000000000E+00  0.2189300391159E-02
 0.1112435464886E-02 -0.7511773005685E-02  0.0000000000000E+00  0.2197619112626E-02
 0.1055191377698E-02 -0.7188990580729E-02  0.0000000000000E+00  0.2055837193604E-02
 0.1076125676284E-02 -0.6816541849285E-02  0.0000000000000E+00  0.1684586941012E-02
 0.1262890210306E-02 -0.6426404925275E-02  0.0000000000000E+00  0.9901467114474E-03
 0.1770704759629E-02 -0.6101428990974E-02  0.0000000000000E+00 -0.8638491617419E-04
 0.2825381329022E-02 -0.5989076998690E-02  0.0000000000000E+00 -0.1441927365598E-02
 0.4641578747685E-02 -0.6251547929308E-02  0.0000000000000E+00 -0.2619948741455E-02
 0.7203096279574E-02 -0.6901467992526E-02  0.0000000000000E+00 -0.2751794492180E-02
 0.1003286590830E-01 -0.7622378061208E-02  0.0000000000000E+00 -0.9880128671542E-03
 0.2329708366320E-03 -0.8389861998460E-02  0.0000000000000E+00 -0.2000748671488E-02
 0.7012298569096E-03 -0.8660675633465E-02  0.0000000000000E+00 -0.2155855550412E-02
 0.1136511196339E-02 -0.8885255613666E-02  0.0000000000000E+00 -0.2084222417088E-02
 0.1488196661744E-02 -0.9034137918106E-02  0.0000000000000E+00 -0.1863507506104E-02
 0.1742831767967E-02 -0.9107552925671E-02  0.0000000000000E+00 -0.1587067567413E-02
 0.1913525123225E-02 -0.9123932685805E-02  0.0000000000000E+00 -0.1319576173905E-02
 0.2022071295938E-02 -0.9104626529407E-02  0.0000000000000E+00 -0.1090150396153E-02
 0.2088185928589E-02 -0.9066118782086E-02  0.0000000000000E+00 -0.9044196766483E-03
 0.2126318033800E-02 -0.9018897789623E-02  0.0000000000000E+00 -0.7572645264511E-03
 0.2146120072347E-02 -0.8968946888622E-02  0.0000000000000E+00 -0.6403622300256E-03
 0.2153797242833E-02 -0.8919438705669E-02  0.0000000000000E+00 -0.5454584973137E-03
 0.2153278852706E-02 -0.8871934620361E-02  0.0000000000000E+00 -0.4654167155437E-03
 0.2147026730735E-02 -0.8827110405684E-02  0.0000000000000E+00 -0.3943548486956E-03
 0.2136549597739E-02 -0.8785164759936E-02  0.0000000000000E+00 -0.3274724842714E-03
 0.2122717498948E-02 -0.8746035076341E-02  0.0000000000000E+00 -0.2608077743461E-03
 0.2105945981478E-02 -0.8709497115374E-02  0.0000000000000E+00 -0.1910119312608E-03
 0.2086294663106E-02 -0.8675191157250E-02  0.0000000000000E+00 -0.1151717669167E-03
 0.2063509149348E-02 -0.8642597494730E-02  0.0000000000000E+00 -0.3069823623061E-04
 0.2037026659288E-02 -0.8610971006558E-02  0.0000000000000E+00  0.6470349871954E-04
 0.2005974609513E-02 -0.8579251496690E-02  0.0000000000000E+00  0.1729488991954E-03
 0.1969206865073E-02 -0.8545979097172E-02  0.0000000000000E+00  0.2953515614831E-03
 0.1925434940772E-02 -0.8509261188453E-02  0.0000000000000E+00  0.4323091038869E-03
 0.1873483927548E-02 -0.8466828041173E-02  0.0000000000000E+00  0.5830424294514E-03
 0.1812621412665E-02 -0.8416202552724E-02  0.0000000000000E+00  0.7456058631019E-03
 0.1742865062270E-02 -0.8355108882866E-02  0.0000000000000E+00  0.9172618062933E-03
 0.1664954850935E-02 -0.8281525364834E-02  0.0000000000000E+00  0.1094915931347E-02
 0.1579946467071E-02 -0.8193078477153E-02  0.0000000000000E+00  0.1275037142328E-02
 0.1488867485232E-02 -0.8086450526881E-02  0.0000000000000E+00  0.1452838382206E-02
 0.1392761173521E-02 -0.7957107305840E-02  0.0000000000000E+00  0.1620854910584E-02
 0.1293258374568E-02 -0.7799392087107E-02  0.0000000000000E+00  0.1767179561677E-02
 0.1193738858288E-02 -0.7606963877658E-02  0.0000000000000E+00  0.1873460926722E-02
 0.1101272137807E-02 -0.7373675819154E-02  0.0000000000000E+00  0.1912517683259E-02
 0.1029935758840E-02 -0.7095374175326E-02  0.0000000000000E+00  0.1845439037525E-02
 0.1006707116017E-02 -0.6773322942549E-02  0.0000000000000E+00  0.1618553964332E-02
 0.1081950436728E-02 -0.6421507150693E-02  0.0000000000000E+00  0.1163917870004E-02
 0.1345133912389E-02 -0.6080646874236E-02  0.0000000000000E+00  0.4156959624383E-03
 0.1938459003445E-02 -0.5834451780791E-02  0.0000000000000E+00 -0.6363863140004E-03
 0.3043901609197E-02 -0.5808401309389E-02  0.0000000000000E+00 -0.1839957543974E-02
 0.4801285389405E-02 -0.6114319622203E-02  0.0000000000000E+00 -0.2755769555150E-02
 0.7142757026787E-02 -0.6723872392822E-02  0.0000000000000E+00 -0.2675712476903E-02
 0.9660132942568E-02 -0.7363959375668E-02  0.0000000000000E+00 -0.9890805756568E-03
 0.2143484991345E-03 -0.8154914036123E-02  0.0000000000000E+00 -0.1839918609752E-02
 0.6460314810411E-03 -0.8406816929211E-02  0.0000000000000E+00 -0.2016207484895E-02
 0.1052501981171E-02 -0.8621560035150E-02  0.0000000000000E+00 -0.1991229523744E-02
 0.1390243368386E-02 -0.8772770289426E-02  0.0000000000000E+00 -0.1824013248761E-02
 0.1643897794156E-02 -0.8856982056721E-02  0.0000000000000E+00 -0.1591395603586E-02
 0.1820744518908E-02 -0.8886925596127E-02  0.0000000000000E+00 -0.1352257462033E-02
 0.1937614053606E-02 -0.8880018229088E-02  0.0000000000000E+00 -0.1137732854801E-02
 0.2011518608452E-02 -0.8851180919355E-02  0.0000000000000E+00 -0.9578734399885E-03
 0.2055910532977E-02 -0.8810792444443E-02  0.0000000000000E+00 -0.8113826232197E-03
 0.2080305799515E-02 -0.8765281055198E-02  0.0000000000000E+00 -0.6924558942863E-03
 0.2091091319767E-02 -0.8718345755052E-02  0.0000000000000E+00 -0.5942980284721E-03
 0.2092446102634E-02 -0.8671985304930E-02  0.0000000000000E+00 -0.5105581863389E-03
 0.2087056440869E-02 -0.8627188206952E-02  0.0000000000000E+00 -0.4357542732047E-03
 0.2076604089477E-02 -0.8584350985159E-02  0.0000000000000E+00 -0.3652801178663E-03
 0.2062079859552E-02 -0.8543514045466E-02  0.0000000000000E+00 -0.2952705264219E-03
 0.2043975561790E-02 -0.8504480265698E-02  0.0000000000000E+00 -0.2224421894947E-03
 0.2022393288757E-02 -0.8466856622243E-02  0.0000000000000E+00 -0.1439610390588E-03
 0.1997100591796E-02 -0.8430043572102E-02  0.0000000000000E+00 -0.5736576883444E-04
 0.1967553663381E-02 -0.8393185538776E-02  0.0000000000000E+00  0.3943335085310E-04
 0.1932919192465E-02 -0.8355103362324E-02  0.0000000000000E+00  0.1480523165271E-03
 0.1892135207852E-02 -0.8314237808786E-02  0.0000000000000E+00  0.2694200020079E-03
 0.1844053583338E-02 -0.8268640438336E-02  0.0000000000000E+00  0.4035084579889E-03
 0.1787676811557E-02 -0.8216033264699E-02  0.0000000000000E+00  0.5491287504826E-03
 0.1722440694007E-02 -0.8153956717200E-02  0.0000000000000E+00  0.7039499207899E-03
 0.1648485242299E-02 -0.8080143387679E-02  0.0000000000000E+00  0.8648002917409E-03
 0.1566655646074E-02 -0.7992575451291E-02  0.0000000000000E+00  0.1027978252958E-02
 0.1478199121646E-02 -0.7888947077724E-02  0.0000000000000E+00  0.1189081497740E-02
 0.1384546691864E-02 -0.7766164938894E-02  0.0000000000000E+00  0.1342202335607E-02
 0.1287462066461E-02 -0.7620169434546E-02  0.0000000000000E+00  0.1478602667698E-02
 0.1189702535673E-02 -0.7446139605326E-02  0.0000000000000E+00  0.1585083283690E-02
 0.1096293451491E-02 -0.7239108420353E-02  0.0000000000000E+00  0.1642181757157E-02
 0.1016638214926E-02 -0.6995139109243E-02  0.0000000000000E+00  0.1622230469051E-02
 0.9679967852368E-03 -0.6713542163165E-02  0.0000000000000E+00  0.1487544281645E-02
 0.9812117423544E-03 -0.6400694832909E-02  0.0000000000000E+00  0.1189770023105E-02
 0.1109747620876E-02 -0.6076986971360E-02  0.0000000000000E+00  0.6746328509695E-03
 0.1440851522003E-02 -0.5787887745058E-02  0.0000000000000E+00 -0.9686486995175E-04
 0.2100260826511E-02 -0.5612793263131E-02  0.0000000000000E+00 -0.1096694582028E-02
 0.3230184424874E-02 -0.5654355986590E-02  0.0000000000000E+00 -0.2145285368009E-02
 0.4914667379366E-02 -0.5985095706836E-02  0.0000000000000E+00 -0.2837896982139E-02
 0.7058533562180E-02 -0.6553329768594E-02  0.0000000000000E+00 -0.2601411801046E-02
 0.9315749681332E-02 -0.7126063690531E-02  0.0000000000000E+00 -0.9923122993052E-03
 0.1980693292049E-03 -0.7926740820435E-02  0.0000000000000E+00 -0.1690816644360E-02
 0.5975048931236E-03 -0.8161530966248E-02  0.0000000000000E+00 -0.1884091508355E-02
 0.9774422805639E-03 -0.8366097189275E-02  0.0000000000000E+00 -0.1897631099195E-02
 0.1300474353004E-02 -0.8517057480057E-02  0.0000000000000E+00 -0.1776760255049E-02
 0.1550642476595E-02 -0.8608754369776E-02  0.0000000000000E+00 -0.1584704842308E-02
 0.1731019547995E-02 -0.8649584979568E-02  0.0000000000000E+00 -0.1374142370500E-02
 0.1854275042521E-02 -0.8653478750383E-02  0.0000000000000E+00 -0.1176500893412E-02
 0.1934798112012E-02 -0.8633606040460E-02  0.0000000000000E+00 -0.1004881196284E-02
 0.1984839314525E-02 -0.8599890698151E-02  0.0000000000000E+00 -0.8611610802704E-03
 0.2013558031789E-02 -0.8558933195103E-02  0.0000000000000E+00 -0.7418868098401E-03
 0.2027368115530E-02 -0.8514794146747E-02  0.0000000000000E+00 -0.6417613190811E-03
 0.2030605461751E-02 -0.8469823040479E-02  0.0000000000000E+00 -0.5553173524243E-03
 0.2026129904689E-02 -0.8425280897605E-02  0.0000000000000E+00 -0.4775724420309E-03
 0.2015771015989E-02 -0.8381747739684E-02  0.0000000000000E+00 -0.4041999858941E-03
 0.2000630771720E-02 -0.8339367111403E-02  0.0000000000000E+00 -0.3315009083111E-03
 0.1981277735317E-02 -0.8297978037029E-02  0.0000000000000E+00 -0.2563136690897E-03
 0.1957864456511E-02 -0.8257170166909E-02  0.0000000000000E+00 -0.1759289882714E-03
 0.1930194839378E-02 -0.8216287135549E-02  0.0000000000000E+00 -0.8804858600964E-04
 0.1897763816398E-02 -0.8174393575824E-02  0.0000000000000E+00  0.9190407460613E-05
 0.1859799620455E-02 -0.8130228822963E-02  0.0000000000000E+00  0.1171020298608E-03
 0.1815343739458E-02 -0.8082174508816E-02  0.0000000000000E+00  0.2362506448668E-03
 0.1763399387222E-02 -0.8028263389265E-02  0.0000000000000E+00  0.3662193144683E-03
 0.1703150631207E-02 -0.7966240500467E-02  0.0000000000000E+00  0.5054455362715E-03
 0.1634210627384E-02 -0.7893694922390E-02  0.0000000000000E+00  0.6512369063287E-03
 0.1556869355417E-02 -0.7808408521117E-02  0.0000000000000E+00  0.8000082321982E-03
 0.1472125298809E-02 -0.7708424272135E-02  0.0000000000000E+00  0.9474959220805E-03
 0.1381474251794E-02 -0.7591578097790E-02  0.0000000000000E+00  0.1088523908621E-02
 0.1286802381916E-02 -0.7455092569207E-02  0.0000000000000E+00  0.1216229162787E-02
 0.1190631179238E-02 -0.7295495013991E-02  0.0000000000000E+00  0.1320852648366E-02
 0.1096858068703E-02 -0.7108934225593E-02  0.0000000000000E+00  0.1388289885219E-02
 0.1012113975773E-02 -0.6891954657312E-02  0.0000000000000E+00  0.1398579951473E-02
 0.9479557152931E-03 -0.6642900706035E-02  0.0000000000000E+00  0.1324533900697E-02
 0.9243120441154E-03 -0.6364373783394E-02  0.0000000000000E+00  0.1131093184895E-02
 0.9747103046319E-03 -0.6067083718778E-02  0.0000000000000E+00  0.7768499824677E-03
 0.1153525357734E-02 -0.5775906399931E-02  0.0000000000000E+00  0.2219474624879E-03
 0.1542908621951E-02 -0.5537818831521E-02  0.0000000000000E+00 -0.5486671993867E-03
 0.2250945721360E-02 -0.5424870123045E-02  0.0000000000000E+00 -0.1478761175564E-02
 0.3385564426253E-02 -0.5518358761414E-02  0.0000000000000E+00 -0.2377683905446E-02
 0.4990236672933E-02 -0.5861145987047E-02  0.0000000000000E+00 -0.2882659137769E-02
 0.6957450489683E-02 -0.6389427599819E-02  0.0000000000000E+00 -0.2531079616521E-02
 0.8994942251729E-02 -0.6905376105591E-02  0.0000000000000E+00 -0.9964869137979E-03
 0.1836867999270E-03 -0.7704160473440E-02  0.0000000000000E+00 -0.1552192764557E-02
 0.5544552028687E-03 -0.7923413139083E-02  0.0000000000000E+00 -0.1759291112516E-02
 0.9099838473996E-03 -0.8117810333024E-02  0.0000000000000E+00 -0.1804920242242E-02
 0.1218062593647E-02 -0.8266719886633E-02  0.0000000000000E+00 -0.1724228294146E-02
 0.1462918505233E-02 -0.8363284654463E-02  0.0000000000000E+00 -0.1569322698009E-02
 0.1644649303925E-02 -0.8412657857913E-02  0.0000000000000E+00 -0.1386798943624E-02
 0.1772514647582E-02 -0.8425776905977E-02  0.0000000000000E+00 -0.1207249082241E-02
 0.1858472871467E-02 -0.8414037754561E-02  0.0000000000000E+00 -0.1045703279712E-02
 0.1913476631415E-02 -0.8386683107637E-02  0.0000000000000E+00 -0.9065659579602E-03
 0.1946167166955E-02 -0.8350264493898E-02  0.0000000000000E+00 -0.7884883810449E-03
 0.1962851946642E-02 -0.8309051623667E-02  0.0000000000000E+00 -0.6876402187828E-03
 0.1967935240290E-02 -0.8265655473684E-02  0.0000000000000E+00 -0.5994900922901E-03
 0.1964397856658E-02 -0.8221563293328E-02  0.0000000000000E+00 -0.5196285368714E-03
 0.1954188981257E-02 -0.8177518629185E-02  0.0000000000000E+00 -0.4440790640485E-03
 0.1938509408401E-02 -0.8133764097564E-02  0.0000000000000E+00 -0.3693694898067E-03
 0.1918002764448E-02 -0.8090181098178E-02  0.0000000000000E+00 -0.2925102782100E-03
 0.1892878184757E-02 -0.8046356026087E-02  0.0000000000000E+00 -0.2109570485599E-03
 0.1862988240658E-02 -0.8001596896755E-02  0.0000000000000E+00 -0.1226036836638E-03
 0.1827883381830E-02 -0.7954916507022E-02  0.0000000000000E+00 -0.2582936399056E-04
 0.1786871545731E-02 -0.7905005773513E-02  0.0000000000000E+00  0.8038068596586E-04
 0.1739112675700E-02 -0.7850221709890E-02  0.0000000000000E+00  0.1962478350604E-03
 0.1683769787861E-02 -0.7788609999052E-02  0.0000000000000E+00  0.3209997830995E-03
 0.1620212957457E-02 -0.7717966996016E-02  0.0000000000000E+00  0.4527337145427E-03
 0.1548242731687E-02 -0.7635960671331E-02  0.0000000000000E+00  0.5884224792920E-03
 0.1468324348002E-02 -0.7540462084786E-02  0.0000000000000E+00  0.7240981238207E-03
 0.1381650244260E-02 -0.7429628848463E-02  0.0000000000000E+00  0.8549944525756E-03
 0.1290010069744E-02 -0.7301505603518E-02  0.0000000000000E+00  0.9752746090252E-03
 0.1195780713845E-02 -0.7153708249419E-02  0.0000000000000E+00  0.1077303486386E-02
 0.1102254723973E-02 -0.6983436387593E-02  0.0000000000000E+00  0.1150573846407E-02
 0.1014443993136E-02 -0.6787893423175E-02  0.0000000000000E+00  0.1180476940625E-02
 0.9404817133407E-03 -0.6565188989143E-02  0.0000000000000E+00  0.1147147003893E-02
 0.8938083929080E-03 -0.6315889409389E-02  0.0000000000000E+00  0.1024724251218E-02
 0.8964197992023E-03 -0.6045543219823E-02  0.0000000000000E+00  0.7818481369227E-03
 0.9833684471336E-03 -0.5768277846826E-02  0.0000000000000E+00  0.3849711545590E-03
 0.1208133932860E-02 -0.5511681851536E-02  0.0000000000000E+00 -0.1917273601325E-03
 0.1645952313319E-02 -0.5321829309597E-02  0.0000000000000E+00 -0.9431390230664E-03
 0.2387571964974E-02 -0.5261978262654E-02  0.0000000000000E+00 -0.1793702106166E-02
 0.3512402712480E-02 -0.5394655169034E-02  0.0000000000000E+00 -0.2552741248444E-02
 0.5035052601172E-02 -0.5740962125678E-02  0.0000000000000E+00 -0.2901102104833E-02
 0.6844520368970E-02 -0.6231856278760E-02  0.0000000000000E+00 -0.2465482257492E-02
 0.8693854935442E-02 -0.6699271917895E-02  0.0000000000000E+00 -0.1001010413334E-02
 0.1708615796836E-03 -0.7486254321113E-02  0.0000000000000E+00 -0.1422994924094E-02
 0.5159512326475E-03 -0.7691344796695E-02  0.0000000000000E+00 -0.1641492740676E-02
 0.8490119764035E-03 -0.7875784543644E-02  0.0000000000000E+00 -0.1714090290553E-02
 0.1142230284056E-02 -0.8021400078143E-02  0.0000000000000E+00 -0.1668303931917E-02
 0.1380472968307E-02 -0.8120780633584E-02  0.0000000000000E+00 -0.1547195975989E-02
 0.1561781595203E-02 -0.8176682807714E-02  0.0000000000000E+00 -0.1391683034300E-02
 0.1692670022714E-02 -0.8197536240249E-02  0.0000000000000E+00 -0.1230826749837E-02
 0.1782914756962E-02 -0.8193040377278E-02  0.0000000000000E+00 -0.1080712349838E-02
 0.1842155521653E-02 -0.8171626289666E-02  0.0000000000000E+00 -0.9476726039530E-03
 0.1878407597842E-02 -0.8139627742583E-02  0.0000000000000E+00 -0.8321791961065E-03
 0.1897763709548E-02 -0.8101390118587E-02  0.0000000000000E+00 -0.7317851080316E-03
 0.1904616343667E-02 -0.8059699627341E-02  0.0000000000000E+00 -0.6429075880555E-03
 0.1902015832317E-02 -0.8016220754944E-02  0.0000000000000E+00 -0.5617581430727E-03
 0.1892001374720E-02 -0.7971836772149E-02  0.0000000000000E+00 -0.4847654134775E-03
 0.1875858278442E-02 -0.7926881937747E-02  0.0000000000000E+00 -0.4087351190518E-03
 0.1854301634798E-02 -0.7881283669997E-02  0.0000000000000E+00 -0.3308930339709E-03
 0.1827601396008E-02 -0.7834637093183E-02  0.0000000000000E+00 -0.2488938295417E-03
 0.1795668867990E-02 -0.7786233624633E-02  0.0000000000000E+00 -0.1608468309555E-03
 0.1758123811908E-02 -0.7735059199501E-02  0.0000000000000E+00 -0.6538296226102E-04
 0.1714368352309E-02 -0.7679785237324E-02  0.0000000000000E+00  0.3821976686758E-04
 0.1663692391550E-02 -0.7618773776221E-02  0.0000000000000E+00  0.1498618454058E-03
 0.1605425264908E-02 -0.7550110913069E-02  0.0000000000000E+00  0.2684471846953E-03
 0.1539127384346E-02 -0.7471670029571E-02  0.0000000000000E+00  0.3917648247078E-03
 0.1464796426799E-02 -0.7381226630610E-02  0.0000000000000E+00  0.5164835268789E-03
 0.1383094651038E-02 -0.7276778332974E-02  0.0000000000000E+00  0.6382926847002E-03
 0.1295440922616E-02 -0.7156645881396E-02  0.0000000000000E+00  0.7519943639149E-03
 0.1203951617277E-02 -0.7019139945437E-02  0.0000000000000E+00  0.8512147737835E-03
 0.1111513229506E-02 -0.6862330672540E-02  0.0000000000000E+00  0.9277396483136E-03
 0.1022179004448E-02 -0.6684147105967E-02  0.0000000000000E+00  0.9705922726156E-03
 0.9420142082542E-03 -0.6482885124521E-02  0.0000000000000E+00  0.9650518202796E-03
 0.8805002919958E-03 -0.6258199741591E-02  0.0000000000000E+00  0.8918889823991E-03
 0.8526330108755E-03 -0.6012718522490E-02  0.0000000000000E+00  0.7272703264689E-03
 0.8818457624753E-03 -0.5754487906680E-02  0.0000000000000E+00  0.4442611959842E-03
 0.1003665439045E-02 -0.5500119001982E-02  0.0000000000000E+00  0.1747803583357E-04
 0.1269299050224E-02 -0.5278404211366E-02  0.0000000000000E+00 -0.5660002148029E-03
 0.1746108468283E-02 -0.5132868899770E-02  0.0000000000000E+00 -0.1284912631910E-02
 0.2508716621330E-02 -0.5117616075975E-02  0.0000000000000E+00 -0.2051652540431E-02
 0.3613438759040E-02 -0.5279337247313E-02  0.0000000000000E+00 -0.2682587926348E-02
 0.5054879953388E-02 -0.5623669385523E-02  0.0000000000000E+00 -0.2900607495519E-02
 0.6723440231152E-02 -0.6080401084770E-02  0.0000000000000E+00 -0.2404599504526E-02
 0.8409302738679E-02 -0.6505657663976E-02  0.0000000000000E+00 -0.1005870437842E-02
 0.1593313002728E-03 -0.7272297194191E-02  0.0000000000000E+00 -0.1302330475360E-02
 0.4812584723099E-03 -0.7464425951776E-02  0.0000000000000E+00 -0.1530341231363E-02
 0.7936039323853E-03 -0.7639234114686E-02  0.0000000000000E+00 -0.1625791675750E-02
 0.1072266648783E-02 -0.7780712290628E-02  0.0000000000000E+00 -0.1610418502079E-02
 0.1302995594576E-02 -0.7881309765846E-02  0.0000000000000E+00 -0.1519934299566E-02
 0.1482453675483E-02 -0.7942035553695E-02  0.0000000000000E+00 -0.1390108517223E-02
 0.1614975204693E-02 -0.7969252735310E-02  0.0000000000000E+00 -0.1248086696096E-02
 0.1708423665747E-02 -0.7971099383563E-02  0.0000000000000E+00 -0.1110351269139E-02
 0.1771167187044E-02 -0.7955136786445E-02  0.0000000000000E+00 -0.9846391994839E-03
 0.1810533026054E-02 -0.7927360134325E-02  0.0000000000000E+00 -0.8729486488205E-03
 0.1832316251465E-02 -0.7892079385981E-02  0.0000000000000E+00 -0.7740979786582E-03
 0.1840828306062E-02 -0.7852176713953E-02  0.0000000000000E+00 -0.6854336645668E-03
 0.1839140888912E-02 -0.7809445008418E-02  0.0000000000000E+00 -0.6038129832557E-03
 0.1829353623545E-02 -0.7764881327330E-02  0.0000000000000E+00 -0.5261093482941E-03
 0.1812820837603E-02 -0.7718901635315E-02  0.0000000000000E+00 -0.4494471434624E-03
 0.1790323908817E-02 -0.7671480725341E-02  0.0000000000000E+00 -0.3713033358676E-03
 0.1762196003971E-02 -0.7622232303508E-02  0.0000000000000E+00 -0.2895596798673E-03
 0.1728414973095E-02 -0.7570447841080E-02  0.0000000000000E+00 -0.2025587247769E-03
 0.1688680832080E-02 -0.7515108332848E-02  0.0000000000000E+00 -0.1091881947620E-03
 0.1642501122550E-02 -0.7454890745890E-02  0.0000000000000E+00 -0.9009574688690E-05
 0.1589304311132E-02 -0.7388187578707E-02  0.0000000000000E+00  0.9757917177858E-04
 0.1528590912005E-02 -0.7313149238658E-02  0.0000000000000E+00  0.2091884836060E-03
 0.1460115458685E-02 -0.7227749328150E-02  0.0000000000000E+00  0.3233315397857E-03
 0.1384081235758E-02 -0.7129897221279E-02  0.0000000000000E+00  0.4364078454206E-03
 0.1301364943038E-02 -0.7017750644782E-02  0.0000000000000E+00  0.5438121266326E-03
 0.1213635826143E-02 -0.6889835132899E-02  0.0000000000000E+00  0.6399940850374E-03
 0.1123357452303E-02 -0.6744773511741E-02  0.0000000000000E+00  0.7181730320607E-03
 0.1033928520870E-02 -0.6581133522341E-02  0.0000000000000E+00  0.7697503985757E-03
 0.9501308375476E-03 -0.6397603203757E-02  0.0000000000000E+00  0.7835521743219E-03
 0.8789923268964E-03 -0.6193566375392E-02  0.0000000000000E+00  0.7451101752393E-03
 0.8311522508256E-03 -0.5970143525437E-02  0.0000000000000E+00  0.6362970955564E-03
 0.8228036776669E-03 -0.5731791735680E-02  0.0000000000000E+00  0.4358322678647E-03
 0.8782084956698E-03 -0.5488557837740E-02  0.0000000000000E+00  0.1216132336243E-03
 0.1032476617486E-02 -0.5258662952366E-02  0.0000000000000E+00 -0.3237523486990E-03
 0.1333573759664E-02 -0.5070903064563E-02  0.0000000000000E+00 -0.9018588048763E-03
 0.1840680761382E-02 -0.4965238961536E-02  0.0000000000000E+00 -0.1579098824609E-02
 0.2613964626530E-02 -0.4986947241916E-02  0.0000000000000E+00 -0.2261531110525E-02
 0.3691418616393E-02 -0.5169693560932E-02  0.0000000000000E+00 -0.2776649881430E-02
 0.5054346618925E-02 -0.5508645205919E-02  0.0000000000000E+00 -0.2885986763318E-02
 0.6597114186310E-02 -0.5934953957047E-02  0.0000000000000E+00 -0.2347776792677E-02
 0.8138522778518E-02 -0.6322892246999E-02  0.0000000000000E+00 -0.1011802718139E-02
 0.1488899536029E-03 -0.7061708760035E-02  0.0000000000000E+00 -0.1189436168056E-02
 0.4497909065463E-03 -0.7241925403014E-02  0.0000000000000E+00 -0.1425471172372E-02
 0.7429936514856E-03 -0.7407486619660E-02  0.0000000000000E+00 -0.1540438440834E-02
 0.1007533372096E-02 -0.7544271148322E-02  0.0000000000000E+00 -0.1551655322995E-02
 0.1230150825535E-02 -0.7644846822440E-02  0.0000000000000E+00 -0.1488857735122E-02
 0.1406624478371E-02 -0.7708966963593E-02  0.0000000000000E+00 -0.1383237796706E-02
 0.1539580404456E-02 -0.7741313659698E-02  0.0000000000000E+00 -0.1259851075385E-02
 0.1635234495088E-02 -0.7748625697786E-02  0.0000000000000E+00 -0.1135099627171E-02
 0.1700760907496E-02 -0.7737588228971E-02  0.0000000000000E+00 -0.1017683048708E-02
 0.1742773557666E-02 -0.7713778196245E-02  0.0000000000000E+00 -0.9108427144286E-03
 0.1766710834689E-02 -0.7681381890404E-02  0.0000000000000E+00 -0.8145248748915E-03
 0.1776745970037E-02 -0.7643307674145E-02  0.0000000000000E+00 -0.7269614028595E-03
 0.1775928718613E-02 -0.7601430401568E-02  0.0000000000000E+00 -0.6456600709578E-03
 0.1766390715732E-02 -0.7556834326745E-02  0.0000000000000E+00 -0.5679642139445E-03
 0.1749539336662E-02 -0.7510005499490E-02  0.0000000000000E+00 -0.4913474012947E-03
 0.1726215841963E-02 -0.7460965509157E-02  0.0000000000000E+00 -0.4135660953272E-03
 0.1696817320808E-02 -0.7409354425910E-02  0.0000000000000E+00 -0.3327510739761E-03
 0.1661393811723E-02 -0.7354478015223E-02  0.0000000000000E+00 -0.2474907804827E-03
 0.1619733881024E-02 -0.7295331256355E-02  0.0000000000000E+00 -0.1569308413053E-03
 0.1571458853877E-02 -0.7230618140814E-02  0.0000000000000E+00 -0.6090470150583E-04
 0.1516141897518E-02 -0.7158783368888E-02  0.0000000000000E+00  0.3991388441318E-04
 0.1453458025708E-02 -0.7078062361121E-02  0.0000000000000E+00  0.1438715465703E-03
 0.1383358708710E-02 -0.6986549538640E-02  0.0000000000000E+00  0.2482386322597E-03
 0.1306259331481E-02 -0.6882311554163E-02  0.0000000000000E+00  0.3491840243028E-03
 0.1223263622901E-02 -0.6763695091202E-02  0.0000000000000E+00  0.4418618227122E-03
 0.1136306673469E-02 -0.6629464388546E-02  0.0000000000000E+00  0.5204541557828E-03
 0.1048207819292E-02 -0.6478588697893E-02  0.0000000000000E+00  0.5779051377810E-03
 0.9628654857855E-03 -0.6310159184708E-02  0.0000000000000E+00  0.6054218207538E-03
 0.8857390609395E-03 -0.6123626831719E-02  0.0000000000000E+00  0.5918882137229E-03
 0.8247056899180E-03 -0.5919422793771E-02  0.0000000000000E+00  0.5234122635726E-03
 0.7913499150715E-03 -0.5700007715772E-02  0.0000000000000E+00  0.3833450549682E-03
 0.8026998398405E-03 -0.5471393999809E-02  0.0000000000000E+00  0.1533143566570E-03
 0.8832908869195E-03 -0.5245128087465E-02  0.0000000000000E+00 -0.1838203836422E-03
 0.1067102817801E-02 -0.5040274659724E-02  0.0000000000000E+00 -0.6379734574282E-03
 0.1398251694933E-02 -0.4884735242712E-02  0.0000000000000E+00 -0.1201168199070E-02
 0.1927876076958E-02 -0.4814377945357E-02  0.0000000000000E+00 -0.1830852726574E-02
 0.2703561766217E-02 -0.4866359273271E-02  0.0000000000000E+00 -0.2430961593595E-02
 0.3748905541321E-02 -0.5063890160008E-02  0.0000000000000E+00 -0.2842423386788E-02
 0.5037029721624E-02 -0.5395091371320E-02  0.0000000000000E+00 -0.2860249695223E-02
 0.6468029087639E-02 -0.5795636709290E-02  0.0000000000000E+00 -0.2293523549983E-02
 0.7879116145275E-02 -0.6149550894270E-02  0.0000000000000E+00 -0.1020532724850E-02
 0.1393735394461E-03 -0.6854018919803E-02  0.0000000000000E+00 -0.1083654806133E-02
 0.4210759451285E-03 -0.7023243312964E-02  0.0000000000000E+00 -0.1326524324874E-02
 0.6965425874707E-03 -0.7179966936612E-02  0.0000000000000E+00 -0.1458280997638E-02
 0.9474632800084E-03 -0.7311707527487E-02  0.0000000000000E+00 -0.1492832036033E-02
 0.1161598504129E-02 -0.7411307277605E-02  0.0000000000000E+00 -0.1455042475508E-02
 0.1334199378570E-02 -0.7477633635113E-02  0.0000000000000E+00 -0.1372084504916E-02
 0.1466569290725E-02 -0.7514015619302E-02  0.0000000000000E+00 -0.1266890302585E-02
 0.1563525162337E-02 -0.7525962147689E-02  0.0000000000000E+00 -0.1155448278368E-02
 0.1631145722670E-02 -0.7519310948965E-02  0.0000000000000E+00 -0.1047060274328E-02
 0.1675334264631E-02 -0.7499174532756E-02  0.0000000000000E+00 -0.9459506052937E-03
 0.1701134594650E-02 -0.7469548850864E-02  0.0000000000000E+00 -0.8530481944695E-03
 0.1712536796280E-02 -0.7433309417282E-02  0.0000000000000E+00 -0.7674093280544E-03
 0.1712531165300E-02 -0.7392370594825E-02  0.0000000000000E+00 -0.6871804467452E-03
 0.1703255007795E-02 -0.7347877808185E-02  0.0000000000000E+00 -0.6101868468963E-03
 0.1686152911258E-02 -0.7300374638513E-02  0.0000000000000E+00 -0.5342719902868E-03
 0.1662118747917E-02 -0.7249927334890E-02  0.0000000000000E+00 -0.4574926823396E-03
 0.1631612743803E-02 -0.7196208183694E-02  0.0000000000000E+00 -0.3782447615363E-03
 0.1594760766115E-02 -0.7138549133958E-02  0.0000000000000E+00 -0.2953705192767E-03
 0.1551445818584E-02 -0.7075975214532E-02  0.0000000000000E+00 -0.2082711754007E-03
 0.1501408855792E-02 -0.7007235651219E-02  0.0000000000000E+00 -0.1170388360613E-03
 0.1444371722479E-02 -0.6930845782972E-02  0.0000000000000E+00 -0.2260014582842E-04
 0.1380185741238E-02 -0.6845143788084E-02  0.0000000000000E+00  0.7315712291742E-04
 0.1309000803937E-02 -0.6748362771657E-02  0.0000000000000E+00  0.1672944635480E-03
 0.1231448404153E-02 -0.6638746673584E-02  0.0000000000000E+00  0.2557918281660E-03
 0.1148866851579E-02 -0.6514854704482E-02  0.0000000000000E+00  0.3336208275981E-03
 0.1063464398289E-02 -0.6375715575616E-02  0.0000000000000E+00  0.3947832166177E-03
 0.9784137701017E-03 -0.6220667383082E-02  0.0000000000000E+00  0.4320771520970E-03
 0.8980873594606E-03 -0.6049333987582E-02  0.0000000000000E+00  0.4366945038010E-03
 0.8285559401437E-03 -0.5861910723764E-02  0.0000000000000E+00  0.3978078642170E-03
 0.7784169826673E-03 -0.5659806671877E-02  0.0000000000000E+00  0.3023747295232E-03
 0.7599788353357E-03 -0.5446666414891E-02  0.0000000000000E+00  0.1355071678468E-03
 0.7907579439810E-03 -0.5229765527633E-02  0.0000000000000E+00 -0.1180606492152E-03
 0.8950823918633E-03 -0.5021678092498E-02  0.0000000000000E+00 -0.4705994580134E-03
 0.1105266587522E-02 -0.4841674462579E-02  0.0000000000000E+00 -0.9252747356054E-03
 0.1461257128540E-02 -0.4716133056953E-02  0.0000000000000E+00 -0.1466308448343E-02
 0.2006600618699E-02 -0.4676655180226E-02  0.0000000000000E+00 -0.2045082360528E-02
 0.2778096009923E-02 -0.4753160583507E-02  0.0000000000000E+00 -0.2566473936173E-02
 0.3788433669675E-02 -0.4960629594977E-02  0.0000000000000E+00 -0.2885505044368E-02
 0.5005089045863E-02 -0.5282493175782E-02  0.0000000000000E+00 -0.2826872507210E-02
 0.6339243741691E-02 -0.5660767794570E-02  0.0000000000000E+00 -0.2236365292549E-02
 0.7626446197075E-02 -0.5987261511922E-02  0.0000000000000E+00 -0.1038739304334E-02
 0.1306449916863E-03 -0.6648847585167E-02  0.0000000000000E+00 -0.9844312285893E-03
 0.3947279574246E-03 -0.6807908416703E-02  0.0000000000000E+00 -0.1233175178379E-02
 0.6537197944180E-03 -0.6956225284424E-02  0.0000000000000E+00 -0.1379479835593E-02
 0.8915658398639E-03 -0.7082738006976E-02  0.0000000000000E+00 -0.1434588311314E-02
 0.1097024591967E-02 -0.7180650434240E-02  0.0000000000000E+00 -0.1419384620278E-02
 0.1265074222040E-02 -0.7248219840136E-02  0.0000000000000E+00 -0.1357540271306E-02
 0.1396006255927E-02 -0.7287695724193E-02  0.0000000000000E+00 -0.1269921347102E-02
 0.1493463407785E-02 -0.7303521934670E-02  0.0000000000000E+00 -0.1171882680913E-02
 0.1562537317066E-02 -0.7300739877205E-02  0.0000000000000E+00 -0.1073043133851E-02
 0.1608443894285E-02 -0.7283977842425E-02  0.0000000000000E+00 -0.9783796179075E-03
 0.1635812518335E-02 -0.7256994303547E-02  0.0000000000000E+00 -0.8896596631139E-03
 0.1648417022465E-02 -0.7222584110540E-02  0.0000000000000E+00 -0.8066921171729E-03
 0.1649157140206E-02 -0.7182663861354E-02  0.0000000000000E+00 -0.7282370734135E-03
 0.1640152341926E-02 -0.7138415790047E-02  0.0000000000000E+00 -0.6526021408962E-03
 0.1622869332176E-02 -0.7090428307831E-02  0.0000000000000E+00 -0.5780119593256E-03
 0.1598246852843E-02 -0.7038809121587E-02  0.0000000000000E+00 -0.5028370383576E-03
 0.1566806229138E-02 -0.6983266952420E-02  0.0000000000000E+00 -0.4257482819083E-03
 0.1528750961668E-02 -0.6923169686702E-02  0.0000000000000E+00 -0.3458449646873E-03
 0.1484062126788E-02 -0.6857585844098E-02  0.0000000000000E+00 -0.2627780543930E-03
 0.1432603761347E-02 -0.6785325113671E-02  0.0000000000000E+00 -0.1768828930903E-03
 0.1374248174901E-02 -0.6704988843273E-02  0.0000000000000E+00 -0.8931517948857E-04
 0.1309022931611E-02 -0.6615032751473E-02  0.0000000000000E+00 -0.2167032099737E-05
 0.1237275770996E-02 -0.6513843372971E-02  0.0000000000000E+00  0.8144971622651E-04
 0.1159854958830E-02 -0.6399857838466E-02  0.0000000000000E+00  0.1573705730884E-03
 0.1078335257312E-02 -0.6271865381017E-02  0.0000000000000E+00  0.2204455743318E-03
 0.9951970142829E-03 -0.6129176073961E-02  0.0000000000000E+00  0.2645834643018E-03
 0.9139532101862E-03 -0.5971506938528E-02  0.0000000000000E+00  0.2825600141215E-03
 0.8394120439064E-03 -0.5799007411715E-02  0.0000000000000E+00  0.2657157367329E-03
 0.7781766259128E-03 -0.5612577838247E-02  0.0000000000000E+00  0.2037112632015E-03
 0.7394256676618E-03 -0.5414512085908E-02  0.0000000000000E+00  0.8457012804769E-04
 0.7359705917772E-03 -0.5209462022802E-02  0.0000000000000E+00 -0.1046483610390E-03
 0.7854985169368E-03 -0.5005673109616E-02  0.0000000000000E+00 -0.3760509162246E-03
 0.9117346669174E-03 -0.4816322603211E-02  0.0000000000000E+00 -0.7373082779158E-03
 0.1144959426431E-02 -0.4660381408642E-02  0.0000000000000E+00 -0.1185698772530E-02
 0.1520872321264E-02 -0.4562307312647E-02  0.0000000000000E+00 -0.1699328044607E-02
 0.2076052102722E-02 -0.4549511271829E-02  0.0000000000000E+00 -0.2225884341587E-02
 0.2838295525780E-02 -0.4645640466337E-02  0.0000000000000E+00 -0.2673276267681E-02
 0.3811856990962E-02 -0.4859229370058E-02  0.0000000000000E+00 -0.2910442179394E-02
 0.4962035590294E-02 -0.5171114537896E-02  0.0000000000000E+00 -0.2787930446304E-02
 0.6205389899881E-02 -0.5527593518989E-02  0.0000000000000E+00 -0.2177531060107E-02
 0.7411362921710E-02 -0.5841045093535E-02  0.0000000000000E+00 -0.1054730258544E-02
 0.1226057110067E-03 -0.6445875038282E-02  0.0000000000000E+00 -0.8912412260592E-03
 0.3704352804369E-03 -0.6595505907211E-02  0.0000000000000E+00 -0.1145085640022E-02
 0.6140805272806E-03 -0.6735837756858E-02  0.0000000000000E+00 -0.1304074923745E-02
 0.8394038773649E-03 -0.6857044062697E-02  0.0000000000000E+00 -0.1377364760590E-02
 0.1036115033552E-02 -0.6952734007658E-02  0.0000000000000E+00 -0.1382572438204E-02
 0.1199098790022E-02 -0.7020759354940E-02  0.0000000000000E+00 -0.1340337021779E-02
 0.1327883629187E-02 -0.7062515420664E-02  0.0000000000000E+00 -0.1269568817559E-02
 0.1425136551012E-02 -0.7081534226583E-02  0.0000000000000E+00 -0.1184853580873E-02
 0.1495072275031E-02 -0.7082124420008E-02  0.0000000000000E+00 -0.1095906688616E-02
 0.1542256287496E-02 -0.7068429743490E-02  0.0000000000000E+00 -0.1008259151563E-02
 0.1570898000145E-02 -0.7043940451208E-02  0.0000000000000E+00 -0.9243801881082E-03
 0.1584532318703E-02 -0.7011333430082E-02  0.0000000000000E+00 -0.8447539502018E-03
 0.1585943503941E-02 -0.6972495722305E-02  0.0000000000000E+00 -0.7687196687739E-03
 0.1577212717350E-02 -0.6928624179535E-02  0.0000000000000E+00 -0.6950581253742E-03
 0.1559814687141E-02 -0.6880339587550E-02  0.0000000000000E+00 -0.6223783153978E-03
 0.1534725029390E-02 -0.6827787061363E-02  0.0000000000000E+00 -0.5493712538147E-03
 0.1502523068933E-02 -0.6770714430390E-02  0.0000000000000E+00 -0.4749877398453E-03
 0.1463490131323E-02 -0.6708533187499E-02  0.0000000000000E+00 -0.3985832928962E-03
 0.1417707063238E-02 -0.6640366262484E-02  0.0000000000000E+00 -0.3200502561490E-03
 0.1365162454453E-02 -0.6565096247564E-02  0.0000000000000E+00 -0.2399506397400E-03
 0.1305879103608E-02 -0.6481423038266E-02  0.0000000000000E+00 -0.1596452861337E-03
 0.1240059228036E-02 -0.6387931895460E-02  0.0000000000000E+00 -0.8140083602073E-04
 0.1168246087552E-02 -0.6283174507623E-02  0.0000000000000E+00 -0.8466660657180E-05
 0.1091502531599E-02 -0.6165793136592E-02  0.0000000000000E+00  0.5489351830393E-04
 0.1011636949274E-02 -0.6034818877382E-02  0.0000000000000E+00  0.1034689566038E-03
 0.9313940246691E-03 -0.5889852186036E-02  0.0000000000000E+00  0.1311593451781E-03
 0.8546057675041E-03 -0.5730988755467E-02  0.0000000000000E+00  0.1308318467211E-03
 0.7864696758081E-03 -0.5558883726853E-02  0.0000000000000E+00  0.9411971334228E-04
 0.7340354366713E-03 -0.5375088644751E-02  0.0000000000000E+00  0.1133653169644E-04
 0.7069227255599E-03 -0.5182675510506E-02  0.0000000000000E+00 -0.1282678584174E-03
 0.7182377077578E-03 -0.4987121383527E-02  0.0000000000000E+00 -0.3355853643845E-03
 0.7855608593634E-03 -0.4797365436777E-02  0.0000000000000E+00 -0.6196223188767E-03
 0.9317049717494E-03 -0.4626825080253E-02  0.0000000000000E+00 -0.9838295801832E-03
 0.1184689836375E-02 -0.4493792187370E-02  0.0000000000000E+00 -0.1420492104392E-02
 0.1576049824553E-02 -0.4420585348480E-02  0.0000000000000E+00 -0.1903107065852E-02
 0.2136121000551E-02 -0.4430657540754E-02  0.0000000000000E+00 -0.2377544706818E-02
 0.2885206162576E-02 -0.4542302562828E-02  0.0000000000000E+00 -0.2756059053887E-02
 0.3821446864047E-02 -0.4759121849785E-02  0.0000000000000E+00 -0.2921033932219E-02
 0.4908799625360E-02 -0.5060491263123E-02  0.0000000000000E+00 -0.2744106641864E-02
 0.6071908159754E-02 -0.5396817047929E-02  0.0000000000000E+00 -0.2123618576038E-02
 0.7205708153543E-02 -0.5699644879213E-02  0.0000000000000E+00 -0.1037935343102E-02
 0.1151626437434E-03 -0.6244829005897E-02  0.0000000000000E+00 -0.8036576407898E-03
 0.3479312382827E-03 -0.6385662644508E-02  0.0000000000000E+00 -0.1061951345434E-02
 0.5772337737336E-03 -0.6518396360821E-02  0.0000000000000E+00 -0.1232063971100E-02
 0.7905734765556E-03 -0.6634273679342E-02  0.0000000000000E+00 -0.1321493588907E-02
 0.9785497177152E-03 -0.6727325394171E-02  0.0000000000000E+00 -0.1345169032350E-02
 0.1136080085878E-02 -0.6795149596676E-02  0.0000000000000E+00 -0.1321110258740E-02
 0.1262127912618E-02 -0.6838471553804E-02  0.0000000000000E+00 -0.1266410251717E-02
 0.1358556888980E-02 -0.6860049834288E-02  0.0000000000000E+00 -0.1194811810006E-02
 0.1428811601865E-02 -0.6863529298663E-02  0.0000000000000E+00 -0.1115960319621E-02
 0.1476852456830E-02 -0.6852582414281E-02  0.0000000000000E+00 -0.1035773423399E-02
 0.1506474264975E-02 -0.6830413652412E-02  0.0000000000000E+00 -0.9572958372621E-03
 0.1520959204786E-02 -0.6799553974140E-02  0.0000000000000E+00 -0.8816084752675E-03
 0.1522956908336E-02 -0.6761834429770E-02  0.0000000000000E+00 -0.8085888654509E-03
 0.1514492839300E-02 -0.6718446699152E-02  0.0000000000000E+00 -0.7374744428747E-03
 0.1497036859582E-02 -0.6670031993875E-02  0.0000000000000E+00 -0.6672550191122E-03
 0.1471593435126E-02 -0.6616768124154E-02  0.0000000000000E+00 -0.5969433816525E-03
 0.1438795960308E-02 -0.6558443274197E-02  0.0000000000000E+00 -0.5257707866991E-03
 0.1399002437256E-02 -0.6494518237693E-02  0.0000000000000E+00 -0.4533452746972E-03
 0.1352393584956E-02 -0.6424178911941E-02  0.0000000000000E+00 -0.3797905358683E-03
 0.1299082428350E-02 -0.6346390671869E-02  0.0000000000000E+00 -0.3058782965683E-03
 0.1239240904538E-02 -0.6259961929682E-02  0.0000000000000E+00 -0.2331511936207E-03
 0.1173243099691E-02 -0.6163616948519E-02  0.0000000000000E+00 -0.1640214493222E-03
 0.1101824036560E-02 -0.6056081507294E-02  0.0000000000000E+00 -0.1018408853007E-03
 0.1026256621677E-02 -0.5936211352267E-02  0.0000000000000E+00 -0.5092803055726E-04
 0.9485763090269E-03 -0.5803286353474E-02  0.0000000000000E+00 -0.1649578864948E-04
 0.8717793119731E-03 -0.5657199823761E-02  0.0000000000000E+00 -0.4575229239773E-05
 0.7999898232801E-03 -0.5498417797735E-02  0.0000000000000E+00 -0.2210582982853E-04
 0.7387433160539E-03 -0.5328072216156E-02  0.0000000000000E+00 -0.7703838629750E-04
 0.6954485216333E-03 -0.5148303455947E-02  0.0000000000000E+00 -0.1782749050516E-03
 0.6800310773893E-03 -0.4962850279125E-02  0.0000000000000E+00 -0.3352288987653E-03
 0.7057030151247E-03 -0.4777838965158E-02  0.0000000000000E+00 -0.5567097666308E-03
 0.7897048654983E-03 -0.4602655028182E-02  0.0000000000000E+00 -0.8487591782424E-03
 0.9537061899065E-03 -0.4450658917599E-02  0.0000000000000E+00 -0.1211042354977E-02
 0.1223347932814E-02 -0.4339193423521E-02  0.0000000000000E+00 -0.1631708984753E-02
 0.1626188041484E-02 -0.4288351028560E-02  0.0000000000000E+00 -0.2080943505396E-02
 0.2187026470806E-02 -0.4317935607775E-02  0.0000000000000E+00 -0.2504222046970E-02
 0.2920044626620E-02 -0.4441727243693E-02  0.0000000000000E+00 -0.2818983669839E-02
 0.3818791497695E-02 -0.4659579391814E-02  0.0000000000000E+00 -0.2920004696398E-02
 0.4847377433701E-02 -0.4950141865575E-02  0.0000000000000E+00 -0.2697695381900E-02
 0.5937776343740E-02 -0.5268631907632E-02  0.0000000000000E+00 -0.2069363441597E-02
 0.7004146055725E-02 -0.5557097656917E-02  0.0000000000000E+00 -0.1020564478967E-02
 0.1082417621317E-03 -0.6045483439773E-02  0.0000000000000E+00 -0.7212951835542E-03
 0.3269964676117E-03 -0.6178083923716E-02  0.0000000000000E+00 -0.9834957745268E-03
 0.5428561003593E-03 -0.6303585997249E-02  0.0000000000000E+00 -0.1163414732035E-02
 0.7447345894158E-03 -0.6414165073609E-02  0.0000000000000E+00 -0.1267223992549E-02
 0.9240542401722E-03 -0.6504271475029E-02  0.0000000000000E+00 -0.1307629875531E-02
 0.1075851538280E-02 -0.6571361313931E-02  0.0000000000000E+00 -0.1300395154948E-02
 0.1198680975672E-02 -0.6615639148204E-02  0.0000000000000E+00 -0.1260947050180E-02
 0.1293750717168E-02 -0.6639212704930E-02  0.0000000000000E+00 -0.1202157072247E-02
 0.1363835690209E-02 -0.6645133155506E-02  0.0000000000000E+00 -0.1133479251551E-02
 0.1412341267201E-02 -0.6636624503762E-02  0.0000000000000E+00 -0.1061079776625E-02
 0.1442661360589E-02 -0.6616598645352E-02  0.0000000000000E+00 -0.9884654951941E-03
 0.1457819264085E-02 -0.6587421105098E-02  0.0000000000000E+00 -0.9172371637679E-03
 0.1460316246957E-02 -0.6550845865054E-02  0.0000000000000E+00 -0.8477657683365E-03
 0.1452107875485E-02 -0.6508042412211E-02  0.0000000000000E+00 -0.7797229618151E-03
 0.1434647709874E-02 -0.6459661381754E-02  0.0000000000000E+00 -0.7124698883721E-03
 0.1408961276556E-02 -0.6405908309924E-02  0.0000000000000E+00 -0.6453371780542E-03
 0.1375731515646E-02 -0.6346611918815E-02  0.0000000000000E+00 -0.5778329190793E-03
 0.1335390821847E-02 -0.6281286365374E-02  0.0000000000000E+00 -0.5098108725836E-03
 0.1288218452826E-02 -0.6209187046522E-02  0.0000000000000E+00 -0.4416141200584E-03
 0.1234450235407E-02 -0.6129369744988E-02  0.0000000000000E+00 -0.3742062991606E-03
 0.1174404437791E-02 -0.6040758998675E-02  0.0000000000000E+00 -0.3092884297946E-03
 0.1108622764619E-02 -0.5942225042066E-02  0.0000000000000E+00 -0.2493896659899E-03
 0.1038026420021E-02 -0.5832673789364E-02  0.0000000000000E+00 -0.1979295921047E-03
 0.9640911594477E-03 -0.5711179078951E-02  0.0000000000000E+00 -0.1592380624953E-03
 0.8890690932108E-03 -0.5577271475741E-02  0.0000000000000E+00 -0.1384742299770E-03
 0.8161903145628E-03 -0.5431133235084E-02  0.0000000000000E+00 -0.1415280337055E-03
 0.7498392751828E-03 -0.5273584805498E-02  0.0000000000000E+00 -0.1750561569940E-03
 0.6958342101356E-03 -0.5106197945200E-02  0.0000000000000E+00 -0.2464915925381E-03
 0.6618550241121E-03 -0.4931632631864E-02  0.0000000000000E+00 -0.3638535751261E-03
 0.6580055244541E-03 -0.4754180899971E-02  0.0000000000000E+00 -0.5351557908524E-03
 0.6974358122975E-03 -0.4580451399264E-02  0.0000000000000E+00 -0.7671513997220E-03
 0.7968562660440E-03 -0.4420058602708E-02  0.0000000000000E+00 -0.1063114500929E-02
 0.9766324228008E-03 -0.4286069233071E-02  0.0000000000000E+00 -0.1419390638481E-02
 0.1259998692705E-02 -0.4194698147494E-02  0.0000000000000E+00 -0.1820800980904E-02
 0.1670794041441E-02 -0.4163822531507E-02  0.0000000000000E+00 -0.2235311877875E-02
 0.2228987059635E-02 -0.4209950689667E-02  0.0000000000000E+00 -0.2609086085489E-02
 0.2943770737619E-02 -0.4343105813935E-02  0.0000000000000E+00 -0.2865130147704E-02
 0.3805444594125E-02 -0.4560317248964E-02  0.0000000000000E+00 -0.2909705375141E-02
 0.4778953489247E-02 -0.4840234053699E-02  0.0000000000000E+00 -0.2649066495412E-02
 0.5803552964711E-02 -0.5142438381079E-02  0.0000000000000E+00 -0.2016171915355E-02
 0.6806807209559E-02 -0.5417584466000E-02  0.0000000000000E+00 -0.9997145344982E-03
 0.1017809511262E-03 -0.5847646014313E-02  0.0000000000000E+00 -0.6438117565574E-03
 0.3074459644101E-03 -0.5972517566880E-02  0.0000000000000E+00 -0.9094636136151E-03
 0.5106707718898E-03 -0.6091132848644E-02  0.0000000000000E+00 -0.1098070353638E-02
 0.7015879617215E-03 -0.6196481561508E-02  0.0000000000000E+00 -0.1214734940738E-02
 0.8723757372616E-03 -0.6283420924321E-02  0.0000000000000E+00 -0.1270318726292E-02
 0.1018246768874E-02 -0.6349346591855E-02  0.0000000000000E+00 -0.1278641139471E-02
 0.1137469483201E-02 -0.6394062938847E-02  0.0000000000000E+00 -0.1253617886539E-02
 0.1230721970024E-02 -0.6419133904788E-02  0.0000000000000E+00 -0.1207252982299E-02
 0.1300201880415E-02 -0.6427085118975E-02  0.0000000000000E+00 -0.1148724192120E-02
 0.1348811338121E-02 -0.6420720967476E-02  0.0000000000000E+00 -0.1084334661222E-02
 0.1379562954787E-02 -0.6402662282528E-02  0.0000000000000E+00 -0.1017953635988E-02
 0.1395221186936E-02 -0.6375096853100E-02  0.0000000000000E+00 -0.9516285650996E-03
 0.1398130004239E-02 -0.6339685483413E-02  0.0000000000000E+00 -0.8861771645060E-03
 0.1390163917472E-02 -0.6297561251448E-02  0.0000000000000E+00 -0.8216785504801E-03
 0.1372750277658E-02 -0.6249374352164E-02  0.0000000000000E+00 -0.7578508615108E-03
 0.1346928274002E-02 -0.6195353040491E-02  0.0000000000000E+00 -0.6943341782489E-03
 0.1313425460588E-02 -0.6135365903689E-02  0.0000000000000E+00 -0.6309061346279E-03
 0.1272745405363E-02 -0.6068983095221E-02  0.0000000000000E+00 -0.5676567314698E-03
 0.1225263340010E-02 -0.5995534225618E-02  0.0000000000000E+00 -0.5051348464922E-03
 0.1171334927396E-02 -0.5914171057784E-02  0.0000000000000E+00 -0.4444775558447E-03
 0.1111420629613E-02 -0.5823939671381E-02  0.0000000000000E+00 -0.3875209246528E-03
 0.1046224119732E-02 -0.5723860865045E-02  0.0000000000000E+00 -0.3368829043900E-03
 0.9768454538487E-03 -0.5613023943154E-02  0.0000000000000E+00 -0.2960170473566E-03
 0.9049535809278E-03 -0.5490721899274E-02  0.0000000000000E+00 -0.2692228460719E-03
 0.8330035644465E-03 -0.5356733371136E-02  0.0000000000000E+00 -0.2615536323315E-03
 0.7644378686626E-03 -0.5211520106283E-02  0.0000000000000E+00 -0.2786938865864E-03
 0.7038656950420E-03 -0.5056234877781E-02  0.0000000000000E+00 -0.3269414477123E-03
 0.6573310186913E-03 -0.4892846454763E-02  0.0000000000000E+00 -0.4131310025680E-03
 0.6326994016239E-03 -0.4724461624448E-02  0.0000000000000E+00 -0.5443317945638E-03
 0.6401352242442E-03 -0.4555814422143E-02  0.0000000000000E+00 -0.7271358691757E-03
 0.6925820362285E-03 -0.4393842638826E-02  0.0000000000000E+00 -0.9663141003927E-03
 0.8060712021185E-03 -0.4248204447389E-02  0.0000000000000E+00 -0.1262610584103E-02
 0.9995641434307E-03 -0.4131491659831E-02  0.0000000000000E+00 -0.1609522149919E-02
 0.1293928414341E-02 -0.4058686641311E-02  0.0000000000000E+00 -0.1989274173844E-02
 0.1709585254082E-02 -0.4045530132009E-02  0.0000000000000E+00 -0.2368522500752E-02
 0.2262328256046E-02 -0.4105603386589E-02  0.0000000000000E+00 -0.2694891618516E-02
 0.2957344102450E-02 -0.4245832142902E-02  0.0000000000000E+00 -0.2897095440653E-02
 0.3782686697859E-02 -0.4461191798282E-02  0.0000000000000E+00 -0.2891807677434E-02
 0.4704703312855E-02 -0.4730784888331E-02  0.0000000000000E+00 -0.2598838165382E-02
 0.5669267132961E-02 -0.5018367903941E-02  0.0000000000000E+00 -0.1963309571235E-02
 0.6613653157735E-02 -0.5281242474302E-02  0.0000000000000E+00 -0.9755023022681E-03
 0.9572765005501E-04 -0.5651151551883E-02  0.0000000000000E+00 -0.5709024339140E-03
 0.2891225402067E-03 -0.5768746333473E-02  0.0000000000000E+00 -0.8396196565847E-03
 0.4804396557020E-03 -0.5880797616345E-02  0.0000000000000E+00 -0.1035957666806E-02
 0.6608696468981E-03 -0.5981009290693E-02  0.0000000000000E+00 -0.1164151350830E-02
 0.8232821672315E-03 -0.6064626879471E-02  0.0000000000000E+00 -0.1233524377945E-02
 0.9631027184833E-03 -0.6129044674085E-02  0.0000000000000E+00 -0.1256223589894E-02
 0.1078409652533E-02 -0.6173763747361E-02  0.0000000000000E+00 -0.1244803471359E-02
 0.1169456660255E-02 -0.6199896715200E-02  0.0000000000000E+00 -0.1210426334192E-02
 0.1237947623892E-02 -0.6209507957747E-02  0.0000000000000E+00 -0.1161937672127E-02
 0.1286332804775E-02 -0.6205014452422E-02  0.0000000000000E+00 -0.1105689239583E-02
 0.1317266990275E-02 -0.6188753654161E-02  0.0000000000000E+00 -0.1045826505068E-02
 0.1333260712141E-02 -0.6162729290522E-02  0.0000000000000E+00 -0.9847756217739E-03
 0.1336495819053E-02 -0.6128497329322E-02  0.0000000000000E+00 -0.9237540821889E-03
 0.1328757409016E-02 -0.6087142936134E-02  0.0000000000000E+00 -0.8632187938529E-03
 0.1311438242041E-02 -0.6039307241622E-02  0.0000000000000E+00 -0.8032267292834E-03
 0.1285584272970E-02 -0.5985236342262E-02  0.0000000000000E+00 -0.7437152992152E-03
 0.1251962488644E-02 -0.5924837347710E-02  0.0000000000000E+00 -0.6847212664761E-03
 0.1211143657715E-02 -0.5857737804885E-02  0.0000000000000E+00 -0.6265591020840E-03
 0.1163595377900E-02 -0.5783344631626E-02  0.0000000000000E+00 -0.5699685265801E-03
 0.1109789019060E-02 -0.5700909281561E-02  0.0000000000000E+00 -0.5162411055984E-03
 0.1050321898891E-02 -0.5609602764077E-02  0.0000000000000E+00 -0.4673248483126E-03
 0.9860527062429E-03 -0.5508598795761E-02  0.0000000000000E+00 -0.4258991372395E-03
 0.9182514073538E-03 -0.5397170693375E-02  0.0000000000000E+00 -0.3954190596692E-03
 0.8487683414335E-03 -0.5274828405591E-02  0.0000000000000E+00 -0.3801145789052E-03
 0.7802451175170E-03 -0.5141592010875E-02  0.0000000000000E+00 -0.3848858424898E-03
 0.7163121696720E-03 -0.4998188671618E-02  0.0000000000000E+00 -0.4151558653104E-03
 0.6617657451265E-03 -0.4846076659585E-02  0.0000000000000E+00 -0.4768012520492E-03
 0.6228185479497E-03 -0.4687575209791E-02  0.0000000000000E+00 -0.5759984430981E-03
 0.6074407711266E-03 -0.4526164384907E-02  0.0000000000000E+00 -0.7188277725987E-03
 0.6257519422602E-03 -0.4366914459134E-02  0.0000000000000E+00 -0.9104727625801E-03
 0.6903681343186E-03 -0.4216955488465E-02  0.0000000000000E+00 -0.1153831862388E-02
 0.8165309718680E-03 -0.4085836073694E-02  0.0000000000000E+00 -0.1447379747023E-02
 0.1021747945776E-02 -0.3985541054914E-02  0.0000000000000E+00 -0.1782220643947E-02
 0.1324609010279E-02 -0.3929774181665E-02  0.0000000000000E+00 -0.2138633362612E-02
 0.1742436577712E-02 -0.3932263678257E-02  0.0000000000000E+00 -0.2482695620725E-02
 0.2287453050382E-02 -0.4004024395045E-02  0.0000000000000E+00 -0.2764035510431E-02
 0.2961661038424E-02 -0.4149460449804E-02  0.0000000000000E+00 -0.2917004575452E-02
 0.3751653641892E-02 -0.4362099062070E-02  0.0000000000000E+00 -0.2867644545829E-02
 0.4625522780558E-02 -0.4621843145765E-02  0.0000000000000E+00 -0.2547229884956E-02
 0.5534900777583E-02 -0.4896235191677E-02  0.0000000000000E+00 -0.1910264123511E-02
 0.6424496736127E-02 -0.5147779099142E-02  0.0000000000000E+00 -0.9482977086604E-03
 0.9003700459741E-04 -0.5455856952687E-02  0.0000000000000E+00 -0.5022943736775E-03
 0.2718916389554E-03 -0.5566581696620E-02  0.0000000000000E+00 -0.7737474965370E-03
 0.4519566430780E-03 -0.5672370029740E-02  0.0000000000000E+00 -0.9769932247672E-03
 0.6223461635987E-03 -0.5767554876242E-02  0.0000000000000E+00 -0.1115556462560E-02
 0.7765610590208E-03 -0.5847748507106E-02  0.0000000000000E+00 -0.1197474409941E-02
 0.9102616305631E-03 -0.5910386296934E-02  0.0000000000000E+00 -0.1233454264191E-02
 0.1021410885089E-02 -0.5954743670520E-02  0.0000000000000E+00 -0.1234831729561E-02
 0.1109926592530E-02 -0.5981561128102E-02  0.0000000000000E+00 -0.1211967653111E-02
 0.1177093365343E-02 -0.5992501173012E-02  0.0000000000000E+00 -0.1173341795174E-02
 0.1224959119382E-02 -0.5989626966605E-02  0.0000000000000E+00 -0.1125286117426E-02
 0.1255846551745E-02 -0.5975004661700E-02  0.0000000000000E+00 -0.1072149036500E-02
 0.1272020846089E-02 -0.5950452408107E-02  0.0000000000000E+00 -0.1016673382118E-02
 0.1275500334980E-02 -0.5917413552929E-02  0.0000000000000E+00 -0.9604305026222E-03
 0.1267974848229E-02 -0.5876916375368E-02  0.0000000000000E+00 -0.9042236964920E-03
 0.1250795637688E-02 -0.5829585584798E-02  0.0000000000000E+00 -0.8484277340518E-03
 0.1225009093612E-02 -0.5775680494350E-02  0.0000000000000E+00 -0.7932622132183E-03
 0.1191416335633E-02 -0.5715144884242E-02  0.0000000000000E+00 -0.7390099997430E-03
 0.1150650769584E-02 -0.5647664034475E-02  0.0000000000000E+00 -0.6861963605644E-03
 0.1103267879162E-02 -0.5572723830523E-02  0.0000000000000E+00 -0.6357358221674E-03
 0.1049849607706E-02 -0.5489677447927E-02  0.0000000000000E+00 -0.5890552112374E-03
 0.9911237220175E-03 -0.5397822352344E-02  0.0000000000000E+00 -0.5481917957220E-03
 0.9280957952369E-03 -0.5296485452838E-02  0.0000000000000E+00 -0.5158600473264E-03
 0.8621953296166E-03 -0.5185122271205E-02  0.0000000000000E+00 -0.4954859367868E-03
 0.7954404442265E-03 -0.5063454587073E-02  0.0000000000000E+00 -0.4911938322152E-03
 0.7306407811059E-03 -0.4931733856469E-02  0.0000000000000E+00 -0.5076886532416E-03
 0.6715883680357E-03 -0.4790934870291E-02  0.0000000000000E+00 -0.5500846536404E-03
 0.6232278465859E-03 -0.4642791189166E-02  0.0000000000000E+00 -0.6237882635526E-03
 0.5918851708175E-03 -0.4489924081832E-02  0.0000000000000E+00 -0.7342769221480E-03
 0.5855602141641E-03 -0.4336114900441E-02  0.0000000000000E+00 -0.8866280400565E-03
 0.6142354742555E-03 -0.4186672235541E-02  0.0000000000000E+00 -0.1084658103880E-02
 0.6901017058722E-03 -0.4048799181084E-02  0.0000000000000E+00 -0.1329528284750E-02
 0.8275339354020E-03 -0.3931811790059E-02  0.0000000000000E+00 -0.1617713292766E-02
 0.1042576478397E-02 -0.3846997812440E-02  0.0000000000000E+00 -0.1938352928213E-02
 0.1351664614599E-02 -0.3806780867248E-02  0.0000000000000E+00 -0.2270341579668E-02
 0.1769342721834E-02 -0.3823027137276E-02  0.0000000000000E+00 -0.2579758001284E-02
 0.2304804984095E-02 -0.3904526971710E-02  0.0000000000000E+00 -0.2818586436976E-02
 0.2957554166981E-02 -0.4053654558256E-02  0.0000000000000E+00 -0.2926612631495E-02
 0.3713324184656E-02 -0.4262970137137E-02  0.0000000000000E+00 -0.2838230844196E-02
 0.4542099215389E-02 -0.4513384886798E-02  0.0000000000000E+00 -0.2494333411961E-02
 0.5400454667083E-02 -0.4775766149773E-02  0.0000000000000E+00 -0.1856776962739E-02
 0.6239113212084E-02 -0.5016831749581E-02  0.0000000000000E+00 -0.9184356345098E-03
 0.8467043177706E-04 -0.5261637183745E-02  0.0000000000000E+00 -0.4377425420360E-03
 0.2556372250738E-03 -0.5365858800983E-02  0.0000000000000E+00 -0.7116481110993E-03
 0.4250422788940E-03 -0.5465664251244E-02  0.0000000000000E+00 -0.9210876105472E-03
 0.5858102598763E-03 -0.5555943079670E-02  0.0000000000000E+00 -0.1069001339636E-02
 0.7320179839157E-03 -0.5632651740707E-02  0.0000000000000E+00 -0.1162346366237E-02
 0.8595721931148E-03 -0.5693296810334E-02  0.0000000000000E+00 -0.1210590422002E-02
 0.9663784774189E-03 -0.5736990173703E-02  0.0000000000000E+00 -0.1223982978189E-02
 0.1052092401171E-02 -0.5764167642231E-02  0.0000000000000E+00 -0.1212132559498E-02
 0.1117645081702E-02 -0.5776143802864E-02  0.0000000000000E+00 -0.1183137034490E-02
 0.1164728777334E-02 -0.5774661552222E-02  0.0000000000000E+00 -0.1143256987529E-02
 0.1195360818119E-02 -0.5761530748155E-02  0.0000000000000E+00 -0.1096982409257E-02
 0.1211572238315E-02 -0.5738386201519E-02  0.0000000000000E+00 -0.1047317081722E-02
 0.1215219224232E-02 -0.5706554136846E-02  0.0000000000000E+00 -0.9961422276548E-03
 0.1207892654629E-02 -0.5666999260172E-02  0.0000000000000E+00 -0.9445753870123E-03
 0.1190896717080E-02 -0.5620323739369E-02  0.0000000000000E+00 -0.8932860578607E-03
 0.1165272504098E-02 -0.5566795812606E-02  0.0000000000000E+00 -0.8427585208414E-03
 0.1131849953517E-02 -0.5506393705458E-02  0.0000000000000E+00 -0.7935066098353E-03
 0.1091320096034E-02 -0.5438859876408E-02  0.0000000000000E+00 -0.7462511794657E-03
 0.1044321104956E-02 -0.5363759580894E-02  0.0000000000000E+00 -0.7020647098725E-03
 0.9915395092907E-03 -0.5280548243841E-02  0.0000000000000E+00 -0.6624899795144E-03
 0.9338261877900E-03 -0.5188649622565E-02  0.0000000000000E+00 -0.6296314301263E-03
 0.8723244327596E-03 -0.5087542193520E-02  0.0000000000000E+00 -0.6062135488850E-03
 0.8086116875060E-03 -0.4976859684814E-02  0.0000000000000E+00 -0.5956046741502E-03
 0.7448587956731E-03 -0.4856528035063E-02  0.0000000000000E+00 -0.6017910492762E-03
 0.6840234003823E-03 -0.4727017180656E-02  0.0000000000000E+00 -0.6292460170285E-03
 0.6300316148676E-03 -0.4589528935439E-02  0.0000000000000E+00 -0.6827365534312E-03
 0.5879379567243E-03 -0.4446039791628E-02  0.0000000000000E+00 -0.7671628189680E-03
 0.5641288967105E-03 -0.4299424312655E-02  0.0000000000000E+00 -0.8872798945294E-03
 0.5665661881610E-03 -0.4153696473990E-02  0.0000000000000E+00 -0.1047169490313E-02
 0.6050167171064E-03 -0.4014314585762E-02  0.0000000000000E+00 -0.1249344622343E-02
 0.6911697183528E-03 -0.3888453397176E-02  0.0000000000000E+00 -0.1493380394364E-02
 0.8384859820180E-03 -0.3785101056245E-02  0.0000000000000E+00 -0.1774019063820E-02
 0.1061568956600E-02 -0.3714792922602E-02  0.0000000000000E+00 -0.2078827981401E-02
 0.1374843343530E-02 -0.3688703628831E-02  0.0000000000000E+00 -0.2385794577522E-02
 0.1790386594632E-02 -0.3717001111744E-02  0.0000000000000E+00 -0.2661445322962E-02
 0.2314845371749E-02 -0.3806566305420E-02  0.0000000000000E+00 -0.2860326399690E-02
 0.2945786934438E-02 -0.3958159017363E-02  0.0000000000000E+00 -0.2927366959021E-02
 0.3668533271634E-02 -0.4163744330156E-02  0.0000000000000E+00 -0.2804349326621E-02
 0.4454980507067E-02 -0.4405335037070E-02  0.0000000000000E+00 -0.2440221976084E-02
 0.5265956397392E-02 -0.4656687514356E-02  0.0000000000000E+00 -0.1802741637999E-02
 0.6057253805006E-02 -0.4888052706376E-02  0.0000000000000E+00 -0.8861668686517E-03
 0.7959447377257E-04 -0.5068382061552E-02  0.0000000000000E+00 -0.3770262033266E-03
 0.2402584857022E-03 -0.5166432351578E-02  0.0000000000000E+00 -0.6531384931466E-03
 0.3995393396415E-03 -0.5260514988702E-02  0.0000000000000E+00 -0.8681485381249E-03
 0.5510772087300E-03 -0.5346014573536E-02  0.0000000000000E+00 -0.1024512244500E-02
 0.6894748916447E-03 -0.5419209418455E-02  0.0000000000000E+00 -0.1128276883743E-02
 0.8108900586378E-03 -0.5477698323094E-02  0.0000000000000E+00 -0.1187842767189E-02
 0.9132155799568E-03 -0.5520479221429E-02  0.0000000000000E+00 -0.1212494951414E-02
 0.9959059779400E-03 -0.5547740353058E-02  0.0000000000000E+00 -0.1211143696212E-02
 0.1059596457143E-02 -0.5560496830394E-02  0.0000000000000E+00 -0.1191501878456E-02
 0.1105666901459E-02 -0.5560203804369E-02  0.0000000000000E+00 -0.1159721089335E-02
 0.1135856020290E-02 -0.5548431614029E-02  0.0000000000000E+00 -0.1120382236225E-02
 0.1151973637756E-02 -0.5526636799876E-02  0.0000000000000E+00 -0.1076700646364E-02
 0.1155717317831E-02 -0.5496026669764E-02  0.0000000000000E+00 -0.1030825987012E-02
 0.1148577140333E-02 -0.5457497682002E-02  0.0000000000000E+00 -0.9841579225385E-03
 0.1131805901411E-02 -0.5411624506909E-02  0.0000000000000E+00 -0.9376363052907E-03
 0.1106434260774E-02 -0.5358680395640E-02  0.0000000000000E+00 -0.8919908361680E-03
 0.1073315725284E-02 -0.5298675532064E-02  0.0000000000000E+00 -0.8479495440463E-03
 0.1033193612558E-02 -0.5231408250815E-02  0.0000000000000E+00 -0.8064124827364E-03
 0.9867830142017E-03 -0.5156522485442E-02  0.0000000000000E+00 -0.7685926774215E-03
 0.9348683457388E-03 -0.5073575103733E-02  0.0000000000000E+00 -0.7361296642101E-03
 0.8784154713637E-03 -0.4982114472686E-02  0.0000000000000E+00 -0.7111737540305E-03
 0.8186953646051E-03 -0.4881767306997E-02  0.0000000000000E+00 -0.6964358618207E-03
 0.7574208247272E-03 -0.4772339613397E-02  0.0000000000000E+00 -0.6952005938627E-03
 0.6968992866951E-03 -0.4653951665242E-02  0.0000000000000E+00 -0.7112873684108E-03
 0.6402153968599E-03 -0.4527276739414E-02  0.0000000000000E+00 -0.7489074591688E-03
 0.5914014645136E-03 -0.4393721081500E-02  0.0000000000000E+00 -0.8124506236956E-03
 0.5555844007377E-03 -0.4255470703886E-02  0.0000000000000E+00 -0.9062866002869E-03
 0.5391621200515E-03 -0.4115605716024E-02  0.0000000000000E+00 -0.1034440109787E-02
 0.5499982301851E-03 -0.3978308659627E-02  0.0000000000000E+00 -0.1200021920815E-02
 0.5975787892221E-03 -0.3849109079206E-02  0.0000000000000E+00 -0.1404321437551E-02
 0.6930349859120E-03 -0.3735069232398E-02  0.0000000000000E+00 -0.1645487289818E-02
 0.8488902470839E-03 -0.3644778434256E-02  0.0000000000000E+00 -0.1916786895381E-02
 0.1078353104919E-02 -0.3587992449465E-02  0.0000000000000E+00 -0.2204566683404E-02
 0.1393993119623E-02 -0.3574690949826E-02  0.0000000000000E+00 -0.2486305351177E-02
 0.1805714669084E-02 -0.3613510939990E-02  0.0000000000000E+00 -0.2729311898472E-02
 0.2318037141189E-02 -0.3709708423926E-02  0.0000000000000E+00 -0.2890788486087E-02
 0.2927052595481E-02 -0.3862775532097E-02  0.0000000000000E+00 -0.2920464509261E-02
 0.3617994973505E-02 -0.4064360584854E-02  0.0000000000000E+00 -0.2766622148304E-02
 0.4364620589316E-02 -0.4297596530871E-02  0.0000000000000E+00 -0.2384978528717E-02
 0.5131448078912E-02 -0.4538754541718E-02  0.0000000000000E+00 -0.1748125048567E-02
 0.5878661809118E-02 -0.4761125386756E-02  0.0000000000000E+00 -0.8516806862759E-03
 0.7477988479573E-04 -0.4875993652513E-02  0.0000000000000E+00 -0.3199459876766E-03
 0.2256671733152E-03 -0.4968173280996E-02  0.0000000000000E+00 -0.5980503655330E-03
 0.3753091919211E-03 -0.5056774267919E-02  0.0000000000000E+00 -0.8180830739432E-03
 0.5179816049909E-03 -0.5137623944262E-02  0.0000000000000E+00 -0.9820963796062E-03
 0.6487684536377E-03 -0.5207301161561E-02  0.0000000000000E+00 -0.1095369141339E-02
 0.7640779738045E-03 -0.5263511287514E-02  0.0000000000000E+00 -0.1165382296793E-02
 0.8618246244867E-03 -0.5305177836496E-02  0.0000000000000E+00 -0.1200567514037E-02
 0.9413124508426E-03 -0.5332289668333E-02  0.0000000000000E+00 -0.1209192946842E-02
 0.1002930796605E-02 -0.5345605483540E-02  0.0000000000000E+00 -0.1198593053370E-02
 0.1047786754305E-02 -0.5346323514665E-02  0.0000000000000E+00 -0.1174784265896E-02
 0.1077366467373E-02 -0.5335792218671E-02  0.0000000000000E+00 -0.1142397222499E-02
 0.1093272501380E-02 -0.5315296971884E-02  0.0000000000000E+00 -0.1104815488184E-02
 0.1097048928351E-02 -0.5285926542921E-02  0.0000000000000E+00 -0.1064418670395E-02
 0.1090084686797E-02 -0.5248506193213E-02  0.0000000000000E+00 -0.1022857076224E-02
 0.1073577935080E-02 -0.5203579202459E-02  0.0000000000000E+00 -0.9813158534033E-03
 0.1048544341934E-02 -0.5151420320720E-02  0.0000000000000E+00 -0.9407496414717E-03
 0.1015855858677E-02 -0.5092069030833E-02  0.0000000000000E+00 -0.9020826865347E-03
 0.9763025318079E-03 -0.5025377623908E-02  0.0000000000000E+00 -0.8663770048352E-03
 0.9306701529753E-03 -0.4951067077918E-02  0.0000000000000E+00 -0.8349684481720E-03
 0.8798337495745E-03 -0.4868793726896E-02  0.0000000000000E+00 -0.8095744194221E-03
 0.8248653982864E-03 -0.4778227524068E-02  0.0000000000000E+00 -0.7923707419801E-03
 0.7671530129363E-03 -0.4679138595092E-02  0.0000000000000E+00 -0.7860328400731E-03
 0.7085314120100E-03 -0.4571497644352E-02  0.0000000000000E+00 -0.7937381076950E-03
 0.6514277677788E-03 -0.4455607701844E-02  0.0000000000000E+00 -0.8191144275206E-03
 0.5990322729665E-03 -0.4332328568065E-02  0.0000000000000E+00 -0.8660863469146E-03
 0.5554558109055E-03 -0.4203247099935E-02  0.0000000000000E+00 -0.9386446215304E-03
 0.5258619629558E-03 -0.4070725298845E-02  0.0000000000000E+00 -0.1040615247526E-02
 0.5166153131304E-03 -0.3938003080678E-02  0.0000000000000E+00 -0.1175297781256E-02
 0.5354293194914E-03 -0.3809372965995E-02  0.0000000000000E+00 -0.1344870783911E-02
 0.5914567064701E-03 -0.3690367586300E-02  0.0000000000000E+00 -0.1549491088036E-02
 0.6952315151728E-03 -0.3587868645817E-02  0.0000000000000E+00 -0.1786042651067E-02
 0.8583366976143E-03 -0.3510016748831E-02  0.0000000000000E+00 -0.2046560283382E-02
 0.1092648722906E-02 -0.3465782918231E-02  0.0000000000000E+00 -0.2316479226920E-02
 0.1409041304264E-02 -0.3464020903632E-02  0.0000000000000E+00 -0.2573095739913E-02
 0.1815517828746E-02 -0.3512000759698E-02  0.0000000000000E+00 -0.2784743503988E-02
 0.2314833815776E-02 -0.3613606205392E-02  0.0000000000000E+00 -0.2911291456834E-02
 0.2901977719007E-02 -0.3767347083548E-02  0.0000000000000E+00 -0.2906901596046E-02
 0.3562325231878E-02 -0.3964758380694E-02  0.0000000000000E+00 -0.2725558262144E-02
 0.4271406160998E-02 -0.4190069258786E-02  0.0000000000000E+00 -0.2328695027084E-02
 0.4996976156453E-02 -0.4421755231475E-02  0.0000000000000E+00 -0.1692926468980E-02
 0.5703083551165E-02 -0.4635766673944E-02  0.0000000000000E+00 -0.8151292772849E-03
 0.7020089526854E-04 -0.4684384145550E-02  0.0000000000000E+00 -0.2663214381620E-03
 0.2117854435413E-03 -0.4770965984853E-02  0.0000000000000E+00 -0.5462289960887E-03
 0.3522287671107E-03 -0.4854308669081E-02  0.0000000000000E+00 -0.7707992121813E-03
 0.4863745803213E-03 -0.4930637815935E-02  0.0000000000000E+00 -0.9417463574174E-03
 0.6097484394337E-03 -0.4996812951509E-02  0.0000000000000E+00 -0.1063698927341E-02
 0.7190056014644E-03 -0.5050655485116E-02  0.0000000000000E+00 -0.1143346163096E-02
 0.8121082854806E-03 -0.5091045978068E-02  0.0000000000000E+00 -0.1188366992057E-02
 0.8882517182854E-03 -0.5117814434637E-02  0.0000000000000E+00 -0.1206443788056E-02
 0.9476226165248E-03 -0.5131501113633E-02  0.0000000000000E+00 -0.1204546172133E-02
 0.9910910683857E-03 -0.5133076053259E-02  0.0000000000000E+00 -0.1188538523476E-02
 0.1019915502936E-02 -0.5123683630938E-02  0.0000000000000E+00 -0.1163068266116E-02
 0.1035505602311E-02 -0.5104446538490E-02  0.0000000000000E+00 -0.1131649625945E-02
 0.1039258204715E-02 -0.5076337068935E-02  0.0000000000000E+00 -0.1096856758013E-02
 0.1032461960554E-02 -0.5040107779652E-02  0.0000000000000E+00 -0.1060560212753E-02
 0.1016258070458E-02 -0.4996267611408E-02  0.0000000000000E+00 -0.1024165199246E-02
 0.9916431939185E-03 -0.4945089694075E-02  0.0000000000000E+00 -0.9888300664599E-03
 0.9595027685663E-03 -0.4886640048485E-02  0.0000000000000E+00 -0.9556564883334E-03
 0.9206678815407E-03 -0.4820822500439E-02  0.0000000000000E+00 -0.9258506657764E-03
 0.8759884751431E-03 -0.4747432638225E-02  0.0000000000000E+00 -0.9008534800488E-03
 0.8264224674667E-03 -0.4666223273382E-02  0.0000000000000E+00 -0.8824417892166E-03
 0.7731388706813E-03 -0.4576981756563E-02  0.0000000000000E+00 -0.8727976694055E-03
 0.7176312683009E-03 -0.4479615510300E-02  0.0000000000000E+00 -0.8745409488176E-03
 0.6618426470165E-03 -0.4374250982141E-02  0.0000000000000E+00 -0.8907210764317E-03
 0.6083026786914E-03 -0.4261361015559E-02  0.0000000000000E+00 -0.9247537210821E-03
 0.5602856381364E-03 -0.4141973966794E-02  0.0000000000000E+00 -0.9802577065716E-03
 0.5219541706543E-03 -0.4017832922020E-02  0.0000000000000E+00 -0.1060810578549E-02
 0.4984751167894E-03 -0.3891442993354E-02  0.0000000000000E+00 -0.1169690866038E-02
 0.4961396484586E-03 -0.3766160932729E-02  0.0000000000000E+00 -0.1309489188719E-02
 0.5224670338564E-03 -0.3646336618695E-02  0.0000000000000E+00 -0.1481501309662E-02
 0.5862359224616E-03 -0.3537447762932E-02  0.0000000000000E+00 -0.1684849333125E-02
 0.6973591749111E-03 -0.3446142055636E-02  0.0000000000000E+00 -0.1915311774457E-02
 0.8664920483838E-03 -0.3380079230723E-02  0.0000000000000E+00 -0.2163914223134E-02
 0.1104253109912E-02 -0.3347457223930E-02  0.0000000000000E+00 -0.2415449394228E-02
 0.1419977870123E-02 -0.3356081746433E-02  0.0000000000000E+00 -0.2647293645935E-02
 0.1820016737399E-02 -0.3412011989484E-02  0.0000000000000E+00 -0.2828972048906E-02
 0.2305672676794E-02 -0.3517980661116E-02  0.0000000000000E+00 -0.2922971096916E-02
 0.2871128063616E-02 -0.3671747586737E-02  0.0000000000000E+00 -0.2887514009946E-02
 0.3502060471904E-02 -0.3864880500831E-02  0.0000000000000E+00 -0.2681582676684E-02
 0.4175672295111E-02 -0.4082659228752E-02  0.0000000000000E+00 -0.2271465657724E-02
 0.4862584911257E-02 -0.4305507200530E-02  0.0000000000000E+00 -0.1637158607579E-02
 0.5530275677861E-02 -0.4511724898066E-02  0.0000000000000E+00 -0.7766451706688E-03
 0.6583460566225E-04 -0.4493474103053E-02  0.0000000000000E+00 -0.2159889924364E-03
 0.1985440795120E-03 -0.4574706043712E-02  0.0000000000000E+00 -0.4975321534516E-03
 0.3301880355083E-03 -0.4652997005272E-02  0.0000000000000E+00 -0.7262070219606E-03
 0.4561213901304E-03 -0.4724933188453E-02  0.0000000000000E+00 -0.9034437320721E-03
 0.5722761816984E-03 -0.4787636618224E-02  0.0000000000000E+00 -0.1033319627083E-02
 0.6755491613564E-03 -0.4839050696452E-02  0.0000000000000E+00 -0.1121842709467E-02
 0.7639701189381E-03 -0.4878038035005E-02  0.0000000000000E+00 -0.1176030127471E-02
 0.8366596617647E-03 -0.4904303752084E-02  0.0000000000000E+00 -0.1203033685445E-02
 0.8936390053279E-03 -0.4918202908167E-02  0.0000000000000E+00 -0.1209476687489E-02
 0.9355732646527E-03 -0.4920503737745E-02  0.0000000000000E+00 -0.1201061984999E-02
 0.9635164529824E-03 -0.4912163987878E-02  0.0000000000000E+00 -0.1182427919363E-02
 0.9786997017418E-03 -0.4894152973040E-02  0.0000000000000E+00 -0.1157187070394E-02
 0.9823795918869E-03 -0.4867329832067E-02  0.0000000000000E+00 -0.1128075902663E-02
 0.9757462514035E-03 -0.4832374084030E-02  0.0000000000000E+00 -0.1097156206806E-02
 0.9598823769379E-03 -0.4789758201379E-02  0.0000000000000E+00 -0.1066028254543E-02
 0.9357620933003E-03 -0.4739750951404E-02  0.0000000000000E+00 -0.1036032531766E-02
 0.9042795606821E-03 -0.4682442085026E-02  0.0000000000000E+00 -0.1008428889034E-02
 0.8663011646115E-03 -0.4617784140358E-02  0.0000000000000E+00 -0.9845496728053E-03
 0.8227342219984E-03 -0.4545644212297E-02  0.0000000000000E+00 -0.9659231305078E-03
 0.7746114955655E-03 -0.4465867740475E-02  0.0000000000000E+00 -0.9543678031820E-03
 0.7231892912117E-03 -0.4378354292792E-02  0.0000000000000E+00 -0.9520539833867E-03
 0.6700552331422E-03 -0.4283141399091E-02  0.0000000000000E+00 -0.9615277136879E-03
 0.6172463392984E-03 -0.4180501197421E-02  0.0000000000000E+00 -0.9856925701702E-03
 0.5673774683361E-03 -0.4071062405065E-02  0.0000000000000E+00 -0.1027735302222E-02
 0.5237858959955E-03 -0.3956003291130E-02  0.0000000000000E+00 -0.1090955376600E-02
 0.4906604649413E-03 -0.3837198799471E-02  0.0000000000000E+00 -0.1178509800580E-02
 0.4731405714498E-03 -0.3717265542724E-02  0.0000000000000E+00 -0.1293134210442E-02
 0.4774087722880E-03 -0.3599637436089E-02  0.0000000000000E+00 -0.1436735462590E-02
 0.5107537791992E-03 -0.3488675261221E-02  0.0000000000000E+00 -0.1609783643889E-02
 0.5815500646532E-03 -0.3389753442174E-02  0.0000000000000E+00 -0.1810467142470E-02
 0.6990780193572E-03 -0.3309245143766E-02  0.0000000000000E+00 -0.2033612150959E-02
 0.8730902119050E-03 -0.3254311654907E-02  0.0000000000000E+00 -0.2269437710197E-02
 0.1113028250120E-02 -0.3232401826590E-02  0.0000000000000E+00 -0.2502323709492E-02
 0.1426841542751E-02 -0.3250355354164E-02  0.0000000000000E+00 -0.2709933733143E-02
 0.1819450758510E-02 -0.3313165926643E-02  0.0000000000000E+00 -0.2863090567050E-02
 0.2290970939380E-02 -0.3422606843762E-02  0.0000000000000E+00 -0.2926807597993E-02
 0.2835015137457E-02 -0.3575875375449E-02  0.0000000000000E+00 -0.2863008113850E-02
 0.3437672088982E-02 -0.3764675430771E-02  0.0000000000000E+00 -0.2635054970724E-02
 0.4077712425794E-02 -0.3975282337757E-02  0.0000000000000E+00 -0.2213381314073E-02
 0.4728313717208E-02 -0.4189853444003E-02  0.0000000000000E+00 -0.1580840095525E-02
 0.5360009923942E-02 -0.4388777334470E-02  0.0000000000000E+00 -0.7363517262285E-03
 0.6166049431800E-04 -0.4303191009564E-02  0.0000000000000E+00 -0.1688002670578E-03
 0.1858810271586E-03 -0.4379298322623E-02  0.0000000000000E+00 -0.4518291682998E-03
 0.3090878906301E-03 -0.4452728347127E-02  0.0000000000000E+00 -0.6842194493621E-03
 0.4270993235989E-03 -0.4520395947025E-02  0.0000000000000E+00 -0.8671617648892E-03
 0.5362231470238E-03 -0.4579669255654E-02  0.0000000000000E+00 -0.1004266290310E-02
 0.6335909533320E-03 -0.4628617099329E-02  0.0000000000000E+00 -0.1100955744119E-02
 0.7173149496763E-03 -0.4666103964088E-02  0.0000000000000E+00 -0.1163667609491E-02
 0.7864690841783E-03 -0.4691738464583E-02  0.0000000000000E+00 -0.1199076410458E-02
 0.8409407657181E-03 -0.4705719377570E-02  0.0000000000000E+00 -0.1213481004832E-02
 0.8812185404319E-03 -0.4708637090337E-02  0.0000000000000E+00 -0.1212419107832E-02
 0.9081735264351E-03 -0.4701279437610E-02  0.0000000000000E+00 -0.1200500113310E-02
 0.9228722344818E-03 -0.4684472050444E-02  0.0000000000000E+00 -0.1181407410241E-02
 0.9264383404742E-03 -0.4658965122717E-02  0.0000000000000E+00 -0.1158010625372E-02
 0.9199658761910E-03 -0.4625365726359E-02  0.0000000000000E+00 -0.1132535385911E-02
 0.9044781164067E-03 -0.4584108429054E-02  0.0000000000000E+00 -0.1106752583308E-02
 0.8809235663259E-03 -0.4535455241542E-02  0.0000000000000E+00 -0.1082163264208E-02
 0.8502005567239E-03 -0.4479516831989E-02  0.0000000000000E+00 -0.1060166048778E-02
 0.8132050397196E-03 -0.4416291317148E-02  0.0000000000000E+00 -0.1042201378952E-02
 0.7708947981989E-03 -0.4345713645969E-02  0.0000000000000E+00 -0.1029867530721E-02
 0.7243691823961E-03 -0.4267717320355E-02  0.0000000000000E+00 -0.1025007736575E-02
 0.6749619192464E-03 -0.4182308123299E-02  0.0000000000000E+00 -0.1029763794033E-02
 0.6243428510352E-03 -0.4089645633580E-02  0.0000000000000E+00 -0.1046591747803E-02
 0.5746288174371E-03 -0.3990136793042E-02  0.0000000000000E+00 -0.1078234171930E-02
 0.5285027507900E-03 -0.3884551597191E-02  0.0000000000000E+00 -0.1127636019307E-02
 0.4893445572879E-03 -0.3774199329941E-02  0.0000000000000E+00 -0.1197768742181E-02
 0.4613452974142E-03 -0.3661062907743E-02  0.0000000000000E+00 -0.1291367595312E-02
 0.4495891832614E-03 -0.3547840570048E-02  0.0000000000000E+00 -0.1410636898868E-02
 0.4601198471956E-03 -0.3438007348544E-02  0.0000000000000E+00 -0.1556831917000E-02
 0.4999662933619E-03 -0.3335894604966E-02  0.0000000000000E+00 -0.1729659308501E-02
 0.5770781409918E-03 -0.3246734042338E-02  0.0000000000000E+00 -0.1926475001393E-02
 0.7001025617238E-03 -0.3176595040222E-02  0.0000000000000E+00 -0.2141297394066E-02
 0.8779234946719E-03 -0.3132134607432E-02  0.0000000000000E+00 -0.2363720288829E-02
 0.1118889741658E-02 -0.3120085175085E-02  0.0000000000000E+00 -0.2577904472126E-02
 0.1429708556630E-02 -0.3146403093790E-02  0.0000000000000E+00 -0.2761960520951E-02
 0.1814069760822E-02 -0.3215149662071E-02  0.0000000000000E+00 -0.2888067789762E-02
 0.2271124023422E-02 -0.3327303189305E-02  0.0000000000000E+00 -0.2923648877744E-02
 0.2794102554598E-02 -0.3479648806537E-02  0.0000000000000E+00 -0.2833984649775E-02
 0.3369577591447E-02 -0.3664098704379E-02  0.0000000000000E+00 -0.2586281674051E-02
 0.3977785392807E-02 -0.3867865341333E-02  0.0000000000000E+00 -0.2154526433706E-02
 0.4594196540176E-02 -0.4074658550398E-02  0.0000000000000E+00 -0.1523992924096E-02
 0.5192075912297E-02 -0.4266727773374E-02  0.0000000000000E+00 -0.6943686528693E-03
 0.5766000327289E-04 -0.4113468056805E-02  0.0000000000000E+00 -0.1246206541338E-03
 0.1737401708725E-03 -0.4184655363258E-02  0.0000000000000E+00 -0.4090001259696E-03
 0.2888383563844E-03 -0.4253400314537E-02  0.0000000000000E+00 -0.6447529032517E-03
 0.3991958786422E-03 -0.4316919501114E-02  0.0000000000000E+00 -0.8328676271708E-03
 0.5014696052856E-03 -0.4372812567818E-02  0.0000000000000E+00 -0.9765589836554E-03
 0.5930187966340E-03 -0.4419275422928E-02  0.0000000000000E+00 -0.1080748191816E-02
 0.6720490530790E-03 -0.4455190093437E-02  0.0000000000000E+00 -0.1151367236231E-02
 0.7376104071325E-03 -0.4480092315666E-02  0.0000000000000E+00 -0.1194664268245E-02
 0.7894833479737E-03 -0.4494049568523E-02  0.0000000000000E+00 -0.1216637718136E-02
 0.8280048126324E-03 -0.4497495903245E-02  0.0000000000000E+00 -0.1222661134808E-02
 0.8538826372984E-03 -0.4491064963252E-02  0.0000000000000E+00 -0.1217300136243E-02
 0.8680319679347E-03 -0.4475448427753E-02  0.0000000000000E+00 -0.1204285614911E-02
 0.8714510219155E-03 -0.4451292329499E-02  0.0000000000000E+00 -0.1186594163097E-02
 0.8651406023965E-03 -0.4419132588231E-02  0.0000000000000E+00 -0.1166589553553E-02
 0.8500641389720E-03 -0.4379365002673E-02  0.0000000000000E+00 -0.1146189651650E-02
 0.8271418192211E-03 -0.4332242747745E-02  0.0000000000000E+00 -0.1127034764133E-02
 0.7972718140547E-03 -0.4277894623193E-02  0.0000000000000E+00 -0.1110642981009E-02
 0.7613739754729E-03 -0.4216360958161E-02  0.0000000000000E+00 -0.1098544999086E-02
 0.7204495955968E-03 -0.4147640465397E-02  0.0000000000000E+00 -0.1092392280619E-02
 0.6756562496622E-03 -0.4071749563295E-02  0.0000000000000E+00 -0.1094036659551E-02
 0.6283951083883E-03 -0.3988793588521E-02  0.0000000000000E+00 -0.1105576127173E-02
 0.5804063706156E-03 -0.3899045439721E-02  0.0000000000000E+00 -0.1129362518603E-02
 0.5338726098324E-03 -0.3803035389469E-02  0.0000000000000E+00 -0.1167965014223E-02
 0.4915281565026E-03 -0.3701659767543E-02  0.0000000000000E+00 -0.1224077510550E-02
 0.4567761528442E-03 -0.3596340080463E-02  0.0000000000000E+00 -0.1300339312072E-02
 0.4337877284104E-03 -0.3489144201971E-02  0.0000000000000E+00 -0.1399068022665E-02
 0.4275672705980E-03 -0.3382824197671E-02  0.0000000000000E+00 -0.1521953969578E-02
 0.4439939528946E-03 -0.3280863956835E-02  0.0000000000000E+00 -0.1669638222504E-02
 0.4898145660515E-03 -0.3187531021033E-02  0.0000000000000E+00 -0.1841129185359E-02
 0.5725413936183E-03 -0.3107883048237E-02  0.0000000000000E+00 -0.2033049548031E-02
 0.7001961563542E-03 -0.3047665967625E-02  0.0000000000000E+00 -0.2238744249575E-02
 0.8808345895267E-03 -0.3013035898313E-02  0.0000000000000E+00 -0.2447342051234E-02
 0.1121797304783E-02 -0.3010047194314E-02  0.0000000000000E+00 -0.2642945830155E-02
 0.1428683583381E-02 -0.3043853678745E-02  0.0000000000000E+00 -0.2804233048232E-02
 0.1804128118107E-02 -0.3117704552358E-02  0.0000000000000E+00 -0.2904761839429E-02
 0.2246505102349E-02 -0.3231923235857E-02  0.0000000000000E+00 -0.2914230175021E-02
 0.2748811711320E-02 -0.3383002906310E-02  0.0000000000000E+00 -0.2800957086792E-02
 0.3298149143431E-02 -0.3563113213384E-02  0.0000000000000E+00 -0.2535525182497E-02
 0.3876120709624E-02 -0.3760345400827E-02  0.0000000000000E+00 -0.2094977707898E-02
 0.4460262401316E-02 -0.3959805501477E-02  0.0000000000000E+00 -0.1466641743867E-02
 0.5026282215879E-02 -0.4145404069329E-02  0.0000000000000E+00 -0.6508144007442E-03
 0.5381619314347E-04 -0.3924243124238E-02  0.0000000000000E+00 -0.8332814585377E-04
 0.1620703060634E-03 -0.3990696040353E-02  0.0000000000000E+00 -0.3689351694090E-03
 0.2693570669916E-03 -0.4054917636686E-02  0.0000000000000E+00 -0.6077276753627E-03
 0.3723071766620E-03 -0.4114403609879E-02  0.0000000000000E+00 -0.8005241536555E-03
 0.4679034185376E-03 -0.4166972266896E-02  0.0000000000000E+00 -0.9502055483118E-03
 0.5537254477571E-03 -0.4210947030850E-02  0.0000000000000E+00 -0.1061265195863E-02
 0.6280802154971E-03 -0.4245239791909E-02  0.0000000000000E+00 -0.1139196708383E-02
 0.6900122129783E-03 -0.4269332978783E-02  0.0000000000000E+00 -0.1189870177351E-02
 0.7392176503964E-03 -0.4283184212161E-02  0.0000000000000E+00 -0.1219008875419E-02
 0.7759035811634E-03 -0.4287090321256E-02  0.0000000000000E+00 -0.1231826674747E-02
 0.8006322061468E-03 -0.4281545303526E-02  0.0000000000000E+00 -0.1232834766595E-02
 0.8141796901697E-03 -0.4267116384624E-02  0.0000000000000E+00 -0.1225791963295E-02
 0.8174261070990E-03 -0.4244350534752E-02  0.0000000000000E+00 -0.1213758384433E-02
 0.8112821541478E-03 -0.4213714326552E-02  0.0000000000000E+00 -0.1199212010879E-02
 0.7966513674040E-03 -0.4175564386534E-02  0.0000000000000E+00 -0.1184195006037E-02
 0.7744232538959E-03 -0.4130143253648E-02  0.0000000000000E+00 -0.1170466135367E-02
 0.7454917203691E-03 -0.4077595125637E-02  0.0000000000000E+00 -0.1159643987887E-02
 0.7107949634852E-03 -0.4017999014704E-02  0.0000000000000E+00 -0.1153332074477E-02
 0.6713708552590E-03 -0.3951412971412E-02  0.0000000000000E+00 -0.1153218843133E-02
 0.6284268249170E-03 -0.3877930732745E-02  0.0000000000000E+00 -0.1161149640180E-02
 0.5834215221708E-03 -0.3797750022201E-02  0.0000000000000E+00 -0.1179164789614E-02
 0.5381537435777E-03 -0.3711247844608E-02  0.0000000000000E+00 -0.1209499693840E-02
 0.4948580018799E-03 -0.3619065970810E-02  0.0000000000000E+00 -0.1254540378555E-02
 0.4563039871190E-03 -0.3522212043555E-02  0.0000000000000E+00 -0.1316723779436E-02
 0.4258998649131E-03 -0.3422201407399E-02  0.0000000000000E+00 -0.1398356953287E-02
 0.4077766793372E-03 -0.3321165044179E-02  0.0000000000000E+00 -0.1501348470468E-02
 0.4068374877530E-03 -0.3221883338998E-02  0.0000000000000E+00 -0.1626896553869E-02
 0.4287760252304E-03 -0.3127820594936E-02  0.0000000000000E+00 -0.1775069132661E-02
 0.4800403738635E-03 -0.3043151722506E-02  0.0000000000000E+00 -0.1944242629308E-02
 0.5676999944153E-03 -0.2972736239184E-02  0.0000000000000E+00 -0.2130401979223E-02
 0.6991656327823E-03 -0.2921984996073E-02  0.0000000000000E+00 -0.2326341909175E-02
 0.8817093876164E-03 -0.2896563668440E-02  0.0000000000000E+00 -0.2520866107285E-02
 0.1121746707949E-02 -0.2901890188590E-02  0.0000000000000E+00 -0.2698151834540E-02
 0.1423892469152E-02 -0.2942393101739E-02  0.0000000000000E+00 -0.2837530215846E-02
 0.1789880405984E-02 -0.3020617081373E-02  0.0000000000000E+00 -0.2913932639881E-02
 0.2217465501499E-02 -0.3136349387303E-02  0.0000000000000E+00 -0.2899190380765E-02
 0.2699526863020E-02 -0.3285886935670E-02  0.0000000000000E+00 -0.2764366023777E-02
 0.3223720482522E-02 -0.3461689181868E-02  0.0000000000000E+00 -0.2483010731327E-02
 0.3772923101342E-02 -0.3652669414631E-02  0.0000000000000E+00 -0.2034804089936E-02
 0.4326536670234E-02 -0.3845193425214E-02  0.0000000000000E+00 -0.1408813794698E-02
 0.4862456869206E-02 -0.4024656168300E-02  0.0000000000000E+00 -0.6058068903932E-03
 0.5011345160219E-04 -0.3735457912617E-02  0.0000000000000E+00 -0.4481236051105E-04
 0.1508242671891E-03 -0.3797344404208E-02  0.0000000000000E+00 -0.3315339025057E-03
 0.2505679626994E-03 -0.3857190886298E-02  0.0000000000000E+00 -0.5730682389903E-03
 0.3463365695652E-03 -0.3912753301371E-02  0.0000000000000E+00 -0.7700912374797E-03
 0.4354189258255E-03 -0.3962057439545E-02  0.0000000000000E+00 -0.9252038641592E-03
 0.5156079948393E-03 -0.4003553849736E-02  0.0000000000000E+00 -0.1042536742591E-02
 0.5853176780225E-03 -0.4036193904499E-02  0.0000000000000E+00 -0.1127206080114E-02
 0.6436016271153E-03 -0.4059422830142E-02  0.0000000000000E+00 -0.1184749586469E-02
 0.6900906635266E-03 -0.4073106635986E-02  0.0000000000000E+00 -0.1220641239676E-02
 0.7248806680356E-03 -0.4077421731460E-02  0.0000000000000E+00 -0.1239942380405E-02
 0.7484038780189E-03 -0.4072735725809E-02  0.0000000000000E+00 -0.1247102544537E-02
 0.7613088502335E-03 -0.4059500450973E-02  0.0000000000000E+00 -0.1245892105410E-02
 0.7643645217216E-03 -0.4038169016766E-02  0.0000000000000E+00 -0.1239433803909E-02
 0.7583947069513E-03 -0.4009140798807E-02  0.0000000000000E+00 -0.1230297629860E-02
 0.7442432712985E-03 -0.3972733209702E-02  0.0000000000000E+00 -0.1220628453521E-02
 0.7227669657314E-03 -0.3929176596909E-02  0.0000000000000E+00 -0.1212283371117E-02
 0.6948515562936E-03 -0.3878627894520E-02  0.0000000000000E+00 -0.1206963011823E-02
 0.6614481802603E-03 -0.3821201167109E-02  0.0000000000000E+00 -0.1206326820718E-02
 0.6236244548376E-03 -0.3757009134556E-02  0.0000000000000E+00 -0.1212084796166E-02
 0.5826293716264E-03 -0.3686216921181E-02  0.0000000000000E+00 -0.1226061786790E-02
 0.5399692134439E-03 -0.3609107108548E-02  0.0000000000000E+00 -0.1250228063986E-02
 0.4974898450458E-03 -0.3526151281021E-02  0.0000000000000E+00 -0.1286692320508E-02
 0.4574643650428E-03 -0.3438090719662E-02  0.0000000000000E+00 -0.1337650153530E-02
 0.4226825829707E-03 -0.3346029514795E-02  0.0000000000000E+00 -0.1405278691895E-02
 0.3965408076086E-03 -0.3251559116803E-02  0.0000000000000E+00 -0.1491556168688E-02
 0.3831119290663E-03 -0.3156853150152E-02  0.0000000000000E+00 -0.1597994475837E-02
 0.3871792596226E-03 -0.3064697229877E-02  0.0000000000000E+00 -0.1725325099849E-02
 0.4142343801903E-03 -0.2978511367007E-02  0.0000000000000E+00 -0.1873086175725E-02
 0.4704155173377E-03 -0.2902354204693E-02  0.0000000000000E+00 -0.2039088043490E-02
 0.5623496878441E-03 -0.2840869365222E-02  0.0000000000000E+00 -0.2218768416050E-02
 0.6968562624457E-03 -0.2799127608688E-02  0.0000000000000E+00 -0.2404483625433E-02
 0.8804706056300E-03 -0.2782319831468E-02  0.0000000000000E+00 -0.2584833326775E-02
 0.1118762964700E-02 -0.2795270677555E-02  0.0000000000000E+00 -0.2744176162577E-02
 0.1415476467887E-02 -0.2841755993316E-02  0.0000000000000E+00 -0.2862556552705E-02
 0.1771578360404E-02 -0.2923711301162E-02  0.0000000000000E+00 -0.2916253077338E-02
 0.2184335542666E-02 -0.3040487865109E-02  0.0000000000000E+00 -0.2879085649344E-02
 0.2646599488756E-02 -0.3188262253448E-02  0.0000000000000E+00 -0.2724590618208E-02
 0.3146592439048E-02 -0.3359803663791E-02  0.0000000000000E+00 -0.2428931961143E-02
 0.3668376197217E-02 -0.3544793049791E-02  0.0000000000000E+00 -0.1974067287797E-02
 0.4193042239569E-02 -0.3730735640070E-02  0.0000000000000E+00 -0.1350538724477E-02
 0.4700446906115E-02 -0.3904354051082E-02  0.0000000000000E+00 -0.5594631662904E-03
 0.4653724146071E-04 -0.3547057206091E-02  0.0000000000000E+00 -0.8973760464045E-05
 0.1399581799632E-03 -0.3604528695188E-02  0.0000000000000E+00 -0.2967048999119E-03
 0.2324001630385E-03 -0.3660135392477E-02  0.0000000000000E+00 -0.5407034793897E-03
 0.3211934139442E-03 -0.3711877924647E-02  0.0000000000000E+00 -0.7415269613884E-03
 0.4039159267484E-03 -0.3757979962825E-02  0.0000000000000E+00 -0.9015437274400E-03
 0.4785672602475E-03 -0.3797018262310E-02  0.0000000000000E+00 -0.1024579894104E-02
 0.5436720144618E-03 -0.3827991097256E-02  0.0000000000000E+00 -0.1115429912372E-02
 0.5983045981609E-03 -0.3850319619441E-02  0.0000000000000E+00 -0.1179342232885E-02
 0.6420460136750E-03 -0.3863793598938E-02  0.0000000000000E+00 -0.1221567521767E-02
 0.6748968822807E-03 -0.3868483621929E-02  0.0000000000000E+00 -0.1247023687099E-02
 0.6971732022070E-03 -0.3864642818037E-02  0.0000000000000E+00 -0.1260094143341E-02
 0.7094061941858E-03 -0.3852616096311E-02  0.0000000000000E+00 -0.1264547221101E-02
 0.7122602225812E-03 -0.3832767844460E-02  0.0000000000000E+00 -0.1263549662791E-02
 0.7064754180391E-03 -0.3805432598881E-02  0.0000000000000E+00 -0.1259742947755E-02
 0.6928363816677E-03 -0.3770888792351E-02  0.0000000000000E+00 -0.1255354213074E-02
 0.6721652783765E-03 -0.3729353238642E-02  0.0000000000000E+00 -0.1252319561671E-02
 0.6453360850080E-03 -0.3680993035130E-02  0.0000000000000E+00 -0.1252403863439E-02
 0.6133076607490E-03 -0.3625953621758E-02  0.0000000000000E+00 -0.1257306311992E-02
 0.5771706874356E-03 -0.3564397561568E-02  0.0000000000000E+00 -0.1268743886664E-02
 0.5382075854470E-03 -0.3496555210812E-02  0.0000000000000E+00 -0.1288508064758E-02
 0.4979626385807E-03 -0.3422786250235E-02  0.0000000000000E+00 -0.1318488159055E-02
 0.4583175899122E-03 -0.3343647159487E-02  0.0000000000000E+00 -0.1360657753928E-02
 0.4215713348425E-03 -0.3259966765182E-02  0.0000000000000E+00 -0.1417017060632E-02
 0.3905194855812E-03 -0.3172931091181E-02  0.0000000000000E+00 -0.1489483295393E-02
 0.3685310468250E-03 -0.3084190804862E-02  0.0000000000000E+00 -0.1579712305149E-02
 0.3596048034342E-03 -0.2995943239456E-02  0.0000000000000E+00 -0.1688834658486E-02
 0.3683888903386E-03 -0.2910958609602E-02  0.0000000000000E+00 -0.1817142975480E-02
 0.4001599453009E-03 -0.2832591511316E-02  0.0000000000000E+00 -0.1963690076743E-02
 0.4607398808467E-03 -0.2764765397439E-02  0.0000000000000E+00 -0.2125784587226E-02
 0.5563184776201E-03 -0.2711895721594E-02  0.0000000000000E+00 -0.2298401775555E-02
 0.6931470954162E-03 -0.2678713485290E-02  0.0000000000000E+00 -0.2473560045049E-02
 0.8770721670404E-03 -0.2669954164997E-02  0.0000000000000E+00 -0.2639758685231E-02
 0.1112894616412E-02 -0.2689892338592E-02  0.0000000000000E+00 -0.2781622868998E-02
 0.1403587677921E-02 -0.2741718421318E-02  0.0000000000000E+00 -0.2879947969933E-02
 0.1749468783384E-02 -0.2826842747867E-02  0.0000000000000E+00 -0.2912318886353E-02
 0.2147425671293E-02 -0.2944264757073E-02  0.0000000000000E+00 -0.2854400796016E-02
 0.2590352129504E-02 -0.3090100614514E-02  0.0000000000000E+00 -0.2681957879979E-02
 0.3067037570795E-02 -0.3257440013657E-02  0.0000000000000E+00 -0.2373455597339E-02
 0.3562645794781E-02 -0.3436679918550E-02  0.0000000000000E+00 -0.1912822555787E-02
 0.4059800749381E-02 -0.3616358162289E-02  0.0000000000000E+00 -0.1291848313923E-02
 0.4540117664771E-02 -0.3784385921483E-02  0.0000000000000E+00 -0.5118986844850E-03
 0.4307388568580E-04 -0.3358988237893E-02  0.0000000000000E+00  0.2427699500035E-04
 0.1294308153632E-03 -0.3412180491410E-02  0.0000000000000E+00 -0.2643652969432E-03
 0.2147869865324E-03 -0.3463670289672E-02  0.0000000000000E+00 -0.5105668577506E-03
 0.2967919862439E-03 -0.3511690299703E-02  0.0000000000000E+00 -0.7147884978046E-03
 0.3732987534582E-03 -0.3554653948405E-02  0.0000000000000E+00 -0.8792083855071E-03
 0.4425072180292E-03 -0.3591262954442E-02  0.0000000000000E+00 -0.1007400659598E-02
 0.5030549599811E-03 -0.3620568102974E-02  0.0000000000000E+00 -0.1103889130965E-02
 0.5540460924293E-03 -0.3641977021362E-02  0.0000000000000E+00 -0.1173673716658E-02
 0.5950244146788E-03 -0.3655216017590E-02  0.0000000000000E+00 -0.1221807540625E-02
 0.6259086087734E-03 -0.3660262360578E-02  0.0000000000000E+00 -0.1253075561338E-02
 0.6469102614854E-03 -0.3657265235466E-02  0.0000000000000E+00 -0.1271792793886E-02
 0.6584523760282E-03 -0.3646470404589E-02  0.0000000000000E+00 -0.1281714239110E-02
 0.6611007681996E-03 -0.3628158479192E-02  0.0000000000000E+00 -0.1286034051705E-02
 0.6555149621538E-03 -0.3602601611290E-02  0.0000000000000E+00 -0.1287446270079E-02
 0.6424208137638E-03 -0.3570039692224E-02  0.0000000000000E+00 -0.1288241036103E-02
 0.6226042823548E-03 -0.3530674846624E-02  0.0000000000000E+00 -0.1290415031886E-02
 0.5969241353408E-03 -0.3484681865572E-02  0.0000000000000E+00 -0.1295780343405E-02
 0.5663419501666E-03 -0.3432233890430E-02  0.0000000000000E+00 -0.1306060528676E-02
 0.5319649991808E-03 -0.3373538420471E-02  0.0000000000000E+00 -0.1322965924056E-02
 0.4951012252743E-03 -0.3308884763658E-02  0.0000000000000E+00 -0.1348242936620E-02
 0.4573235775921E-03 -0.3238701830199E-02  0.0000000000000E+00 -0.1383690477943E-02
 0.4205389207103E-03 -0.3163621291165E-02  0.0000000000000E+00 -0.1431140415068E-02
 0.3870598207214E-03 -0.3084547730990E-02  0.0000000000000E+00 -0.1492394742846E-02
 0.3596743894249E-03 -0.3002735103249E-02  0.0000000000000E+00 -0.1569113071636E-02
 0.3417103696322E-03 -0.2919877388609E-02  0.0000000000000E+00 -0.1662637816051E-02
 0.3370785879201E-03 -0.2838178314404E-02  0.0000000000000E+00 -0.1773735891671E-02
 0.3502793983872E-03 -0.2760374501013E-02  0.0000000000000E+00 -0.1902290560603E-02
 0.3863652713438E-03 -0.2689737379552E-02  0.0000000000000E+00 -0.2046913977472E-02
 0.4508393987933E-03 -0.2630040522726E-02  0.0000000000000E+00 -0.2204475009856E-02
 0.5494634309575E-03 -0.2585463616017E-02  0.0000000000000E+00 -0.2369565039763E-02
 0.6879467009062E-03 -0.2560402470039E-02  0.0000000000000E+00 -0.2533954040766E-02
 0.8714942981654E-03 -0.2559158950169E-02  0.0000000000000E+00 -0.2686128913789E-02
 0.1104208968254E-02 -0.2585499855785E-02  0.0000000000000E+00 -0.2811047868148E-02
 0.1388385468304E-02 -0.2642091825264E-02  0.0000000000000E+00 -0.2890277336106E-02
 0.1723792166025E-02 -0.2729893462355E-02  0.0000000000000E+00 -0.2902657352203E-02
 0.2107027734873E-02 -0.2847622833563E-02  0.0000000000000E+00 -0.2825558861858E-02
 0.2531081760942E-02 -0.2991382740189E-02  0.0000000000000E+00 -0.2636750292098E-02
 0.2985304080611E-02 -0.3154587328530E-02  0.0000000000000E+00 -0.2316725370815E-02
 0.3455882679850E-02 -0.3328300831107E-02  0.0000000000000E+00 -0.1851119481841E-02
 0.3926833636406E-02 -0.3501998437244E-02  0.0000000000000E+00 -0.1232776025895E-02
 0.4381351845006E-02 -0.3664656496097E-02  0.0000000000000E+00 -0.4632263781444E-03
 0.3971037656384E-04 -0.3171200140013E-02  0.0000000000000E+00  0.5501954508246E-04
 0.1192030221302E-03 -0.3220233960261E-02  0.0000000000000E+00 -0.2344404695913E-03
 0.1976650848116E-03 -0.3267717670752E-02  0.0000000000000E+00 -0.4825965476241E-03
 0.2730505107788E-03 -0.3312105939676E-02  0.0000000000000E+00 -0.6898328418326E-03
 0.3434754158909E-03 -0.3351995201471E-02  0.0000000000000E+00 -0.8581758041948E-03
 0.4073344260520E-03 -0.3386210713239E-02  0.0000000000000E+00 -0.9909955731148E-03
 0.4633792004423E-03 -0.3413859868471E-02  0.0000000000000E+00 -0.1092592636738E-02
 0.5107502153394E-03 -0.3434345064399E-02  0.0000000000000E+00 -0.1167756915037E-02
 0.5489640366752E-03 -0.3447339570046E-02  0.0000000000000E+00 -0.1221369318627E-02
 0.5778683225631E-03 -0.3452737868515E-02  0.0000000000000E+00 -0.1258093259902E-02
 0.5975802447536E-03 -0.3450594365013E-02  0.0000000000000E+00 -0.1282174763670E-02
 0.6084225312134E-03 -0.3441062687836E-02  0.0000000000000E+00 -0.1297346123985E-02
 0.6108678671014E-03 -0.3424344329935E-02  0.0000000000000E+00 -0.1306814090927E-02
 0.6054980535116E-03 -0.3400651524989E-02  0.0000000000000E+00 -0.1313307806560E-02
 0.5929807776259E-03 -0.3370186208665E-02  0.0000000000000E+00 -0.1319162328668E-02
 0.5740643565907E-03 -0.3333134826872E-02  0.0000000000000E+00 -0.1326417448248E-02
 0.5495891575933E-03 -0.3289677512529E-02  0.0000000000000E+00 -0.1336916304569E-02
 0.5205147138218E-03 -0.3240011482063E-02  0.0000000000000E+00 -0.1352392321133E-02
 0.4879586660875E-03 -0.3184384252547E-02  0.0000000000000E+00 -0.1374536572567E-02
 0.4532468609595E-03 -0.3123137768053E-02  0.0000000000000E+00 -0.1405039892341E-02
 0.4179719442432E-03 -0.3056762293995E-02  0.0000000000000E+00 -0.1445602779290E-02
 0.3840556547623E-03 -0.2985955089568E-02  0.0000000000000E+00 -0.1497910460152E-02
 0.3538128413349E-03 -0.2911685014724E-02  0.0000000000000E+00 -0.1563565809070E-02
 0.3300118850592E-03 -0.2835260583487E-02  0.0000000000000E+00 -0.1643975222572E-02
 0.3159268167726E-03 -0.2758404268901E-02  0.0000000000000E+00 -0.1740178679094E-02
 0.3153686908012E-03 -0.2683310533657E-02  0.0000000000000E+00 -0.1852598802564E-02
 0.3326801191965E-03 -0.2612666573324E-02  0.0000000000000E+00 -0.1980739894298E-02
 0.3726833748124E-03 -0.2549646031954E-02  0.0000000000000E+00 -0.2122817473451E-02
 0.4405639771938E-03 -0.2497861667112E-02  0.0000000000000E+00 -0.2275319559506E-02
 0.5416676294693E-03 -0.2461253730808E-02  0.0000000000000E+00 -0.2432525784078E-02
 0.6811892960382E-03 -0.2443890692249E-02  0.0000000000000E+00 -0.2586036820578E-02
 0.8637392554914E-03 -0.2449664067438E-02  0.0000000000000E+00 -0.2724401185669E-02
 0.1092788117380E-02 -0.2481873501366E-02  0.0000000000000E+00 -0.2832960910609E-02
 0.1370033676877E-02 -0.2542717833830E-02  0.0000000000000E+00 -0.2894059771764E-02
 0.1694781814649E-02 -0.2632767829993E-02  0.0000000000000E+00 -0.2887734950524E-02
 0.2063416289645E-02 -0.2750518895366E-02  0.0000000000000E+00 -0.2792929179544E-02
 0.2469062718864E-02 -0.2892097048532E-02  0.0000000000000E+00 -0.2589212122533E-02
 0.2901619094550E-02 -0.3051239839031E-02  0.0000000000000E+00 -0.2258865311384E-02
 0.3348224962115E-02 -0.3219633044852E-02  0.0000000000000E+00 -0.1789002675869E-02
 0.3794162870607E-02 -0.3387604130580E-02  0.0000000000000E+00 -0.1173356428112E-02
 0.4224048270921E-02 -0.3545085275614E-02  0.0000000000000E+00 -0.4135556913036E-03
 0.3643420726850E-04 -0.2983643464055E-02  0.0000000000000E+00  0.8332421080631E-04
 0.1092372235983E-03 -0.3028625207031E-02  0.0000000000000E+00 -0.2068637882792E-03
 0.1809736728163E-03 -0.3072201847028E-02  0.0000000000000E+00 -0.4567355446407E-03
 0.2498902866911E-03 -0.3113042365714E-02  0.0000000000000E+00 -0.6666173989001E-03
 0.3143568194015E-03 -0.3149920737392E-02  0.0000000000000E+00 -0.8384196991036E-03
 0.3729574876506E-03 -0.3181784241574E-02  0.0000000000000E+00 -0.9753530036694E-03
 0.4245581498809E-03 -0.3207799686222E-02  0.0000000000000E+00 -0.1081538677154E-02
 0.4683402939623E-03 -0.3227370530575E-02  0.0000000000000E+00 -0.1161593226376E-02
 0.5038008273687E-03 -0.3240125276556E-02  0.0000000000000E+00 -0.1220250084623E-02
 0.5307250621281E-03 -0.3245884289700E-02  0.0000000000000E+00 -0.1262063061564E-02
 0.5491439934581E-03 -0.3244615011492E-02  0.0000000000000E+00 -0.1291209848331E-02
 0.5592868406639E-03 -0.3236385146583E-02  0.0000000000000E+00 -0.1311392188764E-02
 0.5615379305637E-03 -0.3221321375165E-02  0.0000000000000E+00 -0.1325816128064E-02
 0.5564039809899E-03 -0.3199578426897E-02  0.0000000000000E+00 -0.1337229801704E-02
 0.5444951046561E-03 -0.3171320972221E-02  0.0000000000000E+00 -0.1347996238088E-02
 0.5265207030708E-03 -0.3136718939998E-02  0.0000000000000E+00 -0.1360181858094E-02
 0.5032997845554E-03 -0.3095955585167E-02  0.0000000000000E+00 -0.1375645615797E-02
 0.4757853397843E-03 -0.3049248660777E-02  0.0000000000000E+00 -0.1396117249033E-02
 0.4450994474278E-03 -0.2996880833772E-02  0.0000000000000E+00 -0.1423256999049E-02
 0.4125785774154E-03 -0.2939240412831E-02  0.0000000000000E+00 -0.1458690823369E-02
 0.3798265287221E-03 -0.2876871232917E-02  0.0000000000000E+00 -0.1504014181960E-02
 0.3487702367186E-03 -0.2810526740977E-02  0.0000000000000E+00 -0.1560762309914E-02
 0.3217162360902E-03 -0.2741228999801E-02  0.0000000000000E+00 -0.1630339777538E-02
 0.3014020505767E-03 -0.2670328441534E-02  0.0000000000000E+00 -0.1713905926447E-02
 0.2910370425981E-03 -0.2599562352272E-02  0.0000000000000E+00 -0.1812210894743E-02
 0.2943226288868E-03 -0.2531101921775E-02  0.0000000000000E+00 -0.1925353507871E-02
 0.3154361533047E-03 -0.2467571342655E-02  0.0000000000000E+00 -0.2052489752192E-02
 0.3589664898577E-03 -0.2412034712170E-02  0.0000000000000E+00 -0.2191481297682E-02
 0.4297854397491E-03 -0.2367936331406E-02  0.0000000000000E+00 -0.2338490738851E-02
 0.5328373109476E-03 -0.2338976623621E-02  0.0000000000000E+00 -0.2487551676515E-02
 0.6728312648148E-03 -0.2328907043198E-02  0.0000000000000E+00 -0.2630164980890E-02
 0.8538276313619E-03 -0.2341232688639E-02  0.0000000000000E+00 -0.2755002504730E-02
 0.1078725668755E-02 -0.2378824516087E-02  0.0000000000000E+00 -0.2847827790763E-02
 0.1348698453940E-02 -0.2443463970682E-02  0.0000000000000E+00 -0.2891757555244E-02
 0.1662663393122E-02 -0.2535389228161E-02  0.0000000000000E+00 -0.2867964028249E-02
 0.2016849960522E-02 -0.2652921692443E-02  0.0000000000000E+00 -0.2756834224965E-02
 0.2404549346868E-02 -0.2792238681247E-02  0.0000000000000E+00 -0.2539554744084E-02
 0.2816191555473E-02 -0.2947396451394E-02  0.0000000000000E+00 -0.2199982591699E-02
 0.3239800167406E-02 -0.3110659690649E-02  0.0000000000000E+00 -0.1726512418975E-02
 0.3661811623131E-02 -0.3273132134701E-02  0.0000000000000E+00 -0.1113624633785E-02
 0.4068120765045E-02 -0.3425605020802E-02  0.0000000000000E+00 -0.3629917557109E-03
 0.3323321928036E-04 -0.2796269758095E-02  0.0000000000000E+00  0.1092522663699E-03
 0.9949696330409E-04 -0.2837291690950E-02  0.0000000000000E+00 -0.1815764437224E-03
 0.1646538321011E-03 -0.2877048676881E-02  0.0000000000000E+00 -0.4329317629320E-03
 0.2272348910517E-03 -0.2914418472882E-02  0.0000000000000E+00 -0.6451004551100E-03
 0.2858560381028E-03 -0.2948348315349E-02  0.0000000000000E+00 -0.8199103673750E-03
 0.3392865343416E-03 -0.2977905949076E-02  0.0000000000000E+00 -0.9604542324306E-03
 0.3865057135661E-03 -0.3002319267564E-02  0.0000000000000E+00 -0.1070716004059E-02
 0.4267389192811E-03 -0.3020997275319E-02  0.0000000000000E+00 -0.1155173655916E-02
 0.4594687808691E-03 -0.3033529993913E-02  0.0000000000000E+00 -0.1218437187287E-02
 0.4844248501800E-03 -0.3039670579539E-02  0.0000000000000E+00 -0.1264962969787E-02
 0.5015585030263E-03 -0.3039306013829E-02  0.0000000000000E+00 -0.1298861875258E-02
 0.5110110596996E-03 -0.3032423471835E-02  0.0000000000000E+00 -0.1323798438489E-02
 0.5130825987154E-03 -0.3019078734603E-02  0.0000000000000E+00 -0.1342965966122E-02
 0.5082071213741E-03 -0.2999371348461E-02  0.0000000000000E+00 -0.1359116682083E-02
 0.4969377523311E-03 -0.2973429484674E-02  0.0000000000000E+00 -0.1374625735559E-02
 0.4799438550755E-03 -0.2941405859842E-02  0.0000000000000E+00 -0.1391570702202E-02
 0.4580203572902E-03 -0.2903484778096E-02  0.0000000000000E+00 -0.1411812078409E-02
 0.4321094938168E-03 -0.2859901115174E-02  0.0000000000000E+00 -0.1437063357065E-02
 0.4033321756254E-03 -0.2810967925581E-02  0.0000000000000E+00 -0.1468943447699E-02
 0.3730285966420E-03 -0.2757113724955E-02  0.0000000000000E+00 -0.1509005323086E-02
 0.3428056371984E-03 -0.2698928300930E-02  0.0000000000000E+00 -0.1558734107666E-02
 0.3145863653537E-03 -0.2637212175839E-02  0.0000000000000E+00 -0.1619513144769E-02
 0.2906592285087E-03 -0.2573030033589E-02  0.0000000000000E+00 -0.1692551035451E-02
 0.2737208760480E-03 -0.2507762372517E-02  0.0000000000000E+00 -0.1778767688894E-02
 0.2669064983116E-03 -0.2443148779277E-02  0.0000000000000E+00 -0.1878637192209E-02
 0.2737998438391E-03 -0.2381324773401E-02  0.0000000000000E+00 -0.1991955703851E-02
 0.2984076789460E-03 -0.2324840080913E-02  0.0000000000000E+00 -0.2117561252018E-02
 0.3450847544804E-03 -0.2276640082002E-02  0.0000000000000E+00 -0.2253002712954E-02
 0.4183955195167E-03 -0.2239995840081E-02  0.0000000000000E+00 -0.2394168919445E-02
 0.5228992054697E-03 -0.2218370239109E-02  0.0000000000000E+00 -0.2534906902171E-02
 0.6628480371890E-03 -0.2215209854794E-02  0.0000000000000E+00 -0.2666678409297E-02
 0.8417951622832E-03 -0.2233657369708E-02  0.0000000000000E+00 -0.2778329682482E-02
 0.1062124017064E-02 -0.2276191045606E-02  0.0000000000000E+00 -0.2856072701266E-02
 0.1324546603288E-02 -0.2344219970558E-02  0.0000000000000E+00 -0.2883784638724E-02
 0.1627654744005E-02 -0.2437697201775E-02  0.0000000000000E+00 -0.2843708633894E-02
 0.1967572765206E-02 -0.2554810174818E-02  0.0000000000000E+00 -0.2717555433272E-02
 0.2337778325798E-02 -0.2691808647461E-02  0.0000000000000E+00 -0.2487961104566E-02
 0.2729214679758E-02 -0.2843060283778E-02  0.0000000000000E+00 -0.2140169934202E-02
 0.3130726946285E-02 -0.3001369182595E-02  0.0000000000000E+00 -0.1663685199027E-02
 0.3529804660249E-02 -0.3158547565113E-02  0.0000000000000E+00 -0.1053615742023E-02
 0.3913496877726E-02 -0.3306160218367E-02  0.0000000000000E+00 -0.3116346578043E-03
 0.3009546177769E-04 -0.2609031189889E-02  0.0000000000000E+00  0.1328561090215E-03
 0.8994648765618E-04 -0.2646171700315E-02  0.0000000000000E+00 -0.1585273408042E-03
 0.1486478713450E-03 -0.2682184958397E-02  0.0000000000000E+00 -0.4111381247105E-03
 0.2050094441454E-03 -0.2716153951654E-02  0.0000000000000E+00 -0.6252415492216E-03
 0.2578876379003E-03 -0.2747196006349E-02  0.0000000000000E+00 -0.8026153461115E-03
 0.3062327340379E-03 -0.2774497750442E-02  0.0000000000000E+00 -0.9462743222367E-03
 0.3491360501938E-03 -0.2797348798963E-02  0.0000000000000E+00 -0.1060104834974E-02
 0.3858679671412E-03 -0.2815166515338E-02  0.0000000000000E+00 -0.1148479749681E-02
 0.4159001745136E-03 -0.2827506873857E-02  0.0000000000000E+00 -0.1215908914696E-02
 0.4389110810273E-03 -0.2834061062607E-02  0.0000000000000E+00 -0.1266763375163E-02
 0.4547773956578E-03 -0.2834640840656E-02  0.0000000000000E+00 -0.1305089204626E-02
 0.4635570256005E-03 -0.2829157437700E-02  0.0000000000000E+00 -0.1334507929423E-02
 0.4654692518848E-03 -0.2817599240832E-02  0.0000000000000E+00 -0.1358189108194E-02
 0.4608774417537E-03 -0.2800012817266E-02  0.0000000000000E+00 -0.1378875208645E-02
 0.4502782982545E-03 -0.2776490664564E-02  0.0000000000000E+00 -0.1398938685093E-02
 0.4343001709819E-03 -0.2747167733157E-02  0.0000000000000E+00 -0.1420453792709E-02
 0.4137114289625E-03 -0.2712227466321E-02  0.0000000000000E+00 -0.1445269288294E-02
 0.3894396414266E-03 -0.2671918606333E-02  0.0000000000000E+00 -0.1475070880738E-02
 0.3625992993670E-03 -0.2626579987058E-02  0.0000000000000E+00 -0.1511426735602E-02
 0.3345278365369E-03 -0.2576674347681E-02  0.0000000000000E+00 -0.1555809907373E-02
 0.3068276498171E-03 -0.2522830048037E-02  0.0000000000000E+00 -0.1609591154641E-02
 0.2814095196148E-03 -0.2465885930117E-02  0.0000000000000E+00 -0.1674001357586E-02
 0.2605348707983E-03 -0.2406939268424E-02  0.0000000000000E+00 -0.1750056803263E-02
 0.2468505556456E-03 -0.2347389603643E-02  0.0000000000000E+00 -0.1838446771271E-02
 0.2434094789255E-03 -0.2288967474108E-02  0.0000000000000E+00 -0.1939383913887E-02
 0.2536713944972E-03 -0.2233761876415E-02  0.0000000000000E+00 -0.2052383063448E-02
 0.2814691767369E-03 -0.2184238564952E-02  0.0000000000000E+00 -0.2175993913267E-02
 0.3309248753743E-03 -0.2143217350576E-02  0.0000000000000E+00 -0.2307491503309E-02
 0.4063039286437E-03 -0.2113793738683E-02  0.0000000000000E+00 -0.2442538664851E-02
 0.5117980754490E-03 -0.2099197540979E-02  0.0000000000000E+00 -0.2574849326395E-02
 0.6512313047756E-03 -0.2102583856895E-02  0.0000000000000E+00 -0.2695898831048E-02
 0.8276899791027E-03 -0.2126756577584E-02  0.0000000000000E+00 -0.2794749712213E-02
 0.1043092105035E-02 -0.2173834622505E-02  0.0000000000000E+00 -0.2858080604152E-02
 0.1297744327321E-02 -0.2244894666940E-02  0.0000000000000E+00 -0.2870510749144E-02
 0.1589965930562E-02 -0.2339645131540E-02  0.0000000000000E+00 -0.2815289592446E-02
 0.1915815415121E-02 -0.2456172078725E-02  0.0000000000000E+00 -0.2675338158923E-02
 0.2268970772918E-02 -0.2590813139146E-02  0.0000000000000E+00 -0.2434589530217E-02
 0.2640868102558E-02 -0.2738238278766E-02  0.0000000000000E+00 -0.2079507702069E-02
 0.3021116521946E-02 -0.2891754685357E-02  0.0000000000000E+00 -0.1600554213550E-02
 0.3398168589824E-02 -0.3043822819444E-02  0.0000000000000E+00 -0.9933643674161E-03
 0.3760116641922E-02 -0.3186705623024E-02  0.0000000000000E+00 -0.2595788831456E-03
 0.2700905944346E-04 -0.2421880207129E-02  0.0000000000000E+00  0.1541793347087E-03
 0.8055035494607E-04 -0.2455203873846E-02  0.0000000000000E+00 -0.1376730564914E-03
 0.1328987288766E-03 -0.2487537872612E-02  0.0000000000000E+00 -0.3913126463802E-03
 0.1831399224672E-03 -0.2518168755180E-02  0.0000000000000E+00 -0.6070017582961E-03
 0.2303670403784E-03 -0.2546381792820E-02  0.0000000000000E+00 -0.7864999153745E-03
 0.2737078237860E-03 -0.2571480875789E-02  0.0000000000000E+00 -0.9327827978479E-03
 0.3123633391133E-03 -0.2592816991538E-02  0.0000000000000E+00 -0.1049677631759E-02
 0.3456486075988E-03 -0.2609817096533E-02  0.0000000000000E+00 -0.1141484383157E-02
 0.3730257837421E-03 -0.2622005796006E-02  0.0000000000000E+00 -0.1212635219887E-02
 0.3941248823573E-03 -0.2629015966292E-02  0.0000000000000E+00 -0.1267427672593E-02
 0.4087513689109E-03 -0.2630588167655E-02  0.0000000000000E+00 -0.1309845220939E-02
 0.4168831447912E-03 -0.2626561483038E-02  0.0000000000000E+00 -0.1343461137654E-02
 0.4186615054201E-03 -0.2616860006067E-02  0.0000000000000E+00 -0.1371411014805E-02
 0.4143809874879E-03 -0.2601479407166E-02  0.0000000000000E+00 -0.1396414633370E-02
 0.4044824190996E-03 -0.2580477390801E-02  0.0000000000000E+00 -0.1420827901828E-02
 0.3895523090960E-03 -0.2553970732876E-02  0.0000000000000E+00 -0.1446708263141E-02
 0.3703302426444E-03 -0.2522140285238E-02  0.0000000000000E+00 -0.1475880454141E-02
 0.3477255339152E-03 -0.2485245588428E-02  0.0000000000000E+00 -0.1509991896248E-02
 0.3228413781944E-03 -0.2443646843866E-02  0.0000000000000E+00 -0.1550551686408E-02
 0.2970064066744E-03 -0.2397835256457E-02  0.0000000000000E+00 -0.1598947175846E-02
 0.2718114999510E-03 -0.2348470669938E-02  0.0000000000000E+00 -0.1656431925664E-02
 0.2491473903142E-03 -0.2296421900220E-02  0.0000000000000E+00 -0.1724084989210E-02
 0.2312403806741E-03 -0.2242809374132E-02  0.0000000000000E+00 -0.1802735128889E-02
 0.2206796640926E-03 -0.2189041494122E-02  0.0000000000000E+00 -0.1892850718421E-02
 0.2204290566122E-03 -0.2136829537943E-02  0.0000000000000E+00 -0.1994398092625E-02
 0.2338195531644E-03 -0.2088206584035E-02  0.0000000000000E+00 -0.2106631940601E-02
 0.2645085971249E-03 -0.2045546701756E-02  0.0000000000000E+00 -0.2227842149247E-02
 0.3163887997275E-03 -0.2011539335104E-02  0.0000000000000E+00 -0.2355066514264E-02
 0.3934365245102E-03 -0.1989104210431E-02  0.0000000000000E+00 -0.2483785679895E-02
 0.4994944589008E-03 -0.1981244279701E-02  0.0000000000000E+00 -0.2607628285453E-02
 0.6379865454911E-03 -0.1990837402110E-02  0.0000000000000E+00 -0.2718128874122E-02
 0.8115702418922E-03 -0.2020371606781E-02  0.0000000000000E+00 -0.2804600427818E-02
 0.1021743579291E-02 -0.2071637117935E-02  0.0000000000000E+00 -0.2854199552266E-02
 0.1268456296015E-02 -0.2145413358059E-02  0.0000000000000E+00 -0.2852265081521E-02
 0.1549799446461E-02 -0.2241198309521E-02  0.0000000000000E+00 -0.2782988910021E-02
 0.1861796589077E-02 -0.2357002794765E-02  0.0000000000000E+00 -0.2630395910372E-02
 0.2198334152368E-02 -0.2489263002492E-02  0.0000000000000E+00 -0.2379576982466E-02
 0.2551319766383E-02 -0.2632940892787E-02  0.0000000000000E+00 -0.2018065747142E-02
 0.2911073912291E-02 -0.2781813631301E-02  0.0000000000000E+00 -0.1537149880648E-02
 0.3266931980151E-02 -0.2928936683579E-02  0.0000000000000E+00 -0.9329043009638E-03
 0.3607931366325E-02 -0.3067204870445E-02  0.0000000000000E+00 -0.2069129474928E-03
 0.2396208531645E-04 -0.2234769226108E-02  0.0000000000000E+00  0.1732567234755E-03
 0.7127306079330E-04 -0.2264326754927E-02  0.0000000000000E+00 -0.1189778591244E-03
 0.1173494030218E-03 -0.2293034462108E-02  0.0000000000000E+00 -0.3734185229851E-03
 0.1615525055787E-03 -0.2320382598959E-02  0.0000000000000E+00 -0.5903439046998E-03
 0.2032099183338E-03 -0.2345823191122E-02  0.0000000000000E+00 -0.7715274580529E-03
 0.2416236644999E-03 -0.2368775689817E-02  0.0000000000000E+00 -0.9199441505354E-03
 0.2761015559632E-03 -0.2388651124204E-02  0.0000000000000E+00 -0.1039399708050E-02
 0.3060013092991E-03 -0.2404885742924E-02  0.0000000000000E+00 -0.1134152411741E-02
 0.3307750818482E-03 -0.2416973773818E-02  0.0000000000000E+00 -0.1208578354621E-02
 0.3500054561120E-03 -0.2424491924453E-02  0.0000000000000E+00 -0.1266912831829E-02
 0.3634286214486E-03 -0.2427112425583E-02  0.0000000000000E+00 -0.1313078812031E-02
 0.3709448576094E-03 -0.2424605266249E-02  0.0000000000000E+00 -0.1350596334341E-02
 0.3726196831414E-03 -0.2416832964369E-02  0.0000000000000E+00 -0.1382557373008E-02
 0.3686803489961E-03 -0.2403742264379E-02  0.0000000000000E+00 -0.1411646862333E-02
 0.3595123466847E-03 -0.2385357020040E-02  0.0000000000000E+00 -0.1440191205270E-02
 0.3456596754977E-03 -0.2361775579659E-02  0.0000000000000E+00 -0.1470218499892E-02
 0.3278311754502E-03 -0.2333174669980E-02  0.0000000000000E+00 -0.1503518184938E-02
 0.3069146516425E-03 -0.2299821776510E-02  0.0000000000000E+00 -0.1541689931309E-02
 0.2839975231481E-03 -0.2262094289110E-02  0.0000000000000E+00 -0.1586176522679E-02
 0.2603940375310E-03 -0.2220506389068E-02  0.0000000000000E+00 -0.1638274937531E-02
 0.2376770737985E-03 -0.2175742652615E-02  0.0000000000000E+00 -0.1699119836887E-02
 0.2177102200168E-03 -0.2128693973218E-02  0.0000000000000E+00 -0.1769640174652E-02
 0.2026773773486E-03 -0.2080495108113E-02  0.0000000000000E+00 -0.1850482939130E-02
 0.1951032294417E-03 -0.2032553979980E-02  0.0000000000000E+00 -0.1941906009388E-02
 0.1978569176300E-03 -0.1986553483889E-02  0.0000000000000E+00 -0.2043644737036E-02
 0.2141373272055E-03 -0.1944462739739E-02  0.0000000000000E+00 -0.2154714383000E-02
 0.2474264933825E-03 -0.1908558037686E-02  0.0000000000000E+00 -0.2273172172789E-02
 0.3013924133961E-03 -0.1881395461331E-02  0.0000000000000E+00 -0.2395852698034E-02
 0.3797335815847E-03 -0.1865720513551E-02  0.0000000000000E+00 -0.2518094315841E-02
 0.4859626075389E-03 -0.1864316882463E-02  0.0000000000000E+00 -0.2633482912933E-02
 0.6231308250019E-03 -0.1879799921645E-02  0.0000000000000E+00 -0.2733651553107E-02
 0.7935021027750E-03 -0.1914363821697E-02  0.0000000000000E+00 -0.2808191361234E-02
 0.9981952700326E-03 -0.1969498074495E-02  0.0000000000000E+00 -0.2844742913607E-02
 0.1236844966411E-02 -0.2045715551355E-02  0.0000000000000E+00 -0.2829339593397E-02
 0.1507350542516E-02 -0.2142332331009E-02  0.0000000000000E+00 -0.2747053571023E-02
 0.1805724167213E-02 -0.2257304454140E-02  0.0000000000000E+00 -0.2582913949698E-02
 0.2126064017722E-02 -0.2387173331213E-02  0.0000000000000E+00 -0.2323041849001E-02
 0.2460727580142E-02 -0.2527181841404E-02  0.0000000000000E+00 -0.1955905066585E-02
 0.2800698932866E-02 -0.2671547258711E-02  0.0000000000000E+00 -0.1473500390258E-02
 0.3136125335508E-02 -0.2813873447789E-02  0.0000000000000E+00 -0.8722683238309E-03
 0.3456902433673E-02 -0.2947629120888E-02  0.0000000000000E+00 -0.1537192035674E-03
 0.2094243532665E-04 -0.2047650341290E-02  0.0000000000000E+00  0.1901141353082E-03
 0.6207867064322E-04 -0.2073478368099E-02  0.0000000000000E+00 -0.1024137882084E-03
 0.1019423971306E-03 -0.2098601133692E-02  0.0000000000000E+00 -0.3574242122086E-03
 0.1401729442681E-03 -0.2122714484440E-02  0.0000000000000E+00 -0.5752326892550E-03
 0.1763316150145E-03 -0.2145436894133E-02  0.0000000000000E+00 -0.7576596848793E-03
 0.2098918162713E-03 -0.2166301523105E-02  0.0000000000000E+00 -0.9077181772673E-03
 0.2402642611378E-03 -0.2184777088396E-02  0.0000000000000E+00 -0.1029229675428E-02
 0.2668458467568E-03 -0.2200307296307E-02  0.0000000000000E+00 -0.1126441190695E-02
 0.2890764331435E-03 -0.2212355342396E-02  0.0000000000000E+00 -0.1203693415884E-02
 0.3064904055028E-03 -0.2220442457079E-02  0.0000000000000E+00 -0.1265169922903E-02
 0.3187552603963E-03 -0.2224174321499E-02  0.0000000000000E+00 -0.1314734835001E-02
 0.3256950823849E-03 -0.2223254192475E-02  0.0000000000000E+00 -0.1355849966322E-02
 0.3273012689318E-03 -0.2217485386072E-02  0.0000000000000E+00 -0.1391554376526E-02
 0.3237351054275E-03 -0.2206767604854E-02  0.0000000000000E+00 -0.1424486625941E-02
 0.3153272985814E-03 -0.2191091872506E-02  0.0000000000000E+00 -0.1456931470388E-02
 0.3025788423305E-03 -0.2170538026518E-02  0.0000000000000E+00 -0.1490876060562E-02
 0.2861661469852E-03 -0.2145277349621E-02  0.0000000000000E+00 -0.1528064254740E-02
 0.2669526034791E-03 -0.2115582658025E-02  0.0000000000000E+00 -0.1570039547432E-02
 0.2460057838126E-03 -0.2081844614251E-02  0.0000000000000E+00 -0.1618172229579E-02
 0.2246204453234E-03 -0.2044595190142E-02  0.0000000000000E+00 -0.1673665315365E-02
 0.2043455348424E-03 -0.2004537314573E-02  0.0000000000000E+00 -0.1737533922626E-02
 0.1870110586207E-03 -0.1962576538559E-02  0.0000000000000E+00 -0.1810559614522E-02
 0.1747520277774E-03 -0.1919853753488E-02  0.0000000000000E+00 -0.1893214160187E-02
 0.1700227172209E-03 -0.1877767879302E-02  0.0000000000000E+00 -0.1985555837193E-02
 0.1755931215965E-03 -0.1837965334320E-02  0.0000000000000E+00 -0.2087104321331E-02
 0.1945279271697E-03 -0.1802344480431E-02  0.0000000000000E+00 -0.2196655435676E-02
 0.2301351410709E-03 -0.1773079179688E-02  0.0000000000000E+00 -0.2312059279672E-02
 0.2858642816806E-03 -0.1752590729947E-02  0.0000000000000E+00 -0.2429978606918E-02
 0.3651481747291E-03 -0.1743453458076E-02  0.0000000000000E+00 -0.2545645554662E-02
 0.4711886089206E-03 -0.1748240469501E-02  0.0000000000000E+00 -0.2652640911530E-02
 0.6066908436234E-03 -0.1769319595414E-02  0.0000000000000E+00 -0.2742730081165E-02
 0.7735579455064E-03 -0.1808612184276E-02  0.0000000000000E+00 -0.2805804725879E-02
 0.9725659315996E-03 -0.1867332360207E-02  0.0000000000000E+00 -0.2829991462722E-02
 0.1203070093546E-02 -0.1945753018156E-02  0.0000000000000E+00 -0.2801991911669E-02
 0.1462807634331E-02 -0.2043031743606E-02  0.0000000000000E+00 -0.2707698780200E-02
 0.1747796425332E-02 -0.2157085198411E-02  0.0000000000000E+00 -0.2533052329216E-02
 0.2052345619740E-02 -0.2284563174981E-02  0.0000000000000E+00 -0.2265086337863E-02
 0.2369240892764E-02 -0.2420977908105E-02  0.0000000000000E+00 -0.1893079326499E-02
 0.2690087011244E-02 -0.2560960174221E-02  0.0000000000000E+00 -0.1409632347464E-02
 0.3005780940266E-02 -0.2698622026556E-02  0.0000000000000E+00 -0.8114882097087E-03
 0.3307000102038E-02 -0.2827955720208E-02  0.0000000000000E+00 -0.1000738299659E-03
 0.1793770094582E-04 -0.1860475049896E-02  0.0000000000000E+00  0.2047683137882E-03
 0.5293045024303E-04 -0.1882595813885E-02  0.0000000000000E+00 -0.8796079569328E-04
 0.8661916732423E-04 -0.1904163184765E-02  0.0000000000000E+00 -0.3433035193788E-03
 0.1189259395107E-03 -0.1925082253442E-02  0.0000000000000E+00 -0.5616347533483E-03
 0.1496465821365E-03 -0.1945138450638E-02  0.0000000000000E+00 -0.7448567301482E-03
 0.1784231367177E-03 -0.1963976542664E-02  0.0000000000000E+00 -0.8960601628601E-03
 0.2047644102802E-03 -0.1981119470266E-02  0.0000000000000E+00 -0.1019119738390E-02
 0.2281013241808E-03 -0.1996014988633E-02  0.0000000000000E+00 -0.1118300974531E-02
 0.2478572949972E-03 -0.2008092973501E-02  0.0000000000000E+00 -0.1197928813328E-02
 0.2635160634199E-03 -0.2016818472926E-02  0.0000000000000E+00 -0.1262144602040E-02
 0.2746757043087E-03 -0.2021731380994E-02  0.0000000000000E+00 -0.1314754572065E-02
 0.2810846513906E-03 -0.2022469961946E-02  0.0000000000000E+00 -0.1359157043112E-02
 0.2826613479644E-03 -0.2018780414687E-02  0.0000000000000E+00 -0.1398329016786E-02
 0.2795022562508E-03 -0.2010517235341E-02  0.0000000000000E+00 -0.1434851655862E-02
 0.2718838944376E-03 -0.1997639741512E-02  0.0000000000000E+00 -0.1470956676309E-02
 0.2602639483291E-03 -0.1980209365017E-02  0.0000000000000E+00 -0.1508579579414E-02
 0.2452850048557E-03 -0.1958390858216E-02  0.0000000000000E+00 -0.1549409345526E-02
 0.2277834963628E-03 -0.1932460013713E-02  0.0000000000000E+00 -0.1594925894876E-02
 0.2088034970252E-03 -0.1902817139442E-02  0.0000000000000E+00 -0.1646421891161E-02
 0.1896156492643E-03 -0.1870007143241E-02  0.0000000000000E+00 -0.1705003830179E-02
 0.1717395917821E-03 -0.1834745323987E-02  0.0000000000000E+00 -0.1771567635268E-02
 0.1569659553657E-03 -0.1797944962770E-02  0.0000000000000E+00 -0.1846751067948E-02
 0.1473751263330E-03 -0.1760745511343E-02  0.0000000000000E+00 -0.1930857898701E-02
 0.1453459516298E-03 -0.1724529148599E-02  0.0000000000000E+00 -0.2023758001885E-02
 0.1535458108319E-03 -0.1690898675673E-02  0.0000000000000E+00 -0.2124770453820E-02
 0.1749042099298E-03 -0.1661676016061E-02  0.0000000000000E+00 -0.2232490696752E-02
 0.2125576707924E-03 -0.1638929227333E-02  0.0000000000000E+00 -0.2344585456355E-02
 0.2697444542064E-03 -0.1624944744627E-02  0.0000000000000E+00 -0.2457574266761E-02
 0.3496446857205E-03 -0.1622130009203E-02  0.0000000000000E+00 -0.2566615393203E-02
 0.4551686905543E-03 -0.1632857069504E-02  0.0000000000000E+00 -0.2665317688169E-02
 0.5887012108219E-03 -0.1659261290000E-02  0.0000000000000E+00 -0.2745607938189E-02
 0.7518148708539E-03 -0.1703011100277E-02  0.0000000000000E+00 -0.2797696480259E-02
 0.9449752088124E-03 -0.1765068160828E-02  0.0000000000000E+00 -0.2810195333256E-02
 0.1167288408736E-02 -0.1845488170550E-02  0.0000000000000E+00 -0.2770447890499E-02
 0.1416352795840E-02 -0.1943288975454E-02  0.0000000000000E+00 -0.2665110723462E-02
 0.1688203237660E-02 -0.2056358679462E-02  0.0000000000000E+00 -0.2480948454974E-02
 0.1977355471233E-02 -0.2181455440586E-02  0.0000000000000E+00 -0.2205798567470E-02
 0.2277001900246E-02 -0.2314348915784E-02  0.0000000000000E+00 -0.1829636352109E-02
 0.2579329932906E-02 -0.2450060040369E-02  0.0000000000000E+00 -0.1345571618389E-02
 0.2875932684491E-02 -0.2583175172274E-02  0.0000000000000E+00 -0.7505950062353E-03
 0.3158202429889E-02 -0.2708166970385E-02  0.0000000000000E+00 -0.4604706331689E-04
 0.1493503815938E-04 -0.1673193982137E-02  0.0000000000000E+00  0.2172266071577E-03
 0.4379048483749E-04 -0.1691614859395E-02  0.0000000000000E+00 -0.7560694197666E-04
 0.7131955910369E-04 -0.1709644322072E-02  0.0000000000000E+00 -0.3310356717922E-03
 0.9773451791261E-04 -0.1727402136245E-02  0.0000000000000E+00 -0.5495186566543E-03
 0.1230678251517E-03 -0.1744841940905E-02  0.0000000000000E+00 -0.7330771057035E-03
 0.1471273947994E-03 -0.1761717617818E-02  0.0000000000000E+00 -0.8849208958181E-03
 0.1695141819552E-03 -0.1777601621355E-02  0.0000000000000E+00 -0.1009015832399E-02
 0.1896862111923E-03 -0.1791940690428E-02  0.0000000000000E+00 -0.1109675192604E-02
 0.2070444217264E-03 -0.1804127451178E-02  0.0000000000000E+00 -0.1191226655288E-02
 0.2210178110953E-03 -0.1813568717374E-02  0.0000000000000E+00 -0.1257777555440E-02
 0.2311330658101E-03 -0.1819738422363E-02  0.0000000000000E+00 -0.1313076173365E-02
 0.2370627181465E-03 -0.1822211039807E-02  0.0000000000000E+00 -0.1360451527644E-02
 0.2386530132156E-03 -0.1820677517121E-02  0.0000000000000E+00 -0.1402809383852E-02
 0.2359366135510E-03 -0.1814948980809E-02  0.0000000000000E+00 -0.1442662870658E-02
 0.2291365289105E-03 -0.1804954302293E-02  0.0000000000000E+00 -0.1482179958846E-02
 0.2186670514754E-03 -0.1790736822702E-02  0.0000000000000E+00 -0.1523234671386E-02
 0.2051358568888E-03 -0.1772453927328E-02  0.0000000000000E+00 -0.1567452785411E-02
 0.1893502450677E-03 -0.1750382308401E-02  0.0000000000000E+00 -0.1616244263655E-02
 0.1723275684846E-03 -0.1724928600564E-02  0.0000000000000E+00 -0.1670820028660E-02
 0.1553102142949E-03 -0.1696646145527E-02  0.0000000000000E+00 -0.1732188499064E-02
 0.1397836855841E-03 -0.1666257044603E-02  0.0000000000000E+00 -0.1801127679599E-02
 0.1274940663060E-03 -0.1634675881128E-02  0.0000000000000E+00 -0.1878135908911E-02
 0.1204620910254E-03 -0.1603033702487E-02  0.0000000000000E+00 -0.1963356725297E-02
 0.1209869614045E-03 -0.1572688948352E-02  0.0000000000000E+00 -0.2056482955542E-02
 0.1316308617170E-03 -0.1545194532068E-02  0.0000000000000E+00 -0.2156647755500E-02
 0.1551880919132E-03 -0.1522291250380E-02  0.0000000000000E+00 -0.2262264145337E-02
 0.1946272100199E-03 -0.1505939082525E-02  0.0000000000000E+00 -0.2370837316937E-02
 0.2529833266031E-03 -0.1498290667986E-02  0.0000000000000E+00 -0.2478769418366E-02
 0.3331974176240E-03 -0.1501591879037E-02  0.0000000000000E+00 -0.2581173598742E-02
 0.4379076773263E-03 -0.1518023886724E-02  0.0000000000000E+00 -0.2671715811664E-02
 0.5692029014123E-03 -0.1549504603906E-02  0.0000000000000E+00 -0.2742509149419E-02
 0.7283533635695E-03 -0.1597468408723E-02  0.0000000000000E+00 -0.2784097429654E-02
 0.9155427497092E-03 -0.1662645122521E-02  0.0000000000000E+00 -0.2785575799172E-02
 0.1129653377685E-02 -0.1744892566285E-02  0.0000000000000E+00 -0.2734903795463E-02
 0.1368162252040E-02 -0.1843103352082E-02  0.0000000000000E+00 -0.2619448817416E-02
 0.1627127209072E-02 -0.1955143613731E-02  0.0000000000000E+00 -0.2426719125386E-02
 0.1901262795612E-02 -0.2077876831337E-02  0.0000000000000E+00 -0.2145254278340E-02
 0.2184146897689E-02 -0.2207317720248E-02  0.0000000000000E+00 -0.1765619514380E-02
 0.2468516380519E-02 -0.2338857235234E-02  0.0000000000000E+00 -0.1281344332317E-02
 0.2746615658822E-02 -0.2467528595954E-02  0.0000000000000E+00 -0.6896195490503E-03
 0.3010494074580E-02 -0.2588248796238E-02  0.0000000000000E+00  0.8296440553029E-05
 0.1192102610646E-04 -0.1485756632558E-02  0.0000000000000E+00  0.2274865761349E-03
 0.3461927622217E-04 -0.1500469527791E-02  0.0000000000000E+00 -0.6534866174681E-04
 0.5598121984418E-04 -0.1514966184604E-02  0.0000000000000E+00 -0.3206053956585E-03
 0.7651939397658E-04 -0.1529588318248E-02  0.0000000000000E+00 -0.5388547810073E-03
 0.9650635378191E-04 -0.1544459689012E-02  0.0000000000000E+00 -0.7222775254096E-03
 0.1159129072599E-03 -0.1559440237658E-02  0.0000000000000E+00 -0.8742465350748E-03
 0.1344248375936E-03 -0.1574145787484E-02  0.0000000000000E+00 -0.9988576280374E-03
 0.1515184108597E-03 -0.1588015215473E-02  0.0000000000000E+00 -0.1100500627861E-02
 0.1665640935093E-03 -0.1600398296082E-02  0.0000000000000E+00 -0.1183523081171E-02
 0.1789304111822E-03 -0.1610640259862E-02  0.0000000000000E+00 -0.1252004926741E-02
 0.1880695382950E-03 -0.1618148062840E-02  0.0000000000000E+00 -0.1309635108747E-02
 0.1935771606552E-03 -0.1622433153430E-02  0.0000000000000E+00 -0.1359666748528E-02
 0.1952277623765E-03 -0.1623132959525E-02  0.0000000000000E+00 -0.1404924990997E-02
 0.1929911811028E-03 -0.1620017137196E-02  0.0000000000000E+00 -0.1447844580464E-02
 0.1870377285735E-03 -0.1612985546070E-02  0.0000000000000E+00 -0.1490519674391E-02
 0.1777384626109E-03 -0.1602063984637E-02  0.0000000000000E+00 -0.1534753839647E-02
 0.1656653803700E-03 -0.1587401899743E-02  0.0000000000000E+00 -0.1582102284684E-02
 0.1515948538478E-03 -0.1569275097924E-02  0.0000000000000E+00 -0.1633899630312E-02
 0.1365147200853E-03 -0.1548093545329E-02  0.0000000000000E+00 -0.1691271937226E-02
 0.1216354530718E-03 -0.1524414883101E-02  0.0000000000000E+00 -0.1755128940472E-02
 0.1084041301764E-03 -0.1498962873748E-02  0.0000000000000E+00 -0.1826132868672E-02
 0.9851771234373E-04 -0.1472647474452E-02  0.0000000000000E+00 -0.1904647726499E-02
 0.9393291175144E-04 -0.1446584951209E-02  0.0000000000000E+00 -0.1990665032887E-02
 0.9686578584453E-04 -0.1422103693838E-02  0.0000000000000E+00 -0.2083711961573E-02
 0.1097715128560E-03 -0.1400701236549E-02  0.0000000000000E+00 -0.2182749899869E-02
 0.1353099653245E-03 -0.1384033422654E-02  0.0000000000000E+00 -0.2286026181134E-02
 0.1762860631632E-03 -0.1373950815306E-02  0.0000000000000E+00 -0.2390904298674E-02
 0.2355405820089E-03 -0.1372474279193E-02  0.0000000000000E+00 -0.2493692049756E-02
 0.3157893314272E-03 -0.1381694271723E-02  0.0000000000000E+00 -0.2589482759513E-02
 0.4194176063370E-03 -0.1403611772077E-02  0.0000000000000E+00 -0.2672024727557E-02
 0.5482418876799E-03 -0.1439942156770E-02  0.0000000000000E+00 -0.2733638732632E-02
 0.7032561295680E-03 -0.1491903635642E-02  0.0000000000000E+00 -0.2765214359418E-02
 0.8843874565507E-03 -0.1560012754222E-02  0.0000000000000E+00 -0.2756326920970E-02
 0.1090315046511E-02 -0.1643945646927E-02  0.0000000000000E+00 -0.2695528190897E-02
 0.1318406911057E-02 -0.1742480313779E-02  0.0000000000000E+00 -0.2570847549595E-02
 0.1564744826441E-02 -0.1853463524470E-02  0.0000000000000E+00 -0.2370462149675E-02
 0.1824231011719E-02 -0.1973857997676E-02  0.0000000000000E+00 -0.2083518270437E-02
 0.2090807586154E-02 -0.2099910442255E-02  0.0000000000000E+00 -0.1701069151232E-02
 0.2357732494285E-02 -0.2227364715788E-02  0.0000000000000E+00 -0.1216978245594E-02
 0.2617865743201E-02 -0.2351680205344E-02  0.0000000000000E+00 -0.6285934146654E-03
 0.2863865182021E-02 -0.2468189501498E-02  0.0000000000000E+00  0.6289696979517E-04
 0.8881515176861E-05 -0.1298111084123E-02  0.0000000000000E+00  0.2355355164252E-03
 0.2537530799118E-04 -0.1309091670670E-02  0.0000000000000E+00 -0.5719108358864E-04
 0.4053897411565E-04 -0.1320047851475E-02  0.0000000000000E+00 -0.3120029671526E-03
 0.5519830767600E-04 -0.1331552506774E-02  0.0000000000000E+00 -0.5296151256705E-03
 0.6987063182862E-04 -0.1343901996688E-02  0.0000000000000E+00 -0.7124125649015E-03
 0.8468619782263E-04 -0.1357058467421E-02  0.0000000000000E+00 -0.8639782979499E-03
 0.9940661782346E-04 -0.1370673283108E-02  0.0000000000000E+00 -0.9885783794677E-03
 0.1135153649548E-03 -0.1384168665711E-02  0.0000000000000E+00 -0.1090707483522E-02
 0.1263423733267E-03 -0.1396844216893E-02  0.0000000000000E+00 -0.1174748528277E-02
 0.1371883548964E-03 -0.1407978992825E-02  0.0000000000000E+00 -0.1244758716405E-02
 0.1454267826881E-03 -0.1416911222537E-02  0.0000000000000E+00 -0.1304364615316E-02
 0.1505749734019E-03 -0.1423089777451E-02  0.0000000000000E+00 -0.1356735818969E-02
 0.1523358756534E-03 -0.1426100264689E-02  0.0000000000000E+00 -0.1404607107361E-02
 0.1506175092298E-03 -0.1425672902130E-02  0.0000000000000E+00 -0.1450324695762E-02
 0.1455384810757E-03 -0.1421680189536E-02  0.0000000000000E+00 -0.1495899462100E-02
 0.1374270481702E-03 -0.1414131187491E-02  0.0000000000000E+00 -0.1543056376587E-02
 0.1268190968402E-03 -0.1403167111573E-02  0.0000000000000E+00 -0.1593273663197E-02
 0.1144586592821E-03 -0.1389061398593E-02  0.0000000000000E+00 -0.1647806197846E-02
 0.1013016934369E-03 -0.1372224684511E-02  0.0000000000000E+00 -0.1707693022205E-02
 0.8852357914949E-04 -0.1353215153135E-02  0.0000000000000E+00 -0.1773745490249E-02
 0.7752920059678E-04 -0.1332753519098E-02  0.0000000000000E+00 -0.1846513007389E-02
 0.6996238389595E-04 -0.1311739678759E-02  0.0000000000000E+00 -0.1926230975467E-02
 0.6771204925141E-04 -0.1291269300358E-02  0.0000000000000E+00 -0.2012747474131E-02
 0.7290824245884E-04 -0.1272635042632E-02  0.0000000000000E+00 -0.2105435368164E-02
 0.8789797404879E-04 -0.1257274253458E-02  0.0000000000000E+00 -0.2203097806712E-02
 0.1152081230587E-03 -0.1246754725617E-02  0.0000000000000E+00 -0.2303831859354E-02
 0.1574849356482E-03 -0.1242817041610E-02  0.0000000000000E+00 -0.2404877089639E-02
 0.2173842158087E-03 -0.1247353087659E-02  0.0000000000000E+00 -0.2502467184053E-02
 0.2974109028805E-03 -0.1262304732076E-02  0.0000000000000E+00 -0.2591697589702E-02
 0.3997164884599E-03 -0.1289503840698E-02  0.0000000000000E+00 -0.2666420690159E-02
 0.5258679259185E-03 -0.1330478054591E-02  0.0000000000000E+00 -0.2719183281072E-02
 0.6766070709451E-03 -0.1386246432532E-02  0.0000000000000E+00 -0.2741231179203E-02
 0.8516268346521E-03 -0.1457129000072E-02  0.0000000000000E+00 -0.2722617049287E-02
 0.1049419932016E-02 -0.1542633612878E-02  0.0000000000000E+00 -0.2652463529107E-02
 0.1267252894958E-02 -0.1641430734844E-02  0.0000000000000E+00 -0.2519417895216E-02
 0.1501227602169E-02 -0.1751346581528E-02  0.0000000000000E+00 -0.2312257490948E-02
 0.1746419256907E-02 -0.1869433839413E-02  0.0000000000000E+00 -0.2020645465346E-02
 0.1997112462481E-02 -0.1992156926373E-02  0.0000000000000E+00 -0.1636023940610E-02
 0.2247062458320E-02 -0.2115598088486E-02  0.0000000000000E+00 -0.1152504487426E-02
 0.2489719093524E-02 -0.2235629409710E-02  0.0000000000000E+00 -0.5675503811380E-03
 0.2718310290936E-02 -0.2347978528968E-02  0.0000000000000E+00  0.1176988685537E-03
 0.5801456515217E-05 -0.1110203714754E-02  0.0000000000000E+00  0.2413498523380E-03
 0.1601456437476E-04 -0.1117410502252E-02  0.0000000000000E+00 -0.5114842214548E-04
 0.2492414270672E-04 -0.1124805308423E-02  0.0000000000000E+00 -0.3052242477816E-03
 0.3368532089426E-04 -0.1133203471072E-02  0.0000000000000E+00 -0.5217729954241E-03
 0.4306601631123E-04 -0.1143076873411E-02  0.0000000000000E+00 -0.7034341582153E-03
 0.5335167576858E-04 -0.1154484918971E-02  0.0000000000000E+00 -0.8540519788238E-03
 0.6436867531293E-04 -0.1167104683171E-02  0.0000000000000E+00 -0.9781046375121E-03
 0.7559419624856E-04 -0.1180330781651E-02  0.0000000000000E+00 -0.1080219366673E-02
 0.8630538864103E-04 -0.1193403545092E-02  0.0000000000000E+00 -0.1164827966084E-02
 0.9572621561734E-04 -0.1205530088830E-02  0.0000000000000E+00 -0.1235967185823E-02
 0.1031463024557E-03 -0.1215977563926E-02  0.0000000000000E+00 -0.1297196170863E-02
 0.1080026329222E-03 -0.1224132536750E-02  0.0000000000000E+00 -0.1351592089365E-02
 0.1099267568698E-03 -0.1229530574861E-02  0.0000000000000E+00 -0.1401789123526E-02
 0.1087660063857E-03 -0.1231864702253E-02  0.0000000000000E+00 -0.1450034964389E-02
 0.1045885167531E-03 -0.1230981974031E-02  0.0000000000000E+00 -0.1498248329275E-02
 0.9768048204778E-04 -0.1226875796755E-02  0.0000000000000E+00 -0.1548068284976E-02
 0.8854159268376E-04 -0.1219679150254E-02  0.0000000000000E+00 -0.1600890598328E-02
 0.7788251507246E-04 -0.1209661924131E-02  0.0000000000000E+00 -0.1657886960796E-02
 0.6662539108354E-04 -0.1197233101137E-02  0.0000000000000E+00 -0.1720008169478E-02
 0.5590779383871E-04 -0.1182948034002E-02  0.0000000000000E+00 -0.1787968364869E-02
 0.4708915222940E-04 -0.1167520114360E-02  0.0000000000000E+00 -0.1862207840431E-02
 0.4175667718612E-04 -0.1151834227430E-02  0.0000000000000E+00 -0.1942839712176E-02
 0.4172827125701E-04 -0.1136960157578E-02  0.0000000000000E+00 -0.2029577509063E-02
 0.4904564416455E-04 -0.1124149719339E-02  0.0000000000000E+00 -0.2121651020080E-02
 0.6594700509127E-04 -0.1114775853655E-02  0.0000000000000E+00 -0.2217718004645E-02
 0.9482818151485E-04 -0.1110315802514E-02  0.0000000000000E+00 -0.2315739324387E-02
 0.1381821898511E-03 -0.1112400216472E-02  0.0000000000000E+00 -0.2412846280169E-02
 0.1984896277941E-03 -0.1122795405645E-02  0.0000000000000E+00 -0.2505215904413E-02
 0.2780590771499E-03 -0.1143301997852E-02  0.0000000000000E+00 -0.2587964464351E-02
 0.3788271844501E-03 -0.1175594130786E-02  0.0000000000000E+00 -0.2655066887378E-02
 0.5021334526660E-03 -0.1221026417781E-02  0.0000000000000E+00 -0.2699311664367E-02
 0.6484903403884E-03 -0.1280435076763E-02  0.0000000000000E+00 -0.2712310071161E-02
 0.8173763680458E-03 -0.1353958849834E-02  0.0000000000000E+00 -0.2684590189314E-02
 0.1007110874977E-02 -0.1440948295194E-02  0.0000000000000E+00 -0.2605827449463E-02
 0.1214861979786E-02 -0.1539970196077E-02  0.0000000000000E+00 -0.2465248304684E-02
 0.1436743120262E-02 -0.1648825385884E-02  0.0000000000000E+00 -0.2252167875399E-02
 0.1667983884000E-02 -0.1764643832924E-02  0.0000000000000E+00 -0.1956681457138E-02
 0.1903188273549E-02 -0.1884091371159E-02  0.0000000000000E+00 -0.1570522092075E-02
 0.2136589075153E-02 -0.2003575875657E-02  0.0000000000000E+00 -0.1087959722717E-02
 0.2362211371621E-02 -0.2119376408361E-02  0.0000000000000E+00 -0.5065285700894E-03
 0.2573826973012E-02 -0.2227605055945E-02  0.0000000000000E+00  0.1726494162624E-03
 0.2664708758494E-05 -0.9219788810843E-03  0.0000000000000E+00  0.2448944049636E-03
 0.6489989213789E-05 -0.9253521037342E-03  0.0000000000000E+00 -0.4724443907040E-04
 0.9063791323980E-05 -0.9291508971218E-03  0.0000000000000E+00 -0.3002706831176E-03
 0.1189006605792E-04 -0.9344466026082E-03  0.0000000000000E+00 -0.5153025498546E-03
 0.1599419247842E-04 -0.9418898353833E-03  0.0000000000000E+00 -0.6952909005581E-03
 0.2181135345715E-04 -0.9516308314254E-03  0.0000000000000E+00 -0.8443972791768E-03
 0.2921907291078E-04 -0.9633601471474E-03  0.0000000000000E+00 -0.9673558229195E-03
 0.3767192137230E-04 -0.9764314269889E-03  0.0000000000000E+00 -0.1068953195869E-02
 0.4637967305380E-04 -0.9900147931388E-03  0.0000000000000E+00 -0.1153681110027E-02
 0.5447904477580E-04 -0.1003238566586E-02  0.0000000000000E+00 -0.1225555276998E-02
 0.6116984346847E-04 -0.1015296028583E-02  0.0000000000000E+00 -0.1288059999157E-02
 0.6580647500409E-04 -0.1025511700875E-02  0.0000000000000E+00 -0.1344169633461E-02
 0.6794927806658E-04 -0.1033373105802E-02  0.0000000000000E+00 -0.1396406944101E-02
 0.6738625016420E-04 -0.1038538615376E-02  0.0000000000000E+00 -0.1446911226076E-02
 0.6413658797706E-04 -0.1040832064810E-02  0.0000000000000E+00 -0.1497500745372E-02
 0.5844549430452E-04 -0.1040232589119E-02  0.0000000000000E+00 -0.1549722201513E-02
 0.5077673529874E-04 -0.1036865221343E-02  0.0000000000000E+00 -0.1604884372838E-02
 0.4180697021458E-04 -0.1030995432977E-02  0.0000000000000E+00 -0.1664073271823E-02
 0.3242300792636E-04 -0.1023028569448E-02  0.0000000000000E+00 -0.1728151122954E-02
 0.2372235974388E-04 -0.1013514163006E-02  0.0000000000000E+00 -0.1797736841070E-02
 0.1701622407549E-04 -0.1003154439938E-02  0.0000000000000E+00 -0.1873166028973E-02
 0.1383221456064E-04 -0.9928147971772E-03  0.0000000000000E+00 -0.1954436374476E-02
 0.1591447732144E-04 -0.9835343478228E-03  0.0000000000000E+00 -0.2041136014504E-02
 0.2521451635357E-04 -0.9765194551983E-03  0.0000000000000E+00 -0.2132362752802E-02
 0.4386151331898E-04 -0.9730749213398E-03  0.0000000000000E+00 -0.2226641098937E-02
 0.7412254865385E-04 -0.9745854016407E-03  0.0000000000000E+00 -0.2321808373025E-02
 0.1183431785105E-03 -0.9825721190843E-03  0.0000000000000E+00 -0.2414901167106E-02
 0.1788388255664E-03 -0.9986796523757E-03  0.0000000000000E+00 -0.2502054550030E-02
 0.2577363634187E-03 -0.1024575122422E-02  0.0000000000000E+00 -0.2578421132881E-02
 0.3567764365938E-03 -0.1061786562448E-02  0.0000000000000E+00 -0.2638113733452E-02
 0.4770926320677E-03 -0.1111510220842E-02  0.0000000000000E+00 -0.2674175859941E-02
 0.6189895205961E-03 -0.1174415272030E-02  0.0000000000000E+00 -0.2678592698537E-02
 0.7817489790402E-03 -0.1250473216893E-02  0.0000000000000E+00 -0.2642367326138E-02
 0.9635269344146E-03 -0.1338886249672E-02  0.0000000000000E+00 -0.2555713926150E-02
 0.1161392050102E-02 -0.1438118431119E-02  0.0000000000000E+00 -0.2408405423918E-02
 0.1371456127835E-02 -0.1545936911575E-02  0.0000000000000E+00 -0.2190238997669E-02
 0.1589080157800E-02 -0.1659532625695E-02  0.0000000000000E+00 -0.1891662571769E-02
 0.1809161911206E-02 -0.1775753499964E-02  0.0000000000000E+00 -0.1504602329877E-02
 0.2026394812382E-02 -0.1891320487222E-02  0.0000000000000E+00 -0.1023388954114E-02
 0.2235377086495E-02 -0.2002921914377E-02  0.0000000000000E+00 -0.4455737730238E-03
 0.2430414599359E-02 -0.2107056758436E-02  0.0000000000000E+00  0.2276971604677E-03
-0.5461835261421E-06 -0.7333785618217E-03  0.0000000000000E+00  0.2461215281261E-03
-0.3249133835787E-05 -0.7328388495457E-03  0.0000000000000E+00 -0.4551296966587E-04
-0.7120116461631E-05 -0.7329926801756E-03  0.0000000000000E+00 -0.2971492378910E-03
-0.1028307507787E-04 -0.7351834154818E-03  0.0000000000000E+00 -0.5101781707043E-03
-0.1144741010165E-04 -0.7402436822344E-03  0.0000000000000E+00 -0.6879271135740E-03
-0.1003540704104E-04 -0.7484061560754E-03  0.0000000000000E+00 -0.8349369184557E-03
-0.6135163972722E-05 -0.7593597486232E-03  0.0000000000000E+00 -0.9562436466048E-03
-0.3342837805315E-06 -0.7724010552595E-03  0.0000000000000E+00 -0.1056819032546E-02
 0.6492539912153E-05 -0.7866171566970E-03  0.0000000000000E+00 -0.1141222619892E-02
 0.1338277173941E-04 -0.8010497603235E-03  0.0000000000000E+00 -0.1213445051995E-02
 0.1943977158343E-04 -0.8148152420396E-03  0.0000000000000E+00 -0.1276885607546E-02
 0.2393302949662E-04 -0.8271765198031E-03  0.0000000000000E+00 -0.1334403765051E-02
 0.2635206847061E-04 -0.8375754233285E-03  0.0000000000000E+00 -0.1388399403047E-02
 0.2642723494607E-04 -0.8456386019719E-03  0.0000000000000E+00 -0.1440893681579E-02
 0.2413068092211E-04 -0.8511692496860E-03  0.0000000000000E+00 -0.1493596745470E-02
 0.1966804979388E-04 -0.8541339255102E-03  0.0000000000000E+00 -0.1547957329223E-02
 0.1346781715456E-04 -0.8546502971962E-03  0.0000000000000E+00 -0.1605193635908E-02
 0.6172372817859E-05 -0.8529788480127E-03  0.0000000000000E+00 -0.1666304430540E-02
-0.1367914235550E-05 -0.8495196361223E-03  0.0000000000000E+00 -0.1732063897327E-02
-0.8097404860352E-05 -0.8448137660406E-03  0.0000000000000E+00 -0.1802998486625E-02
-0.1275543800039E-04 -0.8395488863058E-03  0.0000000000000E+00 -0.1879344195805E-02
-0.1387651296411E-04 -0.8345668904555E-03  0.0000000000000E+00 -0.1960990647368E-02
-0.9792546806386E-05 -0.8308719014228E-03  0.0000000000000E+00 -0.2047409995775E-02
 0.1356257544882E-05 -0.8296206701653E-03  0.0000000000000E+00 -0.2137579003977E-02
 0.2159011633263E-04 -0.8320465200502E-03  0.0000000000000E+00 -0.2229900369686E-02
 0.5304988576910E-04 -0.8394398174001E-03  0.0000000000000E+00 -0.2322099158310E-02
 0.9793960471688E-04 -0.8532131613053E-03  0.0000000000000E+00 -0.2411128704956E-02
 0.1584196865630E-03 -0.8748935243831E-03  0.0000000000000E+00 -0.2493094059413E-02
 0.2364500114825E-03 -0.9060225052374E-03  0.0000000000000E+00 -0.2563196570939E-02
 0.3335939875123E-03 -0.9479938349000E-03  0.0000000000000E+00 -0.2615699276049E-02
 0.4508004689246E-03 -0.1001860079647E-02  0.0000000000000E+00 -0.2643911851361E-02
 0.5881868186953E-03 -0.1068138878026E-02  0.0000000000000E+00 -0.2640201400689E-02
 0.7448544309777E-03 -0.1146647702395E-02  0.0000000000000E+00 -0.2596047619252E-02
 0.9188031473444E-03 -0.1236447680642E-02  0.0000000000000E+00 -0.2502194148464E-02
 0.1106997344971E-02 -0.1335898534083E-02  0.0000000000000E+00 -0.2348934409003E-02
 0.1305529378260E-02 -0.1442722139234E-02  0.0000000000000E+00 -0.2126499115524E-02
 0.1509863814363E-02 -0.1554150389136E-02  0.0000000000000E+00 -0.1825615009965E-02
 0.1715162491122E-02 -0.1667189882162E-02  0.0000000000000E+00 -0.1438304027117E-02
 0.1916563138972E-02 -0.1778859739746E-02  0.0000000000000E+00 -0.9588486161472E-03
 0.2109248567226E-02 -0.1886267074081E-02  0.0000000000000E+00 -0.3847442725975E-03
 0.2288072443541E-02 -0.1986318215779E-02  0.0000000000000E+00  0.2827897101191E-03
-0.3850252253277E-05 -0.5443419519560E-03  0.0000000000000E+00  0.2449700469930E-03
-0.1325790250459E-04 -0.5397887644317E-03  0.0000000000000E+00 -0.4599854201793E-04
-0.2371168460527E-04 -0.5362337536018E-03  0.0000000000000E+00 -0.2958722712819E-03
-0.3293587155038E-04 -0.5353110521192E-03  0.0000000000000E+00 -0.5063736337798E-03
-0.3936620910942E-04 -0.5380383521063E-03  0.0000000000000E+00 -0.6812816644053E-03
-0.4229208950565E-04 -0.5447197762830E-03  0.0000000000000E+00 -0.8255855388507E-03
-0.4178790216706E-04 -0.5550239626208E-03  0.0000000000000E+00 -0.9446714153356E-03
-0.3850672439084E-04 -0.5681713258380E-03  0.0000000000000E+00 -0.1043719892337E-02
-0.3342747047846E-04 -0.5831511408758E-03  0.0000000000000E+00 -0.1127362344949E-02
-0.2762535077387E-04 -0.5989098857806E-03  0.0000000000000E+00 -0.1199556210988E-02
-0.2210052921067E-04 -0.6144839949086E-03  0.0000000000000E+00 -0.1263602407619E-02
-0.1767064159046E-04 -0.6290756255156E-03  0.0000000000000E+00 -0.1322231626933E-02
-0.1491620270788E-04 -0.6420837837281E-03  0.0000000000000E+00 -0.1377708735290E-02
-0.1416239032871E-04 -0.6531068040228E-03  0.0000000000000E+00 -0.1431927203373E-02
-0.1548178298250E-04 -0.6619302109462E-03  0.0000000000000E+00 -0.1486482064765E-02
-0.1870648278413E-04 -0.6685100034668E-03  0.0000000000000E+00 -0.1542719395543E-02
-0.2344230922585E-04 -0.6729573497443E-03  0.0000000000000E+00 -0.1601764189800E-02
-0.2908103568885E-04 -0.6755274630590E-03  0.0000000000000E+00 -0.1664527302634E-02
-0.3480944352863E-04 -0.6766137886522E-03  0.0000000000000E+00 -0.1731696229621E-02
-0.3961514552397E-04 -0.6767467729081E-03  0.0000000000000E+00 -0.1803708440741E-02
-0.4228987397284E-04 -0.6765965007251E-03  0.0000000000000E+00 -0.1880706031679E-02
-0.4143231892098E-04 -0.6769777999597E-03  0.0000000000000E+00 -0.1962478400724E-02
-0.3545238596736E-04 -0.6788559264429E-03  0.0000000000000E+00 -0.2048391379598E-02
-0.2258320008816E-04 -0.6833342475591E-03  0.0000000000000E+00 -0.2137311513394E-02
-0.9132767460063E-06 -0.6915715678487E-03  0.0000000000000E+00 -0.2227530464555E-02
 0.3157461389891E-04 -0.7047624666638E-03  0.0000000000000E+00 -0.2316670993744E-02
 0.7694895801769E-04 -0.7242118664475E-03  0.0000000000000E+00 -0.2401612564267E-02
 0.1372253284272E-03 -0.7513333765721E-03  0.0000000000000E+00 -0.2478439430099E-02
 0.2142113221658E-03 -0.7875511719686E-03  0.0000000000000E+00 -0.2542410960575E-02
 0.3093118419482E-03 -0.8341366004201E-03  0.0000000000000E+00 -0.2587949743010E-02
 0.4233120491245E-03 -0.8920133196000E-03  0.0000000000000E+00 -0.2608640667661E-02
 0.5561623454350E-03 -0.9615628952014E-03  0.0000000000000E+00 -0.2597240505271E-02
 0.7067987570867E-03 -0.1042461562278E-02  0.0000000000000E+00 -0.2545709648826E-02
 0.8730702638456E-03 -0.1133635508899E-02  0.0000000000000E+00 -0.2445317354732E-02
 0.1051828640147E-02 -0.1233336248999E-02  0.0000000000000E+00 -0.2286859113235E-02
 0.1239124372600E-02 -0.1339225657008E-02  0.0000000000000E+00 -0.2060958359661E-02
 0.1430492641215E-02 -0.1448553105010E-02  0.0000000000000E+00 -0.1758553173686E-02
 0.1621324025854E-02 -0.1558455728787E-02  0.0000000000000E+00 -0.1371666096144E-02
 0.1807180988431E-02 -0.1666229781238E-02  0.0000000000000E+00 -0.8944098189352E-03
 0.1983855236408E-02 -0.1769414537949E-02  0.0000000000000E+00 -0.3241182587440E-03
 0.2146797320823E-02 -0.1865369418649E-02  0.0000000000000E+00  0.3378700896936E-03
-0.7268414565960E-05 -0.3548049884233E-03  0.0000000000000E+00  0.2413640345662E-03
-0.2359664461876E-04 -0.3461147754245E-03  0.0000000000000E+00 -0.4875706003140E-04
-0.4080219770024E-04 -0.3387714685357E-03  0.0000000000000E+00 -0.2964572791890E-03
-0.5617723929384E-04 -0.3347217643618E-03  0.0000000000000E+00 -0.5038609886325E-03
-0.6787506760896E-04 -0.3351708349103E-03  0.0000000000000E+00 -0.6752864464619E-03
-0.7506514813140E-04 -0.3404798434109E-03  0.0000000000000E+00 -0.8162483385097E-03
-0.7783364836800E-04 -0.3502742821325E-03  0.0000000000000E+00 -0.9325331873025E-03
-0.7692672561051E-04 -0.3636758243366E-03  0.0000000000000E+00 -0.1029551519931E-02
-0.7345007298327E-04 -0.3795592481080E-03  0.0000000000000E+00 -0.1112005604630E-02
-0.6860626762106E-04 -0.3967666257475E-03  0.0000000000000E+00 -0.1183806673169E-02
-0.6350625600764E-04 -0.4142517124071E-03  0.0000000000000E+00 -0.1248140395117E-02
-0.5905662398175E-04 -0.4311574038771E-03  0.0000000000000E+00 -0.1307592821145E-02
-0.5590657247155E-04 -0.4468434368137E-03  0.0000000000000E+00 -0.1364281069546E-02
-0.5443411760601E-04 -0.4608838053467E-03  0.0000000000000E+00 -0.1419961651810E-02
-0.5475377925718E-04 -0.4730497605651E-03  0.0000000000000E+00 -0.1476108269485E-02
-0.5673319444340E-04 -0.4832890751507E-03  0.0000000000000E+00 -0.1533960604737E-02
-0.6001112787304E-04 -0.4917075503328E-03  0.0000000000000E+00 -0.1594548775011E-02
-0.6401305776838E-04 -0.4985551161760E-03  0.0000000000000E+00 -0.1658695946948E-02
-0.6796324720162E-04 -0.5042175883168E-03  0.0000000000000E+00 -0.1727005052009E-02
-0.7089352521036E-04 -0.5092128933543E-03  0.0000000000000E+00 -0.1799828730986E-02
-0.7164943784360E-04 -0.5141909901528E-03  0.0000000000000E+00 -0.1877221452904E-02
-0.6889552931741E-04 -0.5199365259181E-03  0.0000000000000E+00 -0.1958880690105E-02
-0.6112128185673E-04 -0.5273724341033E-03  0.0000000000000E+00 -0.2044075877454E-02
-0.4665374790724E-04 -0.5375452685068E-03  0.0000000000000E+00 -0.2131574095748E-02
-0.2368988215690E-04 -0.5515364879380E-03  0.0000000000000E+00 -0.2219566162316E-02
 0.9666449383328E-05 -0.5704434665873E-03  0.0000000000000E+00 -0.2305581223718E-02
 0.5535401258489E-04 -0.5954643856135E-03  0.0000000000000E+00 -0.2386432251917E-02
 0.1152535752064E-03 -0.6279036837361E-03  0.0000000000000E+00 -0.2458189240228E-02
 0.1910350800698E-03 -0.6690761775341E-03  0.0000000000000E+00 -0.2516175740258E-02
 0.2839636589533E-03 -0.7201427915108E-03  0.0000000000000E+00 -0.2554980175051E-02
 0.3946818893093E-03 -0.7819132013973E-03  0.0000000000000E+00 -0.2568469523211E-02
 0.5229934489925E-03 -0.8546485766382E-03  0.0000000000000E+00 -0.2549797734432E-02
 0.6676836649342E-03 -0.9378967366986E-03  0.0000000000000E+00 -0.2491412701544E-02
 0.8264543901734E-03 -0.1030454427824E-02  0.0000000000000E+00 -0.2385111585758E-02
 0.9960332988198E-03 -0.1130459199275E-02  0.0000000000000E+00 -0.2222182113462E-02
 0.1172401859064E-02 -0.1235495046340E-02  0.0000000000000E+00 -0.1993607859627E-02
 0.1351127741598E-02 -0.1342802321378E-02  0.0000000000000E+00 -0.1690477093159E-02
 0.1527788482036E-02 -0.1449616646840E-02  0.0000000000000E+00 -0.1304723485480E-02
 0.1698342880026E-02 -0.1553479848628E-02  0.0000000000000E+00 -0.8301603828599E-03
 0.1859223499127E-02 -0.1652371593194E-02  0.0000000000000E+00 -0.2638049130933E-03
 0.2006580052698E-02 -0.1744184307485E-02  0.0000000000000E+00  0.3928703222109E-03
-0.1082384649714E-04 -0.1646997811123E-03  0.0000000000000E+00  0.2352113275199E-03
-0.3433193183582E-04 -0.1517238131993E-03  0.0000000000000E+00 -0.5385658382210E-04
-0.5849142269610E-04 -0.1404965159778E-03  0.0000000000000E+00 -0.2989264945500E-03
-0.8012435587847E-04 -0.1333023365000E-03  0.0000000000000E+00 -0.5026091091993E-03
-0.9709289782046E-04 -0.1315351231096E-03  0.0000000000000E+00 -0.6698644966749E-03
-0.1084640462689E-03 -0.1355942084606E-03  0.0000000000000E+00 -0.8068194454909E-03
-0.1143671756785E-03 -0.1450339294019E-03  0.0000000000000E+00 -0.9197128276890E-03
-0.1156740668961E-03 -0.1588508310583E-03  0.0000000000000E+00 -0.1014202198481E-02
-0.1136426590642E-03 -0.1757866495570E-03  0.0000000000000E+00 -0.1095053577817E-02
-0.1096186288168E-03 -0.1945696397851E-03  0.0000000000000E+00 -0.1166113283894E-02
-0.1048308100913E-03 -0.2140688047243E-03  0.0000000000000E+00 -0.1230430939365E-02
-0.1002758783936E-03 -0.2333702207470E-03  0.0000000000000E+00 -0.1290430119651E-02
-0.9666958942835E-04 -0.2517987691204E-03  0.0000000000000E+00 -0.1348066974208E-02
-0.9443943851029E-04 -0.2689087253342E-03  0.0000000000000E+00 -0.1404952224871E-02
-0.9373857597234E-04 -0.2844609054435E-03  0.0000000000000E+00 -0.1462432911170E-02
-0.9446756132443E-04 -0.2983974928434E-03  0.0000000000000E+00 -0.1521639611851E-02
-0.9629641624938E-04 -0.3108202939324E-03  0.0000000000000E+00 -0.1583506882267E-02
-0.9868353653009E-04 -0.3219741829523E-03  0.0000000000000E+00 -0.1648771280358E-02
-0.1008906408782E-03 -0.3322366171995E-03  0.0000000000000E+00 -0.1717954017256E-02
-0.1019943395226E-03 -0.3421114998009E-03  0.0000000000000E+00 -0.1791327659010E-02
-0.1008949891556E-03 -0.3522265229184E-03  0.0000000000000E+00 -0.1868865842100E-02
-0.9632425388215E-04 -0.3633334854389E-03  0.0000000000000E+00 -0.1950182850026E-02
-0.8685247856011E-04 -0.3763099533515E-03  0.0000000000000E+00 -0.2034461943173E-02
-0.7090150690117E-04 -0.3921425394887E-03  0.0000000000000E+00 -0.2120381500978E-02
-0.4677648915252E-04 -0.4118326660156E-03  0.0000000000000E+00 -0.2206041209570E-02
-0.1270006536769E-04 -0.4363790444333E-03  0.0000000000000E+00 -0.2288884147450E-02
 0.3314235260576E-04 -0.4668738831834E-03  0.0000000000000E+00 -0.2365662264543E-02
 0.9250648418357E-04 -0.5045164175837E-03  0.0000000000000E+00 -0.2432435189234E-02
 0.1669390732276E-03 -0.5505199727714E-03  0.0000000000000E+00 -0.2484593674327E-02
 0.2575842373900E-03 -0.6059469488245E-03  0.0000000000000E+00 -0.2516895097602E-02
 0.3649633516965E-03 -0.6715081558688E-03  0.0000000000000E+00 -0.2523493028552E-02
 0.4887540451027E-03 -0.7473605152087E-03  0.0000000000000E+00 -0.2497945697382E-02
 0.6276058328560E-03 -0.8329367802435E-03  0.0000000000000E+00 -0.2433198114270E-02
 0.7790764207895E-03 -0.9269097546932E-03  0.0000000000000E+00 -0.2321584363197E-02
 0.9397550956102E-03 -0.1027295878690E-02  0.0000000000000E+00 -0.2154884501295E-02
 0.1105521979270E-02 -0.1131579964085E-02  0.0000000000000E+00 -0.1924418914028E-02
 0.1271933958153E-02 -0.1236963826059E-02  0.0000000000000E+00 -0.1621369472288E-02
 0.1434708518129E-02 -0.1340749143524E-02  0.0000000000000E+00 -0.1237499973106E-02
 0.1590157445476E-02 -0.1440679163491E-02  0.0000000000000E+00 -0.7662024855011E-03
 0.1735378390884E-02 -0.1535157544462E-02  0.0000000000000E+00 -0.2039605375900E-03
 0.1867399234698E-02 -0.1622729350125E-02  0.0000000000000E+00  0.4476990530267E-03
-0.1454243761170E-04  0.2604607288132E-04  0.0000000000000E+00  0.2264017718806E-03
-0.4553780077585E-04  0.4348423794048E-04  0.0000000000000E+00 -0.6137818991412E-04
-0.7688913668597E-04  0.5870808822561E-04  0.0000000000000E+00 -0.3033062614432E-03
-0.1049038997547E-03  0.6906645547971E-04  0.0000000000000E+00 -0.5025817998524E-03
-0.1271452370135E-03  0.7297765006722E-04  0.0000000000000E+00 -0.6649276556082E-03
-0.1426011507115E-03  0.7002886333512E-04  0.0000000000000E+00 -0.7971799942346E-03
-0.1514829646752E-03  0.6077113285671E-04  0.0000000000000E+00 -0.9060829780201E-03
-0.1548262531172E-03  0.4636364843457E-04  0.0000000000000E+00 -0.9975526346519E-03
-0.1540696059948E-03  0.2821793595490E-04  0.0000000000000E+00 -0.1076403844636E-02
-0.1507182352865E-03  0.7728762329559E-05  0.0000000000000E+00 -0.1146392681092E-02
-0.1461253935599E-03 -0.1388715858230E-04  0.0000000000000E+00 -0.1210407701262E-02
-0.1413779596881E-03 -0.3566278623321E-04  0.0000000000000E+00 -0.1270690263163E-02
-0.1372551166613E-03 -0.5689359497704E-04  0.0000000000000E+00 -0.1329022056786E-02
-0.1342296987347E-03 -0.7711947649946E-04  0.0000000000000E+00 -0.1386859838143E-02
-0.1324896198246E-03 -0.9609509397429E-04  0.0000000000000E+00 -0.1445419699051E-02
-0.1319653549017E-03 -0.1137599521900E-03  0.0000000000000E+00 -0.1505721512019E-02
-0.1323561822073E-03 -0.1302134350892E-03  0.0000000000000E+00 -0.1568604584657E-02
-0.1331523296958E-03 -0.1456957923558E-03  0.0000000000000E+00 -0.1634720773600E-02
-0.1336526144765E-03 -0.1605756549444E-03  0.0000000000000E+00 -0.1704513070252E-02
-0.1329786103287E-03 -0.1753417431755E-03  0.0000000000000E+00 -0.1778179249283E-02
-0.1300860660257E-03 -0.1905977635657E-03  0.0000000000000E+00 -0.1855619367156E-02
-0.1237746413680E-03 -0.2070604533775E-03  0.0000000000000E+00 -0.1936373675131E-02
-0.1126965512949E-03 -0.2255593763229E-03  0.0000000000000E+00 -0.2019549819847E-02
-0.9536920980649E-04 -0.2470183545928E-03  0.0000000000000E+00 -0.2103748356200E-02
-0.7020586787304E-04 -0.2723561541435E-03  0.0000000000000E+00 -0.2186987223589E-02
-0.3554596575195E-04 -0.3024712166765E-03  0.0000000000000E+00 -0.2266629989595E-02
 0.1030599784374E-04 -0.3383502269614E-03  0.0000000000000E+00 -0.2339371271969E-02
 0.6899001386884E-04 -0.3810907751906E-03  0.0000000000000E+00 -0.2401261665082E-02
 0.1419437931283E-03 -0.4318121746489E-03  0.0000000000000E+00 -0.2447758972950E-02
 0.2302092066697E-03 -0.4914899958716E-03  0.0000000000000E+00 -0.2473789302890E-02
 0.3342082558781E-03 -0.5607514821296E-03  0.0000000000000E+00 -0.2473794608845E-02
 0.4535140911740E-03 -0.6396661560927E-03  0.0000000000000E+00 -0.2441743680843E-02
 0.5866562678036E-03 -0.7275661413066E-03  0.0000000000000E+00 -0.2371090953471E-02
 0.7310514201112E-03 -0.8230065070231E-03  0.0000000000000E+00 -0.2254723666183E-02
 0.8831340351999E-03 -0.9238747668848E-03  0.0000000000000E+00 -0.2084925615061E-02
 0.1038644598599E-02 -0.1027531651739E-02  0.0000000000000E+00 -0.1853342517946E-02
 0.1193079455382E-02 -0.1131105777076E-02  0.0000000000000E+00 -0.1551194474616E-02
 0.1342248848358E-02 -0.1231938012226E-02  0.0000000000000E+00 -0.1169996947628E-02
 0.1482757715038E-02 -0.1327926130109E-02  0.0000000000000E+00 -0.7026394140933E-03
 0.1612351392822E-02 -0.1417820867370E-02  0.0000000000000E+00 -0.1448096284665E-03
 0.1729209751810E-02 -0.1500964300909E-02  0.0000000000000E+00  0.5022133595102E-03
-0.1845334973983E-04  0.2175103420383E-03  0.0000000000000E+00  0.2148051529471E-03
-0.5729724140282E-04  0.2396178431769E-03  0.0000000000000E+00 -0.7141689868161E-04
-0.9611694330890E-04  0.2589682357309E-03  0.0000000000000E+00 -0.3096260867950E-03
-0.1306534451288E-03  0.2725104628911E-03  0.0000000000000E+00 -0.5037353201812E-03
-0.1581647920489E-03  0.2784790004318E-03  0.0000000000000E+00 -0.6603736635871E-03
-0.1775914668271E-03  0.2764798386817E-03  0.0000000000000E+00 -0.7871958663515E-03
-0.1892744598930E-03  0.2672110866016E-03  0.0000000000000E+00 -0.8915039566840E-03
-0.1944576515599E-03  0.2520228469385E-03  0.0000000000000E+00 -0.9794759562667E-03
-0.1947915299179E-03  0.2325014658286E-03  0.0000000000000E+00 -0.1055951107483E-02
-0.1919574979998E-03  0.2101731369123E-03  0.0000000000000E+00 -0.1124562324362E-02
-0.1874386660301E-03  0.1863396173187E-03  0.0000000000000E+00 -0.1188007660788E-02
-0.1824108207432E-03  0.1620157583926E-03  0.0000000000000E+00 -0.1248324813744E-02
-0.1777122286645E-03  0.1379288453909E-03  0.0000000000000E+00 -0.1307107574873E-02
-0.1738560473916E-03  0.1145472789789E-03  0.0000000000000E+00 -0.1365651490961E-02
-0.1710605143332E-03  0.9211784375271E-04  0.0000000000000E+00 -0.1425038647849E-02
-0.1692826403841E-03  0.7070057593541E-04  0.0000000000000E+00 -0.1486177805606E-02
-0.1682486854878E-03  0.5019679312080E-04  0.0000000000000E+00 -0.1549814354406E-02
-0.1674793655322E-03  0.3037028105089E-04  0.0000000000000E+00 -0.1616518146968E-02
-0.1663099392251E-03  0.1086147621042E-04  0.0000000000000E+00 -0.1686658039002E-02
-0.1639067616341E-03 -0.8802327128490E-05  0.0000000000000E+00 -0.1760362738092E-02
-0.1592811431089E-03 -0.2919955459834E-04  0.0000000000000E+00 -0.1837466357823E-02
-0.1513012223153E-03 -0.5101013839783E-04  0.0000000000000E+00 -0.1917444667569E-02
-0.1387018222792E-03 -0.7501342978587E-04  0.0000000000000E+00 -0.1999340648226E-02
-0.1200966642241E-03 -0.1020678807145E-03  0.0000000000000E+00 -0.2081688148866E-02
-0.9400724401648E-04 -0.1330070046031E-03  0.0000000000000E+00 -0.2162432601057E-02
-0.5888831224693E-04 -0.1686271187748E-03  0.0000000000000E+00 -0.2238863829672E-02
-0.1315898179549E-04 -0.2098093658211E-03  0.0000000000000E+00 -0.2307621207915E-02
 0.4471371918641E-04 -0.2575526479498E-03  0.0000000000000E+00 -0.2364745176383E-02
 0.1160721991033E-03 -0.3128891403171E-03  0.0000000000000E+00 -0.2405757261240E-02
 0.2018747989485E-03 -0.3767188776311E-03  0.0000000000000E+00 -0.2425748517325E-02
 0.3024665558143E-03 -0.4496009366454E-03  0.0000000000000E+00 -0.2419447880597E-02
 0.4173390276057E-03 -0.5315351812435E-03  0.0000000000000E+00 -0.2381239537092E-02
 0.5449195067560E-03 -0.6217691712265E-03  0.0000000000000E+00 -0.2305101745309E-02
 0.6824876678171E-03 -0.7187481795409E-03  0.0000000000000E+00 -0.2184499049136E-02
 0.8263056225637E-03 -0.8202227170374E-03  0.0000000000000E+00 -0.2012242457907E-02
 0.9719298210635E-03 -0.9234022909448E-03  0.0000000000000E+00 -0.1780307725265E-02
 0.1114734558881E-02 -0.1025297314014E-02  0.0000000000000E+00 -0.1479900624121E-02
 0.1250581752799E-02 -0.1123266215862E-02  0.0000000000000E+00 -0.1102182819173E-02
 0.1376314378929E-02 -0.1215352837885E-02  0.0000000000000E+00 -0.6395343752730E-03
 0.1490200844238E-02 -0.1300478945211E-02  0.0000000000000E+00 -0.8666712127052E-04
 0.1591924443315E-02 -0.1378844431736E-02  0.0000000000000E+00  0.5561591251276E-03
-0.2258971642544E-04  0.4097772286203E-03  0.0000000000000E+00  0.2002686793997E-03
-0.6970402645298E-04  0.4367953878622E-03  0.0000000000000E+00 -0.8408268212160E-04
-0.1163104382046E-03  0.4604201341897E-03  0.0000000000000E+00 -0.3179172898408E-03
-0.1575230153310E-03  0.4771627333346E-03  0.0000000000000E+00 -0.5060152028580E-03
-0.1902918914545E-03  0.4850826011564E-03  0.0000000000000E+00 -0.6560826256908E-03
-0.2135521244108E-03  0.4838466756667E-03  0.0000000000000E+00 -0.7767151352749E-03
-0.2278330572530E-03  0.4743507858767E-03  0.0000000000000E+00 -0.8758227081570E-03
-0.2346384289655E-03  0.4581759403178E-03  0.0000000000000E+00 -0.9598379671172E-03
-0.2358644312977E-03  0.4371056398681E-03  0.0000000000000E+00 -0.1033588224742E-02
-0.2333848629121E-03  0.4128043319205E-03  0.0000000000000E+00 -0.1100541794730E-02
-0.2288164091208E-03  0.3866558840189E-03  0.0000000000000E+00 -0.1163172338991E-02
-0.2234206399138E-03  0.3597156908366E-03  0.0000000000000E+00 -0.1223291131344E-02
-0.2180891318024E-03  0.3327258100407E-03  0.0000000000000E+00 -0.1282291121285E-02
-0.2133694025436E-03  0.3061560752162E-03  0.0000000000000E+00 -0.1341300678252E-02
-0.2095050048261E-03  0.2802496386729E-03  0.0000000000000E+00 -0.1401266259237E-02
-0.2064757730033E-03  0.2550627792472E-03  0.0000000000000E+00 -0.1462986396503E-02
-0.2040324497825E-03  0.2304957115063E-03  0.0000000000000E+00 -0.1527114920648E-02
-0.2017246842693E-03  0.2063155651720E-03  0.0000000000000E+00 -0.1594143121555E-02
-0.1989232580434E-03  0.1821718993833E-03  0.0000000000000E+00 -0.1664370300947E-02
-0.1948387802406E-03  0.1576085480636E-03  0.0000000000000E+00 -0.1737862160094E-02
-0.1885378790817E-03  0.1320732344224E-03  0.0000000000000E+00 -0.1814394799659E-02
-0.1789572476318E-03  0.1049240799711E-03  0.0000000000000E+00 -0.1893389412930E-02
-0.1649147770238E-03  0.7543370002661E-04  0.0000000000000E+00 -0.1973835700996E-02
-0.1451212152229E-03  0.4281130849476E-04  0.0000000000000E+00 -0.2054212316608E-02
-0.1182067630837E-03  0.6311244256298E-05  0.0000000000000E+00 -0.2132401498408E-02
-0.8274060570274E-04 -0.3475850314361E-04  0.0000000000000E+00 -0.2205624556167E-02
-0.3725278496419E-04 -0.8117290944659E-04  0.0000000000000E+00 -0.2270466335606E-02
 0.1969056169304E-04 -0.1338343468658E-03  0.0000000000000E+00 -0.2322953722781E-02
 0.8934965169077E-04 -0.1936938695266E-03  0.0000000000000E+00 -0.2358665491590E-02
 0.1726178427939E-03 -0.2615866025446E-03  0.0000000000000E+00 -0.2372850077937E-02
 0.2697862338033E-03 -0.3380187794662E-03  0.0000000000000E+00 -0.2360518218472E-02
 0.3802894340024E-03 -0.4229393214091E-03  0.0000000000000E+00 -0.2316471887030E-02
 0.5024727382945E-03 -0.5155295103641E-03  0.0000000000000E+00 -0.2235228984094E-02
 0.6334858752625E-03 -0.6141354616426E-03  0.0000000000000E+00 -0.2110862548583E-02
 0.7693993511586E-03 -0.7163641003900E-03  0.0000000000000E+00 -0.1936751328245E-02
 0.9055389786570E-03 -0.8192418915180E-03  0.0000000000000E+00 -0.1705215576841E-02
 0.1037073588131E-02 -0.9196145079218E-03  0.0000000000000E+00 -0.1407428516191E-02
 0.1159872834880E-02 -0.1014796002450E-02  0.0000000000000E+00 -0.1034003165844E-02
 0.1271038678435E-02 -0.1103103133208E-02  0.0000000000000E+00 -0.5768236292508E-03
 0.1369081257969E-02 -0.1183400097237E-02  0.0000000000000E+00 -0.2990312581450E-04
 0.1455340862469E-02 -0.1256357096878E-02  0.0000000000000E+00  0.6089748713530E-03
-0.2698952239077E-04  0.6029387417928E-03  0.0000000000000E+00  0.1826140461100E-03
-0.8286497511207E-04  0.6351470873231E-03  0.0000000000000E+00 -0.9950146438484E-04
-0.1376218063282E-03  0.6632119627427E-03  0.0000000000000E+00 -0.3282110412334E-03
-0.1856768089151E-03  0.6831640284284E-03  0.0000000000000E+00 -0.5093520779278E-03
-0.2236747841457E-03  0.6929034540756E-03  0.0000000000000E+00 -0.6519126546574E-03
-0.2506015375365E-03  0.6922131578403E-03  0.0000000000000E+00 -0.7655651634665E-03
-0.2672467733032E-03  0.6822479358889E-03  0.0000000000000E+00 -0.8588718331689E-03
-0.2754332785922E-03  0.6648645562265E-03  0.0000000000000E+00 -0.9384977080677E-03
-0.2773387522230E-03  0.6420659074059E-03  0.0000000000000E+00 -0.1009207576806E-02
-0.2750442345735E-03  0.6156589371220E-03  0.0000000000000E+00 -0.1074254345438E-02
-0.2703012338188E-03  0.5871037214985E-03  0.0000000000000E+00 -0.1135849164989E-02
-0.2644517045042E-03  0.5574866160330E-03  0.0000000000000E+00 -0.1195553409014E-02
-0.2584331373048E-03  0.5275550236312E-03  0.0000000000000E+00 -0.1254547313064E-02
-0.2528204594365E-03  0.4977726151691E-03  0.0000000000000E+00 -0.1313787778721E-02
-0.2478769952959E-03  0.4683735359576E-03  0.0000000000000E+00 -0.1374085671148E-02
-0.2436014164258E-03  0.4394069351188E-03  0.0000000000000E+00 -0.1436131561982E-02
-0.2397662888519E-03  0.4107701139693E-03  0.0000000000000E+00 -0.1500491110923E-02
-0.2359484875636E-03  0.3822328173998E-03  0.0000000000000E+00 -0.1567581173315E-02
-0.2315531808273E-03  0.3534536453268E-03  0.0000000000000E+00 -0.1637636477175E-02
-0.2258343820948E-03  0.3239932157641E-03  0.0000000000000E+00 -0.1710665991154E-02
-0.2179133748753E-03  0.2933258373497E-03  0.0000000000000E+00 -0.1786395910415E-02
-0.2067950458448E-03  0.2608484044682E-03  0.0000000000000E+00 -0.1864203054771E-02
-0.1913805066872E-03  0.2258867459805E-03  0.0000000000000E+00 -0.1943035714341E-02
-0.1704782365140E-03  0.1877197132471E-03  0.0000000000000E+00 -0.2021329411415E-02
-0.1428279768052E-03  0.1456921002406E-03  0.0000000000000E+00 -0.2096912841473E-02
-0.1071132061709E-03  0.9921877044678E-04  0.0000000000000E+00 -0.2166943786042E-02
-0.6197216681503E-04  0.4763226834719E-04  0.0000000000000E+00 -0.2227952204698E-02
-0.6063198733863E-05 -0.9874408784786E-05  0.0000000000000E+00 -0.2275945991865E-02
 0.6180399526873E-04 -0.7417607187550E-04  0.0000000000000E+00 -0.2306551656049E-02
 0.1424759610062E-03 -0.1460525483283E-03  0.0000000000000E+00 -0.2315163477123E-02
 0.2362134630799E-03 -0.2259721631837E-03  0.0000000000000E+00 -0.2297064331587E-02
 0.3424207793028E-03 -0.3138525296700E-03  0.0000000000000E+00 -0.2247472752599E-02
 0.4593852839400E-03 -0.4088296651855E-03  0.0000000000000E+00 -0.2161461777696E-02
 0.5841370751867E-03 -0.5091651637994E-03  0.0000000000000E+00 -0.2033751842503E-02
 0.7125402098582E-03 -0.6123186796944E-03  0.0000000000000E+00 -0.1858343732476E-02
 0.8396262971232E-03 -0.7150996447963E-03  0.0000000000000E+00 -0.1627952241674E-02
 0.9602970897394E-03 -0.8141275804827E-03  0.0000000000000E+00 -0.1333660657126E-02
 0.1070246636546E-02 -0.9066215548914E-03  0.0000000000000E+00 -0.9655261344048E-03
 0.1167151991905E-02 -0.9911267701475E-03  0.0000000000000E+00 -0.5141069469881E-03
 0.1249359468334E-02 -0.1067266346928E-02  0.0000000000000E+00  0.2521002228858E-04
 0.1319179599481E-02 -0.1133535918552E-02  0.0000000000000E+00  0.6594811665069E-03
-0.3169671649208E-04  0.7970965622224E-03  0.0000000000000E+00  0.1616340136753E-03
-0.9690275689981E-04  0.8348172224049E-03  0.0000000000000E+00 -0.1178161008645E-03
-0.1602229679328E-03  0.8675059724627E-03  0.0000000000000E+00 -0.3405356920443E-03
-0.2152951144698E-03  0.8906632556222E-03  0.0000000000000E+00 -0.5136561938723E-03
-0.2584696940862E-03  0.9020566894140E-03  0.0000000000000E+00 -0.6476946277985E-03
-0.2888581537228E-03  0.9016567918681E-03  0.0000000000000E+00 -0.7535494313492E-03
-0.3075985536377E-03  0.8909509955664E-03  0.0000000000000E+00 -0.8404688875919E-03
-0.3168999524883E-03  0.8721212343500E-03  0.0000000000000E+00 -0.9153085068918E-03
-0.3192583967334E-03  0.8474106111470E-03  0.0000000000000E+00 -0.9827028941036E-03
-0.3169744639738E-03  0.8187689773286E-03  0.0000000000000E+00 -0.1045628775772E-02
-0.3119323969657E-03  0.7877229631854E-03  0.0000000000000E+00 -0.1105993020368E-02
-0.3055464125432E-03  0.7553776663367E-03  0.0000000000000E+00 -0.1165083778586E-02
-0.2987907452774E-03  0.7224749309129E-03  0.0000000000000E+00 -0.1223858488060E-02
-0.2922597976998E-03  0.6894640200322E-03  0.0000000000000E+00 -0.1283100420973E-02
-0.2862306525634E-03  0.6565645194927E-03  0.0000000000000E+00 -0.1343486776115E-02
-0.2807166385584E-03  0.6238151104050E-03  0.0000000000000E+00 -0.1405603894682E-02
-0.2755094017683E-03  0.5911084549351E-03  0.0000000000000E+00 -0.1469933675547E-02
-0.2702112504774E-03  0.5582162205515E-03  0.0000000000000E+00 -0.1536823287354E-02
-0.2642604382267E-03  0.5248058859811E-03  0.0000000000000E+00 -0.1606448150671E-02
-0.2569532373855E-03  0.4904548503478E-03  0.0000000000000E+00 -0.1678766843509E-02
-0.2474644964408E-03  0.4546640103606E-03  0.0000000000000E+00 -0.1753463795366E-02
-0.2348664554505E-03  0.4168691790698E-03  0.0000000000000E+00 -0.1829881863424E-02
-0.2181432375026E-03  0.3764500657424E-03  0.0000000000000E+00 -0.1906940307878E-02
-0.1962017172725E-03  0.3327567353971E-03  0.0000000000000E+00 -0.1983044318721E-02
-0.1678924259360E-03  0.2852270092942E-03  0.0000000000000E+00 -0.2055979327074E-02
-0.1320138367501E-03  0.2333856016546E-03  0.0000000000000E+00 -0.2122844685382E-02
-0.8731078429702E-04  0.1766747569095E-03  0.0000000000000E+00 -0.2180114398890E-02
-0.3252811968352E-04  0.1143828685769E-03  0.0000000000000E+00 -0.2223770235819E-02
 0.3346569978174E-04  0.4570794020603E-04  0.0000000000000E+00 -0.2249474108828E-02
 0.1114879200652E-03 -0.3008272036932E-04  0.0000000000000E+00 -0.2252750532842E-02
 0.2017929168264E-03 -0.1134335956642E-03  0.0000000000000E+00 -0.2229139685535E-02
 0.3037834867475E-03 -0.2042512789110E-03  0.0000000000000E+00 -0.2174270211452E-02
 0.4157173878135E-03 -0.3016506000635E-03  0.0000000000000E+00 -0.2083783620800E-02
 0.5345224819616E-03 -0.4038287786881E-03  0.0000000000000E+00 -0.1953091698209E-02
 0.6558409033036E-03 -0.5080993254374E-03  0.0000000000000E+00 -0.1776892338553E-02
 0.7743596587135E-03 -0.6110212133471E-03  0.0000000000000E+00 -0.1548362336208E-02
 0.8845590470864E-03 -0.7089076001123E-03  0.0000000000000E+00 -0.1258517582817E-02
 0.9820290127053E-03 -0.7988227825904E-03  0.0000000000000E+00 -0.8965703131783E-03
 0.1064235715313E-02 -0.8794557974417E-03  0.0000000000000E+00 -0.4520273356173E-03
 0.1132698040424E-02 -0.9517123187834E-03  0.0000000000000E+00  0.8198690062472E-04
 0.1181333016556E-02 -0.1014021418239E-02  0.0000000000000E+00  0.7012062373053E-03
-0.3676218634559E-04  0.9923685608448E-03  0.0000000000000E+00  0.1370988809959E-03
-0.1119609290152E-03  0.1035991502766E-02  0.0000000000000E+00 -0.1391840893612E-03
-0.1843144401493E-03  0.1073521331909E-02  0.0000000000000E+00 -0.3549067810840E-03
-0.2465849548567E-03  0.1099875595880E-02  0.0000000000000E+00 -0.5188033413015E-03
-0.2948534590983E-03  0.1112730839302E-02  0.0000000000000E+00 -0.6432153820461E-03
-0.3284557776755E-03  0.1112337908507E-02  0.0000000000000E+00 -0.7404294033511E-03
-0.3489852580213E-03  0.1100604700037E-02  0.0000000000000E+00 -0.8203965480198E-03
-0.3591123869685E-03  0.1080091389187E-02  0.0000000000000E+00 -0.8900953094421E-03
-0.3616879625136E-03  0.1053298880931E-02  0.0000000000000E+00 -0.9539427529733E-03
-0.3592403461630E-03  0.1022314962963E-02  0.0000000000000E+00 -0.1014568632444E-02
-0.3537801363727E-03  0.9887185765942E-03  0.0000000000000E+00 -0.1073531160664E-02
-0.3467825368793E-03  0.9536184149068E-03  0.0000000000000E+00 -0.1131823208288E-02
-0.3392474712933E-03  0.9177383696765E-03  0.0000000000000E+00 -0.1190171877465E-02
-0.3317799310634E-03  0.8815044783382E-03  0.0000000000000E+00 -0.1249187160906E-02
-0.3246643485070E-03  0.8451161127161E-03  0.0000000000000E+00 -0.1309416519887E-02
-0.3179244154440E-03  0.8085982313952E-03  0.0000000000000E+00 -0.1371347215017E-02
-0.3113681105714E-03  0.7718372436802E-03  0.0000000000000E+00 -0.1435382684557E-02
-0.3046213796846E-03  0.7346061004527E-03  0.0000000000000E+00 -0.1501805591636E-02
-0.2971541805778E-03  0.6965809305266E-03  0.0000000000000E+00 -0.1570737365002E-02
-0.2883036853930E-03  0.6573556683643E-03  0.0000000000000E+00 -0.1642092325896E-02
-0.2772968565097E-03  0.6164573505928E-03  0.0000000000000E+00 -0.1715521025382E-02
-0.2632720259304E-03  0.5733602385380E-03  0.0000000000000E+00 -0.1790342755110E-02
-0.2452958406262E-03  0.5274979599497E-03  0.0000000000000E+00 -0.1865460558897E-02
-0.2223743624278E-03  0.4782929669889E-03  0.0000000000000E+00 -0.1939262916506E-02
-0.1934708702228E-03  0.4252787427606E-03  0.0000000000000E+00 -0.2009503108785E-02
-0.1575007875625E-03  0.3680934533320E-03  0.0000000000000E+00 -0.2073227508557E-02
-0.1133155408021E-03  0.3062923719354E-03  0.0000000000000E+00 -0.2126852629936E-02
-0.5974253703378E-04  0.2392609279537E-03  0.0000000000000E+00 -0.2166325550247E-02
 0.4300533423429E-05  0.1662685093987E-03  0.0000000000000E+00 -0.2187328725386E-02
 0.7961791355982E-04  0.8662353713085E-04  0.0000000000000E+00 -0.2185497401701E-02
 0.1664814519736E-03 -0.1070629743454E-06  0.0000000000000E+00 -0.2156608819839E-02
 0.2643233060723E-03 -0.9383920962193E-04  0.0000000000000E+00 -0.2096689220943E-02
 0.3714054414245E-03 -0.1936938376571E-03  0.0000000000000E+00 -0.2001958260594E-02
 0.4845774990249E-03 -0.2978306191279E-03  0.0000000000000E+00 -0.1868568317450E-02
 0.5992560311718E-03 -0.4034263815568E-03  0.0000000000000E+00 -0.1692009927720E-02
 0.7097065507694E-03 -0.5067547390058E-03  0.0000000000000E+00 -0.1466033631355E-02
 0.8099045154298E-03 -0.6037387378411E-03  0.0000000000000E+00 -0.1181622147991E-02
 0.8949480561453E-03 -0.6911325060028E-03  0.0000000000000E+00 -0.8269917767668E-03
 0.9630414736500E-03 -0.7679065820701E-03  0.0000000000000E+00 -0.3899808075829E-03
 0.1014428218794E-02 -0.8354931804284E-03  0.0000000000000E+00  0.1383458887824E-03
 0.1057959798995E-02 -0.8985358195745E-03  0.0000000000000E+00  0.7516213653081E-03
-0.4224644165414E-04  0.1188882711133E-02  0.0000000000000E+00  0.1087028856964E-03
-0.1282057823161E-03  0.1238854126360E-02  0.0000000000000E+00 -0.1638004519026E-03
-0.2101204685568E-03  0.1281456623717E-02  0.0000000000000E+00 -0.3713488803914E-03
-0.2797657845429E-03  0.1310967540470E-02  0.0000000000000E+00 -0.5246560237006E-03
-0.3329981321440E-03  0.1325035842753E-02  0.0000000000000E+00 -0.6382463770736E-03
-0.3695083922250E-03  0.1324313057617E-02  0.0000000000000E+00 -0.7259649756295E-03
-0.3914744940482E-03  0.1311231420129E-02  0.0000000000000E+00 -0.7984553865010E-03
-0.4021108401475E-03  0.1288784432550E-02  0.0000000000000E+00 -0.8627180907815E-03
-0.4046567764512E-03  0.1259742573588E-02  0.0000000000000E+00 -0.9228425060263E-03
-0.4018707717865E-03  0.1226319387963E-02  0.0000000000000E+00 -0.9810309861248E-03
-0.3958780941109E-03  0.1190126499219E-02  0.0000000000000E+00 -0.1038447730837E-02
-0.3882001786019E-03  0.1152258031378E-02  0.0000000000000E+00 -0.1095771061943E-02
-0.3798497335631E-03  0.1113406264099E-02  0.0000000000000E+00 -0.1153493776296E-02
-0.3714326628473E-03  0.1073964914626E-02  0.0000000000000E+00 -0.1212056019166E-02
-0.3632341177891E-03  0.1034107653415E-02  0.0000000000000E+00 -0.1271881731761E-02
-0.3552838913762E-03  0.9938427644043E-03  0.0000000000000E+00 -0.1333365801867E-02
-0.3474036538948E-03  0.9530490783933E-03  0.0000000000000E+00 -0.1396839471760E-02
-0.3392412720757E-03  0.9115003921330E-03  0.0000000000000E+00 -0.1462526550368E-02
-0.3302969956276E-03  0.8688813153103E-03  0.0000000000000E+00 -0.1530499846944E-02
-0.3199473172919E-03  0.8248019208098E-03  0.0000000000000E+00 -0.1600635304883E-02
-0.3074694139359E-03  0.7788145131348E-03  0.0000000000000E+00 -0.1672557159767E-02
-0.2920658314556E-03  0.7304306437246E-03  0.0000000000000E+00 -0.1745571495681E-02
-0.2728846908774E-03  0.6791370918135E-03  0.0000000000000E+00 -0.1818578518517E-02
-0.2490318349488E-03  0.6244292152844E-03  0.0000000000000E+00 -0.1889964806700E-02
-0.2195856486241E-03  0.5659385591420E-03  0.0000000000000E+00 -0.1957464030896E-02
-0.1835814719448E-03  0.5034206788649E-03  0.0000000000000E+00 -0.2018076121039E-02
-0.1399787440587E-03  0.4365481229294E-03  0.0000000000000E+00 -0.2068158878477E-02
-0.8768510086860E-04  0.3648065022488E-03  0.0000000000000E+00 -0.2103615458642E-02
-0.2565962429818E-04  0.2875372762302E-03  0.0000000000000E+00 -0.2120132063505E-02
 0.4690378057315E-04  0.2040865403665E-03  0.0000000000000E+00 -0.2113431336311E-02
 0.1303177963028E-03  0.1140226080736E-03  0.0000000000000E+00 -0.2079500844926E-02
 0.2240767513768E-03  0.1740067876983E-04  0.0000000000000E+00 -0.2014742832748E-02
 0.3264863665384E-03 -0.8493654083864E-04  0.0000000000000E+00 -0.1915955796335E-02
 0.4343541295598E-03 -0.1911465401053E-03  0.0000000000000E+00 -0.1780081034333E-02
 0.5428737677094E-03 -0.2982905580190E-03  0.0000000000000E+00 -0.1603514786064E-02
 0.6458370514325E-03 -0.4023314163034E-03  0.0000000000000E+00 -0.1380743710925E-02
 0.7365070746587E-03 -0.4986923071161E-03  0.0000000000000E+00 -0.1102792144151E-02
 0.8094745633757E-03 -0.5836764481152E-03  0.0000000000000E+00 -0.7568274162624E-03
 0.8626215275957E-03 -0.6562903652521E-03  0.0000000000000E+00 -0.3279778590991E-03
 0.8991751850108E-03 -0.7192059281443E-03  0.0000000000000E+00  0.1934694968880E-03
 0.9234549746673E-03 -0.7796120862286E-03  0.0000000000000E+00  0.8138050282487E-03
-0.4822189634007E-04  0.1386779572883E-02  0.0000000000000E+00  0.7613261792892E-04
-0.1458329714957E-03  0.1443591514384E-02  0.0000000000000E+00 -0.1918577959523E-03
-0.2378950530205E-03  0.1491491587064E-02  0.0000000000000E+00 -0.3898396821463E-03
-0.3150708951699E-03  0.1524054625531E-02  0.0000000000000E+00 -0.5310038382653E-03
-0.3730674613512E-03  0.1538997763355E-02  0.0000000000000E+00 -0.6324877139868E-03
-0.4121039778356E-03  0.1537529236257E-02  0.0000000000000E+00 -0.7098659219379E-03
-0.4350981389957E-03  0.1522726809452E-02  0.0000000000000E+00 -0.7744219341380E-03
-0.4458963514043E-03  0.1498071373884E-02  0.0000000000000E+00 -0.8330339953449E-03
-0.4481545133413E-03  0.1466605429230E-02  0.0000000000000E+00 -0.8893284483369E-03
-0.4448552633028E-03  0.1430646786223E-02  0.0000000000000E+00 -0.9449917082953E-03
-0.4382204648496E-03  0.1391814064316E-02  0.0000000000000E+00 -0.1000750100086E-02
-0.4297993074956E-03  0.1351165759494E-02  0.0000000000000E+00 -0.1056952857449E-02
-0.4206026569858E-03  0.1309348003668E-02  0.0000000000000E+00 -0.1113859213278E-02
-0.4112270808553E-03  0.1266713218030E-02  0.0000000000000E+00 -0.1171746537767E-02
-0.4019517935650E-03  0.1223404368986E-02  0.0000000000000E+00 -0.1230923988347E-02
-0.3928086059696E-03  0.1179410653543E-02  0.0000000000000E+00 -0.1291702425959E-02
-0.3836304511548E-03  0.1134602467340E-02  0.0000000000000E+00 -0.1354348148901E-02
-0.3740855530001E-03  0.1088754367834E-02  0.0000000000000E+00 -0.1419032237143E-02
-0.3637030574876E-03  0.1041559471009E-02  0.0000000000000E+00 -0.1485784263132E-02
-0.3518969838914E-03  0.9926435502132E-03  0.0000000000000E+00 -0.1554447302515E-02
-0.3379922918018E-03  0.9415829285854E-03  0.0000000000000E+00 -0.1624626310732E-02
-0.3212530411810E-03  0.8879245363717E-03  0.0000000000000E+00 -0.1695624267516E-02
-0.3009068906055E-03  0.8312065331428E-03  0.0000000000000E+00 -0.1766352393629E-02
-0.2761594865934E-03  0.7709967401796E-03  0.0000000000000E+00 -0.1835211521908E-02
-0.2462067319406E-03  0.7070265690570E-03  0.0000000000000E+00 -0.1899930098879E-02
-0.2102075571012E-03  0.6391728724740E-03  0.0000000000000E+00 -0.1957469853090E-02
-0.1672320220315E-03  0.5672303209102E-03  0.0000000000000E+00 -0.2004129763656E-02
-0.1162671772780E-03  0.4907891740018E-03  0.0000000000000E+00 -0.2035760114336E-02
-0.5630745426355E-04  0.4092658524432E-03  0.0000000000000E+00 -0.2048033097188E-02
 0.1346799967245E-04  0.3220437967953E-03  0.0000000000000E+00 -0.2036732216645E-02
 0.9343469072903E-04  0.2286861663881E-03  0.0000000000000E+00 -0.1998021661028E-02
 0.1831827456536E-03  0.1292019673121E-03  0.0000000000000E+00 -0.1928646185645E-02
 0.2811073647537E-03  0.2436534612629E-04  0.0000000000000E+00 -0.1825968895810E-02
 0.3840219894426E-03 -0.8402374447600E-04  0.0000000000000E+00 -0.1687757537559E-02
 0.4869233673643E-03 -0.1929494533129E-03  0.0000000000000E+00 -0.1511440970768E-02
 0.5830681555720E-03 -0.2980528627431E-03  0.0000000000000E+00 -0.1292442391844E-02
 0.6648617018000E-03 -0.3941453240008E-03  0.0000000000000E+00 -0.1022043282456E-02
 0.7259496770051E-03 -0.4768631801797E-03  0.0000000000000E+00 -0.6861053422714E-03
 0.7642082625646E-03 -0.5450066486840E-03  0.0000000000000E+00 -0.2671722096534E-03
 0.7836811895640E-03 -0.6026710384863E-03  0.0000000000000E+00  0.2497966793451E-03
 0.7906181917585E-03 -0.6561123694585E-03  0.0000000000000E+00  0.8698519836076E-03
-0.5477552807766E-04  0.1586228265884E-02  0.0000000000000E+00  0.3900844229556E-04
-0.1650770799133E-03  0.1650447383009E-02  0.0000000000000E+00 -0.2235744650736E-03
-0.2679374181428E-03  0.1703872067133E-02  0.0000000000000E+00 -0.4103330858574E-03
-0.3527652657771E-03  0.1739314894809E-02  0.0000000000000E+00 -0.5375801606021E-03
-0.4152391272003E-03  0.1754702498618E-02  0.0000000000000E+00 -0.6255843822501E-03
-0.4563342624781E-03  0.1752000663982E-02  0.0000000000000E+00 -0.6918076391580E-03
-0.4798917023446E-03  0.1735070914564E-02  0.0000000000000E+00 -0.7480600858555E-03
-0.4904798495777E-03  0.1707929518801E-02  0.0000000000000E+00 -0.8009004735277E-03
-0.4921890210646E-03  0.1673879572239E-02  0.0000000000000E+00 -0.8533307152108E-03
-0.4882092292350E-03  0.1635310125908E-02  0.0000000000000E+00 -0.9064279879747E-03
-0.4808335776961E-03  0.1593814608436E-02  0.0000000000000E+00 -0.9604417605875E-03
-0.4716168130837E-03  0.1550392252990E-02  0.0000000000000E+00 -0.1015384472084E-02
-0.4615518887457E-03  0.1505628076634E-02  0.0000000000000E+00 -0.1071288192447E-02
-0.4512154944262E-03  0.1459824682802E-02  0.0000000000000E+00 -0.1128278488821E-02
-0.4408744305182E-03  0.1413090010885E-02  0.0000000000000E+00 -0.1186560922923E-02
-0.4305587586595E-03  0.1365392388450E-02  0.0000000000000E+00 -0.1246372125235E-02
-0.4201105604019E-03  0.1316593421574E-02  0.0000000000000E+00 -0.1307921478542E-02
-0.4092171077174E-03  0.1266468715677E-02  0.0000000000000E+00 -0.1371333718056E-02
-0.3974351837531E-03  0.1214720150541E-02  0.0000000000000E+00 -0.1436600331401E-02
-0.3842144545866E-03  0.1160988778265E-02  0.0000000000000E+00 -0.1503536337588E-02
-0.3689248010275E-03  0.1104873355662E-02  0.0000000000000E+00 -0.1571733486735E-02
-0.3508883100954E-03  0.1045953501322E-02  0.0000000000000E+00 -0.1640501041359E-02
-0.3294093381785E-03  0.9838158654531E-03  0.0000000000000E+00 -0.1708775246491E-02
-0.3037928065138E-03  0.9180991746261E-03  0.0000000000000E+00 -0.1774988647733E-02
-0.2733547531635E-03  0.8486358158657E-03  0.0000000000000E+00 -0.1836880913985E-02
-0.2373823821969E-03  0.7754278068161E-03  0.0000000000000E+00 -0.1891385883019E-02
-0.1950605536405E-03  0.6983974725393E-03  0.0000000000000E+00 -0.1934745193186E-02
-0.1454568682540E-03  0.6172457243652E-03  0.0000000000000E+00 -0.1962748310062E-02
-0.8759742895342E-04  0.5314694918622E-03  0.0000000000000E+00 -0.1971035771798E-02
-0.2063650474005E-04  0.4404932173232E-03  0.0000000000000E+00 -0.1955423506381E-02
 0.5588356397646E-04  0.3438733345619E-03  0.0000000000000E+00 -0.1912212593105E-02
 0.1416817226603E-03  0.2415597058388E-03  0.0000000000000E+00 -0.1838444476362E-02
 0.2352929793739E-03  0.1342259471520E-03  0.0000000000000E+00 -0.1732013870961E-02
 0.3336001958925E-03  0.2357571569045E-04  0.0000000000000E+00 -0.1591536059153E-02
 0.4314495300226E-03 -0.8735784233567E-04  0.0000000000000E+00 -0.1415600500571E-02
 0.5215360475623E-03 -0.1939079234070E-03  0.0000000000000E+00 -0.1200838338025E-02
 0.5951917663835E-03 -0.2901679909024E-03  0.0000000000000E+00 -0.9390502961908E-03
 0.6448018374994E-03 -0.3708087314617E-03  0.0000000000000E+00 -0.6149401664780E-03
 0.6676745927821E-03 -0.4342332015203E-03  0.0000000000000E+00 -0.2073054169998E-03
 0.6688227403147E-03 -0.4850572036439E-03  0.0000000000000E+00  0.3037331784847E-03
 0.6580234396663E-03 -0.5314268261636E-03  0.0000000000000E+00  0.9233167514088E-03
-0.6201373620627E-04  0.1787428894044E-02  0.0000000000000E+00 -0.3113945388882E-05
-0.1862209380673E-03  0.1859707078154E-02  0.0000000000000E+00 -0.2591858225855E-03
-0.3005961568593E-03  0.1918873680898E-02  0.0000000000000E+00 -0.4327323195457E-03
-0.3931387684286E-03  0.1956927804951E-02  0.0000000000000E+00 -0.5440339277582E-03
-0.4596875445341E-03  0.1972213277812E-02  0.0000000000000E+00 -0.6171093667614E-03
-0.5022717578070E-03  0.1967710121352E-02  0.0000000000000E+00 -0.6714289996461E-03
-0.5258688689987E-03  0.1948216373039E-02  0.0000000000000E+00 -0.7191296776549E-03
-0.5358551282089E-03  0.1918317943099E-02  0.0000000000000E+00 -0.7661896433298E-03
-0.5367573294707E-03  0.1881547596131E-02  0.0000000000000E+00 -0.8148005467192E-03
-0.5319424296733E-03  0.1840318968639E-02  0.0000000000000E+00 -0.8653375646968E-03
-0.5237415276141E-03  0.1796161663973E-02  0.0000000000000E+00 -0.9175435137530E-03
-0.5136893156748E-03  0.1749990174378E-02  0.0000000000000E+00 -0.9710954864162E-03
-0.5027437982447E-03  0.1702313704163E-02  0.0000000000000E+00 -0.1025811367121E-02
-0.4914513365284E-03  0.1653377457794E-02  0.0000000000000E+00 -0.1081679993458E-02
-0.4800602717756E-03  0.1603250995834E-02  0.0000000000000E+00 -0.1138816886766E-02
-0.4685956203939E-03  0.1551880783378E-02  0.0000000000000E+00 -0.1197395537641E-02
-0.4569069130894E-03  0.1499119873742E-02  0.0000000000000E+00 -0.1257577082479E-02
-0.4446995027674E-03  0.1444745651209E-02  0.0000000000000E+00 -0.1319446457849E-02
-0.4315567867052E-03  0.1388469341235E-02  0.0000000000000E+00 -0.1382961885429E-02
-0.4169622151237E-03  0.1329946988773E-02  0.0000000000000E+00 -0.1447914243314E-02
-0.4003273473837E-03  0.1268797963283E-02  0.0000000000000E+00 -0.1513886833262E-02
-0.3810279426042E-03  0.1204631094016E-02  0.0000000000000E+00 -0.1580203415099E-02
-0.3584410894313E-03  0.1137077339453E-02  0.0000000000000E+00 -0.1645839084036E-02
-0.3319696340879E-03  0.1065843348904E-02  0.0000000000000E+00 -0.1709276853001E-02
-0.3010523844734E-03  0.9908625430867E-03  0.0000000000000E+00 -0.1768286466043E-02
-0.2651104372940E-03  0.9122656032698E-03  0.0000000000000E+00 -0.1819786824009E-02
-0.2234491916761E-03  0.8301084520828E-03  0.0000000000000E+00 -0.1859966067256E-02
-0.1752199280270E-03  0.7442100373715E-03  0.0000000000000E+00 -0.1884546979649E-02
-0.1194793332935E-03  0.6541561303117E-03  0.0000000000000E+00 -0.1889122390767E-02
-0.5535012186531E-04  0.5594204764055E-03  0.0000000000000E+00 -0.1869512007114E-02
 0.1772288565749E-04  0.4595576773362E-03  0.0000000000000E+00 -0.1822109325041E-02
 0.9961773786393E-04  0.3544524056276E-03  0.0000000000000E+00 -0.1744193583052E-02
 0.1890625829289E-03  0.2446492293491E-03  0.0000000000000E+00 -0.1634134671276E-02
 0.2830874973494E-03  0.1316945443430E-03  0.0000000000000E+00 -0.1491386951268E-02
 0.3764677093302E-03  0.1855420554879E-04  0.0000000000000E+00 -0.1315820853229E-02
 0.4613389139240E-03 -0.8985189550513E-04  0.0000000000000E+00 -0.1105585756925E-02
 0.5277688437998E-03 -0.1868036988994E-03  0.0000000000000E+00 -0.8534599158053E-03
 0.5664023491022E-03 -0.2657023441249E-03  0.0000000000000E+00 -0.5431296692547E-03
 0.5733872914080E-03 -0.3239983024810E-03  0.0000000000000E+00 -0.1491106573724E-03
 0.5548916433132E-03 -0.3668930410973E-03  0.0000000000000E+00  0.3543574997505E-03
 0.5253426277810E-03 -0.4056574654393E-03  0.0000000000000E+00  0.9745752427564E-03
-0.7006851165431E-04  0.1990622341895E-02  0.0000000000000E+00 -0.5075642857912E-04
-0.2096095110123E-03  0.2071709379327E-02  0.0000000000000E+00 -0.2989393883734E-03
-0.3362793844998E-03  0.2136805677322E-02  0.0000000000000E+00 -0.4568652286286E-03
-0.4365055895237E-03  0.2177067544546E-02  0.0000000000000E+00 -0.5499033660625E-03
-0.5065760649378E-03  0.2191559113855E-02  0.0000000000000E+00 -0.6065516107258E-03
-0.5499614484518E-03  0.2184599487233E-02  0.0000000000000E+00 -0.6483347398815E-03
-0.5730163499904E-03  0.2162083694324E-02  0.0000000000000E+00 -0.6873955846422E-03
-0.5819969572244E-03  0.2129176572690E-02  0.0000000000000E+00 -0.7287974430345E-03
-0.5818457094401E-03  0.2089583531732E-02  0.0000000000000E+00 -0.7737167962757E-03
-0.5760597959757E-03  0.2045680952507E-02  0.0000000000000E+00 -0.8217425302325E-03
-0.5669671037395E-03  0.1998890314029E-02  0.0000000000000E+00 -0.8720953651003E-03
-0.5560539492901E-03  0.1950015228158E-02  0.0000000000000E+00 -0.9241299448800E-03
-0.5442260607053E-03  0.1899475555661E-02  0.0000000000000E+00 -0.9774701931550E-03
-0.5319895723818E-03  0.1847453011883E-02  0.0000000000000E+00 -0.1031987377024E-02
-0.5195690268653E-03  0.1793976696238E-02  0.0000000000000E+00 -0.1087722668680E-02
-0.5069817198362E-03  0.1738971151418E-02  0.0000000000000E+00 -0.1144798561624E-02
-0.4940834329259E-03  0.1682281771122E-02  0.0000000000000E+00 -0.1203337084129E-02
-0.4805970502486E-03  0.1623688943049E-02  0.0000000000000E+00 -0.1263389993833E-02
-0.4661319004838E-03  0.1562914232784E-02  0.0000000000000E+00 -0.1324886671658E-02
-0.4502035054984E-03  0.1499628675572E-02  0.0000000000000E+00 -0.1387596717081E-02
-0.4322615731082E-03  0.1433470353691E-02  0.0000000000000E+00 -0.1451098039556E-02
-0.4117302540765E-03  0.1364073088803E-02  0.0000000000000E+00 -0.1514735356102E-02
-0.3880540232967E-03  0.1291106505104E-02  0.0000000000000E+00 -0.1577535735887E-02
-0.3607311368528E-03  0.1214340400039E-02  0.0000000000000E+00 -0.1638052564341E-02
-0.3293255569047E-03  0.1133807776801E-02  0.0000000000000E+00 -0.1694107208498E-02
-0.2933986844833E-03  0.1049770647417E-02  0.0000000000000E+00 -0.1742619804610E-02
-0.2523836619668E-03  0.9624244568035E-03  0.0000000000000E+00 -0.1779732025121E-02
-0.2055205067779E-03  0.8717146393176E-03  0.0000000000000E+00 -0.1801097440577E-02
-0.1518981111620E-03  0.7773269021218E-03  0.0000000000000E+00 -0.1802248536258E-02
-0.9060500163433E-04  0.6787977968333E-03  0.0000000000000E+00 -0.1778982271544E-02
-0.2097856158195E-04  0.5756929903761E-03  0.0000000000000E+00 -0.1727737571947E-02
 0.5704335241646E-04  0.4678358369733E-03  0.0000000000000E+00 -0.1645960240632E-02
 0.1424347607525E-03  0.3556213314895E-03  0.0000000000000E+00 -0.1532411037984E-02
 0.2324643430398E-03  0.2403749348982E-03  0.0000000000000E+00 -0.1387333246377E-02
 0.3219524671501E-03  0.1248833512804E-03  0.0000000000000E+00 -0.1211962858700E-02
 0.4025361291501E-03  0.1421171915990E-04  0.0000000000000E+00 -0.1006319220303E-02
 0.4628501893076E-03 -0.8406810437572E-04  0.0000000000000E+00 -0.7647704664019E-03
 0.4912241724540E-03 -0.1617117669978E-03  0.0000000000000E+00 -0.4704432501737E-03
 0.4818762965236E-03 -0.2145974340084E-03  0.0000000000000E+00 -0.9310905047784E-04
 0.4420854512941E-03 -0.2484711860117E-03  0.0000000000000E+00  0.4008653200671E-03
 0.3920822491332E-03 -0.2787147464556E-03  0.0000000000000E+00  0.1023464985720E-02
-0.7910614219691E-04  0.2196104364517E-02  0.0000000000000E+00 -0.1045351835400E-03
-0.2356686436964E-03  0.2286861992274E-02  0.0000000000000E+00 -0.3430852846858E-03
-0.3754667151034E-03  0.2358014334408E-02  0.0000000000000E+00 -0.4824481170665E-03
-0.4832009419734E-03  0.2399891731489E-02  0.0000000000000E+00 -0.5545824488565E-03
-0.5560452766455E-03  0.2412718774019E-02  0.0000000000000E+00 -0.5933046571198E-03
-0.5994102831476E-03  0.2402558389252E-02  0.0000000000000E+00 -0.6221027209218E-03
-0.6212884492686E-03  0.2376556826586E-02  0.0000000000000E+00 -0.6526412231317E-03
-0.6288598200264E-03  0.2340426319854E-02  0.0000000000000E+00 -0.6886550953297E-03
-0.6274304487748E-03  0.2297954761321E-02  0.0000000000000E+00 -0.7300931237764E-03
-0.6205627630257E-03  0.2251403883638E-02  0.0000000000000E+00 -0.7756930473562E-03
-0.6105330193172E-03  0.2202038879008E-02  0.0000000000000E+00 -0.8241581051683E-03
-0.5987493025488E-03  0.2150527352773E-02  0.0000000000000E+00 -0.8745467984735E-03
-0.5860483149276E-03  0.2097188526853E-02  0.0000000000000E+00 -0.9263168319990E-03
-0.5728871383714E-03  0.2042136614265E-02  0.0000000000000E+00 -0.9792448513419E-03
-0.5594621601504E-03  0.1985359725654E-02  0.0000000000000E+00 -0.1033315105410E-02
-0.5457810328315E-03  0.1926761468965E-02  0.0000000000000E+00 -0.1088611949338E-02
-0.5317051536023E-03  0.1866181158288E-02  0.0000000000000E+00 -0.1145227700498E-02
-0.5169748595225E-03  0.1803403919983E-02  0.0000000000000E+00 -0.1203187556415E-02
-0.5012251700460E-03  0.1738163139866E-02  0.0000000000000E+00 -0.1262396091753E-02
-0.4840022836636E-03  0.1670145298839E-02  0.0000000000000E+00 -0.1322603354700E-02
-0.4647903982364E-03  0.1599005447702E-02  0.0000000000000E+00 -0.1383382839813E-02
-0.4430558418451E-03  0.1524397577815E-02  0.0000000000000E+00 -0.1444104207332E-02
-0.4183034734229E-03  0.1446022743517E-02  0.0000000000000E+00 -0.1503858164975E-02
-0.3901228477097E-03  0.1363706901587E-02  0.0000000000000E+00 -0.1561289173004E-02
-0.3582048515671E-03  0.1277579092997E-02  0.0000000000000E+00 -0.1614294646500E-02
-0.3222581645400E-03  0.1188033865016E-02  0.0000000000000E+00 -0.1659815891317E-02
-0.2818521398802E-03  0.1095411466810E-02  0.0000000000000E+00 -0.1693959195146E-02
-0.2363223085122E-03  0.9997928140879E-03  0.0000000000000E+00 -0.1712311134511E-02
-0.1847940563248E-03  0.9009771886742E-03  0.0000000000000E+00 -0.1710336833084E-02
-0.1263236144705E-03  0.7985830347886E-03  0.0000000000000E+00 -0.1683789073295E-02
-0.6013794377219E-04  0.6922094354304E-03  0.0000000000000E+00 -0.1629106105738E-02
 0.1402576731591E-04  0.5816354721073E-03  0.0000000000000E+00 -0.1543819172826E-02
 0.9543475839491E-04  0.4670999686655E-03  0.0000000000000E+00 -0.1426965942811E-02
 0.1816963016528E-03  0.3496485980813E-03  0.0000000000000E+00 -0.1279472361579E-02
 0.2678325749097E-03  0.2317534378262E-03  0.0000000000000E+00 -0.1103959633609E-02
 0.3451221533917E-03  0.1184449119500E-03  0.0000000000000E+00 -0.9026659875607E-03
 0.4006656767612E-03  0.1809729575904E-04  0.0000000000000E+00 -0.6723497174500E-03
 0.4198318733087E-03 -0.5902175072416E-04  0.0000000000000E+00 -0.3964420557628E-03
 0.3938242896078E-03 -0.1064190783991E-03  0.0000000000000E+00 -0.3964799434457E-04
 0.3305924317889E-03 -0.1300263513334E-03  0.0000000000000E+00  0.4423010669933E-03
 0.2576470240498E-03 -0.1503944218234E-03  0.0000000000000E+00  0.1069445344064E-02
-0.8933976895796E-04  0.2404246056293E-02  0.0000000000000E+00 -0.1651822244135E-03
-0.2649307425450E-03  0.2505662358618E-02  0.0000000000000E+00 -0.3918584486110E-03
-0.4187229007130E-03  0.2582884497803E-02  0.0000000000000E+00 -0.5090327901922E-03
-0.5335730284823E-03  0.2625522877011E-02  0.0000000000000E+00 -0.5572786653863E-03
-0.6081959151325E-03  0.2635598839658E-02  0.0000000000000E+00 -0.5766585297441E-03
-0.6505743283748E-03  0.2621411200549E-02  0.0000000000000E+00 -0.5922988080664E-03
-0.6706018827409E-03  0.2591479822832E-02  0.0000000000000E+00 -0.6146876218900E-03
-0.6763777637737E-03  0.2551970876551E-02  0.0000000000000E+00 -0.6457428527502E-03
-0.6734795898781E-03  0.2506625150250E-02  0.0000000000000E+00 -0.6839854984658E-03
-0.6654511952015E-03  0.2457498526872E-02  0.0000000000000E+00 -0.7272706682654E-03
-0.6544634565488E-03  0.2405650961852E-02  0.0000000000000E+00 -0.7738143771560E-03
-0.6418165102030E-03  0.2351592083897E-02  0.0000000000000E+00 -0.8224199141745E-03
-0.6282628849196E-03  0.2295532595576E-02  0.0000000000000E+00 -0.8724137384378E-03
-0.6142034039808E-03  0.2237517851775E-02  0.0000000000000E+00 -0.9235039874563E-03
-0.5998031874267E-03  0.2177496249842E-02  0.0000000000000E+00 -0.9756365621111E-03
-0.5850591787461E-03  0.2115352569907E-02  0.0000000000000E+00 -0.1028870819069E-02
-0.5698383454419E-03  0.2050922298627E-02  0.0000000000000E+00 -0.1083278768654E-02
-0.5538988910232E-03  0.1983997517318E-02  0.0000000000000E+00 -0.1138865607323E-02
-0.5369018143244E-03  0.1914325438678E-02  0.0000000000000E+00 -0.1195514836018E-02
-0.5184231141939E-03  0.1841609096302E-02  0.0000000000000E+00 -0.1252957591158E-02
-0.4979779403803E-03  0.1765519252531E-02  0.0000000000000E+00 -0.1310761534468E-02
-0.4750677297534E-03  0.1685724915606E-02  0.0000000000000E+00 -0.1368321927227E-02
-0.4492487922785E-03  0.1601949690207E-02  0.0000000000000E+00 -0.1424802252207E-02
-0.4201957488686E-03  0.1514066026299E-02  0.0000000000000E+00 -0.1478958883781E-02
-0.3877270850301E-03  0.1422292630638E-02  0.0000000000000E+00 -0.1528792587399E-02
-0.3517059543748E-03  0.1327155477917E-02  0.0000000000000E+00 -0.1571289998935E-02
-0.3118473130382E-03  0.1229143383111E-02  0.0000000000000E+00 -0.1602538046758E-02
-0.2675903114681E-03  0.1128481514199E-02  0.0000000000000E+00 -0.1618064886144E-02
-0.2181035418157E-03  0.1025098465314E-02  0.0000000000000E+00 -0.1613269455093E-02
-0.1624176384611E-03  0.9187193887338E-03  0.0000000000000E+00 -0.1583847652253E-02
-0.9965445507248E-04  0.8090097783212E-03  0.0000000000000E+00 -0.1526196387289E-02
-0.2934565961477E-04  0.6957378639510E-03  0.0000000000000E+00 -0.1437846069099E-02
 0.4810483214912E-04  0.5790004543233E-03  0.0000000000000E+00 -0.1317969177575E-02
 0.1307429201786E-03  0.4595210767000E-03  0.0000000000000E+00 -0.1168001264935E-02
 0.2139871016270E-03  0.3393082741743E-03  0.0000000000000E+00 -0.9918641038101E-03
 0.2890004171175E-03  0.2230956755768E-03  0.0000000000000E+00 -0.7942980013440E-03
 0.3413794994481E-03  0.1198649949009E-03  0.0000000000000E+00 -0.5754222960655E-03
 0.3528600743023E-03  0.4221848246756E-04  0.0000000000000E+00 -0.3203674586823E-03
 0.3101066587395E-03  0.7986452125325E-07  0.0000000000000E+00  0.1113330554213E-04
 0.2206879160598E-03 -0.1181660518994E-04  0.0000000000000E+00  0.4774473900000E-03
 0.1212532225819E-03 -0.2042754698624E-04  0.0000000000000E+00  0.1111672620360E-02
-0.1010479159802E-03  0.2615524215330E-02  0.0000000000000E+00 -0.2335733367885E-03
-0.2980704009942E-03  0.2728725813471E-02  0.0000000000000E+00 -0.4454463437409E-03
-0.4667123284312E-03  0.2811836633880E-02  0.0000000000000E+00 -0.5359286464964E-03
-0.5879669431752E-03  0.2854018454022E-02  0.0000000000000E+00 -0.5569614192299E-03
-0.6630645106907E-03  0.2860004237929E-02  0.0000000000000E+00 -0.5557995162541E-03
-0.7033438264285E-03  0.2840903187998E-02  0.0000000000000E+00 -0.5585031889810E-03
-0.7208317707695E-03  0.2806655841274E-02  0.0000000000000E+00 -0.5734190993227E-03
-0.7244659797342E-03  0.2763700828879E-02  0.0000000000000E+00 -0.6001055988928E-03
-0.7199558540984E-03  0.2715559574259E-02  0.0000000000000E+00 -0.6354994193073E-03
-0.7107259405095E-03  0.2663982077433E-02  0.0000000000000E+00 -0.6765908765571E-03
-0.6987859019483E-03  0.2609777782008E-02  0.0000000000000E+00 -0.7211690355427E-03
-0.6853004590371E-03  0.2553282011470E-02  0.0000000000000E+00 -0.7678375595386E-03
-0.6709255310106E-03  0.2494593681725E-02  0.0000000000000E+00 -0.8158328990920E-03
-0.6560006277671E-03  0.2433691115773E-02  0.0000000000000E+00 -0.8648229765000E-03
-0.6406579575965E-03  0.2370486261477E-02  0.0000000000000E+00 -0.9147342985280E-03
-0.6248836071111E-03  0.2304848313470E-02  0.0000000000000E+00 -0.9656141131792E-03
-0.6085506423312E-03  0.2236611786611E-02  0.0000000000000E+00 -0.1017523235630E-02
-0.5914360110876E-03  0.2165578323638E-02  0.0000000000000E+00 -0.1070453311922E-02
-0.5732275627327E-03  0.2091511481397E-02  0.0000000000000E+00 -0.1124270391918E-02
-0.5535309654596E-03  0.2014132797490E-02  0.0000000000000E+00 -0.1178686494228E-02
-0.5318892668845E-03  0.1933128422064E-02  0.0000000000000E+00 -0.1233259471710E-02
-0.5078313139876E-03  0.1848177376383E-02  0.0000000000000E+00 -0.1287406557958E-02
-0.4809537715885E-03  0.1759015398108E-02  0.0000000000000E+00 -0.1340369151859E-02
-0.4510073497786E-03  0.1665548614375E-02  0.0000000000000E+00 -0.1391035408141E-02
-0.4179370805969E-03  0.1568075285399E-02  0.0000000000000E+00 -0.1437539322216E-02
-0.3817675211961E-03  0.1467248251397E-02  0.0000000000000E+00 -0.1476941560846E-02
-0.3423690266725E-03  0.1363705920708E-02  0.0000000000000E+00 -0.1505331563637E-02
-0.2992931916520E-03  0.1257825193041E-02  0.0000000000000E+00 -0.1518195818362E-02
-0.2517604722303E-03  0.1149681124762E-02  0.0000000000000E+00 -0.1510879416752E-02
-0.1987874301970E-03  0.1039135989411E-02  0.0000000000000E+00 -0.1479021592704E-02
-0.1394054965757E-03  0.9259661052423E-03  0.0000000000000E+00 -0.1418948332044E-02
-0.7295085063153E-04  0.8099813366023E-03  0.0000000000000E+00 -0.1328104871941E-02
 0.5181528434650E-06  0.6911784165219E-03  0.0000000000000E+00 -0.1205634864477E-02
 0.7957315469148E-04  0.5699479571165E-03  0.0000000000000E+00 -0.1053239677799E-02
 0.1602487056445E-03  0.4476942399313E-03  0.0000000000000E+00 -0.8759123818808E-03
 0.2339544296466E-03  0.3285123805968E-03  0.0000000000000E+00 -0.6810165840662E-03
 0.2850281297023E-03  0.2215842766007E-03  0.0000000000000E+00 -0.4730900843895E-03
 0.2909735098212E-03  0.1419761165694E-03  0.0000000000000E+00 -0.2410294634244E-03
 0.2318572939317E-03  0.1043843614755E-03  0.0000000000000E+00  0.5942901135429E-04
 0.1128342013782E-03  0.1058043420078E-03  0.0000000000000E+00  0.5048011776383E-03
-0.1814468044625E-04  0.1115164727492E-03  0.0000000000000E+00  0.1148940225102E-02
-0.1146025398902E-03  0.2830567535843E-02  0.0000000000000E+00 -0.3107644201282E-03
-0.3359543888719E-03  0.2956823756517E-02  0.0000000000000E+00 -0.5039308528480E-03
-0.5202121449683E-03  0.3045314238701E-02  0.0000000000000E+00 -0.5620875839735E-03
-0.6466951910085E-03  0.3085323176047E-02  0.0000000000000E+00 -0.5523024021250E-03
-0.7205896717993E-03  0.3085599836086E-02  0.0000000000000E+00 -0.5298260156927E-03
-0.7575271935728E-03  0.3060687768860E-02  0.0000000000000E+00 -0.5203530223821E-03
-0.7718102717527E-03  0.3021850311669E-02  0.0000000000000E+00 -0.5288159560745E-03
-0.7730248281022E-03  0.2975500799288E-02  0.0000000000000E+00 -0.5518692131021E-03
-0.7668209182788E-03  0.2924729936872E-02  0.0000000000000E+00 -0.5847959945358E-03
-0.7563919962416E-03  0.2870882248638E-02  0.0000000000000E+00 -0.6238044074707E-03
-0.7435332219443E-03  0.2814480714275E-02  0.0000000000000E+00 -0.6663485799478E-03
-0.7292510596682E-03  0.2755678255723E-02  0.0000000000000E+00 -0.7109012627804E-03
-0.7140961914642E-03  0.2694464450462E-02  0.0000000000000E+00 -0.7566546816905E-03
-0.6983443778611E-03  0.2630756009139E-02  0.0000000000000E+00 -0.8032656689271E-03
-0.6820948977071E-03  0.2564433777461E-02  0.0000000000000E+00 -0.8506597283061E-03
-0.6653237605842E-03  0.2495355692481E-02  0.0000000000000E+00 -0.8988840209517E-03
-0.6479111651065E-03  0.2423358628385E-02  0.0000000000000E+00 -0.9479966372324E-03
-0.6296540563671E-03  0.2348256620922E-02  0.0000000000000E+00 -0.9979819604630E-03
-0.6102685796156E-03  0.2269832493356E-02  0.0000000000000E+00 -0.1048692400713E-02
-0.5893909143530E-03  0.2187829233642E-02  0.0000000000000E+00 -0.1099820320888E-02
-0.5665899374302E-03  0.2101949552634E-02  0.0000000000000E+00 -0.1150907367958E-02
-0.5414140246051E-03  0.2011878400082E-02  0.0000000000000E+00 -0.1201383857675E-02
-0.5134868185612E-03  0.1917352078940E-02  0.0000000000000E+00 -0.1250568291782E-02
-0.4826226846711E-03  0.1818294011293E-02  0.0000000000000E+00 -0.1297497730545E-02
-0.4488896105619E-03  0.1715067032011E-02  0.0000000000000E+00 -0.1340471066842E-02
-0.4124795311053E-03  0.1608441284124E-02  0.0000000000000E+00 -0.1376656291380E-02
-0.3734276313341E-03  0.1499201387088E-02  0.0000000000000E+00 -0.1402173993262E-02
-0.3314066135152E-03  0.1387880734733E-02  0.0000000000000E+00 -0.1412496083875E-02
-0.2856986745782E-03  0.1274718502077E-02  0.0000000000000E+00 -0.1402940727819E-02
-0.2353223767830E-03  0.1159749699891E-02  0.0000000000000E+00 -0.1369108295539E-02
-0.1792433984257E-03  0.1042917521060E-02  0.0000000000000E+00 -0.1307241807719E-02
-0.1166299124640E-03  0.9241467494895E-03  0.0000000000000E+00 -0.1214628148814E-02
-0.4720396707070E-04  0.8034097443356E-03  0.0000000000000E+00 -0.1090209201994E-02
 0.2818943245864E-04  0.6808019729741E-03  0.0000000000000E+00 -0.9356458224817E-03
 0.1064197124448E-03  0.5570255963062E-03  0.0000000000000E+00 -0.7565984368529E-03
 0.1796217826233E-03  0.4351449383286E-03  0.0000000000000E+00 -0.5628849341346E-03
 0.2314318990685E-03  0.3238619954537E-03  0.0000000000000E+00 -0.3644184598758E-03
 0.2347884224214E-03  0.2404613416954E-03  0.0000000000000E+00 -0.1566910642674E-03
 0.1605400976916E-03  0.2059562628913E-03  0.0000000000000E+00  0.1060178296383E-03
 0.7825069112621E-05  0.2223167707062E-03  0.0000000000000E+00  0.5226063263809E-03
-0.1619511037262E-03  0.2458363292455E-03  0.0000000000000E+00  0.1179542986186E-02
-0.1305126965153E-03  0.3050228939363E-02  0.0000000000000E+00 -0.3980386718517E-03
-0.3797124835537E-03  0.3190935093871E-02  0.0000000000000E+00 -0.5671834629666E-03
-0.5801187573580E-03  0.3283751488271E-02  0.0000000000000E+00 -0.5859337387888E-03
-0.7099864118761E-03  0.3319193873749E-02  0.0000000000000E+00 -0.5416143464020E-03
-0.7805672115867E-03  0.3311862904658E-02  0.0000000000000E+00 -0.4977941974536E-03
-0.8128364756862E-03  0.3280318824666E-02  0.0000000000000E+00 -0.4776069365222E-03
-0.8233299844830E-03  0.3236800726095E-02  0.0000000000000E+00 -0.4809931155099E-03
-0.8219469970711E-03  0.3187260203188E-02  0.0000000000000E+00 -0.5012557257384E-03
-0.8140410864067E-03  0.3134122650401E-02  0.0000000000000E+00 -0.5320958254596E-03
-0.8024622141527E-03  0.3078241892671E-02  0.0000000000000E+00 -0.5690968847255E-03
-0.7887459107266E-03  0.3019833974322E-02  0.0000000000000E+00 -0.6094994518677E-03
-0.7737245343523E-03  0.2958871935741E-02  0.0000000000000E+00 -0.6517239552373E-03
-0.7578396835275E-03  0.2895245060475E-02  0.0000000000000E+00 -0.6949662567192E-03
-0.7413038999791E-03  0.2828817695042E-02  0.0000000000000E+00 -0.7389003771718E-03
-0.7241852141309E-03  0.2759446994435E-02  0.0000000000000E+00 -0.7834675685878E-03
-0.7064512156403E-03  0.2686984929226E-02  0.0000000000000E+00 -0.8287253731790E-03
-0.6879906548261E-03  0.2611274352883E-02  0.0000000000000E+00 -0.8747365811298E-03
-0.6686219396967E-03  0.2532144504646E-02  0.0000000000000E+00 -0.9214843464297E-03
-0.6480914246934E-03  0.2449400566994E-02  0.0000000000000E+00 -0.9688118182762E-03
-0.6260677956340E-03  0.2362810957305E-02  0.0000000000000E+00 -0.1016391690948E-02
-0.6021453199714E-03  0.2272098268538E-02  0.0000000000000E+00 -0.1063741241141E-02
-0.5758846152335E-03  0.2176951379892E-02  0.0000000000000E+00 -0.1110288914882E-02
-0.5469207654636E-03  0.2077095304812E-02  0.0000000000000E+00 -0.1155421020204E-02
-0.5151151353538E-03  0.1972450581305E-02  0.0000000000000E+00 -0.1198335176793E-02
-0.4806514975617E-03  0.1863423398740E-02  0.0000000000000E+00 -0.1237527039365E-02
-0.4438932018379E-03  0.1750884508796E-02  0.0000000000000E+00 -0.1270309411406E-02
-0.4050481996379E-03  0.1635754611097E-02  0.0000000000000E+00 -0.1292870418507E-02
-0.3639175951028E-03  0.1518723780431E-02  0.0000000000000E+00 -0.1300707528822E-02
-0.3198554793152E-03  0.1400212430591E-02  0.0000000000000E+00 -0.1289157472348E-02
-0.2719024896656E-03  0.1280468568455E-02  0.0000000000000E+00 -0.1253822055640E-02
-0.2189932449569E-03  0.1159669524781E-02  0.0000000000000E+00 -0.1190873650419E-02
-0.1601743935762E-03  0.1037949444328E-02  0.0000000000000E+00 -0.1097389513772E-02
-0.9487251395529E-04  0.9153693834709E-03  0.0000000000000E+00 -0.9719448743814E-03
-0.2333863848669E-04  0.7918311982469E-03  0.0000000000000E+00 -0.8158155075504E-03
 0.5230825597441E-04  0.6673258373607E-03  0.0000000000000E+00 -0.6347491723339E-03
 0.1254836703166E-03  0.5435162654694E-03  0.0000000000000E+00 -0.4404194256146E-03
 0.1800797407260E-03  0.4276510396603E-03  0.0000000000000E+00 -0.2486358820622E-03
 0.1847222547016E-03  0.3383277391999E-03  0.0000000000000E+00 -0.6498188379529E-04
 0.9800346030442E-04  0.3043402864416E-03  0.0000000000000E+00  0.1526803843576E-03
-0.9298881532838E-04  0.3369594983093E-03  0.0000000000000E+00  0.5290004563040E-03
-0.3120535602225E-03  0.3830139720629E-03  0.0000000000000E+00  0.1201050782350E-02
-0.1494946353240E-03  0.3275702646064E-02  0.0000000000000E+00 -0.4969668383068E-03
-0.4308384699033E-03  0.3432314046256E-02  0.0000000000000E+00 -0.6346741334184E-03
-0.6474361359543E-03  0.3527501161258E-02  0.0000000000000E+00 -0.6051126357943E-03
-0.7778993515368E-03  0.3555083073761E-02  0.0000000000000E+00 -0.5228060460000E-03
-0.8425940323586E-03  0.3538029718416E-02  0.0000000000000E+00 -0.4588154782896E-03
-0.8688792776117E-03  0.3499255031055E-02  0.0000000000000E+00 -0.4302357879000E-03
-0.8751547927829E-03  0.3451235699511E-02  0.0000000000000E+00 -0.4302408226972E-03
-0.8711281717983E-03  0.3398887660481E-02  0.0000000000000E+00 -0.4485943814947E-03
-0.8615941811215E-03  0.3343747275438E-02  0.0000000000000E+00 -0.4776796240767E-03
-0.8489613877970E-03  0.3286123929428E-02  0.0000000000000E+00 -0.5126863566852E-03
-0.8344743921676E-03  0.3225927278141E-02  0.0000000000000E+00 -0.5507850239423E-03
-0.8187846369466E-03  0.3162965505301E-02  0.0000000000000E+00 -0.5904273482023E-03
-0.8022263072978E-03  0.3097043764002E-02  0.0000000000000E+00 -0.6308595906196E-03
-0.7849523925952E-03  0.3027987111637E-02  0.0000000000000E+00 -0.6717984602578E-03
-0.7670030192313E-03  0.2955638336073E-02  0.0000000000000E+00 -0.7132149097585E-03
-0.7483397775203E-03  0.2879849498253E-02  0.0000000000000E+00 -0.7551850509091E-03
-0.7288616035871E-03  0.2800473102060E-02  0.0000000000000E+00 -0.7977822955292E-03
-0.7084098086104E-03  0.2717356057475E-02  0.0000000000000E+00 -0.8409941746648E-03
-0.6867630917428E-03  0.2630328768784E-02  0.0000000000000E+00 -0.8846599071812E-03
-0.6636258397932E-03  0.2539189907171E-02  0.0000000000000E+00 -0.9284342640044E-03
-0.6386196559002E-03  0.2443688062357E-02  0.0000000000000E+00 -0.9718016890118E-03
-0.6113119448508E-03  0.2343517798678E-02  0.0000000000000E+00 -0.1014167494064E-02
-0.5813321045900E-03  0.2238382345543E-02  0.0000000000000E+00 -0.1054964904168E-02
-0.5485668976443E-03  0.2128175586869E-02  0.0000000000000E+00 -0.1093554144979E-02
-0.5133038108883E-03  0.2013317954049E-02  0.0000000000000E+00 -0.1128656771894E-02
-0.4760782809348E-03  0.1894753973296E-02  0.0000000000000E+00 -0.1157770922424E-02
-0.4372757876666E-03  0.1773520213422E-02  0.0000000000000E+00 -0.1177197536683E-02
-0.3968301447364E-03  0.1650456651158E-02  0.0000000000000E+00 -0.1182516491970E-02
-0.3541767029827E-03  0.1526180516461E-02  0.0000000000000E+00 -0.1169152000236E-02
-0.3084015632644E-03  0.1401197230932E-02  0.0000000000000E+00 -0.1132775024392E-02
-0.2584523823075E-03  0.1275995673735E-02  0.0000000000000E+00 -0.1069530396934E-02
-0.2033199518867E-03  0.1151033554069E-02  0.0000000000000E+00 -0.9762677866677E-03
-0.1422107723505E-03  0.1026611302686E-02  0.0000000000000E+00 -0.8510595812169E-03
-0.7483200392222E-04  0.9026111639208E-03  0.0000000000000E+00 -0.6944535197837E-03
-0.2207840949120E-05  0.7784400923923E-03  0.0000000000000E+00 -0.5115776057937E-03
 0.7089224140028E-04  0.6541381489290E-03  0.0000000000000E+00 -0.3148368042520E-03
 0.1299978951639E-03  0.5343184748619E-03  0.0000000000000E+00 -0.1255159842118E-03
 0.1407261931536E-03  0.4369776773438E-03  0.0000000000000E+00  0.3706442590865E-04
 0.4646685132365E-04  0.3994175968415E-03  0.0000000000000E+00  0.2028321625933E-03
-0.1873443491291E-03  0.4486636769077E-03  0.0000000000000E+00  0.5224074800608E-03
-0.4709789622481E-03  0.5236429226100E-03  0.0000000000000E+00  0.1209966211365E-02
-0.1725881231415E-03  0.3508721081898E-02  0.0000000000000E+00 -0.6094802407868E-03
-0.4913340897983E-03  0.3682574362493E-02  0.0000000000000E+00 -0.7051165215413E-03
-0.7232211619356E-03  0.3776683143522E-02  0.0000000000000E+00 -0.6161272042129E-03
-0.8501831649990E-03  0.3791963254365E-02  0.0000000000000E+00 -0.4933965222149E-03
-0.9060057255350E-03  0.3763048096257E-02  0.0000000000000E+00 -0.4122383953364E-03
-0.9251659903895E-03  0.3716887190352E-02  0.0000000000000E+00 -0.3785384747009E-03
-0.9270407615697E-03  0.3664905090188E-02  0.0000000000000E+00 -0.3770590903988E-03
-0.9204808954421E-03  0.3610328290671E-02  0.0000000000000E+00 -0.3943253123231E-03
-0.9094772778985E-03  0.3553645891464E-02  0.0000000000000E+00 -0.4218846966857E-03
-0.8959305163320E-03  0.3494616338137E-02  0.0000000000000E+00 -0.4548183436968E-03
-0.8807812326452E-03  0.3432868318479E-02  0.0000000000000E+00 -0.4903811484361E-03
-0.8645037211713E-03  0.3368073880408E-02  0.0000000000000E+00 -0.5271385172130E-03
-0.8473323052289E-03  0.3299977325943E-02  0.0000000000000E+00 -0.5644290085997E-03
-0.8293671613571E-03  0.3228381044158E-02  0.0000000000000E+00 -0.6020326975175E-03
-0.8106253666162E-03  0.3153124397469E-02  0.0000000000000E+00 -0.6399602158137E-03
-0.7910655188025E-03  0.3074066088904E-02  0.0000000000000E+00 -0.6783114265575E-03
-0.7705983811726E-03  0.2991071721385E-02  0.0000000000000E+00 -0.7171742845785E-03
-0.7490892821816E-03  0.2904007626044E-02  0.0000000000000E+00 -0.7565455737291E-03
-0.7263512042231E-03  0.2812731477347E-02  0.0000000000000E+00 -0.7962671091259E-03
-0.7021284093751E-03  0.2717077302291E-02  0.0000000000000E+00 -0.8359807789044E-03
-0.6760749091304E-03  0.2616829012468E-02  0.0000000000000E+00 -0.8751320840626E-03
-0.6477631122973E-03  0.2511694601725E-02  0.0000000000000E+00 -0.9130766126917E-03
-0.6167993708993E-03  0.2401349291340E-02  0.0000000000000E+00 -0.9492585187887E-03
-0.5830688316401E-03  0.2285634076719E-02  0.0000000000000E+00 -0.9831868923788E-03
-0.5469440743673E-03  0.2164944705578E-02  0.0000000000000E+00 -0.1013830424502E-02
-0.5091277857314E-03  0.2040258118941E-02  0.0000000000000E+00 -0.1038913646566E-02
-0.4701819992348E-03  0.1912691589009E-02  0.0000000000000E+00 -0.1054906017709E-02
-0.4301724184181E-03  0.1783218199661E-02  0.0000000000000E+00 -0.1057548824457E-02
-0.3886232419185E-03  0.1652665376908E-02  0.0000000000000E+00 -0.1042452325253E-02
-0.3446922062882E-03  0.1521844571745E-02  0.0000000000000E+00 -0.1005456434257E-02
-0.2973922524144E-03  0.1391642243462E-02  0.0000000000000E+00 -0.9427572611385E-03
-0.2457416189674E-03  0.1262970048404E-02  0.0000000000000E+00 -0.8510031114634E-03
-0.1888365440746E-03  0.1136552475100E-02  0.0000000000000E+00 -0.7276780059568E-03
-0.1259560450331E-03  0.1012497364631E-02  0.0000000000000E+00 -0.5723077987292E-03
-0.5708563798823E-04  0.8899208628481E-03  0.0000000000000E+00 -0.3886774709306E-03
 0.1516956373293E-04  0.7673386689744E-03  0.0000000000000E+00 -0.1883202076380E-03
 0.7964142715011E-04  0.6456287497194E-03  0.0000000000000E+00  0.3975299734948E-05
 0.1018459310313E-03  0.5389898435307E-03  0.0000000000000E+00  0.1526465629781E-03
 0.8327505888139E-05  0.4919471423170E-03  0.0000000000000E+00  0.2623891337926E-03
-0.2715189668425E-03  0.5560565990615E-03  0.0000000000000E+00  0.5024421330436E-03
-0.6420771263399E-03  0.6684914195639E-03  0.0000000000000E+00  0.1201245861241E-02
-0.2013565046276E-03  0.3751901457549E-02  0.0000000000000E+00 -0.7379458700407E-03
-0.5639111632297E-03  0.3943777056038E-02  0.0000000000000E+00 -0.7757935038114E-03
-0.8084336081871E-03  0.4030873646547E-02  0.0000000000000E+00 -0.6138303351466E-03
-0.9260595529454E-03  0.4028074866166E-02  0.0000000000000E+00 -0.4506837847638E-03
-0.9698250564797E-03  0.3985566144412E-02  0.0000000000000E+00 -0.3579557492952E-03
-0.9811457031312E-03  0.3932602571755E-02  0.0000000000000E+00 -0.3232663270854E-03
-0.9787678785822E-03  0.3877619671501E-02  0.0000000000000E+00 -0.3221727458105E-03
-0.9699502598195E-03  0.3821582246955E-02  0.0000000000000E+00 -0.3389936005677E-03
-0.9577148175803E-03  0.3763902722043E-02  0.0000000000000E+00 -0.3650967138499E-03
-0.9434309658054E-03  0.3703836826591E-02  0.0000000000000E+00 -0.3957580566695E-03
-0.9277430767337E-03  0.3640784842667E-02  0.0000000000000E+00 -0.4284702551109E-03
-0.9109635618934E-03  0.3574325244929E-02  0.0000000000000E+00 -0.4619857245866E-03
-0.8932401197095E-03  0.3504171189186E-02  0.0000000000000E+00 -0.4957683641336E-03
-0.8746296160860E-03  0.3430122006735E-02  0.0000000000000E+00 -0.5296754893899E-03
-0.8551321688365E-03  0.3352025749562E-02  0.0000000000000E+00 -0.5637622898724E-03
-0.8347067389729E-03  0.3269754473800E-02  0.0000000000000E+00 -0.5981538768949E-03
-0.8132773374635E-03  0.3183189816220E-02  0.0000000000000E+00 -0.6329541563893E-03
-0.7907337697334E-03  0.3092218183720E-02  0.0000000000000E+00 -0.6681728461203E-03
-0.7669244493616E-03  0.2996725024578E-02  0.0000000000000E+00 -0.7036619695233E-03
-0.7416380030839E-03  0.2896583980493E-02  0.0000000000000E+00 -0.7390604149182E-03
-0.7145695062764E-03  0.2791626576928E-02  0.0000000000000E+00 -0.7737751505685E-03
-0.6853007845834E-03  0.2681590659105E-02  0.0000000000000E+00 -0.8070835500424E-03
-0.6534002510219E-03  0.2566126380049E-02  0.0000000000000E+00 -0.8383863732702E-03
-0.6187192662819E-03  0.2444996140405E-02  0.0000000000000E+00 -0.8673029282620E-03
-0.5816883321546E-03  0.2318520177999E-02  0.0000000000000E+00 -0.8930532690734E-03
-0.5431636942033E-03  0.2187645315549E-02  0.0000000000000E+00 -0.9136250777255E-03
-0.5038731989465E-03  0.2053512056096E-02  0.0000000000000E+00 -0.9257248965493E-03
-0.4640056765626E-03  0.1917195926619E-02  0.0000000000000E+00 -0.9253651412656E-03
-0.4231794250453E-03  0.1779745978645E-02  0.0000000000000E+00 -0.9084787717262E-03
-0.3806529189855E-03  0.1642333744360E-02  0.0000000000000E+00 -0.8712106386682E-03
-0.3355631644651E-03  0.1506336423610E-02  0.0000000000000E+00 -0.8099245464592E-03
-0.2870529021285E-03  0.1373260009476E-02  0.0000000000000E+00 -0.7211458972096E-03
-0.2342491264650E-03  0.1244463396057E-02  0.0000000000000E+00 -0.6017584577952E-03
-0.1761791590767E-03  0.1120586814584E-02  0.0000000000000E+00 -0.4500648459416E-03
-0.1119981405026E-03  0.1000904446509E-02  0.0000000000000E+00 -0.2679148654262E-03
-0.4218121603711E-04  0.8829748614000E-03  0.0000000000000E+00 -0.6420055975420E-04
 0.2690408082895E-04  0.7635145413012E-03  0.0000000000000E+00  0.1367171926888E-03
 0.6557168490118E-04  0.6486209548335E-03  0.0000000000000E+00  0.2841173919844E-03
-0.1444458723088E-04  0.5846390276912E-03  0.0000000000000E+00  0.3407306669894E-03
-0.3395368374617E-03  0.6577164932367E-03  0.0000000000000E+00  0.4718300953263E-03
-0.8297018090684E-03  0.8186684853762E-03  0.0000000000000E+00  0.1167734142482E-02
-0.2382440043189E-03  0.4009390411328E-02  0.0000000000000E+00 -0.8851956239911E-03
-0.6522616958822E-03  0.4218463283697E-02  0.0000000000000E+00 -0.8412358757467E-03
-0.9035799582789E-03  0.4288473047544E-02  0.0000000000000E+00 -0.5907883864971E-03
-0.1003905282871E-02  0.4260606252840E-02  0.0000000000000E+00 -0.3922697514841E-03
-0.1032764823444E-02  0.4204022759762E-02  0.0000000000000E+00 -0.2968651208883E-03
-0.1036286074899E-02  0.4145895206899E-02  0.0000000000000E+00 -0.2657077765873E-03
-0.1030178291012E-02  0.4089292511891E-02  0.0000000000000E+00 -0.2665140279561E-03
-0.1019529434506E-02  0.4032723184101E-02  0.0000000000000E+00 -0.2832345250846E-03
-0.1006366750806E-02  0.3974653423495E-02  0.0000000000000E+00 -0.3077358585605E-03
-0.9915480877111E-03  0.3913936593142E-02  0.0000000000000E+00 -0.3357796677399E-03
-0.9754521020832E-03  0.3849826108331E-02  0.0000000000000E+00 -0.3652341473324E-03
-0.9582558272059E-03  0.3781861372302E-02  0.0000000000000E+00 -0.3950935430883E-03
-0.9400383785540E-03  0.3709759273589E-02  0.0000000000000E+00 -0.4249678954881E-03
-0.9208250653292E-03  0.3633337843691E-02  0.0000000000000E+00 -0.4547969461091E-03
-0.9006059600999E-03  0.3552466519083E-02  0.0000000000000E+00 -0.4846792583755E-03
-0.8793438089354E-03  0.3467037198033E-02  0.0000000000000E+00 -0.5147624236569E-03
-0.8569768384610E-03  0.3376949678464E-02  0.0000000000000E+00 -0.5451647011980E-03
-0.8334188359068E-03  0.3282109674926E-02  0.0000000000000E+00 -0.5759106325447E-03
-0.8085533108719E-03  0.3182428623385E-02  0.0000000000000E+00 -0.6068704528906E-03
-0.7822167744229E-03  0.3077821429099E-02  0.0000000000000E+00 -0.6376956604547E-03
-0.7541572217064E-03  0.2968180839506E-02  0.0000000000000E+00 -0.6677673109074E-03
-0.7239795786741E-03  0.2853302209412E-02  0.0000000000000E+00 -0.6962619823843E-03
-0.6912067810279E-03  0.2732830616029E-02  0.0000000000000E+00 -0.7224632129551E-03
-0.6556210465830E-03  0.2606431430201E-02  0.0000000000000E+00 -0.7460237846144E-03
-0.6176728163000E-03  0.2474284758892E-02  0.0000000000000E+00 -0.7663861627840E-03
-0.5783438820625E-03  0.2337213032854E-02  0.0000000000000E+00 -0.7818245702776E-03
-0.5385008702984E-03  0.2196288783711E-02  0.0000000000000E+00 -0.7893685211823E-03
-0.4984353648283E-03  0.2052640719359E-02  0.0000000000000E+00 -0.7854561395237E-03
-0.4578631947250E-03  0.1907551067216E-02  0.0000000000000E+00 -0.7665297866529E-03
-0.4161771779528E-03  0.1762614391541E-02  0.0000000000000E+00 -0.7292145684965E-03
-0.3727023854081E-03  0.1619798162280E-02  0.0000000000000E+00 -0.6701934736035E-03
-0.3268103021000E-03  0.1481344816760E-02  0.0000000000000E+00 -0.5860008367552E-03
-0.2778226718771E-03  0.1349467617783E-02  0.0000000000000E+00 -0.4730048699966E-03
-0.2247448535420E-03  0.1225694240553E-02  0.0000000000000E+00 -0.3282173444350E-03
-0.1662221595066E-03  0.1110014636521E-02  0.0000000000000E+00 -0.1511938062748E-03
-0.1011302160310E-03  0.1000050511484E-02  0.0000000000000E+00  0.5314728630323E-04
-0.3056236499943E-04  0.8894290368851E-03  0.0000000000000E+00  0.2662741386269E-03
 0.2703849203645E-04  0.7721355654841E-03  0.0000000000000E+00  0.4305348362767E-03
-0.2177047446911E-04  0.6841378287759E-03  0.0000000000000E+00  0.4511467828144E-03
-0.3821587045595E-03  0.7531675188186E-03  0.0000000000000E+00  0.4402309813017E-03
-0.1039301155857E-02  0.9761026045917E-03  0.0000000000000E+00  0.1099834129226E-02
-0.2872387263714E-03  0.4288149546490E-02  0.0000000000000E+00 -0.1054329531175E-02
-0.7613667099390E-03  0.4509416096872E-02  0.0000000000000E+00 -0.8905393199959E-03
-0.1007916851776E-02  0.4545426605250E-02  0.0000000000000E+00 -0.5367337851921E-03
-0.1080855210348E-02  0.4485424401085E-02  0.0000000000000E+00 -0.3173383562218E-03
-0.1093377652465E-02  0.4416955580802E-02  0.0000000000000E+00 -0.2314166239862E-03
-0.1090199935854E-02  0.4356499734543E-02  0.0000000000000E+00 -0.2076395742444E-03
-0.1081208343854E-02  0.4299970278531E-02  0.0000000000000E+00 -0.2111779472651E-03
-0.1069274829893E-02  0.4243918090496E-02  0.0000000000000E+00 -0.2277517511563E-03
-0.1055536145404E-02  0.4186092392995E-02  0.0000000000000E+00 -0.2502353100473E-03
-0.1040393662276E-02  0.4125102811914E-02  0.0000000000000E+00 -0.2751534310926E-03
-0.1024016900597E-02  0.4060163601322E-02  0.0000000000000E+00 -0.3008455586195E-03
-0.1006482096112E-02  0.3990837374534E-02  0.0000000000000E+00 -0.3265773866252E-03
-0.9878215691662E-03  0.3916883412993E-02  0.0000000000000E+00 -0.3521108522122E-03
-0.9680422901911E-03  0.3838161065433E-02  0.0000000000000E+00 -0.3774628939328E-03
-0.9471314916868E-03  0.3754573774900E-02  0.0000000000000E+00 -0.4027675924831E-03
-0.9250588900336E-03  0.3666039120146E-02  0.0000000000000E+00 -0.4281875091207E-03
-0.9017772143653E-03  0.3572476107821E-02  0.0000000000000E+00 -0.4538502294281E-03
-0.8772225644479E-03  0.3473807326477E-02  0.0000000000000E+00 -0.4797945823959E-03
-0.8513111306509E-03  0.3369965598603E-02  0.0000000000000E+00 -0.5059160770487E-03
-0.8239279318121E-03  0.3260903943108E-02  0.0000000000000E+00 -0.5318992316423E-03
-0.7948867869331E-03  0.3146587137889E-02  0.0000000000000E+00 -0.5571301536142E-03
-0.7638415306233E-03  0.3026907622362E-02  0.0000000000000E+00 -0.5806829615389E-03
-0.7302777110787E-03  0.2901554487060E-02  0.0000000000000E+00 -0.6016359357230E-03
-0.6938756696478E-03  0.2770099284658E-02  0.0000000000000E+00 -0.6195421145384E-03
-0.6550548651132E-03  0.2632502891721E-02  0.0000000000000E+00 -0.6339747796744E-03
-0.6148708654937E-03  0.2489319528752E-02  0.0000000000000E+00 -0.6434878929702E-03
-0.5742749097990E-03  0.2341410576350E-02  0.0000000000000E+00 -0.6455463776447E-03
-0.5336247769044E-03  0.2189884843390E-02  0.0000000000000E+00 -0.6372372894805E-03
-0.4927381058200E-03  0.2036274688724E-02  0.0000000000000E+00 -0.6157663248359E-03
-0.4511843578623E-03  0.1882676772825E-02  0.0000000000000E+00 -0.5784550705651E-03
-0.4085453631213E-03  0.1731755460860E-02  0.0000000000000E+00 -0.5224832863550E-03
-0.3645252055703E-03  0.1586624284004E-02  0.0000000000000E+00 -0.4445715397503E-03
-0.3188085765262E-03  0.1450555817068E-02  0.0000000000000E+00 -0.3407628044751E-03
-0.2706568615132E-03  0.1326340270891E-02  0.0000000000000E+00 -0.2069140680073E-03
-0.2185851909859E-03  0.1215328955803E-02  0.0000000000000E+00 -0.4015290937742E-04
-0.1607061154755E-03  0.1116381070176E-02  0.0000000000000E+00  0.1589494999823E-03
-0.9441606093863E-04  0.1023065232158E-02  0.0000000000000E+00  0.3821428827707E-03
-0.2152826485918E-04  0.9172194488948E-03  0.0000000000000E+00  0.5829875475983E-03
-0.1856330618677E-04  0.8043218940688E-03  0.0000000000000E+00  0.6088574959305E-03
-0.3860329040720E-03  0.8458888191017E-03  0.0000000000000E+00  0.4313063644905E-03
-0.1277219684102E-02  0.1144988546951E-02  0.0000000000000E+00  0.9866580657537E-03
-0.3551450518061E-03  0.4600766652548E-02  0.0000000000000E+00 -0.1247611005792E-02
-0.8976438889440E-03  0.4818351719442E-02  0.0000000000000E+00 -0.9016900455006E-03
-0.1117725943248E-02  0.4792697961111E-02  0.0000000000000E+00 -0.4391038652248E-03
-0.1152525743745E-02  0.4697362142674E-02  0.0000000000000E+00 -0.2293423384450E-03
-0.1150507765487E-02  0.4623630864135E-02  0.0000000000000E+00 -0.1658451618122E-03
-0.1142765676244E-02  0.4564447088299E-02  0.0000000000000E+00 -0.1510614243942E-03
-0.1131901708719E-02  0.4509864913716E-02  0.0000000000000E+00 -0.1574008505302E-03
-0.1119325574058E-02  0.4455447521945E-02  0.0000000000000E+00 -0.1732745488489E-03
-0.1105373240513E-02  0.4398474966197E-02  0.0000000000000E+00 -0.1930139518096E-03
-0.1090107117494E-02  0.4337560410608E-02  0.0000000000000E+00 -0.2141319125525E-03
-0.1073562653446E-02  0.4271990463768E-02  0.0000000000000E+00 -0.2354581968928E-03
-0.1055753272249E-02  0.4201420874920E-02  0.0000000000000E+00 -0.2565378854692E-03
-0.1036689385432E-02  0.4125692336072E-02  0.0000000000000E+00 -0.2772699237434E-03
-0.1016372855235E-02  0.4044727878107E-02  0.0000000000000E+00 -0.2977329046072E-03
-0.9947951393598E-03  0.3958476676200E-02  0.0000000000000E+00 -0.3180812072733E-03
-0.9719354970324E-03  0.3866886754532E-02  0.0000000000000E+00 -0.3384799477394E-03
-0.9477605834785E-03  0.3769896067695E-02  0.0000000000000E+00 -0.3590572095662E-03
-0.9222258196711E-03  0.3667439812728E-02  0.0000000000000E+00 -0.3798625673885E-03
-0.8952753627615E-03  0.3559464659637E-02  0.0000000000000E+00 -0.4008213740346E-03
-0.8668383779610E-03  0.3445952109494E-02  0.0000000000000E+00 -0.4216724138019E-03
-0.8368033037086E-03  0.3326939584416E-02  0.0000000000000E+00 -0.4418589995149E-03
-0.8049110976178E-03  0.3202462555542E-02  0.0000000000000E+00 -0.4603970562619E-03
-0.7706465885531E-03  0.3072348801676E-02  0.0000000000000E+00 -0.4760794831673E-03
-0.7335724474578E-03  0.2936131312006E-02  0.0000000000000E+00 -0.4881466358019E-03
-0.6940125511261E-03  0.2793461440893E-02  0.0000000000000E+00 -0.4960924001771E-03
-0.6530033557984E-03  0.2644399542602E-02  0.0000000000000E+00 -0.4986821073660E-03
-0.6114809842995E-03  0.2489370952942E-02  0.0000000000000E+00 -0.4939758131118E-03
-0.5698119027477E-03  0.2329363796700E-02  0.0000000000000E+00 -0.4800418896658E-03
-0.5279269165182E-03  0.2166193779315E-02  0.0000000000000E+00 -0.4551933777074E-03
-0.4856319860338E-03  0.2002566568461E-02  0.0000000000000E+00 -0.4177070039796E-03
-0.4428396344892E-03  0.1841963118537E-02  0.0000000000000E+00 -0.3654412306208E-03
-0.3996825984515E-03  0.1688481131427E-02  0.0000000000000E+00 -0.2955123850741E-03
-0.3563569120338E-03  0.1546621845750E-02  0.0000000000000E+00 -0.2039123612804E-03
-0.3126636236927E-03  0.1420758129021E-02  0.0000000000000E+00 -0.8575649328860E-04
-0.2674919190525E-03  0.1314368018357E-02  0.0000000000000E+00  0.6404823276959E-04
-0.2187902836049E-03  0.1228607401576E-02  0.0000000000000E+00  0.2492003202015E-03
-0.1638199416895E-03  0.1160618855782E-02  0.0000000000000E+00  0.4710224786221E-03
-0.8983461343126E-04  0.1089708334302E-02  0.0000000000000E+00  0.7174967909020E-03
-0.2052593355478E-04  0.9705926050384E-03  0.0000000000000E+00  0.8214945354874E-03
-0.3345493327331E-03  0.9515588061030E-03  0.0000000000000E+00  0.4940976665816E-03
-0.1549829623931E-02  0.1336406643148E-02  0.0000000000000E+00  0.8229189812356E-03
-0.4540484054692E-03  0.4972451120813E-02  0.0000000000000E+00 -0.1461618836703E-02
-0.1068036182016E-02  0.5140304683304E-02  0.0000000000000E+00 -0.8290953960861E-03
-0.1222720303047E-02  0.5011901667444E-02  0.0000000000000E+00 -0.2885742689210E-03
-0.1213691903480E-02  0.4892688580096E-02  0.0000000000000E+00 -0.1404470605470E-03
-0.1204133221523E-02  0.4824600466588E-02  0.0000000000000E+00 -0.1048608576107E-03
-0.1194062145481E-02  0.4769938376907E-02  0.0000000000000E+00 -0.9800947846194E-04
-0.1182444584520E-02  0.4719456106126E-02  0.0000000000000E+00 -0.1065717167615E-03
-0.1169922030299E-02  0.4667692632245E-02  0.0000000000000E+00 -0.1204581634965E-03
-0.1156071460495E-02  0.4612123743036E-02  0.0000000000000E+00 -0.1364648278877E-03
-0.1140857680298E-02  0.4551570041146E-02  0.0000000000000E+00 -0.1529281511720E-03
-0.1124229400305E-02  0.4485520275290E-02  0.0000000000000E+00 -0.1691982382265E-03
-0.1106188733996E-02  0.4413790435266E-02  0.0000000000000E+00 -0.1850545200011E-03
-0.1086745608146E-02  0.4336340281715E-02  0.0000000000000E+00 -0.2005037840362E-03
-0.1065910196034E-02  0.4253176962846E-02  0.0000000000000E+00 -0.2156583207026E-03
-0.1043684119618E-02  0.4164305462187E-02  0.0000000000000E+00 -0.2306706504984E-03
-0.1020057905086E-02  0.4069707490330E-02  0.0000000000000E+00 -0.2456910010622E-03
-0.9950105451492E-03  0.3969338223939E-02  0.0000000000000E+00 -0.2608351921265E-03
-0.9685123600917E-03  0.3863139346803E-02  0.0000000000000E+00 -0.2761563081481E-03
-0.9405286723542E-03  0.3751060924898E-02  0.0000000000000E+00 -0.2916106957966E-03
-0.9110226700998E-03  0.3633097236875E-02  0.0000000000000E+00 -0.3070071754227E-03
-0.8799534029098E-03  0.3509339979845E-02  0.0000000000000E+00 -0.3219105954041E-03
-0.8471913695814E-03  0.3379999019861E-02  0.0000000000000E+00 -0.3354016394416E-03
-0.8123033144494E-03  0.3245196674253E-02  0.0000000000000E+00 -0.3459784775102E-03
-0.7747688821502E-03  0.3104600509594E-02  0.0000000000000E+00 -0.3522554230837E-03
-0.7347423931058E-03  0.2957465837506E-02  0.0000000000000E+00 -0.3532048254548E-03
-0.6930726125578E-03  0.2802987069270E-02  0.0000000000000E+00 -0.3476144409653E-03
-0.6505036695431E-03  0.2640798618331E-02  0.0000000000000E+00 -0.3343966322275E-03
-0.6073300194274E-03  0.2471642834735E-02  0.0000000000000E+00 -0.3131104498076E-03
-0.5636271282679E-03  0.2297687889144E-02  0.0000000000000E+00 -0.2836372546410E-03
-0.5195268912251E-03  0.2122399517642E-02  0.0000000000000E+00 -0.2455085644363E-03
-0.4753633124102E-03  0.1950220891144E-02  0.0000000000000E+00 -0.1974262037143E-03
-0.4317607509569E-03  0.1786319111813E-02  0.0000000000000E+00 -0.1370751603557E-03
-0.3895657232977E-03  0.1636501017701E-02  0.0000000000000E+00 -0.6081110715234E-04
-0.3492713929769E-03  0.1506989662233E-02  0.0000000000000E+00  0.3650898216956E-04
-0.3108706005381E-03  0.1403974779791E-02  0.0000000000000E+00  0.1609256328380E-03
-0.2726059276730E-03  0.1332621558197E-02  0.0000000000000E+00  0.3211929054839E-03
-0.2333949080635E-03  0.1294293509199E-02  0.0000000000000E+00  0.5225780575215E-03
-0.1837362631656E-03  0.1284847838634E-02  0.0000000000000E+00  0.7899044885853E-03
-0.6290168523654E-04  0.1220491405386E-02  0.0000000000000E+00  0.1059928795940E-02
-0.2153361945834E-03  0.1119502054470E-02  0.0000000000000E+00  0.7148050193250E-03
-0.1862328285188E-02  0.1584081235709E-02  0.0000000000000E+00  0.6354661956210E-03
-0.6055545892855E-03  0.5462100113330E-02  0.0000000000000E+00 -0.1664711609365E-02
-0.1274137442925E-02  0.5438186141339E-02  0.0000000000000E+00 -0.5762175019334E-03
-0.1299455945795E-02  0.5173674547839E-02  0.0000000000000E+00 -0.1045922463722E-03
-0.1262686032171E-02  0.5076619898930E-02  0.0000000000000E+00 -0.7252283084881E-04
-0.1255681620000E-02  0.5019694929354E-02  0.0000000000000E+00 -0.4955536266976E-04
-0.1244017242765E-02  0.4973954537390E-02  0.0000000000000E+00 -0.5187226765928E-04
-0.1233381420057E-02  0.4929380536497E-02  0.0000000000000E+00 -0.5962320759897E-04
-0.1221334799079E-02  0.4881159413070E-02  0.0000000000000E+00 -0.6996623667384E-04
-0.1207888716183E-02  0.4827421035978E-02  0.0000000000000E+00 -0.8088813029027E-04
-0.1192835702855E-02  0.4767425809245E-02  0.0000000000000E+00 -0.9170755184462E-04
-0.1176171847253E-02  0.4700984137834E-02  0.0000000000000E+00 -0.1021521629358E-03
-0.1157914116470E-02  0.4628133267764E-02  0.0000000000000E+00 -0.1121803046257E-03
-0.1138096770394E-02  0.4548985078707E-02  0.0000000000000E+00 -0.1218535754044E-03
-0.1116748361378E-02  0.4463647865653E-02  0.0000000000000E+00 -0.1312805097695E-03
-0.1093885497687E-02  0.4372190134348E-02  0.0000000000000E+00 -0.1405824800019E-03
-0.1069510354104E-02  0.4274628539636E-02  0.0000000000000E+00 -0.1498726477622E-03
-0.1043611633088E-02  0.4170932144253E-02  0.0000000000000E+00 -0.1592380531828E-03
-0.1016168815626E-02  0.4061041468868E-02  0.0000000000000E+00 -0.1687237062192E-03
-0.9871593790681E-03  0.3944896526129E-02  0.0000000000000E+00 -0.1783134475397E-03
-0.9565671008863E-03  0.3822484311882E-02  0.0000000000000E+00 -0.1878945216543E-03
-0.9243969362972E-03  0.3693913887703E-02  0.0000000000000E+00 -0.1971987771424E-03
-0.8906664400519E-03  0.3559538315993E-02  0.0000000000000E+00 -0.2055851088488E-03
-0.8551654288602E-03  0.3419973441842E-02  0.0000000000000E+00 -0.2114749162867E-03
-0.8174543739965E-03  0.3275463386566E-02  0.0000000000000E+00 -0.2124636857176E-03
-0.7774548034729E-03  0.3124835343953E-02  0.0000000000000E+00 -0.2060745234771E-03
-0.7355074916859E-03  0.2965750445133E-02  0.0000000000000E+00 -0.1906988106574E-03
-0.6918573822751E-03  0.2796497469359E-02  0.0000000000000E+00 -0.1665848877754E-03
-0.6466327544515E-03  0.2617448467890E-02  0.0000000000000E+00 -0.1355743822846E-03
-0.6001277139764E-03  0.2431261039275E-02  0.0000000000000E+00 -0.9971600393049E-04
-0.5529368231827E-03  0.2242374697625E-02  0.0000000000000E+00 -0.6013370067509E-04
-0.5059336481579E-03  0.2056386440163E-02  0.0000000000000E+00 -0.1649502208009E-04
-0.4602865890355E-03  0.1879606819030E-02  0.0000000000000E+00  0.3288106625060E-04
-0.4174668429608E-03  0.1719052539080E-02  0.0000000000000E+00  0.9088848804922E-04
-0.3790009707776E-03  0.1582916788229E-02  0.0000000000000E+00  0.1618465704228E-03
-0.3457458251957E-03  0.1480660733299E-02  0.0000000000000E+00  0.2521762283740E-03
-0.3195378982800E-03  0.1422574128885E-02  0.0000000000000E+00  0.3710807421574E-03
-0.2948444180690E-03  0.1417160357660E-02  0.0000000000000E+00  0.5375059129117E-03
-0.2894700648335E-03  0.1474773496957E-02  0.0000000000000E+00  0.7531659119164E-03
-0.2042272377332E-03  0.1579599702737E-02  0.0000000000000E+00  0.1191488151911E-02
-0.5108251875613E-04  0.1479956157507E-02  0.0000000000000E+00  0.1189547649853E-02
-0.2219396616981E-02  0.2011608216520E-02  0.0000000000000E+00  0.5840180500988E-03
-0.8406319953523E-03  0.6246649991533E-02  0.0000000000000E+00 -0.1669525988349E-02
-0.1482938671037E-02  0.5502334213429E-02  0.0000000000000E+00  0.4868364773413E-04
-0.1306839684608E-02  0.5305602413959E-02  0.0000000000000E+00 -0.3694840268720E-04
-0.1315959829012E-02  0.5249106457180E-02  0.0000000000000E+00 -0.8969118475703E-05
-0.1301789621538E-02  0.5210848569387E-02  0.0000000000000E+00 -0.1063708812075E-04
-0.1294552630994E-02  0.5177811785582E-02  0.0000000000000E+00 -0.1350067190721E-04
-0.1284986437529E-02  0.5140487892371E-02  0.0000000000000E+00 -0.1778488686733E-04
-0.1274029281468E-02  0.5096461280919E-02  0.0000000000000E+00 -0.2220820080442E-04
-0.1261097316236E-02  0.5044802103138E-02  0.0000000000000E+00 -0.2650729876671E-04
-0.1246260055162E-02  0.4985449861357E-02  0.0000000000000E+00 -0.3056066992428E-04
-0.1229553353619E-02  0.4918626534471E-02  0.0000000000000E+00 -0.3435971096157E-04
-0.1211059652599E-02  0.4844642141518E-02  0.0000000000000E+00 -0.3793579999994E-04
-0.1190850111749E-02  0.4763785692649E-02  0.0000000000000E+00 -0.4133997567532E-04
-0.1168980519349E-02  0.4676279032030E-02  0.0000000000000E+00 -0.4462921472582E-04
-0.1145484958028E-02  0.4582258711373E-02  0.0000000000000E+00 -0.4785901611677E-04
-0.1120376052995E-02  0.4481775800271E-02  0.0000000000000E+00 -0.5107790127107E-04
-0.1093648497389E-02  0.4374806876618E-02  0.0000000000000E+00 -0.5432554782840E-04
-0.1065284286952E-02  0.4261284609102E-02  0.0000000000000E+00 -0.5762177056479E-04
-0.1035261988643E-02  0.4141120694627E-02  0.0000000000000E+00 -0.6096837463422E-04
-0.1003569857788E-02  0.4014272922683E-02  0.0000000000000E+00 -0.6433236476494E-04
-0.9702265979760E-03  0.3880823223302E-02  0.0000000000000E+00 -0.6762435318754E-04
-0.9353249854685E-03  0.3741150681653E-02  0.0000000000000E+00 -0.7064493081607E-04
-0.8990329441889E-03  0.3596384997652E-02  0.0000000000000E+00 -0.7252447242162E-04
-0.8614790444534E-03  0.3448438192249E-02  0.0000000000000E+00 -0.6962644614639E-04
-0.8223703397685E-03  0.3295913344990E-02  0.0000000000000E+00 -0.5593919476674E-04
-0.7808755038476E-03  0.3133544927203E-02  0.0000000000000E+00 -0.2863517685811E-04
-0.7362273505491E-03  0.2957499309658E-02  0.0000000000000E+00  0.9636343628300E-05
-0.6883233306630E-03  0.2767705790243E-02  0.0000000000000E+00  0.5357246230081E-04
-0.6378289531055E-03  0.2567563264264E-02  0.0000000000000E+00  0.9819407528394E-04
-0.5859966928071E-03  0.2362791385117E-02  0.0000000000000E+00  0.1404514813747E-03
-0.5344186238825E-03  0.2160370318659E-02  0.0000000000000E+00  0.1795955171055E-03
-0.4848461029431E-03  0.1967920229069E-02  0.0000000000000E+00  0.2168614173457E-03
-0.4392410344327E-03  0.1793295563260E-02  0.0000000000000E+00  0.2542168599652E-03
-0.3999543470551E-03  0.1646327562163E-02  0.0000000000000E+00  0.2936180954400E-03
-0.3701489848684E-03  0.1540726607353E-02  0.0000000000000E+00  0.3398686353041E-03
-0.3516201459298E-03  0.1491840929305E-02  0.0000000000000E+00  0.4029618257296E-03
-0.3529803726355E-03  0.1518909058164E-02  0.0000000000000E+00  0.4988092006629E-03
-0.3506207820739E-03  0.1640377503477E-02  0.0000000000000E+00  0.6566220321601E-03
-0.4868606469773E-03  0.1937117549412E-02  0.0000000000000E+00  0.8946195823405E-03
 0.2733661045240E-04  0.2303628805144E-02  0.0000000000000E+00  0.1772449767837E-02
-0.2747519064601E-02  0.3147670173948E-02  0.0000000000000E+00  0.1291378639573E-02
 0.4571625540713E-01 -0.1038143742852E+00  0.0000000000000E+00 -0.2524115591823E+00
 0.8249372647714E-01 -0.1382158494792E+00  0.0000000000000E+00 -0.2677883879766E+00
 0.1173840241380E+00 -0.1707255405974E+00  0.0000000000000E+00 -0.2742744798536E+00
 0.1492966190396E+00 -0.2002595163694E+00  0.0000000000000E+00 -0.2737887506267E+00
 0.1778335525303E+00 -0.2264718302919E+00  0.0000000000000E+00 -0.2683235291939E+00
 0.2029855283997E+00 -0.2493705530065E+00  0.0000000000000E+00 -0.2593462102526E+00
 0.2248434624589E+00 -0.2690684460300E+00  0.0000000000000E+00 -0.2479425432401E+00
 0.2436009721204E+00 -0.2857814640347E+00  0.0000000000000E+00 -0.2352134182387E+00
 0.2595727408232E+00 -0.2998402036200E+00  0.0000000000000E+00 -0.2220823892375E+00
 0.2731186338058E+00 -0.3116142320006E+00  0.0000000000000E+00 -0.2091763191740E+00
 0.2845819348134E+00 -0.3214529575717E+00  0.0000000000000E+00 -0.1969076518166E+00
 0.2942747620274E+00 -0.3296734999360E+00  0.0000000000000E+00 -0.1855551667334E+00
 0.3024811937878E+00 -0.3365641839254E+00  0.0000000000000E+00 -0.1752977708567E+00
 0.3094533138786E+00 -0.3423808999317E+00  0.0000000000000E+00 -0.1662243338942E+00
 0.3154041530022E+00 -0.3473399100452E+00  0.0000000000000E+00 -0.1583637002270E+00
 0.3205043295339E+00 -0.3516144776264E+00  0.0000000000000E+00 -0.1517107953335E+00
 0.3248531423731E+00 -0.3553160491371E+00  0.0000000000000E+00 -0.1462177101367E+00
 0.3284926603193E+00 -0.3584978752422E+00  0.0000000000000E+00 -0.1419475012767E+00
 0.3314852228034E+00 -0.3612194712216E+00  0.0000000000000E+00 -0.1390902574059E+00
 0.3338177863099E+00 -0.3635353814327E+00  0.0000000000000E+00 -0.1375435927050E+00
 0.4280960799401E-01 -0.9966325954902E-01  0.0000000000000E+00 -0.2377606119600E+00
 0.7851833046437E-01 -0.1331008384612E+00  0.0000000000000E+00 -0.2544093114926E+00
 0.1125053310011E+00 -0.1647862439076E+00  0.0000000000000E+00 -0.2629694362408E+00
 0.1438099835451E+00 -0.1938103324682E+00  0.0000000000000E+00 -0.2649309159230E+00
 0.1720347471265E+00 -0.2197998554742E+00  0.0000000000000E+00 -0.2618821217212E+00
 0.1971115948176E+00 -0.2427124462240E+00  0.0000000000000E+00 -0.2551354838489E+00
 0.2190985602712E+00 -0.2626267895268E+00  0.0000000000000E+00 -0.2457097277987E+00
 0.2381517131479E+00 -0.2797182699591E+00  0.0000000000000E+00 -0.2346183000351E+00
 0.2545347025001E+00 -0.2942650084813E+00  0.0000000000000E+00 -0.2227341684616E+00
 0.2685599433622E+00 -0.3065891544583E+00  0.0000000000000E+00 -0.2106913910453E+00
 0.2805365889391E+00 -0.3170066454650E+00  0.0000000000000E+00 -0.1989357526298E+00
 0.2907538444535E+00 -0.3258120118536E+00  0.0000000000000E+00 -0.1877848792251E+00
 0.2994800883250E+00 -0.3332783584164E+00  0.0000000000000E+00 -0.1774572896640E+00
 0.3069582264837E+00 -0.3396529989289E+00  0.0000000000000E+00 -0.1680835756451E+00
 0.3133984908876E+00 -0.3451504703993E+00  0.0000000000000E+00 -0.1597292744751E+00
 0.3189679616807E+00 -0.3499440960438E+00  0.0000000000000E+00 -0.1524116909513E+00
 0.3237682207882E+00 -0.3541442722715E+00  0.0000000000000E+00 -0.1461280549770E+00
 0.3278596938623E+00 -0.3578205594256E+00  0.0000000000000E+00 -0.1409646186524E+00
 0.3312716496269E+00 -0.3610236626115E+00  0.0000000000000E+00 -0.1370439295176E+00
 0.3339380678117E+00 -0.3637012962691E+00  0.0000000000000E+00 -0.1345361844592E+00
 0.4012628332159E-01 -0.9577807790162E-01  0.0000000000000E+00 -0.2234685477505E+00
 0.7487330488475E-01 -0.1283278341121E+00  0.0000000000000E+00 -0.2413132335408E+00
 0.1080172733916E+00 -0.1592563513085E+00  0.0000000000000E+00 -0.2517572083764E+00
 0.1387151504745E+00 -0.1877576179731E+00  0.0000000000000E+00 -0.2559040369722E+00
 0.1665809170332E+00 -0.2134744387227E+00  0.0000000000000E+00 -0.2550554513983E+00
 0.1915137546213E+00 -0.2363273036664E+00  0.0000000000000E+00 -0.2503547545587E+00
 0.2135417795121E+00 -0.2563649501622E+00  0.0000000000000E+00 -0.2427563067736E+00
 0.2327921546979E+00 -0.2737320331645E+00  0.0000000000000E+00 -0.2331983776228E+00
 0.2494880290076E+00 -0.2886650638253E+00  0.0000000000000E+00 -0.2225034659237E+00
 0.2639013455177E+00 -0.3014455013043E+00  0.0000000000000E+00 -0.2113010505500E+00
 0.2763097916001E+00 -0.3123579991193E+00  0.0000000000000E+00 -0.2000581953671E+00
 0.2869802444930E+00 -0.3216750793402E+00  0.0000000000000E+00 -0.1891223092834E+00
 0.2961651433199E+00 -0.3296543007259E+00  0.0000000000000E+00 -0.1787439250825E+00
 0.3040967188202E+00 -0.3365329346539E+00  0.0000000000000E+00 -0.1690870925201E+00
 0.3109778239952E+00 -0.3425193790574E+00  0.0000000000000E+00 -0.1602478873155E+00
 0.3169702416510E+00 -0.3477820482553E+00  0.0000000000000E+00 -0.1522760815704E+00
 0.3221797438307E+00 -0.3524352154998E+00  0.0000000000000E+00 -0.1452070713270E+00
 0.3266670070660E+00 -0.3565516966738E+00  0.0000000000000E+00 -0.1391380613377E+00
 0.3304573319798E+00 -0.3601689373876E+00  0.0000000000000E+00 -0.1342452078586E+00
 0.3335233203192E+00 -0.3632720342179E+00  0.0000000000000E+00 -0.1308296898852E+00
 0.3764364828508E-01 -0.9211785343248E-01  0.0000000000000E+00 -0.2095087217095E+00
 0.7151867824717E-01 -0.1238646816447E+00  0.0000000000000E+00 -0.2284869422242E+00
 0.1038661955769E+00 -0.1540731976293E+00  0.0000000000000E+00 -0.2406378332415E+00
 0.1339560564104E+00 -0.1820466449404E+00  0.0000000000000E+00 -0.2467611483397E+00
 0.1614240537646E+00 -0.2074460377680E+00  0.0000000000000E+00 -0.2479136660001E+00
 0.1861506222848E+00 -0.2301727216372E+00  0.0000000000000E+00 -0.2450944876720E+00
 0.2081427329709E+00 -0.2502523514125E+00  0.0000000000000E+00 -0.2391869531427E+00
 0.2275035733682E+00 -0.2678043935354E+00  0.0000000000000E+00 -0.2310615424176E+00
 0.2444234062132E+00 -0.2830315837284E+00  0.0000000000000E+00 -0.2214933622728E+00
 0.2591399351798E+00 -0.2961808198810E+00  0.0000000000000E+00 -0.2111005909774E+00
 0.2719025396017E+00 -0.3075084608944E+00  0.0000000000000E+00 -0.2003619690349E+00
 0.2829566716303E+00 -0.3172657856981E+00  0.0000000000000E+00 -0.1896463715899E+00
 0.2925385414051E+00 -0.3256944617978E+00  0.0000000000000E+00 -0.1792296651482E+00
 0.3008681568792E+00 -0.3330200957212E+00  0.0000000000000E+00 -0.1693038581239E+00
 0.3081392675855E+00 -0.3394425255695E+00  0.0000000000000E+00 -0.1599945920561E+00
 0.3145080203725E+00 -0.3451248837498E+00  0.0000000000000E+00 -0.1513839724547E+00
 0.3200805314628E+00 -0.3501821419661E+00  0.0000000000000E+00 -0.1435429629566E+00
 0.3249215278927E+00 -0.3546890460688E+00  0.0000000000000E+00 -0.1366022588579E+00
 0.3290695750694E+00 -0.3586942722695E+00  0.0000000000000E+00 -0.1307815522740E+00
 0.3325444979523E+00 -0.3622267630897E+00  0.0000000000000E+00 -0.1264329289775E+00
 0.3534304079138E-01 -0.8866041744238E-01  0.0000000000000E+00 -0.1958383807172E+00
 0.6841603512060E-01 -0.1196679562926E+00  0.0000000000000E+00 -0.2159097029463E+00
 0.1000048255065E+00 -0.1491888374129E+00  0.0000000000000E+00 -0.2296231330322E+00
 0.1294844515392E+00 -0.1766267858243E+00  0.0000000000000E+00 -0.2375420866009E+00
 0.1565205709714E+00 -0.2016704181306E+00  0.0000000000000E+00 -0.2405221848382E+00
 0.1809861802617E+00 -0.2242119199902E+00  0.0000000000000E+00 -0.2394345235352E+00
 0.2028738513587E+00 -0.2442611845971E+00  0.0000000000000E+00 -0.2350926062174E+00
 0.2222676641525E+00 -0.2619172095235E+00  0.0000000000000E+00 -0.2283035583545E+00
 0.2393307126728E+00 -0.2773548052581E+00  0.0000000000000E+00 -0.2197981868107E+00
 0.2542716633840E+00 -0.2907914716862E+00  0.0000000000000E+00 -0.2101793671979E+00
 0.2673146362692E+00 -0.3024582198315E+00  0.0000000000000E+00 -0.1999303868819E+00
 0.2786847986980E+00 -0.3125861281981E+00  0.0000000000000E+00 -0.1894347451822E+00
 0.2886020803618E+00 -0.3214008196417E+00  0.0000000000000E+00 -0.1789882509522E+00
 0.2972735684205E+00 -0.3291153077436E+00  0.0000000000000E+00 -0.1688072775853E+00
 0.3048832693648E+00 -0.3359200088379E+00  0.0000000000000E+00 -0.1590453127155E+00
 0.3115812005823E+00 -0.3419721497226E+00  0.0000000000000E+00 -0.1498161681551E+00
 0.3174740844239E+00 -0.3473867427272E+00  0.0000000000000E+00 -0.1412282410611E+00
 0.3226340194477E+00 -0.3522447633962E+00  0.0000000000000E+00 -0.1334453049255E+00
 0.3271167258422E+00 -0.3566102677699E+00  0.0000000000000E+00 -0.1267151633600E+00
 0.3309814110499E+00 -0.3605500364953E+00  0.0000000000000E+00 -0.1213985689086E+00
 0.3320899163296E-01 -0.8538577651839E-01  0.0000000000000E+00 -0.1824287302186E+00
 0.6553295470776E-01 -0.1157023486793E+00  0.0000000000000E+00 -0.2035656914779E+00
 0.9639173396323E-01 -0.1445594584469E+00  0.0000000000000E+00 -0.2187233550412E+00
 0.1252579251287E+00 -0.1714543663251E+00  0.0000000000000E+00 -0.2282834978404E+00
 0.1518320187737E+00 -0.1961080083613E+00  0.0000000000000E+00 -0.2329377754237E+00
 0.1759881546937E+00 -0.2184120805493E+00  0.0000000000000E+00 -0.2334458186874E+00
 0.1977101663616E+00 -0.2383662323071E+00  0.0000000000000E+00 -0.2305537625161E+00
 0.2170671371845E+00 -0.2560532596045E+00  0.0000000000000E+00 -0.2250101793139E+00
 0.2341997484836E+00 -0.2716247877302E+00  0.0000000000000E+00 -0.2175042297922E+00
 0.2492919153480E+00 -0.2852731812662E+00  0.0000000000000E+00 -0.2086210369309E+00
 0.2625452724180E+00 -0.2972068095672E+00  0.0000000000000E+00 -0.1988432626571E+00
 0.2741659850753E+00 -0.3076377479902E+00  0.0000000000000E+00 -0.1885637220727E+00
 0.2843580592313E+00 -0.3167758059359E+00  0.0000000000000E+00 -0.1780939407656E+00
 0.2933155823462E+00 -0.3248211647290E+00  0.0000000000000E+00 -0.1676715980691E+00
 0.3012127313455E+00 -0.3319545580672E+00  0.0000000000000E+00 -0.1574762003321E+00
 0.3081938800060E+00 -0.3383274893861E+00  0.0000000000000E+00 -0.1476524241382E+00
 0.3143670429105E+00 -0.3440557641064E+00  0.0000000000000E+00 -0.1383434686894E+00
 0.3198125960701E+00 -0.3492276973334E+00  0.0000000000000E+00 -0.1297413254215E+00
 0.3246019968438E+00 -0.3539220912261E+00  0.0000000000000E+00 -0.1221096346960E+00
 0.3288223286977E+00 -0.3582322908615E+00  0.0000000000000E+00 -0.1157977398485E+00
 0.3122817186891E-01 -0.8227672066702E-01  0.0000000000000E+00 -0.1692585563043E+00
 0.6284151079436E-01 -0.1119369979995E+00  0.0000000000000E+00 -0.1914437512312E+00
 0.9299104939048E-01 -0.1401471852845E+00  0.0000000000000E+00 -0.2079484361254E+00
 0.1212393033758E+00 -0.1664907579816E+00  0.0000000000000E+00 -0.2190175260243E+00
 0.1473243680600E+00 -0.1907238537158E+00  0.0000000000000E+00 -0.2252105432916E+00
 0.1711277389331E+00 -0.2127438131002E+00  0.0000000000000E+00 -0.2271911130436E+00
 0.1926290820395E+00 -0.2325446711363E+00  0.0000000000000E+00 -0.2256422934690E+00
 0.2118860186617E+00 -0.2501965910476E+00  0.0000000000000E+00 -0.2212587356059E+00
 0.2290207568182E+00 -0.2658319727317E+00  0.0000000000000E+00 -0.2146906283115E+00
 0.2441960663741E+00 -0.2796216137761E+00  0.0000000000000E+00 -0.2065038975866E+00
 0.2575935808169E+00 -0.2917536729674E+00  0.0000000000000E+00 -0.1971768924197E+00
 0.2694018446410E+00 -0.3024225255649E+00  0.0000000000000E+00 -0.1871077151614E+00
 0.2798096220535E+00 -0.3118227432699E+00  0.0000000000000E+00 -0.1766201747449E+00
 0.2889983537598E+00 -0.3201418965724E+00  0.0000000000000E+00 -0.1659705033154E+00
 0.2971328053482E+00 -0.3275512908257E+00  0.0000000000000E+00 -0.1553621382161E+00
 0.3043524050858E+00 -0.3341973093618E+00  0.0000000000000E+00 -0.1449682533766E+00
 0.3107667658513E+00 -0.3401968967872E+00  0.0000000000000E+00 -0.1349625509814E+00
 0.3164639271843E+00 -0.3456453954282E+00  0.0000000000000E+00 -0.1255596140942E+00
 0.3215277895954E+00 -0.3506333802592E+00  0.0000000000000E+00 -0.1170312357186E+00
 0.3260621612012E+00 -0.3552701924432E+00  0.0000000000000E+00 -0.1097076036349E+00
 0.2938909823440E-01 -0.7931821084598E-01  0.0000000000000E+00 -0.1563133938759E+00
 0.6031768733050E-01 -0.1083452327675E+00  0.0000000000000E+00 -0.1795365642512E+00
 0.8977173949351E-01 -0.1359190562101E+00  0.0000000000000E+00 -0.1973080220118E+00
 0.1173961204949E+00 -0.1617021531256E+00  0.0000000000000E+00 -0.2097725096934E+00
 0.1429675804661E+00 -0.1854870052277E+00  0.0000000000000E+00 -0.2173845461311E+00
 0.1663792867786E+00 -0.2071809360912E+00  0.0000000000000E+00 -0.2207261257688E+00
 0.1876103158791E+00 -0.2267759809651E+00  0.0000000000000E+00 -0.2204225654968E+00
 0.2067098062880E+00 -0.2443327025945E+00  0.0000000000000E+00 -0.2171192732926E+00
 0.2237847816028E+00 -0.2599675672835E+00  0.0000000000000E+00 -0.2114301270535E+00
 0.2389799136216E+00 -0.2738328261248E+00  0.0000000000000E+00 -0.2039012042484E+00
 0.2524590695756E+00 -0.2860986137052E+00  0.0000000000000E+00 -0.1950039627790E+00
 0.2643945971697E+00 -0.2969429632910E+00  0.0000000000000E+00 -0.1851387271597E+00
 0.2749609202066E+00 -0.3065460216012E+00  0.0000000000000E+00 -0.1746387232820E+00
 0.2843274861317E+00 -0.3150832927594E+00  0.0000000000000E+00 -0.1637761078563E+00
 0.2926502833317E+00 -0.3227171876525E+00  0.0000000000000E+00 -0.1527756532544E+00
 0.3000643975027E+00 -0.3295895212205E+00  0.0000000000000E+00 -0.1418357458103E+00
 0.3066809286719E+00 -0.3358183466509E+00  0.0000000000000E+00 -0.1311557894558E+00
 0.3125942650042E+00 -0.3415049052218E+00  0.0000000000000E+00 -0.1209680796552E+00
 0.3178970847848E+00 -0.3467481601800E+00  0.0000000000000E+00 -0.1115482751027E+00
 0.3227008543500E+00 -0.3516647998724E+00  0.0000000000000E+00 -0.1032071898975E+00
 0.2768183866187E-01 -0.7649711095759E-01  0.0000000000000E+00 -0.1435842279273E+00
 0.5794082815341E-01 -0.1049039590138E+00  0.0000000000000E+00 -0.1678399347988E+00
 0.8670700415798E-01 -0.1318464877442E+00  0.0000000000000E+00 -0.1868114587429E+00
 0.1137000940221E+00 -0.1570590020413E+00  0.0000000000000E+00 -0.2005734746386E+00
 0.1387352404772E+00 -0.1803701959890E+00  0.0000000000000E+00 -0.2094986025059E+00
 0.1617200870342E+00 -0.2017002269398E+00  0.0000000000000E+00 -0.2141004057243E+00
 0.1826358263141E+00 -0.2210418915228E+00  0.0000000000000E+00 -0.2149523884416E+00
 0.2015255730479E+00 -0.2384486560826E+00  0.0000000000000E+00 -0.2126553915433E+00
 0.2184839057875E+00 -0.2540238005801E+00  0.0000000000000E+00 -0.2077896800643E+00
 0.2336399861902E+00 -0.2679035941834E+00  0.0000000000000E+00 -0.2008814231207E+00
 0.2471419235973E+00 -0.2802421158850E+00  0.0000000000000E+00 -0.1923934456373E+00
 0.2591472880209E+00 -0.2912024208562E+00  0.0000000000000E+00 -0.1827259415281E+00
 0.2698171873147E+00 -0.3009511833265E+00  0.0000000000000E+00 -0.1722190819807E+00
 0.2793098753267E+00 -0.3096525604024E+00  0.0000000000000E+00 -0.1611583325317E+00
 0.2877732329009E+00 -0.3174606696754E+00  0.0000000000000E+00 -0.1497868467466E+00
 0.2953384203129E+00 -0.3245131535601E+00  0.0000000000000E+00 -0.1383244963479E+00
 0.3021176443756E+00 -0.3309288520059E+00  0.0000000000000E+00 -0.1269917319658E+00
 0.3082101423866E+00 -0.3368135448478E+00  0.0000000000000E+00 -0.1160346343288E+00
 0.3137141210380E+00 -0.3422715386023E+00  0.0000000000000E+00 -0.1057310278620E+00
 0.3187422582740E+00 -0.3474207057448E+00  0.0000000000000E+00 -0.9637660413577E-01
 0.2609778152965E-01 -0.7380193514518E-01  0.0000000000000E+00 -0.1310665736282E+00
 0.5569319598170E-01 -0.1015932267647E+00  0.0000000000000E+00 -0.1563522120176E+00
 0.8377375842261E-01 -0.1279047532774E+00  0.0000000000000E+00 -0.1764678007200E+00
 0.1101266833538E+00 -0.1525355899788E+00  0.0000000000000E+00 -0.1914426025258E+00
 0.1346042503664E+00 -0.1753495339635E+00  0.0000000000000E+00 -0.2015869839125E+00
 0.1571301900915E+00 -0.1962812590261E+00  0.0000000000000E+00 -0.2073580841046E+00
 0.1776897652719E+00 -0.2153263386824E+00  0.0000000000000E+00 -0.2092837583669E+00
 0.1963220463949E+00 -0.2325331685559E+00  0.0000000000000E+00 -0.2079249081893E+00
 0.2131114341959E+00 -0.2479941196552E+00  0.0000000000000E+00 -0.2038309141692E+00
 0.2281737785487E+00 -0.2618316610068E+00  0.0000000000000E+00 -0.1975084259847E+00
 0.2416432277797E+00 -0.2741855808602E+00  0.0000000000000E+00 -0.1894105172585E+00
 0.2536639448348E+00 -0.2852052826740E+00  0.0000000000000E+00 -0.1799354264884E+00
 0.2643847818165E+00 -0.2950449725999E+00  0.0000000000000E+00 -0.1694280797294E+00
 0.2739536305332E+00 -0.3038582323627E+00  0.0000000000000E+00 -0.1581846561806E+00
 0.2825108729682E+00 -0.3117914471928E+00  0.0000000000000E+00 -0.1464635660856E+00
 0.2901839804035E+00 -0.3189783078212E+00  0.0000000000000E+00 -0.1345023468902E+00
 0.2970857530508E+00 -0.3255379645660E+00  0.0000000000000E+00 -0.1225382032308E+00
 0.3033188984480E+00 -0.3315794428516E+00  0.0000000000000E+00 -0.1108278797660E+00
 0.3089847693008E+00 -0.3372101439287E+00  0.0000000000000E+00 -0.9965122350401E-01
 0.3141933737208E+00 -0.3425454920854E+00  0.0000000000000E+00 -0.8929533077484E-01
 0.2462941882216E-01 -0.7122261816473E-01  0.0000000000000E+00 -0.1187596476410E+00
 0.5355958196328E-01 -0.9839583292838E-01  0.0000000000000E+00 -0.1450737914111E+00
 0.8095217701559E-01 -0.1240725319442E+00  0.0000000000000E+00 -0.1662857941420E+00
 0.1066546899289E+00 -0.1481096402061E+00  0.0000000000000E+00 -0.1823996063267E+00
 0.1305545448968E+00 -0.1704042229111E+00  0.0000000000000E+00 -0.1936799938235E+00
 0.1525922352725E+00 -0.1909062328168E+00  0.0000000000000E+00 -0.2005384958949E+00
 0.1727584091917E+00 -0.2096154031504E+00  0.0000000000000E+00 -0.2034634661482E+00
 0.1910896383639E+00 -0.2265766509718E+00  0.0000000000000E+00 -0.2029803894649E+00
 0.2076620021130E+00 -0.2418733089296E+00  0.0000000000000E+00 -0.1996105008428E+00
 0.2225798984747E+00 -0.2556158956562E+00  0.0000000000000E+00 -0.1938416518615E+00
 0.2359651084151E+00 -0.2679314783438E+00  0.0000000000000E+00 -0.1861165138519E+00
 0.2479496730423E+00 -0.2789570599386E+00  0.0000000000000E+00 -0.1768299432434E+00
 0.2586712178881E+00 -0.2888353651167E+00  0.0000000000000E+00 -0.1663296582838E+00
 0.2682680622820E+00 -0.2977101445014E+00  0.0000000000000E+00 -0.1549200263840E+00
 0.2768735952715E+00 -0.3057205195573E+00  0.0000000000000E+00 -0.1428715872621E+00
 0.2846116855409E+00 -0.3129962986266E+00  0.0000000000000E+00 -0.1304358371352E+00
 0.2915951682076E+00 -0.3196563969450E+00  0.0000000000000E+00 -0.1178628527558E+00
 0.2979290973166E+00 -0.3258119963597E+00  0.0000000000000E+00 -0.1054174247083E+00
 0.3037165714233E+00 -0.3315722552496E+00  0.0000000000000E+00 -0.9338175240175E-01
 0.3090636518140E+00 -0.3370490273012E+00  0.0000000000000E+00 -0.8204125215871E-01
 0.2327016352285E-01 -0.6875031408617E-01  0.0000000000000E+00 -0.1066656878613E+00
 0.5152697372802E-01 -0.9529698208959E-01  0.0000000000000E+00 -0.1340067283425E+00
 0.7822530791389E-01 -0.1203315202114E+00  0.0000000000000E+00 -0.1562738856622E+00
 0.1032659146433E+00 -0.1437619730239E+00  0.0000000000000E+00 -0.1734620575612E+00
 0.1265688424220E+00 -0.1655163153488E+00  0.0000000000000E+00 -0.1858044596098E+00
 0.1480912971286E+00 -0.1855598256858E+00  0.0000000000000E+00 -0.1936767039911E+00
 0.1678300916581E+00 -0.2038972477876E+00  0.0000000000000E+00 -0.1975335972526E+00
 0.1858204571709E+00 -0.2205712263527E+00  0.0000000000000E+00 -0.1978695750071E+00
 0.2021316480607E+00 -0.2356575702721E+00  0.0000000000000E+00 -0.1951804482167E+00
 0.2168581710672E+00 -0.2492564044699E+00  0.0000000000000E+00 -0.1899362332630E+00
 0.2301108357382E+00 -0.2614834546180E+00  0.0000000000000E+00 -0.1825689011851E+00
 0.2420107336530E+00 -0.2724644704292E+00  0.0000000000000E+00 -0.1734688133355E+00
 0.2526852165360E+00 -0.2823316156610E+00  0.0000000000000E+00 -0.1629847258513E+00
 0.2622637367016E+00 -0.2912194797570E+00  0.0000000000000E+00 -0.1514267969061E+00
 0.2708730808786E+00 -0.2992602788632E+00  0.0000000000000E+00 -0.1390746885539E+00
 0.2786334830688E+00 -0.3065798849632E+00  0.0000000000000E+00 -0.1261903770442E+00
 0.2856572520115E+00 -0.3132964084768E+00  0.0000000000000E+00 -0.1130333141671E+00
 0.2920509014100E+00 -0.3195222966243E+00  0.0000000000000E+00 -0.9987394217074E-01
 0.2979186448396E+00 -0.3253678151589E+00  0.0000000000000E+00 -0.8699662043181E-01
 0.3033633427591E+00 -0.3309420276797E+00  0.0000000000000E+00 -0.7468937433334E-01
 0.2201418551154E-01 -0.6637721750091E-01  0.0000000000000E+00 -0.9478936315087E-01
 0.4958426369804E-01 -0.9228398764635E-01  0.0000000000000E+00 -0.1231544058566E+00
 0.7557873176480E-01 -0.1166660903051E+00  0.0000000000000E+00 -0.1464402204330E+00
 0.9994484980474E-01 -0.1394761993545E+00  0.0000000000000E+00 -0.1646456507249E+00
 0.1226324115610E+00 -0.1606704822941E+00  0.0000000000000E+00 -0.1779841386957E+00
 0.1436147305370E+00 -0.1802290410561E+00  0.0000000000000E+00 -0.1868039371542E+00
 0.1628951197956E+00 -0.1981620392906E+00  0.0000000000000E+00 -0.1915319490702E+00
 0.1805082872691E+00 -0.2145107158895E+00  0.0000000000000E+00 -0.1926357310155E+00
 0.1965178426722E+00 -0.2293445581529E+00  0.0000000000000E+00 -0.1905883464840E+00
 0.2110096941662E+00 -0.2427545920058E+00  0.0000000000000E+00 -0.1858431108415E+00
 0.2240848838937E+00 -0.2548463960696E+00  0.0000000000000E+00 -0.1788212681915E+00
 0.2358545957856E+00 -0.2657354912889E+00  0.0000000000000E+00 -0.1699078316602E+00
 0.2464367568132E+00 -0.2755443052703E+00  0.0000000000000E+00 -0.1594510471937E+00
 0.2559525531347E+00 -0.2843988381323E+00  0.0000000000000E+00 -0.1477646443632E+00
 0.2645224463114E+00 -0.2924246480381E+00  0.0000000000000E+00 -0.1351346026515E+00
 0.2722629107737E+00 -0.2997435185840E+00  0.0000000000000E+00 -0.1218301865134E+00
 0.2792851733791E+00 -0.3064721757710E+00  0.0000000000000E+00 -0.1081170751536E+00
 0.2856964784213E+00 -0.3127235692237E+00  0.0000000000000E+00 -0.9426907347415E-01
 0.2916018813881E+00 -0.3186087377304E+00  0.0000000000000E+00 -0.8057182310110E-01
 0.2971027601457E+00 -0.3242355006838E+00  0.0000000000000E+00 -0.6731726429546E-01
 0.2085627015389E-01 -0.6409640157303E-01  0.0000000000000E+00 -0.8313724879372E-01
 0.4772199189721E-01 -0.8934600337677E-01  0.0000000000000E+00 -0.1125212462023E+00
 0.7300025983577E-01 -0.1130629824102E+00  0.0000000000000E+00 -0.1367926311129E+00
 0.9667839950931E-01 -0.1352384387286E+00  0.0000000000000E+00 -0.1559644141937E+00
 0.1187328504746E+00 -0.1558537919930E+00  0.0000000000000E+00 -0.1702400493285E+00
 0.1391520143487E+00 -0.1749030530002E+00  0.0000000000000E+00 -0.1799479499710E+00
 0.1579456773070E+00 -0.1924018534053E+00  0.0000000000000E+00 -0.1854923724465E+00
 0.1751485450626E+00 -0.2083905976055E+00  0.0000000000000E+00 -0.1873179360660E+00
 0.1908194852396E+00 -0.2229333792168E+00  0.0000000000000E+00 -0.1858775639990E+00
 0.2050368595907E+00 -0.2361131845557E+00  0.0000000000000E+00 -0.1816091228394E+00
 0.2178929626235E+00 -0.2480264614389E+00  0.0000000000000E+00 -0.1749233165197E+00
 0.2294899736097E+00 -0.2587793939504E+00  0.0000000000000E+00 -0.1661991824785E+00
 0.2399371265334E+00 -0.2684853871162E+00  0.0000000000000E+00 -0.1557831185020E+00
 0.2493478307845E+00 -0.2772623166679E+00  0.0000000000000E+00 -0.1439904213156E+00
 0.2578363947341E+00 -0.2852292260818E+00  0.0000000000000E+00 -0.1311108353083E+00
 0.2655153340462E+00 -0.2925035801090E+00  0.0000000000000E+00 -0.1174180339833E+00
 0.2724942421757E+00 -0.2992001331921E+00  0.0000000000000E+00 -0.1031811001829E+00
 0.2788804473566E+00 -0.3054316397145E+00  0.0000000000000E+00 -0.8867501078641E-01
 0.2847796926646E+00 -0.3113096606169E+00  0.0000000000000E+00 -0.7418537730847E-01
 0.2902935549892E+00 -0.3169422327258E+00  0.0000000000000E+00 -0.6000727472585E-01
 0.1979169902804E-01 -0.6190168219608E-01  0.0000000000000E+00 -0.7171739571396E-01
 0.4593212382245E-01 -0.8647379183901E-01  0.0000000000000E+00 -0.1021124816523E+00
 0.7047967009507E-01 -0.1095110366592E+00  0.0000000000000E+00 -0.1273386395455E+00
 0.9345563105148E-01 -0.1310370696605E+00  0.0000000000000E+00 -0.1474308953349E+00
 0.1148598849416E+00 -0.1510555087723E+00  0.0000000000000E+00 -0.1625907563905E+00
 0.1346946024977E+00 -0.1695730593711E+00  0.0000000000000E+00 -0.1731333348448E+00
 0.1529757252261E+00 -0.1866105785664E+00  0.0000000000000E+00 -0.1794450675739E+00
 0.1697382235523E+00 -0.2022079542092E+00  0.0000000000000E+00 -0.1819513285809E+00
 0.1850368828278E+00 -0.2164245742820E+00  0.0000000000000E+00 -0.1810874186872E+00
 0.1989433549651E+00 -0.2293362338302E+00  0.0000000000000E+00 -0.1772770860868E+00
 0.2115420325690E+00 -0.2410310972677E+00  0.0000000000000E+00 -0.1709208532700E+00
 0.2229268533223E+00 -0.2516067690818E+00  0.0000000000000E+00 -0.1623913575451E+00
 0.2331989689008E+00 -0.2611682290269E+00  0.0000000000000E+00 -0.1520320248561E+00
 0.2424643912352E+00 -0.2698255867531E+00  0.0000000000000E+00 -0.1401579540188E+00
 0.2508313527359E+00 -0.2776914204967E+00  0.0000000000000E+00 -0.1270603814808E+00
 0.2584081504952E+00 -0.2848785822623E+00  0.0000000000000E+00 -0.1130148305028E+00
 0.2653021917885E+00 -0.2914992594511E+00  0.0000000000000E+00 -0.9829126535949E-01
 0.2716202810092E+00 -0.2976653409840E+00  0.0000000000000E+00 -0.8316374905748E-01
 0.2774686720576E+00 -0.3034886273939E+00  0.0000000000000E+00 -0.6791619953488E-01
 0.2829502761894E+00 -0.3090783253201E+00  0.0000000000000E+00 -0.5284466464854E-01
 0.1881614570932E-01 -0.5978749462501E-01  0.0000000000000E+00 -0.6053893639161E-01
 0.4420785065543E-01 -0.8365951260975E-01  0.0000000000000E+00 -0.9193393738248E-01
 0.6800846590287E-01 -0.1060009449303E+00  0.0000000000000E+00 -0.1180854353121E+00
 0.9026754089492E-01 -0.1268624919972E+00  0.0000000000000E+00 -0.1390562954542E+00
 0.1110051694412E+00 -0.1462668925307E+00  0.0000000000000E+00 -0.1550525951255E+00
 0.1302357675431E+00 -0.1642321251435E+00  0.0000000000000E+00 -0.1663817728709E+00
 0.1479808863169E+00 -0.1807838009818E+00  0.0000000000000E+00 -0.1734168243212E+00
 0.1642758132365E+00 -0.1959613949827E+00  0.0000000000000E+00 -0.1765673077542E+00
 0.1791717005095E+00 -0.2098200692421E+00  0.0000000000000E+00 -0.1762533154297E+00
 0.1927341348354E+00 -0.2224290878185E+00  0.0000000000000E+00 -0.1728858556326E+00
 0.2050402912193E+00 -0.2338690221576E+00  0.0000000000000E+00 -0.1668557696840E+00
 0.2161764935699E+00 -0.2442295236255E+00  0.0000000000000E+00 -0.1585290569691E+00
 0.2262363037327E+00 -0.2536076298352E+00  0.0000000000000E+00 -0.1482452641716E+00
 0.2353186115235E+00 -0.2621059416361E+00  0.0000000000000E+00 -0.1363177796491E+00
 0.2435255665922E+00 -0.2698305385580E+00  0.0000000000000E+00 -0.1230373507352E+00
 0.2509609366768E+00 -0.2768893137401E+00  0.0000000000000E+00 -0.1086791071423E+00
 0.2577293829362E+00 -0.2833912811467E+00  0.0000000000000E+00 -0.9351165350023E-01
 0.2639365793205E+00 -0.2894467915529E+00  0.0000000000000E+00 -0.7780615290725E-01
 0.2696889841943E+00 -0.2951674803611E+00  0.0000000000000E+00 -0.6184291626710E-01
 0.2750913124333E+00 -0.3006640422744E+00  0.0000000000000E+00 -0.4591609570979E-01
 0.1792558932391E-01 -0.5774878838104E-01  0.0000000000000E+00 -0.4961175727553E-01
 0.4254341386333E-01 -0.8089653500775E-01  0.0000000000000E+00 -0.8199185703581E-01
 0.6557966020078E-01 -0.1025250278684E+00  0.0000000000000E+00 -0.1090398644414E+00
 0.8710684065985E-01 -0.1227069088697E+00  0.0000000000000E+00 -0.1308505881463E+00
 0.1071620996930E+00 -0.1414810092271E+00  0.0000000000000E+00 -0.1476398643288E+00
 0.1257704474996E+00 -0.1588750284880E+00  0.0000000000000E+00 -0.1597122510918E+00
 0.1429583257340E+00 -0.1749186852764E+00  0.0000000000000E+00 -0.1674312304888E+00
 0.1587612131830E+00 -0.1896509669961E+00  0.0000000000000E+00 -0.1711937071344E+00
 0.1732268971349E+00 -0.2031231105650E+00  0.0000000000000E+00 -0.1714068634024E+00
 0.1864153746602E+00 -0.2153983435808E+00  0.0000000000000E+00 -0.1684703713138E+00
 0.1983971406664E+00 -0.2265501920123E+00  0.0000000000000E+00 -0.1627660094360E+00
 0.2092514067127E+00 -0.2366608580859E+00  0.0000000000000E+00 -0.1546530747712E+00
 0.2190645264598E+00 -0.2458198131388E+00  0.0000000000000E+00 -0.1444665426218E+00
 0.2279284477521E+00 -0.2541223141182E+00  0.0000000000000E+00 -0.1325168362022E+00
 0.2359391566687E+00 -0.2616678359884E+00  0.0000000000000E+00 -0.1190925264471E+00
 0.2431955363392E+00 -0.2685589226467E+00  0.0000000000000E+00 -0.1044664126932E+00
 0.2497989270785E+00 -0.2749007928790E+00  0.0000000000000E+00 -0.8890376236457E-01
 0.2558532341607E+00 -0.2808015569700E+00  0.0000000000000E+00 -0.7267097070105E-01
 0.2614646336947E+00 -0.2863721093015E+00  0.0000000000000E+00 -0.5604274612360E-01
 0.2667394916101E+00 -0.2917243545896E+00  0.0000000000000E+00 -0.3930828792137E-01
 0.1711623977394E-01 -0.5578093538023E-01  0.0000000000000E+00 -0.3894621392696E-01
 0.4093394755928E-01 -0.7817926892229E-01  0.0000000000000E+00 -0.7229274540061E-01
 0.6318757744968E-01 -0.9907702987959E-01  0.0000000000000E+00 -0.1002084092694E+00
 0.8396775607322E-01 -0.1185641217136E+00  0.0000000000000E+00 -0.1228226099203E+00
 0.1033256309968E+00 -0.1366925472505E+00  0.0000000000000E+00 -0.1403649835884E+00
 0.1212950916368E+00 -0.1534981058335E+00  0.0000000000000E+00 -0.1531412445174E+00
 0.1379066247926E+00 -0.1690138481700E+00  0.0000000000000E+00 -0.1615088494534E+00
 0.1531956301566E+00 -0.1832780542117E+00  0.0000000000000E+00 -0.1658549444793E+00
 0.1672066451452E+00 -0.1963381846099E+00  0.0000000000000E+00 -0.1665759778854E+00
 0.1799944060222E+00 -0.2082517810368E+00  0.0000000000000E+00 -0.1640616959767E+00
 0.1916231344432E+00 -0.2190857442047E+00  0.0000000000000E+00 -0.1586855319333E+00
 0.2021653165292E+00 -0.2289152201889E+00  0.0000000000000E+00 -0.1508001770837E+00
 0.2117003789443E+00 -0.2378223928340E+00  0.0000000000000E+00 -0.1407355547819E+00
 0.2203134227628E+00 -0.2458952580902E+00  0.0000000000000E+00 -0.1287981262383E+00
 0.2280941247655E+00 -0.2532265178426E+00  0.0000000000000E+00 -0.1152728897531E+00
 0.2351360877327E+00 -0.2599129373508E+00  0.0000000000000E+00 -0.1004286733448E+00
 0.2415367346138E+00 -0.2660552982818E+00  0.0000000000000E+00 -0.8452568393958E-01
 0.2473975157607E+00 -0.2717587241495E+00  0.0000000000000E+00 -0.6782384115159E-01
 0.2528236544586E+00 -0.2771326180452E+00  0.0000000000000E+00 -0.5059034796773E-01
 0.2579224898084E+00 -0.2822893113964E+00  0.0000000000000E+00 -0.3310658917022E-01
 0.1638447491647E-01 -0.5387964776355E-01  0.0000000000000E+00 -0.2855288214561E-01
 0.3937533556104E-01 -0.7550300872612E-01  0.0000000000000E+00 -0.6284323050535E-01
 0.6082767015899E-01 -0.9565192676566E-01  0.0000000000000E+00 -0.9159716503370E-01
 0.8084583607348E-01 -0.1144293335502E+00  0.0000000000000E+00 -0.1149801298359E+00
 0.9949210047504E-01 -0.1318976358676E+00  0.0000000000000E+00 -0.1332386206771E+00
 0.1168075040589E+00 -0.1480990929614E+00  0.0000000000000E+00 -0.1466828670251E+00
 0.1328256470824E+00 -0.1630692228092E+00  0.0000000000000E+00 -0.1556673691741E+00
 0.1475814652137E+00 -0.1768452624291E+00  0.0000000000000E+00 -0.1605721476383E+00
 0.1611162335913E+00 -0.1894709186181E+00  0.0000000000000E+00 -0.1617849639141E+00
 0.1734796313636E+00 -0.2009982748663E+00  0.0000000000000E+00 -0.1596870406406E+00
 0.1847299002932E+00 -0.2114879163973E+00  0.0000000000000E+00 -0.1546442649200E+00
 0.1949330874614E+00 -0.2210082289112E+00  0.0000000000000E+00 -0.1470029681134E+00
 0.2041618857371E+00 -0.2296343029160E+00  0.0000000000000E+00 -0.1370877464830E+00
 0.2124945709574E+00 -0.2374468858543E+00  0.0000000000000E+00 -0.1252003569453E+00
 0.2200143085592E+00 -0.2445316846298E+00  0.0000000000000E+00 -0.1116211156301E+00
 0.2268089874116E+00 -0.2509792212498E+00  0.0000000000000E+00 -0.9661352737328E-01
 0.2329714906256E+00 -0.2568851745427E+00  0.0000000000000E+00 -0.8043126789138E-01
 0.2386000806416E+00 -0.2623508925465E+00  0.0000000000000E+00 -0.6332627375709E-01
 0.2437982059560E+00 -0.2674833957048E+00  0.0000000000000E+00 -0.4555658081617E-01
 0.2486730871669E+00 -0.2723942627874E+00  0.0000000000000E+00 -0.2739339165578E-01
 0.1572678737160E-01 -0.5204090786466E-01  0.0000000000000E+00 -0.1844235683707E-01
 0.3786408255598E-01 -0.7286379259337E-01  0.0000000000000E+00 -0.5364995121071E-01
 0.5849634991910E-01 -0.9224574901393E-01  0.0000000000000E+00 -0.8321182134229E-01
 0.7773777387929E-01 -0.1102989651184E+00  0.0000000000000E+00 -0.1073299086230E+00
 0.9565905695918E-01 -0.1270936720506E+00  0.0000000000000E+00 -0.1262698010003E+00
 0.1123066903970E+00 -0.1426769697924E+00  0.0000000000000E+00 -0.1403490036007E+00
 0.1277164033655E+00 -0.1570859223180E+00  0.0000000000000E+00 -0.1499217353945E+00
 0.1419221948574E+00 -0.1703562991055E+00  0.0000000000000E+00 -0.1553632695339E+00
 0.1549619615793E+00 -0.1825279723473E+00  0.0000000000000E+00 -0.1570545949589E+00
 0.1668804249875E+00 -0.1936476928213E+00  0.0000000000000E+00 -0.1553697901620E+00
 0.1777300446116E+00 -0.2037699471079E+00  0.0000000000000E+00 -0.1506680611519E+00
 0.1875706298937E+00 -0.2129565745058E+00  0.0000000000000E+00 -0.1432897610798E+00
 0.1964682591852E+00 -0.2212756958844E+00  0.0000000000000E+00 -0.1335540812454E+00
 0.2044943432824E+00 -0.2288007649598E+00  0.0000000000000E+00 -0.1217575814894E+00
 0.2117252868366E+00 -0.2356102280278E+00  0.0000000000000E+00 -0.1081750694062E+00
 0.2182427969376E+00 -0.2417878682719E+00  0.0000000000000E+00 -0.9306366252935E-01
 0.2241345661932E+00 -0.2474235709892E+00  0.0000000000000E+00 -0.7666929479272E-01
 0.2294948986094E+00 -0.2526140833382E+00  0.0000000000000E+00 -0.5923463195795E-01
 0.2344245565810E+00 -0.2574630716505E+00  0.0000000000000E+00 -0.4100719887653E-01
 0.2390292648527E+00 -0.2620799238110E+00  0.0000000000000E+00 -0.2224638402045E-01
 0.1513973863501E-01 -0.5026090459438E-01  0.0000000000000E+00 -0.8625079582446E-02
 0.3639719469561E-01 -0.7025827053457E-01  0.0000000000000E+00 -0.4471945771473E-01
 0.5619082777371E-01 -0.8885541348124E-01  0.0000000000000E+00 -0.7505763924669E-01
 0.7464123475506E-01 -0.1061704767699E+00  0.0000000000000E+00 -0.9987774103872E-01
 0.9182509369431E-01 -0.1222791492037E+00  0.0000000000000E+00 -0.1194659946691E+00
 0.1077927032320E+00 -0.1372318030247E+00  0.0000000000000E+00 -0.1341494204314E+00
 0.1225809112405E+00 -0.1510660972729E+00  0.0000000000000E+00 -0.1442842662287E+00
 0.1362222430130E+00 -0.1638158431990E+00  0.0000000000000E+00 -0.1502431899977E+00
 0.1487510185131E+00 -0.1755169157634E+00  0.0000000000000E+00 -0.1524021849301E+00
 0.1602070165853E+00 -0.1862107758755E+00  0.0000000000000E+00 -0.1511295285248E+00
 0.1706370345312E+00 -0.1959459532601E+00  0.0000000000000E+00 -0.1467786597419E+00
 0.1800947771463E+00 -0.2047778895439E+00  0.0000000000000E+00 -0.1396844570599E+00
 0.1886397690242E+00 -0.2127678047749E+00  0.0000000000000E+00 -0.1301608161795E+00
 0.1963364683594E+00 -0.2199817700358E+00  0.0000000000000E+00 -0.1184988503797E+00
 0.2032542325874E+00 -0.2264906727160E+00  0.0000000000000E+00 -0.1049673131751E+00
 0.2094680903712E+00 -0.2323710372296E+00  0.0000000000000E+00 -0.8981616235227E-01
 0.2150598676510E+00 -0.2377062423560E+00  0.0000000000000E+00 -0.7328265418917E-01
 0.2201191037797E+00 -0.2425875769087E+00  0.0000000000000E+00 -0.5559914542177E-01
 0.2247429298892E+00 -0.2471143353828E+00  0.0000000000000E+00 -0.3700158064487E-01
 0.2290341108390E+00 -0.2513922254964E+00  0.0000000000000E+00 -0.1773670313876E-01
 0.1461991960039E-01 -0.4853597672224E-01  0.0000000000000E+00  0.8887992435740E-03
 0.3497206880732E-01 -0.6768358121328E-01  0.0000000000000E+00 -0.3605813011739E-01
 0.5390896360811E-01 -0.8547856413880E-01  0.0000000000000E+00 -0.6713943026502E-01
 0.7155469134419E-01 -0.1020421978559E+00  0.0000000000000E+00 -0.9262848841242E-01
 0.8798968598192E-01 -0.1174534907017E+00  0.0000000000000E+00 -0.1128331883464E+00
 0.1032664894078E+00 -0.1317645904921E+00  0.0000000000000E+00 -0.1280918597867E+00
 0.1174220534488E+00 -0.1450127916203E+00  0.0000000000000E+00 -0.1387647548706E+00
 0.1304868481174E+00 -0.1572294099135E+00  0.0000000000000E+00 -0.1452238111506E+00
 0.1424913555406E+00 -0.1684460977187E+00  0.0000000000000E+00 -0.1478416603812E+00
 0.1534703615004E+00 -0.1786990048860E+00  0.0000000000000E+00 -0.1469820712682E+00
 0.1634650614312E+00 -0.1880307888945E+00  0.0000000000000E+00 -0.1429936610189E+00
 0.1725231374265E+00 -0.1964905945544E+00  0.0000000000000E+00 -0.1362064426444E+00
 0.1806975791677E+00 -0.2041327718367E+00  0.0000000000000E+00 -0.1269293007803E+00
 0.1880457720459E+00 -0.2110158921385E+00  0.0000000000000E+00 -0.1154478884605E+00
 0.1946297152880E+00 -0.2172029661437E+00  0.0000000000000E+00 -0.1020246384699E+00
 0.2005172433014E+00 -0.2227627254429E+00  0.0000000000000E+00 -0.8690187437435E-01
 0.2057836209198E+00 -0.2277713160598E+00  0.0000000000000E+00 -0.7030753473087E-01
 0.2105127993969E+00 -0.2323136940546E+00  0.0000000000000E+00 -0.5246292886906E-01
 0.2147972998540E+00 -0.2364837356449E+00  0.0000000000000E+00 -0.3359173676400E-01
 0.2187356811761E+00 -0.2403820861316E+00  0.0000000000000E+00 -0.1392787508435E-01
 0.1416391582887E-01 -0.4686256143300E-01  0.0000000000000E+00  0.1008952606625E-01
 0.3358638823654E-01 -0.6513723569348E-01  0.0000000000000E+00 -0.2767211341712E-01
 0.5164912276619E-01 -0.8211342019373E-01  0.0000000000000E+00 -0.5946153684032E-01
 0.6847726550514E-01 -0.9791316268108E-01  0.0000000000000E+00 -0.8558610219364E-01
 0.8415303361850E-01 -0.1126168882247E+00  0.0000000000000E+00 -0.1063759435941E+00
 0.9872973988442E-01 -0.1262771080226E+00  0.0000000000000E+00 -0.1221821220326E+00
 0.1122434360692E+00 -0.1389297984188E+00  0.0000000000000E+00 -0.1333705633565E+00
 0.1247219269930E+00 -0.1506032121512E+00  0.0000000000000E+00 -0.1403141499232E+00
 0.1361915501206E+00 -0.1613245076697E+00  0.0000000000000E+00 -0.1433836373704E+00
 0.1466819997163E+00 -0.1711244558881E+00  0.0000000000000E+00 -0.1429395107490E+00
 0.1562288877933E+00 -0.1800398870967E+00  0.0000000000000E+00 -0.1393265223590E+00
 0.1648739225190E+00 -0.1881137201766E+00  0.0000000000000E+00 -0.1328705161589E+00
 0.1726635532943E+00 -0.1953934455903E+00  0.0000000000000E+00 -0.1238758109701E+00
 0.1796479565665E+00 -0.2019300069951E+00  0.0000000000000E+00 -0.1126228123069E+00
 0.1858814527843E+00 -0.2077782166955E+00  0.0000000000000E+00 -0.9936764146592E-01
 0.1914241602851E+00 -0.2129984796366E+00  0.0000000000000E+00 -0.8434481671675E-01
 0.1963440875688E+00 -0.2176589870833E+00  0.0000000000000E+00 -0.6777263287448E-01
 0.2007187878359E+00 -0.2218375055692E+00  0.0000000000000E+00 -0.4986095759110E-01
 0.2046352668435E+00 -0.2256215064512E+00  0.0000000000000E+00 -0.3082106567704E-01
 0.2081868071848E+00 -0.2291053733889E+00  0.0000000000000E+00 -0.1087467381945E-01
 0.1376827599039E-01 -0.4523714623256E-01  0.0000000000000E+00  0.1896782124879E-01
 0.3223802317500E-01 -0.6261700573673E-01  0.0000000000000E+00 -0.1956726588411E-01
 0.4941003791012E-01 -0.7875862943364E-01  0.0000000000000E+00 -0.5202781216365E-01
 0.6540857529108E-01 -0.9378295152358E-01  0.0000000000000E+00 -0.7875363752402E-01
 0.8031590756944E-01 -0.1077701442240E+00  0.0000000000000E+00 -0.1000974416995E+00
 0.9418474229086E-01 -0.1207717588785E+00  0.0000000000000E+00 -0.1164241355414E+00
 0.1070492473395E+00 -0.1328215160852E+00  0.0000000000000E+00 -0.1281067088983E+00
 0.1189339367102E+00 -0.1439440198454E+00  0.0000000000000E+00 -0.1355204300823E+00
 0.1298606652795E+00 -0.1541616320005E+00  0.0000000000000E+00 -0.1390355063962E+00
 0.1398539054058E+00 -0.1634996458812E+00  0.0000000000000E+00 -0.1390102790699E+00
 0.1489436794209E+00 -0.1719890872065E+00  0.0000000000000E+00 -0.1357865816984E+00
 0.1571657553558E+00 -0.1796667080435E+00  0.0000000000000E+00 -0.1296868515039E+00
 0.1645600313663E+00 -0.1865731485417E+00  0.0000000000000E+00 -0.1210114301236E+00
 0.1711693411071E+00 -0.1927516041763E+00  0.0000000000000E+00 -0.1100359025771E+00
 0.1770400132654E+00 -0.1982483812205E+00  0.0000000000000E+00 -0.9701035786169E-01
 0.1822239394166E+00 -0.2031150423781E+00  0.0000000000000E+00 -0.8216164226751E-01
 0.1867811968153E+00 -0.2074111295013E+00  0.0000000000000E+00 -0.6569839860035E-01
 0.1907821922534E+00 -0.2112064265210E+00  0.0000000000000E+00 -0.4781899639394E-01
 0.1943076745468E+00 -0.2145811766412E+00  0.0000000000000E+00 -0.2872259399671E-01
 0.1974448936140E+00 -0.2176226209258E+00  0.0000000000000E+00 -0.8620039352547E-02
 0.1342948224855E-01 -0.4365622281668E-01  0.0000000000000E+00  0.2751492838408E-01
 0.3092493380038E-01 -0.6012081494097E-01  0.0000000000000E+00 -0.1174912019843E-01
 0.4719067477200E-01 -0.7541312542800E-01  0.0000000000000E+00 -0.4484159901176E-01
 0.6234858648961E-01 -0.8965153614899E-01  0.0000000000000E+00 -0.7213325689133E-01
 0.7647950118330E-01 -0.1029145188395E+00  0.0000000000000E+00 -0.9399951558111E-01
 0.8963423724248E-01 -0.1152514268598E+00  0.0000000000000E+00 -0.1108200156408E+00
 0.1018441187708E+00 -0.1266928068386E+00  0.0000000000000E+00 -0.1229759444774E+00
 0.1131297366093E+00 -0.1372590193784E+00  0.0000000000000E+00 -0.1308461760878E+00
 0.1235081061692E+00 -0.1469673076076E+00  0.0000000000000E+00 -0.1348015286215E+00
 0.1329983300138E+00 -0.1558373721448E+00  0.0000000000000E+00 -0.1351992331802E+00
 0.1416248262762E+00 -0.1638944506493E+00  0.0000000000000E+00 -0.1323791150131E+00
 0.1494174599124E+00 -0.1711691939634E+00  0.0000000000000E+00 -0.1266610081126E+00
 0.1564095806226E+00 -0.1776954192458E+00  0.0000000000000E+00 -0.1183419882428E+00
 0.1626365670883E+00 -0.1835084807028E+00  0.0000000000000E+00 -0.1076934457096E+00
 0.1681364696337E+00 -0.1886459043586E+00  0.0000000000000E+00 -0.9495997592203E-01
 0.1729524721985E+00 -0.1931499333318E+00  0.0000000000000E+00 -0.8036118357180E-01
 0.1771360891973E+00 -0.1970708175415E+00  0.0000000000000E+00 -0.6409635760859E-01
 0.1807499286458E+00 -0.2004696685755E+00  0.0000000000000E+00 -0.4635260104791E-01
 0.1838679595011E+00 -0.2034188983801E+00  0.0000000000000E+00 -0.2731754726940E-01
 0.1865711437744E+00 -0.2059982087436E+00  0.0000000000000E+00 -0.7192978746005E-02
 0.1314392168949E-01 -0.4211624300170E-01  0.0000000000000E+00  0.3572262868865E-01
 0.2964507553402E-01 -0.5764663284484E-01  0.0000000000000E+00 -0.4222863241759E-02
 0.4499010198794E-01 -0.7207598958561E-01  0.0000000000000E+00 -0.3790571218104E-01
 0.5929747026844E-01 -0.8551913211235E-01  0.0000000000000E+00 -0.6572622784387E-01
 0.7264528879768E-01 -0.9805158479727E-01  0.0000000000000E+00 -0.8808267262568E-01
 0.8508128230486E-01 -0.1097193375584E+00  0.0000000000000E+00 -0.1053701164923E+00
 0.9663299321418E-01 -0.1205488625326E+00  0.0000000000000E+00 -0.1179788376179E+00
 0.1073164557866E+00 -0.1305556788652E+00  0.0000000000000E+00 -0.1262923128004E+00
 0.1171434797994E+00 -0.1397515790604E+00  0.0000000000000E+00 -0.1306829477961E+00
 0.1261276452307E+00 -0.1481505518605E+00  0.0000000000000E+00 -0.1315077674713E+00
 0.1342877586338E+00 -0.1557720724979E+00  0.0000000000000E+00 -0.1291054345666E+00
 0.1416478403283E+00 -0.1626407806889E+00  0.0000000000000E+00 -0.1237939957761E+00
 0.1482347280190E+00 -0.1687837360907E+00  0.0000000000000E+00 -0.1158680703968E+00
 0.1540762750545E+00 -0.1742284064076E+00  0.0000000000000E+00 -0.1055956594779E+00
 0.1592020121701E+00 -0.1790033162361E+00  0.0000000000000E+00 -0.9321664762964E-01
 0.1636459827027E+00 -0.1831409691982E+00  0.0000000000000E+00 -0.7894410783039E-01
 0.1674505696468E+00 -0.1866817555813E+00  0.0000000000000E+00 -0.6296854784056E-01
 0.1706700521793E+00 -0.1896775598734E+00  0.0000000000000E+00 -0.4546626111872E-01
 0.1733713526675E+00 -0.1921926228399E+00  0.0000000000000E+00 -0.2661414202338E-01
 0.1756295008029E+00 -0.1942993009742E+00  0.0000000000000E+00 -0.6606845496436E-02
 0.1290785548300E-01 -0.4061357188142E-01  0.0000000000000E+00  0.4358323658064E-01
 0.2839630191846E-01 -0.5519236618398E-01  0.0000000000000E+00  0.3006683460342E-02
 0.4280736007860E-01 -0.6874631199267E-01  0.0000000000000E+00 -0.3122240800084E-01
 0.5625546210754E-01 -0.8138605203403E-01  0.0000000000000E+00 -0.5953290103035E-01
 0.6881488722416E-01 -0.9318308491189E-01  0.0000000000000E+00 -0.8234609790322E-01
 0.8052911934532E-01 -0.1041789227406E+00  0.0000000000000E+00 -0.1000730684425E+00
 0.9142099587597E-01 -0.1143950731990E+00  0.0000000000000E+00 -0.1131138424972E+00
 0.1015013624691E+00 -0.1238416151451E+00  0.0000000000000E+00 -0.1218572684258E+00
 0.1107764550545E+00 -0.1325245559696E+00  0.0000000000000E+00 -0.1266781175032E+00
 0.1192541838313E+00 -0.1404520596551E+00  0.0000000000000E+00 -0.1279339561405E+00
 0.1269477574149E+00 -0.1476378873813E+00  0.0000000000000E+00 -0.1259630334086E+00
 0.1338754489228E+00 -0.1541007997880E+00  0.0000000000000E+00 -0.1210824033233E+00
 0.1400576746401E+00 -0.1598612232219E+00  0.0000000000000E+00 -0.1135851069493E+00
 0.1455147548631E+00 -0.1649387627315E+00  0.0000000000000E+00 -0.1037367189924E+00
 0.1502675228174E+00 -0.1693527919086E+00  0.0000000000000E+00 -0.9177342220158E-01
 0.1543405093827E+00 -0.1731257264983E+00  0.0000000000000E+00 -0.7790272109276E-01
 0.1577664727679E+00 -0.1762876186068E+00  0.0000000000000E+00 -0.6230713492910E-01
 0.1605909786914E+00 -0.1788807347882E+00  0.0000000000000E+00 -0.4515273265891E-01
 0.1628739195207E+00 -0.1809611079014E+00  0.0000000000000E+00 -0.2660651395209E-01
 0.1646853418583E+00 -0.1825945434331E+00  0.0000000000000E+00 -0.6857705719202E-02
 0.1271738685325E-01 -0.3914443986170E-01  0.0000000000000E+00  0.5108955567002E-01
 0.2717626592590E-01 -0.5275574915188E-01  0.0000000000000E+00  0.9935060739798E-02
 0.4064133239541E-01 -0.6542305477793E-01  0.0000000000000E+00 -0.2479335825407E-01
 0.5322272713758E-01 -0.7725256587529E-01  0.0000000000000E+00 -0.5355268191705E-01
 0.6498992719775E-01 -0.8831080008444E-01  0.0000000000000E+00 -0.7678764858388E-01
 0.7598105367187E-01 -0.9863369695525E-01  0.0000000000000E+00 -0.9492580964020E-01
 0.8621331756294E-01 -0.1082369081718E+00  0.0000000000000E+00 -0.1083773719152E+00
 0.9569174537021E-01 -0.1171244730752E+00  0.0000000000000E+00 -0.1175370847625E+00
 0.1044166340330E+00 -0.1252962820651E+00  0.0000000000000E+00 -0.1227826457345E+00
 0.1123900904406E+00 -0.1327545756028E+00  0.0000000000000E+00 -0.1244727263479E+00
 0.1196197715738E+00 -0.1395074831245E+00  0.0000000000000E+00 -0.1229457775283E+00
 0.1261183563308E+00 -0.1455680763567E+00  0.0000000000000E+00 -0.1185185938217E+00
 0.1319000053528E+00 -0.1509503523195E+00  0.0000000000000E+00 -0.1114835493602E+00
 0.1369775830472E+00 -0.1556661691267E+00  0.0000000000000E+00 -0.1021048876872E+00
 0.1413631273721E+00 -0.1597256891303E+00  0.0000000000000E+00 -0.9061630942336E-01
 0.1450713502180E+00 -0.1631409684630E+00  0.0000000000000E+00 -0.7722094389759E-01
 0.1481249606681E+00 -0.1659313259014E+00  0.0000000000000E+00 -0.6209425971758E-01
 0.1505605797687E+00 -0.1681291948318E+00  0.0000000000000E+00 -0.4539264341144E-01
 0.1524313783591E+00 -0.1697826945983E+00  0.0000000000000E+00 -0.2727386441643E-01
 0.1538038008966E+00 -0.1709523656944E+00  0.0000000000000E+00 -0.7922730515018E-02
 0.1256842276523E-01 -0.3770488984926E-01  0.0000000000000E+00  0.5823480625901E-01
 0.2598231496429E-01 -0.5033422824584E-01  0.0000000000000E+00  0.1655816887649E-01
 0.3849061372900E-01 -0.6210491428114E-01  0.0000000000000E+00 -0.1861960590125E-01
 0.5019922887860E-01 -0.7311876571782E-01  0.0000000000000E+00 -0.4778397757424E-01
 0.6117193263464E-01 -0.8343642611026E-01  0.0000000000000E+00 -0.7140382624260E-01
 0.7144034298410E-01 -0.9308714475675E-01  0.0000000000000E+00 -0.8992360368160E-01
 0.8101510802021E-01 -0.1020798078987E+00  0.0000000000000E+00 -0.1037638644854E+00
 0.8989480497536E-01 -0.1104118152231E+00  0.0000000000000E+00 -0.1133255322967E+00
 0.9807343335762E-01 -0.1180766147472E+00  0.0000000000000E+00 -0.1189895561020E+00
 0.1055471821085E+00 -0.1250704437288E+00  0.0000000000000E+00 -0.1211160641512E+00
 0.1123182436685E+00 -0.1313959235042E+00  0.0000000000000E+00 -0.1200441521166E+00
 0.1183939254881E+00 -0.1370606986108E+00  0.0000000000000E+00 -0.1160909785428E+00
 0.1237823952633E+00 -0.1420726420112E+00  0.0000000000000E+00 -0.1095491489373E+00
 0.1284892491951E+00 -0.1464360988550E+00  0.0000000000000E+00 -0.1006827728121E+00
 0.1325177309805E+00 -0.1501520694726E+00  0.0000000000000E+00 -0.8972449223995E-01
 0.1358724871911E+00 -0.1532220515137E+00  0.0000000000000E+00 -0.7687448360451E-01
 0.1385657825602E+00 -0.1556542794940E+00  0.0000000000000E+00 -0.6230218583654E-01
 0.1406251729818E+00 -0.1574712677619E+00  0.0000000000000E+00 -0.4615455399520E-01
 0.1420976812325E+00 -0.1587138326365E+00  0.0000000000000E+00 -0.2858021372912E-01
 0.1430477174581E+00 -0.1594388543169E+00  0.0000000000000E+00 -0.9759541303138E-02
 0.1245662817655E-01 -0.3629071441602E-01  0.0000000000000E+00  0.6501252282232E-01
 0.2481137538037E-01 -0.4792483546034E-01  0.0000000000000E+00  0.2287225969340E-01
 0.3635337386936E-01 -0.5879017729932E-01  0.0000000000000E+00 -0.1270150364029E-01
 0.4718460031987E-01 -0.6898443239112E-01  0.0000000000000E+00 -0.4222411807173E-01
 0.5736220775750E-01 -0.7856145794246E-01  0.0000000000000E+00 -0.6618972765279E-01
 0.6691009622801E-01 -0.8754261733480E-01  0.0000000000000E+00 -0.8506004501962E-01
 0.7583137905259E-01 -0.9592908489049E-01  0.0000000000000E+00 -0.9926584799633E-01
 0.8411755455320E-01 -0.1037110205931E+00  0.0000000000000E+00 -0.1092142283829E+00
 0.9175597651855E-01 -0.1108751151496E+00  0.0000000000000E+00 -0.1152894606576E+00
 0.9873682220724E-01 -0.1174115437630E+00  0.0000000000000E+00 -0.1178532464775E+00
 0.1050569499663E+00 -0.1233175860663E+00  0.0000000000000E+00 -0.1172455568939E+00
 0.1107185976991E+00 -0.1285958005311E+00  0.0000000000000E+00 -0.1137843697483E+00
 0.1157243212222E+00 -0.1332483632097E+00  0.0000000000000E+00 -0.1077633439013E+00
 0.1200727787946E+00 -0.1372724914201E+00  0.0000000000000E+00 -0.9944771079130E-01
 0.1237585471208E+00 -0.1406602121264E+00  0.0000000000000E+00 -0.8907068462416E-01
 0.1267760133979E+00 -0.1434023334899E+00  0.0000000000000E+00 -0.7683118504036E-01
 0.1291265565469E+00 -0.1454956247258E+00  0.0000000000000E+00 -0.6289373605868E-01
 0.1308285219312E+00 -0.1469525876201E+00  0.0000000000000E+00 -0.4739561849969E-01
 0.1319235136741E+00 -0.1478075214732E+00  0.0000000000000E+00 -0.3047528778652E-01
 0.1324757018383E+00 -0.1481156188596E+00  0.0000000000000E+00 -0.1230761552804E-01
 0.1237736915600E-01 -0.3489738426519E-01  0.0000000000000E+00  0.7141639987055E-01
 0.2365982486903E-01 -0.4552405158645E-01  0.0000000000000E+00  0.2887391943714E-01
 0.3422721914890E-01 -0.5547657821465E-01  0.0000000000000E+00 -0.7038633300722E-02
 0.4417802592515E-01 -0.6484891606081E-01  0.0000000000000E+00 -0.3686925153500E-01
 0.5356174404836E-01 -0.7368709662375E-01  0.0000000000000E+00 -0.6113897792177E-01
 0.6239319529050E-01 -0.8200325429559E-01  0.0000000000000E+00 -0.8032706018553E-01
 0.7066693006531E-01 -0.8978984883130E-01  0.0000000000000E+00 -0.9487400753678E-01
 0.7836674350095E-01 -0.9702920697521E-01  0.0000000000000E+00 -0.1051927639733E+00
 0.8547301123402E-01 -0.1037009644137E+00  0.0000000000000E+00 -0.1116707448432E+00
 0.9196982481823E-01 -0.1097891949172E+00  0.0000000000000E+00 -0.1146710960046E+00
 0.9784887640269E-01 -0.1152860381246E+00  0.0000000000000E+00 -0.1145346488029E+00
 0.1031077149399E+00 -0.1201893838178E+00  0.0000000000000E+00 -0.1115804189157E+00
 0.1077438014572E+00 -0.1244962756670E+00  0.0000000000000E+00 -0.1061037729614E+00
 0.1117493705914E+00 -0.1281973812599E+00  0.0000000000000E+00 -0.9837230516746E-01
 0.1151106342143E+00 -0.1312761349786E+00  0.0000000000000E+00 -0.8862164364656E-01
 0.1178115855998E+00 -0.1337126050698E+00  0.0000000000000E+00 -0.7705153364220E-01
 0.1198421338315E+00 -0.1354915911816E+00  0.0000000000000E+00 -0.6382294269143E-01
 0.1212110469203E+00 -0.1366152790652E+00  0.0000000000000E+00 -0.4906275019316E-01
 0.1219551585899E+00 -0.1371121570298E+00  0.0000000000000E+00 -0.3289693265947E-01
 0.1221412728006E+00 -0.1370386262363E+00  0.0000000000000E+00 -0.1549290986384E-01
 0.1232563698082E-01 -0.3351995361555E-01  0.0000000000000E+00  0.7744011108518E-01
 0.2252334033884E-01 -0.4312764272821E-01  0.0000000000000E+00  0.3456008224886E-01
 0.3210904200094E-01 -0.5216114312339E-01  0.0000000000000E+00 -0.1629662683395E-02
 0.4117812707284E-01 -0.6071102018498E-01  0.0000000000000E+00 -0.3171417772763E-01
 0.4977113941585E-01 -0.6881416834580E-01  0.0000000000000E+00 -0.5624362364477E-01
 0.5789222889920E-01 -0.7647191717240E-01  0.0000000000000E+00 -0.7571489302443E-01
 0.6552628143982E-01 -0.8366693841350E-01  0.0000000000000E+00 -0.9057725074509E-01
 0.7264878567766E-01 -0.9037315685102E-01  0.0000000000000E+00 -0.1012488295493E+00
 0.7923283438398E-01 -0.9656288602396E-01  0.0000000000000E+00 -0.1081197499199E+00
 0.8525637563913E-01 -0.1022140752962E+00  0.0000000000000E+00 -0.1115542389207E+00
 0.9070612319581E-01 -0.1073139418365E+00  0.0000000000000E+00 -0.1118937125202E+00
 0.9557537803024E-01 -0.1118561781162E+00  0.0000000000000E+00 -0.1094581340613E+00
 0.9985716400985E-01 -0.1158333965881E+00  0.0000000000000E+00 -0.1045449334416E+00
 0.1035380407193E+00 -0.1192305351305E+00  0.0000000000000E+00 -0.9742515452942E-01
 0.1065964194998E+00 -0.1220231008379E+00  0.0000000000000E+00 -0.8833886223011E-01
 0.1090058796386E+00 -0.1241805184265E+00  0.0000000000000E+00 -0.7748928138964E-01
 0.1107440479818E+00 -0.1256749118506E+00  0.0000000000000E+00 -0.6503577816218E-01
 0.1118093060172E+00 -0.1264974065078E+00  0.0000000000000E+00 -0.5109385331230E-01
 0.1122340871687E+00 -0.1266710807851E+00  0.0000000000000E+00 -0.3577355663787E-01
 0.1120925514882E+00 -0.1262580502612E+00  0.0000000000000E+00 -0.1923097976305E-01
 0.1229594820206E-01 -0.3215293896281E-01  0.0000000000000E+00  0.8307705892954E-01
 0.2139671608504E-01 -0.4073046696643E-01  0.0000000000000E+00  0.3992805409826E-01
 0.2999486493690E-01 -0.4884003069569E-01  0.0000000000000E+00  0.3527854439651E-02
 0.3818286757178E-01 -0.5656890851561E-01  0.0000000000000E+00 -0.2675212817487E-01
 0.4599054973768E-01 -0.6394307880721E-01  0.0000000000000E+00 -0.5149400399108E-01
 0.5340945640630E-01 -0.7095115407198E-01  0.0000000000000E+00 -0.7121209704214E-01
 0.6041362901051E-01 -0.7756487463956E-01  0.0000000000000E+00 -0.8636278868189E-01
 0.6696970258725E-01 -0.8374925747317E-01  0.0000000000000E+00 -0.9736834772201E-01
 0.7304323324134E-01 -0.8946908350474E-01  0.0000000000000E+00 -0.1046209449855E+00
 0.7860598115003E-01 -0.9469616845625E-01  0.0000000000000E+00 -0.1084853395261E+00
 0.8363985864875E-01 -0.9941300904527E-01  0.0000000000000E+00 -0.1093030193209E+00
 0.8813437378980E-01 -0.1036095734827E+00  0.0000000000000E+00 -0.1073944419027E+00
 0.9207888274757E-01 -0.1072748438538E+00  0.0000000000000E+00 -0.1030589861770E+00
 0.9545529809073E-01 -0.1103891259840E+00  0.0000000000000E+00 -0.9657181806268E-01
 0.9823520210649E-01 -0.1129211018858E+00  0.0000000000000E+00 -0.8817949259483E-01
 0.1003820126279E+00 -0.1148299727641E+00  0.0000000000000E+00 -0.7809216355615E-01
 0.1018600083988E+00 -0.1160742766577E+00  0.0000000000000E+00 -0.6647077634288E-01
 0.1026556513063E+00 -0.1166326078909E+00  0.0000000000000E+00 -0.5341872202422E-01
 0.1027966816960E+00 -0.1165223052810E+00  0.0000000000000E+00 -0.3902508934181E-01
 0.1023707921628E+00 -0.1158171696743E+00  0.0000000000000E+00 -0.2342522601492E-01
 0.1228219978766E-01 -0.3079014931205E-01  0.0000000000000E+00  0.8832006735419E-01
 0.2027363269335E-01 -0.3832623244158E-01  0.0000000000000E+00  0.4497561784492E-01
 0.2787967574782E-01 -0.4550836769723E-01  0.0000000000000E+00  0.8437810976281E-02
 0.3518948970538E-01 -0.5242005042730E-01  0.0000000000000E+00 -0.2197445171085E-01
 0.4221968397794E-01 -0.5907381545400E-01  0.0000000000000E+00 -0.4687859829795E-01
 0.4894680593680E-01 -0.6544320258650E-01  0.0000000000000E+00 -0.6680555520733E-01
 0.5533281737304E-01 -0.7148783380034E-01  0.0000000000000E+00 -0.8221625835258E-01
 0.6133507556715E-01 -0.7716345115242E-01  0.0000000000000E+00 -0.9353563416998E-01
 0.6691143636242E-01 -0.8242718767051E-01  0.0000000000000E+00 -0.1011571030271E+00
 0.7202744174621E-01 -0.8724473384439E-01  0.0000000000000E+00 -0.1054453099472E+00
 0.7666033075179E-01 -0.9159401331030E-01  0.0000000000000E+00 -0.1067411464277E+00
 0.8079620578191E-01 -0.9546166210522E-01  0.0000000000000E+00 -0.1053647620740E+00
 0.8442154300345E-01 -0.9883381965725E-01  0.0000000000000E+00 -0.1016167224705E+00
 0.8751490801434E-01 -0.1016875137023E+00  0.0000000000000E+00 -0.9577614914487E-01
 0.9004263414609E-01 -0.1039863251132E+00  0.0000000000000E+00 -0.8809769868793E-01
 0.9195886091218E-01 -0.1056803828039E+00  0.0000000000000E+00 -0.7880280393815E-01
 0.9321334584703E-01 -0.1067137172432E+00  0.0000000000000E+00 -0.6805942151142E-01
 0.9377801313647E-01 -0.1070498579236E+00  0.0000000000000E+00 -0.5595949611581E-01
 0.9367387551344E-01 -0.1066982595218E+00  0.0000000000000E+00 -0.4256439309542E-01
 0.9300896309305E-01 -0.1057508874703E+00  0.0000000000000E+00 -0.2797102160864E-01
 0.1227745624666E-01 -0.2942443236697E-01  0.0000000000000E+00  0.9316099289089E-01
 0.1914634852021E-01 -0.3590716380695E-01  0.0000000000000E+00  0.4970129459396E-01
 0.2575726251006E-01 -0.4216009278357E-01  0.0000000000000E+00  0.1310609895112E-01
 0.3219450622412E-01 -0.4826122135941E-01  0.0000000000000E+00 -0.1737016786713E-01
 0.3845786086171E-01 -0.5420601856286E-01  0.0000000000000E+00 -0.4238385498388E-01
 0.4450590574311E-01 -0.5995001931216E-01  0.0000000000000E+00 -0.6248054334712E-01
 0.5028731816439E-01 -0.6543962437839E-01  0.0000000000000E+00 -0.7812187813050E-01
 0.5574998741419E-01 -0.7062116977683E-01  0.0000000000000E+00 -0.8973356591650E-01
 0.6084404830759E-01 -0.7544418486471E-01  0.0000000000000E+00 -0.9770944340997E-01
 0.6552881779515E-01 -0.7986826420266E-01  0.0000000000000E+00 -0.1024134350253E+00
 0.6977690494910E-01 -0.8386682289980E-01  0.0000000000000E+00 -0.1041851505992E+00
 0.7357123071951E-01 -0.8742337703018E-01  0.0000000000000E+00 -0.1033434096651E+00
 0.7689599826552E-01 -0.9052180362574E-01  0.0000000000000E+00 -0.1001885472805E+00
 0.7972783698253E-01 -0.9313722555189E-01  0.0000000000000E+00 -0.9500202855494E-01
 0.8203018513587E-01 -0.9523063866641E-01  0.0000000000000E+00 -0.8804675839656E-01
 0.8375008443764E-01 -0.9674561399972E-01  0.0000000000000E+00 -0.7956008177684E-01
 0.8482214737436E-01 -0.9761162488659E-01  0.0000000000000E+00 -0.6972606986836E-01
 0.8519972928426E-01 -0.9777324624624E-01  0.0000000000000E+00 -0.5863003902440E-01
 0.8489145309294E-01 -0.9722613761989E-01  0.0000000000000E+00 -0.4629853242976E-01
 0.8403152184834E-01 -0.9608559329735E-01  0.0000000000000E+00 -0.3276044834212E-01
 0.1227361408179E-01 -0.2804724638697E-01  0.0000000000000E+00  0.9759029893335E-01
 0.1800527814141E-01 -0.3346358377651E-01  0.0000000000000E+00  0.5410492746345E-01
 0.2362008522237E-01 -0.3878782086423E-01  0.0000000000000E+00  0.1754153709597E-01
 0.2919382655041E-01 -0.4408869434214E-01  0.0000000000000E+00 -0.1292539119881E-01
 0.3470417303930E-01 -0.4933914287585E-01  0.0000000000000E+00 -0.3799413269501E-01
 0.4008816451571E-01 -0.5447337821019E-01  0.0000000000000E+00 -0.5822092287224E-01
 0.4528022355672E-01 -0.5942366891824E-01  0.0000000000000E+00 -0.7406271813158E-01
 0.5021896542592E-01 -0.6412728046802E-01  0.0000000000000E+00 -0.8594380669899E-01
 0.5484697978586E-01 -0.6852634028577E-01  0.0000000000000E+00 -0.9425781402127E-01
 0.5911738559081E-01 -0.7257443376642E-01  0.0000000000000E+00 -0.9936746718641E-01
 0.6299811972456E-01 -0.7624044510751E-01  0.0000000000000E+00 -0.1016105992836E+00
 0.6646889113242E-01 -0.7950472633011E-01  0.0000000000000E+00 -0.1013037306642E+00
 0.6951183864080E-01 -0.8234902867205E-01  0.0000000000000E+00 -0.9874513976573E-01
 0.7210265178262E-01 -0.8474749828438E-01  0.0000000000000E+00 -0.9421551805126E-01
 0.7420482027127E-01 -0.8666130515436E-01  0.0000000000000E+00 -0.8798250673588E-01
 0.7576270397904E-01 -0.8803256251778E-01  0.0000000000000E+00 -0.8030210460740E-01
 0.7669747815554E-01 -0.8877862274090E-01  0.0000000000000E+00 -0.7138766649804E-01
 0.7693921806425E-01 -0.8882147288240E-01  0.0000000000000E+00 -0.6133281301988E-01
 0.7647158759834E-01 -0.8812959917273E-01  0.0000000000000E+00 -0.5012848501911E-01
 0.7545623511337E-01 -0.8684118913128E-01  0.0000000000000E+00 -0.3768939256722E-01
 0.1226076775406E-01 -0.2664798777491E-01  0.0000000000000E+00  0.1015962621885E+00
 0.1683832995880E-01 -0.3098303230279E-01  0.0000000000000E+00  0.5818922758307E-01
 0.2145932689730E-01 -0.3538313240681E-01  0.0000000000000E+00  0.2175759003114E-01
 0.2618312641383E-01 -0.3989853406221E-01  0.0000000000000E+00 -0.8622743903468E-02
 0.3095777079783E-01 -0.4447286052209E-01  0.0000000000000E+00 -0.3369179492760E-01
 0.3569484708786E-01 -0.4901486204863E-01  0.0000000000000E+00 -0.5400956948347E-01
 0.4031420489219E-01 -0.5344299076396E-01  0.0000000000000E+00 -0.7002092221254E-01
 0.4474590754603E-01 -0.5768599651272E-01  0.0000000000000E+00 -0.8214708269071E-01
 0.4892532599536E-01 -0.6167907019711E-01  0.0000000000000E+00 -0.9078087036599E-01
 0.5279952582600E-01 -0.6536997170865E-01  0.0000000000000E+00 -0.9628366437092E-01
 0.5633166325963E-01 -0.6872298452838E-01  0.0000000000000E+00 -0.9899140677100E-01
 0.5949794222571E-01 -0.7171499077924E-01  0.0000000000000E+00 -0.9921777802311E-01
 0.6227801298226E-01 -0.7432512312182E-01  0.0000000000000E+00 -0.9725738090407E-01
 0.6464677449600E-01 -0.7652649149575E-01  0.0000000000000E+00 -0.9338601301328E-01
 0.6656961126689E-01 -0.7828221804623E-01  0.0000000000000E+00 -0.8786905508821E-01
 0.6799522873821E-01 -0.7953896805874E-01  0.0000000000000E+00 -0.8097301694461E-01
 0.6883949814088E-01 -0.8021358446029E-01  0.0000000000000E+00 -0.7295534820088E-01
 0.6900777747865E-01 -0.8020451977664E-01  0.0000000000000E+00 -0.6395091190105E-01
 0.6843637795066E-01 -0.7943248521655E-01  0.0000000000000E+00 -0.5394015104150E-01
 0.6729990956788E-01 -0.7803831633230E-01  0.0000000000000E+00 -0.4266413320642E-01
 0.1222617227934E-01 -0.2521164683691E-01  0.0000000000000E+00  0.1051667551306E+00
 0.1563020582865E-01 -0.2845046283840E-01  0.0000000000000E+00  0.6196373575643E-01
 0.1926544215137E-01 -0.3193640979677E-01  0.0000000000000E+00  0.2577528714234E-01
 0.2315888121469E-01 -0.3568855439597E-01  0.0000000000000E+00 -0.4440868132715E-02
 0.2721817773355E-01 -0.3960681723494E-01  0.0000000000000E+00 -0.2945882563319E-01
 0.3132698576237E-01 -0.4357597009076E-01  0.0000000000000E+00 -0.4982833310234E-01
 0.3539156931722E-01 -0.4750021717948E-01  0.0000000000000E+00 -0.6597816371467E-01
 0.3933399134811E-01 -0.5130080735490E-01  0.0000000000000E+00 -0.7832358112455E-01
 0.4308321582378E-01 -0.5490677081498E-01  0.0000000000000E+00 -0.8725637598458E-01
 0.4658055354408E-01 -0.5826048464127E-01  0.0000000000000E+00 -0.9313685918999E-01
 0.4978425596414E-01 -0.6132151022127E-01  0.0000000000000E+00 -0.9629964272735E-01
 0.5266652797756E-01 -0.6406276194003E-01  0.0000000000000E+00 -0.9705563340808E-01
 0.5520352609474E-01 -0.6645973066530E-01  0.0000000000000E+00 -0.9569522636091E-01
 0.5736800249749E-01 -0.6848294781766E-01  0.0000000000000E+00 -0.9248568460365E-01
 0.5912750731767E-01 -0.7009716253246E-01  0.0000000000000E+00 -0.8768089726009E-01
 0.6043758061055E-01 -0.7125659027224E-01  0.0000000000000E+00 -0.8154242332567E-01
 0.6122861865417E-01 -0.7189128091927E-01  0.0000000000000E+00 -0.7434522070789E-01
 0.6140147643071E-01 -0.7191570975585E-01  0.0000000000000E+00 -0.6633259112693E-01
 0.6081078826196E-01 -0.7115955973624E-01  0.0000000000000E+00 -0.5757556138454E-01
 0.5959373777650E-01 -0.6971594150280E-01  0.0000000000000E+00 -0.4758888432614E-01
 0.1214994712748E-01 -0.2371804618510E-01  0.0000000000000E+00  0.1082788436076E+00
 0.1435945974505E-01 -0.2583888176454E-01  0.0000000000000E+00  0.6545874156265E-01
 0.1703262234043E-01 -0.2844827591115E-01  0.0000000000000E+00  0.2963150676785E-01
 0.2012012578585E-01 -0.3145638884643E-01  0.0000000000000E+00 -0.3642578881058E-03
 0.2348414677194E-01 -0.3474063577121E-01  0.0000000000000E+00 -0.2527497208605E-01
 0.2698580177488E-01 -0.3815819187026E-01  0.0000000000000E+00 -0.4565832119323E-01
 0.3051433982067E-01 -0.4159787013054E-01  0.0000000000000E+00 -0.6191614908400E-01
 0.3398556971662E-01 -0.4497427276906E-01  0.0000000000000E+00 -0.7445376110356E-01
 0.3732357436436E-01 -0.4821257718775E-01  0.0000000000000E+00 -0.8366139239499E-01
 0.4046453377355E-01 -0.5125029080568E-01  0.0000000000000E+00 -0.8990056263527E-01
 0.4336142349929E-01 -0.5404180676025E-01  0.0000000000000E+00 -0.9350544704434E-01
 0.4598198385897E-01 -0.5655571905185E-01  0.0000000000000E+00 -0.9478467967484E-01
 0.4829766747134E-01 -0.5876263493533E-01  0.0000000000000E+00 -0.9402555453143E-01
 0.5027639404938E-01 -0.6062784858713E-01  0.0000000000000E+00 -0.9148628597070E-01
 0.5188445718677E-01 -0.6211370051240E-01  0.0000000000000E+00 -0.8740050768842E-01
 0.5308497025358E-01 -0.6318112452208E-01  0.0000000000000E+00 -0.8200693609712E-01
 0.5381689289474E-01 -0.6377259692557E-01  0.0000000000000E+00 -0.7556034966801E-01
 0.5406174203051E-01 -0.6386475286735E-01  0.0000000000000E+00 -0.6827870953635E-01
 0.5362395948555E-01 -0.6334578024029E-01  0.0000000000000E+00 -0.6071944890909E-01
 0.5242150324853E-01 -0.6197529598085E-01  0.0000000000000E+00 -0.5235413440118E-01
 0.1199695053917E-01 -0.2207275019448E-01  0.0000000000000E+00  0.1110398333344E+00
 0.1302353077642E-01 -0.2318453580295E-01  0.0000000000000E+00  0.6882915701536E-01
 0.1477501175153E-01 -0.2492239255638E-01  0.0000000000000E+00  0.3331930842428E-01
 0.1705999755806E-01 -0.2719771441726E-01  0.0000000000000E+00  0.3625102636884E-02
 0.1975466328202E-01 -0.2987230201237E-01  0.0000000000000E+00 -0.2111570108561E-01
 0.2267348835270E-01 -0.3276545149433E-01  0.0000000000000E+00 -0.4147852603847E-01
 0.2568458477608E-01 -0.3573807833965E-01  0.0000000000000E+00 -0.5781995482357E-01
 0.2870150361897E-01 -0.3870729411683E-01  0.0000000000000E+00 -0.7051847339649E-01
 0.3164792953300E-01 -0.4159829557529E-01  0.0000000000000E+00 -0.7997222592894E-01
 0.3445405624525E-01 -0.4434211332441E-01  0.0000000000000E+00 -0.8654724500240E-01
 0.3706712533428E-01 -0.4688805065122E-01  0.0000000000000E+00 -0.9057713493195E-01
 0.3945028787450E-01 -0.4920002006444E-01  0.0000000000000E+00 -0.9236924779373E-01
 0.4156933098424E-01 -0.5124304837573E-01  0.0000000000000E+00 -0.9221027970234E-01
 0.4338465847498E-01 -0.5297438973041E-01  0.0000000000000E+00 -0.9035270031569E-01
 0.4485438147951E-01 -0.5434761075056E-01  0.0000000000000E+00 -0.8701123377768E-01
 0.4594088642975E-01 -0.5531902513599E-01  0.0000000000000E+00 -0.8237825308742E-01
 0.4659240597110E-01 -0.5584209269810E-01  0.0000000000000E+00 -0.7667086608491E-01
 0.4680427078802E-01 -0.5592203901542E-01  0.0000000000000E+00 -0.6995396641250E-01
 0.4674099372006E-01 -0.5566945800472E-01  0.0000000000000E+00 -0.6260111688557E-01
 0.4618642903185E-01 -0.5533188086159E-01  0.0000000000000E+00 -0.5640494290162E-01
 0.4201333652529E+00 -0.6298304669058E+00  0.0000000000000E+00 -0.5071776666373E+00
 0.4906928953258E+00 -0.5451261998583E+00  0.0000000000000E+00  0.4003827490163E+00
 0.3642439241938E+00 -0.4145531185952E+00  0.0000000000000E+00  0.4158553593408E+00
 0.2955265978588E+00 -0.3404577745661E+00  0.0000000000000E+00  0.4056115744561E+00
 0.2329922809059E+00 -0.2724529298032E+00  0.0000000000000E+00  0.3940813847509E+00
 0.1775909270430E+00 -0.2093047390966E+00  0.0000000000000E+00  0.3525985120154E+00
 0.1398244233269E+00 -0.1638927235042E+00  0.0000000000000E+00  0.2874435231813E+00
 0.1203516167528E+00 -0.1396304863388E+00  0.0000000000000E+00  0.2226015551973E+00
 0.1081558617796E+00 -0.1245988504098E+00  0.0000000000000E+00  0.1689678984395E+00
 0.9728916100086E-01 -0.1115148419068E+00  0.0000000000000E+00  0.1260344087083E+00
 0.8618597666004E-01 -0.9835126224295E-01  0.0000000000000E+00  0.9063445628362E-01
 0.7453079327415E-01 -0.8471924035499E-01  0.0000000000000E+00  0.6093926412474E-01
 0.6206340929740E-01 -0.7037272374748E-01  0.0000000000000E+00  0.3614703351470E-01
 0.4882676935329E-01 -0.5527153431769E-01  0.0000000000000E+00  0.1631686687995E-01
 0.3529395670710E-01 -0.3989901052981E-01  0.0000000000000E+00  0.1895253843720E-02
 0.2203338396174E-01 -0.2487583885103E-01  0.0000000000000E+00 -0.6746384705610E-02
 0.8805270994297E-02 -0.1019074091312E-01  0.0000000000000E+00 -0.8597182337216E-02
 0.9073512087188E-03 -0.2194266715287E-03  0.0000000000000E+00 -0.3198234318145E-03
 0.2485866004012E-03  0.1973842408236E-02  0.0000000000000E+00  0.8279269583336E-02
 0.7304427786788E-02 -0.5866353813531E-02  0.0000000000000E+00  0.8238510113763E-02
 0.3814244150963E+00 -0.5190145754051E+00  0.0000000000000E+00 -0.6810533495994E+00
 0.4981614061831E+00 -0.5873943643181E+00  0.0000000000000E+00  0.8343053117834E-01
 0.4004439575064E+00 -0.4530732654739E+00  0.0000000000000E+00  0.3324192553477E+00
 0.3177148150736E+00 -0.3639714617057E+00  0.0000000000000E+00  0.3571131412784E+00
 0.2575039212583E+00 -0.2976226072360E+00  0.0000000000000E+00  0.3479086685107E+00
 0.2076413487212E+00 -0.2412874570198E+00  0.0000000000000E+00  0.3176319782833E+00
 0.1710606765544E+00 -0.1981793185758E+00  0.0000000000000E+00  0.2716968004899E+00
 0.1475869648043E+00 -0.1694621192214E+00  0.0000000000000E+00  0.2210152054506E+00
 0.1315887993361E+00 -0.1499722279878E+00  0.0000000000000E+00  0.1719133292832E+00
 0.1186526666559E+00 -0.1345622156770E+00  0.0000000000000E+00  0.1278710491015E+00
 0.1067268664912E+00 -0.1205575218177E+00  0.0000000000000E+00  0.8963274901153E-01
 0.9489936814199E-01 -0.1068260741169E+00  0.0000000000000E+00  0.5670459655752E-01
 0.8261519783355E-01 -0.9275296338316E-01  0.0000000000000E+00  0.2837576110307E-01
 0.6969743732189E-01 -0.7813274794454E-01  0.0000000000000E+00  0.4519977789000E-02
 0.5634450395409E-01 -0.6315103426123E-01  0.0000000000000E+00 -0.1442535410105E-01
 0.4270920246418E-01 -0.4802075244676E-01  0.0000000000000E+00 -0.2798572724618E-01
 0.2843709274543E-01 -0.3225560690660E-01  0.0000000000000E+00 -0.3642440502220E-01
 0.1815630450426E-01 -0.2048594330146E-01  0.0000000000000E+00 -0.3870549869305E-01
 0.1521965032279E-01 -0.1686780264804E-01  0.0000000000000E+00 -0.4060374417593E-01
 0.2102633612945E-01 -0.2418409507973E-01  0.0000000000000E+00 -0.4915518298012E-01
 0.3289830029007E+00 -0.4452158614685E+00  0.0000000000000E+00 -0.6871734131763E+00
 0.4642313035998E+00 -0.5509211420580E+00  0.0000000000000E+00 -0.1033052969225E+00
 0.4151273849982E+00 -0.4778247836570E+00  0.0000000000000E+00  0.1907087430277E+00
 0.3410597107618E+00 -0.3892829770392E+00  0.0000000000000E+00  0.2900709227564E+00
 0.2807820603009E+00 -0.3222615609814E+00  0.0000000000000E+00  0.3007423347338E+00
 0.2341074444876E+00 -0.2694086514413E+00  0.0000000000000E+00  0.2825995345531E+00
 0.1990045852454E+00 -0.2284608919193E+00  0.0000000000000E+00  0.2499431558884E+00
 0.1742537964997E+00 -0.1986262304228E+00  0.0000000000000E+00  0.2106401163225E+00
 0.1560191041200E+00 -0.1765486189040E+00  0.0000000000000E+00  0.1685994795760E+00
 0.1412724303136E+00 -0.1590134925510E+00  0.0000000000000E+00  0.1269477387378E+00
 0.1283221633021E+00 -0.1438703186781E+00  0.0000000000000E+00  0.8810804429847E-01
 0.1161339829823E+00 -0.1297915354297E+00  0.0000000000000E+00  0.5313044187662E-01
 0.1039591733634E+00 -0.1159071503461E+00  0.0000000000000E+00  0.2205825444711E-01
 0.9139111081721E-01 -0.1017616332377E+00  0.0000000000000E+00 -0.5113948096615E-02
 0.7838885664308E-01 -0.8730967479287E-01  0.0000000000000E+00 -0.2806062204673E-01
 0.6496322037415E-01 -0.7255919447187E-01  0.0000000000000E+00 -0.4653610494639E-01
 0.5082269715958E-01 -0.5714760810469E-01  0.0000000000000E+00 -0.6089066807216E-01
 0.3957710313644E-01 -0.4484053366952E-01  0.0000000000000E+00 -0.7112174958028E-01
 0.3542534565507E-01 -0.4065563216348E-01  0.0000000000000E+00 -0.8127746932022E-01
 0.4113463797792E-01 -0.4848323360334E-01  0.0000000000000E+00 -0.9582506921073E-01
 0.2849932528690E+00 -0.3892789856462E+00  0.0000000000000E+00 -0.6639101907866E+00
 0.4226376407764E+00 -0.5061584234087E+00  0.0000000000000E+00 -0.2162056142985E+00
 0.4105396203015E+00 -0.4762523846946E+00  0.0000000000000E+00  0.6376396721507E-01
 0.3570513731651E+00 -0.4091595364091E+00  0.0000000000000E+00  0.2026798769481E+00
 0.3023225698828E+00 -0.3455978852188E+00  0.0000000000000E+00  0.2462600790223E+00
 0.2579712129054E+00 -0.2949776731934E+00  0.0000000000000E+00  0.2448577092276E+00
 0.2243029888504E+00 -0.2557821433711E+00  0.0000000000000E+00  0.2241669087590E+00
 0.1994340968869E+00 -0.2260552550648E+00  0.0000000000000E+00  0.1943440633459E+00
 0.1802610058991E+00 -0.2029470170000E+00  0.0000000000000E+00  0.1594793732549E+00
 0.1644177741703E+00 -0.1840931471943E+00  0.0000000000000E+00  0.1221380819932E+00
 0.1506348646823E+00 -0.1679680008249E+00  0.0000000000000E+00  0.8482823901006E-01
 0.1380542760261E+00 -0.1534599643178E+00  0.0000000000000E+00  0.4939371016890E-01
 0.1259299443276E+00 -0.1396674091702E+00  0.0000000000000E+00  0.1668536695654E-01
 0.1137216927852E+00 -0.1259792876671E+00  0.0000000000000E+00 -0.1293621528295E-01
 0.1012284349091E+00 -0.1121729126743E+00  0.0000000000000E+00 -0.3914745685057E-01
 0.8838835785355E-01 -0.9818201122382E-01  0.0000000000000E+00 -0.6175719193587E-01
 0.7495735618150E-01 -0.8369743350593E-01  0.0000000000000E+00 -0.8094578398552E-01
 0.6365977257554E-01 -0.7172916390409E-01  0.0000000000000E+00 -0.9726446805652E-01
 0.5906860534004E-01 -0.6759439378107E-01  0.0000000000000E+00 -0.1133131310497E+00
 0.6486809731627E-01 -0.7581907015078E-01  0.0000000000000E+00 -0.1313608163722E+00
 0.2482710753182E+00 -0.3447779100270E+00  0.0000000000000E+00 -0.6312746494384E+00
 0.3817519219602E+00 -0.4622356278286E+00  0.0000000000000E+00 -0.2880653839417E+00
 0.3954026819353E+00 -0.4619726154715E+00  0.0000000000000E+00 -0.3894619075964E-01
 0.3634255417866E+00 -0.4180491751472E+00  0.0000000000000E+00  0.1135226552383E+00
 0.3194126403238E+00 -0.3649961078771E+00  0.0000000000000E+00  0.1831111169498E+00
 0.2792141930996E+00 -0.3180358323016E+00  0.0000000000000E+00  0.2020007948842E+00
 0.2472500440879E+00 -0.2806363334026E+00  0.0000000000000E+00  0.1942732227067E+00
 0.2228889400201E+00 -0.2515716827505E+00  0.0000000000000E+00  0.1734733817690E+00
 0.2035921605906E+00 -0.2283495173686E+00  0.0000000000000E+00  0.1455649108470E+00
 0.1873519614415E+00 -0.2089826625811E+00  0.0000000000000E+00  0.1133249719544E+00
 0.1731446793145E+00 -0.1923088118895E+00  0.0000000000000E+00  0.7902903434918E-01
 0.1603274429285E+00 -0.1775024593920E+00  0.0000000000000E+00  0.4467339055684E-01
 0.1482827051646E+00 -0.1637973138582E+00  0.0000000000000E+00  0.1161049534985E-01
 0.1364578906079E+00 -0.1505567341235E+00  0.0000000000000E+00 -0.1940917542736E-01
 0.1245712362310E+00 -0.1374669644490E+00  0.0000000000000E+00 -0.4791755221719E-01
 0.1125171374720E+00 -0.1244120995972E+00  0.0000000000000E+00 -0.7363629203725E-01
 0.1000855986782E+00 -0.1111299256497E+00  0.0000000000000E+00 -0.9647910941552E-01
 0.8924124382558E-01 -0.9993746226328E-01  0.0000000000000E+00 -0.1172026859049E+00
 0.8460084863459E-01 -0.9609066796942E-01  0.0000000000000E+00 -0.1372991340767E+00
 0.9037734309687E-01 -0.1044010088902E+00  0.0000000000000E+00 -0.1572981608907E+00
 0.2175256750817E+00 -0.3083286151967E+00  0.0000000000000E+00 -0.5965506252283E+00
 0.3438771532225E+00 -0.4217274299081E+00  0.0000000000000E+00 -0.3342304324997E+00
 0.3749506669618E+00 -0.4414099070439E+00  0.0000000000000E+00 -0.1197100080973E+00
 0.3617957662580E+00 -0.4179281073733E+00  0.0000000000000E+00  0.3130660086453E-01
 0.3305226231838E+00 -0.3780897533120E+00  0.0000000000000E+00  0.1165590874326E+00
 0.2968467303228E+00 -0.3375755313434E+00  0.0000000000000E+00  0.1535881614314E+00
 0.2676820454404E+00 -0.3029270873418E+00  0.0000000000000E+00  0.1597368823743E+00
 0.2444292839678E+00 -0.2750522502611E+00  0.0000000000000E+00  0.1483929071973E+00
 0.2255852680233E+00 -0.2523140083531E+00  0.0000000000000E+00  0.1275313598610E+00
 0.2095021228584E+00 -0.2330536618346E+00  0.0000000000000E+00  0.1007892725954E+00
 0.1953106000206E+00 -0.2163126583292E+00  0.0000000000000E+00  0.7042987050887E-01
 0.1825253716173E+00 -0.2014782276947E+00  0.0000000000000E+00  0.3838245850257E-01
 0.1706848181227E+00 -0.1879640521873E+00  0.0000000000000E+00  0.6205909745039E-02
 0.1593028792337E+00 -0.1752027606484E+00  0.0000000000000E+00 -0.2507064835513E-01
 0.1480849351542E+00 -0.1628628402065E+00  0.0000000000000E+00 -0.5479064451503E-01
 0.1369083427379E+00 -0.1508079944984E+00  0.0000000000000E+00 -0.8250464185466E-01
 0.1255831824472E+00 -0.1388033591488E+00  0.0000000000000E+00 -0.1078263574754E+00
 0.1154430682780E+00 -0.1285626340061E+00  0.0000000000000E+00 -0.1315318649373E+00
 0.1109377659404E+00 -0.1250612088225E+00  0.0000000000000E+00 -0.1542669361519E+00
 0.1164911182490E+00 -0.1331280148933E+00  0.0000000000000E+00 -0.1752493240798E+00
 0.1915894987737E+00 -0.2779070876039E+00  0.0000000000000E+00 -0.5624021464554E+00
 0.3095768804422E+00 -0.3851220124602E+00  0.0000000000000E+00 -0.3632501162673E+00
 0.3521212356117E+00 -0.4180463007360E+00  0.0000000000000E+00 -0.1822400003183E+00
 0.3542788519345E+00 -0.4112322060562E+00  0.0000000000000E+00 -0.4078750862239E-01
 0.3356606463760E+00 -0.3847619353560E+00  0.0000000000000E+00  0.5128044751962E-01
 0.3100188429629E+00 -0.3525053390403E+00  0.0000000000000E+00  0.1016803366325E+00
 0.2850364938495E+00 -0.3220811623954E+00  0.0000000000000E+00  0.1207501071845E+00
 0.2637208191148E+00 -0.2961898512815E+00  0.0000000000000E+00  0.1192188564924E+00
 0.2458813889657E+00 -0.2744881119920E+00  0.0000000000000E+00  0.1057224737864E+00
 0.2304218476673E+00 -0.2558339581289E+00  0.0000000000000E+00  0.8481987720543E-01
 0.2166495392837E+00 -0.2394633164162E+00  0.0000000000000E+00  0.5901267785694E-01
 0.2041994383978E+00 -0.2249171147012E+00  0.0000000000000E+00  0.3019016521590E-01
 0.1927486455930E+00 -0.2117718837945E+00  0.0000000000000E+00 -0.2950975599525E-04
 0.1819085093750E+00 -0.1995684362229E+00  0.0000000000000E+00 -0.3046217997457E-01
 0.1714148049771E+00 -0.1880074010904E+00  0.0000000000000E+00 -0.6029281249067E-01
 0.1611498889168E+00 -0.1769558993249E+00  0.0000000000000E+00 -0.8888683152248E-01
 0.1509398581017E+00 -0.1661993333955E+00  0.0000000000000E+00 -0.1155786141361E+00
 0.1416107042665E+00 -0.1569443518089E+00  0.0000000000000E+00 -0.1410639245161E+00
 0.1373134081847E+00 -0.1537610165874E+00  0.0000000000000E+00 -0.1653434801625E+00
 0.1424406861134E+00 -0.1612968658369E+00  0.0000000000000E+00 -0.1866820198827E+00
 0.1695545409651E+00 -0.2521725703638E+00  0.0000000000000E+00 -0.5298842588559E+00
 0.2788197624467E+00 -0.3523105860341E+00  0.0000000000000E+00 -0.3802981813724E+00
 0.3285841778077E+00 -0.3937757767623E+00  0.0000000000000E+00 -0.2299373703575E+00
 0.3426872389647E+00 -0.4000159831212E+00  0.0000000000000E+00 -0.1020771033389E+00
 0.3355516226635E+00 -0.3857705183761E+00  0.0000000000000E+00 -0.9678618942360E-02
 0.3184619830143E+00 -0.3624546192338E+00  0.0000000000000E+00  0.4893153186836E-01
 0.2987572685504E+00 -0.3374640549445E+00  0.0000000000000E+00  0.7855430448090E-01
 0.2803033072943E+00 -0.3145146862887E+00  0.0000000000000E+00  0.8639589258215E-01
 0.2640913079439E+00 -0.2944820490210E+00  0.0000000000000E+00  0.8043291855047E-01
 0.2497119134412E+00 -0.2769114138161E+00  0.0000000000000E+00  0.6566145502103E-01
 0.2367343574837E+00 -0.2613108836041E+00  0.0000000000000E+00  0.4485912738662E-01
 0.2249210023015E+00 -0.2473693594993E+00  0.0000000000000E+00  0.1994363424148E-01
 0.2140716334843E+00 -0.2348049874406E+00  0.0000000000000E+00 -0.7450292518090E-02
 0.2039006068866E+00 -0.2232738477574E+00  0.0000000000000E+00 -0.3606310113513E-01
 0.1941948250161E+00 -0.2125328948087E+00  0.0000000000000E+00 -0.6497372632970E-01
 0.1848561782738E+00 -0.2024692100761E+00  0.0000000000000E+00 -0.9339503278139E-01
 0.1757294531201E+00 -0.1928895323590E+00  0.0000000000000E+00 -0.1204376299724E+00
 0.1672442352869E+00 -0.1845883825760E+00  0.0000000000000E+00 -0.1466743555037E+00
 0.1631725368784E+00 -0.1816630764135E+00  0.0000000000000E+00 -0.1716206855840E+00
 0.1677042065727E+00 -0.1884436009391E+00  0.0000000000000E+00 -0.1928806205549E+00
 0.1507143357050E+00 -0.2301773072745E+00  0.0000000000000E+00 -0.4993606167314E+00
 0.2513677525955E+00 -0.3229934741751E+00  0.0000000000000E+00 -0.3887352227486E+00
 0.3053003417137E+00 -0.3696612373413E+00  0.0000000000000E+00 -0.2656003964424E+00
 0.3284178923277E+00 -0.3858275225027E+00  0.0000000000000E+00 -0.1529696763500E+00
 0.3311402501454E+00 -0.3821355646278E+00  0.0000000000000E+00 -0.6461353835680E-01
 0.3223713872994E+00 -0.3675947241321E+00  0.0000000000000E+00 -0.2333342907406E-02
 0.3085503546717E+00 -0.3487296443482E+00  0.0000000000000E+00  0.3487166373330E-01
 0.2937520647706E+00 -0.3295689528478E+00  0.0000000000000E+00  0.5086357806831E-01
 0.2798091768326E+00 -0.3118763621463E+00  0.0000000000000E+00  0.5216076505735E-01
 0.2669841150080E+00 -0.2958851857038E+00  0.0000000000000E+00  0.4361742690908E-01
 0.2551709409178E+00 -0.2814443008286E+00  0.0000000000000E+00  0.2811744326131E-01
 0.2442896778729E+00 -0.2684165610118E+00  0.0000000000000E+00  0.7604949601478E-02
 0.2342609756122E+00 -0.2566561350383E+00  0.0000000000000E+00 -0.1628515396603E-01
 0.2249022452913E+00 -0.2459331544562E+00  0.0000000000000E+00 -0.4226227506567E-01
 0.2160601873476E+00 -0.2360703698618E+00  0.0000000000000E+00 -0.6934634922502E-01
 0.2076643546320E+00 -0.2269840879561E+00  0.0000000000000E+00 -0.9664795802593E-01
 0.1995834095709E+00 -0.2185072085037E+00  0.0000000000000E+00 -0.1231248837339E+00
 0.1919454662167E+00 -0.2111078797918E+00  0.0000000000000E+00 -0.1492215947941E+00
 0.1880970977066E+00 -0.2083791084714E+00  0.0000000000000E+00 -0.1741049213906E+00
 0.1919130484795E+00 -0.2142496367730E+00  0.0000000000000E+00 -0.1949520403496E+00
 0.1345133128163E+00 -0.2112190816530E+00  0.0000000000000E+00 -0.4708828855481E+00
 0.2269184743807E+00 -0.2968241626956E+00  0.0000000000000E+00 -0.3908576310022E+00
 0.2828219135117E+00 -0.3463027132733E+00  0.0000000000000E+00 -0.2914783951140E+00
 0.3125083319293E+00 -0.3697977574856E+00  0.0000000000000E+00 -0.1943139878215E+00
 0.3233604026331E+00 -0.3748616130678E+00  0.0000000000000E+00 -0.1127360349305E+00
 0.3222107422250E+00 -0.3684040440474E+00  0.0000000000000E+00 -0.5037800691161E-01
 0.3144078071976E+00 -0.3558481926146E+00  0.0000000000000E+00 -0.8568436185291E-02
 0.3037994034983E+00 -0.3410571304467E+00  0.0000000000000E+00  0.1386192701841E-01
 0.2926856146380E+00 -0.3263004011771E+00  0.0000000000000E+00  0.2167698745713E-01
 0.2818755033964E+00 -0.3123761235583E+00  0.0000000000000E+00  0.1915010940944E-01
 0.2715916787055E+00 -0.2994801145164E+00  0.0000000000000E+00  0.9039194170229E-02
 0.2619325615646E+00 -0.2876699401412E+00  0.0000000000000E+00 -0.6761979227323E-02
 0.2529444568661E+00 -0.2769391714550E+00  0.0000000000000E+00 -0.2665425641126E-01
 0.2445490803050E+00 -0.2671719056884E+00  0.0000000000000E+00 -0.4935117650331E-01
 0.2366577550261E+00 -0.2582610886043E+00  0.0000000000000E+00 -0.7385266398354E-01
 0.2292328130897E+00 -0.2501577765439E+00  0.0000000000000E+00 -0.9921839175704E-01
 0.2221723751387E+00 -0.2427267453385E+00  0.0000000000000E+00 -0.1243248075776E+00
 0.2153815273255E+00 -0.2361835440516E+00  0.0000000000000E+00 -0.1495044816565E+00
 0.2117571293440E+00 -0.2336075866251E+00  0.0000000000000E+00 -0.1736983465474E+00
 0.2147925285758E+00 -0.2384829870371E+00  0.0000000000000E+00 -0.1938443751166E+00
 0.1205079546840E+00 -0.1947593042398E+00  0.0000000000000E+00 -0.4443583358394E+00
 0.2051611475159E+00 -0.2734605833755E+00  0.0000000000000E+00 -0.3882955007221E+00
 0.2614570686676E+00 -0.3240316467042E+00  0.0000000000000E+00 -0.3093776503911E+00
 0.2957172894912E+00 -0.3527434048114E+00  0.0000000000000E+00 -0.2271034477933E+00
 0.3130445655184E+00 -0.3648375464242E+00  0.0000000000000E+00 -0.1538408232391E+00
 0.3185623414331E+00 -0.3654928047217E+00  0.0000000000000E+00 -0.9404103858805E-01
 0.3165423917660E+00 -0.3590319410139E+00  0.0000000000000E+00 -0.5027662068493E-01
 0.3103669024284E+00 -0.3488854790641E+00  0.0000000000000E+00 -0.2330170447838E-01
 0.3024871230918E+00 -0.3375017014360E+00  0.0000000000000E+00 -0.1005888377719E-01
 0.2940868940868E+00 -0.3260672446609E+00  0.0000000000000E+00 -0.7099103479267E-02
 0.2856702805573E+00 -0.3150757379613E+00  0.0000000000000E+00 -0.1198566536629E-01
 0.2775101198903E+00 -0.3047747995710E+00  0.0000000000000E+00 -0.2297754828534E-01
 0.2697775709008E+00 -0.2952962412621E+00  0.0000000000000E+00 -0.3856953332844E-01
 0.2624988947049E+00 -0.2866375772780E+00  0.0000000000000E+00 -0.5752017563111E-01
 0.2556536761989E+00 -0.2787649902670E+00  0.0000000000000E+00 -0.7884600181416E-01
 0.2492414590775E+00 -0.2716688113231E+00  0.0000000000000E+00 -0.1016032469939E+00
 0.2431952995829E+00 -0.2652514952942E+00  0.0000000000000E+00 -0.1246519742854E+00
 0.2372616223428E+00 -0.2595383162140E+00  0.0000000000000E+00 -0.1482401738240E+00
 0.2338786804601E+00 -0.2571002885452E+00  0.0000000000000E+00 -0.1711952152082E+00
 0.2361246406312E+00 -0.2609616675005E+00  0.0000000000000E+00 -0.1903686564024E+00
 0.1083392713756E+00 -0.1803739367748E+00  0.0000000000000E+00 -0.4196304971597E+00
 0.1857986383705E+00 -0.2525832334399E+00  0.0000000000000E+00 -0.3822389035700E+00
 0.2413636932691E+00 -0.3030175315155E+00  0.0000000000000E+00 -0.3207576270265E+00
 0.2785943304409E+00 -0.3352507852044E+00  0.0000000000000E+00 -0.2523404194177E+00
 0.3008983836470E+00 -0.3528114755451E+00  0.0000000000000E+00 -0.1880791900288E+00
 0.3120333594795E+00 -0.3594978640636E+00  0.0000000000000E+00 -0.1326352012847E+00
 0.3153076109675E+00 -0.3586451153808E+00  0.0000000000000E+00 -0.8909166530583E-01
 0.3135445371808E+00 -0.3531400559347E+00  0.0000000000000E+00 -0.5941753057940E-01
 0.3091179259070E+00 -0.3453720766101E+00  0.0000000000000E+00 -0.4202321990154E-01
 0.3034148558792E+00 -0.3367395432821E+00  0.0000000000000E+00 -0.3435943760907E-01
 0.2971455857756E+00 -0.3279542125102E+00  0.0000000000000E+00 -0.3443120451540E-01
 0.2907305245731E+00 -0.3194245520190E+00  0.0000000000000E+00 -0.4073721523132E-01
 0.2844534402660E+00 -0.3114075204084E+00  0.0000000000000E+00 -0.5192808948783E-01
 0.2784401504177E+00 -0.3040084448838E+00  0.0000000000000E+00 -0.6685273365678E-01
 0.2727399288019E+00 -0.2972676768054E+00  0.0000000000000E+00 -0.8458077787279E-01
 0.2673935580258E+00 -0.2912189048158E+00  0.0000000000000E+00 -0.1042078355497E+00
 0.2623742075303E+00 -0.2858078486146E+00  0.0000000000000E+00 -0.1246340356624E+00
 0.2573234160228E+00 -0.2809226909664E+00  0.0000000000000E+00 -0.1460542791396E+00
 0.2542238571189E+00 -0.2786417995141E+00  0.0000000000000E+00 -0.1672851376385E+00
 0.2557256355123E+00 -0.2815319991587E+00  0.0000000000000E+00 -0.1852194519185E+00
 0.9771326361941E-01 -0.1677223807679E+00  0.0000000000000E+00 -0.3965197246674E+00
 0.1685555412665E+00 -0.2339003717072E+00  0.0000000000000E+00 -0.3735744891607E+00
 0.2226047303426E+00 -0.2833292460966E+00  0.0000000000000E+00 -0.3268064973041E+00
 0.2615332469961E+00 -0.3177376424738E+00  0.0000000000000E+00 -0.2709757697876E+00
 0.2875029161775E+00 -0.3393959005115E+00  0.0000000000000E+00 -0.2158120752493E+00
 0.3032035733618E+00 -0.3510258982862E+00  0.0000000000000E+00 -0.1658357832850E+00
 0.3111308131995E+00 -0.3551304045699E+00  0.0000000000000E+00 -0.1241829001909E+00
 0.3135495348886E+00 -0.3540418634905E+00  0.0000000000000E+00 -0.9346216908156E-01
 0.3126127371780E+00 -0.3499407658378E+00  0.0000000000000E+00 -0.7323390909525E-01
 0.3097652152333E+00 -0.3442876561480E+00  0.0000000000000E+00 -0.6180615891000E-01
 0.3058406624330E+00 -0.3379250272119E+00  0.0000000000000E+00 -0.5767196885915E-01
 0.3013663163033E+00 -0.3313780621510E+00  0.0000000000000E+00 -0.5962239736528E-01
 0.2967157280530E+00 -0.3250043212226E+00  0.0000000000000E+00 -0.6651226011114E-01
 0.2921021274691E+00 -0.3190038912050E+00  0.0000000000000E+00 -0.7732164933673E-01
 0.2876419080661E+00 -0.3134882010118E+00  0.0000000000000E+00 -0.9120650457075E-01
 0.2834197478113E+00 -0.3085369845713E+00  0.0000000000000E+00 -0.1073383141501E+00
 0.2794534246751E+00 -0.3041441239199E+00  0.0000000000000E+00 -0.1247043915403E+00
 0.2753263263287E+00 -0.3001075596195E+00  0.0000000000000E+00 -0.1434782459801E+00
 0.2725794231657E+00 -0.2980380618999E+00  0.0000000000000E+00 -0.1625591796504E+00
 0.2734337044200E+00 -0.3000569822758E+00  0.0000000000000E+00 -0.1789921207208E+00
 0.8838683376516E-01 -0.1565267773979E+00  0.0000000000000E+00 -0.3748442200859E+00
 0.1531802905599E+00 -0.2171481547125E+00  0.0000000000000E+00 -0.3629720810017E+00
 0.2051820589323E+00 -0.2649717750211E+00  0.0000000000000E+00 -0.3284980179649E+00
 0.2448115135996E+00 -0.3004975895504E+00  0.0000000000000E+00 -0.2838839800570E+00
 0.2733272935200E+00 -0.3250832809460E+00  0.0000000000000E+00 -0.2375162286201E+00
 0.2925993319228E+00 -0.3406261251640E+00  0.0000000000000E+00 -0.1935832577726E+00
 0.3044648779047E+00 -0.3489569437181E+00  0.0000000000000E+00 -0.1550143870951E+00
 0.3106835714534E+00 -0.3519006351377E+00  0.0000000000000E+00 -0.1246321845554E+00
 0.3131142334223E+00 -0.3513504689753E+00  0.0000000000000E+00 -0.1028203827220E+00
 0.3131498312010E+00 -0.3487170650700E+00  0.0000000000000E+00 -0.8863131647160E-01
 0.3116711222223E+00 -0.3448935528921E+00  0.0000000000000E+00 -0.8103435989524E-01
 0.3092668835869E+00 -0.3404730586371E+00  0.0000000000000E+00 -0.7912949308865E-01
 0.3063711973603E+00 -0.3358821881187E+00  0.0000000000000E+00 -0.8200225361845E-01
 0.3032661417183E+00 -0.3313959167510E+00  0.0000000000000E+00 -0.8879240912965E-01
 0.3001277585332E+00 -0.3271885732285E+00  0.0000000000000E+00 -0.9876691210082E-01
 0.2970847153414E+00 -0.3233859267312E+00  0.0000000000000E+00 -0.1111998399758E+00
 0.2942026971905E+00 -0.3200335904732E+00  0.0000000000000E+00 -0.1252012224155E+00
 0.2910498915758E+00 -0.3168825364841E+00  0.0000000000000E+00 -0.1409514376272E+00
 0.2887512841654E+00 -0.3151111184804E+00  0.0000000000000E+00 -0.1575168527047E+00
 0.2891033163122E+00 -0.3164112652140E+00  0.0000000000000E+00 -0.1721959156703E+00
 0.8015735056522E-01 -0.1465576000987E+00  0.0000000000000E+00 -0.3544310735340E+00
 0.1394446775532E+00 -0.2020888123980E+00  0.0000000000000E+00 -0.3509418341777E+00
 0.1890579643683E+00 -0.2479090717396E+00  0.0000000000000E+00 -0.3266338783609E+00
 0.2286192649872E+00 -0.2837320486787E+00  0.0000000000000E+00 -0.2918550851388E+00
 0.2587441416487E+00 -0.3102637883130E+00  0.0000000000000E+00 -0.2537244579321E+00
 0.2806829473563E+00 -0.3287797962794E+00  0.0000000000000E+00 -0.2160056665645E+00
 0.2957561593417E+00 -0.3405864919938E+00  0.0000000000000E+00 -0.1812963942008E+00
 0.3052961111403E+00 -0.3470757694734E+00  0.0000000000000E+00 -0.1523441154737E+00
 0.3108455908969E+00 -0.3498280798164E+00  0.0000000000000E+00 -0.1300610627302E+00
 0.3136727189563E+00 -0.3501295891259E+00  0.0000000000000E+00 -0.1140969924269E+00
 0.3146428570887E+00 -0.3488590570757E+00  0.0000000000000E+00 -0.1038470654798E+00
 0.3143635642914E+00 -0.3466318470501E+00  0.0000000000000E+00 -0.9870750457414E-01
 0.3132984521155E+00 -0.3439101926979E+00  0.0000000000000E+00 -0.9799920576711E-01
 0.3117756648447E+00 -0.3410196395314E+00  0.0000000000000E+00 -0.1010347423299E+00
 0.3100186112154E+00 -0.3381842255026E+00  0.0000000000000E+00 -0.1072048415515E+00
 0.3081964142155E+00 -0.3355719053140E+00  0.0000000000000E+00 -0.1158995852527E+00
 0.3064239776884E+00 -0.3332813406603E+00  0.0000000000000E+00 -0.1263716013532E+00
 0.3042961315914E+00 -0.3310585829063E+00  0.0000000000000E+00 -0.1388274769425E+00
 0.3025627845551E+00 -0.3296979214250E+00  0.0000000000000E+00 -0.1525741052435E+00
 0.3026035569450E+00 -0.3304800733568E+00  0.0000000000000E+00 -0.1652633293276E+00
 0.7285462947199E-01 -0.1376230816869E+00  0.0000000000000E+00 -0.3351219891472E+00
 0.1271422214248E+00 -0.1885081466819E+00  0.0000000000000E+00 -0.3378730089166E+00
 0.1741692686201E+00 -0.2320788603928E+00  0.0000000000000E+00 -0.3218750955884E+00
 0.2130808526123E+00 -0.2675736418412E+00  0.0000000000000E+00 -0.2955944473983E+00
 0.2440446658471E+00 -0.2952420634115E+00  0.0000000000000E+00 -0.2649876647265E+00
 0.2678506789856E+00 -0.3158987519264E+00  0.0000000000000E+00 -0.2333591382474E+00
 0.2854246150602E+00 -0.3304528746366E+00  0.0000000000000E+00 -0.2029363333009E+00
 0.2977559157335E+00 -0.3399463983545E+00  0.0000000000000E+00 -0.1762166638044E+00
 0.3060839868796E+00 -0.3456566539872E+00  0.0000000000000E+00 -0.1543969399424E+00
 0.3115112628143E+00 -0.3487035847668E+00  0.0000000000000E+00 -0.1375694041973E+00
 0.3148421262864E+00 -0.3499044595067E+00  0.0000000000000E+00 -0.1254823542225E+00
 0.3166672017424E+00 -0.3498590030030E+00  0.0000000000000E+00 -0.1177956527494E+00
 0.3174508544723E+00 -0.3490341585979E+00  0.0000000000000E+00 -0.1140530489509E+00
 0.3175429788625E+00 -0.3477802251225E+00  0.0000000000000E+00 -0.1137395627633E+00
 0.3171979656070E+00 -0.3463535973837E+00  0.0000000000000E+00 -0.1163710430123E+00
 0.3166170918944E+00 -0.3449555657529E+00  0.0000000000000E+00 -0.1214526056965E+00
 0.3159619805957E+00 -0.3437350686871E+00  0.0000000000000E+00 -0.1283794525491E+00
 0.3148957444188E+00 -0.3424747286212E+00  0.0000000000000E+00 -0.1373858482560E+00
 0.3138552930969E+00 -0.3416517562431E+00  0.0000000000000E+00 -0.1480747343123E+00
 0.3138181354515E+00 -0.3421598732860E+00  0.0000000000000E+00 -0.1585575432902E+00
 0.6633432562949E-01 -0.1295609816727E+00  0.0000000000000E+00 -0.3167765891907E+00
 0.1160858534924E+00 -0.1762123777911E+00  0.0000000000000E+00 -0.3240599053340E+00
 0.1604372585858E+00 -0.2174032218315E+00  0.0000000000000E+00 -0.3147647746610E+00
 0.1982714105543E+00 -0.2521037417315E+00  0.0000000000000E+00 -0.2957263869060E+00
 0.2294523110543E+00 -0.2802521769829E+00  0.0000000000000E+00 -0.2718510722408E+00
 0.2544351807094E+00 -0.3023283990971E+00  0.0000000000000E+00 -0.2459833936035E+00
 0.2738523418438E+00 -0.3189504101743E+00  0.0000000000000E+00 -0.2199940120265E+00
 0.2884302497800E+00 -0.3308898367955E+00  0.0000000000000E+00 -0.1960446939898E+00
 0.2991377795064E+00 -0.3391515130137E+00  0.0000000000000E+00 -0.1754296161282E+00
 0.3068965899161E+00 -0.3446733436441E+00  0.0000000000000E+00 -0.1585370852911E+00
 0.3124213845810E+00 -0.3481815616787E+00  0.0000000000000E+00 -0.1453862946074E+00
 0.3162596387733E+00 -0.3502326451715E+00  0.0000000000000E+00 -0.1358564734026E+00
 0.3188530461652E+00 -0.3512731681383E+00  0.0000000000000E+00 -0.1296906500960E+00
 0.3205503030160E+00 -0.3516540380171E+00  0.0000000000000E+00 -0.1265374058107E+00
 0.3216177891114E+00 -0.3516441807266E+00  0.0000000000000E+00 -0.1260325343998E+00
 0.3222746789090E+00 -0.3514634474489E+00  0.0000000000000E+00 -0.1277853823829E+00
 0.3227191005310E+00 -0.3513001323118E+00  0.0000000000000E+00 -0.1313128877143E+00
 0.3227198929096E+00 -0.3510106474893E+00  0.0000000000000E+00 -0.1368489664266E+00
 0.3224908459488E+00 -0.3508462710586E+00  0.0000000000000E+00 -0.1443103846337E+00
 0.3226446188754E+00 -0.3513586411414E+00  0.0000000000000E+00 -0.1523826158546E+00
 0.6047176421288E-01 -0.1222295733311E+00  0.0000000000000E+00 -0.2992706304389E+00
 0.1061054540326E+00 -0.1650264933474E+00  0.0000000000000E+00 -0.3097159416884E+00
 0.1477757354638E+00 -0.2037959725069E+00  0.0000000000000E+00 -0.3057435537471E+00
 0.1842308478174E+00 -0.2373683107182E+00  0.0000000000000E+00 -0.2927998587071E+00
 0.2151346351788E+00 -0.2654696492718E+00  0.0000000000000E+00 -0.2748421353325E+00
 0.2407095487566E+00 -0.2883524065944E+00  0.0000000000000E+00 -0.2542681518392E+00
 0.2613776930427E+00 -0.3064280875263E+00  0.0000000000000E+00 -0.2326425139308E+00
 0.2776704449173E+00 -0.3202668383553E+00  0.0000000000000E+00 -0.2117701176516E+00
 0.2903282886620E+00 -0.3306413694870E+00  0.0000000000000E+00 -0.1929097963931E+00
 0.3000956458755E+00 -0.3383104170390E+00  0.0000000000000E+00 -0.1766172915732E+00
 0.3075838834767E+00 -0.3438950603986E+00  0.0000000000000E+00 -0.1630992623784E+00
 0.3132814293866E+00 -0.3478918086290E+00  0.0000000000000E+00 -0.1524039470086E+00
 0.3175915741696E+00 -0.3507099845342E+00  0.0000000000000E+00 -0.1444433630911E+00
 0.3208436366217E+00 -0.3526822112171E+00  0.0000000000000E+00 -0.1390171588449E+00
 0.3232974045932E+00 -0.3540710009987E+00  0.0000000000000E+00 -0.1358769653384E+00
 0.3251708442319E+00 -0.3550952834178E+00  0.0000000000000E+00 -0.1347272819241E+00
 0.3266748806555E+00 -0.3559589680713E+00  0.0000000000000E+00 -0.1351783717652E+00
 0.3277028350739E+00 -0.3566098637084E+00  0.0000000000000E+00 -0.1373976830105E+00
 0.3283611695849E+00 -0.3571869739262E+00  0.0000000000000E+00 -0.1415558250197E+00
 0.3289900473000E+00 -0.3579938977357E+00  0.0000000000000E+00 -0.1470066493428E+00
 0.5515255786664E-01 -0.1155020228620E+00  0.0000000000000E+00 -0.2825101628953E+00
 0.9704165956049E-01 -0.1547788061037E+00  0.0000000000000E+00 -0.2949658364258E+00
 0.1361046663519E+00 -0.1911862166184E+00  0.0000000000000E+00 -0.2951505152622E+00
 0.1709776686927E+00 -0.2233878320871E+00  0.0000000000000E+00 -0.2873122686650E+00
 0.2012105005028E+00 -0.2510200463483E+00  0.0000000000000E+00 -0.2744631272520E+00
 0.2268918031804E+00 -0.2741972232549E+00  0.0000000000000E+00 -0.2586280370278E+00
 0.2482926611695E+00 -0.2931871522712E+00  0.0000000000000E+00 -0.2411335554289E+00
 0.2658025848235E+00 -0.3084122514414E+00  0.0000000000000E+00 -0.2234519391283E+00
 0.2799761896739E+00 -0.3204543469324E+00  0.0000000000000E+00 -0.2067199110964E+00
 0.2913964263229E+00 -0.3299083318928E+00  0.0000000000000E+00 -0.1915536635929E+00
 0.3005696948327E+00 -0.3372881528158E+00  0.0000000000000E+00 -0.1782685975727E+00
 0.3079188439026E+00 -0.3430232446042E+00  0.0000000000000E+00 -0.1670284173505E+00
 0.3138017616037E+00 -0.3474778600407E+00  0.0000000000000E+00 -0.1578776411988E+00
 0.3185184976532E+00 -0.3509561245179E+00  0.0000000000000E+00 -0.1507510400402E+00
 0.3223099003306E+00 -0.3537021400209E+00  0.0000000000000E+00 -0.1455176095004E+00
 0.3253745841927E+00 -0.3559162862170E+00  0.0000000000000E+00 -0.1419843375243E+00
 0.3279029323465E+00 -0.3577846524466E+00  0.0000000000000E+00 -0.1398496553217E+00
 0.3298848922863E+00 -0.3593236266454E+00  0.0000000000000E+00 -0.1391528139548E+00
 0.3314203627704E+00 -0.3606473812485E+00  0.0000000000000E+00 -0.1401186496225E+00
 0.3327645860486E+00 -0.3619926935146E+00  0.0000000000000E+00 -0.1427247720196E+00
 0.5025114112746E-01 -0.1091540101043E+00  0.0000000000000E+00 -0.2662278406198E+00
 0.8878240429174E-01 -0.1454095721590E+00  0.0000000000000E+00 -0.2796770117486E+00
 0.1253887219208E+00 -0.1795272510561E+00  0.0000000000000E+00 -0.2833222183931E+00
 0.1585068533064E+00 -0.2101630519174E+00  0.0000000000000E+00 -0.2797218144702E+00
 0.1877553838051E+00 -0.2369823076335E+00  0.0000000000000E+00 -0.2711951376783E+00
 0.2131460184087E+00 -0.2600329581000E+00  0.0000000000000E+00 -0.2594784721746E+00
 0.2348432383427E+00 -0.2794822081175E+00  0.0000000000000E+00 -0.2457635715248E+00
 0.2531227500917E+00 -0.2956304417263E+00  0.0000000000000E+00 -0.2312376361385E+00
 0.2683916963023E+00 -0.3089077990439E+00  0.0000000000000E+00 -0.2168532985788E+00
 0.2810967211425E+00 -0.3197708778806E+00  0.0000000000000E+00 -0.2032056414731E+00
 0.2916455134801E+00 -0.3286321477118E+00  0.0000000000000E+00 -0.1906528823885E+00
 0.3003943321336E+00 -0.3358519837480E+00  0.0000000000000E+00 -0.1794187280640E+00
 0.3076562161416E+00 -0.3417494125795E+00  0.0000000000000E+00 -0.1696334803426E+00
 0.3137017554988E+00 -0.3465998363076E+00  0.0000000000000E+00 -0.1613411812006E+00
 0.3187526933912E+00 -0.3506290111933E+00  0.0000000000000E+00 -0.1545251973459E+00
 0.3229856241165E+00 -0.3540179370874E+00  0.0000000000000E+00 -0.1491193490773E+00
 0.3265444049747E+00 -0.3569111753948E+00  0.0000000000000E+00 -0.1449581169494E+00
 0.3294580005561E+00 -0.3593402115726E+00  0.0000000000000E+00 -0.1419864125399E+00
 0.3318024196288E+00 -0.3613960958314E+00  0.0000000000000E+00 -0.1403159690404E+00
 0.3338841478073E+00 -0.3633171055112E+00  0.0000000000000E+00 -0.1399894948333E+00
 0.1106079522019E-01 -0.2019864059903E-01  0.0000000000000E+00  0.1128974025368E+00
 0.1126884679299E-01 -0.2030536849603E-01  0.0000000000000E+00  0.7062494605047E-01
 0.1204429374182E-01 -0.2107107613478E-01  0.0000000000000E+00  0.3548159778467E-01
 0.1353599023527E-01 -0.2253659691539E-01  0.0000000000000E+00  0.6302166766606E-02
 0.1553787750153E-01 -0.2450535032553E-01  0.0000000000000E+00 -0.1787293597566E-01
 0.1782339926690E-01 -0.2675072946847E-01  0.0000000000000E+00 -0.3769649623888E-01
 0.2020781968899E-01 -0.2910541403286E-01  0.0000000000000E+00 -0.5360250935652E-01
 0.2264473557757E-01 -0.3151622577819E-01  0.0000000000000E+00 -0.6601554269431E-01
 0.2507492845401E-01 -0.3391658696132E-01  0.0000000000000E+00 -0.7533664534944E-01
 0.2741912020772E-01 -0.3622619646602E-01  0.0000000000000E+00 -0.8192264037040E-01
 0.2961659976561E-01 -0.3838533452704E-01  0.0000000000000E+00 -0.8609696207374E-01
 0.3162545945684E-01 -0.4035306534264E-01  0.0000000000000E+00 -0.8815860329958E-01
 0.3341393029435E-01 -0.4209455932000E-01  0.0000000000000E+00 -0.8839763181929E-01
 0.3494523055122E-01 -0.4356850908267E-01  0.0000000000000E+00 -0.8709344943687E-01
 0.3618627949077E-01 -0.4473597601149E-01  0.0000000000000E+00 -0.8452167700988E-01
 0.3712647943239E-01 -0.4557615230495E-01  0.0000000000000E+00 -0.8098774324683E-01
 0.3781965320083E-01 -0.4611236814639E-01  0.0000000000000E+00 -0.7687953648637E-01
 0.3832319513295E-01 -0.4640585959185E-01  0.0000000000000E+00 -0.7243506713962E-01
 0.3898951855090E-01 -0.4681535217519E-01  0.0000000000000E+00 -0.6777764553606E-01
 0.4062316403514E-01 -0.4751837492045E-01  0.0000000000000E+00 -0.6122263915960E-01
 0.1064083759191E-01 -0.1826701720348E-01  0.0000000000000E+00  0.1136264658796E+00
 0.9444727061429E-02 -0.1709347412398E-01  0.0000000000000E+00  0.7043537661424E-01
 0.9202296961689E-02 -0.1684464064705E-01  0.0000000000000E+00  0.3530377272772E-01
 0.9811777099099E-02 -0.1744482131852E-01  0.0000000000000E+00  0.6406518060204E-02
 0.1103109703816E-01 -0.1863214434373E-01  0.0000000000000E+00 -0.1731514266056E-01
 0.1256692740819E-01 -0.2012218324462E-01  0.0000000000000E+00 -0.3656054737528E-01
 0.1421993299519E-01 -0.2174009021939E-01  0.0000000000000E+00 -0.5182261046875E-01
 0.1597504695167E-01 -0.2347436419330E-01  0.0000000000000E+00 -0.6364561168047E-01
 0.1778907733055E-01 -0.2527356293278E-01  0.0000000000000E+00 -0.7248336066208E-01
 0.1957720714800E-01 -0.2704822262514E-01  0.0000000000000E+00 -0.7870533700550E-01
 0.2127197523458E-01 -0.2872880924286E-01  0.0000000000000E+00 -0.8265185449125E-01
 0.2283102682038E-01 -0.3027094709109E-01  0.0000000000000E+00 -0.8465165471238E-01
 0.2423051072874E-01 -0.3164522597471E-01  0.0000000000000E+00 -0.8502905611850E-01
 0.2544911748532E-01 -0.3282357379932E-01  0.0000000000000E+00 -0.8408887490801E-01
 0.2648475495055E-01 -0.3379594613108E-01  0.0000000000000E+00 -0.8212221389375E-01
 0.2738108558890E-01 -0.3459257915187E-01  0.0000000000000E+00 -0.7940429387017E-01
 0.2823711195716E-01 -0.3529019142126E-01  0.0000000000000E+00 -0.7611327490859E-01
 0.2910656899237E-01 -0.3597967647295E-01  0.0000000000000E+00 -0.7213825690900E-01
 0.3031402330526E-01 -0.3691333024669E-01  0.0000000000000E+00 -0.6683318354470E-01
 0.3064497870734E-01 -0.3728868220291E-01  0.0000000000000E+00 -0.5934729172217E-01
 0.1011596101592E-01 -0.1627603057933E-01  0.0000000000000E+00  0.1138577096886E+00
 0.7366153190929E-02 -0.1359730810187E-01  0.0000000000000E+00  0.7015758877837E-01
 0.6022687212906E-02 -0.1229278749841E-01  0.0000000000000E+00  0.3514185741470E-01
 0.5769254303659E-02 -0.1204697046275E-01  0.0000000000000E+00  0.6699816608205E-02
 0.6239062098238E-02 -0.1249314462101E-01  0.0000000000000E+00 -0.1644410898748E-01
 0.7074112157042E-02 -0.1328037422433E-01  0.0000000000000E+00 -0.3503339069673E-01
 0.8059179598810E-02 -0.1423222416523E-01  0.0000000000000E+00 -0.4961185499586E-01
 0.9207486649174E-02 -0.1537133619223E-01  0.0000000000000E+00 -0.6083477024516E-01
 0.1048618163941E-01 -0.1665552049191E-01  0.0000000000000E+00 -0.6921392238224E-01
 0.1180574210566E-01 -0.1798727722017E-01  0.0000000000000E+00 -0.7513410306728E-01
 0.1309637726776E-01 -0.1929154794452E-01  0.0000000000000E+00 -0.7895045990871E-01
 0.1432051802832E-01 -0.2052632757427E-01  0.0000000000000E+00 -0.8101080641669E-01
 0.1546435929055E-01 -0.2167016785969E-01  0.0000000000000E+00 -0.8165018665624E-01
 0.1652040675957E-01 -0.2270769233029E-01  0.0000000000000E+00 -0.8116066885201E-01
 0.1750566420228E-01 -0.2364837393215E-01  0.0000000000000E+00 -0.7978284382666E-01
 0.1846929143670E-01 -0.2453163849499E-01  0.0000000000000E+00 -0.7767016949155E-01
 0.1944675085928E-01 -0.2538124741151E-01  0.0000000000000E+00 -0.7481513352023E-01
 0.2042693453442E-01 -0.2621399442955E-01  0.0000000000000E+00 -0.7094225063828E-01
 0.2132821905201E-01 -0.2704039195427E-01  0.0000000000000E+00 -0.6575893823874E-01
 0.2175709392429E-01 -0.2745325025006E-01  0.0000000000000E+00 -0.6027405106718E-01
 0.9441334672271E-02 -0.1412769953376E-01  0.0000000000000E+00  0.1134740399939E+00
 0.5015136913723E-02 -0.9835072768227E-02  0.0000000000000E+00  0.6968967180117E-01
 0.2519593269434E-02 -0.7420940332750E-02  0.0000000000000E+00  0.3508788456188E-01
 0.1417948524413E-02 -0.6355418529820E-02  0.0000000000000E+00  0.7276295548179E-02
 0.1190956282859E-02 -0.6117542722441E-02  0.0000000000000E+00 -0.1516304502194E-01
 0.1391288481075E-02 -0.6274082293718E-02  0.0000000000000E+00 -0.3301666705255E-01
 0.1785423627329E-02 -0.6643017137462E-02  0.0000000000000E+00 -0.4687147453422E-01
 0.2413213315379E-02 -0.7279651468939E-02  0.0000000000000E+00 -0.5749363386914E-01
 0.3249884652781E-02 -0.8147935573523E-02  0.0000000000000E+00 -0.6544757712582E-01
 0.4201254229670E-02 -0.9142377286254E-02  0.0000000000000E+00 -0.7112756825042E-01
 0.5197075384510E-02 -0.1018445484596E-01  0.0000000000000E+00 -0.7489497042027E-01
 0.6204693549141E-02 -0.1123491003015E-01  0.0000000000000E+00 -0.7710236464475E-01
 0.7215522830746E-02 -0.1227607384687E-01  0.0000000000000E+00 -0.7807351794802E-01
 0.8223724882216E-02 -0.1329389977973E-01  0.0000000000000E+00 -0.7806322274229E-01
 0.9240555824483E-02 -0.1429325763241E-01  0.0000000000000E+00 -0.7724890686917E-01
 0.1028284465891E-01 -0.1528459789023E-01  0.0000000000000E+00 -0.7570714808296E-01
 0.1130981772734E-01 -0.1621445566517E-01  0.0000000000000E+00 -0.7338375448103E-01
 0.1224026925219E-01 -0.1705085171561E-01  0.0000000000000E+00 -0.7018831732432E-01
 0.1319796243172E-01 -0.1794524151231E-01  0.0000000000000E+00 -0.6642543774095E-01
 0.1435884272563E-01 -0.1907815894340E-01  0.0000000000000E+00 -0.6288846064554E-01
 0.8583979204488E-02 -0.1178903529305E-01  0.0000000000000E+00  0.1124656681797E+00
 0.2354127362707E-02 -0.5765118701479E-02  0.0000000000000E+00  0.6905474138337E-01
-0.1313704056579E-02 -0.2228686420790E-02  0.0000000000000E+00  0.3520276829995E-01
-0.3225999693733E-02 -0.3858110908093E-03  0.0000000000000E+00  0.8235358787848E-02
-0.4081330871940E-02  0.4612622587460E-03  0.0000000000000E+00 -0.1337254914632E-01
-0.4433007666405E-02  0.8469979712694E-03  0.0000000000000E+00 -0.3041438687350E-01
-0.4539137378430E-02  0.9637724458810E-03  0.0000000000000E+00 -0.4351180408082E-01
-0.4334490082090E-02  0.7257213790013E-03  0.0000000000000E+00 -0.5353944257383E-01
-0.3837641252328E-02  0.1648527643682E-03  0.0000000000000E+00 -0.6110567394339E-01
-0.3147652709350E-02 -0.6049695963150E-03  0.0000000000000E+00 -0.6660371662833E-01
-0.2335635259526E-02 -0.1501352835660E-02  0.0000000000000E+00 -0.7039136928417E-01
-0.1432701766458E-02 -0.2484535767898E-02  0.0000000000000E+00 -0.7281524417798E-01
-0.4500973873363E-03 -0.3532977930939E-02  0.0000000000000E+00 -0.7417745569912E-01
 0.5964665849651E-03 -0.4622365232828E-02  0.0000000000000E+00 -0.7469505957986E-01
 0.1699843053557E-02 -0.5739697223511E-02  0.0000000000000E+00 -0.7450753876304E-01
 0.2845671348345E-02 -0.6864151355534E-02  0.0000000000000E+00 -0.7367560022415E-01
 0.3941559440047E-02 -0.7894171054085E-02  0.0000000000000E+00 -0.7219202333731E-01
 0.4991675913939E-02 -0.8866277864752E-02  0.0000000000000E+00 -0.7020325950540E-01
 0.6356472108910E-02 -0.1016878651647E-01  0.0000000000000E+00 -0.6810287480270E-01
 0.8387562779424E-02 -0.1214630628037E-01  0.0000000000000E+00 -0.6618657497210E-01
 0.7512736115864E-02 -0.9226802488860E-02  0.0000000000000E+00  0.1108085178880E+00
-0.6513780816645E-03 -0.1354140991285E-02  0.0000000000000E+00  0.6830201402566E-01
-0.5487316713051E-02  0.3293320736802E-02  0.0000000000000E+00  0.3557068467341E-01
-0.8146864891452E-02  0.5844358213718E-02  0.0000000000000E+00  0.9675698885121E-02
-0.9542037750729E-02  0.7206698746264E-02  0.0000000000000E+00 -0.1097266195126E-01
-0.1034733367697E-01  0.8030148757358E-02  0.0000000000000E+00 -0.2713471546165E-01
-0.1085038860705E-01  0.8522579486158E-02  0.0000000000000E+00 -0.3945010234696E-01
-0.1096254989546E-01  0.8569846172083E-02  0.0000000000000E+00 -0.4889749121308E-01
-0.1069784914063E-01  0.8201961587905E-02  0.0000000000000E+00 -0.5611771501322E-01
-0.1016063874344E-01  0.7541815475868E-02  0.0000000000000E+00 -0.6149191974436E-01
-0.9424325600817E-02  0.6677302491038E-02  0.0000000000000E+00 -0.6536697045921E-01
-0.8522764666900E-02  0.5653076094458E-02  0.0000000000000E+00 -0.6807864803973E-01
-0.7476085161798E-02  0.4500839178958E-02  0.0000000000000E+00 -0.6990631520829E-01
-0.6314558491085E-02  0.3260134098231E-02  0.0000000000000E+00 -0.7103847641326E-01
-0.5061333951871E-02  0.1960412945274E-02  0.0000000000000E+00 -0.7159935566981E-01
-0.3746558766246E-02  0.6380499576508E-03  0.0000000000000E+00 -0.7166115228670E-01
-0.2465263189598E-02 -0.6009051662026E-03  0.0000000000000E+00 -0.7126652548914E-01
-0.1088465275213E-02 -0.1908766895323E-02  0.0000000000000E+00 -0.7067330525542E-01
 0.8909716640799E-03 -0.3815120396693E-02  0.0000000000000E+00 -0.7017474050551E-01
 0.3789715060366E-02 -0.6643103827195E-02  0.0000000000000E+00 -0.6959599939290E-01
 0.6194791121033E-02 -0.6407299668665E-02  0.0000000000000E+00  0.1084745314988E+00
-0.4035869545312E-02  0.3431587309606E-02  0.0000000000000E+00  0.6749610286517E-01
-0.1000994890576E-01  0.9152515327315E-02  0.0000000000000E+00  0.3629058346859E-01
-0.1332664973391E-01  0.1231610691312E-01  0.0000000000000E+00  0.1170278205174E-01
-0.1515217899330E-01  0.1407873316483E-01  0.0000000000000E+00 -0.7864925736617E-02
-0.1629722450326E-01  0.1521979320741E-01  0.0000000000000E+00 -0.2309075065212E-01
-0.1708287836047E-01  0.1596646725635E-01  0.0000000000000E+00 -0.3461177682640E-01
-0.1739888332771E-01  0.1617872490265E-01  0.0000000000000E+00 -0.4350328752493E-01
-0.1725601544259E-01  0.1588630285162E-01  0.0000000000000E+00 -0.5042600495394E-01
-0.1676386882663E-01  0.1522153667150E-01  0.0000000000000E+00 -0.5573951041552E-01
-0.1599951606413E-01  0.1427955314337E-01  0.0000000000000E+00 -0.5977567582450E-01
-0.1500299591513E-01  0.1311354532728E-01  0.0000000000000E+00 -0.6285797988423E-01
-0.1380636124984E-01  0.1176844877566E-01  0.0000000000000E+00 -0.6524352568674E-01
-0.1245300110036E-01  0.1029773779325E-01  0.0000000000000E+00 -0.6709688627332E-01
-0.1097385614412E-01  0.8739040536676E-02  0.0000000000000E+00 -0.6853245741412E-01
-0.9396394837319E-02  0.7126526992273E-02  0.0000000000000E+00 -0.6962782496707E-01
-0.7793907402218E-02  0.5544593332628E-02  0.0000000000000E+00 -0.7042820587508E-01
-0.5923752969961E-02  0.3737990553054E-02  0.0000000000000E+00 -0.7121693151031E-01
-0.3225524061492E-02  0.1122566436232E-02  0.0000000000000E+00 -0.7212905569066E-01
 0.4979389343625E-03 -0.2516912030219E-02  0.0000000000000E+00 -0.7264929441076E-01
 0.4594494635796E-02 -0.3294131554496E-02  0.0000000000000E+00  0.1054302837349E+00
-0.7834266746754E-02  0.8625846012392E-02  0.0000000000000E+00  0.6671479864543E-01
-0.1488782810221E-01  0.1535398108328E-01  0.0000000000000E+00  0.3747369340212E-01
-0.1874361177328E-01  0.1900673889921E-01  0.0000000000000E+00  0.1442719152011E-01
-0.2086905560565E-01  0.2103380980988E-01  0.0000000000000E+00 -0.3952482392288E-02
-0.2222549181835E-01  0.2235766172019E-01  0.0000000000000E+00 -0.1820195750783E-01
-0.2317012642295E-01  0.2322749917800E-01  0.0000000000000E+00 -0.2893174889947E-01
-0.2357251919516E-01  0.2347942716459E-01  0.0000000000000E+00 -0.3730449128451E-01
-0.2344056767068E-01  0.2314393430799E-01  0.0000000000000E+00 -0.4398819235703E-01
-0.2288812629874E-01  0.2236251524666E-01  0.0000000000000E+00 -0.4931387776269E-01
-0.2199676322369E-01  0.2123882612879E-01  0.0000000000000E+00 -0.5359646628024E-01
-0.2081503108254E-01  0.1983706482860E-01  0.0000000000000E+00 -0.5714507590772E-01
-0.1938745839011E-01  0.1821578581145E-01  0.0000000000000E+00 -0.6019064446705E-01
-0.1776639098375E-01  0.1643794799284E-01  0.0000000000000E+00 -0.6286884632410E-01
-0.1598172828414E-01  0.1454032454969E-01  0.0000000000000E+00 -0.6527450125280E-01
-0.1404713745396E-01  0.1254312054594E-01  0.0000000000000E+00 -0.6746641221748E-01
-0.1200604170752E-01  0.1050074122300E-01  0.0000000000000E+00 -0.6944721803263E-01
-0.9533341989672E-02  0.8084298884327E-02  0.0000000000000E+00 -0.7147527173305E-01
-0.6081024863623E-02  0.4719997245826E-02  0.0000000000000E+00 -0.7354747691291E-01
-0.1590654060051E-02  0.3228424888831E-03  0.0000000000000E+00 -0.7493610066140E-01
 0.2672609660768E-02  0.1525268010109E-03  0.0000000000000E+00  0.1016376587124E+00
-0.1208216431032E-01  0.1426283586813E-01  0.0000000000000E+00  0.6604907616741E-01
-0.2012396968079E-01  0.2189951291181E-01  0.0000000000000E+00  0.3924196526998E-01
-0.2437153918383E-01  0.2588920023108E-01  0.0000000000000E+00  0.1796291568101E-01
-0.2664604195919E-01  0.2802456955770E-01  0.0000000000000E+00  0.8584124138561E-03
-0.2807240493912E-01  0.2938305499616E-01  0.0000000000000E+00 -0.1239526292992E-01
-0.2904478789435E-01  0.3023688855746E-01  0.0000000000000E+00 -0.2235551119509E-01
-0.2941334218152E-01  0.3039980922077E-01  0.0000000000000E+00 -0.3026190932284E-01
-0.2918225257373E-01  0.2990314714242E-01  0.0000000000000E+00 -0.3677821243943E-01
-0.2846762293859E-01  0.2889650964266E-01  0.0000000000000E+00 -0.4220249685722E-01
-0.2735603345770E-01  0.2749309396498E-01  0.0000000000000E+00 -0.4683082200064E-01
-0.2590627780356E-01  0.2576978226883E-01  0.0000000000000E+00 -0.5095185547625E-01
-0.2417465358238E-01  0.2379756427860E-01  0.0000000000000E+00 -0.5475948963556E-01
-0.2221760676648E-01  0.2164347314244E-01  0.0000000000000E+00 -0.5834697744991E-01
-0.2005746613431E-01  0.1933627789340E-01  0.0000000000000E+00 -0.6177129502447E-01
-0.1768929163550E-01  0.1687690779081E-01  0.0000000000000E+00 -0.6504639752935E-01
-0.1512782604049E-01  0.1429017767885E-01  0.0000000000000E+00 -0.6809903431798E-01
-0.1200007076879E-01  0.1120647539180E-01  0.0000000000000E+00 -0.7114227119935E-01
-0.7810022362986E-02  0.7102316681850E-02  0.0000000000000E+00 -0.7408460337326E-01
-0.2625949139405E-02  0.2016194460096E-02  0.0000000000000E+00 -0.7609701259668E-01
 0.3857679138888E-03  0.3976497014555E-02  0.0000000000000E+00  0.9705428713227E-01
-0.1681571720338E-01  0.2037699806796E-01  0.0000000000000E+00  0.6560392989124E-01
-0.2571754789473E-01  0.2878697630265E-01  0.0000000000000E+00  0.4172688100998E-01
-0.3017935969977E-01  0.3293166474020E-01  0.0000000000000E+00  0.2242532822781E-01
-0.3243268000827E-01  0.3499999796898E-01  0.0000000000000E+00  0.6656765835955E-02
-0.3377595141676E-01  0.3623313215571E-01  0.0000000000000E+00 -0.5605905431759E-02
-0.3463862990329E-01  0.3692496779712E-01  0.0000000000000E+00 -0.1483938964429E-01
-0.3485159614476E-01  0.3686792283626E-01  0.0000000000000E+00 -0.2234963624571E-01
-0.3441334152386E-01  0.3609352730520E-01  0.0000000000000E+00 -0.2878660687412E-01
-0.3343954168019E-01  0.3475810770037E-01  0.0000000000000E+00 -0.3441316519265E-01
-0.3202256280399E-01  0.3298563197422E-01  0.0000000000000E+00 -0.3950217802384E-01
-0.3023305836610E-01  0.3086693516917E-01  0.0000000000000E+00 -0.4430916805782E-01
-0.2813761398154E-01  0.2848313681823E-01  0.0000000000000E+00 -0.4897295000099E-01
-0.2579193559215E-01  0.2589963322543E-01  0.0000000000000E+00 -0.5352557734173E-01
-0.2320647960670E-01  0.2313212881639E-01  0.0000000000000E+00 -0.5796649762254E-01
-0.2035726646543E-01  0.2016119013887E-01  0.0000000000000E+00 -0.6224405250850E-01
-0.1723570460450E-01  0.1698680743979E-01  0.0000000000000E+00 -0.6619103254465E-01
-0.1345312910023E-01  0.1322895521888E-01  0.0000000000000E+00 -0.6997329626194E-01
-0.8586652500532E-02  0.8437030053502E-02  0.0000000000000E+00 -0.7346975213918E-01
-0.2803771845635E-02  0.2750861071939E-02  0.0000000000000E+00 -0.7584393786221E-01
-0.2313980739759E-02  0.8226010985440E-02  0.0000000000000E+00  0.9163423237601E-01
-0.2207125120908E-01  0.2700255074693E-01  0.0000000000000E+00  0.6549951558767E-01
-0.3166324015894E-01  0.3600960769607E-01  0.0000000000000E+00  0.4506809812491E-01
-0.3613104347708E-01  0.4009746404226E-01  0.0000000000000E+00  0.2792886962478E-01
-0.3817511765112E-01  0.4190593713671E-01  0.0000000000000E+00  0.1352534817508E-01
-0.3927218813087E-01  0.4284332413439E-01  0.0000000000000E+00  0.2222525479159E-02
-0.3988225698976E-01  0.4322087080031E-01  0.0000000000000E+00 -0.6349815697814E-02
-0.3981703936553E-01  0.4281100980065E-01  0.0000000000000E+00 -0.1355467310036E-01
-0.3906679590031E-01  0.4164492127919E-01  0.0000000000000E+00 -0.2002136270889E-01
-0.3774409565425E-01  0.3988466691017E-01  0.0000000000000E+00 -0.2597600090320E-01
-0.3594857487721E-01  0.3766676918073E-01  0.0000000000000E+00 -0.3165827846315E-01
-0.3376407798180E-01  0.3509652336725E-01  0.0000000000000E+00 -0.3726923015647E-01
-0.3126474695123E-01  0.3226115927489E-01  0.0000000000000E+00 -0.4286873481430E-01
-0.2850029172747E-01  0.2921801833327E-01  0.0000000000000E+00 -0.4840806940748E-01
-0.2546652112757E-01  0.2596607653052E-01  0.0000000000000E+00 -0.5381369182982E-01
-0.2212266936492E-01  0.2246722570720E-01  0.0000000000000E+00 -0.5895737337505E-01
-0.1844405391406E-01  0.1870352231196E-01  0.0000000000000E+00 -0.6357428617326E-01
-0.1405511409339E-01  0.1431145719279E-01  0.0000000000000E+00 -0.6779233226852E-01
-0.8615330689200E-02  0.8924402442895E-02  0.0000000000000E+00 -0.7151851895959E-01
-0.2355829977731E-02  0.2752793496692E-02  0.0000000000000E+00 -0.7398615635275E-01
-0.5479541401129E-02  0.1295401906696E-01  0.0000000000000E+00  0.8532911890162E-01
-0.2788454249110E-01  0.3417264134960E-01  0.0000000000000E+00  0.6587241074368E-01
-0.3795052192281E-01  0.4355524179619E-01  0.0000000000000E+00  0.4941148758930E-01
-0.4218588269233E-01  0.4734541822176E-01  0.0000000000000E+00  0.3458420031161E-01
-0.4381700611027E-01  0.4868613177228E-01  0.0000000000000E+00  0.2153963574023E-01
-0.4449561903650E-01  0.4914781264106E-01  0.0000000000000E+00  0.1113944708736E-01
-0.4470430064718E-01  0.4905163332790E-01  0.0000000000000E+00  0.3138631872297E-02
-0.4423745240315E-01  0.4815373652548E-01  0.0000000000000E+00 -0.3876640141381E-02
-0.4307524654378E-01  0.4648615094034E-01  0.0000000000000E+00 -0.1051055810564E-01
-0.4132509237624E-01  0.4421682008135E-01  0.0000000000000E+00 -0.1694828927993E-01
-0.3909580986095E-01  0.4149661787420E-01  0.0000000000000E+00 -0.2337612369146E-01
-0.3648417270100E-01  0.3844341583998E-01  0.0000000000000E+00 -0.2990918871342E-01
-0.3356651033590E-01  0.3514328596362E-01  0.0000000000000E+00 -0.3650193544098E-01
-0.3038011398137E-01  0.3163765963054E-01  0.0000000000000E+00 -0.4301010624360E-01
-0.2690440969346E-01  0.2790620410672E-01  0.0000000000000E+00 -0.4928124643937E-01
-0.2308609467721E-01  0.2389607432449E-01  0.0000000000000E+00 -0.5511199152276E-01
-0.1889309071504E-01  0.1958013853485E-01  0.0000000000000E+00 -0.6014920781829E-01
-0.1398861183866E-01  0.1463547960146E-01  0.0000000000000E+00 -0.6449881121387E-01
-0.8116556986584E-02  0.8783422942047E-02  0.0000000000000E+00 -0.6814649601931E-01
-0.1532304818346E-02  0.2269550113382E-02  0.0000000000000E+00 -0.7045388323478E-01
-0.9169029692447E-02  0.1821835945291E-01  0.0000000000000E+00  0.7809014807986E-01
-0.3428961439018E-01  0.4191793300260E-01  0.0000000000000E+00  0.6687691430102E-01
-0.4456290193350E-01  0.5140541276825E-01  0.0000000000000E+00  0.5490597212028E-01
-0.4829940146012E-01  0.5463085059741E-01  0.0000000000000E+00  0.4249443993094E-01
-0.4930108562016E-01  0.5528410622278E-01  0.0000000000000E+00  0.3076768861814E-01
-0.4937939229006E-01  0.5507990130378E-01  0.0000000000000E+00  0.2119103412566E-01
-0.4902947482602E-01  0.5434004295677E-01  0.0000000000000E+00  0.1364664268780E-01
-0.4803603838296E-01  0.5281511536512E-01  0.0000000000000E+00  0.6671283509803E-02
-0.4636984768130E-01  0.5054352023127E-01  0.0000000000000E+00 -0.3086140102975E-03
-0.4413150839135E-01  0.4770013152336E-01  0.0000000000000E+00 -0.7423091376891E-02
-0.4143944174780E-01  0.4444943142666E-01  0.0000000000000E+00 -0.1476841568120E-01
-0.3839871399546E-01  0.4091427846323E-01  0.0000000000000E+00 -0.2233298755451E-01
-0.3507803152399E-01  0.3716714599684E-01  0.0000000000000E+00 -0.2994324188312E-01
-0.3149444645679E-01  0.3322424098598E-01  0.0000000000000E+00 -0.3735688407337E-01
-0.2761071501485E-01  0.2904512517950E-01  0.0000000000000E+00 -0.4435089002162E-01
-0.2336750743115E-01  0.2456889601769E-01  0.0000000000000E+00 -0.5066146439980E-01
-0.1873581078594E-01  0.1977021348681E-01  0.0000000000000E+00 -0.5586738345730E-01
-0.1344071249208E-01  0.1438870975081E-01  0.0000000000000E+00 -0.6007199351217E-01
-0.7308369577749E-02  0.8233362123424E-02  0.0000000000000E+00 -0.6337819849577E-01
-0.5787234505812E-03  0.1547880714271E-02  0.0000000000000E+00 -0.6531245804619E-01
-0.1344578007168E-01  0.2408169666836E-01  0.0000000000000E+00  0.6987186361493E-01
-0.4131670402890E-01  0.5026419710177E-01  0.0000000000000E+00  0.6868644171448E-01
-0.5147706914847E-01  0.5953421818834E-01  0.0000000000000E+00  0.6169810737266E-01
-0.5442543338356E-01  0.6190788048563E-01  0.0000000000000E+00  0.5174973940474E-01
-0.5457186459342E-01  0.6164644704833E-01  0.0000000000000E+00  0.4127201213385E-01
-0.5385475542710E-01  0.6057173469541E-01  0.0000000000000E+00  0.3242819244623E-01
-0.5277433822773E-01  0.5899990035689E-01  0.0000000000000E+00  0.2519503510507E-01
-0.5112720735369E-01  0.5670341624526E-01  0.0000000000000E+00  0.1805771380934E-01
-0.4887969404372E-01  0.5373986061530E-01  0.0000000000000E+00  0.1049099049999E-01
-0.4612139341492E-01  0.5028942090801E-01  0.0000000000000E+00  0.2457886950862E-02
-0.4297436420823E-01  0.4652070977692E-01  0.0000000000000E+00 -0.5988985850787E-02
-0.3953884201111E-01  0.4254344202271E-01  0.0000000000000E+00 -0.1466777125794E-01
-0.3586067402625E-01  0.3839811850993E-01  0.0000000000000E+00 -0.2327026742331E-01
-0.3192886953362E-01  0.3406690354110E-01  0.0000000000000E+00 -0.3147449409587E-01
-0.2769232151710E-01  0.2949231046957E-01  0.0000000000000E+00 -0.3901192536473E-01
-0.2309521230569E-01  0.2461571461294E-01  0.0000000000000E+00 -0.4558425013110E-01
-0.1812386638450E-01  0.1942675980539E-01  0.0000000000000E+00 -0.5073015847367E-01
-0.1258606535957E-01  0.1374788265017E-01  0.0000000000000E+00 -0.5456986638277E-01
-0.6385495937335E-02  0.7472804542688E-02  0.0000000000000E+00 -0.5734557215093E-01
 0.2903570464152E-03  0.8077164987777E-03  0.0000000000000E+00 -0.5876083845879E-01
-0.1837776731837E-01  0.3061104985052E-01  0.0000000000000E+00  0.6063954468176E-01
-0.4898859158654E-01  0.5922794812330E-01  0.0000000000000E+00  0.7149556289827E-01
-0.5866184433713E-01  0.6790658517977E-01  0.0000000000000E+00  0.6992215289923E-01
-0.6052055245437E-01  0.6913439059567E-01  0.0000000000000E+00  0.6241859674566E-01
-0.5958009027301E-01  0.6772853753088E-01  0.0000000000000E+00  0.5311590287898E-01
-0.5784827815397E-01  0.6555186374203E-01  0.0000000000000E+00  0.4492227595219E-01
-0.5583861580883E-01  0.6292600379656E-01  0.0000000000000E+00  0.3780971442069E-01
-0.5341070833669E-01  0.5970883284794E-01  0.0000000000000E+00  0.3021907906413E-01
-0.5053397209345E-01  0.5599655329807E-01  0.0000000000000E+00  0.2173242191677E-01
-0.4727049148963E-01  0.5195860521901E-01  0.0000000000000E+00  0.1248868512962E-01
-0.4372460759985E-01  0.4773787150401E-01  0.0000000000000E+00  0.2768421609661E-02
-0.3996662338562E-01  0.4339858778021E-01  0.0000000000000E+00 -0.7049968797417E-02
-0.3600114518049E-01  0.3892825301477E-01  0.0000000000000E+00 -0.1655068911379E-01
-0.3178540871373E-01  0.3427168494264E-01  0.0000000000000E+00 -0.2537729443425E-01
-0.2726286443486E-01  0.2936413806916E-01  0.0000000000000E+00 -0.3325421308590E-01
-0.2239403307844E-01  0.2416337726139E-01  0.0000000000000E+00 -0.3987953315214E-01
-0.1719353396970E-01  0.1868806355783E-01  0.0000000000000E+00 -0.4478380211450E-01
-0.1157057018326E-01  0.1286216277720E-01  0.0000000000000E+00 -0.4811989287695E-01
-0.5499558306564E-02  0.6659380314478E-02  0.0000000000000E+00 -0.5027200789031E-01
 0.9166718626501E-03  0.2164949283117E-03  0.0000000000000E+00 -0.5110945808368E-01
-0.2403543410047E-01  0.3787670172208E-01  0.0000000000000E+00  0.5038529803459E-01
-0.5731326733285E-01  0.6880748560928E-01  0.0000000000000E+00  0.7552479577838E-01
-0.6607660272598E-01  0.7647511593444E-01  0.0000000000000E+00  0.7968022590643E-01
-0.6655381321145E-01  0.7628301117711E-01  0.0000000000000E+00  0.7453220869992E-01
-0.6429001641154E-01  0.7350497219613E-01  0.0000000000000E+00  0.6638118634785E-01
-0.6127282597020E-01  0.6993582565891E-01  0.0000000000000E+00  0.5879486622240E-01
-0.5808861652858E-01  0.6597448368983E-01  0.0000000000000E+00  0.5152038208480E-01
-0.5476627493403E-01  0.6169578250450E-01  0.0000000000000E+00  0.4302435673126E-01
-0.5127212462879E-01  0.5724507616472E-01  0.0000000000000E+00  0.3316015894131E-01
-0.4758841465013E-01  0.5271929759796E-01  0.0000000000000E+00  0.2238904992049E-01
-0.4375483570786E-01  0.4817318353666E-01  0.0000000000000E+00  0.1128793531207E-01
-0.3977722009989E-01  0.4358280829791E-01  0.0000000000000E+00  0.4031234739830E-03
-0.3560581757402E-01  0.3886971913876E-01  0.0000000000000E+00 -0.9819627938920E-02
-0.3117284098532E-01  0.3395108392225E-01  0.0000000000000E+00 -0.1905652180187E-01
-0.2643190838254E-01  0.2877271417958E-01  0.0000000000000E+00 -0.2706405754881E-01
-0.2137429301127E-01  0.2332444049775E-01  0.0000000000000E+00 -0.3356346999723E-01
-0.1605382875363E-01  0.1766567991281E-01  0.0000000000000E+00 -0.3811060336107E-01
-0.1049851962591E-01  0.1183983484155E-01  0.0000000000000E+00 -0.4090014648848E-01
-0.4744328555337E-02  0.5894132088545E-02  0.0000000000000E+00 -0.4244085489323E-01
 0.1217079904396E-02 -0.1307591666115E-03  0.0000000000000E+00 -0.4273681651197E-01
-0.3048562470927E-01  0.4595040814411E-01  0.0000000000000E+00  0.3916577277861E-01
-0.6626663021315E-01  0.7896236576802E-01  0.0000000000000E+00  0.8103784074998E-01
-0.7366870349275E-01  0.8517150013066E-01  0.0000000000000E+00  0.9099497792707E-01
-0.7252985374266E-01  0.8337040770383E-01  0.0000000000000E+00  0.8805450040442E-01
-0.6868969551937E-01  0.7898516336388E-01  0.0000000000000E+00  0.8121760670422E-01
-0.6400133243638E-01  0.7359804800262E-01  0.0000000000000E+00  0.7427109864124E-01
-0.5932912022492E-01  0.6792551684849E-01  0.0000000000000E+00  0.6632908887750E-01
-0.5505939677973E-01  0.6250895011116E-01  0.0000000000000E+00  0.5619730754189E-01
-0.5107037353459E-01  0.5745750502487E-01  0.0000000000000E+00  0.4437746155217E-01
-0.4714248660278E-01  0.5264842014233E-01  0.0000000000000E+00  0.3181948070263E-01
-0.4317871994020E-01  0.4795270094009E-01  0.0000000000000E+00  0.1937796932089E-01
-0.3909282436348E-01  0.4322693819960E-01  0.0000000000000E+00  0.7634181944686E-02
-0.3478841395561E-01  0.3834102096461E-01  0.0000000000000E+00 -0.3060765708452E-02
-0.3019451693831E-01  0.3321120989286E-01  0.0000000000000E+00 -0.1247792514990E-01
-0.2529515296949E-01  0.2781605026966E-01  0.0000000000000E+00 -0.2042608023338E-01
-0.2012389304018E-01  0.2218931603030E-01  0.0000000000000E+00 -0.2666563392482E-01
-0.1477896236601E-01  0.1643684201020E-01  0.0000000000000E+00 -0.3081475630094E-01
-0.9425520541507E-02  0.1074049394665E-01  0.0000000000000E+00 -0.3311107910072E-01
-0.4149125221810E-02  0.5213686679772E-02  0.0000000000000E+00 -0.3415203724966E-01
 0.1191057061087E-02 -0.2206169049642E-03  0.0000000000000E+00 -0.3403116454659E-01
-0.3776535671476E-01  0.5490634133683E-01  0.0000000000000E+00  0.2723522048396E-01
-0.7574458212463E-01  0.8954277630928E-01  0.0000000000000E+00  0.8839300697318E-01
-0.8137054597353E-01  0.9389887655337E-01  0.0000000000000E+00  0.1036801746433E+00
-0.7855076258575E-01  0.9052769398606E-01  0.0000000000000E+00  0.1028227955554E+00
-0.7279403142317E-01  0.8424243727151E-01  0.0000000000000E+00  0.9799410987467E-01
-0.6579500265682E-01  0.7626887830397E-01  0.0000000000000E+00  0.9174390734668E-01
-0.5928044238460E-01  0.6845798156249E-01  0.0000000000000E+00  0.8207335406195E-01
-0.5417911600358E-01  0.6201423709445E-01  0.0000000000000E+00  0.6920173957968E-01
-0.4999036513800E-01  0.5670424838416E-01  0.0000000000000E+00  0.5483299480991E-01
-0.4608145115307E-01  0.5191557928529E-01  0.0000000000000E+00  0.4045393673373E-01
-0.4215236698576E-01  0.4724666700415E-01  0.0000000000000E+00  0.2694956751719E-01
-0.3804351959244E-01  0.4246733130473E-01  0.0000000000000E+00  0.1468055955366E-01
-0.3365294408273E-01  0.3744865218997E-01  0.0000000000000E+00  0.3793088038706E-02
-0.2893748603915E-01  0.3214098977302E-01  0.0000000000000E+00 -0.5593330337909E-02
-0.2392870244403E-01  0.2657247169428E-01  0.0000000000000E+00 -0.1333011306719E-01
-0.1870572520507E-01  0.2082421930901E-01  0.0000000000000E+00 -0.1922364543993E-01
-0.1340659728387E-01  0.1504245249479E-01  0.0000000000000E+00 -0.2300117430032E-01
-0.8357850954527E-02  0.9573525957762E-02  0.0000000000000E+00 -0.2493947733673E-01
-0.3680277791157E-02  0.4589825356237E-02  0.0000000000000E+00 -0.2567335010084E-01
 0.9162347407887E-03 -0.1182743049362E-03  0.0000000000000E+00 -0.2533178480869E-01
-0.4583517841104E-01  0.6483032198371E-01  0.0000000000000E+00  0.1538124526301E-01
-0.8537292073411E-01  0.1000988930180E+00  0.0000000000000E+00  0.9834926348677E-01
-0.8913759411235E-01  0.1024240490257E+00  0.0000000000000E+00  0.1167662987291E+00
-0.8499892868170E-01  0.9840322947202E-01  0.0000000000000E+00  0.1185497078413E+00
-0.7653756730597E-01  0.8918596021320E-01  0.0000000000000E+00  0.1177880946796E+00
-0.6619116053089E-01  0.7743176817934E-01  0.0000000000000E+00  0.1116110638104E+00
-0.5760212616550E-01  0.6715996855494E-01  0.0000000000000E+00  0.9818341815310E-01
-0.5213177662541E-01  0.6020953018369E-01  0.0000000000000E+00  0.8111362605416E-01
-0.4824581722127E-01  0.5523718121235E-01  0.0000000000000E+00  0.6391570041809E-01
-0.4463096531774E-01  0.5077301520431E-01  0.0000000000000E+00  0.4814287249293E-01
-0.4083919768035E-01  0.4622698153121E-01  0.0000000000000E+00  0.3408840062216E-01
-0.3673952029897E-01  0.4141553455325E-01  0.0000000000000E+00  0.2166606729155E-01
-0.3227991764541E-01  0.3627434874842E-01  0.0000000000000E+00  0.1083279510067E-01
-0.2746700342632E-01  0.3080638065378E-01  0.0000000000000E+00  0.1640000829928E-02
-0.2238931091338E-01  0.2510185801070E-01  0.0000000000000E+00 -0.5779744953583E-02
-0.1716217797126E-01  0.1927569355002E-01  0.0000000000000E+00 -0.1127444078717E-01
-0.1194341354849E-01  0.1349402171424E-01  0.0000000000000E+00 -0.1474373575342E-01
-0.7255476294832E-02  0.8298091440136E-02  0.0000000000000E+00 -0.1650975357076E-01
-0.3244543236343E-02  0.3931216689964E-02  0.0000000000000E+00 -0.1719533388091E-01
 0.5391566180277E-03  0.3990455904102E-04  0.0000000000000E+00 -0.1688433044303E-01
-0.5316572713892E-01  0.7611947424952E-01  0.0000000000000E+00  0.1055786656827E-01
-0.9364166878200E-01  0.1070196646092E+00  0.0000000000000E+00  0.1116008191693E+00
-0.9766794114747E-01  0.1125901525919E+00  0.0000000000000E+00  0.1259976065127E+00
-0.9255827153198E-01  0.1075496413257E+00  0.0000000000000E+00  0.1369242029569E+00
-0.7948961896387E-01  0.9344549545270E-01  0.0000000000000E+00  0.1422027047782E+00
-0.6442252895212E-01  0.7615569511511E-01  0.0000000000000E+00  0.1340299569161E+00
-0.5401290781171E-01  0.6365075121061E-01  0.0000000000000E+00  0.1132017290546E+00
-0.4923845765544E-01  0.5748915986833E-01  0.0000000000000E+00  0.9063693151809E-01
-0.4621675485620E-01  0.5349485183079E-01  0.0000000000000E+00  0.7131731371656E-01
-0.4302025891641E-01  0.4946476264901E-01  0.0000000000000E+00  0.5508996603335E-01
-0.3935418161604E-01  0.4500350811864E-01  0.0000000000000E+00  0.4103059948031E-01
-0.3525503453557E-01  0.4014445509263E-01  0.0000000000000E+00  0.2872383156735E-01
-0.3072895875470E-01  0.3488215787984E-01  0.0000000000000E+00  0.1814094431624E-01
-0.2582103976579E-01  0.2924533766191E-01  0.0000000000000E+00  0.9268564680815E-02
-0.2071297015915E-01  0.2343381706888E-01  0.0000000000000E+00  0.2174186863608E-02
-0.1554267405016E-01  0.1761469818731E-01  0.0000000000000E+00 -0.2872286601184E-02
-0.1038288346611E-01  0.1178868810325E-01  0.0000000000000E+00 -0.5979703664817E-02
-0.6011488521389E-02  0.6791035516764E-02  0.0000000000000E+00 -0.7806829917846E-02
-0.2672437950213E-02  0.3067435142847E-02  0.0000000000000E+00 -0.8840143042844E-02
 0.2555918922393E-03  0.7300968906060E-04  0.0000000000000E+00 -0.8855950927739E-02
 0.3351443150213E+00 -0.3650196978407E+00  0.0000000000000E+00 -0.1393095046677E+00
 0.3344980438146E+00 -0.3643547792931E+00  0.0000000000000E+00 -0.1440780628878E+00
 0.3313857159685E+00 -0.3611049617363E+00  0.0000000000000E+00 -0.1497503501876E+00
 0.3259191686593E+00 -0.3554433447847E+00  0.0000000000000E+00 -0.1563824500170E+00
 0.3181371312834E+00 -0.3474103303843E+00  0.0000000000000E+00 -0.1638020125170E+00
 0.3080811453060E+00 -0.3370406812838E+00  0.0000000000000E+00 -0.1717508468506E+00
 0.2958197917923E+00 -0.3243911490372E+00  0.0000000000000E+00 -0.1799080452455E+00
 0.2814465448944E+00 -0.3095400692861E+00  0.0000000000000E+00 -0.1878937370896E+00
 0.2650757518713E+00 -0.2925832121853E+00  0.0000000000000E+00 -0.1952681736024E+00
 0.2468387356265E+00 -0.2736294125523E+00  0.0000000000000E+00 -0.2015270367556E+00
 0.2268814673394E+00 -0.2527974817907E+00  0.0000000000000E+00 -0.2060919075613E+00
 0.2053650605174E+00 -0.2302156534285E+00  0.0000000000000E+00 -0.2082945578485E+00
 0.1824709831577E+00 -0.2060253607962E+00  0.0000000000000E+00 -0.2073539416920E+00
 0.1584137948817E+00 -0.1803920144316E+00  0.0000000000000E+00 -0.2023451097329E+00
 0.1334656278942E+00 -0.1535267776334E+00  0.0000000000000E+00 -0.1921595331987E+00
 0.1079993437788E+00 -0.1257257681093E+00  0.0000000000000E+00 -0.1754554917460E+00
 0.8256472967696E-01 -0.9743980790209E-01  0.0000000000000E+00 -0.1505934532676E+00
 0.5803743364191E-01 -0.6941006619573E-01  0.0000000000000E+00 -0.1155407045826E+00
 0.3596763372301E-01 -0.4298889429102E-01  0.0000000000000E+00 -0.6774414651622E-01
 0.1996639330167E-01 -0.2142216364567E-01  0.0000000000000E+00 -0.4479936556086E-02
 0.3357613564718E+00 -0.3656624500347E+00  0.0000000000000E+00 -0.1358676994517E+00
 0.3362558827746E+00 -0.3662608848573E+00  0.0000000000000E+00 -0.1413354877924E+00
 0.3345262377517E+00 -0.3645634952206E+00  0.0000000000000E+00 -0.1474991154703E+00
 0.3304985297754E+00 -0.3605081994033E+00  0.0000000000000E+00 -0.1545931697935E+00
 0.3241957015866E+00 -0.3541325953074E+00  0.0000000000000E+00 -0.1625654140281E+00
 0.3156580917117E+00 -0.3454745808383E+00  0.0000000000000E+00 -0.1711777783187E+00
 0.3049416510965E+00 -0.3345816520720E+00  0.0000000000000E+00 -0.1801003482603E+00
 0.2921233032450E+00 -0.3215180915379E+00  0.0000000000000E+00 -0.1889379858379E+00
 0.2773008790412E+00 -0.3063656825058E+00  0.0000000000000E+00 -0.1972384497254E+00
 0.2605911357473E+00 -0.2892215186255E+00  0.0000000000000E+00 -0.2044917391889E+00
 0.2421276587424E+00 -0.2701952812016E+00  0.0000000000000E+00 -0.2101232990784E+00
 0.2220604585997E+00 -0.2494077917996E+00  0.0000000000000E+00 -0.2134803428150E+00
 0.2005593089229E+00 -0.2269927811796E+00  0.0000000000000E+00 -0.2138097417869E+00
 0.1778235962056E+00 -0.2031044372301E+00  0.0000000000000E+00 -0.2102256834021E+00
 0.1541024989412E+00 -0.1779342270753E+00  0.0000000000000E+00 -0.2016648607831E+00
 0.1297307035556E+00 -0.1517417013997E+00  0.0000000000000E+00 -0.1868245963246E+00
 0.1051880194727E+00 -0.1249060786540E+00  0.0000000000000E+00 -0.1640676681499E+00
 0.8120262898841E-01 -0.9801433540939E-01  0.0000000000000E+00 -0.1312371641226E+00
 0.5898049380094E-01 -0.7204593389624E-01  0.0000000000000E+00 -0.8518141299018E-01
 0.4113624565556E-01 -0.4903532956020E-01  0.0000000000000E+00 -0.1971381249001E-01
 0.3358971377371E+00 -0.3658024381290E+00  0.0000000000000E+00 -0.1314411563004E+00
 0.3373455922885E+00 -0.3674558302515E+00  0.0000000000000E+00 -0.1371189281516E+00
 0.3368421191370E+00 -0.3671174183114E+00  0.0000000000000E+00 -0.1436009585852E+00
 0.3342042638480E+00 -0.3646086656958E+00  0.0000000000000E+00 -0.1510133374255E+00
 0.3293828885562E+00 -0.3598847842939E+00  0.0000000000000E+00 -0.1593338185292E+00
 0.3223859036782E+00 -0.3529544106056E+00  0.0000000000000E+00 -0.1683675654132E+00
 0.3132472170016E+00 -0.3438458926504E+00  0.0000000000000E+00 -0.1777989514441E+00
 0.3020217753739E+00 -0.3326047161171E+00  0.0000000000000E+00 -0.1872312143141E+00
 0.2887853989697E+00 -0.3192940627601E+00  0.0000000000000E+00 -0.1962040905089E+00
 0.2736337624360E+00 -0.3039939911590E+00  0.0000000000000E+00 -0.2041993066502E+00
 0.2566807290627E+00 -0.2867994665100E+00  0.0000000000000E+00 -0.2106374526036E+00
 0.2380572925050E+00 -0.2678186019883E+00  0.0000000000000E+00 -0.2148664117624E+00
 0.2179130315459E+00 -0.2471729267577E+00  0.0000000000000E+00 -0.2161395866863E+00
 0.1964226749057E+00 -0.2250020929918E+00  0.0000000000000E+00 -0.2135812527803E+00
 0.1738011521045E+00 -0.2014761553134E+00  0.0000000000000E+00 -0.2061357914423E+00
 0.1503308605930E+00 -0.1768188611964E+00  0.0000000000000E+00 -0.1924960326611E+00
 0.1264025125581E+00 -0.1513434918575E+00  0.0000000000000E+00 -0.1709989683669E+00
 0.1025637896976E+00 -0.1254944269921E+00  0.0000000000000E+00 -0.1394386866661E+00
 0.7954852517129E-01 -0.9986814502154E-01  0.0000000000000E+00 -0.9459423524650E-01
 0.5796892380704E-01 -0.7494545829505E-01  0.0000000000000E+00 -0.3043111929476E-01
 0.3354926733636E+00 -0.3653645954222E+00  0.0000000000000E+00 -0.1262167247470E+00
 0.3377825144205E+00 -0.3679459330439E+00  0.0000000000000E+00 -0.1317139697667E+00
 0.3383641599756E+00 -0.3688062607002E+00  0.0000000000000E+00 -0.1382232153695E+00
 0.3370112791482E+00 -0.3677189114539E+00  0.0000000000000E+00 -0.1457426711794E+00
 0.3336149867330E+00 -0.3645760270022E+00  0.0000000000000E+00 -0.1542164986842E+00
 0.3281348668405E+00 -0.3593364445877E+00  0.0000000000000E+00 -0.1634673201326E+00
 0.3205689241952E+00 -0.3519945708712E+00  0.0000000000000E+00 -0.1732019124964E+00
 0.3109409128957E+00 -0.3425674163107E+00  0.0000000000000E+00 -0.1830354527738E+00
 0.2992963558915E+00 -0.3310912580222E+00  0.0000000000000E+00 -0.1925108614456E+00
 0.2857005502623E+00 -0.3176199343876E+00  0.0000000000000E+00 -0.2011084814369E+00
 0.2702362281482E+00 -0.3022225410380E+00  0.0000000000000E+00 -0.2082469518804E+00
 0.2530008882612E+00 -0.2849805045696E+00  0.0000000000000E+00 -0.2132747046163E+00
 0.2341048738539E+00 -0.2659850650274E+00  0.0000000000000E+00 -0.2154498692326E+00
 0.2136721220694E+00 -0.2453369597630E+00  0.0000000000000E+00 -0.2139050388353E+00
 0.1918463393446E+00 -0.2231508695849E+00  0.0000000000000E+00 -0.2075926402628E+00
 0.1688054764845E+00 -0.1995674640362E+00  0.0000000000000E+00 -0.1952071051178E+00
 0.1447844424173E+00 -0.1747734427192E+00  0.0000000000000E+00 -0.1750819696315E+00
 0.1200867125230E+00 -0.1490152419095E+00  0.0000000000000E+00 -0.1450618995969E+00
 0.9500509906619E-01 -0.1225367253228E+00  0.0000000000000E+00 -0.1023025001036E+00
 0.6919317600085E-01 -0.9511832950037E-01  0.0000000000000E+00 -0.4327252271369E-01
 0.3344972308468E+00 -0.3642913739481E+00  0.0000000000000E+00 -0.1203242757577E+00
 0.3375340922703E+00 -0.3676913644536E+00  0.0000000000000E+00 -0.1253336318381E+00
 0.3390760647885E+00 -0.3696059025750E+00  0.0000000000000E+00 -0.1315723371156E+00
 0.3388889663080E+00 -0.3697992642079E+00  0.0000000000000E+00 -0.1389420707211E+00
 0.3368268334159E+00 -0.3681247905199E+00  0.0000000000000E+00 -0.1473452973827E+00
 0.3328059525505E+00 -0.3644974973537E+00  0.0000000000000E+00 -0.1566065077229E+00
 0.3267838395185E+00 -0.3588720345523E+00  0.0000000000000E+00 -0.1664537447946E+00
 0.3187469417088E+00 -0.3512301382408E+00  0.0000000000000E+00 -0.1765254087919E+00
 0.3087045692174E+00 -0.3415746657015E+00  0.0000000000000E+00 -0.1863831742003E+00
 0.2966854726695E+00 -0.3299264975321E+00  0.0000000000000E+00 -0.1955222386178E+00
 0.2827345119545E+00 -0.3163214608392E+00  0.0000000000000E+00 -0.2033755568393E+00
 0.2669083531396E+00 -0.3008061828306E+00  0.0000000000000E+00 -0.2093100348656E+00
 0.2492702213183E+00 -0.2834328561117E+00  0.0000000000000E+00 -0.2126117883172E+00
 0.2298846037310E+00 -0.2642537310893E+00  0.0000000000000E+00 -0.2124562444091E+00
 0.2088137529777E+00 -0.2433170401045E+00  0.0000000000000E+00 -0.2078577978405E+00
 0.1861189142458E+00 -0.2206670466242E+00  0.0000000000000E+00 -0.1975944449201E+00
 0.1618686917558E+00 -0.1963507995333E+00  0.0000000000000E+00 -0.1801097916589E+00
 0.1361499710062E+00 -0.1704280450087E+00  0.0000000000000E+00 -0.1534228277870E+00
 0.1090182214032E+00 -0.1429377031939E+00  0.0000000000000E+00 -0.1151694933170E+00
 0.8040128651826E-01 -0.1137657308730E+00  0.0000000000000E+00 -0.6315419767737E-01
 0.3328767902125E+00 -0.3625472750111E+00  0.0000000000000E+00 -0.1138807932408E+00
 0.3365756092968E+00 -0.3666638365152E+00  0.0000000000000E+00 -0.1181750336602E+00
 0.3389619107167E+00 -0.3694953080911E+00  0.0000000000000E+00 -0.1238798107537E+00
 0.3398161006776E+00 -0.3708202016148E+00  0.0000000000000E+00 -0.1308418233826E+00
 0.3389755266548E+00 -0.3704748488671E+00  0.0000000000000E+00 -0.1389351501749E+00
 0.3363254872916E+00 -0.3683432575972E+00  0.0000000000000E+00 -0.1479868457252E+00
 0.3317876924863E+00 -0.3643449804485E+00  0.0000000000000E+00 -0.1577481223508E+00
 0.3253115722002E+00 -0.3584261516057E+00  0.0000000000000E+00 -0.1678894406647E+00
 0.3168687969722E+00 -0.3505540690699E+00  0.0000000000000E+00 -0.1780059157479E+00
 0.3064495309833E+00 -0.3407137019123E+00  0.0000000000000E+00 -0.1876251954040E+00
 0.2940586924403E+00 -0.3289043319078E+00  0.0000000000000E+00 -0.1962134530297E+00
 0.2797108935205E+00 -0.3151349369741E+00  0.0000000000000E+00 -0.2031765166999E+00
 0.2634232916994E+00 -0.2994175397402E+00  0.0000000000000E+00 -0.2078529888141E+00
 0.2452061746391E+00 -0.2817583222208E+00  0.0000000000000E+00 -0.2094950416368E+00
 0.2250519436691E+00 -0.2621470814704E+00  0.0000000000000E+00 -0.2072309891795E+00
 0.2029247661828E+00 -0.2405470081904E+00  0.0000000000000E+00 -0.2000026578816E+00
 0.1787565925953E+00 -0.2168895975438E+00  0.0000000000000E+00 -0.1864739957033E+00
 0.1524616591650E+00 -0.1910846477944E+00  0.0000000000000E+00 -0.1649273340044E+00
 0.1239969694955E+00 -0.1630643923062E+00  0.0000000000000E+00 -0.1332662736970E+00
 0.9346699104148E-01 -0.1328731912498E+00  0.0000000000000E+00 -0.8929228532256E-01
 0.3306088237484E+00 -0.3601087311990E+00  0.0000000000000E+00 -0.1069830638733E+00
 0.3348893110556E+00 -0.3648465644559E+00  0.0000000000000E+00 -0.1104145290944E+00
 0.3380142439705E+00 -0.3684698662688E+00  0.0000000000000E+00 -0.1153797409814E+00
 0.3397902699920E+00 -0.3707838522053E+00  0.0000000000000E+00 -0.1217089323523E+00
 0.3400535791255E+00 -0.3716239993796E+00  0.0000000000000E+00 -0.1292675514233E+00
 0.3386717970749E+00 -0.3708571157092E+00  0.0000000000000E+00 -0.1378935676947E+00
 0.3355399967148E+00 -0.3683768901124E+00  0.0000000000000E+00 -0.1473667227059E+00
 0.3305761510773E+00 -0.3640991525870E+00  0.0000000000000E+00 -0.1573972926071E+00
 0.3237175066374E+00 -0.3579582660695E+00  0.0000000000000E+00 -0.1676255989284E+00
 0.3149176030768E+00 -0.3499043626969E+00  0.0000000000000E+00 -0.1776265630659E+00
 0.3041429649980E+00 -0.3399004185632E+00  0.0000000000000E+00 -0.1869156230324E+00
 0.2913683228780E+00 -0.3279180249304E+00  0.0000000000000E+00 -0.1949533090057E+00
 0.2765692656518E+00 -0.3139307795156E+00  0.0000000000000E+00 -0.2011457893167E+00
 0.2597113662066E+00 -0.2979043842360E+00  0.0000000000000E+00 -0.2048378377521E+00
 0.2407351706886E+00 -0.2797828668811E+00  0.0000000000000E+00 -0.2052928852367E+00
 0.2195375427123E+00 -0.2594713174442E+00  0.0000000000000E+00 -0.2016520045949E+00
 0.1959536302670E+00 -0.2368186610701E+00  0.0000000000000E+00 -0.1928595745143E+00
 0.1697548998900E+00 -0.2116133927170E+00  0.0000000000000E+00 -0.1775416447774E+00
 0.1407222873213E+00 -0.1836382553184E+00  0.0000000000000E+00 -0.1538214338224E+00
 0.1088412700547E+00 -0.1528447577335E+00  0.0000000000000E+00 -0.1192817697533E+00
 0.3276780735975E+00 -0.3569599983747E+00  0.0000000000000E+00 -0.9971093230841E-01
 0.3324581254518E+00 -0.3622234186847E+00  0.0000000000000E+00 -0.1021934362850E+00
 0.3362207648085E+00 -0.3665201984221E+00  0.0000000000000E+00 -0.1062682371694E+00
 0.3388033256926E+00 -0.3696869832113E+00  0.0000000000000E+00 -0.1117780491279E+00
 0.3400514124476E+00 -0.3715693214743E+00  0.0000000000000E+00 -0.1185983234265E+00
 0.3398267203387E+00 -0.3720288231807E+00  0.0000000000000E+00 -0.1265881651854E+00
 0.3380082041841E+00 -0.3709439530400E+00  0.0000000000000E+00 -0.1355622814020E+00
 0.3344910047836E+00 -0.3682087699179E+00  0.0000000000000E+00 -0.1452774324751E+00
 0.3291849007946E+00 -0.3637313547357E+00  0.0000000000000E+00 -0.1554282153253E+00
 0.3220126008500E+00 -0.3574322308343E+00  0.0000000000000E+00 -0.1656485377730E+00
 0.3129074351425E+00 -0.3492423435941E+00  0.0000000000000E+00 -0.1755162708309E+00
 0.3018096164369E+00 -0.3390997897787E+00  0.0000000000000E+00 -0.1845592018055E+00
 0.2886600064932E+00 -0.3269442824645E+00  0.0000000000000E+00 -0.1922605457553E+00
 0.2733901148179E+00 -0.3127081647204E+00  0.0000000000000E+00 -0.1980618242913E+00
 0.2559068308118E+00 -0.2963026136446E+00  0.0000000000000E+00 -0.2013596350858E+00
 0.2360703572980E+00 -0.2775976765620E+00  0.0000000000000E+00 -0.2014899311824E+00
 0.2136645336714E+00 -0.2563956167011E+00  0.0000000000000E+00 -0.1976869528288E+00
 0.1883645276285E+00 -0.2324018462934E+00  0.0000000000000E+00 -0.1889870255922E+00
 0.1597186809342E+00 -0.2052124715347E+00  0.0000000000000E+00 -0.1740053900068E+00
 0.1273322102347E+00 -0.1744410105181E+00  0.0000000000000E+00 -0.1504392216290E+00
 0.3240768939137E+00 -0.3530933364620E+00  0.0000000000000E+00 -0.9213551632876E-01
 0.3292692993836E+00 -0.3587829633531E+00  0.0000000000000E+00 -0.9362701277828E-01
 0.3335689328955E+00 -0.3636370539303E+00  0.0000000000000E+00 -0.9670740525471E-01
 0.3368440190730E+00 -0.3675239191556E+00  0.0000000000000E+00 -0.1012505044937E+00
 0.3389557768175E+00 -0.3703054704574E+00  0.0000000000000E+00 -0.1071556706400E+00
 0.3397689788166E+00 -0.3718472262487E+00  0.0000000000000E+00 -0.1143114780819E+00
 0.3391561686390E+00 -0.3720221859446E+00  0.0000000000000E+00 -0.1225724895053E+00
 0.3369990444822E+00 -0.3707120154130E+00  0.0000000000000E+00 -0.1317460125620E+00
 0.3331886979404E+00 -0.3678072001590E+00  0.0000000000000E+00 -0.1415861177108E+00
 0.3276252630607E+00 -0.3632067142960E+00  0.0000000000000E+00 -0.1517928898782E+00
 0.3202168605320E+00 -0.3568170969021E+00  0.0000000000000E+00 -0.1620154717267E+00
 0.3108773079375E+00 -0.3485504290180E+00  0.0000000000000E+00 -0.1718578665080E+00
 0.2995217531034E+00 -0.3383204120153E+00  0.0000000000000E+00 -0.1808866839287E+00
 0.2860590445877E+00 -0.3260354447895E+00  0.0000000000000E+00 -0.1886399906619E+00
 0.2703791504661E+00 -0.3115871627513E+00  0.0000000000000E+00 -0.1946360069376E+00
 0.2523330356256E+00 -0.2948321766005E+00  0.0000000000000E+00 -0.1983790925490E+00
 0.2317009083452E+00 -0.2755635210354E+00  0.0000000000000E+00 -0.1993568040069E+00
 0.2081405065100E+00 -0.2534657816864E+00  0.0000000000000E+00 -0.1970111198578E+00
 0.1811040175005E+00 -0.2280442078987E+00  0.0000000000000E+00 -0.1906360207654E+00
 0.1496844333010E+00 -0.1985222242593E+00  0.0000000000000E+00 -0.1789613076571E+00
 0.3198039551284E+00 -0.3485074482184E+00  0.0000000000000E+00 -0.8432174160455E-01
 0.3253142386342E+00 -0.3545181979236E+00  0.0000000000000E+00 -0.8480796393565E-01
 0.3300471561192E+00 -0.3598126312381E+00  0.0000000000000E+00 -0.8682612542195E-01
 0.3338993163369E+00 -0.3642881350993E+00  0.0000000000000E+00 -0.9029135030420E-01
 0.3367502572701E+00 -0.3678256486656E+00  0.0000000000000E+00 -0.9513526388504E-01
 0.3384738163775E+00 -0.3703005536259E+00  0.0000000000000E+00 -0.1012808119131E+00
 0.3389437889484E+00 -0.3715880135136E+00  0.0000000000000E+00 -0.1086244595654E+00
 0.3380367809419E+00 -0.3715656202621E+00  0.0000000000000E+00 -0.1170246454217E+00
 0.3356337663020E+00 -0.3701148176927E+00  0.0000000000000E+00 -0.1262954223890E+00
 0.3316209629016E+00 -0.3671217043278E+00  0.0000000000000E+00 -0.1362044074763E+00
 0.3258901028091E+00 -0.3624772905811E+00  0.0000000000000E+00 -0.1464744182388E+00
 0.3183378155069E+00 -0.3560769368199E+00  0.0000000000000E+00 -0.1567884230585E+00
 0.3088635613145E+00 -0.3478184286218E+00  0.0000000000000E+00 -0.1667976633692E+00
 0.2973652487587E+00 -0.3375978607520E+00  0.0000000000000E+00 -0.1761330390457E+00
 0.2837312016934E+00 -0.3253020786095E+00  0.0000000000000E+00 -0.1844201136270E+00
 0.2678262752234E+00 -0.3107956417081E+00  0.0000000000000E+00 -0.1912984228221E+00
 0.2494678774067E+00 -0.2938985772510E+00  0.0000000000000E+00 -0.1964461747555E+00
 0.2283832054174E+00 -0.2743470995025E+00  0.0000000000000E+00 -0.1996125174528E+00
 0.2041230881792E+00 -0.2517181890366E+00  0.0000000000000E+00 -0.2006589730025E+00
 0.1758404722981E+00 -0.2252440866264E+00  0.0000000000000E+00 -0.1996405030884E+00
 0.3148634547198E+00 -0.3432068239876E+00  0.0000000000000E+00 -0.7633185939128E-01
 0.3205890674936E+00 -0.3494270639277E+00  0.0000000000000E+00 -0.7581056955009E-01
 0.3256465266283E+00 -0.3550419346629E+00  0.0000000000000E+00 -0.7672206238583E-01
 0.3299565056671E+00 -0.3599734978553E+00  0.0000000000000E+00 -0.7902695163799E-01
 0.3334169835008E+00 -0.3641217715094E+00  0.0000000000000E+00 -0.8269265869247E-01
 0.3359141137640E+00 -0.3673751495152E+00  0.0000000000000E+00 -0.8767810216341E-01
 0.3373281122284E+00 -0.3696160254350E+00  0.0000000000000E+00 -0.9392102651254E-01
 0.3375367498098E+00 -0.3707240880171E+00  0.0000000000000E+00 -0.1013286061672E+00
 0.3364177095701E+00 -0.3705785227162E+00  0.0000000000000E+00 -0.1097713971077E+00
 0.3338504097801E+00 -0.3690597065200E+00  0.0000000000000E+00 -0.1190805296047E+00
 0.3297174889520E+00 -0.3660505854648E+00  0.0000000000000E+00 -0.1290480880267E+00
 0.3239058815198E+00 -0.3614376598327E+00  0.0000000000000E+00 -0.1394307607714E+00
 0.3163072176498E+00 -0.3551113076254E+00  0.0000000000000E+00 -0.1499570391373E+00
 0.3068171072297E+00 -0.3469650039495E+00  0.0000000000000E+00 -0.1603385420392E+00
 0.2953326571452E+00 -0.3368927805393E+00  0.0000000000000E+00 -0.1702865651749E+00
 0.2817471966971E+00 -0.3247839077425E+00  0.0000000000000E+00 -0.1795359574819E+00
 0.2659405217088E+00 -0.3105130574162E+00  0.0000000000000E+00 -0.1878806273365E+00
 0.2477612715735E+00 -0.2939226671849E+00  0.0000000000000E+00 -0.1952301565857E+00
 0.2269948959353E+00 -0.2747899507418E+00  0.0000000000000E+00 -0.2017142494412E+00
 0.2033114204495E+00 -0.2527653582340E+00  0.0000000000000E+00 -0.2079297364305E+00
 0.3092622269565E+00 -0.3371981938244E+00  0.0000000000000E+00 -0.6822486976539E-01
 0.3150919829061E+00 -0.3435089212452E+00  0.0000000000000E+00 -0.6669248787743E-01
 0.3203588667644E+00 -0.3493197591127E+00  0.0000000000000E+00 -0.6646568549314E-01
 0.3250020898395E+00 -0.3545720311860E+00  0.0000000000000E+00 -0.6754910678106E-01
 0.3289367472393E+00 -0.3591834470796E+00  0.0000000000000E+00 -0.6994582439551E-01
 0.3320626405424E+00 -0.3630566663113E+00  0.0000000000000E+00 -0.7365003012479E-01
 0.3342695391419E+00 -0.3660843550073E+00  0.0000000000000E+00 -0.7863860825425E-01
 0.3354406391591E+00 -0.3681524760697E+00  0.0000000000000E+00 -0.8486375446114E-01
 0.3354551936663E+00 -0.3691427654666E+00  0.0000000000000E+00 -0.9224738544727E-01
 0.3341908540386E+00 -0.3689349243152E+00  0.0000000000000E+00 -0.1006776875275E+00
 0.3315259892651E+00 -0.3674087848584E+00  0.0000000000000E+00 -0.1100080737648E+00
 0.3273420685858E+00 -0.3644465269453E+00  0.0000000000000E+00 -0.1200588694796E+00
 0.3215260784989E+00 -0.3599349035816E+00  0.0000000000000E+00 -0.1306221619655E+00
 0.3139728911534E+00 -0.3537673699177E+00  0.0000000000000E+00 -0.1414704483290E+00
 0.3045875108386E+00 -0.3458460004712E+00  0.0000000000000E+00 -0.1523700822542E+00
 0.2932872394383E+00 -0.3360831397453E+00  0.0000000000000E+00 -0.1631012449844E+00
 0.2800041094757E+00 -0.3244029504923E+00  0.0000000000000E+00 -0.1734875622361E+00
 0.2646891214453E+00 -0.3107437427101E+00  0.0000000000000E+00 -0.1834414149393E+00
 0.2473240661744E+00 -0.2950651562881E+00  0.0000000000000E+00 -0.1930365716369E+00
 0.2279681284206E+00 -0.2773794291308E+00  0.0000000000000E+00 -0.2026171581199E+00
 0.3030100033118E+00 -0.3304917008235E+00  0.0000000000000E+00 -0.6007170368191E-01
 0.3088267055742E+00 -0.3367680726483E+00  0.0000000000000E+00 -0.5751924775520E-01
 0.3141811950547E+00 -0.3426444096497E+00  0.0000000000000E+00 -0.5612979034652E-01
 0.3190267125085E+00 -0.3480767143733E+00  0.0000000000000E+00 -0.5594523062095E-01
 0.3232937438824E+00 -0.3529986090270E+00  0.0000000000000E+00 -0.5700128803038E-01
 0.3268960821861E+00 -0.3573272903462E+00  0.0000000000000E+00 -0.5932500879092E-01
 0.3297349275831E+00 -0.3609674969726E+00  0.0000000000000E+00 -0.6292945065111E-01
 0.3317018222711E+00 -0.3638143117703E+00  0.0000000000000E+00 -0.6780793117983E-01
 0.3326810755373E+00 -0.3657554516949E+00  0.0000000000000E+00 -0.7392883554754E-01
 0.3325521312389E+00 -0.3666734897704E+00  0.0000000000000E+00 -0.8123150706782E-01
 0.3311921702797E+00 -0.3664482940134E+00  0.0000000000000E+00 -0.8962361026636E-01
 0.3284791267079E+00 -0.3649598529336E+00  0.0000000000000E+00 -0.9898034655172E-01
 0.3242952283392E+00 -0.3620915858852E+00  0.0000000000000E+00 -0.1091459339387E+00
 0.3185311650992E+00 -0.3577342200795E+00  0.0000000000000E+00 -0.1199378032975E+00
 0.3110910762558E+00 -0.3517903832444E+00  0.0000000000000E+00 -0.1311540203647E+00
 0.3018987876387E+00 -0.3441802671478E+00  0.0000000000000E+00 -0.1425845386578E+00
 0.2909062670448E+00 -0.3348491650190E+00  0.0000000000000E+00 -0.1540269862144E+00
 0.2781063511381E+00 -0.3237786849638E+00  0.0000000000000E+00 -0.1653071626383E+00
 0.2635545108529E+00 -0.3110057548763E+00  0.0000000000000E+00 -0.1763003628049E+00
 0.2474032985054E+00 -0.2966562116040E+00  0.0000000000000E+00 -0.1869322226671E+00
 0.2961194709268E+00 -0.3231011575138E+00  0.0000000000000E+00 -0.5195897567185E-01
 0.3018034361918E+00 -0.3292156744453E+00  0.0000000000000E+00 -0.4837685585166E-01
 0.3071184284577E+00 -0.3350217862664E+00  0.0000000000000E+00 -0.4580751562703E-01
 0.3120292507416E+00 -0.3404874838598E+00  0.0000000000000E+00 -0.4432099729054E-01
 0.3164803211318E+00 -0.3455607235358E+00  0.0000000000000E+00 -0.4398053472031E-01
 0.3203993628731E+00 -0.3501730728369E+00  0.0000000000000E+00 -0.4484213516017E-01
 0.3237001870496E+00 -0.3542424167234E+00  0.0000000000000E+00 -0.4695127680260E-01
 0.3262848115653E+00 -0.3576749842529E+00  0.0000000000000E+00 -0.5033842020179E-01
 0.3280453120302E+00 -0.3603670941445E+00  0.0000000000000E+00 -0.5501419163364E-01
 0.3288657640759E+00 -0.3622069742040E+00  0.0000000000000E+00 -0.6096473091923E-01
 0.3286245647817E+00 -0.3630769357161E+00  0.0000000000000E+00 -0.6814756817959E-01
 0.3271973543619E+00 -0.3628561169079E+00  0.0000000000000E+00 -0.7648836591124E-01
 0.3244607083245E+00 -0.3614239579831E+00  0.0000000000000E+00 -0.8587885306180E-01
 0.3202967483589E+00 -0.3586645454241E+00  0.0000000000000E+00 -0.9617622478393E-01
 0.3145988533667E+00 -0.3544719901606E+00  0.0000000000000E+00 -0.1072041271954E+00
 0.3072787864549E+00 -0.3487571223833E+00  0.0000000000000E+00 -0.1187550312274E+00
 0.2982757931208E+00 -0.3414560309528E+00  0.0000000000000E+00 -0.1305932281002E+00
 0.2875684623338E+00 -0.3325412445627E+00  0.0000000000000E+00 -0.1424565235387E+00
 0.2751892324918E+00 -0.3220360507905E+00  0.0000000000000E+00 -0.1540519388352E+00
 0.2612390845054E+00 -0.3100296687457E+00  0.0000000000000E+00 -0.1650399821595E+00
 0.2886063649920E+00 -0.3150438190128E+00  0.0000000000000E+00 -0.4398167892436E-01
 0.2940376833995E+00 -0.3208687652384E+00  0.0000000000000E+00 -0.3936634245364E-01
 0.2991829760751E+00 -0.3264658188992E+00  0.0000000000000E+00 -0.3560980829828E-01
 0.3040175387162E+00 -0.3318136539563E+00  0.0000000000000E+00 -0.3280158262308E-01
 0.3084987143902E+00 -0.3368733774110E+00  0.0000000000000E+00 -0.3102623812386E-01
 0.3125679777937E+00 -0.3415905940816E+00  0.0000000000000E+00 -0.3036373469992E-01
 0.3161525477116E+00 -0.3458969789261E+00  0.0000000000000E+00 -0.3088741307895E-01
 0.3191665923029E+00 -0.3497114283817E+00  0.0000000000000E+00 -0.3266055973639E-01
 0.3215122772543E+00 -0.3529410401499E+00  0.0000000000000E+00 -0.3573208219393E-01
 0.3230809387453E+00 -0.3554821992718E+00  0.0000000000000E+00 -0.4013162918588E-01
 0.3237546471953E+00 -0.3572220305652E+00  0.0000000000000E+00 -0.4586440473864E-01
 0.3234083960322E+00 -0.3580404460176E+00  0.0000000000000E+00 -0.5290591124748E-01
 0.3219131076545E+00 -0.3578129757909E+00  0.0000000000000E+00 -0.6119686291326E-01
 0.3191395949585E+00 -0.3564145218814E+00  0.0000000000000E+00 -0.7063847596194E-01
 0.3149635571084E+00 -0.3537241185412E+00  0.0000000000000E+00 -0.8108818576041E-01
 0.3092716348745E+00 -0.3496307389999E+00  0.0000000000000E+00 -0.9235547283276E-01
 0.3019685345370E+00 -0.3440401697147E+00  0.0000000000000E+00 -0.1041968601829E+00
 0.2929850949869E+00 -0.3368829243747E+00  0.0000000000000E+00 -0.1163086108332E+00
 0.2822866380538E+00 -0.3281226201349E+00  0.0000000000000E+00 -0.1283164929155E+00
 0.2698797341835E+00 -0.3177632576790E+00  0.0000000000000E+00 -0.1397636790912E+00
 0.2804903044497E+00 -0.3063411920468E+00  0.0000000000000E+00 -0.3623900368377E-01
 0.2855503181751E+00 -0.3117503066674E+00  0.0000000000000E+00 -0.3059841057433E-01
 0.2903947749367E+00 -0.3169986831788E+00  0.0000000000000E+00 -0.2566119948363E-01
 0.2950089126224E+00 -0.3220749020836E+00  0.0000000000000E+00 -0.2152913933091E-01
 0.2993622645857E+00 -0.3269522820945E+00  0.0000000000000E+00 -0.1830184707678E-01
 0.3034098280220E+00 -0.3315900373518E+00  0.0000000000000E+00 -0.1607757067602E-01
 0.3070927868592E+00 -0.3359339864675E+00  0.0000000000000E+00 -0.1495223169753E-01
 0.3103388642873E+00 -0.3399168857982E+00  0.0000000000000E+00 -0.1501705147225E-01
 0.3130624906777E+00 -0.3434585692303E+00  0.0000000000000E+00 -0.1635499553890E-01
 0.3151650100943E+00 -0.3464661125422E+00  0.0000000000000E+00 -0.1903617459646E-01
 0.3165351592069E+00 -0.3488342498860E+00  0.0000000000000E+00 -0.2311229073413E-01
 0.3170500498470E+00 -0.3504462674354E+00  0.0000000000000E+00 -0.2861022251105E-01
 0.3165768655170E+00 -0.3511755811095E+00  0.0000000000000E+00 -0.3552489087017E-01
 0.3149754260313E+00 -0.3508881561422E+00  0.0000000000000E+00 -0.4381161031617E-01
 0.3121016610483E+00 -0.3494458260370E+00  0.0000000000000E+00 -0.5337814410243E-01
 0.3078118546392E+00 -0.3467104047314E+00  0.0000000000000E+00 -0.6407654914953E-01
 0.3019672924255E+00 -0.3425482768549E+00  0.0000000000000E+00 -0.7569451392395E-01
 0.2944389262842E+00 -0.3368350309959E+00  0.0000000000000E+00 -0.8794527766025E-01
 0.2851121161353E+00 -0.3294601223760E+00  0.0000000000000E+00 -0.1004555830310E+00
 0.2738916361819E+00 -0.3203317774533E+00  0.0000000000000E+00 -0.1127545249794E+00
 0.2717957671707E+00 -0.2970200256773E+00  0.0000000000000E+00 -0.2883203285490E-01
 0.2763683800265E+00 -0.3018899792895E+00  0.0000000000000E+00 -0.2218948476187E-01
 0.2807820146119E+00 -0.3066515375386E+00  0.0000000000000E+00 -0.1609581963168E-01
 0.2850312120354E+00 -0.3113023386311E+00  0.0000000000000E+00 -0.1065941866955E-01
 0.2890969445029E+00 -0.3158269419288E+00  0.0000000000000E+00 -0.5989042893433E-02
 0.2929473636100E+00 -0.3201975709410E+00  0.0000000000000E+00 -0.2195315546367E-02
 0.2965379404918E+00 -0.3243742599064E+00  0.0000000000000E+00  0.6091159391719E-03
 0.2998111353534E+00 -0.3283045351675E+00  0.0000000000000E+00  0.2310707936553E-02
 0.3026957529272E+00 -0.3319227827992E+00  0.0000000000000E+00  0.2797406454975E-02
 0.3051061540877E+00 -0.3351494673100E+00  0.0000000000000E+00  0.1962316532953E-02
 0.3069415104459E+00 -0.3378903813240E+00  0.0000000000000E+00 -0.2912708955063E-03
 0.3080853099604E+00 -0.3400361261832E+00  0.0000000000000E+00 -0.4043415301765E-02
 0.3084053392223E+00 -0.3414620412034E+00  0.0000000000000E+00 -0.9349608264799E-02
 0.3077543596280E+00 -0.3420287954749E+00  0.0000000000000E+00 -0.1623153035958E-01
 0.3059716210440E+00 -0.3415837946343E+00  0.0000000000000E+00 -0.2466684496465E-01
 0.3028851655157E+00 -0.3399633884613E+00  0.0000000000000E+00 -0.3457864335937E-01
 0.2983145498272E+00 -0.3369955626258E+00  0.0000000000000E+00 -0.4582525765959E-01
 0.2920731431488E+00 -0.3325023934733E+00  0.0000000000000E+00 -0.5819065506400E-01
 0.2839695848832E+00 -0.3263015117098E+00  0.0000000000000E+00 -0.7137302312641E-01
 0.2738105551113E+00 -0.3182082426914E+00  0.0000000000000E+00 -0.8496869296136E-01
 0.2625529296041E+00 -0.2871131675835E+00  0.0000000000000E+00 -0.2186192407808E-01
 0.2665260976084E+00 -0.2913251918852E+00  0.0000000000000E+00 -0.1425844394014E-01
 0.2703822524392E+00 -0.2954656198267E+00  0.0000000000000E+00 -0.7053532435426E-02
 0.2741241786177E+00 -0.2995398893384E+00  0.0000000000000E+00 -0.3578582794219E-03
 0.2777432594030E+00 -0.3035425470937E+00  0.0000000000000E+00  0.5715942371861E-02
 0.2812201361926E+00 -0.3074579075519E+00  0.0000000000000E+00  0.1105072330700E-01
 0.2845245545339E+00 -0.3112599205549E+00  0.0000000000000E+00  0.1552335130958E-01
 0.2876145905077E+00 -0.3149114352199E+00  0.0000000000000E+00  0.1900433887539E-01
 0.2904353918786E+00 -0.3183629903732E+00  0.0000000000000E+00  0.2135862808826E-01
 0.2929175443469E+00 -0.3215512368029E+00  0.0000000000000E+00  0.2244763643722E-01
 0.2949751783891E+00 -0.3243971009752E+00  0.0000000000000E+00  0.2213275963909E-01
 0.2965039639864E+00 -0.3268038284159E+00  0.0000000000000E+00  0.2028058553764E-01
 0.2973791963267E+00 -0.3286550964801E+00  0.0000000000000E+00  0.1677007187391E-01
 0.2974542475344E+00 -0.3298134543224E+00  0.0000000000000E+00  0.1150182313236E-01
 0.2965597168883E+00 -0.3301194078642E+00  0.0000000000000E+00  0.4409286694268E-02
 0.2945035831248E+00 -0.3293914548738E+00  0.0000000000000E+00 -0.4528890914458E-02
 0.2910724182719E+00 -0.3274271795897E+00  0.0000000000000E+00 -0.1527688031789E-01
 0.2860331197737E+00 -0.3240049844403E+00  0.0000000000000E+00 -0.2773231473073E-01
 0.2791326128574E+00 -0.3188846396959E+00  0.0000000000000E+00 -0.4172115302030E-01
 0.2700936760379E+00 -0.3118033275469E+00  0.0000000000000E+00 -0.5698586493394E-01
 0.2527982939890E+00 -0.2766601988161E+00  0.0000000000000E+00 -0.1542801315982E-01
 0.2560658798398E+00 -0.2801020627920E+00  0.0000000000000E+00 -0.6923522428352E-02
 0.2592436839450E+00 -0.2834934930079E+00  0.0000000000000E+00  0.1324004797254E-02
 0.2623410976531E+00 -0.2868459014557E+00  0.0000000000000E+00  0.9204812450545E-02
 0.2653584326149E+00 -0.2901621170632E+00  0.0000000000000E+00  0.1660691048523E-01
 0.2682877045068E+00 -0.2934371665456E+00  0.0000000000000E+00  0.2341215558326E-01
 0.2711124328412E+00 -0.2966581021774E+00  0.0000000000000E+00  0.2949330211424E-01
 0.2738067053917E+00 -0.2998031228674E+00  0.0000000000000E+00  0.3471196256287E-01
 0.2763336136462E+00 -0.3028400874656E+00  0.0000000000000E+00  0.3891745043931E-01
 0.2786430979840E+00 -0.3057244580436E+00  0.0000000000000E+00  0.4194660177565E-01
 0.2806692224489E+00 -0.3083966906164E+00  0.0000000000000E+00  0.4362480117983E-01
 0.2823269146511E+00 -0.3107791029900E+00  0.0000000000000E+00  0.4376857513595E-01
 0.2835082673113E+00 -0.3127723025956E+00  0.0000000000000E+00  0.4219024275932E-01
 0.2840786224339E+00 -0.3142513686776E+00  0.0000000000000E+00  0.3870518517611E-01
 0.2838728661023E+00 -0.3150621714863E+00  0.0000000000000E+00  0.3314219620530E-01
 0.2826926291511E+00 -0.3150184688352E+00  0.0000000000000E+00  0.2535687950218E-01
 0.2803052830067E+00 -0.3139006322398E+00  0.0000000000000E+00  0.1524686793418E-01
 0.2764454794877E+00 -0.3114567843150E+00  0.0000000000000E+00  0.2765670586292E-02
 0.2708191595957E+00 -0.3074064352797E+00  0.0000000000000E+00 -0.1207226961438E-01
 0.2630996863147E+00 -0.3014409838495E+00  0.0000000000000E+00 -0.2920887624882E-01
 0.2425750996013E+00 -0.2657078423302E+00  0.0000000000000E+00 -0.9625575139478E-02
 0.2450391975740E+00 -0.2682762950693E+00  0.0000000000000E+00 -0.2990779293026E-03
 0.2474264400068E+00 -0.2708003151689E+00  0.0000000000000E+00  0.8897431687135E-02
 0.2497505528601E+00 -0.2732948524570E+00  0.0000000000000E+00  0.1785736918791E-01
 0.2520187807960E+00 -0.2757688198776E+00  0.0000000000000E+00  0.2647304153005E-01
 0.2542328462047E+00 -0.2782260252018E+00  0.0000000000000E+00  0.3463017687259E-01
 0.2563888981417E+00 -0.2806651564868E+00  0.0000000000000E+00  0.4220354465921E-01
 0.2584767163174E+00 -0.2830790482829E+00  0.0000000000000E+00  0.4905324482186E-01
 0.2604782242677E+00 -0.2854532867175E+00  0.0000000000000E+00  0.5502149517045E-01
 0.2623652863780E+00 -0.2877641303440E+00  0.0000000000000E+00  0.5992989286074E-01
 0.2640967069650E+00 -0.2899756694239E+00  0.0000000000000E+00  0.6357727550707E-01
 0.2656143191194E+00 -0.2920361143621E+00  0.0000000000000E+00  0.6573849389850E-01
 0.2668380572178E+00 -0.2938731044637E+00  0.0000000000000E+00  0.6616465937940E-01
 0.2676599858478E+00 -0.2953879916101E+00  0.0000000000000E+00  0.6458576274082E-01
 0.2679374775677E+00 -0.2964492413435E+00  0.0000000000000E+00  0.6071695171856E-01
 0.2674862126755E+00 -0.2968855098710E+00  0.0000000000000E+00  0.5427003243611E-01
 0.2660744918535E+00 -0.2964797165443E+00  0.0000000000000E+00  0.4497131554486E-01
 0.2634212908789E+00 -0.2949663684087E+00  0.0000000000000E+00  0.3258483746767E-01
 0.2592019321834E+00 -0.2920354593376E+00  0.0000000000000E+00  0.1693662649904E-01
 0.2530704415026E+00 -0.2873500311996E+00  0.0000000000000E+00 -0.2085227231988E-02
 0.2319336884699E+00 -0.2543102789838E+00  0.0000000000000E+00 -0.4543095795211E-02
 0.2335075178581E+00 -0.2559140044402E+00  0.0000000000000E+00  0.5507600784639E-02
 0.2350039079716E+00 -0.2574649840367E+00  0.0000000000000E+00  0.1553344609058E-01
 0.2364382165811E+00 -0.2589789219715E+00  0.0000000000000E+00  0.2543258424002E-01
 0.2378221942748E+00 -0.2604681868575E+00  0.0000000000000E+00  0.3510407967657E-01
 0.2391650211118E+00 -0.2619428723438E+00  0.0000000000000E+00  0.4444130333611E-01
 0.2404735936695E+00 -0.2634111070561E+00  0.0000000000000E+00  0.5332635272077E-01
 0.2417521444527E+00 -0.2648787268461E+00  0.0000000000000E+00  0.6162490354363E-01
 0.2430012327627E+00 -0.2663483486933E+00  0.0000000000000E+00  0.6918114975864E-01
 0.2442160475956E+00 -0.2678177953385E+00  0.0000000000000E+00  0.7581260605079E-01
 0.2453838749765E+00 -0.2692777343662E+00  0.0000000000000E+00  0.8130465711614E-01
 0.2464804892405E+00 -0.2707083068652E+00  0.0000000000000E+00  0.8540489015046E-01
 0.2474651307700E+00 -0.2720744268259E+00  0.0000000000000E+00  0.8781750176353E-01
 0.2482736461930E+00 -0.2733193440334E+00  0.0000000000000E+00  0.8819852425788E-01
 0.2488093515823E+00 -0.2743560275022E+00  0.0000000000000E+00  0.8615341920609E-01
 0.2489313924787E+00 -0.2750560789686E+00  0.0000000000000E+00  0.8123992478239E-01
 0.2484412821701E+00 -0.2752365795055E+00  0.0000000000000E+00  0.7298096527456E-01
 0.2470704297228E+00 -0.2746472049599E+00  0.0000000000000E+00  0.6089332129157E-01
 0.2444735652294E+00 -0.2729624195155E+00  0.0000000000000E+00  0.4453575706183E-01
 0.2402426124117E+00 -0.2697882107818E+00  0.0000000000000E+00  0.2359420964879E-01
 0.2209319260657E+00 -0.2425294795757E+00  0.0000000000000E+00 -0.2610960596376E-03
 0.2215430868067E+00 -0.2430921662346E+00  0.0000000000000E+00  0.1039589384983E-01
 0.2220636922728E+00 -0.2435807156111E+00  0.0000000000000E+00  0.2110377681914E-01
 0.2225081974552E+00 -0.2440088520094E+00  0.0000000000000E+00  0.3176569823500E-01
 0.2228901002764E+00 -0.2443894780492E+00  0.0000000000000E+00  0.4228845598901E-01
 0.2232233114955E+00 -0.2447360290180E+00  0.0000000000000E+00  0.5257527821392E-01
 0.2235228996869E+00 -0.2450632199562E+00  0.0000000000000E+00  0.6251939476736E-01
 0.2238053323712E+00 -0.2453873062749E+00  0.0000000000000E+00  0.7199789557753E-01
 0.2240882747392E+00 -0.2457259283956E+00  0.0000000000000E+00  0.8086538026228E-01
 0.2243899210304E+00 -0.2460975240163E+00  0.0000000000000E+00  0.8894693969100E-01
 0.2247277268630E+00 -0.2465201915644E+00  0.0000000000000E+00  0.9603002270703E-01
 0.2251162777692E+00 -0.2470097647510E+00  0.0000000000000E+00  0.1018547581762E+00
 0.2255638423260E+00 -0.2475766863960E+00  0.0000000000000E+00  0.1061023685597E+00
 0.2260668799420E+00 -0.2482210141764E+00  0.0000000000000E+00  0.1083815275144E+00
 0.2266013574239E+00 -0.2489245059283E+00  0.0000000000000E+00  0.1082131156228E+00
 0.2271091731543E+00 -0.2496381934317E+00  0.0000000000000E+00  0.1050153368067E+00
 0.2274774285486E+00 -0.2502632678006E+00  0.0000000000000E+00  0.9809470822349E-01
 0.2275093465794E+00 -0.2506233891913E+00  0.0000000000000E+00  0.8665620688583E-01
 0.2268907539085E+00 -0.2504311112320E+00  0.0000000000000E+00  0.6985121751548E-01
 0.2251469892844E+00 -0.2492507595951E+00  0.0000000000000E+00  0.4687770163655E-01
 0.2096336596163E+00 -0.2304336788662E+00  0.0000000000000E+00  0.3149063411568E-02
 0.2092264693503E+00 -0.2298966034550E+00  0.0000000000000E+00  0.1427270511690E-01
 0.2087050976721E+00 -0.2292530462749E+00  0.0000000000000E+00  0.2548619639248E-01
 0.2080805329559E+00 -0.2285120754140E+00  0.0000000000000E+00  0.3669586043491E-01
 0.2073651862975E+00 -0.2276841608996E+00  0.0000000000000E+00  0.4781539040315E-01
 0.2065747540929E+00 -0.2267829752668E+00  0.0000000000000E+00  0.5875802174595E-01
 0.2057294775055E+00 -0.2258266059024E+00  0.0000000000000E+00  0.6942958068375E-01
 0.2048550721919E+00 -0.2248384496267E+00  0.0000000000000E+00  0.7972190145021E-01
 0.2039835051331E+00 -0.2238479676252E+00  0.0000000000000E+00  0.8950601302633E-01
 0.2031537049820E+00 -0.2228913925611E+00  0.0000000000000E+00  0.9862443099671E-01
 0.2024122007355E+00 -0.2220123931537E+00  0.0000000000000E+00  0.1068817968436E+00
 0.2018135703756E+00 -0.2212625990796E+00  0.0000000000000E+00  0.1140329453600E+00
 0.2014204060082E+00 -0.2207017344181E+00  0.0000000000000E+00  0.1197672261358E+00
 0.2013021868949E+00 -0.2203968324414E+00  0.0000000000000E+00  0.1236875458855E+00
 0.2015318420457E+00 -0.2204194750673E+00  0.0000000000000E+00  0.1252821747340E+00
 0.2021775621032E+00 -0.2208389395998E+00  0.0000000000000E+00  0.1238871583079E+00
 0.2032850364680E+00 -0.2217070256816E+00  0.0000000000000E+00  0.1186382110168E+00
 0.2048402934923E+00 -0.2230260670815E+00  0.0000000000000E+00  0.1084174997146E+00
 0.2067023387019E+00 -0.2246868340705E+00  0.0000000000000E+00  0.9182957919793E-01
 0.2085179549176E+00 -0.2263814028666E+00  0.0000000000000E+00  0.6724125461223E-01
 0.1981091265911E+00 -0.2180976671917E+00  0.0000000000000E+00  0.5630654185380E-02
 0.1966472648820E+00 -0.2164224164119E+00  0.0000000000000E+00  0.1706126603984E-01
 0.1950401657528E+00 -0.2146005978174E+00  0.0000000000000E+00  0.2857596822017E-01
 0.1932927930282E+00 -0.2126340246082E+00  0.0000000000000E+00  0.4008050093152E-01
 0.1914138672530E+00 -0.2105280769665E+00  0.0000000000000E+00  0.5149246549177E-01
 0.1894182006978E+00 -0.2082939188456E+00  0.0000000000000E+00  0.6273257042608E-01
 0.1873283663537E+00 -0.2059500566606E+00  0.0000000000000E+00  0.7371725914859E-01
 0.1851761997921E+00 -0.2035237324125E+00  0.0000000000000E+00  0.8435218785058E-01
 0.1830044912698E+00 -0.2010525026186E+00  0.0000000000000E+00  0.9452585783511E-01
 0.1808691282164E+00 -0.1985862574982E+00  0.0000000000000E+00  0.1041026177367E+00
 0.1788418976492E+00 -0.1961898858145E+00  0.0000000000000E+00  0.1129141236152E+00
 0.1770141379607E+00 -0.1939467745185E+00  0.0000000000000E+00  0.1207480900591E+00
 0.1755014144208E+00 -0.1919633269208E+00  0.0000000000000E+00  0.1273326778377E+00
 0.1744493330656E+00 -0.1903746490192E+00  0.0000000000000E+00  0.1323139691392E+00
 0.1740403903438E+00 -0.1893513979958E+00  0.0000000000000E+00  0.1352223645410E+00
 0.1745010547438E+00 -0.1891072659542E+00  0.0000000000000E+00  0.1354207536581E+00
 0.1761061479606E+00 -0.1899049221368E+00  0.0000000000000E+00  0.1320220628287E+00
 0.1791713707272E+00 -0.1920533686870E+00  0.0000000000000E+00  0.1237542515690E+00
 0.1839984594189E+00 -0.1958710000247E+00  0.0000000000000E+00  0.1087477929935E+00
 0.1907261055220E+00 -0.2015507857295E+00  0.0000000000000E+00  0.8436267115261E-01
 0.1864344681401E+00 -0.2056022097820E+00  0.0000000000000E+00  0.7144669029404E-02
 0.1839038820094E+00 -0.2027735888664E+00  0.0000000000000E+00  0.1870601158976E-01
 0.1811935407599E+00 -0.1997547022622E+00  0.0000000000000E+00  0.3029276712858E-01
 0.1783001822100E+00 -0.1965379394226E+00  0.0000000000000E+00  0.4180480811427E-01
 0.1752270235270E+00 -0.1931218212307E+00  0.0000000000000E+00  0.5315855799673E-01
 0.1719864027877E+00 -0.1895134513251E+00  0.0000000000000E+00  0.6427653148533E-01
 0.1686015639083E+00 -0.1857301192281E+00  0.0000000000000E+00  0.7507933836107E-01
 0.1651084183415E+00 -0.1818008744379E+00  0.0000000000000E+00  0.8547949632279E-01
 0.1615578504405E+00 -0.1777686205286E+00  0.0000000000000E+00  0.9537622924313E-01
 0.1580190019885E+00 -0.1736931439364E+00  0.0000000000000E+00  0.1046504408162E+00
 0.1545839646782E+00 -0.1696554801927E+00  0.0000000000000E+00  0.1131590518687E+00
 0.1513744159160E+00 -0.1657641176685E+00  0.0000000000000E+00  0.1207277635435E+00
 0.1485509653010E+00 -0.1621637552254E+00  0.0000000000000E+00  0.1271409439329E+00
 0.1463263882701E+00 -0.1590477114041E+00  0.0000000000000E+00  0.1321265264151E+00
 0.1449846090127E+00 -0.1566757312735E+00  0.0000000000000E+00  0.1353320856298E+00
 0.1449084860578E+00 -0.1554000462344E+00  0.0000000000000E+00  0.1362845504218E+00
 0.1466213203706E+00 -0.1557044683139E+00  0.0000000000000E+00  0.1343171450825E+00
 0.1508497515434E+00 -0.1582641350302E+00  0.0000000000000E+00  0.1284261141597E+00
 0.1586157291220E+00 -0.1640371268942E+00  0.0000000000000E+00  0.1169457418874E+00
 0.1712187656505E+00 -0.1743264123341E+00  0.0000000000000E+00  0.9677739984066E-01
 0.1746905506302E+00 -0.1930327949345E+00  0.0000000000000E+00  0.7672567217234E-02
 0.1711022755766E+00 -0.1890616366151E+00  0.0000000000000E+00  0.1917643179096E-01
 0.1673010200752E+00 -0.1848578172663E+00  0.0000000000000E+00  0.3058615470237E-01
 0.1632739402059E+00 -0.1804030776177E+00  0.0000000000000E+00  0.4178970059589E-01
 0.1590186011778E+00 -0.1756890911522E+00  0.0000000000000E+00  0.5269550589671E-01
 0.1545455407913E+00 -0.1707197481612E+00  0.0000000000000E+00  0.6321890389267E-01
 0.1498797058841E+00 -0.1655123433539E+00  0.0000000000000E+00  0.7327294271181E-01
 0.1450620397824E+00 -0.1600989110818E+00  0.0000000000000E+00  0.8276243960959E-01
 0.1401519664081E+00 -0.1545284204127E+00  0.0000000000000E+00  0.9158016463153E-01
 0.1352312946598E+00 -0.1488703171035E+00  0.0000000000000E+00  0.9960435708176E-01
 0.1304100664149E+00 -0.1432198896934E+00  0.0000000000000E+00  0.1066970994744E+00
 0.1258350555613E+00 -0.1377061000330E+00  0.0000000000000E+00  0.1127033450194E+00
 0.1217020246450E+00 -0.1325028756826E+00  0.0000000000000E+00  0.1174506170575E+00
 0.1182735844780E+00 -0.1278455203740E+00  0.0000000000000E+00  0.1207495766464E+00
 0.1159059063838E+00 -0.1240551250917E+00  0.0000000000000E+00  0.1223957597428E+00
 0.1150902866035E+00 -0.1215762799902E+00  0.0000000000000E+00  0.1221725914022E+00
 0.1165218682886E+00 -0.1210385800592E+00  0.0000000000000E+00  0.1198547610939E+00
 0.1212219163354E+00 -0.1233649346473E+00  0.0000000000000E+00  0.1152037970376E+00
 0.1307884574281E+00 -0.1299846256109E+00  0.0000000000000E+00  0.1079295019096E+00
 0.1480317412191E+00 -0.1433661136448E+00  0.0000000000000E+00  0.9719745718044E-01
 0.1629615086416E+00 -0.1804781205418E+00  0.0000000000000E+00  0.7219525862304E-02
 0.1583542354796E+00 -0.1754038271618E+00  0.0000000000000E+00  0.1847187188963E-01
 0.1535073357438E+00 -0.1700612154549E+00  0.0000000000000E+00  0.2944324492667E-01
 0.1483985929251E+00 -0.1644218626815E+00  0.0000000000000E+00  0.4000499632169E-01
 0.1430226470789E+00 -0.1584736292450E+00  0.0000000000000E+00  0.5005087797814E-01
 0.1373927427958E+00 -0.1522220404182E+00  0.0000000000000E+00  0.5947874512850E-01
 0.1315412615083E+00 -0.1456905347769E+00  0.0000000000000E+00  0.6817978509640E-01
 0.1255207679699E+00 -0.1389212432453E+00  0.0000000000000E+00  0.7603289380853E-01
 0.1194063691364E+00 -0.1319770459287E+00  0.0000000000000E+00  0.8290254550849E-01
 0.1132998167894E+00 -0.1249452932210E+00  0.0000000000000E+00  0.8863936856311E-01
 0.1073357277585E+00 -0.1179435140861E+00  0.0000000000000E+00  0.9308345572302E-01
 0.1016904288110E+00 -0.1111275463226E+00  0.0000000000000E+00  0.9607128001598E-01
 0.9659423677170E-01 -0.1047027839791E+00  0.0000000000000E+00  0.9744816134293E-01
 0.9234852973071E-01 -0.9893969306411E-01  0.0000000000000E+00  0.9708989813223E-01
 0.8934992615440E-01 -0.9419554265166E-01  0.0000000000000E+00  0.9494016881668E-01
 0.8812582948768E-01 -0.9094578600744E-01  0.0000000000000E+00  0.9107629528587E-01
 0.8938920782901E-01 -0.8983149962059E-01  0.0000000000000E+00  0.8582903462657E-01
 0.9413207646094E-01 -0.9173638072351E-01  0.0000000000000E+00  0.8001612721882E-01
 0.1037941431351E+00 -0.9792435317893E-01  0.0000000000000E+00  0.7544012933124E-01
 0.1207996031052E+00 -0.1103705052609E+00  0.0000000000000E+00  0.7637674331553E-01
 0.1513329455600E+00 -0.1680282930238E+00  0.0000000000000E+00  0.5818549332236E-02
 0.1457749683698E+00 -0.1619207493057E+00  0.0000000000000E+00  0.1662788957452E-01
 0.1399623888796E+00 -0.1555212423972E+00  0.0000000000000E+00  0.2690060274894E-01
 0.1338663901707E+00 -0.1487944509253E+00  0.0000000000000E+00  0.3649270348555E-01
 0.1274855316296E+00 -0.1417317876800E+00  0.0000000000000E+00  0.4528205712814E-01
 0.1208454684782E+00 -0.1343507216418E+00  0.0000000000000E+00  0.5314524039230E-01
 0.1139980233852E+00 -0.1266936259283E+00  0.0000000000000E+00  0.5994674687444E-01
 0.1070215504303E+00 -0.1188279762431E+00  0.0000000000000E+00  0.6553611612599E-01
 0.1000231864561E+00 -0.1108484361556E+00  0.0000000000000E+00  0.6975066029342E-01
 0.9314307188120E-01 -0.1028808789225E+00  0.0000000000000E+00  0.7242316720882E-01
 0.8656045174195E-01 -0.9508823048659E-01  0.0000000000000E+00  0.7339536970415E-01
 0.8050150315817E-01 -0.8767795250317E-01  0.0000000000000E+00  0.7253936988155E-01
 0.7524863765248E-01 -0.8091087893676E-01  0.0000000000000E+00  0.6979095348720E-01
 0.7115074011949E-01 -0.7511082853036E-01  0.0000000000000E+00  0.6520138192357E-01
 0.6863306911177E-01 -0.7067366988685E-01  0.0000000000000E+00  0.5901883842142E-01
 0.6820349509327E-01 -0.6807263011363E-01  0.0000000000000E+00  0.5181945321990E-01
 0.7044691293136E-01 -0.6785179868904E-01  0.0000000000000E+00  0.4472600391082E-01
 0.7598084554330E-01 -0.7058518483439E-01  0.0000000000000E+00  0.3979480263802E-01
 0.8530644405964E-01 -0.7673467235002E-01  0.0000000000000E+00  0.4076518131263E-01
 0.9797398692562E-01 -0.8604293486296E-01  0.0000000000000E+00  0.5480923335525E-01
 0.1398894936484E+00 -0.1557723708506E+00  0.0000000000000E+00  0.3532667750778E-02
 0.1334786788591E+00 -0.1487318025036E+00  0.0000000000000E+00  0.1371781158686E-01
 0.1268130661794E+00 -0.1413910087809E+00  0.0000000000000E+00  0.2304769471704E-01
 0.1198632162847E+00 -0.1337144980178E+00  0.0000000000000E+00  0.3137485747318E-01
 0.1126423033890E+00 -0.1257086612439E+00  0.0000000000000E+00  0.3857050565606E-01
 0.1052018949318E+00 -0.1174172786321E+00  0.0000000000000E+00  0.4449927000102E-01
 0.9762859777454E-01 -0.1089181447967E+00  0.0000000000000E+00  0.4901255649464E-01
 0.9004312026754E-01 -0.1003222083111E+00  0.0000000000000E+00  0.5195336199271E-01
 0.8260170017398E-01 -0.9177513311114E-01  0.0000000000000E+00  0.5316935556501E-01
 0.7549919877115E-01 -0.8346057214778E-01  0.0000000000000E+00  0.5253364294624E-01
 0.6897283781152E-01 -0.7560414599045E-01  0.0000000000000E+00  0.4997446271396E-01
 0.6330519663578E-01 -0.6847678775537E-01  0.0000000000000E+00  0.4551651632252E-01
 0.5882440526938E-01 -0.6239548561794E-01  0.0000000000000E+00  0.3933807325193E-01
 0.5589810370104E-01 -0.5771819995828E-01  0.0000000000000E+00  0.3184972013586E-01
 0.5491494245165E-01 -0.5482723129975E-01  0.0000000000000E+00  0.2380288861742E-01
 0.5624169557290E-01 -0.5409023442733E-01  0.0000000000000E+00  0.1643898315792E-01
 0.6013071152762E-01 -0.5577709917356E-01  0.0000000000000E+00  0.1169169372850E-01
 0.6652486889536E-01 -0.5988676989485E-01  0.0000000000000E+00  0.1244382176406E-01
 0.7460650484596E-01 -0.6577236119662E-01  0.0000000000000E+00  0.2277702819905E-01
 0.8188531646702E-01 -0.7138347726652E-01  0.0000000000000E+00  0.4731212502759E-01
 0.1287120192889E+00 -0.1437953834843E+00  0.0000000000000E+00  0.4513668438619E-03
 0.1215722432081E+00 -0.1359484362197E+00  0.0000000000000E+00  0.9843807100734E-02
 0.1141918702466E+00 -0.1278084698835E+00  0.0000000000000E+00  0.1801401619735E-01
 0.1065501799540E+00 -0.1193500337033E+00  0.0000000000000E+00  0.2483498882152E-01
 0.9868779622654E-01 -0.1106081720779E+00  0.0000000000000E+00  0.3019230307888E-01
 0.9069605957263E-01 -0.1016678471920E+00  0.0000000000000E+00  0.3396166974793E-01
 0.8270936123609E-01 -0.9265654870957E-01  0.0000000000000E+00  0.3601194090275E-01
 0.7490117714886E-01 -0.8374073648648E-01  0.0000000000000E+00  0.3622273647532E-01
 0.6748251568780E-01 -0.7512477767265E-01  0.0000000000000E+00  0.3451173388323E-01
 0.6070075559807E-01 -0.6705036229021E-01  0.0000000000000E+00  0.3087025793746E-01
 0.5483650950613E-01 -0.5979408081793E-01  0.0000000000000E+00  0.2540756280316E-01
 0.5019563384811E-01 -0.5366037988901E-01  0.0000000000000E+00  0.1840481347496E-01
 0.4709250610450E-01 -0.4896620846341E-01  0.0000000000000E+00  0.1037951419444E-01
 0.4581886526502E-01 -0.4601204175842E-01  0.0000000000000E+00  0.2159709549518E-02
 0.4658938290477E-01 -0.4503123554065E-01  0.0000000000000E+00 -0.5036545253626E-02
 0.4944983964935E-01 -0.4610528660683E-01  0.0000000000000E+00 -0.9530595363267E-02
 0.5412654795996E-01 -0.4902660955232E-01  0.0000000000000E+00 -0.9161525375416E-02
 0.5978729959240E-01 -0.5308625190075E-01  0.0000000000000E+00 -0.1421036072970E-02
 0.6472950766681E-01 -0.5679745636099E-01  0.0000000000000E+00  0.1591456669486E-01
 0.6642934916721E-01 -0.5785591703656E-01  0.0000000000000E+00  0.4303413938629E-01
 0.1178742649846E+00 -0.1321741783166E+00  0.0000000000000E+00 -0.3323209884056E-02
 0.1101464410612E+00 -0.1236644271608E+00  0.0000000000000E+00  0.5114222162960E-02
 0.1022034192246E+00 -0.1148818968587E+00  0.0000000000000E+00  0.1193763691859E-01
 0.9404513123543E-01 -0.1058238701096E+00  0.0000000000000E+00  0.1707545297547E-01
 0.8575292328301E-01 -0.9656828925006E-01  0.0000000000000E+00  0.2045890190111E-01
 0.7746914837686E-01 -0.8725360050243E-01  0.0000000000000E+00  0.2200710082183E-01
 0.6938241418315E-01 -0.7806463946904E-01  0.0000000000000E+00  0.2164554298972E-01
 0.6171834999629E-01 -0.6922413345917E-01  0.0000000000000E+00  0.1933970933622E-01
 0.5473256760601E-01 -0.6098642911552E-01  0.0000000000000E+00  0.1513598633879E-01
 0.4870216699268E-01 -0.5362983102705E-01  0.0000000000000E+00  0.9206923612284E-02
 0.4391225375203E-01 -0.4744408292884E-01  0.0000000000000E+00  0.1899164188239E-02
 0.4063382141080E-01 -0.4270947779170E-01  0.0000000000000E+00 -0.6218327095777E-02
 0.3908887825955E-01 -0.3966371587117E-01  0.0000000000000E+00 -0.1431051014386E-01
 0.3939795950776E-01 -0.3845207789500E-01  0.0000000000000E+00 -0.2124652094050E-01
 0.4150460135642E-01 -0.3905619024479E-01  0.0000000000000E+00 -0.2560248606368E-01
 0.4507275323810E-01 -0.4119821298702E-01  0.0000000000000E+00 -0.2573298149797E-01
 0.4936188107726E-01 -0.4422560030925E-01  0.0000000000000E+00 -0.1998008800329E-01
 0.5312093063473E-01 -0.4701223976124E-01  0.0000000000000E+00 -0.7149246204124E-02
 0.5467087274863E-01 -0.4801069897898E-01  0.0000000000000E+00  0.1260490925611E-01
 0.5239157860584E-01 -0.4567371231739E-01  0.0000000000000E+00  0.3684226670776E-01
 0.1074389061250E+00 -0.1209732745690E+00  0.0000000000000E+00 -0.7683156690917E-02
 0.9926847733097E-01 -0.1119492963786E+00  0.0000000000000E+00 -0.3617599734675E-03
 0.9091596727151E-01 -0.1026827685763E+00  0.0000000000000E+00  0.4959242031440E-02
 0.8241455319654E-01 -0.9320749625383E-01  0.0000000000000E+00  0.8310160925539E-02
 0.7389900174287E-01 -0.8365806458642E-01  0.0000000000000E+00  0.9704266610435E-02
 0.6556913721318E-01 -0.7423382651191E-01  0.0000000000000E+00  0.9137198304983E-02
 0.5766530327574E-01 -0.6517539922866E-01  0.0000000000000E+00  0.6626890837901E-02
 0.5045243856112E-01 -0.5674969137969E-01  0.0000000000000E+00  0.2263380171690E-02
 0.4420638932365E-01 -0.4923710342472E-01  0.0000000000000E+00 -0.3742135107030E-02
 0.3919722362838E-01 -0.4291570960583E-01  0.0000000000000E+00 -0.1101313754754E-01
 0.3566563130406E-01 -0.3803861841303E-01  0.0000000000000E+00 -0.1897194891496E-01
 0.3378944867862E-01 -0.3480168629812E-01  0.0000000000000E+00 -0.2681740767016E-01
 0.3363823904435E-01 -0.3329974692658E-01  0.0000000000000E+00 -0.3352494279656E-01
 0.3511534657162E-01 -0.3347103781641E-01  0.0000000000000E+00 -0.3788385700528E-01
 0.3789040645538E-01 -0.3503292249148E-01  0.0000000000000E+00 -0.3859569811259E-01
 0.4133419143711E-01 -0.3742011143909E-01  0.0000000000000E+00 -0.3446990489292E-01
 0.4448867763041E-01 -0.3975489783397E-01  0.0000000000000E+00 -0.2476340206640E-01
 0.4614982027160E-01 -0.4091563854624E-01  0.0000000000000E+00 -0.9684194572970E-02
 0.4515907491900E-01 -0.3979371654495E-01  0.0000000000000E+00  0.9113439595511E-02
 0.4087381822132E-01 -0.3572088394047E-01  0.0000000000000E+00  0.2851061521339E-01
 0.9745771988361E-01 -0.1102466974651E+00  0.0000000000000E+00 -0.1250337215890E-01
 0.8898646721290E-01 -0.1008547834335E+00  0.0000000000000E+00 -0.6447970322740E-02
 0.8036891993233E-01 -0.9125569592131E-01  0.0000000000000E+00 -0.2739484658971E-02
 0.7168516297491E-01 -0.8153517485687E-01  0.0000000000000E+00 -0.1188544735918E-02
 0.6313459375215E-01 -0.7189646880024E-01  0.0000000000000E+00 -0.1668606890166E-02
 0.5497444724314E-01 -0.6260029663127E-01  0.0000000000000E+00 -0.4085801475493E-02
 0.4748453194166E-01 -0.5393095748240E-01  0.0000000000000E+00 -0.8310706104984E-02
 0.4094565001703E-01 -0.4617585385978E-01  0.0000000000000E+00 -0.1411465178286E-01
 0.3562091277523E-01 -0.3960765425790E-01  0.0000000000000E+00 -0.2112100124664E-01
 0.3173343551408E-01 -0.3446279835584E-01  0.0000000000000E+00 -0.2877419320185E-01
 0.2943711508945E-01 -0.3091308480640E-01  0.0000000000000E+00 -0.3632931396988E-01
 0.2877962903145E-01 -0.2902965545237E-01  0.0000000000000E+00 -0.4286742731283E-01
 0.2965917498004E-01 -0.2874097762943E-01  0.0000000000000E+00 -0.4734565029391E-01
 0.3177993001754E-01 -0.2978973054826E-01  0.0000000000000E+00 -0.4869532845264E-01
 0.3461739863901E-01 -0.3169910160709E-01  0.0000000000000E+00 -0.4598525576282E-01
 0.3741588577064E-01 -0.3376877217381E-01  0.0000000000000E+00 -0.3866445739773E-01
 0.3925718466798E-01 -0.3513527900982E-01  0.0000000000000E+00 -0.2687446121094E-01
 0.3924502854470E-01 -0.3493773996594E-01  0.0000000000000E+00 -0.1173507432178E-01
 0.3679770807870E-01 -0.3258590109979E-01  0.0000000000000E+00  0.4630161837189E-02
 0.3192660930466E-01 -0.2802555179990E-01  0.0000000000000E+00  0.1958134705395E-01
 0.8797263113933E-01 -0.1000387156014E+00  0.0000000000000E+00 -0.1764930465924E-01
 0.7933279140850E-01 -0.9041631637152E-01  0.0000000000000E+00 -0.1298932458856E-01
 0.7057591732606E-01 -0.8061863736776E-01  0.0000000000000E+00 -0.1094297368138E-01
 0.6184774849978E-01 -0.7080374035170E-01  0.0000000000000E+00 -0.1110165966145E-01
 0.5342170613203E-01 -0.6125337300422E-01  0.0000000000000E+00 -0.1321302615308E-01
 0.4560492980277E-01 -0.5228187509767E-01  0.0000000000000E+00 -0.1708622556023E-01
 0.3869563744258E-01 -0.4419551592871E-01  0.0000000000000E+00 -0.2248649558552E-01
 0.3296082737039E-01 -0.3727125504869E-01  0.0000000000000E+00 -0.2906121781232E-01
 0.2861755995746E-01 -0.3173901515071E-01  0.0000000000000E+00 -0.3630071635203E-01
 0.2581033767432E-01 -0.2775973289209E-01  0.0000000000000E+00 -0.4353004529530E-01
 0.2458296451482E-01 -0.2539789772109E-01  0.0000000000000E+00 -0.4993008194388E-01
 0.2484688556088E-01 -0.2459050165553E-01  0.0000000000000E+00 -0.5458989840910E-01
 0.2635118757158E-01 -0.2511757828848E-01  0.0000000000000E+00 -0.5659562713632E-01
 0.2866329540110E-01 -0.2658288243834E-01  0.0000000000000E+00 -0.5516241940079E-01
 0.3117495887315E-01 -0.2841818495983E-01  0.0000000000000E+00 -0.4981190493879E-01
 0.3315484314813E-01 -0.2993051115161E-01  0.0000000000000E+00 -0.4058077817699E-01
 0.3386985254026E-01 -0.3041274456107E-01  0.0000000000000E+00 -0.2820365475489E-01
 0.3277391204588E-01 -0.2931812355880E-01  0.0000000000000E+00 -0.1414700364165E-01
 0.2970470549583E-01 -0.2644745293970E-01  0.0000000000000E+00 -0.3461205656037E-03
 0.2496740213958E-01 -0.2204142092786E-01  0.0000000000000E+00  0.1137629426421E-01
 0.7901474314040E-01 -0.9038311137202E-01  0.0000000000000E+00 -0.2298148186305E-01
 0.7032156650397E-01 -0.8065087707379E-01  0.0000000000000E+00 -0.1982243398086E-01
 0.6152294469656E-01 -0.7076090501262E-01  0.0000000000000E+00 -0.1941470463903E-01
 0.5285896759151E-01 -0.6097408272490E-01  0.0000000000000E+00 -0.2108372455535E-01
 0.4468397424845E-01 -0.5165702394686E-01  0.0000000000000E+00 -0.2447334825096E-01
 0.3733881058280E-01 -0.4316074454988E-01  0.0000000000000E+00 -0.2932770834276E-01
 0.3111177002896E-01 -0.3578335202613E-01  0.0000000000000E+00 -0.3533745990027E-01
 0.2622535032401E-01 -0.2975886576982E-01  0.0000000000000E+00 -0.4206189940230E-01
 0.2282441715532E-01 -0.2524617275033E-01  0.0000000000000E+00 -0.4890887647713E-01
 0.2095888041086E-01 -0.2231263314784E-01  0.0000000000000E+00 -0.5515522925721E-01
 0.2056200381421E-01 -0.2091262228383E-01  0.0000000000000E+00 -0.5999790807583E-01
 0.2142989143438E-01 -0.2086709657436E-01  0.0000000000000E+00 -0.6263251539583E-01
 0.2320986685642E-01 -0.2185154755331E-01  0.0000000000000E+00 -0.6236014802857E-01
 0.2540770634744E-01 -0.2340169941347E-01  0.0000000000000E+00 -0.5872084966953E-01
 0.2742624962285E-01 -0.2494848004208E-01  0.0000000000000E+00 -0.5164174454226E-01
 0.2864743812263E-01 -0.2589353008919E-01  0.0000000000000E+00 -0.4156555359242E-01
 0.2855857153720E-01 -0.2572688983025E-01  0.0000000000000E+00 -0.2949183609756E-01
 0.2689420698699E-01 -0.2416235781076E-01  0.0000000000000E+00 -0.1684419251226E-01
 0.2372730113307E-01 -0.2123076393510E-01  0.0000000000000E+00 -0.5125615573817E-02
 0.1944053859529E-01 -0.1726308511427E-01  0.0000000000000E+00  0.4531686201820E-02
 0.7060403806389E-01 -0.8130278510833E-01  0.0000000000000E+00 -0.2836971519030E-01
 0.6194456484641E-01 -0.7155176641161E-01  0.0000000000000E+00 -0.2679385773354E-01
 0.5316516460814E-01 -0.6163899197587E-01  0.0000000000000E+00 -0.2791519343196E-01
 0.4464461052901E-01 -0.5197284496832E-01  0.0000000000000E+00 -0.3078458319260E-01
 0.3681887742210E-01 -0.4300571781685E-01  0.0000000000000E+00 -0.3501789070933E-01
 0.3003402093966E-01 -0.3509378768134E-01  0.0000000000000E+00 -0.4035540205520E-01
 0.2453425299854E-01 -0.2849108283075E-01  0.0000000000000E+00 -0.4645707843205E-01
 0.2047090120966E-01 -0.2335914574156E-01  0.0000000000000E+00 -0.5283365929910E-01
 0.1790368459834E-01 -0.1977137993093E-01  0.0000000000000E+00 -0.5885996637410E-01
 0.1678994950389E-01 -0.1770198204617E-01  0.0000000000000E+00 -0.6382744086505E-01
 0.1697084647196E-01 -0.1701191523035E-01  0.0000000000000E+00 -0.6701582711476E-01
 0.1816345205004E-01 -0.1744033319408E-01  0.0000000000000E+00 -0.6778177221948E-01
 0.1996654538691E-01 -0.1860901211257E-01  0.0000000000000E+00 -0.6566218144143E-01
 0.2188802895656E-01 -0.2004718606872E-01  0.0000000000000E+00 -0.6048444868639E-01
 0.2340113448805E-01 -0.2124354532717E-01  0.0000000000000E+00 -0.5246314022338E-01
 0.2403094737943E-01 -0.2172735674250E-01  0.0000000000000E+00 -0.4224496824966E-01
 0.2345812415269E-01 -0.2116757355775E-01  0.0000000000000E+00 -0.3085108964847E-01
 0.2160431655977E-01 -0.1945806607362E-01  0.0000000000000E+00 -0.1948342596957E-01
 0.1864973916027E-01 -0.1674195186368E-01  0.0000000000000E+00 -0.9231129338328E-02
 0.1495029240587E-01 -0.1334143977903E-01  0.0000000000000E+00 -0.7969859064708E-03
 0.6275061352388E-01 -0.7281004483631E-01  0.0000000000000E+00 -0.3371099979472E-01
 0.5416540841139E-01 -0.6308373293654E-01  0.0000000000000E+00 -0.3377506685694E-01
 0.4542616621366E-01 -0.5317405510072E-01  0.0000000000000E+00 -0.3620281821412E-01
 0.3711142034639E-01 -0.4370549213773E-01  0.0000000000000E+00 -0.3985136531879E-01
 0.2972097628745E-01 -0.3519144863993E-01  0.0000000000000E+00 -0.4445039183069E-01
 0.2355743133423E-01 -0.2794519099216E-01  0.0000000000000E+00 -0.4981644020865E-01
 0.1878171706381E-01 -0.2212988035727E-01  0.0000000000000E+00 -0.5560539632971E-01
 0.1546089986736E-01 -0.1782137562036E-01  0.0000000000000E+00 -0.6130057949412E-01
 0.1357423105483E-01 -0.1501126476056E-01  0.0000000000000E+00 -0.6628301221570E-01
 0.1300388554478E-01 -0.1359718619115E-01  0.0000000000000E+00 -0.6990432566506E-01
 0.1352835835375E-01 -0.1337498530742E-01  0.0000000000000E+00 -0.7156405350019E-01
 0.1482575427289E-01 -0.1404075606529E-01  0.0000000000000E+00 -0.7079185039609E-01
 0.1649250896565E-01 -0.1520763020810E-01  0.0000000000000E+00 -0.6733209939185E-01
 0.1808179529430E-01 -0.1644135501981E-01  0.0000000000000E+00 -0.6121966501751E-01
 0.1916316135412E-01 -0.1731637690319E-01  0.0000000000000E+00 -0.5282519426772E-01
 0.1939777619768E-01 -0.1748778874009E-01  0.0000000000000E+00 -0.4283982281041E-01
 0.1861133773084E-01 -0.1676308419606E-01  0.0000000000000E+00 -0.3217362978175E-01
 0.1683538447974E-01 -0.1514595520881E-01  0.0000000000000E+00 -0.2177371386312E-01
 0.1428825475904E-01 -0.1282407773993E-01  0.0000000000000E+00 -0.1242608590700E-01
 0.1128225840368E-01 -0.1008684940360E-01  0.0000000000000E+00 -0.4646616352553E-02
 0.5545368608661E-01 -0.6491646559974E-01  0.0000000000000E+00 -0.3894389776952E-01
 0.4691051968553E-01 -0.5517244205517E-01  0.0000000000000E+00 -0.4064791636505E-01
 0.3819319988247E-01 -0.4525234812217E-01  0.0000000000000E+00 -0.4400037783058E-01
 0.3016369348460E-01 -0.3606483377944E-01  0.0000000000000E+00 -0.4788727171857E-01
 0.2330946381098E-01 -0.2813097257602E-01  0.0000000000000E+00 -0.5241896391120E-01
 0.1779872017010E-01 -0.2159559775635E-01  0.0000000000000E+00 -0.5749417369419E-01
 0.1369512463646E-01 -0.1652427373928E-01  0.0000000000000E+00 -0.6272089183273E-01
 0.1099568230196E-01 -0.1292088372565E-01  0.0000000000000E+00 -0.6756674062532E-01
 0.9619438883065E-02 -0.1071629276261E-01  0.0000000000000E+00 -0.7144890222870E-01
 0.9399237076126E-02 -0.9757100107638E-02  0.0000000000000E+00 -0.7380742791835E-01
 0.1008174329898E-01 -0.9804350357364E-02  0.0000000000000E+00 -0.7417183010990E-01
 0.1133962569137E-01 -0.1054408383003E-01  0.0000000000000E+00 -0.7222694464280E-01
 0.1279769074354E-01 -0.1161147100558E-01  0.0000000000000E+00 -0.6787327617448E-01
 0.1407403652903E-01 -0.1262954990660E-01  0.0000000000000E+00 -0.6126983844703E-01
 0.1483396230525E-01 -0.1326080712793E-01  0.0000000000000E+00 -0.5284142703957E-01
 0.1484801647491E-01 -0.1326395073493E-01  0.0000000000000E+00 -0.4323198768387E-01
 0.1403790732076E-01 -0.1254052910214E-01  0.0000000000000E+00 -0.3319869393931E-01
 0.1248985648000E-01 -0.1115164851252E-01  0.0000000000000E+00 -0.2347062247466E-01
 0.1042713764476E-01 -0.9293303330414E-02  0.0000000000000E+00 -0.1462987525057E-01
 0.8150333668870E-02 -0.7239092565811E-02  0.0000000000000E+00 -0.7117943559005E-02
 0.4870495754571E-01 -0.5762838068962E-01  0.0000000000000E+00 -0.4416455223841E-01
 0.3996777956598E-01 -0.4762150685005E-01  0.0000000000000E+00 -0.4739260665091E-01
 0.3129238079300E-01 -0.3763963524725E-01  0.0000000000000E+00 -0.5085318883769E-01
 0.2376781856560E-01 -0.2902359592902E-01  0.0000000000000E+00 -0.5446229680514E-01
 0.1755079277064E-01 -0.2178447135660E-01  0.0000000000000E+00 -0.5872524228882E-01
 0.1267142487386E-01 -0.1594737025135E-01  0.0000000000000E+00 -0.6335705556724E-01
 0.9147266889409E-02 -0.1152829380957E-01  0.0000000000000E+00 -0.6790435966116E-01
 0.6934189148994E-02 -0.8492311452016E-02  0.0000000000000E+00 -0.7184482387874E-01
 0.5914671705720E-02 -0.6733012586354E-02  0.0000000000000E+00 -0.7466342768488E-01
 0.5894620103826E-02 -0.6068174186013E-02  0.0000000000000E+00 -0.7590357576016E-01
 0.6611783261885E-02 -0.6246568686169E-02  0.0000000000000E+00 -0.7521772697172E-01
 0.7754204564699E-02 -0.6964964226280E-02  0.0000000000000E+00 -0.7241519759577E-01
 0.8989288515640E-02 -0.7895507175841E-02  0.0000000000000E+00 -0.6750074080778E-01
 0.1000251494602E-01 -0.8722823194722E-02  0.0000000000000E+00 -0.6069276266204E-01
 0.1054173614635E-01 -0.9187273528382E-02  0.0000000000000E+00 -0.5240845347403E-01
 0.1045842136319E-01 -0.9126288588996E-02  0.0000000000000E+00 -0.4320751507876E-01
 0.9733459761602E-02 -0.8501751045206E-02  0.0000000000000E+00 -0.3369985264199E-01
 0.8477532714215E-02 -0.7402365851276E-02  0.0000000000000E+00 -0.2444461452663E-01
 0.6902326294323E-02 -0.6018794405361E-02  0.0000000000000E+00 -0.1587943510605E-01
 0.5313482803589E-02 -0.4623451570496E-02  0.0000000000000E+00 -0.8314146497893E-02
 0.4205679109094E-01 -0.5072152993202E-01  0.0000000000000E+00 -0.5050645660078E-01
 0.3279340277921E-01 -0.3956576085411E-01  0.0000000000000E+00 -0.5320111547336E-01
 0.2482730466627E-01 -0.3051260824503E-01  0.0000000000000E+00 -0.5592636449860E-01
 0.1805982924561E-01 -0.2272098173248E-01  0.0000000000000E+00 -0.5939414418181E-01
 0.1245476259844E-01 -0.1616476031367E-01  0.0000000000000E+00 -0.6340061046408E-01
 0.8111966007777E-02 -0.1092928368013E-01  0.0000000000000E+00 -0.6753332867471E-01
 0.5042036662559E-02 -0.7034318262266E-02  0.0000000000000E+00 -0.7134289426217E-01
 0.3179437821956E-02 -0.4423743692159E-02  0.0000000000000E+00 -0.7437620199245E-01
 0.2383189683718E-02 -0.2966945619738E-02  0.0000000000000E+00 -0.7621285322365E-01
 0.2447376575225E-02 -0.2467520449697E-02  0.0000000000000E+00 -0.7650236130734E-01
 0.3116013017955E-02 -0.2677191441949E-02  0.0000000000000E+00 -0.7500220632142E-01
 0.4104723013605E-02 -0.3316278450846E-02  0.0000000000000E+00 -0.7161147283361E-01
 0.5129106700679E-02 -0.4100935280489E-02  0.0000000000000E+00 -0.6639351366362E-01
 0.5937985726769E-02 -0.4775615157553E-02  0.0000000000000E+00 -0.5957937067753E-01
 0.6346925296902E-02 -0.5146526101634E-02  0.0000000000000E+00 -0.5154428816229E-01
 0.6264820187017E-02 -0.5109083995022E-02  0.0000000000000E+00 -0.4275478963797E-01
 0.5706103724729E-02 -0.4661606950144E-02  0.0000000000000E+00 -0.3369472666612E-01
 0.4784861613722E-02 -0.3901333440754E-02  0.0000000000000E+00 -0.2479036711549E-01
 0.3699196014470E-02 -0.3007457104383E-02  0.0000000000000E+00 -0.1636796499186E-01
 0.2688651975062E-02 -0.2217443399088E-02  0.0000000000000E+00 -0.8591636445963E-02
</DataArray>
<DataArray type="Float64" Name="S_Centroid" NumberOfComponents="4" ComponentName0="S11" ComponentName1="S22" ComponentName2="S33" ComponentName3="S12" format="ascii">
-0.1010686039951E+01 -0.8215901819524E+01 -0.1845317599392E+01 -0.9904624649632E+00
 0.1430579570018E+00 -0.6646299135136E+01 -0.1300648255008E+01 -0.2787811907233E-01
-0.2787552636252E-01 -0.6250040595270E+01 -0.1255583243036E+01 -0.4652296312531E-01
 0.4478516631253E-02 -0.6065422316610E+01 -0.1212188778059E+01 -0.1961020996533E-01
-0.1583298543969E-02 -0.5963502549529E+01 -0.1193017187392E+01 -0.1208313890769E-01
-0.3244229426014E-04 -0.5901210905441E+01 -0.1180248687134E+01 -0.7616253243098E-02
-0.2802772367925E-03 -0.5859939765891E+01 -0.1172044026090E+01 -0.5289745495909E-02
-0.1635591004470E-03 -0.5830500724115E+01 -0.1166132874020E+01 -0.3952403456062E-02
-0.1585928778574E-03 -0.5808101326357E+01 -0.1161652001157E+01 -0.3167662979151E-02
-0.1410488225315E-03 -0.5790084034858E+01 -0.1158045033992E+01 -0.2676458495974E-02
-0.1350651891656E-03 -0.5775001171354E+01 -0.1155027264520E+01 -0.2333840490984E-02
-0.1318986950061E-03 -0.5762114050840E+01 -0.1152449207080E+01 -0.2048463071358E-02
-0.1321457708146E-03 -0.5751137844962E+01 -0.1150254015287E+01 -0.1759510209015E-02
-0.1349294906534E-03 -0.5742098436996E+01 -0.1148446690411E+01 -0.1422540205307E-02
-0.1402475021521E-03 -0.5735255016231E+01 -0.1147079069840E+01 -0.1001527157936E-02
-0.1483002279068E-03 -0.5731061587043E+01 -0.1146241994534E+01 -0.4634539423814E-03
-0.1593501421322E-03 -0.5730155584052E+01 -0.1146063003916E+01  0.2255368968039E-03
-0.1746315949052E-03 -0.5733372906231E+01 -0.1146709524652E+01  0.1105345927423E-02
-0.1950672074431E-03 -0.5741781700934E+01 -0.1148395370741E+01  0.2226557971640E-02
-0.2234684889477E-03 -0.5756767358160E+01 -0.1151398182487E+01  0.3660855516436E-02
-0.2649473134788E-03 -0.5780178875204E+01 -0.1156088781731E+01  0.5521990415482E-02
-0.3253132928647E-03 -0.5814667850759E+01 -0.1162998650140E+01  0.8013779261828E-02
-0.6249115062942E-03 -0.5864674893154E+01 -0.1173059978412E+01  0.1184868546112E-01
-0.1965033038373E-02 -0.5936991074659E+01 -0.1187791239239E+01  0.1990152785848E-01
-0.4579329805204E-02 -0.6033174199282E+01 -0.1207550723811E+01  0.3730475539297E-01
-0.7840660646592E-02 -0.6146391652999E+01 -0.1230846481070E+01  0.6789805251500E-01
-0.1150575666585E-01 -0.6269316697893E+01 -0.1256164509630E+01  0.1121906510552E+00
-0.1581637290744E-01 -0.6398631490089E+01 -0.1282889591716E+01  0.1685995757407E+00
-0.2128751843249E-01 -0.6535632010615E+01 -0.1311383925351E+01  0.2352082194560E+00
-0.2856047858005E-01 -0.6685073539809E+01 -0.1342726823686E+01  0.3109930525229E+00
-0.3839147737991E-01 -0.6853523543996E+01 -0.1378383024815E+01  0.3963787383676E+00
-0.5168779001718E-01 -0.7047732128036E+01 -0.1419884004769E+01  0.4932248188027E+00
-0.6851350541653E-01 -0.7272022373369E+01 -0.1468107197634E+01  0.6029195669103E+00
-0.8872191294853E-01 -0.7534837669253E+01 -0.1524711939160E+01  0.7245728366229E+00
-0.1123183731581E+00 -0.7861303177819E+01 -0.1594724333959E+01  0.8597248060174E+00
-0.1482376059203E+00 -0.8290435233294E+01 -0.1687734592992E+01  0.1017667336276E+01
-0.1757412323433E+00 -0.8874985908781E+01 -0.1810145455198E+01  0.1218071111875E+01
-0.3354944437725E+00 -0.9704905569794E+01 -0.2008080032636E+01  0.1506313301220E+01
-0.9345759840138E-02 -0.1097219983380E+02 -0.2196309151455E+01  0.1905631596577E+01
-0.2978959657707E+01 -0.1315792463625E+02 -0.3227376906882E+01  0.3420437900771E+01
 0.9024099020365E+01 -0.1361651099601E+02 -0.9184824088154E+00  0.3168784501082E+01
-0.1070968629768E+01 -0.7203200286618E+01 -0.1654833807936E+01 -0.1054792611238E+01
-0.1534536427793E+00 -0.6781581434861E+01 -0.1387007036196E+01 -0.4345737022681E+00
-0.3422053828149E-02 -0.6265006291166E+01 -0.1253685687680E+01 -0.1304929555562E+00
-0.1705443279924E-01 -0.6052756727990E+01 -0.1213962250247E+01 -0.8024972527532E-01
-0.4436600055301E-02 -0.5926788630358E+01 -0.1186245063759E+01 -0.4532728891769E-01
-0.3342602617617E-02 -0.5848712068992E+01 -0.1170410951762E+01 -0.2953825089354E-01
-0.1732638273746E-02 -0.5796106553106E+01 -0.1159567855555E+01 -0.2037906771720E-01
-0.1118943544400E-02 -0.5758540845177E+01 -0.1151931974909E+01 -0.1508930294577E-01
-0.7249328464469E-03 -0.5730175919605E+01 -0.1146180187570E+01 -0.1183675648092E-01
-0.5238903367240E-03 -0.5707757495078E+01 -0.1141656294095E+01 -0.9731479721662E-02
-0.4216479496415E-03 -0.5689414825212E+01 -0.1137967311589E+01 -0.8241298396959E-02
-0.3872055994454E-03 -0.5674120127594E+01 -0.1134901483550E+01 -0.7040990222031E-02
-0.3988733867071E-03 -0.5661377787308E+01 -0.1132355349012E+01 -0.5914367773954E-02
-0.4460522631116E-03 -0.5651055881599E+01 -0.1130300403615E+01 -0.4706567255546E-02
-0.5235533594432E-03 -0.5643290305994E+01 -0.1128762788691E+01 -0.3295184401197E-02
-0.6303091230477E-03 -0.5638434478938E+01 -0.1127812974418E+01 -0.1571877974205E-02
-0.7689543052325E-03 -0.5637039913400E+01 -0.1127561790343E+01  0.5720330317084E-03
-0.9463956769269E-03 -0.5639861601658E+01 -0.1128161616278E+01  0.3259126745184E-02
-0.1175446080899E-02 -0.5647889393068E+01 -0.1129812984665E+01  0.6643508280797E-02
-0.1481304797156E-02 -0.5662416269006E+01 -0.1132779531640E+01  0.1094038116257E-01
-0.1912675001693E-02 -0.5685167386937E+01 -0.1137416029337E+01  0.1648243922830E-01
-0.2619326119917E-02 -0.5718566524819E+01 -0.1144237187238E+01  0.2390120870556E-01
-0.4369742224271E-02 -0.5765990130322E+01 -0.1154071991706E+01  0.3462894870296E-01
-0.8478697852314E-02 -0.5830631084709E+01 -0.1167821973914E+01  0.5101059571282E-01
-0.1523384404531E-01 -0.5912617393016E+01 -0.1185570265079E+01  0.7570122875231E-01
-0.2350392482600E-01 -0.6008299866915E+01 -0.1206360776324E+01  0.1108820309207E+00
-0.3223807608207E-01 -0.6113207740981E+01 -0.1229089181727E+01  0.1575316798587E+00
-0.4129752124652E-01 -0.6224916012459E+01 -0.1253242725416E+01  0.2154476406893E+00
-0.5129566470105E-01 -0.6343848289510E+01 -0.1279028809901E+01  0.2840517906136E+00
-0.6328394660481E-01 -0.6472707345110E+01 -0.1307198277822E+01  0.3631513337610E+00
-0.7857100059928E-01 -0.6615357609771E+01 -0.1338785742024E+01  0.4533454414854E+00
-0.9811429202508E-01 -0.6775591007815E+01 -0.1374741080453E+01  0.5557274568649E+00
-0.1218620640361E+00 -0.6957201447189E+01 -0.1415812723342E+01  0.6714977247726E+00
-0.1499945974166E+00 -0.7167037062725E+01 -0.1463406353835E+01  0.8028499640011E+00
-0.1873234694844E+00 -0.7418046500041E+01 -0.1521074016571E+01  0.9550085743008E+00
-0.2354376495054E+00 -0.7726968549509E+01 -0.1592481263533E+01  0.1137069471105E+01
-0.3301100287939E+00 -0.8112226343993E+01 -0.1688467299717E+01  0.1375360347942E+01
-0.3973698942327E+00 -0.8572125568935E+01 -0.1793899119365E+01  0.1663441689901E+01
-0.8806345141013E+00 -0.9128395526234E+01 -0.2001806037896E+01  0.2310783736683E+01
-0.1588647295916E+01 -0.8516518288942E+01 -0.2021033147087E+01  0.2199100065566E+01
 0.7778264304489E+01 -0.7360703654699E+01  0.8351213120229E-01  0.6770393352288E+00
-0.1126089687985E+01 -0.6643422045771E+01 -0.1553902369906E+01 -0.9896991295013E+00
-0.3600596605846E+00 -0.6569907973564E+01 -0.1385993547483E+01 -0.6115574297949E+00
-0.7524523798197E-01 -0.6245596443107E+01 -0.1264168355055E+01 -0.2660760793300E+00
-0.3427514787916E-01 -0.6010852070126E+01 -0.1209025461617E+01 -0.1394555066412E+00
-0.1806449629805E-01 -0.5877393024800E+01 -0.1179091521789E+01 -0.8581782487189E-01
-0.9346690817869E-02 -0.5788637881427E+01 -0.1159596931728E+01 -0.5544733340937E-01
-0.5561008439603E-02 -0.5727851822404E+01 -0.1146682583256E+01 -0.3871562169404E-01
-0.3347284571446E-02 -0.5683779571475E+01 -0.1137425388158E+01 -0.2860651730631E-01
-0.2161494907230E-02 -0.5650409733025E+01 -0.1130514262433E+01 -0.2230478262925E-01
-0.1494217457213E-02 -0.5624139650609E+01 -0.1125126790379E+01 -0.1813749369141E-01
-0.1152935199846E-02 -0.5602847716043E+01 -0.1120800146950E+01 -0.1516305280138E-01
-0.1017080362557E-02 -0.5585299363094E+01 -0.1117263305340E+01 -0.1279042038261E-01
-0.1024028023171E-02 -0.5570837401195E+01 -0.1114372302449E+01 -0.1062970108360E-01
-0.1138416529686E-02 -0.5559198962351E+01 -0.1112067492347E+01 -0.8402379484605E-02
-0.1343009856306E-02 -0.5550410806842E+01 -0.1110350779885E+01 -0.5890976459184E-02
-0.1632872446283E-02 -0.5544730988328E+01 -0.1109272788684E+01 -0.2906087265604E-02
-0.2013869208889E-02 -0.5542622126208E+01 -0.1108927215608E+01  0.7383982193908E-03
-0.2503798340995E-02 -0.5544749227107E+01 -0.1109450621622E+01  0.5248258658415E-02
-0.3137791283307E-02 -0.5552001019044E+01 -0.1111027778621E+01  0.1087775730355E-01
-0.3982938470574E-02 -0.5565538881676E+01 -0.1113904380628E+01  0.1797431699438E-01
-0.5174833659619E-02 -0.5586885038106E+01 -0.1118411991019E+01  0.2706694033067E-01
-0.7109140071294E-02 -0.5618015764218E+01 -0.1125024997622E+01  0.3908352400093E-01
-0.1085380190517E-01 -0.5661088127277E+01 -0.1134388402740E+01  0.5553707425656E-01
-0.1777326055763E-01 -0.5717465671976E+01 -0.1147047803599E+01  0.7812028547145E-01
-0.2807354555972E-01 -0.5786744671202E+01 -0.1162963660682E+01  0.1082601198144E+00
-0.4049560920972E-01 -0.5866762993668E+01 -0.1181451738180E+01  0.1472425008940E+00
-0.5370631859045E-01 -0.5954782062316E+01 -0.1201697694088E+01  0.1961126343167E+00
-0.6733874656866E-01 -0.6048971403066E+01 -0.1223262048155E+01  0.2554141011449E+00
-0.8201172611209E-01 -0.6149077152266E+01 -0.1246217794246E+01  0.3253756979208E+00
-0.9898635065009E-01 -0.6256174396122E+01 -0.1271032168294E+01  0.4062903749144E+00
-0.1197528930272E+00 -0.6371924739273E+01 -0.1298335545807E+01  0.4987033873985E+00
-0.1453359944557E+00 -0.6497972913887E+01 -0.1328661801467E+01  0.6033223516055E+00
-0.1759684012125E+00 -0.6636237076430E+01 -0.1362441115830E+01  0.7214247099221E+00
-0.2133553419847E+00 -0.6789423672804E+01 -0.1400555823828E+01  0.8560340023488E+00
-0.2616326695826E+00 -0.6959735598077E+01 -0.1444273675053E+01  0.1011732098021E+01
-0.3328481921332E+00 -0.7146100169019E+01 -0.1495789694519E+01  0.1197311594730E+01
-0.4325186087662E+00 -0.7327671784365E+01 -0.1552038101753E+01  0.1414061055397E+01
-0.5963071915749E+00 -0.7466459130177E+01 -0.1612553288379E+01  0.1696577471062E+01
-0.1032472428646E+01 -0.7199279513252E+01 -0.1646350412912E+01  0.1935953004921E+01
-0.2034562131537E+00 -0.6066579643074E+01 -0.1254007189932E+01  0.9723647290521E+00
 0.7317452052459E+01 -0.5296334792872E+01  0.4042234579408E+00 -0.5833887339014E-01
-0.1153667930699E+01 -0.6264321717840E+01 -0.1483597951815E+01 -0.9070852434771E+00
-0.5067534610718E+00 -0.6316195069462E+01 -0.1364589726441E+01 -0.6762875815918E+00
-0.1691236249102E+00 -0.6144747994765E+01 -0.1262774342752E+01 -0.3721246856661E+00
-0.6937407906896E-01 -0.5947814566011E+01 -0.1203437746949E+01 -0.2051187515151E+00
-0.3625785635551E-01 -0.5812661719236E+01 -0.1169783932549E+01 -0.1272350766209E+00
-0.1989722152443E-01 -0.5720463367603E+01 -0.1148072134933E+01 -0.8437525876708E-01
-0.1162195785650E-01 -0.5654461089292E+01 -0.1133216626316E+01 -0.5928209920248E-01
-0.7145703596527E-02 -0.5605752452930E+01 -0.1122579648033E+01 -0.4401830749154E-01
-0.4606473808477E-02 -0.5568437299860E+01 -0.1114608771343E+01 -0.3426179310464E-01
-0.3183590563757E-02 -0.5538957118946E+01 -0.1108428158419E+01 -0.2771527514850E-01
-0.2425962463746E-02 -0.5515089649390E+01 -0.1103503138814E+01 -0.2299677350952E-01
-0.2098202900394E-02 -0.5495490529143E+01 -0.1099517762793E+01 -0.1924743525806E-01
-0.2066101495029E-02 -0.5479393195345E+01 -0.1096291875704E+01 -0.1589414927144E-01
-0.2255793662559E-02 -0.5466434595710E+01 -0.1093738094173E+01 -0.1252849052666E-01
-0.2629553189869E-02 -0.5456548906598E+01 -0.1091835708227E+01 -0.8833282372495E-02
-0.3175075712335E-02 -0.5449905818210E+01 -0.1090616195036E+01 -0.4535681284063E-02
-0.3901526725522E-02 -0.5446878436513E+01 -0.1090156008892E+01  0.6278236250633E-03
-0.4841411033458E-02 -0.5448033517379E+01 -0.1090575001933E+01  0.6943051788441E-02
-0.6060437415779E-02 -0.5454140114310E+01 -0.1092040126618E+01  0.1475564639152E-01
-0.7682186959093E-02 -0.5466194622698E+01 -0.1094775378245E+01  0.2452597371534E-01
-0.9961321914383E-02 -0.5485449547161E+01 -0.1099082190193E+01  0.3692983447093E-01
-0.1350107955548E-01 -0.5513337037840E+01 -0.1105367639950E+01  0.5300504597193E-01
-0.1948147506672E-01 -0.5551059141608E+01 -0.1114108139936E+01  0.7409346030263E-01
-0.2914219511666E-01 -0.5598988202270E+01 -0.1125626096250E+01  0.1013580624120E+00
-0.4258711529963E-01 -0.5656496081904E+01 -0.1139816656425E+01  0.1355679752823E+00
-0.5859437758829E-01 -0.5722168148347E+01 -0.1156152522415E+01  0.1775144551368E+00
-0.7580422446787E-01 -0.5794218135301E+01 -0.1174004489448E+01  0.2281717800885E+00
-0.9374848278942E-01 -0.5871139086534E+01 -0.1192977531642E+01  0.2884137599000E+00
-0.1130053264011E+00 -0.5952116548031E+01 -0.1213024392962E+01  0.3588809237528E+00
-0.1348698122233E+00 -0.6036923823627E+01 -0.1234358745563E+01  0.4400583137505E+00
-0.1608402462870E+00 -0.6125483141382E+01 -0.1257264696269E+01  0.5323335228071E+00
-0.1919808081526E+00 -0.6217527878253E+01 -0.1281901756383E+01  0.6360876254881E+00
-0.2290657883151E+00 -0.6312504789695E+01 -0.1308314135097E+01  0.7523055070184E+00
-0.2741213198412E+00 -0.6408419548990E+01 -0.1336508193682E+01  0.8830238836956E+00
-0.3326351668500E+00 -0.6499022733747E+01 -0.1366331600479E+01  0.1030883906458E+01
-0.4126537542260E+00 -0.6566773656897E+01 -0.1395885503025E+01  0.1195424983409E+01
-0.5208216893745E+00 -0.6574084127306E+01 -0.1418981184481E+01  0.1369982388357E+01
-0.6908939097826E+00 -0.6407751371099E+01 -0.1419729077332E+01  0.1523544916329E+01
-0.7708538011542E+00 -0.5772273359547E+01 -0.1308625451640E+01  0.1340767435679E+01
 0.8985171999483E+00 -0.4823260428014E+01 -0.7849486573099E+00  0.1925881832049E+00
 0.6847527525543E+01 -0.4448117423337E+01  0.4798820275921E+00 -0.2379870988755E+00
-0.1162304336538E+01 -0.5976346903133E+01 -0.1427730269209E+01 -0.8280317042623E+00
-0.6102349846032E+00 -0.6075575387503E+01 -0.1337162094347E+01 -0.6874654632246E+00
-0.2604358802305E+00 -0.6001929426395E+01 -0.1252473079988E+01 -0.4409510566641E+00
-0.1163131782653E+00 -0.5858006549653E+01 -0.1194863963388E+01 -0.2651353342359E+00
-0.6043620647289E-01 -0.5734604893973E+01 -0.1159008237360E+01 -0.1686555767602E+00
-0.3409155556857E-01 -0.5643506162726E+01 -0.1135519560580E+01 -0.1141668356602E+00
-0.2019770179363E-01 -0.5575663408882E+01 -0.1119172238812E+01 -0.8129512452032E-01
-0.1254732751897E-01 -0.5524118417034E+01 -0.1107333165411E+01 -0.6075083191551E-01
-0.8174430460937E-02 -0.5483995137617E+01 -0.1098433929983E+01 -0.4738389128345E-01
-0.5674901004953E-02 -0.5451993206399E+01 -0.1091533637746E+01 -0.3826182020948E-01
-0.4314424293445E-02 -0.5425969848282E+01 -0.1086056870699E+01 -0.3162402871432E-01
-0.3688620474035E-02 -0.5404559779807E+01 -0.1081649696174E+01 -0.2634918529338E-01
-0.3570100292638E-02 -0.5386942598127E+01 -0.1078102555749E+01 -0.2168535352906E-01
-0.3830704130485E-02 -0.5372686997156E+01 -0.1075303556281E+01 -0.1709397900569E-01
-0.4403862414379E-02 -0.5361652786415E+01 -0.1073211345758E+01 -0.1215807254343E-01
-0.5265612185293E-02 -0.5353929884107E+01 -0.1071839115230E+01 -0.6522158883369E-02
-0.6427562743607E-02 -0.5349803057303E+01 -0.1071246139972E+01  0.1518225040466E-03
-0.7939106502107E-02 -0.5349734925080E+01 -0.1071534822284E+01  0.8223319776791E-02
-0.9901445031811E-02 -0.5354360969502E+01 -0.1072852498894E+01  0.1811632380448E-01
-0.1250393610110E-01 -0.5364487920888E+01 -0.1075398387422E+01  0.3037803659819E-01
-0.1611846303105E-01 -0.5381060574809E+01 -0.1079435823653E+01  0.4576375078492E-01
-0.2148437358087E-01 -0.5404993772070E+01 -0.1085295645302E+01  0.6529070578252E-01
-0.2977661751547E-01 -0.5436801049445E+01 -0.1093315549684E+01  0.9005715521779E-01
-0.4205824083063E-01 -0.5476285721690E+01 -0.1103668808950E+01  0.1208330277360E+00
-0.5834757567706E-01 -0.5522702778124E+01 -0.1116210087393E+01  0.1580143082178E+00
-0.7752652912430E-01 -0.5575002312823E+01 -0.1130505785235E+01  0.2021002777517E+00
-0.9832421541089E-01 -0.5631874331953E+01 -0.1146039726550E+01  0.2539376477770E+00
-0.1202468514082E+00 -0.5691924139267E+01 -0.1162434215457E+01  0.3144726898639E+00
-0.1437991563041E+00 -0.5753853162342E+01 -0.1179530481306E+01  0.3844685979043E+00
-0.1701913421825E+00 -0.5816402060728E+01 -0.1197318698423E+01  0.4643850047497E+00
-0.2008104963442E+00 -0.5878087785730E+01 -0.1215779674531E+01  0.5543489021883E+00
-0.2367321301026E+00 -0.5936904177062E+01 -0.1234727279832E+01  0.6542983374090E+00
-0.2789093566049E+00 -0.5989767167345E+01 -0.1253735323472E+01  0.7643625549888E+00
-0.3294495894720E+00 -0.6030636690706E+01 -0.1272017274990E+01  0.8847694357935E+00
-0.3925224294100E+00 -0.6046367282042E+01 -0.1287777961480E+01  0.1013783722515E+01
-0.4717212470278E+00 -0.6010747068504E+01 -0.1296493682426E+01  0.1142755781653E+01
-0.5675859702893E+00 -0.5871250884975E+01 -0.1287767390242E+01  0.1247306514202E+01
-0.6467183343183E+00 -0.5509311635465E+01 -0.1231206012303E+01  0.1231550205752E+01
-0.3433499879970E+00 -0.4813627425194E+01 -0.1031395498007E+01  0.7885261665813E+00
 0.1678263118980E+01 -0.4160553775374E+01 -0.4964581386766E+00 -0.2353300597026E+00
 0.6413638934565E+01 -0.3997493698869E+01  0.4832290543397E+00 -0.2635700432657E+00
-0.1159394777539E+01 -0.5741027287036E+01 -0.1380084433480E+01 -0.7564011628077E+00
-0.6828089201013E+00 -0.5856450900931E+01 -0.1307851983695E+01 -0.6728941532105E+00
-0.3407407606807E+00 -0.5842477313558E+01 -0.1236643633275E+01 -0.4801657821189E+00
-0.1678044906874E+00 -0.5747166120913E+01 -0.1182994139948E+01 -0.3134878086052E+00
-0.8964132971463E-01 -0.5643622353026E+01 -0.1146652753635E+01 -0.2074229987353E+00
-0.5154527495624E-01 -0.5558251139364E+01 -0.1121959299582E+01 -0.1435396409433E+00
-0.3109816914704E-01 -0.5491309849611E+01 -0.1104481620210E+01 -0.1038083729610E+00
-0.1957058805809E-01 -0.5438728602419E+01 -0.1091659854362E+01 -0.7828170302797E-01
-0.1289342417662E-01 -0.5396906117118E+01 -0.1081959924381E+01 -0.6132623764139E-01
-0.9018225956106E-02 -0.5363093236606E+01 -0.1074422308523E+01 -0.4956566169620E-01
-0.6864040287598E-02 -0.5335357285676E+01 -0.1068444281114E+01 -0.4091472569199E-01
-0.5828264165168E-02 -0.5312401877765E+01 -0.1063646044236E+01 -0.3402293007088E-01
-0.5566925833272E-02 -0.5293404602324E+01 -0.1059794321424E+01 -0.2797182127438E-01
-0.5884254344539E-02 -0.5277898111218E+01 -0.1056756488859E+01 -0.2209950093923E-01
-0.6676326364295E-02 -0.5265686622668E+01 -0.1054472605519E+01 -0.1589314286266E-01
-0.7902937407902E-02 -0.5256790077793E+01 -0.1052938618730E+01 -0.8918564597552E-02
-0.9576320131329E-02 -0.5251407823589E+01 -0.1052196844423E+01 -0.7686274225015E-03
-0.1176301227523E-01 -0.5249895339296E+01 -0.1052331685995E+01  0.8980639713441E-02
-0.1460133272192E-01 -0.5252745979746E+01 -0.1053469478192E+01  0.2081561269261E-01
-0.1834600725918E-01 -0.5260563166678E+01 -0.1055781850520E+01  0.3533926766833E-01
-0.2346379684569E-01 -0.5273981879067E+01 -0.1059489150970E+01  0.5332527712193E-01
-0.3076273494584E-01 -0.5293474606895E+01 -0.1064847484236E+01  0.7569774524640E-01
-0.4134762935222E-01 -0.5319068040628E+01 -0.1072083149971E+01  0.1033118686617E+00
-0.5610329682115E-01 -0.5350218301908E+01 -0.1081264335858E+01  0.1366513336300E+00
-0.7498531732700E-01 -0.5386096553339E+01 -0.1092216390409E+01  0.1758855447983E+00
-0.9699811538624E-01 -0.5425803482892E+01 -0.1104560336115E+01  0.2213201245558E+00
-0.1209996693136E+00 -0.5468223990441E+01 -0.1117844748608E+01  0.2736429294436E+00
-0.1465018644170E+00 -0.5511935950884E+01 -0.1131687579924E+01  0.3337123730935E+00
-0.1739076513095E+00 -0.5555220116753E+01 -0.1145825570687E+01  0.4022136682934E+00
-0.2042564121178E+00 -0.5596001445360E+01 -0.1160051588782E+01  0.4794194036770E+00
-0.2387349356679E+00 -0.5631660924454E+01 -0.1174079189520E+01  0.5650863059669E+00
-0.2782696761275E+00 -0.5658678854533E+01 -0.1187389723826E+01  0.6585124330850E+00
-0.3236538995477E+00 -0.5671820679502E+01 -0.1199094933678E+01  0.7585999969181E+00
-0.3762214237910E+00 -0.5661898227292E+01 -0.1207623948212E+01  0.8630604404372E+00
-0.4373338863254E+00 -0.5611740971952E+01 -0.1209814989683E+01  0.9653492388219E+00
-0.5045100765506E+00 -0.5491038801574E+01 -0.1199109793493E+01  0.1048523172314E+01
-0.5594044042353E+00 -0.5245837372559E+01 -0.1161048372660E+01  0.1069036893644E+01
-0.4988874394743E+00 -0.4799088432951E+01 -0.1059595190274E+01  0.9072166341366E+00
 0.1079275807969E+00 -0.4181897776932E+01 -0.8147940513684E+00  0.3556286861412E+00
 0.2205704315197E+01 -0.3769536300604E+01 -0.3127664017419E+00 -0.4530823585382E+00
 0.6027749410394E+01 -0.3708156569229E+01  0.4639185751459E+00 -0.2510958551900E+00
-0.1149463798272E+01 -0.5538920012162E+01 -0.1337676782020E+01 -0.6921950270079E+00
-0.7332748270326E+00 -0.5657221710325E+01 -0.1278099326517E+01 -0.6460987963485E+00
-0.4080500095865E+00 -0.5679016637183E+01 -0.1217413347495E+01 -0.4984007906417E+00
-0.2188078254431E+00 -0.5622722386901E+01 -0.1168306059878E+01 -0.3491460983279E+00
-0.1218744406952E+00 -0.5541451249236E+01 -0.1132665154864E+01 -0.2413804175507E+00
-0.7166804956686E-01 -0.5465313637309E+01 -0.1107396353877E+01 -0.1713441938284E+00
-0.4403123993131E-01 -0.5401584935901E+01 -0.1089123251396E+01 -0.1260345631447E+00
-0.2811709237586E-01 -0.5349554748394E+01 -0.1075534384181E+01 -0.9609442882269E-01
-0.1874365671139E-01 -0.5307090093299E+01 -0.1065166765874E+01 -0.7575849404675E-01
-0.1322278305000E-01 -0.5272159869062E+01 -0.1057076546174E+01 -0.6141140730341E-01
-0.1009573388791E-01 -0.5243161349920E+01 -0.1050651432418E+01 -0.5073382997063E-01
-0.8538410286182E-02 -0.5218940097770E+01 -0.1045495717190E+01 -0.4218909607576E-01
-0.8073607958100E-02 -0.5198719935033E+01 -0.1041358724116E+01 -0.3471495642815E-01
-0.8426177939337E-02 -0.5182027607535E+01 -0.1038090772564E+01 -0.2753831386858E-01
-0.9447267961429E-02 -0.5168630388209E+01 -0.1035615546666E+01 -0.2005846273432E-01
-0.1107569560300E-01 -0.5158488760442E+01 -0.1033912906616E+01 -0.1176922550672E-01
-0.1332163042542E-01 -0.5151721231978E+01 -0.1033008587874E+01 -0.2202142979636E-02
-0.1626715447568E-01 -0.5148576202818E+01 -0.1032968686851E+01  0.9120208731746E-02
-0.2008553057953E-01 -0.5149401934460E+01 -0.1033897508414E+01  0.2272878875650E-01
-0.2508801756177E-01 -0.5154597553114E+01 -0.1035937129572E+01  0.3925156746527E-01
-0.3180624921731E-01 -0.5164510390760E+01 -0.1039263343482E+01  0.5943496120157E-01
-0.4106412797082E-01 -0.5179253292708E+01 -0.1044063499694E+01  0.8407694548184E-01
-0.5386441187220E-01 -0.5198507535544E+01 -0.1050474405137E+01  0.1138153147134E+00
-0.7093015338190E-01 -0.5221502851932E+01 -0.1058486616836E+01  0.1489223037522E+00
-0.9217235408025E-01 -0.5247333277631E+01 -0.1067901142255E+01  0.1894155062667E+00
-0.1167122518434E+00 -0.5275128097375E+01 -0.1078368085913E+01  0.2354506684154E+00
-0.1435356050549E+00 -0.5303806584966E+01 -0.1089468454239E+01  0.2875347278786E+00
-0.1721607328775E+00 -0.5331841454721E+01 -0.1100800453923E+01  0.3463385575770E+00
-0.2028589961150E+00 -0.5357155471942E+01 -0.1112002910182E+01  0.4123353599147E+00
-0.2364329052396E+00 -0.5377040778543E+01 -0.1122694753486E+01  0.4854929848322E+00
-0.2737690447628E+00 -0.5387987670809E+01 -0.1132351359988E+01  0.5650907590426E+00
-0.3154506801857E+00 -0.5385282756293E+01 -0.1140146704285E+01  0.6496288557686E+00
-0.3616884462722E+00 -0.5362098196472E+01 -0.1144757345607E+01  0.7365390226330E+00
-0.4122415318058E+00 -0.5307350301221E+01 -0.1143918383651E+01  0.8208157578174E+00
-0.4646410055544E+00 -0.5202390018501E+01 -0.1133406221700E+01  0.8913966298684E+00
-0.5077776685618E+00 -0.5017551521791E+01 -0.1105065854537E+01  0.9238412872838E+00
-0.4999662603783E+00 -0.4710716636799E+01 -0.1042136594965E+01  0.8635055184525E+00
-0.2929807803326E+00 -0.4255809040412E+01 -0.9097579777053E+00  0.6018802691338E+00
 0.5197125924236E+00 -0.3757575142926E+01 -0.6475725197501E+00  0.4061250275576E-01
 0.2552893905238E+01 -0.3511117564914E+01 -0.1916447347910E+00 -0.5551975924067E+00
 0.5690503854949E+01 -0.3495115505222E+01  0.4390776764882E+00 -0.2343272518551E+00
-0.1135158068194E+01 -0.5359104576114E+01 -0.1298852548216E+01 -0.6345695172472E+00
-0.7677799903658E+00 -0.5474479676841E+01 -0.1248451952045E+01 -0.6138730009385E+00
-0.4629271997288E+00 -0.5517341062954E+01 -0.1196053670359E+01 -0.5024375764777E+00
-0.2664104614537E+00 -0.5490563457933E+01 -0.1151394801034E+01 -0.3733625179532E+00
-0.1551443940031E+00 -0.5430573965434E+01 -0.1117143688534E+01 -0.2694838125224E+00
-0.9364138614992E-01 -0.5365578944526E+01 -0.1091844082405E+01 -0.1966499881199E+00
-0.5862508114615E-01 -0.5306852844548E+01 -0.1073095601129E+01 -0.1473263160234E+00
-0.3801161602623E-01 -0.5256703554259E+01 -0.1058943049837E+01 -0.1137286571349E+00
-0.2565420213256E-01 -0.5214546527304E+01 -0.1048040161504E+01 -0.9036942437248E-01
-0.1826409785159E-01 -0.5179152120628E+01 -0.1039483259185E+01 -0.7359089754416E-01
-0.1400593700682E-01 -0.5149329689867E+01 -0.1032667140763E+01 -0.6094575437858E-01
-0.1182280727891E-01 -0.5124125670061E+01 -0.1027189710774E+01 -0.5076465947068E-01
-0.1109364764512E-01 -0.5102850591300E+01 -0.1022788863030E+01 -0.4187092955362E-01
-0.1145523369106E-01 -0.5085052495296E+01 -0.1019301560986E+01 -0.3339735355080E-01
-0.1270737887178E-01 -0.5070479314900E+01 -0.1016637353903E+01 -0.2466659392003E-01
-0.1476336940121E-01 -0.5059042931029E+01 -0.1014761275207E+01 -0.1510962515629E-01
-0.1762790346254E-01 -0.5050787070809E+01 -0.1013683009959E+01 -0.4206235494217E-02
-0.2139526716031E-01 -0.5045856080889E+01 -0.1013450284711E+01  0.8562102517936E-02
-0.2626798685424E-01 -0.5044455781681E+01 -0.1014144768819E+01  0.2375283020696E-01
-0.3259981751932E-01 -0.5046790686694E+01 -0.1015878115980E+01  0.4199218934482E-01
-0.4095723978146E-01 -0.5052954581175E+01 -0.1018782379372E+01  0.6396931496975E-01
-0.5214227808616E-01 -0.5062775234123E+01 -0.1022983517686E+01  0.9034620413445E-01
-0.6704302086048E-01 -0.5075685735649E+01 -0.1028545766628E+01  0.1215737949983E+00
-0.8624100471860E-01 -0.5090758177865E+01 -0.1035399851945E+01  0.1577623747511E+00
-0.1096134618852E+00 -0.5107009546226E+01 -0.1043324617169E+01  0.1988140691419E+00
-0.1363798658256E+00 -0.5123530885030E+01 -0.1051982165847E+01  0.2447507880838E+00
-0.1656309638606E+00 -0.5139191219155E+01 -0.1060964452413E+01  0.2958819596506E+00
-0.1968731126746E+00 -0.5152327081102E+01 -0.1069840054697E+01  0.3526303987440E+00
-0.2302138360743E+00 -0.5160570735034E+01 -0.1078156930287E+01  0.4151723489968E+00
-0.2661591167785E+00 -0.5160745208092E+01 -0.1085380881147E+01  0.4830892263345E+00
-0.3051904947272E+00 -0.5148695423737E+01 -0.1090777199947E+01  0.5551039906736E+00
-0.3473375484209E+00 -0.5118885677868E+01 -0.1093244661548E+01  0.6288259070440E+00
-0.3918179806930E+00 -0.5063558915749E+01 -0.1091075395547E+01  0.7001549479553E+00
-0.4362116003500E+00 -0.4971000576966E+01 -0.1081442451578E+01  0.7615587972863E+00
-0.4734103570374E+00 -0.4823295355421E+01 -0.1059341158277E+01  0.7982181277077E+00
-0.4823876469924E+00 -0.4595749869746E+01 -0.1015627518482E+01  0.7807817954515E+00
-0.4015077720801E+00 -0.4264416683814E+01 -0.9331849050843E+00  0.6538255139710E+00
-0.6470973748611E-01 -0.3843781138589E+01 -0.7816981868631E+00  0.3376380683198E+00
 0.8703842918868E+00 -0.3461297663665E+01 -0.5181826820771E+00 -0.1800374516551E+00
 0.2775687509937E+01 -0.3321581785935E+01 -0.1091788568266E+00 -0.5963116044287E+00
 0.5396138142845E+01 -0.3324138606653E+01  0.4143999134136E+00 -0.2214584024877E+00
-0.1118040404141E+01 -0.5194972551296E+01 -0.1262602609902E+01 -0.5825987013007E+00
-0.7905993732967E+00 -0.5304984468159E+01 -0.1219116786457E+01 -0.5797112972129E+00
-0.5068151797831E+00 -0.5359860837891E+01 -0.1173335221019E+01 -0.4971024249938E+00
-0.3091777244470E+00 -0.5354710294439E+01 -0.1132777620657E+01 -0.3881122606456E+00
-0.1878678401575E+00 -0.5313456412911E+01 -0.1100264867009E+01 -0.2915834569370E+00
-0.1165862035935E+00 -0.5260144663894E+01 -0.1075346189521E+01 -0.2188619070133E+00
-0.7444341794584E-01 -0.5207605052816E+01 -0.1056409709894E+01 -0.1671759219992E+00
-0.4902866313716E-01 -0.5160385220735E+01 -0.1041882792300E+01 -0.1307973437370E+00
-0.3351238238064E-01 -0.5119346726487E+01 -0.1030571837130E+01 -0.1048791945298E+00
-0.2408806680190E-01 -0.5084078947065E+01 -0.1021633417997E+01 -0.8590944574574E-01
-0.1856925179952E-01 -0.5053845933172E+01 -0.1014483052111E+01 -0.7141919747218E-01
-0.1566883388092E-01 -0.5027936281045E+01 -0.1008721038016E+01 -0.5966594563582E-01
-0.1461785564333E-01 -0.5005778988980E+01 -0.1004079383887E+01 -0.4939251436965E-01
-0.1495981403035E-01 -0.4986966410741E+01 -0.1000385259861E+01 -0.3965827427571E-01
-0.1643836643383E-01 -0.4971243120529E+01 -0.9975363122569E+00 -0.2972317443273E-01
-0.1893712101733E-01 -0.4958483173169E+01 -0.9954840736711E+00 -0.1896641485808E-01
-0.2245139034155E-01 -0.4948662793260E+01 -0.9942228515353E+00 -0.6826911523657E-02
-0.2708284797619E-01 -0.4941828005172E+01 -0.9937821854382E+00  0.7242053995617E-02
-0.3305502404125E-01 -0.4938049785600E+01 -0.9942209767433E+00  0.2380739637997E-01
-0.4074794575098E-01 -0.4937354940801E+01 -0.9956205921463E+00  0.4347248470605E-01
-0.5073647073503E-01 -0.4939621416681E+01 -0.9980715923556E+00  0.6685156859745E-01
-0.6377529050573E-01 -0.4944454093512E+01 -0.1001645891729E+01  0.9447293259106E-01
-0.8063547199699E-01 -0.4951105152438E+01 -0.1006348139883E+01  0.1266283883342E+00
-0.1017751384659E+00 -0.4958530936695E+01 -0.1012061230113E+01  0.1632978410921E+00
-0.1270415083495E+00 -0.4965672750593E+01 -0.1018542866966E+01  0.2042838365772E+00
-0.1557271553576E+00 -0.4971551524051E+01 -0.1025455751162E+01  0.2494774520980E+00
-0.1869944053920E+00 -0.4974949621011E+01 -0.1032388820664E+01  0.2989791909543E+00
-0.2203085950782E+00 -0.4974069340675E+01 -0.1038875602631E+01  0.3529300535689E+00
-0.2555787493068E+00 -0.4966325880848E+01 -0.1044380941593E+01  0.4111606605238E+00
-0.2929578538760E+00 -0.4948227667453E+01 -0.1048237119886E+01  0.4728181955250E+00
-0.3324192208489E+00 -0.4915219397355E+01 -0.1049527739280E+01  0.5360300666085E+00
-0.3732400222329E+00 -0.4861334986182E+01 -0.1046915017283E+01  0.5975025128187E+00
-0.4133163861399E+00 -0.4778558071540E+01 -0.1038374907009E+01  0.6517150745780E+00
-0.4476473079846E+00 -0.4655661040743E+01 -0.1020661684955E+01  0.6890602963954E+00
-0.4641109896212E+00 -0.4477271780125E+01 -0.9882765686757E+00  0.6921742947989E+00
-0.4323839723730E+00 -0.4226367327674E+01 -0.9317502738935E+00  0.6302625279338E+00
-0.2779134130144E+00 -0.3897142735954E+01 -0.8350112422363E+00  0.4550337365678E+00
 0.1626777309117E+00 -0.3529244243890E+01 -0.6733133126289E+00  0.1195958385704E+00
 0.1157880439959E+01 -0.3244192433250E+01 -0.4172624048759E+00 -0.3312508025769E+00
 0.2913441055223E+01 -0.3170803072214E+01 -0.5147240416532E-01 -0.6062585095801E+00
 0.5137499137114E+01 -0.3179695126373E+01  0.3915608079829E+00 -0.2132449417107E+00
-0.1099056670308E+01 -0.5042293358034E+01 -0.1228270023971E+01 -0.5354628146609E+00
-0.8047241317189E+00 -0.5146070542678E+01 -0.1190158952614E+01 -0.5454314042998E+00
-0.5413283310025E+00 -0.5207355574344E+01 -0.1149736798202E+01 -0.4857090861993E+00
-0.3465894063758E+00 -0.5217718005158E+01 -0.1112861498890E+01 -0.3953868327438E+00
-0.2189355908155E+00 -0.5192187791035E+01 -0.1082224692497E+01 -0.3080682955276E+00
-0.1396967585133E+00 -0.5150164887444E+01 -0.1057972344956E+01 -0.2377163238530E+00
-0.9102536250389E-01 -0.5104418864356E+01 -0.1039088860856E+01 -0.1852268646273E+00
-0.6091119853270E-01 -0.5060883718222E+01 -0.1024358998615E+01 -0.1469919961040E+00
-0.4217547577147E-01 -0.5021620941984E+01 -0.1012759298642E+01 -0.1190477711733E+00
-0.3061615459088E-01 -0.4986992778085E+01 -0.1003521801489E+01 -0.9819119004119E-01
-0.2374144122600E-01 -0.4956726067389E+01 -0.9960935165659E+00 -0.8203088072961E-01
-0.2004920836946E-01 -0.4930374107755E+01 -0.9900846779784E+00 -0.6881117558693E-01
-0.1862543340199E-01 -0.4907506671600E+01 -0.9852264356815E+00 -0.5723072113587E-01
-0.1891878470027E-01 -0.4887778611801E+01 -0.9813394939234E+00 -0.4629845859254E-01
-0.2061376496232E-01 -0.4870944991626E+01 -0.9783117658956E+00 -0.3522744771049E-01
-0.2356077704951E-01 -0.4856852385763E+01 -0.9760826471072E+00 -0.2335757481285E-01
-0.2774156239876E-01 -0.4845417696949E+01 -0.9746318663927E+00 -0.1009856078944E-01
-0.3325930969572E-01 -0.4836596628231E+01 -0.9739712020986E+00  0.5111693505529E-02
-0.4034882584871E-01 -0.4830336678608E+01 -0.9741371154072E+00  0.2283455016871E-01
-0.4940014233967E-01 -0.4826507816646E+01 -0.9751816063284E+00  0.4363492001528E-01
-0.6097473469362E-01 -0.4824808872862E+01 -0.9771567360720E+00  0.6804334665924E-01
-0.7576352123064E-01 -0.4824672114633E+01 -0.9800871417771E+00  0.9646220575019E-01
-0.9442300613556E-01 -0.4825216550405E+01 -0.9839279259698E+00  0.1290468926888E+00
-0.1173018298336E+00 -0.4825311048829E+01 -0.9885225904626E+00  0.1656665624910E+00
-0.1442152625989E+00 -0.4823826620642E+01 -0.9936083914540E+00  0.2060297245683E+00
-0.1745010159131E+00 -0.4819705024865E+01 -0.9988412230396E+00  0.2498947388991E+00
-0.2073555195286E+00 -0.4811636247728E+01 -0.1003798368409E+01  0.2971473468257E+00
-0.2421691897680E+00 -0.4797712378400E+01 -0.1007976328654E+01  0.3476323129480E+00
-0.2786171451364E+00 -0.4775209891448E+01 -0.1010765422379E+01  0.4008140006731E+00
-0.3164471386468E+00 -0.4740470594082E+01 -0.1011383561617E+01  0.4553894202801E+00
-0.3550316570450E+00 -0.4688776998903E+01 -0.1008761746221E+01  0.5088952370114E+00
-0.3927345004235E+00 -0.4614111785955E+01 -0.1001369272197E+01  0.5572027072524E+00
-0.4259113250043E+00 -0.4508800076122E+01 -0.9869422949318E+00  0.5936142768807E+00
-0.4468063601657E+00 -0.4362998808166E+01 -0.9619610480007E+00  0.6070761578635E+00
-0.4384860469172E+00 -0.4165096016654E+01 -0.9207164264339E+00  0.5791462274442E+00
-0.3633538779394E+00 -0.3906534749209E+01 -0.8539777381550E+00  0.4808027219658E+00
-0.1413301154792E+00 -0.3596114975458E+01 -0.7474890293260E+00  0.2751831641696E+00
 0.3758855676798E+00 -0.3285261954567E+01 -0.5818752860480E+00 -0.5527497532402E-01
 0.1388132549809E+01 -0.3076910315590E+01 -0.3377555581892E+00 -0.4333470535385E+00
 0.2992919843575E+01 -0.3043873673608E+01 -0.1019076615850E-01 -0.6008906950350E+00
 0.4907958562889E+01 -0.3053841710047E+01  0.3708233760942E+00 -0.2086464110834E+00
-0.1078796260242E+01 -0.4898235211972E+01 -0.1195406312256E+01 -0.4924781455239E+00
-0.8122713554695E+00 -0.4995641435554E+01 -0.1161582575514E+01 -0.5119726890969E+00
-0.5679727292028E+00 -0.5059842693193E+01 -0.1125563101251E+01 -0.4705024210347E+00
-0.3786493614046E+00 -0.5081129281469E+01 -0.1091955744846E+01 -0.3969285684002E+00
-0.2476491058548E+00 -0.5068394309498E+01 -0.1063208698914E+01 -0.3195871679892E+00
-0.1623074614886E+00 -0.5036724061254E+01 -0.1039806320043E+01 -0.2532102341132E+00
-0.1079267614536E+00 -0.4997907628669E+01 -0.1021166893241E+01 -0.2012704618894E+00
-0.7338886818836E-01 -0.4958531359548E+01 -0.1006384060543E+01 -0.1620839872079E+00
-0.5148156034380E-01 -0.4921543957390E+01 -0.9946051183676E+00 -0.1326788049435E+00
-0.3775136503940E-01 -0.4887982188771E+01 -0.9851467254419E+00 -0.1102829784364E+00
-0.2946273412976E-01 -0.4858014269790E+01 -0.9774954153498E+00 -0.9266841374587E-01
-0.2492400394732E-01 -0.4831463355098E+01 -0.9712774862822E+00 -0.7812255987523E-01
-0.2308528806425E-01 -0.4808052695905E+01 -0.9662276111917E+00 -0.6533623269566E-01
-0.2330249246248E-01 -0.4787512724766E+01 -0.9621630577831E+00 -0.5329195527758E-01
-0.2519988013253E-01 -0.4769620379836E+01 -0.9589640662834E+00 -0.4117282786070E-01
-0.2859190830385E-01 -0.4754204365509E+01 -0.9565592690164E+00 -0.2829271357998E-01
-0.3344254215313E-01 -0.4741131002481E+01 -0.9549147231562E+00 -0.1404411824178E-01
-0.3985004849626E-01 -0.4730275369046E+01 -0.9540250977245E+00  0.2138261520170E-02
-0.4805031635370E-01 -0.4721475313741E+01 -0.9539051402332E+00  0.2079757504685E-01
-0.5842834865092E-01 -0.4714466338395E+01 -0.9545789516335E+00  0.4244948117381E-01
-0.7151511236267E-01 -0.4708801788258E+01 -0.9560633943706E+00  0.6753774656659E-01
-0.8792751179645E-01 -0.4703781674791E+01 -0.9583418515980E+00  0.9634857340513E-01
-0.1082116587811E+00 -0.4698427079773E+01 -0.9613277620357E+00  0.1289187122784E+00
-0.1326162437200E+00 -0.4691541016566E+01 -0.9648314664342E+00  0.1650187211056E+00
-0.1609185552976E+00 -0.4681934007762E+01 -0.9685705270447E+00  0.2042640894453E+00
-0.1924730202068E+00 -0.4668474539557E+01 -0.9721895264394E+00  0.2462781656095E+00
-0.2264725714859E+00 -0.4649773746586E+01 -0.9752492781467E+00  0.2907319323501E+00
-0.2621980365175E+00 -0.4623851366820E+01 -0.9772098952290E+00  0.3371742644665E+00
-0.2990569262324E+00 -0.4587925767136E+01 -0.9773965532381E+00  0.3847050332599E+00
-0.3363467778282E+00 -0.4538312042004E+01 -0.9749317784941E+00  0.4315840875016E+00
-0.3727663516603E+00 -0.4470351587707E+01 -0.9686236023071E+00  0.4748042037062E+00
-0.4056585821158E+00 -0.4378313639967E+01 -0.9567944586740E+00  0.5095359407521E+00
-0.4297397127045E+00 -0.4255353210078E+01 -0.9370185985192E+00  0.5282356993939E+00
-0.4345664016690E+00 -0.4093639535781E+01 -0.9056412009851E+00  0.5191217789775E+00
-0.3991034123709E+00 -0.3885867881685E+01 -0.8569942715813E+00  0.4641115551068E+00
-0.2811175459423E+00 -0.3631289210426E+01 -0.7824813629335E+00  0.3382831488065E+00
-0.1078061282014E-02 -0.3348688260820E+01 -0.6699532744034E+00  0.1174454476568E+00
 0.5683841264405E+00 -0.3091884383068E+01 -0.5047000588460E+00 -0.1930670268602E+00
 0.1569512456767E+01 -0.2941867280997E+01 -0.2744709689359E+00 -0.5013383391287E+00
 0.3032125538113E+01 -0.2932976846578E+01  0.1982973860239E-01 -0.5884847465337E+00
 0.4701984395611E+01 -0.2941992931054E+01  0.3519982981565E+00 -0.2064844557240E+00
-0.1057637522654E+01 -0.4760832235032E+01 -0.1163693968878E+01 -0.4530842664311E+00
-0.8147606890898E+00 -0.4852069906562E+01 -0.1133366136019E+01 -0.4798036726671E+00
-0.5880545334365E+00 -0.4917005762741E+01 -0.1101012075642E+01 -0.4529967586553E+00
-0.4056383346236E+00 -0.4945825874951E+01 -0.1070292857864E+01 -0.3941659280482E+00
-0.2736238078119E+00 -0.4943277319474E+01 -0.1043380241005E+01 -0.3268719996479E+00
-0.1839100966477E+00 -0.4920768614575E+01 -0.1020935757458E+01 -0.2655166616954E+00
-0.1247497794539E+00 -0.4888675096692E+01 -0.1002684990170E+01 -0.2152263288148E+00
-0.8619495376401E-01 -0.4853685296798E+01 -0.9879760648345E+00 -0.1759213153222E+00
-0.6125936269802E-01 -0.4819321325898E+01 -0.9761161522645E+00 -0.1456203961257E+00
-0.4538419336202E-01 -0.4787164086218E+01 -0.9665096703181E+00 -0.1220564908945E+00
-0.3566133664150E-01 -0.4757778379473E+01 -0.9586879575085E+00 -0.1032323161217E+00
-0.3024283796603E-01 -0.4731247451485E+01 -0.9522980720805E+00 -0.8752791562229E-01
-0.2795751163810E-01 -0.4707451745844E+01 -0.9470818656089E+00 -0.7366061127022E-01
-0.2807389923234E-01 -0.4686205277494E+01 -0.9428558493949E+00 -0.6061033274614E-01
-0.3015682635602E-01 -0.4667315629412E+01 -0.9394945051532E+00 -0.4754748743515E-01
-0.3398296292439E-01 -0.4650602266983E+01 -0.9369170599426E+00 -0.3377349219763E-01
-0.3949451915707E-01 -0.4635889876676E+01 -0.9350768931003E+00 -0.1867547797807E-01
-0.4677831238394E-01 -0.4622983678933E+01 -0.9339524121804E+00 -0.1696115900643E-02
-0.5606141494354E-01 -0.4611626979099E+01 -0.9335376927192E+00  0.1767925462156E-01
-0.6771063407657E-01 -0.4601443053777E+01 -0.9338307514859E+00  0.3991005078183E-01
-0.8221333793995E-01 -0.4591869606940E+01 -0.9348166029059E+00  0.6535372897926E-01
-0.1001062493139E+00 -0.4582107013310E+01 -0.9364426664788E+00  0.9419018816766E-01
-0.1218293514499E+00 -0.4571105766617E+01 -0.9385870375994E+00  0.1263512662442E+00
-0.1475370744221E+00 -0.4557621563352E+01 -0.9410317415773E+00  0.1615167474606E+00
-0.1769600884242E+00 -0.4540418049827E+01 -0.9434756417091E+00  0.1992089407947E+00
-0.2094422260839E+00 -0.4518305907526E+01 -0.9455496408118E+00  0.2389158381634E+00
-0.2441376212588E+00 -0.4489842470522E+01 -0.9467960324645E+00  0.2800994696191E+00
-0.2801849936765E+00 -0.4453020561028E+01 -0.9466411250469E+00  0.3220248848168E+00
-0.3166948358785E+00 -0.4405079944132E+01 -0.9443549700740E+00  0.3634473235176E+00
-0.3524802877176E+00 -0.4342437278117E+01 -0.9389835271588E+00  0.4022274373768E+00
-0.3855198858981E+00 -0.4260687142868E+01 -0.9292414196001E+00  0.4348961809288E+00
-0.4120882967192E+00 -0.4154662520009E+01 -0.9133501769557E+00  0.4561042470254E+00
-0.4252821246479E+00 -0.4018702311795E+01 -0.8887969005326E+00  0.4578373139934E+00
-0.4122535020693E+00 -0.3847329309549E+01 -0.8519165750183E+00  0.4282994142704E+00
-0.3488943445104E+00 -0.3637505805330E+01 -0.7972800418485E+00  0.3509556118393E+00
-0.1909505845659E+00 -0.3394823549768E+01 -0.7171548375532E+00  0.2062805643726E+00
 0.1363041579928E+00 -0.3143751563279E+01 -0.6014894900201E+00 -0.1799685749159E-01
 0.7378400313378E+00 -0.2934850929421E+01 -0.4394021861642E+00 -0.3004015337535E+00
 0.1710384304287E+01 -0.2828418466521E+01 -0.2236068357790E+00 -0.5458226531142E+00
 0.3043182927618E+01 -0.2833718837829E+01  0.4189281858201E-01 -0.5732905177804E+00
 0.4515150770987E+01 -0.2841200864703E+01  0.3347899862455E+00 -0.2058360134793E+00
-0.1035830393887E+01 -0.4628677399586E+01 -0.1132901575576E+01 -0.4168226388582E+00
-0.8132994984665E+00 -0.4714093443102E+01 -0.1105478604787E+01 -0.4491365718870E+00
-0.6026681958298E+00 -0.4778404356295E+01 -0.1076214526462E+01 -0.4342130024817E+00
-0.4279654792895E+00 -0.4812271543338E+01 -0.1048047420143E+01 -0.3882307294741E+00
-0.2966980599171E+00 -0.4817691671038E+01 -0.1022877961433E+01 -0.3306390757232E+00
-0.2041433844898E+00 -0.4803084126831E+01 -0.1001445517187E+01 -0.2749117022141E+00
-0.1411585443093E+00 -0.4777282626689E+01 -0.9836882488579E+00 -0.2271146653011E+00
-0.9907989434145E-01 -0.4746706845580E+01 -0.9691573624259E+00 -0.1884207655005E+00
-0.7133692004548E-01 -0.4715176834938E+01 -0.9573027652617E+00 -0.1577634426188E+00
-0.5339816218415E-01 -0.4684676051086E+01 -0.9476148567746E+00 -0.1334087975907E+00
-0.4225693077916E-01 -0.4656105231196E+01 -0.9396724463973E+00 -0.1136371866581E+00
-0.3594713552157E-01 -0.4629786071224E+01 -0.9331466552541E+00 -0.9696181549747E-01
-0.3319495111806E-01 -0.4605752079937E+01 -0.9277894200361E+00 -0.8215725994088E-01
-0.3318979632045E-01 -0.4583904100716E+01 -0.9234187931674E+00 -0.6822343405377E-01
-0.3543961727846E-01 -0.4564086512402E+01 -0.9199052396437E+00 -0.5433495285383E-01
-0.3968241010483E-01 -0.4546117022601E+01 -0.9171599002079E+00 -0.3979415224718E-01
-0.4583509272799E-01 -0.4529787506740E+01 -0.9151245335301E+00 -0.2399411804805E-01
-0.5396681385646E-01 -0.4514844571144E+01 -0.9137622906161E+00 -0.6395465865495E-02
-0.6428674048919E-01 -0.4500952423573E+01 -0.9130478464179E+00  0.1347989553309E-01
-0.7713239173696E-01 -0.4487643258368E+01 -0.9129551436251E+00  0.3603102057622E-01
-0.9293774979919E-01 -0.4474265223187E+01 -0.9134406082085E+00  0.6153157515617E-01
-0.1121557759541E+00 -0.4459945819000E+01 -0.9144203326167E+00  0.9006439641943E-01
-0.1351239572658E+00 -0.4443587266866E+01 -0.9157422584719E+00  0.1214671725007E+00
-0.1619051476629E+00 -0.4423915122657E+01 -0.9171640677307E+00  0.1553345544271E+00
-0.1921734436897E+00 -0.4399662577047E+01 -0.9183672178321E+00  0.1910962091698E+00
-0.2252369613044E+00 -0.4369603707582E+01 -0.9189681474710E+00  0.2281074851309E+00
-0.2601795511741E+00 -0.4332273267821E+01 -0.9184905774856E+00  0.2656327373253E+00
-0.2959695478492E+00 -0.4285685376321E+01 -0.9163309984884E+00  0.3026746622080E+00
-0.3313976067860E+00 -0.4227176130178E+01 -0.9117147609783E+00  0.3376781055331E+00
-0.3647720477628E+00 -0.4153376397385E+01 -0.9036297024947E+00  0.3681624077685E+00
-0.3933345273260E+00 -0.4060293991530E+01 -0.8907257170440E+00  0.3903043587643E+00
-0.4123038078237E+00 -0.3943532114454E+01 -0.8711671974369E+00  0.3984411830227E+00
-0.4132821226685E+00 -0.3798827920163E+01 -0.8424220211193E+00  0.3844664651961E+00
-0.3814575853992E+00 -0.3623136768418E+01 -0.8009188826980E+00  0.3371987417318E+00
-0.2907924348874E+00 -0.3417233088549E+01 -0.7416051157380E+00  0.2424828889819E+00
-0.9723768618763E-01 -0.3191313006264E+01 -0.6577101482909E+00  0.8660332529291E-01
 0.2665811293699E+00 -0.2972131689352E+01 -0.5411101200595E+00 -0.1325804817542E+00
 0.8843340337402E+00 -0.2804125506510E+01 -0.3839583002755E+00 -0.3833244873760E+00
 0.1818169704208E+01 -0.2729999039333E+01 -0.1823658697425E+00 -0.5741186558972E+00
 0.3034327176454E+01 -0.2743435067367E+01  0.5817842268444E-01 -0.5574400979703E+00
 0.4343968385271E+01 -0.2749403396377E+01  0.3189130025310E+00 -0.2060584527501E+00
-0.1013544474815E+01 -0.4500737189178E+01 -0.1102856349232E+01 -0.3833163760797E+00
-0.8087071087954E+00 -0.4580727270366E+01 -0.1077886891894E+01 -0.4200432249767E+00
-0.6127155954848E+00 -0.4643574758941E+01 -0.1051258086550E+01 -0.4148394830832E+00
-0.4460829154515E+00 -0.4680671929023E+01 -0.1025350984174E+01 -0.3800027592147E+00
-0.3168598685513E+00 -0.4692226462217E+01 -0.1001817281082E+01 -0.3315407499236E+00
-0.2227705127782E+00 -0.4684299716296E+01 -0.9814140604390E+00 -0.2817203038906E+00
-0.1568836367048E+00 -0.4664230409967E+01 -0.9642228237024E+00 -0.2370276774949E+00
-0.1118203685293E+00 -0.4637945160542E+01 -0.9499531199696E+00 -0.1995569661687E+00
-0.8154867761587E-01 -0.4609341573630E+01 -0.9381780642290E+00 -0.1690380460843E+00
-0.6167472528610E-01 -0.4580669236860E+01 -0.9284688062645E+00 -0.1442616442847E+00
-0.4916397773544E-01 -0.4553096081057E+01 -0.9204520254744E+00 -0.1238120889575E+00
-0.4197236903456E-01 -0.4527152111047E+01 -0.9138249096334E+00 -0.1063662885564E+00
-0.3874480627905E-01 -0.4503013398451E+01 -0.9083516544815E+00 -0.9078214002553E-01
-0.3860205391420E-01 -0.4480666657314E+01 -0.9038537557141E+00 -0.7610002436649E-01
-0.4099927326270E-01 -0.4459996722712E+01 -0.9001992126090E+00 -0.6151469285180E-01
-0.4563585807920E-01 -0.4440825775284E+01 -0.8972923400433E+00 -0.4634212269631E-01
-0.5240050365664E-01 -0.4422921289053E+01 -0.8950643718793E+00 -0.2999188306277E-01
-0.6133907827582E-01 -0.4405982469110E+01 -0.8934643227908E+00 -0.1195120181083E-01
-0.7263486715766E-01 -0.4389609524002E+01 -0.8924488915304E+00  0.8215281407327E-02
-0.8658704866860E-01 -0.4373263102518E+01 -0.8919700435287E+00  0.3084423253320E-01
-0.1035690465303E+00 -0.4356224459568E+01 -0.8919587145109E+00  0.5612916694557E-01
-0.1239480919894E+00 -0.4337570590556E+01 -0.8923037498054E+00  0.8406426187225E-01
-0.1479619688158E+00 -0.4316174490237E+01 -0.8928273051148E+00  0.1144018227331E+00
-0.1755825135778E+00 -0.4290748091361E+01 -0.8932661342984E+00  0.1466562331337E+00
-0.2064170242396E+00 -0.4260012276663E+01 -0.8932858734916E+00  0.1801667269986E+00
-0.2397156975415E+00 -0.4222728644885E+01 -0.8924888817844E+00  0.2141621355011E+00
-0.2744653813117E+00 -0.4177442954690E+01 -0.8903816804680E+00  0.2477253114139E+00
-0.3094414339435E+00 -0.4122237937290E+01 -0.8863358874542E+00  0.2796254858904E+00
-0.3431001833114E+00 -0.4054613299513E+01 -0.8795427096712E+00  0.3080422216720E+00
-0.3732402237971E+00 -0.3971507773610E+01 -0.8689496124298E+00  0.3302256832819E+00
-0.3963798277585E+00 -0.3869463932401E+01 -0.8531687647451E+00  0.3421211985580E+00
-0.4067481098257E+00 -0.3744988653272E+01 -0.8303473649927E+00  0.3379646802130E+00
-0.3946604385907E+00 -0.3595301659143E+01 -0.7979924314377E+00  0.3099050579064E+00
-0.3438677766579E+00 -0.3419662175379E+01 -0.7527060016236E+00  0.2478687541980E+00
-0.2274995287710E+00 -0.3221972268099E+01 -0.6898943696543E+00  0.1405485102696E+00
-0.3400245131282E-02 -0.3015374932260E+01 -0.6037550444749E+00 -0.2018018118983E-01
 0.3872569373267E+00 -0.2826515592043E+01 -0.4878517382127E+00 -0.2284780373550E+00
 0.1009219671480E+01 -0.2692672157436E+01 -0.3366905022083E+00 -0.4469344505586E+00
 0.1899107465290E+01 -0.2642460476015E+01 -0.1486706043605E+00 -0.5912285364774E+00
 0.3011222838726E+01 -0.2660386868344E+01  0.7016719512204E-01 -0.5419607905387E+00
 0.4185685418657E+01 -0.2665070135938E+01  0.3041230610756E+00 -0.2067317285085E+00
-0.9908977330334E+00 -0.4376235286976E+01 -0.1073426619997E+01 -0.3522534667002E+00
-0.8015988287881E+00 -0.4451197094462E+01 -0.1050559200305E+01 -0.3925190632658E+00
-0.6189344777016E+00 -0.4512075913799E+01 -0.1026202093592E+01 -0.3953398113505E+00
-0.4604389220881E+00 -0.4551077175704E+01 -0.1002303234494E+01 -0.3701583855492E+00
-0.3341923100985E+00 -0.4567274318907E+01 -0.9802933404085E+00 -0.3301468413276E+00
-0.2396537437676E+00 -0.4564905619510E+01 -0.9609118869743E+00 -0.2862796598098E+00
-0.1717192702902E+00 -0.4549950006460E+01 -0.9443338694216E+00 -0.2451043521855E+00
-0.1242241328552E+00 -0.4527725852116E+01 -0.9303900108580E+00 -0.2093502487058E+00
-0.9174077815233E-01 -0.4502044939147E+01 -0.9187571571505E+00 -0.1794085579441E+00
-0.7009739295155E-01 -0.4475302059883E+01 -0.9090799041132E+00 -0.1545597516662E+00
-0.5629470065777E-01 -0.4448862299031E+01 -0.9010314133642E+00 -0.1337002744765E+00
-0.4825018785161E-01 -0.4423428719582E+01 -0.8943357948133E+00 -0.1156911148011E+00
-0.4455019958016E-01 -0.4399304689721E+01 -0.8887709911039E+00 -0.9949425850935E-01
-0.4425886569937E-01 -0.4376558336470E+01 -0.8841634536090E+00 -0.8420833018547E-01
-0.4678391404341E-01 -0.4355116354645E+01 -0.8803800668563E+00 -0.6906268905996E-01
-0.5178711829313E-01 -0.4334810346134E+01 -0.8773195059585E+00 -0.5339868092773E-01
-0.5912673559055E-01 -0.4315391151445E+01 -0.8749035904442E+00 -0.3665187246551E-01
-0.6882054623939E-01 -0.4296521358626E+01 -0.8730683939828E+00 -0.1834345537312E-01
-0.8101923120378E-01 -0.4277751467540E+01 -0.8717541527389E+00  0.1914668216206E-02
-0.9597645766046E-01 -0.4258488298747E+01 -0.8708929642588E+00  0.2439625616040E-01
-0.1139999589702E+00 -0.4237965885509E+01 -0.8703931818657E+00  0.4921888422502E-01
-0.1353702768812E+00 -0.4215229756952E+01 -0.8701200197324E+00  0.7629569032474E-01
-0.1602275178220E+00 -0.4189140479347E+01 -0.8698736123959E+00  0.1053011531284E+00
-0.1884517451307E+00 -0.4158412381010E+01 -0.8693728381828E+00  0.1356743551482E+00
-0.2195737848305E+00 -0.4121772890362E+01 -0.8682693479767E+00  0.1666683812940E+00
-0.2527671148972E+00 -0.4077996093290E+01 -0.8661526545442E+00  0.1973949832765E+00
-0.2869001721826E+00 -0.4025671975224E+01 -0.8625144423337E+00  0.2267758137329E+00
-0.3205393318059E+00 -0.3962995552394E+01 -0.8567069896060E+00  0.2533810749514E+00
-0.3518014503281E+00 -0.3887687355392E+01 -0.8478977737787E+00  0.2751776343928E+00
-0.3779864018519E+00 -0.3797066515984E+01 -0.8350105960098E+00  0.2892270587023E+00
-0.3949304018314E+00 -0.3688292324104E+01 -0.8166445573561E+00  0.2913708225000E+00
-0.3959830526691E+00 -0.3558839887034E+01 -0.7909645997269E+00  0.2759445619600E+00
-0.3704341299186E+00 -0.3407386550505E+01 -0.7555641473436E+00  0.2356444129345E+00
-0.3011448085189E+00 -0.3235225644320E+01 -0.7072741011069E+00  0.1618437459455E+00
-0.1613618167926E+00 -0.3048625041982E+01 -0.6419973813215E+00  0.4623905457014E-01
 0.8802993826277E-01 -0.2862273160023E+01 -0.5548486526200E+00 -0.1143056662550E+00
 0.4970712048169E+00 -0.2701185389076E+01 -0.4408228434206E+00 -0.3080752441440E+00
 0.1114430398709E+01 -0.2595537586939E+01 -0.2962214420600E+00 -0.4953508124043E+00
 0.1958305645561E+01 -0.2563103784868E+01 -0.1209596296639E+00 -0.6005539855436E+00
 0.2977829766635E+01 -0.2583369423513E+01  0.7889206979993E-01 -0.5273082521322E+00
 0.4038110122363E+01 -0.2587022510066E+01  0.2902175267839E+00 -0.2076014398590E+00
-0.9679740893328E+00 -0.4254577111740E+01 -0.1044510255779E+01 -0.3233734918129E+00
-0.7924434022845E+00 -0.4324888535991E+01 -0.1023466402906E+01 -0.3665189808639E+00
-0.6219270987934E+00 -0.4383507997961E+01 -0.1001087034268E+01 -0.3760250495331E+00
-0.4714541220375E+00 -0.4423446812339E+01 -0.9789802014633E+00 -0.3592142270550E+00
-0.3488348331480E+00 -0.4443086139520E+01 -0.9583842088146E+00 -0.3269422279398E+00
-0.2547306674645E+00 -0.4445275307823E+01 -0.9400012090646E+00 -0.2889164458709E+00
-0.1855164552175E+00 -0.4434804591981E+01 -0.9240642232093E+00 -0.2515102248422E+00
-0.1361314484814E+00 -0.4416344198697E+01 -0.9104951430030E+00 -0.2178548493990E+00
-0.1017745473501E+00 -0.4393507761297E+01 -0.8990564751263E+00 -0.1888679074393E+00
-0.7855499773904E-01 -0.4368734845773E+01 -0.8894579819563E+00 -0.1642684123097E+00
-0.6356166577398E-01 -0.4343521476106E+01 -0.8814166415102E+00 -0.1432583785573E+00
-0.5471037054885E-01 -0.4318706490781E+01 -0.8746833852998E+00 -0.1248937689169E+00
-0.5055166960977E-01 -0.4294702138230E+01 -0.8690507745178E+00 -0.1082559449127E+00
-0.5010595247493E-01 -0.4271650779675E+01 -0.8643513593098E+00 -0.9251647144700E-01
-0.5273980789959E-01 -0.4249520424962E+01 -0.8604520593941E+00 -0.7695197685196E-01
-0.5807919342175E-01 -0.4228155792493E+01 -0.8572470099569E+00 -0.6093964114241E-01
-0.6595047759760E-01 -0.4207298055164E+01 -0.8546497192876E+00 -0.4394938500749E-01
-0.7633945627921E-01 -0.4186583253327E+01 -0.8525845546258E+00 -0.2554243403319E-01
-0.8935876809325E-01 -0.4165525378325E+01 -0.8509768419641E+00 -0.5381117484670E-02
-0.1052110750909E+00 -0.4143493281413E+01 -0.8497408839630E+00  0.1674597620130E-01
-0.1241348828667E+00 -0.4119690866939E+01 -0.8487651626088E+00  0.4088496553605E-01
-0.1463237495285E+00 -0.4093148650940E+01 -0.8478944927284E+00  0.6687495464632E-01
-0.1718215714662E+00 -0.4062729875750E+01 -0.8469103020632E+00  0.9431952362883E-01
-0.2004152628043E+00 -0.4027166671225E+01 -0.8455163994050E+00  0.1225880162147E+00
-0.2315506721445E+00 -0.3985211676484E+01 -0.8433524822926E+00  0.1508537754213E+00
-0.2643094467916E+00 -0.3935675726309E+01 -0.8399970471370E+00  0.1781238438442E+00
-0.2974257595164E+00 -0.3877223947818E+01 -0.8349299539084E+00  0.2031822097090E+00
-0.3292479911278E+00 -0.3808201717181E+01 -0.8274899539923E+00  0.2244382257731E+00
-0.3575580043566E+00 -0.3726595959142E+01 -0.8168308048714E+00  0.2397028840729E+00
-0.3791829982272E+00 -0.3630156913616E+01 -0.8018679943175E+00  0.2459326953528E+00
-0.3893419817374E+00 -0.3516704766672E+01 -0.7812093613229E+00  0.2389889585508E+00
-0.3806466618901E+00 -0.3384687405386E+01 -0.7530668246769E+00  0.2134842184736E+00
-0.3416477978868E+00 -0.3234132381964E+01 -0.7151560466268E+00  0.1628850281210E+00
-0.2548339128568E+00 -0.3068019861687E+01 -0.6645707648116E+00  0.8020232366728E-01
-0.9432586462324E-01 -0.2894249101168E+01 -0.5977150020649E+00 -0.3994319992841E-01
 0.1752749790632E+00 -0.2727967356609E+01 -0.5105384831167E+00 -0.1964872959842E+00
 0.5955985437786E+00 -0.2591714043151E+01 -0.3992231058233E+00 -0.3736879378564E+00
 0.1202077168423E+01 -0.2509196939658E+01 -0.2614239581425E+00 -0.5318210921050E+00
 0.1999895586905E+01 -0.2490110538131E+01 -0.9804299170618E-01 -0.6043962703392E+00
 0.2936975716641E+01 -0.2511514539715E+01  0.8509223665333E-01 -0.5136421357019E+00
 0.3899464972733E+01 -0.2514337866895E+01  0.2770254252957E+00 -0.2085438355933E+00
-0.9448344676617E+00 -0.4135299418403E+01 -0.1016026792353E+01 -0.2964572751166E+00
-0.7816027819905E+00 -0.4201309452390E+01 -0.9965824617264E+00 -0.3419776534581E+00
-0.6221856668635E+00 -0.4257517541188E+01 -0.9759406561530E+00 -0.3571021429784E+00
-0.4795109866930E+00 -0.4297690294793E+01 -0.9554402705344E+00 -0.3475633182861E+00
-0.3609567946247E+00 -0.4319812452248E+01 -0.9361538633242E+00 -0.3223324941972E+00
-0.2679939703326E+00 -0.4325687461470E+01 -0.9187363000508E+00 -0.2899339647590E+00
-0.1981744871386E+00 -0.4319093753139E+01 -0.9034536615181E+00 -0.2564222389125E+00
-0.1474140980543E+00 -0.4304062060331E+01 -0.8902952449435E+00 -0.2251484056571E+00
-0.1115283830910E+00 -0.4283937460778E+01 -0.8790931818733E+00 -0.1974317919999E+00
-0.8694409793887E-01 -0.4261125479416E+01 -0.8696139284292E+00 -0.1733706654249E+00
-0.7087992127712E-01 -0.4237194005986E+01 -0.8616147982918E+00 -0.1524552304613E+00
-0.6128255617235E-01 -0.4213080867114E+01 -0.8548726973959E+00 -0.1339390805123E+00
-0.5668855229332E-01 -0.4189287120055E+01 -0.8491951471237E+00 -0.1170329461828E+00
-0.5608769767525E-01 -0.4166020248664E+01 -0.8444216018506E+00 -0.1009927942237E+00
-0.5881235738993E-01 -0.4143287437325E+01 -0.8404199714662E+00 -0.8515314959099E-01
-0.6445517768558E-01 -0.4120949044609E+01 -0.8370808569324E+00 -0.6893604857273E-01
-0.7280995236581E-01 -0.4098742646197E+01 -0.8343105321448E+00 -0.5185288102575E-01
-0.8382754165969E-01 -0.4076286903671E+01 -0.8320229014642E+00 -0.3350975636584E-01
-0.9757834702278E-01 -0.4053071258620E+01 -0.8301299334984E+00 -0.1362145043722E-01
-0.1142099964167E+00 -0.4028440649043E+01 -0.8285301414379E+00  0.7962451410970E-02
-0.1338894938228E+00 -0.4001583720788E+01 -0.8270946552469E+00  0.3122121771533E-01
-0.1567236108709E+00 -0.3971530342220E+01 -0.8256508029214E+00  0.5592649667262E-01
-0.1826611994802E+00 -0.3937160112621E+01 -0.8239642746983E+00  0.8161767161142E-01
-0.2113945925791E+00 -0.3897237524012E+01 -0.8217264355630E+00  0.1076007344992E+00
-0.2422777598420E+00 -0.3850558160886E+01 -0.8185671963432E+00  0.1329776423156E+00
-0.2742892127211E+00 -0.3795992038980E+01 -0.8140562624706E+00  0.1566654920932E+00
-0.3060185576775E+00 -0.3732306700299E+01 -0.8076650636305E+00  0.1773364107645E+00
-0.3355941515744E+00 -0.3658029102509E+01 -0.7987246627186E+00  0.1932790929186E+00
-0.3604765586589E+00 -0.3571445763357E+01 -0.7863844761213E+00  0.2022067229594E+00
-0.3770595031071E+00 -0.3470767550747E+01 -0.7695654222382E+00  0.2010524620589E+00
-0.3800275972735E+00 -0.3354485937214E+01 -0.7469027180272E+00  0.1858102042050E+00
-0.3614148056497E+00 -0.3221977937448E+01 -0.7166785592989E+00  0.1515146509714E+00
-0.3093201350363E+00 -0.3074459156984E+01 -0.6767558684885E+00  0.9255441560019E-01
-0.2063135213590E+00 -0.2916223698390E+01 -0.6245074532557E+00  0.3641257456285E-02
-0.2794557076888E-01 -0.2756155256323E+01 -0.5568201737156E+00 -0.1179167111244E+00
 0.2571617895350E+00 -0.2609078773369E+01 -0.4703834037760E+00 -0.2676901309831E+00
 0.6829514350475E+00 -0.2494687180938E+01 -0.3623471545775E+00 -0.4274276115283E+00
 0.1274224683984E+01 -0.2431098642794E+01 -0.2313747952097E+00 -0.5588724832679E+00
 0.2027201441341E+01 -0.2422194105489E+01 -0.7899853400673E-01 -0.6042932267324E+00
 0.2890744417238E+01 -0.2444189451146E+01  0.8931099454921E-01 -0.5009582288654E+00
 0.3768271287588E+01 -0.2446295531417E+01  0.2643951551740E+00 -0.2095563406965E+00
-0.9215239101770E+00 -0.4018035775180E+01 -0.9879119517924E+00 -0.2713188483596E+00
-0.7693600308623E+00 -0.4080061866009E+01 -0.9698843938267E+00 -0.3188210890754E+00
-0.6201136866763E+00 -0.4133796197563E+01 -0.9507819910156E+00 -0.3387065982734E+00
-0.4849508129764E+00 -0.4173692028570E+01 -0.9317285821931E+00 -0.3355038537666E+00
-0.3707399367065E+00 -0.4197533827378E+01 -0.9136547664315E+00 -0.3166529782899E+00
-0.2794751398878E+00 -0.4206345642293E+01 -0.8971641698049E+00 -0.2896059403688E+00
-0.2096322320279E+00 -0.4203060530445E+01 -0.8825385656453E+00 -0.2600180610409E+00
-0.1579728990672E+00 -0.4191107492930E+01 -0.8698160913607E+00 -0.2313231804962E+00
-0.1208983596788E+00 -0.4173525005234E+01 -0.8588846857810E+00 -0.2051331660497E+00
-0.9517058060009E-01 -0.4152626054014E+01 -0.8495593395823E+00 -0.1818643013859E+00
-0.7816868461385E-01 -0.4130000190154E+01 -0.8416337874948E+00 -0.1612704118199E+00
-0.6789772747024E-01 -0.4106649809113E+01 -0.8349095197577E+00 -0.1427986797634E+00
-0.6290022221105E-01 -0.4083144336114E+01 -0.8292089240212E+00 -0.1257943711992E+00
-0.6214819158987E-01 -0.4059746077860E+01 -0.8243788661741E+00 -0.1096061139557E+00
-0.6494700422489E-01 -0.4036498024744E+01 -0.8202890180170E+00 -0.9363482132212E-01
-0.7085906039815E-01 -0.4013277648173E+01 -0.8168273538858E+00 -0.7735486144698E-01
-0.7964561551903E-01 -0.3989824067257E+01 -0.8138939486832E+00 -0.6032493315587E-01
-0.9122056835508E-01 -0.3965746731306E+01 -0.8113934720229E+00 -0.4219973422372E-01
-0.1056090482416E+00 -0.3940521190771E+01 -0.8092260598609E+00 -0.2274754051893E-01
-0.1229008885893E+00 -0.3913480824359E+01 -0.8072763546190E+00 -0.1876994722149E-02
-0.1431903438385E+00 -0.3883811955315E+01 -0.8054004718320E+00  0.2032899407005E-01
-0.1664980182391E+00 -0.3850556405199E+01 -0.8034108966594E+00  0.4358093397635E-01
-0.1926788379450E+00 -0.3812622490136E+01 -0.8010602775529E+00  0.6736073728806E-01
-0.2213295023596E+00 -0.3768820517315E+01 -0.7980300158264E+00  0.9091830090350E-01
-0.2517070847356E+00 -0.3718005237719E+01 -0.7939424763216E+00  0.1132941927671E+00
-0.2826794394781E+00 -0.3659125664027E+01 -0.7883610324485E+00  0.1333321007183E+00
-0.3126866439646E+00 -0.3591074537508E+01 -0.7807522479286E+00  0.1496193813077E+00
-0.3396416070211E+00 -0.3512584117146E+01 -0.7704451563139E+00  0.1603646659717E+00
-0.3607055531120E+00 -0.3422261396052E+01 -0.7565934011070E+00  0.1632400359117E+00
-0.3718884990479E+00 -0.3318787951016E+01 -0.7381353010118E+00  0.1552312861227E+00
-0.3674353671101E+00 -0.3201308600181E+01 -0.7137488040940E+00  0.1325618945784E+00
-0.3389690473426E+00 -0.3070050462788E+01 -0.6818039121857E+00  0.9079838891298E-01
-0.2744061062018E+00 -0.2927225405201E+01 -0.6403263118221E+00  0.2533609027547E-01
-0.1567717478577E+00 -0.2778079895453E+01 -0.5869703374086E+00 -0.6744840581144E-01
 0.3658220564190E-01 -0.2631949797825E+01 -0.5190735261715E+00 -0.1878872505493E+00
 0.3329838889500E+00 -0.2502815988557E+01 -0.4339664263879E+00 -0.3289789209765E+00
 0.7595709988457E+00 -0.2407475605141E+01 -0.3295809261703E+00 -0.4711523135226E+00
 0.1332775117236E+01 -0.2359354947481E+01 -0.2053159691085E+00 -0.5784687238612E+00
 0.2042880725273E+01 -0.2358365857481E+01 -0.6309702738177E-01 -0.6012472408647E+00
 0.2840764271367E+01 -0.2380930775397E+01  0.9196670056442E-01 -0.4891201639262E+00
 0.3643222062086E+01 -0.2382367516915E+01  0.2521709127919E+00 -0.2107922324220E+00
-0.8980762640620E+00 -0.3902492387283E+01 -0.9601137445758E+00 -0.2477992010628E+00
-0.7559391572217E+00 -0.3960820944913E+01 -0.9433520344839E+00 -0.2969731601734E+00
-0.6160433566968E+00 -0.4012076794573E+01 -0.9256240440469E+00 -0.3209246743767E+00
-0.4880746963266E+00 -0.4051326570985E+01 -0.9078802669908E+00 -0.3232615248212E+00
-0.3783671767839E+00 -0.4076282854256E+01 -0.8909300194840E+00 -0.3101786940468E+00
-0.2892318335360E+00 -0.4087394924921E+01 -0.8753253647348E+00 -0.2881745402647E+00
-0.2198600266618E+00 -0.4086899210455E+01 -0.8613518602586E+00 -0.2624689733867E+00
-0.1677344258697E+00 -0.4077676163190E+01 -0.8490821304642E+00 -0.2364790884068E+00
-0.1297978814713E+00 -0.4062443345232E+01 -0.8384482578345E+00 -0.2120173012876E+00
-0.1031505711148E+00 -0.4043380458792E+01 -0.8293062183390E+00 -0.1897588983680E+00
-0.8535259680743E-01 -0.4022057889153E+01 -0.8214821094331E+00 -0.1696926818476E+00
-0.7448943588386E-01 -0.3999511777878E+01 -0.8148002548939E+00 -0.1514502918863E+00
-0.6912717646634E-01 -0.3976360133505E+01 -0.8090974740507E+00 -0.1345125144488E+00
-0.6823216755624E-01 -0.3952909258940E+01 -0.8042282972832E+00 -0.1183258776112E+00
-0.7109004092115E-01 -0.3929233713070E+01 -0.8000647627200E+00 -0.1023640416822E+00
-0.7723642810397E-01 -0.3905228648230E+01 -0.7964930271356E+00 -0.8615960297919E-01
-0.8640073375097E-01 -0.3880638952127E+01 -0.7934079489983E+00 -0.6932314023951E-01
-0.9845873721664E-01 -0.3855071989114E+01 -0.7907061570487E+00 -0.5156057913918E-01
-0.1133883154426E+00 -0.3827998780125E+01 -0.7882774308598E+00 -0.3269392519074E-01
-0.1312198421537E+00 -0.3798751914166E+01 -0.7859943629762E+00 -0.1268847944887E-01
-0.1519744328106E+00 -0.3766526618170E+01 -0.7837002218741E+00  0.8315392565429E-02
-0.1755875548385E+00 -0.3730387707189E+01 -0.7811950640462E+00  0.2997323879437E-01
-0.2018215054649E+00 -0.3689283266533E+01 -0.7782209659959E+00  0.5171638159233E-01
-0.2301769948063E+00 -0.3642081522018E+01 -0.7744517149051E+00  0.7274667154908E-01
-0.2598112128543E+00 -0.3587710668799E+01 -0.7695043877972E+00  0.9205454616976E-01
-0.2894774758219E+00 -0.3525215410292E+01 -0.7629385885915E+00  0.1084279488521E+00
-0.3174663263767E+00 -0.3453631534082E+01 -0.7542195833305E+00  0.1203969034054E+00
-0.3414857455918E+00 -0.3371912684105E+01 -0.7426796970060E+00  0.1261295456771E+00
-0.3584264877273E+00 -0.3278995602415E+01 -0.7274844288689E+00  0.1233100442194E+00
-0.3639722436277E+00 -0.3174025771519E+01 -0.7075996135735E+00  0.1090442213068E+00
-0.3520289126527E+00 -0.3056761252120E+01 -0.6817580431136E+00  0.7986355292003E-01
-0.3139714931640E+00 -0.2928177253192E+01 -0.6484297589335E+00  0.3194049089088E-01
-0.2377728672031E+00 -0.2791280766855E+01 -0.6058107358389E+00 -0.3829591316368E-01
-0.1072032618443E+00 -0.2651943871160E+01 -0.5518294348237E+00 -0.1329111366341E+00
 0.9837103453799E-01 -0.2519540182979E+01 -0.4842338369038E+00 -0.2502433741848E+00
 0.4023786504992E+00 -0.2406893851822E+01 -0.4009030462385E+00 -0.3814276504223E+00
 0.8260955170989E+00 -0.2328038241521E+01 -0.3003885493605E+00 -0.5064503307411E+00
 0.1379407214993E+01 -0.2292590984774E+01 -0.1826367566777E+00 -0.5921715374434E+00
 0.2049031593006E+01 -0.2297685518259E+01 -0.4973078579163E-01 -0.5958853516915E+00
 0.2788399945570E+01 -0.2321460790460E+01  0.9338783241355E-01 -0.4778174050598E+00
 0.3523182453720E+01 -0.2322095464907E+01  0.2402174013422E+00 -0.2126109838158E+00
-0.8745173490474E+00 -0.3788430866498E+01 -0.9325896570058E+00 -0.2257614173838E+00
-0.7415194004385E+00 -0.3843319083607E+01 -0.9169677104730E+00 -0.2763592336625E+00
-0.6102495467825E+00 -0.3892128507000E+01 -0.9004756241745E+00 -0.3038085404201E+00
-0.4891464662173E+00 -0.3930467627460E+01 -0.8839228319070E+00 -0.3110066734012E+00
-0.3840157513105E+00 -0.3956059818162E+01 -0.8680151268288E+00 -0.3031338483114E+00
-0.2973383705683E+00 -0.3968935450484E+01 -0.8532547769250E+00 -0.2858509378143E+00
-0.2288525836807E+00 -0.3970762953566E+01 -0.8399231199651E+00 -0.2639354790497E+00
-0.1766474504528E+00 -0.3963933820225E+01 -0.8281162664754E+00 -0.2407183907288E+00
-0.1381566947290E+00 -0.3950846965108E+01 -0.8178007441536E+00 -0.2181375566099E+00
-0.1108107801234E+00 -0.3933522769541E+01 -0.8088667219859E+00 -0.1970730422801E+00
-0.9236258526028E-01 -0.3913480678068E+01 -0.8011686646040E+00 -0.1777183734065E+00
-0.8099477399882E-01 -0.3891764020186E+01 -0.7945517706766E+00 -0.1598769429476E+00
-0.7531195463024E-01 -0.3869021011927E+01 -0.7888666050665E+00 -0.1431625927164E+00
-0.7428582164750E-01 -0.3845591152273E+01 -0.7839754064663E+00 -0.1271222594544E+00
-0.7718932382379E-01 -0.3821575793596E+01 -0.7797530351031E+00 -0.1113066643667E+00
-0.8353506673638E-01 -0.3796887592017E+01 -0.7760845433153E+00 -0.9531097525072E-01
-0.9302185347474E-01 -0.3771280564130E+01 -0.7728604950375E+00 -0.7880099179103E-01
-0.1054869729576E+00 -0.3744366088951E+01 -0.7699706238551E+00 -0.6153552469649E-01
-0.1208600104494E+00 -0.3715618765320E+01 -0.7672957665875E+00 -0.4338982810071E-01
-0.1391111614307E+00 -0.3684379697214E+01 -0.7646981831238E+00 -0.2438309078555E-01
-0.1601887536736E+00 -0.3649862705612E+01 -0.7620103032119E+00 -0.4708363702560E-02
-0.1839445771621E+00 -0.3611165205868E+01 -0.7590219679163E+00  0.1524106723661E-01
-0.2100499565614E+00 -0.3567284771388E+01 -0.7554669568472E+00  0.3485301315260E-01
-0.2379101648623E+00 -0.3517158105775E+01 -0.7510136653185E+00  0.5328996406891E-01
-0.2665815870369E+00 -0.3459798894132E+01 -0.7452761073392E+00  0.6950433891032E-01
-0.2947025151556E+00 -0.3394360829918E+01 -0.7378126800090E+00  0.8224650325775E-01
-0.3204183926581E+00 -0.3320035532368E+01 -0.7280907958547E+00  0.9001607312999E-01
-0.3412478710515E+00 -0.3236006758463E+01 -0.7154509365640E+00  0.9097802139927E-01
-0.3538454280371E+00 -0.3141539864409E+01 -0.6990770689062E+00  0.8287663817272E-01
-0.3536303966826E+00 -0.3036223579414E+01 -0.6779708053218E+00  0.6299473516088E-01
-0.3342709977730E+00 -0.2920373178945E+01 -0.6509288450431E+00  0.2823065989798E-01
-0.2870463690028E+00 -0.2795597809279E+01 -0.6165288448433E+00 -0.2459596852541E-01
-0.2001873088820E+00 -0.2665504171243E+01 -0.5731383045655E+00 -0.9804155350930E-01
-0.5841780614461E-01 -0.2536309904200E+01 -0.5189455498017E+00 -0.1927655694391E+00
 0.1567910241065E+00 -0.2417121546790E+01 -0.4520661112730E+00 -0.3054809259795E+00
 0.4652426694357E+00 -0.2319447239867E+01 -0.3708409196122E+00 -0.4260588240519E+00
 0.8832254710194E+00 -0.2254798101783E+01 -0.2743145302403E+00 -0.5346820687082E+00
 0.1415709031847E+01 -0.2229733986038E+01 -0.1628049932643E+00 -0.6011468827505E+00
 0.2046925411692E+01 -0.2239567170015E+01 -0.3852835223879E-01 -0.5889317708728E+00
 0.2735584325018E+01 -0.2264420469340E+01  0.9423277253978E-01 -0.4659094347907E+00
 0.3405350452249E+01 -0.2267027745745E+01  0.2276645446933E+00 -0.2164040211988E+00
-0.8508705229290E+00 -0.3675659089602E+01 -0.9053059359964E+00 -0.2050898387801E+00
-0.7262495462904E+00 -0.3727348028057E+01 -0.8907195281422E+00 -0.2569114948576E+00
-0.6029647572909E+00 -0.3773775198934E+01 -0.8753480042887E+00 -0.2873916317015E+00
-0.4883992767425E+00 -0.3811025871341E+01 -0.8598850424299E+00 -0.2988725641149E+00
-0.3878544736842E+00 -0.3836885726038E+01 -0.8449480525352E+00 -0.2957051284901E+00
-0.3038782076575E+00 -0.3851084058088E+01 -0.8309924655319E+00 -0.2828208891531E+00
-0.2366209503575E+00 -0.3854830099755E+01 -0.8182902222160E+00 -0.2645669466558E+00
-0.1846761728506E+00 -0.3850086723104E+01 -0.8069525912154E+00 -0.2441422245839E+00
-0.1459153817834E+00 -0.3838947536892E+01 -0.7969725956108E+00 -0.2235506523304E+00
-0.1180836672401E+00 -0.3823259381667E+01 -0.7882686215276E+00 -0.2038290865579E+00
-0.9913116222771E-01 -0.3804467328809E+01 -0.7807197098410E+00 -0.1853457626884E+00
-0.8734946632701E-01 -0.3783599929233E+01 -0.7741898906483E+00 -0.1680608573270E+00
-0.8139381062504E-01 -0.3761319218802E+01 -0.7685426173377E+00 -0.1517160565844E+00
-0.8025091075805E-01 -0.3737987623330E+01 -0.7636477181967E+00 -0.1359587790157E+00
-0.8318765464267E-01 -0.3713728328963E+01 -0.7593832080368E+00 -0.1204191578938E+00
-0.8969747829548E-01 -0.3688470792037E+01 -0.7556336653264E+00 -0.1047577160643E+00
-0.9945030119559E-01 -0.3661980784664E+01 -0.7522862283818E+00 -0.8869755851062E-01
-0.1122452738883E+00 -0.3633878868630E+01 -0.7492248396679E+00 -0.7205103413090E-01
-0.1279635372373E+00 -0.3603650183141E+01 -0.7463227551968E+00 -0.5474542786257E-01
-0.1465153053611E+00 -0.3570652328115E+01 -0.7434335377732E+00 -0.3685060263563E-01
-0.1677772601471E+00 -0.3534126009359E+01 -0.7403806649338E+00 -0.1860732901391E-01
-0.1915196046365E+00 -0.3493209464388E+01 -0.7369458247863E+00 -0.4514650196573E-03
-0.2173250577980E+00 -0.3446958026430E+01 -0.7328566277660E+00  0.1696869083838E-01
-0.2445052956820E+00 -0.3394385620066E+01 -0.7277781939943E+00  0.3278553597867E-01
-0.2720172883177E+00 -0.3334600880016E+01 -0.7213236444152E+00  0.4592616120506E-01
-0.2983872415274E+00 -0.3266876020923E+01 -0.7130526631154E+00  0.5512155492599E-01
-0.3216241968941E+00 -0.3190565918400E+01 -0.7024380335260E+00  0.5886666946245E-01
-0.3390776879443E+00 -0.3105085787584E+01 -0.6888327053700E+00  0.5535744501521E-01
-0.3472043678404E+00 -0.3010018721294E+01 -0.6714446278322E+00  0.4243984639491E-01
-0.3412235451759E+00 -0.2905364269462E+01 -0.6493175726031E+00  0.1761877663285E-01
-0.3146638557177E+00 -0.2791927438973E+01 -0.6213182681966E+00 -0.2180174182897E-01
-0.2588443252847E+00 -0.2671832497022E+01 -0.5861353731955E+00 -0.7834394068556E-01
-0.1624144485567E+00 -0.2549104971849E+01 -0.5423038921622E+00 -0.1536058908510E+00
-0.1118663750316E-01 -0.2430078646110E+01 -0.4882530639981E+00 -0.2470205769969E+00
 0.2112752629301E+00 -0.2323382911571E+01 -0.4224215360228E+00 -0.3540266750805E+00
 0.5214857039314E+00 -0.2239165695275E+01 -0.3435360033879E+00 -0.4637259033457E+00
 0.9316029965610E+00 -0.2186703659077E+01 -0.2510201362437E+00 -0.5569325543838E+00
 0.1442805353052E+01 -0.2170147288400E+01 -0.1454683892371E+00 -0.6063421192013E+00
 0.2038476080783E+01 -0.2183669795477E+01 -0.2903874337156E-01 -0.5808188415376E+00
 0.2679717506868E+01 -0.2209025572186E+01  0.9413838833923E-01 -0.4536523030623E+00
 0.3306167579609E+01 -0.2215669079696E+01  0.2180997032325E+00 -0.2197354699842E+00
-0.8271461578478E+00 -0.3564013129921E+01 -0.8782318706404E+00 -0.1856752549679E+00
-0.7102451288007E+00 -0.3612720616446E+01 -0.8645931619327E+00 -0.2385595077454E+00
-0.5943771929365E+00 -0.3656843137055E+01 -0.8502440786679E+00 -0.2716822751054E+00
-0.4860317630550E+00 -0.3692885063450E+01 -0.8357833777551E+00 -0.2869509910770E+00
-0.3900380574188E+00 -0.3718725149656E+01 -0.8217526536601E+00 -0.2880359239104E+00
-0.3089394908207E+00 -0.3733880376049E+01 -0.8085639854225E+00 -0.2792368788438E+00
-0.2431918113872E+00 -0.3739191406809E+01 -0.7964766555078E+00 -0.2644935030012E+00
-0.1918039110531E+00 -0.3736250059582E+01 -0.7856108058334E+00 -0.2468444954022E+00
-0.1530327022088E+00 -0.3726864649599E+01 -0.7759794819246E+00 -0.2283138928946E+00
-0.1249173234051E+00 -0.3712703160739E+01 -0.7675241082658E+00 -0.2100539893872E+00
-0.1056039700920E+00 -0.3695119982574E+01 -0.7601448018603E+00 -0.1925792053776E+00
-0.9350059560747E-01 -0.3675111315373E+01 -0.7537223934274E+00 -0.1759904058550E+00
-0.8732247760502E-01 -0.3653338813018E+01 -0.7481322692727E+00 -0.1601499305968E+00
-0.8607964465253E-01 -0.3630178342886E+01 -0.7432516085831E+00 -0.1448037757600E+00
-0.8903902354580E-01 -0.3605769962600E+01 -0.7389618082405E+00 -0.1296621487192E+00
-0.9567876021476E-01 -0.3580058789375E+01 -0.7351475208725E+00 -0.1144523442605E+00
-0.1056419838342E+00 -0.3552824266657E+01 -0.7316932610014E+00 -0.9895577888868E-01
-0.1186906653257E+00 -0.3523700373045E+01 -0.7284782185293E+00 -0.8303818581382E-01
-0.1346580745599E+00 -0.3492188618606E+01 -0.7253693494420E+00 -0.6667713653211E-01
-0.1533953550212E+00 -0.3457669805988E+01 -0.7222130429637E+00 -0.4998971648834E-01
-0.1747092707284E+00 -0.3419418488451E+01 -0.7188255625473E+00 -0.3325943452859E-01
-0.1982909871695E+00 -0.3376620614066E+01 -0.7149823309012E+00 -0.1695850746220E-01
-0.2236375389510E+00 -0.3328396112563E+01 -0.7104067408887E+00 -0.1763887632532E-02
-0.2499698794093E+00 -0.3273843066979E+01 -0.7047625997795E+00  0.1143614961825E-01
-0.2761487777919E+00 -0.3212172031607E+01 -0.6976641722758E+00  0.2155603257227E-01
-0.3005939173790E+00 -0.3142779831447E+01 -0.6886747600274E+00  0.2732486351090E-01
-0.3211896945574E+00 -0.3065187405647E+01 -0.6772754301331E+00  0.2725663466586E-01
-0.3351396022433E+00 -0.2979036846786E+01 -0.6628352996828E+00  0.1960827356428E-01
-0.3387426398986E+00 -0.2884211000836E+01 -0.6445907377521E+00  0.2361777430892E-02
-0.3270812102186E+00 -0.2781080469152E+01 -0.6216323451371E+00 -0.2672247043726E-01
-0.2936348129534E+00 -0.2670867761752E+01 -0.5929005237759E+00 -0.6991361740648E-01
-0.2298780687287E+00 -0.2556097353010E+01 -0.5571950926506E+00 -0.1290879827787E+00
-0.1250007337208E+00 -0.2441054916303E+01 -0.5132111376522E+00 -0.2049644953625E+00
 0.3402320490830E-01 -0.2332010965776E+01 -0.4595975590221E+00 -0.2959358543468E+00
 0.2616130381124E+00 -0.2236984944446E+01 -0.3950743871538E+00 -0.3964806377346E+00
 0.5713647769788E+00 -0.2164792941769E+01 -0.3186856377069E+00 -0.4953218126902E+00
 0.9720169484638E+00 -0.2122778346102E+01 -0.2301522829572E+00 -0.5741789681337E+00
 0.1462036882913E+01 -0.2113200072305E+01 -0.1302326398191E+00 -0.6085487343676E+00
 0.2024264888660E+01 -0.2129606304558E+01 -0.2106828349356E-01 -0.5716888823019E+00
 0.2623724383463E+01 -0.2154911107870E+01  0.9376265651585E-01 -0.4424205355759E+00
 0.3211553849297E+01 -0.2165676567664E+01  0.2091754594435E+00 -0.2162365292760E+00
-0.8033581345542E+00 -0.3453354648656E+01 -0.8513425693281E+00 -0.1674286747487E+00
-0.6936024762393E+00 -0.3499266587101E+01 -0.8385738251637E+00 -0.2212398630827E+00
-0.5846474170809E+00 -0.3541159965803E+01 -0.8251614888725E+00 -0.2566799933416E+00
-0.4822194318926E+00 -0.3575905739167E+01 -0.8116250463060E+00 -0.2753111636720E+00
-0.3907120359855E+00 -0.3601493324630E+01 -0.7984410840209E+00 -0.2802435477103E+00
-0.3126151927940E+00 -0.3617294218984E+01 -0.7859818940677E+00 -0.2752313032207E+00
-0.2486055607468E+00 -0.3623855330040E+01 -0.7744921896982E+00 -0.2638354684525E+00
-0.1980308904806E+00 -0.3622450350004E+01 -0.7640962594829E+00 -0.2489191264663E+00
-0.1594837532394E+00 -0.3614625786545E+01 -0.7548219192046E+00 -0.2324917326771E+00
-0.1312739886282E+00 -0.3601871842972E+01 -0.7466291774457E+00 -0.2157861293389E+00
-0.1117384337134E+00 -0.3585441723998E+01 -0.7394360425607E+00 -0.1994366322676E+00
-0.9940517837708E-01 -0.3566285660986E+01 -0.7331381787973E+00 -0.1836684318912E+00
-0.9305651734297E-01 -0.3545052899647E+01 -0.7276218942405E+00 -0.1684560132172E+00
-0.9173270410471E-01 -0.3522124169940E+01 -0.7227713855791E+00 -0.1536405085507E+00
-0.9470620587856E-01 -0.3497651553034E+01 -0.7184715624886E+00 -0.1390114619698E+00
-0.1014436818913E+00 -0.3471594323221E+01 -0.7146076116710E+00 -0.1243632042021E+00
-0.1115638275166E+00 -0.3443746833618E+01 -0.7110621428226E+00 -0.1095355802903E+00
-0.1247928629145E+00 -0.3413759802642E+01 -0.7077105436570E+00 -0.9444693199402E-01
-0.1409173188271E+00 -0.3381155851153E+01 -0.7044146444927E+00 -0.7912302810940E-01
-0.1597307056897E+00 -0.3345344489536E+01 -0.7010150494910E+00 -0.6372464496013E-01
-0.1809720045811E+00 -0.3305639844413E+01 -0.6973223801897E+00 -0.4857316521702E-01
-0.2042562041721E+00 -0.3261281216667E+01 -0.6931074944960E+00 -0.3417113519059E-01
-0.2289979833331E+00 -0.3211458619199E+01 -0.6880913307597E+00 -0.2121685105163E-01
-0.2543312476321E+00 -0.3155359562904E+01 -0.6819381722689E+00 -0.1061000633974E-01
-0.2790251712423E+00 -0.3092301273631E+01 -0.6742652990219E+00 -0.3436622626774E-02
-0.3014003735176E+00 -0.3021808339984E+01 -0.6646417526042E+00 -0.9531727559188E-03
-0.3192303632768E+00 -0.2943566865515E+01 -0.6525594554823E+00 -0.4605381202840E-02
-0.3295970916700E+00 -0.2857436890480E+01 -0.6374068059280E+00 -0.1604966377212E-01
-0.3286818714062E+00 -0.2763578522684E+01 -0.6184520880337E+00 -0.3714060512685E-01
-0.3114897319949E+00 -0.2662690291370E+01 -0.5948360135367E+00 -0.6983935373599E-01
-0.2715315279078E+00 -0.2556340680685E+01 -0.5655744501462E+00 -0.1159812010934E+00
-0.2005327301804E+00 -0.2447349346967E+01 -0.5295764233209E+00 -0.1768248283614E+00
-0.8831031156136E-01 -0.2340129100763E+01 -0.4856878897022E+00 -0.2523004899937E+00
 0.7697197624633E-01 -0.2240753583137E+01 -0.4327563278267E+00 -0.3399393709793E+00
 0.3078334813551E+00 -0.2156557791710E+01 -0.3697448675805E+00 -0.4335298958809E+00
 0.6153014182673E+00 -0.2095099441077E+01 -0.2959596089721E+00 -0.5217129251565E+00
 0.1005340445419E+01 -0.2062064492926E+01 -0.2113448126507E+00 -0.5872882630912E+00
 0.1474387021073E+01 -0.2058267507449E+01 -0.1167760990155E+00 -0.6083343102387E+00
 0.2005467754280E+01 -0.2076831943613E+01 -0.1427283807933E-01 -0.5620198698333E+00
 0.2567010199728E+01 -0.2102326560080E+01  0.9293672931449E-01 -0.4311173825954E+00
 0.3119373131408E+01 -0.2114478402527E+01  0.2009789487711E+00 -0.2126175992568E+00
-0.7795161839944E+00 -0.3343568345087E+01 -0.8246169181040E+00 -0.1502698295339E+00
-0.6764025259010E+00 -0.3386852682223E+01 -0.8126510537342E+00 -0.2048949525176E+00
-0.5739113511970E+00 -0.3426595551449E+01 -0.8001013924516E+00 -0.2423780685720E+00
-0.4771148400300E+00 -0.3459989692216E+01 -0.7874209181826E+00 -0.2640049977920E+00
-0.3900075897157E+00 -0.3485143296696E+01 -0.7750301888312E+00 -0.2724228900591E+00
-0.3149937905084E+00 -0.3501332471016E+01 -0.7632652636785E+00 -0.2709156566081E+00
-0.2529049132675E+00 -0.3508871623463E+01 -0.7523553185570E+00 -0.2626973014685E+00
-0.2033624951912E+00 -0.3508763912856E+01 -0.7424252926725E+00 -0.2504493894294E+00
-0.1652486837331E+00 -0.3502319027826E+01 -0.7335135532421E+00 -0.2361415101533E+00
-0.1371193836461E+00 -0.3490855113218E+01 -0.7255949101851E+00 -0.2210582862478E+00
-0.1174935179709E+00 -0.3475518512107E+01 -0.7186024167235E+00 -0.2059303109873E+00
-0.1050200242049E+00 -0.3457203503039E+01 -0.7124447160651E+00 -0.1910910753104E+00
-0.9855291692909E-01 -0.3436537121977E+01 -0.7070180183166E+00 -0.1766178679648E+00
-0.9716819918037E-01 -0.3413897477483E+01 -0.7022131457966E+00 -0.1624422833081E+00
-0.1001487035088E+00 -0.3389444150185E+01 -0.6979185811386E+00 -0.1484312263756E+00
-0.1069532397070E+00 -0.3363148892653E+01 -0.6940204368138E+00 -0.1344452450940E+00
-0.1171786079987E+00 -0.3334821697699E+01 -0.6904000714274E+00 -0.1203818578425E+00
-0.1305171109009E+00 -0.3304132597695E+01 -0.6869299519551E+00 -0.1062105981911E+00
-0.1467101881678E+00 -0.3270629138471E+01 -0.6834678755122E+00 -0.9200294145033E-01
-0.1654956836067E+00 -0.3233754001151E+01 -0.6798499470821E+00 -0.7795964546484E-01
-0.1865474118102E+00 -0.3192865502872E+01 -0.6758825930078E+00 -0.6443508938052E-01
-0.2094075138734E+00 -0.3147260759363E+01 -0.6713336646509E+00 -0.5195618028553E-01
-0.2334122533587E+00 -0.3096204000159E+01 -0.6659232606267E+00 -0.4123533158606E-01
-0.2576131325624E+00 -0.3038975724988E+01 -0.6593177813346E+00 -0.3317459627079E-01
-0.2806937797654E+00 -0.2975002343471E+01 -0.6511392343499E+00 -0.2884879784022E-01
-0.3008850119536E+00 -0.2903936484508E+01 -0.6409643088435E+00 -0.2948500694876E-01
-0.3158649738149E+00 -0.2825625001199E+01 -0.6282980043651E+00 -0.3647003261651E-01
-0.3226196122807E+00 -0.2740133004333E+01 -0.6125505324505E+00 -0.5135241498457E-01
-0.3172517549699E+00 -0.2647871605838E+01 -0.5930246809984E+00 -0.7580282796301E-01
-0.2947442914742E+00 -0.2549821962717E+01 -0.5689132593158E+00 -0.1114907894840E+00
-0.2487094780643E+00 -0.2447829144087E+01 -0.5393077324665E+00 -0.1598232078785E+00
-0.1711991146463E+00 -0.2344913637894E+01 -0.5032225580067E+00 -0.2214821871435E+00
-0.5271383654386E-01 -0.2245506187711E+01 -0.4596440117002E+00 -0.2957063822824E+00
 0.1174022983807E+00 -0.2155388046058E+01 -0.4075971556091E+00 -0.3793335367462E+00
 0.3499102175121E+00 -0.2081180015179E+01 -0.3462539646929E+00 -0.4656899734008E+00
 0.6536107622207E+00 -0.2029279959992E+01 -0.2751338436542E+00 -0.5435595997935E+00
 0.1032219039351E+01 -0.2003979516255E+01 -0.1943520982769E+00 -0.5969021126226E+00
 0.1480758483654E+01 -0.2004975608976E+01 -0.1048434266266E+00 -0.6061886183156E+00
 0.1982719425877E+01 -0.2025275373730E+01 -0.8511189697463E-02 -0.5518888518403E+00
 0.2509968534626E+01 -0.2050861181460E+01  0.9182147200137E-01 -0.4200358146557E+00
 0.3029117271191E+01 -0.2064379247642E+01  0.1929476075848E+00 -0.2082738608365E+00
-0.7556281026384E+00 -0.3234555998748E+01 -0.7980368321690E+00 -0.1341274489497E+00
-0.6587130330770E+00 -0.3275364497949E+01 -0.7868155179297E+00 -0.1894715856992E+00
-0.5622847068920E+00 -0.3313036208616E+01 -0.7750641946510E+00 -0.2287646564399E+00
-0.4708513670374E+00 -0.3345046994578E+01 -0.7631796836954E+00 -0.2530697786920E+00
-0.3880441809334E+00 -0.3369626115855E+01 -0.7515340705564E+00 -0.2646497339869E+00
-0.3161610615423E+00 -0.3385991620889E+01 -0.7404305475195E+00 -0.2663835700616E+00
-0.2561368238908E+00 -0.3394275325284E+01 -0.7300824407140E+00 -0.2611703923803E+00
-0.2078119652541E+00 -0.3395251905176E+01 -0.7206127848241E+00 -0.2515110373543E+00
-0.1703163502219E+00 -0.3390019258638E+01 -0.7120671323826E+00 -0.2393175394307E+00
-0.1424271858900E+00 -0.3379732305182E+01 -0.7044319087113E+00 -0.2259030538602E+00
-0.1228348036017E+00 -0.3365428644430E+01 -0.6976527000021E+00 -0.2120736736375E+00
-0.1103072537583E+00 -0.3347939762399E+01 -0.6916494135379E+00 -0.1982559505701E+00
-0.1037729982399E+00 -0.3327862776754E+01 -0.6863271652260E+00 -0.1846202421469E+00
-0.1023480141122E+00 -0.3305566826540E+01 -0.6815829782869E+00 -0.1711830309249E+00
-0.1053296334390E+00 -0.3281214887978E+01 -0.6773089143760E+00 -0.1578855957560E+00
-0.1121722309570E+00 -0.3254789437524E+01 -0.6733923437305E+00 -0.1446529534426E+00
-0.1224533581807E+00 -0.3226116418921E+01 -0.6697139653999E+00 -0.1314387777210E+00
-0.1358335542300E+00 -0.3194887088543E+01 -0.6661441384809E+00 -0.1182618187625E+00
-0.1520112474069E+00 -0.3160676892280E+01 -0.6625376378100E+00 -0.1052364260912E+00
-0.1706710365193E+00 -0.3122965189679E+01 -0.6587272550554E+00 -0.9259949057101E-01
-0.1914246203530E+00 -0.3081158071924E+01 -0.6545165482084E+00 -0.8073352576882E-01
-0.2137450692311E+00 -0.3034613805883E+01 -0.6496717847036E+00 -0.7018393824028E-01
-0.2368947553700E+00 -0.2982673663969E+01 -0.6439136934628E+00 -0.6167021804613E-01
-0.2598482895562E+00 -0.2924713066355E+01 -0.6369122806730E+00 -0.5608809279236E-01
-0.2812110028708E+00 -0.2860268052958E+01 -0.6282958205282E+00 -0.5449033993374E-01
-0.2991345467678E+00 -0.2789117030145E+01 -0.6176503245862E+00 -0.5806122622797E-01
-0.3112183611305E+00 -0.2711260260513E+01 -0.6044957333363E+00 -0.6811280143757E-01
-0.3143781221621E+00 -0.2626952063692E+01 -0.5882660459366E+00 -0.8606895865458E-01
-0.3046755714062E+00 -0.2536825993393E+01 -0.5683003214281E+00 -0.1134024569192E+00
-0.2771213357580E+00 -0.2442100349709E+01 -0.5438443451973E+00 -0.1514866390354E+00
-0.2254881363613E+00 -0.2344831745704E+01 -0.5140639840732E+00 -0.2013154370818E+00
-0.1422110724804E+00 -0.2248159254545E+01 -0.4780740725289E+00 -0.2630438710348E+00
-0.1850488382772E-01 -0.2156444796544E+01 -0.4349899425562E+00 -0.3353171137336E+00
 0.1551426311964E+00 -0.2075113636453E+01 -0.3839942067732E+00 -0.4144321185216E+00
 0.3878903915791E+00 -0.2010074346670E+01 -0.3244367958527E+00 -0.4934421864312E+00
 0.6866263304918E+00 -0.1966678514017E+01 -0.2560104405198E+00 -0.5614357524632E+00
 0.1053270030009E+01 -0.1948053398101E+01 -0.1789566762850E+00 -0.6035615486370E+00
 0.1481882631917E+01 -0.1953066732944E+01 -0.9423682160961E-01 -0.6024599313025E+00
 0.1956670601035E+01 -0.1974782806362E+01 -0.3622441119384E-02 -0.5414246164433E+00
 0.2452597305585E+01 -0.2000583948731E+01  0.9040267271779E-01 -0.4090228263248E+00
 0.2940745852381E+01 -0.2015460648659E+01  0.1850570435021E+00 -0.2032296458011E+00
-0.7317001495208E+00 -0.3126233144382E+01 -0.7715866702780E+00 -0.1189380067700E+00
-0.6405911523999E+00 -0.3164703176831E+01 -0.7610588771868E+00 -0.1749207613541E+00
-0.5498665441422E+00 -0.3200382067579E+01 -0.7500497335209E+00 -0.2158245133818E+00
-0.4635459481860E+00 -0.3230995498643E+01 -0.7389083003763E+00 -0.2425315308206E+00
-0.3849303241433E+00 -0.3254892419808E+01 -0.7279645596378E+00 -0.2569842447670E+00
-0.3161991559437E+00 -0.3271260562175E+01 -0.7174919543152E+00 -0.2617132472447E+00
-0.2583507304381E+00 -0.3280089639556E+01 -0.7076880845442E+00 -0.2593340558890E+00
-0.2113986382409E+00 -0.3281962537055E+01 -0.6986722454701E+00 -0.2521721523304E+00
-0.1746829975729E+00 -0.3277789482216E+01 -0.6904945062469E+00 -0.2420703477586E+00
-0.1471782434512E+00 -0.3268572926198E+01 -0.6831502441096E+00 -0.2303519243411E+00
-0.1277341405224E+00 -0.3255242734604E+01 -0.6765953851072E+00 -0.2178805213481E+00
-0.1152342444220E+00 -0.3238563404442E+01 -0.6707595397678E+00 -0.2051615873600E+00
-0.1086825236359E+00 -0.3219096327734E+01 -0.6655557801915E+00 -0.1924487666447E+00
-0.1072379744899E+00 -0.3197196443962E+01 -0.6608868935383E+00 -0.1798372482727E+00
-0.1102158873481E+00 -0.3173026497934E+01 -0.6566484868413E+00 -0.1673389015184E+00
-0.1170693562508E+00 -0.3146577938407E+01 -0.6527294686579E+00 -0.1549406869517E+00
-0.1273593759596E+00 -0.3117692633681E+01 -0.6490104115991E+00 -0.1426502634949E+00
-0.1407171231814E+00 -0.3086084391950E+01 -0.6453603126429E+00 -0.1305331459433E+00
-0.1568004488829E+00 -0.3051358778996E+01 -0.6416318551369E+00 -0.1187434427426E+00
-0.1752435161402E+00 -0.3013034467685E+01 -0.6376556062668E+00 -0.1075502300659E+00
-0.1955993442011E+00 -0.2970567946879E+01 -0.6332334676520E+00 -0.9735934315667E-01
-0.2172761221143E+00 -0.2923380907895E+01 -0.6281314153618E+00 -0.8872898670454E-01
-0.2394673848490E+00 -0.2870893253618E+01 -0.6220721369629E+00 -0.8237897055982E-01
-0.2610771034876E+00 -0.2812575741744E+01 -0.6147305782066E+00 -0.7919053707524E-01
-0.2806405061255E+00 -0.2748072636827E+01 -0.6057426376169E+00 -0.8018455031957E-01
-0.2962416797186E+00 -0.2677283691009E+01 -0.5947050830074E+00 -0.8649080505820E-01
-0.3054185802134E+00 -0.2600352909811E+01 -0.5811543066647E+00 -0.9933359393022E-01
-0.3050418213176E+00 -0.2517705881548E+01 -0.5645495489855E+00 -0.1199996753474E+00
-0.2911668600718E+00 -0.2430169003107E+01 -0.5442671807460E+00 -0.1497557855861E+00
-0.2588759414413E+00 -0.2339153603523E+01 -0.5196059167355E+00 -0.1896818250664E+00
-0.2021504215499E+00 -0.2246868592632E+01 -0.4898038101350E+00 -0.2403816374006E+00
-0.1138489257473E+00 -0.2156501856325E+01 -0.4540701631806E+00 -0.3015374465476E+00
 0.1409036865720E-01 -0.2072280043116E+01 -0.4116379410256E+00 -0.3712959665668E+00
 0.1900919154657E+00 -0.1999234409074E+01 -0.3618285041133E+00 -0.4455486161044E+00
 0.4218725792589E+00 -0.1942585854856E+01 -0.3041426596516E+00 -0.5172282530331E+00
 0.7146927432043E+00 -0.1906756185880E+01 -0.2384126920877E+00 -0.5758407299096E+00
 0.1069053285455E+01 -0.1893913993948E+01 -0.1649721441567E+00 -0.6077092850432E+00
 0.1478404925542E+01 -0.1902325359379E+01 -0.8478408803087E-01 -0.5974259455641E+00
 0.1927812214179E+01 -0.1925256912220E+01  0.5110603993324E-03 -0.5306728913812E+00
 0.2394912207180E+01 -0.1951394435884E+01  0.8870355558081E-01 -0.3979716914097E+00
 0.2854195531394E+01 -0.1967586054660E+01  0.1773218979891E+00 -0.1975620221469E+00
-0.7077373687366E+00 -0.3018526511866E+01 -0.7452527872257E+00 -0.1046446609229E+00
-0.6220854529402E+00 -0.3054782670055E+01 -0.7353736355570E+00 -0.1611973947115E+00
-0.5367421635390E+00 -0.3088544937542E+01 -0.7250574310205E+00 -0.2035402546543E+00
-0.4553014363179E+00 -0.3117760196306E+01 -0.7146123371733E+00 -0.2324075957895E+00
-0.3807644986331E+00 -0.3140893477664E+01 -0.7043316057549E+00 -0.2494738347847E+00
-0.3151860962813E+00 -0.3157122725680E+01 -0.6944617747406E+00 -0.2569696377348E+00
-0.2595972566723E+00 -0.3166328314291E+01 -0.6851851244027E+00 -0.2572566096862E+00
-0.2141465104361E+00 -0.3168933053361E+01 -0.6766159228418E+00 -0.2524932604377E+00
-0.1783510872281E+00 -0.3165682137457E+01 -0.6688066549030E+00 -0.2444462067208E+00
-0.1513598062087E+00 -0.3157437334571E+01 -0.6617594380168E+00 -0.2344346072148E+00
-0.1321692457721E+00 -0.3145023910558E+01 -0.6554386410329E+00 -0.2233643820495E+00
-0.1197734913611E+00 -0.3129137339802E+01 -0.6497821759152E+00 -0.2118069540819E+00
-0.1132517119817E+00 -0.3110299157834E+01 -0.6447101835701E+00 -0.2000896875494E+00
-0.1118079298496E+00 -0.3088845932288E+01 -0.6401307819663E+00 -0.1883799363013E+00
-0.1147782146819E+00 -0.3064937050057E+01 -0.6359430624242E+00 -0.1767557774885E+00
-0.1216172542702E+00 -0.3038571242010E+01 -0.6320377086741E+00 -0.1652629606767E+00
-0.1318721738471E+00 -0.3009606008315E+01 -0.6282956457947E+00 -0.1539604162308E+00
-0.1451473701707E+00 -0.2977778531494E+01 -0.6245851896399E+00 -0.1429575747625E+00
-0.1610628363881E+00 -0.2942726041849E+01 -0.6207577848974E+00 -0.1324449626226E+00
-0.1792054339114E+00 -0.2904008366992E+01 -0.6166427693693E+00 -0.1227198353697E+00
-0.1990732736328E+00 -0.2861134131339E+01 -0.6120414901145E+00 -0.1142066238251E+00
-0.2200142189508E+00 -0.2813589732541E+01 -0.6067207993391E+00 -0.1074708429261E+00
-0.2411584799705E+00 -0.2760874140722E+01 -0.6004065330853E+00 -0.1032262365742E+00
-0.2613462377071E+00 -0.2702552494686E+01 -0.5927797553117E+00 -0.1023320481240E+00
-0.2790515043598E+00 -0.2638374264156E+01 -0.5834851623978E+00 -0.1057684691626E+00
-0.2923029854481E+00 -0.2568354329098E+01 -0.5721314714347E+00 -0.1146009692238E+00
-0.2985944301820E+00 -0.2492769022963E+01 -0.5582726989479E+00 -0.1299558879174E+00
-0.2947754847360E+00 -0.2412196001415E+01 -0.5413943052975E+00 -0.1529743584009E+00
-0.2769269627749E+00 -0.2327624922101E+01 -0.5209103847373E+00 -0.1847141745530E+00
-0.2402403365202E+00 -0.2240618543967E+01 -0.4961717834911E+00 -0.2259704377472E+00
-0.1789433941403E+00 -0.2153485425468E+01 -0.4664857708729E+00 -0.2769850586349E+00
-0.8634390611143E-01 -0.2069404620128E+01 -0.4311497116726E+00 -0.3370236018226E+00
 0.4490389315245E-01 -0.1992418722970E+01 -0.3895029717676E+00 -0.4038235257081E+00
 0.2222052119726E+00 -0.1927147066792E+01 -0.3409883760451E+00 -0.4729878279229E+00
 0.4519921793019E+00 -0.1878161922874E+01 -0.2852339529647E+00 -0.5374495822661E+00
 0.7381517932973E+00 -0.1849069848529E+01 -0.2221836143572E+00 -0.5872055062450E+00
 0.1080078064324E+01 -0.1841258897270E+01 -0.1522361688576E+00 -0.6097109633806E+00
 0.1470878689102E+01 -0.1852577270058E+01 -0.7633971732870E-01 -0.5912980910723E+00
 0.1896529436328E+01 -0.1876588930213E+01  0.3988101282440E-02 -0.5196527928680E+00
 0.2336951735040E+01 -0.1903140261453E+01  0.8676229601019E-01 -0.3868285329433E+00
 0.2769391816610E+01 -0.1920585239103E+01  0.1697613180309E+00 -0.1913407567143E+00
-0.6837438295808E+00 -0.2911371997182E+01 -0.7190231760669E+00 -0.9119636269768E-01
-0.6032375023354E+00 -0.2945527507375E+01 -0.7097530125183E+00 -0.1482600227775E+00
-0.5229854515974E+00 -0.2977446499726E+01 -0.7000864006967E+00 -0.1918932517208E+00
-0.4462086327252E+00 -0.3005272517847E+01 -0.6902962404007E+00 -0.2227086118711E+00
-0.3756361000050E+00 -0.3027581812011E+01 -0.6806435925457E+00 -0.2421554923646E+00
-0.3131955767113E+00 -0.3043557654701E+01 -0.6713506562863E+00 -0.2522063372907E+00
-0.2599272747027E+00 -0.3052997539067E+01 -0.6625849726272E+00 -0.2549964531561E+00
-0.2160830764873E+00 -0.3056191420851E+01 -0.6544549092198E+00 -0.2525276159349E+00
-0.1813282761819E+00 -0.3053740304284E+01 -0.6470137257344E+00 -0.2464868815733E+00
-0.1549647992506E+00 -0.3046377429385E+01 -0.6402684552678E+00 -0.2381785384771E+00
-0.1361232759232E+00 -0.3034828088005E+01 -0.6341902822358E+00 -0.2285380013610E+00
-0.1239024108986E+00 -0.3019718420304E+01 -0.6287241756093E+00 -0.2181910581501E+00
-0.1174551874112E+00 -0.3001527414031E+01 -0.6237965295838E+00 -0.2075296302460E+00
-0.1160317708786E+00 -0.2980570061598E+01 -0.6193203757240E+00 -0.1967865384722E+00
-0.1189912470735E+00 -0.2956999763546E+01 -0.6151982112910E+00 -0.1861012615921E+00
-0.1257924865661E+00 -0.2930820944893E+01 -0.6113226954012E+00 -0.1755746914059E+00
-0.1359713885557E+00 -0.2901906239593E+01 -0.6075755346833E+00 -0.1653138766385E+00
-0.1491082774412E+00 -0.2870016592535E+01 -0.6038249829928E+00 -0.1554689953359E+00
-0.1647882313053E+00 -0.2834821843778E+01 -0.5999220239562E+00 -0.1462634808602E+00
-0.1825542097129E+00 -0.2795924100361E+01 -0.5956956708913E+00 -0.1380187453894E+00
-0.2018534685368E+00 -0.2752885049849E+01 -0.5909477124830E+00 -0.1311732142839E+00
-0.2219784115553E+00 -0.2705256166338E+01 -0.5854469243025E+00 -0.1262944890374E+00
-0.2420018102754E+00 -0.2652614876089E+01 -0.5789233458994E+00 -0.1240843068065E+00
-0.2607073541422E+00 -0.2594618527819E+01 -0.5710651849019E+00 -0.1253731349545E+00
-0.2765171770266E+00 -0.2531117413526E+01 -0.5615269264780E+00 -0.1310929198887E+00
-0.2874170234950E+00 -0.2462233914055E+01 -0.5499301957045E+00 -0.1422367816116E+00
-0.2908733410204E+00 -0.2388364064291E+01 -0.5358474890471E+00 -0.1598255868881E+00
-0.2837373352093E+00 -0.2310217834079E+01 -0.5187910415882E+00 -0.1848499775679E+00
-0.2621433063536E+00 -0.2228919410699E+01 -0.4982125508344E+00 -0.2181603099401E+00
-0.2214233052845E+00 -0.2146144676700E+01 -0.4735136034527E+00 -0.2602801290083E+00
-0.1560798056083E+00 -0.2064256099006E+01 -0.4440671875401E+00 -0.3111209147198E+00
-0.5988294448365E-01 -0.1986377538975E+01 -0.4092521027901E+00 -0.3695873040446E+00
 0.7381706063706E-01 -0.1916333717421E+01 -0.3685033368480E+00 -0.4330891617163E+00
 0.2514819004622E+00 -0.1858329332782E+01 -0.3213694912528E+00 -0.4970405357494E+00
 0.4784090569975E+00 -0.1816335814960E+01 -0.2675853555799E+00 -0.5544677742400E+00
 0.7573354348590E+00 -0.1793252757627E+01 -0.2071834676409E+00 -0.5959013317889E+00
 0.1086803982752E+01 -0.1789840156688E+01 -0.1406072368824E+00 -0.6098681149480E+00
 0.1459776210830E+01 -0.1803672781811E+01 -0.6877931522094E-01 -0.5842394415950E+00
 0.1863137077655E+01 -0.1828661056567E+01  0.6895204320326E-02 -0.5083795770883E+00
 0.2278769173555E+01 -0.1855665779405E+01  0.8462068009086E-01 -0.3755711736504E+00
 0.2686244790924E+01 -0.1874299577492E+01  0.1623890451060E+00 -0.1846180971773E+00
-0.6597228164671E+00 -0.2804713034192E+01 -0.6928871804566E+00 -0.7854712549796E-01
-0.5840831278705E+00 -0.2836870971142E+01 -0.6841908299978E+00 -0.1360705190676E+00
-0.5086607974673E+00 -0.2867016761753E+01 -0.6751355219045E+00 -0.1808642783268E+00
-0.4363480347079E+00 -0.2893469604550E+01 -0.6659635377752E+00 -0.2134400504074E+00
-0.3696263837126E+00 -0.2914911506599E+01 -0.6569075878511E+00 -0.2350576835293E+00
-0.3102969720689E+00 -0.2930542124616E+01 -0.6481678289955E+00 -0.2474672425498E+00
-0.2593912515814E+00 -0.2940097412168E+01 -0.6398977422851E+00 -0.2526031142506E+00
-0.2172384097860E+00 -0.2943757707597E+01 -0.6321992328971E+00 -0.2523216027508E+00
-0.1836265430999E+00 -0.2941998739390E+01 -0.6251250658130E+00 -0.2482295573952E+00
-0.1579911536582E+00 -0.2935437274189E+01 -0.6186856947885E+00 -0.2416085596782E+00
-0.1395843944390E+00 -0.2924704235155E+01 -0.6128577350511E+00 -0.2334129653005E+00
-0.1276031048912E+00 -0.2910357446994E+01 -0.6075921194308E+00 -0.2243126341021E+00
-0.1212718755642E+00 -0.2892831863512E+01 -0.6028207567981E+00 -0.2147554134276E+00
-0.1198873924358E+00 -0.2872418561573E+01 -0.5984611997195E+00 -0.2050329000196E+00
-0.1228334729665E+00 -0.2849262802995E+01 -0.5944192640499E+00 -0.1953408964504E+00
-0.1295754799769E+00 -0.2823373246793E+01 -0.5905897541544E+00 -0.1858314237401E+00
-0.1396406574126E+00 -0.2794637008047E+01 -0.5868555418368E+00 -0.1766561545709E+00
-0.1525880419606E+00 -0.2762838811884E+01 -0.5830853794575E+00 -0.1680026001528E+00
-0.1679709068317E+00 -0.2727681525326E+01 -0.5791304950613E+00 -0.1601234740651E+00
-0.1852919194791E+00 -0.2688810017208E+01 -0.5748203959029E+00 -0.1533603463296E+00
-0.2039517618751E+00 -0.2645839232498E+01 -0.5699582073677E+00 -0.1481611983884E+00
-0.2231924924296E+00 -0.2598385266365E+01 -0.5643155601679E+00 -0.1450908041856E+00
-0.2420356124822E+00 -0.2546102455978E+01 -0.5576276220014E+00 -0.1448334566950E+00
-0.2592159183474E+00 -0.2488737142784E+01 -0.5495906204158E+00 -0.1481848680509E+00
-0.2731132282815E+00 -0.2426234946382E+01 -0.5398696429773E+00 -0.1560223869394E+00
-0.2816826823389E+00 -0.2358817071353E+01 -0.5280999586076E+00 -0.1692605461829E+00
-0.2823796094130E+00 -0.2286985898028E+01 -0.5138731091454E+00 -0.1888097079242E+00
-0.2720774055242E+00 -0.2211563999072E+01 -0.4967282883211E+00 -0.2155083556704E+00
-0.2469883082796E+00 -0.2133782841015E+01 -0.4761542369542E+00 -0.2500045662155E+00
-0.2026102777010E+00 -0.2055396884944E+01 -0.4516014392584E+00 -0.2925669654299E+00
-0.1337401891540E+00 -0.1978783608868E+01 -0.4225047659001E+00 -0.3428098511940E+00
-0.3461354371358E-01 -0.1906975489622E+01 -0.3883178124534E+00 -0.3993306022127E+00
 0.1007527647335E+00 -0.1843557878098E+01 -0.3485610278668E+00 -0.4592847245685E+00
 0.2779557596579E+00 -0.1792329264137E+01 -0.3028747054091E+00 -0.5179802802087E+00
 0.5012982892341E+00 -0.1756712375605E+01 -0.2510828210157E+00 -0.5686066441028E+00
 0.7725611239516E+00 -0.1738999521942E+01 -0.1932876824782E+00 -0.6022475997725E+00
 0.1089643723209E+01 -0.1739451322923E+01 -0.1299615218794E+00 -0.6084301045850E+00
 0.1445502676699E+01 -0.1755478798001E+01 -0.6199522518425E-01 -0.5763796127986E+00
 0.1827900804913E+01 -0.1781356319535E+01  0.9308897214300E-02 -0.4968705255821E+00
 0.2220421909576E+01 -0.1808829172346E+01  0.8231854867254E-01 -0.3641927175470E+00
 0.2604655809847E+01 -0.1828588844091E+01  0.1552133954641E+00 -0.1774334758668E+00
-0.6356769751671E+00 -0.2698499277256E+01 -0.6668352604212E+00 -0.6665541393375E-01
-0.5646534299195E+00 -0.2728753613841E+01 -0.6586814185673E+00 -0.1245938258433E+00
-0.4938246677319E+00 -0.2757192770377E+01 -0.6502034973106E+00 -0.1704339733149E+00
-0.4257913376965E+00 -0.2782293644033E+01 -0.6416170059067E+00 -0.2046034119098E+00
-0.3628093685743E+00 -0.2802838368847E+01 -0.6331295569187E+00 -0.2282019038789E+00
-0.3065554859109E+00 -0.2818051005223E+01 -0.6249213075388E+00 -0.2427879778956E+00
-0.2580388117066E+00 -0.2827623164068E+01 -0.6171324043509E+00 -0.2501182314698E+00
-0.2176444402946E+00 -0.2831645316792E+01 -0.6098579605050E+00 -0.2519151966331E+00
-0.1852614446747E+00 -0.2830484888166E+01 -0.6031492755557E+00 -0.2497068854986E+00
-0.1604411946293E+00 -0.2824653800083E+01 -0.5970190078388E+00 -0.2447467214537E+00
-0.1425453406097E+00 -0.2814694786492E+01 -0.5914480342336E+00 -0.2379994207629E+00
-0.1308620928997E+00 -0.2801099366795E+01 -0.5863923006768E+00 -0.2301698928001E+00
-0.1246848515724E+00 -0.2784257957997E+01 -0.5817885705832E+00 -0.2217538891150E+00
-0.1233566037630E+00 -0.2764436130541E+01 -0.5775585554671E+00 -0.2130952236842E+00
-0.1262871614513E+00 -0.2741769295597E+01 -0.5736112999571E+00 -0.2044408022846E+00
-0.1329504239586E+00 -0.2716269026982E+01 -0.5698438986795E+00 -0.1959895081532E+00
-0.1428674576117E+00 -0.2687836155254E+01 -0.5661407310092E+00 -0.1879338925613E+00
-0.1555788325631E+00 -0.2656278891234E+01 -0.5623715531395E+00 -0.1804952088924E+00
-0.1706092448352E+00 -0.2621333084954E+01 -0.5583884742786E+00 -0.1739517596038E+00
-0.1874248367103E+00 -0.2582686279291E+01 -0.5540222314558E+00 -0.1686613369607E+00
-0.2053841701990E+00 -0.2540006215382E+01 -0.5490780852981E+00 -0.1650772375026E+00
-0.2236842550697E+00 -0.2492972419446E+01 -0.5433313429993E+00 -0.1637568412752E+00
-0.2413016788798E+00 -0.2441313780233E+01 -0.5365230998174E+00 -0.1653621053591E+00
-0.2569301000850E+00 -0.2384861540476E+01 -0.5283583359854E+00 -0.1706488386430E+00
-0.2689166061261E+00 -0.2323650284786E+01 -0.5185133859089E+00 -0.1804346551591E+00
-0.2751977697203E+00 -0.2257990644313E+01 -0.5066376903561E+00 -0.1955509623332E+00
-0.2732329903018E+00 -0.2188477677962E+01 -0.4923421409892E+00 -0.2167948426961E+00
-0.2599363761778E+00 -0.2116027368988E+01 -0.4751927561142E+00 -0.2448537038202E+00
-0.2316188562774E+00 -0.2041953137401E+01 -0.4547144055114E+00 -0.2801814126189E+00
-0.1839640047350E+00 -0.1968057455625E+01 -0.4304042984855E+00 -0.3228106425391E+00
-0.1120753687446E+00 -0.1896700431391E+01 -0.4017551660138E+00 -0.3720922180481E+00
-0.1064861444985E-01 -0.1830795879282E+01 -0.3682889042343E+00 -0.4263667246457E+00
 0.1256683211400E+00 -0.1773678191283E+01 -0.3296019789401E+00 -0.4825998377432E+00
 0.3016867023601E+00 -0.1728755879220E+01 -0.2854138396251E+00 -0.5360616111506E+00
 0.5208431255336E+00 -0.1698956280805E+01 -0.2356226345654E+00 -0.5801548952234E+00
 0.7841290293662E+00 -0.1686054306653E+01 -0.1803850581453E+00 -0.6065190520008E+00
 0.1088967187711E+01 -0.1689918139786E+01 -0.1201901922061E+00 -0.6056044976721E+00
 0.1428408682123E+01 -0.1707876148660E+01 -0.5589349414039E-01 -0.5678246365366E+00
 0.1791049354889E+01 -0.1734565394599E+01  0.1129679222639E-01 -0.4851447961043E+00
 0.2161965190273E+01 -0.1762506211618E+01  0.7989179692152E-01 -0.3526930134950E+00
 0.2524523265567E+01 -0.1783330984196E+01  0.1482384584830E+00 -0.1698185990126E+00
-0.6116084261297E+00 -0.2592685521551E+01 -0.6408587990856E+00 -0.5548363281262E-01
-0.5449755991905E+00 -0.2621122022532E+01 -0.6332195337802E+00 -0.1137977072359E+00
-0.4785269033183E+00 -0.2647917496344E+01 -0.6252888892500E+00 -0.1605831688056E+00
-0.4146027218904E+00 -0.2671691214725E+01 -0.6172587965210E+00 -0.1961971573080E+00
-0.3552526800522E+00 -0.2691319920477E+01 -0.6093145291853E+00 -0.2216039426457E+00
-0.3020323863104E+00 -0.2706057833082E+01 -0.6016180528432E+00 -0.2381971167201E+00
-0.2559184635887E+00 -0.2715566067292E+01 -0.5942969150319E+00 -0.2475764560638E+00
-0.2173343975905E+00 -0.2719861955093E+01 -0.5874392792902E+00 -0.2513424552208E+00
-0.1862514927933E+00 -0.2719219707402E+01 -0.5810942486980E+00 -0.2509471185710E+00
-0.1623210944001E+00 -0.2714057388748E+01 -0.5752757052019E+00 -0.2476121917759E+00
-0.1450030164609E+00 -0.2704835982551E+01 -0.5699678082955E+00 -0.2423058881725E+00
-0.1336700316542E+00 -0.2691983417301E+01 -0.5651306982121E+00 -0.2357603381530E+00
-0.1276811594517E+00 -0.2675845850478E+01 -0.5607054103410E+00 -0.2285118240185E+00
-0.1264250048205E+00 -0.2656662390289E+01 -0.5566174873162E+00 -0.2209500437748E+00
-0.1293382536262E+00 -0.2634557281515E+01 -0.5527791152653E+00 -0.2133677493130E+00
-0.1359051408550E+00 -0.2609543838042E+01 -0.5490898039616E+00 -0.2060062633342E+00
-0.1456429262705E+00 -0.2581535760659E+01 -0.5454357455135E+00 -0.1990951012417E+00
-0.1580765372654E+00 -0.2550364190482E+01 -0.5416881536214E+00 -0.1928855548910E+00
-0.1727053931545E+00 -0.2515797517905E+01 -0.5377005902244E+00 -0.1876778078774E+00
-0.1889629854860E+00 -0.2477565371823E+01 -0.5333056794086E+00 -0.1838420389636E+00
-0.2061703284194E+00 -0.2435387250901E+01 -0.5283115237366E+00 -0.1818328473412E+00
-0.2234847953514E+00 -0.2389004281057E+01 -0.5224978230675E+00 -0.1821960305512E+00
-0.2398445113868E+00 -0.2338216851658E+01 -0.5156122802921E+00 -0.1855668904624E+00
-0.2539097759692E+00 -0.2282936310201E+01 -0.5073692247945E+00 -0.1926570247470E+00
-0.2640043747888E+00 -0.2223279205310E+01 -0.4974567234325E+00 -0.2042203550286E+00
-0.2680578224210E+00 -0.2159635773004E+01 -0.4855387263201E+00 -0.2210022033154E+00
-0.2635475841318E+00 -0.2092680125482E+01 -0.4712455489449E+00 -0.2436855964860E+00
-0.2474447799558E+00 -0.2023403351040E+01 -0.4541696329668E+00 -0.2728102469722E+00
-0.2161761884703E+00 -0.1953177706053E+01 -0.4338707853698E+00 -0.3086461054130E+00
-0.1656255754747E+00 -0.1883827106788E+01 -0.4098905425604E+00 -0.3510102768627E+00
-0.9120908647597E-01 -0.1817667928249E+01 -0.3817754086340E+00 -0.3990232853542E+00
 0.1192901391298E-01 -0.1757475681320E+01 -0.3491093386836E+00 -0.4508154620332E+00
 0.1485493274097E+00 -0.1706329973751E+01 -0.3115561339108E+00 -0.5032186225478E+00
 0.3227541222505E+00 -0.1667270713039E+01 -0.2689033221647E+00 -0.5515195082001E+00
 0.5372298487455E+00 -0.1642782115375E+01 -0.2211104566207E+00 -0.5893691753916E+00
 0.7923208335810E+00 -0.1634201384522E+01 -0.1683761126971E+00 -0.6089523103451E+00
 0.1085106198395E+01 -0.1641091982482E+01 -0.1111971584744E+00 -0.6015654172448E+00
 0.1408800187859E+01 -0.1660758543158E+01 -0.5039167181066E-01 -0.5586630562551E+00
 0.1752781933703E+01 -0.1688189526028E+01  0.1291848172754E-01 -0.4732220108506E+00
 0.2103448947322E+01 -0.1716589423102E+01  0.7737190599706E-01 -0.3410747090652E+00
 0.2445746915964E+01 -0.1738419980281E+01  0.1414653892446E+00 -0.1618010768208E+00
-0.5875188583139E+00 -0.2487230815561E+01 -0.6149499439384E+00 -0.4499770664583E-01
-0.5250735867998E+00 -0.2513927799871E+01 -0.6078002863910E+00 -0.1036525317117E+00
-0.4628118003224E+00 -0.2539138895491E+01 -0.6003901481092E+00 -0.1512931291994E+00
-0.4028399620479E+00 -0.2561612697763E+01 -0.5928905407969E+00 -0.1882174437142E+00
-0.3470183319326E+00 -0.2580315326354E+01 -0.5854667403814E+00 -0.2152749217743E+00
-0.2967852984890E+00 -0.2594535233536E+01 -0.5782641150218E+00 -0.2337172305585E+00
-0.2530774523474E+00 -0.2603914177319E+01 -0.5713983344477E+00 -0.2450062759480E+00
-0.2163423891914E+00 -0.2608410472354E+01 -0.5649505807276E+00 -0.2506320171786E+00
-0.1866176365929E+00 -0.2608218427868E+01 -0.5589672212215E+00 -0.2519743092677E+00
-0.1636403854410E+00 -0.2603672463713E+01 -0.5534625780781E+00 -0.2502212462533E+00
-0.1469580932481E+00 -0.2595158270860E+01 -0.5484232809938E+00 -0.2463391492555E+00
-0.1360214251225E+00 -0.2583043366871E+01 -0.5438129665022E+00 -0.2410806390666E+00
-0.1302516053713E+00 -0.2567630525965E+01 -0.5395764343077E+00 -0.2350158124710E+00
-0.1290818294289E+00 -0.2549131963182E+01 -0.5356427665040E+00 -0.2285742091836E+00
-0.1319762203311E+00 -0.2527659788680E+01 -0.5319272097286E+00 -0.2220892191449E+00
-0.1384309264167E+00 -0.2503228022504E+01 -0.5283317976568E+00 -0.2158401102485E+00
-0.1479616574283E+00 -0.2475762337359E+01 -0.5247448067767E+00 -0.2100893513602E+00
-0.1600804961415E+00 -0.2445116034204E+01 -0.5210393138331E+00 -0.2051145146584E+00
-0.1742649185620E+00 -0.2411089260630E+01 -0.5170708435433E+00 -0.2012339850227E+00
-0.1899197009015E+00 -0.2373452710496E+01 -0.5126744899189E+00 -0.1988266251691E+00
-0.2063329465323E+00 -0.2331976101255E+01 -0.5076618171221E+00 -0.1983445793796E+00
-0.2226278544824E+00 -0.2286459779454E+01 -0.5018175342649E+00 -0.2003182731875E+00
-0.2377105450654E+00 -0.2236772013734E+01 -0.4948965191344E+00 -0.2053526182755E+00
-0.2502156408696E+00 -0.2182898916653E+01 -0.4866229187559E+00 -0.2141115207644E+00
-0.2584527483009E+00 -0.2125031571634E+01 -0.4766968710903E+00 -0.2272823695606E+00
-0.2603551414114E+00 -0.2063629830438E+01 -0.4647970012959E+00 -0.2455228745110E+00
-0.2534310184669E+00 -0.1999433561703E+01 -0.4505729227481E+00 -0.2694029598396E+00
-0.2347225583723E+00 -0.1933491807644E+01 -0.4336428796650E+00 -0.2993198872962E+00
-0.2007861409432E+00 -0.1867214903646E+01 -0.4136002150811E+00 -0.3353715916440E+00
-0.1477157292587E+00 -0.1802425519660E+01 -0.3900282555957E+00 -0.3771806537446E+00
-0.7124071248433E-01 -0.1741375359638E+01 -0.3625232198264E+00 -0.4236691970643E+00
 0.3306237958095E-01 -0.1686688393987E+01 -0.3307252078093E+00 -0.4727995217835E+00
 0.1694043219757E+00 -0.1641191538824E+01 -0.2943574477559E+00 -0.5213174381828E+00
 0.3412514952015E+00 -0.1607580540340E+01 -0.2532658128016E+00 -0.5645695263360E+00
 0.5506440361740E+00 -0.1587946243995E+01 -0.2074604446556E+00 -0.5964771999875E+00
 0.7973995654715E+00 -0.1583257838259E+01 -0.1571716568995E+00 -0.6097515814009E+00
 0.1078359046764E+01 -0.1592845326980E+01 -0.1028972575765E+00 -0.5964600222373E+00
 0.1386946235033E+01 -0.1614031890745E+01 -0.4541713181915E-01 -0.5489697842041E+00
 0.1713273241296E+01 -0.1642141235184E+01  0.1422640143423E-01 -0.4611211059533E+00
 0.2044916861338E+01 -0.1670986113271E+01  0.7478615072789E-01 -0.3293416857497E+00
 0.2368230880982E+01 -0.1693763799935E+01  0.1348934182195E+00 -0.1534066092500E+00
-0.5634096010496E+00 -0.2382097723150E+01 -0.5891014736183E+00 -0.3516672221637E-01
-0.5049686540421E+00 -0.2407126711727E+01 -0.5824190818325E+00 -0.9413107649535E-01
-0.4467190110454E+00 -0.2430809105183E+01 -0.5755056318215E+00 -0.1425457182631E+00
-0.3905553815700E+00 -0.2452011739210E+01 -0.5685134326275E+00 -0.1806587005699E+00
-0.3381634391573E+00 -0.2469785268313E+01 -0.5615897498623E+00 -0.2092221432950E+00
-0.2908685250024E+00 -0.2483455208166E+01 -0.5548647549018E+00 -0.2293657794552E+00
-0.2495617026375E+00 -0.2492652911135E+01 -0.5484429309270E+00 -0.2424307513753E+00
-0.2147030862526E+00 -0.2497289559234E+01 -0.5423985371797E+00 -0.2498075848916E+00
-0.1863828343538E+00 -0.2497491221651E+01 -0.5367748191995E+00 -0.2528085420454E+00
-0.1644115306562E+00 -0.2493518037692E+01 -0.5315859215909E+00 -0.2525873135044E+00
-0.1484146421414E+00 -0.2485686704689E+01 -0.5268202772163E+00 -0.2501041896517E+00
-0.1379143338155E+00 -0.2474307780066E+01 -0.5224444305612E+00 -0.2461265431890E+00
-0.1323905348820E+00 -0.2459641972098E+01 -0.5184065091210E+00 -0.2412522130200E+00
-0.1313197654544E+00 -0.2441874594112E+01 -0.5146388795820E+00 -0.2359448714789E+00
-0.1341938961683E+00 -0.2421104951097E+01 -0.5110597770685E+00 -0.2305734542831E+00
-0.1405223700676E+00 -0.2397346867741E+01 -0.5075738551251E+00 -0.2254506794833E+00
-0.1498214850763E+00 -0.2370537058191E+01 -0.5040717161648E+00 -0.2208679262801E+00
-0.1615932284533E+00 -0.2340550038403E+01 -0.5004286608283E+00 -0.2171252867425E+00
-0.1752964637251E+00 -0.2307216643500E+01 -0.4965026288436E+00 -0.2145557350341E+00
-0.1903112049122E+00 -0.2270347242560E+01 -0.4921316968277E+00 -0.2135432779228E+00
-0.2058972957970E+00 -0.2229759808498E+01 -0.4871314281178E+00 -0.2145341232240E+00
-0.2211492099370E+00 -0.2185311073648E+01 -0.4812920638889E+00 -0.2180399469175E+00
-0.2349474449886E+00 -0.2136933111298E+01 -0.4743761183261E+00 -0.2246321185942E+00
-0.2459084268031E+00 -0.2084681067229E+01 -0.4661179057520E+00 -0.2349241701056E+00
-0.2523362747025E+00 -0.2028812889969E+01 -0.4562298397328E+00 -0.2495351540014E+00
-0.2521780268115E+00 -0.1969848108028E+01 -0.4444052335901E+00 -0.2690349150218E+00
-0.2429838763338E+00 -0.1908579602743E+01 -0.4303127022275E+00 -0.2938826865342E+00
-0.2218788930209E+00 -0.1846098553879E+01 -0.4135954955429E+00 -0.3243399819028E+00
-0.1855596525877E+00 -0.1783835022922E+01 -0.3938789409711E+00 -0.3603456883761E+00
-0.1303363253253E+00 -0.1723591397756E+01 -0.3707855501414E+00 -0.4013489576267E+00
-0.5224789637463E-01 -0.1667538559841E+01 -0.3439572963684E+00 -0.4461036226558E+00
 0.5271657143458E-01 -0.1618140966959E+01 -0.3130848837702E+00 -0.4924417256164E+00
 0.1882602414554E+00 -0.1577979302801E+01 -0.2779438164108E+00 -0.5370634303590E+00
 0.3572820949596E+00 -0.1549431087980E+01 -0.2384298021570E+00 -0.5754084404358E+00
 0.5612679633869E+00 -0.1534240124281E+01 -0.1945944350785E+00 -0.6016807880394E+00
 0.7996101199799E+00 -0.1533067879530E+01 -0.1466915540959E+00 -0.6090935146839E+00
 0.1068994635516E+01 -0.1545068425132E+01 -0.9521475934194E-01 -0.5904134672368E+00
 0.1363084948572E+01 -0.1567613500743E+01 -0.4090571104380E-01 -0.5388086807557E+00
 0.1672677250377E+01 -0.1596343880729E+01  0.1526667415710E-01 -0.4488596725739E+00
 0.1986406609402E+01 -0.1625616336034E+01  0.7215805574878E-01 -0.3174985250648E+00
 0.2291885535807E+01 -0.1649282656767E+01  0.1285205777231E+00 -0.1446601356552E+00
-0.5392816853885E+00 -0.2277251706105E+01 -0.5633066866925E+00 -0.2596263621340E-01
-0.4846798292658E+00 -0.2300677963977E+01 -0.5570715669495E+00 -0.8520835936537E-01
-0.4302843027453E+00 -0.2322883744262E+01 -0.5506336176065E+00 -0.1343235211772E+00
-0.3777966773733E+00 -0.2342844747392E+01 -0.5441282930611E+00 -0.1735140885630E+00
-0.3287408662421E+00 -0.2359691766658E+01 -0.5376865345922E+00 -0.2034497877563E+00
-0.2843333786575E+00 -0.2372789298288E+01 -0.5314245433080E+00 -0.2251558727358E+00
-0.2454158292622E+00 -0.2381765468338E+01 -0.5254362673497E+00 -0.2398681736191E+00
-0.2124514967059E+00 -0.2386494292472E+01 -0.5197891655811E+00 -0.2488883885996E+00
-0.1855717035158E+00 -0.2387043746589E+01 -0.5145230976879E+00 -0.2534661906488E+00
-0.1646495473478E+00 -0.2383608173453E+01 -0.5096515517545E+00 -0.2547210691190E+00
-0.1493797919053E+00 -0.2376441286604E+01 -0.5051642232293E+00 -0.2536041944209E+00
-0.1393500893214E+00 -0.2365800248662E+01 -0.5010300750626E+00 -0.2508928358167E+00
-0.1340956011591E+00 -0.2351905325407E+01 -0.4972001927221E+00 -0.2472071166980E+00
-0.1331347589623E+00 -0.2334915249589E+01 -0.4936100090656E+00 -0.2430394897200E+00
-0.1359872961117E+00 -0.2314916099719E+01 -0.4901806864704E+00 -0.2387895101673E+00
-0.1421771604678E+00 -0.2291920724698E+01 -0.4868195842873E+00 -0.2347989086112E+00
-0.1512232570434E+00 -0.2265875933978E+01 -0.4834198454079E+00 -0.2313839538022E+00
-0.1626201582177E+00 -0.2236676375414E+01 -0.4798593138768E+00 -0.2288635409078E+00
-0.1758114118029E+00 -0.2204182265513E+01 -0.4759987425561E+00 -0.2275817245637E+00
-0.1901562007762E+00 -0.2168241951262E+01 -0.4716796374363E+00 -0.2279243035071E+00
-0.2048907270501E+00 -0.2128719345985E+01 -0.4667220215616E+00 -0.2303283592556E+00
-0.2190861160779E+00 -0.2085524365750E+01 -0.4609221032338E+00 -0.2352838574580E+00
-0.2316034759984E+00 -0.2038648471219E+01 -0.4540503962094E+00 -0.2433260440254E+00
-0.2410482245760E+00 -0.1988209855256E+01 -0.4458516226101E+00 -0.2550161473978E+00
-0.2457271587033E+00 -0.1934525585054E+01 -0.4360505552491E+00 -0.2709040226756E+00
-0.2436101888686E+00 -0.1878165155802E+01 -0.4243550752574E+00 -0.2914725039980E+00
-0.2322993311832E+00 -0.1819962439019E+01 -0.4104523601566E+00 -0.3170737428746E+00
-0.2090122516630E+00 -0.1761036376863E+01 -0.3940097315763E+00 -0.3478412954911E+00
-0.1705934473299E+00 -0.1702820771477E+01 -0.3746828493445E+00 -0.3835685793306E+00
-0.1135718798194E+00 -0.1647082060117E+01 -0.3521307932345E+00 -0.4235519881213E+00
-0.3428908331870E-01 -0.1595898297765E+01 -0.3260374810751E+00 -0.4664050508365E+00
 0.7087533410734E-01 -0.1551570698463E+01 -0.2961390772840E+00 -0.5098629260743E+00
 0.2051586075352E+00 -0.1516443262813E+01 -0.2622569349635E+00 -0.5506137132482E+00
 0.3709556400045E+00 -0.1492601547920E+01 -0.2243291849259E+00 -0.5842152169307E+00
 0.5692788718426E+00 -0.1481484735758E+01 -0.1824411755016E+00 -0.6051587150448E+00
 0.7991801576079E+00 -0.1483498310976E+01 -0.1368636327130E+00 -0.6071312849550E+00
 0.1057256097821E+01 -0.1497666653179E+01 -0.8808211238416E-01 -0.5835327249657E+00
 0.1337428240256E+01 -0.1521431067983E+01 -0.3680056609376E-01 -0.5282344117083E+00
 0.1631130196025E+01 -0.1550730675428E+01  0.1607990435897E-01 -0.4364536880615E+00
 0.1927950566908E+01 -0.1580411050542E+01  0.6950790430896E-01 -0.3055503625468E+00
 0.2216628441170E+01 -0.1604907501509E+01  0.1223441897553E+00 -0.1355863331516E+00
-0.5151358942466E+00 -0.2172660605706E+01 -0.5375593080007E+00 -0.1736003034309E-01
-0.4642242920671E+00 -0.2194543598776E+01 -0.5317535860925E+00 -0.7686149343599E-01
-0.4135402021306E+00 -0.2215321324188E+01 -0.5257723130984E+00 -0.1266099320528E+00
-0.3646076374510E+00 -0.2234070460534E+01 -0.5197356273416E+00 -0.1667758649307E+00
-0.3187998165156E+00 -0.2249998013983E+01 -0.5137595737554E+00 -0.1979594887400E+00
-0.2772285174572E+00 -0.2262508711946E+01 -0.5079474534497E+00 -0.2210969152558E+00
-0.2406831965903E+00 -0.2271233194633E+01 -0.5023832857308E+00 -0.2373326469903E+00
-0.2096228072243E+00 -0.2276016631993E+01 -0.4971278952512E+00 -0.2478896196659E+00
-0.1842102354579E+00 -0.2276877672993E+01 -0.4922175890248E+00 -0.2539601817482E+00
-0.1643716778979E+00 -0.2273952465334E+01 -0.4876648359131E+00 -0.2566305566017E+00
-0.1498634114873E+00 -0.2267437368592E+01 -0.4834601632200E+00 -0.2568405757362E+00
-0.1403330148875E+00 -0.2257539707460E+01 -0.4795745516157E+00 -0.2553733250522E+00
-0.1353675262561E+00 -0.2244441121789E+01 -0.4759617367015E+00 -0.2528663294621E+00
-0.1345258044522E+00 -0.2228274332877E+01 -0.4725600345076E+00 -0.2498358349794E+00
-0.1373554164415E+00 -0.2209111975437E+01 -0.4692934853688E+00 -0.2467072923117E+00
-0.1433958776168E+00 -0.2186965250685E+01 -0.4660722326054E+00 -0.2438471109291E+00
-0.1521706005824E+00 -0.2161790114761E+01 -0.4627921499647E+00 -0.2415924968765E+00
-0.1631693388862E+00 -0.2133500158238E+01 -0.4593339062695E+00 -0.2402775149193E+00
-0.1758235595407E+00 -0.2101983482537E+01 -0.4555614152039E+00 -0.2402539250561E+00
-0.1894754875543E+00 -0.2067124465250E+01 -0.4513199972861E+00 -0.2419061744368E+00
-0.2033422235708E+00 -0.2028830362525E+01 -0.4464345238716E+00 -0.2456593305595E+00
-0.2164767979488E+00 -0.1987060788629E+01 -0.4407075238826E+00 -0.2519791022575E+00
-0.2277269495567E+00 -0.1941861933920E+01 -0.4339177831613E+00 -0.2613625782165E+00
-0.2356939120843E+00 -0.1893408920748E+01 -0.4258205729117E+00 -0.2743174533680E+00
-0.2386947247073E+00 -0.1842070250855E+01 -0.4161530013137E+00 -0.2913243645445E+00
-0.2347303326372E+00 -0.1788456046910E+01 -0.4046372819391E+00 -0.3127809305707E+00
-0.2214629797136E+00 -0.1733429987105E+01 -0.3909785991897E+00 -0.3389367812142E+00
-0.1962106329913E+00 -0.1678125887714E+01 -0.3748673097269E+00 -0.3698060683859E+00
-0.1559708733220E+00 -0.1623967576497E+01 -0.3559876952684E+00 -0.4050505467665E+00
-0.9749115548735E-01 -0.1572672915823E+01 -0.3340328192396E+00 -0.4438337445692E+00
-0.1740590553290E-01 -0.1526218663809E+01 -0.3087249184687E+00 -0.4846545632078E+00
 0.8753803200290E-01 -0.1486742404111E+01 -0.2798408785915E+00 -0.5251804377134E+00
 0.2201523048692E+00 -0.1456363064525E+01 -0.2472421556154E+00 -0.5621149641332E+00
 0.3823856569886E+00 -0.1436899993031E+01 -0.2109028703511E+00 -0.5911521268331E+00
 0.5748478474608E+00 -0.1429526100627E+01 -0.1709356531803E+00 -0.6070692984676E+00
 0.7963211918934E+00 -0.1434435006234E+01 -0.1276227647698E+00 -0.6039979944926E+00
 0.1043363955999E+01 -0.1450558453928E+01 -0.8143890079946E-01 -0.5759095868567E+00
 0.1310165655400E+01 -0.1475421697844E+01 -0.3305120898134E-01 -0.5172939010751E+00
 0.1588753189627E+01 -0.1505243684344E+01  0.1670190130549E-01 -0.4239175176838E+00
 0.1869576838090E+01 -0.1535310693224E+01  0.6685322996939E-01 -0.2935028731665E+00
 0.2142384901531E+01 -0.1560578854900E+01  0.1163612110600E+00 -0.1262097685185E+00
-0.4909728040216E+00 -0.2068294201862E+01 -0.5118534088040E+00 -0.9335908416616E-02
-0.4436176969558E+00 -0.2088687972619E+01 -0.5064611414618E+00 -0.6906956285048E-01
-0.3965165441641E+00 -0.2108082726996E+01 -0.5009198616962E+00 -0.1193892161598E+00
-0.3510287646397E+00 -0.2125649539789E+01 -0.4953356682668E+00 -0.1604356740765E+00
-0.3083863636547E+00 -0.2140668178009E+01 -0.4898109156315E+00 -0.1927508045545E+00
-0.2696002711364E+00 -0.2152584368366E+01 -0.4844369351192E+00 -0.2171951541671E+00
-0.2354060102644E+00 -0.2161035831533E+01 -0.4792883755014E+00 -0.2348345994405E+00
-0.2062522781702E+00 -0.2165845797161E+01 -0.4744196221356E+00 -0.2468228299014E+00
-0.1823255642552E+00 -0.2166991100790E+01 -0.4698633400105E+00 -0.2543002576344E+00
-0.1635971027297E+00 -0.2164556430883E+01 -0.4656307136611E+00 -0.2583213286094E+00
-0.1498778185575E+00 -0.2158685981830E+01 -0.4617127669576E+00 -0.2598130294667E+00
-0.1408701568654E+00 -0.2149540694046E+01 -0.4580821770082E+00 -0.2595608546492E+00
-0.1362098623263E+00 -0.2137265498393E+01 -0.4546950789194E+00 -0.2582153751731E+00
-0.1354947290712E+00 -0.2121967851537E+01 -0.4514925228494E+00 -0.2563120055843E+00
-0.1383000280854E+00 -0.2103706890288E+01 -0.4484013903563E+00 -0.2542975938520E+00
-0.1441817793108E+00 -0.2082491592264E+01 -0.4453346809509E+00 -0.2525590350222E+00
-0.1526696869007E+00 -0.2058286120007E+01 -0.4421911679707E+00 -0.2514506268386E+00
-0.1632511835586E+00 -0.2031021740324E+01 -0.4388545913159E+00 -0.2513180870254E+00
-0.1753488041511E+00 -0.2000612795199E+01 -0.4351923263548E+00 -0.2525176652407E+00
-0.1882915983871E+00 -0.1966977549306E+01 -0.4310538359618E+00 -0.2554295382803E+00
-0.2012819899161E+00 -0.1930063786453E+01 -0.4262691616257E+00 -0.2604641793501E+00
-0.2133599961446E+00 -0.1889877127842E+01 -0.4206474310655E+00 -0.2680608994402E+00
-0.2233657402113E+00 -0.1846513688141E+01 -0.4139758918391E+00 -0.2786771146267E+00
-0.2299026738060E+00 -0.1800199377309E+01 -0.4060204162731E+00 -0.2927663934178E+00
-0.2313049934913E+00 -0.1751346624888E+01 -0.3965303295846E+00 -0.3107408677050E+00
-0.2256118748249E+00 -0.1700597320836E+01 -0.3852418448727E+00 -0.3329155149726E+00
-0.2105528130721E+00 -0.1648834680125E+01 -0.3718775041808E+00 -0.3594427282425E+00
-0.1835519314788E+00 -0.1597195989300E+01 -0.3561495894628E+00 -0.3902262856403E+00
-0.1417628046118E+00 -0.1547083518634E+01 -0.3377692696824E+00 -0.4248100080054E+00
-0.8214870402278E-01 -0.1500156639279E+01 -0.3164610733759E+00 -0.4622434188624E+00
-0.1625362650973E-02 -0.1458285305339E+01 -0.2919821379489E+00 -0.5009340873878E+00
 0.1027170197197E+00 -0.1423445658614E+01 -0.2641457317150E+00 -0.5385069417408E+00
 0.2333029354772E+00 -0.1397544411412E+01 -0.2328482986567E+00 -0.5717033657837E+00
 0.3916874771952E+00 -0.1382159377234E+01 -0.1980943829595E+00 -0.5963659469990E+00
 0.5781391807642E+00 -0.1378231506696E+01 -0.1600184675709E+00 -0.6075527229366E+00
 0.7912297597419E+00 -0.1385779988091E+01 -0.1189100474417E+00 -0.5998095087903E+00
 0.1027518843021E+01 -0.1403673543526E+01 -0.7523094122210E-01 -0.5676230440502E+00
 0.1281467508916E+01 -0.1429530860535E+01 -0.2961267076507E-01 -0.5060274906480E+00
 0.1545654404793E+01 -0.1459832773997E+01  0.1716432641504E-01 -0.4112640172696E+00
 0.1811310180180E+01 -0.1490263928137E+01  0.6420925136554E-01 -0.2813622335672E+00
 0.2069087993910E+01 -0.1516245729351E+01  0.1105684545594E+00 -0.1165548260210E+00
-0.4667928220607E+00 -0.1964123838155E+01 -0.4861833392879E+00 -0.1869533425366E-02
-0.4228744519190E+00 -0.1983077312690E+01 -0.4811903600922E+00 -0.6181352066147E-01
-0.3792409470375E+00 -0.2001130757808E+01 -0.4760743480631E+00 -0.1126465579264E+00
-0.3370978259793E+00 -0.2017544212885E+01 -0.4709284147903E+00 -0.1544847832389E+00
-0.2975439352514E+00 -0.2031667218267E+01 -0.4658422376453E+00 -0.1878216094169E+00
-0.2614929582025E+00 -0.2042986921510E+01 -0.4608959828104E+00 -0.2134541440749E+00
-0.2296254328985E+00 -0.2051151724924E+01 -0.4561554383617E+00 -0.2323812311671E+00
-0.2023751811033E+00 -0.2055968600501E+01 -0.4516687630512E+00 -0.2456962979075E+00
-0.1799457806991E+00 -0.2057378947959E+01 -0.4474649523993E+00 -0.2544932330695E+00
-0.1623466901691E+00 -0.2055421895555E+01 -0.4435537237543E+00 -0.2597966008338E+00
-0.1494375118336E+00 -0.2050194182215E+01 -0.4399263453651E+00 -0.2625196125441E+00
-0.1409710270986E+00 -0.2041813643418E+01 -0.4365569406086E+00 -0.2634473370751E+00
-0.1366287540543E+00 -0.2030390443952E+01 -0.4334038460594E+00 -0.2632395124278E+00
-0.1360459723966E+00 -0.2016007641445E+01 -0.4304107291818E+00 -0.2624464467971E+00
-0.1388254638391E+00 -0.1998710948394E+01 -0.4275072888171E+00 -0.2615321270742E+00
-0.1445405831219E+00 -0.1978506627325E+01 -0.4246094484165E+00 -0.2608999080334E+00
-0.1527289955220E+00 -0.1955366124436E+01 -0.4216190302742E+00 -0.2609174709017E+00
-0.1628782014819E+00 -0.1929237064807E+01 -0.4184230594927E+00 -0.2619388143479E+00
-0.1744048448467E+00 -0.1900058277646E+01 -0.4148926306809E+00 -0.2643216423985E+00
-0.1866284637720E+00 -0.1867779624705E+01 -0.4108816238180E+00 -0.2684391794912E+00
-0.1987410784718E+00 -0.1832386444754E+01 -0.4062255106985E+00 -0.2746850324543E+00
-0.2097745649647E+00 -0.1793926539947E+01 -0.4007402269538E+00 -0.2834703646977E+00
-0.2185668739439E+00 -0.1752541078478E+01 -0.3942215963587E+00 -0.2952118868984E+00
-0.2237296130497E+00 -0.1708500683013E+01 -0.3864460649711E+00 -0.3103090191029E+00
-0.2236203723621E+00 -0.1662254473659E+01 -0.3771749748246E+00 -0.3291067294220E+00
-0.2163227899063E+00 -0.1614467804305E+01 -0.3661581242984E+00 -0.3518405529774E+00
-0.1996393205311E+00 -0.1566034108780E+01 -0.3531346911243E+00 -0.3785714522849E+00
-0.1711044149254E+00 -0.1518084185171E+01 -0.3378377250534E+00 -0.4091020983055E+00
-0.1280286012478E+00 -0.1471989130529E+01 -0.3200035511238E+00 -0.4428717879054E+00
-0.6758636992220E-01 -0.1429342282880E+01 -0.2993857350215E+00 -0.4788337020514E+00
 0.1303817317078E-01 -0.1391903731968E+01 -0.2757731158687E+00 -0.5153250081054E+00
 0.1164353411882E+00 -0.1361492293490E+01 -0.2490113941710E+00 -0.5499497247240E+00
 0.2446786227104E+00 -0.1339815937939E+01 -0.2190274663095E+00 -0.5795047629354E+00
 0.3989767013890E+00 -0.1328234169004E+01 -0.1858514962925E+00 -0.5999891589126E+00
 0.5793100484100E+00 -0.1327486418209E+01 -0.1496352761895E+00 -0.6067330998166E+00
 0.7840885964291E+00 -0.1337449076788E+01 -0.1106720977209E+00 -0.5946668310264E+00
 0.1009903871254E+01 -0.1356951432875E+01 -0.6940951335840E-01 -0.5587412236079E+00
 0.1251487533669E+01 -0.1383711453308E+01 -0.2644478432192E-01 -0.4944699148842E+00
 0.1501931005118E+01 -0.1414454701527E+01  0.1749526097872E-01 -0.3985046981325E+00
 0.1753172890958E+01 -0.1445226647628E+01  0.6158924958379E-01 -0.2691350647323E+00
 0.1996678433426E+01 -0.1471864718899E+01  0.1049627444693E+00 -0.1066455590028E+00
-0.4425962179982E+00 -0.1860122099302E+01 -0.4605436703227E+00  0.5057707279178E-02
-0.4020079589301E+00 -0.1877679333088E+01 -0.4559374651975E+00 -0.5507610339305E-01
-0.3617392246890E+00 -0.1894429752634E+01 -0.4512338021886E+00 -0.1063680951005E+00
-0.3228503373329E+00 -0.1909717952536E+01 -0.4465136646274E+00 -0.1489142700061E+00
-0.2863137511754E+00 -0.1922960706221E+01 -0.4418548980633E+00 -0.1831684131924E+00
-0.2529491883336E+00 -0.1933686756022E+01 -0.4373271953879E+00 -0.2098751368950E+00
-0.2233817133999E+00 -0.1941557985364E+01 -0.4329879462048E+00 -0.2299769017133E+00
-0.1980267673325E+00 -0.1946369727070E+01 -0.4288793052713E+00 -0.2445153570298E+00
-0.1770997821818E+00 -0.1948033291229E+01 -0.4250266210156E+00 -0.2545432369981E+00
-0.1606427774959E+00 -0.1946547343624E+01 -0.4214380305038E+00 -0.2610574079638E+00
-0.1485589252265E+00 -0.1941965377835E+01 -0.4181048668426E+00 -0.2649568314016E+00
-0.1406473572458E+00 -0.1934365178048E+01 -0.4150025132428E+00 -0.2670237991514E+00
-0.1366327052274E+00 -0.1923824053869E+01 -0.4120913579598E+00 -0.2679237601065E+00
-0.1361863657544E+00 -0.1910401600283E+01 -0.4093175993068E+00 -0.2682179722670E+00
-0.1389384038045E+00 -0.1894130276940E+01 -0.4066137422080E+00 -0.2683835485216E+00
-0.1444802481728E+00 -0.1875013214283E+01 -0.4038986985097E+00 -0.2688364643086E+00
-0.1523590823893E+00 -0.1853028245213E+01 -0.4010774714969E+00 -0.2699542375389E+00
-0.1620647441724E+00 -0.1828138006950E+01 -0.3980405561557E+00 -0.2720959427984E+00
-0.1730109015591E+00 -0.1800303989039E+01 -0.3946629840006E+00 -0.2756179001604E+00
-0.1845111012698E+00 -0.1769505259389E+01 -0.3908032779551E+00 -0.2808839444317E+00
-0.1957510535287E+00 -0.1735761636284E+01 -0.3863025437188E+00 -0.2882688488555E+00
-0.2057591212180E+00 -0.1699159205790E+01 -0.3809836710788E+00 -0.2981542523986E+00
-0.2133761821225E+00 -0.1659879325076E+01 -0.3746511070225E+00 -0.3109155706541E+00
-0.2172274454593E+00 -0.1618231397261E+01 -0.3670917740141E+00 -0.3268985557789E+00
-0.2156994403128E+00 -0.1574694336205E+01 -0.3580787606393E+00 -0.3463828774838E+00
-0.2069255584915E+00 -0.1529949264507E+01 -0.3473749697760E+00 -0.3695283098470E+00
-0.1887856894366E+00 -0.1484891477635E+01 -0.3347354384022E+00 -0.3963105324747E+00
-0.1589272706305E+00 -0.1440636705320E+01 -0.3199127999572E+00 -0.4264404109144E+00
-0.1148170805028E+00 -0.1398517044614E+01 -0.3026668295335E+00 -0.4592656259127E+00
-0.5383471413743E-01 -0.1360054313800E+01 -0.2827778098011E+00 -0.4936593820580E+00
 0.2658115091773E-01 -0.1326897666948E+01 -0.2600633070813E+00 -0.5279070905151E+00
 0.1287247497607E+00 -0.1300714100162E+01 -0.2343978735730E+00 -0.5596101889828E+00
 0.2543522188739E+00 -0.1283026453991E+01 -0.2057348500891E+00 -0.5856349710765E+00
 0.4043680568870E+00 -0.1274997477929E+01 -0.1741258868031E+00 -0.6021411101934E+00
 0.5785104397796E+00 -0.1277191900770E+01 -0.1397362942803E+00 -0.6047202802072E+00
 0.7750677880108E+00 -0.1289369943711E+01 -0.1028604326727E+00 -0.5886580947585E+00
 0.9906867047823E+00 -0.1310340164974E+01 -0.6393069299102E-01 -0.5493229761562E+00
 0.1220365134429E+01 -0.1337922946359E+01 -0.2351156273645E-01 -0.4826511177210E+00
 0.1457670814638E+01 -0.1369072307907E+01  0.1771970161040E-01 -0.3856498910924E+00
 0.1695185567863E+01 -0.1400161121803E+01  0.5900489009129E-01 -0.2568283380903E+00
 0.1925104287125E+01 -0.1427399180008E+01  0.9954102290666E-01 -0.9650549520707E-01
-0.4183831533399E+00 -0.1756262531924E+01 -0.4349291435338E+00  0.1146240519704E-01
-0.3810308252696E+00 -0.1772462897810E+01 -0.4306987510339E+00 -0.4884176437688E-01
-0.3440357502221E+00 -0.1787945228121E+01 -0.4263962020224E+00 -0.1005409471720E+00
-0.3083199953505E+00 -0.1802135179330E+01 -0.4220910412257E+00 -0.1437151750249E+00
-0.2747352232934E+00 -0.1814514643370E+01 -0.4178499795592E+00 -0.1787866254299E+00
-0.2440101498124E+00 -0.1824653953925E+01 -0.4137328269126E+00 -0.2064574105528E+00
-0.2167143244587E+00 -0.1832230599160E+01 -0.4097889908301E+00 -0.2276234654218E+00
-0.1932422600269E+00 -0.1837031955835E+01 -0.4060548492231E+00 -0.2432826900286E+00
-0.1738171516971E+00 -0.1838943650362E+01 -0.4025521664103E+00 -0.2544519407487E+00
-0.1585089787259E+00 -0.1837928220838E+01 -0.3992874458626E+00 -0.2621027618287E+00
-0.1472602019751E+00 -0.1833999618522E+01 -0.3962519700040E+00 -0.2671197417679E+00
-0.1399128653930E+00 -0.1827198369140E+01 -0.3934222527690E+00 -0.2702804418256E+00
-0.1362323512454E+00 -0.1817570762502E+01 -0.3907606285722E+00 -0.2722529349337E+00
-0.1359249136014E+00 -0.1805153900498E+01 -0.3882157686047E+00 -0.2736057923539E+00
-0.1386476617576E+00 -0.1789967235278E+01 -0.3857229851548E+00 -0.2748254844566E+00
-0.1440107592300E+00 -0.1772010414963E+01 -0.3832042405488E+00 -0.2763369676988E+00
-0.1515723538190E+00 -0.1751266795730E+01 -0.3805678355808E+00 -0.2785242294269E+00
-0.1608267627000E+00 -0.1727712673761E+01 -0.3777078929204E+00 -0.2817483995362E+00
-0.1711874516809E+00 -0.1701330330645E+01 -0.3745035620457E+00 -0.2863617852403E+00
-0.1819653315652E+00 -0.1672125589953E+01 -0.3708181898293E+00 -0.2927166435106E+00
-0.1923436915442E+00 -0.1640149620548E+01 -0.3664986678797E+00 -0.3011672449374E+00
-0.2013517404912E+00 -0.1605522880475E+01 -0.3613749295781E+00 -0.3120646784234E+00
-0.2078380151657E+00 -0.1568462118478E+01 -0.3552600320225E+00 -0.3257428760806E+00
-0.2104462641257E+00 -0.1529309789411E+01 -0.3479512158923E+00 -0.3424948371853E+00
-0.2075968137164E+00 -0.1488568096232E+01 -0.3392329870447E+00 -0.3625372239109E+00
-0.1974771980180E+00 -0.1446926871772E+01 -0.3288808188588E+00 -0.3859580829090E+00
-0.1780480763859E+00 -0.1405275861888E+01 -0.3166647923735E+00 -0.4126541436206E+00
-0.1470711922417E+00 -0.1364708442037E+01 -0.3023559313612E+00 -0.4422536392039E+00
-0.1021674732782E+00 -0.1326511488698E+01 -0.2857357966531E+00 -0.4740249070532E+00
-0.4091434164898E-01 -0.1292131571991E+01 -0.2666091867007E+00 -0.5067762037577E+00
 0.3900922880962E-01 -0.1263107429743E+01 -0.2448196438347E+00 -0.5387576696157E+00
 0.1396240156450E+00 -0.1240960698813E+01 -0.2202673399159E+00 -0.5675835789380E+00
 0.2623998512452E+00 -0.1227042486200E+01 -0.1929285298658E+00 -0.5902001882444E+00
 0.4079745607303E+00 -0.1222338564682E+01 -0.1628728032174E+00 -0.6029291176202E+00
 0.5758832493068E+00 -0.1227262431482E+01 -0.1302758383764E+00 -0.6016114465317E+00
 0.7643258656224E+00 -0.1241480456484E+01 -0.9543091959432E-01 -0.5818602442933E+00
 0.9700213609824E+00 -0.1263795203218E+01 -0.5875476932266E-01 -0.5394191908547E+00
 0.1188227293640E+01 -0.1292130589192E+01 -0.2078065942016E-01 -0.4705969387028E+00
 0.1412953719658E+01 -0.1323653776449E+01  0.1785998890799E-01 -0.3727088898803E+00
 0.1637367685093E+01 -0.1355035224637E+01  0.5646649293255E-01 -0.2444492552497E+00
 0.1854320526636E+01 -0.1382818443048E+01  0.9430041812270E-01 -0.8615743547428E-01
-0.3941537084899E+00 -0.1652519401749E+01 -0.4093346281474E+00  0.1735921054153E-01
-0.3599550525979E+00 -0.1667397728780E+01 -0.4054705623175E+00 -0.4309662245113E-01
-0.3261537807966E+00 -0.1681643577365E+01 -0.4015594776161E+00 -0.9515323823049E-01
-0.2935390673344E+00 -0.1694761002356E+01 -0.3976600198637E+00 -0.1388786244259E+00
-0.2628463229873E+00 -0.1706295301400E+01 -0.3938283307459E+00 -0.1746707702128E+00
-0.2347158828517E+00 -0.1715858266350E+01 -0.3901148356535E+00 -0.2031985419265E+00
-0.2096621044544E+00 -0.1723144532405E+01 -0.3865613331321E+00 -0.2253205571808E+00
-0.1880568638728E+00 -0.1727936370272E+01 -0.3831986525391E+00 -0.2419985882273E+00
-0.1701280599995E+00 -0.1730097266094E+01 -0.3800450708817E+00 -0.2542187669984E+00
-0.1559700146987E+00 -0.1729557240719E+01 -0.3771054567029E+00 -0.2629298038395E+00
-0.1455609863889E+00 -0.1726293901193E+01 -0.3743709830948E+00 -0.2690020510676E+00
-0.1387830344351E+00 -0.1720313025194E+01 -0.3718192174663E+00 -0.2732067053140E+00
-0.1354402384090E+00 -0.1711631611881E+01 -0.3694143755628E+00 -0.2762116926608E+00
-0.1352725786338E+00 -0.1700265244700E+01 -0.3671075701371E+00 -0.2785895413298E+00
-0.1379639744955E+00 -0.1686220669349E+01 -0.3648369342054E+00 -0.2808325489042E+00
-0.1431439152749E+00 -0.1669493762763E+01 -0.3625275410096E+00 -0.2833712197324E+00
-0.1503828484231E+00 -0.1650072582083E+01 -0.3600910914670E+00 -0.2865928359125E+00
-0.1591815781536E+00 -0.1627945741406E+01 -0.3574254692380E+00 -0.2908577594929E+00
-0.1689559867242E+00 -0.1603114433662E+01 -0.3544140893585E+00 -0.2965118740654E+00
-0.1790175225998E+00 -0.1575608765067E+01 -0.3509252627626E+00 -0.3038939207804E+00
-0.1885507189821E+00 -0.1545508116295E+01 -0.3468117722233E+00 -0.3133362871302E+00
-0.1965897016286E+00 -0.1512963439066E+01 -0.3419106332337E+00 -0.3251588137579E+00
-0.2019950155441E+00 -0.1478222193996E+01 -0.3360434469154E+00 -0.3396541194770E+00
-0.2034333742253E+00 -0.1441654409530E+01 -0.3290175616538E+00 -0.3570637337896E+00
-0.1993630882843E+00 -0.1403779499822E+01 -0.3206285223990E+00 -0.3775439354672E+00
-0.1880293692245E+00 -0.1365289595743E+01 -0.3106637976228E+00 -0.4011153131435E+00
-0.1674759416515E+00 -0.1327062395422E+01 -0.2989076718687E+00 -0.4276020306447E+00
-0.1355790001810E+00 -0.1290162831492E+01 -0.2851483705836E+00 -0.4565586025499E+00
-0.9011036374059E-01 -0.1255827765493E+01 -0.2691876298580E+00 -0.4871855693840E+00
-0.2883714224602E-01 -0.1225426278678E+01 -0.2508526879228E+00 -0.5182399313202E+00
 0.5033582972665E-01 -0.1200388462172E+01 -0.2300105299166E+00 -0.5479510363246E+00
 0.1491774718335E+00 -0.1182097658194E+01 -0.2065840403504E+00 -0.5739588537267E+00
 0.2688997391438E+00 -0.1171746167629E+01 -0.1805692883878E+00 -0.5932974549355E+00
 0.4099069181331E+00 -0.1170160754868E+01 -0.1520507696128E+00 -0.6024494891797E+00
 0.5715644878378E+00 -0.1177624100019E+01 -0.1212119242425E+00 -0.5974925044012E+00
 0.7520108500557E+00 -0.1193727333847E+01 -0.8834329807477E-01 -0.5743404621080E+00
 0.9480498166174E+00 -0.1217278523053E+01 -0.5384574208952E-01 -0.5290739037036E+00
 0.1155190242581E+01 -0.1246304754316E+01 -0.1822290261850E-01 -0.4583297054657E+00
 0.1367852910795E+01 -0.1278172023490E+01  0.1793617772827E-01 -0.3596900863933E+00
 0.1579738102671E+01 -0.1309821789250E+01  0.5398326348859E-01 -0.2320051314624E+00
 0.1784288614365E+01 -0.1338097121983E+01  0.8923829980614E-01 -0.7562328225195E-01
-0.3699079087472E+00 -0.1548867479726E+01 -0.3837550834129E+00  0.2276088877054E-01
-0.3387922082874E+00 -0.1562454144521E+01 -0.3802492762278E+00 -0.3782842568156E-01
-0.3081157514347E+00 -0.1575491793696E+01 -0.3767215146398E+00 -0.9019411705350E-01
-0.2785387458933E+00 -0.1587560977615E+01 -0.3732199502630E+00 -0.1343959278141E+00
-0.2506839200804E+00 -0.1598269064005E+01 -0.3697906023274E+00 -0.1708146594456E+00
-0.2251055379466E+00 -0.1607269069272E+01 -0.3664749269045E+00 -0.2000946312594E+00
-0.2022633992565E+00 -0.1614273804554E+01 -0.3633074461758E+00 -0.2230658336250E+00
-0.1825057860223E+00 -0.1619062530205E+01 -0.3603136686145E+00 -0.2406611777180E+00
-0.1660631849159E+00 -0.1621479337460E+01 -0.3575085098025E+00 -0.2538410800544E+00
-0.1530515610476E+00 -0.1621424653117E+01 -0.3548952481213E+00 -0.2635339513844E+00
-0.1434822308589E+00 -0.1618842442551E+01 -0.3524649399342E+00 -0.2705962233400E+00
-0.1372749018336E+00 -0.1613705952973E+01 -0.3501961761797E+00 -0.2757913406670E+00
-0.1342706110525E+00 -0.1606004496280E+01 -0.3480550266530E+00 -0.2797845755805E+00
-0.1342420725602E+00 -0.1595733098029E+01 -0.3459950392735E+00 -0.2831493080641E+00
-0.1368997964453E+00 -0.1582886141606E+01 -0.3439571927357E+00 -0.2863803608637E+00
-0.1418931247408E+00 -0.1567455502416E+01 -0.3418697305256E+00 -0.2899105622388E+00
-0.1488060287511E+00 -0.1549433165017E+01 -0.3396478438147E+00 -0.2941275156047E+00
-0.1571476663045E+00 -0.1528818749978E+01 -0.3371932882810E+00 -0.2993881986449E+00
-0.1663387888749E+00 -0.1505630494385E+01 -0.3343938616348E+00 -0.3060298841773E+00
-0.1756943603409E+00 -0.1479920324434E+01 -0.3311229418891E+00 -0.3143761081954E+00
-0.1844035843548E+00 -0.1451792722094E+01 -0.3272392661660E+00 -0.3247362716240E+00
-0.1915092734281E+00 -0.1421425329204E+01 -0.3225869253333E+00 -0.3373985709889E+00
-0.1958879406576E+00 -0.1389091796902E+01 -0.3169959522355E+00 -0.3526147981766E+00
-0.1962331833748E+00 -0.1355184534065E+01 -0.3102835481116E+00 -0.3705766009325E+00
-0.1910448384253E+00 -0.1320234534616E+01 -0.3022558791123E+00 -0.3913827474050E+00
-0.1786285343321E+00 -0.1284930455434E+01 -0.2927118023150E+00 -0.4149907706049E+00
-0.1571124184231E+00 -0.1250132315650E+01 -0.2814489510085E+00 -0.4411585930747E+00
-0.1244862652535E+00 -0.1216871611075E+01 -0.2682715792632E+00 -0.4693755640330E+00
-0.7866858414551E-01 -0.1186331647894E+01 -0.2530000501779E+00 -0.4987851903122E+00
-0.1760742486425E-01 -0.1159803023935E+01 -0.2354820932689E+00 -0.5281056033074E+00
 0.6058086865629E-01 -0.1138609916692E+01 -0.2156058128199E+00 -0.5555580005572E+00
 0.1574337836170E+00 -0.1124004768197E+01 -0.1933141997966E+00 -0.5788186824128E+00
 0.2739312482779E+00 -0.1117033357713E+01 -0.1686204243997E+00 -0.5950151446193E+00
 0.4102731124910E+00 -0.1118379622815E+01 -0.1416213041751E+00 -0.6007884649087E+00
 0.5656835755574E+00 -0.1128213064311E+01 -0.1125058994272E+00 -0.5924392972565E+00
 0.7382612303084E+00 -0.1146064990022E+01 -0.8156075315800E-01 -0.5661573805255E+00
 0.9249034208889E+00 -0.1170757812764E+01 -0.4917087910782E-01 -0.5183252288306E+00
 0.1121360890608E+01 -0.1200420338433E+01 -0.1581188980067E-01 -0.4458687351847E+00
 0.1322435914182E+01 -0.1232604133172E+01  0.1796635646974E-01 -0.3466010822699E+00
 0.1522315424706E+01 -0.1264497995607E+01  0.5156348658814E-01 -0.2195032790429E+00
 0.1714976010688E+01 -0.1293214438546E+01  0.8435231568532E-01 -0.6492388688132E-01
-0.3456457500898E+00 -0.1445281852220E+01 -0.3581855257993E+00  0.2767835597740E-01
-0.3175535843746E+00 -0.1457602826531E+01 -0.3550312874716E+00 -0.3302652925219E-01
-0.2899435459379E+00 -0.1469457222068E+01 -0.3518801588445E+00 -0.8565377576863E-01
-0.2633494767677E+00 -0.1480500888661E+01 -0.3487700782829E+00 -0.1302586557643E+00
-0.2382840989319E+00 -0.1490402280926E+01 -0.3457372811235E+00 -0.1672115300246E+00
-0.2152176210753E+00 -0.1498855319754E+01 -0.3428145932742E+00 -0.1971404833097E+00
-0.1945562021544E+00 -0.1505591552714E+01 -0.3400295560405E+00 -0.2208551734043E+00
-0.1766242644371E+00 -0.1510388628824E+01 -0.3374025836800E+00 -0.2392666139226E+00
-0.1616536434452E+00 -0.1513073243577E+01 -0.3349453823955E+00 -0.2533143565992E+00
-0.1497801104588E+00 -0.1513518500253E+01 -0.3326597270993E+00 -0.2639090358369E+00
-0.1410460159178E+00 -0.1511636944311E+01 -0.3305365969712E+00 -0.2718935836217E+00
-0.1354068599483E+00 -0.1507371216250E+01 -0.3285556201354E+00 -0.2780224846060E+00
-0.1327392068521E+00 -0.1500684408753E+01 -0.3266847279891E+00 -0.2829560635044E+00
-0.1328476536069E+00 -0.1491551924824E+01 -0.3248799205273E+00 -0.2872656677543E+00
-0.1354691009577E+00 -0.1479956165460E+01 -0.3230850580978E+00 -0.2914455586706E+00
-0.1402732089114E+00 -0.1465884832344E+01 -0.3212316130378E+00 -0.2959278727462E+00
-0.1468585840180E+00 -0.1449333120485E+01 -0.3192383456576E+00 -0.3010977676469E+00
-0.1547444575758E+00 -0.1430310390975E+01 -0.3170109744339E+00 -0.3073064327238E+00
-0.1633587281799E+00 -0.1408850094430E+01 -0.3144417692076E+00 -0.3148805691352E+00
-0.1720226464086E+00 -0.1385023553487E+01 -0.3114092446194E+00 -0.3241270632311E+00
-0.1799332639703E+00 -0.1358957301815E+01 -0.3077781177432E+00 -0.3353314897173E+00
-0.1861455420253E+00 -0.1330851976571E+01 -0.3033995082402E+00 -0.3487502819642E+00
-0.1895555326595E+00 -0.1301003087909E+01 -0.2981117285558E+00 -0.3645951664410E+00
-0.1888871430348E+00 -0.1269820540054E+01 -0.2917415409650E+00 -0.3830097430635E+00
-0.1826846674918E+00 -0.1237841728635E+01 -0.2841052834589E+00 -0.4040383143898E+00
-0.1693161589686E+00 -0.1205746685941E+01 -0.2750125730800E+00 -0.4275798038231E+00
-0.1469947086988E+00 -0.1174372931851E+01 -0.2642735320479E+00 -0.4533320641380E+00
-0.1138219294517E+00 -0.1144714521037E+01 -0.2517072938485E+00 -0.4807273953288E+00
-0.6785806462516E-01 -0.1117898756737E+01 -0.2371513678063E+00 -0.5088622205802E+00
-0.7222955344056E-02 -0.1095137792820E+01 -0.2204721529182E+00 -0.5364269416666E+00
 0.6976962846047E-01 -0.1077653352719E+01 -0.2015767478555E+00 -0.5616455884069E+00
 0.1644449032811E+00 -0.1066574492281E+01 -0.1804259204885E+00 -0.5822395219318E+00
 0.2775741339710E+00 -0.1062811999175E+01 -0.1570475753810E+00 -0.5954334577195E+00
 0.4091781404868E+00 -0.1066921436789E+01 -0.1315486612207E+00 -0.5980230712531E+00
 0.5583636891813E+00 -0.1078974249295E+01 -0.1041221135743E+00 -0.5865186636363E+00
 0.7232068826955E+00 -0.1098454568550E+01 -0.7504953828916E-01 -0.5573621150580E+00
 0.9007041567260E+00 -0.1124205801605E+01 -0.4470032964192E-01 -0.5072061508689E+00
 0.1086838070780E+01 -0.1154456249206E+01 -0.1352363588668E-01 -0.4332307701885E+00
 0.1276765469835E+01 -0.1186930860423E+01  0.1796692215007E-01 -0.3334487936615E+00
 0.1465118267008E+01 -0.1219044813521E+01  0.4921469143063E-01 -0.2069509093644E+00
 0.1646355684648E+01 -0.1248153585224E+01  0.7964042107150E-01 -0.5407893385436E-01
-0.3213672254286E+00 -0.1341737750633E+01 -0.3326210001688E+00  0.3212069465120E-01
-0.2962503482971E+00 -0.1352814607670E+01 -0.3298129961080E+00 -0.2868188669780E-01
-0.2716587514897E+00 -0.1363507332731E+01 -0.3270332217174E+00 -0.8152346779342E-01
-0.2480012665094E+00 -0.1373546546067E+01 -0.3243095673479E+00 -0.1264586993310E+00
-0.2256824562207E+00 -0.1382661133847E+01 -0.3216687228067E+00 -0.1638541486294E+00
-0.2050902269505E+00 -0.1390585515496E+01 -0.3191351532447E+00 -0.1943297490690E+00
-0.1865782900533E+00 -0.1397070091485E+01 -0.3167296810273E+00 -0.2186828394067E+00
-0.1704475999057E+00 -0.1401891640236E+01 -0.3144678527142E+00 -0.2378092459004E+00
-0.1569309325119E+00 -0.1404860754308E+01 -0.3123583420185E+00 -0.2526323368491E+00
-0.1461828457990E+00 -0.1405824862941E+01 -0.3104015463734E+00 -0.2640474311344E+00
-0.1382753812110E+00 -0.1404666851635E+01 -0.3085884511676E+00 -0.2728844203512E+00
-0.1331984661624E+00 -0.1401300391275E+01 -0.3068997760607E+00 -0.2798877363162E+00
-0.1308630606443E+00 -0.1395663687289E+01 -0.3053053541362E+00 -0.2857106273749E+00
-0.1311049318316E+00 -0.1387713426483E+01 -0.3037636761894E+00 -0.2909197145630E+00
-0.1336871897296E+00 -0.1377420440766E+01 -0.3022215306026E+00 -0.2960058121457E+00
-0.1383002149685E+00 -0.1364768146078E+01 -0.3006136766887E+00 -0.3013975540726E+00
-0.1445582452105E+00 -0.1349754295502E+01 -0.2988625125958E+00 -0.3074750938492E+00
-0.1519921532132E+00 -0.1332396784591E+01 -0.2968777919847E+00 -0.3145816442704E+00
-0.1600390806802E+00 -0.1312742503676E+01 -0.2945563212605E+00 -0.3230316005328E+00
-0.1680291220735E+00 -0.1290879812256E+01 -0.2917817912139E+00 -0.3331139941407E+00
-0.1751700998023E+00 -0.1266954334545E+01 -0.2884248911672E+00 -0.3450899836563E+00
-0.1805322759139E+00 -0.1241186144336E+01 -0.2843436882870E+00 -0.3591843718600E+00
-0.1830344302945E+00 -0.1213888492237E+01 -0.2793845886694E+00 -0.3755698175858E+00
-0.1814337338044E+00 -0.1185484213900E+01 -0.2733835936146E+00 -0.3943438986917E+00
-0.1743212994405E+00 -0.1156512378066E+01 -0.2661667394675E+00 -0.4154996015983E+00
-0.1601289464679E+00 -0.1127639834565E+01 -0.2575537600444E+00 -0.4388816532019E+00
-0.1371544937550E+00 -0.1099677532565E+01 -0.2473664089500E+00 -0.4641337799405E+00
-0.1036089133946E+00 -0.1073578967165E+01 -0.2354375796203E+00 -0.4906388559198E+00
-0.5768863208159E-01 -0.1050413935842E+01 -0.2216205168871E+00 -0.5174553486930E+00
 0.2324099869612E-02 -0.1031317038647E+01 -0.2057985908222E+00 -0.5432558914536E+00
 0.7793177011987E-01 -0.1017411538660E+01 -0.1878959565079E+00 -0.5662768473690E+00
 0.1702651844059E+00 -0.1009710582944E+01 -0.1678890822094E+00 -0.5842917543443E+00
 0.2799079400209E+00 -0.1009000680622E+01 -0.1458185502931E+00 -0.5946249052453E+00
 0.4067238606870E+00 -0.1015721824978E+01 -0.1217995946731E+00 -0.5942218905078E+00
 0.5497221457392E+00 -0.1029860248664E+01 -0.9602762201579E-01 -0.5797893548145E+00
 0.7069699356392E+00 -0.1050863136596E+01 -0.6877864121620E-01 -0.5479991466332E+00
 0.8755657755692E+00 -0.1077599700772E+01 -0.4040678564267E-01 -0.4957452034493E+00
 0.1051713632210E+01 -0.1108394970413E+01 -0.1133626780951E-01 -0.4204303629438E+00
 0.1230900277647E+01 -0.1141136192958E+01  0.1795281720534E-01 -0.3202395576729E+00
 0.1408165447255E+01 -0.1173446489554E+01  0.4694379223983E-01 -0.1943550622181E+00
 0.1578405636119E+01 -0.1202901122294E+01  0.7510090388412E-01 -0.4310686395394E-01
-0.2970723520050E+00 -0.1238210396095E+01 -0.3070565541954E+00  0.3609515063442E-01
-0.2748936890699E+00 -0.1248060276536E+01 -0.3045907976600E+00 -0.2478705392270E-01
-0.2532829027118E+00 -0.1257609510688E+01 -0.3021784871828E+00 -0.7779552542868E-01
-0.2325239758475E+00 -0.1266663600170E+01 -0.2998375196714E+00 -0.1229883131737E+00
-0.2129143843322E+00 -0.1275011510635E+01 -0.2975851834277E+00 -0.1607348866952E+00
-0.1947612612727E+00 -0.1282427656204E+01 -0.2954377878976E+00 -0.1916550308856E+00
-0.1783673541149E+00 -0.1288680968094E+01 -0.2934096688138E+00 -0.2165416053060E+00
-0.1640111881835E+00 -0.1293547457138E+01 -0.2915117334081E+00 -0.2362817518593E+00
-0.1519268743778E+00 -0.1296822228062E+01 -0.2897498248056E+00 -0.2517871565874E+00
-0.1422875206918E+00 -0.1298328093056E+01 -0.2881231270430E+00 -0.2639401726421E+00
-0.1351941650866E+00 -0.1297919598462E+01 -0.2866227569807E+00 -0.2735580851605E+00
-0.1306702617330E+00 -0.1295482810448E+01 -0.2852306186864E+00 -0.2813742356222E+00
-0.1286603167043E+00 -0.1290932250280E+01 -0.2839185176276E+00 -0.2880327853279E+00
-0.1290306828651E+00 -0.1284206768902E+01 -0.2826474945653E+00 -0.2940930955890E+00
-0.1315705112863E+00 -0.1275266077915E+01 -0.2813673220329E+00 -0.3000398336860E+00
-0.1359912396261E+00 -0.1264089259806E+01 -0.2800161040591E+00 -0.3062955200501E+00
-0.1419236132562E+00 -0.1250676046098E+01 -0.2785199360212E+00 -0.3132329544174E+00
-0.1489115578850E+00 -0.1235051733585E+01 -0.2767926624185E+00 -0.3211854015584E+00
-0.1564033670622E+00 -0.1217274952869E+01 -0.2747356680800E+00 -0.3304534414041E+00
-0.1637403173188E+00 -0.1197448825834E+01 -0.2722378326873E+00 -0.3413072778046E+00
-0.1701436670154E+00 -0.1175735217190E+01 -0.2691757808522E+00 -0.3539832984723E+00
-0.1747018246509E+00 -0.1152370236070E+01 -0.2654144160993E+00 -0.3686750354702E+00
-0.1763591169724E+00 -0.1127680983552E+01 -0.2608080239912E+00 -0.3855172780279E+00
-0.1739084867691E+00 -0.1102098988390E+01 -0.2552014988346E+00 -0.4045637509512E+00
-0.1659897020588E+00 -0.1076160700431E+01 -0.2484300841999E+00 -0.4257593191584E+00
-0.1510990932206E+00 -0.1050515785547E+01 -0.2403229793346E+00 -0.4488988286768E+00
-0.1276183476568E+00 -0.1025945233371E+01 -0.2307127196435E+00 -0.4735775348215E+00
-0.9386470073718E-01 -0.1003359646281E+01 -0.2194448726737E+00 -0.4991359775174E+00
-0.4816475323001E-01 -0.9837706238797E+00 -0.2063870784974E+00 -0.5246029811641E+00
 0.1104632128660E-01 -0.9682367971153E+00 -0.1914380980184E+00 -0.5486422721652E+00
 0.8510046467105E-01 -0.9577873438416E+00 -0.1745373784349E+00 -0.5695107388163E+00
 0.1749506331164E+00 -0.9533268326113E+00 -0.1556752422187E+00 -0.5850398654708E+00
 0.2810115245123E+00 -0.9555273659698E+00 -0.1349031703017E+00 -0.5926547721962E+00
 0.4030089287492E+00 -0.9647246169230E+00 -0.1123431393088E+00 -0.5894457471604E+00
 0.5398708074491E+00 -0.9808303860765E+00 -0.8819191703965E-01 -0.5723028258751E+00
 0.6896655821065E+00 -0.1003263005920E+01 -0.6271948569720E-01 -0.5381070715174E+00
 0.8495948219439E+00 -0.1030920735442E+01 -0.3626518323999E-01 -0.4839670506733E+00
 0.1016073397131E+01 -0.1062222190018E+01 -0.9229758714937E-02 -0.4074802211932E+00
 0.1184895618718E+01 -0.1095206955443E+01  0.1793773292246E-01 -0.3069792472080E+00
 0.1351476094178E+01 -0.1127690059372E+01  0.4475720762805E-01 -0.1817225670135E+00
 0.1511108416588E+01 -0.1157446391186E+01  0.7073240613443E-01 -0.3202483399701E-01
-0.2727612007556E+00 -0.1134674855539E+01 -0.2814872154534E+00  0.3960711142418E-01
-0.2534949626316E+00 -0.1143310393231E+01 -0.2793610753354E+00 -0.2133620582376E-01
-0.2348377209107E+00 -0.1151730856476E+01 -0.2773137196097E+00 -0.7446337735852E-01
-0.2169476045452E+00 -0.1159817364165E+01 -0.2753529978452E+00 -0.1198401432972E+00
-0.2000153443614E+00 -0.1167418887437E+01 -0.2734868504350E+00 -0.1578457672912E+00
-0.1842686532379E+00 -0.1174349208852E+01 -0.2717235764671E+00 -0.1891079531277E+00
-0.1699611234858E+00 -0.1180395016615E+01 -0.2700712320446E+00 -0.2144228485150E+00
-0.1573505492339E+00 -0.1185331022958E+01 -0.2685363184398E+00 -0.2346752474786E+00
-0.1466735631895E+00 -0.1188936800409E+01 -0.2671220767002E+00 -0.2507694610197E+00
-0.1381223444627E+00 -0.1191011034590E+01 -0.2658266797717E+00 -0.2635770666169E+00
-0.1318268506775E+00 -0.1191380840502E+01 -0.2646415421794E+00 -0.2739030899450E+00
-0.1278435983022E+00 -0.1189905793523E+01 -0.2635498822922E+00 -0.2824687422823E+00
-0.1261500493101E+00 -0.1186477819595E+01 -0.2625255776930E+00 -0.2899071610562E+00
-0.1266426705063E+00 -0.1181018797172E+01 -0.2615322974328E+00 -0.2967680463340E+00
-0.1291364892301E+00 -0.1173477807923E+01 -0.2605228633127E+00 -0.3035273889104E+00
-0.1333642640559E+00 -0.1163829623517E+01 -0.2594387813805E+00 -0.3105991785124E+00
-0.1389740007453E+00 -0.1152075455148E+01 -0.2582098950264E+00 -0.3183467189469E+00
-0.1455239288081E+00 -0.1138246951969E+01 -0.2567541799814E+00 -0.3270915715694E+00
-0.1524752113705E+00 -0.1122412874822E+01 -0.2549776210379E+00 -0.3371192136584E+00
-0.1591824237781E+00 -0.1104688936207E+01 -0.2527742757637E+00 -0.3486802731685E+00
-0.1648826690227E+00 -0.1085250520660E+01 -0.2500266416623E+00 -0.3619862329814E+00
-0.1686850479384E+00 -0.1064346544539E+01 -0.2466063221702E+00 -0.3771999187554E+00
-0.1695619003731E+00 -0.1042314307066E+01 -0.2423752450996E+00 -0.3944196157262E+00
-0.1663440347022E+00 -0.1019590114468E+01 -0.2371868333683E+00 -0.4136574650546E+00
-0.1577212342221E+00 -0.9967039221036E+00 -0.2308850347056E+00 -0.4348133991973E+00
-0.1422545568248E+00 -0.9742847245921E+00 -0.2233078596109E+00 -0.4576365479626E+00
-0.1184081460565E+00 -0.9530807776331E+00 -0.2142977879312E+00 -0.4816790154021E+00
-0.8460189418590E-01 -0.9339581469214E+00 -0.2037120112570E+00 -0.5062455418507E+00
-0.3928622120659E-01 -0.9178702326933E+00 -0.1914312936325E+00 -0.5303428225707E+00
 0.1896026862863E-01 -0.9058018450839E+00 -0.1773683179341E+00 -0.5526335218629E+00
 0.9131163174623E-01 -0.8986927153939E+00 -0.1614762191357E+00 -0.5714020988235E+00
 0.1785582734515E+00 -0.8973459446193E+00 -0.1437575363757E+00 -0.5845426497730E+00
 0.2809626859647E+00 -0.9023282660159E+00 -0.1242731178620E+00 -0.5895815532694E+00
 0.3981287958977E+00 -0.9138808307197E+00 -0.1031504085015E+00 -0.5837483134813E+00
 0.5289164958125E+00 -0.9318499080331E+00 -0.8058668364496E-01 -0.5641039111408E+00
 0.6714028445478E+00 -0.9556311613042E+00 -0.5684566419835E-01 -0.5277192339426E+00
 0.8228915671523E+00 -0.9841537594934E+00 -0.3225243894883E-01 -0.4718929858828E+00
 0.9799980061309E+00 -0.1015926489274E+01 -0.7185696735780E-02 -0.3943915253744E+00
 0.1138803868555E+01 -0.1049132453288E+01  0.1793428332073E-01 -0.2936734049923E+00
 0.1295069683192E+01 -0.1081764880415E+01  0.4266096119104E-01 -0.1690600432694E+00
 0.1444450649168E+01 -0.1111780937086E+01  0.6653394340792E-01 -0.2084871452445E-01
-0.2484339288098E+00 -0.1031105906384E+01 -0.2559079708520E+00  0.4266006526660E-01
-0.2320658408616E+00 -0.1038535115579E+01 -0.2541201950748E+00 -0.1832516572392E-01
-0.2163453551026E+00 -0.1045837999746E+01 -0.2524366747314E+00 -0.7152156635962E-01
-0.2013025745355E+00 -0.1052972652817E+01 -0.2508550492086E+00 -0.1170072399903E+00
-0.1870211337972E+00 -0.1059848228619E+01 -0.2493738761992E+00 -0.1551784850622E+00
-0.1736505606990E+00 -0.1066317091558E+01 -0.2479935341467E+00 -0.1866792001322E+00
-0.1613974819965E+00 -0.1072182429962E+01 -0.2467159860681E+00 -0.2123166116372E+00
-0.1505013518230E+00 -0.1077216479861E+01 -0.2455435699956E+00 -0.2329793691154E+00
-0.1412033103755E+00 -0.1081182586582E+01 -0.2444771830345E+00 -0.2495685021569E+00
-0.1337158694999E+00 -0.1083855257285E+01 -0.2435142289855E+00 -0.2629467914385E+00
-0.1281984173410E+00 -0.1085034700507E+01 -0.2426466271854E+00 -0.2739072018333E+00
-0.1247404718612E+00 -0.1084554891701E+01 -0.2418590763164E+00 -0.2831577166117E+00
-0.1233520921862E+00 -0.1082286157576E+01 -0.2411276535456E+00 -0.2913185444403E+00
-0.1239594793210E+00 -0.1078134265115E+01 -0.2404187524696E+00 -0.2989274275622E+00
-0.1264033617167E+00 -0.1072038207680E+01 -0.2396883174511E+00 -0.3064493068032E+00
-0.1304380016783E+00 -0.1063968546588E+01 -0.2388813132128E+00 -0.3142874115974E+00
-0.1357292887378E+00 -0.1053927562737E+01 -0.2379313738405E+00 -0.3227936128497E+00
-0.1418508427863E+00 -0.1041952303083E+01 -0.2367606327018E+00 -0.3322762272741E+00
-0.1482782209391E+00 -0.1028120150615E+01 -0.2352796778168E+00 -0.3430045598067E+00
-0.1543811923829E+00 -0.1012557353796E+01 -0.2333877127135E+00 -0.3552091304051E+00
-0.1594148604596E+00 -0.9954502399536E+00 -0.2309730235244E+00 -0.3690765897643E+00
-0.1625112748827E+00 -0.9770574887496E+00 -0.2279137561226E+00 -0.3847398048669E+00
-0.1626729226626E+00 -0.9577231863862E+00 -0.2240792251488E+00 -0.4022620612304E+00
-0.1587701914529E+00 -0.9378848146134E+00 -0.2193310044815E+00 -0.4216162493457E+00
-0.1495438149795E+00 -0.9180623491148E+00 -0.2135212360006E+00 -0.4426605101131E+00
-0.1336193348441E+00 -0.8988610937733E+00 -0.2064960888005E+00 -0.4651022273349E+00
-0.1095414691151E+00 -0.8809943414179E+00 -0.1981071650586E+00 -0.4884553021941E+00
-0.7582874445871E-01 -0.8652825753454E+00 -0.1882222667656E+00 -0.5119946376370E+00
-0.3104879130115E-01 -0.8526215788121E+00 -0.1767340766562E+00 -0.5347115389226E+00
 0.2608578652760E-01 -0.8439249446692E+00 -0.1635678340657E+00 -0.5552745169895E+00
 0.9660326735723E-01 -0.8400477723259E+00 -0.1486889032094E+00 -0.5720016523688E+00
 0.1811456050383E+00 -0.8416985470592E+00 -0.1321105903728E+00 -0.5828534319397E+00
 0.2798378679236E+00 -0.8493468666222E+00 -0.1139018014370E+00 -0.5854573596410E+00
 0.3921757556304E+00 -0.8631478159548E+00 -0.9419441346848E-01 -0.5771766424205E+00
 0.5169614146634E+00 -0.8828893198992E+00 -0.7318558213772E-01 -0.5552313993423E+00
 0.6522853125518E+00 -0.9079488157075E+00 -0.5113270139308E-01 -0.5168642601692E+00
 0.7955508923684E+00 -0.9372869832525E+00 -0.2834721859922E-01 -0.4595413670817E+00
 0.9435637038054E+00 -0.9694991314557E+00 -0.5187085607345E-02 -0.3811742390760E+00
 0.1092674954851E+01 -0.1002904195476E+01  0.1795415214269E-01 -0.2803274198014E+00
 0.1238966048723E+01 -0.1035662219280E+01  0.4066076649451E-01 -0.1563739592440E+00
 0.1378422602180E+01 -0.1065897975196E+01  0.6250492632820E-01 -0.9593138167193E-02
-0.2240908148161E+00 -0.9274779048593E+00 -0.2303137473670E+00  0.4525554304546E-01
-0.2106184662782E+00 -0.9337040245792E+00 -0.2288645015818E+00 -0.1575144620602E-01
-0.1978286281677E+00 -0.9398969101478E+00 -0.2275451110538E+00 -0.6896576478543E-01
-0.1856200141318E+00 -0.9460936181421E+00 -0.2263427298275E+00 -0.1144830531853E+00
-0.1739681496478E+00 -0.9522638835718E+00 -0.2252464100004E+00 -0.1527243966423E+00
-0.1629455660841E+00 -0.9582976526993E+00 -0.2242486470982E+00 -0.1843585195042E+00
-0.1527145737139E+00 -0.9640128230781E+00 -0.2233454826865E+00 -0.2102116312276E+00
-0.1434994281785E+00 -0.9691773018032E+00 -0.2225353493124E+00 -0.2311823312184E+00
-0.1355485835434E+00 -0.9735368618390E+00 -0.2218170923818E+00 -0.2481722192354E+00
-0.1290968764217E+00 -0.9768412611786E+00 -0.2211876308160E+00 -0.2620369900658E+00
-0.1243341939379E+00 -0.9788639785546E+00 -0.2206396377863E+00 -0.2735575354383E+00
-0.1213833617247E+00 -0.9794140920745E+00 -0.2201594940405E+00 -0.2834274008886E+00
-0.1202868751942E+00 -0.9783412607035E+00 -0.2197256304537E+00 -0.2922519542434E+00
-0.1210003560635E+00 -0.9755360182579E+00 -0.2193072781322E+00 -0.3005547639740E+00
-0.1233900310528E+00 -0.9709278752827E+00 -0.2188635845284E+00 -0.3087874906594E+00
-0.1272317574400E+00 -0.9644833696011E+00 -0.2183430286618E+00 -0.3173405557507E+00
-0.1322097967130E+00 -0.9562055380903E+00 -0.2176830702044E+00 -0.3265526628163E+00
-0.1379140783934E+00 -0.9461359736648E+00 -0.2168100136424E+00 -0.3367175540920E+00
-0.1438358836962E+00 -0.9343592855031E+00 -0.2156390370531E+00 -0.3480875051063E+00
-0.1493618505494E+00 -0.9210103318922E+00 -0.2140744396783E+00 -0.3608726030754E+00
-0.1537669913094E+00 -0.9062839603518E+00 -0.2120101934914E+00 -0.3752349323179E+00
-0.1562082847975E+00 -0.8904457610715E+00 -0.2093308122931E+00 -0.3912783133847E+00
-0.1557201906140E+00 -0.8738434361272E+00 -0.2059127284166E+00 -0.4090326500877E+00
-0.1512140466783E+00 -0.8569123406577E+00 -0.2016252804716E+00 -0.4284339480073E+00
-0.1414820996912E+00 -0.8401593453665E+00 -0.1963282919371E+00 -0.4493016146133E+00
-0.1252137381167E+00 -0.8241634623361E+00 -0.1898754429199E+00 -0.4713050291080E+00
-0.1010319823896E+00 -0.8096012691902E+00 -0.1821266530299E+00 -0.4939244398019E+00
-0.6754963767964E-01 -0.7972471336130E+00 -0.1729593568358E+00 -0.5164102942103E+00
-0.2344475515826E-01 -0.7879402935351E+00 -0.1622770121568E+00 -0.5377444984025E+00
 0.3244538821893E-01 -0.7825260947779E+00 -0.1500161435472E+00 -0.5566074593809E+00
 0.1010148577209E+00 -0.7817799339693E+00 -0.1361530172785E+00 -0.5713560713766E+00
 0.1827701417642E+00 -0.7863222609508E+00 -0.1207104256360E+00 -0.5800202964042E+00
 0.2777119239994E+00 -0.7965330200951E+00 -0.1037642207653E+00 -0.5803282900529E+00
 0.3852390169845E+00 -0.8124884566950E+00 -0.8544988921539E-01 -0.5697716226398E+00
 0.5041035604542E+00 -0.8339237712738E+00 -0.6596404314685E-01 -0.5457185022729E+00
 0.6324118337642E+00 -0.8602010053636E+00 -0.4555783499875E-01 -0.5055664831999E+00
 0.7676631018051E+00 -0.8903117386392E+00 -0.2452972773234E-01 -0.4469279735441E+00
 0.9068430352385E+00 -0.9229338843576E+00 -0.3218169871767E-02 -0.3678373979157E+00
 0.1046556704354E+01 -0.9565156305683E+00  0.1800821502546E-01 -0.2669467352364E+00
 0.1183185281265E+01 -0.9893748194960E+00  0.3876209293135E-01 -0.1436707390287E+00
 0.1313017706818E+01 -0.1019791816896E+01  0.5864517885836E-01  0.1728425110922E-02
-0.1997323001616E+00 -0.8237646563887E+00 -0.2046993943603E+00  0.4739303657706E-01
-0.1891656188784E+00 -0.8287859522954E+00 -0.2035903172685E+00 -0.1361430449677E-01
-0.1793112969799E+00 -0.8338727138743E+00 -0.2026368051904E+00 -0.6679279059630E-01
-0.1699320521375E+00 -0.8391435972355E+00 -0.2018151328819E+00 -0.1122614124310E+00
-0.1608936537455E+00 -0.8446295032115E+00 -0.2011046343881E+00 -0.1504744840866E+00
-0.1521928669094E+00 -0.8502566755583E+00 -0.2004899114811E+00 -0.1821346943549E+00
-0.1439508986516E+00 -0.8558553239994E+00 -0.1999612475099E+00 -0.2080953386577E+00
-0.1363807785099E+00 -0.8611864543486E+00 -0.1995134495447E+00 -0.2292709635682E+00
-0.1297419382408E+00 -0.8659762654086E+00 -0.1991436436974E+00 -0.2465673079649E+00
-0.1242942567316E+00 -0.8699487011482E+00 -0.1988485945390E+00 -0.2608343590899E+00
-0.1202597143092E+00 -0.8728503795799E+00 -0.1986220217375E+00 -0.2728406469779E+00
-0.1177950755818E+00 -0.8744660379046E+00 -0.1984522256544E+00 -0.2832639052399E+00
-0.1169752699152E+00 -0.8746255688258E+00 -0.1983201707034E+00 -0.2926927057308E+00
-0.1177850619610E+00 -0.8732051927095E+00 -0.1981980538875E+00 -0.3016342868475E+00
-0.1201159257003E+00 -0.8701256216058E+00 -0.1980483124124E+00 -0.3105249313936E+00
-0.1237653010213E+00 -0.8653496521995E+00 -0.1978229935920E+00 -0.3197403824657E+00
-0.1284361682327E+00 -0.8588808664656E+00 -0.1974634098821E+00 -0.3296046418239E+00
-0.1337355160208E+00 -0.8507646608118E+00 -0.1969000383006E+00 -0.3403957554696E+00
-0.1391714857716E+00 -0.8410915946175E+00 -0.1960526189992E+00 -0.3523483193804E+00
-0.1441490420938E+00 -0.8300033471293E+00 -0.1948304807478E+00 -0.3656518616903E+00
-0.1479647756849E+00 -0.8177010256567E+00 -0.1931331631462E+00 -0.3804443466951E+00
-0.1498023134063E+00 -0.8044544729456E+00 -0.1908513601143E+00 -0.3968016087018E+00
-0.1487296298801E+00 -0.7906120711859E+00 -0.1878683430127E+00 -0.4147218808215E+00
-0.1437000806671E+00 -0.7766040289629E+00 -0.1840608246687E+00 -0.4341066575830E+00
-0.1335576687218E+00 -0.7629213127441E+00 -0.1792957989649E+00 -0.4547395613434E+00
-0.1170546653160E+00 -0.7501144087346E+00 -0.1734338173945E+00 -0.4762554532201E+00
-0.9288980426892E-01 -0.7388218353601E+00 -0.1663423304045E+00 -0.4981050609867E+00
-0.5976555254508E-01 -0.7297717430484E+00 -0.1579074614717E+00 -0.5195191757422E+00
-0.1646346836002E-01 -0.7237483012496E+00 -0.1480423561279E+00 -0.5394755735587E+00
 0.3806369835388E-01 -0.7215318740987E+00 -0.1366936371859E+00 -0.5566718168586E+00
 0.1045868569352E+00 -0.7238231595284E+00 -0.1238472623641E+00 -0.5695080678840E+00
 0.1834890083004E+00 -0.7311608915988E+00 -0.1095343782919E+00 -0.5760863234480E+00
 0.2746579236514E+00 -0.7438421616410E+00 -0.9383684899620E-01 -0.5742347737759E+00
 0.3774047942527E+00 -0.7618704918506E+00 -0.7689314066537E-01 -0.5615683717089E+00
 0.4904371265482E+00 -0.7849325472996E+00 -0.5889908502794E-01 -0.5355932381688E+00
 0.6118771893309E+00 -0.8123762866784E+00 -0.4009982006703E-01 -0.4938462799557E+00
 0.7393147267035E+00 -0.8432223566145E+00 -0.2078152629187E-01 -0.4340663052630E+00
 0.8699055398026E+00 -0.8762269676975E+00 -0.1264285597824E-02 -0.3543894056266E+00
 0.1000495173153E+01 -0.9099619929665E+00  0.1810663630703E-01 -0.2535371338691E+00
 0.1127747604709E+01 -0.9428965353757E+00  0.3697021441753E-01 -0.1309569610634E+00
 0.1248232113069E+01 -0.9734573328800E+00  0.5495495685664E-01  0.1310353534145E-01
-0.1753590350415E+00 -0.7199392833973E+00 -0.1790596663560E+00  0.4906989913339E-01
-0.1677208982760E+00 -0.7237488046706E+00 -0.1782939432461E+00 -0.1191480905138E-01
-0.1608183310991E+00 -0.7277295070206E+00 -0.1777095702720E+00 -0.6500061799536E-01
-0.1542721256958E+00 -0.7320849636147E+00 -0.1772714205037E+00 -0.1103364842407E+00
-0.1478360414404E+00 -0.7369079685261E+00 -0.1769488046300E+00 -0.1484192839859E+00
-0.1414324590557E+00 -0.7421594014154E+00 -0.1767183747275E+00 -0.1799954782925E+00
-0.1351453945792E+00 -0.7476786851128E+00 -0.1765648185694E+00 -0.2059538285443E+00
-0.1291815604360E+00 -0.7532165716636E+00 -0.1764796290497E+00 -0.2272307251694E+00
-0.1238159379064E+00 -0.7584770155885E+00 -0.1764585933284E+00 -0.2447392761166E+00
-0.1193368892592E+00 -0.7631566158774E+00 -0.1764987036574E+00 -0.2593247319404E+00
-0.1160005724012E+00 -0.7669747396284E+00 -0.1765950650374E+00 -0.2717426275160E+00
-0.1139985990844E+00 -0.7696922436446E+00 -0.1767381711794E+00 -0.2826532949165E+00
-0.1134384432890E+00 -0.7711201667982E+00 -0.1769117246536E+00 -0.2926264799736E+00
-0.1143337353935E+00 -0.7711214051624E+00 -0.1770910307500E+00 -0.3021509775333E+00
-0.1166008742835E+00 -0.7696086520833E+00 -0.1772419079145E+00 -0.3116457204968E+00
-0.1200587533848E+00 -0.7665413499716E+00 -0.1773200233136E+00 -0.3214700776573E+00
-0.1244292713452E+00 -0.7619235232673E+00 -0.1772705615640E+00 -0.3319320123418E+00
-0.1293370542787E+00 -0.7558037435041E+00 -0.1770281621945E+00 -0.3432929570321E+00
-0.1343080472119E+00 -0.7482773698320E+00 -0.1765170860391E+00 -0.3557693787424E+00
-0.1387667868701E+00 -0.7394912571636E+00 -0.1756516114242E+00 -0.3695303095508E+00
-0.1420328812980E+00 -0.7296506797115E+00 -0.1743367147997E+00 -0.3846902089173E+00
-0.1433180793684E+00 -0.7190272707117E+00 -0.1724690725860E+00 -0.4012981188923E+00
-0.1417251571119E+00 -0.7079673847097E+00 -0.1699385108966E+00 -0.4193223894026E+00
-0.1362502916884E+00 -0.6968933257507E+00 -0.1666287259708E+00 -0.4386323672781E+00
-0.1257892200077E+00 -0.6862776467436E+00 -0.1624133757704E+00 -0.4589787085919E+00
-0.1091558693796E+00 -0.6766403882519E+00 -0.1571592538681E+00 -0.4799649695067E+00
-0.8512185061801E-01 -0.6685810063598E+00 -0.1507405736418E+00 -0.5010160590971E+00
-0.5247447903690E-01 -0.6627816872995E+00 -0.1430512353989E+00 -0.5213473287164E+00
-0.1009182560227E-01 -0.6599733385533E+00 -0.1340130348281E+00 -0.5399369965137E+00
 0.4296695698258E-01 -0.6608748450854E+00 -0.1235815794621E+00 -0.5555043090702E+00
 0.1073602259973E+00 -0.6661172639608E+00 -0.1117514092579E+00 -0.5664965154830E+00
 0.1833585875480E+00 -0.6761637034330E+00 -0.9856102464568E-01 -0.5710898275824E+00
 0.2707469887024E+00 -0.6912346067103E+00 -0.8409752485472E-01 -0.5672118838595E+00
 0.3687564022698E+00 -0.7112659054205E+00 -0.6850190165089E-01 -0.5525965671915E+00
 0.4760528926642E+00 -0.7358986167434E+00 -0.5196914559025E-01 -0.5248787268665E+00
 0.5907727514408E+00 -0.7644664884005E+00 -0.3473874790958E-01 -0.4817203094178E+00
 0.7105893295076E+00 -0.7960161235506E+00 -0.1708535906320E-01 -0.4209678042349E+00
 0.8328184595531E+00 -0.8293771150077E+00  0.6882689193388E-03 -0.3408383201139E+00
 0.9545349626373E+00 -0.8632402606840E+00  0.1825894066273E-01 -0.2401051009508E+00
 0.1072673187711E+01 -0.8962220170808E+00  0.3529023465184E-01 -0.1182396624434E+00
 0.1184064253167E+01 -0.9268894165507E+00  0.5143496808967E-01  0.2452059755447E-01
-0.1509719324196E+00 -0.6159740859601E+00 -0.1533892059616E+00  0.5028121911221E-01
-0.1462989263181E+00 -0.6185593695729E+00 -0.1529716614577E+00 -0.1065592125384E-01
-0.1423762169952E+00 -0.6214301537760E+00 -0.1527612764306E+00 -0.6358838479657E-01
-0.1386753072670E+00 -0.6248789693788E+00 -0.1527108576047E+00 -0.1087027071101E+00
-0.1348351157048E+00 -0.6290613185283E+00 -0.1527792891232E+00 -0.1465487825976E+00
-0.1307053112371E+00 -0.6339705577955E+00 -0.1529351760854E+00 -0.1779274951464E+00
-0.1263375009787E+00 -0.6394513990726E+00 -0.1531577822925E+00 -0.2037717989756E+00
-0.1219380585990E+00 -0.6452401314241E+00 -0.1534356402910E+00 -0.2250457008313E+00
-0.1178030577662E+00 -0.6510151121640E+00 -0.1537636362773E+00 -0.2426724923315E+00
-0.1142535072056E+00 -0.6564436327123E+00 -0.1541394302804E+00 -0.2574931630736E+00
-0.1115822749647E+00 -0.6612172179255E+00 -0.1545599008811E+00 -0.2702492015919E+00
-0.1100169487241E+00 -0.6650732680422E+00 -0.1550180456632E+00 -0.2815816845851E+00
-0.1096977185035E+00 -0.6678049386718E+00 -0.1555005337522E+00 -0.2920394000092E+00
-0.1106667642533E+00 -0.6692628914653E+00 -0.1559859334681E+00 -0.3020906168308E+00
-0.1128649906909E+00 -0.6693526938022E+00 -0.1564435392298E+00 -0.3121350678237E+00
-0.1161324853515E+00 -0.6680309334819E+00 -0.1568326861037E+00 -0.3225142252357E+00
-0.1202101118696E+00 -0.6653020867399E+00 -0.1571024420629E+00 -0.3335188738234E+00
-0.1247405402387E+00 -0.6612173885744E+00 -0.1571915881050E+00 -0.3453931159747E+00
-0.1292682725792E+00 -0.6558759763633E+00 -0.1570288521284E+00 -0.3583350344180E+00
-0.1332384561466E+00 -0.6494283831317E+00 -0.1565333701882E+00 -0.3724934084225E+00
-0.1359949348385E+00 -0.6420821279940E+00 -0.1556154148853E+00 -0.3879599657930E+00
-0.1367788255290E+00 -0.6341083678840E+00 -0.1541774409800E+00 -0.4047582723648E+00
-0.1347287635197E+00 -0.6258489409814E+00 -0.1521155431669E+00 -0.4228286466714E+00
-0.1288843287606E+00 -0.6177157290062E+00 -0.1493200137784E+00 -0.4420106280856E+00
-0.1181927579478E+00 -0.6101606145370E+00 -0.1456706766676E+00 -0.4620245831535E+00
-0.1015282083138E+00 -0.6036715337455E+00 -0.1410399505135E+00 -0.4824456913824E+00
-0.7773214998229E-01 -0.5988081513227E+00 -0.1353080622772E+00 -0.5026763071201E+00
-0.4567179397325E-01 -0.5962072232055E+00 -0.1283758053487E+00 -0.5219199787898E+00
-0.4314682036601E-02 -0.5965484618164E+00 -0.1201726305613E+00 -0.5391592620675E+00
 0.4718258144209E-01 -0.6004929649644E+00 -0.1106620783535E+00 -0.5531389334968E+00
 0.1093760240379E+00 -0.6086072535318E+00 -0.9984624738660E-01 -0.5623565953466E+00
 0.1824342035880E+00 -0.6212847182292E+00 -0.8777010423613E-01 -0.5650645967551E+00
 0.2660481394813E+00 -0.6386748657219E+00 -0.7452534635864E-01 -0.5592896213848E+00
 0.3593743315992E+00 -0.6606503201057E+00 -0.6025519859917E-01 -0.5428807172898E+00
 0.4610385703817E+00 -0.6868081667105E+00 -0.4515391993861E-01 -0.5135933955336E+00
 0.5691870944052E+00 -0.7164664466292E+00 -0.2945587088373E-01 -0.4692016395429E+00
 0.6815682900677E+00 -0.7486932550985E+00 -0.1342499320622E-01 -0.4076419692248E+00
 0.7956474596228E+00 -0.7823857217532E+00  0.2652347613443E-02 -0.3271921017031E+00
 0.9087195016683E+00 -0.8163492235517E+00  0.1847405589859E-01 -0.2266582750032E+00
 0.1017981814715E+01 -0.8493464223062E+00  0.3372707898442E-01 -0.1055267851732E+00
 0.1120514281203E+01 -0.8800823925602E+00  0.4808637844517E-01  0.3596862829867E-01
-0.1265722314748E+00 -0.5118403929525E+00 -0.1276825267881E+00  0.5101966757405E-01
-0.1249155788147E+00 -0.5131831165787E+00 -0.1276197409804E+00 -0.9842591448555E-02
-0.1240132989526E+00 -0.5149360848342E+00 -0.1277898786616E+00 -0.6255639216081E-01
-0.1231786609841E+00 -0.5174856052824E+00 -0.1281328551626E+00 -0.1073546976198E+00
-0.1219323730950E+00 -0.5210507170462E+00 -0.1285966199445E+00 -0.1448522705899E+00
-0.1200535331309E+00 -0.5256544424913E+00 -0.1291415970488E+00 -0.1759160993916E+00
-0.1175672050836E+00 -0.5311418790807E+00 -0.1297418187662E+00 -0.2015324626077E+00
-0.1146866337171E+00 -0.5372296944849E+00 -0.1303832675833E+00 -0.2226985819196E+00
-0.1117355725502E+00 -0.5435665990579E+00 -0.1310604362746E+00 -0.2403502306587E+00
-0.1090725568188E+00 -0.5497882271251E+00 -0.1317721587523E+00 -0.2553240154071E+00
-0.1070300939571E+00 -0.5555575395311E+00 -0.1325175286723E+00 -0.2683458324913E+00
-0.1058730309445E+00 -0.5605889364317E+00 -0.1332923954615E+00 -0.2800353396089E+00
-0.1057744466140E+00 -0.5646587720861E+00 -0.1340866457381E+00 -0.2909181126319E+00
-0.1068046717956E+00 -0.5676066979595E+00 -0.1348822759609E+00 -0.3014398380172E+00
-0.1089285743348E+00 -0.5693321785195E+00 -0.1356521525922E+00 -0.3119793211776E+00
-0.1120070325390E+00 -0.5697895661617E+00 -0.1363593217721E+00 -0.3228587911801E+00
-0.1157997642454E+00 -0.5689839117207E+00 -0.1369567372340E+00 -0.3343509101776E+00
-0.1199677186862E+00 -0.5669687189059E+00 -0.1373872895656E+00 -0.3466819307689E+00
-0.1240745222397E+00 -0.5638460117203E+00 -0.1375841088422E+00 -0.3600314830545E+00
-0.1275867703237E+00 -0.5597686537295E+00 -0.1374710868591E+00 -0.3745285076260E+00
-0.1298735508063E+00 -0.5549446597564E+00 -0.1369636441534E+00 -0.3902429217335E+00
-0.1302063834611E+00 -0.5496426373102E+00 -0.1359698061804E+00 -0.4071742436712E+00
-0.1277606194838E+00 -0.5441976289264E+00 -0.1343916516846E+00 -0.4252366686323E+00
-0.1216196404493E+00 -0.5390087942260E+00 -0.1321256889039E+00 -0.4442422390638E+00
-0.1107817901611E+00 -0.5345053035500E+00 -0.1290574206653E+00 -0.4638835611265E+00
-0.9417989273672E-01 -0.5311415376076E+00 -0.1250642879325E+00 -0.4837100765123E+00
-0.7072214239459E-01 -0.5294368485865E+00 -0.1200317999848E+00 -0.5031044085643E+00
-0.3935060691217E-01 -0.5299833048362E+00 -0.1138667840464E+00 -0.5212613632950E+00
 0.8847655823045E-03 -0.5334116855244E+00 -0.1065053855755E+00 -0.5371710680161E+00
 0.5073877298769E-01 -0.5403291418116E+00 -0.9791807522387E-01 -0.5496070264376E+00
 0.1106750402353E+00 -0.5512428134998E+00 -0.8811355596591E-01 -0.5571199694373E+00
 0.1807698324066E+00 -0.5664821626653E+00 -0.7714246720126E-01 -0.5580401441426E+00
 0.2606281504120E+00 -0.5861310957905E+00 -0.6510059004577E-01 -0.5504931915783E+00
 0.3493363156136E+00 -0.6100025087064E+00 -0.5213323939541E-01 -0.5324403999589E+00
 0.4454791325627E+00 -0.6376502319226E+00 -0.3843422044469E-01 -0.5017511287368E+00
 0.5472066091177E+00 -0.6683738209508E+00 -0.2423344272772E-01 -0.4562997900478E+00
 0.6523316655681E+00 -0.7012569908598E+00 -0.9785065204157E-02 -0.3940963681398E+00
 0.7584575183511E+00 -0.7352572325934E+00  0.4640057220680E-02 -0.3134588179458E+00
 0.8630914930871E+00 -0.7692898776937E+00  0.1876032335824E-01 -0.2132060315775E+00
 0.9636925583534E+00 -0.8022653542909E+00  0.3228544129359E-01 -0.9282786914941E-01
 0.1057583559461E+01 -0.8330295015914E+00  0.4491081224316E-01  0.4743690831297E-01
-0.1021615711565E+00 -0.4075083946879E+00 -0.1019339946878E+00  0.5127531823225E-01
-0.1035882501830E+00 -0.4075839643071E+00 -0.1022344444214E+00 -0.9481868656842E-02
-0.1057601614600E+00 -0.4082070622563E+00 -0.1027934462750E+00 -0.6190609107354E-01
-0.1078216294971E+00 -0.4098634372486E+00 -0.1035370148920E+00 -0.1062871186328E+00
-0.1091712971330E+00 -0.4128364097674E+00 -0.1044015429358E+00 -0.1433181483053E+00
-0.1095205279330E+00 -0.4171750059332E+00 -0.1053391083429E+00 -0.1739451909129E+00
-0.1088750585526E+00 -0.4227186347108E+00 -0.1063187402370E+00 -0.1992174258812E+00
-0.1074636399515E+00 -0.4291581272688E+00 -0.1073243550433E+00 -0.2201706312337E+00
-0.1056454186853E+00 -0.4361077914517E+00 -0.1083506436419E+00 -0.2377547118871E+00
-0.1038220404266E+00 -0.4431689279433E+00 -0.1093981953041E+00 -0.2528010518712E+00
-0.1023689130040E+00 -0.4499751678170E+00 -0.1104688178103E+00 -0.2660178342447E+00
-0.1015895027707E+00 -0.4562184807648E+00 -0.1115615983695E+00 -0.2780007836951E+00
-0.1016898844131E+00 -0.4616596717688E+00 -0.1126699129153E+00 -0.2892498749164E+00
-0.1027680112077E+00 -0.4661287756878E+00 -0.1137793590745E+00 -0.3001861829168E+00
-0.1048120200921E+00 -0.4695203236064E+00 -0.1148664704513E+00 -0.3111659878668E+00
-0.1077030201574E+00 -0.4717871756298E+00 -0.1158980408845E+00 -0.3224911094538E+00
-0.1112193121500E+00 -0.4729351922312E+00 -0.1168309026172E+00 -0.3344153399836E+00
-0.1150401910715E+00 -0.4730198655285E+00 -0.1176120130726E+00 -0.3471467555004E+00
-0.1187487933435E+00 -0.4721453432519E+00 -0.1181788290801E+00 -0.3608466443802E+00
-0.1218338061786E+00 -0.4704656224712E+00 -0.1184598874951E+00 -0.3756246837806E+00
-0.1236903690643E+00 -0.4681876383360E+00 -0.1183756032440E+00 -0.3915300398203E+00
-0.1236212446073E+00 -0.4655755677128E+00 -0.1178393642200E+00 -0.4085397171870E+00
-0.1208391815786E+00 -0.4629555784857E+00 -0.1167589537527E+00 -0.4265437480605E+00
-0.1144716192374E+00 -0.4607120049234E+00 -0.1150367265463E+00 -0.4453289580559E+00
-0.1035675101383E+00 -0.4592494410811E+00 -0.1125633919212E+00 -0.4645625758642E+00
-0.8711670726336E-01 -0.4589874159936E+00 -0.1092208262789E+00 -0.4837706567797E+00
-0.6409093889572E-01 -0.4604045904207E+00 -0.1048991074264E+00 -0.5023184789515E+00
-0.3350205490634E-01 -0.4640492250646E+00 -0.9951025747701E-01 -0.5193945944212E+00
 0.5524656106211E-02 -0.4705055580115E+00 -0.9299618176681E-01 -0.5339992842860E+00
 0.5366418040704E-01 -0.4803307442719E+00 -0.8533331404453E-01 -0.5449373478234E+00
 0.1112974694966E+00 -0.4939777575717E+00 -0.7653605875549E-01 -0.5508149676656E+00
 0.1784178307840E+00 -0.5117178744693E+00 -0.6666000973035E-01 -0.5500419571108E+00
 0.2545513898591E+00 -0.5335744970887E+00 -0.5580462227746E-01 -0.5408432526675E+00
 0.3387173464986E+00 -0.5593038295988E+00 -0.4411729727744E-01 -0.5212904463020E+00
 0.4294570600608E+00 -0.5884162203504E+00 -0.3179183253165E-01 -0.4893613339936E+00
 0.5249160223626E+00 -0.6201887737492E+00 -0.1905455056126E-01 -0.4430206479673E+00
 0.6229590077882E+00 -0.6537135738324E+00 -0.6150913300484E-02 -0.3803364594649E+00
 0.7213138986972E+00 -0.6879995866711E+00  0.6662862504498E-02 -0.2996466715718E+00
 0.8176934451304E+00 -0.7220660838448E+00  0.1912547254212E-01 -0.1997601278679E+00
 0.9098232200126E+00 -0.7549749597304E+00  0.3096965251792E-01 -0.8015505659207E-01
 0.9952738261227E+00 -0.7857222775045E+00  0.4191031034815E-01  0.5891452279516E-01
-0.7774207961021E-01 -0.3029469539271E+00 -0.7613780784199E-01  0.5103542633014E-01
-0.8233616482123E-01 -0.3017240234127E+00 -0.7681203879137E-01 -0.9583029563268E-02
-0.8765007005028E-01 -0.3012009316018E+00 -0.7777020148929E-01 -0.6164005636398E-01
-0.9264646538564E-01 -0.3019694567695E+00 -0.7892318560707E-01 -0.1054945067755E+00
-0.9659766682732E-01 -0.3043777258933E+00 -0.8019507973913E-01 -0.1419336797319E+00
-0.9915113154322E-01 -0.3084960005139E+00 -0.8152942762630E-01 -0.1719969868334E+00
-0.1003021644885E+00 -0.3141505224798E+00 -0.8289053862884E-01 -0.1968065443728E+00
-0.1003053106493E+00 -0.3209988940375E+00 -0.8426084219294E-01 -0.2174416436970E+00
-0.9956403282253E-01 -0.3286155615859E+00 -0.8563592015776E-01 -0.2348671546144E+00
-0.9852934759367E-01 -0.3365645699220E+00 -0.8701878479981E-01 -0.2499075433352E+00
-0.9762307302991E-01 -0.3444495164577E+00 -0.8841451921500E-01 -0.2632505009336E+00
-0.9718863975024E-01 -0.3519407157531E+00 -0.8982587243917E-01 -0.2754649215935E+00
-0.9746508460188E-01 -0.3587849093780E+00 -0.9125000015570E-01 -0.2870226524725E+00
-0.9857727502038E-01 -0.3648041133984E+00 -0.9267627906474E-01 -0.2983181666286E+00
-0.1005357441531E+00 -0.3698892551357E+00 -0.9408500125973E-01 -0.3096837627237E+00
-0.1032411041423E+00 -0.3739925704210E+00 -0.9544673633492E-01 -0.3213998732733E+00
-0.1064898058387E+00 -0.3771210720493E+00 -0.9672217701887E-01 -0.3337008720463E+00
-0.1099793918537E+00 -0.3793320692557E+00 -0.9786229368015E-01 -0.3467765205209E+00
-0.1133127192235E+00 -0.3807311956941E+00 -0.9880878445589E-01 -0.3607700469416E+00
-0.1160010237112E+00 -0.3814725344620E+00 -0.9949471311722E-01 -0.3757725908877E+00
-0.1174661128291E+00 -0.3817605399862E+00 -0.9984533205088E-01 -0.3918137556267E+00
-0.1170426515823E+00 -0.3818532680241E+00 -0.9977918540812E-01 -0.4088496658021E+00
-0.1139813175020E+00 -0.3820661253677E+00 -0.9920949005227E-01 -0.4267482030230E+00
-0.1074537588225E+00 -0.3827666945850E+00 -0.9804409214247E-01 -0.4452732308512E+00
-0.9655898476446E-01 -0.3843332720092E+00 -0.9617845278791E-01 -0.4640688456297E+00
-0.8034222588199E-01 -0.3871493420211E+00 -0.9349831497386E-01 -0.4826397891647E+00
-0.5783556241911E-01 -0.3916525717839E+00 -0.8989762818018E-01 -0.5003359496463E+00
-0.2811556633502E-01 -0.3983483591653E+00 -0.8529278637102E-01 -0.5163415466550E+00
 0.9624180872678E-02 -0.4077768573133E+00 -0.7963053647472E-01 -0.5296689488044E+00
 0.5598760463018E-01 -0.4204492451733E+00 -0.7289232919481E-01 -0.5391561951215E+00
 0.1112826198983E+00 -0.4367696157091E+00 -0.6509740013219E-01 -0.5434668044130E+00
 0.1754286768519E+00 -0.4569568385094E+00 -0.5630563317054E-01 -0.5410917705875E+00
 0.2478796462917E+00 -0.4809788183002E+00 -0.4661983509639E-01 -0.5303561755216E+00
 0.3275896575215E+00 -0.5085377457121E+00 -0.3618961817739E-01 -0.5094411143040E+00
 0.4130525416243E+00 -0.5390994931554E+00 -0.2520939068186E-01 -0.4764289807408E+00
 0.5023988641562E+00 -0.5719136455124E+00 -0.1390295647842E-01 -0.4293663238631E+00
 0.5935302012205E+00 -0.6060721900603E+00 -0.2508397805339E-02 -0.3663652436081E+00
 0.6842833838823E+00 -0.6406248439275E+00  0.8731708121068E-02 -0.2857637693202E+00
 0.7725686336348E+00 -0.6746858501330E+00  0.1957655699208E-01 -0.1863353784821E+00
 0.8563897774579E+00 -0.7074726246404E+00  0.2978343100731E-01 -0.6752463707064E-01
 0.9335860909636E+00 -0.7381500463312E+00  0.3908720950893E-01  0.7038960184468E-01
-0.5331647982305E-01 -0.1981233852373E+00 -0.5028797376142E-01  0.5028417374307E-01
-0.6118074472048E-01 -0.1955632988892E+00 -0.5134880948708E-01 -0.1015772081465E-01
-0.6971948159955E-01 -0.1938733441393E+00 -0.5271856593334E-01 -0.6176193301099E-01
-0.7769871247998E-01 -0.1937589309701E+00 -0.5429152949901E-01 -0.1049710390377E+00
-0.8425987692350E-01 -0.1956331130224E+00 -0.5597859882333E-01 -0.1406846759968E+00
-0.8899172842575E-01 -0.1995811845176E+00 -0.5771458344867E-01 -0.1700517367672E+00
-0.9189012286021E-01 -0.2054070533135E+00 -0.5945943612076E-01 -0.1942777468722E+00
-0.9324760222969E-01 -0.2127263930688E+00 -0.6119479997157E-01 -0.2144898994529E+00
-0.9352215966936E-01 -0.2210676489879E+00 -0.6291796266900E-01 -0.2316678337226E+00
-0.9322107029479E-01 -0.2299545525079E+00 -0.6463512552367E-01 -0.2466263896311E+00
-0.9281621481156E-01 -0.2389601546150E+00 -0.6635527487409E-01 -0.2600292483369E+00
-0.9269220976684E-01 -0.2477342010048E+00 -0.6808528316889E-01 -0.2724151703952E+00
-0.9312079687788E-01 -0.2560111566159E+00 -0.6982639173925E-01 -0.2842252221161E+00
-0.9425281762270E-01 -0.2636068537607E+00 -0.7157193534319E-01 -0.2958253433925E+00
-0.9612012346989E-01 -0.2704101152487E+00 -0.7330604883605E-01 -0.3075225553789E+00
-0.9864192563500E-01 -0.2763735421550E+00 -0.7500309467563E-01 -0.3195751251932E+00
-0.1016322324597E+00 -0.2815057413712E+00 -0.7662759590801E-01 -0.3321976606356E+00
-0.1048065776871E+00 -0.2858657682406E+00 -0.7813447034983E-01 -0.3455616547560E+00
-0.1077875818620E+00 -0.2895602235419E+00 -0.7946956226496E-01 -0.3597927182750E+00
-0.1101093064769E+00 -0.2927423760833E+00 -0.8057033771264E-01 -0.3749643180242E+00
-0.1112206602900E+00 -0.2956129732942E+00 -0.8136672792930E-01 -0.3910878017171E+00
-0.1104887021994E+00 -0.2984224503163E+00 -0.8178223172179E-01 -0.4081001427583E+00
-0.1072024408651E+00 -0.3014737538187E+00 -0.8173524015471E-01 -0.4258491400786E+00
-0.1005778156731E+00 -0.3051159487482E+00 -0.8113875409331E-01 -0.4440779355112E+00
-0.8976333739533E-01 -0.3096994225912E+00 -0.7989255318780E-01 -0.4624096160008E+00
-0.7385801134171E-01 -0.3155704757292E+00 -0.7788569857476E-01 -0.4803294204150E+00
-0.5195115941094E-01 -0.3231254913201E+00 -0.7501533126403E-01 -0.4971733845814E+00
-0.2317908267052E-01 -0.3328279397942E+00 -0.7120140555393E-01 -0.5121227571089E+00
 0.1320335147731E-01 -0.3451763383009E+00 -0.6639459835408E-01 -0.5242032779185E+00
 0.5773775450521E-01 -0.3606399321491E+00 -0.6058043643150E-01 -0.5322875351471E+00
 0.1106686589228E+00 -0.3795792943208E+00 -0.5378212788102E-01 -0.5350978160067E+00
 0.1718507233364E+00 -0.4021667859175E+00 -0.4606321320261E-01 -0.5312078600207E+00
 0.2406719322255E+00 -0.4283199001267E+00 -0.3752959413946E-01 -0.5190443115326E+00
 0.3160226558545E+00 -0.4576893497229E+00 -0.2833333919589E-01 -0.4968982457988E+00
 0.3963436091080E+00 -0.4896949295644E+00 -0.1867026436948E-01 -0.4629546058214E+00
 0.4797378305236E+00 -0.5235525442361E+00 -0.8762942873073E-02 -0.4153349697241E+00
 0.5641261993238E+00 -0.5583446574617E+00  0.1156308389650E-02 -0.3521827268668E+00
 0.6474357321763E+00 -0.5931497351077E+00  0.1085719957550E-01 -0.2718173921333E+00
 0.7277627308419E+00 -0.6271634027325E+00  0.2011986592169E-01 -0.1729500793329E+00
 0.8034058880672E+00 -0.6597587300995E+00  0.2872943202163E-01 -0.5495935675794E-01
 0.8725188741973E+00 -0.6902996053308E+00  0.3644385431636E-01  0.8184798359067E-01
-0.2888821818660E-01 -0.9300319078369E-01 -0.2437828215732E-01  0.4900235977829E-01
-0.4014604783965E-01 -0.8905933161962E-01 -0.2584107627692E-01 -0.1122012160174E-01
-0.5200864038530E-01 -0.8617742916782E-01 -0.2763721432245E-01 -0.6227635287658E-01
-0.6302774502602E-01 -0.8518523689661E-01 -0.2964259682623E-01 -0.1047102308231E+00
-0.7220926649698E-01 -0.8656019366516E-01 -0.3175389250560E-01 -0.1395551031274E+00
-0.7909033308098E-01 -0.9039456729947E-01 -0.3389698058120E-01 -0.1680873840598E+00
-0.8368092181413E-01 -0.9645873583384E-01 -0.3602793206645E-01 -0.1916068386260E+00
-0.8632598665515E-01 -0.1043163050114E+00 -0.3812845890146E-01 -0.2112921241587E+00
-0.8754962381060E-01 -0.1134429531183E+00 -0.4019851598478E-01 -0.2281361614786E+00
-0.8792280014372E-01 -0.1233190546259E+00 -0.4224837158347E-01 -0.2429402668745E+00
-0.8797111825505E-01 -0.1334869492391E+00 -0.4429161415883E-01 -0.2563397783977E+00
-0.8812135292111E-01 -0.1435773287640E+00 -0.4633973702753E-01 -0.2688396075931E+00
-0.8867737970867E-01 -0.1533145377532E+00 -0.4839838421356E-01 -0.2808472855959E+00
-0.8981478983239E-01 -0.1625103258285E+00 -0.5046502388416E-01 -0.2926983794546E+00
-0.9158544681775E-01 -0.1710530839000E+00 -0.5252770692628E-01 -0.3046735224037E+00
-0.9392607586368E-01 -0.1788968804522E+00 -0.5456459207626E-01 -0.3170082516816E+00
-0.9666749546003E-01 -0.1860524442726E+00 -0.5654398878911E-01 -0.3298972663196E+00
-0.9954282468608E-01 -0.1925805937976E+00 -0.5842468456733E-01 -0.3434940158881E+00
-0.1021943318947E+00 -0.1985884884558E+00 -0.6015656496651E-01 -0.3579070860394E+00
-0.1041790093136E+00 -0.2042278258478E+00 -0.6168136795140E-01 -0.3731932613670E+00
-0.1049731234607E+00 -0.2096945956018E+00 -0.6293354475028E-01 -0.3893470494706E+00
-0.1039764597950E+00 -0.2152303060007E+00 -0.6384135411045E-01 -0.4062880927464E+00
-0.1005166496246E+00 -0.2211239304882E+00 -0.6432811698112E-01 -0.4238462371085E+00
-0.9385396901597E-01 -0.2277043989284E+00 -0.6431167454719E-01 -0.4417461449400E+00
-0.8318592118443E-01 -0.2352926611663E+00 -0.6369571741928E-01 -0.4595919175189E+00
-0.6766379386766E-01 -0.2441967013732E+00 -0.6237209997760E-01 -0.4768508628679E+00
-0.4643117815305E-01 -0.2547712758811E+00 -0.6024049170449E-01 -0.4928463038891E+00
-0.1867923482608E-01 -0.2674387766113E+00 -0.5722360314018E-01 -0.5067573298318E+00
 0.1628282087797E-01 -0.2826584475459E+00 -0.5327512612744E-01 -0.5176236808659E+00
 0.5894305430969E-01 -0.3008616057194E+00 -0.4838371100292E-01 -0.5243531440316E+00
 0.1094923946314E+00 -0.3223707324482E+00 -0.4257566819779E-01 -0.5257277129760E+00
 0.1677299521917E+00 -0.3473177799923E+00 -0.3591756609533E-01 -0.5204053523288E+00
 0.2329842419326E+00 -0.3755751786808E+00 -0.2851818777458E-01 -0.5069162725472E+00
 0.3040827665772E+00 -0.4067448047752E+00 -0.2053240794555E-01 -0.4836634077982E+00
 0.3794061798322E+00 -0.4401983907576E+00 -0.1215844236624E-01 -0.4489342699882E+00
 0.4570149922469E+00 -0.4751108151695E+00 -0.3619164638464E-02 -0.4009206060935E+00
 0.5348294441467E+00 -0.5105446300118E+00  0.4856962899355E-02 -0.3377853058877E+00
 0.6108451278337E+00 -0.5455955616498E+00  0.1304991343123E-01 -0.2578124937569E+00
 0.6833264735981E+00 -0.5795221103349E+00  0.2076087296200E-01 -0.1596255174163E+00
 0.7508827792530E+00 -0.6118405237570E+00  0.2780845151358E-01 -0.4249177855905E-01
 0.8120649416978E+00 -0.6421552983671E+00  0.3398192917249E-01  0.9327063581560E-01
-0.4461621833335E-02  0.1245025749676E-01  0.1597727156492E-02  0.4716703569132E-01
-0.1925930067632E-01  0.1783321536336E-01 -0.2852170668435E-03 -0.1278712286702E-01
-0.3456228588219E-01  0.2193655769065E-01 -0.2525145675936E-02 -0.6318880431040E-01
-0.4868738104980E-01  0.2380026678451E-01 -0.4977422927227E-02 -0.1047045413759E+00
-0.6050045809033E-01  0.2288407798623E-01 -0.7523276132924E-02 -0.1385265945743E+00
-0.6949663056534E-01  0.1909920840071E-01 -0.1007948458312E-01 -0.1660791650531E+00
-0.7571676760321E-01  0.1272243948212E-01 -0.1259886581196E-01 -0.1887672866187E+00
-0.7957518962570E-01  0.4253935812680E-02 -0.1506425098708E-01 -0.2078234650363E+00
-0.8167506801239E-01 -0.5721925721997E-02 -0.1747939900734E-01 -0.2242508004090E+00
-0.8265891401246E-01 -0.1663933183638E-01 -0.1985964946570E-01 -0.2388318079677E+00
-0.8310954657080E-01 -0.2801028213364E-01 -0.2222396607205E-01 -0.2521682704699E+00
-0.8349647609574E-01 -0.3944848726561E-01 -0.2458899303867E-01 -0.2647271375014E+00
-0.8415473124154E-01 -0.5067076395626E-01 -0.2696509944137E-01 -0.2768795944761E+00
-0.8528309377253E-01 -0.6148716790027E-01 -0.2935405277197E-01 -0.2889291322289E+00
-0.8695188574927E-01 -0.7178750001598E-01 -0.3174787762613E-01 -0.3011291032211E+00
-0.8911408004250E-01 -0.8152849559814E-01 -0.3412851563668E-01 -0.3136919808915E+00
-0.9161641233351E-01 -0.9072360103649E-01 -0.3646800321742E-01 -0.3267926209920E+00
-0.9420904394162E-01 -0.9943548670363E-01 -0.3872890670616E-01 -0.3405668269876E+00
-0.9655362755989E-01 -0.1077715610603E+00 -0.4086503833298E-01 -0.3551068887538E+00
-0.9823002644317E-01 -0.1158813317522E+00 -0.4282227227717E-01 -0.3704540093473E+00
-0.9874194914822E-01 -0.1239551563939E+00 -0.4453942177212E-01 -0.3865873671973E+00
-0.9752208685026E-01 -0.1322245084347E+00 -0.4594931974169E-01 -0.4034111813171E+00
-0.9393688725328E-01 -0.1409630642315E+00 -0.4697999099701E-01 -0.4207395447566E+00
-0.8729100010572E-01 -0.1504781436098E+00 -0.4755382945171E-01 -0.4382809064531E+00
-0.7683050455131E-01 -0.1610597902881E+00 -0.4757805967686E-01 -0.4556223371161E+00
-0.6175765096872E-01 -0.1729765052444E+00 -0.4694683194219E-01 -0.4722145799929E+00
-0.4126753374939E-01 -0.1865409603907E+00 -0.4556169950695E-01 -0.4873690137832E+00
-0.1460148988962E-01 -0.2021351515320E+00 -0.4334732893024E-01 -0.5002628456497E+00
 0.1888374865660E-01 -0.2201812373235E+00 -0.4025949833330E-01 -0.5099497847647E+00
 0.5963150322942E-01 -0.2410764970826E+00 -0.3628899931139E-01 -0.5153727701555E+00
 0.1077891019207E+00 -0.2651107879897E+00 -0.3146433768266E-01 -0.5153738755628E+00
 0.1631097501477E+00 -0.2923820184155E+00 -0.2585445403882E-01 -0.5086965989123E+00
 0.2248692947760E+00 -0.3227233743266E+00 -0.1957081620176E-01 -0.4939772807463E+00
 0.2918332174888E+00 -0.3556909172090E+00 -0.1277154013434E-01 -0.4697340959548E+00
 0.3623140786701E+00 -0.3906062536620E+00 -0.5658435082705E-02 -0.4343595020589E+00
 0.4343120465508E+00 -0.4265947222852E+00  0.1543464876111E-02 -0.3861130236131E+00
 0.5057238940208E+00 -0.4626866170984E+00  0.8607455512744E-02 -0.3231655147423E+00
 0.5745913018988E+00 -0.4979865540142E+00  0.1532094980520E-01 -0.2437493634838E+00
 0.6393201003413E+00 -0.5317981655616E+00  0.2150438727639E-01 -0.1463832109059E+00
 0.6988312078131E+00 -0.5637405641316E+00  0.2701812913892E-01 -0.3016867252227E-01
 0.7522048192431E+00 -0.5937010327139E+00  0.3170075777821E-01  0.1046277829714E+00
 0.1995790939802E-01  0.1182761140614E+00  0.2764680510385E-01  0.4475107341952E-01
 0.1448455842737E-02  0.1251630741104E+00  0.2532230636795E-01 -0.1487852052172E-01
-0.1743049071508E-01  0.1305216668507E+00  0.2261823556417E-01 -0.6450543458877E-01
-0.3473657131663E-01  0.1332483899411E+00  0.1970236401848E-01 -0.1049448581104E+00
-0.4919168943002E-01  0.1327432236518E+00  0.1671030709335E-01 -0.1375778462390E+00
-0.6026194792963E-01  0.1289344288959E+00  0.1373449639790E-01 -0.1639991384159E+00
-0.6803982636363E-01  0.1221624842034E+00  0.1082453172926E-01 -0.1857299905146E+00
-0.7302885507852E-01  0.1130046855005E+00  0.7995166203525E-02 -0.2040574903821E+00
-0.7592564604844E-01  0.1021131017371E+00  0.5237491215779E-02 -0.2199898135125E+00
-0.7745234072911E-01  0.9010209006812E-01  0.2529949905501E-02 -0.2342838169937E+00
-0.7825208964304E-01  0.7748886136552E-01 -0.1526456577790E-03 -0.2475015953829E+00
-0.7883715606627E-01  0.6467391821727E-01 -0.2832647612010E-02 -0.2600676688840E+00
-0.7957223178228E-01  0.5194488208087E-01 -0.5525470022618E-02 -0.2723140774222E+00
-0.8067734869693E-01  0.3949070365903E-01 -0.8237329130325E-02 -0.2845107265770E+00
-0.8223947417640E-01  0.2741817475372E-01 -0.1096426004791E-01 -0.2968830508978E+00
-0.8422638701988E-01  0.1576661953157E-01 -0.1369195370169E-01 -0.3096203753989E+00
-0.8649971530770E-01  0.4519233886492E-02 -0.1639609652856E-01 -0.3228779896993E+00
-0.8882599762426E-01 -0.6388645086047E-02 -0.1904292882582E-01 -0.3367746131154E+00
-0.9088587262851E-01 -0.1706444971373E-01 -0.2159006479017E-01 -0.3513870905860E+00
-0.9228185781998E-01 -0.2765501026983E-01 -0.2398737397540E-01 -0.3667422361918E+00
-0.9254501806391E-01 -0.3834435631911E-01 -0.2617787526669E-01 -0.3828054902625E+00
-0.9114097653526E-01 -0.4935302500675E-01 -0.2809880072711E-01 -0.3994676380847E+00
-0.8747510036754E-01 -0.6093827022788E-01 -0.2968267456139E-01 -0.4165293006794E+00
-0.8089646412249E-01 -0.7338447101214E-01 -0.3085618748672E-01 -0.4336850299367E+00
-0.7069944236705E-01 -0.8694934257113E-01 -0.3152975745747E-01 -0.4505067907681E+00
-0.5613616283461E-01 -0.1018606654410E+00 -0.3159936612599E-01 -0.4664299633566E+00
-0.3645073581788E-01 -0.1183883956250E+00 -0.3096782675004E-01 -0.4807544171216E+00
-0.1093024670759E-01 -0.1368745660349E+00 -0.2956096298899E-01 -0.4926552438563E+00
 0.2102772928225E-01 -0.1577061616990E+00 -0.2733568689069E-01 -0.5011994281802E+00
 0.5983059899316E-01 -0.1812500989829E+00 -0.2428390035982E-01 -0.5053642731877E+00
 0.1055924001486E+00 -0.2077690542647E+00 -0.2043533112774E-01 -0.5040516405393E+00
 0.1580306838219E+00 -0.2373335688834E+00 -0.1586057724864E-01 -0.4960915689955E+00
 0.2163762291694E+00 -0.2697440521160E+00 -0.1067356474836E-01 -0.4802295290800E+00
 0.2793336785878E+00 -0.3045145896947E+00 -0.5036182296424E-02 -0.4551039674398E+00
 0.3451388565551E+00 -0.3409146165749E+00  0.8448480086423E-03 -0.4192171776896E+00
 0.4117106926601E+00 -0.3780110187154E+00  0.6739934889360E-02 -0.3708974418425E+00
 0.4768945715557E+00 -0.4147853732693E+00  0.1242183984238E-01 -0.3083126292594E+00
 0.5387584428976E+00 -0.4503448749214E+00  0.1768271385874E-01 -0.2296214200908E+00
 0.5958200932190E+00 -0.4840412444383E+00  0.2235577008926E-01 -0.1332363278510E+00
 0.6472672812329E+00 -0.5155159614828E+00  0.2635026434268E-01 -0.1805565021985E-01
 0.6928962964481E+00 -0.5449240650822E+00  0.2959444671418E-01  0.1158664841138E+00
 0.4436366274183E-01  0.2245165560635E+00  0.5377604456239E-01  0.4172264143799E-01
 0.2194156816317E-01  0.2329829902704E+00  0.5098491244644E-01 -0.1751722539850E-01
-0.6696680653386E-03  0.2396347365021E+00  0.4779301439953E-01 -0.6623276855235E-01
-0.2124018328766E-01  0.2432122113329E+00  0.4439440627057E-01 -0.1054198336669E+00
-0.3834513286871E-01  0.2430609050203E+00  0.4094315504042E-01 -0.1366838800128E+00
-0.5143914088110E-01  0.2391436917629E+00  0.3754091073576E-01 -0.1618156527804E+00
-0.6069186610105E-01  0.2318847344764E+00  0.3423857418526E-01 -0.1824630637462E+00
-0.6671913455546E-01  0.2219535185957E+00  0.3104687727067E-01 -0.1999662426528E+00
-0.7032667764824E-01  0.2100775179744E+00  0.2795016848173E-01 -0.2153308796198E+00
-0.7232432138591E-01  0.1969211757923E+00  0.2491937125260E-01 -0.2292795399993E+00
-0.7341802044881E-01  0.1830287677225E+00  0.2192214978140E-01 -0.2423275700212E+00
-0.7416206445935E-01  0.1688114060832E+00  0.1892986860685E-01 -0.2548523183971E+00
-0.7494871013632E-01  0.1545575150616E+00  0.1592176122232E-01 -0.2671439829375E+00
-0.7601687934647E-01  0.1404520691825E+00  0.1288703815924E-01 -0.2794376406084E+00
-0.7746810798464E-01  0.1265963262998E+00  0.9825643809451E-02 -0.2919304699494E+00
-0.7928337640858E-01  0.1130243532182E+00  0.6748195462478E-02 -0.3047888318478E+00
-0.8133806743223E-01  0.9971533265511E-01  0.3675453099345E-02 -0.3181489410115E+00
-0.8341432920830E-01  0.8660244096999E-01  0.6376223618392E-03 -0.3321131494991E+00
-0.8521126828928E-01  0.7357838024417E-01 -0.2326577643691E-02 -0.3467438118362E+00
-0.8635369059435E-01  0.6049936250100E-01 -0.5170865695722E-02 -0.3620546157871E+00
-0.8639976135579E-01  0.4718820227248E-01 -0.7842311933522E-02 -0.3779989156568E+00
-0.8484790428857E-01  0.3343598191890E-01 -0.1028238462715E-01 -0.3944561267142E+00
-0.8114241789442E-01  0.1900278062786E-01 -0.1242792763850E-01 -0.4112157700196E+00
-0.7467688244481E-01  0.3628335576432E-02 -0.1420970958542E-01 -0.4279608982304E+00
-0.6479386245815E-01 -0.1291135952869E-01 -0.1554104462895E-01 -0.4442503110651E+00
-0.5079457332839E-01 -0.3080203064507E-01 -0.1631932103787E-01 -0.4595051147269E+00
-0.3197000717678E-01 -0.5027005899900E-01 -0.1644801348025E-01 -0.4730138187431E+00
-0.7648903165512E-02 -0.7161761490618E-01 -0.1585330385057E-01 -0.4839486910441E+00
 0.2273676864423E-01 -0.9519803157013E-01 -0.1449225280113E-01 -0.4913886428610E+00
 0.5956732852169E-01 -0.1213511899200E+00 -0.1235677246380E-01 -0.4943437650092E+00
 0.1029341878072E+00 -0.1503179004261E+00 -0.9476742665001E-02 -0.4917746276271E+00
 0.1525303348353E+00 -0.1821483124217E+00 -0.5923595605552E-02 -0.4825983085995E+00
 0.2075501998303E+00 -0.2166174027240E+00 -0.1813440605768E-02 -0.4656727038631E+00
 0.2666400048778E+00 -0.2532022175416E+00  0.2687557507275E-02 -0.4397630298627E+00
 0.3279490694024E+00 -0.2911190338720E+00  0.7366007215839E-02 -0.4034898590489E+00
 0.3892936136517E+00 -0.3293650804698E+00  0.1198570681498E-01 -0.3552532442929E+00
 0.4484277554862E+00 -0.3668589491777E+00  0.1631376150479E-01 -0.2932142734782E+00
 0.5034299071766E+00 -0.4026821061271E+00  0.2014956051017E-01 -0.2154173256826E+00
 0.5529238298354E+00 -0.4363019225589E+00  0.2332438180284E-01 -0.1201715891288E+00
 0.5962395734153E+00 -0.4672943219458E+00  0.2578905067820E-01 -0.6229817862549E-02
 0.6340286592503E+00 -0.4958454876713E+00  0.2763663472762E-01  0.1268697645501E+00
 0.6874731462560E-01  0.3312174240503E+00  0.7999294892716E-01  0.3804459284510E-01
 0.4217877775509E-01  0.3413504696934E+00  0.7670585063270E-01 -0.2072947169536E-01
 0.1565621530600E-01  0.3493369515902E+00  0.7299863446700E-01 -0.6837730008713E-01
-0.8269888156805E-02  0.3537471265039E+00  0.6909544869903E-01 -0.1061150159714E+00
-0.2802717643786E-01  0.3538804218725E+00  0.6517065005805E-01 -0.1358151360497E+00
-0.4308235841218E-01  0.3497570970192E+00  0.6133494863537E-01 -0.1594927419927E+00
-0.5371377028565E-01  0.3419090242285E+00  0.5763905164746E-01 -0.1789316314658E+00
-0.6067618713690E-01  0.3311145763979E+00  0.5408767865817E-01 -0.1955203553618E+00
-0.6490126267604E-01  0.3181840112179E+00  0.5065655046322E-01 -0.2102515779790E+00
-0.6729416548742E-01  0.3038321551307E+00  0.4730759863359E-01 -0.2238029880770E+00
-0.6862516731692E-01  0.2886268965114E+00  0.4400034649455E-01 -0.2366352421183E+00
-0.6948891575886E-01  0.2729853836145E+00  0.4069929417759E-01 -0.2490736262594E+00
-0.7030243300656E-01  0.2571926332368E+00  0.3737804060302E-01 -0.2613640229059E+00
-0.7132072433584E-01  0.2414263893064E+00  0.3402113350108E-01 -0.2737057865538E+00
-0.7265756089594E-01  0.2257801597185E+00  0.3062452022086E-01 -0.2862678474449E+00
-0.7430537838787E-01  0.2102814340489E+00  0.2719521153745E-01 -0.2991940746699E+00
-0.7615208830968E-01  0.1949047455260E+00  0.2375053179717E-01 -0.3126023139992E+00
-0.7799460108709E-01  0.1795809420080E+00  0.2031726848693E-01 -0.3265794102963E+00
-0.7954987132399E-01  0.1642029723015E+00  0.1693062044780E-01 -0.3411742652308E+00
-0.8046448732481E-01  0.1486303445475E+00  0.1363317164768E-01 -0.3563887472721E+00
-0.8032328595031E-01  0.1326930519478E+00  0.1047395335556E-01 -0.3721658137456E+00
-0.7865719113359E-01  0.1161942460129E+00  0.7507411087728E-02 -0.3883756354460E+00
-0.7494934424598E-01  0.9891201060043E-01  0.4792533342304E-02 -0.4047991061491E+00
-0.6863794877131E-01  0.8061119659184E-01  0.2394649599789E-02 -0.4211102929990E+00
-0.5911386192389E-01  0.6110283654664E-01  0.3977949304779E-03 -0.4368568408886E+00
-0.4572695189101E-01  0.4024470481952E-01 -0.1096449430636E-02 -0.4514466209709E+00
-0.2781338871829E-01  0.1785512581921E-01 -0.1991652609494E-02 -0.4641567081593E+00
-0.4739889448791E-02 -0.6327893632732E-02 -0.2213556649289E-02 -0.4741554137943E+00
 0.2403332061978E-01 -0.3262504054960E-01 -0.1718344011571E-02 -0.4805315938168E+00
 0.5886823535490E-01 -0.6135197656924E-01 -0.4967482502713E-03 -0.4823257232028E+00
 0.9984467883404E-01 -0.9273266496419E-01  0.1422402795166E-02 -0.4785550678921E+00
 0.1466431368929E+00 -0.1268040745000E+00  0.3967812537690E-02 -0.4682234889619E+00
 0.1984321483725E+00 -0.1633240795314E+00  0.7021613872840E-02 -0.4503045359018E+00
 0.2538032130932E+00 -0.2017393853530E+00  0.1041276570320E-01 -0.4236982994693E+00
 0.3108114106485E+00 -0.2412131252941E+00  0.1391965727831E-01 -0.3871549433042E+00
 0.3671396583645E+00 -0.2806628158265E+00  0.1729536876532E-01 -0.3391567161730E+00
 0.4204251075816E+00 -0.3189185031748E+00  0.2030132118387E-01 -0.2778459695446E+00
 0.4686618037469E+00 -0.3550332739732E+00  0.2272570629339E-01 -0.2011512775014E+00
 0.5107612767655E+00 -0.3885215385230E+00  0.2444794801280E-01 -0.1071056136898E+00
 0.5458571557183E+00 -0.4194035982437E+00  0.2529071187178E-01  0.5252087963743E-02
 0.5754420102353E+00 -0.4465227864072E+00  0.2578384514984E-01  0.1373919093477E+00
 0.9309857133309E-01  0.4384291032732E+00  0.1063055365053E+00  0.3367375276539E-01
 0.6211197389185E-01  0.4503286309714E+00  0.1024881224998E+00 -0.2454502095248E-01
 0.3147418301866E-01  0.4596945737866E+00  0.9823375282486E-01 -0.7094493566636E-01
 0.4094835339261E-02  0.4649108217331E+00  0.9380113281222E-01 -0.1070117067910E+00
-0.1830862091938E-01  0.4652440376715E+00  0.8938708468238E-01 -0.1349363804562E+00
-0.3524663988527E-01  0.4608012528790E+00  0.8511092386700E-01 -0.1569894644745E+00
-0.4714488939634E-01  0.4522507548651E+00  0.8102117430106E-01 -0.1750976844801E+00
-0.5492757789330E-01  0.4404979153922E+00  0.7711406864887E-01 -0.1906892717956E+00
-0.5966985577814E-01  0.4264422296314E+00  0.7335447586372E-01 -0.2047297690965E+00
-0.6237900902626E-01  0.4108474236745E+00  0.6969368396816E-01 -0.2178393277449E+00
-0.6388980718313E-01  0.3942999250752E+00  0.6608202456312E-01 -0.2304152120045E+00
-0.6483444048685E-01  0.3772172579486E+00  0.6247656442332E-01 -0.2427257866027E+00
-0.6565111645842E-01  0.3598762475641E+00  0.5884502709799E-01 -0.2549705177127E+00
-0.6660766107103E-01  0.3424439286348E+00  0.5516725433480E-01 -0.2673125870389E+00
-0.6782751115983E-01  0.3250038095546E+00  0.5143526044540E-01 -0.2798930776623E+00
-0.6931269917613E-01  0.3075755286226E+00  0.4765256659938E-01 -0.2928341439982E+00
-0.7096238097655E-01  0.2901283917531E+00  0.4383320280848E-01 -0.3062361816450E+00
-0.7258732957047E-01  0.2725907825010E+00  0.4000069118216E-01 -0.3201715174037E+00
-0.7392164710183E-01  0.2548559871682E+00  0.3618686855250E-01 -0.3346766972254E+00
-0.7463306834176E-01  0.2367869674404E+00  0.3243078030298E-01 -0.3497430915290E+00
-0.7433249568438E-01  0.2182210480897E+00  0.2877771090987E-01 -0.3653049564607E+00
-0.7258286623806E-01  0.1989736474710E+00  0.2527815662326E-01 -0.3812253872666E+00
-0.6890595543115E-01  0.1788412536390E+00  0.2198705996920E-01 -0.3972792298212E+00
-0.6278474016375E-01  0.1576146145679E+00  0.1896597516344E-01 -0.4131342320408E+00
-0.5365870702449E-01  0.1351410571859E+00  0.1629647027511E-01 -0.4283290254100E+00
-0.4092635306894E-01  0.1113234125549E+00  0.1407941210699E-01 -0.4422593083562E+00
-0.2396783022648E-01  0.8602614500305E-01  0.1241166314026E-01 -0.4541904986408E+00
-0.2184667789610E-02  0.5902824383355E-01  0.1136871537820E-01 -0.4632854646450E+00
 0.2494038067407E-01  0.3004131417153E-01  0.1099633913298E-01 -0.4686404381753E+00
 0.5775957790006E-01 -0.1228188801165E-02  0.1130627798826E-01 -0.4693230265099E+00
 0.9635251001570E-01 -0.3499186986251E-01  0.1227212821351E-01 -0.4644040999997E+00
 0.1404003705612E+00 -0.7128078127084E-01  0.1382391806406E-01 -0.4529729595942E+00
 0.1890581875893E+00 -0.1098451399504E+00  0.1584260976384E-01 -0.4341215865885E+00
 0.2408696039024E+00 -0.1501100870640E+00  0.1815190363816E-01 -0.4068941027831E+00
 0.2937867064157E+00 -0.1911883876886E+00  0.2051966405118E-01 -0.3701859029459E+00
 0.3453357526928E+00 -0.2319062758988E+00  0.2268589569685E-01 -0.3225754859089E+00
 0.3929623035512E+00 -0.2709821311326E+00  0.2439603484725E-01 -0.2621911624358E+00
 0.4346240645846E+00 -0.3073975149458E+00  0.2544531030693E-01 -0.1867854814483E+00
 0.4690954250013E+00 -0.3407760366349E+00  0.2566387805570E-01 -0.9417236135307E-01
 0.4970944220164E+00 -0.3714098921630E+00  0.2513690634525E-01  0.1708060425440E-01
 0.5154598115173E+00 -0.3992712007091E+00  0.2323772250791E-01  0.1460846324091E+00
 0.1174055329300E+00  0.5462100098610E+00  0.1327231105359E+00  0.2856226680321E-01
 0.8168719558233E-01  0.5600007076365E+00  0.1283375825561E+00 -0.2899668521158E-01
 0.4670327674441E-01  0.5708015138003E+00  0.1235009599492E+00 -0.7393891254220E-01
 0.1576886074486E-01  0.5767940888251E+00  0.1185125916800E+00 -0.1080840291694E+00
-0.9261524529618E-02  0.5772319316808E+00  0.1135940831229E+00 -0.1340032042601E+00
-0.2798405308702E-01  0.5723466479982E+00  0.1088725206046E+00 -0.1542561253151E+00
-0.4101893231218E-01  0.5629768820456E+00  0.1043915915022E+00 -0.1709159470796E+00
-0.4949418609668E-01  0.5501740524788E+00  0.1001359747686E+00 -0.1854365223399E+00
-0.5464624319030E-01  0.5349316067806E+00  0.9605707414943E-01 -0.1987380730425E+00
-0.5758977835988E-01  0.5180582656798E+00  0.9209369883629E-01 -0.2113684645675E+00
-0.5922249334288E-01  0.5001519690041E+00  0.8818589644632E-01 -0.2236523245828E+00
-0.6020996061983E-01  0.4816237679454E+00  0.8428276272102E-01 -0.2357965011411E+00
-0.6100715278318E-01  0.4627369463202E+00  0.8034595990465E-01 -0.2479524738562E+00
-0.6189100432723E-01  0.4436441650013E+00  0.7635063327252E-01 -0.2602473245424E+00
-0.6299184267500E-01  0.4244166816242E+00  0.7228496886696E-01 -0.2727951076323E+00
-0.6431936347844E-01  0.4050650715389E+00  0.6814914262759E-01 -0.2856973357524E+00
-0.6578266472130E-01  0.3855528984293E+00  0.6395404769459E-01 -0.2990380585401E+00
-0.6720547311181E-01  0.3658059758700E+00  0.5972010144154E-01 -0.3128761641471E+00
-0.6833830286702E-01  0.3457179923982E+00  0.5547593873288E-01 -0.3272369502294E+00
-0.6886931427926E-01  0.3251554154744E+00  0.5125722100281E-01 -0.3421025670454E+00
-0.6843473136101E-01  0.3039628540069E+00  0.4710562523110E-01 -0.3574002127337E+00
-0.6662886892930E-01  0.2819679070668E+00  0.4306780826925E-01 -0.3729880730549E+00
-0.6301186033610E-01  0.2589855557709E+00  0.3919473967100E-01 -0.3886376154716E+00
-0.5711173268687E-01  0.2348329871784E+00  0.3554425142795E-01 -0.4040131066021E+00
-0.4841732382054E-01  0.2093950142823E+00  0.3219553857209E-01 -0.4186464799571E+00
-0.3637634597744E-01  0.1826212538514E+00  0.2924898201064E-01 -0.4319223965434E+00
-0.2041247029378E-01  0.1544241595793E+00  0.2680233825649E-01 -0.4430942968028E+00
 0.4038670503449E-04  0.1246251634737E+00  0.2493311040729E-01 -0.4513178218472E+00
 0.2548203428790E-01  0.9296869077664E-01  0.2369014536592E-01 -0.4556934833236E+00
 0.5626322145732E-01  0.5918223127133E-01  0.2308909088978E-01 -0.4553119575570E+00
 0.9247482602754E-01  0.2306294497163E-01  0.2310755454416E-01 -0.4492935030172E+00
 0.1338130578484E+00 -0.1542132332022E-01  0.2367834725848E-01 -0.4368102532783E+00
 0.1794344346175E+00 -0.5602359774843E-01  0.2468216774160E-01 -0.4170746365879E+00
 0.2278443579910E+00 -0.9815902376301E-01  0.2593706723209E-01 -0.3892850651686E+00
 0.2768885754226E+00 -0.1408957621767E+00  0.2719856305447E-01 -0.3525020673995E+00
 0.3238988143500E+00 -0.1829600551308E+00  0.2818775226388E-01 -0.3054236724404E+00
 0.3660943503405E+00 -0.2229236703928E+00  0.2863413641623E-01 -0.2461712802201E+00
 0.4012027383981E+00 -0.2596641608557E+00  0.2830771593030E-01 -0.1722899530652E+00
 0.4283693485717E+00 -0.2928590061872E+00  0.2710206888076E-01 -0.8124600137800E-01
 0.4475305126652E+00 -0.3232700684299E+00  0.2485208921738E-01  0.2882206009142E-01
 0.4629588016785E+00 -0.3522477040341E+00  0.2214221985883E-01  0.1565877840503E+00
 0.1416523570085E+00  0.6546228360626E+00  0.1592550409873E+00  0.2264643446384E-01
 0.1008376420661E+00  0.6704459359331E+00  0.1542567178984E+00 -0.3412509406163E-01
 0.6124649652808E-01  0.6827369500989E+00  0.1487966915426E+00 -0.7736434988942E-01
 0.2665339269894E-01  0.6894589431416E+00  0.1432224693023E+00 -0.1093033379995E+00
-0.9662029400538E-03  0.6898812848845E+00  0.1377830184420E+00 -0.1329679948934E+00
-0.2135006766496E-01  0.6844088680166E+00  0.1326117620464E+00 -0.1512427028805E+00
-0.3537035174850E-01  0.6740904440633E+00  0.1277440203665E+00 -0.1663448717746E+00
-0.4439707017014E-01  0.6601426250376E+00  0.1231491128086E+00 -0.1797329351331E+00
-0.4984507084574E-01  0.6436546566149E+00  0.1187619189235E+00 -0.1922588549447E+00
-0.5293939968896E-01  0.6254731651886E+00  0.1145067548062E+00 -0.2043814549351E+00
-0.5463692451699E-01  0.6061983210627E+00  0.1103122809529E+00 -0.2163432767204E+00
-0.5563092542485E-01  0.5862266604728E+00  0.1061191485909E+00 -0.2282856373377E+00
-0.5638786818431E-01  0.5658021292964E+00  0.1018828537406E+00 -0.2403112027982E+00
-0.5718968309627E-01  0.5450593060219E+00  0.9757392603908E-01 -0.2525116700325E+00
-0.5817066667220E-01  0.5240550698836E+00  0.9317688203073E-01 -0.2649753601254E+00
-0.5934622002505E-01  0.5027898851541E+00  0.8868873434737E-01 -0.2777845413658E+00
-0.6063410014728E-01  0.4812212036271E+00  0.8411742194941E-01 -0.2910082225606E+00
-0.6187009456269E-01  0.4592722642300E+00  0.7948043511781E-01 -0.3046930305700E+00
-0.6282036843066E-01  0.4368372598859E+00  0.7480337940570E-01 -0.3188541339880E+00
-0.6319268537356E-01  0.4137861626509E+00  0.7011869650031E-01 -0.3334656876891E+00
-0.6264765691425E-01  0.3899706449078E+00  0.6546459857421E-01 -0.3484494074195E+00
-0.6081009307270E-01  0.3652301038610E+00  0.6088400306490E-01 -0.3636607273637E+00
-0.5727800841426E-01  0.3393977333885E+00  0.5642394583563E-01 -0.3788705237500E+00
-0.5162473809228E-01  0.3123173652677E+00  0.5213852621200E-01 -0.3937426670847E+00
-0.4338944805233E-01  0.2839123043707E+00  0.4810457198048E-01 -0.4078050054238E+00
-0.3207016672188E-01  0.2541807287379E+00  0.4442211306515E-01 -0.4204325241722E+00
-0.1713428411581E-01  0.2230852431993E+00  0.4119019243048E-01 -0.4308664319459E+00
 0.1953625780816E-02  0.1904917932782E+00  0.3848908438533E-01 -0.4382532194620E+00
 0.2568038681696E-01  0.1561790950464E+00  0.3637189691465E-01 -0.4416941788000E+00
 0.5440300943329E-01  0.1198958258512E+00  0.3485976757635E-01 -0.4402981939712E+00
 0.8823524969100E-01  0.8144558794569E-01  0.3393616803303E-01 -0.4332293416171E+00
 0.1269038455563E+00  0.4078881551721E-01  0.3353853271446E-01 -0.4197380891134E+00
 0.1695845733724E+00 -0.1841637608928E-02  0.3354858765261E-01 -0.3991574565786E+00
 0.2147597194908E+00 -0.4586555888904E-01  0.3377883262370E-01 -0.3708502145650E+00
 0.2601672936445E+00 -0.9031784120520E-01  0.3396989099406E-01 -0.3340655796004E+00
 0.3029189986191E+00 -0.1338178618529E+00  0.3382022785720E-01 -0.2876549390616E+00
 0.3399077765759E+00 -0.1747586312187E+00  0.3302982956364E-01 -0.2297483627943E+00
 0.3686419172782E+00 -0.2118376694013E+00  0.3136085004270E-01 -0.1576723779964E+00
 0.3880827421271E+00 -0.2447972116543E+00  0.2865710652159E-01 -0.6832872047596E-01
 0.3996520568364E+00 -0.2746734053035E+00  0.2499573067904E-01  0.4030614508490E-01
 0.4047510845521E+00 -0.3048601890588E+00  0.1997817939636E-01  0.1695427137974E+00
 0.1658183358058E+00  0.7637356131639E+00  0.1859107925642E+00  0.1586096202913E-01
 0.1194805081244E+00  0.7817407089296E+00  0.1802442460966E+00 -0.3997037405745E-01
 0.7498769510761E-01  0.7955654600200E+00  0.1741106336200E+00 -0.8121660024544E-01
 0.3663487141964E-01  0.8029371698083E+00  0.1679144107477E+00 -0.1106257993639E+00
 0.6489992609724E-02  0.8031838342585E+00  0.1619347677867E+00 -0.1317682734200E+00
-0.1540092317500E-01  0.7969462473460E+00  0.1563090671634E+00 -0.1478887333698E+00
-0.3023134985812E-01  0.7855290433025E+00  0.1510595409398E+00 -0.1613379025447E+00
-0.3965472290180E-01  0.7703318272901E+00  0.1461354230553E+00 -0.1735487485992E+00
-0.4527952750444E-01  0.7525371132522E+00  0.1414515192574E+00 -0.1852767596100E+00
-0.4844086689443E-01  0.7330183184671E+00  0.1369154923547E+00 -0.1968732720726E+00
-0.5014830145869E-01  0.7123660838001E+00  0.1324435584419E+00 -0.2084896036669E+00
-0.5111547870729E-01  0.6909532973620E+00  0.1279675656378E+00 -0.2201985114217E+00
-0.5181425017724E-01  0.6689985233051E+00  0.1234368564649E+00 -0.2320540021900E+00
-0.5252709488967E-01  0.6466146945763E+00  0.1188175217078E+00 -0.2441138614284E+00
-0.5338927554422E-01  0.6238424571701E+00  0.1140906380252E+00 -0.2564424969355E+00
-0.5441996525371E-01  0.6006713912496E+00  0.1092502868271E+00 -0.2691046714064E+00
-0.5554434967161E-01  0.5770526981302E+00  0.1043016712459E+00 -0.2821558636537E+00
-0.5660942019520E-01  0.5529072119718E+00  0.9925955983439E-01 -0.2956317153372E+00
-0.5739621403888E-01  0.5281298380474E+00  0.9414672620460E-01 -0.3095383873837E+00
-0.5763116227899E-01  0.5025940588732E+00  0.8899258064494E-01 -0.3238431872198E+00
-0.5699808647392E-01  0.4761582540300E+00  0.8383203476040E-01 -0.3384638138953E+00
-0.5515105740174E-01  0.4486729319940E+00  0.7870437609123E-01 -0.3532550548553E+00
-0.5172514099781E-01  0.4199887843925E+00  0.7365272977645E-01 -0.3679900810922E+00
-0.4633905459387E-01  0.3899760388113E+00  0.6872739786760E-01 -0.3823357327814E+00
-0.3858338146817E-01  0.3585971596277E+00  0.6400275658563E-01 -0.3958187696169E+00
-0.2800796455230E-01  0.3259005468918E+00  0.5957851735569E-01 -0.4078062183810E+00
-0.1412468847627E-01  0.2919012869894E+00  0.5555532053047E-01 -0.4175270330580E+00
 0.3572288073248E-02  0.2565124338116E+00  0.5201694515209E-01 -0.4241166894334E+00
 0.2556056162470E-01  0.2195494389374E+00  0.4902200084291E-01 -0.4266735608545E+00
 0.5221052817834E-01  0.1807837766602E+00  0.4659886166209E-01 -0.4243192107472E+00
 0.8367012997333E-01  0.1400249113580E+00  0.4473900893292E-01 -0.4162545116803E+00
 0.1197129104922E+00  0.9722091957246E-01  0.4338676665945E-01 -0.4018012876781E+00
 0.1595548347048E+00  0.5257899387572E-01  0.4242676634832E-01 -0.3804101856823E+00
 0.2016755857137E+00  0.6656530398627E-02  0.4166642384334E-01 -0.3516161527848E+00
 0.2437144470954E+00 -0.3956589414986E-01  0.4082971119753E-01 -0.3148835347945E+00
 0.2825305224405E+00 -0.8460323427905E-01  0.3958545822215E-01 -0.2692588309655E+00
 0.3146252061523E+00 -0.1266277201688E+00  0.3759949775697E-01 -0.2129256833161E+00
 0.3370743788888E+00 -0.1640976436935E+00  0.3459534755458E-01 -0.1429386126182E+00
 0.3488647778861E+00 -0.1966414337794E+00  0.3044466927501E-01 -0.5566087687288E-01
 0.3516741274967E+00 -0.2259726327563E+00  0.2514029932271E-01  0.5204097473432E-01
 0.3481056103738E+00 -0.2546987886362E+00  0.1868136462589E-01  0.1812191628015E+00
 0.1898786372517E+00  0.8736302163710E+00  0.2127017738940E+00  0.8126758791392E-02
 0.1375193191369E+00  0.8939878434757E+00  0.2063014355967E+00 -0.4657801344132E-01
 0.8779478175746E-01  0.9093820652486E+00  0.1994353723730E+00 -0.8548605934131E-01
 0.4559081462782E-01  0.9172908793736E+00  0.1925763416699E+00 -0.1119958665140E+00
 0.1302028095137E-01  0.9171626227969E+00  0.1860365835218E+00 -0.1303300793118E+00
-0.1018560466245E-01  0.9099539457442E+00  0.1799536708979E+00 -0.1441265911333E+00
-0.2562442544217E-01  0.8972766626442E+00  0.1743304500381E+00 -0.1558458508328E+00
-0.3527636786713E-01  0.8807275333491E+00  0.1690902356160E+00 -0.1668542649039E+00
-0.4095506693605E-01  0.8615735113656E+00  0.1641236913315E+00 -0.1777772318941E+00
-0.4410093913267E-01  0.8406987899794E+00  0.1593195725434E+00 -0.1888391636924E+00
-0.4576662137350E-01  0.8186701207011E+00  0.1545807021690E+00 -0.2000920329588E+00
-0.4667707940540E-01  0.7958266960328E+00  0.1498299255581E+00 -0.2115384311589E+00
-0.4730270160739E-01  0.7723556152650E+00  0.1450105848924E+00 -0.2231850395387E+00
-0.4792184291623E-01  0.7483448956180E+00  0.1400846126278E+00 -0.2350580179206E+00
-0.4866773419063E-01  0.7238174478087E+00  0.1350299447357E+00 -0.2472001916618E+00
-0.4956147528959E-01  0.6987515008141E+00  0.1298380070396E+00 -0.2596608587790E+00
-0.5053455512022E-01  0.6730921022393E+00  0.1245115112792E+00 -0.2724836406862E+00
-0.5144440180310E-01  0.6467580228773E+00  0.1190627259890E+00 -0.2856945238854E+00
-0.5208618933929E-01  0.6196451982815E+00  0.1135118034799E+00 -0.2992917349653E+00
-0.5220403053562E-01  0.5916306482202E+00  0.1078853251445E+00 -0.3132367362197E+00
-0.5150358739576E-01  0.5625789763666E+00  0.1022150793173E+00 -0.3274444755900E+00
-0.4966662790411E-01  0.5323507920744E+00  0.9653683427256E-01 -0.3417710494342E+00
-0.4636409308050E-01  0.5008130737404E+00  0.9088979748635E-01 -0.3559948421348E+00
-0.4126000492152E-01  0.4678616526224E+00  0.8532033081154E-01 -0.3697893006927E+00
-0.3399766415180E-01  0.4334984051160E+00  0.7990014938344E-01 -0.3826835227965E+00
-0.2418079280231E-01  0.3978234515717E+00  0.7472853286742E-01 -0.3940387246503E+00
-0.1136732351651E-01  0.3609068531339E+00  0.6990790696518E-01 -0.4030719142461E+00
 0.4919203191421E-02  0.3227119493269E+00  0.6552623148007E-01 -0.4089058969141E+00
 0.2514997036424E-01  0.2830945200635E+00  0.6164889900418E-01 -0.4106324514382E+00
 0.4971488998629E-01  0.2418522737021E+00  0.5831343360662E-01 -0.4073798961510E+00
 0.7880661097037E-01  0.1988023484163E+00  0.5552179270467E-01 -0.3983776225742E+00
 0.1122620283320E+00  0.1538778545530E+00  0.5322797737017E-01 -0.3830092649576E+00
 0.1493608154380E+00  0.1072495521168E+00  0.5132207427573E-01 -0.3608362222208E+00
 0.1886078478831E+00  0.5943098145308E-01  0.4960776660645E-01 -0.3315700115000E+00
 0.2275611503099E+00  0.1139141236415E-01  0.4779051324694E-01 -0.2949167702199E+00
 0.2628105930944E+00 -0.3529106073583E-01  0.4550390714977E-01 -0.2501746531340E+00
 0.2903609829187E+00 -0.7853891503423E-01  0.4236441420817E-01 -0.1956354778872E+00
 0.3067220305356E+00 -0.1164490388139E+00  0.3805459891138E-01 -0.1281125343647E+00
 0.3106201624794E+00 -0.1485080840064E+00  0.3242241617773E-01 -0.4318862843436E-01
 0.3041991328804E+00 -0.1765841759083E+00  0.2552299177476E-01  0.6327774536050E-01
 0.2917592958928E+00 -0.2038449803054E+00  0.1758286337949E-01  0.1923576560658E+00
 0.2138019428120E+00  0.9844030368356E+00  0.2396409995005E+00 -0.6487386210725E-03
 0.1548365784274E+00  0.1007306583069E+01  0.2324286357628E+00 -0.5399704623787E-01
 0.9951237387106E-01  0.1024291470640E+01  0.2247607722514E+00 -0.9015256634812E-01
 0.5338510682216E-01  0.1032579509965E+01  0.2171929265939E+00 -0.1133404013348E+00
 0.1853654679277E-01  0.1031828553587E+01  0.2100730232063E+00 -0.1285644510893E+00
-0.5746787969271E-02  0.1023412325791E+01  0.2035331105972E+00 -0.1398810412455E+00
-0.2156375933966E-01  0.1009305088949E+01  0.1975482688656E+00 -0.1498186824727E+00
-0.3126424095049E-01  0.9913078695549E+00  0.1920087285820E+00 -0.1596228419640E+00
-0.3687245662412E-01  0.9707545932076E+00  0.1867764300999E+00 -0.1697501134783E+00
-0.3992371067308E-01  0.9485185361690E+00  0.1817189678070E+00 -0.1802786588641E+00
-0.4150061307507E-01  0.9251257143523E+00  0.1767250228888E+00 -0.1911548982238E+00
-0.4232875789727E-01  0.9008710272823E+00  0.1717084564357E+00 -0.2023115591676E+00
-0.4286964698019E-01  0.8759043100748E+00  0.1666069351016E+00 -0.2137107009527E+00
-0.4339275815102E-01  0.8502859039303E+00  0.1613786315606E+00 -0.2253499980774E+00
-0.4402639758141E-01  0.8240199617668E+00  0.1559987151616E+00 -0.2372535174869E+00
-0.4479189867960E-01  0.7970732674678E+00  0.1504562759996E+00 -0.2494574030557E+00
-0.4562607665508E-01  0.7693850825004E+00  0.1447518033260E+00 -0.2619952248658E+00
-0.4639615752709E-01  0.7408726546744E+00  0.1388953014992E+00 -0.2748846780359E+00
-0.4691080291414E-01  0.7114334151776E+00  0.1329045244331E+00 -0.2881170587488E+00
-0.4693081225121E-01  0.6809480208980E+00  0.1268034436189E+00 -0.3016487999413E+00
-0.4618213942458E-01  0.6492867382928E+00  0.1206209215710E+00 -0.3153930894796E+00
-0.4437231321565E-01  0.6163189504021E+00  0.1143893291418E+00 -0.3292090439947E+00
-0.4120652752746E-01  0.5819261496268E+00  0.1081439260313E+00 -0.3428831416560E+00
-0.3639377341258E-01  0.5460283013877E+00  0.1019269071138E+00 -0.3560993434908E+00
-0.2963152460354E-01  0.5086663605430E+00  0.9580696861552E-01 -0.3683930128440E+00
-0.2058001798140E-01  0.4699933310352E+00  0.8988266395012E-01 -0.3791222540602E+00
-0.8845597138465E-02  0.4301367533375E+00  0.8425823249535E-01 -0.3874929297159E+00
 0.6018102678716E-02  0.3891139206434E+00  0.7902640584200E-01 -0.3926139531186E+00
 0.2447761249704E-01  0.3468257215320E+00  0.7426066791238E-01 -0.3935671637656E+00
 0.4694722230883E-01  0.3031016376188E+00  0.7000977302876E-01 -0.3894816671815E+00
 0.7367350423642E-01  0.2577713336453E+00  0.6628896856414E-01 -0.3796061084408E+00
 0.1045726897903E+00  0.2107538010948E+00  0.6306529911678E-01 -0.3633736622334E+00
 0.1390138290765E+00  0.1621749316940E+00  0.6023775305170E-01 -0.3404447223370E+00
 0.1755617417920E+00  0.1124813448627E+00  0.5760861818937E-01 -0.3107056140758E+00
 0.2117257012353E+00  0.6259507503008E-01  0.5486415607061E-01 -0.2741293437419E+00
 0.2438199673690E+00  0.1415713067727E-01  0.5159542037809E-01 -0.2303303654539E+00
 0.2672599555540E+00 -0.3047860316457E-01  0.4735627118355E-01 -0.1778041486845E+00
 0.2777648687201E+00 -0.6894541926344E-01  0.4176389051366E-01 -0.1131520141471E+00
 0.2735487311740E+00 -0.1003619320178E+00  0.3463736034740E-01 -0.3106472020877E-01
 0.2573157683644E+00 -0.1267611825195E+00  0.2611091755805E-01  0.7382447893135E-01
 0.2355157006175E+00 -0.1524010039276E+00  0.1662293958568E-01  0.2030365084033E+00
 0.2375483803789E+00  0.1096169567225E+01  0.2667435934956E+00 -0.1057425592772E-01
 0.1712876914528E+00  0.1121837226733E+01  0.2586249874910E+00 -0.6227903908979E-01
 0.1099566919547E+00  0.1140408798488E+01  0.2500731018149E+00 -0.9518025572791E-01
 0.5986739286229E-01  0.1148856196020E+01  0.2417447213788E+00 -0.1145632009785E+00
 0.2295206882499E-01  0.1147175057197E+01  0.2340254286916E+00 -0.1263649185874E+00
-0.2117536936030E-02  0.1137282850103E+01  0.2270330660164E+00 -0.1350697371399E+00
-0.1805300914580E-01  0.1121572006488E+01  0.2207038027572E+00 -0.1432074131115E+00
-0.2761266906800E-01  0.1102042965591E+01  0.2148860625066E+00 -0.1518328002551E+00
-0.3302767611011E-01  0.1080067838281E+01  0.2094080355545E+00 -0.1611909988238E+00
-0.3591086031322E-01  0.1056481115508E+01  0.2041140540805E+00 -0.1711963600399E+00
-0.3735806454157E-01  0.1031749190207E+01  0.1988782280965E+00 -0.1816865339447E+00
-0.3808340745862E-01  0.1006112080551E+01  0.1936057375035E+00 -0.1925270713719E+00
-0.3853175733524E-01  0.9796772469551E+00  0.1882291007288E+00 -0.2036396230682E+00
-0.3895906170523E-01  0.9524753459428E+00  0.1827032595700E+00 -0.2149973696794E+00
-0.3948602484258E-01  0.9244913573899E+00  0.1770010691470E+00 -0.2266088887454E+00
-0.4013273564067E-01  0.8956809583910E+00  0.1711096470998E+00 -0.2384996997459E+00
-0.4084054588086E-01  0.8659782868870E+00  0.1650275506603E+00 -0.2506952252377E+00
-0.4148600400208E-01  0.8352998243610E+00  0.1587627664375E+00 -0.2632062480615E+00
-0.4189074182823E-01  0.8035451449337E+00  0.1523308828910E+00 -0.2760180559099E+00
-0.4183129439043E-01  0.7705987790377E+00  0.1457534991014E+00 -0.2890826486740E+00
-0.4105221015867E-01  0.7363360907437E+00  0.1390567781891E+00 -0.3023120908234E+00
-0.3928443099292E-01  0.7006336267026E+00  0.1322698411129E+00 -0.3155698650709E+00
-0.3626521736208E-01  0.6633850010671E+00  0.1254239586100E+00 -0.3286532774936E+00
-0.3174779522288E-01  0.6245320101854E+00  0.1185568447591E+00 -0.3412609500568E+00
-0.2548533755316E-01  0.5841535499768E+00  0.1117336441497E+00 -0.3529390008938E+00
-0.1719778769771E-01  0.5424560992044E+00  0.1050516638667E+00 -0.3630457917255E+00
-0.6543079626749E-02  0.4996269686038E+00  0.9861677926491E-01 -0.3707775043127E+00
 0.6893420642750E-02  0.4557413970678E+00  0.9252696492087E-01 -0.3752286325216E+00
 0.2357423230349E-01  0.4107513202102E+00  0.8686511179712E-01 -0.3754684441212E+00
 0.4394136168309E-01  0.3645258602484E+00  0.8169344560363E-01 -0.3706213056513E+00
 0.6830260508381E-01  0.3169157511156E+00  0.7704367238791E-01 -0.3599453265951E+00
 0.9666795249251E-01  0.2678314872994E+00  0.7289988904468E-01 -0.3429083826133E+00
 0.1285222756348E+00  0.2173500132213E+00  0.6917445880201E-01 -0.3192522987871E+00
 0.1625322660964E+00  0.1658283460292E+00  0.6567212340372E-01 -0.2890277589441E+00
 0.1962073927041E+00  0.1140952612957E+00  0.6206053172473E-01 -0.2524922616021E+00
 0.2256050336217E+00  0.6380319652762E-01  0.5788164689237E-01 -0.2096498370424E+00
 0.2454628691490E+00  0.1758024734688E-01  0.5260862408311E-01 -0.1593271801047E+00
 0.2504423509060E+00 -0.2161428985654E-01  0.4576561289186E-01 -0.9800901020944E-01
 0.2379038547875E+00 -0.5229353221346E-01  0.3712206506797E-01 -0.1939771880137E-01
 0.2110931416942E+00 -0.7663878980193E-01  0.2689087077917E-01  0.8351360813990E-01
 0.1791130902347E+00 -0.1003856572331E+00  0.1574548683494E-01  0.2132218714954E+00
 0.2610666449496E+00  0.1209071020393E+01  0.2940275374498E+00 -0.2177816318342E-01
 0.1866927034849E+00  0.1237747132529E+01  0.2848879714479E+00 -0.7147610079869E-01
 0.1189093779312E+00  0.1257859812399E+01  0.2753538421691E+00 -0.1005100241392E+00
 0.6487333472730E-01  0.1266161945686E+01  0.2662070600495E+00 -0.1155380098915E+00
 0.2618579348330E-01  0.1263170811521E+01  0.2578713248435E+00 -0.1236051365930E+00
 0.6829585321252E-03  0.1251503235592E+01  0.2504372425567E+00 -0.1296047332035E+00
-0.1508290647592E-01  0.1234019288695E+01  0.2437872800764E+00 -0.1359669211481E+00
-0.2430734962638E-01  0.1212895205584E+01  0.2377175747339E+00 -0.1434698111707E+00
-0.2941208218952E-01  0.1189498418990E+01  0.2320172708174E+00 -0.1521027337423E+00
-0.3206210102628E-01  0.1164590665445E+01  0.2265057162589E+00 -0.1616027177979E+00
-0.3334627196374E-01  0.1138558682761E+01  0.2210424854533E+00 -0.1716996048170E+00
-0.3395414142723E-01  0.1111577795445E+01  0.2155247340152E+00 -0.1821972492295E+00
-0.3430620759921E-01  0.1083709140366E+01  0.2098805896809E+00 -0.1929826728538E+00
-0.3464054196000E-01  0.1054952685599E+01  0.2040624317686E+00 -0.2040093435229E+00
-0.3506789984838E-01  0.1025274549937E+01  0.1980413329687E+00 -0.2152739797591E+00
-0.3560592047605E-01  0.9946201193805E+00  0.1918028426390E+00 -0.2267941555489E+00
-0.3619991976828E-01  0.9629193743715E+00  0.1853438936825E+00 -0.2385891036778E+00
-0.3673548409745E-01  0.9300890049619E+00  0.1786707068353E+00 -0.2506640736305E+00
-0.3704687624113E-01  0.8960315839048E+00  0.1717969440927E+00 -0.2629991851286E+00
-0.3692552856898E-01  0.8606359619114E+00  0.1647420891233E+00 -0.2755423648782E+00
-0.3613279394840E-01  0.8237821397238E+00  0.1575298715024E+00 -0.2882047575787E+00
-0.3442024473538E-01  0.7853520114202E+00  0.1501863555749E+00 -0.3008550424469E+00
-0.3155432278974E-01  0.7452482656728E+00  0.1427387907036E+00 -0.3133037835917E+00
-0.2733117563658E-01  0.7034312180890E+00  0.1352200105054E+00 -0.3252685769013E+00
-0.2156115139623E-01  0.6600154904795E+00  0.1276908697194E+00 -0.3363113838523E+00
-0.1402760713771E-01  0.6152607369478E+00  0.1202466277538E+00 -0.3457949764989E+00
-0.4444037837006E-02  0.5694157968587E+00  0.1129943534881E+00 -0.3529081647789E+00
 0.7569944286790E-02  0.5226179107577E+00  0.1060375725890E+00 -0.3567314854705E+00
 0.2247235843884E-01  0.4748770427315E+00  0.9946988171629E-01 -0.3563201726743E+00
 0.4073452678804E-01  0.4261122963556E+00  0.9336936602003E-01 -0.3507893893985E+00
 0.6273023262744E-01  0.3762083065166E+00  0.8778770913696E-01 -0.3393971045192E+00
 0.8857479924729E-01  0.3250788423230E+00  0.8273072954685E-01 -0.3216289935400E+00
 0.1178943075150E+00  0.2727548114098E+00  0.7812982494917E-01 -0.2972845706806E+00
 0.1495046965577E+00  0.2194848198957E+00  0.7379790439036E-01 -0.2665567413336E+00
 0.1809838536995E+00  0.1659508799520E+00  0.6938694776424E-01 -0.2299915897641E+00
 0.2081852129593E+00  0.1137363625932E+00  0.6438431606990E-01 -0.1880554136081E+00
 0.2251055568304E+00  0.6570206514202E-01  0.5816152526115E-01 -0.1400728574542E+00
 0.2250424649232E+00  0.2552012207174E-01  0.5011251814573E-01 -0.8259209474545E-01
 0.2040108449336E+00 -0.4423891218287E-02  0.3991739133788E-01 -0.8259998801271E-02
 0.1656032469225E+00 -0.2632124556846E-01  0.2785640068590E-01  0.9214605539476E-01
 0.1222491215074E+00 -0.4776814718417E-01  0.1489619508663E-01  0.2228011127933E+00
 0.2842898656763E+00  0.1323283956950E+01  0.3215147693163E+00 -0.3441296333402E-01
 0.2008249222911E+00  0.1355238711575E+01  0.3112127314107E+00 -0.8163717659122E-01
 0.1261101314505E+00  0.1376779877726E+01  0.3005780063143E+00 -0.1060484976933E+00
 0.6822650191890E-01  0.1384516459272E+01  0.2905485965677E+00 -0.1160997216671E+00
 0.2816878180217E-01  0.1379749926275E+01  0.2815837458114E+00 -0.1201371933983E+00
 0.2654713326129E-02  0.1365982013658E+01  0.2737273494757E+00 -0.1233955847074E+00
-0.1262884169447E-01  0.1346571865585E+01  0.2667886087536E+00 -0.1280599209090E+00
-0.2132501827525E-01  0.1323820245186E+01  0.2604990492639E+00 -0.1345297606555E+00
-0.2601293934320E-01  0.1299030699086E+01  0.2546035557424E+00 -0.1424969784931E+00
-0.2837586235005E-01  0.1272853185282E+01  0.2488954682953E+00 -0.1515147221790E+00
-0.2947261393403E-01  0.1245575057233E+01  0.2432204922841E+00 -0.1612113281738E+00
-0.2995471026622E-01  0.1217298867511E+01  0.2374688349875E+00 -0.1713374816942E+00
-0.3021095863266E-01  0.1188037155215E+01  0.2315652427670E+00 -0.1817528617232E+00
-0.3045773934557E-01  0.1157759447602E+01  0.2254603450108E+00 -0.1923966635756E+00
-0.3079395279602E-01  0.1126414143192E+01  0.2191240413444E+00 -0.2032576166017E+00
-0.3123390368253E-01  0.1093937655462E+01  0.2125407535229E+00 -0.2143480867736E+00
-0.3172653413759E-01  0.1060257064846E+01  0.2057061092069E+00 -0.2256830762425E+00
-0.3216639037257E-01  0.1025290443810E+01  0.1986248136473E+00 -0.2372636676030E+00
-0.3240024775444E-01  0.9889444384600E+00  0.1913088409918E+00 -0.2490655902186E+00
-0.3223379542159E-01  0.9511129565095E+00  0.1837758349561E+00 -0.2610328308431E+00
-0.3144339957609E-01  0.9116804284614E+00  0.1760474084004E+00 -0.2730753190026E+00
-0.2979805177890E-01  0.8705322148846E+00  0.1681468351267E+00 -0.2850670674643E+00
-0.2708964580491E-01  0.8275763864412E+00  0.1600973505129E+00 -0.2968338018059E+00
-0.2315513077706E-01  0.7827872735413E+00  0.1519264308167E+00 -0.3081164333558E+00
-0.1786328937079E-01  0.7363115902844E+00  0.1436896623239E+00 -0.3184984549171E+00
-0.1106504377201E-01  0.6884605512790E+00  0.1354791035202E+00 -0.3273520822985E+00
-0.2534145307722E-02  0.6395453098264E+00  0.1274022348022E+00 -0.3338620922455E+00
 0.8072262439278E-02  0.5897688550225E+00  0.1195682252741E+00 -0.3370968504428E+00
 0.2120615523802E-01  0.5392069902556E+00  0.1120826307689E+00 -0.3360978023096E+00
 0.3736789625059E-01  0.4878416564630E+00  0.1050419121080E+00 -0.3299682600667E+00
 0.5699888536515E-01  0.4356089816722E+00  0.9852157487556E-01 -0.3179575798956E+00
 0.8032711675078E-01  0.3824452508196E+00  0.9255447489324E-01 -0.2995512636516E+00
 0.1071416384137E+00  0.3283481471035E+00  0.8709795840130E-01 -0.2745769113128E+00
 0.1364573291158E+00  0.2734482273261E+00  0.8198111251000E-01 -0.2433335962571E+00
 0.1660078738132E+00  0.2182250289116E+00  0.7684658169006E-01 -0.2066383544472E+00
 0.1915412990750E+00  0.1640809901679E+00  0.7112445890841E-01 -0.1654787498690E+00
 0.2063031945082E+00  0.1140054845095E+00  0.6406173675814E-01 -0.1198796447159E+00
 0.2018970535942E+00  0.7246305731787E-01  0.5487202300008E-01 -0.6674322039306E-01
 0.1722925700142E+00  0.4311473941072E-01  0.4308146252694E-01  0.2319438648850E-02
 0.1209632030658E+00  0.2408631945232E-01  0.2900990493590E-01  0.9946820600296E-01
 0.6452574231830E-01  0.5492088478165E-02  0.1400356636796E-01  0.2315984619998E+00
 0.3071295289395E+00  0.1439034580841E+01  0.3492328271600E+00 -0.4866111171009E-01
 0.2133950369506E+00  0.1474560123179E+01  0.3375910370565E+00 -0.9280132138222E-01
 0.1312482466736E+00  0.1497310310910E+01  0.3257117163703E+00 -0.1116518010761E+00
 0.6974315782663E-01  0.1503903736430E+01  0.3147293835412E+00 -0.1160336287181E+00
 0.2885364572384E-01  0.1496798954003E+01  0.3051305244921E+00 -0.1157915655987E+00
 0.3823324347620E-02  0.1480592910024E+01  0.2968832512983E+00 -0.1163548307487E+00
-0.1064877636276E-01  0.1459137725005E+01  0.2896977940453E+00 -0.1194623120622E+00
-0.1863375542775E-01  0.1434769077885E+01  0.2832270687118E+00 -0.1250219994588E+00
-0.2281441557849E-01  0.1408650342682E+01  0.2771671895508E+00 -0.1323957120269E+00
-0.2485022717377E-01  0.1381278110143E+01  0.2712855806364E+00 -0.1409564322660E+00
-0.2574524692566E-01  0.1352822951299E+01  0.2654155448297E+00 -0.1502435486983E+00
-0.2609996914158E-01  0.1323309390219E+01  0.2594418880814E+00 -0.1599661578399E+00
-0.2626505507732E-01  0.1292701280287E+01  0.2532872488161E+00 -0.1699651868887E+00
-0.2643213203790E-01  0.1260939424573E+01  0.2469014621862E+00 -0.1801714529900E+00
-0.2668687853767E-01  0.1227956542960E+01  0.2402539364646E+00 -0.1905696450534E+00
-0.2703973232892E-01  0.1193681898215E+01  0.2333284366541E+00 -0.2011696064127E+00
-0.2744315858194E-01  0.1158041183866E+01  0.2261196084263E+00 -0.2119840068964E+00
-0.2780078904458E-01  0.1120955180905E+01  0.2186308816299E+00 -0.2230111060965E+00
-0.2797204601757E-01  0.1082335886279E+01  0.2108727711945E+00 -0.2342229977346E+00
-0.2777653160800E-01  0.1042083366964E+01  0.2028613700940E+00 -0.2455596856877E+00
-0.2700397363770E-01  0.1000086727540E+01  0.1946165536805E+00 -0.2569290559682E+00
-0.2543720080897E-01  0.9562330844075E+00  0.1861591794937E+00 -0.2682096989085E+00
-0.2288884112437E-01  0.9104316439314E+00  0.1775085632065E+00 -0.2792435726103E+00
-0.1923343808786E-01  0.8626648781191E+00  0.1686862905199E+00 -0.2897990426429E+00
-0.1439902891211E-01  0.8131061215310E+00  0.1597414209041E+00 -0.2994873580512E+00
-0.8308584205603E-02  0.7621146524615E+00  0.1507612158977E+00 -0.3076961577454E+00
-0.8014111947535E-03  0.7100631484485E+00  0.1418523495645E+00 -0.3136107416455E+00
 0.8423951401154E-02  0.6572232767454E+00  0.1331294476131E+00 -0.3162907947066E+00
 0.1981100802598E-01  0.6037450053227E+00  0.1247112045281E+00 -0.3147665443750E+00
 0.3388698456768E-01  0.5496884081234E+00  0.1167150802774E+00 -0.3081294977148E+00
 0.5115890799432E-01  0.4950637409827E+00  0.1092445314233E+00 -0.2956142351083E+00
 0.7196915987412E-01  0.4398575703079E+00  0.1023653475618E+00 -0.2766885143005E+00
 0.9628486713230E-01  0.3840599762836E+00  0.9606897011472E-01 -0.2511739294755E+00
 0.1233667485844E+00  0.3276895824207E+00  0.9021126754526E-01 -0.2194249323298E+00
 0.1512068159589E+00  0.2709757882809E+00  0.8443652210616E-01 -0.1824817457720E+00
 0.1756014041684E+00  0.2150005502998E+00  0.7812039205771E-01 -0.1418784546614E+00
 0.1891245561958E+00  0.1626896174692E+00  0.7036283578149E-01 -0.9856043400304E-01
 0.1813708560227E+00  0.1192886089887E+00  0.6013189389831E-01 -0.5021447142204E-01
 0.1433074365265E+00  0.9019371480159E-01  0.4670023096150E-01  0.1238104400140E-01
 0.7738071549540E-01  0.7445160743166E-01  0.3036646503791E-01  0.1051669117468E+00
 0.5408021275895E-02  0.5943350163984E-01  0.1296830477639E-01  0.2393625463018E+00
 0.3294663108115E+00  0.1556620505986E+01  0.3772173689805E+00 -0.6474258736592E-01
 0.2240286475158E+00  0.1596019538021E+01  0.3640096425315E+00 -0.1049855940826E+00
 0.1339535721033E+00  0.1619589561609E+01  0.3507086319685E+00 -0.1171015797037E+00
 0.6924200990814E-01  0.1624249658986E+01  0.3386983388258E+00 -0.1150630001569E+00
 0.2822794543325E-01  0.1614140236447E+01  0.3284736412706E+00 -0.1103804196619E+00
 0.4247090512880E-02  0.1595169987576E+01  0.3198834203843E+00 -0.1084068793937E+00
-0.9082044347079E-02  0.1571609861486E+01  0.3125055680846E+00 -0.1101699905752E+00
-0.1619423029616E-01  0.1545691443904E+01  0.3058994472798E+00 -0.1149727524441E+00
-0.1979912254117E-01  0.1518347063285E+01  0.2997095926148E+00 -0.1218324985590E+00
-0.2148412269864E-01  0.1489880142248E+01  0.2936792082860E+00 -0.1299592512336E+00
-0.2217390578795E-01  0.1460331897288E+01  0.2876316025861E+00 -0.1388226204777E+00
-0.2240637947524E-01  0.1429647498332E+01  0.2814482279652E+00 -0.1481044293781E+00
-0.2248892580686E-01  0.1397744671469E+01  0.2750511532309E+00 -0.1576363916274E+00
-0.2258631304301E-01  0.1364538844762E+01  0.2683905103431E+00 -0.1673470139442E+00
-0.2277024530728E-01  0.1329950032653E+01  0.2614359613649E+00 -0.1772207762903E+00
-0.2304712555482E-01  0.1293902643285E+01  0.2541711073335E+00 -0.1872675038999E+00
-0.2337305382357E-01  0.1256322690286E+01  0.2465899309670E+00 -0.1974992989329E+00
-0.2366105020025E-01  0.1217135062255E+01  0.2386948059678E+00 -0.2079129079134E+00
-0.2378358103691E-01  0.1176258529721E+01  0.2304949931714E+00 -0.2184775829393E+00
-0.2357421995155E-01  0.1133600838839E+01  0.2220053270856E+00 -0.2291292329493E+00
-0.2283474424272E-01  0.1089056707189E+01  0.2132443957669E+00 -0.2397723677291E+00
-0.2135800853298E-01  0.1042513832444E+01  0.2042311678256E+00 -0.2502883030608E+00
-0.1897155001397E-01  0.9938779880960E+00  0.1949812905219E+00 -0.2605350601408E+00
-0.1558287415840E-01  0.9431324134458E+00  0.1855099106218E+00 -0.2703120265256E+00
-0.1117935813758E-01  0.8904692406952E+00  0.1758579791320E+00 -0.2792648048984E+00
-0.5760668123930E-02  0.8362896694637E+00  0.1661058027431E+00 -0.2868033933252E+00
 0.7626235689295E-03  0.7810247126402E+00  0.1563574695717E+00 -0.2921195812040E+00
 0.8646431493823E-02  0.7250161581514E+00  0.1467325201155E+00 -0.2942700167431E+00
 0.1832275388876E-01  0.6684965758804E+00  0.1373638680007E+00 -0.2922793175697E+00
 0.3034169655208E-01  0.6116217270560E+00  0.1283926866348E+00 -0.2852308941955E+00
 0.4526999277741E-01  0.5545037079652E+00  0.1199547419360E+00 -0.2723420425984E+00
 0.6355932202111E-01  0.4972162634247E+00  0.1121551187604E+00 -0.2530475303744E+00
 0.8536026295931E-01  0.4397826418317E+00  0.1050285825233E+00 -0.2271269165180E+00
 0.1102166275619E+00  0.3821385187680E+00  0.9847103073332E-01 -0.1949262125329E+00
 0.1364867305724E+00  0.3242391817151E+00  0.9214518383058E-01 -0.1576246739529E+00
 0.1602266779479E+00  0.2666946592273E+00  0.8538426870736E-01 -0.1172676943201E+00
 0.1735541114466E+00  0.2120666515114E+00  0.7712415374084E-01 -0.7592051228557E-01
 0.1638354222575E+00  0.1661991386159E+00  0.6600691315826E-01 -0.3264397164131E-01
 0.1177939806463E+00  0.1367173827658E+00  0.5090227344093E-01  0.2208704778646E-01
 0.3522459058924E-01  0.1245961326980E+00  0.3196414513374E-01  0.1088763177256E+00
-0.5582890035800E-01  0.1140825296249E+00  0.1165072602699E-01  0.2457381215118E+00
 0.3511358638243E+00  0.1676444875482E+01  0.4055161539040E+00 -0.8292472309648E-01
 0.2322340590724E+00  0.1720003879305E+01  0.3904475934935E+00 -0.1181632211579E+00
 0.1337884060544E+00  0.1743734337735E+01  0.3755045543533E+00 -0.1220695286112E+00
 0.6656226247987E-01  0.1745387377321E+01  0.3623899333602E+00 -0.1128363218868E+00
 0.2633251676476E-01  0.1731511727632E+01  0.3515688541181E+00 -0.1037071242119E+00
 0.4024025434728E-02  0.1709505396346E+01  0.3427058894629E+00 -0.9950144486168E-01
-0.7849882188501E-02  0.1683871243018E+01  0.3352042771608E+00 -0.1002068988157E+00
-0.1396218418108E-01  0.1656540811778E+01  0.3285157304147E+00 -0.1044282759361E+00
-0.1695022740318E-01  0.1628117992181E+01  0.3222335577573E+00 -0.1108532966954E+00
-0.1827873709631E-01  0.1598681303398E+01  0.3160805179703E+00 -0.1185618506900E+00
-0.1877077956098E-01  0.1568137501935E+01  0.3098733490922E+00 -0.1269790521571E+00
-0.1889252042519E-01  0.1536356004918E+01  0.3034927014210E+00 -0.1357758236706E+00
-0.1890466947415E-01  0.1503213970080E+01  0.2968618645448E+00 -0.1447846364569E+00
-0.1894414620712E-01  0.1468606514691E+01  0.2899324780171E+00 -0.1539375781951E+00
-0.1906858488906E-01  0.1432444831742E+01  0.2826752535827E+00 -0.1632224097171E+00
-0.1928053941709E-01  0.1394651184099E+01  0.2750741330353E+00 -0.1726511189835E+00
-0.1954003032034E-01  0.1355153719478E+01  0.2671227418119E+00 -0.1822367872828E+00
-0.1976988993134E-01  0.1313882791899E+01  0.2588225842504E+00 -0.1919759050294E+00
-0.1985626204006E-01  0.1270765397958E+01  0.2501818309115E+00 -0.2018357949729E+00
-0.1964724746496E-01  0.1225718896500E+01  0.2412143334014E+00 -0.2117482684217E+00
-0.1895596799105E-01  0.1178645524247E+01  0.2319379147073E+00 -0.2216127580206E+00
-0.1758153346731E-01  0.1129433461653E+01  0.2223703889507E+00 -0.2313101900260E+00
-0.1535940538400E-01  0.1077980621182E+01  0.2125242463265E+00 -0.2407127119448E+00
-0.1222360051361E-01  0.1024262112187E+01  0.2024077053508E+00 -0.2496531612119E+00
-0.8219799585944E-02  0.9684780714473E+00  0.1920516572341E+00 -0.2578181325606E+00
-0.3428925838237E-02  0.9110617846545E+00  0.1815265744682E+00 -0.2646477933856E+00
 0.2161367093269E-02  0.8524958694543E+00  0.1709314498566E+00 -0.2693480031867E+00
 0.8757420631020E-02  0.7931913251555E+00  0.1603897515473E+00 -0.2709807344982E+00
 0.1677646386966E-01  0.7334714245507E+00  0.1500495799200E+00 -0.2685744727389E+00
 0.2678592143919E-01  0.6736071940499E+00  0.1400786251851E+00 -0.2612129276096E+00
 0.3940230105709E-01  0.6138451203548E+00  0.1306494862292E+00 -0.2480986765545E+00
 0.5517387372730E-01  0.5543921382810E+00  0.1219132042183E+00 -0.2286228148014E+00
 0.7442768704113E-01  0.4953618099233E+00  0.1139579010910E+00 -0.2024885149932E+00
 0.9701064745155E-01  0.4366647452470E+00  0.1067350801302E+00 -0.1699615636509E+00
 0.1217442884658E+00  0.3780016134070E+00  0.9994918186391E-01 -0.1322394105745E+00
 0.1452015223270E+00  0.3193817698747E+00  0.9291665982490E-01 -0.9175404677517E-01
 0.1594402798343E+00  0.2625949874674E+00  0.8440705471808E-01 -0.5179914196764E-01
 0.1496134400446E+00  0.2136157250933E+00  0.7264583411008E-01 -0.1353789242373E-01
 0.9671585221142E-01  0.1826895295551E+00  0.5588107718599E-01  0.3180841332884E-01
-0.4860521785860E-02  0.1742846084516E+00  0.3388481783807E-01  0.1102084281230E+00
-0.1201667034605E+00  0.1694447676058E+00  0.9855612975913E-02  0.2502189123681E+00
 0.3719061355219E+00  0.1799071665889E+01  0.4341955667522E+00 -0.1035347577235E+00
 0.2373555884640E+00  0.1847002466199E+01  0.4168716171446E+00 -0.1322237774671E+00
 0.1302439842555E+00  0.1869801187107E+01  0.4000090402331E+00 -0.1260651321441E+00
 0.6159524103952E-01  0.1867004580430E+01  0.3857199700416E+00 -0.1089179259795E+00
 0.2328522993152E-01  0.1848545121555E+01  0.3743660758757E+00 -0.9558655773960E-01
 0.3296942482647E-02  0.1823352899907E+01  0.3653299739217E+00 -0.8963245558990E-01
-0.6858806600050E-02  0.1795803894045E+01  0.3577890228205E+00 -0.8963350450599E-01
-0.1189235607244E-01  0.1767280902959E+01  0.3510777146087E+00 -0.9345716257929E-01
-0.1425408154842E-01  0.1737971521000E+01  0.3447434930273E+00 -0.9951658810216E-01
-0.1523910568888E-01  0.1707713105543E+01  0.3384948050147E+00 -0.1068096573775E+00
-0.1555142095268E-01  0.1676282604141E+01  0.3321462415870E+00 -0.1147468797030E+00
-0.1557958110951E-01  0.1643482974040E+01  0.3255806834376E+00 -0.1230056972367E+00
-0.1553630665539E-01  0.1609159552351E+01  0.3187246538886E+00 -0.1314290810527E+00
-0.1553088927220E-01  0.1573193900212E+01  0.3115326068302E+00 -0.1399580122061E+00
-0.1560745641917E-01  0.1535493104439E+01  0.3039771341335E+00 -0.1485864391640E+00
-0.1576521647354E-01  0.1495980311344E+01  0.2960430233856E+00 -0.1573302185487E+00
-0.1596850841030E-01  0.1454587615290E+01  0.2877238256634E+00 -0.1662046444891E+00
-0.1615043427575E-01  0.1411252006381E+01  0.2790203185788E+00 -0.1752071192867E+00
-0.1621160411508E-01  0.1365910001005E+01  0.2699396834004E+00 -0.1843041468717E+00
-0.1601575071325E-01  0.1318490807207E+01  0.2604950151805E+00 -0.1934238045205E+00
-0.1538757168604E-01  0.1268907307731E+01  0.2507039509449E+00 -0.2024586847080E+00
-0.1412915797949E-01  0.1217049898767E+01  0.2405841517424E+00 -0.2112848940720E+00
-0.1207583770110E-01  0.1162805180270E+01  0.2301458719432E+00 -0.2197843544892E+00
-0.9179439488140E-02  0.1106129926289E+01  0.2193901006293E+00 -0.2278237796382E+00
-0.5541285021107E-02  0.1047217781088E+01  0.2083353023178E+00 -0.2351368268940E+00
-0.1327654887015E-02  0.9865191152556E+00  0.1970382950098E+00 -0.2412022749060E+00
 0.3391263316772E-02  0.9245562614826E+00  0.1855895077254E+00 -0.2452494861999E+00
 0.8768903220782E-02  0.8618050660582E+00  0.1741147964503E+00 -0.2463576018818E+00
 0.1520468518965E-01  0.7986868580120E+00  0.1627783110659E+00 -0.2435733327776E+00
 0.2327652841634E-01  0.7356093575622E+00  0.1517771794574E+00 -0.2359947961621E+00
 0.3363696794085E-01  0.6729903230372E+00  0.1413254603015E+00 -0.2228188321411E+00
 0.4691024572504E-01  0.6112242051384E+00  0.1316268921341E+00 -0.2033891217173E+00
 0.6357892140435E-01  0.5505881181266E+00  0.1228334097366E+00 -0.1773040789798E+00
 0.8378932879052E-01  0.4910573143803E+00  0.1149693303473E+00 -0.1446778162623E+00
 0.1068901036059E+00  0.4321600750236E+00  0.1078100373324E+00 -0.1065786676090E+00
 0.1302371014177E+00  0.3732562289512E+00  0.1006986675743E+00 -0.6559100072294E-01
 0.1464319540830E+00  0.3148988618721E+00  0.9226616456590E-01 -0.2614916331251E-01
 0.1388725641420E+00  0.2623106822481E+00  0.8023665047364E-01  0.7721755378457E-02
 0.8128958496614E-01  0.2283523952333E+00  0.6192839696270E-01  0.4225670043533E-01
-0.4176579338498E-01  0.2232375501389E+00  0.3629435189161E-01  0.1088348914090E+00
-0.1889267946800E+00  0.2254989896483E+00  0.7314439102637E-02  0.2520762934083E+00
 0.3914400923870E+00  0.1925318924011E+01  0.4633518101840E+00 -0.1269750498486E+00
 0.2385052886514E+00  0.1977633806120E+01  0.4432278255589E+00 -0.1468992749563E+00
 0.1227498013082E+00  0.1997709923926E+01  0.4240919513663E+00 -0.1283598338922E+00
 0.5433759256356E-01  0.1988565262495E+01  0.4085805771000E+00 -0.1027909418728E+00
 0.1930906454541E-01  0.1964748152127E+01  0.3968114492475E+00 -0.8588299881512E-01
 0.2253235845332E-02  0.1936442056351E+01  0.3877390642169E+00 -0.7886218203351E-01
-0.6008039998304E-02  0.1907302726816E+01  0.3802589430298E+00 -0.7855397697132E-01
-0.9943781127266E-02  0.1877893375065E+01  0.3735899243544E+00 -0.8215110652996E-01
-0.1170321586828E-01  0.1847931433414E+01  0.3672456489816E+00 -0.8789264492457E-01
-0.1237578644876E-01  0.1817018731703E+01  0.3609285944291E+00 -0.9475382136818E-01
-0.1253563173553E-01  0.1784818343436E+01  0.3544565476219E+00 -0.1021627390038E+00
-0.1249179748292E-01  0.1751082198795E+01  0.3477180854439E+00 -0.1098205241466E+00
-0.1240997692203E-01  0.1715635698441E+01  0.3406451493798E+00 -0.1175893764996E+00
-0.1237326964839E-01  0.1678355145117E+01  0.3331963800588E+00 -0.1254234783380E+00
-0.1241347369402E-01  0.1639148923907E+01  0.3253470948906E+00 -0.1333250446301E+00
-0.1252721241433E-01  0.1597944286797E+01  0.3170834196014E+00 -0.1413148801819E+00
-0.1268357610172E-01  0.1554678962738E+01  0.3083990819228E+00 -0.1494113089161E+00
-0.1282631235215E-01  0.1509297395628E+01  0.2992942211150E+00 -0.1576136608021E+00
-0.1287128993050E-01  0.1461746490395E+01  0.2897750444108E+00 -0.1658889806559E+00
-0.1269948401951E-01  0.1411969558970E+01  0.2798540191602E+00 -0.1741626618392E+00
-0.1214869106073E-01  0.1359894606198E+01  0.2695491870440E+00 -0.1823191837269E+00
-0.1102191680225E-01  0.1305418794104E+01  0.2588793793180E+00 -0.1902242938383E+00
-0.9145576079666E-02  0.1248416363397E+01  0.2478541611568E+00 -0.1977621909232E+00
-0.6477945478014E-02  0.1188814930036E+01  0.2364674004353E+00 -0.2048306020702E+00
-0.3171048840427E-02  0.1126782606664E+01  0.2247223149133E+00 -0.2112146712466E+00
 0.5204186155376E-03  0.1062764542924E+01  0.2126569954768E+00 -0.2164403424970E+00
 0.4439392752094E-02  0.9973033853877E+00  0.2003485586134E+00 -0.2197720864769E+00
 0.8684522143924E-02  0.9309306107196E+00  0.1879230293730E+00 -0.2203226712146E+00
 0.1363506116426E-01  0.8641719835629E+00  0.1755614115615E+00 -0.2171775672216E+00
 0.1987163548223E-01  0.7975952910647E+00  0.1634933877456E+00 -0.2094700899499E+00
 0.2806573062194E-01  0.7318301021558E+00  0.1519791688202E+00 -0.1964077622494E+00
 0.3888938848636E-01  0.6675192483298E+00  0.1412817294685E+00 -0.1772923144479E+00
 0.5294532241548E-01  0.6051907457001E+00  0.1316272155845E+00 -0.1515995841978E+00
 0.7064905628509E-01  0.5450046424670E+00  0.1231307415852E+00 -0.1192307911058E+00
 0.9188587915775E-01  0.4864719201929E+00  0.1156715615938E+00 -0.8097447290943E-01
 0.1150023529560E+00  0.4284061460283E+00  0.1086817014164E+00 -0.3923337649382E-01
 0.1339158991580E+00  0.3697439496428E+00  0.1007319712612E+00  0.8281874427241E-03
 0.1314407751696E+00  0.3135840715920E+00  0.8900497067859E-01  0.3180136720813E-01
 0.7295238569298E-01  0.2744605670379E+00  0.6948259158154E-01  0.5466440273769E-01
-0.7361378610078E-01  0.2712093655029E+00  0.3951911646930E-01  0.1046754441241E+00
-0.2638634833919E+00  0.2822067427119E+00  0.3668651918668E-02  0.2502595538037E+00
 0.4092327110972E+00  0.2056423524580E+01  0.4931312544836E+00 -0.1537387225433E+00
 0.2344628448425E+00  0.2112666264873E+01  0.4694258289380E+00 -0.1616236462260E+00
 0.1107137905346E+00  0.2127091808333E+01  0.4475611264427E+00 -0.1278813195046E+00
 0.4497732369714E-01  0.2109199993200E+01  0.4308354697994E+00 -0.9389245492594E-01
 0.1475916571193E-01  0.2079505494289E+01  0.4188529382415E+00 -0.7457411425130E-01
 0.1113865626535E-02  0.2048508975078E+01  0.4099245742492E+00 -0.6734715130888E-01
-0.5201634825183E-02  0.2018293172684E+01  0.4026183135712E+00 -0.6711932187717E-01
-0.8085933521881E-02  0.1988385939342E+01  0.3960600070659E+00 -0.7062366660955E-01
-0.9299510891649E-02  0.1958041125732E+01  0.3897483287758E+00 -0.7606181519650E-01
-0.9706523319670E-02  0.1926655052036E+01  0.3833897114563E+00 -0.8244959493471E-01
-0.9748249543606E-02  0.1893805045479E+01  0.3768113648021E+00 -0.8926463625974E-01
-0.9656796712049E-02  0.1859213534823E+01  0.3699113531342E+00 -0.9624702571651E-01
-0.9554058977534E-02  0.1822700648512E+01  0.3626293233104E+00 -0.1032850756047E+00
-0.9499499162921E-02  0.1784147005891E+01  0.3549295066345E+00 -0.1103490600155E+00
-0.9514286611463E-02  0.1743468175034E+01  0.3467907828522E+00 -0.1174504767651E+00
-0.9593391867424E-02  0.1700598775874E+01  0.3382010818409E+00 -0.1246153907103E+00
-0.9711038139272E-02  0.1655483605093E+01  0.3291545182956E+00 -0.1318654489203E+00
-0.9821783038833E-02  0.1608074860215E+01  0.3196506201985E+00 -0.1392026759294E+00
-0.9857321849192E-02  0.1558329955065E+01  0.3096945312579E+00 -0.1465962432866E+00
-0.9717774743154E-02  0.1506208047982E+01  0.2992980591077E+00 -0.1539709193922E+00
-0.9257138392775E-02  0.1451657892648E+01  0.2884801551496E+00 -0.1612031559681E+00
-0.8279504097511E-02  0.1394591927289E+01  0.2772624887698E+00 -0.1681424058412E+00
-0.6593691169154E-02  0.1334875735112E+01  0.2656564127472E+00 -0.1746638273308E+00
-0.4150122123923E-02  0.1272397960825E+01  0.2536495715200E+00 -0.1806881096058E+00
-0.1143487147737E-02  0.1207276722415E+01  0.2412266506481E+00 -0.1860527639282E+00
 0.2082024936016E-02  0.1139919109507E+01  0.2284002302920E+00 -0.1903385573868E+00
 0.5280458152925E-02  0.1070857645107E+01  0.2152276238592E+00 -0.1928593529688E+00
 0.8496285598166E-02  0.1000663617793E+01  0.2018319836858E+00 -0.1927844039516E+00
 0.1208726554698E-01  0.9299728481384E+00  0.1884120255446E+00 -0.1892664103062E+00
 0.1662806936877E-01  0.8595391770027E+00  0.1752334518855E+00 -0.1815022159384E+00
 0.2278941589146E-01  0.7902475756834E+00  0.1626074007380E+00 -0.1687342800933E+00
 0.3125672602487E-01  0.7230537708086E+00  0.1508621016147E+00 -0.1502387282122E+00
 0.4270373812805E-01  0.6588339543152E+00  0.1403075405794E+00 -0.1253663450627E+00
 0.5775975009708E-01  0.5980789044471E+00  0.1311677328634E+00 -0.9376350933830E-01
 0.7679332016688E-01  0.5405027302701E+00  0.1234592119271E+00 -0.5581559682517E-01
 0.9920139116098E-01  0.4846830891358E+00  0.1167768977995E+00 -0.1337511658224E-01
 0.1209904002894E+00  0.4279114247239E+00  0.1097803666385E+00  0.2848274840611E-01
 0.1265149597101E+00  0.3694521549119E+00  0.9919342440251E-01  0.5919112318309E-01
 0.7317509605835E-01  0.3227932683226E+00  0.7919367405627E-01  0.7098555544651E-01
-0.9728206207894E-01  0.3182401580134E+00  0.4419161984541E-01  0.9829793628219E-01
-0.3472414923559E+00  0.3395794619570E+00 -0.1532406102612E-02  0.2432779457462E+00
 0.4245020111276E+00  0.2194349679918E+01  0.5237703460140E+00 -0.1844157545401E+00
 0.2235300812137E+00  0.2252998817665E+01  0.4953057871563E+00 -0.1752574736786E+00
 0.9363240233592E-01  0.2256987816056E+01  0.4701240506838E+00 -0.1230809135479E+00
 0.3402572244836E-01  0.2227572190214E+01  0.4523195892725E+00 -0.8172286468956E-01
 0.1013382563369E-01  0.2192128646551E+01  0.4404525010001E+00 -0.6184690003147E-01
 0.1043034069621E-03  0.2159346498794E+01  0.4318901668758E+00 -0.5535578665155E-01
-0.4363968903475E-02  0.2128748860342E+01  0.4248769846188E+00 -0.5552375568629E-01
-0.6304788746775E-02  0.2098800463778E+01  0.4184991412424E+00 -0.5900719257941E-01
-0.7057431373053E-02  0.2068367636098E+01  0.4122620470882E+00 -0.6411163704088E-01
-0.7257734026944E-02  0.2036694211252E+01  0.4058873014933E+00 -0.6995409727209E-01
-0.7219753956464E-02  0.2003312828723E+01  0.3992186209021E+00 -0.7609044717194E-01
-0.7105814759656E-02  0.1967943013463E+01  0.3921674455845E+00 -0.8231115460565E-01
-0.6999190515970E-02  0.1930416493065E+01  0.3846834662421E+00 -0.8853497800681E-01
-0.6939215296653E-02  0.1890628658749E+01  0.3767378943043E+00 -0.9474936353742E-01
-0.6938507685133E-02  0.1848508354033E+01  0.3683139747579E+00 -0.1009748452441E+00
-0.6991385183022E-02  0.1804000696556E+01  0.3594018676301E+00 -0.1072421713289E+00
-0.7077446204105E-02  0.1757058598133E+01  0.3499962356012E+00 -0.1135759791342E+00
-0.7161889966545E-02  0.1707641651955E+01  0.3400959574655E+00 -0.1199813814822E+00
-0.7192300141475E-02  0.1655716835002E+01  0.3297049118851E+00 -0.1264313440382E+00
-0.7089668257499E-02  0.1601259579215E+01  0.3188339869426E+00 -0.1328532622648E+00
-0.6728887807404E-02  0.1544245300513E+01  0.3075032871232E+00 -0.1391181894269E+00
-0.5918896152311E-02  0.1484615178515E+01  0.2957392608794E+00 -0.1450545793031E+00
-0.4443952402617E-02  0.1422238292828E+01  0.2835588723104E+00 -0.1505131689918E+00
-0.2229542728176E-02  0.1356958985889E+01  0.2709458926697E+00 -0.1554216214087E+00
 0.4991027489773E-03  0.1288814755879E+01  0.2578627755681E+00 -0.1596637835168E+00
 0.3310770587038E-02  0.1218126148785E+01  0.2442873875146E+00 -0.1628801184033E+00
 0.5872964386687E-02  0.1145368650727E+01  0.2302483264538E+00 -0.1644517748379E+00
 0.8180458124820E-02  0.1071128823896E+01  0.2158618596208E+00 -0.1636366953277E+00
 0.1056921168477E-01  0.9961584850458E+00  0.2013455423464E+00 -0.1596937051561E+00
 0.1359801568421E-01  0.9214278340522E+00  0.1870051727339E+00 -0.1519197013928E+00
 0.1791509045828E-01  0.8481236499333E+00  0.1732077506593E+00 -0.1396236399873E+00
 0.2418106063896E-01  0.7775790249595E+00  0.1603520195091E+00 -0.1220835073541E+00
 0.3308013281918E-01  0.7111177518271E+00  0.1488395791471E+00 -0.9854268100456E-01
 0.4537706256007E-01  0.6497266835988E+00  0.1390207513033E+00 -0.6837861325414E-01
 0.6182305844835E-01  0.5935883888058E+00  0.1310822914041E+00 -0.3149870956236E-01
 0.8271245391752E-01  0.5415377559094E+00  0.1248500438258E+00  0.1107235128568E-01
 0.1065527217100E+00  0.4898824715433E+00  0.1192870404282E+00  0.5547377874283E-01
 0.1222624376794E+00  0.4327195508448E+00  0.1109963993588E+00  0.8969475733489E-01
 0.8292443692593E-01  0.3770528958809E+00  0.9199546793220E-01  0.9398891285291E-01
-0.1077037900388E+00  0.3653488018605E+00  0.5152900313218E-01  0.9171478754342E-01
-0.4418197239592E+00  0.3979318408089E+00 -0.8777576760859E-02  0.2291321096863E+00
 0.4359992684128E+00  0.2342411044037E+01  0.5556820707703E+00 -0.2196519851159E+00
 0.2033262981339E+00  0.2399485795518E+01  0.5205624264873E+00 -0.1855290245384E+00
 0.7135545621185E-01  0.2385248557560E+01  0.4913208100755E+00 -0.1118195383040E+00
 0.2250050608915E-01  0.2341783671760E+01  0.4728568426159E+00 -0.6611215738203E-01
 0.6034035191047E-02  0.2302006210017E+01  0.4616080559201E+00 -0.4821179654406E-01
-0.5972121867280E-03  0.2268860978176E+01  0.4536527599578E+00 -0.4325824452682E-01
-0.3453196789598E-02  0.2238704556969E+01  0.4470502786974E+00 -0.4399540557097E-01
-0.4608493076332E-02  0.2209221884921E+01  0.4409226849392E+00 -0.4744828137305E-01
-0.5007237609107E-02  0.2179004647966E+01  0.4347994885505E+00 -0.5213235613038E-01
-0.5065522290260E-02  0.2147224669944E+01  0.4284318359148E+00 -0.5732363133525E-01
-0.4986656329786E-02  0.2113421880875E+01  0.4216870511927E+00 -0.6267615789007E-01
-0.4873741070690E-02  0.2077342699861E+01  0.4144937979344E+00 -0.6803695537794E-01
-0.4778165394759E-02  0.2038848905430E+01  0.4068141540690E+00 -0.7335642736203E-01
-0.4723336662072E-02  0.1997861389874E+01  0.3986276165825E+00 -0.7863810270736E-01
-0.4715572505385E-02  0.1954328283707E+01  0.3899225480507E+00 -0.8390991489225E-01
-0.4749496087509E-02  0.1908208003403E+01  0.3806917071359E+00 -0.8920573084527E-01
-0.4810094892651E-02  0.1859462118055E+01  0.3709304101597E+00 -0.9455213089602E-01
-0.4872620380630E-02  0.1808056496336E+01  0.3606367805649E+00 -0.9995720441757E-01
-0.4899841855816E-02  0.1753965457632E+01  0.3498131283678E+00 -0.1053991824567E+00
-0.4834406046025E-02  0.1697178870943E+01  0.3384688980231E+00 -0.1108123396503E+00
-0.4577771021704E-02  0.1637703026909E+01  0.3266250560445E+00 -0.1160687817147E+00
-0.3952561646727E-02  0.1575526248175E+01  0.3143147419892E+00 -0.1209756166868E+00
-0.2716153233634E-02  0.1510547258899E+01  0.3015662256268E+00 -0.1253408196310E+00
-0.7504642161699E-03  0.1442572429827E+01  0.2883643974191E+00 -0.1290712735416E+00
 0.1706038937275E-02  0.1371521767550E+01  0.2746455653899E+00 -0.1320780787708E+00
 0.4143904618748E-02  0.1297556565675E+01  0.2603400979382E+00 -0.1340599773692E+00
 0.6154302907104E-02  0.1221023252452E+01  0.2454355147291E+00 -0.1344888283420E+00
 0.7692468995695E-02  0.1142488141300E+01  0.2300361254870E+00 -0.1327577683121E+00
 0.9072542168952E-02  0.1062827870612E+01  0.2143800857507E+00 -0.1282846506889E+00
 0.1082491343528E-01  0.9832670488066E+00  0.1988183954110E+00 -0.1205114727351E+00
 0.1355195013813E-01  0.9053439579156E+00  0.1837791843493E+00 -0.1088506843870E+00
 0.1785048496588E-01  0.8308294369360E+00  0.1697359869096E+00 -0.9261907055130E-01
 0.2435021369927E-01  0.7615853758657E+00  0.1571871202553E+00 -0.7099225075599E-01
 0.3384900700717E-01  0.6992644771898E+00  0.1466226990242E+00 -0.4310709739447E-01
 0.4735947441205E-01  0.6448237007568E+00  0.1384366370966E+00 -0.8365189432854E-02
 0.6577175428227E-01  0.5978914136488E+00  0.1327326355641E+00  0.3311447908073E-01
 0.8963902914781E-01  0.5552562334485E+00  0.1289790544412E+00  0.7961310037952E-01
 0.1154314457832E+00  0.5065763255426E+00  0.1244015561189E+00  0.1214557387813E+00
 0.1013984287532E+00  0.4442672613415E+00  0.1091331396452E+00  0.1268453113372E+00
-0.9697816444881E-01  0.4163225522654E+00  0.6386887851504E-01  0.8985549237904E-01
-0.5505403031800E+00  0.4587131239187E+00 -0.1836543612591E-01  0.2055537631882E+00
 0.4416925753981E+00  0.2506655780417E+01  0.5896696799498E+00 -0.2599189588944E+00
 0.1705244802762E+00  0.2552189311189E+01  0.5445427664073E+00 -0.1878520923461E+00
 0.4469364980404E-01  0.2507370270504E+01  0.5104127916674E+00 -0.9147997169464E-01
 0.1211934104365E-01  0.2449572620998E+01  0.4923383997448E+00 -0.4777965372404E-01
 0.2999984498522E-02  0.2408891074199E+01  0.4823782189276E+00 -0.3455107529173E-01
-0.9188238450007E-03  0.2377086488809E+01  0.4752335400743E+00 -0.3147113000397E-01
-0.2464144058598E-02  0.2348271942785E+01  0.4691615667363E+00 -0.3279184377901E-01
-0.3035373802491E-02  0.2319786743763E+01  0.4633502808966E+00 -0.3609886425388E-01
-0.3196932501636E-02  0.2290073147932E+01  0.4573752499015E+00 -0.4021123986047E-01
-0.3176108147451E-02  0.2258352022945E+01  0.4510351896805E+00 -0.4461081500432E-01
-0.3091676462088E-02  0.2224222116846E+01  0.4442260946962E+00 -0.4905379089751E-01
-0.2998907763593E-02  0.2187490314783E+01  0.4368982879142E+00 -0.5344539267334E-01
-0.2925712345251E-02  0.2148066666273E+01  0.4290281971785E+00 -0.5776456730308E-01
-0.2883814940489E-02  0.2105908152048E+01  0.4206048736890E+00 -0.6202768830579E-01
-0.2875528831055E-02  0.2060987722527E+01  0.4116224448728E+00 -0.6626691801736E-01
-0.2896550228957E-02  0.2013279382916E+01  0.4020765725288E+00 -0.7051665560391E-01
-0.2936971677574E-02  0.1962753294763E+01  0.3919632704577E+00 -0.7480358514051E-01
-0.2981027461829E-02  0.1909379647955E+01  0.3812797297801E+00 -0.7913803467606E-01
-0.3005100720724E-02  0.1853136570669E+01  0.3700262995035E+00 -0.8350445271648E-01
-0.2972408089361E-02  0.1794023623888E+01  0.3582102484974E+00 -0.8784841932389E-01
-0.2815773406217E-02  0.1732077092337E+01  0.3458522689398E+00 -0.9205395800365E-01
-0.2386357686470E-02  0.1667352660317E+01  0.3329932654880E+00 -0.9591605314968E-01
-0.1421874353824E-02  0.1599826200932E+01  0.3196808700792E+00 -0.9918322541353E-01
 0.2557745654773E-03  0.1529299003878E+01  0.3059109602471E+00 -0.1016972155395E+00
 0.2418234511894E-02  0.1455532394244E+01  0.2915901300963E+00 -0.1033525831136E+00
 0.4498078997909E-02  0.1378415949919E+01  0.2765828099048E+00 -0.1038921054432E+00
 0.6034314204658E-02  0.1298055951513E+01  0.2608180570300E+00 -0.1029116274760E+00
 0.6960587400504E-02  0.1214950459170E+01  0.2443822129558E+00 -0.1000087267653E+00
 0.7567521360169E-02  0.1130117808503E+01  0.2275370693631E+00 -0.9483195345352E-01
 0.8338703034715E-02  0.1045088098166E+01  0.2106853633796E+00 -0.8702229227963E-01
 0.9806196548912E-02  0.9618073412786E+00  0.1943227104611E+00 -0.7613358952360E-01
 0.1246538463971E-01  0.8825336032617E+00  0.1789998002476E+00 -0.6156508007087E-01
 0.1683253151034E-01  0.8097403452844E+00  0.1653145778223E+00 -0.4248174182791E-01
 0.2362550852046E-01  0.7458845703573E+00  0.1539020180689E+00 -0.1786593605742E-01
 0.3394449549166E-01  0.6930528011088E+00  0.1453994614867E+00  0.1334338179386E-01
 0.4908976268863E-01  0.6521721300164E+00  0.1402523806309E+00  0.5191673324637E-01
 0.7018598785060E-01  0.6220354854264E+00  0.1384442967184E+00  0.9812968280256E-01
 0.1014402643882E+00  0.5929164913898E+00  0.1388713532250E+00  0.1494784977333E+00
 0.1234012350289E+00  0.5363672917504E+00  0.1319537073221E+00  0.1711446944682E+00
-0.5369979285358E-01  0.4821785969973E+00  0.8569576210570E-01  0.1029370136155E+00
-0.6754044230278E+00  0.5271940186016E+00 -0.2964208132693E-01  0.1714414539983E+00
 0.4383691115714E+00  0.2699410575240E+01  0.6275559467137E+00 -0.3045039235569E+00
 0.1205777853082E+00  0.2707386472767E+01  0.5655928600430E+00 -0.1727282070890E+00
 0.1680840959169E-01  0.2614567557511E+01  0.5262752012627E+00 -0.6011963920924E-01
 0.5266813534540E-02  0.2549592008706E+01  0.5109717720621E+00 -0.2925980420795E-01
 0.1120509776406E-02  0.2513092873584E+01  0.5028426841651E+00 -0.2184601194798E-01
-0.8764050269671E-03  0.2484123806463E+01  0.4966494876879E+00 -0.2041864129553E-01
-0.1433631123121E-02  0.2457691650539E+01  0.4912516112033E+00 -0.2220244093683E-01
-0.1666028062846E-02  0.2430673408623E+01  0.4858014833510E+00 -0.2509545066611E-01
-0.1689168483874E-02  0.2401725493685E+01  0.4800072721929E+00 -0.2843017240599E-01
-0.1647304904416E-02  0.2370197573140E+01  0.4737100607060E+00 -0.3186003141504E-01
-0.1582950336738E-02  0.2335812742023E+01  0.4668459652938E+00 -0.3524963287631E-01
-0.1522835908899E-02  0.2298468478904E+01  0.4593891354445E+00 -0.3855302490448E-01
-0.1478065297095E-02  0.2258141049867E+01  0.4513326036393E+00 -0.4177162157047E-01
-0.1453297515224E-02  0.2214833013181E+01  0.4426759497295E+00 -0.4492881670145E-01
-0.1448741494007E-02  0.2168546912202E+01  0.4334196406001E+00 -0.4805638540116E-01
-0.1461674201238E-02  0.2119273901955E+01  0.4235624518624E+00 -0.5118562509418E-01
-0.1486650383655E-02  0.2066991998266E+01  0.4131010757322E+00 -0.5434066489141E-01
-0.1515280784477E-02  0.2011672925422E+01  0.4020315349182E+00 -0.5753256405464E-01
-0.1535235373753E-02  0.1953293758627E+01  0.3903517104672E+00 -0.6075222814007E-01
-0.1526857763028E-02  0.1891856432107E+01  0.3780659205025E+00 -0.6395982805422E-01
-0.1454662009237E-02  0.1827417576263E+01  0.3651925882926E+00 -0.6706470720930E-01
-0.1217554936138E-02  0.1760111769624E+01  0.3517788481794E+00 -0.6987534137680E-01
-0.5578504323330E-03  0.1690067140662E+01  0.3379018630810E+00 -0.7207884930228E-01
 0.7673665057404E-03  0.1617171275718E+01  0.3235877332666E+00 -0.7338654629351E-01
 0.2568933366499E-02  0.1540989025634E+01  0.3087115964002E+00 -0.7358433845368E-01
 0.4263426578227E-02  0.1460954957056E+01  0.2930436810934E+00 -0.7241967502125E-01
 0.5386665207213E-02  0.1376762615082E+01  0.2764298601770E+00 -0.6966596487439E-01
 0.5878167114021E-02  0.1288783519829E+01  0.2589323412470E+00 -0.6523134354791E-01
 0.5997141532078E-02  0.1198211729159E+01  0.2408417777271E+00 -0.5909109457012E-01
 0.6151665616588E-02  0.1106954333244E+01  0.2226212030895E+00 -0.5114761746386E-01
 0.6773288612599E-02  0.1017433370917E+01  0.2048413349583E+00 -0.4113045900500E-01
 0.8232797427605E-02  0.9324327379529E+00  0.1881331098795E+00 -0.2855732500319E-01
 0.1086641045606E-01  0.8550608837756E+00  0.1731854614270E+00 -0.1266898062527E-01
 0.1526446094506E-01  0.7887065653616E+00  0.1607942076573E+00  0.7606037933102E-02
 0.2229061172048E-01  0.7368095184163E+00  0.1518200282897E+00  0.3352617342465E-01
 0.3363859350407E-01  0.7024833776222E+00  0.1472243964191E+00  0.6691518847628E-01
 0.5009915311064E-01  0.6866359920556E+00  0.1473470312289E+00  0.1088704283799E+00
 0.7637539054891E-01  0.6882854314456E+00  0.1529321666778E+00  0.1645634347132E+00
 0.1345673181643E+00  0.6693144379291E+00  0.1607763536144E+00  0.2208184986058E+00
 0.3585518027084E-01  0.5920377826617E+00  0.1255785944578E+00  0.1489177119895E+00
-0.8146155413037E+00  0.6213884221705E+00 -0.3864542440250E-01  0.1323887904256E+00
 0.4222058151739E+00  0.2950395268318E+01  0.6745202267496E+00 -0.3468149177563E+00
 0.4744951002859E-01  0.2844250996526E+01  0.5783401099289E+00 -0.1200453126047E+00
-0.3354047092008E-02  0.2693783651890E+01  0.5380859289777E+00 -0.2179005127343E-01
 0.3593870125209E-02  0.2644971334857E+01  0.5297130488898E+00 -0.1510892305598E-01
-0.4210357164118E-03  0.2614319186687E+01  0.5227796379842E+00 -0.1032403386389E-01
-0.2936584766655E-03  0.2590527910154E+01  0.5180468580549E+00 -0.1080672240218E-01
-0.5757016567691E-03  0.2567241773863E+01  0.5133332220905E+00 -0.1242150155227E-01
-0.5805128256346E-03  0.2542125402588E+01  0.5083089855269E+00 -0.1457629927085E-01
-0.5741303959059E-03  0.2514138260092E+01  0.5027128334303E+00 -0.1685169376862E-01
-0.5440157484978E-03  0.2482898274792E+01  0.4964708592067E+00 -0.1910573992018E-01
-0.5143282818079E-03  0.2448300659423E+01  0.4895572735231E+00 -0.2128170055878E-01
-0.4893211005982E-03  0.2410363749676E+01  0.4819748928971E+00 -0.2337089673898E-01
-0.4724886322216E-03  0.2369144942608E+01  0.4737344978544E+00 -0.2538616147953E-01
-0.4646523236607E-03  0.2324700436498E+01  0.4648471637616E+00 -0.2735010613406E-01
-0.4655243020947E-03  0.2277065983390E+01  0.4553200986023E+00 -0.2928801659433E-01
-0.4739996072531E-03  0.2226250533921E+01  0.4451553134961E+00 -0.3122346820625E-01
-0.4880986699269E-03  0.2172238469826E+01  0.4343500807036E+00 -0.3317459433069E-01
-0.5046830566272E-03  0.2114999596896E+01  0.4228989890695E+00 -0.3515077204169E-01
-0.5195717608480E-03  0.2054503716967E+01  0.4107968351627E+00 -0.3714863481185E-01
-0.5255583997814E-03  0.1990745858641E+01  0.3980440659796E+00 -0.3914469191409E-01
-0.5102484298041E-03  0.1923785923458E+01  0.3846551407374E+00 -0.4108307846931E-01
-0.4343580450699E-03  0.1853817619035E+01  0.3706766577216E+00 -0.4283023090379E-01
-0.9558470825810E-04  0.1781212273660E+01  0.3562233430986E+00 -0.4405727411697E-01
 0.7841599460029E-03  0.1706166555945E+01  0.3413901482653E+00 -0.4426326774790E-01
 0.2085581711407E-02  0.1628039805767E+01  0.3260250823539E+00 -0.4293219228444E-01
 0.3294518572133E-02  0.1545485321750E+01  0.3097559726801E+00 -0.3972891878830E-01
 0.4037221174476E-02  0.1457518405746E+01  0.2923111297398E+00 -0.3470518486702E-01
 0.4294097076758E-02  0.1364327936341E+01  0.2737244107624E+00 -0.2824466290581E-01
 0.4270865106867E-02  0.1267349509158E+01  0.2543240786427E+00 -0.2077416743393E-01
 0.4253812052183E-02  0.1168966942829E+01  0.2346441544728E+00 -0.1252785427620E-01
 0.4534984160527E-02  0.1072168351643E+01  0.2153406703695E+00 -0.3436462924818E-02
 0.5341735839091E-02  0.9802973201116E+00  0.1971278141276E+00  0.6850222118529E-02
 0.6831277699966E-02  0.8970476846728E+00  0.1807757951683E+00  0.1893510162990E-01
 0.9293463173825E-02  0.8267591940629E+00  0.1672105339390E+00  0.3371803542101E-01
 0.1356631395270E-01  0.7745690447688E+00  0.1576270740931E+00  0.5253671411410E-01
 0.2005868927776E-01  0.7459386987936E+00  0.1531994798971E+00  0.7730848775745E-01
 0.3302537675928E-01  0.7463606982083E+00  0.1558772173163E+00  0.1119803982452E+00
 0.4401295364905E-01  0.7791144359027E+00  0.1646254803635E+00  0.1569095645929E+00
 0.1059292755650E+00  0.8491904989150E+00  0.1910239577425E+00  0.2482266976984E+00
 0.1771702937224E+00  0.8151030739144E+00  0.1984546764846E+00  0.2478224264373E+00
-0.9536080888215E+00  0.8093105874257E+00 -0.2885950070921E-01  0.1216704268017E+00
 0.4005725190585E+00  0.3353606672927E+01  0.7508358495854E+00 -0.3478179133755E+00
-0.5964171803178E-01  0.2850888643267E+01  0.5582493933657E+00  0.1014242658609E-01
 0.1086719092239E-01  0.2766051391816E+01  0.5553837248236E+00 -0.7697583874050E-02
-0.2046216826369E-02  0.2733398062293E+01  0.5462703772334E+00 -0.1868566344464E-02
 0.5125250428227E-03  0.2714111764522E+01  0.5429248660032E+00 -0.2216060019652E-02
-0.5536693782726E-04  0.2696763133271E+01  0.5393415613035E+00 -0.2812639973683E-02
 0.7531083404411E-04  0.2677356274977E+01  0.5354863251415E+00 -0.3705184754825E-02
 0.4781249679597E-04  0.2654418873566E+01  0.5308933451234E+00 -0.4626708489431E-02
 0.5735168942311E-04  0.2627515436570E+01  0.5255145654826E+00 -0.5522353896016E-02
 0.5690744072884E-04  0.2596602699542E+01  0.5193319291351E+00 -0.6366806218413E-02
 0.5739050197018E-04  0.2561799004177E+01  0.5123712865708E+00 -0.7158273099215E-02
 0.5605852255341E-04  0.2523265133138E+01  0.5046642458523E+00 -0.7903291647027E-02
 0.5351866471481E-04  0.2481151764335E+01  0.4962410639946E+00 -0.8612494910969E-02
 0.4958913046360E-04  0.2435574396156E+01  0.4871248043160E+00 -0.9297753044789E-02
 0.4430064103877E-04  0.2386604156964E+01  0.4773296986339E+00 -0.9970628332898E-02
 0.3773219044712E-04  0.2334267665254E+01  0.4668610864457E+00 -0.1064122940504E-01
 0.2957896527656E-04  0.2278552645809E+01  0.4557164517456E+00 -0.1131782243614E-01
 0.2049175949881E-04  0.2219424192936E+01  0.4438889435536E+00 -0.1200453550452E-01
 0.1011349837243E-04  0.2156836226171E+01  0.4313692743618E+00 -0.1270174468392E-01
-0.8935689193024E-06  0.2090766926435E+01  0.4181532128042E+00 -0.1340257595941E-01
-0.1154115504853E-04  0.2021259212691E+01  0.4042495403310E+00 -0.1408840687908E-01
-0.2072090787553E-04  0.1948510802220E+01  0.3896980220694E+00 -0.1471769388346E-01
 0.3517887294785E-04  0.1873125983322E+01  0.3746322380214E+00 -0.1510926505031E-01
 0.3502887052005E-03  0.1796149132871E+01  0.3592998896693E+00 -0.1450550957781E-01
 0.8933399070528E-03  0.1716844870961E+01  0.3435476472930E+00 -0.1165399888079E-01
 0.1394856974593E-02  0.1632403365862E+01  0.3267596494364E+00 -0.5965661830624E-02
 0.1748605916085E-02  0.1540801377180E+01  0.3085100012164E+00  0.2007571584243E-02
 0.2001738777342E-02  0.1442013868912E+01  0.2888031258413E+00  0.1116092961828E-01
 0.2256597184292E-02  0.1337836684438E+01  0.2680186603182E+00  0.2045709896668E-01
 0.2611758051289E-02  0.1231273454135E+01  0.2467770461145E+00  0.2926072521373E-01
 0.3152203257390E-02  0.1125980926528E+01  0.2258266293221E+00  0.3741573263740E-01
 0.3963313063663E-02  0.1025949282197E+01  0.2059825221216E+00  0.4517946183481E-01
 0.5046035981608E-02  0.9352696160434E+00  0.1880631332074E+00  0.5296184569454E-01
 0.6459750664005E-02  0.8590772107207E+00  0.1731073948564E+00  0.6117043639809E-01
 0.8351485666835E-02  0.8045496471149E+00  0.1625802289790E+00  0.7080596551250E-01
 0.1185560745717E-01  0.7799643868975E+00  0.1583640012307E+00  0.8395038015185E-01
 0.1485938837669E-01  0.7948133159393E+00  0.1619345432762E+00  0.1039185832133E+00
 0.3304088980857E-01  0.8626235067277E+00  0.1791328819765E+00  0.1367962563603E+00
-0.1434028118664E-02  0.1008556884535E+01  0.2014245742847E+00  0.1863790791914E+00
 0.3351354581737E+00  0.1283590536939E+01  0.3237452038468E+00  0.3692603673823E+00
-0.1089223063200E+01  0.1367105780095E+01  0.5557654420700E-01  0.2690372159096E+00
-0.1670961864890E+01 -0.2281290966170E+01 -0.1857558825887E+01 -0.5151256314021E+00
-0.1444882526018E+01 -0.2345737938815E+01 -0.1781591613952E+01 -0.5465069146812E+00
-0.1226358519898E+01 -0.2402315927935E+01 -0.1705476986156E+01 -0.5597438368899E+00
-0.1020051945731E+01 -0.2446811683251E+01 -0.1629425901489E+01 -0.5587525527526E+00
-0.8292500979341E+00 -0.2479476151608E+01 -0.1555101333340E+01 -0.5475990396154E+00
-0.6545461868975E+00 -0.2500897541073E+01 -0.1483058548385E+01 -0.5292779805365E+00
-0.4962675957933E+00 -0.2512234570852E+01 -0.1413996014737E+01 -0.5060051906962E+00
-0.3543382339242E+00 -0.2515082873044E+01 -0.1348627916855E+01 -0.4800273845499E+00
-0.2279824671952E+00 -0.2511300609631E+01 -0.1287463042843E+01 -0.4532293661584E+00
-0.1160416571258E+00 -0.2502706417455E+01 -0.1230811591931E+01 -0.4268904476400E+00
-0.1731046770298E-01 -0.2490922275363E+01 -0.1178869386251E+01 -0.4018523509720E+00
 0.6932514344870E-01 -0.2477402458467E+01 -0.1131796335188E+01 -0.3786840140486E+00
 0.1448889075850E+00 -0.2463459574992E+01 -0.1089728210917E+01 -0.3577505530589E+00
 0.2102880302365E+00 -0.2450259783392E+01 -0.1052786721313E+01 -0.3392333347531E+00
 0.2662887080000E+00 -0.2438789102551E+01 -0.1021075182849E+01 -0.3231912252151E+00
 0.3135027748569E+00 -0.2429839297410E+01 -0.9946781630771E+00 -0.3096138682786E+00
 0.3519471410023E+00 -0.2424253642923E+01 -0.9739840534326E+00 -0.2984034903169E+00
 0.3814360004136E+00 -0.2422607004152E+01 -0.9593503693237E+00 -0.2896887783507E+00
 0.4023140957304E+00 -0.2425052004624E+01 -0.9506868147686E+00 -0.2838576684055E+00
 0.4123672153895E+00 -0.2433972247093E+01 -0.9501543624906E+00 -0.2807012098297E+00
-0.1643036642260E+01 -0.2224558551071E+01 -0.1817769736255E+01 -0.4852257390875E+00
-0.1424671963482E+01 -0.2288423674083E+01 -0.1745154945229E+01 -0.5192026769366E+00
-0.1212361100798E+01 -0.2344163448281E+01 -0.1671566533827E+01 -0.5366723192940E+00
-0.1011671020392E+01 -0.2389713127686E+01 -0.1598650545542E+01 -0.5406753390568E+00
-0.8250010310667E+00 -0.2424325940938E+01 -0.1527183672969E+01 -0.5344533100686E+00
-0.6534492227024E+00 -0.2448649391675E+01 -0.1457986345059E+01 -0.5206846613383E+00
-0.4974389982980E+00 -0.2463664917435E+01 -0.1391718836865E+01 -0.5014484244855E+00
-0.3569508905270E+00 -0.2470705925331E+01 -0.1328998700082E+01 -0.4788128576027E+00
-0.2313714880649E+00 -0.2471370310214E+01 -0.1270288641969E+01 -0.4545595278413E+00
-0.1197368611768E+00 -0.2467284201123E+01 -0.1215899896197E+01 -0.4299824310535E+00
-0.2100207527123E-01 -0.2459954054409E+01 -0.1166049377992E+01 -0.4059913322267E+00
 0.6584303989564E-01 -0.2450752294011E+01 -0.1120907346591E+01 -0.3832344477090E+00
 0.1417427911400E+00 -0.2440944748674E+01 -0.1080624917300E+01 -0.3621577343018E+00
 0.2075477001256E+00 -0.2431681793494E+01 -0.1045343021232E+01 -0.3430277056763E+00
 0.2639782120256E+00 -0.2423976734182E+01 -0.1015199302839E+01 -0.3259781114381E+00
 0.3115166781888E+00 -0.2418736620860E+01 -0.9903933705435E+00 -0.3110442674997E+00
 0.3502958950912E+00 -0.2416693874744E+01 -0.9712070479733E+00 -0.2982205206030E+00
 0.3802704365152E+00 -0.2418424477133E+01 -0.9579323966609E+00 -0.2876828954422E+00
 0.4008743857660E+00 -0.2424820768519E+01 -0.9512547974812E+00 -0.2796814890382E+00
 0.4113991353698E+00 -0.2436108475432E+01 -0.9516133874158E+00 -0.2745636419762E+00
-0.1615562269856E+01 -0.2170273948768E+01 -0.1779343018240E+01 -0.4560582610852E+00
-0.1403484993091E+01 -0.2232877397832E+01 -0.1709090319399E+01 -0.4924759872174E+00
-0.1197369334265E+01 -0.2288282089028E+01 -0.1638256164793E+01 -0.5137902215931E+00
-0.1001840117919E+01 -0.2334382031030E+01 -0.1568024406029E+01 -0.5222531371015E+00
-0.8193945068142E+00 -0.2370640858096E+01 -0.1499316617705E+01 -0.5205213298064E+00
-0.6511252987304E+00 -0.2397415333974E+01 -0.1432814093737E+01 -0.5109280709424E+00
-0.4975770469335E+00 -0.2415563700220E+01 -0.1369176147690E+01 -0.4954210346337E+00
-0.3587899855991E+00 -0.2426235652020E+01 -0.1308962046361E+01 -0.4759150567591E+00
-0.2342805338973E+00 -0.2430823771731E+01 -0.1252599020468E+01 -0.4540887063349E+00
-0.1232429757951E+00 -0.2430781127960E+01 -0.1200391325720E+01 -0.4312266341253E+00
-0.2476662055094E-01 -0.2427492298905E+01 -0.1152561689221E+01 -0.4082820316926E+00
 0.6205734567770E-01 -0.2422250100554E+01 -0.1109290591978E+01 -0.3859638968097E+00
 0.1380955976465E+00 -0.2416269482163E+01 -0.1070741723007E+01 -0.3647835208724E+00
 0.2041348526690E+00 -0.2410680061591E+01 -0.1037076245563E+01 -0.3450756993005E+00
 0.2608257952556E+00 -0.2406509729571E+01 -0.1008471446570E+01 -0.3270365049907E+00
 0.3086167354352E+00 -0.2404657919444E+01 -0.9851393539854E+00 -0.3107675136609E+00
 0.3476675884780E+00 -0.2405862860002E+01 -0.9673517751628E+00 -0.2963409621321E+00
 0.3778378848006E+00 -0.2410809887827E+01 -0.9554968389990E+00 -0.2839552274500E+00
 0.3988425831430E+00 -0.2420040151255E+01 -0.9499628546031E+00 -0.2739698121785E+00
 0.4101703593655E+00 -0.2433892314521E+01 -0.9511493165106E+00 -0.2669993673292E+00
-0.1588044657061E+01 -0.2117683440011E+01 -0.1741692201206E+01 -0.4275688201621E+00
-0.1381734685610E+01 -0.2179217787857E+01 -0.1673647658284E+01 -0.4662998824683E+00
-0.1181314166434E+01 -0.2234128017109E+01 -0.1605257822193E+01 -0.4910976192584E+00
-0.9908307674039E+00 -0.2280637712739E+01 -0.1537590181767E+01 -0.5035941806935E+00
-0.8125774388458E+00 -0.2318169650404E+01 -0.1471451128215E+01 -0.5059462575534E+00
-0.6477107817441E+00 -0.2346989737906E+01 -0.1407509240666E+01 -0.5001928323892E+00
-0.4967997182730E+00 -0.2367800064212E+01 -0.1346361894353E+01 -0.4881366394625E+00
-0.3599435564672E+00 -0.2381608729142E+01 -0.1288529570968E+01 -0.4715541685817E+00
-0.2367645098709E+00 -0.2389642021583E+01 -0.1234411066652E+01 -0.4520272703111E+00
-0.1265863241052E+00 -0.2393201652722E+01 -0.1184300346105E+01 -0.4308175329564E+00
-0.2861428056782E-01 -0.2393557141654E+01 -0.1138420565557E+01 -0.4089019779537E+00
 0.5796716790894E-01 -0.2391920415010E+01 -0.1096958023355E+01 -0.3870334117218E+00
 0.1339476571498E+00 -0.2389452357970E+01 -0.1060087206697E+01 -0.3657748271296E+00
 0.2000461767493E+00 -0.2387252815555E+01 -0.1027987117631E+01 -0.3455180780840E+00
 0.2568588726293E+00 -0.2386332121983E+01 -0.1000852424658E+01 -0.3265195758894E+00
 0.3047997310853E+00 -0.2387579471597E+01 -0.9789064755578E+00 -0.3089468828111E+00
 0.3440187451270E+00 -0.2391747271087E+01 -0.9624324047603E+00 -0.2929448225980E+00
 0.3744597773278E+00 -0.2399460934969E+01 -0.9517505416771E+00 -0.2787801203443E+00
 0.3959569668999E+00 -0.2411242412270E+01 -0.9471841569216E+00 -0.2669011273062E+00
 0.4082997181754E+00 -0.2427501349602E+01 -0.9490247643633E+00 -0.2580263858777E+00
-0.1560447859712E+01 -0.2066584424342E+01 -0.1704705169182E+01 -0.3996701650531E+00
-0.1359417676295E+01 -0.2127107437788E+01 -0.1638666799463E+01 -0.4406320471864E+00
-0.1164367013764E+01 -0.2181484006097E+01 -0.1572549975346E+01 -0.4686186392213E+00
-0.9787638841280E+00 -0.2228197507033E+01 -0.1507271850023E+01 -0.4847797689665E+00
-0.8047070081021E+00 -0.2266711046439E+01 -0.1443566481973E+01 -0.4908616021086E+00
-0.6433282996971E+00 -0.2297198097985E+01 -0.1382047403405E+01 -0.4886418851620E+00
-0.4952118859961E+00 -0.2320252850561E+01 -0.1323268422826E+01 -0.4797808294041E+00
-0.3604915436578E+00 -0.2336756335775E+01 -0.1267706500118E+01 -0.4659256296727E+00
-0.2388761906180E+00 -0.2347796673679E+01 -0.1215736243136E+01 -0.4485677285488E+00
-0.1297965561197E+00 -0.2354544048006E+01 -0.1167640080978E+01 -0.4289374844251E+00
-0.3255819049302E-01 -0.2358161686668E+01 -0.1123638339416E+01 -0.4080211980490E+00
 0.5356896129297E-01 -0.2359781762689E+01 -0.1083920013907E+01 -0.3866015210936E+00
 0.1293005451241E+00 -0.2360507212011E+01 -0.1048667130777E+01 -0.3652821450965E+00
 0.1952923305013E+00 -0.2361396962038E+01 -0.1018069174240E+01 -0.3445046484126E+00
 0.2520904237513E+00 -0.2363433162871E+01 -0.9923310848691E+00 -0.3245822711111E+00
 0.3000766358074E+00 -0.2367488061478E+01 -0.9716833676006E+00 -0.3057472821972E+00
 0.3394215143699E+00 -0.2374296149672E+01 -0.9563910761661E+00 -0.2882209003585E+00
 0.3701355172637E+00 -0.2384471761884E+01 -0.9467380325703E+00 -0.2723373572117E+00
 0.3921795534137E+00 -0.2398542871756E+01 -0.9429907572291E+00 -0.2586023744139E+00
 0.4055531493841E+00 -0.2417024189824E+01 -0.9453913866088E+00 -0.2477521816471E+00
-0.1532690365972E+01 -0.2016750644533E+01 -0.1668237270706E+01 -0.3723035313602E+00
-0.1336573939001E+01 -0.2076309871793E+01 -0.1604055387005E+01 -0.4154401870265E+00
-0.1146620784096E+01 -0.2130095039629E+01 -0.1540056433244E+01 -0.4463741943236E+00
-0.9657721733499E+00 -0.2176842751695E+01 -0.1477029011025E+01 -0.4658846898481E+00
-0.7959042931676E+00 -0.2216067670381E+01 -0.1415626819277E+01 -0.4753832155359E+00
-0.6380921792668E+00 -0.2247889059115E+01 -0.1356411178599E+01 -0.4764200385239E+00
-0.4929074973320E+00 -0.2272811166811E+01 -0.1299887768850E+01 -0.4705178830674E+00
-0.3605067031313E+00 -0.2291610365060E+01 -0.1246495018889E+01 -0.4592044479517E+00
-0.2406654963400E+00 -0.2305255441744E+01 -0.1196582837865E+01 -0.4438861836094E+00
-0.1329033569641E+00 -0.2314801712261E+01 -0.1150421379618E+01 -0.4257572185717E+00
-0.3661261406925E-01 -0.2321314991371E+01 -0.1108225971746E+01 -0.4058025771803E+00
 0.4885926531348E-01 -0.2325849851165E+01 -0.1070185572636E+01 -0.3848239229094E+00
 0.1241594046453E+00 -0.2329448210272E+01 -0.1036485736016E+01 -0.3634570222653E+00
 0.1898851598000E+00 -0.2333121973165E+01 -0.1007321299727E+01 -0.3421869351125E+00
 0.2465378187272E+00 -0.2337818466686E+01 -0.9829019020475E+00 -0.3213800009383E+00
 0.2944787070683E+00 -0.2344384027284E+01 -0.9634554980578E+00 -0.3013314780775E+00
 0.3338996058758E+00 -0.2353540424944E+01 -0.9492311825543E+00 -0.2823336097992E+00
 0.3648747455253E+00 -0.2365901964458E+01 -0.9404827905132E+00 -0.2647782153606E+00
 0.3874609549724E+00 -0.2382025121028E+01 -0.9374451556685E+00 -0.2492033363164E+00
 0.4018134757800E+00 -0.2402491096123E+01 -0.9403184791764E+00 -0.2363219182497E+00
-0.1504702491610E+01 -0.1967987767643E+01 -0.1632164417709E+01 -0.3454256253908E+00
-0.1313223631224E+01 -0.2026605300349E+01 -0.1569719593858E+01 -0.3907015334417E+00
-0.1128157821992E+01 -0.2079742454090E+01 -0.1507713125935E+01 -0.4243845638653E+00
-0.9519608554059E+00 -0.2126369270062E+01 -0.1446815155300E+01 -0.4469745432692E+00
-0.7862785933136E+00 -0.2166067254742E+01 -0.1387602545067E+01 -0.4596133540290E+00
-0.6321013403575E+00 -0.2198924002989E+01 -0.1330581907998E+01 -0.4636553331179E+00
-0.4899715078838E+00 -0.2225374583478E+01 -0.1276212659703E+01 -0.4604944768407E+00
-0.3600549078089E+00 -0.2246106377540E+01 -0.1224895801007E+01 -0.4515484403782E+00
-0.2421785946802E+00 -0.2261985655705E+01 -0.1176957194696E+01 -0.4381441397665E+00
-0.1359348703570E+00 -0.2273966219643E+01 -0.1132653509427E+01 -0.4214365260287E+00
-0.4079100567987E-01 -0.2283024696414E+01 -0.1092193377214E+01 -0.4024018215911E+00
 0.4383614291095E-01 -0.2290140880230E+01 -0.1055763223862E+01 -0.3818524802309E+00
 0.1185313597903E+00 -0.2296294623080E+01 -0.1023548731150E+01 -0.3604493365065E+00
 0.1838392329691E+00 -0.2302447505097E+01 -0.9957458853746E+00 -0.3387153131632E+00
 0.2402231805258E+00 -0.2309507826333E+01 -0.9725637810628E+00 -0.3170655884533E+00
 0.2880299246130E+00 -0.2318295442593E+01 -0.9542247910304E+00 -0.2958535785595E+00
 0.3274724489676E+00 -0.2329522094569E+01 -0.9409633310459E+00 -0.2754337777364E+00
 0.3586766081957E+00 -0.2343810425067E+01 -0.9330128915630E+00 -0.2562441106041E+00
 0.3817714521490E+00 -0.2361743529074E+01 -0.9305868737945E+00 -0.2388392567623E+00
 0.3970037805000E+00 -0.2383944603977E+01 -0.9338621846656E+00 -0.2238930688242E+00
-0.1476417418978E+01 -0.1920120721707E+01 -0.1596372922073E+01 -0.3190069265361E+00
-0.1289379875966E+01 -0.1977799958557E+01 -0.1535574518331E+01 -0.3664011518302E+00
-0.1109043100923E+01 -0.2030230022909E+01 -0.1475458364459E+01 -0.4026694330036E+00
-0.9374195399750E+00 -0.2076596167921E+01 -0.1416587379118E+01 -0.4281071629868E+00
-0.7759233996236E+00 -0.2116554362726E+01 -0.1359464544856E+01 -0.4436419312395E+00
-0.6254433446932E+00 -0.2150178949480E+01 -0.1304542474952E+01 -0.4504614815261E+00
-0.4864791064837E+00 -0.2177851748036E+01 -0.1252235498448E+01 -0.4498419707663E+00
-0.3591953839146E+00 -0.2200185217581E+01 -0.1202908879652E+01 -0.4431005580992E+00
-0.2434572556297E+00 -0.2217956640440E+01 -0.1156864528219E+01 -0.4314900555611E+00
-0.1389165556727E+00 -0.2232029780825E+01 -0.1114344775328E+01 -0.4161249069669E+00
-0.4510482303096E-01 -0.2243299450449E+01 -0.1075550005808E+01 -0.3979672713003E+00
 0.3849961906858E-01 -0.2252674098956E+01 -0.1040662002907E+01 -0.3778341373670E+00
 0.1124257269281E+00 -0.2261071996661E+01 -0.1009863744213E+01 -0.3564055580073E+00
 0.1771714738813E+00 -0.2269403135822E+01 -0.9833488786178E+00 -0.3342369550797E+00
 0.2331682019920E+00 -0.2278535763246E+01 -0.9613227513509E+00 -0.3117870477109E+00
 0.2807521287562E+00 -0.2289263868117E+01 -0.9440005151050E+00 -0.2894607059701E+00
 0.3201544117624E+00 -0.2302291612090E+01 -0.9316044817910E+00 -0.2676648766575E+00
 0.3515411956843E+00 -0.2318251338015E+01 -0.9243537645512E+00 -0.2468736321496E+00
 0.3750898114996E+00 -0.2337747925251E+01 -0.9224493111232E+00 -0.2276495412105E+00
 0.3910882616056E+00 -0.2361424615004E+01 -0.9260580837483E+00 -0.2106269183289E+00
-0.1447773245351E+01 -0.1872993448224E+01 -0.1560760342022E+01 -0.2930290368240E+00
-0.1265049040626E+01 -0.1929721641847E+01 -0.1501542216954E+01 -0.3425304794590E+00
-0.1089328989944E+01 -0.1981384059655E+01 -0.1443235129651E+01 -0.3812478752948E+00
-0.9222231481126E+00 -0.2027362316614E+01 -0.1386305164905E+01 -0.4093336220433E+00
-0.7649193091039E+00 -0.2067390479410E+01 -0.1331185597225E+01 -0.4275481687261E+00
-0.6181945405879E+00 -0.2101542762093E+01 -0.1278276529018E+01 -0.4369396038734E+00
-0.4824966198607E+00 -0.2130160775633E+01 -0.1227948972768E+01 -0.4386783441140E+00
-0.3579805383753E+00 -0.2153793719956E+01 -0.1180533898421E+01 -0.4339905953382E+00
-0.2445384695295E+00 -0.2173141354227E+01 -0.1136309514283E+01 -0.4240605719037E+00
-0.1418704698181E+00 -0.2188987126064E+01 -0.1095503067286E+01 -0.4099620883338E+00
-0.4956287771022E-01 -0.2202150795710E+01 -0.1058305423823E+01 -0.3926396852925E+00
 0.3285207387336E-01 -0.2213473270304E+01 -0.1024891959723E+01 -0.3729100850536E+00
 0.1058539954532E+00 -0.2223812825380E+01 -0.9954406475408E+00 -0.3514675145313E+00
 0.1699000774744E+00 -0.2234028233574E+01 -0.9701402309060E+00 -0.3288945564538E+00
 0.2253945090174E+00 -0.2244947952481E+01 -0.9491901160205E+00 -0.3056874425878E+00
 0.2726653860896E+00 -0.2257341039934E+01 -0.9327975549408E+00 -0.2822948907349E+00
 0.3119586158094E+00 -0.2271904636823E+01 -0.9211746275398E+00 -0.2591668001403E+00
 0.3434700652285E+00 -0.2289279680720E+01 -0.9145305169616E+00 -0.2368053763733E+00
 0.3674055495807E+00 -0.2310086940918E+01 -0.9130602516128E+00 -0.2157776080565E+00
 0.3840588952057E+00 -0.2334973613198E+01 -0.9169299151308E+00 -0.1966869473754E+00
-0.1418713222900E+01 -0.1826467168843E+01 -0.1525234780251E+01 -0.2674828035397E+00
-0.1240232776321E+01 -0.1882218175807E+01 -0.1467551943778E+01 -0.3190861472334E+00
-0.1069057225327E+01 -0.1933051151334E+01 -0.1410990933452E+01 -0.3601383691085E+00
-0.9064343048108E+00 -0.1978525217242E+01 -0.1355930971926E+01 -0.3906991891451E+00
-0.7533352019122E+00 -0.2018452689999E+01 -0.1302740305894E+01 -0.4114020083183E+00
-0.6104211036190E+00 -0.2052916815473E+01 -0.1251768818798E+01 -0.4231797638220E+00
-0.4780818261600E+00 -0.2082229190539E+01 -0.1203346174797E+01 -0.4271097112991E+00
-0.3564560487599E+00 -0.2106885498958E+01 -0.1157770524491E+01 -0.4243365476693E+00
-0.2454541104747E+00 -0.2127517597108E+01 -0.1115296699735E+01 -0.4159814578256E+00
-0.1448147874415E+00 -0.2144836991330E+01 -0.1076136333293E+01 -0.4030784207038E+00
-0.5417085953461E-01 -0.2159594569976E+01 -0.1040469749231E+01 -0.3865520763512E+00
 0.2689853963719E-01 -0.2172567696876E+01 -0.1008464501345E+01 -0.3672151563965E+00
 0.9882978579050E-01 -0.2184556968781E+01 -0.9802917735192E+00 -0.3457715915650E+00
 0.1620445964755E+00 -0.2196371172359E+01 -0.9561334882402E+00 -0.3228258292018E+00
 0.2169240188345E+00 -0.2208799738892E+01 -0.9361815860526E+00 -0.2989052371517E+00
 0.2637894906884E+00 -0.2222587197959E+01 -0.9206349200823E+00 -0.2744945857129E+00
 0.3028983904640E+00 -0.2238422907992E+01 -0.9096965209308E+00 -0.2500779659798E+00
 0.3344679321525E+00 -0.2256953871172E+01 -0.9035683890473E+00 -0.2261793466446E+00
 0.3587184114271E+00 -0.2278811848791E+01 -0.9024439132722E+00 -0.2033698440507E+00
 0.3759256707248E+00 -0.2304641130658E+01 -0.9064962638693E+00 -0.1822353690760E+00
-0.1389186234865E+01 -0.1780419039210E+01 -0.1489714475037E+01 -0.2423666280353E+00
-0.1214929398603E+01 -0.1835155582337E+01 -0.1433539937406E+01 -0.2960689623035E+00
-0.1048260908250E+01 -0.1885096455703E+01 -0.1378677957561E+01 -0.3393587638302E+00
-0.8901050626880E+00 -0.1929959472245E+01 -0.1325430328057E+01 -0.3722440948461E+00
-0.7412296047616E+00 -0.1969632739668E+01 -0.1274105298650E+01 -0.3952652938380E+00
-0.6021798622713E+00 -0.2004214427038E+01 -0.1225005312868E+01 -0.4092622368521E+00
-0.4732844817968E+00 -0.2033993921193E+01 -0.1178420846416E+01 -0.4152315639044E+00
-0.3546610151718E+00 -0.2059421381190E+01 -0.1134618723412E+01 -0.4142456931215E+00
-0.2462308435535E+00 -0.2081068849297E+01 -0.1093830852865E+01 -0.4073683693973E+00
-0.1477635450488E+00 -0.2099583114513E+01 -0.1056252927315E+01 -0.3955952082014E+00
-0.5893106987536E-01 -0.2115651833824E+01 -0.1022053962147E+01 -0.3798296204139E+00
 0.2064688147112E-01 -0.2129992846726E+01 -0.9913926011550E+00 -0.3608774354832E+00
 0.9136901198943E-01 -0.2143351736781E+01 -0.9644318782059E+00 -0.3394482824871E+00
 0.1536262367750E+00 -0.2156488894826E+01 -0.9413454468965E+00 -0.3161633194075E+00
 0.2077797195637E+00 -0.2170155444931E+01 -0.9223165885835E+00 -0.2915746681182E+00
 0.2541451393966E+00 -0.2185071124490E+01 -0.9075352106918E+00 -0.2661955862062E+00
 0.2929886494467E+00 -0.2201915700138E+01 -0.8971957115494E+00 -0.2405364343905E+00
 0.3245431188160E+00 -0.2221338898254E+01 -0.8914940140746E+00 -0.2151376016201E+00
 0.3490356084783E+00 -0.2243980012697E+01 -0.8906238677240E+00 -0.1905750050561E+00
 0.3667138224643E+00 -0.2270480788308E+01 -0.8947704716770E+00 -0.1674311269903E+00
-0.1359146943264E+01 -0.1734740729728E+01 -0.1454127202618E+01 -0.2176850774445E+00
-0.1189135010258E+01 -0.1788416463061E+01 -0.1399449188911E+01 -0.2734831192882E+00
-0.1026966019093E+01 -0.1837402052915E+01 -0.1346252990429E+01 -0.3189262975285E+00
-0.8732783514371E+00 -0.1881555444774E+01 -0.1294771880935E+01 -0.3540041993915E+00
-0.7286517663367E+00 -0.1920836084735E+01 -0.1245259286845E+01 -0.3791927750214E+00
-0.5935190378785E+00 -0.1955360356593E+01 -0.1197973312363E+01 -0.3952585798942E+00
-0.4681467462809E+00 -0.1985401194228E+01 -0.1153167529115E+01 -0.4031297906383E+00
-0.3526281223788E+00 -0.2011369689127E+01 -0.1111078968589E+01 -0.4038154595255E+00
-0.2468900607151E+00 -0.2033784830869E+01 -0.1071917196326E+01 -0.3983274456633E+00
-0.1507264485273E+00 -0.2053234921650E+01 -0.1035861841356E+01 -0.3876249661573E+00
-0.6384218412494E-01 -0.2070349493328E+01 -0.1003070085859E+01 -0.3725895945575E+00
 0.1410805031141E-01 -0.2085790743564E+01 -0.9736908633590E+00 -0.3540179866861E+00
 0.8349020363522E-01 -0.2100251970368E+01 -0.9478780279604E+00 -0.3326218897621E+00
 0.1446684042894E+00 -0.2114446766762E+01 -0.9257958280138E+00 -0.3090342796507E+00
 0.1979865555319E+00 -0.2129088384077E+01 -0.9076178571139E+00 -0.2838258952382E+00
 0.2437551463864E+00 -0.2144870847518E+01 -0.8935243772656E+00 -0.2575313819317E+00
 0.2822470839814E+00 -0.2162461736321E+01 -0.8837008843582E+00 -0.2306802331812E+00
 0.3137074070375E+00 -0.2182509729821E+01 -0.8783370894803E+00 -0.2038243719423E+00
 0.3383679720916E+00 -0.2205658397312E+01 -0.8776264976277E+00 -0.1775441234742E+00
 0.3564502860591E+00 -0.2232551228036E+01 -0.8817674404926E+00 -0.1524272946814E+00
-0.1328555989030E+01 -0.1689337226108E+01 -0.1418409807517E+01 -0.1934476800566E+00
-0.1162844462539E+01 -0.1741898550128E+01 -0.1365229212491E+01 -0.2513355223602E+00
-0.1005192775763E+01 -0.1789865519542E+01 -0.1313677395461E+01 -0.2988575929629E+00
-0.8559892874084E+00 -0.1833218060280E+01 -0.1263927450208E+01 -0.3360115323642E+00
-0.7156427077341E+00 -0.1871981050938E+01 -0.1216183163491E+01 -0.3632329364082E+00
-0.5844790062092E+00 -0.1906290319906E+01 -0.1170661580305E+01 -0.3812325251137E+00
-0.4627036924995E+00 -0.1936406383843E+01 -0.1127581733021E+01 -0.3908815290317E+00
-0.3503839145602E+00 -0.1962706377740E+01 -0.1087152434623E+01 -0.3931341452484E+00
-0.2474479636938E+00 -0.1985661846022E+01 -0.1049561607904E+01 -0.3889558094663E+00
-0.1537088235213E+00 -0.2005807952256E+01 -0.1014972882041E+01 -0.3792716550861E+00
-0.6889912100002E-01 -0.2023720673456E+01 -0.9835313008998E+00 -0.3649413639522E+00
 0.7296289408709E-02 -0.2040010190107E+01 -0.9553755309048E+00 -0.3467506771388E+00
 0.7521484443206E-01 -0.2055320104576E+01 -0.9306494699070E+00 -0.3254103006591E+00
 0.1351972657154E+00 -0.2070318618795E+01 -0.9095070336408E+00 -0.3015604989450E+00
 0.1875722805290E+00 -0.2085681167639E+01 -0.8921111746789E+00 -0.2757849035940E+00
 0.2326455458735E+00 -0.2102074575847E+01 -0.8786316418592E+00 -0.2486330339024E+00
 0.2706952259802E+00 -0.2120151099020E+01 -0.8692442581241E+00 -0.2206470923291E+00
 0.3019766373288E+00 -0.2140554171366E+01 -0.8641314388057E+00 -0.1923858643890E+00
 0.3267272750251E+00 -0.2163928315233E+01 -0.8634844867077E+00 -0.1644322921764E+00
 0.3451549727236E+00 -0.2190919563331E+01 -0.8675093553850E+00 -0.1373821721430E+00
-0.1297379912525E+01 -0.1644125511692E+01 -0.1382507545876E+01 -0.1696678548186E+00
-0.1136052045449E+01 -0.1695513251103E+01 -0.1330835686004E+01 -0.2296351965174E+00
-0.9829566826934E+00 -0.1742398488395E+01 -0.1280916927163E+01 -0.2791686351507E+00
-0.8382662385285E+00 -0.1784865579043E+01 -0.1232871951131E+01 -0.3182947231025E+00
-0.7022361058518E+00 -0.1822997912751E+01 -0.1186859985733E+01 -0.3474286723807E+00
-0.5750929661130E+00 -0.1856950384903E+01 -0.1143060372078E+01 -0.3672407145243E+00
-0.4569837720158E+00 -0.1886973694450E+01 -0.1101660006445E+01 -0.3785558624426E+00
-0.3479490704154E+00 -0.1913414960126E+01 -0.1062841091659E+01 -0.3822815024856E+00
-0.2479156748197E+00 -0.1936702878052E+01 -0.1026770717245E+01 -0.3793419676526E+00
-0.1567116015340E+00 -0.1957324028081E+01 -0.9935967433991E+00 -0.3706308632380E+00
-0.7409293115606E-01 -0.1975804867647E+01 -0.9634519629936E+00 -0.3569863605338E+00
 0.2293495494552E-03 -0.1992706846189E+01 -0.9364644210455E+00 -0.3391820053332E+00
 0.6656773374848E-01 -0.2008626201198E+01 -0.9127674773863E+00 -0.3179247318945E+00
 0.1252423155083E+00 -0.2024186859510E+01 -0.8925039334171E+00 -0.2938580029232E+00
 0.1765682651033E+00 -0.2040026107371E+01 -0.8758251836446E+00 -0.2675731334993E+00
 0.2208465940211E+00 -0.2056781628868E+01 -0.8628894641893E+00 -0.2396286409765E+00
 0.2583596113251E+00 -0.2075086820640E+01 -0.8538617862123E+00 -0.2105736740134E+00
 0.2893719023221E+00 -0.2095575393780E+01 -0.8489156388319E+00 -0.1809694099149E+00
 0.3141290580359E+00 -0.2118888712433E+01 -0.8482370354154E+00 -0.1513987293237E+00
 0.3328391358205E+00 -0.2145674285434E+01 -0.8520325181574E+00 -0.1224638260704E+00
-0.1265591110594E+01 -0.1599033483208E+01 -0.1346373555672E+01 -0.1463620321880E+00
-0.1108752091576E+01 -0.1649184400836E+01 -0.1296230148146E+01 -0.2083928198675E+00
-0.9602694772374E+00 -0.1694925423769E+01 -0.1247941600308E+01 -0.2598747747935E+00
-0.8201318058671E+00 -0.1736428544210E+01 -0.1201583361489E+01 -0.3008793784785E+00
-0.6884591423825E+00 -0.1773828097197E+01 -0.1157274999667E+01 -0.3318178704538E+00
-0.5653876118644E+00 -0.1807296436825E+01 -0.1115161500056E+01 -0.3533333367044E+00
-0.4510093124830E+00 -0.1837075859699E+01 -0.1075400028198E+01 -0.3662144239172E+00
-0.3453387316087E+00 -0.1863486397173E+01 -0.1038147807894E+01 -0.3713292423029E+00
-0.2482994144993E+00 -0.1886917608113E+01 -0.1003551998082E+01 -0.3695661608859E+00
-0.1597313718858E+00 -0.1907811327570E+01 -0.9717450662794E+00 -0.3617899718991E+00
-0.7941073941031E-01 -0.1926648005548E+01 -0.9428476077389E+00 -0.3488180681808E+00
-0.7071335911492E-02 -0.1943943265662E+01 -0.9169768604137E+00 -0.3314109340343E+00
 0.5757730824328E-01 -0.1960247991057E+01 -0.8942552186545E+00 -0.3102694387335E+00
 0.1148368792984E+00 -0.1976142624390E+01 -0.8748136979742E+00 -0.2860366410867E+00
 0.1650101940298E+00 -0.1992225616832E+01 -0.8587912465390E+00 -0.2593069011915E+00
 0.2083936481347E+00 -0.2009103222062E+01 -0.8463334975990E+00 -0.2306425114172E+00
 0.2452728047152E+00 -0.2027386181779E+01 -0.8375932850956E+00 -0.2005944192637E+00
 0.2759210335487E+00 -0.2047693751981E+01 -0.8327331755513E+00 -0.1697219369896E+00
 0.3005946827150E+00 -0.2070659602683E+01 -0.8319305102751E+00 -0.1386044889591E+00
 0.3195125172014E+00 -0.2096930756226E+01 -0.8353865702226E+00 -0.1078462544722E+00
-0.1233167649557E+01 -0.1553998834855E+01 -0.1309968244351E+01 -0.1235488498790E+00
-0.1080939408725E+01 -0.1602847014312E+01 -0.1261379615628E+01 -0.1876202805246E+00
-0.9371398942217E+00 -0.1647382387994E+01 -0.1214725469561E+01 -0.2409906845059E+00
-0.8016036630529E+00 -0.1687848695985E+01 -0.1170042605780E+01 -0.2837883582999E+00
-0.6743332648345E+00 -0.1724423314551E+01 -0.1127415589452E+01 -0.3164338678597E+00
-0.5553837653594E+00 -0.1757293532402E+01 -0.1086958327191E+01 -0.3395546387873E+00
-0.4447970113670E+00 -0.1786693695307E+01 -0.1048800629477E+01 -0.3539118866567E+00
-0.3425628572143E+00 -0.1812918810322E+01 -0.1013076381173E+01 -0.3603414446886E+00
-0.2486007256977E+00 -0.1836322236175E+01 -0.9799137895950E+00 -0.3597006440257E+00
-0.1627604914200E+00 -0.1857304258728E+01 -0.9494304301616E+00 -0.3528282770873E+00
-0.8483574803055E-01 -0.1876302334695E+01 -0.9217348965432E+00 -0.3405219792230E+00
-0.1458054113800E-01 -0.1893788776112E+01 -0.8969335768327E+00 -0.3235286879544E+00
 0.4827588436686E-01 -0.1910270784845E+01 -0.8751376010052E+00 -0.3025413556976E+00
 0.1040185082945E+00 -0.1926285791962E+01 -0.8564656211516E+00 -0.2781995505298E+00
 0.1529386187778E+00 -0.1942392424351E+01 -0.8410432864860E+00 -0.2510966343570E+00
 0.1953278570308E+00 -0.1959162962745E+01 -0.8290024975828E+00 -0.2217940963887E+00
 0.2314742401280E+00 -0.1977181533430E+01 -0.8204824257710E+00 -0.1908401093389E+00
 0.2616595591794E+00 -0.1997048078870E+01 -0.8156326021860E+00 -0.1587880672864E+00
 0.2861528138041E+00 -0.2019383778088E+01 -0.8146185511471E+00 -0.1262100333005E+00
 0.3051902198941E+00 -0.2044831637961E+01 -0.8176314644178E+00 -0.9370631785108E-01
-0.1200093021803E+01 -0.1508968033094E+01 -0.1273258692572E+01 -0.1012484843179E+00
-0.1052609616096E+01 -0.1556446142509E+01 -0.1226256203434E+01 -0.1673303206169E+00
-0.9135743175916E+00 -0.1599715902104E+01 -0.1181246400261E+01 -0.2225303357751E+00
-0.7826953007526E+00 -0.1639077952588E+01 -0.1138233426183E+01 -0.2670420168416E+00
-0.6598748860866E+00 -0.1674744719237E+01 -0.1097271211719E+01 -0.3013058458133E+00
-0.5450969770982E+00 -0.1706915247378E+01 -0.1058445742819E+01 -0.3259433698394E+00
-0.4383584225246E+00 -0.1735815611374E+01 -0.1021861793341E+01 -0.3416963890298E+00
-0.3396265912603E+00 -0.1761717123757E+01 -0.9876315435530E+00 -0.3493749128026E+00
-0.2488167274162E+00 -0.1784939209070E+01 -0.9558652877239E+00 -0.3498099255947E+00
-0.1657872339598E+00 -0.1805843228110E+01 -0.9266663148225E+00 -0.3438170845927E+00
-0.9034728804700E-01 -0.1824826198346E+01 -0.9001315363218E+00 -0.3321755297306E+00
-0.2226919716465E-01 -0.1842319259043E+01 -0.8763565721949E+00 -0.3156185201971E+00
 0.3869982180097E-01 -0.1858787280140E+01 -0.8554411032497E+00 -0.2948296790591E+00
 0.9282926493653E-01 -0.1874724866742E+01 -0.8374909307243E+00 -0.2704425230809E+00
 0.1403993627696E+00 -0.1890649588498E+01 -0.8226176040059E+00 -0.2430459725380E+00
 0.1816966749623E+00 -0.1907097036878E+01 -0.8109381680435E+00 -0.2131967607712E+00
 0.2170108299159E+00 -0.1924620681851E+01 -0.8025766283740E+00 -0.1814362498708E+00
 0.2466314848902E+00 -0.1943796235787E+01 -0.7976674308982E+00 -0.1483081035918E+00
 0.2708411554134E+00 -0.1965227185160E+01 -0.7963614319610E+00 -0.1143729513654E+00
 0.2898968976938E+00 -0.1989547374357E+01 -0.7988357220057E+00 -0.8022099582295E-01
-0.1166355904369E+01 -0.1463895395035E+01 -0.1236218107585E+01 -0.7948206930315E-01
-0.1023759418998E+01 -0.1509935813194E+01 -0.1190836756110E+01 -0.1475362152229E+00
-0.8895773668451E+00 -0.1551881887094E+01 -0.1147485846441E+01 -0.2045069578584E+00
-0.7634167216551E+00 -0.1590077447986E+01 -0.1106142256926E+01 -0.2506583877958E+00
-0.6450960628661E+00 -0.1624762097323E+01 -0.1066833332583E+01 -0.2864591504128E+00
-0.5345381320292E+00 -0.1656143020573E+01 -0.1029620139111E+01 -0.3125331523298E+00
-0.4317004684999E+00 -0.1684437093853E+01 -0.9945846517832E+00 -0.3296098971109E+00
-0.3365306736628E+00 -0.1709892651790E+01 -0.9618189605232E+00 -0.3384794788036E+00
-0.2489404261159E+00 -0.1732796875299E+01 -0.9314165293027E+00 -0.3399509755519E+00
-0.1687960092583E+00 -0.1753474325070E+01 -0.9034670548428E+00 -0.3348197879791E+00
-0.9592095080480E-01 -0.1772283722156E+01 -0.8780561940645E+00 -0.3238480246162E+00
-0.3010443518369E-01 -0.1789616831378E+01 -0.8552689931149E+00 -0.3077554636857E+00
 0.2888957332492E-01 -0.1805897251748E+01 -0.8351936067404E+00 -0.2872154181552E+00
 0.8131586878205E-01 -0.1821576707671E+01 -0.8179225922035E+00 -0.2628533190669E+00
 0.1274437578604E+00 -0.1837130295195E+01 -0.8035526705090E+00 -0.2352507956052E+00
 0.1675541794381E+00 -0.1853054087847E+01 -0.7921849549431E+00 -0.2049564763800E+00
 0.2019373906381E+00 -0.1869866826942E+01 -0.7839268330747E+00 -0.1725013959350E+00
 0.2308900333111E+00 -0.1888115029265E+01 -0.7788957461230E+00 -0.1384160024624E+00
 0.2547079501922E+00 -0.1908378878108E+01 -0.7772253341493E+00 -0.1032456081811E+00
 0.2736696414652E+00 -0.1931276487689E+01 -0.7790752157492E+00 -0.6756446774912E-01
-0.1131949796712E+01 -0.1418742134414E+01 -0.1198825204589E+01 -0.5827118809952E-01
-0.9943867719721E+00 -0.1463277973524E+01 -0.1155102427454E+01 -0.1282514909313E+00
-0.8651523614974E+00 -0.1503844594361E+01 -0.1113428566429E+01 -0.1869329900163E+00
-0.7437750334190E+00 -0.1540816542733E+01 -0.1073758038068E+01 -0.2346533263861E+00
-0.6300050999777E+00 -0.1574453004183E+01 -0.1036095306328E+01 -0.2719155526228E+00
-0.5237140085146E+00 -0.1604965425801E+01 -0.1000479331591E+01 -0.2993527900899E+00
-0.4248259299879E+00 -0.1632560093790E+01 -0.9669714287232E+00 -0.3176885087761E+00
-0.3332718504067E+00 -0.1657462576553E+01 -0.9356451782980E+00 -0.3276982607520E+00
-0.2489610467163E+00 -0.1679929016079E+01 -0.9065783272142E+00 -0.3301733960108E+00
-0.1717676203906E+00 -0.1700248871548E+01 -0.8798477489797E+00 -0.3258919199389E+00
-0.1015287769308E+00 -0.1718744356571E+01 -0.8555283705758E+00 -0.3156005409090E+00
-0.3804970857898E-01 -0.1735769368619E+01 -0.8336949641686E+00 -0.3000060576176E+00
 0.1888963105237E-01 -0.1751707058764E+01 -0.8144241889587E+00 -0.2797709114167E+00
 0.6952971105559E-01 -0.1766966032522E+01 -0.7977950690659E+00 -0.2555109327486E+00
 0.1141287244111E+00 -0.1781977371775E+01 -0.7838888622730E+00 -0.2277981953482E+00
 0.1529612124340E+00 -0.1797194742867E+01 -0.7727897573436E+00 -0.1971704641870E+00
 0.1863169029839E+00 -0.1813098058508E+01 -0.7645871411572E+00 -0.1641454448094E+00
 0.2144982120843E+00 -0.1830199639321E+01 -0.7593796688752E+00 -0.1292372934866E+00
 0.2378131733937E+00 -0.1849050508547E+01 -0.7572815456012E+00 -0.9297261398595E-01
 0.2565600790998E+00 -0.1870245432643E+01 -0.7584321142414E+00 -0.5590488097549E-01
-0.1096872699389E+01 -0.1373475537313E+01 -0.1161063668305E+01 -0.3763746296332E-01
-0.9644910258729E+00 -0.1416441537053E+01 -0.1119038301737E+01 -0.1094896964372E+00
-0.8403017631907E+00 -0.1455575636886E+01 -0.1079062375299E+01 -0.1698200436934E+00
-0.7237750211788E+00 -0.1491271915669E+01 -0.1041072057678E+01 -0.2190406300205E+00
-0.6146071468167E+00 -0.1523801959839E+01 -0.1005052277579E+01 -0.2576934716382E+00
-0.5126278431779E+00 -0.1553377477448E+01 -0.9710224982313E+00 -0.2864265381929E+00
-0.4177339542326E+00 -0.1580192427353E+01 -0.9390253969635E+00 -0.3059627255431E+00
-0.3298433159302E+00 -0.1604449414772E+01 -0.9091175811240E+00 -0.3170678972650E+00
-0.2488644096255E+00 -0.1626374345137E+01 -0.8813622125029E+00 -0.3205195818087E+00
-0.1746795818294E+00 -0.1646222921018E+01 -0.8558241741676E+00 -0.3170812046694E+00
-0.1071395224814E+00 -0.1664282347089E+01 -0.8325682765865E+00 -0.3074858393349E+00
-0.4606501157929E-01 -0.1680869928821E+01 -0.8116594199296E+00 -0.2924280840734E+00
 0.8748353434599E-02 -0.1696329015579E+01 -0.7931629091961E+00 -0.2725593497015E+00
 0.5752672735901E-01 -0.1711024736288E+01 -0.7771440622255E+00 -0.2484848603839E+00
 0.1005166888518E+00 -0.1725342556973E+01 -0.7636681560802E+00 -0.2207654479469E+00
 0.1379853577239E+00 -0.1739690828327E+01 -0.7528015692743E+00 -0.1899258420507E+00
 0.1702205566136E+00 -0.1754506535488E+01 -0.7446144081821E+00 -0.1564679486835E+00
 0.1975290854241E+00 -0.1770262679223E+01 -0.7391847872106E+00 -0.1208870040938E+00
 0.2202293722811E+00 -0.1787475234374E+01 -0.7366055533153E+00 -0.8368816104039E-01
 0.2386358259561E+00 -0.1806707802901E+01 -0.7369938272949E+00 -0.4540078375202E-01
-0.1061126734535E+01 -0.1328068135687E+01 -0.1122921586156E+01 -0.1760220324376E-01
-0.9340730136703E+00 -0.1369401443534E+01 -0.1082632992140E+01 -0.9126419949183E-01
-0.8150275494455E+00 -0.1407053024436E+01 -0.1044377867075E+01 -0.1531788557297E+00
-0.7034196628308E+00 -0.1441426649245E+01 -0.1008077764119E+01 -0.2038321247341E+00
-0.5989047530501E+00 -0.1472799622730E+01 -0.9737010541471E+00 -0.2438081525836E+00
-0.5012798727721E+00 -0.1501379899121E+01 -0.9412500904022E+00 -0.2737743276331E+00
-0.4104205578040E+00 -0.1527347124070E+01 -0.9107508081710E+00 -0.2944576864197E+00
-0.3262351675037E+00 -0.1550880418342E+01 -0.8822443231096E+00 -0.3066187553460E+00
-0.2486333379632E+00 -0.1572175927920E+01 -0.8557803527946E+00 -0.3110248674565E+00
-0.1775064868540E+00 -0.1591456661310E+01 -0.8314126775284E+00 -0.3084276094845E+00
-0.1127189951858E+00 -0.1608976089425E+01 -0.8091966877146E+00 -0.2995482854304E+00
-0.5410719104330E-01 -0.1625016035951E+01 -0.7891879146856E+00 -0.2850703207616E+00
-0.1482325307192E-02 -0.1639880587040E+01 -0.7714405668466E+00 -0.2656343189491E+00
 0.4536712816377E-01 -0.1653890989113E+01 -0.7560062127286E+00 -0.2418343887261E+00
 0.8667534404666E-01 -0.1667385495349E+01 -0.7429337692276E+00 -0.2142190066534E+00
 0.1227007384570E+00 -0.1680724273621E+01 -0.7322710596698E+00 -0.1832982906635E+00
 0.1537276462237E+00 -0.1694297294079E+01 -0.7240677326557E+00 -0.1495564372420E+00
 0.1800655989610E+00 -0.1708533099258E+01 -0.7183797233175E+00 -0.1134676438099E+00
 0.2020418815135E+00 -0.1723906141567E+01 -0.7152762004110E+00 -0.7551342994873E-01
 0.2199818508958E+00 -0.1740941972472E+01 -0.7148512553275E+00 -0.3619735337376E-01
-0.1024717755756E+01 -0.1282496924629E+01 -0.1084390897030E+01  0.1813876008765E-02
-0.9031351063407E+00 -0.1322137759826E+01 -0.1045878244445E+01 -0.7358802070740E-01
-0.7893315520487E+00 -0.1358260237191E+01 -0.1009368138383E+01 -0.1370192455499E+00
-0.6827106110375E+00 -0.1391269343041E+01 -0.9747705759445E+00 -0.1890377316072E+00
-0.5828984000626E+00 -0.1421441979043E+01 -0.9420399757902E+00 -0.2302718131386E+00
-0.4896678629102E+00 -0.1448978393891E+01 -0.9111637383857E+00 -0.2614119589604E+00
-0.4028791285937E+00 -0.1474041762398E+01 -0.8821528165285E+00 -0.2831933775166E+00
-0.3224348727660E+00 -0.1496786947314E+01 -0.8550342532688E+00 -0.2963751250375E+00
-0.2482480937771E+00 -0.1517380557089E+01 -0.8298454638024E+00 -0.3017176744920E+00
-0.1802204219115E+00 -0.1536013755200E+01 -0.8066300611967E+00 -0.2999634109947E+00
-0.1182304581744E+00 -0.1552907399443E+01 -0.7854347910879E+00 -0.2918237982344E+00
-0.6213034891881E-01 -0.1568308848022E+01 -0.7663064206184E+00 -0.2779723321527E+00
-0.1174730196365E-01 -0.1582483429786E+01 -0.7492884420218E+00 -0.2590393895577E+00
 0.3311498884081E-01 -0.1595708131600E+01 -0.7344187752341E+00 -0.2356079358246E+00
 0.7267724248038E-01 -0.1608272479012E+01 -0.7217297593395E+00 -0.2082135480666E+00
 0.1071876486275E+00 -0.1620485694587E+01 -0.7112500797970E+00 -0.1773507641731E+00
 0.1369252365891E+00 -0.1632686752518E+01 -0.7030079107035E+00 -0.1434847648732E+00
 0.1622005380811E+00 -0.1645254538697E+01 -0.6970353785215E+00 -0.1070672018604E+00
 0.1833478641192E+00 -0.1658615547574E+01 -0.6933758094651E+00 -0.6855456488009E-01
 0.2007027873427E+00 -0.1673247284821E+01 -0.6920959120592E+00 -0.2842423488907E-01
-0.9876549555318E+00 -0.1236742618027E+01 -0.1045466856921E+01  0.2059086953965E-01
-0.8716812512997E+00 -0.1274634818688E+01 -0.1008768550335E+01 -0.5647370089706E-01
-0.7632157706666E+00 -0.1309185334211E+01 -0.9740285168220E+00 -0.1213500752827E+00
-0.6616486507098E+00 -0.1340793256102E+01 -0.9411476938146E+00 -0.1746655148225E+00
-0.5665870128590E+00 -0.1369729551646E+01 -0.9100687830090E+00 -0.2170937626131E+00
-0.4777876251891E+00 -0.1396182923514E+01 -0.8807661556564E+00 -0.2493512696565E+00
-0.3951009261670E+00 -0.1420297802459E+01 -0.8532374002903E+00 -0.2721848233972E+00
-0.3184277479140E+00 -0.1442203826965E+01 -0.8274968380943E+00 -0.2863554082388E+00
-0.2476868397566E+00 -0.1462038097028E+01 -0.8035707182507E+00 -0.2926196683401E+00
-0.1827914241015E+00 -0.1479960631702E+01 -0.7814934642455E+00 -0.2917132874795E+00
-0.1236350975080E+00 -0.1496160710417E+01 -0.7613040277939E+00 -0.2843398417795E+00
-0.7008633245305E-01 -0.1510852222175E+01 -0.7430411187904E+00 -0.2711643189116E+00
-0.2198882517664E-01 -0.1524262291230E+01 -0.7267380228679E+00 -0.2528077776949E+00
 0.2083769629321E-01 -0.1536623380732E+01 -0.7124192698791E+00 -0.2298424742822E+00
 0.5859922207957E-01 -0.1548174940365E+01 -0.7001005858187E+00 -0.2027911051969E+00
 0.9153196949985E-01 -0.1559172684580E+01 -0.6897911343383E+00 -0.1721322791534E+00
 0.1199076807635E+00 -0.1569900788574E+01 -0.6814967589425E+00 -0.1383114957744E+00
 0.1440360786947E+00 -0.1580683487623E+01 -0.6752242804836E+00 -0.1017570563909E+00
 0.1642574023061E+00 -0.1591892694199E+01 -0.6709885854876E+00 -0.6290013408578E-01
 0.1809171927183E+00 -0.1603948851887E+01 -0.6688248781130E+00 -0.2219321189443E-01
-0.9499504653394E+00 -0.1190788923588E+01 -0.1006147510244E+01  0.3870983931463E-01
-0.8397169945541E+00 -0.1226880378181E+01 -0.9713007627221E+00 -0.3993319571424E-01
-0.7366826644302E+00 -0.1259820082584E+01 -0.9383562887167E+00 -0.1061792085834E+00
-0.6402341330403E+00 -0.1289995467505E+01 -0.9072079099551E+00 -0.1607217093630E+00
-0.5499684513297E+00 -0.1317666622538E+01 -0.8777884824912E+00 -0.2042804934300E+00
-0.4656335194592E+00 -0.1343006994331E+01 -0.8500610393255E+00 -0.2376002768078E+00
-0.3870755756909E+00 -0.1366139916994E+01 -0.8240112794718E+00 -0.2614422632697E+00
-0.3141974406618E+00 -0.1387168692779E+01 -0.7996420806891E+00 -0.2765723065147E+00
-0.2469261198800E+00 -0.1406200803596E+01 -0.7769696520628E+00 -0.2837459316509E+00
-0.1851879749310E+00 -0.1423365736290E+01 -0.7560202423564E+00 -0.2836944473114E+00
-0.1288925467772E+00 -0.1438822207543E+01 -0.7368259326618E+00 -0.2771154730786E+00
-0.7792530583229E-01 -0.1452751688169E+01 -0.7194181853559E+00 -0.2646670441001E+00
-0.3214712608609E-01 -0.1465343779934E+01 -0.7038207240444E+00 -0.2469621024934E+00
 0.8605255293856E-02 -0.1476786359312E+01 -0.6900451171384E+00 -0.2245630666659E+00
 0.4452165163114E-01 -0.1487267714860E+01 -0.6780906479975E+00 -0.1979803223273E+00
 0.7582438020928E-01 -0.1496987791657E+01 -0.6679468016861E+00 -0.1676768210901E+00
 0.1027757726258E+00 -0.1506172499359E+01 -0.6595964598916E+00 -0.1340783645992E+00
 0.1256831181418E+00 -0.1515086755737E+01 -0.6530197080137E+00 -0.9758978863820E-01
 0.1448921695882E+00 -0.1524041918247E+01 -0.6482003802256E+00 -0.5861753881634E-01
 0.1607593321841E+00 -0.1533393789761E+01 -0.6451381934246E+00 -0.1759191706028E-01
-0.9116189484644E+00 -0.1144621826471E+01 -0.9664331617682E+00  0.5615291511509E-01
-0.8072494923541E+00 -0.1178864793641E+01 -0.9334737120499E+00 -0.2397779634278E-01
-0.7097354265125E+00 -0.1210159101204E+01 -0.9023504257380E+00 -0.9151346744515E-01
-0.6184673888059E+00 -0.1238876053140E+01 -0.8729514155005E+00 -0.1472107284690E+00
-0.5330399801729E+00 -0.1265260470656E+01 -0.8452012097456E+00 -0.1918357462395E+00
-0.4531989375534E+00 -0.1289466954976E+01 -0.8190529674113E+00 -0.2261632974096E+00
-0.3787915494191E+00 -0.1311595328173E+01 -0.7944818304534E+00 -0.2509713154634E+00
-0.3097264101480E+00 -0.1331721333376E+01 -0.7714804374994E+00 -0.2670330126406E+00
-0.2459413498467E+00 -0.1349922631463E+01 -0.7500560693134E+00 -0.2751051606751E+00
-0.1873775203541E+00 -0.1366298754611E+01 -0.7302278473814E+00 -0.2759168026322E+00
-0.1339614583621E+00 -0.1380978916212E+01 -0.7120219742440E+00 -0.2701614594295E+00
-0.8559639306671E-01 -0.1394113348723E+01 -0.6954635768774E+00 -0.2584918535007E+00
-0.4216114919267E-01 -0.1405855027313E+01 -0.6805676012313E+00 -0.2415142619158E+00
-0.3510541422147E-02 -0.1416347472327E+01 -0.6673332647697E+00 -0.2197825424427E+00
 0.3052750103278E-01 -0.1425727087872E+01 -0.6557438041512E+00 -0.1937958693858E+00
 0.6015931981448E-01 -0.1434136214174E+01 -0.6457691387112E+00 -0.1640024155857E+00
 0.8563560729041E-01 -0.1441739523494E+01 -0.6373688389992E+00 -0.1308088931848E+00
 0.1072597513527E+00 -0.1448738605914E+01 -0.6304950600449E+00 -0.9459714507245E-01
 0.1253834480874E+00 -0.1455379238424E+01 -0.6250980198726E+00 -0.5575009651338E-01
 0.1403774475262E+00 -0.1461946441602E+01 -0.6211374256401E+00 -0.1467954847314E-01
-0.8726772210981E+00 -0.1098228913898E+01 -0.9263258810987E+00  0.7290332391350E-01
-0.7742875412882E+00 -0.1130580228838E+01 -0.8952878496884E+00 -0.8618088255477E-02
-0.6823782667768E+00 -0.1160199049097E+01 -0.8660113362642E+00 -0.7735859635057E-01
-0.5963491385484E+00 -0.1187437312011E+01 -0.8383796296363E+00 -0.1341351589738E+00
-0.5157987274364E+00 -0.1212520661042E+01 -0.8123101105245E+00 -0.1797605565247E+00
-0.4404767718796E+00 -0.1235581343395E+01 -0.7877473121811E+00 -0.2150410542402E+00
-0.3702366337446E+00 -0.1256693188532E+01 -0.7646570145304E+00 -0.2407731381910E+00
-0.3049963973903E+00 -0.1275903070226E+01 -0.7430227478949E+00 -0.2577394140873E+00
-0.2447073073752E+00 -0.1293258568878E+01 -0.7228439600054E+00 -0.2666998936777E+00
-0.1893270045487E+00 -0.1308829850726E+01 -0.7041337201933E+00 -0.2683831991387E+00
-0.1388001069996E+00 -0.1322717786048E+01 -0.6869134079903E+00 -0.2634804789210E+00
-0.9304837644735E-01 -0.1335042748953E+01 -0.6712028272359E+00 -0.2526408079112E+00
-0.5196936768009E-01 -0.1345922283463E+01 -0.6570090743708E+00 -0.2364654499811E+00
-0.1543706343608E-01 -0.1355456172532E+01 -0.6443198192705E+00 -0.2155013460480E+00
 0.1670123896654E-01 -0.1363728674015E+01 -0.6331028928671E+00 -0.1902380565413E+00
 0.4463372089382E-01 -0.1370823226788E+01 -0.6233090661893E+00 -0.1611104242743E+00
 0.6859708656564E-01 -0.1376840976762E+01 -0.6148746268328E+00 -0.1285072405952E+00
 0.8888944851941E-01 -0.1381917132480E+01 -0.6077230099200E+00 -0.9278828807264E-01
 0.1058696975669E+00 -0.1386228162857E+01 -0.6017684771600E+00 -0.5431457560197E-01
 0.1199295469407E+00 -0.1389983930925E+01 -0.5969255589587E+00 -0.1348335816693E-01
-0.8331438665132E+00 -0.1051598672259E+01 -0.8858289909763E+00  0.8894538084895E-01
-0.7408416031380E+00 -0.1082019840567E+01 -0.8567448763686E+00  0.6136088699551E-02
-0.6546166862133E+00 -0.1109937797077E+01 -0.8293406050431E+00 -0.6371920005340E-01
-0.5738808875195E+00 -0.1135682986512E+01 -0.8034950187569E+00 -0.1214957164870E+00
-0.4982421225558E+00 -0.1159458335892E+01 -0.7791192134944E+00 -0.1680532611633E+00
-0.4274598619227E+00 -0.1181370238395E+01 -0.7561501452313E+00 -0.2042307520891E+00
-0.3613983766733E+00 -0.1201463965415E+01 -0.7345452989186E+00 -0.2308445767121E+00
-0.2999888822662E+00 -0.1219756138580E+01 -0.7142801579862E+00 -0.2486883031114E+00
-0.2431986188847E+00 -0.1236263970809E+01 -0.6953474153924E+00 -0.2585267706244E+00
-0.1910034141775E+00 -0.1251028898655E+01 -0.6777551853123E+00 -0.2610897066209E+00
-0.1433670224475E+00 -0.1264124757218E+01 -0.6615211347651E+00 -0.2570674153280E+00
-0.1002304469816E+00 -0.1275643707979E+01 -0.6466608511912E+00 -0.2471069457582E+00
-0.6151067770935E-01 -0.1285669445486E+01 -0.6331746562956E+00 -0.2318063409008E+00
-0.2710190617501E-01 -0.1294259121875E+01 -0.6210396816081E+00 -0.2117075899522E+00
 0.3127569756694E-02 -0.1301445144468E+01 -0.6102092585668E+00 -0.1872926985225E+00
 0.2934550287067E-01 -0.1307251379360E+01 -0.6006157604267E+00 -0.1589851452162E+00
 0.5177212179481E-01 -0.1311713966554E+01 -0.5921726655350E+00 -0.1271574183258E+00
 0.7069889253374E-01 -0.1314899939119E+01 -0.5847744904117E+00 -0.9214843407251E-01
 0.8649367297285E-01 -0.1316914603358E+01 -0.5782978358141E+00 -0.5429900810952E-01
 0.9957796791373E-01 -0.1317890952793E+01 -0.5726071014407E+00 -0.1399531780564E-01
-0.7930388562700E+00 -0.1004719781809E+01 -0.8449465577539E+00  0.1042643994111E+00
-0.7069238544806E+00 -0.1033176977512E+01 -0.8178473889620E+00  0.2027563417930E-01
-0.6264577613033E+00 -0.1059373627668E+01 -0.7923407508068E+00 -0.5059869035546E-01
-0.5510653134429E+00 -0.1083617530254E+01 -0.7683009345888E+00 -0.1092911876745E+00
-0.4803683106980E+00 -0.1106085565418E+01 -0.7456333198835E+00 -0.1567094870330E+00
-0.4141414066492E+00 -0.1126854675093E+01 -0.7242681565818E+00 -0.1937261422799E+00
-0.3522644965309E+00 -0.1145938887928E+01 -0.7041555889099E+00 -0.2211783102105E+00
-0.2946855018255E+00 -0.1163323128838E+01 -0.6852640546737E+00 -0.2398716017507E+00
-0.2413902123203E+00 -0.1178993952257E+01 -0.6675805556580E+00 -0.2505768282328E+00
-0.1923742991482E+00 -0.1192964773606E+01 -0.6511093625432E+00 -0.2540259723445E+00
-0.1476216150346E+00 -0.1205283879967E+01 -0.6358655810380E+00 -0.2509097502613E+00
-0.1070929691986E+00 -0.1216017185149E+01 -0.6218617709660E+00 -0.2418746814650E+00
-0.7072533167039E-01 -0.1225216588412E+01 -0.6090927008939E+00 -0.2275174478584E+00
-0.3843402065767E-01 -0.1232898316214E+01 -0.5975261968139E+00 -0.2083773219795E+00
-0.1010993328748E-01 -0.1239043879192E+01 -0.5871022903763E+00 -0.1849312438711E+00
 0.1439189096160E-01 -0.1243617574062E+01 -0.5777360695921E+00 -0.1575937631841E+00
 0.3527253976990E-01 -0.1246589855431E+01 -0.5693191369166E+00 -0.1267229791182E+00
 0.5281537796709E-01 -0.1247959213294E+01 -0.5617176011788E+00 -0.9263804785358E-01
 0.6739893977273E-01 -0.1247760542753E+01 -0.5547699519934E+00 -0.5566094783378E-01
 0.7948319323011E-01 -0.1246052181686E+01 -0.5482874231835E+00 -0.1616883779886E-01
-0.7523832430702E+00 -0.9575804375814E+00 -0.8036829278678E+00  0.1188465434821E+00
-0.6725482903850E+00 -0.9840443853728E+00 -0.7785985556314E+00  0.3379218140799E-01
-0.5979104744027E+00 -0.1008504466614E+01 -0.7550150203628E+00 -0.3799919574765E-01
-0.5279066756898E+00 -0.1031245429553E+01 -0.7328014876053E+00 -0.9751832165917E-01
-0.4621765672529E+00 -0.1052414766690E+01 -0.7118579251477E+00 -0.1457220944908E+00
-0.4005153625028E+00 -0.1072056129337E+01 -0.6921085994091E+00 -0.1835175586827E+00
-0.3428232685189E+00 -0.1090149456549E+01 -0.6734971790736E+00 -0.2117629889174E+00
-0.2890684431116E+00 -0.1106646485401E+01 -0.6559860147372E+00 -0.2312765967115E+00
-0.2392577453787E+00 -0.1121502840400E+01 -0.6395574736936E+00 -0.2428358289766E+00
-0.1934082754727E+00 -0.1134704708225E+01 -0.6242131007547E+00 -0.2471756413254E+00
-0.1515247976485E+00 -0.1146276501201E+01 -0.6099666089122E+00 -0.2449880657428E+00
-0.1135882631871E+00 -0.1156260199130E+01 -0.5968287757752E+00 -0.2369203645651E+00
-0.7955591110859E-01 -0.1164678513109E+01 -0.5847901778990E+00 -0.2235696918902E+00
-0.4936490017093E-01 -0.1171509178836E+01 -0.5738108156781E+00 -0.2054750467220E+00
-0.2293026410467E-01 -0.1176684552604E+01 -0.5638189624229E+00 -0.1831112088014E+00
-0.1323575155903E-03 -0.1180110067472E+01 -0.5547139383371E+00 -0.1568867013609E+00
 0.1920773703969E-01 -0.1181690476400E+01 -0.5463668861137E+00 -0.1271473181369E+00
 0.3536368485870E-01 -0.1181356482429E+01 -0.5386166134919E+00 -0.9419296741353E-01
 0.4872585338700E-01 -0.1179076245033E+01 -0.5312646827263E+00 -0.5832696684142E-01
 0.5979789457094E-01 -0.1174841174900E+01 -0.5240703404252E+00 -0.1991743124705E-01
-0.7111988011493E+00 -0.9101675465864E+00 -0.7620421815029E+00  0.1326786181123E+00
-0.6377308342275E+00 -0.9346133276957E+00 -0.7390017542295E+00  0.4667808104478E-01
-0.5689860367973E+00 -0.9573270622905E+00 -0.7173671547518E+00 -0.2592143602162E-01
-0.5044111991281E+00 -0.9785705167004E+00 -0.6970014046715E+00 -0.8617166960402E-01
-0.4436676670461E+00 -0.9984581397408E+00 -0.6777991274707E+00 -0.1350810769520E+00
-0.3865767851151E+00 -0.1016996024658E+01 -0.6596792189202E+00 -0.1735919287522E+00
-0.3330638507023E+00 -0.1034126969406E+01 -0.6425796838210E+00 -0.2025833634221E+00
-0.2831207741257E+00 -0.1049768020242E+01 -0.6264577317641E+00 -0.2228861805540E+00
-0.2367779720019E+00 -0.1063843652951E+01 -0.6112921621772E+00 -0.2352846137777E+00
-0.1940754714321E+00 -0.1076313700597E+01 -0.5970829093395E+00 -0.2405168297410E+00
-0.1550395651752E+00 -0.1087180529329E+01 -0.5838434429363E+00 -0.2392766469163E+00
-0.1196713683896E+00 -0.1096464831346E+01 -0.5715840124260E+00 -0.2322129996746E+00
-0.8794830705474E-01 -0.1104163346376E+01 -0.5602924756915E+00 -0.2199251918137E+00
-0.5982978675530E-01 -0.1110218645626E+01 -0.5499227618245E+00 -0.2029545119836E+00
-0.3525642108846E-01 -0.1114516663789E+01 -0.5403933485216E+00 -0.1817769075437E+00
-0.1413668770217E-01 -0.1116905451404E+01 -0.5315898040315E+00 -0.1567983369442E+00
 0.3682426802571E-02 -0.1117224436444E+01 -0.5233647432041E+00 -0.1283545634892E+00
 0.1846263691611E-01 -0.1115337811152E+01 -0.5155313305832E+00 -0.9672575211862E-01
 0.3060731094175E-01 -0.1111152017116E+01 -0.5078560106138E+00 -0.6219446492088E-01
 0.4066540282443E-01 -0.1104605294831E+01 -0.5000517479745E+00 -0.2511758273065E-01
-0.6695077899666E+00 -0.8624659673524E+00 -0.7200276641137E+00  0.1457477549561E+00
-0.6024895671987E+00 -0.8848727366338E+00 -0.6990602810282E+00  0.5892636624604E-01
-0.5396983126677E+00 -0.9058362613873E+00 -0.6794012480827E+00 -0.1436455776823E-01
-0.4805875104277E+00 -0.9255954372618E+00 -0.6609059837378E+00 -0.7524337054061E-01
-0.4248442634519E+00 -0.9442272870246E+00 -0.6434636270919E+00 -0.1247734244313E+00
-0.3723221516860E+00 -0.9616954157806E+00 -0.6269882551190E+00 -0.1639327760218E+00
-0.3229765741502E+00 -0.9779022028308E+00 -0.6114130236303E+00 -0.1936204237015E+00
-0.2768267248540E+00 -0.9927285641128E+00 -0.5966909843010E+00 -0.2146791103238E+00
-0.2339290449680E+00 -0.1006067721707E+01 -0.5827984788592E+00 -0.2278994794566E+00
-0.1943478983478E+00 -0.1017854102017E+01 -0.5697349387266E+00 -0.2340226450970E+00
-0.1581315020799E+00 -0.1028069929427E+01 -0.5575146713944E+00 -0.2337441814199E+00
-0.1253007577093E+00 -0.1036717488072E+01 -0.5461485741320E+00 -0.2277151408289E+00
-0.9585268431915E-01 -0.1043771367227E+01 -0.5356233028683E+00 -0.2165383123417E+00
-0.6976887433594E-01 -0.1049143372482E+01 -0.5258887546708E+00 -0.2007598066270E+00
-0.4701680175113E-01 -0.1052677084986E+01 -0.5168561254557E+00 -0.1808604973845E+00
-0.2753630607477E-01 -0.1054165656579E+01 -0.5083999211579E+00 -0.1572480279688E+00
-0.1120521182849E-01 -0.1053383682115E+01 -0.5003567788842E+00 -0.1302509035575E+00
 0.2222721984003E-02 -0.1050129629831E+01 -0.4925162454388E+00 -0.1001280616999E+00
 0.1316466326222E-01 -0.1044252952370E+01 -0.4846114946514E+00 -0.6713659731867E-01
 0.2222588772138E-01 -0.1035651252063E+01 -0.4763099200322E+00 -0.3161818342124E-01
-0.6273326657048E+00 -0.8144575254336E+00 -0.6776413881163E+00  0.1580410431591E+00
-0.5668449863989E+00 -0.8348081828082E+00 -0.6587769878564E+00  0.7053078015692E-01
-0.5100642595355E+00 -0.8540241990974E+00 -0.6411215739314E+00 -0.3325842213708E-02
-0.4564470582105E+00 -0.8723211289879E+00 -0.6245210463992E+00 -0.6472281174152E-01
-0.4057112148715E+00 -0.8897328795973E+00 -0.6088587228561E+00 -0.1147829054906E+00
-0.3577496183384E+00 -0.9061747047897E+00 -0.5940444303635E+00 -0.1545201899711E+00
-0.3125531656151E+00 -0.9215050838776E+00 -0.5800073757904E+00 -0.1848515322828E+00
-0.2701719021690E+00 -0.9355675864991E+00 -0.5666975582367E+00 -0.2066302645539E+00
-0.2306907391963E+00 -0.9482242924637E+00 -0.5540900634748E+00 -0.2206525510359E+00
-0.1941997255680E+00 -0.9593852402101E+00 -0.5421849325405E+00 -0.2276617122677E+00
-0.1607691864856E+00 -0.9690143505384E+00 -0.5309982610545E+00 -0.2283545155325E+00
-0.1304389820853E+00 -0.9770983956144E+00 -0.5205425661986E+00 -0.2233839472451E+00
-0.1032244323133E+00 -0.9835940681210E+00 -0.5108046939085E+00 -0.2133570071967E+00
-0.7912854553006E-01 -0.9883880395321E+00 -0.5017327937066E+00 -0.1988268461396E+00
-0.5814658184396E-01 -0.9912874819384E+00 -0.4932340087267E+00 -0.1802833924526E+00
-0.4025354768892E-01 -0.9920347650530E+00 -0.4851755057581E+00 -0.1581413907193E+00
-0.2536481925783E-01 -0.9903401662951E+00 -0.4773813419991E+00 -0.1327260779896E+00
-0.1325500529740E-01 -0.9859354653716E+00 -0.4696195200233E+00 -0.1042731701097E+00
-0.3492617875668E-02 -0.9786157531717E+00 -0.4615909332215E+00 -0.7300725850384E-01
 0.4610132481853E-02 -0.9682494672845E+00 -0.4529104862085E+00 -0.3924689750744E-01
-0.5846958080185E+00 -0.7661198374100E+00 -0.6348833517411E+00  0.1695450183610E+00
-0.5308203790035E+00 -0.7844007181948E+00 -0.6181539141154E+00  0.8148582475640E-01
-0.4801044654231E+00 -0.8018795498987E+00 -0.6025324856730E+00  0.7199702943903E-02
-0.4320045462001E+00 -0.8187464897276E+00 -0.5878529853950E+00 -0.5459617999299E-01
-0.3862758725401E+00 -0.8349845608424E+00 -0.5739924022339E+00 -0.1050898041486E+00
-0.3428591955141E+00 -0.8504535244085E+00 -0.5608569769411E+00 -0.1453308104079E+00
-0.3017868957726E+00 -0.8649644621480E+00 -0.5483731368318E+00 -0.1762505892897E+00
-0.2631434225104E+00 -0.8783228518273E+00 -0.5364891475780E+00 -0.1987109138795E+00
-0.2270445786170E+00 -0.8903601577103E+00 -0.5251802247418E+00 -0.2135121327966E+00
-0.1936074045949E+00 -0.9009631178473E+00 -0.5144481442430E+00 -0.2213986522737E+00
-0.1629244119726E+00 -0.9100789745949E+00 -0.5043115904076E+00 -0.2230673865500E+00
-0.1350531375798E+00 -0.9176814944288E+00 -0.4947852757891E+00 -0.2191723305915E+00
-0.1100250649308E+00 -0.9237137455964E+00 -0.4858572397155E+00 -0.2103244617562E+00
-0.8786264821357E-01 -0.9280439716490E+00 -0.4774761101244E+00 -0.1970853431449E+00
-0.6858914822521E-01 -0.9304516141987E+00 -0.4695491571483E+00 -0.1799581482986E+00
-0.5221906257773E-01 -0.9306353301960E+00 -0.4619415634320E+00 -0.1593717624887E+00
-0.3871464597340E-01 -0.9282423408032E+00 -0.4544697826323E+00 -0.1356546457077E+00
-0.2787960809669E-01 -0.9229337279948E+00 -0.4468822668295E+00 -0.1090178001378E+00
-0.1926815719266E-01 -0.9144476966000E+00 -0.4388464501695E+00 -0.7964303953766E-01
-0.1207820637128E-01 -0.9026413166326E+00 -0.4299181747214E+00 -0.4780658374269E-01
-0.5416193148258E+00 -0.7174248214978E+00 -0.5917507425712E+00  0.1802450355629E+00
-0.4944424195435E+00 -0.7336255427372E+00 -0.5771919408080E+00  0.9178697526816E-01
-0.4498438317322E+00 -0.7493868664447E+00 -0.5636384267136E+00  0.1722002241454E-01
-0.4072784911219E+00 -0.7648684511371E+00 -0.5509090614644E+00 -0.4484581985444E-01
-0.3665483282025E+00 -0.7799911833620E+00 -0.5388735690685E+00 -0.9567060884891E-01
-0.3276529078440E+00 -0.7945509021952E+00 -0.5274357893807E+00 -0.1363378678806E+00
-0.2906726776152E+00 -0.8083079889467E+00 -0.5165209119740E+00 -0.1677882824883E+00
-0.2557300462321E+00 -0.8210301557500E+00 -0.5060772936480E+00 -0.1908890494813E+00
-0.2229739202343E+00 -0.8325193249447E+00 -0.4960818239759E+00 -0.2064430675697E+00
-0.1925496926075E+00 -0.8426402057494E+00 -0.4865392509937E+00 -0.2151945102707E+00
-0.1645721539219E+00 -0.8513245792220E+00 -0.4774714633666E+00 -0.2178390745188E+00
-0.1391150908382E+00 -0.8585349603487E+00 -0.4688955228685E+00 -0.2150301268559E+00
-0.1162229361988E+00 -0.8642040088899E+00 -0.4608006630229E+00 -0.2073810664346E+00
-0.9593400762029E-01 -0.8681887907633E+00 -0.4531377140909E+00 -0.1954615290256E+00
-0.7829771630407E-01 -0.8702526526985E+00 -0.4458186723004E+00 -0.1797912219579E+00
-0.6337301785690E-01 -0.8700638091888E+00 -0.4387153075987E+00 -0.1608220489838E+00
-0.5118187331683E-01 -0.8672107029183E+00 -0.4316445097357E+00 -0.1388967787074E+00
-0.4157047609176E-01 -0.8612760729199E+00 -0.4243378769592E+00 -0.1142030533902E+00
-0.3408351664957E-01 -0.8519289664362E+00 -0.4164258659941E+00 -0.8686610842844E-01
-0.2776642305319E-01 -0.8390311198879E+00 -0.4073948441490E+00 -0.5708371761493E-01
-0.4981245623813E+00 -0.6683363527790E+00 -0.5482366287348E+00  0.1901244754417E+00
-0.4577416289797E+00 -0.6824498427422E+00 -0.5358899903501E+00  0.1014312135393E+00
-0.4193125276903E+00 -0.6965262229912E+00 -0.5244442114901E+00  0.2674714073826E-01
-0.3822915255429E+00 -0.7106822506399E+00 -0.5136976735030E+00 -0.3544932220657E-01
-0.3465416434748E+00 -0.7247615598002E+00 -0.5035125042621E+00 -0.8649766330254E-01
-0.3121346074656E+00 -0.7384853223226E+00 -0.4937913657480E+00 -0.1275113130567E+00
-0.2792071110882E+00 -0.7515619789927E+00 -0.4844614711092E+00 -0.1594324044772E+00
-0.2479221886450E+00 -0.7637228306593E+00 -0.4754731578670E+00 -0.1831297265087E+00
-0.2184640133279E+00 -0.7747425165231E+00 -0.4668070678460E+00 -0.1994070275290E+00
-0.1910075143673E+00 -0.7844649923907E+00 -0.4584720770134E+00 -0.2090070104251E+00
-0.1656902627154E+00 -0.7928075197501E+00 -0.4504939566162E+00 -0.2126227564974E+00
-0.1426009965530E+00 -0.7997218450438E+00 -0.4428917344272E+00 -0.2109049178549E+00
-0.1217937655855E+00 -0.8051317330428E+00 -0.4356549832503E+00 -0.2044664231873E+00
-0.1033157920719E+00 -0.8088874764580E+00 -0.4287355351216E+00 -0.1938816910857E+00
-0.8723821700480E-01 -0.8107517841314E+00 -0.4220552994635E+00 -0.1796872621795E+00
-0.7366622929264E-01 -0.8103833663691E+00 -0.4155033089071E+00 -0.1623675139620E+00
-0.6270240373690E-01 -0.8073300462222E+00 -0.4089152504436E+00 -0.1422981018876E+00
-0.5425639223870E-01 -0.8010848643974E+00 -0.4020103895993E+00 -0.1196531409631E+00
-0.4787852364571E-01 -0.7912156291988E+00 -0.3943742508367E+00 -0.9448680095368E-01
-0.4241646470379E-01 -0.7775883638538E+00 -0.3854022684446E+00 -0.6685805789528E-01
-0.4542306143228E+00 -0.6188055551451E+00 -0.5043269983707E+00  0.1991638755357E+00
-0.4207541944151E+00 -0.6308311820055E+00 -0.4942451256641E+00  0.1104182194027E+00
-0.3885462817422E+00 -0.6432724292410E+00 -0.4849547929321E+00  0.3579905532693E-01
-0.3570719712522E+00 -0.6561843016685E+00 -0.4762304470648E+00 -0.2637834940673E-01
-0.3262710989073E+00 -0.6693050416963E+00 -0.4679207848968E+00 -0.7753904637924E-01
-0.2963102233461E+00 -0.6822757041730E+00 -0.4599353847674E+00 -0.1188182100397E+00
-0.2673881380064E+00 -0.6947509647814E+00 -0.4522053771633E+00 -0.1511484044727E+00
-0.2397122361058E+00 -0.7064316074800E+00 -0.4446876053575E+00 -0.1753955240177E+00
-0.2135020665690E+00 -0.7170666386983E+00 -0.4373672903663E+00 -0.1923628859137E+00
-0.1889638940117E+00 -0.7264815244771E+00 -0.4302593455984E+00 -0.2027907495245E+00
-0.1662588765573E+00 -0.7345795498022E+00 -0.4233940593151E+00 -0.2073685701347E+00
-0.1454903957621E+00 -0.7413010797658E+00 -0.4167919924410E+00 -0.2067423076456E+00
-0.1267189620883E+00 -0.7465592373373E+00 -0.4104407526890E+00 -0.2015206935629E+00
-0.1099944557109E+00 -0.7501991503812E+00 -0.4042909938379E+00 -0.1922765676075E+00
-0.9539173009713E-01 -0.7519881609383E+00 -0.3982685477765E+00 -0.1795561363413E+00
-0.8306605657674E-01 -0.7516181652692E+00 -0.3923015832726E+00 -0.1638818462705E+00
-0.7321694058695E-01 -0.7486295978548E+00 -0.3862678720879E+00 -0.1456891154203E+00
-0.6587118676095E-01 -0.7424454360715E+00 -0.3799088117676E+00 -0.1251690062645E+00
-0.6061020089535E-01 -0.7324517800976E+00 -0.3727391301213E+00 -0.1023030307342E+00
-0.5602408544801E-01 -0.7184625522899E+00 -0.3640087188136E+00 -0.7691712775058E-01
-0.4099555825575E+00 -0.5687668297433E+00 -0.4599995326147E+00  0.2073393107570E+00
-0.3835176889586E+00 -0.5787069228377E+00 -0.4522455663972E+00  0.1187535257760E+00
-0.3575937893373E+00 -0.5896038275014E+00 -0.4451828787850E+00  0.4440324499752E-01
-0.3316499143782E+00 -0.6013709777644E+00 -0.4385198181948E+00 -0.1759743655196E-01
-0.3057568474599E+00 -0.6136369755460E+00 -0.4321150957168E+00 -0.6875876521413E-01
-0.2801847581621E+00 -0.6259386732853E+00 -0.4258780117001E+00 -0.1102236112801E+00
-0.2552161094148E+00 -0.6378985409748E+00 -0.4197638846184E+00 -0.1428998413660E+00
-0.2310943610368E+00 -0.6491837656973E+00 -0.4137307185157E+00 -0.1676471076680E+00
-0.2080775485841E+00 -0.6595240640215E+00 -0.4077727568904E+00 -0.1852670825298E+00
-0.1864039297791E+00 -0.6687284099036E+00 -0.4019121986315E+00 -0.1964972743857E+00
-0.1662599290152E+00 -0.6766870632577E+00 -0.3961850853634E+00 -0.2020232792883E+00
-0.1477643568467E+00 -0.6833273491380E+00 -0.3906131008221E+00 -0.2024852614359E+00
-0.1309837244126E+00 -0.6885475456977E+00 -0.3851796959749E+00 -0.1984844509856E+00
-0.1159632847264E+00 -0.6921806974049E+00 -0.3798276706383E+00 -0.1905837001817E+00
-0.1027719917546E+00 -0.6940039486141E+00 -0.3744846910234E+00 -0.1793246023663E+00
-0.9155398150315E-01 -0.6937343770811E+00 -0.3690855275984E+00 -0.1652510551230E+00
-0.8268370453560E-01 -0.6910636340133E+00 -0.3636612481956E+00 -0.1488884658368E+00
-0.7632666733250E-01 -0.6853564525418E+00 -0.3579910654329E+00 -0.1305120652100E+00
-0.7224404900102E-01 -0.6757904297648E+00 -0.3515762041282E+00 -0.1100819409903E+00
-0.6864329201824E-01 -0.6618605410715E+00 -0.3433368006814E+00 -0.8706965967555E-01
-0.3652790783437E+00 -0.5180865034319E+00 -0.4151818223815E+00  0.2146260310528E+00
-0.3461025982498E+00 -0.5260236949959E+00 -0.4098993567858E+00  0.1264566036871E+00
-0.3264917017959E+00 -0.5354788527742E+00 -0.4051261596204E+00  0.5260262686376E-01
-0.3060825358522E+00 -0.5462761507843E+00 -0.4006085817031E+00 -0.9062996196564E-02
-0.2850047387003E+00 -0.5577598204255E+00 -0.3960993417845E+00 -0.6012005236138E-01
-0.2637689284615E+00 -0.5694952791303E+00 -0.3916341765748E+00 -0.1016904758015E+00
-0.2426918434384E+00 -0.5810256661483E+00 -0.3871472285238E+00 -0.1346493138126E+00
-0.2220655651151E+00 -0.5920035193049E+00 -0.3826124687070E+00 -0.1598440432410E+00
-0.2021821540092E+00 -0.6021412834713E+00 -0.3780320146570E+00 -0.1780742368476E+00
-0.1833152498746E+00 -0.6112378550597E+00 -0.3734399583719E+00 -0.1900752229909E+00
-0.1656771371261E+00 -0.6191700606996E+00 -0.3688781820425E+00 -0.1965298832764E+00
-0.1494039495963E+00 -0.6258500312790E+00 -0.3643693700872E+00 -0.1980727214016E+00
-0.1345717251999E+00 -0.6311564470722E+00 -0.3598922400551E+00 -0.1952963804868E+00
-0.1212206755944E+00 -0.6348980242361E+00 -0.3553757880190E+00 -0.1887462952625E+00
-0.1093936935541E+00 -0.6368413260232E+00 -0.3507304583118E+00 -0.1789406067984E+00
-0.9922989731912E-01 -0.6367571258480E+00 -0.3459139000112E+00 -0.1664131089629E+00
-0.9100230847508E-01 -0.6343488377869E+00 -0.3409150378784E+00 -0.1517249403432E+00
-0.8555107953017E-01 -0.6297028603247E+00 -0.3361693508792E+00 -0.1353726350627E+00
-0.8267177500477E-01 -0.6213262570669E+00 -0.3308790742344E+00 -0.1175011457780E+00
-0.8039532548431E-01 -0.6081899352156E+00 -0.3236350717081E+00 -0.9712017217292E-01
-0.3202727553342E+00 -0.4666727281573E+00 -0.3698643763029E+00  0.2209772320314E+00
-0.3084190843578E+00 -0.4724939477953E+00 -0.3670291241811E+00  0.1335892686035E+00
-0.2954693615324E+00 -0.4811056810772E+00 -0.3649902691008E+00  0.6047246284057E-01
-0.2803289707095E+00 -0.4908453571344E+00 -0.3624519331673E+00 -0.7433834457167E-03
-0.2640476736624E+00 -0.5016998475006E+00 -0.3599013340338E+00 -0.5158157572765E-01
-0.2470663278439E+00 -0.5129601796723E+00 -0.3572124576266E+00 -0.9318024740869E-01
-0.2298230366619E+00 -0.5241585877218E+00 -0.3543713625615E+00 -0.1263594880290E+00
-0.2126228595824E+00 -0.5349079312139E+00 -0.3513394707831E+00 -0.1519464513550E+00
-0.1958106565388E+00 -0.5449378060143E+00 -0.3481517765169E+00 -0.1707375356384E+00
-0.1796893582676E+00 -0.5540355813436E+00 -0.3448507207426E+00 -0.1834705361391E+00
-0.1644962253370E+00 -0.5620604308004E+00 -0.3414816275184E+00 -0.1908274431024E+00
-0.1503902245461E+00 -0.5689114612562E+00 -0.3380717914696E+00 -0.1934381219423E+00
-0.1374608471779E+00 -0.5744416736819E+00 -0.3345941839555E+00 -0.1918888869544E+00
-0.1257550874566E+00 -0.5784254659319E+00 -0.3309648592531E+00 -0.1867067062141E+00
-0.1152841312909E+00 -0.5805827345220E+00 -0.3270574261025E+00 -0.1783683831822E+00
-0.1061288497725E+00 -0.5806843390376E+00 -0.3228021979220E+00 -0.1673610942115E+00
-0.9865082477421E-01 -0.5786079264708E+00 -0.3183116122778E+00 -0.1542047953659E+00
-0.9276941345733E-01 -0.5741020460838E+00 -0.3134295851894E+00 -0.1393443052892E+00
-0.9196040772332E-01 -0.5693879171956E+00 -0.3108337119235E+00 -0.1239172427721E+00
-0.9149606806472E-01 -0.5584217795837E+00 -0.3054613876200E+00 -0.1068451723340E+00
-0.2731842590962E+00 -0.4122442622035E+00 -0.3221514041938E+00  0.2266119049479E+00
-0.2717183889281E+00 -0.4195064159025E+00 -0.3248756574464E+00  0.1404676674922E+00
-0.2641338826343E+00 -0.4261641044306E+00 -0.3244400530976E+00  0.6799858867612E-01
-0.2544984266638E+00 -0.4351421491585E+00 -0.3241310698144E+00  0.7398168652702E-02
-0.2428578372941E+00 -0.4454168794762E+00 -0.3234891160615E+00 -0.4309326755659E-01
-0.2301233454175E+00 -0.4564047327318E+00 -0.3226681959118E+00 -0.8465005320837E-01
-0.2166031762687E+00 -0.4673079238832E+00 -0.3214382162561E+00 -0.1179999078989E+00
-0.2027640218010E+00 -0.4779019719662E+00 -0.3199130162592E+00 -0.1439152519463E+00
-0.1889657192146E+00 -0.4879299035726E+00 -0.3181409419030E+00 -0.1632086244771E+00
-0.1755199495322E+00 -0.4971369684447E+00 -0.3161487506473E+00 -0.1766270307604E+00
-0.1627079718180E+00 -0.5053821597918E+00 -0.3140023610602E+00 -0.1848512959294E+00
-0.1507045350263E+00 -0.5125425269072E+00 -0.3117261183181E+00 -0.1885086691197E+00
-0.1396249744498E+00 -0.5184510129610E+00 -0.3092957132986E+00 -0.1881842444431E+00
-0.1295302035762E+00 -0.5228324414681E+00 -0.3066104423932E+00 -0.1843932660999E+00
-0.1204458966971E+00 -0.5253519877604E+00 -0.3035250049252E+00 -0.1775739466291E+00
-0.1123314164055E+00 -0.5256371782335E+00 -0.2998452387198E+00 -0.1681188839882E+00
-0.1055651850957E+00 -0.5236651800030E+00 -0.2957382708463E+00 -0.1564711554022E+00
-0.1004826285470E+00 -0.5197736893092E+00 -0.2915204686530E+00 -0.1427631968760E+00
-0.9468832750495E-01 -0.5126901716185E+00 -0.2854678938640E+00 -0.1277573815027E+00
-0.1038895535781E+00 -0.5182500024587E+00 -0.2924055905957E+00 -0.1151121284640E+00
-0.4989770867679E+01 -0.9275337533027E+01 -0.6704600931326E+01 -0.1035056463365E+01
 0.2624436512834E+00 -0.3965389393713E+01 -0.1740384494528E+01  0.8171076517163E+00
-0.1218153006078E+00 -0.3300578743141E+01 -0.1608525196482E+01  0.8486844075062E+00
-0.2303439653679E+00 -0.2826198548799E+01 -0.1436574978015E+01  0.8277787240512E+00
-0.3106780508184E+00 -0.2373719728855E+01 -0.1261666953246E+01  0.8042477246337E+00
-0.2891180555087E+00 -0.1868284041033E+01 -0.1013978982803E+01  0.7195888006150E+00
-0.1988187216270E+00 -0.1438480546433E+01 -0.7695306540362E+00  0.5866194355395E+00
-0.1251681169198E+00 -0.1186319558970E+01 -0.6163992061050E+00  0.4542888885262E+00
-0.8427568868921E-01 -0.1034294922886E+01 -0.5257281861068E+00  0.3448324460745E+00
-0.5773606012120E-01 -0.9099972971700E+00 -0.4548346767733E+00  0.2572130792051E+00
-0.3717859749013E-01 -0.7903918181131E+00 -0.3889580943470E+00  0.1849682782798E+00
-0.2154573669230E-01 -0.6715458744812E+00 -0.3257530564253E+00  0.1243658452534E+00
-0.1235190943872E-01 -0.5529075549582E+00 -0.2656719475927E+00  0.7376945621227E-01
-0.6764166265483E-02 -0.4316552020018E+00 -0.2060571025630E+00  0.3329972835344E-01
-0.3179442366843E-02 -0.3100895129705E+00 -0.1472364086351E+00  0.3867864990321E-02
-0.9490274692329E-03 -0.1924152431868E+00 -0.9088120697783E-01 -0.1376813206343E-01
-0.8357454065583E-02 -0.8589219660773E-01 -0.4429733570410E-01 -0.1754527009018E-01
 0.2569833956741E-01  0.2109924617492E-01  0.2199486524311E-01 -0.6527008817833E-03
 0.7207189025762E-01  0.7911375070347E-01  0.7105725107149E-01  0.1689646855112E-01
 0.7579322496394E-01  0.2203493267415E-01  0.4597923397328E-01  0.1681328596009E-01
-0.2842306648951E+01 -0.6517567837651E+01 -0.4399140997545E+01 -0.1389904796228E+01
-0.8197145707037E+00 -0.5250554453894E+01 -0.2853026434324E+01  0.1702663902980E+00
-0.4824056117257E-01 -0.3531984331264E+01 -0.1682705695177E+01  0.6784066441169E+00
-0.1821587820288E+00 -0.2964551750731E+01 -0.1478953946646E+01  0.7288023297306E+00
-0.2316698190278E+00 -0.2497492386148E+01 -0.1282706233179E+01  0.7100176914139E+00
-0.2282441708375E+00 -0.2060606644736E+01 -0.1075759880591E+01  0.6482285276344E+00
-0.1688517428594E+00 -0.1675953765021E+01 -0.8670585865046E+00  0.5544832667556E+00
-0.9701389484901E-01 -0.1391091789881E+01 -0.6994096700491E+00  0.4510514400609E+00
-0.5067232255086E-01 -0.1199901006438E+01 -0.5877694631338E+00  0.3508435294339E+00
-0.2437603569524E-01 -0.1057906168504E+01 -0.5086726346837E+00  0.2609613249086E+00
-0.6584744166561E-02 -0.9342761257715E+00 -0.4422046077493E+00  0.1829239777229E+00
 0.6014320909279E-02 -0.8173548318354E+00 -0.3813300391681E+00  0.1157236665378E+00
 0.1307226280759E-01 -0.7027161509023E+00 -0.3241326265824E+00  0.5790971658385E-01
 0.1477893975773E-01 -0.5886095720232E+00 -0.2697003964807E+00  0.9224444474828E-02
 0.1235381824956E-01 -0.4753830728207E+00 -0.2176237490965E+00 -0.2943949818927E-01
 0.4498215076455E-02 -0.3658281317991E+00 -0.1698250604289E+00 -0.5711372912015E-01
-0.6018776546085E-02 -0.2537440814492E+00 -0.1220885429481E+00 -0.7433552051374E-01
-0.3776815067260E-03 -0.1581011420661E+00 -0.7448504689032E-01 -0.7899081372334E-01
 0.9424997235465E-02 -0.1215441986700E+00 -0.5269602454059E-01 -0.8286478409970E-01
-0.1514057661965E-01 -0.1996729490517E+00 -0.1009623568094E+00 -0.1003167000408E+00
-0.2373500753182E+01 -0.5533496120517E+01 -0.3716288521213E+01 -0.1402394721905E+01
-0.8768941596918E+00 -0.5020373533084E+01 -0.2771715808574E+01 -0.2108271367476E+00
-0.3102131311383E+00 -0.3954915863299E+01 -0.2004610622301E+01  0.3892015166987E+00
-0.1497518060080E+00 -0.3130742370878E+01 -0.1541832259226E+01  0.5919814754932E+00
-0.1801660462467E+00 -0.2641568584089E+01 -0.1326215272894E+01  0.6137598673014E+00
-0.1731374081429E+00 -0.2228305148295E+01 -0.1128677998663E+01  0.5767337444536E+00
-0.1295366284573E+00 -0.1874293679524E+01 -0.9418002423624E+00  0.5100880736554E+00
-0.6801467146193E-01 -0.1589973966257E+01 -0.7792546577516E+00  0.4298777887620E+00
-0.1957314922572E-01 -0.1376992427975E+01 -0.6563858196196E+00  0.3440805708422E+00
 0.9390946928979E-02 -0.1216265882084E+01 -0.5672312180840E+00  0.2590770180423E+00
 0.2664605990898E-01 -0.1084343663360E+01 -0.4971178723611E+00  0.1798123354488E+00
 0.3734623132111E-01 -0.9664313956643E+00 -0.4366700261337E+00  0.1084294733055E+00
 0.4231302434059E-01 -0.8551005425482E+00 -0.3820101325887E+00  0.4501684584693E-01
 0.4145042979176E-01 -0.7469281180105E+00 -0.3315745126218E+00 -0.1043662877707E-01
 0.3473109155379E-01 -0.6415894454679E+00 -0.2852234256162E+00 -0.5726657565202E-01
 0.2229153385754E-01 -0.5390244455610E+00 -0.2428644678846E+00 -0.9497164282475E-01
 0.5214544972725E-02 -0.4354805789123E+00 -0.2022250354387E+00 -0.1242666696358E+00
-0.6747350875129E-02 -0.3513091340360E+00 -0.1682865474814E+00 -0.1451464278326E+00
-0.2263359292542E-01 -0.3331681965183E+00 -0.1672268406144E+00 -0.1658723865023E+00
-0.6705860680750E-01 -0.4328458380481E+00 -0.2349550884862E+00 -0.1955613658948E+00
-0.2171067835856E+01 -0.4923199423864E+01 -0.3334305603612E+01 -0.1354918757806E+01
-0.9453406627498E+00 -0.4736345009437E+01 -0.2670392259155E+01 -0.4412359479058E+00
-0.4253483500785E+00 -0.4044907557079E+01 -0.2101020271035E+01  0.1301305454424E+00
-0.2086907008149E+00 -0.3336082171001E+01 -0.1666043245528E+01  0.4136324022704E+00
-0.1496627997910E+00 -0.2794236088064E+01 -0.1383632473783E+01  0.5025715902490E+00
-0.1302559746495E+00 -0.2387190205455E+01 -0.1183199701648E+01  0.4997096110738E+00
-0.9095392308754E-01 -0.2050485076601E+01 -0.1006476327301E+01  0.4574834876343E+00
-0.3713591849601E-01 -0.1773827152360E+01 -0.8511526411436E+00  0.3966205377622E+00
 0.1042418961578E-01 -0.1553690190832E+01 -0.7253350187321E+00  0.3254681089473E+00
 0.4201642995591E-01 -0.1380477127788E+01 -0.6290765263855E+00  0.2492613920249E+00
 0.6064749925370E-01 -0.1239772361014E+01 -0.5541886836217E+00  0.1731188552630E+00
 0.7092403886830E-01 -0.1118930004317E+01 -0.4925628025113E+00  0.1008034902224E+00
 0.7477472499968E-01 -0.1009296106483E+01 -0.4392250481830E+00  0.3405176932668E-01
 0.7226069503310E-01 -0.9061106545451E+00 -0.3919094799766E+00 -0.2640043937436E-01
 0.6325182061759E-01 -0.8077740885923E+00 -0.3499254650606E+00 -0.7989276914759E-01
 0.4763840696147E-01 -0.7138733041759E+00 -0.3131304008966E+00 -0.1260350856856E+00
 0.2650375526339E-01 -0.6210668154145E+00 -0.2794446375623E+00 -0.1651954776554E+00
 0.1834870099476E-02 -0.5507730343471E+00 -0.2580009365420E+00 -0.1984989145620E+00
-0.3149687604501E-01 -0.5484887096116E+00 -0.2725932245672E+00 -0.2312512880440E+00
-0.8536538616893E-01 -0.6595987232348E+00 -0.3501331305317E+00 -0.2680832989361E+00
-0.2072241217779E+01 -0.4492849323192E+01 -0.3085592546430E+01 -0.1288315612144E+01
-0.1015117336978E+01 -0.4459964481766E+01 -0.2573288448283E+01 -0.5878885391332E+00
-0.5145378591406E+00 -0.4014028871802E+01 -0.2128426358145E+01 -0.7948202202291E-01
-0.2631002782411E+00 -0.3452793003006E+01 -0.1746469837757E+01  0.2316788884294E+00
-0.1537054712104E+00 -0.2947210568173E+01 -0.1457430534814E+01  0.3736961573434E+00
-0.1015862631875E+00 -0.2539341470884E+01 -0.1241236031865E+01  0.4122465205062E+00
-0.5826888911364E-01 -0.2212907166332E+01 -0.1067452743352E+01  0.3964759650292E+00
-0.7316470223151E-02 -0.1943890442286E+01 -0.9170672465531E+00  0.3540273100197E+00
 0.3942669674339E-01 -0.1723600561662E+01 -0.7915617145042E+00  0.2970712468675E+00
 0.7310806676998E-01 -0.1544584277492E+01 -0.6915938172850E+00  0.2312754531557E+00
 0.9398223336720E-01 -0.1397664670716E+01 -0.6127307439999E+00  0.1612837437006E+00
 0.1052645700914E+00 -0.1273632991519E+01 -0.5491331566780E+00  0.9117018488380E-01
 0.1091902403672E+00 -0.1164605756677E+01 -0.4960452914075E+00  0.2369488848830E-01
 0.1061916507155E+00 -0.1065296614444E+01 -0.4507793318091E+00 -0.3961056212877E-01
 0.9614164413084E-01 -0.9734020329813E+00 -0.4123123817140E+00 -0.9779092297153E-01
 0.7893852290904E-01 -0.8881195883620E+00 -0.3803150997983E+00 -0.1502781471367E+00
 0.5539472545193E-01 -0.8067094561775E+00 -0.3531179225454E+00 -0.1968961418240E+00
 0.2226205282967E-01 -0.7498959318327E+00 -0.3419879222640E+00 -0.2391891551019E+00
-0.2205196879442E-01 -0.7595683636946E+00 -0.3673615553381E+00 -0.2802023146694E+00
-0.7948857546827E-01 -0.8745022576929E+00 -0.4483756904485E+00 -0.3210166551392E+00
-0.2015363235993E+01 -0.4161707279686E+01 -0.2903223135005E+01 -0.1217450256555E+01
-0.1085510157489E+01 -0.4210426825863E+01 -0.2489090375862E+01 -0.6821029240220E+00
-0.5944762930305E+00 -0.3926560271266E+01 -0.2124887179830E+01 -0.2443061391723E+00
-0.3179900161395E+00 -0.3500536441705E+01 -0.1794707430635E+01  0.6389102222433E-01
-0.1717818249115E+00 -0.3064077241526E+01 -0.1520853757368E+01  0.2378756888310E+00
-0.9059400355090E-01 -0.2680072624697E+01 -0.1302213311974E+01  0.3134452276651E+00
-0.3430246716846E-01 -0.2363319337556E+01 -0.1126882245362E+01  0.3259936377629E+00
 0.1856894482169E-01 -0.2101763849669E+01 -0.9791016027948E+00  0.3028426679952E+00
 0.6616385430392E-01 -0.1884445438610E+01 -0.8545923424564E+00  0.2602680815600E+00
 0.1021023484214E+00 -0.1704247794647E+01 -0.7530083578163E+00  0.2056923932187E+00
 0.1256917697264E+00 -0.1554403163676E+01 -0.6714943534531E+00  0.1437344297265E+00
 0.1390258720304E+00 -0.1428335759085E+01 -0.6059756453789E+00  0.7833154802796E-01
 0.1442074436742E+00 -0.1319665497554E+01 -0.5524652839221E+00  0.1266512193892E-01
 0.1418522997749E+00 -0.1223476843708E+01 -0.5083635343593E+00 -0.5116458852136E-01
 0.1319374850238E+00 -0.1137237109315E+01 -0.4724908222183E+00 -0.1118176419581E+00
 0.1143989465568E+00 -0.1059953451278E+01 -0.4444106160920E+00 -0.1683768202481E+00
 0.8989851434006E-01 -0.9892302277433E+00 -0.4226859042274E+00 -0.2200537909445E+00
 0.5172710651340E-01 -0.9442145362704E+00 -0.4194690909218E+00 -0.2684323776408E+00
 0.1241366155191E-02 -0.9620197561073E+00 -0.4515658421321E+00 -0.3148304821980E+00
-0.5645401347084E-01 -0.1075307618960E+01 -0.5319279658932E+00 -0.3576516820855E+00
-0.1977815995400E+01 -0.3894128594414E+01 -0.2759813950213E+01 -0.1147759483493E+01
-0.1151809369711E+01 -0.3987315057326E+01 -0.2415388474581E+01 -0.7413267684936E+00
-0.6705785829864E+00 -0.3814119550220E+01 -0.2107808117261E+01 -0.3719183682981E+00
-0.3749213737426E+00 -0.3499456306851E+01 -0.1820957505260E+01 -0.8323981358258E-01
-0.1998616370649E+00 -0.3140361973050E+01 -0.1569905092772E+01  0.1046539746147E+00
-0.9302868949597E-01 -0.2797209026396E+01 -0.1358411723024E+01  0.2075108912550E+00
-0.2100706461387E-01 -0.2499038316602E+01 -0.1184421326168E+01  0.2464287903722E+00
 0.3828603225317E-01 -0.2247063644687E+01 -0.1038125475211E+01  0.2433037889574E+00
 0.8896082210837E-01 -0.2034996326380E+01 -0.9146366846880E+00  0.2157601507595E+00
 0.1280013230958E+00 -0.1856716253192E+01 -0.8124960150843E+00  0.1731017903555E+00
 0.1548637795846E+00 -0.1706821347231E+01 -0.7294200549436E+00  0.1204340365404E+00
 0.1710652282262E+00 -0.1580430908292E+01 -0.6624018679509E+00  0.6161258212322E-01
 0.1785032082305E+00 -0.1472600994690E+01 -0.6082259580933E+00 -0.6022399187588E-04
 0.1778466188405E+00 -0.1379202139965E+01 -0.5646370934963E+00 -0.6216771428423E-01
 0.1691407113671E+00 -0.1297888702343E+01 -0.5305115544131E+00 -0.1230465562032E+00
 0.1523924325887E+00 -0.1227631194007E+01 -0.5053622165848E+00 -0.1814016971318E+00
 0.1281930886192E+00 -0.1166252592011E+01 -0.4878879653565E+00 -0.2358747229179E+00
 0.8774341610588E-01 -0.1130848650496E+01 -0.4902594589200E+00 -0.2878855604703E+00
 0.3458699789231E-01 -0.1153471879692E+01 -0.5258758931119E+00 -0.3374356740747E+00
-0.2149407679220E-01 -0.1261239187799E+01 -0.6028846328286E+00 -0.3809837143553E+00
-0.1949469370154E+01 -0.3670804519831E+01 -0.2641528721593E+01 -0.1081396447522E+01
-0.1211666659428E+01 -0.3787708900214E+01 -0.2349706507072E+01 -0.7761187381241E+00
-0.7431972485600E+00 -0.3691605228788E+01 -0.2084357159067E+01 -0.4692599398856E+00
-0.4342363457024E+00 -0.3465678070960E+01 -0.1832959771182E+01 -0.2083206192280E+00
-0.2360396347073E+00 -0.3180211641338E+01 -0.1605638095669E+01 -0.1975228357186E-01
-0.1067223924843E+00 -0.2885973832486E+01 -0.1406567222168E+01  0.9986026920009E-01
-0.1814644376594E-01 -0.2614968174423E+01 -0.1237563867410E+01  0.1603149072339E+00
 0.5026197215113E-01 -0.2377566575055E+01 -0.1093833160590E+01  0.1763181482698E+00
 0.1062469915284E+00 -0.2173644263238E+01 -0.9716767152392E+00  0.1641488135014E+00
 0.1495884471060E+00 -0.1999894523034E+01 -0.8696438534807E+00  0.1340029695393E+00
 0.1804826301306E+00 -0.1852355090244E+01 -0.7857800542602E+00  0.9154923963878E-01
 0.2003083471771E+00 -0.1727407416838E+01 -0.7177365609203E+00  0.4070129440338E-01
 0.2108586438149E+00 -0.1621290830834E+01 -0.6629031262175E+00 -0.1520467862068E-01
 0.2128308565545E+00 -0.1530738347488E+01 -0.6194165191676E+00 -0.7359816564159E-01
 0.2063127255284E+00 -0.1453800417960E+01 -0.5863192139556E+00 -0.1325994415967E+00
 0.1913772858190E+00 -0.1389542667912E+01 -0.5631377281553E+00 -0.1906021078717E+00
 0.1686075025778E+00 -0.1335959786312E+01 -0.5486555719636E+00 -0.2457910817757E+00
 0.1280887916643E+00 -0.1307962710981E+01 -0.5545407406725E+00 -0.2993354196380E+00
 0.7481625846610E-01 -0.1332676041826E+01 -0.5911940966795E+00 -0.3502462973942E+00
 0.2141071118672E-01 -0.1432253810448E+01 -0.6630962549711E+00 -0.3936339198190E+00
-0.1925492172758E+01 -0.3480151941282E+01 -0.2540652727155E+01 -0.1019103300278E+01
-0.1264083168619E+01 -0.3608414708359E+01 -0.2290073996371E+01 -0.7933371899263E+00
-0.8116734131358E+00 -0.3566618636002E+01 -0.2057797257876E+01 -0.5420416258322E+00
-0.4950647284257E+00 -0.3410352138261E+01 -0.1835545922687E+01 -0.3121830132123E+00
-0.2788695093964E+00 -0.3190199367975E+01 -0.1630462368229E+01 -0.1318643641004E+00
-0.1301145698263E+00 -0.2946302782034E+01 -0.1445916151707E+01 -0.4761924304690E-02
-0.2525469861622E-01 -0.2708030206996E+01 -0.1284643902379E+01  0.7116666073792E-01
 0.5382225865413E-01 -0.2490345162260E+01 -0.1145165761790E+01  0.1038032206318E+00
 0.1168009626562E+00 -0.2298242055543E+01 -0.1025277311056E+01  0.1064505410197E+00
 0.1656832822886E+00 -0.2131742436765E+01 -0.9240478002603E+00  0.8901515702949E-01
 0.2014814844499E+00 -0.1988784810169E+01 -0.8400325609573E+00  0.5738253731451E-01
 0.2256970121835E+00 -0.1866981515574E+01 -0.7714037146367E+00  0.1552030532173E-01
 0.2401315683173E+00 -0.1763611742085E+01 -0.7160356798549E+00 -0.3323500812089E-01
 0.2455515531120E+00 -0.1676225590273E+01 -0.6724167957603E+00 -0.8624954102028E-01
 0.2420969972556E+00 -0.1603333849994E+01 -0.6397813191641E+00 -0.1415231617985E+00
 0.2299038777000E+00 -0.1544171399609E+01 -0.6177057337303E+00 -0.1972407308251E+00
 0.2095795547161E+00 -0.1496912765340E+01 -0.6050466074585E+00 -0.2512752731300E+00
 0.1707751003691E+00 -0.1474340598959E+01 -0.6126757827832E+00 -0.3045338671737E+00
 0.1192708304308E+00 -0.1498999400180E+01 -0.6484724261372E+00 -0.3553161663914E+00
 0.6915556839629E-01 -0.1588651311529E+01 -0.7141629974612E+00 -0.3978613071586E+00
-0.1903463338975E+01 -0.3314615970606E+01 -0.2452497269282E+01 -0.9609854814897E+00
-0.1308881882440E+01 -0.3446606933464E+01 -0.2235079737806E+01 -0.7976686353452E+00
-0.8752829813912E+00 -0.3443138603004E+01 -0.2029658139518E+01 -0.5948538680619E+00
-0.5561584329299E+00 -0.3341081249127E+01 -0.1831702645921E+01 -0.3965591591410E+00
-0.3267988929904E+00 -0.3176684673673E+01 -0.1646637272155E+01 -0.2300735408611E+00
-0.1617827487851E+00 -0.2980618613407E+01 -0.1476928636484E+01 -0.1028122590867E+00
-0.4166747559786E-01 -0.2777406252560E+01 -0.1324964648874E+01 -0.1748660447396E-01
 0.4876416904747E-01 -0.2583303318577E+01 -0.1191233397257E+01  0.2828964699930E-01
 0.1198767261345E+00 -0.2406596809854E+01 -0.1074758436622E+01  0.4423874994838E-01
 0.1753224037956E+00 -0.2250194442884E+01 -0.9751898558983E+00  0.3908185596934E-01
 0.2168664250265E+00 -0.2114038855321E+01 -0.8916710399768E+00  0.1844733505624E-01
 0.2462167535493E+00 -0.1997058765437E+01 -0.8228957434999E+00 -0.1379995761797E-01
 0.2652484377614E+00 -0.1897541883670E+01 -0.7671779176314E+00 -0.5439644169974E-01
 0.2748447170637E+00 -0.1813812370317E+01 -0.7233147951945E+00 -0.1007166868231E+00
 0.2752312212434E+00 -0.1744845693172E+01 -0.6907188000546E+00 -0.1507197225376E+00
 0.2666147197839E+00 -0.1690081566022E+01 -0.6690294160349E+00 -0.2024865139541E+00
 0.2496455051549E+00 -0.1647901926903E+01 -0.6571805165549E+00 -0.2537240973030E+00
 0.2140098091235E+00 -0.1629112932686E+01 -0.6650984663874E+00 -0.3051111873016E+00
 0.1656947805872E+00 -0.1652120388108E+01 -0.6986200337628E+00 -0.3544864218127E+00
 0.1192541979486E+00 -0.1730849948910E+01 -0.7574500010309E+00 -0.3956007658649E+00
-0.1882153439276E+01 -0.3168958578784E+01 -0.2374022642467E+01 -0.9068537473464E+00
-0.1346330929396E+01 -0.3299889016251E+01 -0.2183723368916E+01 -0.7924397980347E+00
-0.9335119949005E+00 -0.3323261855499E+01 -0.2000683704613E+01 -0.6313829604938E+00
-0.6162745377799E+00 -0.3263052884019E+01 -0.1823283883621E+01 -0.4634764244439E+00
-0.3782330659912E+00 -0.3145098831266E+01 -0.1655965987511E+01 -0.3139608640079E+00
-0.2002432877300E+00 -0.2992305111034E+01 -0.1500497743613E+01 -0.1919204870700E+00
-0.6649957803723E-01 -0.2823945836518E+01 -0.1358509341395E+01 -0.1026053484198E+00
 0.3525740766493E-01 -0.2655568641425E+01 -0.1231546276744E+01 -0.4755449897403E-01
 0.1151276367897E+00 -0.2497071649116E+01 -0.1119513682954E+01 -0.2052833425581E-01
 0.1778537083592E+00 -0.2353387676337E+01 -0.1022500962356E+01 -0.1448796629597E-01
 0.2258266966344E+00 -0.2226197870736E+01 -0.9401744494431E+00 -0.2446054158369E-01
 0.2609665502213E+00 -0.2115706592364E+01 -0.8717278175963E+00 -0.4689295572239E-01
 0.2852299112003E+00 -0.2021193813784E+01 -0.8159030321447E+00 -0.7871333338718E-01
 0.2996430854498E+00 -0.1941730271400E+01 -0.7717809754391E+00 -0.1173881136281E+00
 0.3045512532473E+00 -0.1876749427974E+01 -0.7389331402476E+00 -0.1609102079145E+00
 0.3002471046522E+00 -0.1825917266054E+01 -0.7170649740399E+00 -0.2073535654618E+00
 0.2874358117237E+00 -0.1787857230274E+01 -0.7051980649300E+00 -0.2543917844622E+00
 0.2561667800520E+00 -0.1771588072845E+01 -0.7122480058060E+00 -0.3025309672331E+00
 0.2121473123479E+00 -0.1791848481136E+01 -0.7424595474470E+00 -0.3493779905042E+00
 0.1696650547476E+00 -0.1859258653558E+01 -0.7941089894267E+00 -0.3885074623608E+00
-0.1860947962316E+01 -0.3039369221029E+01 -0.2303149070331E+01 -0.8563887704082E+00
-0.1376927895913E+01 -0.3166241659855E+01 -0.2135289685795E+01 -0.7800793956734E+00
-0.9860871541827E+00 -0.3208051338779E+01 -0.1971245086692E+01 -0.6546074026258E+00
-0.6743450880805E+00 -0.3179835358052E+01 -0.1811464805088E+01 -0.5149804482088E+00
-0.4316496018364E+00 -0.3099853110907E+01 -0.1659806270779E+01 -0.3838350820027E+00
-0.2439669826948E+00 -0.2984910754481E+01 -0.1517572532624E+01 -0.2706840844740E+00
-0.9865099022623E-01 -0.2849478446940E+01 -0.1385620831954E+01 -0.1818197252614E+00
 0.1379450363034E-01 -0.2707367103129E+01 -0.1265979118553E+01 -0.1212602665869E+00
 0.1025595541174E+00 -0.2568828213425E+01 -0.1159146266935E+01 -0.8576167333799E-01
 0.1729448256815E+00 -0.2439930275055E+01 -0.1065483158503E+01 -0.7012130129987E-01
 0.2278014419092E+00 -0.2323626308265E+01 -0.9850376846888E+00 -0.7026776437413E-01
 0.2692271529343E+00 -0.2221201733135E+01 -0.9174280503673E+00 -0.8313717400889E-01
 0.2992373665408E+00 -0.2132848189205E+01 -0.8617970844663E+00 -0.1059756929182E+00
 0.3190007576708E+00 -0.2058340449569E+01 -0.8174896531188E+00 -0.1364341504306E+00
 0.3290037182101E+00 -0.1997557939216E+01 -0.7842204818839E+00 -0.1726138325334E+00
 0.3296395216030E+00 -0.1950411348987E+01 -0.7617627569384E+00 -0.2126690523147E+00
 0.3216763001083E+00 -0.1915801481889E+01 -0.7492388335368E+00 -0.2543551750276E+00
 0.2957650483173E+00 -0.1901157839134E+01 -0.7545346097702E+00 -0.2980699576694E+00
 0.2569387067761E+00 -0.1918023158796E+01 -0.7807096904690E+00 -0.3413982403553E+00
 0.2186767164823E+00 -0.1974211590076E+01 -0.8251013884962E+00 -0.3779988817729E+00
-0.1839556998204E+01 -0.2922967792500E+01 -0.2238386645953E+01 -0.8092239285490E+00
-0.1401274595209E+01 -0.3043951792352E+01 -0.2089256396855E+01 -0.7623969172727E+00
-0.1032941319025E+01 -0.3097977959227E+01 -0.1941532055854E+01 -0.6669520358554E+00
-0.7295285678090E+00 -0.3093899547154E+01 -0.1797011209475E+01 -0.5530117755252E+00
-0.4856820844301E+00 -0.3044452766868E+01 -0.1659163375902E+01 -0.4404328069884E+00
-0.2914474398713E+00 -0.2961771816110E+01 -0.1529013046433E+01 -0.3384403743255E+00
-0.1368679101749E+00 -0.2856301454296E+01 -0.1406789597733E+01 -0.2534344903910E+00
-0.1485860852204E-01 -0.2739721461259E+01 -0.1294652629513E+01 -0.1907391207293E+00
 0.8248921790474E-01 -0.2621810796598E+01 -0.1193481138959E+01 -0.1494569574585E+00
 0.1605691409437E+00 -0.2509034417880E+01 -0.1103778677360E+01 -0.1261350182860E+00
 0.2225026489809E+00 -0.2405112412925E+01 -0.1025826586452E+01 -0.1176978957264E+00
 0.2705074169575E+00 -0.2312122701277E+01 -0.9595591811962E+00 -0.1216783620686E+00
 0.3066194189903E+00 -0.2231013437253E+01 -0.9044651862896E+00 -0.1357393064593E+00
 0.3321291993667E+00 -0.2162181082959E+01 -0.8601243831066E+00 -0.1577992844886E+00
 0.3476705657938E+00 -0.2105921718147E+01 -0.8263780395099E+00 -0.1861357237647E+00
 0.3537472173286E+00 -0.2062402712723E+01 -0.8030680807984E+00 -0.2190577841574E+00
 0.3511957367482E+00 -0.2030835075775E+01 -0.7894304873404E+00 -0.2544987584518E+00
 0.3314558115214E+00 -0.2017253928947E+01 -0.7923251131806E+00 -0.2928127471356E+00
 0.2985854213761E+00 -0.2030465539964E+01 -0.8139836536717E+00 -0.3317534281270E+00
 0.2648355241582E+00 -0.2075942790784E+01 -0.8512204131552E+00 -0.3652900425837E+00
-0.1817861370704E+01 -0.2817508764017E+01 -0.2178623957793E+01 -0.7649882048773E+00
-0.1420005269671E+01 -0.2931549945478E+01 -0.2045230945933E+01 -0.7407593495837E+00
-0.1074166112292E+01 -0.2993161354474E+01 -0.1911643904532E+01 -0.6704041188395E+00
-0.7812084206684E+00 -0.3006959863902E+01 -0.1780439089232E+01 -0.5793550618106E+00
-0.5391615957252E+00 -0.2981653738383E+01 -0.1654783202834E+01 -0.4847269975770E+00
-0.3412674801278E+00 -0.2925861184619E+01 -0.1535550468536E+01 -0.3950678733256E+00
-0.1798215902165E+00 -0.2846849435738E+01 -0.1422535378590E+01 -0.3163558922874E+00
-0.4972821946226E-01 -0.2754153554680E+01 -0.1317824430505E+01 -0.2543513972581E+00
 0.5549823508584E-01 -0.2656602593226E+01 -0.1222519045225E+01 -0.2098375159293E+00
 0.1409789565973E+00 -0.2560518581394E+01 -0.1137183620770E+01 -0.1808802378438E+00
 0.2099133048389E+00 -0.2469942514128E+01 -0.1062213725672E+01 -0.1653762448183E+00
 0.2645653989666E+00 -0.2387434367364E+01 -0.9977484126159E+00 -0.1614887615364E+00
 0.3069460391282E+00 -0.2314496352708E+01 -0.9435486449894E+00 -0.1673515381325E+00
 0.3384336599072E+00 -0.2252023723701E+01 -0.8993873277018E+00 -0.1812089983707E+00
 0.3598015746361E+00 -0.2200673250958E+01 -0.8652096856766E+00 -0.2015651268998E+00
 0.3716676254596E+00 -0.2160865609544E+01 -0.8409230503866E+00 -0.2269384491143E+00
 0.3749416670924E+00 -0.2132145223364E+01 -0.8258856693529E+00 -0.2555126990144E+00
 0.3620170683786E+00 -0.2119339782858E+01 -0.8259416737103E+00 -0.2876559953907E+00
 0.3357792822837E+00 -0.2128965220310E+01 -0.8427973887347E+00 -0.3214629649641E+00
 0.3069022817077E+00 -0.2164585808159E+01 -0.8731112552174E+00 -0.3514202363468E+00
-0.1795828227822E+01 -0.2721195374140E+01 -0.2123001087538E+01 -0.7233287220845E+00
-0.1433745680020E+01 -0.2827759925849E+01 -0.2002907629679E+01 -0.7162078254333E+00
-0.1109968805876E+01 -0.2893507730212E+01 -0.1881633967188E+01 -0.6665997522976E+00
-0.8289694796364E+00 -0.2920199333030E+01 -0.1762109337484E+01 -0.5956226232152E+00
-0.5911281916168E+00 -0.2913609540283E+01 -0.1647226729815E+01 -0.5178050166078E+00
-0.3921456599704E+00 -0.2879748697235E+01 -0.1537790343986E+01 -0.4408278913055E+00
-0.2261827141486E+00 -0.2823499660482E+01 -0.1433350712441E+01 -0.3699926415262E+00
-0.8970557272970E-01 -0.2752447944741E+01 -0.1335812149823E+01 -0.3109063583617E+00
 0.2237866914350E-01 -0.2674248560444E+01 -0.1246378845750E+01 -0.2654307404809E+00
 0.1146690396843E+00 -0.2594728138359E+01 -0.1165627773420E+01 -0.2328510051417E+00
 0.1902692594229E+00 -0.2517901820996E+01 -0.1093987301164E+01 -0.2119327868654E+00
 0.2514096329941E+00 -0.2446530823649E+01 -0.1031706956991E+01 -0.2014438870494E+00
 0.3000265078210E+00 -0.2382457758899E+01 -0.9787426855241E+00 -0.1999983792787E+00
 0.3375423383001E+00 -0.2326928293967E+01 -0.9350113967920E+00 -0.2061933518609E+00
 0.3648488790385E+00 -0.2280876987262E+01 -0.9005332085810E+00 -0.2187853910988E+00
 0.3826737812993E+00 -0.2244952014829E+01 -0.8752707675392E+00 -0.2365297660136E+00
 0.3920053471283E+00 -0.2219036770698E+01 -0.8587047669000E+00 -0.2579012274605E+00
 0.3863548512811E+00 -0.2206929699792E+01 -0.8556701766299E+00 -0.2833213817451E+00
 0.3673641692513E+00 -0.2213291775617E+01 -0.8675859727916E+00 -0.3113757252391E+00
 0.3438266163992E+00 -0.2240188203255E+01 -0.8912899435614E+00 -0.3372721009420E+00
-0.1773462143332E+01 -0.2632554842637E+01 -0.2070827978153E+01 -0.6839224273857E+00
-0.1443091862811E+01 -0.2731460713270E+01 -0.1962039705782E+01 -0.6895367534502E+00
-0.1140636114218E+01 -0.2798791744187E+01 -0.1851531088754E+01 -0.6568879507131E+00
-0.8725686196294E+00 -0.2834423700622E+01 -0.1742286386099E+01 -0.6032539747714E+00
-0.6408228499915E+00 -0.2841993175281E+01 -0.1636923527726E+01 -0.5407911529415E+00
-0.4429627614772E+00 -0.2825613501826E+01 -0.1536230839856E+01 -0.4762431396666E+00
-0.2746805582282E+00 -0.2788466232499E+01 -0.1439678987990E+01 -0.4141557825825E+00
-0.1336170783130E+00 -0.2736483668538E+01 -0.1348947347599E+01 -0.3596258447903E+00
-0.1592609127636E-01 -0.2676091974523E+01 -0.1265248487716E+01 -0.3150957960564E+00
 0.8233232592784E-01 -0.2612422156180E+01 -0.1189142217203E+01 -0.2807538863446E+00
 0.1640293647769E+00 -0.2549222008007E+01 -0.1121040539475E+01 -0.2560864373965E+00
 0.2312847737593E+00 -0.2489230349857E+01 -0.1061234418074E+01 -0.2403992915202E+00
 0.2859114938928E+00 -0.2434435500436E+01 -0.1009806280514E+01 -0.2327613245783E+00
 0.3293247343030E+00 -0.2386280182124E+01 -0.9667690580236E+00 -0.2321215568480E+00
 0.3624987472770E+00 -0.2345874981412E+01 -0.9321868276792E+00 -0.2374919247074E+00
 0.3862546508718E+00 -0.2314041913144E+01 -0.9060600109697E+00 -0.2478624608060E+00
 0.4016576863521E+00 -0.2290983333312E+01 -0.8879830518189E+00 -0.2619988829657E+00
 0.4035117444031E+00 -0.2279633045691E+01 -0.8817770093688E+00 -0.2803792823825E+00
 0.3923115961944E+00 -0.2283227382873E+01 -0.8887304174849E+00 -0.3021933355763E+00
 0.3747259804403E+00 -0.2302735281884E+01 -0.9061643693802E+00 -0.3235868233036E+00
-0.1750780106613E+01 -0.2550352790128E+01 -0.2021532456341E+01 -0.6464828356074E+00
-0.1448592791396E+01 -0.2641646797602E+01 -0.1922412601953E+01 -0.6613467461160E+00
-0.1166514700165E+01 -0.2708720743935E+01 -0.1821360654108E+01 -0.6423770916658E+00
-0.9118986368255E+00 -0.2750164566013E+01 -0.1721169700969E+01 -0.6035232390732E+00
-0.6876732872163E+00 -0.2768099770688E+01 -0.1624213333095E+01 -0.5547981070639E+00
-0.4927687655754E+00 -0.2765273174792E+01 -0.1531279708089E+01 -0.5020069261286E+00
-0.3241463069762E+00 -0.2743749378400E+01 -0.1441910968470E+01 -0.4489673718467E+00
-0.1802850387094E+00 -0.2708122128822E+01 -0.1357551365297E+01 -0.4000912125484E+00
-0.5838008052726E-01 -0.2663642501089E+01 -0.1279350610115E+01 -0.3580196250417E+00
 0.4481101319033E-01 -0.2614658105539E+01 -0.1207828130340E+01 -0.3235450722851E+00
 0.1318367721802E+00 -0.2564501786168E+01 -0.1143352553675E+01 -0.2967067239293E+00
 0.2046439453502E+00 -0.2515732726018E+01 -0.1086211724159E+01 -0.2772581092097E+00
 0.2648793258400E+00 -0.2470329714352E+01 -0.1036561679971E+01 -0.2646747963290E+00
 0.3138954661337E+00 -0.2429795723982E+01 -0.9944731186663E+00 -0.2582396039048E+00
 0.3526982236959E+00 -0.2395309818688E+01 -0.9600274472112E+00 -0.2572092540858E+00
 0.3821605513765E+00 -0.2367790987008E+01 -0.9332463023798E+00 -0.2607864948705E+00
 0.4034055556168E+00 -0.2347693356177E+01 -0.9138152639455E+00 -0.2679854853486E+00
 0.4126897611650E+00 -0.2337230814122E+01 -0.9045342925956E+00 -0.2792836051788E+00
 0.4096871784755E+00 -0.2338627587049E+01 -0.9066019897301E+00 -0.2945109892873E+00
 0.3988494722956E+00 -0.2352184244290E+01 -0.9180673405086E+00 -0.3109849305678E+00
-0.1727745797713E+01 -0.2473465543396E+01 -0.1974569325313E+01 -0.6107563891461E+00
-0.1450786400180E+01 -0.2557447410792E+01 -0.1883869886378E+01 -0.6320733508970E+00
-0.1187956883233E+01 -0.2622943447543E+01 -0.1791123150922E+01 -0.6239664367246E+00
-0.9469901802632E+00 -0.2667803073641E+01 -0.1698952825026E+01 -0.5975507325399E+00
-0.7312501715396E+00 -0.2692900313745E+01 -0.1609350724002E+01 -0.5609023174600E+00
-0.5407870284522E+00 -0.2700223582656E+01 -0.1523274983357E+01 -0.5189145960111E+00
-0.3735389751104E+00 -0.2691113591557E+01 -0.1440386702680E+01 -0.4747806410601E+00
-0.2285766923272E+00 -0.2669137034194E+01 -0.1361925448011E+01 -0.4321839139251E+00
-0.1039081543053E+00 -0.2638478189622E+01 -0.1288921578377E+01 -0.3936934623460E+00
 0.3047419384853E-02 -0.2602691615032E+01 -0.1221832768855E+01 -0.3604434524825E+00
 0.9447486924575E-01 -0.2564622863014E+01 -0.1160969554126E+01 -0.3328556377768E+00
 0.1721094019685E+00 -0.2526556877835E+01 -0.1106590310850E+01 -0.3110284635350E+00
 0.2374042339909E+00 -0.2490357232318E+01 -0.1058887906528E+01 -0.2947823738944E+00
 0.2915978757490E+00 -0.2457487219700E+01 -0.1017967989075E+01 -0.2837084876687E+00
 0.3356635769001E+00 -0.2429105427758E+01 -0.9839176674078E+00 -0.2772999294869E+00
 0.3704601928930E+00 -0.2406136248745E+01 -0.9567677438238E+00 -0.2749536368028E+00
 0.3970729483317E+00 -0.2389187660976E+01 -0.9362939125681E+00 -0.2758742283159E+00
 0.4133243010524E+00 -0.2379788757467E+01 -0.9242382921705E+00 -0.2804034349427E+00
 0.4186083477815E+00 -0.2379547342288E+01 -0.9216413250803E+00 -0.2888894390500E+00
 0.4154825656076E+00 -0.2388533538853E+01 -0.9273339550734E+00 -0.3000135703306E+00
-0.1704428156266E+01 -0.2400977465927E+01 -0.1929540637537E+01 -0.5765513533150E+00
-0.1449929127335E+01 -0.2477767763532E+01 -0.1846017534025E+01 -0.6019710952348E+00
-0.1205581466948E+01 -0.2541462623012E+01 -0.1761110717814E+01 -0.6023479908195E+00
-0.9778309962012E+00 -0.2587486102730E+01 -0.1675699032248E+01 -0.5863515691795E+00
-0.7712826895787E+00 -0.2617121657815E+01 -0.1592550039236E+01 -0.5601288315808E+00
-0.5863971640359E+00 -0.2631658498084E+01 -0.1512486157360E+01 -0.5278123208929E+00
-0.4219626027688E+00 -0.2632084292074E+01 -0.1435402036936E+01 -0.4921092971928E+00
-0.2774413182126E+00 -0.2621175345684E+01 -0.1362349828576E+01 -0.4560243659377E+00
-0.1514395733771E+00 -0.2602176459472E+01 -0.1294199532156E+01 -0.4218773699266E+00
-0.4195981454272E-01 -0.2577897605235E+01 -0.1231332984172E+01 -0.3909258443842E+00
 0.5282361687299E-01 -0.2550677804212E+01 -0.1173991465072E+01 -0.3638134647292E+00
 0.1344260546578E+00 -0.2522480431198E+01 -0.1122385554127E+01 -0.3408743213999E+00
 0.2041047688672E+00 -0.2494995729830E+01 -0.1076718748921E+01 -0.3221992680139E+00
 0.2629541415232E+00 -0.2469595338942E+01 -0.1037121360157E+01 -0.3076551840051E+00
 0.3118531967903E+00 -0.2447379623208E+01 -0.1003697417871E+01 -0.2969747135070E+00
 0.3515561708251E+00 -0.2429222894327E+01 -0.9765033575690E+00 -0.2897639543662E+00
 0.3829774212238E+00 -0.2415747416936E+01 -0.9554018955616E+00 -0.2854074600717E+00
 0.4052305427292E+00 -0.2407865455192E+01 -0.9412384064700E+00 -0.2839853348319E+00
 0.4182669161339E+00 -0.2406499388275E+01 -0.9344692595361E+00 -0.2859564280329E+00
 0.4237187237865E+00 -0.2412025276730E+01 -0.9345040775132E+00 -0.2912750451741E+00
-0.1678182231374E+01 -0.2328815502235E+01 -0.1883288930019E+01 -0.5433221241544E+00
-0.1448151260700E+01 -0.2404036879641E+01 -0.1810528421368E+01 -0.5707694121947E+00
-0.1219169001170E+01 -0.2463723993922E+01 -0.1730959703303E+01 -0.5782086094344E+00
-0.1004625927513E+01 -0.2509401052096E+01 -0.1651592676227E+01 -0.5708608463206E+00
-0.8075734831733E+00 -0.2541196714941E+01 -0.1573921989122E+01 -0.5534594650984E+00
-0.6291224235610E+00 -0.2560465186387E+01 -0.1499106172873E+01 -0.5295479028266E+00
-0.4686884770256E+00 -0.2567976015300E+01 -0.1427232307773E+01 -0.5015583096411E+00
-0.3259353212300E+00 -0.2565744269242E+01 -0.1359089404075E+01 -0.4719135435224E+00
-0.1999364427076E+00 -0.2556260915419E+01 -0.1295412755034E+01 -0.4425577525605E+00
-0.8918704973081E-01 -0.2541707864059E+01 -0.1236520606345E+01 -0.4147053910978E+00
 0.7824044547306E-02 -0.2523921513391E+01 -0.1182565807357E+01 -0.3890875153941E+00
 0.9241934522545E-01 -0.2504504395173E+01 -0.1133679970600E+01 -0.3661606698153E+00
 0.1656851239478E+00 -0.2484950097472E+01 -0.1090054534791E+01 -0.3461907764901E+00
 0.2285719732085E+00 -0.2466536566962E+01 -0.1051843356396E+01 -0.3292677170030E+00
 0.2818566580395E+00 -0.2450313566970E+01 -0.1019174744612E+01 -0.3153575458597E+00
 0.3261191136799E+00 -0.2437160730210E+01 -0.9921895572524E+00 -0.3043252024453E+00
 0.3619240005924E+00 -0.2427690615423E+01 -0.9709103065078E+00 -0.2958328919734E+00
 0.3893089424453E+00 -0.2422112333829E+01 -0.9554175915272E+00 -0.2897681890919E+00
 0.4081032622693E+00 -0.2421278435781E+01 -0.9461923291506E+00 -0.2863591207229E+00
 0.4217387304363E+00 -0.2423980673172E+01 -0.9410537106988E+00 -0.2856928468303E+00
-0.2470162881793E+00 -0.3746058222387E+00 -0.2921623911554E+00  0.2304028625068E+00
-0.2429274977011E+00 -0.3718018459240E+00 -0.2889227907710E+00  0.1441325430770E+00
-0.2394510152169E+00 -0.3746157903330E+00 -0.2886113978764E+00  0.7241142410908E-01
-0.2325255475839E+00 -0.3797605972978E+00 -0.2877744873645E+00  0.1286156484024E-01
-0.2232951973932E+00 -0.3867369437586E+00 -0.2867151056141E+00 -0.3647537957175E-01
-0.2126830655706E+00 -0.3946182850462E+00 -0.2854316340660E+00 -0.7693162503969E-01
-0.2019999990417E+00 -0.4032785041920E+00 -0.2844808957983E+00 -0.1093928763265E+00
-0.1912187813370E+00 -0.4122839299072E+00 -0.2836462735654E+00 -0.1347255974446E+00
-0.1803458243317E+00 -0.4211275200997E+00 -0.2826924711658E+00 -0.1537482559399E+00
-0.1696720038080E+00 -0.4294488067686E+00 -0.2815867802568E+00 -0.1671890621160E+00
-0.1594768149398E+00 -0.4370357306450E+00 -0.2803608957138E+00 -0.1757080860073E+00
-0.1499623828096E+00 -0.4437522801887E+00 -0.2790458909014E+00 -0.1799155170838E+00
-0.1411605206536E+00 -0.4493584376968E+00 -0.2775439097207E+00 -0.1804033303897E+00
-0.1330766603381E+00 -0.4535409040016E+00 -0.2757102545403E+00 -0.1777417336888E+00
-0.1256585324438E+00 -0.4559534531290E+00 -0.2733576325259E+00 -0.1724932185274E+00
-0.1186229467819E+00 -0.4561847092489E+00 -0.2701595976492E+00 -0.1652811088010E+00
-0.1107752836004E+00 -0.4533549628465E+00 -0.2651412151575E+00 -0.1568970133647E+00
-0.1020041107711E+00 -0.4478369874793E+00 -0.2584253155222E+00 -0.1478266677518E+00
-0.9107282557546E-01 -0.4412967880068E+00 -0.2502137177490E+00 -0.1383217256960E+00
-0.5465028147236E-01 -0.4144116652563E+00 -0.2204591144033E+00 -0.1249441616515E+00
-0.2003982321629E+00 -0.3183894763214E+00 -0.2438302223692E+00  0.2318907468811E+00
-0.2060018602858E+00 -0.3143210488855E+00 -0.2445517666903E+00  0.1437456666762E+00
-0.2067866370779E+00 -0.3131006682202E+00 -0.2443470328704E+00  0.7204851582929E-01
-0.2040016331946E+00 -0.3152530553976E+00 -0.2440497030193E+00  0.1307452666408E-01
-0.1980017865762E+00 -0.3190762412943E+00 -0.2430266724828E+00 -0.3533702586653E-01
-0.1902690102579E+00 -0.3236939518061E+00 -0.2415625915574E+00 -0.7461336205088E-01
-0.1823998481924E+00 -0.3291754532689E+00 -0.2404403910769E+00 -0.1057604296138E+00
-0.1745698054115E+00 -0.3355878102154E+00 -0.2397740787365E+00 -0.1298890035349E+00
-0.1666913909183E+00 -0.3424572696867E+00 -0.2392998698774E+00 -0.1479252259609E+00
-0.1589622244106E+00 -0.3492701011900E+00 -0.2388691924264E+00 -0.1606231368762E+00
-0.1515913825491E+00 -0.3556762173164E+00 -0.2384157713321E+00 -0.1686772542006E+00
-0.1446871273413E+00 -0.3614298781761E+00 -0.2378749919898E+00 -0.1727584791450E+00
-0.1381690732117E+00 -0.3662333048394E+00 -0.2370691170827E+00 -0.1735286860968E+00
-0.1319079777904E+00 -0.3697556975124E+00 -0.2357819267943E+00 -0.1716099489310E+00
-0.1256581234047E+00 -0.3717018014885E+00 -0.2337591641069E+00 -0.1675963550211E+00
-0.1188120202311E+00 -0.3717657540721E+00 -0.2305715533377E+00 -0.1620495794583E+00
-0.1102530946859E+00 -0.3695482107265E+00 -0.2255066129719E+00 -0.1553332142251E+00
-0.1009500844202E+00 -0.3666082293921E+00 -0.2197524069344E+00 -0.1472209325867E+00
-0.8726753293051E-01 -0.3616648945896E+00 -0.2109982403993E+00 -0.1363942522427E+00
-0.8733617615809E-01 -0.3646164249962E+00 -0.2124177220038E+00 -0.1211169219802E+00
-0.1556649600893E+00 -0.2633873748512E+00 -0.1969545969225E+00  0.2323626730224E+00
-0.1691614622380E+00 -0.2547266104413E+00 -0.1992273936540E+00  0.1431787527250E+00
-0.1758901890431E+00 -0.2506472287418E+00 -0.2004725858504E+00  0.7171807641468E-01
-0.1771681097917E+00 -0.2498873946115E+00 -0.2007160865604E+00  0.1367309512987E-01
-0.1744948937163E+00 -0.2509528803874E+00 -0.1999604533216E+00 -0.3355940612412E-01
-0.1695575728514E+00 -0.2526371091693E+00 -0.1984315000464E+00 -0.7149671576560E-01
-0.1644748333064E+00 -0.2554601548661E+00 -0.1973694439404E+00 -0.1012486837471E+00
-0.1594938752193E+00 -0.2598156011840E+00 -0.1970754534097E+00 -0.1241525924377E+00
-0.1544502205157E+00 -0.2652326782844E+00 -0.1972509619357E+00 -0.1412529029355E+00
-0.1494542079214E+00 -0.2710583685336E+00 -0.1976409104326E+00 -0.1533349043433E+00
-0.1446222762344E+00 -0.2768178894530E+00 -0.1980768773707E+00 -0.1611233876995E+00
-0.1399659376371E+00 -0.2821979606201E+00 -0.1984170316776E+00 -0.1653281764947E+00
-0.1352971665562E+00 -0.2868666652515E+00 -0.1984170004463E+00 -0.1666330341275E+00
-0.1303945368223E+00 -0.2905092271148E+00 -0.1978247685487E+00 -0.1656340181997E+00
-0.1249478639693E+00 -0.2929235299603E+00 -0.1963995546488E+00 -0.1628221303905E+00
-0.1184452729360E+00 -0.2939592727995E+00 -0.1938301360041E+00 -0.1585105501113E+00
-0.1103679055375E+00 -0.2933393271993E+00 -0.1897423989050E+00 -0.1526839460835E+00
-0.1016531948898E+00 -0.2920243336727E+00 -0.1850284379551E+00 -0.1447801034608E+00
-0.9558013663892E-01 -0.2930030388655E+00 -0.1826340920238E+00 -0.1342019148818E+00
-0.9331753235328E-01 -0.2941760801666E+00 -0.1821219974224E+00 -0.1230082675838E+00
-0.1113000893048E+00 -0.2075002289993E+00 -0.1498361492229E+00  0.2315796736447E+00
-0.1336368396342E+00 -0.1942499404260E+00 -0.1541067862374E+00  0.1422238201177E+00
-0.1464256753712E+00 -0.1869992819436E+00 -0.1567097295405E+00  0.7160792773537E-01
-0.1520771357001E+00 -0.1838051645186E+00 -0.1578646807024E+00  0.1484958276343E-01
-0.1526556567054E+00 -0.1824862649145E+00 -0.1575167027618E+00 -0.3094498986579E-01
-0.1504378018952E+00 -0.1817250295727E+00 -0.1561165303939E+00 -0.6738095322310E-01
-0.1480233630868E+00 -0.1824251621546E+00 -0.1553108064695E+00 -0.9565607055557E-01
-0.1457437441020E+00 -0.1853064575395E+00 -0.1555935943769E+00 -0.1173339467669E+00
-0.1433395073452E+00 -0.1898612225924E+00 -0.1566043426735E+00 -0.1335664840386E+00
-0.1408335024709E+00 -0.1952973046209E+00 -0.1579814789324E+00 -0.1451583026696E+00
-0.1382478725419E+00 -0.2010296286356E+00 -0.1594604251490E+00 -0.1528468785327E+00
-0.1355047642720E+00 -0.2066868197554E+00 -0.1608300440849E+00 -0.1573517647087E+00
-0.1323488101202E+00 -0.2119063476444E+00 -0.1617999237390E+00 -0.1593337102272E+00
-0.1285414020200E+00 -0.2163684415277E+00 -0.1621076260563E+00 -0.1593126996032E+00
-0.1238324082548E+00 -0.2198887897894E+00 -0.1615489626710E+00 -0.1576508304731E+00
-0.1179492000829E+00 -0.2223061085314E+00 -0.1599199946431E+00 -0.1545043839681E+00
-0.1106524265994E+00 -0.2229963997211E+00 -0.1568149479729E+00 -0.1497627643685E+00
-0.1038474495467E+00 -0.2234030454307E+00 -0.1538077322493E+00 -0.1432414640433E+00
-0.9791451216444E-01 -0.2250296304064E+00 -0.1517837466233E+00 -0.1355621179486E+00
-0.9228217456778E-01 -0.2287597325112E+00 -0.1508896959444E+00 -0.1283437973399E+00
-0.6743792833191E-01 -0.1505930896138E+00 -0.1024745781746E+00  0.2295217719814E+00
-0.9945021910719E-01 -0.1325899989879E+00 -0.1090589022281E+00  0.1409280437538E+00
-0.1186221563803E+00 -0.1223567782781E+00 -0.1132600990022E+00  0.7184238434386E-01
-0.1286470054512E+00 -0.1170543988992E+00 -0.1154796597518E+00  0.1680685468271E-01
-0.1324021789232E+00 -0.1138609824564E+00 -0.1157436855549E+00 -0.2729091664727E-01
-0.1327486358526E+00 -0.1111975924160E+00 -0.1146547269954E+00 -0.6207017734320E-01
-0.1328414756157E+00 -0.1103806191718E+00 -0.1143143842602E+00 -0.8879960023695E-01
-0.1330741921948E+00 -0.1124202678471E+00 -0.1153823959270E+00 -0.1092641686066E+00
-0.1330931287820E+00 -0.1167564184965E+00 -0.1174292869231E+00 -0.1247054571285E+00
-0.1328293587244E+00 -0.1224510602955E+00 -0.1199817966350E+00 -0.1359259524129E+00
-0.1322124112688E+00 -0.1288071768829E+00 -0.1226792061201E+00 -0.1436558557985E+00
-0.1310927667258E+00 -0.1353859667351E+00 -0.1252450044090E+00 -0.1486025392592E+00
-0.1291871540975E+00 -0.1417703399999E+00 -0.1273500219028E+00 -0.1513825627740E+00
-0.1262846456405E+00 -0.1475860000161E+00 -0.1287192031321E+00 -0.1524388972254E+00
-0.1222272651604E+00 -0.1525927357036E+00 -0.1291654000785E+00 -0.1520562016805E+00
-0.1168670234035E+00 -0.1564989528392E+00 -0.1284820085082E+00 -0.1503583679263E+00
-0.1102880146244E+00 -0.1585971187212E+00 -0.1263760123519E+00 -0.1473306599915E+00
-0.1035076385237E+00 -0.1600707152173E+00 -0.1238818259440E+00 -0.1432719582905E+00
-0.9594553540258E-01 -0.1633955706629E+00 -0.1218903195416E+00 -0.1389854588937E+00
-0.8594255816487E-01 -0.1697542686810E+00 -0.1201775083127E+00 -0.1350746429098E+00
-0.2413925133255E-01 -0.9246389875418E-01 -0.5480348040176E-01  0.2261398326080E+00
-0.6678072177798E-01 -0.6964914181958E-01 -0.6412203572822E-01  0.1393918654715E+00
-0.9254537885252E-01 -0.5670604229344E-01 -0.7014816776068E-01  0.7259323408623E-01
-0.1068700671802E+00 -0.4976303405160E-01 -0.7361755739224E-01  0.1974632427136E-01
-0.1136143912991E+00 -0.4525220146007E-01 -0.7466729840745E-01 -0.2239318767379E-01
-0.1163208767473E+00 -0.4131074430144E-01 -0.7408686170499E-01 -0.5537697037480E-01
-0.1187138475106E+00 -0.3964050829055E-01 -0.7442654703778E-01 -0.8051041301827E-01
-0.1212465100423E+00 -0.4152244439579E-01 -0.7650140839184E-01 -0.9979079847496E-01
-0.1234651734763E+00 -0.4632308880750E-01 -0.7980048307099E-01 -0.1145259490995E+00
-0.1252030754984E+00 -0.5294816025894E-01 -0.8373108059357E-01 -0.1254937138658E+00
-0.1262966220797E+00 -0.6057569103928E-01 -0.8782998694317E-01 -0.1334019806372E+00
-0.1265387383370E+00 -0.6867816375397E-01 -0.9175194375006E-01 -0.1389360165203E+00
-0.1256415417706E+00 -0.7675613625847E-01 -0.9512690843238E-01 -0.1426659495204E+00
-0.1234321710811E+00 -0.8435179313380E-01 -0.9765846293330E-01 -0.1449764825936E+00
-0.1198035952402E+00 -0.9114340380004E-01 -0.9914508929745E-01 -0.1461211341385E+00
-0.1146797690899E+00 -0.9678340693701E-01 -0.9938769248055E-01 -0.1462472496833E+00
-0.1080962489096E+00 -0.1004866243182E+00 -0.9803395016843E-01 -0.1454418888713E+00
-0.1002725835585E+00 -0.1036207534392E+00 -0.9582986814589E-01 -0.1442312353321E+00
-0.8985656785422E-01 -0.1090651068934E+00 -0.9349318689423E-01 -0.1432137562498E+00
-0.7576256877545E-01 -0.1183455030449E+00 -0.9123079352418E-01 -0.1420326519374E+00
 0.1849037104203E-01 -0.3294673426376E-01 -0.6794490696977E-02  0.2213765950750E+00
-0.3579352462048E-01 -0.5314108861407E-02 -0.1932058768748E-01  0.1377471488161E+00
-0.6827147618997E-01  0.9942663600294E-02 -0.2741454184761E-01  0.7406241530207E-01
-0.8670435991584E-01  0.1795995301407E-01 -0.3230987116188E-01  0.2388322869640E-01
-0.9616668427209E-01  0.2314316136805E-01 -0.3432105567785E-01 -0.1605086886326E-01
-0.1009677659213E+00  0.2767312279803E-01 -0.3444848218055E-01 -0.4712398096090E-01
-0.1054208094995E+00  0.2947447884184E-01 -0.3569477531856E-01 -0.7063627929483E-01
-0.1100277167694E+00  0.2702374550648E-01 -0.3901186639460E-01 -0.8878221951064E-01
-0.1142262461538E+00  0.2104852250365E-01 -0.4379353000452E-01 -0.1029102142752E+00
-0.1177366131473E+00  0.1281606246117E-01 -0.4931265869740E-01 -0.1137541029811E+00
-0.1202961567258E+00  0.3291880956118E-02 -0.5499200947225E-01 -0.1219911752510E+00
-0.1216477207556E+00 -0.6886327836351E-02 -0.6041100268499E-01 -0.1282815917045E+00
-0.1215102380145E+00 -0.1712325823391E-01 -0.6515774307147E-01 -0.1331500525299E+00
-0.1197383523111E+00 -0.2687819348637E-01 -0.6890977635004E-01 -0.1369324210770E+00
-0.1162445347709E+00 -0.3578373192684E-01 -0.7145328516668E-01 -0.1398621581014E+00
-0.1109266349411E+00 -0.4348613762281E-01 -0.7257400292098E-01 -0.1420976020888E+00
-0.1037287083937E+00 -0.4928584820730E-01 -0.7191684142005E-01 -0.1437310325147E+00
-0.9406350148559E-01 -0.5462781360457E-01 -0.6988491791512E-01 -0.1453406766695E+00
-0.8040282222709E-01 -0.6265551405872E-01 -0.6723741788379E-01 -0.1472021545901E+00
-0.6251979453217E-01 -0.7482530868330E-01 -0.6455219834754E-01 -0.1482638662646E+00
 0.6032927219332E-01  0.2813079792112E-01  0.4157623284833E-01  0.2151638445313E+00
-0.6667603113076E-02  0.6051653065221E-01  0.2530899587920E-01  0.1361526504072E+00
-0.4586243502306E-01  0.7757352093621E-01  0.1490421034138E-01  0.7647692537247E-01
-0.6809163015303E-01  0.8599143394125E-01  0.8412907759122E-02  0.2944324802409E-01
-0.7991216765832E-01  0.9111993621723E-01  0.5267651209327E-02 -0.8066290603047E-02
-0.8649045298614E-01  0.9548160242077E-01  0.4225840223557E-02 -0.3714685208692E-01
-0.9273757773812E-01  0.9664048609278E-01  0.1834366922039E-02 -0.5904438555700E-01
-0.9919077587834E-01  0.9285798492943E-01 -0.2976411738435E-02 -0.7613161492808E-01
-0.1051599820453E+00  0.8498084251158E-01 -0.9484195556814E-02 -0.8977182120960E-01
-0.1102261743724E+00  0.7447032188111E-01 -0.1680525062826E-01 -0.1006405669442E+00
-0.1140160690019E+00  0.6245572441668E-01 -0.2423336189357E-01 -0.1093805435178E+00
-0.1162276181128E+00  0.4969930410806E-01 -0.3126830750291E-01 -0.1166226039879E+00
-0.1165941220062E+00  0.3688850751237E-01 -0.3746163871709E-01 -0.1228380500324E+00
-0.1149899074646E+00  0.2461963949186E-01 -0.4247402583946E-01 -0.1283037681124E+00
-0.1113172397910E+00  0.1326256779506E-01 -0.4608569572119E-01 -0.1332132679709E+00
-0.1054228683934E+00  0.3108797000325E-02 -0.4808761343278E-01 -0.1376865556575E+00
-0.9713290485874E-01 -0.5268484659665E-02 -0.4812865295158E-01 -0.1417290165080E+00
-0.8524154769517E-01 -0.1333280937564E-01 -0.4632994770577E-01 -0.1458679016143E+00
-0.6833635686772E-01 -0.2425055230360E-01 -0.4351584720015E-01 -0.1500968917807E+00
-0.4702793587914E-01 -0.3921774587716E-01 -0.4053547032265E-01 -0.1529308178003E+00
 0.1012360994394E+00  0.9095004694223E-01  0.9032748857025E-01  0.2074237934589E+00
 0.2040719254874E-01  0.1279378056092E+00  0.6972214895739E-01  0.1347940331040E+00
-0.2536958488762E-01  0.1461548339968E+00  0.5676906693731E-01  0.8008564347307E-01
-0.5095181561768E-01  0.1541940597116E+00  0.4852385460106E-01  0.3665901162363E-01
-0.6468398465378E-01  0.1584613686574E+00  0.4407537036989E-01  0.1751862070515E-02
-0.7267610860191E-01  0.1618359729568E+00  0.4190513614049E-01 -0.2529645497953E-01
-0.8043537324097E-01  0.1615306532892E+00  0.3811478152598E-01 -0.4562349227187E-01
-0.8851435667343E-01  0.1556209553706E+00  0.3154010130769E-01 -0.6175899866813E-01
-0.9606222602793E-01  0.1451026709682E+00  0.2304900906349E-01 -0.7505757646787E-01
-0.1024816758602E+00  0.1316576409879E+00  0.1371270357522E-01 -0.8612754467641E-01
-0.1072750729962E+00  0.1165989166657E+00  0.4382206513566E-02 -0.9557310620126E-01
-0.1101040522542E+00  0.1008186420899E+00 -0.4364142766163E-02 -0.1039833786073E+00
-0.1107286518059E+00  0.8507631921406E-01 -0.1205659628757E-01 -0.1117540605714E+00
-0.1090407618488E+00  0.6998405425112E-01 -0.1835665252437E-01 -0.1190754642800E+00
-0.1049256073613E+00  0.5586518471888E-01 -0.2305839858348E-01 -0.1260638674991E+00
-0.9817536667781E-01  0.4291116170724E-01 -0.2597417627029E-01 -0.1327477501675E+00
-0.8852818209634E-01  0.3154530256978E-01 -0.2678195330956E-01 -0.1389776211698E+00
-0.7435333730815E-01  0.2036725934251E-01 -0.2537345657950E-01 -0.1451883086878E+00
-0.5450496588451E-01  0.6361724143771E-02 -0.2262732356076E-01 -0.1511930682313E+00
-0.3021371672685E-01 -0.1126619181557E-01 -0.1949555696549E-01 -0.1553000258334E+00
 0.1410483337560E+00  0.1557043709134E+00  0.1394737708409E+00  0.1980699738999E+00
 0.4522849686640E-01  0.1970354980970E+00  0.1138640773440E+00  0.1338855713152E+00
-0.6831400206152E-02  0.2156360456779E+00  0.9813818312279E-01  0.8515690008942E-01
-0.3518219510818E-01  0.2224138232230E+00  0.8799886499078E-01  0.4576597601223E-01
-0.5029397350835E-01  0.2249414470302E+00  0.8208431234705E-01  0.1358523641092E-01
-0.5929810797452E-01  0.2264532537775E+00  0.7856291832813E-01 -0.1144062333940E-01
-0.6828156668955E-01  0.2238147506919E+00  0.7310059629567E-01 -0.3028446868637E-01
-0.7778382752825E-01  0.2149489032439E+00  0.6446758542285E-01 -0.4561150257926E-01
-0.8674239514394E-01  0.2010407431672E+00  0.5372022343469E-01 -0.5874817734177E-01
-0.9432969378554E-01  0.1840280590139E+00  0.4215823155040E-01 -0.7023094942970E-01
-0.9991233187488E-01  0.1654272388636E+00  0.3079200620660E-01 -0.8061668990994E-01
-0.1031334298195E+00  0.1462542990981E+00  0.2026680850954E-01 -0.9042687366072E-01
-0.1038000757653E+00  0.1273050297273E+00  0.1104732833415E-01 -0.9994479600144E-01
-0.1018298130095E+00  0.1091561823354E+00  0.3443393574474E-02 -0.1092358722146E+00
-0.9709752704281E-01  0.9203965034767E-01 -0.2377202040687E-02 -0.1182989748358E+00
-0.8935999037944E-01  0.7602146528239E-01 -0.6269106779712E-02 -0.1270286786918E+00
-0.7830775099805E-01  0.6137597174499E-01 -0.7957936228751E-02 -0.1350837399966E+00
-0.6207819500208E-01  0.4682827169485E-01 -0.7167463936220E-02 -0.1428026455483E+00
-0.3983140800261E-01  0.2965301064163E-01 -0.4783846747525E-02 -0.1499382697934E+00
-0.1313567166533E-01  0.9536299445190E-02 -0.1691704939176E-02 -0.1547835467831E+00
 0.1795792690996E+00  0.2225996435231E+00  0.1890240884532E+00  0.1870086376537E+00
 0.6758065395050E-01  0.2678818865864E+00  0.1576673936525E+00  0.1336724808996E+00
 0.9727771882857E-02  0.2859434776375E+00  0.1389654869221E+00  0.9197571053358E-01
-0.2065612394842E-01  0.2904806416889E+00  0.1268175230164E+00  0.5699769315801E-01
-0.3653210717003E-01  0.2903293412087E+00  0.1192846996956E+00  0.2760275140010E-01
-0.4611547195251E-01  0.2890498845040E+00  0.1141791736096E+00  0.4535766287675E-02
-0.5603993166168E-01  0.2831565085728E+00  0.1067447908775E+00 -0.1295880755707E-01
-0.6679294678272E-01  0.2704643970262E+00  0.9572558137164E-01 -0.2766259818642E-01
-0.7702645429140E-01  0.2524091263003E+00  0.8242985563509E-01 -0.4085992392882E-01
-0.8561750289272E-01  0.2312345894639E+00  0.6844003051486E-01 -0.5301224678422E-01
-0.9179341532026E-01  0.2086773769966E+00  0.5493546184855E-01 -0.6460873160984E-01
-0.9521056975208E-01  0.1858531094515E+00  0.4260199355069E-01 -0.7605965344223E-01
-0.9575313237359E-01  0.1635362810045E+00  0.3185807977573E-01 -0.8748721397769E-01
-0.9338000097245E-01  0.1422049382420E+00  0.2294772045851E-01 -0.9879197846273E-01
-0.8797280539066E-01  0.1219561648126E+00  0.1597217888781E-01 -0.1098238609663E+00
-0.7928018291282E-01  0.1027193889577E+00  0.1101642681316E-01 -0.1203211702507E+00
-0.6698592474701E-01  0.8463683548214E-01  0.8295928024468E-02 -0.1297434412751E+00
-0.4917180915383E-01  0.6661011455713E-01  0.8196003518764E-02 -0.1383516986194E+00
-0.2528272949372E-01  0.4630801804227E-01  0.9881885592754E-02 -0.1459561612604E+00
 0.3076397782170E-02  0.2392792218448E-01  0.1269203035213E-01 -0.1509921559444E+00
 0.2166144131258E+00  0.2918534355056E+00  0.2389798882506E+00  0.1741410591241E+00
 0.8723359116565E-01  0.3405282192923E+00  0.2010480504053E+00  0.1344334914227E+00
 0.2429842952755E-01  0.3569750164055E+00  0.1791985191340E+00  0.1008397706722E+00
-0.7222541857326E-02  0.3582113397210E+00  0.1649647345775E+00  0.7058000069317E-01
-0.2316540152987E-01  0.3543984268683E+00  0.1556795215142E+00  0.4395844032183E-01
-0.3287117284808E-01  0.3493469159417E+00  0.1487435988767E+00  0.2273356550284E-01
-0.4347018814866E-01  0.3392070936926E+00  0.1389963452531E+00  0.6405371173147E-02
-0.5534650919447E-01  0.3217603846976E+00  0.1252145211689E+00 -0.7911510499030E-02
-0.6676121053137E-01  0.2987955141901E+00  0.1090561224430E+00 -0.2145011860033E-01
-0.7621725030852E-01  0.2729334130668E+00  0.9245659626190E-01 -0.3458834549729E-01
-0.8281420912346E-01  0.2461344757766E+00  0.7676052513228E-01 -0.4770637491923E-01
-0.8627252562553E-01  0.2195543666265E+00  0.6264246511157E-01 -0.6103916068913E-01
-0.8659225220987E-01  0.1938558961788E+00  0.5041391253754E-01 -0.7449374585832E-01
-0.8379322515349E-01  0.1693405448964E+00  0.4020724017716E-01 -0.8777572709893E-01
-0.7778375702098E-01  0.1459330341816E+00  0.3203016018425E-01 -0.1005739724068E+00
-0.6833165056587E-01  0.1234323046986E+00  0.2589730737670E-01 -0.1124734521785E+00
-0.5514782189791E-01  0.1018857670045E+00  0.2196683414437E-01 -0.1227534854430E+00
-0.3641420918983E-01  0.8041881719115E-01  0.2068216570816E-01 -0.1316302270738E+00
-0.1180724037537E-01  0.5717226959335E-01  0.2132156367837E-01 -0.1390744817848E+00
 0.1731748198131E-01  0.3283525722543E-01  0.2357178736738E-01 -0.1437834352896E+00
 0.2519076890530E+00  0.3636929509614E+00  0.2893323000729E+00  0.1593676492718E+00
 0.1039410023199E+00  0.4149922164203E+00  0.2438986121893E+00  0.1364834986842E+00
 0.3688475107566E-01  0.4285921583392E+00  0.2187741468701E+00  0.1120530044180E+00
 0.5293665386924E-02  0.4254171435135E+00  0.2024340796697E+00  0.8672334686816E-01
-0.9935072990987E-02  0.4169432614080E+00  0.1912938480708E+00  0.6279120131244E-01
-0.1928737513205E-01  0.4070770888620E+00  0.1822611649908E+00  0.4324700845478E-01
-0.3032663768569E-01  0.3915897617699E+00  0.1697936678889E+00  0.2785029122218E-01
-0.4326504876395E-01  0.3683723138069E+00  0.1528004141826E+00  0.1361486431676E-01
-0.5582073782162E-01  0.3397440294892E+00  0.1334439467453E+00 -0.6298245113219E-03
-0.6602977572272E-01  0.3087932446413E+00  0.1140988301023E+00 -0.1514916608757E-01
-0.7290281744744E-01  0.2776640121204E+00  0.9623776125218E-01 -0.3013962386362E-01
-0.7629983610650E-01  0.2474266639874E+00  0.8042960890003E-01 -0.4557752565840E-01
-0.7638082528023E-01  0.2184974505541E+00  0.6679481370932E-01 -0.6110865695388E-01
-0.7324240775043E-01  0.1909155003935E+00  0.5530635340195E-01 -0.7623853898707E-01
-0.6683470427203E-01  0.1644136232394E+00  0.4586209179834E-01 -0.9051202052569E-01
-0.5696583909818E-01  0.1386929506476E+00  0.3841174233079E-01 -0.1033907437569E+00
-0.4339995910335E-01  0.1137674870353E+00  0.3307273804414E-01 -0.1140150683727E+00
-0.2454993585343E-01  0.8903954278110E-01  0.3031011517913E-01 -0.1225959052263E+00
-0.2554895631617E-03  0.6318015008491E-01  0.2957459037021E-01 -0.1293432623411E+00
 0.2862452299218E-01  0.3730453999862E-01  0.3098665952708E-01 -0.1332907308146E+00
 0.2851791692670E+00  0.4383525438404E+00  0.3400599042979E+00  0.1425956401461E+00
 0.1174366888536E+00  0.4912362856085E+00  0.2860762972716E+00  0.1401764117759E+00
 0.4749902995340E-01  0.5006063255731E+00  0.2576095164441E+00  0.1259145049443E+00
 0.1709006710914E-01  0.4919199200215E+00  0.2392346933446E+00  0.1056117131565E+00
 0.3451818889870E-02  0.4778122749552E+00  0.2261941235335E+00  0.8422859625983E-01
-0.5054775716572E-02  0.4619921231214E+00  0.2147605527356E+00  0.6617998463780E-01
-0.1635688549976E-01  0.4398644968483E+00  0.1990485768289E+00  0.5141843903163E-01
-0.3039553560123E-01  0.4097294590371E+00  0.1782869435627E+00  0.3685247719181E-01
-0.4411588102515E-01  0.3747394444533E+00  0.1553930744171E+00  0.2141018471121E-01
-0.5498712698016E-01  0.3385264011876E+00  0.1332634585395E+00  0.5016095822153E-02
-0.6201901404141E-01  0.3032670025208E+00  0.1133865542977E+00 -0.1222242011356E-01
-0.6531759018308E-01  0.2697121408389E+00  0.9606543856457E-01 -0.2993422708130E-01
-0.6524092417965E-01  0.2378561884587E+00  0.8112917400538E-01 -0.4749034171873E-01
-0.6196300896027E-01  0.2074074936040E+00  0.6835890760915E-01 -0.6423366147223E-01
-0.5547921903308E-01  0.1779274423263E+00  0.5755066480183E-01 -0.7961617427830E-01
-0.4565147514864E-01  0.1490870022282E+00  0.4861469760408E-01 -0.9302908197565E-01
-0.3231783003548E-01  0.1209500320884E+00  0.4165713485920E-01 -0.1035309357445E+00
-0.1422515770352E-01  0.9326034446423E-01  0.3714653768332E-01 -0.1113670743409E+00
 0.8701038556262E-02  0.6526553035733E-01  0.3476428730121E-01 -0.1170317799948E+00
 0.3629360324092E-01  0.3840527447676E-01  0.3510847243826E-01 -0.1199200785846E+00
 0.3161208511376E+00  0.5160752070911E+00  0.3911321463754E+00  0.1237541729203E+00
 0.1274273384466E+00  0.5691275008858E+00  0.3273807736559E+00  0.1459093121556E+00
 0.5614403760591E-01  0.5727498727877E+00  0.2955801371353E+00  0.1426982713386E+00
 0.2838575566968E-01  0.5575896052827E+00  0.2754084189491E+00  0.1273848914210E+00
 0.1734453286569E-01  0.5369715855479E+00  0.2605285749936E+00  0.1083998018818E+00
 0.1018968600110E-01  0.5138637349646E+00  0.2463051072292E+00  0.9167811426249E-01
-0.1309165654954E-02  0.4834443841479E+00  0.2266035521169E+00  0.7716268255378E-01
-0.1663429287358E-01  0.4450781204993E+00  0.2013685984734E+00  0.6167158997681E-01
-0.3160716111205E-01  0.4032113102264E+00  0.1746539496407E+00  0.4435188149875E-01
-0.4304871634211E-01  0.3619680052461E+00  0.1498920654047E+00  0.2548711253009E-01
-0.5015255111346E-01  0.3231636904295E+00  0.1283152351531E+00  0.5649840024298E-02
-0.5339960588442E-01  0.2868665624153E+00  0.1097294692912E+00 -0.1438769143497E-01
-0.5335565221130E-01  0.2524786263847E+00  0.9358779762414E-01 -0.3377691658616E-01
-0.5024317994791E-01  0.2193776107049E+00  0.7949318225416E-01 -0.5179039684659E-01
-0.4409342178555E-01  0.1870372008673E+00  0.6718357599802E-01 -0.6786574104666E-01
-0.3483335063162E-01  0.1551968958075E+00  0.5657086608918E-01 -0.8138680241731E-01
-0.2239341236194E-01  0.1240620878692E+00  0.4778427736722E-01 -0.9139551459351E-01
-0.5931001195637E-02  0.9379443954014E-01  0.4129581591718E-01 -0.9820386309383E-01
 0.1463556615351E-01  0.6426388709597E-01  0.3708274293320E-01 -0.1025959345532E+00
 0.3997201914786E-01  0.3711415410743E-01  0.3623050133809E-01 -0.1043050165819E+00
 0.3444400996760E+00  0.5971426950750E+00  0.4425439124106E+00  0.1028271389295E+00
 0.1335704981749E+00  0.6483490820297E+00  0.3675022017640E+00  0.1541322364074E+00
 0.6276903663714E-01  0.6446127867434E+00  0.3324694561456E+00  0.1626127060634E+00
 0.3942136451292E-01  0.6224288114696E+00  0.3110695819228E+00  0.1521065484905E+00
 0.3221959533111E-01  0.5946481207165E+00  0.2946278257951E+00  0.1354718089830E+00
 0.2688708324377E-01  0.5624326005316E+00  0.2769802506719E+00  0.1199895230002E+00
 0.1503676310030E-01  0.5214167644024E+00  0.2521331572868E+00  0.1051436369930E+00
-0.1980141198900E-02  0.4733751956704E+00  0.2215556750397E+00  0.8780480972684E-01
-0.1830206630826E-01  0.4246252842286E+00  0.1909719119382E+00  0.6767379381266E-01
-0.3018979563483E-01  0.3792294383629E+00  0.1640486316661E+00  0.4569193865030E-01
-0.3732426878680E-01  0.3378921365971E+00  0.1412668975126E+00  0.2303660269638E-01
-0.4068073666783E-01  0.2995642774767E+00  0.1216752638715E+00  0.8227009679793E-03
-0.4097383566991E-01  0.2630079470778E+00  0.1043560320970E+00 -0.2004005703446E-01
-0.3840791390595E-01  0.2274040247079E+00  0.8882817185161E-01 -0.3889086085169E-01
-0.3304325341831E-01  0.1922817368139E+00  0.7484208700610E-01 -0.5523277055256E-01
-0.2489036061729E-01  0.1575534497716E+00  0.6235165174437E-01 -0.6849687760091E-01
-0.1399045663889E-01  0.1236401910909E+00  0.5153537506171E-01 -0.7777674161628E-01
 0.3448620015123E-04  0.9121144328413E-01  0.4288558674884E-01 -0.8346968677888E-01
 0.1739781800343E-01  0.6082010638102E-01  0.3676242436745E-01 -0.8661398964826E-01
 0.3970037550423E-01  0.3419899153648E-01  0.3473270242104E-01 -0.8721799295231E-01
 0.3700211176174E+00  0.6820049254352E+00  0.4944522389806E+00  0.7993014859260E-01
 0.1354420168283E+00  0.7282134294770E+00  0.4059180587339E+00  0.1653833486035E+00
 0.6708788996658E-01  0.7154152522205E+00  0.3677764758951E+00  0.1857040367364E+00
 0.5056251172841E-01  0.6868901099852E+00  0.3466027313263E+00  0.1797030621956E+00
 0.4880870420311E-01  0.6515632307460E+00  0.3291748085912E+00  0.1657502178981E+00
 0.4560382175695E-01  0.6072339464532E+00  0.3068337502805E+00  0.1515736708193E+00
 0.3269109042035E-01  0.5520977727738E+00  0.2748507650041E+00  0.1353654876149E+00
 0.1345075585987E-01  0.4933215598853E+00  0.2381829877961E+00  0.1146883828316E+00
-0.4236104666516E-02  0.4387348285885E+00  0.2042143997254E+00  0.9056624813910E-01
-0.1637826817464E-01  0.3909315556051E+00  0.1760400446458E+00  0.6493771577231E-01
-0.2360219194507E-01  0.3483627915414E+00  0.1526374814231E+00  0.3954687619715E-01
-0.2738340416963E-01  0.3086156269726E+00  0.1321791443821E+00  0.1557996316506E-01
-0.2840677646440E-01  0.2700807132479E+00  0.1135867500002E+00 -0.6246460634559E-02
-0.2679084271550E-01  0.2320080425195E+00  0.9645208366326E-01 -0.2546515338779E-01
-0.2264540798943E-01  0.1941350135707E+00  0.8060011441875E-01 -0.4168587806111E-01
-0.1610100804643E-01  0.1566059678915E+00  0.6603733095969E-01 -0.5441966111520E-01
-0.7315261375220E-02  0.1200961851616E+00  0.5300703404515E-01 -0.6288725780801E-01
 0.3571853186533E-02  0.8588211647024E-01  0.4204336563205E-01 -0.6757363087259E-01
 0.1710179258414E-01  0.5531735139709E-01  0.3403699758485E-01 -0.6969803525990E-01
 0.3588913457073E-01  0.3012720001075E-01  0.3102767717460E-01 -0.6945135627386E-01
 0.3939007505865E+00  0.7721525796753E+00  0.5480450638330E+00  0.5558208266540E-01
 0.1320051746078E+00  0.8066474544770E+00  0.4411667345509E+00  0.1803938919283E+00
 0.6844097727976E-01  0.7838263759289E+00  0.4005656549921E+00  0.2115921933211E+00
 0.6232052828446E-01  0.7524366781168E+00  0.3829358860373E+00  0.2098424400791E+00
 0.6891895487690E-01  0.7098841337423E+00  0.3660374507226E+00  0.1999879794982E+00
 0.6632797193512E-01  0.6461805477555E+00  0.3348790034052E+00  0.1872324641247E+00
 0.5147052304797E-01  0.5728518457038E+00  0.2934315125691E+00  0.1674966410786E+00
 0.2937141477369E-01  0.5036299992319E+00  0.2505106639472E+00  0.1412280400731E+00
 0.1061925742503E-01  0.4461074762360E+00  0.2146615642762E+00  0.1119040711314E+00
-0.1554215168509E-02  0.3984336644961E+00  0.1865333407109E+00  0.8255905462558E-01
-0.9171504205864E-02  0.3557225123754E+00  0.1628789734265E+00  0.5499911742663E-01
-0.1383807883185E-01  0.3147776393823E+00  0.1414415931000E+00  0.2996032564402E-01
-0.1599958572537E-01  0.2742110115414E+00  0.1213593698257E+00  0.7740996003636E-02
-0.1568724294310E-01  0.2336126585332E+00  0.1024249450676E+00 -0.1141495988254E-01
-0.1313950011595E-01  0.1929877414321E+00  0.8452867320418E-01 -0.2720431240409E-01
-0.8615736438655E-02  0.1527309759946E+00  0.6773416241948E-01 -0.3923192950105E-01
-0.2417953770758E-02  0.1137006168486E+00  0.5230285151391E-01 -0.4694117207954E-01
 0.4754841506922E-02  0.7794413508582E-01  0.3886851890000E-01 -0.5089689256522E-01
 0.1405922926631E-01  0.4781475234427E-01  0.2908077128321E-01 -0.5239459208502E-01
 0.2925275331923E-01  0.2503026741489E-01  0.2551301968033E-01 -0.5169752005965E-01
 0.4202453334766E+00  0.8719412538215E+00  0.6073276944897E+00  0.3139029648057E-01
 0.1223694855950E+00  0.8793972974419E+00  0.4708303868331E+00  0.2007127827888E+00
 0.6097808838650E-01  0.8428623467269E+00  0.4248050034258E+00  0.2382985690282E+00
 0.8163846157834E-01  0.8302186995475E+00  0.4285728646421E+00  0.2419381794641E+00
 0.9200614815206E-01  0.7684287100033E+00  0.4044043823073E+00  0.2403838668881E+00
 0.8922556058853E-01  0.6754415966159E+00  0.3593935629745E+00  0.2277776814305E+00
 0.7048014721445E-01  0.5797131873027E+00  0.3055908664480E+00  0.2003743229239E+00
 0.4548553842959E-01  0.5040214849610E+00  0.2582683003385E+00  0.1655380124897E+00
 0.2661169414599E-01  0.4489912799319E+00  0.2235333972496E+00  0.1304402050407E+00
 0.1421125209239E-01  0.4036152545390E+00  0.1963784576187E+00  0.9825076026933E-01
 0.5571866809831E-02  0.3609440271452E+00  0.1722624697220E+00  0.6956816459143E-01
-0.4520143764610E-03  0.3185482097688E+00  0.1495052114552E+00  0.4421646389617E-01
-0.4041668007978E-02  0.2757716644386E+00  0.1277130979985E+00  0.2210774512134E-01
-0.5341018713139E-02  0.2325095287455E+00  0.1067691994444E+00  0.3346940471955E-02
-0.4657249864889E-02  0.1891842561049E+00  0.8672769271283E-01 -0.1179539787402E-01
-0.2474720971198E-02  0.1462512853587E+00  0.6757498509073E-01 -0.2300906284961E-01
 0.8286390609175E-03  0.1046549055236E+00  0.4957726582896E-01 -0.3008925666403E-01
 0.3721123804949E-02  0.6720507379508E-01  0.3333531278746E-01 -0.3369337466153E-01
 0.8711830985203E-02  0.3800064703470E-01  0.2195486461367E-01 -0.3509251815277E-01
 0.2071483939088E-01  0.1867707588316E-01  0.1851420013184E-01 -0.3445781725862E-01
 0.5168923172625E+00  0.1044587017235E+01  0.7338952853524E+00  0.2154666648333E-01
 0.4552092834228E-01  0.8645467795830E+00  0.4277318216400E+00  0.2277567739997E+00
 0.7846004180290E-01  0.9366563434760E+00  0.4771046998710E+00  0.2571379726834E+00
 0.1015270213953E+00  0.9182940133136E+00  0.4793158850975E+00  0.2794371491182E+00
 0.1217608527952E+00  0.8276184632312E+00  0.4462082774007E+00  0.2902096018236E+00
 0.1121929338572E+00  0.6859816039847E+00  0.3751420318342E+00  0.2735305245404E+00
 0.8768787335623E-01  0.5679477064899E+00  0.3081487217461E+00  0.2310239370334E+00
 0.6282465425542E-01  0.4984475832772E+00  0.2637979509712E+00  0.1849733297788E+00
 0.4406123419090E-01  0.4510473842637E+00  0.2327010500835E+00  0.1455455383151E+00
 0.3045585657558E-01  0.4079457408222E+00  0.2060487502543E+00  0.1124285022000E+00
 0.1999540457513E-01  0.3643125058122E+00  0.1806247174239E+00  0.8373591737466E-01
 0.1243030562508E-01  0.3201833247653E+00  0.1563284058870E+00  0.5862006447070E-01
 0.7365032728441E-02  0.2751655090050E+00  0.1327893542779E+00  0.3702233536930E-01
 0.4092350832599E-02  0.2288530752096E+00  0.1094843499621E+00  0.1891543813945E-01
 0.2450325442020E-02  0.1826412938658E+00  0.8699306085404E-01  0.4437116051778E-02
 0.2808902062277E-02  0.1381451153862E+00  0.6624838803276E-01 -0.5861809394924E-02
 0.2568377114902E-02  0.9306458767547E-01  0.4494749333747E-01 -0.1220347687687E-01
 0.3876027931623E-03  0.5264280299126E-01  0.2492429065546E-01 -0.1593230596771E-01
 0.1721251408040E-02  0.2514930486810E-01  0.1262916141775E-01 -0.1804110826533E-01
 0.1154954084043E-01  0.1080430735746E-01  0.1050630862636E-01 -0.1807336925494E-01
 0.4127367057587E+00 -0.2445075593954E+01 -0.9551992750293E+00 -0.2843051117974E+00
 0.4106950715723E+00 -0.2441765433221E+01 -0.9546030675539E+00 -0.2940368632749E+00
 0.4023876219411E+00 -0.2424104942412E+01 -0.9502071382111E+00 -0.3056129598143E+00
 0.3863121042050E+00 -0.2394759381495E+01 -0.9439702179320E+00 -0.3191478574365E+00
 0.3625731214648E+00 -0.2353947132443E+01 -0.9359457827857E+00 -0.3342898217344E+00
 0.3315569651784E+00 -0.2301593349568E+01 -0.9259170983147E+00 -0.3505119326325E+00
 0.2939217805166E+00 -0.2237551449412E+01 -0.9135059420636E+00 -0.3671592763089E+00
 0.2505331150125E+00 -0.2161657148905E+01 -0.8982282936512E+00 -0.3834566066163E+00
 0.2024516539876E+00 -0.2073707384824E+01 -0.8794901912624E+00 -0.3985064770628E+00
 0.1509324160919E+00 -0.1973427374116E+01 -0.8565726280987E+00 -0.4112796671817E+00
 0.9743957580570E-01 -0.1860433687538E+01 -0.8286072304124E+00 -0.4205957300579E+00
 0.4368200388449E-01 -0.1734198462643E+01 -0.7945427336010E+00 -0.4250909347294E+00
-0.8319594065386E-02 -0.1594018958428E+01 -0.7530991177619E+00 -0.4231713099186E+00
-0.5611803125978E-01 -0.1438998886721E+01 -0.7027049496687E+00 -0.4129492038713E+00
-0.9665321811936E-01 -0.1268050792651E+01 -0.6414108834354E+00 -0.3921623129685E+00
-0.1259495549589E+00 -0.1079929604256E+01 -0.5667632033933E+00 -0.3580724324251E+00
-0.1385988225378E+00 -0.8733112214154E+00 -0.4755977194517E+00 -0.3073335783463E+00
-0.1267272828121E+00 -0.6469211601223E+00 -0.3636147672569E+00 -0.2357973564821E+00
-0.7768260578317E-01 -0.3999541489589E+00 -0.2244892741594E+00 -0.1382533603493E+00
 0.3495044665053E-01 -0.1339824389858E+00 -0.4654503627953E-01 -0.9142727672896E-02
 0.4144331981471E+00 -0.2448521116446E+01 -0.9560213191757E+00 -0.2772810195140E+00
 0.4131294278023E+00 -0.2454285952612E+01 -0.9593435642274E+00 -0.2884397712388E+00
 0.4050383575745E+00 -0.2448389126259E+01 -0.9603748588459E+00 -0.3010186032447E+00
 0.3894807933510E+00 -0.2430954838237E+01 -0.9594927986629E+00 -0.3154962651405E+00
 0.3660818126229E+00 -0.2402605115720E+01 -0.9571659500280E+00 -0.3317661513468E+00
 0.3350840958927E+00 -0.2363416610581E+01 -0.9533162794857E+00 -0.3493424050153E+00
 0.2969863401196E+00 -0.2313312858603E+01 -0.9476734612838E+00 -0.3675517314416E+00
 0.2525066859884E+00 -0.2252152070259E+01 -0.9398333282232E+00 -0.3855877265125E+00
 0.2025575302022E+00 -0.2179754967840E+01 -0.9292827933327E+00 -0.4025274487456E+00
 0.1482441335174E+00 -0.2095889151457E+01 -0.9153931561098E+00 -0.4173300803157E+00
 0.9087602227875E-01 -0.2000238020005E+01 -0.8974001366551E+00 -0.4288230596915E+00
 0.3199873848704E-01 -0.1892361468785E+01 -0.8743704810222E+00 -0.4356741693635E+00
-0.2654237417749E-01 -0.1771652947440E+01 -0.8451517990165E+00 -0.4363464121639E+00
-0.8248836788173E-01 -0.1637296668880E+01 -0.8082989652278E+00 -0.4290320072909E+00
-0.1329769941926E+00 -0.1488228938216E+01 -0.7619667862996E+00 -0.4115609407074E+00
-0.1742398869487E+00 -0.1323106846882E+01 -0.7037529631154E+00 -0.3812746866858E+00
-0.2011024664947E+00 -0.1140262051447E+01 -0.6304413218337E+00 -0.3348319760876E+00
-0.2060778195234E+00 -0.9375756339852E+00 -0.5375171217857E+00 -0.2678309474061E+00
-0.1770018339629E+00 -0.7118035800994E+00 -0.4177385435497E+00 -0.1738396184883E+00
-0.8465268979001E-01 -0.4526999358671E+00 -0.2525557334183E+00 -0.4023227042041E-01
 0.4148529033416E+00 -0.2449227000475E+01 -0.9561558232276E+00 -0.2682472579734E+00
 0.4142125372698E+00 -0.2462527965226E+01 -0.9627082486978E+00 -0.2798345474752E+00
 0.4068800777284E+00 -0.2466424159085E+01 -0.9679857157825E+00 -0.2930631810237E+00
 0.3919855490559E+00 -0.2460312124865E+01 -0.9721134881644E+00 -0.3081904847918E+00
 0.3691893147652E+00 -0.2444148127721E+01 -0.9752306396156E+00 -0.3251710584865E+00
 0.3385004473604E+00 -0.2417990633584E+01 -0.9773603850462E+00 -0.3436072766320E+00
 0.3002351072585E+00 -0.2381777587374E+01 -0.9783249631726E+00 -0.3628550032415E+00
 0.2549200669270E+00 -0.2335392145341E+01 -0.9778218743745E+00 -0.3821045193183E+00
 0.2032688819918E+00 -0.2278688106673E+01 -0.9754470331263E+00 -0.4004165115673E+00
 0.1461713504276E+00 -0.2211492951872E+01 -0.9707011502169E+00 -0.4167332792160E+00
 0.8469644509879E-01 -0.2133590069242E+01 -0.9629800009047E+00 -0.4298723526008E+00
 0.2011038671697E-01 -0.2044689184318E+01 -0.9515520324589E+00 -0.4385028815034E+00
-0.4607947455797E-01 -0.1944389509990E+01 -0.9355204203645E+00 -0.4411011976767E+00
-0.1120384652833E+00 -0.1832139560138E+01 -0.9137636696302E+00 -0.4358801080684E+00
-0.1754545465397E+00 -0.1707198659692E+01 -0.8848470046845E+00 -0.4206852889990E+00
-0.2332998724201E+00 -0.1568604860398E+01 -0.8468952222767E+00 -0.3928490465658E+00
-0.2815040153079E+00 -0.1415161177107E+01 -0.7974326384125E+00 -0.3489774867460E+00
-0.3145286867159E+00 -0.1245378551510E+01 -0.7331564001068E+00 -0.2845687485289E+00
-0.3249870353402E+00 -0.1057299975497E+01 -0.6496748934455E+00 -0.1930494598433E+00
-0.3061792821290E+00 -0.8486869646183E+00 -0.5427871345945E+00 -0.6210432514171E-01
 0.4142692267158E+00 -0.2446372689015E+01 -0.9550886248583E+00 -0.2575851527539E+00
 0.4142955589446E+00 -0.2466228718756E+01 -0.9644085826654E+00 -0.2688040201501E+00
 0.4077593787531E+00 -0.2478650503897E+01 -0.9733188263488E+00 -0.2820881948603E+00
 0.3937476312948E+00 -0.2482702128597E+01 -0.9818086112420E+00 -0.2974340230562E+00
 0.3717830542192E+00 -0.2477976187827E+01 -0.9899107702849E+00 -0.3147275485903E+00
 0.3417245641661E+00 -0.2464280790878E+01 -0.9976014240242E+00 -0.3336067760513E+00
 0.3036790572791E+00 -0.2441478067667E+01 -0.1004765532334E+01 -0.3534732910955E+00
 0.2579591020516E+00 -0.2409421835648E+01 -0.1011187482225E+01 -0.3735417406577E+00
 0.2050461215120E+00 -0.2367964549610E+01 -0.1016571658628E+01 -0.3928793093912E+00
 0.1455730008679E+00 -0.2316959591537E+01 -0.1020551695026E+01 -0.4104254726530E+00
 0.8031341953484E-01 -0.2256252987202E+01 -0.1022691594209E+01 -0.4249937796923E+00
 0.1017920178465E-01 -0.2185663219713E+01 -0.1022477485833E+01 -0.4352544995699E+00
-0.6376848895789E-01 -0.2104951914618E+01 -0.1019298587095E+01 -0.4396936110353E+00
-0.1402820247903E+00 -0.2013788482768E+01 -0.1012413135985E+01 -0.4365408959362E+00
-0.2178468185663E+00 -0.1911712978836E+01 -0.1000893102240E+01 -0.4236584498594E+00
-0.2945445545952E+00 -0.1798107578348E+01 -0.9835464999886E+00 -0.3983818475022E+00
-0.3678750343845E+00 -0.1672192933958E+01 -0.9588319426892E+00 -0.3573101423948E+00
-0.4347758837203E+00 -0.1533151208825E+01 -0.9249257311505E+00 -0.2960446932949E+00
-0.4924869289464E+00 -0.1380412743499E+01 -0.8802628438168E+00 -0.2087806126257E+00
-0.5464783045001E+00 -0.1217137511171E+01 -0.8288994312632E+00 -0.8831127091588E-01
 0.4126930061269E+00 -0.2439505383104E+01 -0.9526018147630E+00 -0.2455597466434E+00
 0.4134781098100E+00 -0.2464993144459E+01 -0.9642120638392E+00 -0.2557829223260E+00
 0.4078599142250E+00 -0.2484719546747E+01 -0.9761240248096E+00 -0.2685149739230E+00
 0.3949318764897E+00 -0.2497673148370E+01 -0.9882883952770E+00 -0.2835552465996E+00
 0.3741204620632E+00 -0.2503233107355E+01 -0.1000682940749E+01 -0.3007046887800E+00
 0.3451246074357E+00 -0.2501011925094E+01 -0.1013267036729E+01 -0.3196051180610E+00
 0.3078625405765E+00 -0.2490732866064E+01 -0.1025949050377E+01 -0.3397015202644E+00
 0.2624295769393E+00 -0.2472170751603E+01 -0.1038578349458E+01 -0.3602559366021E+00
 0.2090700313685E+00 -0.2445130929637E+01 -0.1050948619520E+01 -0.3803738252069E+00
 0.1481528800634E+00 -0.2409447000385E+01 -0.1062808233855E+01 -0.3990249770946E+00
 0.8015002787107E-01 -0.2364976393678E+01 -0.1073868389206E+01 -0.4150521571515E+00
 0.5613735181763E-02 -0.2311588454331E+01 -0.1083808115251E+01 -0.4271633368069E+00
-0.7484519700138E-01 -0.2249143473989E+01 -0.1092274672595E+01 -0.4339016091624E+00
-0.1605723097656E+00 -0.2177463473933E+01 -0.1098876815551E+01 -0.4335841726150E+00
-0.2508652441099E+00 -0.2096297054105E+01 -0.1103166277363E+01 -0.4241995877736E+00
-0.3449310667206E+00 -0.2005281928761E+01 -0.1104600105075E+01 -0.4032539695518E+00
-0.4418005762067E+00 -0.1903920950001E+01 -0.1102489114521E+01 -0.3675710036835E+00
-0.5402514181093E+00 -0.1791590260001E+01 -0.1095965585932E+01 -0.3131078120640E+00
-0.6395280606216E+00 -0.1667919590424E+01 -0.1084500393241E+01 -0.2350397824703E+00
-0.7385857824180E+00 -0.1531104221392E+01 -0.1066754299085E+01 -0.1288861178134E+00
 0.4100326633875E+00 -0.2428432911256E+01 -0.9486481140920E+00 -0.2324097823126E+00
 0.4117734944132E+00 -0.2458591592861E+01 -0.9620045038306E+00 -0.2411735382776E+00
 0.4072801692877E+00 -0.2484381950640E+01 -0.9762378347595E+00 -0.2528159405187E+00
 0.3957169538032E+00 -0.2504839384437E+01 -0.9912875398834E+00 -0.2670241295688E+00
 0.3764524346837E+00 -0.2519263386121E+01 -0.1007121144621E+01 -0.2835411230358E+00
 0.3490597166110E+00 -0.2527139244451E+01 -0.1023697375488E+01 -0.3020139711126E+00
 0.3132882216026E+00 -0.2528069629415E+01 -0.1040947259032E+01 -0.3219349438341E+00
 0.2690369164988E+00 -0.2521729305380E+01 -0.1058765420089E+01 -0.3426315118384E+00
 0.2163299730815E+00 -0.2507844992565E+01 -0.1077012056425E+01 -0.3632773793720E+00
 0.1552933472799E+00 -0.2486189238109E+01 -0.1095521065911E+01 -0.3829085623595E+00
 0.8612732585222E-01 -0.2456578898039E+01 -0.1114112236102E+01 -0.4004356187527E+00
 0.9071693331189E-02 -0.2418870473922E+01 -0.1132605424005E+01 -0.4146459527850E+00
-0.7563934442072E-01 -0.2372948862364E+01 -0.1150836454270E+01 -0.4241897734340E+00
-0.1678325279500E+00 -0.2318708027082E+01 -0.1168674057901E+01 -0.4275409016464E+00
-0.2674556063045E+00 -0.2256023057466E+01 -0.1186034968964E+01 -0.4229203864236E+00
-0.3746236074559E+00 -0.2184712483917E+01 -0.1202887959894E+01 -0.4081686898852E+00
-0.4895997291334E+00 -0.2104482139174E+01 -0.1219218475012E+01 -0.3805591752134E+00
-0.6125921323700E+00 -0.2014821957831E+01 -0.1234884619262E+01 -0.3365863962003E+00
-0.7429843390427E+00 -0.1914663367755E+01 -0.1249094419027E+01 -0.2719719873573E+00
-0.8784281539438E+00 -0.1802265633433E+01 -0.1259926076871E+01 -0.1822291538673E+00
 0.4062294907527E+00 -0.2413025837850E+01 -0.9431942807433E+00 -0.2183327835920E+00
 0.4090782425342E+00 -0.2446986557788E+01 -0.9578169057399E+00 -0.2253357738448E+00
 0.4058988277524E+00 -0.2477709787807E+01 -0.9737511487560E+00 -0.2354688593366E+00
 0.3959478353606E+00 -0.2504354706572E+01 -0.9909512269561E+00 -0.2483855764305E+00
 0.3785794462506E+00 -0.2526226998983E+01 -0.1009394347224E+01 -0.2638113296493E+00
 0.3532795040849E+00 -0.2542756876975E+01 -0.1029054362648E+01 -0.2814154445032E+00
 0.3196639838235E+00 -0.2553466168821E+01 -0.1049887024286E+01 -0.3007484139294E+00
 0.2774666003027E+00 -0.2557942804708E+01 -0.1071823813352E+01 -0.3212189647649E+00
 0.2265234114375E+00 -0.2555826683500E+01 -0.1094772535093E+01 -0.3420930593150E+00
 0.1667537319925E+00 -0.2546805314182E+01 -0.1118624240792E+01 -0.3625031902244E+00
 0.9813438339040E-01 -0.2530614123072E+01 -0.1143265474751E+01 -0.3814604554776E+00
 0.2066259418352E-01 -0.2507036786676E+01 -0.1168595867508E+01 -0.3978638962526E+00
-0.6569760784655E-01 -0.2475901875791E+01 -0.1194551754280E+01 -0.4105016111833E+00
-0.1610908669729E+00 -0.2437073523686E+01 -0.1221137260513E+01 -0.4180364039148E+00
-0.2658711698333E+00 -0.2390434590208E+01 -0.1248463704053E+01 -0.4189650722514E+00
-0.3807225015211E+00 -0.2335860707827E+01 -0.1276794105155E+01 -0.4115347035886E+00
-0.5067582214691E+00 -0.2273175738563E+01 -0.1306568957901E+01 -0.3935909687157E+00
-0.6454555653981E+00 -0.2202060842608E+01 -0.1338332708368E+01 -0.3623298875946E+00
-0.7977664541646E+00 -0.2121687037441E+01 -0.1372143137575E+01 -0.3139212937697E+00
-0.9626640913569E+00 -0.2030770328093E+01 -0.1406914173573E+01 -0.2434321833675E+00
 0.4012367589913E+00 -0.2393204353365E+01 -0.9362247669812E+00 -0.2034916987536E+00
 0.4052925376760E+00 -0.2430142338650E+01 -0.9516794040440E+00 -0.2085580334038E+00
 0.4035722923067E+00 -0.2464758172185E+01 -0.9687573610857E+00 -0.2168739535829E+00
 0.3954340902121E+00 -0.2496363091332E+01 -0.9874366280221E+00 -0.2281184677930E+00
 0.3802495329957E+00 -0.2524324893531E+01 -0.1007715416896E+01 -0.2420373949442E+00
 0.3574568386848E+00 -0.2548075994363E+01 -0.1029591000557E+01 -0.2583431944655E+00
 0.3265776154454E+00 -0.2567104661286E+01 -0.1053047708874E+01 -0.2766577173713E+00
 0.2872184589958E+00 -0.2580943889051E+01 -0.1078050949391E+01 -0.2964845563121E+00
 0.2390654003126E+00 -0.2589164216390E+01 -0.1104546440755E+01 -0.3172004396966E+00
 0.1818728343049E+00 -0.2591371378900E+01 -0.1132464313087E+01 -0.3380582406272E+00
 0.1154448884088E+00 -0.2587207271891E+01 -0.1161728317290E+01 -0.3581964713739E+00
 0.3960518754646E-01 -0.2576351574638E+01 -0.1192270798909E+01 -0.3766514325616E+00
-0.4585092223493E-01 -0.2558521491447E+01 -0.1224055031326E+01 -0.3923684610432E+00
-0.1412296452764E+00 -0.2533467522883E+01 -0.1257107665846E+01 -0.4042078050038E+00
-0.2470481144951E+00 -0.2500964216145E+01 -0.1291565792125E+01 -0.4109380311207E+00
-0.3641916867685E+00 -0.2460795908305E+01 -0.1327744166317E+01 -0.4112039415221E+00
-0.4941317116018E+00 -0.2412744571821E+01 -0.1366231849743E+01 -0.4034427612024E+00
-0.6391610372410E+00 -0.2356574809744E+01 -0.1407995844512E+01 -0.3856878076437E+00
-0.8026503287006E+00 -0.2292165237945E+01 -0.1454563312634E+01 -0.3551130411182E+00
-0.9864763670009E+00 -0.2218203799644E+01 -0.1506199674503E+01 -0.3070188199000E+00
 0.3950262733533E+00 -0.2368933852871E+01 -0.9277365600200E+00 -0.1880316661295E+00
 0.4003222101021E+00 -0.2408054374774E+01 -0.9436341150024E+00 -0.1910755364372E+00
 0.4001441965677E+00 -0.2445594527478E+01 -0.9613616530896E+00 -0.1973620517003E+00
 0.3939516135928E+00 -0.2481019565182E+01 -0.9809219347589E+00 -0.2066336828077E+00
 0.3811558656930E+00 -0.2513788003083E+01 -0.1002337102031E+01 -0.2186850422998E+00
 0.3611811617396E+00 -0.2543374779658E+01 -0.1025630997820E+01 -0.2332887309686E+00
 0.3334926967140E+00 -0.2569276099859E+01 -0.1050818196813E+01 -0.2501479379688E+00
 0.2976086397831E+00 -0.2591007933560E+01 -0.1077897665341E+01 -0.2688694136099E+00
 0.2531038452027E+00 -0.2608103904462E+01 -0.1106850025045E+01 -0.2889512608687E+00
 0.1996077831560E+00 -0.2620114575688E+01 -0.1137638189605E+01 -0.3097814081659E+00
 0.1367960045415E+00 -0.2626607905594E+01 -0.1170211590526E+01 -0.3306438201186E+00
 0.6437226651096E-01 -0.2627169519164E+01 -0.1204514705692E+01 -0.3507303400967E+00
-0.1796351916619E-01 -0.2621400929925E+01 -0.1240501287926E+01 -0.3691564981130E+00
-0.1105690222211E+00 -0.2608913878848E+01 -0.1278156960261E+01 -0.3849795730915E+00
-0.2139466618978E+00 -0.2589319370834E+01 -0.1317535032042E+01 -0.3972163410110E+00
-0.3288852571582E+00 -0.2562212655810E+01 -0.1358816015649E+01 -0.4048552912447E+00
-0.4566920134445E+00 -0.2527159073820E+01 -0.1402410007457E+01 -0.4068506207521E+00
-0.5996223162536E+00 -0.2483729616543E+01 -0.1449175404739E+01 -0.4020635102399E+00
-0.7616086743914E+00 -0.2431601432477E+01 -0.1500808746422E+01 -0.3890531039184E+00
-0.9505234553307E+00 -0.2371775119994E+01 -0.1561480326442E+01 -0.3652271587800E+00
 0.3875915734890E+00 -0.2340210075036E+01 -0.9177306933996E+00 -0.1720851870876E+00
 0.3940812270022E+00 -0.2380745046913E+01 -0.9337319929896E+00 -0.1730774775601E+00
 0.3954460311137E+00 -0.2420308205281E+01 -0.9516852194447E+00 -0.1771961744742E+00
 0.3912391000220E+00 -0.2458505602029E+01 -0.9716152534789E+00 -0.1842680619947E+00
 0.3809239525346E+00 -0.2494896074025E+01 -0.9935668945804E+00 -0.1941535999228E+00
 0.3639362661610E+00 -0.2529020348444E+01 -0.1017589516092E+01 -0.2066955346841E+00
 0.3397171730545E+00 -0.2560412635265E+01 -0.1043726864591E+01 -0.2216825707213E+00
 0.3077314997166E+00 -0.2588604834077E+01 -0.1072010464430E+01 -0.2388258071767E+00
 0.2674784022281E+00 -0.2613128065393E+01 -0.1102455338891E+01 -0.2577457601866E+00
 0.2184972797073E+00 -0.2633513609256E+01 -0.1135057672009E+01 -0.2779681787484E+00
 0.1603692955462E+00 -0.2649293536896E+01 -0.1169794390467E+01 -0.2989273844032E+00
 0.9271310641141E-01 -0.2660000170624E+01 -0.1206624917120E+01 -0.3199763738482E+00
 0.1517189242156E-01 -0.2665162762553E+01 -0.1245495705803E+01 -0.3404033949070E+00
-0.7261305529815E-01 -0.2664299218668E+01 -0.1286348765501E+01 -0.3594551820173E+00
-0.1710502874190E+00 -0.2656900413120E+01 -0.1329136825882E+01 -0.3763675791358E+00
-0.2806819649004E+00 -0.2642404076740E+01 -0.1373850436086E+01 -0.3904049448514E+00
-0.4023371023412E+00 -0.2620159368049E+01 -0.1420573337480E+01 -0.4009105610507E+00
-0.5374174821857E+00 -0.2589377912094E+01 -0.1469593831584E+01 -0.4073724849279E+00
-0.6885925969259E+00 -0.2549169240132E+01 -0.1521748059558E+01 -0.4095081085005E+00
-0.8618550629341E+00 -0.2498934896607E+01 -0.1579571276978E+01 -0.4074295984699E+00
 0.3789404282282E+00 -0.2307060711531E+01 -0.9062165308539E+00 -0.1557793050065E+00
 0.3864956668804E+00 -0.2348264055424E+01 -0.9220311402769E+00 -0.1547154481869E+00
 0.3893163544293E+00 -0.2389003897992E+01 -0.9398531430906E+00 -0.1565756376491E+00
 0.3870343273844E+00 -0.2429006505603E+01 -0.9597269213285E+00 -0.1612794932695E+00
 0.3791679769116E+00 -0.2467928984622E+01 -0.9817176711341E+00 -0.1687605280807E+00
 0.3651809967472E+00 -0.2505387427128E+01 -0.1005897019728E+01 -0.1789349025194E+00
 0.3445148416483E+00 -0.2540971436869E+01 -0.1032334597135E+01 -0.1916755644667E+00
 0.3166092989303E+00 -0.2574251265973E+01 -0.1061091721819E+01 -0.2067930739783E+00
 0.2809170801088E+00 -0.2604781829523E+01 -0.1092216429454E+01 -0.2240232595852E+00
 0.2369153619993E+00 -0.2632105523185E+01 -0.1125739372902E+01 -0.2430214891863E+00
 0.1841152857260E+00 -0.2655754408074E+01 -0.1161670384557E+01 -0.2633634451660E+00
 0.1220692402231E+00 -0.2675251338995E+01 -0.1199995583379E+01 -0.2845525732337E+00
 0.5037493483292E-01 -0.2690108844023E+01 -0.1240674934172E+01 -0.3060347739978E+00
-0.3132545763623E-01 -0.2699823872777E+01 -0.1283640182038E+01 -0.3272215146310E+00
-0.1233535879102E+00 -0.2703865580552E+01 -0.1328793005807E+01 -0.3475236026797E+00
-0.2260150705511E+00 -0.2701652233537E+01 -0.1376003629431E+01 -0.3663999135256E+00
-0.3396367073741E+00 -0.2692508460813E+01 -0.1425108225433E+01 -0.3834298520181E+00
-0.4646380089331E+00 -0.2675592862801E+01 -0.1475908505972E+01 -0.3984288913143E+00
-0.6016313646595E+00 -0.2649732781329E+01 -0.1528141144739E+01 -0.4116617338873E+00
-0.7513377250442E+00 -0.2612875598732E+01 -0.1581180258164E+01 -0.4243464012227E+00
 0.3691040645545E+00 -0.2269509899956E+01 -0.8931907403734E+00 -0.1392344282055E+00
 0.3775209880311E+00 -0.2310645969869E+01 -0.9085687391591E+00 -0.1361071182276E+00
 0.3816267470836E+00 -0.2351755401570E+01 -0.9259604652602E+00 -0.1356442562184E+00
 0.3811056836425E+00 -0.2392666241160E+01 -0.9454334596351E+00 -0.1378553200731E+00
 0.3755276540704E+00 -0.2433126202570E+01 -0.9670713153419E+00 -0.1427465805148E+00
 0.3643923089294E+00 -0.2472829353999E+01 -0.9909654086691E+00 -0.1503061840500E+00
 0.3471571107489E+00 -0.2511430214627E+01 -0.1017208356243E+01 -0.1604869557511E+00
 0.3232568473016E+00 -0.2548551788614E+01 -0.1045888619764E+01 -0.1731913357754E+00
 0.2921192888858E+00 -0.2583790750724E+01 -0.1077085584332E+01 -0.1882599704532E+00
 0.2531795173882E+00 -0.2616721621077E+01 -0.1110864785916E+01 -0.2054646685902E+00
 0.2058942954057E+00 -0.2646900703330E+01 -0.1147273008815E+01 -0.2245062731715E+00
 0.1497571037547E+00 -0.2673869819070E+01 -0.1186332973189E+01 -0.2450181011775E+00
 0.8431412824339E-01 -0.2697159270259E+01 -0.1228037213633E+01 -0.2665758409622E+00
 0.9181581000327E-02 -0.2716288874561E+01 -0.1272340424747E+01 -0.2887152009055E+00
-0.7593460259656E-01 -0.2730765263157E+01 -0.1319148933558E+01 -0.3109593517913E+00
-0.1712134646062E+00 -0.2740072157235E+01 -0.1368304238795E+01 -0.3328596839116E+00
-0.2766808047903E+00 -0.2743648398497E+01 -0.1419554721945E+01 -0.3540562497486E+00
-0.3921308705714E+00 -0.2740836440457E+01 -0.1472494632449E+01 -0.3743702348737E+00
-0.5169297578641E+00 -0.2730763320731E+01 -0.1526415743068E+01 -0.3939521873335E+00
-0.6493348744613E+00 -0.2711977968181E+01 -0.1579817032035E+01 -0.4135044046617E+00
 0.3581090420735E+00 -0.2227612201392E+01 -0.8786664826510E+00 -0.1225953137360E+00
 0.3671537666090E+00 -0.2267926962966E+01 -0.8933634000221E+00 -0.1173862200038E+00
 0.3723239056843E+00 -0.2308596932018E+01 -0.9100483200685E+00 -0.1145505926368E+00
 0.3733403031085E+00 -0.2349530829229E+01 -0.9288095449210E+00 -0.1141739401353E+00
 0.3698189530332E+00 -0.2390557999856E+01 -0.9497473495979E+00 -0.1163291593400E+00
 0.3612991635972E+00 -0.2431449297983E+01 -0.9729705606935E+00 -0.1210714466103E+00
 0.3472645351408E+00 -0.2471929036761E+01 -0.9985923132285E+00 -0.1284274504125E+00
 0.3271591777919E+00 -0.2511682187945E+01 -0.1026725812168E+01 -0.1383835331323E+00
 0.3004019318968E+00 -0.2550359406057E+01 -0.1057480010173E+01 -0.1508751747092E+00
 0.2664006833789E+00 -0.2587581445504E+01 -0.1090954955432E+01 -0.1657785859871E+00
 0.2245682153130E+00 -0.2622943886152E+01 -0.1127236562435E+01 -0.1829053272225E+00
 0.1743406124694E+00 -0.2656022572036E+01 -0.1166390518038E+01 -0.2020007074122E+00
 0.1151990752402E+00 -0.2686379760601E+01 -0.1208454919054E+01 -0.2227468041371E+00
 0.4669624793577E-01 -0.2713570632583E+01 -0.1253430957605E+01 -0.2447710273362E+00
-0.3151080959396E-01 -0.2737149421993E+01 -0.1301270305545E+01 -0.2676612662675E+00
-0.1196168212464E+00 -0.2756674189861E+01 -0.1351856771791E+01 -0.2909888546397E+00
-0.2176044322934E+00 -0.2771708238707E+01 -0.1404976951806E+01 -0.3143407884476E+00
-0.3251438725325E+00 -0.2781817491267E+01 -0.1460271837282E+01 -0.3373615566783E+00
-0.4414158573023E+00 -0.2786559800956E+01 -0.1517148555533E+01 -0.3597966590773E+00
-0.5649435560653E+00 -0.2785594619537E+01 -0.1574752938539E+01 -0.3814943322830E+00
 0.3459711632597E+00 -0.2181459975282E+01 -0.8626797394626E+00 -0.1060387259469E+00
 0.3554050844375E+00 -0.2220183124333E+01 -0.8764456765280E+00 -0.9872827732834E-01
 0.3613964691197E+00 -0.2259584001267E+01 -0.8921481378465E+00 -0.9348472584527E-01
 0.3636997312010E+00 -0.2299633881577E+01 -0.9098890483688E+00 -0.9045101495200E-01
 0.3619748789184E+00 -0.2340233468855E+01 -0.9297815349118E+00 -0.8975619337955E-01
 0.3558039921906E+00 -0.2381226359866E+01 -0.9519485103929E+00 -0.9151456162558E-01
 0.3447050263406E+00 -0.2422407644365E+01 -0.9765202279946E+00 -0.9581893232791E-01
 0.3281434121309E+00 -0.2463529226126E+01 -0.1003631330032E+01 -0.1027314698829E+00
 0.3055429778172E+00 -0.2504303580277E+01 -0.1033417480535E+01 -0.1122738605679E+00
 0.2762978061252E+00 -0.2544407250366E+01 -0.1066011436089E+01 -0.1244178183034E+00
 0.2397864105485E+00 -0.2583485022344E+01 -0.1101538344750E+01 -0.1390766698671E+00
 0.1953893589036E+00 -0.2621155424074E+01 -0.1140110047738E+01 -0.1560987060679E+00
 0.1425112854454E+00 -0.2657017967060E+01 -0.1181818137361E+01 -0.1752629655744E+00
 0.8060823429828E-01 -0.2690662354819E+01 -0.1226725433533E+01 -0.1962780099223E+00
 0.9221612328352E-02 -0.2721679792039E+01 -0.1274855341230E+01 -0.2187839332293E+00
-0.7197890311558E-01 -0.2749676492382E+01 -0.1326178032520E+01 -0.2423572067830E+00
-0.1631403631156E+00 -0.2774290667574E+01 -0.1380592580923E+01 -0.2665167922575E+00
-0.2641563957250E+00 -0.2795216425927E+01 -0.1437905222529E+01 -0.2907275992944E+00
-0.3746020220811E+00 -0.2812256241536E+01 -0.1497823380101E+01 -0.3143917121635E+00
-0.4936890176272E+00 -0.2825398216461E+01 -0.1559970996065E+01 -0.3368162903945E+00
 0.3327060570748E+00 -0.2131172246984E+01 -0.8452791071133E+00 -0.8975852848984E-01
 0.3422893249564E+00 -0.2167532916417E+01 -0.8578644858108E+00 -0.8033947446033E-01
 0.3488464614568E+00 -0.2204822091530E+01 -0.8723085439217E+00 -0.7267307821870E-01
 0.3521686201759E+00 -0.2243060739776E+01 -0.8887192939578E+00 -0.6694200540751E-01
 0.3519613477291E+00 -0.2282210457677E+01 -0.9072170793746E+00 -0.6331885336534E-01
 0.3478537138143E+00 -0.2322181275597E+01 -0.9279339516844E+00 -0.6196680556029E-01
 0.3394061759790E+00 -0.2362836792081E+01 -0.9510123871557E+00 -0.6303553694694E-01
 0.3261172239370E+00 -0.2403997148418E+01 -0.9766035620291E+00 -0.6665420359771E-01
 0.3074298437020E+00 -0.2445440841813E+01 -0.1004865166563E+01 -0.7292261678143E-01
 0.2827390832904E+00 -0.2486906380250E+01 -0.1035958626943E+01 -0.8190128411924E-01
 0.2514019942719E+00 -0.2528094651902E+01 -0.1070045546372E+01 -0.9360082607313E-01
 0.2127510856740E+00 -0.2568672761683E+01 -0.1107283184916E+01 -0.1079712475314E+00
 0.1661121871016E+00 -0.2608279992476E+01 -0.1147818865615E+01 -0.1248915570671E+00
 0.1108272643275E+00 -0.2646536480112E+01 -0.1191783328396E+01 -0.1441601551413E+00
 0.4628233495074E-01 -0.2683055118894E+01 -0.1239283205310E+01 -0.1654860935228E+00
-0.2805986700405E-01 -0.2717457313570E+01 -0.1290393071597E+01 -0.1884805569544E+00
-0.1126228317511E+00 -0.2749393055325E+01 -0.1345147463514E+01 -0.2126466536069E+00
-0.2076784519294E+00 -0.2778568328960E+01 -0.1403535983458E+01 -0.2373645120969E+00
-0.3133137678874E+00 -0.2804780129861E+01 -0.1465504128225E+01 -0.2618703939175E+00
-0.4294197990218E+00 -0.2827962624896E+01 -0.1530969735358E+01 -0.2852319983766E+00
 0.3183334431120E+00 -0.2076897156775E+01 -0.8265249433252E+00 -0.7395715043502E-01
 0.3278248315365E+00 -0.2110136904491E+01 -0.8376866721641E+00 -0.6244573591663E-01
 0.3346836840118E+00 -0.2144473289899E+01 -0.8506011126095E+00 -0.5236979490703E-01
 0.3387428743106E+00 -0.2179966575511E+01 -0.8653751373695E+00 -0.4393701907830E-01
 0.3397570202882E+00 -0.2216628886602E+01 -0.8821297749302E+00 -0.3735070835026E-01
 0.3374076095381E+00 -0.2254428577763E+01 -0.9009998527805E+00 -0.3281136875319E-01
 0.3313063926941E+00 -0.2293292684237E+01 -0.9221335546864E+00 -0.3051475859114E-01
 0.3209974380002E+00 -0.2333107666542E+01 -0.9456918050161E+00 -0.3064704384578E-01
 0.3059587162227E+00 -0.2373719081493E+01 -0.9718473692121E+00 -0.3337754194319E-01
 0.2856042911887E+00 -0.2414930905436E+01 -0.1000783506158E+01 -0.3884933594264E-01
 0.2592882706150E+00 -0.2456505238089E+01 -0.1032691972094E+01 -0.4716794031198E-01
 0.2263116592174E+00 -0.2498163107410E+01 -0.1067770177942E+01 -0.5838820925358E-01
 0.1859330811017E+00 -0.2539587111421E+01 -0.1106217391444E+01 -0.7249977734486E-01
 0.1373838860471E+00 -0.2580426655641E+01 -0.1148230098797E+01 -0.8941144969735E-01
 0.7988726946290E-01 -0.2620306557565E+01 -0.1193997062380E+01 -0.1089349880525E+00
 0.1267983047972E-01 -0.2658839597689E+01 -0.1243695087434E+01 -0.1307684677582E+00
-0.6496764154860E-01 -0.2695643436663E+01 -0.1297487203469E+01 -0.1544785999701E+00
-0.1537301222408E+00 -0.2730358521392E+01 -0.1355521659069E+01 -0.1794801586358E+00
-0.2542064684964E+00 -0.2762664586903E+01 -0.1417929392442E+01 -0.2050113941071E+00
-0.3668957352598E+00 -0.2792297425534E+01 -0.1484820781807E+01 -0.2301112756548E+00
 0.3028806147579E+00 -0.2018816500790E+01 -0.8064898643896E+00 -0.5884088342506E-01
 0.3120375278068E+00 -0.2048200675397E+01 -0.8159966772977E+00 -0.4528466281605E-01
 0.3189282733979E+00 -0.2078759696507E+01 -0.8271207667636E+00 -0.3284861151987E-01
 0.3234315474805E+00 -0.2110582947010E+01 -0.8399611556484E+00 -0.2175391566978E-01
 0.3253549942149E+00 -0.2143722095264E+01 -0.8546325353254E+00 -0.1222253652712E-01
 0.3244384296829E+00 -0.2178193958269E+01 -0.8712650962257E+00 -0.4480235812546E-02
 0.3203542082662E+00 -0.2213981305618E+01 -0.8900047334981E+00  0.1243093754420E-02
 0.3127054951328E+00 -0.2251031937644E+01 -0.9110134256696E+00  0.4715730486584E-02
 0.3010232462636E+00 -0.2289256493496E+01 -0.9344696238289E+00  0.5708992769884E-02
 0.2847627640182E+00 -0.2328525488704E+01 -0.9605684781660E+00  0.4004727621520E-02
 0.2633008117079E+00 -0.2368666095610E+01 -0.9895216809242E+00 -0.5944303994745E-03
 0.2359343952735E+00 -0.2409459223784E+01 -0.1021556666809E+01 -0.8251867969478E-02
 0.2018823864914E+00 -0.2450637535765E+01 -0.1056914917478E+01 -0.1908083320894E-01
 0.1602909804422E+00 -0.2491885164986E+01 -0.1095849263956E+01 -0.3312557218927E-01
 0.1102432914333E+00 -0.2532840040009E+01 -0.1138620468943E+01 -0.5034049996868E-01
 0.5077182882913E-01 -0.2573099822184E+01 -0.1185494153870E+01 -0.7056865997432E-01
-0.1912940526571E-01 -0.2612231907177E+01 -0.1236739813711E+01 -0.9352093407501E-01
-0.1005005620087E+00 -0.2649788468656E+01 -0.1292635841134E+01 -0.1187564390024E+00
-0.1944101820953E+00 -0.2685312619189E+01 -0.1353469713171E+01 -0.1456592309884E+00
-0.3019237399639E+00 -0.2718326998261E+01 -0.1419517843365E+01 -0.1734054959801E+00
 0.2863853345116E+00 -0.1957149757869E+01 -0.7852592769863E+00 -0.4461617162410E-01
 0.2949654450769E+00 -0.1981978595519E+01 -0.7928961786966E+00 -0.2909886520756E-01
 0.3016158487218E+00 -0.2007967305257E+01 -0.8019851825373E+00 -0.1439496416560E-01
 0.3062630739418E+00 -0.2035222919614E+01 -0.8126111254050E+00 -0.7303230198207E-03
 0.3087708072002E+00 -0.2063824323282E+01 -0.8248751504661E+00  0.1166518852346E-01
 0.3089425957607E+00 -0.2093824931676E+01 -0.8388946957523E+00  0.2255249656318E-01
 0.3065205290459E+00 -0.2125252840636E+01 -0.8548041842791E+00  0.3168030882076E-01
 0.3011808817435E+00 -0.2158109021180E+01 -0.8727562233215E+00  0.3878436508327E-01
 0.2925273999044E+00 -0.2192363958240E+01 -0.8929231801531E+00  0.4358903695016E-01
 0.2800828420915E+00 -0.2227953001370E+01 -0.9154989725390E+00  0.4581150297026E-01
 0.2632794337145E+00 -0.2264770688190E+01 -0.9407008872175E+00  0.4516889725926E-01
 0.2414491266819E+00 -0.2302664313758E+01 -0.9687711354685E+00  0.4138895011038E-01
 0.2138149205051E+00 -0.2341427093024E+01 -0.9999777185474E+00  0.3422463650512E-01
 0.1794849188300E+00 -0.2380791417356E+01 -0.1034614051683E+01  0.2347310845243E-01
 0.1374509471459E+00 -0.2420423033510E+01 -0.1072996877870E+01  0.8998544281314E-02
 0.8659292242617E-01 -0.2459917438817E+01 -0.1115462519874E+01 -0.9242634526798E-02
 0.2568761901985E-01 -0.2498800537565E+01 -0.1162363068768E+01 -0.3117730679650E-01
-0.4658424850543E-01 -0.2536535696296E+01 -0.1214066370977E+01 -0.5659656072086E-01
-0.1316663302341E+00 -0.2572553077329E+01 -0.1270983118331E+01 -0.8514521031457E-01
-0.2311506680980E+00 -0.2606240480574E+01 -0.1333573836494E+01 -0.1162976836330E+00
 0.2688981529193E+00 -0.1892156921507E+01 -0.7629316193012E+00 -0.3148574116802E-01
 0.2766630805236E+00 -0.1911777503422E+01 -0.7685037768129E+00 -0.1412963762034E-01
 0.2828034872335E+00 -0.1932450298044E+01 -0.7753339991146E+00  0.2702050608833E-02
 0.2872930994730E+00 -0.1954286490544E+01 -0.7834868918163E+00  0.1878533154696E-01
 0.2900527049290E+00 -0.1977378111922E+01 -0.7930429392753E+00  0.3389165407898E-01
 0.2909534432173E+00 -0.2001801134366E+01 -0.8040984128005E+00  0.4777990939233E-01
 0.2898150947930E+00 -0.2027615662264E+01 -0.8167662646398E+00  0.6019041252684E-01
 0.2864004510123E+00 -0.2054864156026E+01 -0.8311779392481E+00  0.7084073998166E-01
 0.2804064390228E+00 -0.2083567853146E+01 -0.8474858624885E+00  0.7942336830790E-01
 0.2714521899518E+00 -0.2113721510054E+01 -0.8658665782521E+00  0.8560530981564E-01
 0.2590642083124E+00 -0.2145286459210E+01 -0.8865244556734E+00  0.8903020656164E-01
 0.2426589746911E+00 -0.2178181915603E+01 -0.9096957799214E+00  0.8932362279886E-01
 0.2215238121836E+00 -0.2212274434308E+01 -0.9356527900254E+00  0.8610253631333E-01
 0.1947977696111E+00 -0.2247365461396E+01 -0.9647068126919E+00  0.7899017389284E-01
 0.1614557181821E+00 -0.2283177090285E+01 -0.9972090423589E+00  0.6763713516771E-01
 0.1203002545064E+00 -0.2319336882110E+01 -0.1033547212352E+01  0.5174873371989E-01
 0.6996622511137E-01 -0.2355364043168E+01 -0.1074136971762E+01  0.3111605703377E-01
 0.8939877287176E-02 -0.2390661201404E+01 -0.1119409019496E+01  0.5644225690888E-02
-0.6441287548203E-01 -0.2424517346275E+01 -0.1169797201259E+01 -0.2463728494729E-01
-0.1520018981298E+00 -0.2456249533322E+01 -0.1225878169673E+01 -0.5960995157654E-01
 0.2504841738829E+00 -0.1824140080581E+01 -0.7396182742723E+00 -0.1964403091282E-01
 0.2572052038385E+00 -0.1837960073956E+01 -0.7429547870707E+00 -0.6103631215207E-03
 0.2625758871935E+00 -0.1852635360137E+01 -0.7473279503878E+00  0.1815802386602E-01
 0.2666131178248E+00 -0.1868266089283E+01 -0.7527768946759E+00  0.3644361061712E-01
 0.2692931261542E+00 -0.1884941980383E+01 -0.7593549595616E+00  0.5402661541127E-01
 0.2705562669108E+00 -0.1902745250797E+01 -0.7671288204807E+00  0.7067383040954E-01
 0.2703056429828E+00 -0.1921751724626E+01 -0.7761796564034E+00  0.8612968304782E-01
 0.2684018671619E+00 -0.1942029826877E+01 -0.7866051390708E+00  0.1001086629829E+00
 0.2646540546952E+00 -0.1963637828684E+01 -0.7985223717493E+00  0.1122887657450E+00
 0.2588068725427E+00 -0.1986619319980E+01 -0.8120718482360E+00  0.1223059038966E+00
 0.2505231686636E+00 -0.2010996736798E+01 -0.8274225749247E+00  0.1297495419564E+00
 0.2393616265897E+00 -0.2036762593548E+01 -0.8447784523278E+00  0.1341601917384E+00
 0.2247490998162E+00 -0.2063867888495E+01 -0.8643858284864E+00  0.1350299172103E+00
 0.2059480949639E+00 -0.2092206916932E+01 -0.8865416440765E+00  0.1318076791698E+00
 0.1820217855830E+00 -0.2121597477147E+01 -0.9116005727229E+00  0.1239121464649E+00
 0.1518029703782E+00 -0.2151755082700E+01 -0.9399774904071E+00  0.1107551683268E+00
 0.1138785382313E+00 -0.2182261089744E+01 -0.9721397967454E+00  0.9177819506394E-01
 0.6660487355438E-01 -0.2212528431509E+01 -0.1008584069680E+01  0.6649966835530E-01
 0.8187674894634E-02 -0.2241760863751E+01 -0.1049779396100E+01  0.3456454390363E-01
-0.6307346850863E-01 -0.2268871318061E+01 -0.1096014046908E+01 -0.4255565783018E-02
 0.2312261370063E+00 -0.1753443119516E+01 -0.7154419799650E+00 -0.9271624079378E-02
 0.2366940697888E+00 -0.1760944798355E+01 -0.7163978406092E+00  0.1124000161042E-01
 0.2410564065879E+00 -0.1769020705280E+01 -0.7181432185639E+00  0.3170091041465E-01
 0.2443647559273E+00 -0.1777746015315E+01 -0.7206891900842E+00  0.5190323318498E-01
 0.2466473194202E+00 -0.1787190972565E+01 -0.7240555151416E+00  0.7164097898988E-01
 0.2479123566810E+00 -0.1797425985613E+01 -0.7282714037507E+00  0.9069653749419E-01
 0.2481486249773E+00 -0.1808523624550E+01 -0.7333762479391E+00  0.1088292913551E+00
 0.2473221363748E+00 -0.1820558972644E+01 -0.7394213111712E+00  0.1257651093747E+00
 0.2453693840223E+00 -0.1833608501158E+01 -0.7464723831602E+00  0.1411860200301E+00
 0.2421865230192E+00 -0.1847747531468E+01 -0.7546136720567E+00  0.1547196043108E+00
 0.2376135416993E+00 -0.1863046089974E+01 -0.7639532957516E+00  0.1659278718002E+00
 0.2314119425115E+00 -0.1879562737183E+01 -0.7746308715308E+00  0.1742956943259E+00
 0.2232339586074E+00 -0.1897335665952E+01 -0.7868278004565E+00  0.1792193914995E+00
 0.2125810399152E+00 -0.1916369942328E+01 -0.8007807821027E+00  0.1799969884274E+00
 0.1987499267028E+00 -0.1936618969251E+01 -0.8167984479260E+00  0.1758233046448E+00
 0.1807674435159E+00 -0.1957956931473E+01 -0.8352790572212E+00  0.1657957649965E+00
 0.1573256950217E+00 -0.1980134966612E+01 -0.8567203554745E+00  0.1489407455791E+00
 0.1267443517933E+00 -0.2002715383333E+01 -0.8817063825871E+00  0.1242720843693E+00
 0.8698319498836E-01 -0.2025000417928E+01 -0.9108680924714E+00  0.9088930019989E-01
 0.3592694545715E-01 -0.2045831518245E+01 -0.9446551468145E+00  0.4815144830188E-01
 0.2112289691063E+00 -0.1680450239128E+01 -0.6905339951585E+00 -0.5328491017334E-03
 0.2152733542849E+00 -0.1681197067830E+01 -0.6889841436185E+00  0.2121610991482E-01
 0.2184231971061E+00 -0.1682166224369E+01 -0.6879592210687E+00  0.4306893231889E-01
 0.2207608596353E+00 -0.1683390364214E+01 -0.6874358654082E+00  0.6482795563421E-01
 0.2223604689212E+00 -0.1684903117628E+01 -0.6873950431487E+00  0.8630297147614E-01
 0.2232940057293E+00 -0.1686744120365E+01 -0.6878215521340E+00  0.1072964862379E+00
 0.2236342779123E+00 -0.1688962130345E+01 -0.6887040888967E+00  0.1275906016695E+00
 0.2234552815620E+00 -0.1691616714465E+01 -0.6900358717142E+00  0.1469344808896E+00
 0.2228299114548E+00 -0.1694779082487E+01 -0.6918161086306E+00  0.1650313884242E+00
 0.2218246457403E+00 -0.1698532274375E+01 -0.6940525836978E+00  0.1815243668635E+00
 0.2204901794370E+00 -0.1702970713663E+01 -0.6967658493190E+00  0.1959796383365E+00
 0.2188461375743E+00 -0.1708198935499E+01 -0.6999958132493E+00  0.2078668535893E+00
 0.2168567528307E+00 -0.1714329080254E+01 -0.7038119921037E+00  0.2165354462158E+00
 0.2143925271463E+00 -0.1721476430009E+01 -0.7083294325490E+00  0.2211867910250E+00
 0.2111702105030E+00 -0.1729751682304E+01 -0.7137332899364E+00  0.2208430932868E+00
 0.2066606332641E+00 -0.1739246987032E+01 -0.7203155844440E+00  0.2143170140650E+00
 0.1999524979312E+00 -0.1750009529565E+01 -0.7285268030202E+00  0.2001932822511E+00
 0.1895891992311E+00 -0.1761972989171E+01 -0.7390203793972E+00  0.1768494019512E+00
 0.1734338613769E+00 -0.1774818650981E+01 -0.7526508492047E+00  0.1425535052492E+00
 0.1483025708657E+00 -0.1788014773070E+01 -0.7706647330811E+00  0.9566877892767E-01
 0.1906129894604E+00 -0.1605580230292E+01 -0.6650346015042E+00  0.6426660028819E-02
 0.1931037785593E+00 -0.1599235295569E+01 -0.6608818113182E+00  0.2912796964995E-01
 0.1948823420139E+00 -0.1592701920444E+01 -0.6569752001957E+00  0.5201264574112E-01
 0.1960549272335E+00 -0.1585955720619E+01 -0.6532533712345E+00  0.7488951115239E-01
 0.1967342531230E+00 -0.1578977369530E+01 -0.6496542630633E+00  0.9758242947332E-01
 0.1970490950820E+00 -0.1571757964963E+01 -0.6461131672054E+00  0.1199143301910E+00
 0.1971509323429E+00 -0.1564302470750E+01 -0.6425612214218E+00  0.1416930219185E+00
 0.1972188664327E+00 -0.1556632244453E+01 -0.6389242860491E+00  0.1626977581936E+00
 0.1974634920916E+00 -0.1548787418542E+01 -0.6351222438208E+00  0.1826653328549E+00
 0.1981299000854E+00 -0.1540829683133E+01 -0.6310688964318E+00  0.2012743491361E+00
 0.1994994557379E+00 -0.1532845826847E+01 -0.6266727928319E+00  0.2181261161842E+00
 0.2018891918715E+00 -0.1524952317509E+01 -0.6218396674726E+00  0.2327202968418E+00
 0.2056462852656E+00 -0.1517301228076E+01 -0.6164778215572E+00  0.2444229106794E+00
 0.2111325298452E+00 -0.1510087958638E+01 -0.6105090499841E+00  0.2524235632363E+00
 0.2186886653345E+00 -0.1503561609993E+01 -0.6038902824577E+00  0.2556779078278E+00
 0.2285582772982E+00 -0.1498039690236E+01 -0.5966562625676E+00  0.2528309355272E+00
 0.2407324916006E+00 -0.1493928987968E+01 -0.5890023517987E+00  0.2421187981898E+00
 0.2546329514948E+00 -0.1491760358386E+01 -0.5814498797643E+00  0.2212602036786E+00
 0.2686685618634E+00 -0.1492103573329E+01 -0.5750144539305E+00  0.1874073046375E+00
 0.2799494637608E+00 -0.1495149957206E+01 -0.5711442304705E+00  0.1372270503403E+00
 0.1695193137631E+00 -0.1529283927544E+01 -0.6390893668562E+00  0.1149113099989E-01
 0.1703751747475E+00 -0.1515623525779E+01 -0.6322667233810E+00  0.3481891031363E-01
 0.1706807663594E+00 -0.1501322351610E+01 -0.6254015434813E+00  0.5831830253744E-01
 0.1705570833598E+00 -0.1486287071602E+01 -0.6183930929053E+00  0.8179694074290E-01
 0.1701465205203E+00 -0.1470432844972E+01 -0.6111345709420E+00  0.1050866643541E+00
 0.1696261829551E+00 -0.1453688592008E+01 -0.6035093307241E+00  0.1280256540346E+00
 0.1692182251003E+00 -0.1435999829321E+01 -0.5953873524735E+00  0.1504433861395E+00
 0.1691994573114E+00 -0.1417330879504E+01 -0.5866217669427E+00  0.1721473222836E+00
 0.1699118709419E+00 -0.1397667697221E+01 -0.5770452368875E+00  0.1929099141056E+00
 0.1717753254803E+00 -0.1377022168488E+01 -0.5664660147770E+00  0.2124543220840E+00
 0.1753033855781E+00 -0.1355438588984E+01 -0.5546635441942E+00  0.2304369871567E+00
 0.1811230907500E+00 -0.1333003083862E+01 -0.5413835953897E+00  0.2464246737899E+00
 0.1899990693622E+00 -0.1309857018963E+01 -0.5263332349773E+00  0.2598626080428E+00
 0.2028613472492E+00 -0.1286216131856E+01 -0.5091767474736E+00  0.2700285086663E+00
 0.2208333422470E+00 -0.1262398448097E+01 -0.4895355985079E+00  0.2759640094911E+00
 0.2452479121656E+00 -0.1238867683723E+01 -0.4670012914477E+00  0.2763688852406E+00
 0.2776153260056E+00 -0.1216307410298E+01 -0.4411852784982E+00  0.2694327815015E+00
 0.3194383307677E+00 -0.1195764688478E+01 -0.4118733870793E+00  0.2525596972844E+00
 0.3714158993688E+00 -0.1179071691454E+01 -0.3795982213172E+00  0.2219342715952E+00
 0.4323786975499E+00 -0.1168751472122E+01 -0.3460952031710E+00  0.1721687167776E+00
 0.1481108775036E+00 -0.1452038829599E+01 -0.6128461359302E+00  0.1458095721469E-01
 0.1473109574453E+00 -0.1430964435164E+01 -0.6033171329977E+00  0.3817553388762E-01
 0.1461133952406E+00 -0.1408777393866E+01 -0.5934520778487E+00  0.6182197378194E-01
 0.1446439052231E+00 -0.1385307612885E+01 -0.5831119411222E+00  0.8531593499626E-01
 0.1430657719807E+00 -0.1360398901719E+01 -0.5721465695257E+00  0.1084868531425E+00
 0.1415967145982E+00 -0.1333912895222E+01 -0.5603886034718E+00  0.1311765949744E+00
 0.1405219847736E+00 -0.1305729784303E+01 -0.5476476643897E+00  0.1532231396366E+00
 0.1402075556822E+00 -0.1275748742525E+01 -0.5337043564624E+00  0.1744479518206E+00
 0.1411162863130E+00 -0.1243889718766E+01 -0.5183035119382E+00  0.1946453659602E+00
 0.1438295045526E+00 -0.1210097622770E+01 -0.5011460142909E+00  0.2135723283696E+00
 0.1490765911633E+00 -0.1174349715505E+01 -0.4818783672185E+00  0.2309368407356E+00
 0.1577758788453E+00 -0.1136667116427E+01 -0.4600788804963E+00  0.2463831911049E+00
 0.1710916276252E+00 -0.1097131722491E+01 -0.4352388434830E+00  0.2594713143591E+00
 0.1905143998789E+00 -0.1055910497761E+01 -0.4067361649731E+00  0.2696459724945E+00
 0.2179761437457E+00 -0.1013290552299E+01 -0.3737977710719E+00  0.2761879300806E+00
 0.2560187817656E+00 -0.9697303306251E+00 -0.3354444271132E+00  0.2781317357801E+00
 0.3080408076901E+00 -0.9259420042679E+00 -0.2904135616550E+00  0.2741166228397E+00
 0.3786547622882E+00 -0.8830345716883E+00 -0.2370585098168E+00  0.2620941107425E+00
 0.4740739393039E+00 -0.8428764944835E+00 -0.1733372004948E+00  0.2386647795556E+00
 0.5994919773229E+00 -0.8108965053909E+00 -0.9936012793996E-01  0.1975048977942E+00
 0.1265699714769E+00 -0.1374341644290E+01 -0.5864526847348E+00  0.1565830045603E-01
 0.1241657962440E+00 -0.1345890989404E+01 -0.5742108393288E+00  0.3913557511532E-01
 0.1215215561194E+00 -0.1315861454603E+01 -0.5613397508636E+00  0.6242072393300E-01
 0.1187579707854E+00 -0.1284005368408E+01 -0.5476662754934E+00  0.8528510332607E-01
 0.1160534772301E+00 -0.1250100370123E+01 -0.5330020383077E+00  0.1075418488560E+00
 0.1136636262790E+00 -0.1213949799094E+01 -0.5171344999112E+00  0.1290181713141E+00
 0.1119349016427E+00 -0.1175379586087E+01 -0.4998190004211E+00  0.1495366179005E+00
 0.1113192636948E+00 -0.1134235638802E+01 -0.4807706950808E+00  0.1689029381157E+00
 0.1123935298869E+00 -0.1090383560153E+01 -0.4596553130592E+00  0.1868982953179E+00
 0.1158868981908E+00 -0.1043711518110E+01 -0.4360775702559E+00  0.2032741982909E+00
 0.1227202244855E+00 -0.9941367401276E+00 -0.4095657613130E+00  0.2177491827774E+00
 0.1340620863571E+00 -0.9416161006145E+00 -0.3795503857383E+00  0.2300068267567E+00
 0.1514096399615E+00 -0.8861613826253E+00 -0.3453333181761E+00  0.2396951370464E+00
 0.1767078496482E+00 -0.8278599260727E+00 -0.3060414751433E+00  0.2464277076415E+00
 0.2125320921630E+00 -0.7669006901639E+00 -0.2605532403996E+00  0.2497872649839E+00
 0.2623809820729E+00 -0.7036050048071E+00 -0.2073752901591E+00  0.2493318193903E+00
 0.3311875958390E+00 -0.6384468879995E+00 -0.1444118669491E+00  0.2446015534513E+00
 0.4262650626661E+00 -0.5720486156236E+00 -0.6851826971626E-01  0.2351097900633E+00
 0.5595311830276E+00 -0.5048487486069E+00  0.2570074411255E-01  0.2202642897900E+00
 0.7533843094796E+00 -0.4359946909296E+00  0.1491731203401E+00  0.1983621576720E+00
 0.1050941003171E+00 -0.1296700305650E+01 -0.5600549150859E+00  0.1473372626155E-01
 0.1012208420481E+00 -0.1261056965756E+01 -0.5451229767601E+00  0.3769769776451E-01
 0.9728687145993E-01 -0.1223401093687E+01 -0.5292736831043E+00  0.6008825500112E-01
 0.9339993941729E-01 -0.1183418247768E+01 -0.5123086036252E+00  0.8164284970231E-01
 0.8975493297596E-01 -0.1140842114242E+01 -0.4940109739420E+00  0.1021446490178E+00
 0.8665271978735E-01 -0.1095448437147E+01 -0.4741339859562E+00  0.1213851942382E+00
 0.8451139703341E-01 -0.1047046956069E+01 -0.4523917115993E+00  0.1391424186769E+00
 0.8387911333215E-01 -0.9954760353602E+00 -0.4284505522665E+00  0.1551691711636E+00
 0.8545335418790E-01 -0.9406014020122E+00 -0.4019195814580E+00  0.1691888685219E+00
 0.9010988550892E-01 -0.8823191357301E+00 -0.3723383466595E+00  0.1808966706837E+00
 0.9894451044054E-01 -0.8205625998750E+00 -0.3391605011740E+00  0.1899662363235E+00
 0.1133320195272E+00 -0.7553127776408E+00 -0.3017309555481E+00  0.1960638369263E+00
 0.1350093320780E+00 -0.6866111614486E+00 -0.2592528591466E+00  0.1988737988203E+00
 0.1661949081687E+00 -0.6145733487699E+00 -0.2107378665480E+00  0.1981426494101E+00
 0.2097657084578E+00 -0.5393994709500E+00 -0.1549278679784E+00  0.1937554467218E+00
 0.2695353921234E+00 -0.4613691615106E+00 -0.9016187138329E-01  0.1858699905301E+00
 0.3507126082086E+00 -0.3808004840157E+00 -0.1414130159345E-01  0.1751612952983E+00
 0.4608096287175E+00 -0.2978371359159E+00  0.7659707142247E-01  0.1632982189464E+00
 0.6113231128001E+00 -0.2120176891493E+00  0.1876735486399E+00  0.1539594477396E+00
 0.8265069371278E+00 -0.1170445263560E+00  0.3334473322170E+00  0.1558709048520E+00
 0.8388869104168E-01 -0.1219626569541E+01 -0.5337968015407E+00  0.1187459048358E-01
 0.7877424381154E-01 -0.1177126645679E+01 -0.5162256275682E+00  0.3393446854695E-01
 0.7381513534344E-01 -0.1132240503499E+01 -0.4974599217714E+00  0.5489918932807E-01
 0.6910171108773E-01 -0.1084616008607E+01 -0.4772917186236E+00  0.7447490513294E-01
 0.6485658761204E-01 -0.1033989614543E+01 -0.4554925215022E+00  0.9241236156095E-01
 0.6144621706643E-01 -0.9801708863091E+00 -0.4318005934489E+00  0.1084596743580E+00
 0.5938424903560E-01 -0.9230306469184E+00 -0.4059138059754E+00  0.1223402998430E+00
 0.5933830809911E-01 -0.8624964953971E+00 -0.3774843470726E+00  0.1337471758758E+00
 0.6214449281846E-01 -0.7985560083353E+00 -0.3461134114151E+00  0.1423482864285E+00
 0.6883096583307E-01 -0.7312667931983E+00 -0.3113448380720E+00  0.1478023821787E+00
 0.8065110645785E-01 -0.6607720869129E+00 -0.2726568601223E+00  0.1497864689055E+00
 0.9912647218396E-01 -0.5873202861741E+00 -0.2294510919934E+00  0.1480395304906E+00
 0.1260996577917E+00 -0.5112861247221E+00 -0.1810376389981E+00  0.1424305174363E+00
 0.1637961180064E+00 -0.4331898769669E+00 -0.1266150663903E+00  0.1330640448499E+00
 0.2148912806478E+00 -0.3537076545016E+00 -0.6524369554582E-01  0.1204466091210E+00
 0.2825657310746E+00 -0.2736633518536E+00  0.4184118223296E-02  0.1057539862488E+00
 0.3705114573216E+00 -0.1939730803623E+00  0.8297303696046E-01  0.9127755907569E-01
 0.4826402152613E+00 -0.1155884806430E+00  0.1725143148330E+00  0.8121388300059E-01
 0.6222530057288E+00 -0.3913930668377E-01  0.2740634378560E+00  0.8319424764426E-01
 0.7813628202213E+00  0.3027334292412E-01  0.3814689957108E+00  0.1118555783667E+00
 0.6315766327663E-01 -0.1143625458106E+01 -0.5078198622818E+00  0.7209526027842E-02
 0.5712604913752E-01 -0.1094753467563E+01 -0.4876848854229E+00  0.2799553387345E-01
 0.5150688696114E-01 -0.1043203623968E+01 -0.4660974652113E+00  0.4703611170557E-01
 0.4637352641263E-01 -0.9886375532127E+00 -0.4428640914728E+00  0.6403032142577E-01
 0.4199661711774E-01 -0.9308644638053E+00 -0.4177678868835E+00  0.7871531772926E-01
 0.3883561904318E-01 -0.8698140697100E+00 -0.3905598708228E+00  0.9081483681043E-01
 0.3752578168754E-01 -0.8055221478583E+00 -0.3609582911848E+00  0.1000256255804E+00
 0.3887183947528E-01 -0.7381295022920E+00 -0.3286511006903E+00  0.1060272694589E+00
 0.4384957229647E-01 -0.6678926049547E+00 -0.2933002246054E+00  0.1085088889962E+00
 0.5361269374630E-01 -0.5952026982857E+00 -0.2545473014879E+00  0.1072115163038E+00
 0.6950037803886E-01 -0.5206097604069E+00 -0.2120214091752E+00  0.1019886994990E+00
 0.9303837250313E-01 -0.4448472785092E+00 -0.1653501854035E+00  0.9289084971313E-01
 0.1259222193736E+00 -0.3688528458739E+00 -0.1141773941656E+00  0.8028178221190E-01
 0.1699619741051E+00 -0.2937780412070E+00 -0.5819355139028E-01  0.6499942890140E-01
 0.2269469924802E+00 -0.2209802476847E+00  0.2804370046805E-02  0.4857732374841E-01
 0.2983461519456E+00 -0.1519882565838E+00  0.6878821064561E-01  0.3354894524744E-01
 0.3846285997380E+00 -0.8846450554846E-01  0.1391971239160E+00  0.2386059946526E-01
 0.4837686080164E+00 -0.3219726501511E-01  0.2122385306723E+00  0.2539555464113E-01
 0.5869685467638E+00  0.1399358286004E-01  0.2824522002068E+00  0.4648373105616E-01
 0.6699988579315E+00  0.4441194422601E-01  0.3357730761624E+00  0.9655535727746E-01
 0.4309797861889E-01 -0.1069177135643E+01 -0.4822572025781E+00  0.9211568249550E-03
 0.3656626959745E-01 -0.1014538545246E+01 -0.4596469683889E+00  0.2008940226269E-01
 0.3072861607920E-01 -0.9570278750489E+00 -0.4353606506115E+00  0.3676329839174E-01
 0.2565168637219E-01 -0.8963900027727E+00 -0.4092470076703E+00  0.5068365069728E-01
 0.2167968439094E-01 -0.8325895746873E+00 -0.3811276474726E+00  0.6161694510890E-01
 0.1938936132554E-01 -0.7657694424321E+00 -0.3507986372303E+00  0.6930953015402E-01
 0.1954991561177E-01 -0.6962293092367E+00 -0.3180393141970E+00  0.7349375700399E-01
 0.2309373579246E-01 -0.6244242795708E+00 -0.2826253548590E+00  0.7392395205040E-01
 0.3109441908835E-01 -0.5509761665284E+00 -0.2443444206771E+00  0.7043211002290E-01
 0.4474355899766E-01 -0.4766895756631E+00 -0.2030146273178E+00  0.6300052645407E-01
 0.6531511245560E-01 -0.4025648484302E+00 -0.1585073755060E+00  0.5185216902809E-01
 0.9410254840976E-01 -0.3297995488202E+00 -0.1107775899119E+00  0.3756084385690E-01
 0.1323068228835E+00 -0.2597695634259E+00 -0.5990748790298E-01  0.2118268204665E-01
 0.1808393857138E+00 -0.1939806432572E+00 -0.6176391029728E-02  0.4407570512795E-02
 0.2399790617230E+00 -0.1339826465207E+00  0.4981831501873E-01 -0.1027866379125E-01
 0.3087707650460E+00 -0.8125015876490E-01  0.1069346846809E+00 -0.1945019463469E-01
 0.3839839341794E+00 -0.3704936213050E-01  0.1630592484494E+00 -0.1869699057724E-01
 0.4582809702685E+00 -0.2427403546579E-02  0.2142511758159E+00 -0.2900073620658E-02
 0.5178118654642E+00  0.2178344045865E-01  0.2536097931405E+00  0.3247870756686E-01
 0.5452567270476E+00  0.3796992580453E-01  0.2741165261452E+00  0.8782477432896E-01
 0.2391135492581E-01 -0.9966945369271E+00 -0.4572080943810E+00 -0.6782060993370E-02
 0.1736960990595E-01 -0.9369604652436E+00 -0.4322077009125E+00  0.1043718809614E-01
 0.1179053860334E-01 -0.8742719767409E+00 -0.4053662748965E+00  0.2436252434341E-01
 0.7258560366280E-02 -0.8085332825198E+00 -0.3765991184570E+00  0.3484786324350E-01
 0.4214531115788E-02 -0.7399536839084E+00 -0.3457974009355E+00  0.4175286105653E-01
 0.3364394423898E-02 -0.6689733566490E+00 -0.3128362114523E+00  0.4491245069323E-01
 0.5598580897044E-02 -0.5962261283755E+00 -0.2775949466108E+00  0.4417457756586E-01
 0.1193081098603E-01 -0.5225283055921E+00 -0.2399808218562E+00  0.3946879459572E-01
 0.2344484839605E-01 -0.4488775875851E+00 -0.1999533869117E+00  0.3088976806339E-01
 0.4123319876224E-01 -0.3764484261468E+00 -0.1575511564711E+00  0.1878964004031E-01
 0.6631126414866E-01 -0.3065717430144E+00 -0.1129224247805E+00  0.3875845285263E-02
 0.9948781143192E-01 -0.2406889202827E+00 -0.6636452099155E-01 -0.1269046347106E-01
 0.1411672810349E+00 -0.1802718789429E+00 -0.1837916097014E-01 -0.2920512276626E-01
 0.1910504702005E+00 -0.1267047847624E+00  0.3024247207922E-01 -0.4336024685251E-01
 0.2476890651808E+00 -0.8113049264179E-01  0.7828252889480E-01 -0.5224997160091E-01
 0.3078502747605E+00 -0.4427611828067E-01  0.1238798532313E+00 -0.5251628881396E-01
 0.3656982808103E+00 -0.1629143944438E-01  0.1642212150255E+00 -0.4077568983570E-01
 0.4121320021885E+00  0.3425183914334E-02  0.1953118769729E+00 -0.1459029838759E-01
 0.4360907421448E+00  0.1698228577388E-01  0.2129443225817E+00  0.2572430462517E-01
 0.4286320913987E+00  0.2836559750987E-01  0.2147889132422E+00  0.7518829946457E-01
 0.5794657671846E-02 -0.9264999581616E+00 -0.4327314901326E+00 -0.1567991162683E-01
-0.2636775914007E-03 -0.8623770403705E+00 -0.4054411364137E+00 -0.7382856607366E-03
-0.5131860082933E-02 -0.7953307825514E+00 -0.3762174410839E+00  0.1012090211319E-01
-0.8694546312805E-02 -0.7255192385283E+00 -0.3450804780001E+00  0.1695951210669E-01
-0.1039586653922E-01 -0.6534859337109E+00 -0.3120244453261E+00  0.1980462575164E-01
-0.9405140515249E-02 -0.5800294827131E+00 -0.2770342722146E+00  0.1864734349468E-01
-0.4750119195513E-02 -0.5061407420690E+00 -0.2401187041853E+00  0.1352426702709E-01
 0.4587592796606E-02 -0.4329721216024E+00 -0.2013407280280E+00  0.4619143211277E-02
 0.1958828789802E-01 -0.3618137236291E+00 -0.1608459543856E+00 -0.7637010428703E-02
 0.4109830494350E-01 -0.2940565248557E+00 -0.1188903630572E+00 -0.2247579093157E-01
 0.6970299217744E-01 -0.2311306803812E+00 -0.7587101326332E-01 -0.3871826312316E-01
 0.1055520585661E+00 -0.1744117578925E+00 -0.3236405860130E-01 -0.5472940345287E-01
 0.1481214716365E+00 -0.1250947978541E+00  0.1082253665027E-01 -0.6841825066071E-01
 0.1959010801979E+00 -0.8404334610269E-01  0.5257313489142E-01 -0.7731399395102E-01
 0.2460164487423E+00 -0.5162979209851E-01  0.9136172839085E-01 -0.7876673090590E-01
 0.2938550347643E+00 -0.2759109968496E-01  0.1251440491699E+00 -0.7034674473647E-01
 0.3329385763310E+00 -0.1091275237389E-01  0.1513521368759E+00 -0.5053755527853E-01
 0.3557179950652E+00  0.3487751123528E-03  0.1673513815590E+00 -0.1976366240984E-01
 0.3558682196318E+00  0.9122131742670E-02  0.1715454647109E+00  0.1859885633245E-01
 0.3315855855000E+00  0.1895414785143E-01  0.1647536742573E+00  0.5818492905410E-01
-0.1111265417039E-01 -0.8588857868933E+00 -0.4088992662628E+00 -0.2551708605926E-01
-0.1625308539570E-01 -0.7911153335606E+00 -0.3794631559470E+00 -0.1315912311830E-01
-0.2004417025973E-01 -0.7205528069651E+00 -0.3480805784128E+00 -0.5590785022843E-02
-0.2233983745501E-01 -0.6477289719694E+00 -0.3149323396307E+00 -0.2425601503840E-02
-0.2244935194933E-01 -0.5735965464877E+00 -0.2801415715549E+00 -0.3405320186773E-02
-0.1943416507164E-01 -0.4993310792339E+00 -0.2438196642052E+00 -0.8338370364910E-02
-0.1229577957231E-01 -0.4262365530674E+00 -0.2061101958179E+00 -0.1696062471780E-01
-0.9909531708985E-04 -0.3556970706128E+00 -0.1672241975629E+00 -0.2880541182511E-01
 0.1792424143388E-01 -0.2891311344606E+00 -0.1274672393992E+00 -0.4310408421177E-01
 0.4225888775148E-01 -0.2279298221408E+00 -0.8726533894164E-01 -0.5872284331670E-01
 0.7296062371395E-01 -0.1733667229995E+00 -0.4719086654450E-01 -0.7414145714151E-01
 0.1094738319951E+00 -0.1264824313955E+00 -0.7994041697938E-02 -0.8748454560733E-01
 0.1504151861998E+00 -0.8795278382802E-01  0.2935732904030E-01 -0.9662377618837E-01
 0.1933462254679E+00 -0.5795851173915E-01  0.6363222529112E-01 -0.9937822141251E-01
 0.2346015964733E+00 -0.3607799658742E-01  0.9330609170970E-01 -0.9384746081655E-01
 0.2693262903061E+00 -0.2122333419263E-01  0.1166083890776E+00 -0.7890705597773E-01
 0.2920222218365E+00 -0.1162048729868E-01  0.1317888148985E+00 -0.5484583925048E-01
 0.2978998137871E+00 -0.4886996705941E-02  0.1377160236789E+00 -0.2394913128835E-01
 0.2848579377230E+00  0.1659532683137E-02  0.1346632107493E+00  0.9449309879477E-02
 0.2550403749015E+00  0.1033767631707E-01  0.1247276837564E+00  0.3996193279557E-01
-0.2671439383666E-01 -0.7941076464619E+00 -0.3857863579619E+00 -0.3601898912969E-01
-0.3056387947370E-01 -0.7234173811785E+00 -0.3543711916077E+00 -0.2650882571243E-01
-0.3302878781615E-01 -0.6501494197200E+00 -0.3210937567276E+00 -0.2233259936787E-01
-0.3390823693079E-01 -0.5753428857433E+00 -0.2863480269305E+00 -0.2265644830706E-01
-0.3235244263911E-01 -0.5004139905136E+00 -0.2504002229467E+00 -0.2696535951794E-01
-0.2733798422477E-01 -0.4268759637342E+00 -0.2134805549993E+00 -0.3486984811038E-01
-0.1790507026296E-01 -0.3562363087875E+00 -0.1758464477077E+00 -0.4589080735460E-01
-0.3282400066275E-02 -0.2899439611930E+00 -0.1378163894423E+00 -0.5930860782833E-01
 0.1700474277839E-01 -0.2293486252098E+00 -0.9980162448964E-01 -0.7408309465606E-01
 0.4302071750688E-01 -0.1756326319211E+00 -0.6232759961658E-01 -0.8883682720531E-01
 0.7428294428704E-01 -0.1297205752087E+00 -0.2605568646708E-01 -0.1018981264987E+00
 0.1096131677131E+00 -0.9217208639508E-01  0.8197308198667E-02 -0.1114079560273E+00
 0.1469977955508E+00 -0.6307879996673E-01  0.3944192782449E-01 -0.1155012799637E+00
 0.1835096447225E+00 -0.4198495888668E-01  0.6651660217411E-01 -0.1125763662154E+00
 0.2153864775132E+00 -0.2785084445135E-01  0.8814174731550E-01 -0.1016569489371E+00
 0.2384167731993E+00 -0.1907446904922E-01  0.1030908826891E+00 -0.8281791471408E-01
 0.2487776759805E+00 -0.1360027158463E-01  0.1105333797857E+00 -0.5755847913828E-01
 0.2442622616279E+00 -0.9174618596744E-02  0.1104911919444E+00 -0.2887143602678E-01
 0.2253871407552E+00 -0.3805342840980E-02  0.1041434447555E+00 -0.7063685018049E-03
 0.1954595402775E+00  0.3586792907890E-02  0.9355177635985E-01  0.2321692708865E-01
-0.4096926905162E-01 -0.7323890839487E+00 -0.3634784249882E+00 -0.4690098343200E-01
-0.4323005257594E-01 -0.6594441084951E+00 -0.3302568548657E+00 -0.4045394693253E-01
-0.4424928460810E-01 -0.5841833654916E+00 -0.2953633447977E+00 -0.3962184623424E-01
-0.4371196574785E-01 -0.5083366612937E+00 -0.2594628540514E+00 -0.4302800933152E-01
-0.4056426974775E-01 -0.4337928341291E+00 -0.2229478382567E+00 -0.4994560871593E-01
-0.3374015063194E-01 -0.3623097636849E+00 -0.1861434592568E+00 -0.5985246605418E-01
-0.2237668329134E-01 -0.2954179980233E+00 -0.1493634998391E+00 -0.7211726516108E-01
-0.5934093194391E-02 -0.2344410978443E+00 -0.1129763395016E+00 -0.8584061109472E-01
 0.1573060870519E-01 -0.1804758808648E+00 -0.7743027771860E-01 -0.9981403370775E-01
 0.4226320174627E-01 -0.1343552210855E+00 -0.4328324897966E-01 -0.1125616924529E+00
 0.7271629632404E-01 -0.9656789196851E-01 -0.1121024992447E-01 -0.1224447104581E+00
 0.1054630653299E+00 -0.6717770219271E-01  0.1799412062883E-01 -0.1278214600951E+00
 0.1381634053404E+00 -0.4576073525666E-01  0.4342925482919E-01 -0.1272656083248E+00
 0.1678425579562E+00 -0.3137950653563E-01  0.6413763400497E-01 -0.1198384688105E+00
 0.1911650771011E+00 -0.2260932986790E-01  0.7922120099867E-01 -0.1053913154778E+00
 0.2049784361091E+00 -0.1763776085439E-01  0.8805011714637E-01 -0.8482766046149E-01
 0.2071023565107E+00 -0.1447095537287E-01  0.9053675830515E-01 -0.6018742065607E-01
 0.1971171074914E+00 -0.1127703470920E-01  0.8734483398610E-01 -0.3437590311412E-01
 0.1766673811928E+00 -0.6834925356650E-02  0.7982125404054E-01 -0.1046043995505E-01
 0.1489683952589E+00 -0.8423138811590E-03  0.6961925807098E-01  0.9248339194887E-02
-0.5388902143718E-01 -0.6739168716225E+00 -0.3420687688704E+00 -0.5789737798635E-01
-0.5433405813836E-01 -0.5992170433068E+00 -0.3071690169001E+00 -0.5468134235770E-01
-0.5393121215177E-01 -0.5225196067522E+00 -0.2709318841977E+00 -0.5696978256040E-01
-0.5208118433734E-01 -0.4464381458707E+00 -0.2343040846035E+00 -0.6282568003585E-01
-0.4752940257503E-01 -0.3733440772839E+00 -0.1978105350320E+00 -0.7146508313822E-01
-0.3918700762909E-01 -0.3050147981344E+00 -0.1617748482985E+00 -0.8235796344474E-01
-0.2637107230804E-01 -0.2428010146439E+00 -0.1265108805465E+00 -0.9481036422394E-01
-0.8790530621627E-02 -0.1876886815880E+00 -0.9234522950431E-01 -0.1078237945754E+00
 0.1336083720067E-01 -0.1404149365129E+00 -0.5971542652530E-01 -0.1201223804527E+00
 0.3937018326208E-01 -0.1014132109340E+00 -0.2916022293183E-01 -0.1302600835037E+00
 0.6795567846949E-01 -0.7074947144834E-01 -0.1313082696732E-02 -0.1367669942227E+00
 0.9725666476852E-01 -0.4806490777434E-01  0.2312012572862E-01 -0.1383301474989E+00
 0.1249002269845E+00 -0.3255102824312E-01  0.4340412329835E-01 -0.1340044520300E+00
 0.1481957727806E+00 -0.2296837031851E-01  0.5885687900791E-01 -0.1234376504805E+00
 0.1644989751015E+00 -0.1772420796555E-01  0.6898414037893E-01 -0.1070676331958E+00
 0.1717377141770E+00 -0.1503087422725E-01  0.7365221458958E-01 -0.8621422098759E-01
 0.1689827336929E+00 -0.1316297139536E-01  0.7323528809410E-01 -0.6296140749691E-01
 0.1568024953267E+00 -0.1079906657821E-01  0.6862161133772E-01 -0.3976209384769E-01
 0.1371186627718E+00 -0.7337219075745E-02  0.6099727838243E-01 -0.1883903948125E-01
 0.1124611053296E+00 -0.3015352661555E-02  0.5143950362353E-01 -0.1626501851259E-02
-0.6550310927401E-01 -0.6188119193561E+00 -0.3216280626404E+00 -0.6879795882053E-01
-0.6406039766744E-01 -0.5426283219247E+00 -0.2851436974851E+00 -0.6892870792720E-01
-0.6230868373502E-01 -0.4647585669772E+00 -0.2477216072064E+00 -0.7388330253771E-01
-0.5935567284634E-01 -0.3892206220286E+00 -0.2108308580565E+00 -0.8132931704309E-01
-0.5359614424285E-01 -0.3185448176307E+00 -0.1749062516369E+00 -0.9071508544233E-01
-0.4413612738246E-01 -0.2543509125586E+00 -0.1402889084165E+00 -0.1016662045899E+00
-0.3039004475747E-01 -0.1973761568157E+00 -0.1070501144679E+00 -0.1134804007649E+00
-0.1236527653849E-01 -0.1482112990475E+00 -0.7547099033400E-01 -0.1251032235588E+00
 0.9459051038113E-02 -0.1072164421806E+00 -0.4594597372042E-01 -0.1352714536111E+00
 0.3410760823715E-01 -0.7446819485472E-01 -0.1896947566214E-01 -0.1426618892281E+00
 0.6012155310682E-01 -0.4968801294616E-01  0.4903763863071E-02 -0.1460490888943E+00
 0.8561186390278E-01 -0.3221062736903E-01  0.2509858110720E-01 -0.1444731641908E+00
 0.1083975190308E+00 -0.2099080423226E-01  0.4108115585112E-01 -0.1374124478499E+00
 0.1262526949376E+00 -0.1465812278530E-01  0.5244944877854E-01 -0.1249380919738E+00
 0.1372638325260E+00 -0.1163224211437E-01  0.5904684734371E-01 -0.1078065190011E+00
 0.1402422204525E+00 -0.1031110594622E-01  0.6106762366304E-01 -0.8742820988807E-01
 0.1350584619105E+00 -0.9326933826591E-02  0.5909381804956E-01 -0.6566046899559E-01
 0.1227316186406E+00 -0.7804461826681E-02  0.5401576356554E-01 -0.4443615077710E-01
 0.1051332283460E+00 -0.5529353372174E-02  0.4681382111898E-01 -0.2535935901445E-01
 0.8427059262000E-01 -0.2950255643707E-02  0.3822055828192E-01 -0.9482890523104E-02
-0.7620986522940E-01 -0.5675166072048E+00 -0.3025514412767E+00 -0.7947734245122E-01
-0.7268518158612E-01 -0.4893503318860E+00 -0.2641566906619E+00 -0.8295493142453E-01
-0.6981003675419E-01 -0.4104041105187E+00 -0.2257006486458E+00 -0.8979668952298E-01
-0.6555879000239E-01 -0.3358793096667E+00 -0.1886759063659E+00 -0.9772912603553E-01
-0.5901640787861E-01 -0.2689773728938E+00 -0.1541570765720E+00 -0.1069774774566E+00
-0.4874892384192E-01 -0.2095420583660E+00 -0.1213967613298E+00 -0.1173350484506E+00
-0.3455731594137E-01 -0.1579017992077E+00 -0.9045578389064E-01 -0.1280018201706E+00
-0.1667372061015E-01 -0.1142923575367E+00 -0.6155405657290E-01 -0.1378913075104E+00
 0.4193539553811E-02 -0.7880944682237E-01 -0.3506947632727E-01 -0.1458140862993E+00
 0.2692235423050E-01 -0.5126677719521E-01 -0.1144187876440E-01 -0.1506274040372E+00
 0.5001899833904E-01 -0.3114873093636E-01  0.8869025656766E-02 -0.1513710819797E+00
 0.7171987764362E-01 -0.1760138578149E-01  0.2543569111069E-01 -0.1474019279620E+00
 0.9016222441909E-01 -0.9467007290768E-02  0.3792675195412E-01 -0.1385168902643E+00
 0.1036293113483E+00 -0.5364919089628E-02  0.4618426424442E-01 -0.1250404867280E+00
 0.1108449416137E+00 -0.3827586778008E-02  0.5029815664520E-01 -0.1078396471070E+00
 0.1112511466760E+00 -0.3491576722501E-02  0.5064699774969E-01 -0.8822854636516E-01
 0.1051729369731E+00 -0.3310477085921E-02  0.4787535602553E-01 -0.6775243666577E-01
 0.9376524544530E-01 -0.2730693377921E-02  0.4278623936315E-01 -0.4789922957897E-01
 0.7881158944484E-01 -0.1680006437465E-02  0.3625184392152E-01 -0.2985688829068E-01
 0.6240158647682E-01 -0.4123982054688E-03  0.2913491841364E-01 -0.1452641543832E-01
-0.8651096929494E-01 -0.5205245950972E+00 -0.2853067145407E+00 -0.9013173933516E-01
-0.8157720397695E-01 -0.4390844957609E+00 -0.2447109982561E+00 -0.9671960548845E-01
-0.7521541637474E-01 -0.3565705841141E+00 -0.2029394197150E+00 -0.1037820181203E+00
-0.7103034988394E-01 -0.2865055112612E+00 -0.1680418543120E+00 -0.1111475445904E+00
-0.6372661808179E-01 -0.2242787166905E+00 -0.1353625069997E+00 -0.1198474333397E+00
-0.5302100479823E-01 -0.1698324135673E+00 -0.1047411063661E+00 -0.1293001135074E+00
-0.3879228518835E-01 -0.1231823289261E+00 -0.7612806844071E-01 -0.1385803259515E+00
-0.2151470086939E-01 -0.8448000949600E-01 -0.4981751374538E-01 -0.1466220896674E+00
-0.2023122130627E-02 -0.5364632336463E-01 -0.2616463931641E-01 -0.1523743423376E+00
 0.1851066607282E-01 -0.3031706576204E-01 -0.5549007839856E-02 -0.1549052567790E+00
 0.3866379860574E-01 -0.1381927061255E-01  0.1167692812718E-01 -0.1535055653729E+00
 0.5688402843101E-01 -0.3194211580891E-02  0.2523421385555E-01 -0.1477861176622E+00
 0.7166221222901E-01  0.2744678738506E-02  0.3497123866603E-01 -0.1377566140051E+00
 0.8174190445051E-01  0.5311952793643E-02  0.4091531280097E-01 -0.1238627810434E+00
 0.8633344036358E-01  0.5806870197328E-02  0.4330594585379E-01 -0.1069560275848E+00
 0.8527943266744E-01  0.5341840961046E-02  0.4259199849736E-01 -0.8817860227306E-01
 0.7910956863083E-01  0.4680136705950E-02  0.3938116140840E-01 -0.6877520952923E-01
 0.6897825631938E-01  0.4162343754606E-02  0.3437608194758E-01 -0.4988696846216E-01
 0.5642173799931E-01  0.3682469794568E-02  0.2824897759147E-01 -0.3240701044679E-01
 0.4374990711436E-01  0.3190991268873E-02  0.2206222218416E-01 -0.1696764592783E-01
-0.1053754842826E+00 -0.4840625091731E+00 -0.2770358562215E+00 -0.1030744013097E+00
-0.8268054386939E-01 -0.3780240691429E+00 -0.2165311675666E+00 -0.1085737051357E+00
-0.8043906734991E-01 -0.3063162630894E+00 -0.1817750048454E+00 -0.1141354378448E+00
-0.7531645050213E-01 -0.2417687403436E+00 -0.1490300393195E+00 -0.1212125392449E+00
-0.6778320390106E-01 -0.1845975832289E+00 -0.1186189696502E+00 -0.1293890010520E+00
-0.5696743471057E-01 -0.1346868212549E+00 -0.9007750007529E-01 -0.1378231198561E+00
-0.4311905530884E-01 -0.9241029993994E-01 -0.6369879680536E-01 -0.1455977435103E+00
-0.2680663029085E-01 -0.5784002425117E-01 -0.3978392753384E-01 -0.1517881674546E+00
-0.8936999824122E-02 -0.3077428679472E-01 -0.1866430466351E-01 -0.1555364352764E+00
 0.9345236328140E-02 -0.1071556787148E-01 -0.6440558237374E-03 -0.1561272681008E+00
 0.2674876961907E-01  0.3103037110494E-02  0.1403034912731E-01 -0.1530657273107E+00
 0.4196274218696E-01  0.1167294026668E-01  0.2520877068927E-01 -0.1461458630442E+00
 0.5380863603699E-01  0.1613499526698E-01  0.3287350662949E-01 -0.1354969667703E+00
 0.6140090399833E-01  0.1767192076155E-01  0.3716422754288E-01 -0.1215905525017E+00
 0.6428592629298E-01  0.1737387973030E-01  0.3838010873359E-01 -0.1051924249063E+00
 0.6252280266951E-01  0.1609870392966E-01  0.3695210800789E-01 -0.8725467280131E-01
 0.5668569302464E-01  0.1436850656227E-01  0.3339547372114E-01 -0.6876474835396E-01
 0.4777890619958E-01  0.1232504880562E-01  0.2824885878080E-01 -0.5059258599100E-01
 0.3721558063324E-01  0.9841486248379E-02  0.2211682137827E-01 -0.3340401021456E-01
 0.2603994150750E-01  0.6015062413095E-02  0.1506585180447E-01 -0.1753395194476E-01
</DataArray>
<DataArray type="Float64" Name="S_Mises" NumberOfComponents="1" ComponentName0="S_Mises" format="ascii">
 0.6826275982409E+01
 0.6194983481954E+01
 0.5708204999192E+01
 0.5562277016253E+01
 0.5464500272538E+01
 0.5408525765177E+01
 0.5370521672675E+01
 0.5343624394645E+01
 0.5323098583744E+01
 0.5306598096990E+01
 0.5292778733144E+01
 0.5280969772336E+01
 0.5270909735569E+01
 0.5262622976744E+01
 0.5256347048461E+01
 0.5252497908280E+01
 0.5251659585674E+01
 0.5254597305845E+01
 0.5262289377639E+01
 0.5276003507396E+01
 0.5297430648088E+01
 0.5328996846649E+01
 0.5374613320119E+01
 0.5439927250560E+01
 0.5526198431204E+01
 0.5627616540764E+01
 0.5737641852284E+01
 0.5853059820842E+01
 0.5974688316488E+01
 0.6106425621924E+01
 0.6253749520783E+01
 0.6422198679586E+01
 0.6615694743604E+01
 0.6842087346095E+01
 0.7124405355600E+01
 0.7492032064862E+01
 0.8008124179194E+01
 0.8655187194681E+01
 0.1004945858222E+02
 0.1005705765543E+02
 0.1965568718451E+02
 0.5862146971090E+01
 0.6105537033927E+01
 0.5739509147407E+01
 0.5535170391121E+01
 0.5428797202076E+01
 0.5358026412471E+01
 0.5310971782506E+01
 0.5276984123066E+01
 0.5251270951949E+01
 0.5230868893387E+01
 0.5214131182521E+01
 0.5200138162368E+01
 0.5188451212701E+01
 0.5178957056704E+01
 0.5171783981435E+01
 0.5167256669412E+01
 0.5165878693988E+01
 0.5168337044538E+01
 0.5175529708386E+01
 0.5188623580466E+01
 0.5209164731461E+01
 0.5239266771591E+01
 0.5281471086558E+01
 0.5337758146041E+01
 0.5408040061418E+01
 0.5489788330589E+01
 0.5579662119490E+01
 0.5675538921365E+01
 0.5777367201972E+01
 0.5886871626295E+01
 0.6006660097086E+01
 0.6139529753358E+01
 0.6289004761501E+01
 0.6461243636686E+01
 0.6664702939264E+01
 0.6913629179306E+01
 0.7199692669749E+01
 0.7573680677827E+01
 0.7748253513996E+01
 0.6722115784795E+01
 0.1311132927175E+02
 0.5316351689274E+01
 0.5765749092157E+01
 0.5670158638404E+01
 0.5484389154014E+01
 0.5373720851143E+01
 0.5298646166549E+01
 0.5245659262943E+01
 0.5206859920878E+01
 0.5177129667706E+01
 0.5153533183283E+01
 0.5134264538769E+01
 0.5118279030172E+01
 0.5105019420554E+01
 0.5094270249703E+01
 0.5086068456702E+01
 0.5080654108829E+01
 0.5078446985755E+01
 0.5080043768614E+01
 0.5086233708088E+01
 0.5098032946544E+01
 0.5116739056640E+01
 0.5143878645447E+01
 0.5180660591421E+01
 0.5227354688077E+01
 0.5283446769863E+01
 0.5347864718008E+01
 0.5419058504155E+01
 0.5495614555921E+01
 0.5576857920856E+01
 0.5662874670060E+01
 0.5754129698247E+01
 0.5851411503759E+01
 0.5956329099897E+01
 0.6070173653588E+01
 0.6192073272050E+01
 0.6312639855748E+01
 0.6409149929822E+01
 0.6422614630872E+01
 0.5883934797043E+01
 0.5414828128668E+01
 0.1094067439764E+02
 0.4953935590916E+01
 0.5431569309716E+01
 0.5510799635316E+01
 0.5401447693100E+01
 0.5301322339503E+01
 0.5228575073845E+01
 0.5174034188019E+01
 0.5132612824705E+01
 0.5100240539568E+01
 0.5074245805161E+01
 0.5052916356607E+01
 0.5035189445440E+01
 0.5020459108299E+01
 0.5008445781260E+01
 0.4999116305192E+01
 0.4992635075187E+01
 0.4989337468635E+01
 0.4989719553783E+01
 0.4994438925133E+01
 0.5004319925246E+01
 0.5020327387771E+01
 0.5043340280334E+01
 0.5073612776300E+01
 0.5110598302567E+01
 0.5153653053116E+01
 0.5202364867748E+01
 0.5256076274700E+01
 0.5313743606148E+01
 0.5374209535346E+01
 0.5436347523710E+01
 0.5499030017643E+01
 0.5561274601306E+01
 0.5622051724464E+01
 0.5678140779778E+01
 0.5720025446255E+01
 0.5726168908971E+01
 0.5657904336954E+01
 0.5389528102607E+01
 0.4755394231444E+01
 0.5093169861384E+01
 0.9808763494628E+01
 0.4686969705531E+01
 0.5140570458578E+01
 0.5315365534597E+01
 0.5285603718922E+01
 0.5212443551985E+01
 0.5147845136091E+01
 0.5095648035557E+01
 0.5053907590398E+01
 0.5020280136562E+01
 0.4992748738405E+01
 0.4969877207227E+01
 0.4950705048355E+01
 0.4934643956714E+01
 0.4921390880938E+01
 0.4910865273050E+01
 0.4903166827879E+01
 0.4898548232543E+01
 0.4897398009840E+01
 0.4900225879258E+01
 0.4907635184798E+01
 0.4920224749536E+01
 0.4938302328324E+01
 0.4961496475578E+01
 0.4988868808540E+01
 0.5019732498135E+01
 0.5053936816477E+01
 0.5091198129694E+01
 0.5130595543975E+01
 0.5170583783215E+01
 0.5209156226879E+01
 0.5243984972184E+01
 0.5272495768451E+01
 0.5291227656525E+01
 0.5293223353906E+01
 0.5263630705469E+01
 0.5176158885183E+01
 0.4982762474341E+01
 0.4598294639375E+01
 0.4169056568362E+01
 0.5111105169587E+01
 0.9045394420631E+01
 0.4475370540431E+01
 0.4891165622172E+01
 0.5112995743437E+01
 0.5147404787688E+01
 0.5108165714591E+01
 0.5057187012012E+01
 0.5010505241129E+01
 0.4970596326391E+01
 0.4937066766098E+01
 0.4908864604377E+01
 0.4884994343005E+01
 0.4864700818413E+01
 0.4847477627853E+01
 0.4833037303619E+01
 0.4821275237812E+01
 0.4812238713821E+01
 0.4806101742362E+01
 0.4803142412193E+01
 0.4803713641722E+01
 0.4808185717717E+01
 0.4816805872220E+01
 0.4829428271460E+01
 0.4845287871455E+01
 0.4863259031108E+01
 0.4882625752141E+01
 0.4903289233105E+01
 0.4925053685004E+01
 0.4946971276526E+01
 0.4967187763495E+01
 0.4983076863410E+01
 0.4991420364854E+01
 0.4988372915018E+01
 0.4968629615287E+01
 0.4922914217309E+01
 0.4834675175035E+01
 0.4678065417599E+01
 0.4416453928495E+01
 0.4049069737491E+01
 0.3910972021697E+01
 0.5195933665015E+01
 0.8460209507383E+01
 0.4298441267466E+01
 0.4675403698992E+01
 0.4916505980702E+01
 0.4997282476465E+01
 0.4991538113520E+01
 0.4957599665955E+01
 0.4918989972441E+01
 0.4882726276568E+01
 0.4850542385780E+01
 0.4822498178969E+01
 0.4798170031991E+01
 0.4777091384884E+01
 0.4758893761269E+01
 0.4743341302393E+01
 0.4730327868387E+01
 0.4719861395967E+01
 0.4712043389080E+01
 0.4707042776474E+01
 0.4705054631900E+01
 0.4706221822599E+01
 0.4710482183518E+01
 0.4717350435178E+01
 0.4725820732930E+01
 0.4734679031637E+01
 0.4743173188383E+01
 0.4751148838567E+01
 0.4758352205406E+01
 0.4763737232116E+01
 0.4765219569434E+01
 0.4759767298495E+01
 0.4743565966496E+01
 0.4711926406055E+01
 0.4658500747202E+01
 0.4573379834006E+01
 0.4441291578057E+01
 0.4242779600736E+01
 0.3967546277461E+01
 0.3693269530127E+01
 0.3829481767827E+01
 0.5259449939236E+01
 0.7982197564856E+01
 0.4144524491097E+01
 0.4485720555505E+01
 0.4730649989806E+01
 0.4842693281891E+01
 0.4866275812132E+01
 0.4850491929379E+01
 0.4821708488112E+01
 0.4790523968796E+01
 0.4760758968295E+01
 0.4733630321514E+01
 0.4709359363965E+01
 0.4687829709152E+01
 0.4668855303422E+01
 0.4652282990761E+01
 0.4638025819051E+01
 0.4626065618811E+01
 0.4616439438417E+01
 0.4609212304266E+01
 0.4604428093743E+01
 0.4602021427453E+01
 0.4601673864343E+01
 0.4602656431064E+01
 0.4603820766677E+01
 0.4603912781819E+01
 0.4602136424962E+01
 0.4598233999746E+01
 0.4591832816520E+01
 0.4581773435900E+01
 0.4565825725722E+01
 0.4540742874345E+01
 0.4502409731451E+01
 0.4445775217289E+01
 0.4364329823397E+01
 0.4249076153977E+01
 0.4088530640781E+01
 0.3874362501506E+01
 0.3626420480152E+01
 0.3476478469257E+01
 0.3831025489349E+01
 0.5282929083350E+01
 0.7577519800054E+01
 0.4006607500107E+01
 0.4316110208884E+01
 0.4556495246666E+01
 0.4688306261638E+01
 0.4735773936444E+01
 0.4737507393992E+01
 0.4719429464634E+01
 0.4694346995788E+01
 0.4667864534658E+01
 0.4642309129769E+01
 0.4618566229931E+01
 0.4596904872402E+01
 0.4577353127312E+01
 0.4559865249083E+01
 0.4544391550505E+01
 0.4530900628721E+01
 0.4519374614465E+01
 0.4509783440696E+01
 0.4502032833794E+01
 0.4495876528007E+01
 0.4490793630584E+01
 0.4485886944562E+01
 0.4479928946963E+01
 0.4471650746494E+01
 0.4460210829605E+01
 0.4445237003202E+01
 0.4426228220990E+01
 0.4401933832316E+01
 0.4370068623169E+01
 0.4327349655273E+01
 0.4269653035101E+01
 0.4192054037313E+01
 0.4088704148671E+01
 0.3952780373856E+01
 0.3778445227221E+01
 0.3570586641888E+01
 0.3375339106532E+01
 0.3353021799589E+01
 0.3863344014452E+01
 0.5269675618126E+01
 0.7226808423819E+01
 0.3880243913659E+01
 0.4162035870191E+01
 0.4393531679132E+01
 0.4536789265698E+01
 0.4602733002870E+01
 0.4620284662685E+01
 0.4613016737379E+01
 0.4594643004257E+01
 0.4572082773948E+01
 0.4548640217310E+01
 0.4525837827575E+01
 0.4504339031436E+01
 0.4484404057837E+01
 0.4466112191783E+01
 0.4449465804981E+01
 0.4434432289046E+01
 0.4420949419030E+01
 0.4408903687015E+01
 0.4398080221559E+01
 0.4388082874631E+01
 0.4378237780282E+01
 0.4367537501423E+01
 0.4354717261610E+01
 0.4338509081133E+01
 0.4318032123136E+01
 0.4292811273162E+01
 0.4262238352719E+01
 0.4225016783647E+01
 0.4178901146639E+01
 0.4120740847342E+01
 0.4046679130938E+01
 0.3952364541823E+01
 0.3833289614296E+01
 0.3685716042253E+01
 0.3510424969352E+01
 0.3325127573829E+01
 0.3195124163359E+01
 0.3288586817473E+01
 0.3899888866120E+01
 0.5228038890748E+01
 0.6917520879679E+01
 0.3762489446549E+01
 0.4020112616436E+01
 0.4240657891410E+01
 0.4389511869249E+01
 0.4469129308015E+01
 0.4500294038441E+01
 0.4503353600199E+01
 0.4491913036940E+01
 0.4473691900559E+01
 0.4452775632468E+01
 0.4431258426049E+01
 0.4410183691724E+01
 0.4390048434659E+01
 0.4371067282334E+01
 0.4353305811298E+01
 0.4336740988182E+01
 0.4321277318901E+01
 0.4306731464808E+01
 0.4292788090533E+01
 0.4278932625451E+01
 0.4264381480977E+01
 0.4248061337018E+01
 0.4228699327653E+01
 0.4205041101608E+01
 0.4176179520136E+01
 0.4141561923327E+01
 0.4100511548041E+01
 0.4051743806940E+01
 0.3993147993029E+01
 0.3921860641761E+01
 0.3834537098109E+01
 0.3727769606015E+01
 0.3598888376537E+01
 0.3447757318170E+01
 0.3281864245318E+01
 0.3129754144532E+01
 0.3068347211955E+01
 0.3259033442442E+01
 0.3928601856779E+01
 0.5166015832974E+01
 0.6640901544095E+01
 0.3651321867036E+01
 0.3887809980011E+01
 0.4096629834741E+01
 0.4247047486381E+01
 0.4336322526524E+01
 0.4378763346492E+01
 0.4391279640972E+01
 0.4386677627163E+01
 0.4373004836363E+01
 0.4354902344619E+01
 0.4334942649176E+01
 0.4314515537299E+01
 0.4294347302105E+01
 0.4274791158310E+01
 0.4255983265552E+01
 0.4237919395125E+01
 0.4220481892541E+01
 0.4203432236118E+01
 0.4186375701365E+01
 0.4168709255342E+01
 0.4149576404061E+01
 0.4127872211012E+01
 0.4102337507636E+01
 0.4071744154860E+01
 0.4035176957809E+01
 0.3992038808217E+01
 0.3941631424431E+01
 0.3882744982372E+01
 0.3813493633370E+01
 0.3731436738712E+01
 0.3633943105140E+01
 0.3518823027281E+01
 0.3385544451953E+01
 0.3237711141458E+01
 0.3088923555331E+01
 0.2975869841356E+01
 0.2980453107400E+01
 0.3248216630870E+01
 0.3945002912154E+01
 0.5089934138954E+01
 0.6390549411586E+01
 0.3545308239942E+01
 0.3763220899707E+01
 0.3960254293930E+01
 0.4109502678322E+01
 0.4205195094866E+01
 0.4256665523664E+01
 0.4277549597245E+01
 0.4279448047122E+01
 0.4270351399920E+01
 0.4255231177689E+01
 0.4237028639912E+01
 0.4217432045516E+01
 0.4197379378121E+01
 0.4177359275538E+01
 0.4157582187196E+01
 0.4138070169687E+01
 0.4118694076580E+01
 0.4099175052278E+01
 0.4079059760114E+01
 0.4057684123668E+01
 0.4034149681677E+01
 0.4007346856205E+01
 0.3976047750317E+01
 0.3939063849731E+01
 0.3895493523484E+01
 0.3844731749746E+01
 0.3786108351682E+01
 0.3718550096799E+01
 0.3640476781510E+01
 0.3549981976785E+01
 0.3445297719672E+01
 0.3325624388531E+01
 0.3192680475656E+01
 0.3053632713673E+01
 0.2927187069779E+01
 0.2855396199217E+01
 0.2919887989882E+01
 0.3245805641957E+01
 0.3948317126901E+01
 0.5004449824822E+01
 0.6161637752685E+01
 0.3443405570107E+01
 0.3644892630241E+01
 0.3830462386372E+01
 0.3976723954410E+01
 0.4076280130840E+01
 0.4134739716511E+01
 0.4162813209580E+01
 0.4170704822523E+01
 0.4166063125299E+01
 0.4153986721193E+01
 0.4137671451918E+01
 0.4119047076399E+01
 0.4099237928387E+01
 0.4078859459536E+01
 0.4058196724344E+01
 0.4037303702859E+01
 0.4016049598700E+01
 0.3994129588803E+01
 0.3971051353968E+01
 0.3946114210310E+01
 0.3918403596045E+01
 0.3886827020932E+01
 0.3850202977951E+01
 0.3807396824642E+01
 0.3757543742950E+01
 0.3700067691847E+01
 0.3634374681176E+01
 0.3559584699270E+01
 0.3474490858119E+01
 0.3377804338733E+01
 0.3268715792884E+01
 0.3147889776837E+01
 0.3019248237107E+01
 0.2893122457668E+01
 0.2792140259662E+01
 0.2761188863892E+01
 0.2877802780399E+01
 0.3245468137912E+01
 0.3939430308560E+01
 0.4912885631766E+01
 0.5950440582251E+01
 0.3344836801847E+01
 0.3531705455908E+01
 0.3706327929557E+01
 0.3848424011256E+01
 0.3949864704947E+01
 0.4013526374768E+01
 0.4047610741265E+01
 0.4060883892035E+01
 0.4060461193770E+01
 0.4051398540991E+01
 0.4037036921640E+01
 0.4019486591001E+01
 0.4000027641365E+01
 0.3979389427982E+01
 0.3957928955552E+01
 0.3935735928845E+01
 0.3912686628903E+01
 0.3888463640101E+01
 0.3862553616979E+01
 0.3834240639920E+01
 0.3802615651444E+01
 0.3766621146053E+01
 0.3725135552240E+01
 0.3677092744253E+01
 0.3621688079692E+01
 0.3558409534638E+01
 0.3486783041795E+01
 0.3406170262295E+01
 0.3315789604020E+01
 0.3215023733501E+01
 0.3104064792842E+01
 0.2985029931449E+01
 0.2863875625192E+01
 0.2753571349915E+01
 0.2679473472017E+01
 0.2687172222964E+01
 0.2847606830647E+01
 0.3243505495948E+01
 0.3919856846693E+01
 0.4817593406537E+01
 0.5754024310643E+01
 0.3249011113509E+01
 0.3422786025323E+01
 0.3587061798553E+01
 0.3724256917758E+01
 0.3826067938953E+01
 0.3893405103855E+01
 0.3932378441336E+01
 0.3950369471316E+01
 0.3953847635119E+01
 0.3947693901088E+01
 0.3935296216623E+01
 0.3918884650597E+01
 0.3899861616181E+01
 0.3879054372565E+01
 0.3856886763665E+01
 0.3833486276308E+01
 0.3808743698132E+01
 0.3782341063866E+01
 0.3753760003297E+01
 0.3722287782393E+01
 0.3687038895064E+01
 0.3647005817209E+01
 0.3601139247310E+01
 0.3548456021318E+01
 0.3488233907475E+01
 0.3420056509492E+01
 0.3343607226734E+01
 0.3258527788495E+01
 0.3164496918871E+01
 0.3061593720229E+01
 0.2951007721480E+01
 0.2836228521034E+01
 0.2724996996236E+01
 0.2632343730577E+01
 0.2585250434927E+01
 0.2628321419988E+01
 0.2824504217697E+01
 0.3237890858970E+01
 0.3891239418819E+01
 0.4720256995552E+01
 0.5570037888985E+01
 0.3155471174376E+01
 0.3317445181082E+01
 0.3471997068067E+01
 0.3603861618922E+01
 0.3704897787533E+01
 0.3774629668193E+01
 0.3817459334832E+01
 0.3839492059540E+01
 0.3846499564246E+01
 0.3843092040890E+01
 0.3832621145221E+01
 0.3817379771398E+01
 0.3798858513604E+01
 0.3777964629841E+01
 0.3755181795733E+01
 0.3730675756928E+01
 0.3704357853631E+01
 0.3675920086846E+01
 0.3644853000171E+01
 0.3610462721606E+01
 0.3571902354234E+01
 0.3528227037876E+01
 0.3478470931913E+01
 0.3421747472340E+01
 0.3357436982003E+01
 0.3285245823352E+01
 0.3205045113266E+01
 0.3116784059969E+01
 0.3020619734536E+01
 0.2917326114753E+01
 0.2809046992777E+01
 0.2700514649082E+01
 0.2600959812125E+01
 0.2526901529588E+01
 0.2505983962397E+01
 0.2580569206266E+01
 0.2805076674825E+01
 0.3227617988033E+01
 0.3855111188702E+01
 0.4622130088506E+01
 0.5396565236220E+01
 0.3063857330820E+01
 0.3215133012012E+01
 0.3360571808033E+01
 0.3486886083480E+01
 0.3586291237542E+01
 0.3657357905524E+01
 0.3703116162581E+01
 0.3728530002344E+01
 0.3738666004949E+01
 0.3737799957088E+01
 0.3729180279280E+01
 0.3715111706764E+01
 0.3697139937027E+01
 0.3676233497483E+01
 0.3652927554807E+01
 0.3627425223210E+01
 0.3599663057653E+01
 0.3569351935780E+01
 0.3536003198303E+01
 0.3498955003697E+01
 0.3457411571935E+01
 0.3410501426729E+01
 0.3357352154701E+01
 0.3297186087193E+01
 0.3229503455475E+01
 0.3154155398095E+01
 0.3071223205943E+01
 0.2980979868361E+01
 0.2884062865725E+01
 0.2781916713341E+01
 0.2677566454531E+01
 0.2576825860318E+01
 0.2490105950890E+01
 0.2434880728747E+01
 0.2438653571660E+01
 0.2540680247724E+01
 0.2786941191027E+01
 0.3212275869615E+01
 0.3812766238527E+01
 0.4524224197211E+01
 0.5232004893408E+01
 0.2973882728649E+01
 0.3115406031727E+01
 0.3252312553737E+01
 0.3372999800290E+01
 0.3470142195027E+01
 0.3541676111360E+01
 0.3589544506614E+01
 0.3617713263372E+01
 0.3630566761755E+01
 0.3632009554977E+01
 0.3625135896754E+01
 0.3612218707286E+01
 0.3594828102694E+01
 0.3573975252125E+01
 0.3550237672311E+01
 0.3523853831706E+01
 0.3494788843898E+01
 0.3462779776952E+01
 0.3427368677544E+01
 0.3387936631241E+01
 0.3343749264201E+01
 0.3294017442632E+01
 0.3237970783579E+01
 0.3174951037763E+01
 0.3104592450205E+01
 0.3026907551081E+01
 0.2942202448621E+01
 0.2851079630312E+01
 0.2754644894203E+01
 0.2654970677012E+01
 0.2555869575157E+01
 0.2464059934831E+01
 0.2390829743290E+01
 0.2354132308103E+01
 0.2380688923547E+01
 0.2506119768556E+01
 0.2768473351269E+01
 0.3191822284620E+01
 0.3765106482375E+01
 0.4427485793488E+01
 0.5074967029729E+01
 0.2885315701441E+01
 0.3017902892991E+01
 0.3146819637096E+01
 0.3261899362721E+01
 0.3356320472385E+01
 0.3427618285902E+01
 0.3476884990924E+01
 0.3507228349802E+01
 0.3522392777247E+01
 0.3525895947665E+01
 0.3520641674926E+01
 0.3508835245042E+01
 0.3492043801320E+01
 0.3471303370391E+01
 0.3447224354281E+01
 0.3420077690168E+01
 0.3389859188212E+01
 0.3356337894633E+01
 0.3319094620329E+01
 0.3277562223379E+01
 0.3231076056546E+01
 0.3178936637696E+01
 0.3120482713319E+01
 0.3055183899999E+01
 0.2982819067100E+01
 0.2903573346694E+01
 0.2817984855381E+01
 0.2726981719942E+01
 0.2632114137328E+01
 0.2536026323919E+01
 0.2443212461942E+01
 0.2361115264251E+01
 0.2301616236155E+01
 0.2282738924042E+01
 0.2329933024635E+01
 0.2474934367835E+01
 0.2748581995787E+01
 0.3166477284403E+01
 0.3712661305040E+01
 0.4332437598097E+01
 0.4924279225031E+01
 0.2797968035584E+01
 0.2922336712181E+01
 0.3043773290895E+01
 0.3153338021312E+01
 0.3244722034448E+01
 0.3315227896662E+01
 0.3365289810588E+01
 0.3397287726071E+01
 0.3414379411966E+01
 0.3419696175238E+01
 0.3415928037798E+01
 0.3405184725778E+01
 0.3389006954743E+01
 0.3368439321568E+01
 0.3344115810484E+01
 0.3316336380761E+01
 0.3285128658388E+01
 0.3250298063997E+01
 0.3211470520917E+01
 0.3168137608694E+01
 0.3119710852787E+01
 0.3065585991504E+01
 0.3005216158111E+01
 0.2938204716912E+01
 0.2864481835156E+01
 0.2784410780412E+01
 0.2698761396553E+01
 0.2608774457172E+01
 0.2516410222695E+01
 0.2424818166594E+01
 0.2339061346126E+01
 0.2267130768100E+01
 0.2221244945607E+01
 0.2219157217947E+01
 0.2284701057677E+01
 0.2445697306582E+01
 0.2726655879774E+01
 0.3136508003699E+01
 0.3656745022504E+01
 0.4236129867004E+01
 0.4793228233139E+01
 0.2711685043066E+01
 0.2828461753141E+01
 0.2942886660801E+01
 0.3047069438382E+01
 0.3135202138076E+01
 0.3204475049691E+01
 0.3254820071636E+01
 0.3288006777203E+01
 0.3306664539332E+01
 0.3313550236955E+01
 0.3311127316771E+01
 0.3301389207858E+01
 0.3285830728067E+01
 0.3265490510033E+01
 0.3241017210512E+01
 0.3212735953134E+01
 0.3180706371526E+01
 0.3144773351356E+01
 0.3104612699894E+01
 0.3059779968544E+01
 0.3009767648677E+01
 0.2954070709403E+01
 0.2892260223992E+01
 0.2824076833228E+01
 0.2749605203422E+01
 0.2669387496424E+01
 0.2584419092596E+01
 0.2496233834862E+01
 0.2407161311411E+01
 0.2320785312586E+01
 0.2242626172663E+01
 0.2181059701060E+01
 0.2148417548949E+01
 0.2161910164787E+01
 0.2243531229336E+01
 0.2417318864017E+01
 0.2702314026084E+01
 0.3102402404369E+01
 0.3597496786742E+01
 0.4140808930480E+01
 0.4667376409912E+01
 0.2626333079762E+01
 0.2736060467936E+01
 0.2843893563072E+01
 0.2942843079026E+01
 0.3027578349416E+01
 0.3095263234463E+01
 0.3145452118310E+01
 0.3179407707699E+01
 0.3199289933862E+01
 0.3207500752457E+01
 0.3206272537999E+01
 0.3197467939820E+01
 0.3182520205060E+01
 0.3162449322733E+01
 0.3137910266060E+01
 0.3109249192145E+01
 0.3076557120834E+01
 0.3039720311574E+01
 0.2998467814555E+01
 0.2952422912471E+01
 0.2901162423395E+01
 0.2844283194262E+01
 0.2781476282346E+01
 0.2712621088878E+01
 0.2637957084694E+01
 0.2558202310623E+01
 0.2474567165538E+01
 0.2388854793091E+01
 0.2303720458463E+01
 0.2223111614385E+01
 0.2152900867363E+01
 0.2101702601242E+01
 0.2081771962090E+01
 0.2109564977407E+01
 0.2205111923638E+01
 0.2388888194701E+01
 0.2675299927854E+01
 0.3064378973107E+01
 0.3535440067917E+01
 0.4046166471073E+01
 0.4542662723019E+01
 0.2541801905393E+01
 0.2644959142913E+01
 0.2746583391086E+01
 0.2840462646989E+01
 0.2921713581434E+01
 0.2987533559013E+01
 0.3037198714643E+01
 0.3071554703489E+01
 0.3092349204038E+01
 0.3101653654071E+01
 0.3101471435173E+01
 0.3093525467062E+01
 0.3079175447259E+01
 0.3059412068331E+01
 0.3034889063126E+01
 0.3005969455763E+01
 0.2972774431094E+01
 0.2935232545862E+01
 0.2893128222490E+01
 0.2846154891158E+01
 0.2793975693590E+01
 0.2736290594869E+01
 0.2672911037605E+01
 0.2603854491344E+01
 0.2529512623136E+01
 0.2450772731688E+01
 0.2369045770415E+01
 0.2286376840537E+01
 0.2205701190157E+01
 0.2131260568007E+01
 0.2069182040029E+01
 0.2028188900135E+01
 0.2020301236759E+01
 0.2061064454742E+01
 0.2168503249793E+01
 0.2359819671897E+01
 0.2645536790203E+01
 0.3022827971685E+01
 0.3471048793382E+01
 0.3952195077995E+01
 0.4420581957132E+01
 0.2457997931606E+01
 0.2555009898337E+01
 0.2650774497983E+01
 0.2739753197014E+01
 0.2817477745446E+01
 0.2881220023944E+01
 0.2930056435277E+01
 0.2964492576756E+01
 0.2985917641107E+01
 0.2996099627451E+01
 0.2996819891173E+01
 0.2989657286814E+01
 0.2975889332987E+01
 0.2956468766951E+01
 0.2932041419146E+01
 0.2902983110340E+01
 0.2869443506256E+01
 0.2831393539324E+01
 0.2788674048061E+01
 0.2741049820567E+01
 0.2688271065145E+01
 0.2630140773330E+01
 0.2566589607876E+01
 0.2497770402478E+01
 0.2424221852945E+01
 0.2346990916215E+01
 0.2267671659302E+01
 0.2188521591031E+01
 0.2112709970202E+01
 0.2044706721425E+01
 0.1990804353945E+01
 0.1959722333895E+01
 0.1963116615085E+01
 0.2015514385322E+01
 0.2132957906355E+01
 0.2329696969311E+01
 0.2613046898447E+01
 0.2978109997148E+01
 0.3404742860419E+01
 0.3858951400213E+01
 0.4301167388387E+01
 0.2374840964783E+01
 0.2466085957931E+01
 0.2556309292381E+01
 0.2640558657092E+01
 0.2714748545241E+01
 0.2776252683665E+01
 0.2824009547868E+01
 0.2858250072649E+01
 0.2880054397072E+01
 0.2890915183469E+01
 0.2892402187190E+01
 0.2885949590952E+01
 0.2872747046342E+01
 0.2853702560201E+01
 0.2829448331108E+01
 0.2800369100266E+01
 0.2766640987627E+01
 0.2728276665581E+01
 0.2685173482896E+01
 0.2637167719452E+01
 0.2584096248173E+01
 0.2525863754896E+01
 0.2462517503885E+01
 0.2394341187477E+01
 0.2322013193442E+01
 0.2246728190185E+01
 0.2170243853459E+01
 0.2094999542193E+01
 0.2024353677575E+01
 0.1962942823399E+01
 0.1917145471920E+01
 0.1895581065930E+01
 0.1909439483202E+01
 0.1972164293672E+01
 0.2097886784088E+01
 0.2298235678935E+01
 0.2577909402956E+01
 0.2930559112575E+01
 0.3336855834055E+01
 0.3766362940227E+01
 0.4184247855837E+01
 0.2292261688570E+01
 0.2378077819562E+01
 0.2463050266526E+01
 0.2542739509347E+01
 0.2613411698273E+01
 0.2672559896904E+01
 0.2719033100498E+01
 0.2752842726232E+01
 0.2774804555541E+01
 0.2786163855018E+01
 0.2788291493494E+01
 0.2782479290732E+01
 0.2769825850999E+01
 0.2751189396556E+01
 0.2727183688755E+01
 0.2698198774547E+01
 0.2664434961506E+01
 0.2625945431933E+01
 0.2582683315913E+01
 0.2534555564962E+01
 0.2481484280301E+01
 0.2423473376410E+01
 0.2360682788766E+01
 0.2293521002466E+01
 0.2222796994506E+01
 0.2149839458885E+01
 0.2076548936878E+01
 0.2005516077385E+01
 0.1940245789854E+01
 0.1885485133661E+01
 0.1847628843478E+01
 0.1835115797996E+01
 0.1858592434062E+01
 0.1930388772767E+01
 0.2062830582877E+01
 0.2265250398749E+01
 0.2540236779275E+01
 0.2880474279819E+01
 0.3267621832784E+01
 0.3674332921664E+01
 0.4069613755701E+01
 0.2210199678629E+01
 0.2290890177799E+01
 0.2370876715859E+01
 0.2446170669996E+01
 0.2513360761602E+01
 0.2570069861042E+01
 0.2615095310038E+01
 0.2648275244641E+01
 0.2670200986912E+01
 0.2681897372344E+01
 0.2684550446988E+01
 0.2679314170886E+01
 0.2667194998684E+01
 0.2648997840487E+01
 0.2625314095594E+01
 0.2596535804212E+01
 0.2562885039786E+01
 0.2524453777811E+01
 0.2481249495101E+01
 0.2433248157724E+01
 0.2380454737043E+01
 0.2322968896668E+01
 0.2261058163407E+01
 0.2195248446231E+01
 0.2126468841810E+01
 0.2056167209186E+01
 0.1986365692535E+01
 0.1919776472670E+01
 0.1860011178407E+01
 0.1811877007857E+01
 0.1781724671165E+01
 0.1777746448857E+01
 0.1809989826002E+01
 0.1889670303438E+01
 0.2027435532440E+01
 0.2230629130264E+01
 0.2500158898033E+01
 0.2828112149846E+01
 0.3197207699153E+01
 0.3582774869883E+01
 0.3957051510115E+01
 0.2128601811716E+01
 0.2204439430887E+01
 0.2279682001701E+01
 0.2350739560835E+01
 0.2414496691251E+01
 0.2468711587116E+01
 0.2512159353047E+01
 0.2544543431346E+01
 0.2566265938882E+01
 0.2578156734309E+01
 0.2581231723628E+01
 0.2576513083257E+01
 0.2564915686791E+01
 0.2547188922088E+01
 0.2523898713807E+01
 0.2495436103619E+01
 0.2462042422185E+01
 0.2423846330283E+01
 0.2380907619699E+01
 0.2333268889197E+01
 0.2281014814488E+01
 0.2224336443793E+01
 0.2163602840303E+01
 0.2099448926865E+01
 0.2032912464375E+01
 0.1965544948731E+01
 0.1899468948795E+01
 0.1837489834062E+01
 0.1783289547526E+01
 0.1741690937296E+01
 0.1718949394031E+01
 0.1722957792088E+01
 0.1763128234453E+01
 0.1849583600627E+01
 0.1991432882781E+01
 0.2194313774912E+01
 0.2457811338727E+01
 0.2773690586291E+01
 0.3125739547339E+01
 0.3491617817416E+01
 0.3846355263669E+01
 0.2047420983339E+01
 0.2118651665842E+01
 0.2189371291402E+01
 0.2256344422716E+01
 0.2316727309694E+01
 0.2368415547446E+01
 0.2410184780361E+01
 0.2441635833240E+01
 0.2463012508737E+01
 0.2474973309115E+01
 0.2478378745359E+01
 0.2474126336488E+01
 0.2463041242128E+01
 0.2445816224501E+01
 0.2422989349232E+01
 0.2394947989455E+01
 0.2361950190966E+01
 0.2324158884573E+01
 0.2281683647883E+01
 0.2234630713018E+01
 0.2183160601089E+01
 0.2127550629335E+01
 0.2068264546629E+01
 0.2006037094689E+01
 0.1942002608956E+01
 0.1877800467266E+01
 0.1815633056720E+01
 0.1758372444834E+01
 0.1709738083086E+01
 0.1674529708837E+01
 0.1658864422677E+01
 0.1670294778567E+01
 0.1717577411275E+01
 0.1809781805461E+01
 0.1954622113198E+01
 0.2156285350372E+01
 0.2413328724210E+01
 0.2717396012830E+01
 0.3053318958240E+01
 0.3400804009453E+01
 0.3737331817853E+01
 0.1966615061069E+01
 0.2033460998880E+01
 0.2099859651007E+01
 0.2162892797857E+01
 0.2219966669157E+01
 0.2269114002090E+01
 0.2309128529027E+01
 0.2339535025149E+01
 0.2360445853569E+01
 0.2372369776863E+01
 0.2376026305623E+01
 0.2372196047406E+01
 0.2361617282283E+01
 0.2344925946946E+01
 0.2322630499507E+01
 0.2295112284466E+01
 0.2262643528113E+01
 0.2225418781825E+01
 0.2183594474056E+01
 0.2137336955787E+01
 0.2086878154845E+01
 0.2032575926187E+01
 0.1974981235904E+01
 0.1914918907369E+01
 0.1853607442200E+01
 0.1792758490206E+01
 0.1734634599045E+01
 0.1682150182504E+01
 0.1639033057757E+01
 0.1610026532657E+01
 0.1601074053221E+01
 0.1619357499540E+01
 0.1672971655724E+01
 0.1769984284741E+01
 0.1916857126621E+01
 0.2116552908038E+01
 0.2366841398953E+01
 0.2659390263464E+01
 0.2980031700524E+01
 0.3310285378876E+01
 0.3629802678698E+01
 0.1886146023935E+01
 0.1948808210846E+01
 0.2011070450455E+01
 0.2070300205076E+01
 0.2124134410735E+01
 0.2170741153560E+01
 0.2208945692290E+01
 0.2238218679484E+01
 0.2258564268891E+01
 0.2270361035169E+01
 0.2274201236190E+01
 0.2270756586516E+01
 0.2260682000728E+01
 0.2244557104484E+01
 0.2222859541252E+01
 0.2195962555916E+01
 0.2164150058540E+01
 0.2127645400924E+01
 0.2086648605268E+01
 0.2041382208700E+01
 0.1992144637916E+01
 0.1939368071711E+01
 0.1883682778423E+01
 0.1825993607132E+01
 0.1767590773605E+01
 0.1710243037363E+01
 0.1656254674003E+01
 0.1608560391041E+01
 0.1570870827619E+01
 0.1547844611453E+01
 0.1545223036032E+01
 0.1569796211964E+01
 0.1629001905934E+01
 0.1729966114335E+01
 0.1878035121139E+01
 0.2075145499619E+01
 0.2318474122388E+01
 0.2599816030800E+01
 0.2905952530639E+01
 0.3220021019446E+01
 0.3523604988636E+01
 0.1805979250798E+01
 0.1864639613944E+01
 0.1922934017799E+01
 0.1978488975619E+01
 0.2029155129048E+01
 0.2073233164529E+01
 0.2109590079305E+01
 0.2137660429454E+01
 0.2157360115015E+01
 0.2168955022893E+01
 0.2172923054286E+01
 0.2169835047431E+01
 0.2160266500587E+01
 0.2144741786189E+01
 0.2123706975100E+01
 0.2097525404517E+01
 0.2066490231756E+01
 0.2030850673249E+01
 0.1990846841964E+01
 0.1946753201401E+01
 0.1898929406219E+01
 0.1847875390407E+01
 0.1794292523440E+01
 0.1739155505624E+01
 0.1683814004031E+01
 0.1630079410658E+01
 0.1580280709558E+01
 0.1537353208365E+01
 0.1504968271274E+01
 0.1487676244497E+01
 0.1490993907187E+01
 0.1521306510619E+01
 0.1585408562034E+01
 0.1689549081529E+01
 0.1838087686088E+01
 0.2032106397741E+01
 0.2268345746609E+01
 0.2538800883118E+01
 0.2831147961023E+01
 0.3129975652374E+01
 0.3418591742560E+01
 0.1726082924306E+01
 0.1780906097569E+01
 0.1835386487235E+01
 0.1887387216092E+01
 0.1934957740869E+01
 0.1976528058588E+01
 0.2011014585796E+01
 0.2037830531631E+01
 0.2056820575150E+01
 0.2068153426056E+01
 0.2072204539935E+01
 0.2069451681540E+01
 0.2060395113394E+01
 0.2045505404982E+01
 0.2025196659256E+01
 0.1999820731885E+01
 0.1969677667167E+01
 0.1935039542449E+01
 0.1896182881837E+01
 0.1853429573299E+01
 0.1807194965714E+01
 0.1758039944923E+01
 0.1706728640761E+01
 0.1654295486510E+01
 0.1602137718029E+01
 0.1552095745141E+01
 0.1506507767675E+01
 0.1468292341752E+01
 0.1441062697644E+01
 0.1429241514204E+01
 0.1438104126967E+01
 0.1473624657474E+01
 0.1541974972936E+01
 0.1648593977029E+01
 0.1796973646896E+01
 0.1987488858463E+01
 0.2216569247394E+01
 0.2476460082825E+01
 0.2755677905963E+01
 0.3040118659407E+01
 0.3314631343897E+01
 0.1646427531405E+01
 0.1697562330962E+01
 0.1748368828281E+01
 0.1796927914585E+01
 0.1841474912424E+01
 0.1880565591501E+01
 0.1913171481001E+01
 0.1938696437350E+01
 0.1956928351943E+01
 0.1967952369820E+01
 0.1972052347919E+01
 0.1969620406920E+01
 0.1961085819520E+01
 0.1946867065117E+01
 0.1927346167627E+01
 0.1902862132721E+01
 0.1873719619245E+01
 0.1840210535223E+01
 0.1802644022075E+01
 0.1761384726488E+01
 0.1716897987959E+01
 0.1669798716298E+01
 0.1620905451636E+01
 0.1571302446350E+01
 0.1522423154108E+01
 0.1476124374994E+01
 0.1434739611498E+01
 0.1401155585832E+01
 0.1378911532477E+01
 0.1372286863885E+01
 0.1386303308583E+01
 0.1426523299456E+01
 0.1498521727882E+01
 0.1606994165804E+01
 0.1754673455091E+01
 0.1941353121534E+01
 0.2163252043124E+01
 0.2412898783047E+01
 0.2679597010274E+01
 0.2950423761509E+01
 0.3211607117987E+01
 0.1566985439313E+01
 0.1614566080348E+01
 0.1661826002703E+01
 0.1707048138997E+01
 0.1748642504347E+01
 0.1785287058383E+01
 0.1816012571887E+01
 0.1840223218743E+01
 0.1857662227210E+01
 0.1868342999518E+01
 0.1872467538286E+01
 0.1870349259834E+01
 0.1862350625998E+01
 0.1848839892433E+01
 0.1830167108077E+01
 0.1806657238302E+01
 0.1778617380456E+01
 0.1746356252525E+01
 0.1710211761350E+01
 0.1670586554058E+01
 0.1627990172134E+01
 0.1583084595883E+01
 0.1536734529547E+01
 0.1490064456934E+01
 0.1444533344524E+01
 0.1402002821222E+01
 0.1364789363647E+01
 0.1335734936337E+01
 0.1318291658991E+01
 0.1316583454176E+01
 0.1335370421242E+01
 0.1379807435775E+01
 0.1454901556293E+01
 0.1564670127567E+01
 0.1711184675780E+01
 0.1893764156026E+01
 0.2108496295309E+01
 0.2348213611957E+01
 0.2602955583197E+01
 0.2860868759133E+01
 0.3109416430952E+01
 0.1487730533751E+01
 0.1531877627340E+01
 0.1575706241458E+01
 0.1617688337209E+01
 0.1656399068646E+01
 0.1690635094549E+01
 0.1719489318091E+01
 0.1742373929855E+01
 0.1758997566492E+01
 0.1769312031871E+01
 0.1773446106990E+01
 0.1771640873061E+01
 0.1764195990700E+01
 0.1751431422480E+01
 0.1733665502858E+01
 0.1711208120483E+01
 0.1684366738299E+01
 0.1653463904528E+01
 0.1618862431492E+01
 0.1580998180057E+01
 0.1540419095931E+01
 0.1497827337614E+01
 0.1454125726543E+01
 0.1410469813043E+01
 0.1368334098763E+01
 0.1329574587212E+01
 0.1296479954241E+01
 0.1271836507727E+01
 0.1258998622081E+01
 0.1261925495460E+01
 0.1285111137156E+01
 0.1333310759178E+01
 0.1410994887989E+01
 0.1521564915231E+01
 0.1666518431360E+01
 0.1844790036162E+01
 0.2052399279795E+01
 0.2282493978203E+01
 0.2525800443772E+01
 0.2771435455886E+01
 0.3007969805086E+01
 0.1408637908420E+01
 0.1449459267290E+01
 0.1489960416461E+01
 0.1528791718131E+01
 0.1564685386714E+01
 0.1596553468511E+01
 0.1623552899880E+01
 0.1645109902011E+01
 0.1660906759634E+01
 0.1670842257706E+01
 0.1674979488809E+01
 0.1673492945831E+01
 0.1666623252253E+01
 0.1654644002068E+01
 0.1637842184005E+01
 0.1616511706993E+01
 0.1590958435622E+01
 0.1561515837184E+01
 0.1528567805702E+01
 0.1492578657398E+01
 0.1454129001828E+01
 0.1413954418605E+01
 0.1372988076507E+01
 0.1332407923047E+01
 0.1293694797204E+01
 0.1258689740637E+01
 0.1229644350616E+01
 0.1209280258600E+01
 0.1200845706151E+01
 0.1208128563039E+01
 0.1235355314698E+01
 0.1286892334333E+01
 0.1366705984227E+01
 0.1477640366016E+01
 0.1620696579321E+01
 0.1794500756285E+01
 0.1995053769059E+01
 0.2215823145859E+01
 0.2448175643865E+01
 0.2682109597855E+01
 0.2907189975912E+01
 0.1329683594828E+01
 0.1367274870119E+01
 0.1404541486546E+01
 0.1440303696774E+01
 0.1473444040181E+01
 0.1502986867749E+01
 0.1528154244461E+01
 0.1548390978050E+01
 0.1563359596939E+01
 0.1572912988762E+01
 0.1577055018174E+01
 0.1575898685277E+01
 0.1569629041431E+01
 0.1558475177188E+01
 0.1542693174829E+01
 0.1522560177901E+01
 0.1498378603275E+01
 0.1470490018874E+01
 0.1439295651465E+01
 0.1405283591908E+01
 0.1369061487493E+01
 0.1331391778390E+01
 0.1293230548693E+01
 0.1255770020608E+01
 0.1220488980280E+01
 0.1189205275646E+01
 0.1164125571433E+01
 0.1147899533764E+01
 0.1143662895829E+01
 0.1155027896485E+01
 0.1185954602073E+01
 0.1240433568254E+01
 0.1321959546640E+01
 0.1432873912725E+01
 0.1573749438240E+01
 0.1742967336546E+01
 0.1936548374829E+01
 0.2148279090507E+01
 0.2370123022964E+01
 0.2592880719608E+01
 0.2807010831956E+01
 0.1250844326767E+01
 0.1285289497853E+01
 0.1319404015104E+01
 0.1352171409756E+01
 0.1382619034422E+01
 0.1409880711047E+01
 0.1433244055526E+01
 0.1452175736853E+01
 0.1466323635017E+01
 0.1475500503167E+01
 0.1479656402516E+01
 0.1478847274696E+01
 0.1473205731074E+01
 0.1462918127130E+01
 0.1448210120892E+01
 0.1429341410750E+01
 0.1406609236885E+01
 0.1380360563331E+01
 0.1351010308736E+01
 0.1319065777450E+01
 0.1285156189804E+01
 0.1250064531099E+01
 0.1214762751169E+01
 0.1180449803180E+01
 0.1148594845406E+01
 0.1120985374131E+01
 0.1099776608916E+01
 0.1087540547916E+01
 0.1087295839511E+01
 0.1102476790628E+01
 0.1136780248580E+01
 0.1193835529706E+01
 0.1276697818858E+01
 0.1387255967037E+01
 0.1525714022704E+01
 0.1690261228497E+01
 0.1876967949241E+01
 0.2079935295137E+01
 0.2291682745095E+01
 0.2503742041441E+01
 0.2707376466409E+01
 0.1172097331771E+01
 0.1203469063434E+01
 0.1234503739401E+01
 0.1264343280979E+01
 0.1292155457499E+01
 0.1317180973745E+01
 0.1338772833514E+01
 0.1356421693081E+01
 0.1369764531348E+01
 0.1378578460815E+01
 0.1382764171157E+01
 0.1382324324081E+01
 0.1377341873577E+01
 0.1367962088645E+01
 0.1354380710159E+01
 0.1336839410656E+01
 0.1315628651371E+01
 0.1291098220265E+01
 0.1263673223152E+01
 0.1233875770797E+01
 0.1202351390754E+01
 0.1169897579471E+01
 0.1137495514975E+01
 0.1106343931472E+01
 0.1077895590634E+01
 0.1053901510642E+01
 0.1036460209077E+01
 0.1028061763865E+01
 0.1031604767858E+01
 0.1050345024394E+01
 0.1087721057637E+01
 0.1147016530843E+01
 0.1230878062642E+01
 0.1340787724686E+01
 0.1476632627862E+01
 0.1636453888672E+01
 0.1816393954777E+01
 0.2010861405542E+01
 0.2212893696063E+01
 0.2414690262542E+01
 0.2608240170683E+01
 0.1093420144775E+01
 0.1121780025566E+01
 0.1149797188298E+01
 0.1176768640345E+01
 0.1201999186734E+01
 0.1224834047956E+01
 0.1244690916492E+01
 0.1261085506568E+01
 0.1273646383362E+01
 0.1282118323735E+01
 0.1286356133384E+01
 0.1286312335354E+01
 0.1282022657953E+01
 0.1273592802620E+01
 0.1261189116080E+01
 0.1245034761095E+01
 0.1225411951235E+01
 0.1202670874307E+01
 0.1177243477580E+01
 0.1149662452318E+01
 0.1120584594191E+01
 0.1090816182627E+01
 0.1061341414061E+01
 0.1033352448205E+01
 0.1008279666532E+01
 0.9878324650568E+00
 0.9740485751068E+00
 0.9693332288002E+00
 0.9764634249937E+00
 0.9985173747845E+00
 0.1038681513090E+01
 0.1099909980096E+01
 0.1184470389580E+01
 0.1293479351477E+01
 0.1426551725341E+01
 0.1581616516820E+01
 0.1754904847305E+01
 0.1941123816560E+01
 0.2133793811246E+01
 0.2325725322357E+01
 0.2509563463399E+01
 0.1014790439505E+01
 0.1040189113279E+01
 0.1065241343339E+01
 0.1089397395495E+01
 0.1112096650507E+01
 0.1132786653158E+01
 0.1150948562789E+01
 0.1166123224910E+01
 0.1177932094947E+01
 0.1186089801712E+01
 0.1190407862485E+01
 0.1190791195827E+01
 0.1187230397521E+01
 0.1179792992858E+01
 0.1168616472630E+01
 0.1153905104550E+01
 0.1135931526534E+01
 0.1115044063289E+01
 0.1091678334369E+01
 0.1066373586323E+01
 0.1039793088685E+01
 0.1012746494349E+01
 0.9862152391400E+00
 0.9613791356236E+00
 0.9396409569501E+00
 0.9226642644975E+00
 0.9124230153629E+00
 0.9112358882220E+00
 0.9217580275983E+00
 0.9468922233588E+00
 0.9895800739117E+00
 0.1052462483574E+01
 0.1137455903990E+01
 0.1245348490457E+01
 0.1375521115406E+01
 0.1525819930464E+01
 0.1692576475977E+01
 0.1870786206654E+01
 0.2054420343206E+01
 0.2236850132022E+01
 0.2411315157883E+01
 0.9361858735341E+00
 0.9586630750142E+00
 0.9807933407061E+00
 0.1002179760749E+01
 0.1022394658397E+01
 0.1040985818783E+01
 0.1057496102765E+01
 0.1071490588747E+01
 0.1082583798593E+01
 0.1090461347868E+01
 0.1094893226176E+01
 0.1095738716242E+01
 0.1092945061356E+01
 0.1086542887925E+01
 0.1076641391220E+01
 0.1063425662793E+01
 0.1047157584867E+01
 0.1028181527173E+01
 0.1006933800805E+01
 0.9839563946788E+00
 0.9599145110289E+00
 0.9356160867353E+00
 0.9120344400698E+00
 0.8903318254798E+00
 0.8718789009754E+00
 0.8582900650500E+00
 0.8514735445163E+00
 0.8536608834409E+00
 0.8673862536490E+00
 0.8953802502196E+00
 0.9403476216343E+00
 0.1004632163721E+01
 0.1089825107885E+01
 0.1196419029728E+01
 0.1323593280107E+01
 0.1469134542484E+01
 0.1629482491143E+01
 0.1799910021270E+01
 0.1974810060886E+01
 0.2148070257146E+01
 0.2313470441973E+01
 0.8575839436547E+00
 0.8771684502455E+00
 0.8964102190845E+00
 0.9150660601461E+00
 0.9328403304261E+00
 0.9493789818724E+00
 0.9642842109502E+00
 0.9771434541209E+00
 0.9875633865513E+00
 0.9952007539827E+00
 0.9997850085615E+00
 0.1001131254208E+01
 0.9991448870148E+00
 0.9938208216617E+00
 0.9852405544109E+00
 0.9735698321918E+00
 0.9590587560132E+00
 0.9420458259973E+00
 0.9229652578714E+00
 0.9023581851136E+00
 0.8808874520768E+00
 0.8593544998282E+00
 0.8387195745359E+00
 0.8201226947941E+00
 0.8048985838482E+00
 0.7946099954393E+00
 0.7910984550594E+00
 0.7965088457457E+00
 0.8132562697229E+00
 0.8439032184841E+00
 0.8909260539644E+00
 0.9563871749365E+00
 0.1041576532788E+01
 0.1146720087600E+01
 0.1270822900637E+01
 0.1411630425518E+01
 0.1565694767152E+01
 0.1728554922630E+01
 0.1894999392602E+01
 0.2059393554298E+01
 0.2216009964798E+01
 0.7789618492058E+00
 0.7956713684405E+00
 0.8120487341922E+00
 0.8280066485256E+00
 0.8433811943215E+00
 0.8579142899002E+00
 0.8712644026277E+00
 0.8830384421906E+00
 0.8928332612524E+00
 0.9002759520858E+00
 0.9050557252445E+00
 0.9069445201633E+00
 0.9058071686407E+00
 0.9016040051687E+00
 0.8943894797182E+00
 0.8843099492749E+00
 0.8716028673856E+00
 0.8565991282682E+00
 0.8397282566469E+00
 0.8215271401043E+00
 0.8026522101466E+00
 0.7838939185922E+00
 0.7661948569692E+00
 0.7506686306728E+00
 0.7386108677031E+00
 0.7315310215525E+00
 0.7312039087416E+00
 0.7396892308303E+00
 0.7592858365326E+00
 0.7923928842912E+00
 0.8412670518292E+00
 0.9077044319926E+00
 0.9927156027445E+00
 0.1096285215161E+01
 0.1217266548426E+01
 0.1353377495578E+01
 0.1501283899902E+01
 0.1656779284310E+01
 0.1815024592803E+01
 0.1970829834958E+01
 0.2118919007746E+01
 0.7002963607720E+00
 0.7141373802032E+00
 0.7276652699382E+00
 0.7409520170698E+00
 0.7539655550180E+00
 0.7665412422202E+00
 0.7783899035337E+00
 0.7891339661433E+00
 0.7983574456253E+00
 0.8056561481215E+00
 0.8106787410082E+00
 0.8131546603124E+00
 0.8129093027512E+00
 0.8098695439023E+00
 0.8040635218199E+00
 0.7956182923322E+00
 0.7847579556340E+00
 0.7718042357222E+00
 0.7571795484456E+00
 0.7414133306229E+00
 0.7251517505487E+00
 0.7091700247269E+00
 0.6943888380801E+00
 0.6818916724324E+00
 0.6729325463181E+00
 0.6689667946279E+00
 0.6717034962425E+00
 0.6831196354583E+00
 0.7054014337406E+00
 0.7407899726232E+00
 0.7913309550127E+00
 0.8585684757492E+00
 0.9432536398716E+00
 0.1045151717749E+01
 0.1162982449814E+01
 0.1294445721982E+01
 0.1436319696503E+01
 0.1584640648224E+01
 0.1734921828132E+01
 0.1882390413292E+01
 0.2022186572332E+01
 0.6215636943602E+00
 0.6325313529387E+00
 0.6432159436115E+00
 0.6538532688630E+00
 0.6645434115253E+00
 0.6752120160213E+00
 0.6856172801145E+00
 0.6953920358927E+00
 0.7041034464475E+00
 0.7113136624777E+00
 0.7166300437453E+00
 0.7197399514524E+00
 0.7204304129661E+00
 0.7185960133035E+00
 0.7142394242772E+00
 0.7074686324117E+00
 0.6984938328789E+00
 0.6876261687597E+00
 0.6752786767647E+00
 0.6619702811105E+00
 0.6483331869622E+00
 0.6351233164911E+00
 0.6232354728249E+00
 0.6137197431972E+00
 0.6077866868027E+00
 0.6068376026396E+00
 0.6125178552415E+00
 0.6267251734787E+00
 0.6515374792712E+00
 0.6890432944924E+00
 0.7410858180451E+00
 0.8089705391798E+00
 0.8932070666077E+00
 0.9933601468836E+00
 0.1108030384660E+01
 0.1234905446905E+01
 0.1370871776148E+01
 0.1512196299014E+01
 0.1654727349375E+01
 0.1794087695374E+01
 0.1925804533625E+01
 0.5427393949689E+00
 0.5508174960098E+00
 0.5586571068940E+00
 0.5666633528141E+00
 0.5750684974384E+00
 0.5838841964737E+00
 0.5929096260197E+00
 0.6017816479040E+00
 0.6100456444171E+00
 0.6172271945477E+00
 0.6228913304523E+00
 0.6266837086906E+00
 0.6283541117877E+00
 0.6277661216590E+00
 0.6248979326354E+00
 0.6198388389380E+00
 0.6127847129352E+00
 0.6040348201898E+00
 0.5939906372159E+00
 0.5831575797326E+00
 0.5721502487535E+00
 0.5617013073427E+00
 0.5526759098709E+00
 0.5460879080751E+00
 0.5431032957424E+00
 0.5450704784992E+00
 0.5535743477564E+00
 0.5704378931501E+00
 0.5976356281491E+00
 0.6371089979801E+00
 0.6905066390110E+00
 0.7589077977511E+00
 0.8425967763047E+00
 0.9409539239512E+00
 0.1052471675521E+01
 0.1174827776371E+01
 0.1305010264219E+01
 0.1439503963844E+01
 0.1574477753704E+01
 0.1705934757527E+01
 0.1829766801356E+01
 0.4637982412709E+00
 0.4689596814256E+00
 0.4739467482729E+00
 0.4793400272773E+00
 0.4855028859087E+00
 0.4925267067590E+00
 0.5002432816280E+00
 0.5082857535748E+00
 0.5161721071666E+00
 0.5233882549490E+00
 0.5294559867295E+00
 0.5339798433540E+00
 0.5366737232195E+00
 0.5373717037794E+00
 0.5360286626902E+00
 0.5327157081937E+00
 0.5276140558898E+00
 0.5210098304479E+00
 0.5132907445196E+00
 0.5049456344626E+00
 0.4965677563415E+00
 0.4888624960649E+00
 0.4826617143619E+00
 0.4789406545345E+00
 0.4788205876505E+00
 0.4835995651627E+00
 0.4948067892595E+00
 0.5141961920666E+00
 0.5436441146341E+00
 0.5849499326938E+00
 0.6395747443043E+00
 0.7083827766815E+00
 0.7914476279574E+00
 0.8879790354025E+00
 0.9963691940014E+00
 0.1114284963250E+01
 0.1238806516031E+01
 0.1366622614248E+01
 0.1494210321266E+01
 0.1617944828829E+01
 0.1734068326964E+01
 0.3847142154509E+00
 0.3869225439136E+00
 0.3890482438140E+00
 0.3918533363311E+00
 0.3958282980007E+00
 0.4011340967686E+00
 0.4076237484560E+00
 0.4149174843269E+00
 0.4225001894361E+00
 0.4298156624644E+00
 0.4363423710511E+00
 0.4416450555473E+00
 0.4454036151465E+00
 0.4474244542749E+00
 0.4476404769843E+00
 0.4461051775269E+00
 0.4429847449539E+00
 0.4385507610762E+00
 0.4331747232558E+00
 0.4273254702461E+00
 0.4215707808258E+00
 0.4165844448004E+00
 0.4131614045410E+00
 0.4122365486836E+00
 0.4148876957711E+00
 0.4223671730015E+00
 0.4361554297662E+00
 0.4579443545897E+00
 0.4895172781256E+00
 0.5325352994237E+00
 0.5882775111530E+00
 0.6574030863879E+00
 0.7397882201368E+00
 0.8344839438505E+00
 0.9397875243481E+00
 0.1053350924829E+01
 0.1172334047946E+01
 0.1293613644286E+01
 0.1413963787235E+01
 0.1530130974353E+01
 0.1638704218924E+01
 0.3054606753473E+00
 0.3046748728484E+00
 0.3039411176750E+00
 0.3042067459689E+00
 0.3060778644919E+00
 0.3097663547977E+00
 0.3151295116950E+00
 0.3217641523815E+00
 0.3291180988618E+00
 0.3365934532467E+00
 0.3436279081636E+00
 0.3497495684817E+00
 0.3546072902658E+00
 0.3579821268814E+00
 0.3597864604054E+00
 0.3600565975375E+00
 0.3589429849795E+00
 0.3567007171146E+00
 0.3536818764804E+00
 0.3503309607463E+00
 0.3471851632534E+00
 0.3448816147977E+00
 0.3441746506270E+00
 0.3459581781858E+00
 0.3512703934083E+00
 0.3613260877446E+00
 0.3775671896781E+00
 0.4016320501577E+00
 0.4352151475999E+00
 0.4798405219096E+00
 0.5366083798958E+00
 0.6059814116549E+00
 0.6876508275367E+00
 0.7805195578203E+00
 0.8827930858948E+00
 0.9921016411067E+00
 0.1105669383855E+01
 0.1220542199571E+01
 0.1333779430261E+01
 0.1442505720248E+01
 0.1543668490127E+01
 0.2260112805280E+00
 0.2222014280917E+00
 0.2186582646858E+00
 0.2165110646239E+00
 0.2164479806390E+00
 0.2186888472483E+00
 0.2230644134117E+00
 0.2291375001041E+00
 0.2363236142452E+00
 0.2439942202153E+00
 0.2515571609512E+00
 0.2585121096348E+00
 0.2644821409361E+00
 0.2692258433408E+00
 0.2726361241826E+00
 0.2747315875070E+00
 0.2756449066805E+00
 0.2756110696746E+00
 0.2749574982066E+00
 0.2740976769694E+00
 0.2735308214870E+00
 0.2738507603863E+00
 0.2757676079932E+00
 0.2801363192865E+00
 0.2879647418038E+00
 0.3004451820880E+00
 0.3189967223902E+00
 0.3452139532489E+00
 0.3807033222389E+00
 0.4268477006134E+00
 0.4845675392823E+00
 0.5541360928598E+00
 0.6350717802874E+00
 0.7261395008715E+00
 0.8254544372841E+00
 0.9306156208385E+00
 0.1038892958879E+01
 0.1147478934541E+01
 0.1253703094481E+01
 0.1355081207212E+01
 0.1448952675819E+01
 0.1463446626817E+00
 0.1395585124040E+00
 0.1334688805067E+00
 0.1293619468858E+00
 0.1278812178279E+00
 0.1291015493622E+00
 0.1327376169482E+00
 0.1383191731098E+00
 0.1452855670779E+00
 0.1530420111194E+00
 0.1610134730295E+00
 0.1686968487602E+00
 0.1756995521886E+00
 0.1817589363262E+00
 0.1867451421484E+00
 0.1906533227588E+00
 0.1935907610730E+00
 0.1957627695926E+00
 0.1974604890262E+00
 0.1990532123025E+00
 0.2009890992385E+00
 0.2038089049100E+00
 0.2081765305408E+00
 0.2149180177678E+00
 0.2250338987544E+00
 0.2397239985855E+00
 0.2604094140318E+00
 0.2886494427777E+00
 0.3259532897446E+00
 0.3735470411923E+00
 0.4321636903999E+00
 0.5018925876959E+00
 0.5820924429501E+00
 0.6714007382619E+00
 0.7678427711497E+00
 0.8689743711314E+00
 0.9720898243526E+00
 0.1074501956013E+01
 0.1173788499176E+01
 0.1267870312924E+01
 0.1354544036745E+01
 0.6648476260802E-01
 0.5741815631891E-01
 0.5093343346636E-01
 0.4842781965102E-01
 0.4922558807247E-01
 0.5177934977588E-01
 0.5516322147494E-01
 0.5927682603173E-01
 0.6433249367922E-01
 0.7039710187443E-01
 0.7725088267569E-01
 0.8448733020419E-01
 0.9167267573195E-01
 0.9845606817697E-01
 0.1046156713300E+00
 0.1100633498745E+00
 0.1148303202633E+00
 0.1190473349334E+00
 0.1229276305564E+00
 0.1267582499683E+00
 0.1309059184158E+00
 0.1358434020450E+00
 0.1421981948295E+00
 0.1508076044683E+00
 0.1627295908770E+00
 0.1792373498037E+00
 0.2017901378344E+00
 0.2319023470293E+00
 0.2709436270734E+00
 0.3199402407104E+00
 0.3794178002167E+00
 0.4492864183054E+00
 0.5287611200235E+00
 0.6163646904188E+00
 0.7100326411187E+00
 0.8072628827903E+00
 0.9053498185171E+00
 0.1001698296266E+01
 0.1094102230398E+01
 0.1180889938895E+01
 0.1260422792451E+01
 0.1484090272595E-01
 0.3212591001592E-01
 0.4907582199647E-01
 0.6321856907893E-01
 0.7308956782394E-01
 0.7820171367373E-01
 0.7888767767595E-01
 0.7603346571422E-01
 0.7081031676545E-01
 0.6446977316523E-01
 0.5820852303465E-01
 0.5306185752864E-01
 0.4976840654820E-01
 0.4861502238614E-01
 0.4939945581001E-01
 0.5161255411591E-01
 0.5470746765641E-01
 0.5826941816511E-01
 0.6206264490645E-01
 0.6602731999787E-01
 0.7028683624654E-01
 0.7519114494100E-01
 0.8139173631825E-01
 0.8990292620570E-01
 0.1020499419142E+00
 0.1193156998456E+00
 0.1431746491999E+00
 0.1749410902529E+00
 0.2156638858820E+00
 0.2660488333960E+00
 0.3263713468410E+00
 0.3963692497314E+00
 0.4751369132194E+00
 0.5610994842967E+00
 0.6521033739928E+00
 0.7455707267651E+00
 0.8387674809980E+00
 0.9291639191238E+00
 0.1014730989725E+01
 0.1094170033785E+01
 0.1166558199249E+01
 0.9470813092741E-01
 0.1136737577794E+00
 0.1325460144410E+00
 0.1484507408065E+00
 0.1595415674188E+00
 0.1651389827154E+00
 0.1655183457862E+00
 0.1615555158267E+00
 0.1543860979452E+00
 0.1451560088794E+00
 0.1348758143343E+00
 0.1243568457654E+00
 0.1141983264695E+00
 0.1047995285194E+00
 0.9637989266243E-01
 0.8899863813468E-01
 0.8257244553941E-01
 0.7689513860253E-01
 0.7166586585311E-01
 0.6653652194042E-01
 0.6119776400262E-01
 0.5555308665279E-01
 0.5010528961541E-01
 0.4673924596040E-01
 0.4934396562260E-01
 0.6176339819326E-01
 0.8481214019511E-01
 0.1177397226060E+00
 0.1601269566796E+00
 0.2119357679207E+00
 0.2731046630754E+00
 0.3432210286517E+00
 0.4212968396630E+00
 0.5056838610504E+00
 0.5941410875992E+00
 0.6839937837316E+00
 0.7724422455573E+00
 0.8569991576930E+00
 0.9357883774637E+00
 0.1007775227443E+01
 0.1072902631108E+01
 0.1756359589767E+00
 0.1981228129517E+00
 0.2201114317630E+00
 0.2385073248108E+00
 0.2513240692979E+00
 0.2578754675527E+00
 0.2585312944077E+00
 0.2542984854926E+00
 0.2464297291737E+00
 0.2361504756227E+00
 0.2245106295560E+00
 0.2123283903130E+00
 0.2001879394621E+00
 0.1884616000212E+00
 0.1773384965700E+00
 0.1668507056325E+00
 0.1568937392337E+00
 0.1472419484096E+00
 0.1375601451307E+00
 0.1274147737379E+00
 0.1162870895239E+00
 0.1035914813876E+00
 0.8870916350728E-01
 0.7108509695484E-01
 0.5061891651384E-01
 0.2998327584676E-01
 0.2932366747257E-01
 0.6028667622231E-01
 0.1044223153021E+00
 0.1577725731145E+00
 0.2197829260926E+00
 0.2899763747435E+00
 0.3673499905642E+00
 0.4502146197412E+00
 0.5362425458717E+00
 0.6226363044257E+00
 0.7064829229387E+00
 0.7852978710141E+00
 0.8574087427294E+00
 0.9218593596182E+00
 0.9793774573058E+00
 0.2570318652746E+00
 0.2834895010547E+00
 0.3090257694051E+00
 0.3302031889063E+00
 0.3448859092888E+00
 0.3524295301426E+00
 0.3533597768584E+00
 0.3488657688529E+00
 0.3403519336729E+00
 0.3291452250005E+00
 0.3163508277562E+00
 0.3028092755235E+00
 0.2891077290088E+00
 0.2756125942694E+00
 0.2625052237510E+00
 0.2498125181428E+00
 0.2374301008195E+00
 0.2251391811783E+00
 0.2126182961184E+00
 0.1994530622799E+00
 0.1851453576757E+00
 0.1691216268253E+00
 0.1507398649158E+00
 0.1293034524797E+00
 0.1041124247396E+00
 0.7447180185195E-01
 0.3966276521962E-01
 0.3593875590179E-02
 0.4913523182290E-01
 0.1041164238900E+00
 0.1667905191398E+00
 0.2368870110810E+00
 0.3134670767449E+00
 0.3948205314302E+00
 0.4785230079343E+00
 0.5616129237733E+00
 0.6410140827024E+00
 0.7141548960990E+00
 0.7796646819004E+00
 0.8368006856615E+00
 0.8858921204736E+00
 0.3389200966464E+00
 0.3696859650731E+00
 0.3990510420489E+00
 0.4231554054561E+00
 0.4397101248240E+00
 0.4481588325479E+00
 0.4492404427902E+00
 0.4443699111623E+00
 0.4351272194719E+00
 0.4229493627830E+00
 0.4089972481638E+00
 0.3941316405858E+00
 0.3789410396009E+00
 0.3637858028152E+00
 0.3488407991383E+00
 0.3341298818111E+00
 0.3195511635907E+00
 0.3048951803898E+00
 0.2898575524736E+00
 0.2740497743062E+00
 0.2570097942496E+00
 0.2382119261016E+00
 0.2170753992538E+00
 0.1929799215350E+00
 0.1653225841119E+00
 0.1335328067522E+00
 0.9705986313699E-01
 0.5568727591320E-01
 0.1707581464036E-01
 0.5382647374104E-01
 0.1152274755510E+00
 0.1844902683295E+00
 0.2599463848989E+00
 0.3396913233174E+00
 0.4211270696094E+00
 0.5010631016299E+00
 0.5761560412387E+00
 0.6437420383054E+00
 0.7024249185066E+00
 0.7530912971725E+00
 0.7929467825256E+00
 0.4213545558869E+00
 0.4567784626997E+00
 0.4902319000770E+00
 0.5173623060364E+00
 0.5357369359698E+00
 0.5449472172565E+00
 0.5460108208179E+00
 0.5406132872886E+00
 0.5305301058497E+00
 0.5173111375944E+00
 0.5021678342173E+00
 0.4859741818976E+00
 0.4693141007385E+00
 0.4525378968904E+00
 0.4358116728759E+00
 0.4191551002318E+00
 0.4024681514771E+00
 0.3855499831083E+00
 0.3681120969131E+00
 0.3497900034814E+00
 0.3301553964148E+00
 0.3087283032285E+00
 0.2849881821290E+00
 0.2583919997276E+00
 0.2284352090343E+00
 0.1946659782473E+00
 0.1566595266327E+00
 0.1141917679617E+00
 0.6840020659386E-01
 0.3472577097638E-01
 0.6938958702422E-01
 0.1340323454225E+00
 0.2072464350624E+00
 0.2849952620456E+00
 0.3641047632170E+00
 0.4409843207979E+00
 0.5119096379719E+00
 0.5739004957874E+00
 0.6259236610871E+00
 0.6685729661412E+00
 0.7067703732033E+00
 0.5043995535595E+00
 0.5448662748419E+00
 0.5826695548224E+00
 0.6128922550784E+00
 0.6329826591923E+00
 0.6427596621053E+00
 0.6435974416786E+00
 0.6374989951875E+00
 0.6264513449057E+00
 0.6121145707210E+00
 0.5957408945847E+00
 0.5782073460204E+00
 0.5600853098483E+00
 0.5417096938881E+00
 0.5232346039654E+00
 0.5046737121950E+00
 0.4859277656198E+00
 0.4668035795864E+00
 0.4470271647892E+00
 0.4262558347344E+00
 0.4040917292260E+00
 0.3800962059188E+00
 0.3538035775519E+00
 0.3247412030444E+00
 0.2924917772314E+00
 0.2566995528507E+00
 0.2170172520355E+00
 0.1731853109381E+00
 0.1254949918560E+00
 0.7714395151776E-01
 0.5124273000121E-01
 0.8995956492056E-01
 0.1567565042769E+00
 0.2313253620350E+00
 0.3077763271368E+00
 0.3816122134066E+00
 0.4484593794922E+00
 0.5049062233361E+00
 0.5497731748449E+00
 0.5851853478517E+00
 0.6152716122975E+00
 0.5881285151576E+00
 0.6340657695474E+00
 0.6764849493822E+00
 0.7098265402501E+00
 0.7314658299271E+00
 0.7415552045761E+00
 0.7419174332647E+00
 0.7349208599864E+00
 0.7227743352116E+00
 0.7072390040146E+00
 0.6895933984771E+00
 0.6707047559522E+00
 0.6511226985446E+00
 0.6311608650347E+00
 0.6109579602419E+00
 0.5905198297489E+00
 0.5697470090798E+00
 0.5484532141001E+00
 0.5263778879162E+00
 0.5031982726504E+00
 0.4785439733153E+00
 0.4520136180044E+00
 0.4231916236258E+00
 0.3916706770511E+00
 0.3571149396551E+00
 0.3192569887268E+00
 0.2778188413124E+00
 0.2325338760350E+00
 0.1833872007452E+00
 0.1314689363297E+00
 0.8297860197463E-01
 0.6793263541104E-01
 0.1123963581300E+00
 0.1800847806693E+00
 0.2528570951700E+00
 0.3234442230866E+00
 0.3862757869751E+00
 0.4371188999502E+00
 0.4746243202439E+00
 0.5016761032928E+00
 0.5227954596924E+00
 0.6726304793827E+00
 0.7245302628053E+00
 0.7718463553688E+00
 0.8082935448204E+00
 0.8312500528058E+00
 0.8413412320839E+00
 0.8409457761773E+00
 0.8328434724447E+00
 0.8194667117124E+00
 0.8026606079661E+00
 0.7837106248181E+00
 0.7634590500122E+00
 0.7424237145040E+00
 0.7208910174518E+00
 0.6989810145585E+00
 0.6766901240095E+00
 0.6539179342170E+00
 0.6304845885569E+00
 0.6061422133766E+00
 0.5805864418707E+00
 0.5534716529866E+00
 0.5244299454292E+00
 0.4930915608590E+00
 0.4591107200160E+00
 0.4222303951435E+00
 0.3822701685109E+00
 0.3390236808557E+00
 0.2922412828800E+00
 0.2417702686413E+00
 0.1879856576938E+00
 0.1331737162729E+00
 0.8759935485479E-01
 0.8518461141797E-01
 0.1343580681715E+00
 0.2004641265896E+00
 0.2670342848851E+00
 0.3257353587069E+00
 0.3708957514048E+00
 0.4005799412510E+00
 0.4181269477445E+00
 0.4300154675652E+00
 0.7580119376423E+00
 0.8164439568632E+00
 0.8689513440875E+00
 0.9084354576158E+00
 0.9323971966231E+00
 0.9421168942563E+00
 0.9406513164369E+00
 0.9312313506501E+00
 0.9165022794067E+00
 0.8983666095493E+00
 0.8780923869532E+00
 0.8564799526568E+00
 0.8340050325828E+00
 0.8109211130029E+00
 0.7873267789239E+00
 0.7632078161757E+00
 0.7384624771057E+00
 0.7129171905590E+00
 0.6863363543075E+00
 0.6584327604005E+00
 0.6288830442940E+00
 0.5973489556379E+00
 0.5635022123784E+00
 0.5270550883313E+00
 0.4878279954231E+00
 0.4457288043737E+00
 0.4006281182729E+00
 0.3523115701396E+00
 0.3005647721038E+00
 0.2454371437523E+00
 0.1878989599456E+00
 0.1319264671984E+00
 0.9255618622725E-01
 0.1022328028984E+00
 0.1531425073776E+00
 0.2134208524944E+00
 0.2674548068481E+00
 0.3067254772426E+00
 0.3279577991891E+00
 0.3349183976872E+00
 0.3368697849155E+00
 0.8444021994489E+00
 0.9100295578383E+00
 0.9680293913260E+00
 0.1010402692855E+01
 0.1034956891582E+01
 0.1043862517348E+01
 0.1040988355358E+01
 0.1030042440490E+01
 0.1013855312786E+01
 0.9943494847828E+00
 0.9727466133688E+00
 0.9497869852148E+00
 0.9258942248802E+00
 0.9012839270453E+00
 0.8760310457790E+00
 0.8501100515078E+00
 0.8234178778885E+00
 0.7957874558023E+00
 0.7669954019489E+00
 0.7367707590623E+00
 0.7048100436533E+00
 0.6708006384730E+00
 0.6344509047106E+00
 0.5955273024031E+00
 0.5539265247080E+00
 0.5096469570131E+00
 0.4626423486892E+00
 0.4127483092433E+00
 0.3597319202039E+00
 0.3034747232757E+00
 0.2443598952268E+00
 0.1842012547267E+00
 0.1291675757592E+00
 0.9854953149555E-01
 0.1171439189983E+00
 0.1648424000266E+00
 0.2125443910529E+00
 0.2454052099707E+00
 0.2574130916857E+00
 0.2524267533690E+00
 0.2432025558041E+00
 0.9319611826598E+00
 0.1005559124149E+01
 0.1069345814997E+01
 0.1114347201074E+01
 0.1138955042617E+01
 0.1146529914635E+01
 0.1141890865704E+01
 0.1129225096098E+01
 0.1111498597751E+01
 0.1090604999880E+01
 0.1067686947361E+01
 0.1043406492357E+01
 0.1018126182318E+01
 0.9920198423604E+00
 0.9651375084659E+00
 0.9374422698424E+00
 0.9088301968381E+00
 0.8791413078955E+00
 0.8481647739631E+00
 0.8156453700607E+00
 0.7812973205035E+00
 0.7448293627422E+00
 0.7059808844016E+00
 0.6645677319218E+00
 0.6205611921580E+00
 0.5740524185380E+00
 0.5250844787282E+00
 0.4735554137258E+00
 0.4192428613002E+00
 0.3619421979171E+00
 0.3017306919516E+00
 0.2394795641678E+00
 0.1781037269333E+00
 0.1262010566361E+00
 0.1048914980195E+00
 0.1265600801551E+00
 0.1633043823367E+00
 0.1884335924420E+00
 0.1901812951980E+00
 0.1713832282047E+00
 0.1489250520509E+00
 0.1020890768018E+01
 0.1103369138718E+01
 0.1173205932827E+01
 0.1220412235728E+01
 0.1244379301900E+01
 0.1250032390246E+01
 0.1243268385349E+01
 0.1228717329281E+01
 0.1209403637916E+01
 0.1187132223339E+01
 0.1162932235300E+01
 0.1137370593182E+01
 0.1110741591419E+01
 0.1083174908763E+01
 0.1054695432371E+01
 0.1025255485172E+01
 0.9947511689757E+00
 0.9630305291384E+00
 0.9298960347250E+00
 0.8951081647106E+00
 0.8583970324421E+00
 0.8194882515998E+00
 0.7781456360058E+00
 0.7342282053870E+00
 0.6877789815064E+00
 0.6389834609763E+00
 0.5879795995086E+00
 0.5347386781257E+00
 0.4790712981127E+00
 0.4207386512673E+00
 0.3596509826142E+00
 0.2961938024229E+00
 0.2318789793665E+00
 0.1708710338591E+00
 0.1238229232380E+00
 0.1093050791701E+00
 0.1249917547547E+00
 0.1390664652273E+00
 0.1291944722596E+00
 0.9451132553729E-01
 0.5527163741170E-01
 0.1111451662594E+01
 0.1203881373716E+01
 0.1279957981951E+01
 0.1328715631273E+01
 0.1351159869840E+01
 0.1354234301391E+01
 0.1345003749824E+01
 0.1328448108117E+01
 0.1307542435904E+01
 0.1283934720544E+01
 0.1258507002654E+01
 0.1231717060339E+01
 0.1203786362536E+01
 0.1174799933534E+01
 0.1144758479484E+01
 0.1113604879171E+01
 0.1081236566569E+01
 0.1047510856237E+01
 0.1012244662170E+01
 0.9752147466850E+00
 0.9361658954351E+00
 0.8948361291498E+00
 0.8510060192932E+00
 0.8045696814369E+00
 0.7556371822169E+00
 0.7044885340799E+00
 0.6513608944294E+00
 0.5963079603222E+00
 0.5391921488342E+00
 0.4797798998536E+00
 0.4179006478008E+00
 0.3536713242345E+00
 0.2878831183768E+00
 0.2227589014898E+00
 0.1637067144275E+00
 0.1220471592426E+00
 0.1079985806343E+00
 0.1050062099927E+00
 0.8380245443626E-01
 0.4562027619385E-01
 0.5067013387945E-01
 0.1203989065953E+01
 0.1307631841379E+01
 0.1389992061650E+01
 0.1439322357683E+01
 0.1459144246915E+01
 0.1458941017586E+01
 0.1446953543708E+01
 0.1428340889161E+01
 0.1405890606156E+01
 0.1381022545248E+01
 0.1354442485004E+01
 0.1326489662792E+01
 0.1297311509499E+01
 0.1266950055490E+01
 0.1235384077697E+01
 0.1202549023771E+01
 0.1168345294828E+01
 0.1132640923478E+01
 0.1095268763354E+01
 0.1056023154968E+01
 0.1014663285271E+01
 0.9709355272919E+00
 0.9246285573726E+00
 0.8756612266059E+00
 0.8242033779544E+00
 0.7706274294535E+00
 0.7152719232247E+00
 0.6582800768527E+00
 0.5995826627880E+00
 0.5389855174423E+00
 0.4763032607058E+00
 0.4115166943263E+00
 0.3450089460170E+00
 0.2779808606090E+00
 0.2134066300886E+00
 0.1578136162838E+00
 0.1203981523736E+00
 0.9903152626754E-01
 0.7809234478831E-01
 0.9104556047265E-01
 0.1481817606931E+00
 0.1298972864933E+01
 0.1415311004269E+01
 0.1503729586630E+01
 0.1552200004362E+01
 0.1568065233093E+01
 0.1563891460998E+01
 0.1548952727895E+01
 0.1528319665225E+01
 0.1504431660673E+01
 0.1478414802886E+01
 0.1450777987065E+01
 0.1421738747442E+01
 0.1391373253195E+01
 0.1359684563136E+01
 0.1326633073908E+01
 0.1292149442833E+01
 0.1256138897380E+01
 0.1218481695429E+01
 0.1179028341098E+01
 0.1137592816360E+01
 0.1093949809759E+01
 0.1047851072902E+01
 0.9990841078677E+00
 0.9475795207066E+00
 0.8935561997954E+00
 0.8374734084055E+00
 0.7797698906739E+00
 0.7206825743375E+00
 0.6602251278616E+00
 0.5982749072202E+00
 0.5346908556739E+00
 0.4694204098175E+00
 0.4026270701915E+00
 0.3348977863948E+00
 0.2678208337161E+00
 0.2053763758962E+00
 0.1549545384228E+00
 0.1222555009367E+00
 0.1121145299228E+00
 0.1632578945024E+00
 0.2512461991953E+00
 0.1397062666867E+01
 0.1527819249940E+01
 0.1621592026749E+01
 0.1667147836828E+01
 0.1677503396580E+01
 0.1668757390501E+01
 0.1650825190876E+01
 0.1628317571691E+01
 0.1603162212426E+01
 0.1576142562757E+01
 0.1547562372594E+01
 0.1517521883793E+01
 0.1486033184553E+01
 0.1453066792412E+01
 0.1418569498743E+01
 0.1382470327775E+01
 0.1344681272695E+01
 0.1305096183390E+01
 0.1263584905687E+01
 0.1219983822174E+01
 0.1174086051251E+01
 0.1125647834589E+01
 0.1074446403600E+01
 0.1020408382578E+01
 0.9637864543235E+00
 0.9051160856199E+00
 0.8449298838572E+00
 0.7835585065678E+00
 0.7211109381586E+00
 0.6575676729385E+00
 0.5928899772840E+00
 0.5270866805415E+00
 0.4602516391223E+00
 0.3926076771520E+00
 0.3248109815989E+00
 0.2590544727318E+00
 0.2010974262440E+00
 0.1609752968935E+00
 0.1576376746926E+00
 0.2358685202929E+00
 0.3590709196311E+00
 0.1499217030181E+01
 0.1646341554868E+01
 0.1743926041490E+01
 0.1783686684553E+01
 0.1786850133361E+01
 0.1773156320673E+01
 0.1752401636353E+01
 0.1728287606760E+01
 0.1702097773808E+01
 0.1674251915288E+01
 0.1644855531452E+01
 0.1613904463522E+01
 0.1581358401558E+01
 0.1547164027909E+01
 0.1511260368167E+01
 0.1473578328360E+01
 0.1434038518096E+01
 0.1392549369347E+01
 0.1349001384718E+01
 0.1303256503869E+01
 0.1255131394944E+01
 0.1204389389209E+01
 0.1150790080143E+01
 0.1094237934933E+01
 0.1034998410333E+01
 0.9736650730866E+00
 0.9108502360596E+00
 0.8469724187674E+00
 0.7822460352051E+00
 0.7167867590743E+00
 0.6507172718227E+00
 0.5842027124363E+00
 0.5174109898847E+00
 0.4504137751441E+00
 0.3832471842075E+00
 0.3166114405943E+00
 0.2540506711061E+00
 0.2066552086223E+00
 0.2032652909897E+00
 0.3044523205882E+00
 0.4729427043964E+00
 0.1606885071084E+01
 0.1772441088048E+01
 0.1870838014070E+01
 0.1900895737753E+01
 0.1895288380468E+01
 0.1876687476423E+01
 0.1853544388017E+01
 0.1828214395938E+01
 0.1801278803495E+01
 0.1772806914436E+01
 0.1742729656265E+01
 0.1710960152203E+01
 0.1677421541808E+01
 0.1642047341818E+01
 0.1604775459558E+01
 0.1565542353827E+01
 0.1524278831394E+01
 0.1480908274508E+01
 0.1435342318731E+01
 0.1387471370303E+01
 0.1337142975320E+01
 0.1284135420598E+01
 0.1228187750315E+01
 0.1169162942202E+01
 0.1107311028514E+01
 0.1043254481961E+01
 0.9776592675895E+00
 0.9110177514406E+00
 0.8436577556460E+00
 0.7758637535561E+00
 0.7079806795115E+00
 0.6404263827078E+00
 0.5735907021969E+00
 0.5076118411942E+00
 0.4422269884708E+00
 0.3770013285989E+00
 0.3126767901627E+00
 0.2576865620484E+00
 0.2466639591959E+00
 0.3659071735699E+00
 0.5948088357331E+00
 0.1722360340333E+01
 0.1908152270663E+01
 0.2001840993104E+01
 0.2017193305365E+01
 0.2001829772954E+01
 0.1978998644380E+01
 0.1954174698863E+01
 0.1928125908448E+01
 0.1900776651484E+01
 0.1871892031062E+01
 0.1841270165692E+01
 0.1808771081510E+01
 0.1774300626276E+01
 0.1737791300432E+01
 0.1699186994223E+01
 0.1658433313758E+01
 0.1615472390544E+01
 0.1570242087467E+01
 0.1522674315713E+01
 0.1472689534590E+01
 0.1420174918853E+01
 0.1364938720050E+01
 0.1306705528918E+01
 0.1245279629938E+01
 0.1180858854372E+01
 0.1114048487716E+01
 0.1045523775481E+01
 0.9758258996883E+00
 0.9054030699052E+00
 0.8347459693499E+00
 0.7644846413208E+00
 0.6953848570896E+00
 0.6282085663522E+00
 0.5633951340635E+00
 0.5007409999458E+00
 0.4392749046057E+00
 0.3771238745716E+00
 0.3162406749112E+00
 0.2896994746280E+00
 0.4169032880643E+00
 0.7273653628407E+00
 0.1849476987601E+01
 0.2055980097882E+01
 0.2135115277403E+01
 0.2130115340199E+01
 0.2105481094850E+01
 0.2079875523978E+01
 0.2054294261664E+01
 0.2028105647369E+01
 0.2000698566857E+01
 0.1971613785388E+01
 0.1940576192417E+01
 0.1907427706401E+01
 0.1872078693818E+01
 0.1834473526666E+01
 0.1794569221640E+01
 0.1752323793048E+01
 0.1707691198155E+01
 0.1660622313776E+01
 0.1611066757891E+01
 0.1558973884346E+01
 0.1504278394712E+01
 0.1446841707059E+01
 0.1386396238346E+01
 0.1322679961623E+01
 0.1255792283445E+01
 0.1186248456732E+01
 0.1114659925021E+01
 0.1041577313651E+01
 0.9675781940779E+00
 0.8934049881563E+00
 0.8200384194825E+00
 0.7486816852692E+00
 0.6806094987079E+00
 0.6168097715437E+00
 0.5575331423184E+00
 0.5019998906054E+00
 0.4472467170776E+00
 0.3867378532194E+00
 0.3390676493255E+00
 0.4547378305957E+00
 0.8744731332890E+00
 0.1995094730951E+01
 0.2218429815651E+01
 0.2265999738474E+01
 0.2236353575930E+01
 0.2205625445160E+01
 0.2179297476171E+01
 0.2154001713839E+01
 0.2128306193834E+01
 0.2101189660937E+01
 0.2072101774359E+01
 0.2040760368235E+01
 0.2007028278500E+01
 0.1970843176289E+01
 0.1932174082411E+01
 0.1890997872770E+01
 0.1847287622400E+01
 0.1801008845796E+01
 0.1752122861326E+01
 0.1700592603515E+01
 0.1646391159371E+01
 0.1589503369038E+01
 0.1529873013431E+01
 0.1467289071586E+01
 0.1401441506974E+01
 0.1332276761916E+01
 0.1260102512747E+01
 0.1185347442025E+01
 0.1108515060597E+01
 0.1030329495811E+01
 0.9518459442254E+00
 0.8744670325444E+00
 0.7999100663891E+00
 0.7300802315465E+00
 0.6667358785754E+00
 0.6110524316201E+00
 0.5630634042906E+00
 0.5210842074464E+00
 0.4738707395537E+00
 0.4087569302511E+00
 0.4815575810924E+00
 0.1042429483455E+01
 0.2172634548281E+01
 0.2395505946743E+01
 0.2384205734368E+01
 0.2332948849966E+01
 0.2302480849092E+01
 0.2277368243480E+01
 0.2253544133938E+01
 0.2228948913238E+01
 0.2202434382916E+01
 0.2173508412149E+01
 0.2141947838321E+01
 0.2107677955132E+01
 0.2070685008503E+01
 0.2030974699101E+01
 0.1988549508494E+01
 0.1943399368849E+01
 0.1895500209207E+01
 0.1844820071456E+01
 0.1791329062457E+01
 0.1735014794274E+01
 0.1675903604854E+01
 0.1614046013562E+01
 0.1549373869677E+01
 0.1481609423602E+01
 0.1410490583630E+01
 0.1335919346159E+01
 0.1257948445079E+01
 0.1176961343693E+01
 0.1093865816727E+01
 0.1010116492985E+01
 0.9276234607453E+00
 0.8486729608152E+00
 0.7758755939886E+00
 0.7119218794994E+00
 0.6593663023469E+00
 0.6199062897215E+00
 0.5939145058012E+00
 0.5774504118187E+00
 0.5221361789966E+00
 0.5171912376072E+00
 0.1244966201160E+01
 0.2411950629482E+01
 0.2572770445448E+01
 0.2471309540257E+01
 0.2421569110908E+01
 0.2396366317929E+01
 0.2374469520005E+01
 0.2353330545051E+01
 0.2330314475787E+01
 0.2304659239655E+01
 0.2276005631997E+01
 0.2244275013307E+01
 0.2209487251560E+01
 0.2171697468635E+01
 0.2130957762671E+01
 0.2087300693637E+01
 0.2040733669190E+01
 0.1991240949350E+01
 0.1938792600444E+01
 0.1883357934264E+01
 0.1824927204322E+01
 0.1763546384487E+01
 0.1699364718308E+01
 0.1632576846097E+01
 0.1563162851212E+01
 0.1490621729143E+01
 0.1414089480976E+01
 0.1332932368187E+01
 0.1247337321634E+01
 0.1158472009487E+01
 0.1068315370040E+01
 0.9793961711420E+00
 0.8946157740149E+00
 0.8172476265170E+00
 0.7510633986184E+00
 0.7001771397664E+00
 0.6693160837599E+00
 0.6605341008462E+00
 0.6828316949628E+00
 0.7045784367229E+00
 0.6275613527959E+00
 0.1527345950812E+01
 0.2794415061642E+01
 0.2656046981868E+01
 0.2527309811878E+01
 0.2506674490460E+01
 0.2487155456383E+01
 0.2471664106271E+01
 0.2453783323483E+01
 0.2432780649719E+01
 0.2408116373162E+01
 0.2379784701629E+01
 0.2347886240114E+01
 0.2312570323157E+01
 0.2273974612120E+01
 0.2232205093940E+01
 0.2187326936718E+01
 0.2139364479824E+01
 0.2088306692341E+01
 0.2034121114031E+01
 0.1976765768592E+01
 0.1916220181616E+01
 0.1852522977302E+01
 0.1785854568381E+01
 0.1716722986264E+01
 0.1645945632825E+01
 0.1572871084328E+01
 0.1495118142235E+01
 0.1410908930735E+01
 0.1320186537670E+01
 0.1224523223218E+01
 0.1126600956134E+01
 0.1029710153539E+01
 0.9374466837009E+00
 0.8535598089097E+00
 0.7827140470137E+00
 0.7313831934693E+00
 0.7063437003189E+00
 0.7178073457400E+00
 0.7670429005580E+00
 0.9253906803243E+00
 0.9542011941383E+00
 0.2128876049012E+01
 0.5416959315112E+00
 0.7884080670946E+00
 0.1024210632879E+01
 0.1239979734268E+01
 0.1432580686875E+01
 0.1601786857113E+01
 0.1748209973316E+01
 0.1873238710614E+01
 0.1979118392067E+01
 0.2068404836213E+01
 0.2143531814562E+01
 0.2206713633869E+01
 0.2259966713970E+01
 0.2305081718274E+01
 0.2343572540664E+01
 0.2376652117301E+01
 0.2405064053954E+01
 0.2429144421406E+01
 0.2449322686203E+01
 0.2465748253628E+01
 0.5168058264101E+00
 0.7562794691467E+00
 0.9859596322433E+00
 0.1197773981453E+01
 0.1388482063064E+01
 0.1557471813526E+01
 0.1705117179904E+01
 0.1832530037872E+01
 0.1941589651510E+01
 0.2034516477108E+01
 0.2113505310339E+01
 0.2180609563705E+01
 0.2237736332388E+01
 0.2286613508131E+01
 0.2328739010542E+01
 0.2365313646505E+01
 0.2397085165494E+01
 0.2424512029206E+01
 0.2447876947902E+01
 0.2466761885265E+01
 0.4936376062993E+00
 0.7265119682578E+00
 0.9505276266406E+00
 0.1158347229396E+01
 0.1346823160466E+01
 0.1515094355494E+01
 0.1663322684376E+01
 0.1792408831511E+01
 0.1903941740214E+01
 0.1999854989356E+01
 0.2082121569680E+01
 0.2152638166253E+01
 0.2213200576023E+01
 0.2265463470199E+01
 0.2310877033817E+01
 0.2350605999461E+01
 0.2385426586448E+01
 0.2415809797517E+01
 0.2441976989788E+01
 0.2463778657983E+01
 0.4719609199313E+00
 0.6988539324850E+00
 0.9175028472669E+00
 0.1121308933058E+01
 0.1307259481103E+01
 0.1474358550986E+01
 0.1622611185771E+01
 0.1752744148866E+01
 0.1866110767334E+01
 0.1964401482564E+01
 0.2049389244514E+01
 0.2122819936094E+01
 0.2186375836608E+01
 0.2241627208663E+01
 0.2289961826432E+01
 0.2332505841984E+01
 0.2370039165248E+01
 0.2403053818705E+01
 0.2431857624119E+01
 0.2456622728463E+01
 0.4516309271441E+00
 0.6730163073279E+00
 0.8865497617233E+00
 0.1086310004325E+01
 0.1269481037566E+01
 0.1435007320131E+01
 0.1582787114503E+01
 0.1713407286214E+01
 0.1828026529414E+01
 0.1928128835386E+01
 0.2015308339647E+01
 0.2091167866008E+01
 0.2157275470552E+01
 0.2215111264163E+01
 0.2265995303569E+01
 0.2311011214157E+01
 0.2350941154878E+01
 0.2386325154395E+01
 0.2417585921004E+01
 0.2445168407558E+01
 0.4325210332459E+00
 0.6487603076994E+00
 0.8573677094284E+00
 0.1053046715828E+01
 0.1233212387114E+01
 0.1396810830181E+01
 0.1543673244172E+01
 0.1674276371388E+01
 0.1789617913003E+01
 0.1891005674016E+01
 0.1979874378684E+01
 0.2057692581218E+01
 0.2125916206058E+01
 0.2185934093862E+01
 0.2238997357536E+01
 0.2286149448091E+01
 0.2328179867163E+01
 0.2365683786787E+01
 0.2399191593380E+01
 0.2429340556433E+01
 0.4145220814107E+00
 0.6258786357941E+00
 0.8296966593478E+00
 0.1021251608916E+01
 0.1198210029454E+01
 0.1359563597894E+01
 0.1505109188920E+01
 0.1635238661273E+01
 0.1750816717423E+01
 0.1853000377563E+01
 0.1943082358203E+01
 0.2022406451545E+01
 0.2092320908356E+01
 0.2154125335059E+01
 0.2209004278145E+01
 0.2257965615409E+01
 0.2301808503346E+01
 0.2341180002614E+01
 0.2376696047018E+01
 0.2409109499084E+01
 0.3975390429523E+00
 0.6041925818920E+00
 0.8033109869817E+00
 0.9906908723274E+00
 0.1164258699716E+01
 0.1323082639194E+01
 0.1466950869308E+01
 0.1596191737346E+01
 0.1711560273092E+01
 0.1814084198228E+01
 0.1904929875373E+01
 0.1985326186484E+01
 0.2056519777672E+01
 0.2119725260721E+01
 0.2176064746890E+01
 0.2226514625124E+01
 0.2271883214953E+01
 0.2312860844048E+01
 0.2350124095428E+01
 0.2384478843482E+01
 0.3814890677035E+00
 0.5835479025609E+00
 0.7780154477855E+00
 0.9611604891547E+00
 0.1131168927944E+01
 0.1287205785454E+01
 0.1429070067894E+01
 0.1557044266146E+01
 0.1671793191074E+01
 0.1774233513667E+01
 0.1865419323349E+01
 0.1946474444266E+01
 0.2018550915145E+01
 0.2082783727692E+01
 0.2140237053367E+01
 0.2191858670347E+01
 0.2238463587166E+01
 0.2280775301607E+01
 0.2319508813880E+01
 0.2355478464772E+01
 0.3662997915292E+00
 0.5638117332188E+00
 0.7536415049688E+00
 0.9324831828419E+00
 0.1098774873144E+01
 0.1251790494264E+01
 0.1391354106152E+01
 0.1517716604623E+01
 0.1631468700724E+01
 0.1733431529410E+01
 0.1824559517351E+01
 0.1905880977664E+01
 0.1978460647984E+01
 0.2043359571996E+01
 0.2101588119466E+01
 0.2154067078407E+01
 0.2201614654384E+01
 0.2244978079913E+01
 0.2284894415146E+01
 0.2322159928120E+01
 0.3519077847244E+00
 0.5448698068891E+00
 0.7300441271653E+00
 0.9045056013972E+00
 0.1066932328733E+01
 0.1216712641982E+01
 0.1353705383976E+01
 0.1478141043342E+01
 0.1590549456116E+01
 0.1691669363226E+01
 0.1782366728737E+01
 0.1863583332468E+01
 0.1936303743949E+01
 0.2001520485574E+01
 0.2060193573871E+01
 0.2113217360901E+01
 0.2161409352178E+01
 0.2205532698622E+01
 0.2246336849599E+01
 0.2284591529654E+01
 0.3382572199483E+00
 0.5266240849864E+00
 0.7070990512518E+00
 0.8770959021531E+00
 0.1035516969713E+01
 0.1181865449632E+01
 0.1316040919972E+01
 0.1438261911625E+01
 0.1549008076235E+01
 0.1648946806063E+01
 0.1738865429941E+01
 0.1819627404432E+01
 0.1892143759709E+01
 0.1957343363197E+01
 0.2016138529473E+01
 0.2069396873764E+01
 0.2117931207269E+01
 0.2162514318084E+01
 0.2203903519348E+01
 0.2242847388814E+01
 0.3252986903360E+00
 0.5089906744154E+00
 0.6847003742277E+00
 0.8501415817119E+00
 0.1004422715044E+01
 0.1147158402688E+01
 0.1278291779489E+01
 0.1398035458194E+01
 0.1506827371458E+01
 0.1605272733451E+01
 0.1694088731034E+01
 0.1774067811364E+01
 0.1846053388216E+01
 0.1910914823606E+01
 0.1969518587263E+01
 0.2022704581429E+01
 0.2071276913137E+01
 0.2116012734939E+01
 0.2157675074959E+01
 0.2197002890711E+01
 0.3129881663411E+00
 0.4918979740483E+00
 0.6627584005084E+00
 0.8235474925999E+00
 0.9735601663342E+00
 0.1112516149716E+01
 0.1240402397222E+01
 0.1357429548744E+01
 0.1464000329949E+01
 0.1560665263686E+01
 0.1648078605598E+01
 0.1726968146902E+01
 0.1798114799723E+01
 0.1862331797886E+01
 0.1920440883477E+01
 0.1973252729182E+01
 0.2021558714545E+01
 0.2066135604956E+01
 0.2107750707619E+01
 0.2147144456922E+01
 0.3012861250286E+00
 0.4752850760755E+00
 0.6411977653587E+00
 0.7972340846528E+00
 0.9428551845829E+00
 0.1077877457866E+01
 0.1202329886403E+01
 0.1316423286332E+01
 0.1420529980401E+01
 0.1515151777360E+01
 0.1600885999334E+01
 0.1678401163799E+01
 0.1748419956500E+01
 0.1811702093902E+01
 0.1869025040648E+01
 0.1921168284327E+01
 0.1968906419101E+01
 0.2013011305131E+01
 0.2054252901076E+01
 0.2093380487282E+01
 0.2901567765212E+00
 0.4591003165982E+00
 0.6199557083636E+00
 0.7711357403099E+00
 0.9122474799150E+00
 0.1043194107116E+01
 0.1164043224640E+01
 0.1275006456085E+01
 0.1376429042783E+01
 0.1468768712296E+01
 0.1552570724620E+01
 0.1628448764672E+01
 0.1697070745246E+01
 0.1759144751354E+01
 0.1815403829973E+01
 0.1866593962930E+01
 0.1913468836781E+01
 0.1956790883522E+01
 0.1997330196349E+01
 0.2035847677640E+01
 0.2795674169037E+00
 0.4432999991588E+00
 0.5989805263155E+00
 0.7451992500765E+00
 0.8816892808125E+00
 0.1008429805878E+01
 0.1125522410913E+01
 0.1233178897462E+01
 0.1331719473525E+01
 0.1421561234084E+01
 0.1503201223556E+01
 0.1577201855235E+01
 0.1644178951113E+01
 0.1704790187320E+01
 0.1759723535195E+01
 0.1809688836223E+01
 0.1855414640349E+01
 0.1897649211844E+01
 0.1937159019700E+01
 0.1974715061171E+01
 0.2694878690825E+00
 0.4278472455694E+00
 0.5782301527439E+00
 0.7193823802858E+00
 0.8511440448776E+00
 0.9735590995763E+00
 0.1086757573731E+01
 0.1190949791598E+01
 0.1286431897178E+01
 0.1373582773127E+01
 0.1452854182621E+01
 0.1524760030775E+01
 0.1589866032401E+01
 0.1648780087024E+01
 0.1702143981252E+01
 0.1750628500430E+01
 0.1794932680334E+01
 0.1835785553063E+01
 0.1873944939174E+01
 0.1910186762849E+01
 0.2598899970826E+00
 0.4127109448549E+00
 0.5576708335216E+00
 0.6936525058368E+00
 0.8205851906692E+00
 0.9385662573213E+00
 0.1047748019154E+01
 0.1148336854279E+01
 0.1240604913927E+01
 0.1324894411935E+01
 0.1401613972662E+01
 0.1471231057311E+01
 0.1534262646785E+01
 0.1591266986838E+01
 0.1642838182352E+01
 0.1689604788465E+01
 0.1732231773350E+01
 0.1771423557435E+01
 0.1807923255454E+01
 0.1842503689589E+01
 0.2507472956314E+00
 0.3978648070699E+00
 0.5372759094248E+00
 0.6679853308866E+00
 0.7899948863782E+00
 0.9034441827898E+00
 0.1008501271901E+01
 0.1105365491682E+01
 0.1194284340275E+01
 0.1275564175925E+01
 0.1349571959657E+01
 0.1416730183257E+01
 0.1477507956523E+01
 0.1532413573410E+01
 0.1581991637953E+01
 0.1626825070284E+01
 0.1667540029606E+01
 0.1704810682685E+01
 0.1739358782568E+01
 0.1771944097597E+01
 0.2420345245217E+00
 0.3832864814768E+00
 0.5170246614043E+00
 0.6423636535941E+00
 0.7593628552053E+00
 0.8681933130699E+00
 0.9690320765189E+00
 0.1062067888453E+01
 0.1147522353836E+01
 0.1225666198304E+01
 0.1296825655138E+01
 0.1361379248699E+01
 0.1419748679597E+01
 0.1472391668729E+01
 0.1519801253957E+01
 0.1562511127774E+01
 0.1601103730091E+01
 0.1636217092553E+01
 0.1668544666653E+01
 0.1698822730209E+01
 0.2337273859277E+00
 0.3689567365842E+00
 0.4969012199194E+00
 0.6167761842001E+00
 0.7286852152981E+00
 0.8328205303579E+00
 0.9293613883324E+00
 0.1018482060574E+01
 0.1100376575258E+01
 0.1175279790488E+01
 0.1243477734469E+01
 0.1305305616450E+01
 0.1361137907076E+01
 0.1411380918120E+01
 0.1456473900304E+01
 0.1496897608283E+01
 0.1533185741003E+01
 0.1565934192531E+01
 0.1595800952792E+01
 0.1623489514424E+01
 0.2258022324251E+00
 0.3548586885475E+00
 0.4768935261151E+00
 0.5912164094418E+00
 0.6979633537149E+00
 0.7973380915869E+00
 0.8895153634957E+00
 0.9746508853407E+00
 0.1052909101329E+01
 0.1124488432585E+01
 0.1189634937016E+01
 0.1248640937964E+01
 0.1301833698496E+01
 0.1349567190108E+01
 0.1392224608037E+01
 0.1430230038752E+01
 0.1464063430814E+01
 0.1494272648206E+01
 0.1521473529020E+01
 0.1546328753929E+01
 0.2182357926062E+00
 0.3409770619156E+00
 0.4569923302273E+00
 0.5656814932185E+00
 0.6672028301039E+00
 0.7617625768559E+00
 0.8495243531738E+00
 0.9306211168666E+00
 0.1005185500386E+01
 0.1073378697043E+01
 0.1135406862709E+01
 0.1191519769537E+01
 0.1241997470901E+01
 0.1287140702056E+01
 0.1327274411040E+01
 0.1362762389787E+01
 0.1394025995711E+01
 0.1421559612760E+01
 0.1445931392189E+01
 0.1467757409588E+01
 0.2110049044071E+00
 0.3272974707451E+00
 0.4371902176459E+00
 0.5401712094583E+00
 0.6364123123444E+00
 0.7261138642881E+00
 0.8094219137534E+00
 0.8864424026102E+00
 0.9572737886647E+00
 0.1022039126736E+01
 0.1080904688308E+01
 0.1134078063634E+01
 0.1181792207128E+01
 0.1224293895371E+01
 0.1261847849234E+01
 0.1294754180748E+01
 0.1323371153073E+01
 0.1348134924612E+01
 0.1369561974994E+01
 0.1388219461945E+01
 0.2040862532490E+00
 0.3138057181761E+00
 0.4174806669826E+00
 0.5146869208789E+00
 0.6056025667934E+00
 0.6904141609640E+00
 0.7692438679738E+00
 0.8421663401668E+00
 0.9092434307163E+00
 0.9705591139531E+00
 0.1026239852239E+01
 0.1076451585527E+01
 0.1121380534118E+01
 0.1161219110732E+01
 0.1196170177375E+01
 0.1226467153627E+01
 0.1252401192980E+01
 0.1274346392346E+01
 0.1292765409867E+01
 0.1308178415745E+01
 0.1974560859103E+00
 0.3004870778718E+00
 0.3978571012232E+00
 0.4892305661024E+00
 0.5747854682486E+00
 0.6546870571975E+00
 0.7290273863488E+00
 0.7978455470462E+00
 0.8611643418360E+00
 0.9190277647751E+00
 0.9715226991570E+00
 0.1018774252449E+01
 0.1060922674622E+01
 0.1098106075281E+01
 0.1130464303204E+01
 0.1158161542443E+01
 0.1181418403048E+01
 0.1200544178462E+01
 0.1215947628297E+01
 0.1228108083134E+01
 0.1910899092511E+00
 0.2873255666437E+00
 0.3783119551915E+00
 0.4638036945879E+00
 0.5439730826356E+00
 0.6189566660625E+00
 0.6888101566280E+00
 0.7535328166037E+00
 0.8131059722193E+00
 0.8675328358232E+00
 0.9168611771027E+00
 0.9611764906085E+00
 0.1000574367778E+01
 0.1035139300990E+01
 0.1064947571189E+01
 0.1090092086421E+01
 0.1110720019155E+01
 0.1127074281032E+01
 0.1139511858920E+01
 0.1148480656170E+01
 0.1849621444941E+00
 0.2743031761661E+00
 0.3588357313325E+00
 0.4384065302749E+00
 0.5131768091393E+00
 0.5832468357510E+00
 0.6486296272768E+00
 0.7092803463443E+00
 0.7651364638634E+00
 0.8161597432784E+00
 0.8623595962829E+00
 0.9037836235643E+00
 0.9404847704838E+00
 0.9724954071244E+00
 0.9998284287383E+00
 0.1022503898310E+01
 0.1040592916988E+01
 0.1054271285652E+01
 0.1063848399709E+01
 0.1069751940102E+01
 0.1790457131122E+00
 0.2613990262413E+00
 0.3394160172064E+00
 0.4130370507355E+00
 0.4824065772268E+00
 0.5475804308954E+00
 0.6085223184923E+00
 0.6651390331316E+00
 0.7173218841800E+00
 0.7649906663807E+00
 0.8081174930589E+00
 0.8467143500570E+00
 0.8807943981906E+00
 0.9103404188702E+00
 0.9353030439551E+00
 0.9556283484843E+00
 0.9713084604648E+00
 0.9824512271601E+00
 0.9893238052652E+00
 0.9923469653028E+00
 0.1733115491441E+00
 0.2485884408092E+00
 0.3200365001890E+00
 0.3876901556456E+00
 0.4516701952033E+00
 0.5119787847487E+00
 0.5685232989783E+00
 0.6211579318293E+00
 0.6697256415732E+00
 0.7141038727228E+00
 0.7542287564691E+00
 0.7900794897657E+00
 0.8216332763641E+00
 0.8488271755538E+00
 0.8715519766624E+00
 0.8896791212534E+00
 0.9031179256270E+00
 0.9119059174909E+00
 0.9162727973790E+00
 0.9166528023759E+00
 0.1677279584768E+00
 0.2358418422567E+00
 0.3006758948458E+00
 0.3623568608303E+00
 0.4209727864419E+00
 0.4764612375904E+00
 0.5286657157055E+00
 0.5773837455202E+00
 0.6224079504107E+00
 0.6635731582913E+00
 0.7007809599003E+00
 0.7339809923387E+00
 0.7631193083858E+00
 0.7880927947581E+00
 0.8087367527938E+00
 0.8248482718756E+00
 0.8362485015365E+00
 0.8428991645304E+00
 0.8449952248258E+00
 0.8430169579554E+00
 0.1622597965552E+00
 0.2231234351722E+00
 0.2813068406091E+00
 0.3370236469640E+00
 0.3903164673270E+00
 0.4410448932580E+00
 0.4889804765089E+00
 0.5338604204416E+00
 0.5754254097627E+00
 0.6134674849203E+00
 0.6478550440173E+00
 0.6785114471932E+00
 0.7053571479715E+00
 0.7282563778611E+00
 0.7469962897915E+00
 0.7613020142907E+00
 0.7708995688166E+00
 0.7756642634701E+00
 0.7757541161081E+00
 0.7717383175039E+00
 0.1568673170837E+00
 0.2103895452521E+00
 0.2618947520993E+00
 0.3116720557491E+00
 0.3597003524078E+00
 0.4057446366733E+00
 0.4494960727240E+00
 0.4906288125742E+00
 0.5288306532094E+00
 0.5638507895246E+00
 0.5955254082495E+00
 0.6237543479754E+00
 0.6484380287984E+00
 0.6694174087408E+00
 0.6864431797652E+00
 0.6991757279513E+00
 0.7072385655121E+00
 0.7104023985487E+00
 0.7087735189514E+00
 0.7030569041577E+00
 0.1515044826072E+00
 0.1975863583985E+00
 0.2423967022086E+00
 0.2862786821275E+00
 0.3291210269931E+00
 0.3705733680885E+00
 0.4102384397228E+00
 0.4477262666859E+00
 0.4826718794359E+00
 0.5147817262537E+00
 0.5438601721195E+00
 0.5697850755403E+00
 0.5924410140933E+00
 0.6116555033170E+00
 0.6271599946249E+00
 0.6385667501689E+00
 0.6453944571629E+00
 0.6472812549204E+00
 0.6442408016550E+00
 0.6371526176278E+00
 0.1461162188165E+00
 0.1846469719191E+00
 0.2227605050451E+00
 0.2608163322644E+00
 0.2985737248428E+00
 0.3355426675353E+00
 0.3712308982774E+00
 0.4051862511629E+00
 0.4369923581637E+00
 0.4663133481240E+00
 0.4929215451464E+00
 0.5166725632786E+00
 0.5374363483263E+00
 0.5550337630246E+00
 0.5691971558328E+00
 0.5795243476791E+00
 0.5854439185832E+00
 0.5864320713908E+00
 0.5823181117558E+00
 0.5741588529350E+00
 0.1406338047816E+00
 0.1714859073398E+00
 0.2029259924546E+00
 0.2352563798807E+00
 0.2680548199805E+00
 0.3006630691184E+00
 0.3324940165272E+00
 0.3630378263967E+00
 0.3918295887011E+00
 0.4184922990143E+00
 0.4427656245100E+00
 0.4644808189417E+00
 0.4834899476773E+00
 0.4996075130324E+00
 0.5125795419870E+00
 0.5220353739771E+00
 0.5273835610216E+00
 0.5279300186134E+00
 0.5231680182915E+00
 0.5142084214927E+00
 0.1349625251814E+00
 0.1579976097584E+00
 0.1828261904703E+00
 0.2095795632695E+00
 0.2375620506266E+00
 0.2659442563496E+00
 0.2940458998569E+00
 0.3213051589016E+00
 0.3472142300500E+00
 0.3713576446492E+00
 0.3934415591343E+00
 0.4132693655081E+00
 0.4306680800919E+00
 0.4454355821676E+00
 0.4573313173420E+00
 0.4660355676391E+00
 0.4710547835240E+00
 0.4717375327676E+00
 0.4669663159435E+00
 0.4575501035680E+00
 0.1289653788846E+00
 0.1440113304572E+00
 0.1624450501272E+00
 0.1837745918704E+00
 0.2070909200786E+00
 0.2313969136232E+00
 0.2559036966613E+00
 0.2800065582129E+00
 0.3031685378979E+00
 0.3249397454071E+00
 0.3449899552946E+00
 0.3630918267377E+00
 0.3790386613060E+00
 0.3925928386048E+00
 0.4035008058067E+00
 0.4114932872456E+00
 0.4161513259730E+00
 0.4173260994048E+00
 0.4139401086850E+00
 0.4048393125379E+00
 0.1221723962840E+00
 0.1296571952483E+00
 0.1418421827083E+00
 0.1578041811962E+00
 0.1766323132623E+00
 0.1970447625268E+00
 0.2180839605390E+00
 0.2391498365555E+00
 0.2597057115181E+00
 0.2792585733140E+00
 0.2974405980042E+00
 0.3139919685381E+00
 0.3286664467606E+00
 0.3411715215213E+00
 0.3511937590302E+00
 0.3584446165508E+00
 0.3625769464562E+00
 0.3635931673776E+00
 0.3624585135781E+00
 0.3593317243017E+00
 0.3736001235656E+01
 0.3663095660737E+01
 0.2754803853529E+01
 0.2249945326299E+01
 0.1788460543819E+01
 0.1369128501323E+01
 0.1074701704710E+01
 0.9198259548844E+00
 0.8234248534558E+00
 0.7386506408748E+00
 0.6527740821704E+00
 0.5633005172747E+00
 0.4684419610646E+00
 0.3682014185046E+00
 0.2659580178900E+00
 0.1659160468147E+00
 0.6720656160994E-01
 0.4223121808507E-02
 0.7600147285978E-02
 0.4664845985351E-01
 0.3195231624703E+01
 0.3841538741821E+01
 0.3018921860848E+01
 0.2411471456058E+01
 0.1963967266401E+01
 0.1588357368931E+01
 0.1306361495059E+01
 0.1121593157808E+01
 0.9959681050611E+00
 0.8956520546199E+00
 0.8038999763343E+00
 0.7134739080007E+00
 0.6202361145227E+00
 0.5228332674673E+00
 0.4226208852861E+00
 0.3208951632229E+00
 0.2146778961374E+00
 0.1366752409681E+00
 0.1134725136401E+00
 0.1599396064944E+00
 0.2746897629192E+01
 0.3592717074916E+01
 0.3158997578105E+01
 0.2583488734153E+01
 0.2133317324786E+01
 0.1781284947517E+01
 0.1512199285159E+01
 0.1318993595567E+01
 0.1176305946491E+01
 0.1062067271589E+01
 0.9626684142451E+00
 0.8697436534447E+00
 0.7775653630205E+00
 0.6830838015232E+00
 0.5859936441463E+00
 0.4863610111778E+00
 0.3818713921587E+00
 0.2985925330985E+00
 0.2691426024481E+00
 0.3171358351408E+00
 0.2392899282678E+01
 0.3287527774275E+01
 0.3137497651036E+01
 0.2710487397127E+01
 0.2291969850369E+01
 0.1956020928782E+01
 0.1698219344317E+01
 0.1504999654515E+01
 0.1355353772810E+01
 0.1232569783351E+01
 0.1126752040925E+01
 0.1030923356993E+01
 0.9392513896752E+00
 0.8476636411253E+00
 0.7546611709851E+00
 0.6597912902773E+00
 0.5610961483923E+00
 0.4788557422247E+00
 0.4480660241043E+00
 0.4978025898486E+00
 0.2105539853697E+01
 0.2987843329091E+01
 0.3033691668119E+01
 0.2764603377773E+01
 0.2421034315744E+01
 0.2112644051740E+01
 0.1867215037487E+01
 0.1678143483078E+01
 0.1527662146242E+01
 0.1401657985630E+01
 0.1292396028342E+01
 0.1194674616977E+01
 0.1103593989366E+01
 0.1014946530966E+01
 0.9266258064634E+00
 0.8378486376280E+00
 0.7469442693198E+00
 0.6690646238981E+00
 0.6391382181605E+00
 0.6890966223376E+00
 0.1868002984016E+01
 0.2710916891735E+01
 0.2888855054243E+01
 0.2758545693673E+01
 0.2506681728697E+01
 0.2244094156177E+01
 0.2018269907274E+01
 0.1837325257205E+01
 0.1690157683048E+01
 0.1565083324534E+01
 0.1455636058121E+01
 0.1357925973728E+01
 0.1268241508001E+01
 0.1182854882522E+01
 0.1099551125623E+01
 0.1017414532911E+01
 0.9349422705859E+00
 0.8629262409738E+00
 0.8347064022253E+00
 0.8830061144230E+00
 0.1668898512571E+01
 0.2460455022989E+01
 0.2725708830113E+01
 0.2708421797727E+01
 0.2548518796209E+01
 0.2343493460222E+01
 0.2147369258111E+01
 0.1980279825796E+01
 0.1840327097420E+01
 0.1719598064436E+01
 0.1612938730637E+01
 0.1517429312284E+01
 0.1430425124559E+01
 0.1348925334352E+01
 0.1270935930892E+01
 0.1195570755794E+01
 0.1121455316066E+01
 0.1055795543817E+01
 0.1029436562196E+01
 0.1074340178659E+01
 0.1500224901851E+01
 0.2235953846105E+01
 0.2556859976714E+01
 0.2627911261920E+01
 0.2551786687756E+01
 0.2408576246111E+01
 0.2250300488699E+01
 0.2103720110519E+01
 0.1975417631492E+01
 0.1862334301020E+01
 0.1761203435155E+01
 0.1670079303118E+01
 0.1587252078371E+01
 0.1510492757092E+01
 0.1438187171402E+01
 0.1369588611750E+01
 0.1303464033035E+01
 0.1244160693402E+01
 0.1219508065476E+01
 0.1259621703792E+01
 0.1356106241579E+01
 0.2035506052526E+01
 0.2389465397167E+01
 0.2527430031744E+01
 0.2523432613512E+01
 0.2440636176279E+01
 0.2324798288786E+01
 0.2204525771936E+01
 0.2092512222634E+01
 0.1990503089910E+01
 0.1897583947839E+01
 0.1812981521950E+01
 0.1735894390022E+01
 0.1664861161525E+01
 0.1598711646392E+01
 0.1536900089954E+01
 0.1478370228678E+01
 0.1425248610931E+01
 0.1402074245691E+01
 0.1436426370927E+01
 0.1232079271305E+01
 0.1856812996357E+01
 0.2227598653237E+01
 0.2414646133420E+01
 0.2470310442125E+01
 0.2443003058155E+01
 0.2370728253389E+01
 0.2280705142022E+01
 0.2189065457285E+01
 0.2101481278773E+01
 0.2019425390211E+01
 0.1943443514424E+01
 0.1873671375870E+01
 0.1809419216479E+01
 0.1749993384358E+01
 0.1695086693472E+01
 0.1643859574824E+01
 0.1596755568752E+01
 0.1574905554562E+01
 0.1602966478948E+01
 0.1124661265217E+01
 0.1697563113521E+01
 0.2073520294022E+01
 0.2295129838329E+01
 0.2398506223479E+01
 0.2419892569587E+01
 0.2389592352082E+01
 0.2331649212082E+01
 0.2263359256486E+01
 0.2193090710454E+01
 0.2124363362487E+01
 0.2059011285745E+01
 0.1998100351133E+01
 0.1941711281083E+01
 0.1889650529328E+01
 0.1841881131102E+01
 0.1797820081592E+01
 0.1756675598758E+01
 0.1736158191412E+01
 0.1757830428305E+01
 0.1031076765621E+01
 0.1555573579585E+01
 0.1928386721435E+01
 0.2172896766295E+01
 0.2313159492020E+01
 0.2375702560742E+01
 0.2383927661138E+01
 0.2357980103417E+01
 0.2314672479392E+01
 0.2263838006600E+01
 0.2210495624802E+01
 0.2157569514983E+01
 0.2106966072075E+01
 0.2059499012929E+01
 0.2015483198993E+01
 0.1975180546363E+01
 0.1938302667405E+01
 0.1903200511678E+01
 0.1884231307222E+01
 0.1899827112245E+01
 0.9490772843474E+00
 0.1428837050120E+01
 0.1792662904711E+01
 0.2050815530300E+01
 0.2218489626240E+01
 0.2314627248281E+01
 0.2356809762766E+01
 0.2361246940800E+01
 0.2343231159203E+01
 0.2313017754276E+01
 0.2276523246609E+01
 0.2237461758260E+01
 0.2198412688324E+01
 0.2160833639948E+01
 0.2125527846085E+01
 0.2093074990729E+01
 0.2063514517404E+01
 0.2034670933516E+01
 0.2017686361522E+01
 0.2027901486412E+01
 0.8768176409108E+00
 0.1315529517375E+01
 0.1666372075280E+01
 0.1930904532434E+01
 0.2117895754671E+01
 0.2240468741241E+01
 0.2311497958250E+01
 0.2343611075582E+01
 0.2350044116006E+01
 0.2340691236802E+01
 0.2321813379026E+01
 0.2297581986823E+01
 0.2271034432370E+01
 0.2244136300833E+01
 0.2218123853010E+01
 0.2193894834879E+01
 0.2171840808013E+01
 0.2149564661138E+01
 0.2135209137709E+01
 0.2141096897220E+01
 0.8127677528488E+00
 0.1214002132002E+01
 0.1549252517845E+01
 0.1814547427296E+01
 0.2014074124745E+01
 0.2156562407499E+01
 0.2251202344698E+01
 0.2307578331999E+01
 0.2336702373976E+01
 0.2347586084801E+01
 0.2346384247519E+01
 0.2337412828829E+01
 0.2323939381553E+01
 0.2308270933789E+01
 0.2291986707490E+01
 0.2276276403648E+01
 0.2261893000448E+01
 0.2246514325764E+01
 0.2235599591483E+01
 0.2238545512144E+01
 0.7556466687544E+00
 0.1122766637669E+01
 0.1440859900780E+01
 0.1702652088053E+01
 0.1909130720587E+01
 0.2065764663590E+01
 0.2178940888191E+01
 0.2255792454092E+01
 0.2305186361327E+01
 0.2334959851621E+01
 0.2350833892238E+01
 0.2357008780241E+01
 0.2356771174162E+01
 0.2352592294903E+01
 0.2346275046564E+01
 0.2339240448917E+01
 0.2332584262594E+01
 0.2324353097473E+01
 0.2317779029135E+01
 0.2319470760018E+01
 0.7043700222654E+00
 0.1040476069593E+01
 0.1340639890846E+01
 0.1595771242058E+01
 0.1804682491849E+01
 0.1970472169747E+01
 0.2097457998066E+01
 0.2190885408363E+01
 0.2257700750048E+01
 0.2304457788342E+01
 0.2336237849517E+01
 0.2356935286382E+01
 0.2369684363113E+01
 0.2376954004786E+01
 0.2380633568395E+01
 0.2382272770546E+01
 0.2383235436685E+01
 0.2382200841762E+01
 0.2380813782734E+01
 0.2383185651113E+01
 0.6579959077739E+00
 0.9659106014070E+00
 0.1247982570410E+01
 0.1494208090825E+01
 0.1701941769580E+01
 0.1872652773282E+01
 0.2009183158298E+01
 0.2115374235845E+01
 0.2196543321461E+01
 0.2257983452563E+01
 0.2304038200794E+01
 0.2338180670592E+01
 0.2363277423551E+01
 0.2381664043444E+01
 0.2395183706119E+01
 0.2405378437874E+01
 0.2413712453140E+01
 0.2419626149375E+01
 0.2423987871925E+01
 0.2429070475092E+01
 0.6156741236956E+00
 0.8978993931552E+00
 0.1162355433514E+01
 0.1398099606539E+01
 0.1601772230667E+01
 0.1773877317678E+01
 0.1916213165077E+01
 0.2031595106057E+01
 0.2124007444742E+01
 0.2197592466040E+01
 0.2255943280676E+01
 0.2302063548141E+01
 0.2338499730635E+01
 0.2367383014339E+01
 0.2390424385407E+01
 0.2409031794375E+01
 0.2424533868307E+01
 0.2436953284813E+01
 0.2447046437586E+01
 0.2456550641506E+01
 0.5761450935014E+00
 0.8358489137143E+00
 0.1083464433745E+01
 0.1307430563972E+01
 0.1504719232532E+01
 0.1675326766210E+01
 0.1820317369318E+01
 0.1941670343561E+01
 0.2042311368905E+01
 0.2125411302847E+01
 0.2193854906297E+01
 0.2250165777084E+01
 0.2296571662102E+01
 0.2334997895032E+01
 0.2367022937993E+01
 0.2393908408668E+01
 0.2416671871036E+01
 0.2435525868365E+01
 0.2451060623911E+01
 0.2465197206890E+01
 0.1120584203535E+00
 0.1131218422709E+00
 0.1184968674212E+00
 0.1288255596375E+00
 0.1427229086719E+00
 0.1586103764828E+00
 0.1752555373240E+00
 0.1923022202954E+00
 0.2093023219036E+00
 0.2256901453633E+00
 0.2410382921579E+00
 0.2550522010641E+00
 0.2674945017256E+00
 0.2780875883150E+00
 0.2865754634448E+00
 0.2928452169505E+00
 0.2971650149975E+00
 0.2999539576182E+00
 0.3037230540822E+00
 0.3118801166494E+00
 0.1033618735832E+00
 0.9509704159629E-01
 0.9338232949448E-01
 0.9759775670775E-01
 0.1059948132047E+00
 0.1165735965946E+00
 0.1280345541760E+00
 0.1402830465003E+00
 0.1529821631619E+00
 0.1655152140403E+00
 0.1773965987019E+00
 0.1883178271669E+00
 0.1980882376927E+00
 0.2065312401298E+00
 0.2136018465904E+00
 0.2195581779680E+00
 0.2250170133162E+00
 0.2304938984164E+00
 0.2380164287828E+00
 0.2405142144442E+00
 0.9413359319408E-01
 0.7518483185775E-01
 0.6599395429345E-01
 0.6426670650524E-01
 0.6743347117673E-01
 0.7305532522285E-01
 0.7979634967819E-01
 0.8778710002769E-01
 0.9676303574476E-01
 0.1060652000684E+00
 0.1151807742651E+00
 0.1238259318779E+00
 0.1318726081664E+00
 0.1392371341594E+00
 0.1460103528453E+00
 0.1525022717262E+00
 0.1589200662193E+00
 0.1652887221472E+00
 0.1713702102155E+00
 0.1743366093302E+00
 0.8385893180724E-01
 0.5340617721643E-01
 0.3653379466490E-01
 0.2926663792172E-01
 0.2772159797867E-01
 0.2886982683792E-01
 0.3139887652752E-01
 0.3567269321408E-01
 0.4151051618422E-01
 0.4823292282335E-01
 0.5531509723762E-01
 0.6249439452996E-01
 0.6966858541295E-01
 0.7676104598158E-01
 0.8382392957490E-01
 0.9095036872662E-01
 0.9780626572937E-01
 0.1040025912458E+00
 0.1105104230334E+00
 0.1185847966205E+00
 0.7231092180001E-01
 0.2953205306593E-01
 0.7919868493051E-02
 0.1245486496952E-01
 0.1767520775948E-01
 0.2004730393887E-01
 0.2077519788191E-01
 0.1934371278872E-01
 0.1601088374595E-01
 0.1180817921922E-01
 0.8367486100928E-02
 0.8816660573462E-02
 0.1359516818910E-01
 0.2019443974312E-01
 0.2755938653118E-01
 0.3528843209487E-01
 0.4260746944601E-01
 0.4961917404046E-01
 0.5892930065461E-01
 0.7298729272918E-01
 0.5927419126474E-01
 0.4787762880062E-02
 0.3135908039758E-01
 0.4967887339586E-01
 0.5939491970166E-01
 0.6513257966713E-01
 0.6864410553830E-01
 0.6921552819687E-01
 0.6700090425479E-01
 0.6280241763647E-01
 0.5719143048032E-01
 0.5044980917719E-01
 0.4276921199949E-01
 0.3441385936902E-01
 0.2561452138898E-01
 0.1674678608755E-01
 0.9087679925737E-02
 0.6769263454836E-02
 0.1767311040139E-01
 0.3733483454008E-01
 0.4454795101335E-01
 0.2642474110865E-01
 0.6775803105855E-01
 0.9066541245308E-01
 0.1033485783250E+00
 0.1114279748649E+00
 0.1168449621231E+00
 0.1187161664550E+00
 0.1171847309016E+00
 0.1131057395623E+00
 0.1070879231987E+00
 0.9946105710900E-01
 0.9049739490066E-01
 0.8053945365226E-01
 0.6983020071480E-01
 0.5858860370849E-01
 0.4737183635567E-01
 0.3444239113408E-01
 0.1595757909910E-01
 0.1142569778532E-01
 0.2801069394458E-01
 0.5820558915472E-01
 0.1069029066557E+00
 0.1334409282912E+00
 0.1481185284485E+00
 0.1575926535993E+00
 0.1640062559925E+00
 0.1663192141326E+00
 0.1646678971455E+00
 0.1599554545153E+00
 0.1528368837247E+00
 0.1437107896210E+00
 0.1329413624870E+00
 0.1209358065605E+00
 0.1079293731620E+00
 0.9404128427390E-01
 0.7961621200956E-01
 0.6234496931758E-01
 0.3828033079582E-01
 0.7241808288803E-02
 0.1061103779078E-01
 0.9323052169258E-01
 0.1485886936312E+00
 0.1776885356152E+00
 0.1932700217490E+00
 0.2031110332591E+00
 0.2095628480828E+00
 0.2114369667454E+00
 0.2088601089875E+00
 0.2027724855198E+00
 0.1938807640691E+00
 0.1826646239396E+00
 0.1695738253537E+00
 0.1550444661012E+00
 0.1392566886942E+00
 0.1221957654264E+00
 0.1040007386216E+00
 0.8204642965757E-01
 0.5273188277473E-01
 0.1645615537883E-01
 0.1550340369484E-01
 0.1316694606965E+00
 0.1927642674453E+00
 0.2231553979000E+00
 0.2384184433039E+00
 0.2475187413467E+00
 0.2530058605779E+00
 0.2535473754203E+00
 0.2492510957333E+00
 0.2410799040262E+00
 0.2297992141692E+00
 0.2159799827984E+00
 0.2001441344961E+00
 0.1827193640036E+00
 0.1637976707018E+00
 0.1432251009155E+00
 0.1209707188379E+00
 0.9431687638206E-01
 0.6017604644332E-01
 0.1963479985792E-01
 0.3916168488717E-01
 0.1737576457574E+00
 0.2393742183787E+00
 0.2695739044251E+00
 0.2831726974201E+00
 0.2903531944832E+00
 0.2938317419036E+00
 0.2921373321255E+00
 0.2853480935550E+00
 0.2744367326487E+00
 0.2602389641312E+00
 0.2434234752221E+00
 0.2245604262053E+00
 0.2040278000071E+00
 0.1818066796900E+00
 0.1576178212563E+00
 0.1313102298522E+00
 0.1002714519628E+00
 0.6200261451009E-01
 0.1807611303473E-01
 0.6692061328745E-01
 0.2197346323211E+00
 0.2883333419837E+00
 0.3166501463531E+00
 0.3271308257857E+00
 0.3311467073098E+00
 0.3315269835472E+00
 0.3266819336733E+00
 0.3166579308527E+00
 0.3024309290205E+00
 0.2849200486690E+00
 0.2648840381448E+00
 0.2428965374232E+00
 0.2192352974883E+00
 0.1937552112625E+00
 0.1660806833383E+00
 0.1360023052187E+00
 0.1011889806506E+00
 0.5975350855037E-01
 0.1352275042661E-01
 0.9855468707903E-01
 0.2698277337139E+00
 0.3395158635060E+00
 0.3640669763779E+00
 0.3698890703916E+00
 0.3694256825186E+00
 0.3655510170234E+00
 0.3566218080351E+00
 0.3426750137536E+00
 0.3246879473309E+00
 0.3036619188013E+00
 0.2804023735661E+00
 0.2554076654926E+00
 0.2287946952800E+00
 0.2002883202141E+00
 0.1694632198819E+00
 0.1361273705937E+00
 0.9839039719966E-01
 0.5496929911382E-01
 0.7772965904149E-02
 0.1344161834452E+00
 0.3242345423269E+00
 0.3927467931913E+00
 0.4114981457813E+00
 0.4110618388280E+00
 0.4047067047456E+00
 0.3953035354303E+00
 0.3813292710929E+00
 0.3628749350888E+00
 0.3408988526118E+00
 0.3164297488524E+00
 0.2902090452132E+00
 0.2625408752860E+00
 0.2333225009051E+00
 0.2021694744191E+00
 0.1686770136873E+00
 0.1327604921318E+00
 0.9311536815858E-01
 0.4903651953301E-01
 0.2892455194879E-02
 0.1749560048970E+00
 0.3830939113828E+00
 0.4477914118557E+00
 0.4586409993336E+00
 0.4503173826920E+00
 0.4364777537382E+00
 0.4200579864537E+00
 0.4000612105818E+00
 0.3767288254859E+00
 0.3508852335784E+00
 0.3234050768450E+00
 0.2947623705780E+00
 0.2649276116962E+00
 0.2335535781707E+00
 0.2002109217275E+00
 0.1646106301763E+00
 0.1268708517719E+00
 0.8640498037399E-01
 0.4304451523100E-01
 0.3387269573485E-02
 0.2206623477123E+00
 0.4464280471109E+00
 0.5043381428453E+00
 0.5052895244575E+00
 0.4874403055488E+00
 0.4641328675722E+00
 0.4388331499079E+00
 0.4119126293295E+00
 0.3837799722545E+00
 0.3547220428577E+00
 0.3250720229384E+00
 0.2947631606245E+00
 0.2633402028125E+00
 0.2302697062397E+00
 0.1951956316732E+00
 0.1580510914510E+00
 0.1192370209062E+00
 0.7900899547266E-01
 0.3767794561442E-01
 0.5254895276334E-02
 0.2720229866211E+00
 0.5140085324685E+00
 0.5619585007631E+00
 0.5515197748029E+00
 0.5224234233345E+00
 0.4867801096919E+00
 0.4501613671703E+00
 0.4158583025471E+00
 0.3838454715404E+00
 0.3529195808810E+00
 0.3222784265429E+00
 0.2911059843233E+00
 0.2585994041037E+00
 0.2242109496465E+00
 0.1878078305004E+00
 0.1496280125311E+00
 0.1103934106523E+00
 0.7133327690052E-01
 0.3316687777118E-01
 0.5368636559247E-02
 0.3294382295455E+00
 0.5849355659264E+00
 0.6200692906276E+00
 0.5981577313860E+00
 0.5555836132011E+00
 0.5026217850949E+00
 0.4519177616743E+00
 0.4110311243399E+00
 0.3773926747244E+00
 0.3466042265867E+00
 0.3161784628217E+00
 0.2847327270559E+00
 0.2514490980409E+00
 0.2159990115685E+00
 0.1785929467655E+00
 0.1397972227667E+00
 0.1006170327573E+00
 0.6343232401607E-01
 0.2929201349539E-01
 0.4003001664508E-02
 0.3930962668614E+00
 0.6562937711291E+00
 0.6776743169973E+00
 0.6488664074384E+00
 0.5863675681854E+00
 0.5081960005635E+00
 0.4414399088250E+00
 0.3974458112618E+00
 0.3660696166752E+00
 0.3374666338236E+00
 0.3079576753000E+00
 0.2764270680150E+00
 0.2424625316174E+00
 0.2060973245271E+00
 0.1679629193433E+00
 0.1288727017294E+00
 0.8997185285875E-01
 0.5501987280135E-01
 0.2540354127645E-01
 0.2123890507088E-02
 0.4593916285694E+00
 0.7098224494332E+00
 0.7438434542132E+00
 0.7080023099104E+00
 0.6119537676160E+00
 0.4974921636108E+00
 0.4163820393990E+00
 0.3776361027654E+00
 0.3527731765179E+00
 0.3271802804413E+00
 0.2984101589705E+00
 0.2667086598608E+00
 0.2320768460714E+00
 0.1947739064533E+00
 0.1561487170788E+00
 0.1172808561130E+00
 0.7842451270222E-01
 0.4528228641039E-01
 0.2030529711337E-01
 0.9307281129151E-03
 0.2475688937813E+01
 0.2471054617159E+01
 0.2448565655518E+01
 0.2409232124794E+01
 0.2353333960811E+01
 0.2281140805460E+01
 0.2193095406569E+01
 0.2089804669779E+01
 0.1972010754517E+01
 0.1840561796847E+01
 0.1696392678634E+01
 0.1540524675705E+01
 0.1374097011038E+01
 0.1198449595352E+01
 0.1015285863036E+01
 0.8269626237250E+00
 0.6370033733152E+00
 0.4510985826380E+00
 0.2794629382486E+00
 0.1463303334573E+00
 0.2480141995567E+01
 0.2484009442643E+01
 0.2471900899824E+01
 0.2443336595497E+01
 0.2398531460108E+01
 0.2337762234902E+01
 0.2261394579855E+01
 0.2169927495958E+01
 0.2063995641411E+01
 0.1944354556099E+01
 0.1811863557377E+01
 0.1667479088410E+01
 0.1512272574865E+01
 0.1347491571167E+01
 0.1174689896028E+01
 0.9959615009612E+00
 0.8143309385795E+00
 0.6344240998061E+00
 0.4639188057916E+00
 0.3191456635914E+00
 0.2481116700611E+01
 0.2492088075452E+01
 0.2489121426912E+01
 0.2470941458865E+01
 0.2437216769790E+01
 0.2388006315171E+01
 0.2323530419022E+01
 0.2244144279172E+01
 0.2150339391575E+01
 0.2042737065813E+01
 0.1922075561380E+01
 0.1789200094757E+01
 0.1645068847602E+01
 0.1490792634150E+01
 0.1327731134745E+01
 0.1157670822394E+01
 0.9830944644731E+00
 0.8074968004876E+00
 0.6355559200569E+00
 0.4711011395745E+00
 0.2478138540893E+01
 0.2495366600891E+01
 0.2500476202516E+01
 0.2491866724767E+01
 0.2468772619765E+01
 0.2430906057454E+01
 0.2378240714679E+01
 0.2310921182805E+01
 0.2229237163276E+01
 0.2133610438806E+01
 0.2024578517089E+01
 0.1902774924424E+01
 0.1768913606313E+01
 0.1623790581994E+01
 0.1468321643729E+01
 0.1303636298499E+01
 0.1131229232845E+01
 0.9530512733921E+00
 0.7710163209865E+00
 0.5832127703617E+00
 0.2470824540616E+01
 0.2493588862279E+01
 0.2505822013866E+01
 0.2505863571998E+01
 0.2492679779173E+01
 0.2465674945486E+01
 0.2424539259006E+01
 0.2369161007287E+01
 0.2299584098900E+01
 0.2215985100966E+01
 0.2118650703104E+01
 0.2007948021776E+01
 0.1884287817553E+01
 0.1748086738882E+01
 0.1599741284761E+01
 0.1439633595820E+01
 0.1268187351901E+01
 0.1085946780630E+01
 0.8932993549215E+00
 0.6897104108945E+00
 0.2458928965977E+01
 0.2486567376702E+01
 0.2505027999605E+01
 0.2512752248328E+01
 0.2508587264053E+01
 0.2491718277703E+01
 0.2461584968983E+01
 0.2417819108194E+01
 0.2360206107513E+01
 0.2288659532382E+01
 0.2203196165291E+01
 0.2103902039831E+01
 0.1990884047889E+01
 0.1864205904817E+01
 0.1723813079028E+01
 0.1569462164912E+01
 0.1400692769254E+01
 0.1216922075309E+01
 0.1017831318268E+01
 0.8040984231792E+00
 0.2442288878204E+01
 0.2474180141238E+01
 0.2498051670141E+01
 0.2512531983469E+01
 0.2516461109285E+01
 0.2508901048409E+01
 0.2489105972205E+01
 0.2456489443380E+01
 0.2410598914554E+01
 0.2351095532766E+01
 0.2277732270266E+01
 0.2190322344178E+01
 0.2088690311060E+01
 0.1972599351898E+01
 0.1841650797563E+01
 0.1695159549053E+01
 0.1532034060854E+01
 0.1350763675512E+01
 0.1149889199683E+01
 0.9293561131334E+00
 0.2420794702058E+01
 0.2456309878405E+01
 0.2484816568474E+01
 0.2505162812495E+01
 0.2516257499341E+01
 0.2517123301378E+01
 0.2506903628913E+01
 0.2484854422326E+01
 0.2450333189995E+01
 0.2402787488498E+01
 0.2341739774926E+01
 0.2266762870413E+01
 0.2177438752899E+01
 0.2073292104902E+01
 0.1953688757220E+01
 0.1817689315124E+01
 0.1663854386029E+01
 0.1490036757958E+01
 0.1293294666495E+01
 0.1071030965683E+01
 0.2394392065810E+01
 0.2432871178618E+01
 0.2465245858895E+01
 0.2490585217729E+01
 0.2507911144897E+01
 0.2516270987982E+01
 0.2514766166030E+01
 0.2502561286664E+01
 0.2478885588970E+01
 0.2443030618712E+01
 0.2394343359948E+01
 0.2332211187967E+01
 0.2256032886402E+01
 0.2165167729306E+01
 0.2058851403267E+01
 0.1936061996736E+01
 0.1795310117303E+01
 0.1634304620675E+01
 0.1449425331461E+01
 0.1234868868570E+01
 0.2363071692238E+01
 0.2403809016521E+01
 0.2439271202688E+01
 0.2468730419095E+01
 0.2491340524599E+01
 0.2506215735127E+01
 0.2512469506020E+01
 0.2509233999463E+01
 0.2495670667671E+01
 0.2470976255851E+01
 0.2434384767029E+01
 0.2385163444343E+01
 0.2322598890025E+01
 0.2245967385672E+01
 0.2154480380696E+01
 0.2047190389187E+01
 0.1922829591715E+01
 0.1779523916565E+01
 0.1614231667458E+01
 0.1421333249244E+01
 0.2326864301029E+01
 0.2369102516992E+01
 0.2406843668436E+01
 0.2439532161179E+01
 0.2466454431342E+01
 0.2486814175335E+01
 0.2499773045177E+01
 0.2504474666906E+01
 0.2500060791423E+01
 0.2485683783679E+01
 0.2460516817401E+01
 0.2423761267658E+01
 0.2374649423121E+01
 0.2312439426934E+01
 0.2236397876072E+01
 0.2145762949382E+01
 0.2039676109250E+01
 0.1917059198361E+01
 0.1776387849656E+01
 0.1615295199135E+01
 0.2285817824904E+01
 0.2328743109577E+01
 0.2367916118539E+01
 0.2402914845910E+01
 0.2433148722484E+01
 0.2457920061730E+01
 0.2476460537379E+01
 0.2487955058911E+01
 0.2491559852703E+01
 0.2486418530130E+01
 0.2471678000891E+01
 0.2446504808994E+01
 0.2410101650176E+01
 0.2361723415334E+01
 0.2300692110100E+01
 0.2226410623223E+01
 0.2138377184128E+01
 0.2036209057776E+01
 0.1919710145598E+01
 0.1789145321511E+01
 0.2240002522273E+01
 0.2282759182144E+01
 0.2322472097076E+01
 0.2358820722069E+01
 0.2391325101171E+01
 0.2419388341497E+01
 0.2442325137350E+01
 0.2459382067087E+01
 0.2469754285878E+01
 0.2472601784859E+01
 0.2467067259252E+01
 0.2452296818986E+01
 0.2427464284733E+01
 0.2391799727478E+01
 0.2344623457563E+01
 0.2285388242640E+01
 0.2213736001042E+01
 0.2129582550749E+01
 0.2033261648744E+01
 0.1925765264911E+01
 0.2189512100345E+01
 0.2231226260051E+01
 0.2270549883660E+01
 0.2307245653786E+01
 0.2340933493866E+01
 0.2371116501470E+01
 0.2397200359366E+01
 0.2418508005990E+01
 0.2434292372280E+01
 0.2443749711112E+01
 0.2446035531038E+01
 0.2440284674625E+01
 0.2425636719842E+01
 0.2401267717962E+01
 0.2366429493403E+01
 0.2320498621093E+01
 0.2263038905085E+01
 0.2193882960390E+01
 0.2113234258188E+01
 0.2021772872455E+01
 0.2134463224259E+01
 0.2174259442997E+01
 0.2212242638165E+01
 0.2248250319477E+01
 0.2281994544478E+01
 0.2313076588913E+01
 0.2340998214102E+01
 0.2365170013212E+01
 0.2384918602516E+01
 0.2399494637159E+01
 0.2408083512143E+01
 0.2409820386384E+01
 0.2403810878633E+01
 0.2389158419596E+01
 0.2364998840773E+01
 0.2330542436401E+01
 0.2285123613938E+01
 0.2228257609289E+01
 0.2159699917565E+01
 0.2079496393998E+01
 0.2075001328168E+01
 0.2112013741118E+01
 0.2147699299431E+01
 0.2181965642249E+01
 0.2214611040830E+01
 0.2245332623259E+01
 0.2273731445759E+01
 0.2299314932447E+01
 0.2321497985056E+01
 0.2339604323412E+01
 0.2352869688900E+01
 0.2360448526014E+01
 0.2361425620011E+01
 0.2354833798378E+01
 0.2339678051623E+01
 0.2314965223751E+01
 0.2279736877574E+01
 0.2233102461074E+01
 0.2174272972598E+01
 0.2102596602153E+01
 0.2011307563461E+01
 0.2044689736449E+01
 0.2077129752078E+01
 0.2108600113555E+01
 0.2138979211821E+01
 0.2168056599992E+01
 0.2195534015720E+01
 0.2221023101386E+01
 0.2244040911445E+01
 0.2264004392361E+01
 0.2280225133163E+01
 0.2291905831249E+01
 0.2298140044381E+01
 0.2297916758385E+01
 0.2290130826097E+01
 0.2273599075443E+01
 0.2247079681649E+01
 0.2209289321151E+01
 0.2158914017974E+01
 0.2094627235036E+01
 0.1943604793069E+01
 0.1972540756294E+01
 0.2000812642610E+01
 0.2028449621179E+01
 0.2055402133810E+01
 0.2081546556737E+01
 0.2106684195568E+01
 0.2130535961704E+01
 0.2152733666213E+01
 0.2172808694451E+01
 0.2190178859123E+01
 0.2204134443703E+01
 0.2213824828504E+01
 0.2218247588490E+01
 0.2216242369745E+01
 0.2206491710312E+01
 0.2187529428087E+01
 0.2157753210524E+01
 0.2115426105297E+01
 0.2058648688643E+01
 0.1872162051838E+01
 0.1895879843646E+01
 0.1919104270545E+01
 0.1941908925324E+01
 0.1964305027849E+01
 0.1986246954641E+01
 0.2007630927552E+01
 0.2028288610587E+01
 0.2047976340863E+01
 0.2066360265120E+01
 0.2082997515723E+01
 0.2097313659544E+01
 0.2108577057636E+01
 0.2115871609096E+01
 0.2118070751396E+01
 0.2113817448361E+01
 0.2101516338722E+01
 0.2079343487707E+01
 0.2045273852451E+01
 0.1997070492416E+01
 0.1797297443860E+01
 0.1815085965870E+01
 0.1832447659831E+01
 0.1849483896903E+01
 0.1866251847946E+01
 0.1882771162976E+01
 0.1899023742375E+01
 0.1914948336953E+01
 0.1930430374200E+01
 0.1945286840554E+01
 0.1959245659122E+01
 0.1971918782447E+01
 0.1982768244591E+01
 0.1991064920938E+01
 0.1995841185932E+01
 0.1995841828858E+01
 0.1989483168920E+01
 0.1974836944191E+01
 0.1949664403055E+01
 0.1911557554730E+01
 0.1719380549382E+01
 0.1730610236899E+01
 0.1741381263342E+01
 0.1751803388176E+01
 0.1761961859945E+01
 0.1771924827483E+01
 0.1781745450333E+01
 0.1791459398838E+01
 0.1801078021248E+01
 0.1810576788705E+01
 0.1819878016288E+01
 0.1828826217787E+01
 0.1837153778139E+01
 0.1844434010954E+01
 0.1850018489502E+01
 0.1852956833437E+01
 0.1851902786471E+01
 0.1845024773133E+01
 0.1829955301605E+01
 0.1803863761746E+01
 0.1638835080272E+01
 0.1642980245079E+01
 0.1646544381791E+01
 0.1649627009108E+01
 0.1652321372943E+01
 0.1654724070689E+01
 0.1656940322690E+01
 0.1659085745470E+01
 0.1661285093329E+01
 0.1663667822767E+01
 0.1666359603838E+01
 0.1669467996094E+01
 0.1673059240620E+01
 0.1677121234831E+01
 0.1681504929034E+01
 0.1685832521057E+01
 0.1689356783158E+01
 0.1690760593130E+01
 0.1687919985969E+01
 0.1677621361633E+01
 0.1556128041396E+01
 0.1552784274420E+01
 0.1548661238391E+01
 0.1543829687410E+01
 0.1538370359076E+01
 0.1532386913907E+01
 0.1526014666241E+01
 0.1519427028112E+01
 0.1512840920591E+01
 0.1506521782988E+01
 0.1500788181253E+01
 0.1496015255753E+01
 0.1492635084419E+01
 0.1491129952179E+01
 0.1492010494904E+01
 0.1495762625214E+01
 0.1502731276027E+01
 0.1512876277329E+01
 0.1525315048790E+01
 0.1537713402054E+01
 0.1471772198224E+01
 0.1460675336129E+01
 0.1448547329681E+01
 0.1435411943087E+01
 0.1421318810490E+01
 0.1406359512615E+01
 0.1390678975847E+01
 0.1374485696972E+01
 0.1358063298573E+01
 0.1341785234698E+01
 0.1326134115316E+01
 0.1311726991163E+01
 0.1299347870279E+01
 0.1289988409249E+01
 0.1284896408305E+01
 0.1285627426110E+01
 0.1294081483193E+01
 0.1312467635906E+01
 0.1342980232211E+01
 0.1386795365435E+01
 0.1386322299925E+01
 0.1367368970297E+01
 0.1347107610025E+01
 0.1325499550254E+01
 0.1302550662683E+01
 0.1278329344376E+01
 0.1252978480685E+01
 0.1226727226128E+01
 0.1199906548021E+01
 0.1172971540399E+01
 0.1146533452824E+01
 0.1121405103575E+01
 0.1098664937380E+01
 0.1079747789306E+01
 0.1066575140412E+01
 0.1061745784399E+01
 0.1068821223069E+01
 0.1092759781797E+01
 0.1140566196059E+01
 0.1221448720503E+01
 0.1300366486650E+01
 0.1273634000050E+01
 0.1245325757684E+01
 0.1215331543565E+01
 0.1183612988772E+01
 0.1150220684132E+01
 0.1115303441202E+01
 0.1079118614214E+01
 0.1042048638194E+01
 0.1004627362782E+01
 0.9675797329818E+00
 0.9318796062953E+00
 0.8988331849312E+00
 0.8702005005554E+00
 0.8483766990157E+00
 0.8366731177256E+00
 0.8397786861065E+00
 0.8645760682303E+00
 0.9217815198309E+00
 0.1030076437708E+01
 0.1214515788438E+01
 0.1180280185877E+01
 0.1144248157513E+01
 0.1106240407123E+01
 0.1066194693938E+01
 0.1024176869935E+01
 0.9803836275435E+00
 0.9351489511673E+00
 0.8889597417534E+00
 0.8424835232824E+00
 0.7966107292010E+00
 0.7525149587411E+00
 0.7117366188973E+00
 0.6762989296161E+00
 0.6488714372749E+00
 0.6330080726739E+00
 0.6335095641140E+00
 0.6570255620206E+00
 0.7131346699373E+00
 0.8174166785911E+00
 0.1129391400931E+01
 0.1088141086189E+01
 0.1044957363198E+01
 0.9996132126912E+00
 0.9520727540485E+00
 0.9024878348819E+00
 0.8511906763400E+00
 0.7986958811182E+00
 0.7457158213970E+00
 0.6931899141934E+00
 0.6423271363503E+00
 0.5946607132999E+00
 0.5521132207949E+00
 0.5170682008677E+00
 0.4924387320045E+00
 0.4817085901751E+00
 0.4888866373548E+00
 0.5181982571762E+00
 0.5730496162118E+00
 0.6509181439799E+00
 0.1045607381484E+01
 0.9980424937926E+00
 0.9485138076494E+00
 0.8967915179240E+00
 0.8429442980301E+00
 0.7873084944097E+00
 0.7304643695982E+00
 0.6732298114442E+00
 0.6166710483900E+00
 0.5621254730786E+00
 0.5112295290222E+00
 0.4659421881932E+00
 0.4285497493379E+00
 0.4016278111996E+00
 0.3879164103298E+00
 0.3900257532534E+00
 0.4098069747601E+00
 0.4470448653374E+00
 0.4965382884575E+00
 0.5421979200448E+00
 0.9637502280273E+00
 0.9107561614961E+00
 0.8558734670914E+00
 0.7989386860950E+00
 0.7402187464978E+00
 0.6803360458489E+00
 0.6202153090482E+00
 0.5610571484006E+00
 0.5043291329357E+00
 0.4517602296353E+00
 0.4053222261399E+00
 0.3671780750526E+00
 0.3395696417562E+00
 0.3246039063409E+00
 0.3238759502360E+00
 0.3378369870590E+00
 0.3647740460852E+00
 0.3992194590939E+00
 0.4298781171631E+00
 0.4396715388294E+00
 0.8843522863309E+00
 0.8269344000093E+00
 0.7677887552477E+00
 0.7069052873602E+00
 0.6448464391766E+00
 0.5826038709377E+00
 0.5214965890138E+00
 0.4631085718383E+00
 0.4092422954379E+00
 0.3618626634123E+00
 0.3230065871856E+00
 0.2946321445112E+00
 0.2783769502459E+00
 0.2751908935143E+00
 0.2848099257211E+00
 0.3050528998624E+00
 0.3309788307742E+00
 0.3541699683593E+00
 0.3632129834101E+00
 0.3469119655062E+00
 0.8078631483859E+00
 0.7470604539610E+00
 0.6847535463556E+00
 0.6211790341436E+00
 0.5572883374366E+00
 0.4944914506985E+00
 0.4344874291308E+00
 0.3791556932658E+00
 0.3304633523253E+00
 0.2903517849657E+00
 0.2605746091225E+00
 0.2424645775928E+00
 0.2366132385155E+00
 0.2424622079849E+00
 0.2578351625996E+00
 0.2784950984383E+00
 0.2979406530916E+00
 0.3079440973080E+00
 0.3004904878200E+00
 0.2709509220461E+00
 0.7346568389649E+00
 0.6714873693209E+00
 0.6070649867253E+00
 0.5419758022247E+00
 0.4776422994279E+00
 0.4158942074938E+00
 0.3587245496633E+00
 0.3081418047838E+00
 0.2660421973399E+00
 0.2340565755190E+00
 0.2133470050204E+00
 0.2043447553478E+00
 0.2064412222600E+00
 0.2176741832604E+00
 0.2344910489447E+00
 0.2517334161287E+00
 0.2630968143732E+00
 0.2623683676102E+00
 0.2454075905580E+00
 0.2120682460553E+00
 0.6650381020054E+00
 0.6004549276394E+00
 0.5348349885631E+00
 0.4692522535535E+00
 0.4056681717048E+00
 0.3462782509732E+00
 0.2932183551989E+00
 0.2484119995207E+00
 0.2134433587033E+00
 0.1894011423967E+00
 0.1766800582211E+00
 0.1747519394852E+00
 0.1819490866884E+00
 0.1953302037758E+00
 0.2107248175991E+00
 0.2230910236231E+00
 0.2273354747960E+00
 0.2195960582009E+00
 0.1985977959347E+00
 0.1662739332809E+00
 0.5992364267924E+00
 0.5340732140339E+00
 0.4679765417615E+00
 0.4027174725822E+00
 0.3408431326813E+00
 0.2847975824313E+00
 0.2366528338805E+00
 0.1980242171905E+00
 0.1699916669081E+00
 0.1529809900259E+00
 0.1466061537358E+00
 0.1495157020193E+00
 0.1593070982394E+00
 0.1725799327401E+00
 0.1852031121342E+00
 0.1928731843495E+00
 0.1919751170803E+00
 0.1805607148842E+00
 0.1589993117612E+00
 0.1298159606279E+00
 0.5374036030472E+00
 0.4722896535106E+00
 0.4061777673401E+00
 0.3418504486183E+00
 0.2824461413117E+00
 0.2304450868580E+00
 0.1876076976325E+00
 0.1550424296440E+00
 0.1332282624176E+00
 0.1219362024374E+00
 0.1201222127046E+00
 0.1258608256408E+00
 0.1363849290326E+00
 0.1482800951759E+00
 0.1578713238239E+00
 0.1618146487280E+00
 0.1578120566744E+00
 0.1452132844037E+00
 0.1251630346879E+00
 0.1000594313346E+00
 0.4796190549508E+00
 0.4148514284710E+00
 0.3488903141522E+00
 0.2859882203199E+00
 0.2297237246419E+00
 0.1822714376914E+00
 0.1447755535899E+00
 0.1177446929949E+00
 0.1010864921531E+00
 0.9403719924667E-01
 0.9509838889513E-01
 0.1020498462036E+00
 0.1120842521882E+00
 0.1220782614885E+00
 0.1290028517145E+00
 0.1304412586322E+00
 0.1250982991619E+00
 0.1131001266799E+00
 0.9588317935818E-01
 0.7557485677684E-01
 0.4259221542215E+00
 0.3612363231390E+00
 0.2953147260020E+00
 0.2344140030337E+00
 0.1820975756524E+00
 0.1394663647467E+00
 0.1069753832745E+00
 0.8463146938367E-01
 0.7191754021918E-01
 0.6771771253305E-01
 0.7029559506193E-01
 0.7737151934108E-01
 0.8631540074082E-01
 0.9443779436200E-01
 0.9936120480068E-01
 0.9942268525309E-01
 0.9399907823923E-01
 0.8361254821094E-01
 0.6974616196733E-01
 0.5443028474610E-01
 0.3763077377914E+00
 0.3100041572680E+00
 0.2440048013027E+00
 0.1869149742259E+00
 0.1393103895883E+00
 0.1013823268572E+00
 0.7324528525085E-01
 0.5462219292009E-01
 0.4473818679721E-01
 0.4228753952501E-01
 0.4545778196841E-01
 0.5205420760315E-01
 0.5972606268697E-01
 0.6624178190462E-01
 0.6979281646996E-01
 0.6928134611973E-01
 0.6450677403379E-01
 0.5617509665525E-01
 0.4570912460934E-01
 0.3515326932485E-01
 0.3284289734075E+00
 0.2561481452642E+00
 0.1959591855313E+00
 0.1444654364155E+00
 0.1014471580351E+00
 0.6755209474687E-01
 0.4288066562912E-01
 0.2699541084236E-01
 0.1894913228742E-01
 0.1737321469618E-01
 0.2049737829071E-01
 0.2628104227903E-01
 0.3269373498707E-01
 0.3794463390379E-01
 0.4070081788526E-01
 0.4027357589621E-01
 0.3670969943053E-01
 0.3075684054334E-01
 0.2374865708816E-01
 0.1736869621132E-01
</DataArray>
<DataArray type="Float64" Name="S_Hyd" NumberOfComponents="1" ComponentName0="S_Hyd" format="ascii">
 0.3690635152956E+01
 0.2601296477714E+01
 0.2511166454890E+01
 0.2424377526012E+01
 0.2386034345155E+01
 0.2360497344957E+01
 0.2344088023073E+01
 0.2332265719078E+01
 0.2323303973464E+01
 0.2316090039224E+01
 0.2310054500354E+01
 0.2304898385538E+01
 0.2300508002006E+01
 0.2296893352299E+01
 0.2294158111191E+01
 0.2292483960602E+01
 0.2292125979370E+01
 0.2293419020826E+01
 0.2296790712961E+01
 0.2302796336379E+01
 0.2312177534750E+01
 0.2325997271397E+01
 0.2346119927691E+01
 0.2375582448979E+01
 0.2415101417633E+01
 0.2461692931572E+01
 0.2512328988063E+01
 0.2565779151571E+01
 0.2622767818133E+01
 0.2685453614025E+01
 0.2756766015397E+01
 0.2839767974274E+01
 0.2936214358806E+01
 0.3049423840454E+01
 0.3189448628312E+01
 0.3375469144069E+01
 0.3620290865441E+01
 0.4016160015401E+01
 0.4392618248364E+01
 0.6454753733611E+01
 0.1836964794820E+01
 0.3309667574774E+01
 0.2774014037945E+01
 0.2507371344225E+01
 0.2427924470346E+01
 0.2372490098058E+01
 0.2340821874457E+01
 0.2319135682311E+01
 0.2303863921210E+01
 0.2292360346674E+01
 0.2283312559837E+01
 0.2275934594917E+01
 0.2269802938914E+01
 0.2264710669902E+01
 0.2260600779159E+01
 0.2257525549348E+01
 0.2255625920826E+01
 0.2255123552683E+01
 0.2256323204538E+01
 0.2259625941271E+01
 0.2265559035148E+01
 0.2274832030425E+01
 0.2288474346059E+01
 0.2308143954751E+01
 0.2335643918825E+01
 0.2371140500713E+01
 0.2412721522689E+01
 0.2458178332930E+01
 0.2506485419707E+01
 0.2558057588037E+01
 0.2614396523179E+01
 0.2677571450798E+01
 0.2749482126765E+01
 0.2831625411522E+01
 0.2926812671326E+01
 0.3042147995365E+01
 0.3184962487516E+01
 0.3376934557501E+01
 0.3587798194177E+01
 0.4003612026077E+01
 0.4042066243982E+01
-0.1670242603305E+00
 0.3107804701221E+01
 0.2771987060544E+01
 0.2528336678715E+01
 0.2418050893207E+01
 0.2358183014296E+01
 0.2319193834658E+01
 0.2293365138033E+01
 0.2274850748068E+01
 0.2261028496788E+01
 0.2250253552815E+01
 0.2241600266064E+01
 0.2234526582932E+01
 0.2228744577222E+01
 0.2224134957076E+01
 0.2220701532195E+01
 0.2218545549819E+01
 0.2217854403675E+01
 0.2218901215690E+01
 0.2222055529649E+01
 0.2227808733592E+01
 0.2236823954262E+01
 0.2250049967304E+01
 0.2268776777308E+01
 0.2294095578711E+01
 0.2325927292481E+01
 0.2362903447019E+01
 0.2403395358332E+01
 0.2446524065930E+01
 0.2492435557541E+01
 0.2542064305022E+01
 0.2596671059369E+01
 0.2657323569937E+01
 0.2724882197824E+01
 0.2801111612872E+01
 0.2888547314238E+01
 0.2991579351891E+01
 0.3104076164962E+01
 0.3225106536710E+01
 0.3292700784937E+01
 0.2508014348720E+01
-0.8084469058426E+00
 0.2967195866785E+01
 0.2729179418991E+01
 0.2525548654142E+01
 0.2406875464010E+01
 0.2339567836047E+01
 0.2296144241354E+01
 0.2266433224488E+01
 0.2245159268186E+01
 0.2229217515004E+01
 0.2216856289310E+01
 0.2207006250223E+01
 0.2199035498279E+01
 0.2192583724182E+01
 0.2187476161182E+01
 0.2183671389338E+01
 0.2181232362986E+01
 0.2180311990710E+01
 0.2181149976782E+01
 0.2184080226114E+01
 0.2189550729301E+01
 0.2198164353089E+01
 0.2210735252448E+01
 0.2228216252204E+01
 0.2251252164546E+01
 0.2279633284543E+01
 0.2312305016117E+01
 0.2348008949739E+01
 0.2385955033655E+01
 0.2426048755798E+01
 0.2468717460471E+01
 0.2514529361313E+01
 0.2563803480930E+01
 0.2616628237703E+01
 0.2673016354171E+01
 0.2732663167026E+01
 0.2791770971382E+01
 0.2837962333720E+01
 0.2839458119405E+01
 0.2617250870781E+01
 0.1569897295125E+01
-0.9597640432662E+00
 0.2855460502960E+01
 0.2674324155484E+01
 0.2504946128871E+01
 0.2389727897102E+01
 0.2318016445935E+01
 0.2271039092958E+01
 0.2238344449829E+01
 0.2214666303321E+01
 0.2196867832687E+01
 0.2183067248383E+01
 0.2172113714425E+01
 0.2163299365485E+01
 0.2156205084723E+01
 0.2150607085856E+01
 0.2146422664862E+01
 0.2143678203841E+01
 0.2142492253340E+01
 0.2143069617955E+01
 0.2145704971142E+01
 0.2150796748137E+01
 0.2158871620498E+01
 0.2170591263651E+01
 0.2186631072215E+01
 0.2207337590490E+01
 0.2232420147065E+01
 0.2261011542394E+01
 0.2292079424638E+01
 0.2324868402044E+01
 0.2359060933317E+01
 0.2394637367111E+01
 0.2431559318868E+01
 0.2469454528999E+01
 0.2507470615807E+01
 0.2544034518389E+01
 0.2575555890977E+01
 0.2592987332652E+01
 0.2575534748502E+01
 0.2462411994029E+01
 0.2062790970400E+01
 0.9929162650235E+00
-0.9664580966783E+00
 0.2760168832685E+01
 0.2615703934909E+01
 0.2473287235838E+01
 0.2365988250516E+01
 0.2293305478792E+01
 0.2243918571301E+01
 0.2208963212989E+01
 0.2183319681613E+01
 0.2163919821892E+01
 0.2148844590362E+01
 0.2136888535693E+01
 0.2127292062055E+01
 0.2119588616527E+01
 0.2113512951474E+01
 0.2108945184851E+01
 0.2105877211310E+01
 0.2104393662714E+01
 0.2104663345856E+01
 0.2106938930220E+01
 0.2111563674819E+01
 0.2118978275627E+01
 0.2129694942026E+01
 0.2144166273317E+01
 0.2162528644862E+01
 0.2184432753692E+01
 0.2209120644798E+01
 0.2235689469454E+01
 0.2263375131741E+01
 0.2291651112917E+01
 0.2320103148753E+01
 0.2348158349881E+01
 0.2374779418162E+01
 0.2398189837576E+01
 0.2415247866432E+01
 0.2419629949320E+01
 0.2398219557206E+01
 0.2322096716485E+01
 0.2119190354233E+01
 0.1629588082501E+01
 0.6255327957161E+00
-0.9278371387703E+00
 0.2675353530818E+01
 0.2556198621292E+01
 0.2434826664755E+01
 0.2336612090741E+01
 0.2265330281598E+01
 0.2214792680251E+01
 0.2178246475743E+01
 0.2151068741650E+01
 0.2130333505295E+01
 0.2114153066095E+01
 0.2101302838742E+01
 0.2090991408416E+01
 0.2082717422369E+01
 0.2076181519346E+01
 0.2071231067612E+01
 0.2067825787554E+01
 0.2066017150093E+01
 0.2065937348048E+01
 0.2067794991151E+01
 0.2071874233416E+01
 0.2078526661153E+01
 0.2088126973457E+01
 0.2100948784184E+01
 0.2116973207383E+01
 0.2135802257989E+01
 0.2156736145044E+01
 0.2178936881420E+01
 0.2201600880507E+01
 0.2224005792746E+01
 0.2245389479090E+01
 0.2264702691853E+01
 0.2280293380255E+01
 0.2289514662784E+01
 0.2287836738893E+01
 0.2266812415252E+01
 0.2210131681630E+01
 0.2084273164047E+01
 0.1819515932817E+01
 0.1295145023417E+01
 0.3832894648224E+00
-0.8781553420717E+00
 0.2597705064175E+01
 0.2496903873084E+01
 0.2392107311014E+01
 0.2302789573474E+01
 0.2234287349324E+01
 0.2183688137694E+01
 0.2146191175608E+01
 0.2117886073374E+01
 0.2096080296980E+01
 0.2078966492555E+01
 0.2065334255879E+01
 0.2054379396038E+01
 0.2045577700658E+01
 0.2038603096658E+01
 0.2033274682558E+01
 0.2029522525212E+01
 0.2027365994744E+01
 0.2026900544254E+01
 0.2028289512452E+01
 0.2031756206731E+01
 0.2037564733443E+01
 0.2045967009965E+01
 0.2057091507713E+01
 0.2070799678177E+01
 0.2086649208427E+01
 0.2103964305567E+01
 0.2121928878476E+01
 0.2139680082825E+01
 0.2156313833799E+01
 0.2170761735339E+01
 0.2181554372803E+01
 0.2186489295946E+01
 0.2182150763996E+01
 0.2162884876298E+01
 0.2118682290245E+01
 0.2031255011740E+01
 0.1866369786993E+01
 0.1563396354313E+01
 0.1036365351285E+01
 0.2183577109417E+00
-0.8287998165354E+00
 0.2525205188447E+01
 0.2438233542638E+01
 0.2346670412898E+01
 0.2265555213181E+01
 0.2200529706693E+01
 0.2150692352336E+01
 0.2112819393552E+01
 0.2083765558724E+01
 0.2061143648666E+01
 0.2043266810621E+01
 0.2028966079028E+01
 0.2017442050981E+01
 0.2008158742837E+01
 0.2000770494878E+01
 0.1995072599740E+01
 0.1990968122619E+01
 0.1988445678379E+01
 0.1987564346196E+01
 0.1988441928795E+01
 0.1991241159566E+01
 0.1996143159924E+01
 0.2003291758582E+01
 0.2012696254772E+01
 0.2024122435091E+01
 0.2037085708636E+01
 0.2050911476857E+01
 0.2064777615689E+01
 0.2077751179462E+01
 0.2088761857249E+01
 0.2096474213738E+01
 0.2099055452495E+01
 0.2093830008566E+01
 0.2076749788230E+01
 0.2041323344561E+01
 0.1976553112807E+01
 0.1863500524647E+01
 0.1670022463735E+01
 0.1346626608536E+01
 0.8345247993890E+00
 0.1029448070523E+00
-0.7831216062412E+00
 0.2456540017438E+01
 0.2380317875670E+01
 0.2299473567850E+01
 0.2225722970141E+01
 0.2164449358116E+01
 0.2115944663638E+01
 0.2078177695905E+01
 0.2048717971790E+01
 0.2025518572133E+01
 0.2007043578055E+01
 0.1992187008394E+01
 0.1980169331368E+01
 0.1970452846895E+01
 0.1962678963475E+01
 0.1956623507494E+01
 0.1952165269973E+01
 0.1949263708580E+01
 0.1947942380008E+01
 0.1948274206621E+01
 0.1950363188438E+01
 0.1954313447876E+01
 0.1960174259213E+01
 0.1967855827503E+01
 0.1977045156375E+01
 0.1987216758231E+01
 0.1997682421273E+01
 0.2007596711889E+01
 0.2015952632274E+01
 0.2021530819654E+01
 0.2022767098115E+01
 0.2017523467390E+01
 0.2002738519525E+01
 0.1973884565353E+01
 0.1923922072111E+01
 0.1841432830002E+01
 0.1707955455101E+01
 0.1494978040088E+01
 0.1163750557645E+01
 0.6755111079902E+00
 0.2038153206391E-01
-0.7416467429789E+00
 0.2390812594823E+01
 0.2323165122179E+01
 0.2251126174549E+01
 0.2183911462573E+01
 0.2126417371422E+01
 0.2079612614262E+01
 0.2042333761121E+01
 0.2012768096093E+01
 0.1989210212034E+01
 0.1970293426417E+01
 0.1954990806423E+01
 0.1942554948443E+01
 0.1932455198387E+01
 0.1924326091671E+01
 0.1917928108751E+01
 0.1913118514276E+01
 0.1909829422597E+01
 0.1908050171756E+01
 0.1907810256776E+01
 0.1909157879560E+01
 0.1912126764997E+01
 0.1916683679395E+01
 0.1922655500197E+01
 0.1929662908907E+01
 0.1937141030035E+01
 0.1944379028734E+01
 0.1950498532073E+01
 0.1954419766189E+01
 0.1954793082202E+01
 0.1949863532776E+01
 0.1937247180558E+01
 0.1913588893586E+01
 0.1874037173767E+01
 0.1811282379478E+01
 0.1713988521879E+01
 0.1564962706434E+01
 0.1339906532168E+01
 0.1009400105158E+01
 0.5489419310553E+00
-0.3965947671230E-01
-0.7039965875710E+00
 0.2327387908855E+01
 0.2266732243890E+01
 0.2202024123940E+01
 0.2140585689146E+01
 0.2086760456097E+01
 0.2041871489560E+01
 0.2005369955439E+01
 0.1975952105132E+01
 0.1952232280287E+01
 0.1933019316633E+01
 0.1917375891208E+01
 0.1904596120510E+01
 0.1894163707697E+01
 0.1885711675374E+01
 0.1878988986974E+01
 0.1873834096617E+01
 0.1870153762978E+01
 0.1867904801166E+01
 0.1867075362254E+01
 0.1867661479780E+01
 0.1869633182595E+01
 0.1872885309701E+01
 0.1877174051889E+01
 0.1882063459784E+01
 0.1886951259987E+01
 0.1891099258141E+01
 0.1893592041415E+01
 0.1893282226584E+01
 0.1888709916695E+01
 0.1877967030998E+01
 0.1858482816122E+01
 0.1826700331228E+01
 0.1777593778992E+01
 0.1703833128879E+01
 0.1594560063896E+01
 0.1434309657296E+01
 0.1202978965102E+01
 0.8788043614157E+00
 0.4472136660046E+00
-0.8378563612360E-01
-0.6695799641764E+00
 0.2265803123016E+01
 0.2210957182118E+01
 0.2152429026195E+01
 0.2096094814257E+01
 0.2045755897463E+01
 0.2002891009503E+01
 0.1967376473286E+01
 0.1938314700782E+01
 0.1914605506749E+01
 0.1895229690015E+01
 0.1879344869458E+01
 0.1866293287333E+01
 0.1855578817030E+01
 0.1846837563401E+01
 0.1839810456441E+01
 0.1834319777638E+01
 0.1830249044333E+01
 0.1827524558539E+01
 0.1826095670160E+01
 0.1825910264577E+01
 0.1826881193731E+01
 0.1828840642524E+01
 0.1831484494201E+01
 0.1834328112683E+01
 0.1836734412856E+01
 0.1837936272119E+01
 0.1836981132160E+01
 0.1832661974219E+01
 0.1823429499314E+01
 0.1807259382548E+01
 0.1781451411967E+01
 0.1742334373238E+01
 0.1684844021317E+01
 0.1601837745505E+01
 0.1483210213058E+01
 0.1315420280247E+01
 0.1082220226680E+01
 0.7679165910152E+00
 0.3647317349559E+00
-0.1163568439240E+00
-0.6378259971417E+00
 0.2205712671075E+01
 0.2155773757018E+01
 0.2102516146992E+01
 0.2050701942883E+01
 0.2003634537283E+01
 0.1962828096504E+01
 0.1928445623458E+01
 0.1899906216347E+01
 0.1876356105158E+01
 0.1856937589470E+01
 0.1840904028089E+01
 0.1827649796572E+01
 0.1816703286404E+01
 0.1807707488981E+01
 0.1800398402861E+01
 0.1794584657802E+01
 0.1790128721530E+01
 0.1786928623392E+01
 0.1784897760897E+01
 0.1783940064905E+01
 0.1783917406870E+01
 0.1784607477450E+01
 0.1785654588056E+01
 0.1786532246412E+01
 0.1786571724798E+01
 0.1784977741404E+01
 0.1780763338823E+01
 0.1772671752896E+01
 0.1759085397499E+01
 0.1737899203279E+01
 0.1706337508302E+01
 0.1660694709364E+01
 0.1595984843057E+01
 0.1505411984553E+01
 0.1379788722175E+01
 0.1207510073955E+01
 0.9757034643095E+00
 0.6733809960548E+00
 0.2973412050287E+00
-0.1403343885015E+00
-0.6082461145982E+00
 0.2146853213335E+01
 0.2101118374518E+01
 0.2052404161698E+01
 0.2004606444095E+01
 0.1960586656471E+01
 0.1921823750084E+01
 0.1888667715391E+01
 0.1860779998610E+01
 0.1837514291483E+01
 0.1818159785649E+01
 0.1802062804351E+01
 0.1788671567416E+01
 0.1777541960135E+01
 0.1768326885260E+01
 0.1760760111848E+01
 0.1754638990128E+01
 0.1749807159160E+01
 0.1746136766283E+01
 0.1743508283828E+01
 0.1741785906889E+01
 0.1740786342115E+01
 0.1740240017855E+01
 0.1739747203188E+01
 0.1738745654775E+01
 0.1736538674390E+01
 0.1732305287577E+01
 0.1725028863247E+01
 0.1713413957935E+01
 0.1695795526500E+01
 0.1670021171282E+01
 0.1633289094431E+01
 0.1581929179810E+01
 0.1511128275923E+01
 0.1414548184648E+01
 0.1283994746699E+01
 0.1109697291460E+01
 0.8816456758932E+00
 0.5924428767632E+00
 0.2419192563238E+00
-0.1577841376406E+00
-0.5804350463602E+00
 0.2089020485617E+01
 0.2046932780394E+01
 0.2002174043674E+01
 0.1957960378613E+01
 0.1916768393827E+01
 0.1880002394784E+01
 0.1848128423469E+01
 0.1820990263394E+01
 0.1798112927924E+01
 0.1778915941823E+01
 0.1762833261130E+01
 0.1749366748877E+01
 0.1738101527453E+01
 0.1728702697153E+01
 0.1720904097419E+01
 0.1714493998624E+01
 0.1709299417350E+01
 0.1705169088077E+01
 0.1701953662794E+01
 0.1699481746822E+01
 0.1697530304138E+01
 0.1695788964399E+01
 0.1693820583093E+01
 0.1691032777811E+01
 0.1686704943640E+01
 0.1679994073412E+01
 0.1669859887081E+01
 0.1654979887434E+01
 0.1633661589457E+01
 0.1603735968720E+01
 0.1562418703244E+01
 0.1506133630651E+01
 0.1430312075492E+01
 0.1329141513118E+01
 0.1195429989285E+01
 0.1021076953554E+01
 0.7984462017318E+00
 0.5228479097925E+00
 0.1960859809774E+00
-0.1701844711934E+00
-0.5540508437115E+00
 0.2032053559473E+01
 0.1993164898702E+01
 0.1951881288068E+01
 0.1910880517340E+01
 0.1872307703399E+01
 0.1837472577285E+01
 0.1806907300599E+01
 0.1780590467776E+01
 0.1758186341914E+01
 0.1739227835261E+01
 0.1723229575185E+01
 0.1709745373561E+01
 0.1698390273157E+01
 0.1688843182730E+01
 0.1680839922060E+01
 0.1674161693076E+01
 0.1668621043569E+01
 0.1664045782265E+01
 0.1660259846380E+01
 0.1657060262299E+01
 0.1654189289953E+01
 0.1651301585338E+01
 0.1647928528933E+01
 0.1643452850718E+01
 0.1637134372357E+01
 0.1628112504724E+01
 0.1615330107202E+01
 0.1597449305601E+01
 0.1572768932712E+01
 0.1539130825364E+01
 0.1493805417505E+01
 0.1433357100799E+01
 0.1353511720170E+01
 0.1249014891002E+01
 0.1113640333602E+01
 0.9407667958699E+00
 0.7246943001560E+00
 0.4627495846731E+00
 0.1579970660515E+00
-0.1786219868804E+00
-0.5287903037816E+00
 0.1975823879050E+01
 0.1939768763566E+01
 0.1901563958418E+01
 0.1863457141246E+01
 0.1827309510172E+01
 0.1794328317328E+01
 0.1765077109373E+01
 0.1739632161119E+01
 0.1717769350231E+01
 0.1699118658066E+01
 0.1683267554087E+01
 0.1669819018780E+01
 0.1658417827449E+01
 0.1648757711875E+01
 0.1640578015662E+01
 0.1633654687486E+01
 0.1627787877153E+01
 0.1622786923895E+01
 0.1618452099624E+01
 0.1614552689189E+01
 0.1610800923662E+01
 0.1606821773366E+01
 0.1602120535211E+01
 0.1596060011834E+01
 0.1587884932925E+01
 0.1576722045318E+01
 0.1561504476467E+01
 0.1540890293494E+01
 0.1513186783424E+01
 0.1476270583692E+01
 0.1427497590462E+01
 0.1363607807439E+01
 0.1280652607742E+01
 0.1173940660240E+01
 0.1038147039452E+01
 0.8679328419981E+00
 0.6591618441554E+00
 0.4106319331179E+00
 0.1261940531965E+00
-0.1839333988448E+00
-0.5043418193210E+00
 0.1920227465307E+01
 0.1886704045539E+01
 0.1851248065106E+01
 0.1815760511434E+01
 0.1781860016841E+01
 0.1750650707731E+01
 0.1722703699125E+01
 0.1698164239841E+01
 0.1676896494846E+01
 0.1658612416082E+01
 0.1642964198464E+01
 0.1629600489552E+01
 0.1618194928007E+01
 0.1608456574593E+01
 0.1600129505570E+01
 0.1592986034490E+01
 0.1586815878292E+01
 0.1581412294460E+01
 0.1576554842143E+01
 0.1571988706432E+01
 0.1567400424285E+01
 0.1562390108691E+01
 0.1556441912665E+01
 0.1548903410576E+01
 0.1539008756483E+01
 0.1525877158235E+01
 0.1508439147930E+01
 0.1485359375567E+01
 0.1454968839670E+01
 0.1415199209573E+01
 0.1363516069296E+01
 0.1296859501763E+01
 0.1211621456632E+01
 0.1103658855943E+01
 0.9684676617816E+00
 0.8018060825205E+00
 0.6007770912608E+00
 0.3652735088195E+00
 0.9946157034817E-01
-0.1867756625078E+00
-0.4804347967185E+00
 0.1865179290850E+01
 0.1833935398173E+01
 0.1800951225986E+01
 0.1767845641862E+01
 0.1736030232100E+01
 0.1706509532659E+01
 0.1679846219070E+01
 0.1656232512384E+01
 0.1635601467997E+01
 0.1617733423883E+01
 0.1602337309311E+01
 0.1589103521620E+01
 0.1577733190541E+01
 0.1567950793462E+01
 0.1559506050841E+01
 0.1552169067356E+01
 0.1545720970881E+01
 0.1539941228588E+01
 0.1534591514119E+01
 0.1529396347256E+01
 0.1524020587499E+01
 0.1518043916982E+01
 0.1510933894932E+01
 0.1502027311985E+01
 0.1490552196169E+01
 0.1475625341694E+01
 0.1456181573627E+01
 0.1430901855360E+01
 0.1398154120451E+01
 0.1355941593806E+01
 0.1301857673920E+01
 0.1233057674375E+01
 0.1146276594897E+01
 0.1037891086715E+01
 0.9041322113187E+00
 0.7416818300145E+00
 0.5486290536680E+00
 0.3256099824852E+00
 0.7705670352073E-01
-0.1884655427393E+00
-0.4553290837324E+00
 0.1810611849509E+01
 0.1781439034163E+01
 0.1750695986838E+01
 0.1719770063504E+01
 0.1689896084086E+01
 0.1661984910426E+01
 0.1636580424109E+01
 0.1613905162390E+01
 0.1593945171429E+01
 0.1576537223478E+01
 0.1561439400293E+01
 0.1548379762069E+01
 0.1537085215588E+01
 0.1527295417428E+01
 0.1518766397214E+01
 0.1511267311886E+01
 0.1504572438080E+01
 0.1498449660729E+01
 0.1492645491858E+01
 0.1486867057083E+01
 0.1480761311480E+01
 0.1473891631270E+01
 0.1465713237331E+01
 0.1455556369914E+01
 0.1442647270916E+01
 0.1426105308522E+01
 0.1404876049607E+01
 0.1377665393633E+01
 0.1342889238989E+01
 0.1298635129080E+01
 0.1242636520963E+01
 0.1172270731834E+01
 0.1084607770856E+01
 0.9765061158703E+00
 0.8448430615547E+00
 0.6870719982440E+00
 0.5020402662532E+00
 0.2909367748615E+00
 0.5807748602194E-01
-0.1882767743405E+00
-0.4361994010485E+00
 0.1756463719470E+01
 0.1729186302393E+01
 0.1700488136220E+01
 0.1671566734753E+01
 0.1643505286912E+01
 0.1617127950764E+01
 0.1592953291235E+01
 0.1571221592156E+01
 0.1551958944578E+01
 0.1535048197470E+01
 0.1520289584842E+01
 0.1507444768136E+01
 0.1496264519965E+01
 0.1486503198707E+01
 0.1477923598129E+01
 0.1470295023487E+01
 0.1463386503831E+01
 0.1456956418967E+01
 0.1450738680869E+01
 0.1444426067991E+01
 0.1437651107242E+01
 0.1429964644046E+01
 0.1420813464134E+01
 0.1409525182056E+01
 0.1395328327225E+01
 0.1377349502951E+01
 0.1354550843446E+01
 0.1325670582904E+01
 0.1289181459496E+01
 0.1243264674836E+01
 0.1185801032827E+01
 0.1114390171463E+01
 0.1026422262559E+01
 0.9191951066300E+00
 0.7901487644959E+00
 0.6373712674992E+00
 0.4603045601985E+00
 0.2604652764038E+00
 0.4213656646388E-01
-0.1875253107031E+00
-0.4183509136921E+00
 0.1702685117513E+01
 0.1677147629501E+01
 0.1650322957252E+01
 0.1623250072455E+01
 0.1596882148212E+01
 0.1571963768615E+01
 0.1548984360162E+01
 0.1528192499989E+01
 0.1509643819663E+01
 0.1493258336349E+01
 0.1478872066757E+01
 0.1466276339387E+01
 0.1455243770410E+01
 0.1445542753208E+01
 0.1436943107134E+01
 0.1429215205595E+01
 0.1422124267986E+01
 0.1415421069738E+01
 0.1408829271491E+01
 0.1402030081572E+01
 0.1394644743061E+01
 0.1386214971778E+01
 0.1376182644430E+01
 0.1363876327602E+01
 0.1348530581298E+01
 0.1329283488702E+01
 0.1305118894758E+01
 0.1274813596026E+01
 0.1236904160708E+01
 0.1189672012301E+01
 0.1131148886246E+01
 0.1059152833490E+01
 0.9713757673422E+00
 0.8655126449058E+00
 0.7394897259784E+00
 0.5919192105939E+00
 0.4226896200525E+00
 0.2335521951308E+00
 0.2854567580420E-01
-0.1858734563209E+00
-0.4019578925508E+00
 0.1649233815728E+01
 0.1625302087286E+01
 0.1600202765033E+01
 0.1574841816809E+01
 0.1550060358414E+01
 0.1526530508401E+01
 0.1504710618429E+01
 0.1484850566907E+01
 0.1467027088267E+01
 0.1451189802350E+01
 0.1437204815600E+01
 0.1424889414436E+01
 0.1414036019074E+01
 0.1404426274153E+01
 0.1395837144944E+01
 0.1388040856391E+01
 0.1380800125708E+01
 0.1373859886850E+01
 0.1366935734050E+01
 0.1359699877280E+01
 0.1351765169230E+01
 0.1342667312629E+01
 0.1331846504715E+01
 0.1318635546295E+01
 0.1302278452529E+01
 0.1281928601768E+01
 0.1256595993126E+01
 0.1225101049688E+01
 0.1186049347269E+01
 0.1137826504502E+01
 0.1078615451539E+01
 0.1006445103516E+01
 0.9192880119851E+00
 0.8151943010954E+00
 0.6925079207865E+00
 0.5502676804753E+00
 0.3887041917270E+00
 0.2096868506494E+00
 0.1702237918355E-01
-0.1836429417223E+00
-0.3858952103777E+00
 0.1596073644518E+01
 0.1573631016319E+01
 0.1550128370053E+01
 0.1526359348437E+01
 0.1503068122448E+01
 0.1480861076650E+01
 0.1460164863296E+01
 0.1441225551752E+01
 0.1424134247081E+01
 0.1408863799928E+01
 0.1395305382678E+01
 0.1383298809899E+01
 0.1372654313407E+01
 0.1363165939646E+01
 0.1354617811931E+01
 0.1346784670737E+01
 0.1339427914167E+01
 0.1332288260418E+01
 0.1325075259166E+01
 0.1317454493751E+01
 0.1309033080162E+01
 0.1299343553272E+01
 0.1287827370934E+01
 0.1273824545528E+01
 0.1256591625452E+01
 0.1235300633833E+01
 0.1208991451660E+01
 0.1176532077263E+01
 0.1136600628742E+01
 0.1087688676888E+01
 0.1028127955379E+01
 0.9561481331848E+00
 0.8699798743092E+00
 0.7679884040098E+00
 0.6488735836479E+00
 0.5120208746816E+00
 0.3579133481256E+00
 0.1884736408788E+00
 0.7244882148803E-02
-0.1808053431904E+00
-0.3701140824083E+00
 0.1543173321393E+01
 0.1522117735473E+01
 0.1500099448414E+01
 0.1477816582402E+01
 0.1455929101196E+01
 0.1434983890811E+01
 0.1415376151513E+01
 0.1397344473589E+01
 0.1380988995345E+01
 0.1366300471253E+01
 0.1353190753411E+01
 0.1341519062877E+01
 0.1331111543854E+01
 0.1321773770663E+01
 0.1313296957375E+01
 0.1305458921105E+01
 0.1298020807080E+01
 0.1290720609258E+01
 0.1283263694339E+01
 0.1275311196697E+01
 0.1266466919577E+01
 0.1256262815124E+01
 0.1244144258476E+01
 0.1229461141146E+01
 0.1211485260190E+01
 0.1189410151245E+01
 0.1162308598896E+01
 0.1129099083950E+01
 0.1088534347975E+01
 0.1039211820566E+01
 0.9796076081055E+00
 0.9081403150843E+00
 0.8232758718280E+00
 0.7236569992405E+00
 0.6082853117496E+00
 0.4768253782544E+00
 0.3299442842163E+00
 0.1695681739561E+00
-0.1022120785973E-02
-0.1774071089587E+00
-0.3546437915744E+00
 0.1490505555943E+01
 0.1470747252851E+01
 0.1450114844034E+01
 0.1429224656599E+01
 0.1408663194018E+01
 0.1388923532234E+01
 0.1370370231789E+01
 0.1353231828880E+01
 0.1337613293196E+01
 0.1323518859599E+01
 0.1310877265788E+01
 0.1299564335693E+01
 0.1289420351129E+01
 0.1280261548035E+01
 0.1271886109054E+01
 0.1264075401651E+01
 0.1256591275986E+01
 0.1249170363768E+01
 0.1241515554378E+01
 0.1233285523424E+01
 0.1224082965029E+01
 0.1213441583610E+01
 0.1200813051259E+01
 0.1185559495902E+01
 0.1166970310305E+01
 0.1144262928660E+01
 0.1116545384031E+01
 0.1082788597149E+01
 0.1041820756538E+01
 0.9923435546596E+00
 0.9329715301605E+00
 0.8622994126375E+00
 0.7790059338618E+00
 0.6819767436216E+00
 0.5704678988455E+00
 0.4443672231963E+00
 0.3044723339343E+00
 0.1526794327615E+00
-0.7976202465834E-02
-0.1735245898656E+00
-0.3395226318457E+00
 0.1438046334277E+01
 0.1419506007410E+01
 0.1400172784007E+01
 0.1380592463658E+01
 0.1361287168187E+01
 0.1342701295899E+01
 0.1325169928799E+01
 0.1308909802186E+01
 0.1294027435400E+01
 0.1280536894634E+01
 0.1268380548721E+01
 0.1257448335604E+01
 0.1247593043675E+01
 0.1238640736067E+01
 0.1230396407303E+01
 0.1222645375620E+01
 0.1215151054277E+01
 0.1207649950990E+01
 0.1199844033013E+01
 0.1191391326988E+01
 0.1181895410290E+01
 0.1170893834065E+01
 0.1157846677421E+01
 0.1142130355621E+01
 0.1123053839010E+01
 0.1099860377751E+01
 0.1071694964786E+01
 0.1037582070292E+01
 0.9964250892956E+00
 0.9470271951456E+00
 0.8881343640516E+00
 0.8185041954164E+00
 0.7370066645440E+00
 0.6427389745242E+00
 0.5351707045142E+00
 0.4143669301363E+00
 0.2812144702729E+00
 0.1375586287337E+00
-0.1379040846941E-01
-0.1692413580801E+00
-0.3247780861791E+00
 0.1385774343705E+01
 0.1368381643004E+01
 0.1350271027042E+01
 0.1331927059011E+01
 0.1313815159388E+01
 0.1296335641894E+01
 0.1279795468678E+01
 0.1264398450093E+01
 0.1250250116101E+01
 0.1237371374212E+01
 0.1225715454882E+01
 0.1215184223772E+01
 0.1205641498625E+01
 0.1196922384576E+01
 0.1188838513337E+01
 0.1181179493641E+01
 0.1173711069099E+01
 0.1166170744434E+01
 0.1158260975740E+01
 0.1149640777530E+01
 0.1139916400580E+01
 0.1128631106321E+01
 0.1115255230154E+01
 0.1099181227182E+01
 0.1079739272547E+01
 0.1056199904100E+01
 0.1027746205529E+01
 0.9934565643059E+00
 0.9523084620830E+00
 0.9032028673013E+00
 0.8450095213072E+00
 0.7766356152629E+00
 0.6971220470771E+00
 0.6057494032962E+00
 0.5021656357956E+00
 0.3865753601561E+00
 0.2599230405312E+00
 0.1239904488288E+00
-0.1861779419741E-01
-0.1646370953007E+00
-0.3104267870733E+00
 0.1333670504281E+01
 0.1317362820776E+01
 0.1300406978473E+01
 0.1283233995879E+01
 0.1266259098113E+01
 0.1249842599557E+01
 0.1234264793375E+01
 0.1219715905864E+01
 0.1206298536132E+01
 0.1194038000851E+01
 0.1182896053778E+01
 0.1172784586790E+01
 0.1163577126718E+01
 0.1155117096590E+01
 0.1147222585668E+01
 0.1139687783207E+01
 0.1132281447958E+01
 0.1124743092312E+01
 0.1116776934689E+01
 0.1108044449152E+01
 0.1098156156960E+01
 0.1086662672505E+01
 0.1073046186310E+01
 0.1056716658849E+01
 0.1037026758940E+01
 0.1013275368130E+01
 0.9846842697511E+00
 0.9503855004268E+00
 0.9094287997298E+00
 0.8608085862818E+00
 0.8035103220500E+00
 0.7365777993219E+00
 0.6592039496945E+00
 0.5708276721618E+00
 0.4712452632791E+00
 0.3607701118106E+00
 0.2403803814272E+00
 0.1117869868926E+00
-0.2259358417222E-01
-0.1597835918589E+00
-0.2964769132845E+00
 0.1281717582255E+01
 0.1266439051834E+01
 0.1250577762971E+01
 0.1234517577712E+01
 0.1218629043238E+01
 0.1203236090745E+01
 0.1188593815304E+01
 0.1174878543991E+01
 0.1162188482964E+01
 0.1150551396117E+01
 0.1139935602436E+01
 0.1130261382389E+01
 0.1121410806757E+01
 0.1113234960809E+01
 0.1105558216802E+01
 0.1098179594286E+01
 0.1090871477481E+01
 0.1083376293790E+01
 0.1075401167095E+01
 0.1066611345572E+01
 0.1056623034352E+01
 0.1044995633159E+01
 0.1031224547779E+01
 0.1014738436988E+01
 0.9949134345106E+00
 0.9710774405818E+00
 0.9424910861863E+00
 0.9083392546542E+00
 0.8677415599643E+00
 0.8197810749411E+00
 0.7635508077864E+00
 0.6982186686970E+00
 0.6231122600840E+00
 0.5378066376511E+00
 0.4422209077501E+00
 0.3367522212125E+00
 0.2223943141872E+00
 0.1007833423698E+00
-0.2583696313425E-01
-0.1547438100726E+00
-0.2829307749759E+00
 0.1229899872604E+01
 0.1215600557687E+01
 0.1200780281308E+01
 0.1185781066869E+01
 0.1170933466223E+01
 0.1156528215682E+01
 0.1142796654705E+01
 0.1129901147424E+01
 0.1117934428561E+01
 0.1106925142411E+01
 0.1096846548367E+01
 0.1087625919499E+01
 0.1079152855215E+01
 0.1071285519705E+01
 0.1063854406247E+01
 0.1056663582192E+01
 0.1049489600521E+01
 0.1042078614726E+01
 0.1034141674245E+01
 0.1025348967105E+01
 0.1015323621636E+01
 0.1003635056067E+01
 0.9897930259779E+00
 0.9732458254263E+00
 0.9533937303417E+00
 0.9295939910484E+00
 0.9011458343061E+00
 0.8672857485604E+00
 0.8272004198903E+00
 0.7800565015049E+00
 0.7250464306495E+00
 0.6614504074050E+00
 0.5887148882013E+00
 0.5065316193133E+00
 0.4149208841589E+00
 0.3143433098956E+00
 0.2057945125976E+00
 0.9083426251035E-01
-0.2845280251515E-01
-0.1495722995984E+00
-0.2697868330889E+00
 0.1178202932606E+01
 0.1164838149201E+01
 0.1151011249350E+01
 0.1137026851136E+01
 0.1123179485777E+01
 0.1109729496023E+01
 0.1096885848233E+01
 0.1084797060889E+01
 0.1073549625068E+01
 0.1063171829980E+01
 0.1053640541349E+01
 0.1044888848147E+01
 0.1036813005367E+01
 0.1029277746383E+01
 0.1022119541445E+01
 0.1015147697645E+01
 0.1008143419811E+01
 0.1000857309228E+01
 0.9930052453564E+00
 0.9842633814331E+00
 0.9742628441376E+00
 0.9625841158248E+00
 0.9487522248710E+00
 0.9322357999279E+00
 0.9124596681349E+00
 0.8888104561432E+00
 0.8606253937681E+00
 0.8271909808141E+00
 0.7877578721602E+00
 0.7415710910742E+00
 0.6879145841946E+00
 0.6261697597649E+00
 0.5558876259188E+00
 0.4768595983925E+00
 0.3891888653241E+00
 0.2933831045486E+00
 0.1904295163192E+00
 0.8181142107169E-01
-0.3053334793505E-01
-0.1443161097055E+00
-0.2570411522543E+00
 0.1126613359395E+01
 0.1114143120064E+01
 0.1101267221538E+01
 0.1088256572609E+01
 0.1075373055831E+01
 0.1062849073418E+01
 0.1050872521650E+01
 0.1039578318253E+01
 0.1029046182597E+01
 0.1019303090852E+01
 0.1010328433913E+01
 0.1002060137682E+01
 0.9944003730961E+00
 0.9872200058722E+00
 0.9803613607670E+00
 0.9736391564843E+00
 0.9668396788099E+00
 0.9597186158362E+00
 0.9519974732906E+00
 0.9433592631583E+00
 0.9334440315321E+00
 0.9218441950204E+00
 0.9081007811424E+00
 0.8917032341473E+00
 0.8721010996687E+00
 0.8487101399758E+00
 0.8209047101196E+00
 0.7880194533673E+00
 0.7493656893837E+00
 0.7042615777237E+00
 0.6520749540529E+00
 0.5922781472132E+00
 0.5245138634137E+00
 0.4486583642804E+00
 0.3648823464723E+00
 0.2737272620269E+00
 0.1761642225808E+00
 0.7360113127356E-01
-0.3215980831859E-01
-0.1390158068917E+00
-0.2446883764722E+00
 0.1075118602651E+01
 0.1063507158979E+01
 0.1051544613139E+01
 0.1039471241775E+01
 0.1027519134751E+01
 0.1015894894284E+01
 0.1004766558985E+01
 0.9942557781560E+00
 0.9844351658251E+00
 0.9753296597149E+00
 0.9669203144331E+00
 0.9591490913210E+00
 0.9519234615824E+00
 0.9451200572790E+00
 0.9385869590825E+00
 0.9321444536357E+00
 0.9255842884359E+00
 0.9186678011313E+00
 0.9111228190937E+00
 0.9026399833635E+00
 0.8928690366559E+00
 0.8814150368202E+00
 0.8678355555461E+00
 0.8516411352481E+00
 0.8323059922920E+00
 0.8092745538288E+00
 0.7819571886694E+00
 0.7497346101439E+00
 0.7119753816958E+00
 0.6680656301834E+00
 0.6174498292701E+00
 0.5596817502331E+00
 0.4944843050904E+00
 0.4218057354644E+00
 0.3418713021153E+00
 0.2552455263701E+00
 0.1628777995764E+00
 0.6610241714185E-01
-0.3340380219618E-01
-0.1337064582785E+00
-0.2327224192301E+00
 0.1023706804896E+01
 0.1012922270346E+01
 0.1001839710952E+01
 0.9906713242319E+00
 0.9796218190983E+00
 0.9688738582073E+00
 0.9585767390995E+00
 0.9488392324889E+00
 0.9397266683519E+00
 0.9312614157580E+00
 0.9234255224484E+00
 0.9161643426399E+00
 0.9093901465463E+00
 0.9029850344859E+00
 0.8968027695764E+00
 0.8906693508418E+00
 0.8843823249594E+00
 0.8777091717328E+00
 0.8703846419015E+00
 0.8621076612183E+00
 0.8525383126648E+00
 0.8412948516841E+00
 0.8279517733970E+00
 0.8120408224626E+00
 0.7930606493213E+00
 0.7704836801779E+00
 0.7437549991260E+00
 0.7122991700806E+00
 0.6755385309763E+00
 0.6329221388924E+00
 0.5839642686464E+00
 0.5282914568699E+00
 0.4656965915305E+00
 0.3961887609994E+00
 0.3200369311676E+00
 0.2378200919303E+00
 0.1504618805758E+00
 0.5922534079469E-01
-0.3432865240380E-01
-0.1284185011364E+00
-0.2211369063728E+00
 0.9723666665012E+00
 0.9623807082339E+00
 0.9521486843027E+00
 0.9418568178850E+00
 0.9316844637212E+00
 0.9217919541744E+00
 0.9123108653947E+00
 0.9033375148851E+00
 0.8949298936857E+00
 0.8871074364928E+00
 0.8798526798044E+00
 0.8731138703751E+00
 0.8668076813551E+00
 0.8608214476743E+00
 0.8550145670169E+00
 0.8492188862878E+00
 0.8432380500774E+00
 0.8368461085937E+00
 0.8297852510579E+00
 0.8217632374316E+00
 0.8124510113082E+00
 0.8014804439551E+00
 0.7884431829268E+00
 0.7728921203446E+00
 0.7543499402819E+00
 0.7323162395032E+00
 0.7062693734783E+00
 0.6756754417165E+00
 0.6400070943003E+00
 0.5987714626078E+00
 0.5515462248885E+00
 0.4980227821577E+00
 0.4380549271795E+00
 0.3717029879693E+00
 0.2992705486628E+00
 0.2213441926932E+00
 0.1388190249930E+00
 0.5288956798709E-01
-0.3499052152293E-01
-0.1231784976380E+00
-0.2099254863319E+00
 0.9210873292078E+00
 0.9118749190717E+00
 0.9024675931707E+00
 0.8930273181655E+00
 0.8837097851531E+00
 0.8746543799146E+00
 0.8659758816563E+00
 0.8577585998913E+00
 0.8500532314755E+00
 0.8428760505411E+00
 0.8362097233015E+00
 0.8300050161790E+00
 0.8241827056853E+00
 0.8186351884481E+00
 0.8132274743176E+00
 0.8077973869885E+00
 0.8021549330330E+00
 0.7960811024260E+00
 0.7893259581996E+00
 0.7816065462045E+00
 0.7726050778437E+00
 0.7619673326957E+00
 0.7493022047405E+00
 0.7341835389114E+00
 0.7161575123856E+00
 0.6947499309249E+00
 0.6694708684911E+00
 0.6398255919694E+00
 0.6053336515502E+00
 0.5655556125794E+00
 0.5201266077039E+00
 0.4687957413246E+00
 0.4114696950686E+00
 0.3482517692817E+00
 0.2794725850902E+00
 0.2057208627908E+00
 0.1278613843943E+00
 0.4702312488898E-01
-0.3543940278073E-01
-0.1180097787172E+00
-0.1990820433412E+00
 0.8698582762660E+00
 0.8613974913712E+00
 0.8527923934552E+00
 0.8441820719687E+00
 0.8356999487409E+00
 0.8274656435499E+00
 0.8195779714831E+00
 0.8121096883618E+00
 0.8051043228232E+00
 0.7985748818087E+00
 0.7925039301671E+00
 0.7868444957672E+00
 0.7815212474398E+00
 0.7764315275679E+00
 0.7714459607300E+00
 0.7664084715805E+00
 0.7611356617100E+00
 0.7554157764604E+00
 0.7490071147906E+00
 0.7416363704492E+00
 0.7329973266573E+00
 0.7227498501813E+00
 0.7105200552219E+00
 0.6959024231430E+00
 0.6784659656645E+00
 0.6577616295497E+00
 0.6333295768825E+00
 0.6047118552133E+00
 0.5714715862099E+00
 0.5332183667801E+00
 0.4896392815893E+00
 0.4405346743615E+00
 0.3858570549402E+00
 0.3257456023897E+00
 0.2605516735173E+00
 0.1908618368186E+00
 0.1175095371861E+00
 0.4156131832423E-01
-0.3571997737242E-01
-0.1129329844627E+00
-0.1886008339034E+00
 0.8186692461289E+00
 0.8109411145650E+00
 0.8031189452594E+00
 0.7953200298515E+00
 0.7876566517110E+00
 0.7802296616184E+00
 0.7731226566639E+00
 0.7663972955614E+00
 0.7600901323249E+00
 0.7542109040403E+00
 0.7487419568921E+00
 0.7436384256983E+00
 0.7388287419510E+00
 0.7342151311570E+00
 0.7296738593500E+00
 0.7250550730157E+00
 0.7201821739911E+00
 0.7148509295993E+00
 0.7088281699150E+00
 0.7018505168098E+00
 0.6936235358335E+00
 0.6838212579760E+00
 0.6720868854851E+00
 0.6580351151363E+00
 0.6412570368352E+00
 0.6213275875302E+00
 0.5978153363139E+00
 0.5702967340854E+00
 0.5383752530306E+00
 0.5017053696156E+00
 0.4600210541208E+00
 0.4131680755702E+00
 0.3611385722910E+00
 0.3041015354494E+00
 0.2424238454747E+00
 0.1766865939555E+00
 0.1076914828418E+00
 0.3644580478443E-01
-0.3587235501109E-01
-0.1079665256365E+00
-0.1784765973960E+00
 0.7675101572952E+00
 0.7604985430119E+00
 0.7534430199236E+00
 0.7464398912571E+00
 0.7395811954710E+00
 0.7329498447076E+00
 0.7266148833287E+00
 0.7206273282805E+00
 0.7150170107262E+00
 0.7097904874287E+00
 0.7049298711148E+00
 0.7003923436621E+00
 0.6961100446619E+00
 0.6919900699541E+00
 0.6879143769291E+00
 0.6837394525609E+00
 0.6792956791941E+00
 0.6743865681877E+00
 0.6687877149648E+00
 0.6622458755546E+00
 0.6544785242050E+00
 0.6451738426550E+00
 0.6339918965982E+00
 0.6205670885172E+00
 0.6045117507179E+00
 0.5854235973605E+00
 0.5628978950271E+00
 0.5365431518638E+00
 0.5060000940724E+00
 0.4709641806895E+00
 0.4312116202851E+00
 0.3866283947921E+00
 0.3372408446118E+00
 0.2832426048330E+00
 0.2250117960603E+00
 0.1631215042904E+00
 0.9834175699446E-01
 0.3162377920865E-01
-0.3593271249328E-01
-0.1031269718957E+00
-0.1687046292757E+00
 0.7163710427030E+00
 0.7100625661258E+00
 0.7037603089500E+00
 0.6975401479039E+00
 0.6914745536605E+00
 0.6856291780346E+00
 0.6800591036362E+00
 0.6748051589804E+00
 0.6698907564725E+00
 0.6653194459369E+00
 0.6610731857335E+00
 0.6571112321111E+00
 0.6533694478648E+00
 0.6497598329861E+00
 0.6461701081718E+00
 0.6424632180977E+00
 0.6384766833868E+00
 0.6340219409948E+00
 0.6288835306060E+00
 0.6228184815049E+00
 0.6155562278427E+00
 0.6067990089454E+00
 0.5962234497079E+00
 0.5834830746846E+00
 0.5682105598620E+00
 0.5500251393300E+00
 0.5285470575326E+00
 0.5034145814458E+00
 0.4743027297228E+00
 0.4409443003609E+00
 0.4031534907047E+00
 0.3608518364962E+00
 0.3140951468617E+00
 0.2630973191744E+00
 0.2082442245626E+00
 0.1500990747144E+00
 0.8940065817369E-01
 0.2704727143750E-01
-0.3593384385392E-01
-0.9842938163901E-01
-0.1592808401651E+00
 0.6652419920769E+00
 0.6596259840249E+00
 0.6540664353129E+00
 0.6486191266415E+00
 0.6433374376247E+00
 0.6382702985636E+00
 0.6334593541885E+00
 0.6289356976185E+00
 0.6247166762794E+00
 0.6208030850379E+00
 0.6171768946712E+00
 0.6137995444994E+00
 0.6106107006900E+00
 0.6075273448347E+00
 0.6044430536994E+00
 0.6012273459116E+00
 0.5977250177693E+00
 0.5937555765964E+00
 0.5891126352055E+00
 0.5835635751812E+00
 0.5768497751714E+00
 0.5686873695122E+00
 0.5587691704002E+00
 0.5467671804397E+00
 0.5323334723246E+00
 0.5151075136924E+00
 0.4947328117566E+00
 0.4708751533935E+00
 0.4432410282701E+00
 0.4115971765333E+00
 0.3757919083494E+00
 0.3357781602493E+00
 0.2916370969648E+00
 0.2435991863213E+00
 0.1920552416467E+00
 0.1375572807243E+00
 0.8081357028183E-01
 0.2267253533747E-01
-0.3590563396481E-01
-0.9388758331380E-01
-0.1502018059031E+00
 0.6141131007650E+00
 0.6091815877555E+00
 0.6043569668610E+00
 0.5996750318963E+00
 0.5951703594648E+00
 0.5908755684579E+00
 0.5868193303408E+00
 0.5830234595765E+00
 0.5794996424151E+00
 0.5762462469303E+00
 0.5732455068431E+00
 0.5704612302890E+00
 0.5678370282041E+00
 0.5652949821110E+00
 0.5627346370779E+00
 0.5600322011639E+00
 0.5570398651253E+00
 0.5535853179627E+00
 0.5494713293369E+00
 0.5444756586135E+00
 0.5383515550193E+00
 0.5308288256069E+00
 0.5216160415052E+00
 0.5104029913312E+00
 0.4968601622299E+00
 0.4806459527007E+00
 0.4614254335571E+00
 0.4388897398974E+00
 0.4127741518690E+00
 0.3828761912824E+00
 0.3490747525352E+00
 0.3113504805712E+00
 0.2698063372531E+00
 0.2246862758275E+00
 0.1763838318890E+00
 0.1254389698367E+00
 0.7253036557932E-01
 0.1845951720065E-01
-0.3587546539944E-01
-0.8951441414453E-01
-0.1414648105122E+00
 0.5629744239159E+00
 0.5587221437327E+00
 0.5546274323322E+00
 0.5507059888518E+00
 0.5469736940778E+00
 0.5434471461858E+00
 0.5401424573819E+00
 0.5370726302104E+00
 0.5342441467663E+00
 0.5316533529415E+00
 0.5292830777864E+00
 0.5270997580390E+00
 0.5250511488661E+00
 0.5230645883703E+00
 0.5210457201552E+00
 0.5188775563178E+00
 0.5164197836401E+00
 0.5135083535863E+00
 0.5099552357433E+00
 0.5055485452497E+00
 0.5000532771151E+00
 0.4932126382158E+00
 0.4847504841797E+00
 0.4743736608460E+00
 0.4617700636771E+00
 0.4466157136759E+00
 0.4285955705403E+00
 0.4074240174548E+00
 0.3828625825108E+00
 0.3547366314631E+00
 0.3229524342611E+00
 0.2875150691812E+00
 0.2485462326377E+00
 0.2063008144412E+00
 0.1611733652885E+00
 0.1136913269849E+00
 0.6450487709666E-01
 0.1437139329310E-01
-0.3586856619606E-01
-0.8532192132258E-01
-0.1330678851635E+00
 0.5118159353485E+00
 0.5082403838384E+00
 0.5048733431935E+00
 0.5017100921871E+00
 0.4987477462051E+00
 0.4959870621344E+00
 0.4934319660089E+00
 0.4910871338932E+00
 0.4889543599973E+00
 0.4870284519233E+00
 0.4852932483446E+00
 0.4837181466262E+00
 0.4822553011026E+00
 0.4808374989684E+00
 0.4793766289494E+00
 0.4777626204929E+00
 0.4758627417719E+00
 0.4735212595236E+00
 0.4705593497904E+00
 0.4667754196307E+00
 0.4619460413125E+00
 0.4558275065850E+00
 0.4481584447325E+00
 0.4386620035159E+00
 0.4270424666983E+00
 0.4129921724726E+00
 0.3962143251972E+00
 0.3764445288566E+00
 0.3534681489232E+00
 0.3271356640691E+00
 0.2973778027260E+00
 0.2642211774645E+00
 0.2278036000452E+00
 0.1883888245976E+00
 0.1463711624579E+00
 0.1022654015163E+00
 0.5669443649443E-01
 0.1037417108587E-01
-0.3590830383947E-01
-0.8132153197919E-01
-0.1250098511041E+00
 0.4606274890141E+00
 0.4577289974798E+00
 0.4550902164565E+00
 0.4526854540338E+00
 0.4504928144066E+00
 0.4484972886272E+00
 0.4466909598262E+00
 0.4450706930980E+00
 0.4436341792547E+00
 0.4423752561388E+00
 0.4412792700930E+00
 0.4403189826132E+00
 0.4394512554505E+00
 0.4386145508179E+00
 0.4377271636213E+00
 0.4366860519010E+00
 0.4353661350026E+00
 0.4336200219002E+00
 0.4312780687508E+00
 0.4281488740400E+00
 0.4240203817175E+00
 0.4186616193873E+00
 0.4118254517192E+00
 0.4032505559359E+00
 0.3926565789983E+00
 0.3797508811243E+00
 0.3642533015365E+00
 0.3459187093761E+00
 0.3245540202834E+00
 0.3000322833687E+00
 0.2723060311756E+00
 0.2414208482742E+00
 0.2075284389536E+00
 0.1708997763086E+00
 0.1319280846555E+00
 0.9111566886606E-01
 0.4905945485547E-01
 0.6436339663610E-02
-0.3601642960368E-01
-0.7752418490002E-01
-0.1172903562602E+00
 0.4093987836369E+00
 0.4071806294808E+00
 0.4052736053482E+00
 0.4036302607516E+00
 0.4022092637817E+00
 0.4009798179829E+00
 0.3999224900536E+00
 0.3990268941344E+00
 0.3982872824489E+00
 0.3976971841396E+00
 0.3972440385422E+00
 0.3969044463803E+00
 0.3966403364815E+00
 0.3963961028527E+00
 0.3960966199062E+00
 0.3956459822709E+00
 0.3949268148601E+00
 0.3938000717111E+00
 0.3921052331295E+00
 0.3896609566570E+00
 0.3862663214960E+00
 0.3817027154887E+00
 0.3757366813596E+00
 0.3681216447662E+00
 0.3585915934769E+00
 0.3468676304817E+00
 0.3326846566778E+00
 0.3158149190217E+00
 0.2960847085792E+00
 0.2733872709769E+00
 0.2476945216524E+00
 0.2190687538634E+00
 0.1876736956619E+00
 0.1537862794211E+00
 0.1177981685931E+00
 0.8019963913817E-01
 0.4156305206763E-01
 0.2528571164249E-02
-0.3621327216437E-01
-0.7394042791690E-01
-0.1099099123485E+00
 0.3581193282649E+00
 0.3565878820642E+00
 0.3554191361306E+00
 0.3545428366047E+00
 0.3538976048655E+00
 0.3534367450662E+00
 0.3531296327538E+00
 0.3529592537164E+00
 0.3529171822744E+00
 0.3529974029313E+00
 0.3531901256890E+00
 0.3534763379695E+00
 0.3538234449136E+00
 0.3541820571020E+00
 0.3544838114271E+00
 0.3546400422233E+00
 0.3545411187255E+00
 0.3540563199924E+00
 0.3530341676943E+00
 0.3513032184860E+00
 0.3486734252697E+00
 0.3449381408887E+00
 0.3398770175728E+00
 0.3332574478033E+00
 0.3248267475072E+00
 0.3143185038332E+00
 0.3014811435399E+00
 0.2861024672451E+00
 0.2680260663279E+00
 0.2471631558550E+00
 0.2235028157405E+00
 0.1971220468436E+00
 0.1681950476209E+00
 0.1370038016005E+00
 0.1039382898898E+00
 0.6947749495641E-01
 0.3417071770207E-01
-0.1376537821584E-02
-0.3651788087200E-01
-0.7058046842723E-01
-0.1028699349019E+00
 0.3067784081138E+00
 0.3059433191162E+00
 0.3055225490673E+00
 0.3054217114168E+00
 0.3055585744521E+00
 0.3058703483727E+00
 0.3063155607812E+00
 0.3068712767713E+00
 0.3075272687358E+00
 0.3082788567328E+00
 0.3091197979238E+00
 0.3100360874765E+00
 0.3110010636425E+00
 0.3119718630622E+00
 0.3128870745743E+00
 0.3136653683124E+00
 0.3142048802242E+00
 0.3143831723060E+00
 0.3140577003570E+00
 0.3130667364888E+00
 0.3112308259059E+00
 0.3083548781310E+00
 0.3042310825560E+00
 0.2986400238484E+00
 0.2913413497175E+00
 0.2820798975243E+00
 0.2706161211941E+00
 0.2567516075092E+00
 0.2403452581381E+00
 0.2213241539586E+00
 0.1996924922935E+00
 0.1755402062925E+00
 0.1490506908664E+00
 0.1205103957019E+00
 0.9030783875581E-01
 0.5891174103591E-01
 0.2684998607904E-01
-0.5304695161015E-02
-0.3694811133837E-01
-0.6745415713122E-01
-0.9617275569609E-01
 0.2553650504051E+00
 0.2552394787913E+00
 0.2555797541495E+00
 0.2562657071431E+00
 0.2571932366952E+00
 0.2582831908903E+00
 0.2594836343101E+00
 0.2607665319284E+00
 0.2621208692942E+00
 0.2635443142321E+00
 0.2650350540535E+00
 0.2665847876126E+00
 0.2681732881460E+00
 0.2697645485720E+00
 0.2713043018155E+00
 0.2727186401576E+00
 0.2739134710667E+00
 0.2747745757192E+00
 0.2751682142674E+00
 0.2749421703041E+00
 0.2739272849054E+00
 0.2719396089839E+00
 0.2687833000316E+00
 0.2642513745264E+00
 0.2581148381255E+00
 0.2501285727589E+00
 0.2400635969887E+00
 0.2277335652649E+00
 0.2130107685058E+00
 0.1958361480159E+00
 0.1762271097435E+00
 0.1542849324867E+00
 0.1302011784748E+00
 0.1042664774961E+00
 0.7686843993485E-01
 0.4846688485360E-01
 0.1957013016530E-01
-0.9280114326122E-02
-0.3752064625056E-01
-0.6457088178537E-01
-0.8982162337094E-01
 0.2038679868441E+00
 0.2044688863039E+00
 0.2055868899971E+00
 0.2070740272126E+00
 0.2088030832787E+00
 0.2106782140697E+00
 0.2126374778335E+00
 0.2146487074212E+00
 0.2167012845930E+00
 0.2187963878913E+00
 0.2209376328771E+00
 0.2231231939683E+00
 0.2253398230324E+00
 0.2275587153233E+00
 0.2297329380499E+00
 0.2317960788905E+00
 0.2336618023328E+00
 0.2352240232242E+00
 0.2363576552252E+00
 0.2369197720483E+00
 0.2367512035481E+00
 0.2356787255134E+00
 0.2335179046057E+00
 0.2300734502357E+00
 0.2251267810469E+00
 0.2184416498453E+00
 0.2097982122476E+00
 0.1990205124827E+00
 0.1859923612240E+00
 0.1706666259698E+00
 0.1530721156102E+00
 0.1333200178052E+00
 0.1116092431690E+00
 0.8823459345921E-01
 0.6358366427375E-01
 0.3810910064930E-01
 0.1230182644821E-01
-0.1332572484352E-01
-0.3825094460926E-01
-0.6193930426669E-01
-0.8382061965545E-01
 0.1522756137931E+00
 0.1536240756751E+00
 0.1555404010471E+00
 0.1578463692541E+00
 0.1603901574866E+00
 0.1630588532278E+00
 0.1657810751991E+00
 0.1685216822932E+00
 0.1712718381887E+00
 0.1740375674385E+00
 0.1768290362342E+00
 0.1796517426475E+00
 0.1824999980452E+00
 0.1853525558278E+00
 0.1881700001828E+00
 0.1908934702994E+00
 0.1934443516356E+00
 0.1957245849299E+00
 0.1976175664578E+00
 0.1989894237635E+00
 0.1996906616221E+00
 0.1995583683382E+00
 0.1984189776406E+00
 0.1960881818500E+00
 0.1923569031872E+00
 0.1869966276257E+00
 0.1797952541277E+00
 0.1705855706238E+00
 0.1592610709718E+00
 0.1457846565793E+00
 0.1301947986477E+00
 0.1126112649427E+00
 0.9323966903497E-01
 0.7237923545601E-01
 0.5041878073764E-01
 0.2780591261155E-01
 0.5016795548380E-02
-0.1746341602528E-01
-0.3915311349796E-01
-0.5956686127494E-01
-0.7817441804711E-01
 0.1005759462739E+00
 0.1026976176989E+00
 0.1054371305574E+00
 0.1085830576497E+00
 0.1119571962564E+00
 0.1154291654640E+00
 0.1189188707648E+00
 0.1223895984234E+00
 0.1258359237754E+00
 0.1292702494421E+00
 0.1327105481002E+00
 0.1361705646469E+00
 0.1396527817443E+00
 0.1431438689089E+00
 0.1466120958515E+00
 0.1500061874885E+00
 0.1532551899130E+00
 0.1562689387592E+00
 0.1589391225563E+00
 0.1611406734243E+00
 0.1627334538378E+00
 0.1635644614125E+00
 0.1634704782795E+00
 0.1622775061715E+00
 0.1597851043914E+00
 0.1557713952152E+00
 0.1500306606650E+00
 0.1424028093396E+00
 0.1327891950592E+00
 0.1211608713585E+00
 0.1075642544263E+00
 0.9212642526124E-01
 0.7505918734687E-01
 0.5666667768811E-01
 0.3734052827529E-01
 0.1752588552852E-01
-0.2312616750583E-02
-0.2171439888136E-01
-0.4023973134370E-01
-0.5745886332976E-01
-0.7288770772764E-01
 0.4875656370920E-01
 0.5168215191206E-01
 0.5527442795853E-01
 0.5928519291629E-01
 0.6350778422258E-01
 0.6779396032055E-01
 0.7205586323814E-01
 0.7625691685599E-01
 0.8039703097123E-01
 0.8449674211770E-01
 0.8858322721766E-01
 0.9267947290420E-01
 0.9679676722513E-01
 0.1009300465150E+00
 0.1050554125480E+00
 0.1091291827974E+00
 0.1130879761739E+00
 0.1168493676837E+00
 0.1203131284390E+00
 0.1233627343709E+00
 0.1258670879376E+00
 0.1276827066354E+00
 0.1286562323646E+00
 0.1286233474972E+00
 0.1273914332567E+00
 0.1247441984062E+00
 0.1204809819129E+00
 0.1144472048592E+00
 0.1065502509318E+00
 0.9676742080421E-01
 0.8515133533820E-01
 0.7183513129864E-01
 0.5703637484090E-01
 0.4106481538118E-01
 0.2431688443052E-01
 0.7238329187046E-02
-0.9713925678087E-02
-0.2609982653835E-01
-0.4152174540840E-01
-0.5561690233652E-01
-0.6796385750103E-01
-0.3195454273304E-02
 0.5704341266036E-03
 0.5050291289159E-02
 0.9954845730838E-02
 0.1504655207901E-01
 0.2015896891591E-01
 0.2519773131102E-01
 0.3012850160003E-01
 0.3495879758058E-01
 0.3971929843818E-01
 0.4444793159216E-01
 0.4917798546668E-01
 0.5393019821306E-01
 0.5870810481493E-01
 0.6349575446379E-01
 0.6825703042577E-01
 0.7293600552914E-01
 0.7745781245047E-01
 0.8173007565107E-01
 0.8564454349083E-01
 0.8907884243809E-01
 0.9189863834223E-01
 0.9395998082725E-01
 0.9510765772240E-01
 0.9515611817210E-01
 0.9389366271844E-01
 0.9112339788235E-01
 0.8669465678395E-01
 0.8051899566674E-01
 0.7257799772152E-01
 0.6292867458389E-01
 0.5170890743555E-01
 0.3914163191747E-01
 0.2554307995150E-01
 0.1131687002488E-01
-0.3086929713889E-02
-0.1721491081172E-01
-0.3064189922990E-01
-0.4300877401871E-01
-0.5403625760683E-01
-0.6340151476912E-01
-0.5529360952109E-01
-0.5064461210702E-01
-0.4523647056661E-01
-0.3940472754765E-01
-0.3342061377170E-01
-0.2746899245471E-01
-0.2164906318968E-01
-0.1599033220849E-01
-0.1047498230148E-01
-0.5059899748170E-02
 0.3052913117670E-03
 0.5665295153670E-02
 0.1105093990801E-01
 0.1647465805607E-01
 0.2192851982353E-01
 0.2738390706333E-01
 0.3279219264993E-01
 0.3808585717871E-01
 0.4318012904414E-01
 0.4797474735507E-01
 0.5235574988324E-01
 0.5619760075637E-01
 0.5936534838560E-01
 0.6171237420712E-01
 0.6305951413188E-01
 0.6319873146720E-01
 0.6193565273099E-01
 0.5912192524382E-01
 0.5467137310249E-01
 0.4856780011653E-01
 0.4087066174797E-01
 0.3172115410339E-01
 0.2134712923163E-01
 0.1007236446777E-01
-0.1689695996303E-02
-0.1347986961133E-01
-0.2484367937626E-01
-0.3536542727833E-01
-0.4471153962331E-01
-0.5270052803095E-01
-0.5918889269338E-01
-0.1075520877892E+00
-0.1019698236267E+00
-0.9558602761211E-01
-0.8878881143859E-01
-0.8188630906400E-01
-0.7508182053918E-01
-0.6847714752019E-01
-0.6209375377029E-01
-0.5590033626931E-01
-0.4983874188632E-01
-0.4384429901835E-01
-0.3785973674357E-01
-0.3184352204921E-01
-0.2577407599843E-01
-0.1965128737488E-01
-0.1349639075736E-01
-0.7350906107409E-02
-0.1275244707843E-02
 0.4653155229600E-02
 0.1034173126302E-01
 0.1568462367228E-01
 0.2056476899894E-01
 0.2485585496835E-01
 0.2841941881793E-01
 0.3108208887193E-01
 0.3263864167044E-01
 0.3289602655201E-01
 0.3170660730742E-01
 0.2898450524234E-01
 0.2471354462071E-01
 0.1895348509464E-01
 0.1184719106399E-01
 0.3626881166500E-02
-0.5375114947804E-02
-0.1473201424874E-01
-0.2397141333230E-01
-0.3262752260442E-01
-0.4029912051992E-01
-0.4664876302642E-01
-0.5157810071592E-01
-0.5527326876888E-01
-0.1599858958677E+00
-0.1534116993604E+00
-0.1459972671211E+00
-0.1381908956820E+00
-0.1303412984976E+00
-0.1226698957475E+00
-0.1152781018634E+00
-0.1081753559731E+00
-0.1013130996684E+00
-0.9461519609229E-01
-0.8800069189633E-01
-0.8139858734440E-01
-0.7475608027774E-01
-0.6804226615723E-01
-0.6124903968115E-01
-0.5439042239950E-01
-0.4750106300449E-01
-0.4063453646927E-01
-0.3386124047512E-01
-0.2726634295678E-01
-0.2094790645101E-01
-0.1501482198901E-01
-0.9585066565583E-02
-0.4789299140107E-02
-0.7955898510764E-03
 0.2192898834042E-02
 0.3983305169526E-02
 0.4427113243604E-02
 0.3436687980466E-02
 0.9934964882057E-03
-0.2844805555006E-02
-0.7935624976838E-02
-0.1404322757130E-01
-0.2082553114780E-01
-0.2783931421093E-01
-0.3459073710110E-01
-0.4060264186355E-01
-0.4545141202237E-01
-0.4889589541843E-01
-0.5058142311546E-01
-0.5156768965933E-01
-0.2126110703705E+00
-0.2049762424543E+00
-0.1964675032101E+00
-0.1876022632949E+00
-0.1787741671448E+00
-0.1702218456202E+00
-0.1620423465899E+00
-0.1542281353826E+00
-0.1467089499057E+00
-0.1393873662055E+00
-0.1321640474851E+00
-0.1249531272950E+00
-0.1176900527345E+00
-0.1103345072995E+00
-0.1028705196134E+00
-0.9530513201529E-01
-0.8766640452835E-01
-0.8000138137089E-01
-0.7237373620629E-01
-0.6486155980053E-01
-0.5755542110505E-01
-0.5055631261873E-01
-0.4397411939235E-01
-0.3793194985586E-01
-0.3259294014550E-01
-0.2815882386432E-01
-0.2482332597228E-01
-0.2273743047405E-01
-0.2199267799286E-01
-0.2261255569572E-01
-0.2454425612223E-01
-0.2764783578480E-01
-0.3168521913423E-01
-0.3630380682550E-01
-0.4103932759274E-01
-0.4537179083028E-01
-0.4879206908861E-01
-0.5089061998193E-01
-0.5132775547402E-01
-0.5027381206623E-01
-0.4647544443871E-01
-0.2654462177756E+00
-0.2566751619250E+00
-0.2470019168313E+00
-0.2370251804167E+00
-0.2271881634247E+00
-0.2177450385052E+00
-0.2087831804119E+00
-0.2002719470502E+00
-0.1921141459133E+00
-0.1841873953854E+00
-0.1763717907025E+00
-0.1685655233489E+00
-0.1606919178139E+00
-0.1527012646488E+00
-0.1445699359387E+00
-0.1362982835627E+00
-0.1279080938009E+00
-0.1194402013999E+00
-0.1109518760880E+00
-0.1025144407326E+00
-0.9421124929232E-01
-0.8613561546891E-01
-0.7838947836858E-01
-0.7108850197315E-01
-0.6439107634460E-01
-0.5849796329487E-01
-0.5360467584733E-01
-0.4986622019536E-01
-0.4738029014349E-01
-0.4617818120614E-01
-0.4621510851444E-01
-0.4735669392890E-01
-0.4936433487022E-01
-0.5187413382003E-01
-0.5439712543345E-01
-0.5637550382770E-01
-0.5726827212132E-01
-0.5661543115758E-01
-0.5420413708844E-01
-0.4970417781755E-01
-0.4428443916775E-01
-0.3185100780195E+00
-0.3085134319659E+00
-0.2975933793899E+00
-0.2864449350476E+00
-0.2755660334621E+00
-0.2652235207993E+00
-0.2554880375604E+00
-0.2462982225587E+00
-0.2375238348976E+00
-0.2290135067686E+00
-0.2206245591662E+00
-0.2122382945463E+00
-0.2037657049509E+00
-0.1951478496549E+00
-0.1863537617474E+00
-0.1773774664921E+00
-0.1682348418097E+00
-0.1589608682617E+00
-0.1496067569536E+00
-0.1402373912592E+00
-0.1309291955226E+00
-0.1217680046177E+00
-0.1128478902700E+00
-0.1042770511291E+00
-0.9620914276627E-01
-0.8884422502706E-01
-0.8238038383799E-01
-0.7697816781477E-01
-0.7274379292599E-01
-0.6971953428694E-01
-0.6787233522324E-01
-0.6707706459597E-01
-0.6709717447203E-01
-0.6755766440850E-01
-0.6793978114447E-01
-0.6764045487446E-01
-0.6605965830697E-01
-0.6272169930655E-01
-0.5731421233146E-01
-0.4999146073731E-01
-0.3995635829657E-01
-0.3718215805113E+00
-0.3604884877169E+00
-0.3482212629158E+00
-0.3358288173252E+00
-0.3238695315516E+00
-0.3126181304448E+00
-0.3021190781281E+00
-0.2922708424812E+00
-0.2829030350017E+00
-0.2738309813091E+00
-0.2648871135944E+00
-0.2559351280975E+00
-0.2468737098643E+00
-0.2376350404648E+00
-0.2281812732170E+00
-0.2185005709410E+00
-0.2086033399015E+00
-0.1985191172037E+00
-0.1882934500710E+00
-0.1779851590797E+00
-0.1676640674388E+00
-0.1574087502278E+00
-0.1473054577237E+00
-0.1374547940283E+00
-0.1280055115817E+00
-0.1191570332317E+00
-0.1111106396812E+00
-0.1040338890123E+00
-0.9804400046834E-01
-0.9319772216688E-01
-0.8947801675474E-01
-0.8677353224138E-01
-0.8485353164295E-01
-0.8333284665189E-01
-0.8165942138104E-01
-0.7917091546119E-01
-0.7519899458014E-01
-0.6919069424997E-01
-0.6088933779392E-01
-0.5028059802105E-01
-0.3736272878783E-01
-0.4254035425056E+00
-0.4126028660698E+00
-0.3988707397930E+00
-0.3851526785571E+00
-0.3720731624234E+00
-0.3599073373265E+00
-0.3486608957467E+00
-0.3381804670327E+00
-0.3282473785870E+00
-0.3186391411300E+00
-0.3091614004989E+00
-0.2996598473952E+00
-0.2900211661833E+00
-0.2801692217765E+00
-0.2700598861179E+00
-0.2596760108547E+00
-0.2490230194661E+00
-0.2381254490211E+00
-0.2270236041407E+00
-0.2157706476097E+00
-0.2044301560960E+00
-0.1930736661476E+00
-0.1817795927154E+00
-0.1706406595041E+00
-0.1598002967825E+00
-0.1494570638789E+00
-0.1398158121942E+00
-0.1310524613328E+00
-0.1232977964773E+00
-0.1166268657650E+00
-0.1110435840304E+00
-0.1064559534184E+00
-0.1026441472769E+00
-0.9921553198089E-01
-0.9558102530700E-01
-0.9100781316944E-01
-0.8472882736422E-01
-0.7610919687767E-01
-0.6484483155024E-01
-0.5104598291564E-01
-0.3516572632230E-01
-0.4792819930494E+00
-0.4648572657531E+00
-0.4495215389208E+00
-0.4343858477938E+00
-0.4201460411953E+00
-0.4070662161396E+00
-0.3950965328251E+00
-0.3840174523955E+00
-0.3735528555611E+00
-0.3634379311010E+00
-0.3534500413887E+00
-0.3434169086069E+00
-0.3332138660654E+00
-0.3227572591133E+00
-0.3119974264490E+00
-0.3009125482626E+00
-0.2895036030571E+00
-0.2777905995488E+00
-0.2658090455655E+00
-0.2536068840885E+00
-0.2412418401464E+00
-0.2287786554428E+00
-0.2162878493769E+00
-0.2038538116963E+00
-0.1916139348517E+00
-0.1797653256680E+00
-0.1685164628981E+00
-0.1580528097214E+00
-0.1485213339805E+00
-0.1400195443188E+00
-0.1325779354820E+00
-0.1261305966673E+00
-0.1204755046074E+00
-0.1152172349480E+00
-0.1097283107787E+00
-0.1031908394748E+00
-0.9471254119100E-01
-0.8352777999011E-01
-0.6927471983457E-01
-0.5222183446764E-01
-0.3324587875852E-01
-0.5334871803666E+00
-0.5172499685590E+00
-0.5001461974192E+00
-0.4834894367538E+00
-0.4680508515710E+00
-0.4540661263944E+00
-0.4414076000332E+00
-0.4297721196764E+00
-0.4188160659083E+00
-0.4082281030918E+00
-0.3977564512539E+00
-0.3872114701988E+00
-0.3764581967829E+00
-0.3654065146025E+00
-0.3540021338981E+00
-0.3422192899500E+00
-0.3300550972222E+00
-0.3175255289321E+00
-0.3046617619988E+00
-0.2915069945829E+00
-0.2781135529247E+00
-0.2645396789409E+00
-0.2508479141050E+00
-0.2371136865739E+00
-0.2234672855244E+00
-0.2101033251245E+00
-0.1972335560806E+00
-0.1850539275438E+00
-0.1737302214369E+00
-0.1633868891784E+00
-0.1540873428624E+00
-0.1457997762789E+00
-0.1383489158861E+00
-0.1313442451765E+00
-0.1241210619082E+00
-0.1157632923472E+00
-0.1052172468597E+00
-0.9153122464712E-01
-0.7424412921401E-01
-0.5378174089049E-01
-0.3149097327884E-01
-0.5880550675973E+00
-0.5697759358206E+00
-0.5507076774997E+00
-0.5324141134878E+00
-0.5157426432827E+00
-0.5008744788937E+00
-0.4875745540983E+00
-0.4754351435639E+00
-0.4640345358726E+00
-0.4530114268925E+00
-0.4420849654170E+00
-0.4310494626777E+00
-0.4197611741493E+00
-0.4081248584692E+00
-0.3960826610190E+00
-0.3836056805145E+00
-0.3706877827619E+00
-0.3573414092332E+00
-0.3435938839188E+00
-0.3294841741552E+00
-0.3150597390926E+00
-0.3003727074199E+00
-0.2854775778622E+00
-0.2704400176526E+00
-0.2553817362675E+00
-0.2404932525213E+00
-0.2259887041699E+00
-0.2120751425445E+00
-0.1989397609622E+00
-0.1867387297212E+00
-0.1755754160937E+00
-0.1654614570391E+00
-0.1562596479580E+00
-0.1475958069479E+00
-0.1387738938052E+00
-0.1287686305408E+00
-0.1163230490778E+00
-0.1002250350469E+00
-0.7983478168440E-01
-0.5571280067998E-01
-0.2979238980330E-01
-0.6430295306477E+00
-0.6224254550923E+00
-0.6011560051636E+00
-0.5810971859196E+00
-0.5631674846295E+00
-0.5474546921534E+00
-0.5335772108815E+00
-0.5209980920582E+00
-0.5092071051617E+00
-0.4977909304092E+00
-0.4864409785277E+00
-0.4749376640774E+00
-0.4631304797831E+00
-0.4509206844223E+00
-0.4382480772468E+00
-0.4250815017674E+00
-0.4114122133050E+00
-0.3972496223616E+00
-0.3826176772325E+00
-0.3675516653480E+00
-0.3520948124286E+00
-0.3362936660775E+00
-0.3201946970497E+00
-0.3038528578603E+00
-0.2873793210792E+00
-0.2709582036757E+00
-0.2548044664403E+00
-0.2391364475786E+00
-0.2241652587542E+00
-0.2100838216072E+00
-0.1970431473043E+00
-0.1851089474879E+00
-0.1741959146395E+00
-0.1639622229840E+00
-0.1536931614716E+00
-0.1422489160504E+00
-0.1281234719253E+00
-0.1097440446374E+00
-0.8616292398395E-01
-0.5801980915133E-01
-0.2800713238814E-01
-0.6984656456468E+00
-0.6751820657288E+00
-0.6514234246515E+00
-0.6294587592660E+00
-0.6102610414063E+00
-0.5937664952235E+00
-0.5793955808958E+00
-0.5664541303896E+00
-0.5543343722181E+00
-0.5425711545353E+00
-0.5308310830677E+00
-0.5188837697195E+00
-0.5065744913418E+00
-0.4938029182405E+00
-0.4805078669624E+00
-0.4666568675134E+00
-0.4522392112369E+00
-0.4372617578300E+00
-0.4217455371520E+00
-0.4057227351499E+00
-0.3892331025276E+00
-0.3723183543641E+00
-0.3550171220045E+00
-0.3373725768504E+00
-0.3194828378410E+00
-0.3015224280512E+00
-0.2837046956061E+00
-0.2662588919199E+00
-0.2494224059589E+00
-0.2334301576561E+00
-0.2184890601334E+00
-0.2047306925813E+00
-0.1921379378435E+00
-0.1804225328501E+00
-0.1688730421153E+00
-0.1562407821753E+00
-0.1407256698155E+00
-0.1202637863032E+00
-0.9340046076318E-01
-0.6073292932166E-01
-0.2593660923071E-01
-0.7544347285926E+00
-0.7280192760226E+00
-0.7014172552270E+00
-0.6773966692400E+00
-0.6569472743835E+00
-0.6397668328242E+00
-0.6250111284080E+00
-0.6117988869626E+00
-0.5994191777862E+00
-0.5873584092784E+00
-0.5752631980288E+00
-0.5628964489406E+00
-0.5501022996309E+00
-0.5367810140207E+00
-0.5228719162369E+00
-0.5083422083545E+00
-0.4931798558099E+00
-0.4773896060076E+00
-0.4609899806184E+00
-0.4440106486577E+00
-0.4264887862378E+00
-0.4084623305790E+00
-0.3899625762013E+00
-0.3710198166364E+00
-0.3517159538966E+00
-0.3322116013610E+00
-0.3127149352603E+00
-0.2934650365869E+00
-0.2747277325899E+00
-0.2567853700810E+00
-0.2399094808929E+00
-0.2243102347354E+00
-0.2100571624381E+00
-0.1969420590211E+00
-0.1842903653727E+00
-0.1707685352942E+00
-0.1542483055663E+00
-0.1320138246772E+00
-0.1018045456177E+00
-0.6392828947365E-01
-0.2330145176462E-01
-0.8110322977368E+00
-0.7808951772902E+00
-0.7510090993808E+00
-0.7247798577204E+00
-0.7031376995050E+00
-0.6854117704145E+00
-0.6704085459966E+00
-0.6570314526705E+00
-0.6444671075118E+00
-0.6321610280906E+00
-0.6197466904887E+00
-0.6069853953046E+00
-0.5937237217169E+00
-0.5798649488336E+00
-0.5653505001452E+00
-0.5501482592391E+00
-0.5342454769898E+00
-0.5176451620728E+00
-0.5003636556097E+00
-0.4824286608121E+00
-0.4638758236543E+00
-0.4447407723788E+00
-0.4250484873750E+00
-0.4048154056747E+00
-0.3841033096985E+00
-0.3630531444282E+00
-0.3418628954681E+00
-0.3207794991113E+00
-0.3000991561135E+00
-0.2801572468914E+00
-0.2612989692137E+00
-0.2438264054089E+00
-0.2279157993518E+00
-0.2134701576096E+00
-0.1998983612456E+00
-0.1858333173422E+00
-0.1688141073399E+00
-0.1452916664160E+00
-0.1117621529842E+00
-0.6776963483460E-01
-0.1971122570706E-01
-0.8683911227210E+00
-0.8337432239360E+00
-0.8000180705319E+00
-0.7714399305037E+00
-0.7487321424539E+00
-0.7306599387704E+00
-0.7155780367553E+00
-0.7021554204984E+00
-0.6894869774928E+00
-0.6769896016228E+00
-0.6642924749250E+00
-0.6511613587893E+00
-0.6374492998615E+00
-0.6230652059234E+00
-0.6079542607177E+00
-0.5920860394188E+00
-0.5754476441811E+00
-0.5580406302282E+00
-0.5398793600968E+00
-0.5209900238916E+00
-0.5014078956634E+00
-0.4811682975099E+00
-0.4602917381706E+00
-0.4387801958101E+00
-0.4166705994616E+00
-0.3940765851261E+00
-0.3711790108416E+00
-0.3482295885764E+00
-0.3255566180892E+00
-0.3035543551453E+00
-0.2826509170932E+00
-0.2632537809992E+00
-0.2456668164225E+00
-0.2299386578394E+00
-0.2156200719873E+00
-0.2013973326477E+00
-0.1845323268403E+00
-0.1604732989546E+00
-0.1238567923874E+00
-0.7258870288184E-01
-0.1462887802362E-01
-0.9267036088606E+00
-0.8864556401102E+00
-0.8481838922001E+00
-0.8171611440528E+00
-0.7936228886400E+00
-0.7754781188043E+00
-0.7605178766157E+00
-0.7471798394307E+00
-0.7344912888426E+00
-0.7218571798945E+00
-0.7089130864407E+00
-0.6954361622521E+00
-0.6812902902997E+00
-0.6663927518426E+00
-0.6506941817011E+00
-0.6341668313280E+00
-0.6167981561864E+00
-0.5985884347970E+00
-0.5795500816250E+00
-0.5597080313701E+00
-0.5390983673937E+00
-0.5177587522066E+00
-0.4957083161580E+00
-0.4729347949979E+00
-0.4494446242456E+00
-0.4253139856721E+00
-0.4006971122511E+00
-0.3758460540788E+00
-0.3511228187629E+00
-0.3269867714308E+00
-0.3039583338660E+00
-0.2825634554282E+00
-0.2632544279000E+00
-0.2462614801124E+00
-0.2313431203148E+00
-0.2173634001336E+00
-0.2014639400207E+00
-0.1780099391467E+00
-0.1389651814375E+00
-0.7903823195713E-01
-0.7337303746224E-02
-0.9862624967202E+00
-0.9388516462177E+00
-0.8951222417701E+00
-0.8616709288990E+00
-0.8377058660807E+00
-0.8198491383179E+00
-0.8052366171433E+00
-0.7921200042955E+00
-0.7794966478720E+00
-0.7667794133910E+00
-0.7536227202459E+00
-0.7398226970816E+00
-0.7252586376149E+00
-0.7098590044542E+00
-0.6935815570917E+00
-0.6764021552824E+00
-0.6583090284166E+00
-0.6393012324584E+00
-0.6193890548244E+00
-0.5985961107823E+00
-0.5769603031348E+00
-0.5545249706536E+00
-0.5313128188967E+00
-0.5072991367404E+00
-0.4824532953052E+00
-0.4568004549116E+00
-0.4304552423732E+00
-0.4036639623590E+00
-0.3768240464100E+00
-0.3504668994190E+00
-0.3252147974376E+00
-0.3017241994827E+00
-0.2806150776742E+00
-0.2623354624692E+00
-0.2469184207880E+00
-0.2335537926987E+00
-0.2195607305506E+00
-0.1983868463415E+00
-0.1583873461457E+00
-0.8838323859330E-01
 0.3064812167166E-02
-0.1047540679020E+01
-0.9906115620116E+00
-0.9402480896919E+00
-0.9046391673116E+00
-0.8809049910615E+00
-0.8637803230254E+00
-0.8497539586857E+00
-0.8369982720913E+00
-0.8245240839378E+00
-0.8117745929062E+00
-0.7984372318896E+00
-0.7843348814294E+00
-0.7693669229305E+00
-0.7534757792523E+00
-0.7366279403685E+00
-0.7188037263343E+00
-0.6999924625101E+00
-0.6801919064847E+00
-0.6594098155820E+00
-0.6376679659668E+00
-0.6150065666095E+00
-0.5914785144141E+00
-0.5671177375785E+00
-0.5418917786103E+00
-0.5157255447322E+00
-0.4885747689622E+00
-0.4604966471893E+00
-0.4317237138807E+00
-0.4026910796923E+00
-0.3740103408234E+00
-0.3464154970170E+00
-0.3207040350359E+00
-0.2976791545978E+00
-0.2780414991541E+00
-0.2621645795527E+00
-0.2497000845509E+00
-0.2385740778938E+00
-0.2219927959610E+00
-0.1839909335797E+00
-0.1030580049846E+00
 0.1755515330373E-01
-0.1111364127740E+01
-0.1041124840046E+01
-0.9826416079490E+00
-0.9457136734882E+00
-0.9232161003760E+00
-0.9073055086491E+00
-0.8941005462922E+00
-0.8818453589280E+00
-0.8695989663026E+00
-0.8568636611894E+00
-0.8433740919127E+00
-0.8289875855747E+00
-0.8136282980346E+00
-0.7972552232650E+00
-0.7798450864175E+00
-0.7613834048172E+00
-0.7418608111073E+00
-0.7212735521733E+00
-0.6996262480479E+00
-0.6769377876402E+00
-0.6532501039772E+00
-0.6286294761723E+00
-0.6031324437641E+00
-0.5767287876765E+00
-0.5492911239589E+00
-0.5206801894108E+00
-0.4908710233627E+00
-0.4600722452610E+00
-0.4287601661772E+00
-0.3976367858843E+00
-0.3675583641343E+00
-0.3394719696039E+00
-0.3143742366068E+00
-0.2932453944071E+00
-0.2768732707552E+00
-0.2654652678317E+00
-0.2579581056792E+00
-0.2488031091482E+00
-0.2182662765800E+00
-0.1277377554439E+00
 0.3673087179571E-01
-0.1179339345255E+01
-0.1089085519291E+01
-0.1020825570659E+01
-0.9846767872622E+00
-0.9647564258752E+00
-0.9504670683461E+00
-0.9383231218208E+00
-0.9267005502857E+00
-0.9147504884440E+00
-0.9020703681595E+00
-0.8884521783599E+00
-0.8737965649779E+00
-0.8580563837019E+00
-0.8412097369323E+00
-0.8232448795228E+00
-0.8041531350719E+00
-0.7839265311809E+00
-0.7625594500911E+00
-0.7400525898172E+00
-0.7164204880985E+00
-0.6917045292902E+00
-0.6659865227061E+00
-0.6393617322190E+00
-0.6118219128969E+00
-0.5831802529508E+00
-0.5531656129407E+00
-0.5216361075826E+00
-0.4887644198422E+00
-0.4550741330753E+00
-0.4213707215268E+00
-0.3886454160962E+00
-0.3579995960497E+00
-0.3306291515390E+00
-0.3078040323156E+00
-0.2907989193624E+00
-0.2805047577786E+00
-0.2768885899985E+00
-0.2777427030010E+00
-0.2639074113671E+00
-0.1713915220831E+00
 0.5928416191770E-01
-0.1255111877842E+01
-0.1131185706039E+01
-0.1052550389455E+01
-0.1021943531434E+01
-0.1005685355842E+01
-0.9932989630414E+00
-0.9825032102063E+00
-0.9716029546370E+00
-0.9600145324648E+00
-0.9474201096472E+00
-0.9336919189933E+00
-0.9187782594800E+00
-0.9026651960696E+00
-0.8853518884649E+00
-0.8668392704360E+00
-0.8471248932055E+00
-0.8262021412049E+00
-0.8040630598518E+00
-0.7807034112400E+00
-0.7561318316156E+00
-0.7303851675156E+00
-0.7035576876223E+00
-0.6758037177702E+00
-0.6471754584968E+00
-0.6174231851336E+00
-0.5860873549091E+00
-0.5528597134888E+00
-0.5178646760633E+00
-0.4816835494729E+00
-0.4452424006501E+00
-0.4096826648293E+00
-0.3762662150867E+00
-0.3463709185529E+00
-0.3215884113213E+00
-0.3036400528088E+00
-0.2944487891818E+00
-0.2946940587984E+00
-0.3058643295574E+00
-0.3215527032359E+00
-0.2511571857968E+00
 0.7729084784523E-01
-0.1349040436747E+01
-0.1156680205495E+01
-0.1076171844592E+01
-0.1059426084624E+01
-0.1045559262985E+01
-0.1036093703244E+01
-0.1026666431432E+01
-0.1016617958430E+01
-0.1005425654376E+01
-0.9929417060835E+00
-0.9791145348880E+00
-0.9639497738242E+00
-0.9474689839434E+00
-0.9296943159787E+00
-0.9106401858967E+00
-0.8903106159366E+00
-0.8687001506199E+00
-0.8457979676361E+00
-0.8215936601231E+00
-0.7960881220738E+00
-0.7693102719219E+00
-0.7413533062373E+00
-0.7124466773502E+00
-0.6827802880521E+00
-0.6520501566109E+00
-0.6195119376674E+00
-0.5846222522200E+00
-0.5474488147268E+00
-0.5086481509692E+00
-0.4692883031181E+00
-0.4306813353909E+00
-0.3942556233594E+00
-0.3615515858470E+00
-0.3344210637253E+00
-0.3152541442715E+00
-0.3063989559895E+00
-0.3117544307613E+00
-0.3292509566384E+00
-0.3820479107408E+00
-0.3969093480405E+00
 0.5771900070168E-01
-0.1501671680524E+01
-0.1116498772867E+01
-0.1110767435854E+01
-0.1092540740900E+01
-0.1085849718523E+01
-0.1078683109212E+01
-0.1070972636984E+01
-0.1061786677062E+01
-0.1051029117914E+01
-0.1038663845372E+01
-0.1024742560417E+01
-0.1009328479171E+01
-0.9924821156648E+00
-0.9742495965342E+00
-0.9546593854131E+00
-0.9337221612968E+00
-0.9114328921734E+00
-0.8877778760832E+00
-0.8627385380104E+00
-0.8363064152234E+00
-0.8084990706223E+00
-0.7793960344606E+00
-0.7492644667386E+00
-0.7185997704153E+00
-0.6870952860538E+00
-0.6535192907576E+00
-0.6170199947708E+00
-0.5776062445101E+00
-0.5360373139802E+00
-0.4935540861003E+00
-0.4516532530357E+00
-0.4119650391275E+00
-0.3761262617441E+00
-0.3462147854137E+00
-0.3251604539202E+00
-0.3167279985285E+00
-0.3238690825307E+00
-0.3582657595043E+00
-0.4028491435670E+00
-0.6474903996533E+00
-0.1111530870337E+00
 0.1936603885649E+01
 0.1857404026262E+01
 0.1778050477996E+01
 0.1698763176824E+01
 0.1621275860961E+01
 0.1546167425452E+01
 0.1474166060461E+01
 0.1406016341274E+01
 0.1342248706556E+01
 0.1283186555504E+01
 0.1229034043105E+01
 0.1179957883402E+01
 0.1136099626108E+01
 0.1097586158156E+01
 0.1064525192467E+01
 0.1037004895210E+01
 0.1015430185118E+01
 0.1000173791021E+01
 0.9911415745540E+00
 0.9905864647313E+00
 0.1895121643195E+01
 0.1819416860931E+01
 0.1742697027635E+01
 0.1666678231207E+01
 0.1592170214991E+01
 0.1520028319812E+01
 0.1450940917533E+01
 0.1385551838647E+01
 0.1324343480083E+01
 0.1267640319499E+01
 0.1215668502557E+01
 0.1168605533569E+01
 0.1126608958278E+01
 0.1089825704867E+01
 0.1058399274998E+01
 0.1032537771072E+01
 0.1012535009209E+01
 0.9986954790931E+00
 0.9917337267448E+00
 0.9921075758261E+00
 0.1855059745621E+01
 0.1781817570107E+01
 0.1707969196029E+01
 0.1634748851659E+01
 0.1563117327538E+01
 0.1493784908814E+01
 0.1427438964948E+01
 0.1364662561327E+01
 0.1305901108699E+01
 0.1251471809825E+01
 0.1201606869559E+01
 0.1156494448952E+01
 0.1116305202508E+01
 0.1081207151495E+01
 0.1051385126962E+01
 0.1027060179331E+01
 0.1008515682229E+01
 0.9961562806752E+00
 0.9903868075717E+00
 0.9916237572220E+00
 0.1815806766093E+01
 0.1744866710584E+01
 0.1673566668579E+01
 0.1603019553970E+01
 0.1534066072488E+01
 0.1467403253439E+01
 0.1403653892280E+01
 0.1343360618859E+01
 0.1286939199369E+01
 0.1234696107644E+01
 0.1186863995926E+01
 0.1143637090152E+01
 0.1105197302505E+01
 0.1071731252146E+01
 0.1043441891337E+01
 0.1020562072023E+01
 0.1003386976907E+01
 0.9922505664393E+00
 0.9874898674306E+00
 0.9894087985965E+00
 0.1777245817745E+01
 0.1708397304515E+01
 0.1639466998402E+01
 0.1571411080394E+01
 0.1504994845505E+01
 0.1440857933696E+01
 0.1379577719794E+01
 0.1321651459850E+01
 0.1267469702478E+01
 0.1217326895035E+01
 0.1171452738859E+01
 0.1130044271768E+01
 0.1093291265888E+01
 0.1061391268592E+01
 0.1034557941329E+01
 0.1013031597757E+01
 0.9970885704894E+00
 0.9870247590636E+00
 0.9831180251904E+00
 0.9856208090162E+00
 0.1739226093737E+01
 0.1672313065933E+01
 0.1605590752323E+01
 0.1539881312023E+01
 0.1475866260942E+01
 0.1414130805660E+01
 0.1355202144331E+01
 0.1299537362360E+01
 0.1247501258650E+01
 0.1199375482948E+01
 0.1155384525729E+01
 0.1115725386163E+01
 0.1080591513881E+01
 0.1050186037697E+01
 0.1024727516669E+01
 0.1004453606091E+01
 0.9896240005407E+00
 0.9805033364821E+00
 0.9773364405748E+00
 0.9803320331733E+00
 0.1701618225654E+01
 0.1636516175143E+01
 0.1571871134006E+01
 0.1508381760256E+01
 0.1446649464374E+01
 0.1387202417115E+01
 0.1330519583688E+01
 0.1277019028785E+01
 0.1227040481694E+01
 0.1180851533142E+01
 0.1138669693102E+01
 0.1100689320394E+01
 0.1067103998147E+01
 0.1038118052501E+01
 0.1013949475623E+01
 0.9948301030035E+00
 0.9810043255490E+00
 0.9727155694781E+00
 0.9701863169066E+00
 0.9736010027142E+00
 0.1664303687586E+01
 0.1600918117618E+01
 0.1538243829430E+01
 0.1476867695672E+01
 0.1417314102402E+01
 0.1360054923042E+01
 0.1305522117656E+01
 0.1254096493716E+01
 0.1206092808096E+01
 0.1161763703942E+01
 0.1121318093096E+01
 0.1084945494265E+01
 0.1052836671315E+01
 0.1025193513519E+01
 0.1002230104202E+01
 0.9841707514884E+00
 0.9712472273728E+00
 0.9636879689608E+00
 0.9617024749580E+00
 0.9654648123822E+00
 0.1627175678533E+01
 0.1565437633142E+01
 0.1504649393083E+01
 0.1445296876544E+01
 0.1387831795246E+01
 0.1332671277233E+01
 0.1280202122754E+01
 0.1230769385584E+01
 0.1184663112680E+01
 0.1142120221056E+01
 0.1103339699081E+01
 0.1068504385384E+01
 0.1037799825822E+01
 0.1011422795668E+01
 0.9895811864947E+00
 0.9724910695949E+00
 0.9603735495177E+00
 0.9534467108178E+00
 0.9519138809834E+00
 0.9559482110411E+00
 0.1590138390665E+01
 0.1530000965302E+01
 0.1471033103371E+01
 0.1413630164659E+01
 0.1358176065935E+01
 0.1305035579297E+01
 0.1254552397165E+01
 0.1207037357403E+01
 0.1162756135772E+01
 0.1121929370688E+01
 0.1084745059581E+01
 0.1051377886195E+01
 0.1022006318837E+01
 0.9968200213746E+00
 0.9760191020367E+00
 0.9598108757844E+00
 0.9484070128196E+00
 0.9420181093555E+00
 0.9408457835455E+00
 0.9450705746008E+00
 0.1553106583037E+01
 0.1494541639449E+01
 0.1437345107171E+01
 0.1381831620997E+01
 0.1328322547693E+01
 0.1277133200726E+01
 0.1228566416469E+01
 0.1182900373258E+01
 0.1140376848572E+01
 0.1101199862292E+01
 0.1065545621949E+01
 0.1033579522136E+01
 0.1005471534332E+01
 0.9814027016493E+00
 0.9615641046504E+00
 0.9461537319283E+00
 0.9353742540803E+00
 0.9294299311708E+00
 0.9285227573143E+00
 0.9328458125069E+00
 0.1516004958536E+01
 0.1459000220743E+01
 0.1403540354146E+01
 0.1349868559049E+01
 0.1298249045973E+01
 0.1248950902278E+01
 0.1202238489875E+01
 0.1158358926698E+01
 0.1117530695970E+01
 0.1079941070511E+01
 0.1045753921104E+01
 0.1015124518871E+01
 0.9882132648979E+00
 0.9651913968287E+00
 0.9462398952195E+00
 0.9315466927991E+00
 0.9213051788993E+00
 0.9157131374212E+00
 0.9149723076161E+00
 0.9192894608231E+00
 0.1478767674218E+01
 0.1423324075053E+01
 0.1369578563588E+01
 0.1317711599299E+01
 0.1267935640721E+01
 0.1220476968807E+01
 0.1175563936454E+01
 0.1133414242308E+01
 0.1094223805873E+01
 0.1058163219273E+01
 0.1025383698452E+01
 0.9960298105343E+00
 0.9702515766835E+00
 0.9482094622403E+00
 0.9300733539296E+00
 0.9160202239444E+00
 0.9062333770547E+00
 0.9009029909476E+00
 0.9002285089719E+00
 0.9044246486640E+00
 0.1441337656698E+01
 0.1387466994186E+01
 0.1335424032750E+01
 0.1285334589568E+01
 0.1237364668112E+01
 0.1191701241032E+01
 0.1148539157637E+01
 0.1108068374067E+01
 0.1070463090039E+01
 0.1035877457671E+01
 0.1004449920599E+01
 0.9763139725618E+00
 0.9516086482787E+00
 0.9304828258063E+00
 0.9130943419709E+00
 0.8996081663453E+00
 0.8901963318424E+00
 0.8850397100965E+00
 0.8843322299376E+00
 0.8882892225904E+00
 0.1403666049825E+01
 0.1351388880186E+01
 0.1301045500438E+01
 0.1252714570522E+01
 0.1206520746415E+01
 0.1162615182915E+01
 0.1121161733460E+01
 0.1082324312225E+01
 0.1046256340232E+01
 0.1013095921912E+01
 0.9829687842324E+00
 0.9559971539957E+00
 0.9323086338229E+00
 0.9120398143552E+00
 0.8953355564471E+00
 0.8823476905086E+00
 0.8732355540532E+00
 0.8681686313280E+00
 0.8673318100812E+00
 0.8709349364156E+00
 0.1365711576255E+01
 0.1315055346222E+01
 0.1266415917259E+01
 0.1219831654939E+01
 0.1175390722946E+01
 0.1133211874984E+01
 0.1093430445384E+01
 0.1056186016236E+01
 0.1021612250489E+01
 0.9898317267700E+00
 0.9609576597563E+00
 0.9351009646943E+00
 0.9123775004946E+00
 0.8929109682731E+00
 0.8768323640196E+00
 0.8642792010989E+00
 0.8553965730244E+00
 0.8503403739590E+00
 0.8492831718102E+00
 0.8524242941617E+00
 0.1327439915823E+01
 0.1278437320680E+01
 0.1231512206652E+01
 0.1186668893175E+01
 0.1143963605681E+01
 0.1103485989098E+01
 0.1065345275747E+01
 0.1029658419523E+01
 0.9965404080699E+00
 0.9660989256308E+00
 0.9384350075717E+00
 0.9136483428009E+00
 0.8918428538630E+00
 0.8731288441766E+00
 0.8576226099115E+00
 0.8454461766530E+00
 0.8367288267698E+00
 0.8316107272649E+00
 0.8302491539025E+00
 0.8328287328897E+00
 0.1288823135663E+01
 0.1241510662767E+01
 0.1196315033460E+01
 0.1153212142189E+01
 0.1112230497591E+01
 0.1073433763904E+01
 0.1036907404712E+01
 0.1002747428659E+01
 0.9710512769060E+00
 0.9419124630571E+00
 0.9154202890084E+00
 0.8916634198923E+00
 0.8707337617211E+00
 0.8527278103643E+00
 0.8377464026145E+00
 0.8258949544508E+00
 0.8172854231263E+00
 0.8120402473591E+00
 0.8102987540218E+00
 0.8122273539910E+00
 0.1249839045239E+01
 0.1204255724317E+01
 0.1160808507429E+01
 0.1119449871407E+01
 0.1080184470163E+01
 0.1043052921969E+01
 0.1008119150834E+01
 0.9754598684193E+00
 0.9451561300030E+00
 0.9172880803062E+00
 0.8919338346924E+00
 0.8691713471222E+00
 0.8490805388901E+00
 0.8317437968442E+00
 0.8172458365458E+00
 0.8056744292590E+00
 0.7971227655605E+00
 0.7916936987039E+00
 0.7895062935847E+00
 0.7907058225947E+00
 0.1210470635002E+01
 0.1166656954888E+01
 0.1124979925125E+01
 0.1085372998175E+01
 0.1047820461412E+01
 0.1012342606286E+01
 0.9789839261830E+00
 0.9478034372753E+00
 0.9188669890885E+00
 0.8922422256717E+00
 0.8679967153857E+00
 0.8461981201101E+00
 0.8269145237802E+00
 0.8102140237181E+00
 0.7961646747340E+00
 0.7848356799593E+00
 0.7763001290187E+00
 0.7706394603364E+00
 0.7679504718026E+00
 0.7683552680800E+00
 0.1170705485459E+01
 0.1128702483115E+01
 0.1088819480319E+01
 0.1050974692065E+01
 0.1015135143309E+01
 0.9813032874316E+00
 0.9495061633485E+00
 0.9197866363183E+00
 0.8921965395593E+00
 0.8667919418976E+00
 0.8436305907751E+00
 0.8227703805600E+00
 0.8042678263979E+00
 0.7881766912259E+00
 0.7745479735099E+00
 0.7634315316113E+00
 0.7548791268372E+00
 0.7489490745382E+00
 0.7457134868215E+00
 0.7452704589678E+00
 0.1130535192471E+01
 0.1090383703537E+01
 0.1052319975874E+01
 0.1016250176674E+01
 0.9821267849652E+00
 0.9499366650625E+00
 0.9196912358399E+00
 0.8914186911162E+00
 0.8651580382230E+00
 0.8409547461029E+00
 0.8188575495684E+00
 0.7989152058529E+00
 0.7811730579238E+00
 0.7656706393311E+00
 0.7524416652905E+00
 0.7415160419189E+00
 0.7329231422108E+00
 0.7266964597125E+00
 0.7228811643067E+00
 0.7215468031791E+00
 0.1089954810160E+01
 0.1051694873441E+01
 0.1015476540567E+01
 0.9811965335422E+00
 0.9487951158379E+00
 0.9182455681198E+00
 0.8895453763056E+00
 0.8627094709911E+00
 0.8377652183452E+00
 0.8147485066830E+00
 0.7936999452397E+00
 0.7746598911394E+00
 0.7576630464249E+00
 0.7427349847725E+00
 0.7298921013682E+00
 0.7191439498063E+00
 0.7104966222511E+00
 0.7039572298039E+00
 0.6995412924600E+00
 0.6972855124273E+00
 0.1048962299724E+01
 0.1012632711819E+01
 0.9782863452437E+00
 0.9458125035000E+00
 0.9151411854529E+00
 0.8862338510387E+00
 0.8590755907188E+00
 0.8336694047101E+00
 0.8100321918461E+00
 0.7881913178592E+00
 0.7681802289941E+00
 0.7500317264524E+00
 0.7337705433549E+00
 0.7194087403855E+00
 0.7069455704087E+00
 0.6963700710444E+00
 0.6876643955416E+00
 0.6808077818698E+00
 0.6757833762948E+00
 0.6725908836670E+00
 0.1007557978901E+01
 0.9731959993482E+00
 0.9407483178182E+00
 0.9100982858155E+00
 0.8811672201913E+00
 0.8539062866468E+00
 0.8282895693486E+00
 0.8043093936744E+00
 0.7819733502079E+00
 0.7613013741154E+00
 0.7423207829395E+00
 0.7250577728891E+00
 0.7095279259122E+00
 0.6957304261731E+00
 0.6836477969968E+00
 0.6732486776904E+00
 0.6644909184011E+00
 0.6573246382022E+00
 0.6516979367364E+00
 0.6475688065719E+00
 0.9657440053650E+00
 0.9333852066048E+00
 0.9028628840461E+00
 0.8740553600651E+00
 0.8468764996676E+00
 0.8212684758186E+00
 0.7971956122689E+00
 0.7746407385036E+00
 0.7536032787527E+00
 0.7340968584895E+00
 0.7161437670128E+00
 0.6997646508788E+00
 0.6849669085046E+00
 0.6717376850794E+00
 0.6600434426386E+00
 0.6498328573612E+00
 0.6410395056764E+00
 0.6335835646268E+00
 0.6273756474834E+00
 0.6223266476478E+00
 0.9235238432497E+00
 0.8932021066913E+00
 0.8646316961113E+00
 0.8376862975962E+00
 0.8122732239808E+00
 0.7883267485163E+00
 0.7658025470024E+00
 0.7446750596109E+00
 0.7249366683620E+00
 0.7065958327150E+00
 0.6896709714770E+00
 0.6741783353839E+00
 0.6601182598302E+00
 0.6474669032192E+00
 0.6361756110929E+00
 0.6261738789721E+00
 0.6173715034315E+00
 0.6096585123322E+00
 0.6029062553996E+00
 0.5969733621065E+00
 0.8809017319442E+00
 0.8526494069847E+00
 0.8260573799260E+00
 0.8009945927618E+00
 0.7773623986666E+00
 0.7550880794413E+00
 0.7341196577898E+00
 0.7144242284457E+00
 0.6959882400783E+00
 0.6788161450992E+00
 0.6629236920132E+00
 0.6483239751045E+00
 0.6350115403254E+00
 0.6229528445617E+00
 0.6120853676186E+00
 0.6023205842310E+00
 0.5935454841924E+00
 0.5856204788352E+00
 0.5783771849911E+00
 0.5716188038797E+00
 0.8378822028398E+00
 0.8117304104631E+00
 0.7871433204598E+00
 0.7639845309493E+00
 0.7421497530303E+00
 0.7215600304162E+00
 0.7021566347138E+00
 0.6839003144166E+00
 0.6667726864906E+00
 0.6507753614842E+00
 0.6359226359206E+00
 0.6222257460308E+00
 0.6096748673722E+00
 0.5982282982285E+00
 0.5878112597105E+00
 0.5783187877749E+00
 0.5696165418247E+00
 0.5615364703540E+00
 0.5538716914575E+00
 0.5463712069180E+00
 0.7944695097462E+00
 0.7704486387176E+00
 0.7478934179465E+00
 0.7266610401667E+00
 0.7066416447525E+00
 0.6877506762312E+00
 0.6699235013097E+00
 0.6531155087107E+00
 0.6373045957099E+00
 0.6224906937897E+00
 0.6086878458136E+00
 0.5959067373872E+00
 0.5841347097075E+00
 0.5733237314020E+00
 0.5633888111329E+00
 0.5542106477124E+00
 0.5456355842819E+00
 0.5374688349396E+00
 0.5294669055960E+00
 0.5213305466602E+00
 0.7506671404776E+00
 0.7288075282869E+00
 0.7083119407126E+00
 0.6890296438091E+00
 0.6708450591895E+00
 0.6536686075285E+00
 0.6374306002038E+00
 0.6220820910892E+00
 0.6075984151781E+00
 0.5939789796973E+00
 0.5812387009672E+00
 0.5693889399711E+00
 0.5584157848050E+00
 0.5482670004964E+00
 0.5388500040644E+00
 0.5300339612707E+00
 0.5216485576091E+00
 0.5134743844285E+00
 0.5052332612530E+00
 0.4965784281245E+00
 0.7064771930849E+00
 0.6868100523545E+00
 0.6684033441881E+00
 0.6510964111992E+00
 0.6347676057750E+00
 0.6193229178305E+00
 0.6046885417610E+00
 0.5908123489683E+00
 0.5776683650449E+00
 0.5652566327729E+00
 0.5535939326928E+00
 0.5426933146328E+00
 0.5325410647809E+00
 0.5230831262563E+00
 0.5142226908363E+00
 0.5058212728334E+00
 0.4976954425173E+00
 0.4896033302308E+00
 0.4812331014229E+00
 0.4721832736704E+00
 0.6618996657232E+00
 0.6444583371046E+00
 0.6281721669982E+00
 0.6128680071076E+00
 0.5984176118721E+00
 0.5847232322879E+00
 0.5717081649174E+00
 0.5593184739719E+00
 0.5475283203564E+00
 0.5363395555617E+00
 0.5257716589917E+00
 0.5158399692659E+00
 0.5065320167476E+00
 0.4977942433290E+00
 0.4895299731907E+00
 0.4815986520686E+00
 0.4738089231363E+00
 0.4658985343070E+00
 0.4575207679874E+00
 0.4482125659084E+00
 0.6169316262983E+00
 0.6017533010296E+00
 0.5876230416302E+00
 0.5743520012412E+00
 0.5618043602110E+00
 0.5498798664733E+00
 0.5385005261786E+00
 0.5276124985434E+00
 0.5171916897183E+00
 0.5072430497835E+00
 0.4977893988368E+00
 0.4888485246851E+00
 0.4804092027039E+00
 0.4724201708248E+00
 0.4647896804343E+00
 0.4573840448815E+00
 0.4500123619903E+00
 0.4423948086569E+00
 0.4341461163599E+00
 0.4247307956967E+00
 0.5715658479650E+00
 0.5586938206907E+00
 0.5467609873905E+00
 0.5355571498953E+00
 0.5249385691790E+00
 0.5148037651787E+00
 0.5050768537300E+00
 0.4957060590571E+00
 0.4866711992324E+00
 0.4779815279238E+00
 0.4696639130272E+00
 0.4617381920080E+00
 0.4541934939595E+00
 0.4469796012172E+00
 0.4400151001999E+00
 0.4331843015230E+00
 0.4263159001342E+00
 0.4191172154118E+00
 0.4111561345604E+00
 0.4018023656674E+00
 0.5257877226129E+00
 0.5152768340282E+00
 0.5055911679717E+00
 0.4964955733285E+00
 0.4878323085001E+00
 0.4795071040955E+00
 0.4714481599837E+00
 0.4636104829811E+00
 0.4559786652112E+00
 0.4485682546957E+00
 0.4414108285582E+00
 0.4345278226563E+00
 0.4279063173715E+00
 0.4214948666433E+00
 0.4152161462706E+00
 0.4089952683728E+00
 0.4027048035099E+00
 0.3960751448667E+00
 0.3886003703714E+00
 0.3794984521838E+00
 0.4795739816385E+00
 0.4714900593979E+00
 0.4641268318745E+00
 0.4571802367791E+00
 0.4505029729076E+00
 0.4440004810492E+00
 0.4376261783360E+00
 0.4313362817499E+00
 0.4251247898320E+00
 0.4190148461047E+00
 0.4130440258788E+00
 0.4072349356022E+00
 0.4015703220284E+00
 0.3959905509232E+00
 0.3904202104640E+00
 0.3847912953942E+00
 0.3791361955815E+00
 0.3732247284358E+00
 0.3665368942980E+00
 0.3579468779237E+00
 0.4328491347190E+00
 0.4273418833438E+00
 0.4223655713968E+00
 0.4176557561132E+00
 0.4129546336367E+00
 0.4082994613889E+00
 0.4036215793702E+00
 0.3988938510423E+00
 0.3941184840459E+00
 0.3893310211021E+00
 0.3845751266227E+00
 0.3798744503208E+00
 0.3752068041091E+00
 0.3704981626165E+00
 0.3656551592964E+00
 0.3606336410595E+00
 0.3554220613801E+00
 0.3504744302447E+00
 0.3449590354354E+00
 0.3374067774693E+00
 0.3856032865981E+00
 0.3826473854448E+00
 0.3805217705701E+00
 0.3778754203371E+00
 0.3752162850656E+00
 0.3724129883809E+00
 0.3694509956484E+00
 0.3662900871931E+00
 0.3629667463567E+00
 0.3595252201179E+00
 0.3560127612186E+00
 0.3524578257573E+00
 0.3488322349384E+00
 0.3450484708805E+00
 0.3409747639718E+00
 0.3365384622440E+00
 0.3318567878409E+00
 0.3267670149102E+00
 0.3240606789475E+00
 0.3184597450895E+00
 0.3358599751645E+00
 0.3387001540923E+00
 0.3382460133875E+00
 0.3379238818789E+00
 0.3372546109439E+00
 0.3363987580204E+00
 0.3351164388027E+00
 0.3335263366755E+00
 0.3316788548967E+00
 0.3296018895414E+00
 0.3273641642233E+00
 0.3249910600839E+00
 0.3224572335698E+00
 0.3196576958125E+00
 0.3164409631276E+00
 0.3126046111196E+00
 0.3083228786483E+00
 0.3039255955031E+00
 0.2976154643292E+00
 0.3048483822108E+00
 0.6989903110677E+01
 0.1814443412319E+01
 0.1676973080077E+01
 0.1497705830727E+01
 0.1315354910973E+01
 0.1057127026448E+01
 0.8022766406986E+00
 0.6426289606651E+00
 0.5480995992272E+00
 0.4741893446882E+00
 0.4055095033168E+00
 0.3396148891996E+00
 0.2769771373299E+00
 0.2148254902768E+00
 0.1535017879908E+00
 0.9474849254463E-01
 0.4618232879247E-01
-0.2293081699515E-01
-0.7408096401086E-01
-0.4793579720379E-01
 0.4586338494716E+01
 0.2974431819641E+01
 0.1754310195871E+01
 0.1541888159802E+01
 0.1337289479452E+01
 0.1121536898721E+01
 0.9039546981284E+00
 0.7291717849263E+00
 0.6127809307074E+00
 0.5303182796278E+00
 0.4610218258958E+00
 0.3975568500314E+00
 0.3379255048924E+00
 0.2811770095820E+00
 0.2268843345559E+00
 0.1770516590505E+00
 0.1272838003145E+00
 0.7765462348772E-01
 0.5493840865839E-01
 0.1052586274936E+00
 0.3874428464971E+01
 0.2889661167117E+01
 0.2089913205579E+01
 0.1607442145371E+01
 0.1382649967743E+01
 0.1176706851700E+01
 0.9818768501146E+00
 0.8124144318236E+00
 0.6843171322735E+00
 0.5913687177463E+00
 0.5182718252707E+00
 0.4552517301590E+00
 0.3982658835988E+00
 0.3456840669469E+00
 0.2973605931768E+00
 0.2531991265294E+00
 0.2108303564594E+00
 0.1754476774642E+00
 0.1743428766860E+00
 0.2449531777806E+00
 0.3476190954444E+01
 0.2784025977114E+01
 0.2190425392731E+01
 0.1736938705781E+01
 0.1442510453879E+01
 0.1233548627251E+01
 0.1049305108997E+01
 0.8873719039999E+00
 0.7562003399829E+00
 0.6558457414058E+00
 0.5777711817940E+00
 0.5135229226532E+00
 0.4579154765553E+00
 0.4085864798296E+00
 0.3648159110118E+00
 0.3264550993704E+00
 0.2913358992378E+00
 0.2689797002632E+00
 0.2841929367413E+00
 0.3650324133118E+00
 0.3216894362467E+01
 0.2682790089009E+01
 0.2218997696362E+01
 0.1820787706335E+01
 0.1519448858066E+01
 0.1294054588645E+01
 0.1112876266266E+01
 0.9560913863540E+00
 0.8252451931411E+00
 0.7210233426689E+00
 0.6388043937829E+00
 0.5725005260351E+00
 0.5171536025725E+00
 0.4699614318460E+00
 0.4298575901881E+00
 0.3964987217504E+00
 0.3681442177570E+00
 0.3565406004224E+00
 0.3829939626090E+00
 0.4674555078699E+00
 0.3026764550228E+01
 0.2595009119738E+01
 0.2215307914709E+01
 0.1871077962827E+01
 0.1585570941268E+01
 0.1357626646740E+01
 0.1174834683362E+01
 0.1020765502547E+01
 0.8909579755876E+00
 0.7850512680141E+00
 0.7000685824676E+00
 0.6317618441446E+00
 0.5759744459339E+00
 0.5299960260976E+00
 0.4925968155031E+00
 0.4633217069379E+00
 0.4406725392102E+00
 0.4373188402263E+00
 0.4707814106947E+00
 0.5545631994413E+00
 0.2877252846676E+01
 0.2518170967206E+01
 0.2197502083489E+01
 0.1898445061951E+01
 0.1636709567629E+01
 0.1416216479638E+01
 0.1234822235795E+01
 0.1082301029215E+01
 0.9535573963200E+00
 0.8470703150601E+00
 0.7604592075299E+00
 0.6905891826723E+00
 0.6341079148510E+00
 0.5886642048735E+00
 0.5530865151297E+00
 0.5268669926677E+00
 0.5086491562493E+00
 0.5111215644368E+00
 0.5482535916371E+00
 0.6285392991398E+00
 0.2753934203859E+01
 0.2449694022238E+01
 0.2173053212138E+01
 0.1910958062615E+01
 0.1673963123905E+01
 0.1466421149046E+01
 0.1290226161866E+01
 0.1140379254498E+01
 0.1013024662316E+01
 0.9066499764697E+00
 0.8192175047911E+00
 0.7482785435271E+00
 0.6911117710788E+00
 0.6457746700336E+00
 0.6112689687957E+00
 0.5871010367493E+00
 0.5720026185661E+00
 0.5781382199966E+00
 0.6163512933464E+00
 0.6913131180776E+00
 0.2648765613731E+01
 0.2387523957783E+01
 0.2145363102338E+01
 0.1913654263124E+01
 0.1699843748533E+01
 0.1507444501189E+01
 0.1339309602664E+01
 0.1193896221799E+01
 0.1068906134648E+01
 0.9633689849123E+00
 0.8757786288921E+00
 0.8042294060089E+00
 0.7465052845410E+00
 0.7010302776405E+00
 0.6670060573007E+00
 0.6439910852130E+00
 0.6307932726940E+00
 0.6387470937910E+00
 0.6760669986287E+00
 0.7445529135315E+00
 0.2556858859621E+01
 0.2330189517903E+01
 0.2116026574638E+01
 0.1909647442659E+01
 0.1716706946273E+01
 0.1539776666226E+01
 0.1381346125677E+01
 0.1241924182262E+01
 0.1120492840114E+01
 0.1016687298329E+01
 0.9296144900904E+00
 0.8579125851291E+00
 0.7998237878468E+00
 0.7540941494827E+00
 0.7201110906611E+00
 0.6974987540909E+00
 0.6851456461011E+00
 0.6934005299833E+00
 0.7283485470945E+00
 0.7896819173309E+00
 0.2475044886842E+01
 0.2276647771521E+01
 0.2085819185004E+01
 0.1900870435140E+01
 0.1726432628256E+01
 0.1564348714126E+01
 0.1416318251983E+01
 0.1283952503501E+01
 0.1167152565093E+01
 0.1066011643445E+01
 0.9801818745149E+00
 0.9088226199132E+00
 0.8506223115760E+00
 0.8046227204632E+00
 0.7703771049916E+00
 0.7475783784805E+00
 0.7352064944934E+00
 0.7425564328662E+00
 0.7740535720782E+00
 0.8279008627457E+00
 0.2401155417892E+01
 0.2226153080521E+01
 0.2055127859884E+01
 0.1888548417073E+01
 0.1730436327841E+01
 0.1582150089933E+01
 0.1444583423040E+01
 0.1319850572684E+01
 0.1208471642081E+01
 0.1110822869292E+01
 0.1026954183682E+01
 0.9564675435226E+00
 0.8984693023768E+00
 0.8522764483391E+00
 0.8175915676301E+00
 0.7941781947742E+00
 0.7811213384394E+00
 0.7866424668624E+00
 0.8139313808295E+00
 0.8602120873632E+00
 0.2333637145552E+01
 0.2178160928139E+01
 0.2024150444702E+01
 0.1873479774813E+01
 0.1729766075734E+01
 0.1594077434138E+01
 0.1466652987401E+01
 0.1349744233098E+01
 0.1244267572551E+01
 0.1150747984765E+01
 0.1069478783465E+01
 0.1000391488505E+01
 0.9429530681842E+00
 0.8967254222328E+00
 0.8615430639543E+00
 0.8372411920642E+00
 0.8230232754558E+00
 0.8260410768689E+00
 0.8486212574198E+00
 0.8874425599271E+00
 0.2271331364171E+01
 0.2132262053694E+01
 0.1992990457099E+01
 0.1856202457934E+01
 0.1725199512314E+01
 0.1600893044428E+01
 0.1483068801515E+01
 0.1373902068216E+01
 0.1274541134455E+01
 0.1185574415189E+01
 0.1107414311653E+01
 0.1040205793671E+01
 0.9836996528564E+00
 0.9376591304985E+00
 0.9020271206660E+00
 0.8767070114902E+00
 0.8610297418748E+00
 0.8610881293964E+00
 0.8786611089203E+00
 0.9102649272228E+00
 0.2213341563167E+01
 0.2088137745183E+01
 0.1961703501092E+01
 0.1837092716717E+01
 0.1717321487238E+01
 0.1603228233731E+01
 0.1494344362357E+01
 0.1392655222431E+01
 0.1299416245684E+01
 0.1215228957365E+01
 0.1140539954246E+01
 0.1075609382548E+01
 0.1020391312201E+01
 0.9747991174863E+00
 0.9388537722682E+00
 0.9125163336898E+00
 0.8952453968234E+00
 0.8920816750469E+00
 0.9045045263859E+00
 0.9292171768056E+00
 0.2158948321374E+01
 0.2045530760621E+01
 0.1930319649053E+01
 0.1816426235450E+01
 0.1706579850999E+01
 0.1601602367720E+01
 0.1500941926239E+01
 0.1406349364817E+01
 0.1319088851172E+01
 0.1239744015818E+01
 0.1168744394235E+01
 0.1106393331390E+01
 0.1052776762353E+01
 0.1007908168615E+01
 0.9718543539382E+00
 0.9446157577473E+00
 0.9257695662596E+00
 0.9192994368856E+00
 0.9265487347213E+00
 0.9447245569413E+00
 0.2107555117694E+01
 0.2004217396983E+01
 0.1898865366069E+01
 0.1794410967936E+01
 0.1693328797000E+01
 0.1596440549485E+01
 0.1503268884615E+01
 0.1415319510943E+01
 0.1333791063910E+01
 0.1259225074230E+01
 0.1192005855888E+01
 0.1132433501609E+01
 0.1080670689494E+01
 0.1036791125505E+01
 0.1000879680734E+01
 0.9729589126705E+00
 0.9527010215018E+00
 0.9430251151843E+00
 0.9451807994346E+00
 0.9571340375009E+00
 0.2058593555474E+01
 0.1964034565783E+01
 0.1867341160566E+01
 0.1771248692976E+01
 0.1677833736429E+01
 0.1588095198155E+01
 0.1501679756449E+01
 0.1419879724844E+01
 0.1343769307435E+01
 0.1273825654834E+01
 0.1210372515965E+01
 0.1153679262239E+01
 0.1103946968285E+01
 0.1061285777675E+01
 0.1025786506089E+01
 0.9974812665587E+00
 0.9761362084042E+00
 0.9635675828616E+00
 0.9608601065288E+00
 0.9667949761064E+00
 0.2011648753243E+01
 0.1924571474964E+01
 0.1836051602591E+01
 0.1747005377060E+01
 0.1660318128876E+01
 0.1576847273160E+01
 0.1496482977260E+01
 0.1420322164158E+01
 0.1349271855002E+01
 0.1283730134650E+01
 0.1223948550803E+01
 0.1170146643556E+01
 0.1122536569961E+01
 0.1081254185859E+01
 0.1046407948096E+01
 0.1018056693690E+01
 0.9960572970913E+00
 0.9812911063108E+00
 0.9742339105590E+00
 0.9742702101522E+00
 0.1963428887876E+01
 0.1887572187237E+01
 0.1804617566132E+01
 0.1721873218612E+01
 0.1640897395745E+01
 0.1562897927607E+01
 0.1487965600033E+01
 0.1416922998182E+01
 0.1350536704387E+01
 0.1289138506711E+01
 0.1232887758734E+01
 0.1181921673516E+01
 0.1136439836105E+01
 0.1096602650050E+01
 0.1062543884514E+01
 0.1034410391261E+01
 0.1012225640446E+01
 0.9960736609704E+00
 0.9864558342207E+00
 0.9810985511448E+00
 0.3045948338578E+00
 0.3012173781320E+00
 0.3008927344754E+00
 0.3000202107487E+00
 0.2989157489220E+00
 0.2975776615610E+00
 0.2965864663440E+00
 0.2957163282699E+00
 0.2947219385324E+00
 0.2935691969445E+00
 0.2922911470995E+00
 0.2909201846332E+00
 0.2893542893571E+00
 0.2874426062933E+00
 0.2849898726995E+00
 0.2816557512267E+00
 0.2764238205348E+00
 0.2694221379242E+00
 0.2608611104438E+00
 0.2298403537106E+00
 0.2542059769512E+00
 0.2549582252872E+00
 0.2547447793895E+00
 0.2544347972039E+00
 0.2533682334511E+00
 0.2518418512071E+00
 0.2506718975127E+00
 0.2499772314545E+00
 0.2494828434941E+00
 0.2490338393423E+00
 0.2485611237325E+00
 0.2479973325024E+00
 0.2471571650446E+00
 0.2458152006990E+00
 0.2437063630000E+00
 0.2403831092136E+00
 0.2351026394614E+00
 0.2291035735822E+00
 0.2199768893064E+00
 0.2214567743860E+00
 0.2053356439543E+00
 0.2077051554444E+00
 0.2090033345451E+00
 0.2092571969878E+00
 0.2084694091418E+00
 0.2068753940224E+00
 0.2057681440376E+00
 0.2054616432710E+00
 0.2056446202452E+00
 0.2060511622959E+00
 0.2065056810193E+00
 0.2068603099783E+00
 0.2068602774180E+00
 0.2062428441619E+00
 0.2047569828594E+00
 0.2020782272465E+00
 0.1978165438806E+00
 0.1929019888392E+00
 0.1904057558427E+00
 0.1898718699808E+00
 0.1562121558423E+00
 0.1606645220992E+00
 0.1633782289518E+00
 0.1645823269737E+00
 0.1642195414606E+00
 0.1627597872873E+00
 0.1619197772370E+00
 0.1622145986728E+00
 0.1632683575370E+00
 0.1647040953414E+00
 0.1662459754421E+00
 0.1676738760374E+00
 0.1686850271678E+00
 0.1690058232013E+00
 0.1684233869051E+00
 0.1667251010858E+00
 0.1634879247645E+00
 0.1603527424089E+00
 0.1582426297314E+00
 0.1573105343411E+00
 0.1068351987068E+00
 0.1136997067744E+00
 0.1180796778869E+00
 0.1203936880341E+00
 0.1206689489782E+00
 0.1195336517547E+00
 0.1191788263492E+00
 0.1202922853230E+00
 0.1224262780672E+00
 0.1250874052183E+00
 0.1278995980906E+00
 0.1305745792900E+00
 0.1327691720001E+00
 0.1341966162629E+00
 0.1346618003142E+00
 0.1339493282503E+00
 0.1317537152325E+00
 0.1291533932283E+00
 0.1270771418690E+00
 0.1252914450529E+00
 0.5713554349617E-01
 0.6685063310859E-01
 0.7313319630222E-01
 0.7675021954136E-01
 0.7784463038889E-01
 0.7723949425124E-01
 0.7759363427965E-01
 0.7975678760996E-01
 0.8319624845161E-01
 0.8729410545030E-01
 0.9156743335406E-01
 0.9565628194703E-01
 0.9917486215381E-01
 0.1018141423827E+00
 0.1033640294459E+00
 0.1036169561691E+00
 0.1022056077988E+00
 0.9990773504789E-01
 0.9747162054727E-01
 0.9511295511485E-01
 0.7083617972901E-02
 0.2014274038979E-01
 0.2858111814576E-01
 0.3368475935455E-01
 0.3578152619396E-01
 0.3591437510127E-01
 0.3721370199207E-01
 0.4067194588583E-01
 0.4565708455157E-01
 0.5141106979450E-01
 0.5733209508063E-01
 0.6298168375898E-01
 0.6793041310661E-01
 0.7184210738251E-01
 0.7449385062146E-01
 0.7566225849498E-01
 0.7497713267367E-01
 0.7285874433509E-01
 0.7009858472320E-01
 0.6729910052100E-01
-0.4334543432093E-01
-0.2638597447278E-01
-0.1553843208484E-01
-0.8770903849112E-02
-0.5491806589413E-02
-0.4405663219395E-02
-0.1912425092234E-02
 0.3103067562446E-02
 0.9887778363526E-02
 0.1752036770650E-01
 0.2526456882625E-01
 0.3259887383587E-01
 0.3905575107032E-01
 0.4428143127073E-01
 0.4804678923903E-01
 0.5013389494195E-01
 0.5017668082333E-01
 0.4830143492553E-01
 0.4536758545716E-01
 0.4226038402631E-01
-0.9417121165062E-01
-0.7268904903844E-01
-0.5918477201549E-01
-0.5058869956499E-01
-0.4595091812449E-01
-0.4368833349845E-01
-0.3973668719140E-01
-0.3288223333496E-01
-0.2402981800127E-01
-0.1429622290096E-01
-0.4568683394367E-02
 0.4549850976829E-02
 0.1256964295980E-01
 0.1913778670736E-01
 0.2403960707531E-01
 0.2707946041362E-01
 0.2792161094537E-01
 0.2645317818171E-01
 0.2359018843383E-01
 0.2032515516930E-01
-0.1454088251701E+00
-0.1187093574358E+00
-0.1023142761982E+00
-0.9174349770188E-01
-0.8557726195629E-01
-0.8190602137704E-01
-0.7621126009932E-01
-0.6721088704617E-01
-0.5600619048600E-01
-0.4395219892625E-01
-0.3210230439844E-01
-0.2112922592938E-01
-0.1151742743207E-01
-0.3589920966816E-02
 0.2478359578609E-02
 0.6535877292254E-02
 0.8296571827268E-02
 0.7472462414484E-02
 0.4987414702834E-02
 0.1763692386440E-02
-0.1970676670253E+00
-0.1643766447298E+00
-0.1448789121475E+00
-0.1322140135856E+00
-0.1243606445781E+00
-0.1190378620537E+00
-0.1112871225962E+00
-0.9979901053837E-01
-0.8593750921465E-01
-0.7135237236201E-01
-0.5727314117497E-01
-0.4441484441671E-01
-0.3321374280222E-01
-0.2392421924270E-01
-0.1665184610326E-01
-0.1148521095268E-01
-0.8648946253199E-02
-0.8544769640688E-02
-0.1030239138043E-01
-0.1323211677293E-01
-0.2491492456273E+00
-0.2096032869544E+00
-0.1868239883557E+00
-0.1719845108137E+00
-0.1623041822842E+00
-0.1550731139901E+00
-0.1449110835990E+00
-0.1305427988907E+00
-0.1136968087006E+00
-0.9639091967341E-01
-0.8002693059514E-01
-0.6530810203751E-01
-0.5255918550217E-01
-0.4191818664001E-01
-0.3339314578162E-01
-0.2699932050315E-01
-0.2290159308365E-01
-0.2156225790316E-01
-0.2222886429878E-01
-0.2457484219137E-01
-0.3016443133624E+00
-0.2542772769765E+00
-0.2280836854283E+00
-0.2110482961901E+00
-0.1994340121626E+00
-0.1900169595736E+00
-0.1770189306577E+00
-0.1593025597419E+00
-0.1391224128043E+00
-0.1189540996736E+00
-0.1003329853084E+00
-0.8385214559365E-01
-0.6963714632775E-01
-0.5765981534833E-01
-0.4781367025523E-01
-0.4004628462673E-01
-0.3448008865871E-01
-0.3159990736893E-01
-0.3083308363065E-01
-0.3230524083930E-01
-0.3545305391351E+00
-0.2982497572446E+00
-0.2685716239902E+00
-0.2494148934918E+00
-0.2358194057928E+00
-0.2238993000468E+00
-0.2075187293925E+00
-0.1858736223329E+00
-0.1620055459484E+00
-0.1389342442490E+00
-0.1182115142590E+00
-0.1001533297401E+00
-0.8458147942815E-01
-0.7126779741762E-01
-0.5999962936501E-01
-0.5068340822787E-01
-0.4342977897069E-01
-0.3872724148134E-01
-0.3624361873827E-01
-0.3660245005198E-01
-0.4077760682014E+00
-0.3413118709961E+00
-0.3081580158430E+00
-0.2871279266338E+00
-0.2716148978024E+00
-0.2567861760650E+00
-0.2362462568700E+00
-0.2099374753664E+00
-0.1820860329183E+00
-0.1562704514362E+00
-0.1337754581564E+00
-0.1143988086074E+00
-0.9757025726585E-01
-0.8287587100371E-01
-0.7004245169325E-01
-0.5897813708835E-01
-0.4981765095816E-01
-0.4305308475389E-01
-0.3866073206089E-01
-0.3777222486446E-01
-0.4613755690539E+00
-0.3831405939896E+00
-0.3466170931754E+00
-0.3243065859685E+00
-0.3071651806142E+00
-0.2887666448157E+00
-0.2628622282632E+00
-0.2309835765037E+00
-0.1990983766195E+00
-0.1710294247980E+00
-0.1472782551076E+00
-0.1268529348935E+00
-0.1087967145016E+00
-0.9260809421785E-01
-0.7802685680056E-01
-0.6500491363289E-01
-0.5372836983789E-01
-0.4471050541104E-01
-0.3832678291730E-01
-0.3621068982058E-01
-0.5154927606777E+00
-0.4231911683464E+00
-0.3834265393607E+00
-0.3613517843466E+00
-0.3431822478468E+00
-0.3198905061636E+00
-0.2865465427328E+00
-0.2483184345138E+00
-0.2129043745491E+00
-0.1835311106921E+00
-0.1591326936732E+00
-0.1378037890617E+00
-0.1184202289279E+00
-0.1005564278224E+00
-0.8402990666667E-01
-0.6884743026826E-01
-0.5526265261051E-01
-0.4383244509627E-01
-0.3548538052203E-01
-0.3234800391870E-01
-0.5713661313649E+00
-0.4599397878786E+00
-0.4176110027336E+00
-0.3992310308129E+00
-0.3816135131139E+00
-0.3491291743653E+00
-0.3059179604403E+00
-0.2611706926509E+00
-0.2237960993124E+00
-0.1944709300128E+00
-0.1698099938654E+00
-0.1474603845501E+00
-0.1265235985473E+00
-0.1067834535526E+00
-0.8812563817344E-01
-0.7061646732513E-01
-0.5452850486391E-01
-0.4052249849758E-01
-0.3031825096460E-01
-0.2659868013815E-01
-0.6331714272626E+00
-0.4908657232900E+00
-0.4428818128464E+00
-0.4468100085893E+00
-0.4216130801542E+00
-0.3746869067263E+00
-0.3185947336550E+00
-0.2692584412430E+00
-0.2330454571092E+00
-0.2047349880833E+00
-0.1795927878923E+00
-0.1558671356159E+00
-0.1331476981431E+00
-0.1113125698256E+00
-0.9041823298428E-01
-0.7045051649275E-01
-0.5168693680448E-01
-0.3475383679583E-01
-0.2288911421119E-01
-0.1930203846863E-01
-0.7651248732833E+00
-0.4459331765217E+00
-0.4974070283833E+00
-0.4997123066021E+00
-0.4651958644757E+00
-0.3911055232254E+00
-0.3212614338641E+00
-0.2750233961679E+00
-0.2426032228460E+00
-0.2148167825507E+00
-0.1883108759371E+00
-0.1629806787591E+00
-0.1384399653371E+00
-0.1141432586681E+00
-0.9069489338729E-01
-0.6906746849375E-01
-0.4686015270928E-01
-0.2598489881330E-01
-0.1316657256463E-01
-0.1095338560808E-01
 0.9958460544083E+00
 0.9952244764010E+00
 0.9906414862272E+00
 0.9841391650740E+00
 0.9757732645879E+00
 0.9653178275682E+00
 0.9523785369862E+00
 0.9364507758478E+00
 0.9169153073663E+00
 0.8930225287076E+00
 0.8638671140481E+00
 0.8283530641197E+00
 0.7851458900852E+00
 0.7326072892166E+00
 0.6687049647354E+00
 0.5908807875360E+00
 0.4958359211350E+00
 0.3790877367304E+00
 0.2340420096338E+00
 0.4852567620494E-01
 0.9967030791583E+00
 0.1000166696346E+01
 0.1001241875844E+01
 0.1000322281183E+01
 0.9978964177084E+00
 0.9938829313914E+00
 0.9879999932559E+00
 0.9798262374978E+00
 0.9688267436567E+00
 0.9543460580165E+00
 0.9355873781271E+00
 0.9115777371066E+00
 0.8811157068779E+00
 0.8426946673298E+00
 0.7943909062362E+00
 0.7336998989820E+00
 0.6572686132585E+00
 0.5603901917648E+00
 0.4355146525374E+00
 0.2633027863585E+00
 0.9968433067870E+00
 0.1003674558885E+01
 0.1009176599046E+01
 0.1013480021324E+01
 0.1016729817524E+01
 0.1018950190423E+01
 0.1019955814429E+01
 0.1019431317596E+01
 0.1016955419269E+01
 0.1012007583887E+01
 0.1003957875016E+01
 0.9920436100199E+00
 0.9753298016374E+00
 0.9526472316837E+00
 0.9225000703054E+00
 0.8829333183651E+00
 0.8313659436092E+00
 0.7643545461111E+00
 0.6773206347608E+00
 0.5658844604472E+00
 0.9957306957193E+00
 0.1005447247492E+01
 0.1014736650498E+01
 0.1023587702848E+01
 0.1032034634631E+01
 0.1040052550245E+01
 0.1047521514241E+01
 0.1054216738607E+01
 0.1059830028909E+01
 0.1063979428565E+01
 0.1066210387292E+01
 0.1065987167921E+01
 0.1062672996891E+01
 0.1055494547848E+01
 0.1043484299881E+01
 0.1025399544311E+01
 0.9996333036774E+00
 0.9642842745654E+00
 0.9177208387541E+00
 0.8641717489783E+00
 0.9931380639133E+00
 0.1005242366163E+01
 0.1017661219111E+01
 0.1030343222386E+01
 0.1043265195347E+01
 0.1056384784796E+01
 0.1069606458621E+01
 0.1082773174707E+01
 0.1095669839263E+01
 0.1108034118059E+01
 0.1119564918338E+01
 0.1129927611467E+01
 0.1138754447862E+01
 0.1145637533083E+01
 0.1150109525193E+01
 0.1151604366852E+01
 0.1149403546910E+01
 0.1142602421347E+01
 0.1130649348095E+01
 0.1112148100965E+01
 0.9890161206534E+00
 0.1002940867426E+01
 0.1017779872037E+01
 0.1033469990172E+01
 0.1049977365353E+01
 0.1067258967776E+01
 0.1085242888948E+01
 0.1103819269657E+01
 0.1122842358636E+01
 0.1142138985580E+01
 0.1161521269429E+01
 0.1180801401532E+01
 0.1199808220351E+01
 0.1218404870977E+01
 0.1236504544245E+01
 0.1254074683756E+01
 0.1271100114440E+01
 0.1287432903154E+01
 0.1302247375275E+01
 0.1313539954749E+01
 0.9833302092801E+00
 0.9985750736645E+00
 0.1015187369604E+01
 0.1033119366056E+01
 0.1052347299985E+01
 0.1072843911846E+01
 0.1094563069761E+01
 0.1117433339253E+01
 0.1141358602385E+01
 0.1166225274327E+01
 0.1191915071478E+01
 0.1218323353333E+01
 0.1245383745972E+01
 0.1273100550391E+01
 0.1301589821365E+01
 0.1331125771501E+01
 0.1362167639311E+01
 0.1395283038791E+01
 0.1430532209727E+01
 0.1466782864341E+01
 0.9760641204518E+00
 0.9921764016727E+00
 0.1009981080321E+01
 0.1029455209714E+01
 0.1050596925810E+01
 0.1073403385412E+01
 0.1097858251571E+01
 0.1123925459815E+01
 0.1151548418944E+01
 0.1180654285894E+01
 0.1211163566924E+01
 0.1243005728667E+01
 0.1276142481669E+01
 0.1310601611335E+01
 0.1346526040922E+01
 0.1384243920464E+01
 0.1424369377722E+01
 0.1467910563832E+01
 0.1516459626427E+01
 0.1570293280382E+01
 0.9672147131791E+00
 0.9837887598914E+00
 0.1002270661333E+01
 0.1022663295449E+01
 0.1044989746474E+01
 0.1069274871913E+01
 0.1095533866653E+01
 0.1123765653040E+01
 0.1153950028101E+01
 0.1186048327379E+01
 0.1220007830526E+01
 0.1255770652781E+01
 0.1293288579006E+01
 0.1332546620443E+01
 0.1373600354924E+01
 0.1416637976206E+01
 0.1462087031574E+01
 0.1510842445845E+01
 0.1564672951097E+01
 0.1627926300589E+01
 0.9567830649823E+00
 0.9734652709667E+00
 0.9921824645373E+00
 0.1012960585162E+01
 0.1035846338690E+01
 0.1060891199458E+01
 0.1088140775601E+01
 0.1117627932930E+01
 0.1149368334019E+01
 0.1183358000519E+01
 0.1219572877272E+01
 0.1257970660444E+01
 0.1298495525312E+01
 0.1341087013156E+01
 0.1385695842140E+01
 0.1432312159242E+01
 0.1481023269290E+01
 0.1532129741955E+01
 0.1586503298872E+01
 0.1646787078840E+01
 0.9447789380523E+00
 0.9612665096069E+00
 0.9798468955511E+00
 0.1000566366516E+01
 0.1023492892948E+01
 0.1048701150036E+01
 0.1076263730785E+01
 0.1106244562954E+01
 0.1138693726289E+01
 0.1173643178029E+01
 0.1211103168968E+01
 0.1251059227384E+01
 0.1293469614454E+01
 0.1338263170817E+01
 0.1385337391423E+01
 0.1434556977840E+01
 0.1485751131207E+01
 0.1538713125902E+01
 0.1593168430242E+01
 0.1648464527313E+01
 0.9311988585917E+00
 0.9472312403322E+00
 0.9653630399156E+00
 0.9856646723841E+00
 0.1008223287947E+01
 0.1033134151246E+01
 0.1060493820040E+01
 0.1090394520359E+01
 0.1122919015390E+01
 0.1158135629868E+01
 0.1196093138913E+01
 0.1236815229502E+01
 0.1280294118549E+01
 0.1326482572769E+01
 0.1375282933104E+01
 0.1426529953545E+01
 0.1479961308411E+01
 0.1535153981159E+01
 0.1591369607221E+01
 0.1647043291559E+01
 0.9160565473232E+00
 0.9313788654598E+00
 0.9487737821340E+00
 0.9683333570140E+00
 0.9901621321403E+00
 0.1014373565026E+01
 0.1041085604949E+01
 0.1070416274107E+01
 0.1102479161444E+01
 0.1137378572519E+01
 0.1175204077758E+01
 0.1216024159202E+01
 0.1259878534805E+01
 0.1306768447418E+01
 0.1356643512377E+01
 0.1409382594299E+01
 0.1464763207602E+01
 0.1522411067027E+01
 0.1581708071264E+01
 0.1641763704714E+01
 0.8993895171617E+00
 0.9137412388080E+00
 0.9301118899980E+00
 0.9486077329149E+00
 0.9693467082827E+00
 0.9924569593561E+00
 0.1018074282006E+01
 0.1046339048009E+01
 0.1077392694332E+01
 0.1111373626777E+01
 0.1148412318849E+01
 0.1188625370969E+01
 0.1232108272992E+01
 0.1278926518018E+01
 0.1329104506980E+01
 0.1382611142673E+01
 0.1439341203871E+01
 0.1499092681394E+01
 0.1561560547906E+01
 0.1626352743384E+01
 0.8812484323408E+00
 0.8943693590906E+00
 0.9094280579982E+00
 0.9265371378525E+00
 0.9458220631076E+00
 0.9674205044891E+00
 0.9914810010858E+00
 0.1018161162170E+01
 0.1047625388225E+01
 0.1080041974634E+01
 0.1115579401334E+01
 0.1154401620308E+01
 0.1196662223663E+01
 0.1242497514727E+01
 0.1292018663084E+01
 0.1345303417390E+01
 0.1402387783530E+01
 0.1463260921449E+01
 0.1527866008658E+01
 0.1596117386425E+01
 0.8616962189960E+00
 0.8733329150397E+00
 0.8867969061656E+00
 0.9021996128568E+00
 0.9196672137481E+00
 0.9393402736685E+00
 0.9613732820765E+00
 0.9859340111861E+00
 0.1013202578161E+01
 0.1043370040135E+01
 0.1076636313189E+01
 0.1113207208711E+01
 0.1153290473921E+01
 0.1197090956130E+01
 0.1244805450161E+01
 0.1296618284881E+01
 0.1352699427227E+01
 0.1413203434234E+01
 0.1478266815947E+01
 0.1548004647533E+01
 0.8408085834740E+00
 0.8507199416292E+00
 0.8623173966244E+00
 0.8757041850593E+00
 0.8909998787914E+00
 0.9083402082706E+00
 0.9278772769500E+00
 0.9497799560603E+00
 0.9742342903537E+00
 0.1001443734284E+01
 0.1031628988275E+01
 0.1065027165107E+01
 0.1101890022250E+01
 0.1142481149500E+01
 0.1187072405840E+01
 0.1235940715742E+01
 0.1289367042051E+01
 0.1347641623933E+01
 0.1411064171485E+01
 0.1479922860530E+01
 0.8186745667813E+00
 0.8266364430462E+00
 0.8361122130241E+00
 0.8471903236925E+00
 0.8599762221825E+00
 0.8745923438891E+00
 0.8911788319563E+00
 0.9098947875860E+00
 0.9309199128297E+00
 0.9544563772726E+00
 0.9807307138976E+00
 0.1009995440848E+01
 0.1042529963689E+01
 0.1078640183403E+01
 0.1118656321411E+01
 0.1162929012088E+01
 0.1211825329104E+01
 0.1265728771926E+01
 0.1325067508631E+01
 0.1390321661722E+01
 0.7953967959630E+00
 0.8012060665703E+00
 0.8083269366418E+00
 0.8168267609626E+00
 0.8267894487561E+00
 0.8383153679832E+00
 0.8515222773703E+00
 0.8665472147538E+00
 0.8835490922040E+00
 0.9027119661182E+00
 0.9242489021903E+00
 0.9484062402779E+00
 0.9754678040500E+00
 0.1005758168159E+01
 0.1039643471487E+01
 0.1077527946652E+01
 0.1119844929939E+01
 0.1167043447871E+01
 0.1219575807672E+01
 0.1278043200375E+01
 0.7710913936569E+00
 0.7745698857293E+00
 0.7791291411104E+00
 0.7848099553779E+00
 0.7916679379301E+00
 0.7997726014555E+00
 0.8092085793487E+00
 0.8200776995951E+00
 0.8325020485793E+00
 0.8466280985579E+00
 0.8626320476865E+00
 0.8807264730954E+00
 0.9011682057216E+00
 0.9242668220149E+00
 0.9503920880956E+00
 0.9799765342429E+00
 0.1013507449419E+01
 0.1051502542545E+01
 0.1094450861652E+01
 0.1142652944493E+01
 0.7458863208250E+00
 0.7468828563919E+00
 0.7487025057521E+00
 0.7513568164905E+00
 0.7548663894288E+00
 0.7592616775608E+00
 0.7645837491706E+00
 0.7708860491469E+00
 0.7782371667652E+00
 0.7867248935017E+00
 0.7964619480089E+00
 0.8075938887340E+00
 0.8203098359339E+00
 0.8348565615050E+00
 0.8515558301581E+00
 0.8708228483927E+00
 0.8931765423549E+00
 0.9192258047088E+00
 0.9496284384704E+00
 0.9848532398676E+00
 0.7199184217266E+00
 0.7183026190544E+00
 0.7172340827773E+00
 0.7166884566622E+00
 0.7166458972851E+00
 0.7170905555898E+00
 0.7180106471099E+00
 0.7193991015390E+00
 0.7212550932210E+00
 0.7235867374440E+00
 0.7264154611817E+00
 0.7297828703915E+00
 0.7337614398422E+00
 0.7384711118039E+00
 0.7441049205792E+00
 0.7509673127374E+00
 0.7595279448847E+00
 0.7704680564456E+00
 0.7846785462695E+00
 0.8034589784284E+00
 0.6933339474453E+00
 0.6890044427759E+00
 0.6849315928751E+00
 0.6810513882068E+00
 0.6772991264899E+00
 0.6736073456956E+00
 0.6699042532765E+00
 0.6661125546899E+00
 0.6621487234237E+00
 0.6579228931598E+00
 0.6533397213137E+00
 0.6483009310368E+00
 0.6427109214558E+00
 0.6364881595923E+00
 0.6295877423720E+00
 0.6220458918353E+00
 0.6140662827219E+00
 0.6061924288853E+00
 0.5994831551322E+00
 0.5954482413051E+00
 0.6662846602124E+00
 0.6591716914707E+00
 0.6520143762438E+00
 0.6447076937157E+00
 0.6371402984644E+00
 0.6291905799257E+00
 0.6207229855647E+00
 0.6115843963785E+00
 0.6016003543888E+00
 0.5905709525950E+00
 0.5782662492002E+00
 0.5644211961674E+00
 0.5487303948593E+00
 0.5308438440267E+00
 0.5103669014527E+00
 0.4868736876685E+00
 0.4599591209300E+00
 0.4293999149299E+00
 0.3957513378008E+00
 0.3608226592477E+00
 0.6389246960084E+00
 0.6289902035722E+00
 0.6187053588246E+00
 0.6079252162614E+00
 0.5964932330879E+00
 0.5842349280318E+00
 0.5709518213063E+00
 0.5564151811017E+00
 0.5403589814636E+00
 0.5224713775027E+00
 0.5023838305201E+00
 0.4796567060259E+00
 0.4537596461163E+00
 0.4240440876185E+00
 0.3897040598750E+00
 0.3497186586576E+00
 0.3027715860776E+00
 0.2471461064056E+00
 0.1807132518915E+00
 0.1035882186693E+00
 0.6114081191827E+00
 0.5986453441630E+00
 0.5852265497824E+00
 0.5709712243719E+00
 0.5556829770668E+00
 0.5391402242419E+00
 0.5210878949551E+00
 0.5012290233959E+00
 0.4792151144418E+00
 0.4546340633917E+00
 0.4269940923184E+00
 0.3957014666652E+00
 0.3600283536133E+00
 0.3190645171893E+00
 0.2716406128002E+00
 0.2161997709644E+00
 0.1505570530365E+00
 0.7143394089127E-01
-0.2679439284442E-01
-0.1555209129634E+00
 0.5838870401396E+00
 0.5683197001561E+00
 0.5517959684438E+00
 0.5341089706585E+00
 0.5150327184026E+00
 0.4943099011051E+00
 0.4716424235450E+00
 0.4466824914315E+00
 0.4190225430941E+00
 0.3881825322936E+00
 0.3535928635361E+00
 0.3145705712205E+00
 0.2702848961724E+00
 0.2197054357164E+00
 0.1615205434902E+00
 0.9399854692348E-01
 0.1474305913351E-01
-0.7985652140802E-01
-0.1956596574302E+00
-0.3476365809963E+00
 0.5565115600132E+00
 0.5381926764784E+00
 0.5186284299757E+00
 0.4976020053810E+00
 0.4748751828111E+00
 0.4501750875638E+00
 0.4231867346194E+00
 0.3935475114569E+00
 0.3608416423107E+00
 0.3245935551457E+00
 0.2842592801925E+00
 0.2392149686612E+00
 0.1887413686428E+00
 0.1320029417836E+00
 0.6802002313321E-01
-0.4362165814792E-02
-0.8650380463995E-01
-0.1798553498171E+00
-0.2857257123003E+00
-0.3977017196187E+00
 0.5294292190371E+00
 0.5084374346160E+00
 0.4859314007395E+00
 0.4617093727576E+00
 0.4355452445237E+00
 0.4071794404965E+00
 0.3763182191185E+00
 0.3426362545023E+00
 0.3057810857546E+00
 0.2653791020091E+00
 0.2210435971811E+00
 0.1723863638032E+00
 0.1190360068886E+00
 0.6066987283072E-01
-0.2923704947459E-02
-0.7171536866916E-01
-0.1451204060352E+00
-0.2212699578912E+00
-0.2944714432769E+00
-0.3500612927733E+00
 0.5027787865340E+00
 0.4792064146791E+00
 0.4538866365271E+00
 0.4266617746903E+00
 0.3973458459230E+00
 0.3657262394456E+00
 0.3315729026073E+00
 0.2946519662124E+00
 0.2547420560390E+00
 0.2116535479944E+00
 0.1652523704935E+00
 0.1154915301074E+00
 0.6245674281512E-01
 0.6439216191040E-02
-0.5193824340702E-01
-0.1114850969873E+00
-0.1699979401661E+00
-0.2233682475126E+00
-0.2644016996878E+00
-0.2857810596658E+00
 0.4766637587941E+00
 0.4505995187500E+00
 0.4226159043447E+00
 0.3926246135368E+00
 0.3605121845760E+00
 0.3261483912258E+00
 0.2894074980297E+00
 0.2501927721541E+00
 0.2084620420336E+00
 0.1642554612852E+00
 0.1177276345488E+00
 0.6918854328078E-01
 0.1916125295938E-01
-0.3152938583912E-01
-0.8161370047795E-01
-0.1291513365704E+00
-0.1712093521305E+00
-0.2036230210253E+00
-0.2220057835001E+00
-0.2239288673836E+00
 0.4511455968741E+00
 0.4226939514585E+00
 0.3922266945727E+00
 0.3597647542804E+00
 0.3253020818587E+00
 0.2888229651476E+00
 0.2503365218166E+00
 0.2099084189446E+00
 0.1676904633722E+00
 0.1239495276565E+00
 0.7909956715569E-01
 0.3374125264255E-01
-0.1128307014422E-01
-0.5481028966223E-01
-0.9524946167821E-01
-0.1304693280831E+00
-0.1577926536110E+00
-0.1744727172455E+00
-0.1788452720285E+00
-0.1717644692029E+00
 0.4262992357755E+00
 0.3956105249678E+00
 0.3628925185459E+00
 0.3283337163517E+00
 0.2920624899973E+00
 0.2541949695036E+00
 0.2148808428192E+00
 0.1743401211643E+00
 0.1328913774753E+00
 0.9097875777698E-01
 0.4919898861000E-01
 0.8334213699464E-02
-0.3060657713737E-01
-0.6633997967329E-01
-0.9727656386519E-01
-0.1215704483970E+00
-0.1373968498121E+00
-0.1435762802533E+00
-0.1403935603851E+00
-0.1300352449916E+00
 0.4022027994202E+00
 0.3694508174200E+00
 0.3347573214212E+00
 0.2985330498682E+00
 0.2610555520331E+00
 0.2225648343194E+00
 0.1833292755861E+00
 0.1436809169005E+00
 0.1040485023070E+00
 0.6497983801026E-01
 0.2716443912957E-01
-0.8546129838888E-02
-0.4112030780287E-01
-0.6934709600330E-01
-0.9189246012578E-01
-0.1074777289464E+00
-0.1152369280605E+00
-0.1151929449918E+00
-0.1085750808899E+00
-0.9753270318175E-01
 0.3789455926629E+00
 0.3443103386456E+00
 0.3079319982991E+00
 0.2705038270310E+00
 0.2324349807112E+00
 0.1940644578579E+00
 0.1557193937179E+00
 0.1177838435134E+00
 0.8072518329272E-01
 0.4512508943964E-01
 0.1168728185631E-01
-0.1875982792200E-01
-0.4527730830430E-01
-0.6686689514184E-01
-0.8259231607729E-01
-0.9179693080035E-01
-0.9438938648100E-01
-0.9106163558944E-01
-0.8321790329224E-01
-0.7258177981626E-01
 0.3566248873101E+00
 0.3202400394484E+00
 0.2824609010339E+00
 0.2442744716039E+00
 0.2062280049637E+00
 0.1686588846874E+00
 0.1318943224995E+00
 0.9627481390465E-01
 0.6225650861252E-01
 0.3040108353457E-01
 0.1368958558529E-02
-0.2410396090760E-01
-0.4525110734657E-01
-0.6136142715667E-01
-0.7191963583829E-01
-0.7678635151312E-01
-0.7635168346389E-01
-0.7154168002872E-01
-0.6359290735949E-01
-0.5362841876387E-01
 0.3353143637568E+00
 0.2972774723590E+00
 0.2582629526395E+00
 0.2198023843105E+00
 0.1823490711702E+00
 0.1462586494525E+00
 0.1116054386803E+00
 0.7868252197334E-01
 0.4790112162095E-01
 0.1977668742657E-01
-0.5112434674576E-02
-0.2616660588032E-01
-0.4282929021656E-01
-0.5468134031027E-01
-0.6155947925178E-01
-0.6366624605642E-01
-0.6160844871116E-01
-0.5631430679316E-01
-0.4880589869761E-01
-0.3984696508607E-01
 0.3154259712369E+00
 0.2753974013780E+00
 0.2353049319729E+00
 0.1967046686783E+00
 0.1607169524481E+00
 0.1265625811792E+00
 0.9430496634657E-01
 0.6417337823992E-01
 0.3656179453194E-01
 0.1192876724304E-01
-0.9246431019817E-02
-0.2651806099094E-01
-0.3954065636081E-01
-0.4814955216769E-01
-0.5243850382697E-01
-0.5280218923440E-01
-0.4991260530423E-01
-0.4460693047684E-01
-0.3779447564296E-01
-0.3037470222833E-01
 0.2974474263109E+00
 0.2551242326646E+00
 0.2115751400680E+00
 0.1751925718191E+00
 0.1411226139240E+00
 0.1091981749105E+00
 0.7936756085172E-01
 0.5193740803693E-01
 0.2727802827055E-01
 0.5785135843023E-02
-0.1217381870679E-01
-0.2630801023522E-01
-0.3645937654452E-01
-0.4265639001504E-01
-0.4514875213823E-01
-0.4440442404195E-01
-0.4105695558173E-01
-0.3583889400719E-01
-0.2945106179512E-01
-0.2300104018913E-01
 0.2888246165591E+00
 0.2257452601929E+00
 0.1895101117616E+00
 0.1553717433884E+00
 0.1236665855934E+00
 0.9391058534691E-01
 0.6640938401805E-01
 0.4147686069195E-01
 0.1945853042745E-01
 0.6714624556933E-03
-0.1462738528562E-01
-0.2628148438097E-01
-0.3427237931116E-01
-0.3874568410092E-01
-0.4001330491896E-01
-0.3852453820235E-01
-0.3481655776935E-01
-0.2945093792867E-01
-0.2305796275330E-01
-0.1570695190835E-01
</DataArray>
<DataArray type="Float64" Name="S_Oct" NumberOfComponents="1" ComponentName0="S_Oct" format="ascii">
 0.3217937358275E+01
 0.2920343219619E+01
 0.2690873642221E+01
 0.2622082531354E+01
 0.2575990132338E+01
 0.2549603496519E+01
 0.2531688195505E+01
 0.2519008697045E+01
 0.2509332736993E+01
 0.2501554332942E+01
 0.2495039822351E+01
 0.2489473024840E+01
 0.2484730678029E+01
 0.2480824262456E+01
 0.2477865761491E+01
 0.2476051259408E+01
 0.2475656070342E+01
 0.2477040924912E+01
 0.2480667002330E+01
 0.2487131905096E+01
 0.2497232756085E+01
 0.2512113204792E+01
 0.2533617016608E+01
 0.2564406298688E+01
 0.2605074923258E+01
 0.2652883878595E+01
 0.2704750307847E+01
 0.2759158860005E+01
 0.2816495082710E+01
 0.2878596644049E+01
 0.2948045795992E+01
 0.3027453490975E+01
 0.3118668410308E+01
 0.3225390906596E+01
 0.3358476892578E+01
 0.3531777785287E+01
 0.3775065941128E+01
 0.4080094371865E+01
 0.4737360207162E+01
 0.4740942444624E+01
 0.9265779798032E+01
 0.2763442583713E+01
 0.2878177759650E+01
 0.2705630559209E+01
 0.2609304345723E+01
 0.2559159543517E+01
 0.2525797873357E+01
 0.2503616108067E+01
 0.2487594171756E+01
 0.2475472866647E+01
 0.2465855244008E+01
 0.2457965011438E+01
 0.2451368638478E+01
 0.2445859357571E+01
 0.2441383769513E+01
 0.2438002349403E+01
 0.2435868154048E+01
 0.2435218570204E+01
 0.2436377447767E+01
 0.2439768102021E+01
 0.2445940612515E+01
 0.2455623803956E+01
 0.2469814041758E+01
 0.2489709346631E+01
 0.2516243320933E+01
 0.2549374533571E+01
 0.2587911037225E+01
 0.2630277947614E+01
 0.2675474705457E+01
 0.2723477017279E+01
 0.2775097897952E+01
 0.2831566724622E+01
 0.2894202081264E+01
 0.2964665275848E+01
 0.3045859460266E+01
 0.3141771095299E+01
 0.3259116050198E+01
 0.3393967672826E+01
 0.3570267310555E+01
 0.3652561734733E+01
 0.3168835770233E+01
 0.6180739892285E+01
 0.2506152220439E+01
 0.2718000187790E+01
 0.2672938415746E+01
 0.2585365840980E+01
 0.2533196302698E+01
 0.2497805756983E+01
 0.2472827491081E+01
 0.2454537305827E+01
 0.2440522330078E+01
 0.2429398840646E+01
 0.2420315514513E+01
 0.2412779873493E+01
 0.2406529233575E+01
 0.2401462025841E+01
 0.2397595663542E+01
 0.2395043315477E+01
 0.2394002867682E+01
 0.2394755598341E+01
 0.2397673563793E+01
 0.2403235778142E+01
 0.2412053923008E+01
 0.2424847647864E+01
 0.2442186823480E+01
 0.2464198631738E+01
 0.2490640692672E+01
 0.2521007604648E+01
 0.2554568677290E+01
 0.2590657546186E+01
 0.2628956035701E+01
 0.2669504720139E+01
 0.2712522752971E+01
 0.2758381835881E+01
 0.2807840465011E+01
 0.2861507302288E+01
 0.2918971333513E+01
 0.2975806966125E+01
 0.3021302251345E+01
 0.3027649572292E+01
 0.2773713463366E+01
 0.2552574459161E+01
 0.5157483371551E+01
 0.2335307633265E+01
 0.2560466327590E+01
 0.2597815861261E+01
 0.2546266861343E+01
 0.2499067317012E+01
 0.2464773927106E+01
 0.2439063106959E+01
 0.2419536889036E+01
 0.2404276447474E+01
 0.2392022412158E+01
 0.2381967613683E+01
 0.2373611067620E+01
 0.2366667120099E+01
 0.2361003983423E+01
 0.2356606026228E+01
 0.2353550745103E+01
 0.2351996238466E+01
 0.2352176355133E+01
 0.2354401088122E+01
 0.2359059036246E+01
 0.2366605026446E+01
 0.2377453408037E+01
 0.2391723999491E+01
 0.2409159143777E+01
 0.2429455347827E+01
 0.2452418317461E+01
 0.2477738117516E+01
 0.2504922758263E+01
 0.2533426670640E+01
 0.2562718799268E+01
 0.2592267610282E+01
 0.2621609988416E+01
 0.2650260599033E+01
 0.2676701233275E+01
 0.2696445854404E+01
 0.2699341910502E+01
 0.2667161682643E+01
 0.2540647912499E+01
 0.2241714338846E+01
 0.2400943297813E+01
 0.4623895454738E+01
 0.2209458707998E+01
 0.2423288153619E+01
 0.2505687342666E+01
 0.2491657488210E+01
 0.2457169454774E+01
 0.2426717469485E+01
 0.2402111520322E+01
 0.2382434885774E+01
 0.2366582752013E+01
 0.2353604326458E+01
 0.2342822583263E+01
 0.2333784740897E+01
 0.2326213469689E+01
 0.2319965909854E+01
 0.2315004090712E+01
 0.2311375008855E+01
 0.2309197782134E+01
 0.2308655561952E+01
 0.2309988632379E+01
 0.2313481412507E+01
 0.2319416190239E+01
 0.2327938042605E+01
 0.2338871868476E+01
 0.2351775309979E+01
 0.2366324592782E+01
 0.2382448663080E+01
 0.2400013814580E+01
 0.2418585933780E+01
 0.2437436570536E+01
 0.2455619794858E+01
 0.2472038222848E+01
 0.2485478341099E+01
 0.2494308637820E+01
 0.2495249418588E+01
 0.2481299310332E+01
 0.2440064698808E+01
 0.2348896756432E+01
 0.2167656880931E+01
 0.1965312113759E+01
 0.2409398083182E+01
 0.4264039822223E+01
 0.2109709904974E+01
 0.2305717586229E+01
 0.2410289308241E+01
 0.2426509887257E+01
 0.2408012410808E+01
 0.2383980819948E+01
 0.2361974822115E+01
 0.2343161579288E+01
 0.2327355592986E+01
 0.2314060966454E+01
 0.2302808417331E+01
 0.2293241958096E+01
 0.2285122868203E+01
 0.2278315634078E+01
 0.2272770943082E+01
 0.2268511084821E+01
 0.2265618088731E+01
 0.2264223047111E+01
 0.2264492327293E+01
 0.2266600484134E+01
 0.2270664063937E+01
 0.2276614320002E+01
 0.2284090607138E+01
 0.2292562293042E+01
 0.2301691852890E+01
 0.2311432711232E+01
 0.2321692572249E+01
 0.2332024623978E+01
 0.2341554767329E+01
 0.2349044960861E+01
 0.2352978125161E+01
 0.2351541543531E+01
 0.2342234462782E+01
 0.2320684017506E+01
 0.2279087734068E+01
 0.2205261186412E+01
 0.2081936347758E+01
 0.1908749779251E+01
 0.1843649891715E+01
 0.2449386619418E+01
 0.3988181008620E+01
 0.2026304645838E+01
 0.2204006440228E+01
 0.2317663145799E+01
 0.2355741551076E+01
 0.2353033632414E+01
 0.2337034894803E+01
 0.2318834110735E+01
 0.2301739240559E+01
 0.2286567608945E+01
 0.2273347443072E+01
 0.2261879044605E+01
 0.2251942475066E+01
 0.2243364033026E+01
 0.2236032533603E+01
 0.2229897941981E+01
 0.2224963999566E+01
 0.2221278555776E+01
 0.2218921244387E+01
 0.2217984024046E+01
 0.2218534243019E+01
 0.2220542596416E+01
 0.2223780321298E+01
 0.2227773257951E+01
 0.2231949100008E+01
 0.2235953283899E+01
 0.2239713041452E+01
 0.2243108741144E+01
 0.2245647267080E+01
 0.2246346047593E+01
 0.2243775822424E+01
 0.2236138441277E+01
 0.2221223409449E+01
 0.2196038312340E+01
 0.2155911929045E+01
 0.2093644928047E+01
 0.2000065484507E+01
 0.1870319251643E+01
 0.1741023953001E+01
 0.1805235017640E+01
 0.2479328478230E+01
 0.3762844017920E+01
 0.1953747581632E+01
 0.2114588948870E+01
 0.2230049791475E+01
 0.2282867505888E+01
 0.2293984417255E+01
 0.2286543823570E+01
 0.2272975179232E+01
 0.2258274655848E+01
 0.2244243300051E+01
 0.2231454733315E+01
 0.2220013294203E+01
 0.2209864117593E+01
 0.2200919496952E+01
 0.2193107233844E+01
 0.2186386338646E+01
 0.2180748246183E+01
 0.2176210421228E+01
 0.2172803517516E+01
 0.2170548219048E+01
 0.2169413705679E+01
 0.2169249862857E+01
 0.2169713049252E+01
 0.2170261922323E+01
 0.2170305298677E+01
 0.2169467916024E+01
 0.2167628295135E+01
 0.2164610748424E+01
 0.2159868710923E+01
 0.2152350888249E+01
 0.2140526718716E+01
 0.2122456301859E+01
 0.2095758535851E+01
 0.2057364808972E+01
 0.2003033708170E+01
 0.1927351827457E+01
 0.1826391998393E+01
 0.1709511008633E+01
 0.1638827666841E+01
 0.1805962734945E+01
 0.2490396652910E+01
 0.3572077090129E+01
 0.1888732888586E+01
 0.2034633864700E+01
 0.2147952458241E+01
 0.2210088766589E+01
 0.2232465243084E+01
 0.2233282402809E+01
 0.2224760385183E+01
 0.2212936395976E+01
 0.2200452444078E+01
 0.2188405510683E+01
 0.2177213000362E+01
 0.2167001738497E+01
 0.2157784957472E+01
 0.2149541092615E+01
 0.2142246721153E+01
 0.2135887039634E+01
 0.2130453624407E+01
 0.2125932301733E+01
 0.2122278630600E+01
 0.2119376520221E+01
 0.2116980419397E+01
 0.2114667385424E+01
 0.2111858758421E+01
 0.2107956377296E+01
 0.2102563548757E+01
 0.2095504819297E+01
 0.2086543993428E+01
 0.2075091508777E+01
 0.2060070105129E+01
 0.2039932190539E+01
 0.2012733742956E+01
 0.1976153224590E+01
 0.1927433619860E+01
 0.1863358537930E+01
 0.1781176161673E+01
 0.1683190684862E+01
 0.1591150114022E+01
 0.1580629634637E+01
 0.1821197833784E+01
 0.2484148909487E+01
 0.3406750161879E+01
 0.1829164522671E+01
 0.1962002524902E+01
 0.2071130695781E+01
 0.2138662969726E+01
 0.2169749145547E+01
 0.2178023077331E+01
 0.2174596944485E+01
 0.2165935483628E+01
 0.2155300489070E+01
 0.2144249561892E+01
 0.2133500412286E+01
 0.2123365782595E+01
 0.2113968345918E+01
 0.2105345477566E+01
 0.2097498295573E+01
 0.2090411428198E+01
 0.2084055542319E+01
 0.2078377129791E+01
 0.2073274899244E+01
 0.2068562104707E+01
 0.2063921082723E+01
 0.2058876922895E+01
 0.2052833403890E+01
 0.2045192794339E+01
 0.2035539863767E+01
 0.2023650641071E+01
 0.2009238428161E+01
 0.1991692012229E+01
 0.1969952892465E+01
 0.1942535864445E+01
 0.1907622836515E+01
 0.1863162512830E+01
 0.1807030053681E+01
 0.1737463204670E+01
 0.1654830200450E+01
 0.1567480170510E+01
 0.1506195975096E+01
 0.1550254692771E+01
 0.1838425242071E+01
 0.2464521167970E+01
 0.3260950615347E+01
 0.1773654534532E+01
 0.1895099261477E+01
 0.1999065301139E+01
 0.2069235739230E+01
 0.2106767759798E+01
 0.2121458954610E+01
 0.2122901245854E+01
 0.2117508112614E+01
 0.2108918586550E+01
 0.2099058563214E+01
 0.2088915254833E+01
 0.2078980529797E+01
 0.2069488678590E+01
 0.2060540877574E+01
 0.2052168039832E+01
 0.2044359307329E+01
 0.2037069663722E+01
 0.2030212682344E+01
 0.2023639712675E+01
 0.2017108183798E+01
 0.2010248708510E+01
 0.2002555318868E+01
 0.1993427980121E+01
 0.1982275385410E+01
 0.1968669905427E+01
 0.1952351013792E+01
 0.1932999681302E+01
 0.1910010347679E+01
 0.1882388016101E+01
 0.1848782836439E+01
 0.1807618123190E+01
 0.1757287444743E+01
 0.1696532250522E+01
 0.1625288386376E+01
 0.1547085641865E+01
 0.1475380252697E+01
 0.1446432747072E+01
 0.1536323098176E+01
 0.1851960675674E+01
 0.2435283218142E+01
 0.3130551010015E+01
 0.1721249634984E+01
 0.1832731200554E+01
 0.1931169824104E+01
 0.2002077385094E+01
 0.2044162042611E+01
 0.2064168837010E+01
 0.2070069074812E+01
 0.2067899664697E+01
 0.2061454249303E+01
 0.2052920652857E+01
 0.2043511562192E+01
 0.2033882129306E+01
 0.2024374732059E+01
 0.2015155877465E+01
 0.2006289751792E+01
 0.1997774361610E+01
 0.1989554244061E+01
 0.1981516958945E+01
 0.1973476431353E+01
 0.1965148388832E+01
 0.1956129076242E+01
 0.1945897621519E+01
 0.1933860446910E+01
 0.1919438602105E+01
 0.1902200660103E+01
 0.1881865141367E+01
 0.1858102872769E+01
 0.1830343537769E+01
 0.1797698138779E+01
 0.1759016147675E+01
 0.1713057208060E+01
 0.1658789082924E+01
 0.1595960959990E+01
 0.1526271669099E+01
 0.1456132528361E+01
 0.1402838496501E+01
 0.1404999068834E+01
 0.1531224004301E+01
 0.1859692207323E+01
 0.2399417963632E+01
 0.3012533882960E+01
 0.1671274331906E+01
 0.1773999344857E+01
 0.1866881777641E+01
 0.1937238140764E+01
 0.1982347978528E+01
 0.2006611371351E+01
 0.2016456218049E+01
 0.2017351155903E+01
 0.2013062955288E+01
 0.2005935214173E+01
 0.1997354455575E+01
 0.1988116532385E+01
 0.1978663614321E+01
 0.1969226047457E+01
 0.1959903038604E+01
 0.1950704985341E+01
 0.1941571007455E+01
 0.1932369651158E+01
 0.1922887211495E+01
 0.1912810639839E+01
 0.1901716397490E+01
 0.1889081424393E+01
 0.1874326884380E+01
 0.1856892506448E+01
 0.1836353257683E+01
 0.1812423928059E+01
 0.1784788593188E+01
 0.1752941326419E+01
 0.1716137212638E+01
 0.1673477552583E+01
 0.1624128920524E+01
 0.1567714371207E+01
 0.1505044009666E+01
 0.1439496266061E+01
 0.1379889217895E+01
 0.1346046676961E+01
 0.1376448398634E+01
 0.1530087453228E+01
 0.1861254543138E+01
 0.2359120271493E+01
 0.2904623892092E+01
 0.1623236952666E+01
 0.1718218863694E+01
 0.1805697285656E+01
 0.1874645650047E+01
 0.1921576881688E+01
 0.1949134994658E+01
 0.1962368966205E+01
 0.1966089108222E+01
 0.1963900991167E+01
 0.1958208119676E+01
 0.1950517027982E+01
 0.1941737413166E+01
 0.1932399291240E+01
 0.1922792788897E+01
 0.1913052282115E+01
 0.1903203217334E+01
 0.1893183936548E+01
 0.1882850744787E+01
 0.1871971560554E+01
 0.1860216078298E+01
 0.1847153169459E+01
 0.1832267829200E+01
 0.1815003089769E+01
 0.1794824075582E+01
 0.1771323107496E+01
 0.1744228637170E+01
 0.1713260654955E+01
 0.1678004319375E+01
 0.1637890697964E+01
 0.1592312235626E+01
 0.1540887401947E+01
 0.1483929471753E+01
 0.1423287268363E+01
 0.1363831005747E+01
 0.1316227541087E+01
 0.1301636913196E+01
 0.1356609240625E+01
 0.1529928352295E+01
 0.1857065256796E+01
 0.2315956496944E+01
 0.2805064591172E+01
 0.1576771189699E+01
 0.1664861918017E+01
 0.1747179741527E+01
 0.1814164476827E+01
 0.1861984078425E+01
 0.1891994477380E+01
 0.1908062001834E+01
 0.1914319025113E+01
 0.1914119763240E+01
 0.1909847587749E+01
 0.1903077455461E+01
 0.1894804150257E+01
 0.1885631113428E+01
 0.1875902166339E+01
 0.1865785602617E+01
 0.1855323709497E+01
 0.1844458165303E+01
 0.1833039338875E+01
 0.1820825236842E+01
 0.1807478371459E+01
 0.1792570208922E+01
 0.1775602236356E+01
 0.1756045739885E+01
 0.1733398143009E+01
 0.1707280133662E+01
 0.1677450341454E+01
 0.1643685288920E+01
 0.1605684060230E+01
 0.1563078209327E+01
 0.1515576722423E+01
 0.1463270176174E+01
 0.1407156604382E+01
 0.1350043916699E+01
 0.1298045982670E+01
 0.1263115908048E+01
 0.1266745134049E+01
 0.1342374733403E+01
 0.1529003154001E+01
 0.1847838238385E+01
 0.2271035311174E+01
 0.2712473072778E+01
 0.1531598527008E+01
 0.1613516806038E+01
 0.1690957148195E+01
 0.1755631547618E+01
 0.1803625723276E+01
 0.1835368767228E+01
 0.1853740974707E+01
 0.1862222027573E+01
 0.1863861649714E+01
 0.1860960751672E+01
 0.1855116427168E+01
 0.1847379940750E+01
 0.1838412396327E+01
 0.1828603767621E+01
 0.1818153856571E+01
 0.1807122761042E+01
 0.1795458997834E+01
 0.1783012676680E+01
 0.1769539435519E+01
 0.1754703288305E+01
 0.1738086803466E+01
 0.1719215029583E+01
 0.1697593321180E+01
 0.1672758210278E+01
 0.1644369233560E+01
 0.1612230099936E+01
 0.1576191562432E+01
 0.1536084730620E+01
 0.1491758153585E+01
 0.1443249120541E+01
 0.1391118380795E+01
 0.1337010946812E+01
 0.1284575903168E+01
 0.1240898734870E+01
 0.1218698742402E+01
 0.1239002599474E+01
 0.1331484057216E+01
 0.1526356388746E+01
 0.1834347853512E+01
 0.2225150486999E+01
 0.2625741041845E+01
 0.1487503376827E+01
 0.1563858655838E+01
 0.1636715114060E+01
 0.1698876659465E+01
 0.1746505566112E+01
 0.1779377489898E+01
 0.1799567588376E+01
 0.1809953914409E+01
 0.1813257283806E+01
 0.1811650961892E+01
 0.1806714934337E+01
 0.1799530081813E+01
 0.1790799077158E+01
 0.1780949605896E+01
 0.1770209674901E+01
 0.1758657417421E+01
 0.1746251038829E+01
 0.1732845347006E+01
 0.1718200181899E+01
 0.1701988449113E+01
 0.1683810917610E+01
 0.1663222176032E+01
 0.1639766922744E+01
 0.1613027227466E+01
 0.1582710971587E+01
 0.1548679733038E+01
 0.1510872755733E+01
 0.1469266096199E+01
 0.1423933798451E+01
 0.1375240719116E+01
 0.1324197451509E+01
 0.1273034814040E+01
 0.1226104213831E+01
 0.1191192804641E+01
 0.1181332168904E+01
 0.1216491990048E+01
 0.1322325825678E+01
 0.1521513710945E+01
 0.1817316842506E+01
 0.2178893019406E+01
 0.2543965249098E+01
 0.1444316196807E+01
 0.1515628236807E+01
 0.1584188742749E+01
 0.1643733863236E+01
 0.1690593902251E+01
 0.1724095050815E+01
 0.1745665700055E+01
 0.1757645899010E+01
 0.1762424056461E+01
 0.1762015797584E+01
 0.1757952442497E+01
 0.1751320453812E+01
 0.1742848480311E+01
 0.1732993090197E+01
 0.1722006563458E+01
 0.1709984649053E+01
 0.1696897438702E+01
 0.1682608638821E+01
 0.1666887893212E+01
 0.1649423206787E+01
 0.1629839445245E+01
 0.1607725790724E+01
 0.1582670983614E+01
 0.1554308427392E+01
 0.1522402528821E+01
 0.1486883113939E+01
 0.1447788503640E+01
 0.1405247386333E+01
 0.1359560273148E+01
 0.1311408115133E+01
 0.1262216931385E+01
 0.1214727359845E+01
 0.1173847202498E+01
 0.1147813783119E+01
 0.1149592318324E+01
 0.1197688154661E+01
 0.1313776676629E+01
 0.1514281366964E+01
 0.1797355241561E+01
 0.2132739739637E+01
 0.2466390759553E+01
 0.1401901762588E+01
 0.1468616487456E+01
 0.1533154840857E+01
 0.1590047354484E+01
 0.1635840718523E+01
 0.1669562130073E+01
 0.1692127507999E+01
 0.1705406387279E+01
 0.1711465584525E+01
 0.1712145723772E+01
 0.1708905450212E+01
 0.1702816228700E+01
 0.1694618219077E+01
 0.1684788091047E+01
 0.1673598088610E+01
 0.1661160626873E+01
 0.1647459260224E+01
 0.1632370041359E+01
 0.1615677089012E+01
 0.1597088644121E+01
 0.1576258519536E+01
 0.1552814714021E+01
 0.1526394065568E+01
 0.1496686272492E+01
 0.1463518916240E+01
 0.1426897903596E+01
 0.1386967535362E+01
 0.1344011826864E+01
 0.1298552056301E+01
 0.1251565179711E+01
 0.1204848472281E+01
 0.1161568992780E+01
 0.1127047949429E+01
 0.1109748612580E+01
 0.1122267521157E+01
 0.1181396188541E+01
 0.1305070853478E+01
 0.1504639454531E+01
 0.1774888217051E+01
 0.2087136818788E+01
 0.2392362400680E+01
 0.1360150865569E+01
 0.1422653067064E+01
 0.1483425003041E+01
 0.1537674105952E+01
 0.1582184643906E+01
 0.1615794755520E+01
 0.1639019302992E+01
 0.1653323299543E+01
 0.1660471879196E+01
 0.1662123289568E+01
 0.1659646401645E+01
 0.1654080797224E+01
 0.1646165234743E+01
 0.1636388101840E+01
 0.1625037144789E+01
 0.1612240084602E+01
 0.1597994946168E+01
 0.1582192856832E+01
 0.1564636208956E+01
 0.1545057649275E+01
 0.1523143860075E+01
 0.1498565102318E+01
 0.1471009658109E+01
 0.1440227502308E+01
 0.1406114392933E+01
 0.1368757602080E+01
 0.1328410800347E+01
 0.1285511510895E+01
 0.1240790503575E+01
 0.1195494273941E+01
 0.1151741399812E+01
 0.1113040409677E+01
 0.1084992298849E+01
 0.1076093448579E+01
 0.1098340960953E+01
 0.1166695249659E+01
 0.1295693978579E+01
 0.1492691706850E+01
 0.1750165323362E+01
 0.2042330669788E+01
 0.2321327488317E+01
 0.1318974781003E+01
 0.1377602737396E+01
 0.1434848489591E+01
 0.1486497798829E+01
 0.1529576635749E+01
 0.1562813417939E+01
 0.1586412830483E+01
 0.1601496792498E+01
 0.1609553890497E+01
 0.1612060236739E+01
 0.1610283919715E+01
 0.1605219473860E+01
 0.1597593199458E+01
 0.1587897524198E+01
 0.1576431311111E+01
 0.1563335962354E+01
 0.1548624500944E+01
 0.1532205201286E+01
 0.1513901721947E+01
 0.1493474391226E+01
 0.1470645799565E+01
 0.1445131095268E+01
 0.1416672482888E+01
 0.1385082986562E+01
 0.1350329686816E+01
 0.1312583829625E+01
 0.1272208322872E+01
 0.1229788072835E+01
 0.1186247155143E+01
 0.1143070245828E+01
 0.1102644092971E+01
 0.1068735693307E+01
 0.1047104909143E+01
 0.1046120744886E+01
 0.1077018407245E+01
 0.1152912766809E+01
 0.1285357908367E+01
 0.1478564052441E+01
 0.1723806134988E+01
 0.1996930769963E+01
 0.2259549458285E+01
 0.1278300588263E+01
 0.1333349657315E+01
 0.1387290076077E+01
 0.1436402308417E+01
 0.1477948461483E+01
 0.1510604025186E+01
 0.1534336896131E+01
 0.1549981259165E+01
 0.1558776612580E+01
 0.1562022561569E+01
 0.1560880386040E+01
 0.1556289797475E+01
 0.1548955459765E+01
 0.1539366989030E+01
 0.1527830164997E+01
 0.1514498252415E+01
 0.1499399362846E+01
 0.1482460374693E+01
 0.1463528462035E+01
 0.1442394109798E+01
 0.1418818076117E+01
 0.1392562287149E+01
 0.1363424544894E+01
 0.1331282586245E+01
 0.1296176323284E+01
 0.1258361333557E+01
 0.1218306843868E+01
 0.1176735914706E+01
 0.1134746724473E+01
 0.1094028688139E+01
 0.1057184116238E+01
 0.1028161403195E+01
 0.1012773745121E+01
 0.1019134225225E+01
 0.1057610764045E+01
 0.1139535040691E+01
 0.1273883048493E+01
 0.1462486518733E+01
 0.1695876248801E+01
 0.1951996049560E+01
 0.2200222339866E+01
 0.1238065286903E+01
 0.1289791273743E+01
 0.1340624282281E+01
 0.1387269531432E+01
 0.1427214120964E+01
 0.1459121081764E+01
 0.1482780348503E+01
 0.1498787166847E+01
 0.1508159738144E+01
 0.1512030355149E+01
 0.1511451369301E+01
 0.1507300841915E+01
 0.1500254412174E+01
 0.1490792907509E+01
 0.1479225085257E+01
 0.1465714125443E+01
 0.1450302935233E+01
 0.1432937896816E+01
 0.1413491283228E+01
 0.1391785508226E+01
 0.1367621081938E+01
 0.1340807956185E+01
 0.1311200493971E+01
 0.1278741844490E+01
 0.1243544895378E+01
 0.1205948134326E+01
 0.1166522148836E+01
 0.1126116948977E+01
 0.1085984238758E+01
 0.1047984865244E+01
 0.1014887201690E+01
 0.9907521075839E+00
 0.9813567141854E+00
 0.9944584672520E+00
 0.1039499729653E+01
 0.1126132694646E+01
 0.1261148480462E+01
 0.1444562101340E+01
 0.1666622431002E+01
 0.1907381166337E+01
 0.2141431744060E+01
 0.1198216909157E+01
 0.1246845697277E+01
 0.1294751827287E+01
 0.1339006932928E+01
 0.1377308990745E+01
 0.1408336825734E+01
 0.1431749204623E+01
 0.1447944773082E+01
 0.1457747394648E+01
 0.1462133554457E+01
 0.1462047655645E+01
 0.1458301890355E+01
 0.1451537226147E+01
 0.1442220679974E+01
 0.1430660424457E+01
 0.1417027590806E+01
 0.1401379306110E+01
 0.1383681891692E+01
 0.1363833723310E+01
 0.1341690282563E+01
 0.1317092772939E+01
 0.1289899756619E+01
 0.1260022346799E+01
 0.1227468778701E+01
 0.1192423685944E+01
 0.1155305345149E+01
 0.1116778886135E+01
 0.1077808378861E+01
 0.1039777512554E+01
 0.1004685866742E+01
 0.9754217680095E+00
 0.9560974165416E+00
 0.9523791363677E+00
 0.9715951016069E+00
 0.1022242235302E+01
 0.1112429661584E+01
 0.1247118002820E+01
 0.1424974771426E+01
 0.1636268093086E+01
 0.1863082626815E+01
 0.2083882319119E+01
 0.1158711337054E+01
 0.1204443216742E+01
 0.1249587081947E+01
 0.1291532042924E+01
 0.1328171746431E+01
 0.1358220144681E+01
 0.1381241849763E+01
 0.1397475202534E+01
 0.1407575074728E+01
 0.1412374909121E+01
 0.1412714444696E+01
 0.1409337960620E+01
 0.1402847684944E+01
 0.1393692742318E+01
 0.1382177580132E+01
 0.1368479361994E+01
 0.1352668641004E+01
 0.1334731714576E+01
 0.1314593553269E+01
 0.1292143277129E+01
 0.1267263133221E+01
 0.1239860250865E+01
 0.1209901944168E+01
 0.1177460259626E+01
 0.1142789140879E+01
 0.1106382128159E+01
 0.1068990671865E+01
 0.1031678971861E+01
 0.9959410310735E+00
 0.9638839921713E+00
 0.9384741724600E+00
 0.9238219676934E+00
 0.9254220471911E+00
 0.9501225929604E+00
 0.1005485999713E+01
 0.1098229683407E+01
 0.1231802120967E+01
 0.1403894516068E+01
 0.1605011176533E+01
 0.1819127135574E+01
 0.2027589751564E+01
 0.1119510766958E+01
 0.1162524069228E+01
 0.1205055756968E+01
 0.1244771288367E+01
 0.1279744737038E+01
 0.1308738065938E+01
 0.1331250867622E+01
 0.1347392005798E+01
 0.1357670662904E+01
 0.1362790486711E+01
 0.1363491466987E+01
 0.1360449683950E+01
 0.1354225944735E+01
 0.1345248287872E+01
 0.1333814734629E+01
 0.1320106653749E+01
 0.1304207068973E+01
 0.1286121954124E+01
 0.1265802918945E+01
 0.1243172785034E+01
 0.1218154653548E+01
 0.1190703592960E+01
 0.1160841883858E+01
 0.1128703260093E+01
 0.1094607516725E+01
 0.1059117825842E+01
 0.1023062763739E+01
 0.9875922552450E+00
 0.9542894752886E+00
 0.9253401210044E+00
 0.9037510424771E+00
 0.8935854840051E+00
 0.9001184045582E+00
 0.9296871637796E+00
 0.9889533141268E+00
 0.1083398688893E+01
 0.1215238146743E+01
 0.1381478814113E+01
 0.1573008925402E+01
 0.1775480516963E+01
 0.1972473355352E+01
 0.1080582522828E+01
 0.1121036634935E+01
 0.1161093030576E+01
 0.1198658899900E+01
 0.1231974089254E+01
 0.1259856817485E+01
 0.1281764495755E+01
 0.1297702506173E+01
 0.1308055411794E+01
 0.1313410236920E+01
 0.1314413215316E+01
 0.1311673316658E+01
 0.1305708427965E+01
 0.1296923119089E+01
 0.1285606719907E+01
 0.1271943100314E+01
 0.1256026686207E+01
 0.1237882547964E+01
 0.1217488590893E+01
 0.1194800951519E+01
 0.1169782908006E+01
 0.1142436305656E+01
 0.1112836538778E+01
 0.1081176169092E+01
 0.1047836552011E+01
 0.1013444039893E+01
 0.9788945564883E+00
 0.9454093453985E+00
 0.9146406367832E+00
 0.8888262158922E+00
 0.8709805895594E+00
 0.8650818833502E+00
 0.8761488757250E+00
 0.9099939943666E+00
 0.9724276623940E+00
 0.1067849278694E+01
 0.1197479101630E+01
 0.1357868597529E+01
 0.1540371704210E+01
 0.1732097150164E+01
 0.1918434322311E+01
 0.1041898120357E+01
 0.1079935986450E+01
 0.1117642002094E+01
 0.1153135912463E+01
 0.1184809625398E+01
 0.1211542551244E+01
 0.1232767751451E+01
 0.1248408922623E+01
 0.1258744816651E+01
 0.1264258545620E+01
 0.1265509217002E+01
 0.1263040812775E+01
 0.1257327780211E+01
 0.1248749557571E+01
 0.1237584933159E+01
 0.1224018716501E+01
 0.1208155594023E+01
 0.1190038923388E+01
 0.1169672229201E+01
 0.1147044181758E+01
 0.1122157124581E+01
 0.1095058039546E+01
 0.1065873040001E+01
 0.1034850041813E+01
 0.1002427025351E+01
 0.9692865179126E+00
 0.9363817674054E+00
 0.9049913081249E+00
 0.8768176782227E+00
 0.8541270126213E+00
 0.8399130647922E+00
 0.8380377128112E+00
 0.8532373865632E+00
 0.8907991238450E+00
 0.9557422756048E+00
 0.1051528656215E+01
 0.1178586207229E+01
 0.1333184852741E+01
 0.1507178163289E+01
 0.1688936270639E+01
 0.1865371970871E+01
 0.1003432517007E+01
 0.1039182713530E+01
 0.1074652401568E+01
 0.1108149256180E+01
 0.1138204655691E+01
 0.1163761802696E+01
 0.1184243275974E+01
 0.1199509276886E+01
 0.1209749365141E+01
 0.1215354739861E+01
 0.1216804303727E+01
 0.1214579915325E+01
 0.1209112850201E+01
 0.1200756373181E+01
 0.1189777263707E+01
 0.1176359860591E+01
 0.1160617928197E+01
 0.1142612117798E+01
 0.1122370615512E+01
 0.1099913502588E+01
 0.1075280695541E+01
 0.1048562255364E+01
 0.1019932160115E+01
 0.9896897152940E+00
 0.9583241260789E+00
 0.9265667746498E+00
 0.8954182495639E+00
 0.8662010146843E+00
 0.8406507545829E+00
 0.8210409816620E+00
 0.8103205153573E+00
 0.8122100923223E+00
 0.8311466204553E+00
 0.8719020709165E+00
 0.9387704637949E+00
 0.1034409433528E+01
 0.1158623376328E+01
 0.1307530281653E+01
 0.1473487753431E+01
 0.1645964424004E+01
 0.1813189259862E+01
 0.9651635075086E+00
 0.9987419732592E+00
 0.1032079524457E+01
 0.1063650961330E+01
 0.1092115727230E+01
 0.1116481796178E+01
 0.1136172001404E+01
 0.1150998169915E+01
 0.1161075231384E+01
 0.1166713606754E+01
 0.1168318944795E+01
 0.1166314340029E+01
 0.1161088776434E+01
 0.1152968825254E+01
 0.1142208133056E+01
 0.1128989309288E+01
 0.1113433997905E+01
 0.1095619005224E+01
 0.1075595986627E+01
 0.1053415020415E+01
 0.1029151776966E+01
 0.1002936984880E+01
 0.9749892574725E+00
 0.9456549553108E+00
 0.9154688092500E+00
 0.8852036294129E+00
 0.8558976310354E+00
 0.8289047197291E+00
 0.8059782617352E+00
 0.7893808749445E+00
 0.7819961882294E+00
 0.7873845096700E+00
 0.8096737564837E+00
 0.8531393247398E+00
 0.9214177005995E+00
 0.1016482662281E+01
 0.1137654070748E+01
 0.1280992765228E+01
 0.1439348360331E+01
 0.1603154384381E+01
 0.1761795114632E+01
 0.9270712304437E+00
 0.9585827077243E+00
 0.9898833325115E+00
 0.1019597442896E+01
 0.1046502323846E+01
 0.1069670598776E+01
 0.1088533627671E+01
 0.1102867387404E+01
 0.1112724846455E+01
 0.1118345837801E+01
 0.1120069541989E+01
 0.1118263940950E+01
 0.1113277063246E+01
 0.1105408692311E+01
 0.1094898517595E+01
 0.1081926306620E+01
 0.1066620388091E+01
 0.1049072474406E+01
 0.1029356306644E+01
 0.1007550303412E+01
 0.9837637965341E+00
 0.9581654804557E+00
 0.9310150830824E+00
 0.9027014298818E+00
 0.8737989280250E+00
 0.8451144569695E+00
 0.8177145919102E+00
 0.7929732006819E+00
 0.7726475931525E+00
 0.7589737860881E+00
 0.7547535468098E+00
 0.7633724460599E+00
 0.7886464016637E+00
 0.8343785935561E+00
 0.9036151151997E+00
 0.9977526093427E+00
 0.1115739735462E+01
 0.1253648592745E+01
 0.1404800415727E+01
 0.1560483492711E+01
 0.1711105392318E+01
 0.8891377625548E+00
 0.9186770007473E+00
 0.9480277019737E+00
 0.9759488760675E+00
 0.1001326563988E+01
 0.1023297193255E+01
 0.1041306985528E+01
 0.1055106404028E+01
 0.1064697406852E+01
 0.1070258455806E+01
 0.1072068743928E+01
 0.1070444920500E+01
 0.1065695715214E+01
 0.1058094366227E+01
 0.1047866036829E+01
 0.1035186676347E+01
 0.1020190121266E+01
 0.1002981660636E+01
 0.9836555858255E+00
 0.9623168018436E+00
 0.9391059883834E+00
 0.9142268764822E+00
 0.8879765774850E+00
 0.8607816413377E+00
 0.8332502815857E+00
 0.8062162994644E+00
 0.7807659409064E+00
 0.7582826403021E+00
 0.7405156097183E+00
 0.7296609473210E+00
 0.7284251248159E+00
 0.7400090310405E+00
 0.7679188628343E+00
 0.8155138471127E+00
 0.8853142463094E+00
 0.9782329698196E+00
 0.1092939182631E+01
 0.1225565030144E+01
 0.1369879160147E+01
 0.1517932465609E+01
 0.1661043321125E+01
 0.8513467832808E+00
 0.8789995436590E+00
 0.9064797891732E+00
 0.9326686474420E+00
 0.9565529012193E+00
 0.9773314864130E+00
 0.9944703004004E+00
 0.1007702790361E+01
 0.1016989311193E+01
 0.1022455203184E+01
 0.1024325751122E+01
 0.1022870050730E+01
 0.1018359394490E+01
 0.1011040973939E+01
 0.1001125068897E+01
 0.9887829581635E+00
 0.9741528374204E+00
 0.9573521884210E+00
 0.9384942015045E+00
 0.9177082600051E+00
 0.8951639067546E+00
 0.8710968128963E+00
 0.8458376071710E+00
 0.8198457677098E+00
 0.7937575336715E+00
 0.7684268034328E+00
 0.7449514706046E+00
 0.7247152524758E+00
 0.7094488467254E+00
 0.7012973071293E+00
 0.7028612683200E+00
 0.7171507666147E+00
 0.7473687634435E+00
 0.7964610751312E+00
 0.8664828448320E+00
 0.9579441426234E+00
 0.1069308439669E+01
 0.1196802213690E+01
 0.1334615947854E+01
 0.1475484672495E+01
 0.1611539602181E+01
 0.8136832937782E+00
 0.8395271854981E+00
 0.8652094874812E+00
 0.8897228661492E+00
 0.9121478265853E+00
 0.9317442622888E+00
 0.9480013671210E+00
 0.9606425252170E+00
 0.9695945175816E+00
 0.9749368747324E+00
 0.9768465881289E+00
 0.9755488782367E+00
 0.9712795710695E+00
 0.9642604952109E+00
 0.9546868606644E+00
 0.9427245337824E+00
 0.9285149568035E+00
 0.9121863882199E+00
 0.8938691827446E+00
 0.8737150798210E+00
 0.8519198767885E+00
 0.8287479777681E+00
 0.8045595970184E+00
 0.7798423710651E+00
 0.7552549632089E+00
 0.7316649509602E+00
 0.7101745722887E+00
 0.6921596477450E+00
 0.6793234704127E+00
 0.6737509110981E+00
 0.6779287868206E+00
 0.6946733254822E+00
 0.7268939731885E+00
 0.7771546537203E+00
 0.8471015008893E+00
 0.9369112329015E+00
 0.1044900763868E+01
 0.1167414478602E+01
 0.1299039022715E+01
 0.1433125679786E+01
 0.1562532200269E+01
 0.7761333814592E+00
 0.8002385571402E+00
 0.8241889696618E+00
 0.8470799424711E+00
 0.8680795986398E+00
 0.8865071214775E+00
 0.9018776851924E+00
 0.9139102650083E+00
 0.9225048719702E+00
 0.9277016438344E+00
 0.9296343920454E+00
 0.9284879640643E+00
 0.9244647209810E+00
 0.9177619358751E+00
 0.9085596965484E+00
 0.8970178118067E+00
 0.8832798992070E+00
 0.8674835655115E+00
 0.8497745413832E+00
 0.8303247229188E+00
 0.8093534732610E+00
 0.7871506636737E+00
 0.7641021576763E+00
 0.7407190767395E+00
 0.7176771574033E+00
 0.6958517036219E+00
 0.6763427390180E+00
 0.6605110774928E+00
 0.6500251301803E+00
 0.6469022314576E+00
 0.6535096468536E+00
 0.6724695323772E+00
 0.7064099170272E+00
 0.7575443146450E+00
 0.8271609992420E+00
 0.9151626379428E+00
 0.1019766792739E+01
 0.1137451394539E+01
 0.1263174144541E+01
 0.1390843099425E+01
 0.1513966114424E+01
 0.7386840201059E+00
 0.7611137493920E+00
 0.7833922904424E+00
 0.8047102099310E+00
 0.8243179817964E+00
 0.8415923902315E+00
 0.8560765362007E+00
 0.8674895445799E+00
 0.8757103720094E+00
 0.8807453363612E+00
 0.8826896625825E+00
 0.8816910965437E+00
 0.8779205043935E+00
 0.8715514835119E+00
 0.8627490485507E+00
 0.8516663896553E+00
 0.8384482739046E+00
 0.8232402323520E+00
 0.8062015558104E+00
 0.7875220539559E+00
 0.7674419269473E+00
 0.7462732352938E+00
 0.7244236044841E+00
 0.7024231212688E+00
 0.6809595490421E+00
 0.6609104680858E+00
 0.6433678759509E+00
 0.6296714875679E+00
 0.6214486477693E+00
 0.6206433922971E+00
 0.6294996535043E+00
 0.6504474630453E+00
 0.6858471709425E+00
 0.7375925716817E+00
 0.8066601920708E+00
 0.8927289844628E+00
 0.9939546856800E+00
 0.1106958512460E+01
 0.1227045029337E+01
 0.1348626466445E+01
 0.1465792962572E+01
 0.7013228993289E+00
 0.7221340388268E+00
 0.7427950456618E+00
 0.7625855953913E+00
 0.7808340091939E+00
 0.7969730265783E+00
 0.8105750380002E+00
 0.8213629474419E+00
 0.8291994049049E+00
 0.8340616905141E+00
 0.8360105122144E+00
 0.8351595167789E+00
 0.8316499655775E+00
 0.8256326904127E+00
 0.8172577555868E+00
 0.8066712440102E+00
 0.7940180951043E+00
 0.7794503595593E+00
 0.7631390687441E+00
 0.7452896894411E+00
 0.7261605257349E+00
 0.7060825783158E+00
 0.6854814412907E+00
 0.6649018463079E+00
 0.6450388801095E+00
 0.6267674711404E+00
 0.6111665115439E+00
 0.5995494794497E+00
 0.5934976421187E+00
 0.5948773834611E+00
 0.6058071997742E+00
 0.6285287194960E+00
 0.6651493690109E+00
 0.7172725797167E+00
 0.7856043225245E+00
 0.8696423629568E+00
 0.9675102989635E+00
 0.1075977980003E+01
 0.1190673747810E+01
 0.1306467202985E+01
 0.1417970564520E+01
 0.6640382781869E+00
 0.6832816513029E+00
 0.7023740761192E+00
 0.7206793272750E+00
 0.7375997649125E+00
 0.7526225227406E+00
 0.7653501767470E+00
 0.7755122450060E+00
 0.7829589551038E+00
 0.7876425938113E+00
 0.7895929032570E+00
 0.7888921401766E+00
 0.7856537355676E+00
 0.7800066628748E+00
 0.7720862098823E+00
 0.7620309265879E+00
 0.7499849989428E+00
 0.7361056249353E+00
 0.7205737739435E+00
 0.7036083267337E+00
 0.6854829852753E+00
 0.6665445051230E+00
 0.6472327862574E+00
 0.6281031184620E+00
 0.6098535759258E+00
 0.5933520340095E+00
 0.5796599058457E+00
 0.5700601808073E+00
 0.5660840946521E+00
 0.5695172663133E+00
 0.5823520801319E+00
 0.6066468641760E+00
 0.6442713795567E+00
 0.6965663486434E+00
 0.7640036943223E+00
 0.8459357690754E+00
 0.9404773659558E+00
 0.1044549048232E+01
 0.1154081066208E+01
 0.1264358589686E+01
 0.1370462497443E+01
 0.6268188578235E+00
 0.6445395549381E+00
 0.6621072063962E+00
 0.6789656739714E+00
 0.6945881816740E+00
 0.7085148041463E+00
 0.7203788193050E+00
 0.7299185070049E+00
 0.7369747816190E+00
 0.7414782937134E+00
 0.7434308651036E+00
 0.7428857645483E+00
 0.7399302260956E+00
 0.7346722440672E+00
 0.7272325368077E+00
 0.7177417510391E+00
 0.7063424474404E+00
 0.6931956426754E+00
 0.6784904768554E+00
 0.6624570382188E+00
 0.6453817744451E+00
 0.6276241032770E+00
 0.6096347270790E+00
 0.5919756647884E+00
 0.5753440228797E+00
 0.5605967430883E+00
 0.5487740571422E+00
 0.5411250296303E+00
 0.5391278593549E+00
 0.5444853720428E+00
 0.5590643608701E+00
 0.5847459918158E+00
 0.6231777065889E+00
 0.6754632401820E+00
 0.7418725997787E+00
 0.8216426820389E+00
 0.9128976586249E+00
 0.1012708475186E+01
 0.1117286707856E+01
 0.1222295693095E+01
 0.1323237596094E+01
 0.5896536704437E+00
 0.6058912798130E+00
 0.6219730174700E+00
 0.6374197154436E+00
 0.6517728633585E+00
 0.6646241409634E+00
 0.6756377271719E+00
 0.6845622073354E+00
 0.6912315904896E+00
 0.6955576076225E+00
 0.6975167173635E+00
 0.6971352908511E+00
 0.6944758416834E+00
 0.6896262186764E+00
 0.6826927980439E+00
 0.6737980027814E+00
 0.6630819532538E+00
 0.6507082098758E+00
 0.6368723671734E+00
 0.6218135707109E+00
 0.6058284377964E+00
 0.5892860712406E+00
 0.5726446525895E+00
 0.5564693737858E+00
 0.5414528026816E+00
 0.5284375731061E+00
 0.5184396653034E+00
 0.5126715308309E+00
 0.5125561741827E+00
 0.5197125431692E+00
 0.5358833483263E+00
 0.5627794657845E+00
 0.6018411234938E+00
 0.6539587343555E+00
 0.7192284877372E+00
 0.7967967844312E+00
 0.8848111766522E+00
 0.9804909010806E+00
 0.1080309606257E+01
 0.1180275317230E+01
 0.1276269505749E+01
 0.5525319810039E+00
 0.5673207571348E+00
 0.5819506436873E+00
 0.5960171384851E+00
 0.6091279242299E+00
 0.6209250657233E+00
 0.6311035660307E+00
 0.6394233182175E+00
 0.6457131924967E+00
 0.6498681186932E+00
 0.6518412814713E+00
 0.6516339355710E+00
 0.6492851858790E+00
 0.6448635128578E+00
 0.6384611896410E+00
 0.6301921417547E+00
 0.6201932939385E+00
 0.6086295378180E+00
 0.5957012701964E+00
 0.5816546164481E+00
 0.5667938811810E+00
 0.5514950078251E+00
 0.5362205281385E+00
 0.5215355308457E+00
 0.5081248543655E+00
 0.4968139365851E+00
 0.4885920281791E+00
 0.4846329631384E+00
 0.4863031512380E+00
 0.4951373928896E+00
 0.5127566239296E+00
 0.5407087780613E+00
 0.5802414832720E+00
 0.6320533948382E+00
 0.6960912963217E+00
 0.7714317611860E+00
 0.8562563218194E+00
 0.9479291572568E+00
 0.1043168092354E+01
 0.1138295906072E+01
 0.1229536207769E+01
 0.5154431993710E+00
 0.5288121753848E+00
 0.5420195925567E+00
 0.5547340569836E+00
 0.5666278506134E+00
 0.5773923074252E+00
 0.5867529250220E+00
 0.5944814089001E+00
 0.6004026630058E+00
 0.6043963739976E+00
 0.6063940966246E+00
 0.6063734500349E+00
 0.6043512767155E+00
 0.6003774048022E+00
 0.5945302508924E+00
 0.5869150149223E+00
 0.5776647336435E+00
 0.5669444871718E+00
 0.5549578974028E+00
 0.5419560774062E+00
 0.5282486436303E+00
 0.5142156798423E+00
 0.5003211406910E+00
 0.4871270156544E+00
 0.4753075930246E+00
 0.4656686898119E+00
 0.4591709017754E+00
 0.4569480662094E+00
 0.4603092729291E+00
 0.4707056045618E+00
 0.4896391609325E+00
 0.5185025370802E+00
 0.5583646963909E+00
 0.6097520138360E+00
 0.6724829324679E+00
 0.7455811761869E+00
 0.8272700785779E+00
 0.9150545425414E+00
 0.1005880049057E+01
 0.1096357431077E+01
 0.1183019561858E+01
 0.4783768008380E+00
 0.4903498504775E+00
 0.5021595849833E+00
 0.5135468571744E+00
 0.5242473886056E+00
 0.5340007493903E+00
 0.5425623556968E+00
 0.5497157600221E+00
 0.5552825147428E+00
 0.5591280945910E+00
 0.5611636479607E+00
 0.5613443530308E+00
 0.5596657766121E+00
 0.5561597504311E+00
 0.5508910882686E+00
 0.5439560828489E+00
 0.5354832569173E+00
 0.5256368123154E+00
 0.5146221020711E+00
 0.5026933294447E+00
 0.4901631626935E+00
 0.4774132758516E+00
 0.4649063222036E+00
 0.4531984707271E+00
 0.4429509950267E+00
 0.4349481054565E+00
 0.4301203343159E+00
 0.4295607172149E+00
 0.4345209012853E+00
 0.4463692747932E+00
 0.4664925205267E+00
 0.4961355727199E+00
 0.5362018553412E+00
 0.5870629083615E+00
 0.6484268722458E+00
 0.7192784131337E+00
 0.7978882025599E+00
 0.8818970752502E+00
 0.9684630373924E+00
 0.1054461264567E+01
 0.1136704866478E+01
 0.4413222530847E+00
 0.4519181074771E+00
 0.4623504147706E+00
 0.4724320698622E+00
 0.4819614640008E+00
 0.4907254210536E+00
 0.4985084435625E+00
 0.5051055075203E+00
 0.5103348967920E+00
 0.5140484091331E+00
 0.5161376166027E+00
 0.5165361844422E+00
 0.5152192428993E+00
 0.5122012294012E+00
 0.5075336190921E+00
 0.5013036649657E+00
 0.4936348194867E+00
 0.4846894201029E+00
 0.4746731458365E+00
 0.4638414927128E+00
 0.4525080400719E+00
 0.4410536530118E+00
 0.4299371581660E+00
 0.4197064475353E+00
 0.4110076555021E+00
 0.4046018168146E+00
 0.4013884782189E+00
 0.4024195996765E+00
 0.4088898012421E+00
 0.4220862977805E+00
 0.4432841199535E+00
 0.4735881437102E+00
 0.5137484827285E+00
 0.5639973393740E+00
 0.6239478559309E+00
 0.6925566649774E+00
 0.7681454128745E+00
 0.8484857210436E+00
 0.9309343904052E+00
 0.1012610030195E+01
 0.1090580425063E+01
 0.4042689479966E+00
 0.4135011729410E+00
 0.4225718297597E+00
 0.4313662775753E+00
 0.4397451489391E+00
 0.4475415439986E+00
 0.4545679363693E+00
 0.4606298417340E+00
 0.4655418449880E+00
 0.4691421345221E+00
 0.4713031728550E+00
 0.4719377991387E+00
 0.4710014166640E+00
 0.4684916281876E+00
 0.4644468514160E+00
 0.4589452202010E+00
 0.4521046332888E+00
 0.4440846611675E+00
 0.4350899950936E+00
 0.4253757278353E+00
 0.4152543272171E+00
 0.4051035961811E+00
 0.3953761991121E+00
 0.3866095459292E+00
 0.3794328312043E+00
 0.3745827441158E+00
 0.3729273881058E+00
 0.3754778707346E+00
 0.3833726821090E+00
 0.3978197923035E+00
 0.4199865695293E+00
 0.4508452378916E+00
 0.4910038863063E+00
 0.5405690333765E+00
 0.5990716604852E+00
 0.6654489642755E+00
 0.7380755914145E+00
 0.8148486049633E+00
 0.8933112805687E+00
 0.9708074315840E+00
 0.1044637115524E+01
 0.3672061372394E+00
 0.3750830801468E+00
 0.3828034444008E+00
 0.3903260773600E+00
 0.3975737077533E+00
 0.4044246747102E+00
 0.4107179782030E+00
 0.4162683136809E+00
 0.4208856356670E+00
 0.4243941537727E+00
 0.4266473604481E+00
 0.4275377469116E+00
 0.4270015942621E+00
 0.4250202039998E+00
 0.4216192440871E+00
 0.4168677078687E+00
 0.4108775320200E+00
 0.4038047015713E+00
 0.3958516964193E+00
 0.3872716077977E+00
 0.3783738804860E+00
 0.3695311370449E+00
 0.3611877193821E+00
 0.3538685861152E+00
 0.3481845021406E+00
 0.3448470306587E+00
 0.3446928282009E+00
 0.3486928473938E+00
 0.3579307759141E+00
 0.3735375878975E+00
 0.3965770914248E+00
 0.4278959727834E+00
 0.4679706229936E+00
 0.5167938065033E+00
 0.5738249539357E+00
 0.6379882697525E+00
 0.7077120174046E+00
 0.7810132445766E+00
 0.8556107983943E+00
 0.9290580939090E+00
 0.9988679994417E+00
 0.3301228703614E+00
 0.3366475894937E+00
 0.3430246978715E+00
 0.3492881305360E+00
 0.3554227711562E+00
 0.3613510069554E+00
 0.3669365194639E+00
 0.3720013191497E+00
 0.3763493090750E+00
 0.3797899504276E+00
 0.3821576234205E+00
 0.3833247829736E+00
 0.3832091203100E+00
 0.3817761642465E+00
 0.3790391791890E+00
 0.3750580598294E+00
 0.3699384480126E+00
 0.3638320058851E+00
 0.3569378621878E+00
 0.3495055958304E+00
 0.3418398134682E+00
 0.3343059556657E+00
 0.3273380374578E+00
 0.3214468170744E+00
 0.3172234445218E+00
 0.3153539712467E+00
 0.3166440647599E+00
 0.3220256843962E+00
 0.3325294248378E+00
 0.3492117420513E+00
 0.3730369896349E+00
 0.4047330608768E+00
 0.4446540300881E+00
 0.4926892446596E+00
 0.5482351844430E+00
 0.6102075652608E+00
 0.6770875982329E+00
 0.7470067654019E+00
 0.8178499930007E+00
 0.8873673507196E+00
 0.9532678920803E+00
 0.2930079354810E+00
 0.2981781393174E+00
 0.3032149036633E+00
 0.3082293868760E+00
 0.3132687684549E+00
 0.3182979968449E+00
 0.3232030853784E+00
 0.3278109494419E+00
 0.3319175477599E+00
 0.3353164761924E+00
 0.3378226423562E+00
 0.3392886669086E+00
 0.3396141535876E+00
 0.3387494092937E+00
 0.3366956935314E+00
 0.3335039116367E+00
 0.3292731505638E+00
 0.3241500845675E+00
 0.3183294210207E+00
 0.3120557831448E+00
 0.3056271953128E+00
 0.2994000026537E+00
 0.2937960194070E+00
 0.2893102614419E+00
 0.2865133918354E+00
 0.2860659892703E+00
 0.2887436860261E+00
 0.2954410800714E+00
 0.3071377131933E+00
 0.3248181240445E+00
 0.3493512049206E+00
 0.3813523693561E+00
 0.4210618492014E+00
 0.4682744640146E+00
 0.5223305325023E+00
 0.5821400104203E+00
 0.6462351527008E+00
 0.7128561716787E+00
 0.7800459531722E+00
 0.8457410502951E+00
 0.9078329633105E+00
 0.2558498043997E+00
 0.2596578577498E+00
 0.2633534857619E+00
 0.2671276662832E+00
 0.2710898894570E+00
 0.2752456498361E+00
 0.2795002781262E+00
 0.2836825893510E+00
 0.2875782746671E+00
 0.2909636898650E+00
 0.2936337891367E+00
 0.2954215333828E+00
 0.2962089689544E+00
 0.2959317877495E+00
 0.2945797104773E+00
 0.2921948308372E+00
 0.2888694839493E+00
 0.2847447449527E+00
 0.2800098716911E+00
 0.2749031194195E+00
 0.2697142138341E+00
 0.2647885356156E+00
 0.2605339224455E+00
 0.2574283086159E+00
 0.2560213488695E+00
 0.2569486877143E+00
 0.2609574501263E+00
 0.2689070016615E+00
 0.2817281368953E+00
 0.3003360618844E+00
 0.3255079512660E+00
 0.3577525667234E+00
 0.3972039295540E+00
 0.4435699336067E+00
 0.4961399058453E+00
 0.5538191249323E+00
 0.6151877382317E+00
 0.6785886762529E+00
 0.7422159309812E+00
 0.8041853568726E+00
 0.8625603421526E+00
 0.2186365876700E+00
 0.2210697138927E+00
 0.2234206397501E+00
 0.2259630558546E+00
 0.2288682552744E+00
 0.2321793161765E+00
 0.2358169444548E+00
 0.2396082020888E+00
 0.2433258648246E+00
 0.2467275895119E+00
 0.2495879457042E+00
 0.2517205121684E+00
 0.2529904193154E+00
 0.2533194505068E+00
 0.2526863348657E+00
 0.2511245931389E+00
 0.2487196511793E+00
 0.2456063894497E+00
 0.2419675774468E+00
 0.2380336548394E+00
 0.2340842852184E+00
 0.2304519906902E+00
 0.2275289141629E+00
 0.2257747897382E+00
 0.2257181896663E+00
 0.2279710212703E+00
 0.2332541573750E+00
 0.2423944095137E+00
 0.2562762933400E+00
 0.2757480427083E+00
 0.3014984258488E+00
 0.3339348433782E+00
 0.3730919897885E+00
 0.4185973316564E+00
 0.4696929424292E+00
 0.5252789691256E+00
 0.5839789920425E+00
 0.6442320785719E+00
 0.7043775004576E+00
 0.7627065067005E+00
 0.8174476486913E+00
 0.1813560203761E+00
 0.1823970363969E+00
 0.1833991009397E+00
 0.1847214342335E+00
 0.1865952491346E+00
 0.1890964266601E+00
 0.1921556778039E+00
 0.1955939778669E+00
 0.1991684993352E+00
 0.2026170463925E+00
 0.2056937663262E+00
 0.2081934757700E+00
 0.2099652777567E+00
 0.2109179104577E+00
 0.2110197445394E+00
 0.2102959974345E+00
 0.2088250114127E+00
 0.2067348113677E+00
 0.2042005228352E+00
 0.2014431585232E+00
 0.1987303719147E+00
 0.1963797905701E+00
 0.1947661539170E+00
 0.1943301726847E+00
 0.1955799354071E+00
 0.1991057947866E+00
 0.2056056413593E+00
 0.2158770390243E+00
 0.2307606579137E+00
 0.2510395476292E+00
 0.2773166782372E+00
 0.3099027869052E+00
 0.3487395114004E+00
 0.3933795036587E+00
 0.4430200875607E+00
 0.4965543879438E+00
 0.5526435700792E+00
 0.6098153200736E+00
 0.6665489215376E+00
 0.7213106587126E+00
 0.7724925770399E+00
 0.1439955432826E+00
 0.1436251124322E+00
 0.1432792169263E+00
 0.1434044353048E+00
 0.1442864890356E+00
 0.1460252600406E+00
 0.1485534764477E+00
 0.1516810760611E+00
 0.1551477596776E+00
 0.1586716755291E+00
 0.1619877493783E+00
 0.1648735277270E+00
 0.1671634797368E+00
 0.1687543929743E+00
 0.1696049639545E+00
 0.1697323078198E+00
 0.1692073458256E+00
 0.1681503306172E+00
 0.1667272354947E+00
 0.1651475986689E+00
 0.1636646555092E+00
 0.1625787523533E+00
 0.1622454862472E+00
 0.1630862492014E+00
 0.1655904514727E+00
 0.1703307512426E+00
 0.1779868801166E+00
 0.1893311641389E+00
 0.2051623880953E+00
 0.2261989912869E+00
 0.2529596161772E+00
 0.2856623769695E+00
 0.3241617088265E+00
 0.3679404481223E+00
 0.4161526516139E+00
 0.4676811987019E+00
 0.5212175460495E+00
 0.5753691106940E+00
 0.6287496531630E+00
 0.6800037177918E+00
 0.7276923048484E+00
 0.1065427393907E+00
 0.1047467577287E+00
 0.1030764944812E+00
 0.1020642946650E+00
 0.1020345565893E+00
 0.1030909112394E+00
 0.1051535729099E+00
 0.1080164534318E+00
 0.1114040201248E+00
 0.1150199784564E+00
 0.1185851829097E+00
 0.1218637771611E+00
 0.1246780769057E+00
 0.1269142796646E+00
 0.1285219014706E+00
 0.1295097123549E+00
 0.1299402551422E+00
 0.1299243042246E+00
 0.1296162076800E+00
 0.1292108840617E+00
 0.1289436658247E+00
 0.1290944864682E+00
 0.1299980970957E+00
 0.1320575273494E+00
 0.1357478811147E+00
 0.1416312170862E+00
 0.1503764970523E+00
 0.1627354182017E+00
 0.1794652671836E+00
 0.2012179357584E+00
 0.2284273286463E+00
 0.2612222593076E+00
 0.2993757082543E+00
 0.3423054434357E+00
 0.3891229534428E+00
 0.4386964107820E+00
 0.4897388374335E+00
 0.5409267572551E+00
 0.5910013064678E+00
 0.6387914071187E+00
 0.6830428417934E+00
 0.6898753558181E-01
 0.6578851366211E-01
 0.6291783365576E-01
 0.6098180658028E-01
 0.6028378420836E-01
 0.6085905401046E-01
 0.6257311270841E-01
 0.6520428351605E-01
 0.6848827312622E-01
 0.7214469591266E-01
 0.7590247909438E-01
 0.7952445714878E-01
 0.8282556320264E-01
 0.8568198427833E-01
 0.8803250424450E-01
 0.8987483825234E-01
 0.9125955995318E-01
 0.9228345458850E-01
 0.9308376720457E-01
 0.9383458415737E-01
 0.9474717001074E-01
 0.9607643915204E-01
 0.9813535761951E-01
 0.1013133251752E+00
 0.1060819972040E+00
 0.1130069766753E+00
 0.1227581750311E+00
 0.1360706522492E+00
 0.1536558543523E+00
 0.1760917639462E+00
 0.2037239173762E+00
 0.2365944347914E+00
 0.2744010091250E+00
 0.3165013432791E+00
 0.3619645535767E+00
 0.4096384470029E+00
 0.4582475378148E+00
 0.5065250796632E+00
 0.5533292049640E+00
 0.5976797972890E+00
 0.6385381825322E+00
 0.3134121765714E-01
 0.2706717846422E-01
 0.2401025079545E-01
 0.2282909311555E-01
 0.2320516475596E-01
 0.2440901956797E-01
 0.2600419198469E-01
 0.2794336376950E-01
 0.3032662835414E-01
 0.3318551207419E-01
 0.3641641532842E-01
 0.3982770940782E-01
 0.4321491377305E-01
 0.4641263563793E-01
 0.4931630041054E-01
 0.5188436070423E-01
 0.5413153209599E-01
 0.5611945187571E-01
 0.5794864077440E-01
 0.5975441208261E-01
 0.6170964173952E-01
 0.6403719384363E-01
 0.6703287189094E-01
 0.7109138651601E-01
 0.7671146480591E-01
 0.8449329699205E-01
 0.9512478322620E-01
 0.1093198147717E+00
 0.1277240506819E+00
 0.1508212758538E+00
 0.1788592662907E+00
 0.2117956487192E+00
 0.2492603823976E+00
 0.2905571015194E+00
 0.3347125969325E+00
 0.3805473724141E+00
 0.4267859973463E+00
 0.4722051053284E+00
 0.5157647376172E+00
 0.5566768557518E+00
 0.5941690024694E+00
 0.6996068637634E-02
 0.1514429921603E-01
 0.2313456435067E-01
 0.2980151926175E-01
 0.3445475269487E-01
 0.3686464135940E-01
 0.3718800789115E-01
 0.3584251946909E-01
 0.3338030344188E-01
 0.3039134252446E-01
 0.2743976090710E-01
 0.2501359952057E-01
 0.2346105183939E-01
 0.2291734133118E-01
 0.2328712679345E-01
 0.2433039133981E-01
 0.2578934757426E-01
 0.2746846714690E-01
 0.2925661138115E-01
 0.3112557714271E-01
 0.3313353235872E-01
 0.3544544564864E-01
 0.3836843245546E-01
 0.4238064584571E-01
 0.4810680396484E-01
 0.5624596030857E-01
 0.6749317689549E-01
 0.8246802081732E-01
 0.1016649307761E+00
 0.1254166228141E+00
 0.1538529283575E+00
 0.1868502562259E+00
 0.2239816888863E+00
 0.2645048335110E+00
 0.3074044785233E+00
 0.3514654111665E+00
 0.3953987824350E+00
 0.4380120720309E+00
 0.4783487759433E+00
 0.5157967004401E+00
 0.5499208088918E+00
 0.4464584107485E-01
 0.5358632331254E-01
 0.6248279042032E-01
 0.6998035033097E-01
 0.7520861613531E-01
 0.7784726301086E-01
 0.7802609647746E-01
 0.7615800051942E-01
 0.7277830451866E-01
 0.6842719880574E-01
 0.6358106862258E-01
 0.5862237928513E-01
 0.5383360736451E-01
 0.4940297152081E-01
 0.4543391711442E-01
 0.4195436036093E-01
 0.3892502412005E-01
 0.3624871596408E-01
 0.3378361314956E-01
 0.3136561724042E-01
 0.2884890261314E-01
 0.2618797619202E-01
 0.2361986004025E-01
 0.2203309184410E-01
 0.2326096846825E-01
 0.2911554512772E-01
 0.3998082630594E-01
 0.5550303751314E-01
 0.7548457127929E-01
 0.9990747911512E-01
 0.1287427728229E+00
 0.1617959445370E+00
 0.1986012348121E+00
 0.2383816581902E+00
 0.2800807946820E+00
 0.3224377618441E+00
 0.3641327666057E+00
 0.4039932772506E+00
 0.4411348716401E+00
 0.4750697981577E+00
 0.5057711506728E+00
 0.8279558507510E-01
 0.9339598969727E-01
 0.1037615240109E+00
 0.1124334311576E+00
 0.1184753024506E+00
 0.1215636612054E+00
 0.1218728209497E+00
 0.1198774556915E+00
 0.1161680883898E+00
 0.1113224017955E+00
 0.1058353257384E+00
 0.1000925630858E+00
 0.9436949967027E-01
 0.8884165024549E-01
 0.8359816899337E-01
 0.7865417693233E-01
 0.7396041795856E-01
 0.6941052013039E-01
 0.6484647429527E-01
 0.6006390035561E-01
 0.5481825971118E-01
 0.4883349264158E-01
 0.4181790071292E-01
 0.3350983606538E-01
 0.2386198608217E-01
 0.1413425178229E-01
 0.1382330941274E-01
 0.2841941171466E-01
 0.4922515150486E-01
 0.7437470422301E-01
 0.1036066649527E+00
 0.1366961739767E+00
 0.1731704462645E+00
 0.2122332070722E+00
 0.2527871603644E+00
 0.2935135687149E+00
 0.3330392437349E+00
 0.3701929665636E+00
 0.4041863574884E+00
 0.4345686696575E+00
 0.4616829609348E+00
 0.1211659832778E+00
 0.1336382323940E+00
 0.1456761447385E+00
 0.1556592760301E+00
 0.1625807767959E+00
 0.1661368737695E+00
 0.1665753962768E+00
 0.1644569005865E+00
 0.1604434401934E+00
 0.1551605470620E+00
 0.1491292103602E+00
 0.1427456614192E+00
 0.1362866904504E+00
 0.1299250229255E+00
 0.1237461492075E+00
 0.1177627504027E+00
 0.1119256228982E+00
 0.1061316278146E+00
 0.1002292259931E+00
 0.9402307524434E-01
 0.8727835861182E-01
 0.7972469944897E-01
 0.7105945378474E-01
 0.6095423205282E-01
 0.4907906769278E-01
 0.3510634406446E-01
 0.1869720683160E-01
 0.1694169200371E-02
 0.2316257041143E-01
 0.4908095291034E-01
 0.7862580474757E-01
 0.1116696079403E+00
 0.1477697970967E+00
 0.1861201834173E+00
 0.2255779092428E+00
 0.2647468712014E+00
 0.3021769364766E+00
 0.3366558465661E+00
 0.3675374557489E+00
 0.3944716262219E+00
 0.4176135505244E+00
 0.1597684657461E+00
 0.1742716352085E+00
 0.1881144652482E+00
 0.1994773711292E+00
 0.2072813406796E+00
 0.2112640996955E+00
 0.2117739756535E+00
 0.2094779850254E+00
 0.2051209383783E+00
 0.1993802416816E+00
 0.1928031517755E+00
 0.1857954371589E+00
 0.1786345191811E+00
 0.1714902720467E+00
 0.1644451297502E+00
 0.1575103368171E+00
 0.1506378631407E+00
 0.1437289664032E+00
 0.1366401606215E+00
 0.1291883025297E+00
 0.1211555788968E+00
 0.1122941788706E+00
 0.1023303245608E+00
 0.9097160743351E-01
 0.7793381353922E-01
 0.6294796877689E-01
 0.4575445827014E-01
 0.2625123361602E-01
 0.8049616217657E-02
 0.2537404305976E-01
 0.5431875289409E-01
 0.8696954653247E-01
 0.1225399010046E+00
 0.1601320254853E+00
 0.1985212044414E+00
 0.2362034113099E+00
 0.2716025625210E+00
 0.3034629070804E+00
 0.3311262821003E+00
 0.3550106420555E+00
 0.3737986980293E+00
 0.1986284425010E+00
 0.2153274323166E+00
 0.2310975339323E+00
 0.2438869299524E+00
 0.2525488135709E+00
 0.2568905818072E+00
 0.2573919693344E+00
 0.2548475476275E+00
 0.2500942903133E+00
 0.2438628089176E+00
 0.2367241872459E+00
 0.2290904263342E+00
 0.2212367887591E+00
 0.2133284104234E+00
 0.2054435928072E+00
 0.1975916091619E+00
 0.1897253060807E+00
 0.1817500050282E+00
 0.1735297066427E+00
 0.1648925889687E+00
 0.1556367464335E+00
 0.1455359178381E+00
 0.1343447174276E+00
 0.1218071568078E+00
 0.1076853902466E+00
 0.9176642218998E-01
 0.7385000907964E-01
 0.5383051565426E-01
 0.3224416661138E-01
 0.1636988542622E-01
 0.3271056501904E-01
 0.6318345356437E-01
 0.9769690640626E-01
 0.1343480549323E+00
 0.1716406314221E+00
 0.2078820024221E+00
 0.2413165175765E+00
 0.2705392881984E+00
 0.2950632435065E+00
 0.3151683187177E+00
 0.3331747490892E+00
 0.2377762298329E+00
 0.2568524251870E+00
 0.2746730622706E+00
 0.2889201798018E+00
 0.2983908871256E+00
 0.3029998104986E+00
 0.3033947435769E+00
 0.3005199083311E+00
 0.2953119960442E+00
 0.2885535758800E+00
 0.2808349509273E+00
 0.2725695568686E+00
 0.2640267470912E+00
 0.2553643986552E+00
 0.2466551577436E+00
 0.2379054694531E+00
 0.2290685454910E+00
 0.2200533177385E+00
 0.2107306263980E+00
 0.2009389275073E+00
 0.1904906679714E+00
 0.1791790698057E+00
 0.1667846059300E+00
 0.1530844712023E+00
 0.1378819460811E+00
 0.1210093296989E+00
 0.1023029136992E+00
 0.8164033851082E-01
 0.5915890649756E-01
 0.3636600749716E-01
 0.2415605458024E-01
 0.4240734559194E-01
 0.7389572477954E-01
 0.1090478214369E+00
 0.1450871520048E+00
 0.1798937225889E+00
 0.2114057788837E+00
 0.2380150762561E+00
 0.2591655600315E+00
 0.2758590184779E+00
 0.2900418195514E+00
 0.2772464408514E+00
 0.2989014702435E+00
 0.3188980633859E+00
 0.3346154400514E+00
 0.3448162990318E+00
 0.3495724758533E+00
 0.3497432320946E+00
 0.3464450158212E+00
 0.3407190891305E+00
 0.3333956637722E+00
 0.3250774455498E+00
 0.3161732540719E+00
 0.3069421836836E+00
 0.2975320851237E+00
 0.2880083444713E+00
 0.2783737173604E+00
 0.2685813157874E+00
 0.2585433245691E+00
 0.2481369160081E+00
 0.2372099405816E+00
 0.2255877924181E+00
 0.2130812629864E+00
 0.1994944445381E+00
 0.1846353278232E+00
 0.1683455969954E+00
 0.1504991877799E+00
 0.1309650577556E+00
 0.1096175204000E+00
 0.8644955548650E-01
 0.6197505092941E-01
 0.3911648809976E-01
 0.3202375144201E-01
 0.5298415134294E-01
 0.8489277973319E-01
 0.1191979777772E+00
 0.1524730689868E+00
 0.1820921522522E+00
 0.2060598255597E+00
 0.2237400502403E+00
 0.2364923830651E+00
 0.2464481431480E+00
 0.3170810488029E+00
 0.3415468413364E+00
 0.3638518612769E+00
 0.3810332311546E+00
 0.3918550328004E+00
 0.3966120603322E+00
 0.3964256406301E+00
 0.3926061780217E+00
 0.3863003125390E+00
 0.3783778392561E+00
 0.3694447315312E+00
 0.3598980476146E+00
 0.3499818953596E+00
 0.3398312846244E+00
 0.3295028102100E+00
 0.3189947836327E+00
 0.3082598704162E+00
 0.2972132853348E+00
 0.2857381796280E+00
 0.2736910734078E+00
 0.2609090393475E+00
 0.2472186471135E+00
 0.2324455909528E+00
 0.2164268689592E+00
 0.1990413170860E+00
 0.1802038855996E+00
 0.1598172958106E+00
 0.1377638619114E+00
 0.1139715976304E+00
 0.8861728888074E-01
 0.6277869190161E-01
 0.4129473189693E-01
 0.4015641092426E-01
 0.6333700074077E-01
 0.9449969553075E-01
 0.1258811691010E+00
 0.1535531206759E+00
 0.1748419339544E+00
 0.1888351952439E+00
 0.1971069334313E+00
 0.2027112354203E+00
 0.3573302542182E+00
 0.3848753722378E+00
 0.4096275919503E+00
 0.4282405815669E+00
 0.4395362536610E+00
 0.4441181630660E+00
 0.4434272830564E+00
 0.4389866685988E+00
 0.4320433178276E+00
 0.4234940810693E+00
 0.4139367208819E+00
 0.4037485216493E+00
 0.3931537427220E+00
 0.3822718786745E+00
 0.3711494029246E+00
 0.3597796148483E+00
 0.3481145501422E+00
 0.3360723865791E+00
 0.3235420602038E+00
 0.3103881798897E+00
 0.2964583101290E+00
 0.2815929981775E+00
 0.2656374903909E+00
 0.2484561513453E+00
 0.2299643224109E+00
 0.2101185734285E+00
 0.1888579061099E+00
 0.1660812668908E+00
 0.1416875923602E+00
 0.1157001791349E+00
 0.8857641917029E-01
 0.6219073304932E-01
 0.4363140461470E-01
 0.4819300545947E-01
 0.7219207030305E-01
 0.1006075546970E+00
 0.1260794050555E+00
 0.1445917766139E+00
 0.1546007891664E+00
 0.1578820467658E+00
 0.1588019395271E+00
 0.3980550141861E+00
 0.4289920476184E+00
 0.4563334313297E+00
 0.4763083972314E+00
 0.4878833575157E+00
 0.4920815097621E+00
 0.4907266168067E+00
 0.4855666630536E+00
 0.4779359778755E+00
 0.4687408423728E+00
 0.4585571511262E+00
 0.4477338786187E+00
 0.4364707233828E+00
 0.4248693177254E+00
 0.4129649953335E+00
 0.4007457214507E+00
 0.3881629101368E+00
 0.3751378042540E+00
 0.3615650999046E+00
 0.3473170666086E+00
 0.3322506408771E+00
 0.3162184535257E+00
 0.2990830247005E+00
 0.2807342626073E+00
 0.2611234679334E+00
 0.2402498795434E+00
 0.2180916946815E+00
 0.1945714189261E+00
 0.1695792534569E+00
 0.1430593564980E+00
 0.1151923593100E+00
 0.8683330421356E-01
 0.6089017915251E-01
 0.4645669466884E-01
 0.5522217299900E-01
 0.7770745259059E-01
 0.1001943868111E+00
 0.1156851254059E+00
 0.1213456951314E+00
 0.1189951127067E+00
 0.1146467842740E+00
 0.4393307147076E+00
 0.4740251170465E+00
 0.5040944514784E+00
 0.5253083083170E+00
 0.5369085560676E+00
 0.5404793849811E+00
 0.5382925163429E+00
 0.5323218152915E+00
 0.5239654638327E+00
 0.5141161273409E+00
 0.5033124537758E+00
 0.4918665375198E+00
 0.4799492850806E+00
 0.4676426384031E+00
 0.4549701846758E+00
 0.4419145239843E+00
 0.4284266634209E+00
 0.4144311869561E+00
 0.3998287088219E+00
 0.3844989148089E+00
 0.3683070889673E+00
 0.3511159288146E+00
 0.3328025804990E+00
 0.3132802331998E+00
 0.2925353514107E+00
 0.2706109052698E+00
 0.2475271970697E+00
 0.2232361628754E+00
 0.1976329801263E+00
 0.1706211883632E+00
 0.1422372122474E+00
 0.1128917491858E+00
 0.8395890204609E-01
 0.5949174862688E-01
 0.4944632635896E-01
 0.5966099393678E-01
 0.7698242409848E-01
 0.8882844734605E-01
 0.8965232232625E-01
 0.8079082856345E-01
 0.7020394279582E-01
 0.4812525232773E+00
 0.5201332000929E+00
 0.5530545805533E+00
 0.5753078451508E+00
 0.5866060284943E+00
 0.5892709198972E+00
 0.5860823374103E+00
 0.5792229037976E+00
 0.5701183423747E+00
 0.5596194968585E+00
 0.5482115130943E+00
 0.5361616394407E+00
 0.5236086076253E+00
 0.5106135487985E+00
 0.4971881948771E+00
 0.4833100706758E+00
 0.4689301981173E+00
 0.4539769450956E+00
 0.4383571946350E+00
 0.4219580354416E+00
 0.4046522417268E+00
 0.3863104665393E+00
 0.3668213706469E+00
 0.3461184953117E+00
 0.3242221211872E+00
 0.3012196922149E+00
 0.2771762413413E+00
 0.2520782303103E+00
 0.2258363757115E+00
 0.1983381022789E+00
 0.1695410991113E+00
 0.1396270974925E+00
 0.1093087991498E+00
 0.8054937783343E-01
 0.5837068579195E-01
 0.5152690846622E-01
 0.5892167825299E-01
 0.6555656039859E-01
 0.6090285828437E-01
 0.4455306612423E-01
 0.2605529974740E-01
 0.5239433383876E+00
 0.5675151220660E+00
 0.6033779791144E+00
 0.6263625554279E+00
 0.6369428709541E+00
 0.6383921718858E+00
 0.6340408481479E+00
 0.6262364438028E+00
 0.6163814154111E+00
 0.6052526316649E+00
 0.5932658904981E+00
 0.5806369905791E+00
 0.5674703333659E+00
 0.5538059996932E+00
 0.5396443224426E+00
 0.5249583744164E+00
 0.5096998055254E+00
 0.4938013532077E+00
 0.4771767098935E+00
 0.4597206403294E+00
 0.4413128353185E+00
 0.4218297966483E+00
 0.4011680847152E+00
 0.3792777851207E+00
 0.3562107837748E+00
 0.3320990798107E+00
 0.3070544703005E+00
 0.2811022682795E+00
 0.2541776165355E+00
 0.2261704137756E+00
 0.1970002546148E+00
 0.1667222611183E+00
 0.1357094034623E+00
 0.1050095532087E+00
 0.7717208526496E-01
 0.5753358261666E-01
 0.5091101915004E-01
 0.4950040210171E-01
 0.3950485587464E-01
 0.2150560443752E-01
 0.2388613017986E-01
 0.5675658886732E+00
 0.6164235615564E+00
 0.6552485417253E+00
 0.6785030662872E+00
 0.6878471944818E+00
 0.6877513912576E+00
 0.6821004418787E+00
 0.6733263523813E+00
 0.6627431874795E+00
 0.6510202711441E+00
 0.6384903105823E+00
 0.6253132238226E+00
 0.6115585104521E+00
 0.5972459837744E+00
 0.5823656391399E+00
 0.5668870462785E+00
 0.5507632538267E+00
 0.5339320517604E+00
 0.5163146465264E+00
 0.4978140893121E+00
 0.4783168597574E+00
 0.4577033969620E+00
 0.4358740819979E+00
 0.4127906609034E+00
 0.3885331984190E+00
 0.3632772540900E+00
 0.3371824182030E+00
 0.3103162041750E+00
 0.2826459778262E+00
 0.2540802095632E+00
 0.2245315103642E+00
 0.1939908300864E+00
 0.1626387768658E+00
 0.1310414343845E+00
 0.1006008501905E+00
 0.7439405215856E-01
 0.5675623332379E-01
 0.4668390918335E-01
 0.3681308437238E-01
 0.4291928880476E-01
 0.6985355188950E-01
 0.6123416809142E+00
 0.6671840057375E+00
 0.7088649251847E+00
 0.7317140992281E+00
 0.7391930397753E+00
 0.7372255047408E+00
 0.7301833184215E+00
 0.7204567994007E+00
 0.7091958860626E+00
 0.6969314216847E+00
 0.6839033017667E+00
 0.6702140729280E+00
 0.6558996416639E+00
 0.6409614499119E+00
 0.6253808284713E+00
 0.6091250888892E+00
 0.5921495549663E+00
 0.5743977797262E+00
 0.5557992901344E+00
 0.5362663964515E+00
 0.5156928858391E+00
 0.4939617328817E+00
 0.4709727650993E+00
 0.4466932698701E+00
 0.4212264321644E+00
 0.3947887507646E+00
 0.3675870516404E+00
 0.3397330235980E+00
 0.3112331100138E+00
 0.2820294959394E+00
 0.2520556865903E+00
 0.2212869033396E+00
 0.1898002210811E+00
 0.1578723305094E+00
 0.1262519517758E+00
 0.9681535206115E-01
 0.7304626992961E-01
 0.5763179583312E-01
 0.5285129625196E-01
 0.7696050952324E-01
 0.1184385941322E+00
 0.6585816569894E+00
 0.7202209013733E+00
 0.7644258122882E+00
 0.7859010271078E+00
 0.7907826847901E+00
 0.7866597779858E+00
 0.7782064580148E+00
 0.7675962645786E+00
 0.7557379144991E+00
 0.7430007294949E+00
 0.7295278986470E+00
 0.7153666764192E+00
 0.7005227612440E+00
 0.6849822549545E+00
 0.6687200747638E+00
 0.6517027623725E+00
 0.6338888309713E+00
 0.6152282409172E+00
 0.5956596369439E+00
 0.5751058890650E+00
 0.5534694723575E+00
 0.5306354780441E+00
 0.5064988920049E+00
 0.4810251246003E+00
 0.4543332916452E+00
 0.4266758146019E+00
 0.3983037670017E+00
 0.3693730223003E+00
 0.3399349562398E+00
 0.3099803737493E+00
 0.2794910156234E+00
 0.2484710440560E+00
 0.2169647033837E+00
 0.1850770339067E+00
 0.1531173651283E+00
 0.1221194495769E+00
 0.9479823585084E-01
 0.7588448269126E-01
 0.7431111249708E-01
 0.1111894867784E+00
 0.1692676547987E+00
 0.7067376856743E+00
 0.7760928517311E+00
 0.8220946198834E+00
 0.8408379667731E+00
 0.8423292308424E+00
 0.8358739056345E+00
 0.8260900536182E+00
 0.8147225910537E+00
 0.8023765854015E+00
 0.7892499218100E+00
 0.7753923335747E+00
 0.7608018602289E+00
 0.7454594994854E+00
 0.7293401171614E+00
 0.7124149696463E+00
 0.6946514857284E+00
 0.6760122404191E+00
 0.6564540681351E+00
 0.6359253513095E+00
 0.6143610076741E+00
 0.5916746137635E+00
 0.5677546028660E+00
 0.5424876462609E+00
 0.5158287093485E+00
 0.4879029296425E+00
 0.4589901171893E+00
 0.4293789190421E+00
 0.3992666271923E+00
 0.3687543173666E+00
 0.3378965186708E+00
 0.3067510636940E+00
 0.2753957997008E+00
 0.2439098797386E+00
 0.2123270898295E+00
 0.1806644552159E+00
 0.1492520644303E+00
 0.1197606348694E+00
 0.9741819958959E-01
 0.9582017709246E-01
 0.1435202002906E+00
 0.2229473289276E+00
 0.7574928869007E+00
 0.8355367417414E+00
 0.8819214975003E+00
 0.8960908443292E+00
 0.8934475107554E+00
 0.8846789604979E+00
 0.8737692039978E+00
 0.8618285312206E+00
 0.8491309711724E+00
 0.8357091939549E+00
 0.8215306384799E+00
 0.8065543506416E+00
 0.7907440980806E+00
 0.7740685402857E+00
 0.7564984064900E+00
 0.7380037430838E+00
 0.7185519320654E+00
 0.6981068554799E+00
 0.6766268579327E+00
 0.6540602764290E+00
 0.6303352435099E+00
 0.6053472425780E+00
 0.5789732578787E+00
 0.5511486964953E+00
 0.5219914247632E+00
 0.4917948791321E+00
 0.4608729985349E+00
 0.4294578865500E+00
 0.3977040800119E+00
 0.3657456809442E+00
 0.3337452929544E+00
 0.3018998920423E+00
 0.2703932500993E+00
 0.2392905167460E+00
 0.2084678015809E+00
 0.1777201306458E+00
 0.1473972524291E+00
 0.1214746102967E+00
 0.1162785054812E+00
 0.1724902958107E+00
 0.2803955741710E+00
 0.8119284508641E+00
 0.8995116067481E+00
 0.9436768940543E+00
 0.9509140434584E+00
 0.9436716048245E+00
 0.9329089075999E+00
 0.9212067874594E+00
 0.9089272698968E+00
 0.8960347065237E+00
 0.8824183658752E+00
 0.8679830801051E+00
 0.8526628649000E+00
 0.8364133364687E+00
 0.8192026752149E+00
 0.8010044307463E+00
 0.7817929615358E+00
 0.7615409881157E+00
 0.7402192187684E+00
 0.7177955561195E+00
 0.6942325043274E+00
 0.6694768770614E+00
 0.6434382832342E+00
 0.6159868936745E+00
 0.5870304472016E+00
 0.5566622023669E+00
 0.5251674934898E+00
 0.4928646343561E+00
 0.4600087406180E+00
 0.4268111002914E+00
 0.3935030236637E+00
 0.3603815159939E+00
 0.3278075653217E+00
 0.2961403581781E+00
 0.2655870131892E+00
 0.2360515711199E+00
 0.2070761759012E+00
 0.1777778993713E+00
 0.1490772838112E+00
 0.1365656420104E+00
 0.1965300947262E+00
 0.3428833203099E+00
 0.8718518130540E+00
 0.9691983127978E+00
 0.1006502994178E+01
 0.1004146001176E+01
 0.9925333065523E+00
 0.9804627246858E+00
 0.9684036019836E+00
 0.9560581708118E+00
 0.9431383491563E+00
 0.9294276516859E+00
 0.9147963900450E+00
 0.8991700438795E+00
 0.8825063595425E+00
 0.8647791137419E+00
 0.8459680439536E+00
 0.8260533579324E+00
 0.8050133509254E+00
 0.7828248660403E+00
 0.7594641529660E+00
 0.7349073368759E+00
 0.7091236357955E+00
 0.6820477215767E+00
 0.6535534543638E+00
 0.6235173134690E+00
 0.5919861595903E+00
 0.5592028852849E+00
 0.5254557277994E+00
 0.4910042544084E+00
 0.4561207349071E+00
 0.4211551503142E+00
 0.3865698181664E+00
 0.3529319310693E+00
 0.3208423945842E+00
 0.2907669147738E+00
 0.2628236437797E+00
 0.2366450178680E+00
 0.2108341243393E+00
 0.1823099723686E+00
 0.1598380227460E+00
 0.2143654691175E+00
 0.4122305883428E+00
 0.9404966755768E+00
 0.1045777844156E+01
 0.1068202520828E+01
 0.1054227185780E+01
 0.1039741806020E+01
 0.1027330682415E+01
 0.1015406145695E+01
 0.1003293161401E+01
 0.9905103052053E+00
 0.9767981439718E+00
 0.9620236634373E+00
 0.9461222038402E+00
 0.9290643830728E+00
 0.9108355974038E+00
 0.8914249460299E+00
 0.8708197364009E+00
 0.8490037118930E+00
 0.8259586378104E+00
 0.8016670413207E+00
 0.7761162355178E+00
 0.7492990739769E+00
 0.7211890547677E+00
 0.6916867016529E+00
 0.6606458620118E+00
 0.6280412885118E+00
 0.5940180211692E+00
 0.5587781428789E+00
 0.5225590109303E+00
 0.4857019822298E+00
 0.4487044812045E+00
 0.4122277124242E+00
 0.3770812215221E+00
 0.3441631216912E+00
 0.3143023073340E+00
 0.2880528787061E+00
 0.2654306342746E+00
 0.2456414511031E+00
 0.2233848088962E+00
 0.1926898648250E+00
 0.2270084207482E+00
 0.4914059711065E+00
 0.1024189748087E+01
 0.1129252332876E+01
 0.1123925361677E+01
 0.1099762634648E+01
 0.1085399881297E+01
 0.1073561685482E+01
 0.1062330892541E+01
 0.1050736594313E+01
 0.1038237524852E+01
 0.1024601691464E+01
 0.1009723894283E+01
 0.9935689164206E+00
 0.9761302741423E+00
 0.9574106547683E+00
 0.9374112281208E+00
 0.9161272481780E+00
 0.8935473677804E+00
 0.8696565217303E+00
 0.8444406182668E+00
 0.8178938176599E+00
 0.7900285357381E+00
 0.7608685875579E+00
 0.7303818465614E+00
 0.6984373803327E+00
 0.6649116376566E+00
 0.6297584191914E+00
 0.5930025839322E+00
 0.5548248982133E+00
 0.5156532911438E+00
 0.4761734813185E+00
 0.4372858929871E+00
 0.4000682704014E+00
 0.3657512625777E+00
 0.3356031924461E+00
 0.3108282557836E+00
 0.2922266274415E+00
 0.2799739829981E+00
 0.2722127346640E+00
 0.2461373552476E+00
 0.2438062875216E+00
 0.5868826954587E+00
 0.1137004430662E+01
 0.1212815618942E+01
 0.1164986489551E+01
 0.1141538626290E+01
 0.1129657915743E+01
 0.1119335666211E+01
 0.1109370657853E+01
 0.1098520778751E+01
 0.1086426784456E+01
 0.1072919344269E+01
 0.1057961387171E+01
 0.1041562279016E+01
 0.1023748004505E+01
 0.1004543122938E+01
 0.9839629832308E+00
 0.9620110773868E+00
 0.9386799855078E+00
 0.9139555967254E+00
 0.8878234444798E+00
 0.8602789342321E+00
 0.8313437382717E+00
 0.8010882106829E+00
 0.7696041057888E+00
 0.7368820347941E+00
 0.7026858219074E+00
 0.6666081741350E+00
 0.6283503442719E+00
 0.5880004523697E+00
 0.5461089424819E+00
 0.5036086950675E+00
 0.4616917827218E+00
 0.4217259202416E+00
 0.3852542257458E+00
 0.3540546815094E+00
 0.3300666690404E+00
 0.3155186277226E+00
 0.3113787612756E+00
 0.3218899479449E+00
 0.3321414603231E+00
 0.2958352587817E+00
 0.7199977860244E+00
 0.1317299893025E+01
 0.1252072554686E+01
 0.1191385270759E+01
 0.1181657686954E+01
 0.1172456326049E+01
 0.1165153633573E+01
 0.1156724551732E+01
 0.1146823796371E+01
 0.1135196944900E+01
 0.1121841266857E+01
 0.1106804187893E+01
 0.1090156104984E+01
 0.1071961912318E+01
 0.1052271572616E+01
 0.1031115806417E+01
 0.1008506087409E+01
 0.9844372155677E+00
 0.9588938889909E+00
 0.9318563198591E+00
 0.9033148564449E+00
 0.8732877063694E+00
 0.8418599170101E+00
 0.8092709766709E+00
 0.7759062122900E+00
 0.7414585397739E+00
 0.7048054513661E+00
 0.6651088483730E+00
 0.6223419021450E+00
 0.5772457832386E+00
 0.5310847838490E+00
 0.4854100214826E+00
 0.4419166046972E+00
 0.4023719526856E+00
 0.3689749402489E+00
 0.3447773438320E+00
 0.3329736135626E+00
 0.3383776278388E+00
 0.3615874909637E+00
 0.4362333502028E+00
 0.4498147566610E+00
 0.1003561793708E+01
 0.2553579110085E+00
 0.3716591270565E+00
 0.4828175225815E+00
 0.5845320524233E+00
 0.6753250121906E+00
 0.7550895657868E+00
 0.8241140847132E+00
 0.8830531967043E+00
 0.9329653572009E+00
 0.9750553906167E+00
 0.1010470587844E+01
 0.1040254783097E+01
 0.1065358525803E+01
 0.1086625942787E+01
 0.1104770690471E+01
 0.1120364552443E+01
 0.1133758067826E+01
 0.1145109661905E+01
 0.1154621787152E+01
 0.1162364873893E+01
 0.2436246029408E+00
 0.3565135607372E+00
 0.4647858279570E+00
 0.5646360697427E+00
 0.6545367215656E+00
 0.7341992539009E+00
 0.8037999470850E+00
 0.8638629443381E+00
 0.9152741392427E+00
 0.9590802649327E+00
 0.9963159580095E+00
 0.1027949206411E+01
 0.1054879023426E+01
 0.1077919945035E+01
 0.1097778097312E+01
 0.1115019546051E+01
 0.1129996783735E+01
 0.1142925931280E+01
 0.1153940259581E+01
 0.1162842704429E+01
 0.2327029992420E+00
 0.3424810262455E+00
 0.4480830203351E+00
 0.5460501205831E+00
 0.6348985265499E+00
 0.7142223286047E+00
 0.7840978329490E+00
 0.8449496262802E+00
 0.8975267436595E+00
 0.9427406829087E+00
 0.9815215207835E+00
 0.1014763363199E+01
 0.1043312756954E+01
 0.1067949721539E+01
 0.1089357880733E+01
 0.1108086294744E+01
 0.1124500876867E+01
 0.1138823659921E+01
 0.1151158992654E+01
 0.1161436397602E+01
 0.2224845112923E+00
 0.3294429031460E+00
 0.4325149900403E+00
 0.5285901002469E+00
 0.6162480292388E+00
 0.6950192862016E+00
 0.7649062484584E+00
 0.8262515155654E+00
 0.8796930520182E+00
 0.9260277395291E+00
 0.9660913547243E+00
 0.1000706914700E+01
 0.1030667453525E+01
 0.1056713200092E+01
 0.1079498357419E+01
 0.1099553798683E+01
 0.1117247176950E+01
 0.1132810433842E+01
 0.1146388677930E+01
 0.1158063060076E+01
 0.2129008607848E+00
 0.3172629298404E+00
 0.4179235655826E+00
 0.5120914470195E+00
 0.5984391001669E+00
 0.6764689380782E+00
 0.7461330012265E+00
 0.8077079406776E+00
 0.8617399700916E+00
 0.9089286496686E+00
 0.9500254620975E+00
 0.9857859857692E+00
 0.1016949409410E+01
 0.1044213463981E+01
 0.1068200430194E+01
 0.1089421133953E+01
 0.1108244288523E+01
 0.1124924465859E+01
 0.1139660932562E+01
 0.1152663441418E+01
 0.2038923704093E+00
 0.3058285419593E+00
 0.4041670142048E+00
 0.4964109824454E+00
 0.5813418943808E+00
 0.6584629400370E+00
 0.7276945459268E+00
 0.7892614505261E+00
 0.8436339746784E+00
 0.8914286235726E+00
 0.9333217327099E+00
 0.9700055851845E+00
 0.1002166510358E+01
 0.1030459213998E+01
 0.1055473476381E+01
 0.1077701185034E+01
 0.1097514514595E+01
 0.1115194031853E+01
 0.1130989763363E+01
 0.1145202120844E+01
 0.1954075831447E+00
 0.2950420183799E+00
 0.3911227561018E+00
 0.4814226253082E+00
 0.5648416247418E+00
 0.6409044263503E+00
 0.7095152759408E+00
 0.7708588974964E+00
 0.8253429156697E+00
 0.8735127550107E+00
 0.9159778079260E+00
 0.9533715441351E+00
 0.9863295351448E+00
 0.1015464421297E+01
 0.1041334603164E+01
 0.1064415198894E+01
 0.1085082934473E+01
 0.1103642837218E+01
 0.1120385261110E+01
 0.1135665108949E+01
 0.1874017020387E+00
 0.2848191145323E+00
 0.3786844308643E+00
 0.4670161559215E+00
 0.5488368144166E+00
 0.6237071374962E+00
 0.6915272715700E+00
 0.7524520010343E+00
 0.8068372503420E+00
 0.8551674921402E+00
 0.8979925550408E+00
 0.9358917395534E+00
 0.9694527202907E+00
 0.9992480707390E+00
 0.1025806759218E+01
 0.1049589059891E+01
 0.1070976018238E+01
 0.1090293057845E+01
 0.1107859123005E+01
 0.1124054106548E+01
 0.1798356711478E+00
 0.2750871193653E+00
 0.3667599993313E+00
 0.4530953997933E+00
 0.5332381464113E+00
 0.6067946264514E+00
 0.6736700905325E+00
 0.7339977061330E+00
 0.7880908681001E+00
 0.8363816992815E+00
 0.8793671021974E+00
 0.9175768526313E+00
 0.9515540268463E+00
 0.9818336650640E+00
 0.1008917422522E+01
 0.1033252086137E+01
 0.1055221854616E+01
 0.1075167788086E+01
 0.1093426940878E+01
 0.1110383196919E+01
 0.1726753776917E+00
 0.2657833999144E+00
 0.3552700124980E+00
 0.4395767879533E+00
 0.5179674425316E+00
 0.5900996980791E+00
 0.6558906156610E+00
 0.7154584686988E+00
 0.7690817210506E+00
 0.8171474594456E+00
 0.8601056049316E+00
 0.8984409089603E+00
 0.9326552936666E+00
 0.9632489398405E+00
 0.9906981403568E+00
 0.1015436958848E+01
 0.1037851101117E+01
 0.1058292815948E+01
 0.1077109556830E+01
 0.1094676688115E+01
 0.1658909206207E+00
 0.2568540902101E+00
 0.3441461019227E+00
 0.4263880295794E+00
 0.5029567231429E+00
 0.5735638399339E+00
 0.6381428378257E+00
 0.6968023701981E+00
 0.7497922041548E+00
 0.7974605855083E+00
 0.8402157336340E+00
 0.8785016077962E+00
 0.9127823385223E+00
 0.9435258053553E+00
 0.9711845644276E+00
 0.9961802173431E+00
 0.1018898139896E+01
 0.1039698084883E+01
 0.1058933346121E+01
 0.1076966775240E+01
 0.1594559826738E+00
 0.2482529744200E+00
 0.3333296894071E+00
 0.4134669734423E+00
 0.4881473808788E+00
 0.5571367159232E+00
 0.6203876392206E+00
 0.6780031672214E+00
 0.7302094098789E+00
 0.7773209789218E+00
 0.8197090247216E+00
 0.8577805846045E+00
 0.8919651223131E+00
 0.9227005101512E+00
 0.9504168173347E+00
 0.9755230416031E+00
 0.9984023458312E+00
 0.1019419025820E+01
 0.1038930082408E+01
 0.1057288398531E+01
 0.1533472732318E+00
 0.2399405049599E+00
 0.3227708517983E+00
 0.4007605849314E+00
 0.4734894086568E+00
 0.5407756570907E+00
 0.6025925237410E+00
 0.6590402352188E+00
 0.7103252349571E+00
 0.7567328236515E+00
 0.7986010864307E+00
 0.8363035864667E+00
 0.8702379128267E+00
 0.9008138866943E+00
 0.9284399658179E+00
 0.9535120839104E+00
 0.9764093006629E+00
 0.9974979693015E+00
 0.1017137784734E+01
 0.1035677094872E+01
 0.1475440365673E+00
 0.2318829287343E+00
 0.3124273061919E+00
 0.3882240110977E+00
 0.4589406636720E+00
 0.5244451424291E+00
 0.5847312976506E+00
 0.6398984259331E+00
 0.6901363739777E+00
 0.7357046607432E+00
 0.7769117052980E+00
 0.8141005917119E+00
 0.8476394454905E+00
 0.8779116287362E+00
 0.9053045143830E+00
 0.9302002571995E+00
 0.9529719170809E+00
 0.9739856647437E+00
 0.9936032122719E+00
 0.1012173603784E+01
 0.1420276413901E+00
 0.2240515335265E+00
 0.3022635253112E+00
 0.3758197516340E+00
 0.4444661964636E+00
 0.5081163064967E+00
 0.5667837439324E+00
 0.6205678884513E+00
 0.6696442546802E+00
 0.7142493975320E+00
 0.7546648973570E+00
 0.7912058963158E+00
 0.8242130717353E+00
 0.8540445573922E+00
 0.8810668536331E+00
 0.9056474144319E+00
 0.9281513869787E+00
 0.9489426296421E+00
 0.9683841044152E+00
 0.9868290254402E+00
 0.1367812161903E+00
 0.2164219647410E+00
 0.2922499236128E+00
 0.3635168741256E+00
 0.4300375861122E+00
 0.4917664181572E+00
 0.5487352384914E+00
 0.6010438074363E+00
 0.6488548733161E+00
 0.6923842109728E+00
 0.7318888584339E+00
 0.7676581095431E+00
 0.8000068214109E+00
 0.8292687885141E+00
 0.8557895725108E+00
 0.8799208326065E+00
 0.9020178600511E+00
 0.9224400687352E+00
 0.9415504840713E+00
 0.9597077988815E+00
 0.1317893441943E+00
 0.2089736236701E+00
 0.2823621279709E+00
 0.3512902953762E+00
 0.4156323129080E+00
 0.4753783693911E+00
 0.5305763527561E+00
 0.5813261072077E+00
 0.6277785802449E+00
 0.6701303923285E+00
 0.7086158524431E+00
 0.7435000847577E+00
 0.7750733905440E+00
 0.8036458013029E+00
 0.8295416298335E+00
 0.8530954986204E+00
 0.8746508494022E+00
 0.8945604173386E+00
 0.9131855193779E+00
 0.9308896071101E+00
 0.1270377997838E+00
 0.2016891257694E+00
 0.2725803080611E+00
 0.3391201062441E+00
 0.4012331505996E+00
 0.4589401607975E+00
 0.5123024332605E+00
 0.5614191157945E+00
 0.6064298120195E+00
 0.6475131289328E+00
 0.6848820297376E+00
 0.7187787716287E+00
 0.7494700351258E+00
 0.7772423868133E+00
 0.8023983677995E+00
 0.8252541893282E+00
 0.8461393800250E+00
 0.8653976089166E+00
 0.8833861160400E+00
 0.9004706755620E+00
 0.1225133195331E+00
 0.1945538051846E+00
 0.2628885520354E+00
 0.3269909271095E+00
 0.3868275685756E+00
 0.4424443767632E+00
 0.4939131528788E+00
 0.5413311844981E+00
 0.5848267649405E+00
 0.6245612153571E+00
 0.6607271631169E+00
 0.6935449715447E+00
 0.7232583477753E+00
 0.7501304513809E+00
 0.7744413460891E+00
 0.7964873356325E+00
 0.8165818890151E+00
 0.8350570732105E+00
 0.8522631958644E+00
 0.8685645688463E+00
 0.1182034087368E+00
 0.1875552687164E+00
 0.2532742926150E+00
 0.3148913048020E+00
 0.3724071608405E+00
 0.4258876720495E+00
 0.4754120587977E+00
 0.5210742899054E+00
 0.5629910371154E+00
 0.6013067190900E+00
 0.6361943229149E+00
 0.6678530131285E+00
 0.6965039302095E+00
 0.7223866862269E+00
 0.7457580099848E+00
 0.7668926926681E+00
 0.7860859085561E+00
 0.8036554629107E+00
 0.8199415933801E+00
 0.8353024581962E+00
 0.1140961690470E+00
 0.1806829801263E+00
 0.2437277627464E+00
 0.3028131302961E+00
 0.3579670828646E+00
 0.4092702527017E+00
 0.4568061016625E+00
 0.5006636040035E+00
 0.5409472253072E+00
 0.5777845868612E+00
 0.6113294765101E+00
 0.6417603323479E+00
 0.6692759459493E+00
 0.6940920890140E+00
 0.7164411818191E+00
 0.7365748094190E+00
 0.7547675366204E+00
 0.7713201344251E+00
 0.7865594990018E+00
 0.8008327150431E+00
 0.1101801463590E+00
 0.1739278736021E+00
 0.2342414814566E+00
 0.2907510815482E+00
 0.3435055047251E+00
 0.3925953630183E+00
 0.4381051599085E+00
 0.4801170476990E+00
 0.5187224921493E+00
 0.5540322064304E+00
 0.5861810255317E+00
 0.6153269686087E+00
 0.6416465628157E+00
 0.6653313453600E+00
 0.6865883810174E+00
 0.7056442997058E+00
 0.7227506895212E+00
 0.7381884576204E+00
 0.7522677834288E+00
 0.7653202965561E+00
 0.1064441931699E+00
 0.1672819900233E+00
 0.2248097641466E+00
 0.2787020881767E+00
 0.3290230802877E+00
 0.3758687809729E+00
 0.4193215636650E+00
 0.4594548335426E+00
 0.4963461103483E+00
 0.5300889306977E+00
 0.5607992874004E+00
 0.5886149830011E+00
 0.6136902907893E+00
 0.6361920745283E+00
 0.6563009741850E+00
 0.6742169060386E+00
 0.6901661200104E+00
 0.7044068816587E+00
 0.7172294998441E+00
 0.7289463652311E+00
 0.1028773392330E+00
 0.1607381284731E+00
 0.2154282504360E+00
 0.2666648132310E+00
 0.3145224303956E+00
 0.3590983224993E+00
 0.4004696206082E+00
 0.4386990016345E+00
 0.4738489891155E+00
 0.5059955703069E+00
 0.5352359280184E+00
 0.5616878059718E+00
 0.5854832225937E+00
 0.6067639458433E+00
 0.6256831576946E+00
 0.6424123513098E+00
 0.6571501564784E+00
 0.6701296280292E+00
 0.6816185950313E+00
 0.6919074783042E+00
 0.9946866584660E-01
 0.1542895073527E+00
 0.2060934450439E+00
 0.2546391501398E+00
 0.3000076411262E+00
 0.3422933582344E+00
 0.3815651493707E+00
 0.4178729560113E+00
 0.4512631916113E+00
 0.4817938647687E+00
 0.5095433566126E+00
 0.5346095261269E+00
 0.5571021890759E+00
 0.5771376770548E+00
 0.5948407806795E+00
 0.6103529741178E+00
 0.6238431442429E+00
 0.6355168980982E+00
 0.6456177065155E+00
 0.6544129302110E+00
 0.9620718241289E-01
 0.1479294341983E+00
 0.1968022737585E+00
 0.2426257412943E+00
 0.2854837877891E+00
 0.3254643566966E+00
 0.3626250369536E+00
 0.3970010200127E+00
 0.4286214637392E+00
 0.4575259540124E+00
 0.4837741057612E+00
 0.5074441438303E+00
 0.5286238533102E+00
 0.5474039384278E+00
 0.5638800292499E+00
 0.5781621608216E+00
 0.5903875842150E+00
 0.6007326504056E+00
 0.6094154585335E+00
 0.6166812191834E+00
 0.9308169155581E-01
 0.1416509669481E+00
 0.1875516361454E+00
 0.2306255005698E+00
 0.2709564682174E+00
 0.3086224384663E+00
 0.3436668057053E+00
 0.3761079977706E+00
 0.4059567638855E+00
 0.4332338430474E+00
 0.4579801924337E+00
 0.4802547882699E+00
 0.5001237450268E+00
 0.5176521681956E+00
 0.5329059831232E+00
 0.5459625869142E+00
 0.5569259761428E+00
 0.5659419531362E+00
 0.5732032090246E+00
 0.5789357024093E+00
 0.9008064709852E-01
 0.1354465710547E+00
 0.1783379659466E+00
 0.2186391583883E+00
 0.2564313703431E+00
 0.2917789705556E+00
 0.3247082218012E+00
 0.3552187763114E+00
 0.3833018311864E+00
 0.4089589007417E+00
 0.4322125038240E+00
 0.4531029429509E+00
 0.4716752803581E+00
 0.4879693461351E+00
 0.5020210994640E+00
 0.5138743376174E+00
 0.5235984383629E+00
 0.5313079113456E+00
 0.5371710417898E+00
 0.5413989733596E+00
 0.8719199108970E-01
 0.1293077573120E+00
 0.1691567859715E+00
 0.2066668203159E+00
 0.2419138677934E+00
 0.2749451951101E+00
 0.3057669386173E+00
 0.3343579617749E+00
 0.3606887880873E+00
 0.3847413926691E+00
 0.4065202122353E+00
 0.4260476859651E+00
 0.4433487725412E+00
 0.4584387313670E+00
 0.4713236413226E+00
 0.4820129601896E+00
 0.4905402053714E+00
 0.4969882501965E+00
 0.5015029450589E+00
 0.5042859006890E+00
 0.8440295858936E-01
 0.1232246827005E+00
 0.1600022449400E+00
 0.1947075329709E+00
 0.2274086413640E+00
 0.2581318906208E+00
 0.2868601719395E+00
 0.3135495471728E+00
 0.3381487790648E+00
 0.3606200584948E+00
 0.3809502395583E+00
 0.3991449724355E+00
 0.4152104611945E+00
 0.4291385889142E+00
 0.4409060832300E+00
 0.4504875236715E+00
 0.4578791993457E+00
 0.4631319499400E+00
 0.4663717143282E+00
 0.4677968456370E+00
 0.8169984777181E-01
 0.1171857148138E+00
 0.1508666530072E+00
 0.1827588920375E+00
 0.2129193719254E+00
 0.2413491136796E+00
 0.2680044533134E+00
 0.2928166571895E+00
 0.3157116951273E+00
 0.3366317939159E+00
 0.3555468455101E+00
 0.3724470432598E+00
 0.3873216409104E+00
 0.4001409679264E+00
 0.4108535419030E+00
 0.4193987598122E+00
 0.4257338729480E+00
 0.4298765720413E+00
 0.4319351389623E+00
 0.4321142750358E+00
 0.7906771788902E-01
 0.1111769106315E+00
 0.1417399761232E+00
 0.1708166623350E+00
 0.1984484746587E+00
 0.2246059813818E+00
 0.2492154083708E+00
 0.2721813078695E+00
 0.2934059215999E+00
 0.3128113866941E+00
 0.3303513125813E+00
 0.3460019579631E+00
 0.3597378918760E+00
 0.3715105062518E+00
 0.3812421613968E+00
 0.3888372043288E+00
 0.3942113241290E+00
 0.3973464767306E+00
 0.3983345690297E+00
 0.3974020050837E+00
 0.7649000163876E-01
 0.1051813960346E+00
 0.1326093163926E+00
 0.1588744707923E+00
 0.1839969472371E+00
 0.2079105565536E+00
 0.2305076072048E+00
 0.2516642156676E+00
 0.2712581395402E+00
 0.2891913457497E+00
 0.3054017965670E+00
 0.3198533636153E+00
 0.3325085483260E+00
 0.3433033488186E+00
 0.3521374280218E+00
 0.3588812112239E+00
 0.3634055418160E+00
 0.3656516404159E+00
 0.3656939973556E+00
 0.3638009317390E+00
 0.7394796243760E-01
 0.9917858275899E-01
 0.1234583701111E+00
 0.1469236160843E+00
 0.1695643722552E+00
 0.1912698560145E+00
 0.2118944807599E+00
 0.2312846402778E+00
 0.2492931606558E+00
 0.2658018112335E+00
 0.2807333696947E+00
 0.2940406194987E+00
 0.3056766182284E+00
 0.3155663927766E+00
 0.3235924182075E+00
 0.3295945989836E+00
 0.3333954570602E+00
 0.3348869022566E+00
 0.3341190410507E+00
 0.3314242029933E+00
 0.7141989802112E-01
 0.9314310259571E-01
 0.1142669012460E+00
 0.1349530649610E+00
 0.1551491400119E+00
 0.1746899610017E+00
 0.1933882550876E+00
 0.2110601861926E+00
 0.2275337060248E+00
 0.2426704329766E+00
 0.2563781438153E+00
 0.2685992604890E+00
 0.2792793723456E+00
 0.2883371694303E+00
 0.2956460567254E+00
 0.3010232528565E+00
 0.3042418648001E+00
 0.3051313097928E+00
 0.3036980263782E+00
 0.3003566243836E+00
 0.6887984611099E-01
 0.8704341731306E-01
 0.1050103091320E+00
 0.1229499981256E+00
 0.1407490036803E+00
 0.1581763303944E+00
 0.1749999237053E+00
 0.1910066305605E+00
 0.2060001731895E+00
 0.2198222204109E+00
 0.2323654447773E+00
 0.2435617820982E+00
 0.2533499242385E+00
 0.2616454250815E+00
 0.2683221124810E+00
 0.2731903974044E+00
 0.2759809098897E+00
 0.2764467295905E+00
 0.2745073904202E+00
 0.2706610789258E+00
 0.6629541135010E-01
 0.8083923197191E-01
 0.9566023022908E-01
 0.1109009210207E+00
 0.1263622539586E+00
 0.1417339300173E+00
 0.1567391825269E+00
 0.1711376725815E+00
 0.1847102394934E+00
 0.1972791616716E+00
 0.2087217170449E+00
 0.2189583578698E+00
 0.2279193470921E+00
 0.2355172402646E+00
 0.2416323133577E+00
 0.2460898353056E+00
 0.2486109948565E+00
 0.2488685974357E+00
 0.2466237689559E+00
 0.2424001745205E+00
 0.6362194450788E-01
 0.7448078751430E-01
 0.8618509270671E-01
 0.9879675359063E-01
 0.1119878246338E+00
 0.1253673247216E+00
 0.1386145665126E+00
 0.1514647044597E+00
 0.1636783577286E+00
 0.1750596725180E+00
 0.1854701296430E+00
 0.1948170472049E+00
 0.2030188799157E+00
 0.2099803471550E+00
 0.2155880504943E+00
 0.2196912734345E+00
 0.2220573544935E+00
 0.2223792055734E+00
 0.2201300323929E+00
 0.2156911873104E+00
 0.6079486263171E-01
 0.6788759222266E-01
 0.7657733101010E-01
 0.8663217341422E-01
 0.9762359593985E-01
 0.1090815511791E+00
 0.1206341594933E+00
 0.1319963573927E+00
 0.1429150193267E+00
 0.1531780649696E+00
 0.1626298245534E+00
 0.1711631285864E+00
 0.1786805384942E+00
 0.1850700389485E+00
 0.1902121040001E+00
 0.1939797958827E+00
 0.1961756163969E+00
 0.1967294099035E+00
 0.1951332385708E+00
 0.1908430821243E+00
 0.5759261992415E-01
 0.6112098799314E-01
 0.6686504616758E-01
 0.7438960441564E-01
 0.8326527098961E-01
 0.9288779185332E-01
 0.1028057649101E+00
 0.1127363140987E+00
 0.1224264464849E+00
 0.1316437539299E+00
 0.1402148425660E+00
 0.1480172334609E+00
 0.1549348488353E+00
 0.1608297976103E+00
 0.1655543256804E+00
 0.1689724126952E+00
 0.1709204116941E+00
 0.1713994628305E+00
 0.1708645818999E+00
 0.1693905992994E+00
 0.1761167872169E+01
 0.1726799854561E+01
 0.1298626990446E+01
 0.1060634398350E+01
 0.8430883856128E+00
 0.6454133650676E+00
 0.5066192421020E+00
 0.4336101134734E+00
 0.3881661984507E+00
 0.3482032513936E+00
 0.3077206533904E+00
 0.2655424104072E+00
 0.2208256581740E+00
 0.1735718132447E+00
 0.1253738119740E+00
 0.7821357454025E-01
 0.3168147696975E-01
 0.1990798712382E-02
 0.3582743789288E-02
 0.2199029486289E-01
 0.1506246632860E+01
 0.1810918729688E+01
 0.1423133413119E+01
 0.1136778546144E+01
 0.9258230480671E+00
 0.7487588443459E+00
 0.6158247145580E+00
 0.5287240850791E+00
 0.4695038672895E+00
 0.4222144276036E+00
 0.3789620831078E+00
 0.3363348256980E+00
 0.2923821083439E+00
 0.2464659659040E+00
 0.1992253959046E+00
 0.1512714306432E+00
 0.1012001307531E+00
 0.6442932647257E-01
 0.5349145591545E-01
 0.7539625355498E-01
 0.1294899960551E+01
 0.1693623071039E+01
 0.1489165739486E+01
 0.1217868268692E+01
 0.1005655431186E+01
 0.8397057770765E+00
 0.7128575793609E+00
 0.6217795438449E+00
 0.5545159410093E+00
 0.5006633132115E+00
 0.4538062424979E+00
 0.4100010901632E+00
 0.3665478273384E+00
 0.3220087921172E+00
 0.2762400530054E+00
 0.2292727794057E+00
 0.1800159006244E+00
 0.1407578699771E+00
 0.1268750395315E+00
 0.1494992663902E+00
 0.1128023539652E+01
 0.1549755455019E+01
 0.1479030576670E+01
 0.1277736012553E+01
 0.1080444948981E+01
 0.9220771085895E+00
 0.8005482762057E+00
 0.7094636409272E+00
 0.6389198957737E+00
 0.5810389680622E+00
 0.5311560059027E+00
 0.4859819310757E+00
 0.4427673512522E+00
 0.3995924725367E+00
 0.3557506876678E+00
 0.3110285970153E+00
 0.2645032609505E+00
 0.2257347616915E+00
 0.2112203493756E+00
 0.2346663913161E+00
 0.9925610057384E+00
 0.1408482852749E+01
 0.1430095967037E+01
 0.1303246530476E+01
 0.1141286521432E+01
 0.9959099568125E+00
 0.8802136099605E+00
 0.7910844244592E+00
 0.7201468419798E+00
 0.6607479110290E+00
 0.6092413304130E+00
 0.5631750153173E+00
 0.5202391957050E+00
 0.4784503830584E+00
 0.4368155942485E+00
 0.3949656355165E+00
 0.3521129053363E+00
 0.3154000884069E+00
 0.3012926454512E+00
 0.3248432630318E+00
 0.8805850515162E+00
 0.1277938478252E+01
 0.1361819332480E+01
 0.1300390910806E+01
 0.1181661099092E+01
 0.1057876130302E+01
 0.9514215584657E+00
 0.8661234324102E+00
 0.7967479726386E+00
 0.7377873546001E+00
 0.6861934184246E+00
 0.6401324429151E+00
 0.5978547803264E+00
 0.5576031390605E+00
 0.5183333714597E+00
 0.4796138103329E+00
 0.4407360130328E+00
 0.4067873311043E+00
 0.3934843715422E+00
 0.4162530742251E+00
 0.7867263035672E+00
 0.1159869621040E+01
 0.1284911464875E+01
 0.1276762279658E+01
 0.1201383281854E+01
 0.1104733411593E+01
 0.1012279576081E+01
 0.9335128623115E+00
 0.8675385134581E+00
 0.8106263015185E+00
 0.7603466093812E+00
 0.7153230377916E+00
 0.6743088703702E+00
 0.6358895008229E+00
 0.5991249434585E+00
 0.5635974592067E+00
 0.5286591058586E+00
 0.4977067923864E+00
 0.4852810492866E+00
 0.5064488170874E+00
 0.7072128009358E+00
 0.1054038751334E+01
 0.1205315352053E+01
 0.1238809249107E+01
 0.1202923780703E+01
 0.1135413731086E+01
 0.1060801823511E+01
 0.9917031705775E+00
 0.9312208019355E+00
 0.8779128087249E+00
 0.8302392613649E+00
 0.7872829335694E+00
 0.7482378053790E+00
 0.7120531143152E+00
 0.6779679343427E+00
 0.6456302632028E+00
 0.6144588378610E+00
 0.5865029754603E+00
 0.5748816152063E+00
 0.5937913656540E+00
 0.6392746129533E+00
 0.9595467552581E+00
 0.1126404790498E+01
 0.1191441942947E+01
 0.1189557541921E+01
 0.1150526927104E+01
 0.1095920423261E+01
 0.1039223415091E+01
 0.9864197215600E+00
 0.9383321552323E+00
 0.8945296515918E+00
 0.8546476855580E+00
 0.8183084630721E+00
 0.7848230780324E+00
 0.7536398975504E+00
 0.7245016504083E+00
 0.6969104092017E+00
 0.6718686384441E+00
 0.6609441379034E+00
 0.6771378850384E+00
 0.5808077384663E+00
 0.8753100407463E+00
 0.1050100075644E+01
 0.1138275103405E+01
 0.1164515510175E+01
 0.1151642685921E+01
 0.1117572016215E+01
 0.1075134714541E+01
 0.1031935352872E+01
 0.9906477751715E+00
 0.9519662583456E+00
 0.9161480586014E+00
 0.8832571570618E+00
 0.8529683986543E+00
 0.8249547927407E+00
 0.7990715304353E+00
 0.7749228351179E+00
 0.7527177937078E+00
 0.7424175982393E+00
 0.7556456448528E+00
 0.5301704047820E+00
 0.8002389260418E+00
 0.9774668405540E+00
 0.1081934581591E+01
 0.1130666676893E+01
 0.1140748297132E+01
 0.1126464637619E+01
 0.1099149979474E+01
 0.1066957785682E+01
 0.1033832875413E+01
 0.1001434492879E+01
 0.9706272284598E+00
 0.9419135385180E+00
 0.9153314759733E+00
 0.8907898022406E+00
 0.8682710919610E+00
 0.8475005140312E+00
 0.8281048188180E+00
 0.8184328202401E+00
 0.8286492106868E+00
 0.4860542485965E+00
 0.7333044178395E+00
 0.9090502183179E+00
 0.1024313358844E+01
 0.1090433841849E+01
 0.1119916927188E+01
 0.1123794276699E+01
 0.1111562480686E+01
 0.1091147070936E+01
 0.1067183470650E+01
 0.1042037630720E+01
 0.1017088023284E+01
 0.9932333315294E+00
 0.9708571452594E+00
 0.9501078915838E+00
 0.9311090389342E+00
 0.9137246400758E+00
 0.8971773251770E+00
 0.8882351564406E+00
 0.8955870894339E+00
 0.4473993224214E+00
 0.6735602449004E+00
 0.8450693975353E+00
 0.9667637122918E+00
 0.1045806039137E+01
 0.1091125748786E+01
 0.1111010776812E+01
 0.1113102482597E+01
 0.1104609761707E+01
 0.1090367026036E+01
 0.1073163350137E+01
 0.1054749587941E+01
 0.1036341679840E+01
 0.1018626746549E+01
 0.1001983435712E+01
 0.9866850129844E+00
 0.9727500722223E+00
 0.9591530763818E+00
 0.9511464723601E+00
 0.9559619284134E+00
 0.4133357998347E+00
 0.6201465617248E+00
 0.7855353296068E+00
 0.9102371258055E+00
 0.9983856333158E+00
 0.1056167093312E+01
 0.1089650587318E+01
 0.1104788856005E+01
 0.1107821420344E+01
 0.1103412430805E+01
 0.1094513323306E+01
 0.1083090535477E+01
 0.1070575898291E+01
 0.1057895997484E+01
 0.1045633611983E+01
 0.1034211943302E+01
 0.1023815575336E+01
 0.1013314498993E+01
 0.1006547240350E+01
 0.1009322756801E+01
 0.3831423930461E+00
 0.5722860932758E+00
 0.7303246407592E+00
 0.8553858604171E+00
 0.9494436476130E+00
 0.1016613268263E+01
 0.1061226962506E+01
 0.1087802857784E+01
 0.1101532062836E+01
 0.1106662693321E+01
 0.1106096141793E+01
 0.1101866974465E+01
 0.1095515530508E+01
 0.1088129353399E+01
 0.1080452895504E+01
 0.1073046987250E+01
 0.1066266585957E+01
 0.1059017009187E+01
 0.1053871754104E+01
 0.1055260474421E+01
 0.3562152557715E+00
 0.5292772687904E+00
 0.6792278710540E+00
 0.8026378916426E+00
 0.8999728524655E+00
 0.9738108013066E+00
 0.1027162585230E+01
 0.1063390760825E+01
 0.1086675271996E+01
 0.1100710629920E+01
 0.1108193724430E+01
 0.1111104594550E+01
 0.1110992585970E+01
 0.1109022643395E+01
 0.1106044663970E+01
 0.1102728522837E+01
 0.1099590766513E+01
 0.1095710558063E+01
 0.1092611512529E+01
 0.1093409002115E+01
 0.3320432128056E+00
 0.4904851229810E+00
 0.6319837052976E+00
 0.7522537776546E+00
 0.8507354852500E+00
 0.9288894889115E+00
 0.9887511824574E+00
 0.1032793286038E+01
 0.1064290340166E+01
 0.1086331819396E+01
 0.1101313083905E+01
 0.1111069949213E+01
 0.1117079921619E+01
 0.1120506863569E+01
 0.1122241426488E+01
 0.1123014153793E+01
 0.1123467958963E+01
 0.1122980246239E+01
 0.1122326380342E+01
 0.1123444489819E+01
 0.3101822455866E+00
 0.4553346241833E+00
 0.5883046255599E+00
 0.7043764490174E+00
 0.8023030443030E+00
 0.8827769831968E+00
 0.9471380239189E+00
 0.9971969779424E+00
 0.1035460451850E+01
 0.1064423607409E+01
 0.1086134023929E+01
 0.1102228938543E+01
 0.1114059661345E+01
 0.1122727197085E+01
 0.1129100427189E+01
 0.1133906269827E+01
 0.1137834962300E+01
 0.1140622705440E+01
 0.1142678841168E+01
 0.1145074803278E+01
 0.2902315652442E+00
 0.4232738331489E+00
 0.5479396061247E+00
 0.6590704750387E+00
 0.7550826708137E+00
 0.8362137868822E+00
 0.9033115488165E+00
 0.9577031174122E+00
 0.1001266711645E+01
 0.1035955023348E+01
 0.1063461861159E+01
 0.1085203163742E+01
 0.1102379344890E+01
 0.1115995055403E+01
 0.1126856861890E+01
 0.1135628478598E+01
 0.1142936226331E+01
 0.1148790795417E+01
 0.1153548753264E+01
 0.1158029077958E+01
 0.2715974017082E+00
 0.3940229566232E+00
 0.5107500321835E+00
 0.6163286784767E+00
 0.7093314487367E+00
 0.7897566113934E+00
 0.8581058371710E+00
 0.9153121778405E+00
 0.9627548121647E+00
 0.1001928496703E+01
 0.1034193120788E+01
 0.1060738319846E+01
 0.1082614263836E+01
 0.1100728563756E+01
 0.1115825313786E+01
 0.1128499246206E+01
 0.1139230045275E+01
 0.1148117904851E+01
 0.1155441058845E+01
 0.1162105107969E+01
 0.5282484594733E-01
 0.5332614784673E-01
 0.5585995900191E-01
 0.6072895120654E-01
 0.6728022436839E-01
 0.7476964851837E-01
 0.8261625258818E-01
 0.9065213600539E-01
 0.9866606075740E-01
 0.1063913548222E+00
 0.1136265406070E+00
 0.1202327606193E+00
 0.1260981174002E+00
 0.1310917463076E+00
 0.1350929690157E+00
 0.1380485591625E+00
 0.1400849314908E+00
 0.1413996516504E+00
 0.1431764207628E+00
 0.1470216969333E+00
 0.4872525448456E-01
 0.4482917532235E-01
 0.4402085228570E-01
 0.4600802373110E-01
 0.4996643412512E-01
 0.5495332043956E-01
 0.6035606765605E-01
 0.6613006231056E-01
 0.7211648331491E-01
 0.7802462015829E-01
 0.8362555860100E-01
 0.8877387507200E-01
 0.9337969076388E-01
 0.9735976028175E-01
 0.1006928761320E+00
 0.1035007176708E+00
 0.1060740373322E+00
 0.1086558657282E+00
 0.1122020205508E+00
 0.1133794880035E+00
 0.4437500138999E-01
 0.3544246963265E-01
 0.3110984839881E-01
 0.3029561598292E-01
 0.3178844316534E-01
 0.3443861057791E-01
 0.3761635998092E-01
 0.4138323582019E-01
 0.4561453249554E-01
 0.4999961481086E-01
 0.5429673769678E-01
 0.5837210407840E-01
 0.6216534365814E-01
 0.6563701450475E-01
 0.6882994041359E-01
 0.7189026032263E-01
 0.7491563766020E-01
 0.7791785085595E-01
 0.8078469182452E-01
 0.8218306577765E-01
 0.3953147956264E-01
 0.2517591337799E-01
 0.1722219596668E-01
 0.1379642542465E-01
 0.1306808661070E-01
 0.1360936688585E-01
 0.1480157234283E-01
 0.1681626884991E-01
 0.1956824498961E-01
 0.2273721786989E-01
 0.2607578690581E-01
 0.2946014010552E-01
 0.3284208612078E-01
 0.3618550409636E-01
 0.3951497935208E-01
 0.4287441498534E-01
 0.4610631582652E-01
 0.4902729168726E-01
 0.5209511301246E-01
 0.5590140922397E-01
 0.3408769543909E-01
 0.1392154332352E-01
 0.3733461811695E-02
 0.5871279652472E-02
 0.8332172843741E-02
 0.9450389706457E-02
 0.9793522201859E-02
 0.9118713657484E-02
 0.7547602979702E-02
 0.5566429066250E-02
 0.3944470775634E-02
 0.4156213652610E-02
 0.6408823745257E-02
 0.9519750189749E-02
 0.1299161940103E-01
 0.1663512642115E-01
 0.2008535371632E-01
 0.2339070296059E-01
 0.2777953873563E-01
 0.3440653975283E-01
 0.2794212172843E-01
 0.2256973066137E-02
 0.1478281226727E-01
 0.2341884550662E-01
 0.2799903365938E-01
 0.3070379250586E-01
 0.3235914167641E-01
 0.3262851290094E-01
 0.3158452916280E-01
 0.2960534359044E-01
 0.2696029887893E-01
 0.2378226811917E-01
 0.2016159988723E-01
 0.1622284888442E-01
 0.1207480118066E-01
 0.7894510670392E-02
 0.4283973400494E-02
 0.3191061395035E-02
 0.8331184139656E-02
 0.1759980978518E-01
 0.2100010549967E-01
 0.1245674241935E-01
 0.3194144216090E-01
 0.4274008530977E-01
 0.4871898703972E-01
 0.5252765109391E-01
 0.5508124337650E-01
 0.5596333755787E-01
 0.5524141191472E-01
 0.5331855695710E-01
 0.5048173111800E-01
 0.4688639196384E-01
 0.4266088107598E-01
 0.3796666255372E-01
 0.3291827230470E-01
 0.2761893265502E-01
 0.2233129781624E-01
 0.1623629888746E-01
 0.7522474928195E-02
 0.5386125589193E-02
 0.1320436775597E-01
 0.2743837786284E-01
 0.5039451348318E-01
 0.6290465685502E-01
 0.6982374392354E-01
 0.7428988935015E-01
 0.7731329051288E-01
 0.7840362943650E-01
 0.7762519114354E-01
 0.7540372438372E-01
 0.7204799793144E-01
 0.6774591591377E-01
 0.6266915927648E-01
 0.5700968593811E-01
 0.5087839443472E-01
 0.4433148654771E-01
 0.3753144226957E-01
 0.2938970038489E-01
 0.1804552099452E-01
 0.3413821166044E-02
 0.5002091184857E-02
 0.4394928940159E-01
 0.7004538191618E-01
 0.8376317898176E-01
 0.9110836198587E-01
 0.9574745930087E-01
 0.9878887397606E-01
 0.9967234198612E-01
 0.9845759958962E-01
 0.9558786636606E-01
 0.9139626867658E-01
 0.8610892951372E-01
 0.7993786787956E-01
 0.7308866224372E-01
 0.6564623260084E-01
 0.5760363624353E-01
 0.4902641835182E-01
 0.3867705785534E-01
 0.2485804792983E-01
 0.7757506040422E-02
 0.7308374589395E-02
 0.6206957902244E-01
 0.9086994712067E-01
 0.1051964634090E+00
 0.1123915320134E+00
 0.1166814536513E+00
 0.1192681064630E+00
 0.1195233790078E+00
 0.1174980933408E+00
 0.1136461566298E+00
 0.1083283884336E+00
 0.1018139402915E+00
 0.9434884981126E-01
 0.8613473422737E-01
 0.7721496246387E-01
 0.6751696006233E-01
 0.5702614374355E-01
 0.4446140191339E-01
 0.2836726033671E-01
 0.9255933417850E-02
 0.1846099529761E-01
 0.8191013973204E-01
 0.1128420887046E+00
 0.1270783572333E+00
 0.1334888897284E+00
 0.1368738085055E+00
 0.1385136114852E+00
 0.1377148590558E+00
 0.1345143813009E+00
 0.1293707164417E+00
 0.1226778241774E+00
 0.1147509266864E+00
 0.1058588001039E+00
 0.9617962729040E-01
 0.8570449071585E-01
 0.7430175349744E-01
 0.6190023597843E-01
 0.4726841576154E-01
 0.2922831278092E-01
 0.8521161402903E-02
 0.3154667963781E-01
 0.1035838990505E+00
 0.1359216409059E+00
 0.1492703105000E+00
 0.1542109501655E+00
 0.1561040548709E+00
 0.1562833188083E+00
 0.1539993403943E+00
 0.1492739801483E+00
 0.1425673071673E+00
 0.1343125990066E+00
 0.1248675330668E+00
 0.1145025258258E+00
 0.1033485103530E+00
 0.9133708251599E-01
 0.7829118494172E-01
 0.6411210151808E-01
 0.4770094293295E-01
 0.2816807406377E-01
 0.6374685684631E-02
 0.4645912503420E-01
 0.1271980135075E+00
 0.1600493129370E+00
 0.1716228185353E+00
 0.1743673799738E+00
 0.1741489368356E+00
 0.1723224020046E+00
 0.1681131325204E+00
 0.1615385506456E+00
 0.1530593662182E+00
 0.1431476013150E+00
 0.1321829465396E+00
 0.1204003281579E+00
 0.1078548536880E+00
 0.9441681961057E-01
 0.7988572796013E-01
 0.6417105790127E-01
 0.4638167804234E-01
 0.2591277610697E-01
 0.3664211267170E-02
 0.6336439654354E-01
 0.1528456290495E+00
 0.1851426138366E+00
 0.1939820862184E+00
 0.1937764091482E+00
 0.1907805702115E+00
 0.1863478736865E+00
 0.1797603423032E+00
 0.1710608848826E+00
 0.1607012602537E+00
 0.1491664141218E+00
 0.1368058558880E+00
 0.1237629555022E+00
 0.1099892817289E+00
 0.9530360420713E-01
 0.7951510680575E-01
 0.6258389617339E-01
 0.4389500550507E-01
 0.2311603699172E-01
 0.1363516455051E-02
 0.8247505164800E-01
 0.1805922017134E+00
 0.2110908959202E+00
 0.2162054405060E+00
 0.2122816499918E+00
 0.2057575863369E+00
 0.1980172338086E+00
 0.1885906632614E+00
 0.1775916714463E+00
 0.1654088853877E+00
 0.1524546152715E+00
 0.1389523140495E+00
 0.1248880738360E+00
 0.1100982125966E+00
 0.9438033361406E-01
 0.7759819523536E-01
 0.5980749308188E-01
 0.4073169836716E-01
 0.2029137907515E-01
 0.1596774190079E-02
 0.1040212282799E+00
 0.2104481996160E+00
 0.2377472805446E+00
 0.2381957661376E+00
 0.2297815636515E+00
 0.2187943320213E+00
 0.2068679307395E+00
 0.1941774756368E+00
 0.1809156139098E+00
 0.1672175746273E+00
 0.1532404211958E+00
 0.1389526864811E+00
 0.1241397621118E+00
 0.1085501805226E+00
 0.9201610320941E-01
 0.7450599902598E-01
 0.5620887070083E-01
 0.3724519764897E-01
 0.1776155389676E-01
 0.2477181389547E-02
 0.1282328656523E+00
 0.2423059459308E+00
 0.2649097777567E+00
 0.2599889151478E+00
 0.2462727635270E+00
 0.2294703443399E+00
 0.2122081035695E+00
 0.1960374838292E+00
 0.1809464905693E+00
 0.1663678859030E+00
 0.1519235072257E+00
 0.1372286770393E+00
 0.1219049281684E+00
 0.1056940552742E+00
 0.8853346033786E-01
 0.7053532154412E-01
 0.5203995284705E-01
 0.3362682921374E-01
 0.1563501612186E-01
 0.2530799544513E-02
 0.1552986707292E+00
 0.2757412701492E+00
 0.2923034668055E+00
 0.2819742587215E+00
 0.2619046269404E+00
 0.2369381817418E+00
 0.2130360758790E+00
 0.1937619301996E+00
 0.1779046129785E+00
 0.1633907993383E+00
 0.1490479567509E+00
 0.1342242947513E+00
 0.1185342415653E+00
 0.1018229105398E+00
 0.8418952248663E-01
 0.6590104280626E-01
 0.4743132411037E-01
 0.2990228430546E-01
 0.1380838758480E-01
 0.1887033081383E-02
 0.1853073573045E+00
 0.3093798506772E+00
 0.3194587366565E+00
 0.3058785578559E+00
 0.2764163224878E+00
 0.2395658921135E+00
 0.2080967686777E+00
 0.1873577521983E+00
 0.1725668722249E+00
 0.1590832968006E+00
 0.1451726403487E+00
 0.1303089695313E+00
 0.1142979335269E+00
 0.9715521050499E-01
 0.7917847950371E-01
 0.6075117420179E-01
 0.4241313818156E-01
 0.2593661677191E-01
 0.1197534420182E-01
 0.1001211586706E-02
 0.2165592905212E+00
 0.3346135116218E+00
 0.3506511670769E+00
 0.3337554896223E+00
 0.2884777725693E+00
 0.2345200549842E+00
 0.1962843757489E+00
 0.1780193660575E+00
 0.1662988702243E+00
 0.1542342633137E+00
 0.1406718979886E+00
 0.1257276679925E+00
 0.1094020744090E+00
 0.9181730003422E-01
 0.7360921114668E-01
 0.5528672577391E-01
 0.3696966982866E-01
 0.2134627452561E-01
 0.9572008855249E-02
 0.4387494400555E-03
 0.1167050957357E+01
 0.1164866317650E+01
 0.1154264919465E+01
 0.1135722915263E+01
 0.1109372268058E+01
 0.1075340088255E+01
 0.1033835089183E+01
 0.9851433689040E+00
 0.9296147847280E+00
 0.8676491518288E+00
 0.7996871777448E+00
 0.7262102965175E+00
 0.6477555430086E+00
 0.5649545571892E+00
 0.4786103457305E+00
 0.3898339193492E+00
 0.3002862699399E+00
 0.2126499111780E+00
 0.1317400924839E+00
 0.6898078072063E-01
 0.1169150148914E+01
 0.1170973280949E+01
 0.1165265259124E+01
 0.1151799916932E+01
 0.1130678573554E+01
 0.1102031686068E+01
 0.1066031628236E+01
 0.1022913631384E+01
 0.9729768762539E+00
 0.9165775277657E+00
 0.8541206720042E+00
 0.7860571806011E+00
 0.7128921284596E+00
 0.6352136183760E+00
 0.5537541275153E+00
 0.4695007540869E+00
 0.3838792858664E+00
 0.2990703887474E+00
 0.2186934223301E+00
 0.1504467086078E+00
 0.1169609629278E+01
 0.1174781584978E+01
 0.1173383093444E+01
 0.1164812974319E+01
 0.1148915003427E+01
 0.1125716972649E+01
 0.1095322743723E+01
 0.1057899758509E+01
 0.1013679710423E+01
 0.9629554876115E+00
 0.9060751089364E+00
 0.8434370132683E+00
 0.7754928917719E+00
 0.7027663873001E+00
 0.6258984593138E+00
 0.5457312592643E+00
 0.4634351749173E+00
 0.3806576422741E+00
 0.2996039339303E+00
 0.2220792069452E+00
 0.1168205711323E+01
 0.1176327096691E+01
 0.1178735785996E+01
 0.1174677239264E+01
 0.1163790573762E+01
 0.1145940105102E+01
 0.1121113424429E+01
 0.1089378692766E+01
 0.1050872476684E+01
 0.1005793606460E+01
 0.9543954656520E+00
 0.8969767014214E+00
 0.8338738709047E+00
 0.7654622211699E+00
 0.6921734608290E+00
 0.6145400445799E+00
 0.5332665744142E+00
 0.4492726788227E+00
 0.3634605793167E+00
 0.2749291365316E+00
 0.1164757858528E+01
 0.1175489062673E+01
 0.1181255825634E+01
 0.1181275416326E+01
 0.1175060516787E+01
 0.1162330316103E+01
 0.1142938767531E+01
 0.1116833209317E+01
 0.1084034340161E+01
 0.1044625394601E+01
 0.9987415194201E+00
 0.9465557749788E+00
 0.8882617956659E+00
 0.8240559914440E+00
 0.7541252737325E+00
 0.6786497853524E+00
 0.5978292508962E+00
 0.5119202217273E+00
 0.4211053543297E+00
 0.3251326057323E+00
 0.1159150230866E+01
 0.1172179102629E+01
 0.1180881523722E+01
 0.1184522769490E+01
 0.1182559377074E+01
 0.1174607260647E+01
 0.1160402282690E+01
 0.1139770858058E+01
 0.1112611829080E+01
 0.1078884450116E+01
 0.1038596632508E+01
 0.9917889328779E+00
 0.9385117405456E+00
 0.8787950912161E+00
 0.8126132784527E+00
 0.7398515597498E+00
 0.6602929036657E+00
 0.5736625677510E+00
 0.4798102848345E+00
 0.3790556318476E+00
 0.1151306018263E+01
 0.1166339703831E+01
 0.1177592850474E+01
 0.1184418935640E+01
 0.1186271143312E+01
 0.1182707296437E+01
 0.1173375808025E+01
 0.1158000228885E+01
 0.1136367226134E+01
 0.1108317062958E+01
 0.1073733289355E+01
 0.1032527855035E+01
 0.9846180551661E+00
 0.9298922521942E+00
 0.8681625116894E+00
 0.7991058748857E+00
 0.7222077822922E+00
 0.6367561031565E+00
 0.5420629671394E+00
 0.4381026731559E+00
 0.1141173566457E+01
 0.1157915581144E+01
 0.1171353763715E+01
 0.1180945075128E+01
 0.1186175160664E+01
 0.1186583303658E+01
 0.1181765703857E+01
 0.1171371608192E+01
 0.1155098143208E+01
 0.1132684884578E+01
 0.1103906716416E+01
 0.1068562264674E+01
 0.1026454471862E+01
 0.9773592711713E+00
 0.9209777123723E+00
 0.8568669605431E+00
 0.7843484795120E+00
 0.7024100638463E+00
 0.6096649525005E+00
 0.5048888391300E+00
 0.1128727244369E+01
 0.1146866472103E+01
 0.1162128042745E+01
 0.1174073131053E+01
 0.1182240651447E+01
 0.1186181519270E+01
 0.1185472139399E+01
 0.1179718704090E+01
 0.1168557873164E+01
 0.1151655678092E+01
 0.1128704284206E+01
 0.1099414897447E+01
 0.1063504101703E+01
 0.1020669855866E+01
 0.9705518591371E+00
 0.9126683777929E+00
 0.8463173055186E+00
 0.7704185865358E+00
 0.6832656537999E+00
 0.5821227672279E+00
 0.1113962678674E+01
 0.1133166437506E+01
 0.1149883472383E+01
 0.1163770680176E+01
 0.1174429186126E+01
 0.1181441427617E+01
 0.1184389483488E+01
 0.1182864251070E+01
 0.1176470435146E+01
 0.1164829377775E+01
 0.1147579984522E+01
 0.1124376830489E+01
 0.1094883616742E+01
 0.1058759179155E+01
 0.1015631791416E+01
 0.9650548043828E+00
 0.9064305622454E+00
 0.8388756191243E+00
 0.7609561056439E+00
 0.6700229192445E+00
 0.1096894350772E+01
 0.1116805636728E+01
 0.1134596986138E+01
 0.1150006489395E+01
 0.1162697769260E+01
 0.1172295444620E+01
 0.1178404314448E+01
 0.1180620680186E+01
 0.1178539959329E+01
 0.1171762572883E+01
 0.1159898751205E+01
 0.1142572018892E+01
 0.1119420473353E+01
 0.1090094399912E+01
 0.1054248069068E+01
 0.1011522354884E+01
 0.9615125388497E+00
 0.9037103727316E+00
 0.8373972630063E+00
 0.7614574592842E+00
 0.1077544856364E+01
 0.1097780029615E+01
 0.1116246363133E+01
 0.1132744921438E+01
 0.1146997307536E+01
 0.1158674628843E+01
 0.1167414692881E+01
 0.1172833262296E+01
 0.1174532578386E+01
 0.1172108935682E+01
 0.1165160183560E+01
 0.1153293427097E+01
 0.1136132813459E+01
 0.1113327094847E+01
 0.1084556661649E+01
 0.1049540032925E+01
 0.1008040671754E+01
 0.9598781551110E+00
 0.9049600412433E+00
 0.8434111929122E+00
 0.1055947315583E+01
 0.1076102998340E+01
 0.1094823845973E+01
 0.1111958752119E+01
 0.1127281463373E+01
 0.1140510601731E+01
 0.1151323110988E+01
 0.1159363824777E+01
 0.1164253335606E+01
 0.1165595659499E+01
 0.1162986659107E+01
 0.1156023806791E+01
 0.1144317637882E+01
 0.1127505204360E+01
 0.1105266097448E+01
 0.1077342349343E+01
 0.1043565158729E+01
 0.1003894841821E+01
 0.9584887331688E+00
 0.9078144518613E+00
 0.1032145902429E+01
 0.1051810145896E+01
 0.1070347479839E+01
 0.1087646031770E+01
 0.1103526631880E+01
 0.1117755038115E+01
 0.1130051086647E+01
 0.1140095607593E+01
 0.1147536429220E+01
 0.1151994661500E+01
 0.1153072207347E+01
 0.1150361227635E+01
 0.1143456115530E+01
 0.1131968457877E+01
 0.1115545561323E+01
 0.1093893540473E+01
 0.1066806770583E+01
 0.1034206345614E+01
 0.9961881828005E+00
 0.9530728720878E+00
 0.1006195613378E+01
 0.1024955730801E+01
 0.1042861180718E+01
 0.1059835364471E+01
 0.1075742544688E+01
 0.1090394760950E+01
 0.1103557141291E+01
 0.1114951836667E+01
 0.1124261410945E+01
 0.1131132619571E+01
 0.1135181454066E+01
 0.1136000224436E+01
 0.1133167315314E+01
 0.1126260079884E+01
 0.1114871145206E+01
 0.1098628240415E+01
 0.1077217602177E+01
 0.1050410710506E+01
 0.1018092304692E+01
 0.9802840010995E+00
 0.9781650067458E+00
 0.9956128255359E+00
 0.1012435159052E+01
 0.1028588467967E+01
 0.1043977656441E+01
 0.1058459949284E+01
 0.1071847282596E+01
 0.1083907453878E+01
 0.1094364645163E+01
 0.1102900054919E+01
 0.1109153408180E+01
 0.1112726106258E+01
 0.1113186712785E+01
 0.1110079298267E+01
 0.1102934810730E+01
 0.1091285071950E+01
 0.1074678270302E+01
 0.1052694595540E+01
 0.1024962108717E+01
 0.9911735436549E+00
 0.9481394781169E+00
 0.9638759853771E+00
 0.9791683553990E+00
 0.9940036260702E+00
 0.1008324470330E+01
 0.1022031682567E+01
 0.1034984660561E+01
 0.1047000330775E+01
 0.1057851030495E+01
 0.1067261905650E+01
 0.1074908436195E+01
 0.1080414770078E+01
 0.1083353606332E+01
 0.1083248348304E+01
 0.1079578024625E+01
 0.1071784882630E+01
 0.1059283520507E+01
 0.1041468973726E+01
 0.1017721828072E+01
 0.9874167479679E+00
 0.9162240860838E+00
 0.9298646299614E+00
 0.9431921249823E+00
 0.9562203216206E+00
 0.9689258579215E+00
 0.9812504570827E+00
 0.9931004536696E+00
 0.1004344284055E+01
 0.1014808382312E+01
 0.1024271841378E+01
 0.1032460215532E+01
 0.1039038941193E+01
 0.1043607032396E+01
 0.1045691941448E+01
 0.1044746672266E+01
 0.1040150167329E+01
 0.1031211261764E+01
 0.1017174618192E+01
 0.9972214294366E+00
 0.9704562985467E+00
 0.8825456548899E+00
 0.8937263291714E+00
 0.9046744290045E+00
 0.9154246463624E+00
 0.9259822703408E+00
 0.9363257938254E+00
 0.9464062953278E+00
 0.9561444204998E+00
 0.9654253055561E+00
 0.9740915705605E+00
 0.9819344457083E+00
 0.9886831406257E+00
 0.9939927574059E+00
 0.9974314419413E+00
 0.9984681275633E+00
 0.9964631012842E+00
 0.9906643025897E+00
 0.9802119203823E+00
 0.9641513403012E+00
 0.9414280584632E+00
 0.8472541402419E+00
 0.8556397299355E+00
 0.8638241109573E+00
 0.8718550701305E+00
 0.8797595580565E+00
 0.8875468378419E+00
 0.8952083772451E+00
 0.9027153031211E+00
 0.9100136054702E+00
 0.9170170108725E+00
 0.9235972610503E+00
 0.9295714286782E+00
 0.9346859141810E+00
 0.9385970049187E+00
 0.9408485578292E+00
 0.9408488609073E+00
 0.9378513598667E+00
 0.9309470633166E+00
 0.9190806136257E+00
 0.9011168730521E+00
 0.8105237639388E+00
 0.8158174894016E+00
 0.8208949999600E+00
 0.8258080367233E+00
 0.8305967862396E+00
 0.8352933741775E+00
 0.8399228601858E+00
 0.8445020594257E+00
 0.8490363215139E+00
 0.8535140834350E+00
 0.8578987241664E+00
 0.8621169468060E+00
 0.8660425964028E+00
 0.8694745310644E+00
 0.8721070794983E+00
 0.8734922281130E+00
 0.8729953456078E+00
 0.8697530190262E+00
 0.8626492020219E+00
 0.8503495321781E+00
 0.7725542656710E+00
 0.7745083151007E+00
 0.7761884652592E+00
 0.7776416297124E+00
 0.7789117650050E+00
 0.7800444075844E+00
 0.7810891587972E+00
 0.7821005207947E+00
 0.7831373033180E+00
 0.7842605327468E+00
 0.7855294505126E+00
 0.7869947606748E+00
 0.7886876895795E+00
 0.7906025320141E+00
 0.7926690252793E+00
 0.7947090717227E+00
 0.7963704248096E+00
 0.7970321871768E+00
 0.7956931121194E+00
 0.7908382940493E+00
 0.7335657936440E+00
 0.7319895267746E+00
 0.7300459089515E+00
 0.7277682939764E+00
 0.7251947419193E+00
 0.7223741188169E+00
 0.7193702124593E+00
 0.7162647700643E+00
 0.7131600492045E+00
 0.7101811791705E+00
 0.7074783333925E+00
 0.7052283547344E+00
 0.7036349266866E+00
 0.7029254005443E+00
 0.7033404923652E+00
 0.7051092635564E+00
 0.7083943170531E+00
 0.7131767165306E+00
 0.7190404096301E+00
 0.7248850494094E+00
 0.6938000678172E+00
 0.6885689568591E+00
 0.6828517597913E+00
 0.6766596791689E+00
 0.6700161127502E+00
 0.6629642321040E+00
 0.6555723561835E+00
 0.6479387713152E+00
 0.6401971784677E+00
 0.6325236255674E+00
 0.6251456171350E+00
 0.6183540336780E+00
 0.6125184601297E+00
 0.6081063678881E+00
 0.6057059756233E+00
 0.6060505807213E+00
 0.6100358614489E+00
 0.6187031769580E+00
 0.6330869527972E+00
 0.6537416046779E+00
 0.6535185994582E+00
 0.6445839141875E+00
 0.6350326173576E+00
 0.6248464802962E+00
 0.6140282709482E+00
 0.6026102319986E+00
 0.5906597202487E+00
 0.5782847601744E+00
 0.5656413712640E+00
 0.5529440869032E+00
 0.5404810528992E+00
 0.5286354354636E+00
 0.5179156183154E+00
 0.5089979891932E+00
 0.5027883429534E+00
 0.5005117626965E+00
 0.5038471564722E+00
 0.5151319012779E+00
 0.5376680610835E+00
 0.5757964487596E+00
 0.6129986404920E+00
 0.6003968254565E+00
 0.5870521920298E+00
 0.5729127838963E+00
 0.5579605137741E+00
 0.5422192304071E+00
 0.5257590842364E+00
 0.5087013932104E+00
 0.4912264389287E+00
 0.4735858805257E+00
 0.4561214603534E+00
 0.4392922592405E+00
 0.4237140268136E+00
 0.4102164499564E+00
 0.3999286112498E+00
 0.3944114901202E+00
 0.3958754690945E+00
 0.4075650671315E+00
 0.4345319756299E+00
 0.4855826894958E+00
 0.5725282332418E+00
 0.5563894154224E+00
 0.5394037543583E+00
 0.5214867289993E+00
 0.5026089987657E+00
 0.4828016065771E+00
 0.4621572741335E+00
 0.4408334431933E+00
 0.4190596410638E+00
 0.3971505415673E+00
 0.3755258990560E+00
 0.3547389535134E+00
 0.3355158597607E+00
 0.3188103728272E+00
 0.3058809289436E+00
 0.2984028671557E+00
 0.2986392724877E+00
 0.3097248202118E+00
 0.3361749073413E+00
 0.3853339176578E+00
 0.5324002121413E+00
 0.5129546272878E+00
 0.4925976250455E+00
 0.4712221875051E+00
 0.4488114003804E+00
 0.4254368453222E+00
 0.4012551328818E+00
 0.3765088490963E+00
 0.3515338094319E+00
 0.3267728593175E+00
 0.3027959159023E+00
 0.2803257485864E+00
 0.2602686682712E+00
 0.2437482874463E+00
 0.2321378444795E+00
 0.2270796071124E+00
 0.2304633710034E+00
 0.2442810010989E+00
 0.2701381797198E+00
 0.3068457557370E+00
 0.4929040466041E+00
 0.4704817435154E+00
 0.4471336969586E+00
 0.4227515757564E+00
 0.3973677528664E+00
 0.3711407835219E+00
 0.3443442061054E+00
 0.3173635766461E+00
 0.2907015200520E+00
 0.2649884892611E+00
 0.2409959111429E+00
 0.2196472539415E+00
 0.2020202892217E+00
 0.1893291658749E+00
 0.1828655495185E+00
 0.1838599033086E+00
 0.1931848605536E+00
 0.2107389705164E+00
 0.2340703939247E+00
 0.2555945506726E+00
 0.4543162144054E+00
 0.4293345718676E+00
 0.4034626216120E+00
 0.3766233084600E+00
 0.3489424634733E+00
 0.3207134876703E+00
 0.2923723005492E+00
 0.2644848761782E+00
 0.2377430332325E+00
 0.2129618145637E+00
 0.1910707297794E+00
 0.1730894045151E+00
 0.1600746642473E+00
 0.1530197489156E+00
 0.1526765871167E+00
 0.1592578829900E+00
 0.1719561343918E+00
 0.1881938578046E+00
 0.2026464878198E+00
 0.2072631510673E+00
 0.4168876657483E+00
 0.3898206145620E+00
 0.3619390902363E+00
 0.3332383482327E+00
 0.3039835266439E+00
 0.2746420985904E+00
 0.2458358496382E+00
 0.2183114743816E+00
 0.1929186681683E+00
 0.1705836954380E+00
 0.1522667654446E+00
 0.1388909248930E+00
 0.1312281528299E+00
 0.1297262312831E+00
 0.1342606865511E+00
 0.1438033160756E+00
 0.1560249171131E+00
 0.1669573242130E+00
 0.1712202423895E+00
 0.1635358688561E+00
 0.3808303403296E+00
 0.3521676753014E+00
 0.3227959173797E+00
 0.2928266049159E+00
 0.2627082416517E+00
 0.2331055053518E+00
 0.2048193383191E+00
 0.1787357078892E+00
 0.1557819182419E+00
 0.1368731440526E+00
 0.1228360487437E+00
 0.1142988980089E+00
 0.1115405503152E+00
 0.1142977809650E+00
 0.1215446612683E+00
 0.1312838484220E+00
 0.1404505707948E+00
 0.1451662396219E+00
 0.1416525744130E+00
 0.1277274895650E+00
 0.3463205551181E+00
 0.3165421815520E+00
 0.2861731791562E+00
 0.2554898433280E+00
 0.2251627392713E+00
 0.1960544095834E+00
 0.1691043744300E+00
 0.1452594398198E+00
 0.1254134945472E+00
 0.1103353278205E+00
 0.1005727426638E+00
 0.9632904147091E-01
 0.9731732545101E-01
 0.1026125940484E+00
 0.1105401405576E+00
 0.1186682703972E+00
 0.1240250277012E+00
 0.1236816346040E+00
 0.1156862476255E+00
 0.9996992990669E-01
 0.3135019677836E+00
 0.2830571674205E+00
 0.2521236314859E+00
 0.2212076337165E+00
 0.1912338100827E+00
 0.1632371329604E+00
 0.1382244582197E+00
 0.1171025395928E+00
 0.1006181642256E+00
 0.8928455476878E-01
 0.8328777817907E-01
 0.8237885429031E-01
 0.8577162201869E-01
 0.9207954110695E-01
 0.9933663165908E-01
 0.1051661170838E+00
 0.1071669705550E+00
 0.1035185745838E+00
 0.9361989882273E-01
 0.7838228383830E-01
 0.2824827606126E+00
 0.2517645275290E+00
 0.2206062574105E+00
 0.1898428371768E+00
 0.1606749936265E+00
 0.1342548678685E+00
 0.1115592157493E+00
 0.9334951120971E-01
 0.8013484027728E-01
 0.7211593029332E-01
 0.6911080364683E-01
 0.7048237786115E-01
 0.7509808630417E-01
 0.8135496049149E-01
 0.8730558432461E-01
 0.9092129104170E-01
 0.9049793807103E-01
 0.8511713727369E-01
 0.7495299436691E-01
 0.6119583071084E-01
 0.2533344879659E+00
 0.2226394777877E+00
 0.1914740357689E+00
 0.1611498469131E+00
 0.1331463878943E+00
 0.1086328557389E+00
 0.8843911679916E-01
 0.7308770224859E-01
 0.6280440520077E-01
 0.5748127707708E-01
 0.5662615411637E-01
 0.5933136219756E-01
 0.6429247211373E-01
 0.6989990720923E-01
 0.7442125575383E-01
 0.7628015694059E-01
 0.7439331695165E-01
 0.6845419874684E-01
 0.5900242038779E-01
 0.4716846827890E-01
 0.2260945907613E+00
 0.1955628388379E+00
 0.1644684713515E+00
 0.1348161399518E+00
 0.1082928023291E+00
 0.8592357973880E-01
 0.6824785046231E-01
 0.5550538057693E-01
 0.4765262939188E-01
 0.4432956084741E-01
 0.4482981044511E-01
 0.4810675884642E-01
 0.5283702319099E-01
 0.5754824435601E-01
 0.6081252749315E-01
 0.6149059901689E-01
 0.5897190376817E-01
 0.5331591101893E-01
 0.4519976421726E-01
 0.3562632914273E-01
 0.2007816290051E+00
 0.1702884358017E+00
 0.1392126968935E+00
 0.1105038207668E+00
 0.8584162038761E-01
 0.6574507483990E-01
 0.5042867928897E-01
 0.3989565726865E-01
 0.3390225358349E-01
 0.3192243582571E-01
 0.3313766130389E-01
 0.3647328399786E-01
 0.4068947012311E-01
 0.4451840319578E-01
 0.4683932113428E-01
 0.4686830329749E-01
 0.4431159043216E-01
 0.3941533322150E-01
 0.3287865605922E-01
 0.2565868229725E-01
 0.1773931688035E+00
 0.1461373612001E+00
 0.1150249664288E+00
 0.8811256385364E-01
 0.6567154744510E-01
 0.4779208720878E-01
 0.3452815859388E-01
 0.2574914867805E-01
 0.2108978350820E-01
 0.1993453730522E-01
 0.2142900392504E-01
 0.2453858879032E-01
 0.2815513595969E-01
 0.3122667545509E-01
 0.3290064920268E-01
 0.3265953976733E-01
 0.3040878490117E-01
 0.2648119451916E-01
 0.2154748798225E-01
 0.1657141008032E-01
 0.1548229028231E+00
 0.1207493936698E+00
 0.9237604595000E-01
 0.6810165982431E-01
 0.4782264891916E-01
 0.3184436285258E-01
 0.2021413963210E-01
 0.1272575871170E-01
 0.8932706625358E-02
 0.8189811948452E-02
 0.9662556790606E-02
 0.1238900214144E-01
 0.1541197447445E-01
 0.1788727196201E-01
 0.1918654955100E-01
 0.1898514574589E-01
 0.1730511826843E-01
 0.1449891367738E-01
 0.1119522431408E-01
 0.8187681914264E-02
</DataArray>
<DataArray type="Float64" Name="OI" NumberOfComponents="1" ComponentName0="OI" format="ascii">
 0.3217937358275E+01
 0.2920343219619E+01
 0.2690873642221E+01
 0.2622082531354E+01
 0.2575990132338E+01
 0.2549603496519E+01
 0.2531688195505E+01
 0.2519008697045E+01
 0.2509332736993E+01
 0.2501554332942E+01
 0.2495039822351E+01
 0.2489473024840E+01
 0.2484730678029E+01
 0.2480824262456E+01
 0.2477865761491E+01
 0.2476051259408E+01
 0.2475656070342E+01
 0.2477040924912E+01
 0.2480667002330E+01
 0.2487131905096E+01
 0.2497232756085E+01
 0.2512113204792E+01
 0.2533617016608E+01
 0.2564406298688E+01
 0.2605074923258E+01
 0.2652883878595E+01
 0.2704750307847E+01
 0.2759158860005E+01
 0.2816495082710E+01
 0.2878596644049E+01
 0.2948045795992E+01
 0.3027453490975E+01
 0.3118668410308E+01
 0.3225390906596E+01
 0.3358476892578E+01
 0.3531777785287E+01
 0.3775065941128E+01
 0.4080094371865E+01
 0.4737360207162E+01
 0.4740942444624E+01
 0.9265779798032E+01
 0.2763442583713E+01
 0.2878177759650E+01
 0.2705630559209E+01
 0.2609304345723E+01
 0.2559159543517E+01
 0.2525797873357E+01
 0.2503616108067E+01
 0.2487594171756E+01
 0.2475472866647E+01
 0.2465855244008E+01
 0.2457965011438E+01
 0.2451368638478E+01
 0.2445859357571E+01
 0.2441383769513E+01
 0.2438002349403E+01
 0.2435868154048E+01
 0.2435218570204E+01
 0.2436377447767E+01
 0.2439768102021E+01
 0.2445940612515E+01
 0.2455623803956E+01
 0.2469814041758E+01
 0.2489709346631E+01
 0.2516243320933E+01
 0.2549374533571E+01
 0.2587911037225E+01
 0.2630277947614E+01
 0.2675474705457E+01
 0.2723477017279E+01
 0.2775097897952E+01
 0.2831566724622E+01
 0.2894202081264E+01
 0.2964665275848E+01
 0.3045859460266E+01
 0.3141771095299E+01
 0.3259116050198E+01
 0.3393967672826E+01
 0.3570267310555E+01
 0.3652561734733E+01
 0.3168835770233E+01
 0.6180739892285E+01
 0.2506152220439E+01
 0.2718000187790E+01
 0.2672938415746E+01
 0.2585365840980E+01
 0.2533196302698E+01
 0.2497805756983E+01
 0.2472827491081E+01
 0.2454537305827E+01
 0.2440522330078E+01
 0.2429398840646E+01
 0.2420315514513E+01
 0.2412779873493E+01
 0.2406529233575E+01
 0.2401462025841E+01
 0.2397595663542E+01
 0.2395043315477E+01
 0.2394002867682E+01
 0.2394755598341E+01
 0.2397673563793E+01
 0.2403235778142E+01
 0.2412053923008E+01
 0.2424847647864E+01
 0.2442186823480E+01
 0.2464198631738E+01
 0.2490640692672E+01
 0.2521007604648E+01
 0.2554568677290E+01
 0.2590657546186E+01
 0.2628956035701E+01
 0.2669504720139E+01
 0.2712522752971E+01
 0.2758381835881E+01
 0.2807840465011E+01
 0.2861507302288E+01
 0.2918971333513E+01
 0.2975806966125E+01
 0.3021302251345E+01
 0.3027649572292E+01
 0.2773713463366E+01
 0.2552574459161E+01
 0.5157483371551E+01
 0.2335307633265E+01
 0.2560466327590E+01
 0.2597815861261E+01
 0.2546266861343E+01
 0.2499067317012E+01
 0.2464773927106E+01
 0.2439063106959E+01
 0.2419536889036E+01
 0.2404276447474E+01
 0.2392022412158E+01
 0.2381967613683E+01
 0.2373611067620E+01
 0.2366667120099E+01
 0.2361003983423E+01
 0.2356606026228E+01
 0.2353550745103E+01
 0.2351996238466E+01
 0.2352176355133E+01
 0.2354401088122E+01
 0.2359059036246E+01
 0.2366605026446E+01
 0.2377453408037E+01
 0.2391723999491E+01
 0.2409159143777E+01
 0.2429455347827E+01
 0.2452418317461E+01
 0.2477738117516E+01
 0.2504922758263E+01
 0.2533426670640E+01
 0.2562718799268E+01
 0.2592267610282E+01
 0.2621609988416E+01
 0.2650260599033E+01
 0.2676701233275E+01
 0.2696445854404E+01
 0.2699341910502E+01
 0.2667161682643E+01
 0.2540647912499E+01
 0.2241714338846E+01
 0.2400943297813E+01
 0.4623895454738E+01
 0.2209458707998E+01
 0.2423288153619E+01
 0.2505687342666E+01
 0.2491657488210E+01
 0.2457169454774E+01
 0.2426717469485E+01
 0.2402111520322E+01
 0.2382434885774E+01
 0.2366582752013E+01
 0.2353604326458E+01
 0.2342822583263E+01
 0.2333784740897E+01
 0.2326213469689E+01
 0.2319965909854E+01
 0.2315004090712E+01
 0.2311375008855E+01
 0.2309197782134E+01
 0.2308655561952E+01
 0.2309988632379E+01
 0.2313481412507E+01
 0.2319416190239E+01
 0.2327938042605E+01
 0.2338871868476E+01
 0.2351775309979E+01
 0.2366324592782E+01
 0.2382448663080E+01
 0.2400013814580E+01
 0.2418585933780E+01
 0.2437436570536E+01
 0.2455619794858E+01
 0.2472038222848E+01
 0.2485478341099E+01
 0.2494308637820E+01
 0.2495249418588E+01
 0.2481299310332E+01
 0.2440064698808E+01
 0.2348896756432E+01
 0.2167656880931E+01
 0.1965312113759E+01
 0.2409398083182E+01
 0.4264039822223E+01
 0.2109709904974E+01
 0.2305717586229E+01
 0.2410289308241E+01
 0.2426509887257E+01
 0.2408012410808E+01
 0.2383980819948E+01
 0.2361974822115E+01
 0.2343161579288E+01
 0.2327355592986E+01
 0.2314060966454E+01
 0.2302808417331E+01
 0.2293241958096E+01
 0.2285122868203E+01
 0.2278315634078E+01
 0.2272770943082E+01
 0.2268511084821E+01
 0.2265618088731E+01
 0.2264223047111E+01
 0.2264492327293E+01
 0.2266600484134E+01
 0.2270664063937E+01
 0.2276614320002E+01
 0.2284090607138E+01
 0.2292562293042E+01
 0.2301691852890E+01
 0.2311432711232E+01
 0.2321692572249E+01
 0.2332024623978E+01
 0.2341554767329E+01
 0.2349044960861E+01
 0.2352978125161E+01
 0.2351541543531E+01
 0.2342234462782E+01
 0.2320684017506E+01
 0.2279087734068E+01
 0.2205261186412E+01
 0.2081936347758E+01
 0.1908749779251E+01
 0.1843649891715E+01
 0.2449386619418E+01
 0.3988181008620E+01
 0.2026304645838E+01
 0.2204006440228E+01
 0.2317663145799E+01
 0.2355741551076E+01
 0.2353033632414E+01
 0.2337034894803E+01
 0.2318834110735E+01
 0.2301739240559E+01
 0.2286567608945E+01
 0.2273347443072E+01
 0.2261879044605E+01
 0.2251942475066E+01
 0.2243364033026E+01
 0.2236032533603E+01
 0.2229897941981E+01
 0.2224963999566E+01
 0.2221278555776E+01
 0.2218921244387E+01
 0.2217984024046E+01
 0.2218534243019E+01
 0.2220542596416E+01
 0.2223780321298E+01
 0.2227773257951E+01
 0.2231949100008E+01
 0.2235953283899E+01
 0.2239713041452E+01
 0.2243108741144E+01
 0.2245647267080E+01
 0.2246346047593E+01
 0.2243775822424E+01
 0.2236138441277E+01
 0.2221223409449E+01
 0.2196038312340E+01
 0.2155911929045E+01
 0.2093644928047E+01
 0.2000065484507E+01
 0.1870319251643E+01
 0.1741023953001E+01
 0.1805235017640E+01
 0.2479328478230E+01
 0.3762844017920E+01
 0.1953747581632E+01
 0.2114588948870E+01
 0.2230049791475E+01
 0.2282867505888E+01
 0.2293984417255E+01
 0.2286543823570E+01
 0.2272975179232E+01
 0.2258274655848E+01
 0.2244243300051E+01
 0.2231454733315E+01
 0.2220013294203E+01
 0.2209864117593E+01
 0.2200919496952E+01
 0.2193107233844E+01
 0.2186386338646E+01
 0.2180748246183E+01
 0.2176210421228E+01
 0.2172803517516E+01
 0.2170548219048E+01
 0.2169413705679E+01
 0.2169249862857E+01
 0.2169713049252E+01
 0.2170261922323E+01
 0.2170305298677E+01
 0.2169467916024E+01
 0.2167628295135E+01
 0.2164610748424E+01
 0.2159868710923E+01
 0.2152350888249E+01
 0.2140526718716E+01
 0.2122456301859E+01
 0.2095758535851E+01
 0.2057364808972E+01
 0.2003033708170E+01
 0.1927351827457E+01
 0.1826391998393E+01
 0.1709511008633E+01
 0.1638827666841E+01
 0.1805962734945E+01
 0.2490396652910E+01
 0.3572077090129E+01
 0.1888732888586E+01
 0.2034633864700E+01
 0.2147952458241E+01
 0.2210088766589E+01
 0.2232465243084E+01
 0.2233282402809E+01
 0.2224760385183E+01
 0.2212936395976E+01
 0.2200452444078E+01
 0.2188405510683E+01
 0.2177213000362E+01
 0.2167001738497E+01
 0.2157784957472E+01
 0.2149541092615E+01
 0.2142246721153E+01
 0.2135887039634E+01
 0.2130453624407E+01
 0.2125932301733E+01
 0.2122278630600E+01
 0.2119376520221E+01
 0.2116980419397E+01
 0.2114667385424E+01
 0.2111858758421E+01
 0.2107956377296E+01
 0.2102563548757E+01
 0.2095504819297E+01
 0.2086543993428E+01
 0.2075091508777E+01
 0.2060070105129E+01
 0.2039932190539E+01
 0.2012733742956E+01
 0.1976153224590E+01
 0.1927433619860E+01
 0.1863358537930E+01
 0.1781176161673E+01
 0.1683190684862E+01
 0.1591150114022E+01
 0.1580629634637E+01
 0.1821197833784E+01
 0.2484148909487E+01
 0.3406750161879E+01
 0.1829164522671E+01
 0.1962002524902E+01
 0.2071130695781E+01
 0.2138662969726E+01
 0.2169749145547E+01
 0.2178023077331E+01
 0.2174596944485E+01
 0.2165935483628E+01
 0.2155300489070E+01
 0.2144249561892E+01
 0.2133500412286E+01
 0.2123365782595E+01
 0.2113968345918E+01
 0.2105345477566E+01
 0.2097498295573E+01
 0.2090411428198E+01
 0.2084055542319E+01
 0.2078377129791E+01
 0.2073274899244E+01
 0.2068562104707E+01
 0.2063921082723E+01
 0.2058876922895E+01
 0.2052833403890E+01
 0.2045192794339E+01
 0.2035539863767E+01
 0.2023650641071E+01
 0.2009238428161E+01
 0.1991692012229E+01
 0.1969952892465E+01
 0.1942535864445E+01
 0.1907622836515E+01
 0.1863162512830E+01
 0.1807030053681E+01
 0.1737463204670E+01
 0.1654830200450E+01
 0.1567480170510E+01
 0.1506195975096E+01
 0.1550254692771E+01
 0.1838425242071E+01
 0.2464521167970E+01
 0.3260950615347E+01
 0.1773654534532E+01
 0.1895099261477E+01
 0.1999065301139E+01
 0.2069235739230E+01
 0.2106767759798E+01
 0.2121458954610E+01
 0.2122901245854E+01
 0.2117508112614E+01
 0.2108918586550E+01
 0.2099058563214E+01
 0.2088915254833E+01
 0.2078980529797E+01
 0.2069488678590E+01
 0.2060540877574E+01
 0.2052168039832E+01
 0.2044359307329E+01
 0.2037069663722E+01
 0.2030212682344E+01
 0.2023639712675E+01
 0.2017108183798E+01
 0.2010248708510E+01
 0.2002555318868E+01
 0.1993427980121E+01
 0.1982275385410E+01
 0.1968669905427E+01
 0.1952351013792E+01
 0.1932999681302E+01
 0.1910010347679E+01
 0.1882388016101E+01
 0.1848782836439E+01
 0.1807618123190E+01
 0.1757287444743E+01
 0.1696532250522E+01
 0.1625288386376E+01
 0.1547085641865E+01
 0.1475380252697E+01
 0.1446432747072E+01
 0.1536323098176E+01
 0.1851960675674E+01
 0.2435283218142E+01
 0.3130551010015E+01
 0.1721249634984E+01
 0.1832731200554E+01
 0.1931169824104E+01
 0.2002077385094E+01
 0.2044162042611E+01
 0.2064168837010E+01
 0.2070069074812E+01
 0.2067899664697E+01
 0.2061454249303E+01
 0.2052920652857E+01
 0.2043511562192E+01
 0.2033882129306E+01
 0.2024374732059E+01
 0.2015155877465E+01
 0.2006289751792E+01
 0.1997774361610E+01
 0.1989554244061E+01
 0.1981516958945E+01
 0.1973476431353E+01
 0.1965148388832E+01
 0.1956129076242E+01
 0.1945897621519E+01
 0.1933860446910E+01
 0.1919438602105E+01
 0.1902200660103E+01
 0.1881865141367E+01
 0.1858102872769E+01
 0.1830343537769E+01
 0.1797698138779E+01
 0.1759016147675E+01
 0.1713057208060E+01
 0.1658789082924E+01
 0.1595960959990E+01
 0.1526271669099E+01
 0.1456132528361E+01
 0.1402838496501E+01
 0.1404999068834E+01
 0.1531224004301E+01
 0.1859692207323E+01
 0.2399417963632E+01
 0.3012533882960E+01
 0.1671274331906E+01
 0.1773999344857E+01
 0.1866881777641E+01
 0.1937238140764E+01
 0.1982347978528E+01
 0.2006611371351E+01
 0.2016456218049E+01
 0.2017351155903E+01
 0.2013062955288E+01
 0.2005935214173E+01
 0.1997354455575E+01
 0.1988116532385E+01
 0.1978663614321E+01
 0.1969226047457E+01
 0.1959903038604E+01
 0.1950704985341E+01
 0.1941571007455E+01
 0.1932369651158E+01
 0.1922887211495E+01
 0.1912810639839E+01
 0.1901716397490E+01
 0.1889081424393E+01
 0.1874326884380E+01
 0.1856892506448E+01
 0.1836353257683E+01
 0.1812423928059E+01
 0.1784788593188E+01
 0.1752941326419E+01
 0.1716137212638E+01
 0.1673477552583E+01
 0.1624128920524E+01
 0.1567714371207E+01
 0.1505044009666E+01
 0.1439496266061E+01
 0.1379889217895E+01
 0.1346046676961E+01
 0.1376448398634E+01
 0.1530087453228E+01
 0.1861254543138E+01
 0.2359120271493E+01
 0.2904623892092E+01
 0.1623236952666E+01
 0.1718218863694E+01
 0.1805697285656E+01
 0.1874645650047E+01
 0.1921576881688E+01
 0.1949134994658E+01
 0.1962368966205E+01
 0.1966089108222E+01
 0.1963900991167E+01
 0.1958208119676E+01
 0.1950517027982E+01
 0.1941737413166E+01
 0.1932399291240E+01
 0.1922792788897E+01
 0.1913052282115E+01
 0.1903203217334E+01
 0.1893183936548E+01
 0.1882850744787E+01
 0.1871971560554E+01
 0.1860216078298E+01
 0.1847153169459E+01
 0.1832267829200E+01
 0.1815003089769E+01
 0.1794824075582E+01
 0.1771323107496E+01
 0.1744228637170E+01
 0.1713260654955E+01
 0.1678004319375E+01
 0.1637890697964E+01
 0.1592312235626E+01
 0.1540887401947E+01
 0.1483929471753E+01
 0.1423287268363E+01
 0.1363831005747E+01
 0.1316227541087E+01
 0.1301636913196E+01
 0.1356609240625E+01
 0.1529928352295E+01
 0.1857065256796E+01
 0.2315956496944E+01
 0.2805064591172E+01
 0.1576771189699E+01
 0.1664861918017E+01
 0.1747179741527E+01
 0.1814164476827E+01
 0.1861984078425E+01
 0.1891994477380E+01
 0.1908062001834E+01
 0.1914319025113E+01
 0.1914119763240E+01
 0.1909847587749E+01
 0.1903077455461E+01
 0.1894804150257E+01
 0.1885631113428E+01
 0.1875902166339E+01
 0.1865785602617E+01
 0.1855323709497E+01
 0.1844458165303E+01
 0.1833039338875E+01
 0.1820825236842E+01
 0.1807478371459E+01
 0.1792570208922E+01
 0.1775602236356E+01
 0.1756045739885E+01
 0.1733398143009E+01
 0.1707280133662E+01
 0.1677450341454E+01
 0.1643685288920E+01
 0.1605684060230E+01
 0.1563078209327E+01
 0.1515576722423E+01
 0.1463270176174E+01
 0.1407156604382E+01
 0.1350043916699E+01
 0.1298045982670E+01
 0.1263115908048E+01
 0.1266745134049E+01
 0.1342374733403E+01
 0.1529003154001E+01
 0.1847838238385E+01
 0.2271035311174E+01
 0.2712473072778E+01
 0.1531598527008E+01
 0.1613516806038E+01
 0.1690957148195E+01
 0.1755631547618E+01
 0.1803625723276E+01
 0.1835368767228E+01
 0.1853740974707E+01
 0.1862222027573E+01
 0.1863861649714E+01
 0.1860960751672E+01
 0.1855116427168E+01
 0.1847379940750E+01
 0.1838412396327E+01
 0.1828603767621E+01
 0.1818153856571E+01
 0.1807122761042E+01
 0.1795458997834E+01
 0.1783012676680E+01
 0.1769539435519E+01
 0.1754703288305E+01
 0.1738086803466E+01
 0.1719215029583E+01
 0.1697593321180E+01
 0.1672758210278E+01
 0.1644369233560E+01
 0.1612230099936E+01
 0.1576191562432E+01
 0.1536084730620E+01
 0.1491758153585E+01
 0.1443249120541E+01
 0.1391118380795E+01
 0.1337010946812E+01
 0.1284575903168E+01
 0.1240898734870E+01
 0.1218698742402E+01
 0.1239002599474E+01
 0.1331484057216E+01
 0.1526356388746E+01
 0.1834347853512E+01
 0.2225150486999E+01
 0.2625741041845E+01
 0.1487503376827E+01
 0.1563858655838E+01
 0.1636715114060E+01
 0.1698876659465E+01
 0.1746505566112E+01
 0.1779377489898E+01
 0.1799567588376E+01
 0.1809953914409E+01
 0.1813257283806E+01
 0.1811650961892E+01
 0.1806714934337E+01
 0.1799530081813E+01
 0.1790799077158E+01
 0.1780949605896E+01
 0.1770209674901E+01
 0.1758657417421E+01
 0.1746251038829E+01
 0.1732845347006E+01
 0.1718200181899E+01
 0.1701988449113E+01
 0.1683810917610E+01
 0.1663222176032E+01
 0.1639766922744E+01
 0.1613027227466E+01
 0.1582710971587E+01
 0.1548679733038E+01
 0.1510872755733E+01
 0.1469266096199E+01
 0.1423933798451E+01
 0.1375240719116E+01
 0.1324197451509E+01
 0.1273034814040E+01
 0.1226104213831E+01
 0.1191192804641E+01
 0.1181332168904E+01
 0.1216491990048E+01
 0.1322325825678E+01
 0.1521513710945E+01
 0.1817316842506E+01
 0.2178893019406E+01
 0.2543965249098E+01
 0.1444316196807E+01
 0.1515628236807E+01
 0.1584188742749E+01
 0.1643733863236E+01
 0.1690593902251E+01
 0.1724095050815E+01
 0.1745665700055E+01
 0.1757645899010E+01
 0.1762424056461E+01
 0.1762015797584E+01
 0.1757952442497E+01
 0.1751320453812E+01
 0.1742848480311E+01
 0.1732993090197E+01
 0.1722006563458E+01
 0.1709984649053E+01
 0.1696897438702E+01
 0.1682608638821E+01
 0.1666887893212E+01
 0.1649423206787E+01
 0.1629839445245E+01
 0.1607725790724E+01
 0.1582670983614E+01
 0.1554308427392E+01
 0.1522402528821E+01
 0.1486883113939E+01
 0.1447788503640E+01
 0.1405247386333E+01
 0.1359560273148E+01
 0.1311408115133E+01
 0.1262216931385E+01
 0.1214727359845E+01
 0.1173847202498E+01
 0.1147813783119E+01
 0.1149592318324E+01
 0.1197688154661E+01
 0.1313776676629E+01
 0.1514281366964E+01
 0.1797355241561E+01
 0.2132739739637E+01
 0.2466390759553E+01
 0.1401901762588E+01
 0.1468616487456E+01
 0.1533154840857E+01
 0.1590047354484E+01
 0.1635840718523E+01
 0.1669562130073E+01
 0.1692127507999E+01
 0.1705406387279E+01
 0.1711465584525E+01
 0.1712145723772E+01
 0.1708905450212E+01
 0.1702816228700E+01
 0.1694618219077E+01
 0.1684788091047E+01
 0.1673598088610E+01
 0.1661160626873E+01
 0.1647459260224E+01
 0.1632370041359E+01
 0.1615677089012E+01
 0.1597088644121E+01
 0.1576258519536E+01
 0.1552814714021E+01
 0.1526394065568E+01
 0.1496686272492E+01
 0.1463518916240E+01
 0.1426897903596E+01
 0.1386967535362E+01
 0.1344011826864E+01
 0.1298552056301E+01
 0.1251565179711E+01
 0.1204848472281E+01
 0.1161568992780E+01
 0.1127047949429E+01
 0.1109748612580E+01
 0.1122267521157E+01
 0.1181396188541E+01
 0.1305070853478E+01
 0.1504639454531E+01
 0.1774888217051E+01
 0.2087136818788E+01
 0.2392362400680E+01
 0.1360150865569E+01
 0.1422653067064E+01
 0.1483425003041E+01
 0.1537674105952E+01
 0.1582184643906E+01
 0.1615794755520E+01
 0.1639019302992E+01
 0.1653323299543E+01
 0.1660471879196E+01
 0.1662123289568E+01
 0.1659646401645E+01
 0.1654080797224E+01
 0.1646165234743E+01
 0.1636388101840E+01
 0.1625037144789E+01
 0.1612240084602E+01
 0.1597994946168E+01
 0.1582192856832E+01
 0.1564636208956E+01
 0.1545057649275E+01
 0.1523143860075E+01
 0.1498565102318E+01
 0.1471009658109E+01
 0.1440227502308E+01
 0.1406114392933E+01
 0.1368757602080E+01
 0.1328410800347E+01
 0.1285511510895E+01
 0.1240790503575E+01
 0.1195494273941E+01
 0.1151741399812E+01
 0.1113040409677E+01
 0.1084992298849E+01
 0.1076093448579E+01
 0.1098340960953E+01
 0.1166695249659E+01
 0.1295693978579E+01
 0.1492691706850E+01
 0.1750165323362E+01
 0.2042330669788E+01
 0.2321327488317E+01
 0.1318974781003E+01
 0.1377602737396E+01
 0.1434848489591E+01
 0.1486497798829E+01
 0.1529576635749E+01
 0.1562813417939E+01
 0.1586412830483E+01
 0.1601496792498E+01
 0.1609553890497E+01
 0.1612060236739E+01
 0.1610283919715E+01
 0.1605219473860E+01
 0.1597593199458E+01
 0.1587897524198E+01
 0.1576431311111E+01
 0.1563335962354E+01
 0.1548624500944E+01
 0.1532205201286E+01
 0.1513901721947E+01
 0.1493474391226E+01
 0.1470645799565E+01
 0.1445131095268E+01
 0.1416672482888E+01
 0.1385082986562E+01
 0.1350329686816E+01
 0.1312583829625E+01
 0.1272208322872E+01
 0.1229788072835E+01
 0.1186247155143E+01
 0.1143070245828E+01
 0.1102644092971E+01
 0.1068735693307E+01
 0.1047104909143E+01
 0.1046120744886E+01
 0.1077018407245E+01
 0.1152912766809E+01
 0.1285357908367E+01
 0.1478564052441E+01
 0.1723806134988E+01
 0.1996930769963E+01
 0.2259549458285E+01
 0.1278300588263E+01
 0.1333349657315E+01
 0.1387290076077E+01
 0.1436402308417E+01
 0.1477948461483E+01
 0.1510604025186E+01
 0.1534336896131E+01
 0.1549981259165E+01
 0.1558776612580E+01
 0.1562022561569E+01
 0.1560880386040E+01
 0.1556289797475E+01
 0.1548955459765E+01
 0.1539366989030E+01
 0.1527830164997E+01
 0.1514498252415E+01
 0.1499399362846E+01
 0.1482460374693E+01
 0.1463528462035E+01
 0.1442394109798E+01
 0.1418818076117E+01
 0.1392562287149E+01
 0.1363424544894E+01
 0.1331282586245E+01
 0.1296176323284E+01
 0.1258361333557E+01
 0.1218306843868E+01
 0.1176735914706E+01
 0.1134746724473E+01
 0.1094028688139E+01
 0.1057184116238E+01
 0.1028161403195E+01
 0.1012773745121E+01
 0.1019134225225E+01
 0.1057610764045E+01
 0.1139535040691E+01
 0.1273883048493E+01
 0.1462486518733E+01
 0.1695876248801E+01
 0.1951996049560E+01
 0.2200222339866E+01
 0.1238065286903E+01
 0.1289791273743E+01
 0.1340624282281E+01
 0.1387269531432E+01
 0.1427214120964E+01
 0.1459121081764E+01
 0.1482780348503E+01
 0.1498787166847E+01
 0.1508159738144E+01
 0.1512030355149E+01
 0.1511451369301E+01
 0.1507300841915E+01
 0.1500254412174E+01
 0.1490792907509E+01
 0.1479225085257E+01
 0.1465714125443E+01
 0.1450302935233E+01
 0.1432937896816E+01
 0.1413491283228E+01
 0.1391785508226E+01
 0.1367621081938E+01
 0.1340807956185E+01
 0.1311200493971E+01
 0.1278741844490E+01
 0.1243544895378E+01
 0.1205948134326E+01
 0.1166522148836E+01
 0.1126116948977E+01
 0.1085984238758E+01
 0.1047984865244E+01
 0.1014887201690E+01
 0.9907521075839E+00
 0.9813567141854E+00
 0.9944584672520E+00
 0.1039499729653E+01
 0.1126132694646E+01
 0.1261148480462E+01
 0.1444562101340E+01
 0.1666622431002E+01
 0.1907381166337E+01
 0.2141431744060E+01
 0.1198216909157E+01
 0.1246845697277E+01
 0.1294751827287E+01
 0.1339006932928E+01
 0.1377308990745E+01
 0.1408336825734E+01
 0.1431749204623E+01
 0.1447944773082E+01
 0.1457747394648E+01
 0.1462133554457E+01
 0.1462047655645E+01
 0.1458301890355E+01
 0.1451537226147E+01
 0.1442220679974E+01
 0.1430660424457E+01
 0.1417027590806E+01
 0.1401379306110E+01
 0.1383681891692E+01
 0.1363833723310E+01
 0.1341690282563E+01
 0.1317092772939E+01
 0.1289899756619E+01
 0.1260022346799E+01
 0.1227468778701E+01
 0.1192423685944E+01
 0.1155305345149E+01
 0.1116778886135E+01
 0.1077808378861E+01
 0.1039777512554E+01
 0.1004685866742E+01
 0.9754217680095E+00
 0.9560974165416E+00
 0.9523791363677E+00
 0.9715951016069E+00
 0.1022242235302E+01
 0.1112429661584E+01
 0.1247118002820E+01
 0.1424974771426E+01
 0.1636268093086E+01
 0.1863082626815E+01
 0.2083882319119E+01
 0.1158711337054E+01
 0.1204443216742E+01
 0.1249587081947E+01
 0.1291532042924E+01
 0.1328171746431E+01
 0.1358220144681E+01
 0.1381241849763E+01
 0.1397475202534E+01
 0.1407575074728E+01
 0.1412374909121E+01
 0.1412714444696E+01
 0.1409337960620E+01
 0.1402847684944E+01
 0.1393692742318E+01
 0.1382177580132E+01
 0.1368479361994E+01
 0.1352668641004E+01
 0.1334731714576E+01
 0.1314593553269E+01
 0.1292143277129E+01
 0.1267263133221E+01
 0.1239860250865E+01
 0.1209901944168E+01
 0.1177460259626E+01
 0.1142789140879E+01
 0.1106382128159E+01
 0.1068990671865E+01
 0.1031678971861E+01
 0.9959410310735E+00
 0.9638839921713E+00
 0.9384741724600E+00
 0.9238219676934E+00
 0.9254220471911E+00
 0.9501225929604E+00
 0.1005485999713E+01
 0.1098229683407E+01
 0.1231802120967E+01
 0.1403894516068E+01
 0.1605011176533E+01
 0.1819127135574E+01
 0.2027589751564E+01
 0.1119510766958E+01
 0.1162524069228E+01
 0.1205055756968E+01
 0.1244771288367E+01
 0.1279744737038E+01
 0.1308738065938E+01
 0.1331250867622E+01
 0.1347392005798E+01
 0.1357670662904E+01
 0.1362790486711E+01
 0.1363491466987E+01
 0.1360449683950E+01
 0.1354225944735E+01
 0.1345248287872E+01
 0.1333814734629E+01
 0.1320106653749E+01
 0.1304207068973E+01
 0.1286121954124E+01
 0.1265802918945E+01
 0.1243172785034E+01
 0.1218154653548E+01
 0.1190703592960E+01
 0.1160841883858E+01
 0.1128703260093E+01
 0.1094607516725E+01
 0.1059117825842E+01
 0.1023062763739E+01
 0.9875922552450E+00
 0.9542894752886E+00
 0.9253401210044E+00
 0.9037510424771E+00
 0.8935854840051E+00
 0.9001184045582E+00
 0.9296871637796E+00
 0.9889533141268E+00
 0.1083398688893E+01
 0.1215238146743E+01
 0.1381478814113E+01
 0.1573008925402E+01
 0.1775480516963E+01
 0.1972473355352E+01
 0.1080582522828E+01
 0.1121036634935E+01
 0.1161093030576E+01
 0.1198658899900E+01
 0.1231974089254E+01
 0.1259856817485E+01
 0.1281764495755E+01
 0.1297702506173E+01
 0.1308055411794E+01
 0.1313410236920E+01
 0.1314413215316E+01
 0.1311673316658E+01
 0.1305708427965E+01
 0.1296923119089E+01
 0.1285606719907E+01
 0.1271943100314E+01
 0.1256026686207E+01
 0.1237882547964E+01
 0.1217488590893E+01
 0.1194800951519E+01
 0.1169782908006E+01
 0.1142436305656E+01
 0.1112836538778E+01
 0.1081176169092E+01
 0.1047836552011E+01
 0.1013444039893E+01
 0.9788945564883E+00
 0.9454093453985E+00
 0.9146406367832E+00
 0.8888262158922E+00
 0.8709805895594E+00
 0.8650818833502E+00
 0.8761488757250E+00
 0.9099939943666E+00
 0.9724276623940E+00
 0.1067849278694E+01
 0.1197479101630E+01
 0.1357868597529E+01
 0.1540371704210E+01
 0.1732097150164E+01
 0.1918434322311E+01
 0.1041898120357E+01
 0.1079935986450E+01
 0.1117642002094E+01
 0.1153135912463E+01
 0.1184809625398E+01
 0.1211542551244E+01
 0.1232767751451E+01
 0.1248408922623E+01
 0.1258744816651E+01
 0.1264258545620E+01
 0.1265509217002E+01
 0.1263040812775E+01
 0.1257327780211E+01
 0.1248749557571E+01
 0.1237584933159E+01
 0.1224018716501E+01
 0.1208155594023E+01
 0.1190038923388E+01
 0.1169672229201E+01
 0.1147044181758E+01
 0.1122157124581E+01
 0.1095058039546E+01
 0.1065873040001E+01
 0.1034850041813E+01
 0.1002427025351E+01
 0.9692865179126E+00
 0.9363817674054E+00
 0.9049913081249E+00
 0.8768176782227E+00
 0.8541270126213E+00
 0.8399130647922E+00
 0.8380377128112E+00
 0.8532373865632E+00
 0.8907991238450E+00
 0.9557422756048E+00
 0.1051528656215E+01
 0.1178586207229E+01
 0.1333184852741E+01
 0.1507178163289E+01
 0.1688936270639E+01
 0.1865371970871E+01
 0.1003432517007E+01
 0.1039182713530E+01
 0.1074652401568E+01
 0.1108149256180E+01
 0.1138204655691E+01
 0.1163761802696E+01
 0.1184243275974E+01
 0.1199509276886E+01
 0.1209749365141E+01
 0.1215354739861E+01
 0.1216804303727E+01
 0.1214579915325E+01
 0.1209112850201E+01
 0.1200756373181E+01
 0.1189777263707E+01
 0.1176359860591E+01
 0.1160617928197E+01
 0.1142612117798E+01
 0.1122370615512E+01
 0.1099913502588E+01
 0.1075280695541E+01
 0.1048562255364E+01
 0.1019932160115E+01
 0.9896897152940E+00
 0.9583241260789E+00
 0.9265667746498E+00
 0.8954182495639E+00
 0.8662010146843E+00
 0.8406507545829E+00
 0.8210409816620E+00
 0.8103205153573E+00
 0.8122100923223E+00
 0.8311466204553E+00
 0.8719020709165E+00
 0.9387704637949E+00
 0.1034409433528E+01
 0.1158623376328E+01
 0.1307530281653E+01
 0.1473487753431E+01
 0.1645964424004E+01
 0.1813189259862E+01
 0.9651635075086E+00
 0.9987419732592E+00
 0.1032079524457E+01
 0.1063650961330E+01
 0.1092115727230E+01
 0.1116481796178E+01
 0.1136172001404E+01
 0.1150998169915E+01
 0.1161075231384E+01
 0.1166713606754E+01
 0.1168318944795E+01
 0.1166314340029E+01
 0.1161088776434E+01
 0.1152968825254E+01
 0.1142208133056E+01
 0.1128989309288E+01
 0.1113433997905E+01
 0.1095619005224E+01
 0.1075595986627E+01
 0.1053415020415E+01
 0.1029151776966E+01
 0.1002936984880E+01
 0.9749892574725E+00
 0.9456549553108E+00
 0.9154688092500E+00
 0.8852036294129E+00
 0.8558976310354E+00
 0.8289047197291E+00
 0.8059782617352E+00
 0.7893808749445E+00
 0.7819961882294E+00
 0.7873845096700E+00
 0.8096737564837E+00
 0.8531393247398E+00
 0.9214177005995E+00
 0.1016482662281E+01
 0.1137654070748E+01
 0.1280992765228E+01
 0.1439348360331E+01
 0.1603154384381E+01
 0.1761795114632E+01
 0.9270712304437E+00
 0.9585827077243E+00
 0.9898833325115E+00
 0.1019597442896E+01
 0.1046502323846E+01
 0.1069670598776E+01
 0.1088533627671E+01
 0.1102867387404E+01
 0.1112724846455E+01
 0.1118345837801E+01
 0.1120069541989E+01
 0.1118263940950E+01
 0.1113277063246E+01
 0.1105408692311E+01
 0.1094898517595E+01
 0.1081926306620E+01
 0.1066620388091E+01
 0.1049072474406E+01
 0.1029356306644E+01
 0.1007550303412E+01
 0.9837637965341E+00
 0.9581654804557E+00
 0.9310150830824E+00
 0.9027014298818E+00
 0.8737989280250E+00
 0.8451144569695E+00
 0.8177145919102E+00
 0.7929732006819E+00
 0.7726475931525E+00
 0.7589737860881E+00
 0.7547535468098E+00
 0.7633724460599E+00
 0.7886464016637E+00
 0.8343785935561E+00
 0.9036151151997E+00
 0.9977526093427E+00
 0.1115739735462E+01
 0.1253648592745E+01
 0.1404800415727E+01
 0.1560483492711E+01
 0.1711105392318E+01
 0.8891377625548E+00
 0.9186770007473E+00
 0.9480277019737E+00
 0.9759488760675E+00
 0.1001326563988E+01
 0.1023297193255E+01
 0.1041306985528E+01
 0.1055106404028E+01
 0.1064697406852E+01
 0.1070258455806E+01
 0.1072068743928E+01
 0.1070444920500E+01
 0.1065695715214E+01
 0.1058094366227E+01
 0.1047866036829E+01
 0.1035186676347E+01
 0.1020190121266E+01
 0.1002981660636E+01
 0.9836555858255E+00
 0.9623168018436E+00
 0.9391059883834E+00
 0.9142268764822E+00
 0.8879765774850E+00
 0.8607816413377E+00
 0.8332502815857E+00
 0.8062162994644E+00
 0.7807659409064E+00
 0.7582826403021E+00
 0.7405156097183E+00
 0.7296609473210E+00
 0.7284251248159E+00
 0.7400090310405E+00
 0.7679188628343E+00
 0.8155138471127E+00
 0.8853142463094E+00
 0.9782329698196E+00
 0.1092939182631E+01
 0.1225565030144E+01
 0.1369879160147E+01
 0.1517932465609E+01
 0.1661043321125E+01
 0.8513467832808E+00
 0.8789995436590E+00
 0.9064797891732E+00
 0.9326686474420E+00
 0.9565529012193E+00
 0.9773314864130E+00
 0.9944703004004E+00
 0.1007702790361E+01
 0.1016989311193E+01
 0.1022455203184E+01
 0.1024325751122E+01
 0.1022870050730E+01
 0.1018359394490E+01
 0.1011040973939E+01
 0.1001125068897E+01
 0.9887829581635E+00
 0.9741528374204E+00
 0.9573521884210E+00
 0.9384942015045E+00
 0.9177082600051E+00
 0.8951639067546E+00
 0.8710968128963E+00
 0.8458376071710E+00
 0.8198457677098E+00
 0.7937575336715E+00
 0.7684268034328E+00
 0.7449514706046E+00
 0.7247152524758E+00
 0.7094488467254E+00
 0.7012973071293E+00
 0.7028612683200E+00
 0.7171507666147E+00
 0.7473687634435E+00
 0.7964610751312E+00
 0.8664828448320E+00
 0.9579441426234E+00
 0.1069308439669E+01
 0.1196802213690E+01
 0.1334615947854E+01
 0.1475484672495E+01
 0.1611539602181E+01
 0.8136832937782E+00
 0.8395271854981E+00
 0.8652094874812E+00
 0.8897228661492E+00
 0.9121478265853E+00
 0.9317442622888E+00
 0.9480013671210E+00
 0.9606425252170E+00
 0.9695945175816E+00
 0.9749368747324E+00
 0.9768465881289E+00
 0.9755488782367E+00
 0.9712795710695E+00
 0.9642604952109E+00
 0.9546868606644E+00
 0.9427245337824E+00
 0.9285149568035E+00
 0.9121863882199E+00
 0.8938691827446E+00
 0.8737150798210E+00
 0.8519198767885E+00
 0.8287479777681E+00
 0.8045595970184E+00
 0.7798423710651E+00
 0.7552549632089E+00
 0.7316649509602E+00
 0.7101745722887E+00
 0.6921596477450E+00
 0.6793234704127E+00
 0.6737509110981E+00
 0.6779287868206E+00
 0.6946733254822E+00
 0.7268939731885E+00
 0.7771546537203E+00
 0.8471015008893E+00
 0.9369112329015E+00
 0.1044900763868E+01
 0.1167414478602E+01
 0.1299039022715E+01
 0.1433125679786E+01
 0.1562532200269E+01
 0.7761333814592E+00
 0.8002385571402E+00
 0.8241889696618E+00
 0.8470799424711E+00
 0.8680795986398E+00
 0.8865071214775E+00
 0.9018776851924E+00
 0.9139102650083E+00
 0.9225048719702E+00
 0.9277016438344E+00
 0.9296343920454E+00
 0.9284879640643E+00
 0.9244647209810E+00
 0.9177619358751E+00
 0.9085596965484E+00
 0.8970178118067E+00
 0.8832798992070E+00
 0.8674835655115E+00
 0.8497745413832E+00
 0.8303247229188E+00
 0.8093534732610E+00
 0.7871506636737E+00
 0.7641021576763E+00
 0.7407190767395E+00
 0.7176771574033E+00
 0.6958517036219E+00
 0.6763427390180E+00
 0.6605110774928E+00
 0.6500251301803E+00
 0.6469022314576E+00
 0.6535096468536E+00
 0.6724695323772E+00
 0.7064099170272E+00
 0.7575443146450E+00
 0.8271609992420E+00
 0.9151626379428E+00
 0.1019766792739E+01
 0.1137451394539E+01
 0.1263174144541E+01
 0.1390843099425E+01
 0.1513966114424E+01
 0.7386840201059E+00
 0.7611137493920E+00
 0.7833922904424E+00
 0.8047102099310E+00
 0.8243179817964E+00
 0.8415923902315E+00
 0.8560765362007E+00
 0.8674895445799E+00
 0.8757103720094E+00
 0.8807453363612E+00
 0.8826896625825E+00
 0.8816910965437E+00
 0.8779205043935E+00
 0.8715514835119E+00
 0.8627490485507E+00
 0.8516663896553E+00
 0.8384482739046E+00
 0.8232402323520E+00
 0.8062015558104E+00
 0.7875220539559E+00
 0.7674419269473E+00
 0.7462732352938E+00
 0.7244236044841E+00
 0.7024231212688E+00
 0.6809595490421E+00
 0.6609104680858E+00
 0.6433678759509E+00
 0.6296714875679E+00
 0.6214486477693E+00
 0.6206433922971E+00
 0.6294996535043E+00
 0.6504474630453E+00
 0.6858471709425E+00
 0.7375925716817E+00
 0.8066601920708E+00
 0.8927289844628E+00
 0.9939546856800E+00
 0.1106958512460E+01
 0.1227045029337E+01
 0.1348626466445E+01
 0.1465792962572E+01
 0.7013228993289E+00
 0.7221340388268E+00
 0.7427950456618E+00
 0.7625855953913E+00
 0.7808340091939E+00
 0.7969730265783E+00
 0.8105750380002E+00
 0.8213629474419E+00
 0.8291994049049E+00
 0.8340616905141E+00
 0.8360105122144E+00
 0.8351595167789E+00
 0.8316499655775E+00
 0.8256326904127E+00
 0.8172577555868E+00
 0.8066712440102E+00
 0.7940180951043E+00
 0.7794503595593E+00
 0.7631390687441E+00
 0.7452896894411E+00
 0.7261605257349E+00
 0.7060825783158E+00
 0.6854814412907E+00
 0.6649018463079E+00
 0.6450388801095E+00
 0.6267674711404E+00
 0.6111665115439E+00
 0.5995494794497E+00
 0.5934976421187E+00
 0.5948773834611E+00
 0.6058071997742E+00
 0.6285287194960E+00
 0.6651493690109E+00
 0.7172725797167E+00
 0.7856043225245E+00
 0.8696423629568E+00
 0.9675102989635E+00
 0.1075977980003E+01
 0.1190673747810E+01
 0.1306467202985E+01
 0.1417970564520E+01
 0.6640382781869E+00
 0.6832816513029E+00
 0.7023740761192E+00
 0.7206793272750E+00
 0.7375997649125E+00
 0.7526225227406E+00
 0.7653501767470E+00
 0.7755122450060E+00
 0.7829589551038E+00
 0.7876425938113E+00
 0.7895929032570E+00
 0.7888921401766E+00
 0.7856537355676E+00
 0.7800066628748E+00
 0.7720862098823E+00
 0.7620309265879E+00
 0.7499849989428E+00
 0.7361056249353E+00
 0.7205737739435E+00
 0.7036083267337E+00
 0.6854829852753E+00
 0.6665445051230E+00
 0.6472327862574E+00
 0.6281031184620E+00
 0.6098535759258E+00
 0.5933520340095E+00
 0.5796599058457E+00
 0.5700601808073E+00
 0.5660840946521E+00
 0.5695172663133E+00
 0.5823520801319E+00
 0.6066468641760E+00
 0.6442713795567E+00
 0.6965663486434E+00
 0.7640036943223E+00
 0.8459357690754E+00
 0.9404773659558E+00
 0.1044549048232E+01
 0.1154081066208E+01
 0.1264358589686E+01
 0.1370462497443E+01
 0.6268188578235E+00
 0.6445395549381E+00
 0.6621072063962E+00
 0.6789656739714E+00
 0.6945881816740E+00
 0.7085148041463E+00
 0.7203788193050E+00
 0.7299185070049E+00
 0.7369747816190E+00
 0.7414782937134E+00
 0.7434308651036E+00
 0.7428857645483E+00
 0.7399302260956E+00
 0.7346722440672E+00
 0.7272325368077E+00
 0.7177417510391E+00
 0.7063424474404E+00
 0.6931956426754E+00
 0.6784904768554E+00
 0.6624570382188E+00
 0.6453817744451E+00
 0.6276241032770E+00
 0.6096347270790E+00
 0.5919756647884E+00
 0.5753440228797E+00
 0.5605967430883E+00
 0.5487740571422E+00
 0.5411250296303E+00
 0.5391278593549E+00
 0.5444853720428E+00
 0.5590643608701E+00
 0.5847459918158E+00
 0.6231777065889E+00
 0.6754632401820E+00
 0.7418725997787E+00
 0.8216426820389E+00
 0.9128976586249E+00
 0.1012708475186E+01
 0.1117286707856E+01
 0.1222295693095E+01
 0.1323237596094E+01
 0.5896536704437E+00
 0.6058912798130E+00
 0.6219730174700E+00
 0.6374197154436E+00
 0.6517728633585E+00
 0.6646241409634E+00
 0.6756377271719E+00
 0.6845622073354E+00
 0.6912315904896E+00
 0.6955576076225E+00
 0.6975167173635E+00
 0.6971352908511E+00
 0.6944758416834E+00
 0.6896262186764E+00
 0.6826927980439E+00
 0.6737980027814E+00
 0.6630819532538E+00
 0.6507082098758E+00
 0.6368723671734E+00
 0.6218135707109E+00
 0.6058284377964E+00
 0.5892860712406E+00
 0.5726446525895E+00
 0.5564693737858E+00
 0.5414528026816E+00
 0.5284375731061E+00
 0.5184396653034E+00
 0.5126715308309E+00
 0.5125561741827E+00
 0.5197125431692E+00
 0.5358833483263E+00
 0.5627794657845E+00
 0.6018411234938E+00
 0.6539587343555E+00
 0.7192284877372E+00
 0.7967967844312E+00
 0.8848111766522E+00
 0.9804909010806E+00
 0.1080309606257E+01
 0.1180275317230E+01
 0.1276269505749E+01
 0.5525319810039E+00
 0.5673207571348E+00
 0.5819506436873E+00
 0.5960171384851E+00
 0.6091279242299E+00
 0.6209250657233E+00
 0.6311035660307E+00
 0.6394233182175E+00
 0.6457131924967E+00
 0.6498681186932E+00
 0.6518412814713E+00
 0.6516339355710E+00
 0.6492851858790E+00
 0.6448635128578E+00
 0.6384611896410E+00
 0.6301921417547E+00
 0.6201932939385E+00
 0.6086295378180E+00
 0.5957012701964E+00
 0.5816546164481E+00
 0.5667938811810E+00
 0.5514950078251E+00
 0.5362205281385E+00
 0.5215355308457E+00
 0.5081248543655E+00
 0.4968139365851E+00
 0.4885920281791E+00
 0.4846329631384E+00
 0.4863031512380E+00
 0.4951373928896E+00
 0.5127566239296E+00
 0.5407087780613E+00
 0.5802414832720E+00
 0.6320533948382E+00
 0.6960912963217E+00
 0.7714317611860E+00
 0.8562563218194E+00
 0.9479291572568E+00
 0.1043168092354E+01
 0.1138295906072E+01
 0.1229536207769E+01
 0.5154431993710E+00
 0.5288121753848E+00
 0.5420195925567E+00
 0.5547340569836E+00
 0.5666278506134E+00
 0.5773923074252E+00
 0.5867529250220E+00
 0.5944814089001E+00
 0.6004026630058E+00
 0.6043963739976E+00
 0.6063940966246E+00
 0.6063734500349E+00
 0.6043512767155E+00
 0.6003774048022E+00
 0.5945302508924E+00
 0.5869150149223E+00
 0.5776647336435E+00
 0.5669444871718E+00
 0.5549578974028E+00
 0.5419560774062E+00
 0.5282486436303E+00
 0.5142156798423E+00
 0.5003211406910E+00
 0.4871270156544E+00
 0.4753075930246E+00
 0.4656686898119E+00
 0.4591709017754E+00
 0.4569480662094E+00
 0.4603092729291E+00
 0.4707056045618E+00
 0.4896391609325E+00
 0.5185025370802E+00
 0.5583646963909E+00
 0.6097520138360E+00
 0.6724829324679E+00
 0.7455811761869E+00
 0.8272700785779E+00
 0.9150545425414E+00
 0.1005880049057E+01
 0.1096357431077E+01
 0.1183019561858E+01
 0.4783768008380E+00
 0.4903498504775E+00
 0.5021595849833E+00
 0.5135468571744E+00
 0.5242473886056E+00
 0.5340007493903E+00
 0.5425623556968E+00
 0.5497157600221E+00
 0.5552825147428E+00
 0.5591280945910E+00
 0.5611636479607E+00
 0.5613443530308E+00
 0.5596657766121E+00
 0.5561597504311E+00
 0.5508910882686E+00
 0.5439560828489E+00
 0.5354832569173E+00
 0.5256368123154E+00
 0.5146221020711E+00
 0.5026933294447E+00
 0.4901631626935E+00
 0.4774132758516E+00
 0.4649063222036E+00
 0.4531984707271E+00
 0.4429509950267E+00
 0.4349481054565E+00
 0.4301203343159E+00
 0.4295607172149E+00
 0.4345209012853E+00
 0.4463692747932E+00
 0.4664925205267E+00
 0.4961355727199E+00
 0.5362018553412E+00
 0.5870629083615E+00
 0.6484268722458E+00
 0.7192784131337E+00
 0.7978882025599E+00
 0.8818970752502E+00
 0.9684630373924E+00
 0.1054461264567E+01
 0.1136704866478E+01
 0.4413222530847E+00
 0.4519181074771E+00
 0.4623504147706E+00
 0.4724320698622E+00
 0.4819614640008E+00
 0.4907254210536E+00
 0.4985084435625E+00
 0.5051055075203E+00
 0.5103348967920E+00
 0.5140484091331E+00
 0.5161376166027E+00
 0.5165361844422E+00
 0.5152192428993E+00
 0.5122012294012E+00
 0.5075336190921E+00
 0.5013036649657E+00
 0.4936348194867E+00
 0.4846894201029E+00
 0.4746731458365E+00
 0.4638414927128E+00
 0.4525080400719E+00
 0.4410536530118E+00
 0.4299371581660E+00
 0.4197064475353E+00
 0.4110076555021E+00
 0.4046018168146E+00
 0.4013884782189E+00
 0.4024195996765E+00
 0.4088898012421E+00
 0.4220862977805E+00
 0.4432841199535E+00
 0.4735881437102E+00
 0.5137484827285E+00
 0.5639973393740E+00
 0.6239478559309E+00
 0.6925566649774E+00
 0.7681454128745E+00
 0.8484857210436E+00
 0.9309343904052E+00
 0.1012610030195E+01
 0.1090580425063E+01
 0.4042689479966E+00
 0.4135011729410E+00
 0.4225718297597E+00
 0.4313662775753E+00
 0.4397451489391E+00
 0.4475415439986E+00
 0.4545679363693E+00
 0.4606298417340E+00
 0.4655418449880E+00
 0.4691421345221E+00
 0.4713031728550E+00
 0.4719377991387E+00
 0.4710014166640E+00
 0.4684916281876E+00
 0.4644468514160E+00
 0.4589452202010E+00
 0.4521046332888E+00
 0.4440846611675E+00
 0.4350899950936E+00
 0.4253757278353E+00
 0.4152543272171E+00
 0.4051035961811E+00
 0.3953761991121E+00
 0.3866095459292E+00
 0.3794328312043E+00
 0.3745827441158E+00
 0.3729273881058E+00
 0.3754778707346E+00
 0.3833726821090E+00
 0.3978197923035E+00
 0.4199865695293E+00
 0.4508452378916E+00
 0.4910038863063E+00
 0.5405690333765E+00
 0.5990716604852E+00
 0.6654489642755E+00
 0.7380755914145E+00
 0.8148486049633E+00
 0.8933112805687E+00
 0.9708074315840E+00
 0.1044637115524E+01
 0.3672061372394E+00
 0.3750830801468E+00
 0.3828034444008E+00
 0.3903260773600E+00
 0.3975737077533E+00
 0.4044246747102E+00
 0.4107179782030E+00
 0.4162683136809E+00
 0.4208856356670E+00
 0.4243941537727E+00
 0.4266473604481E+00
 0.4275377469116E+00
 0.4270015942621E+00
 0.4250202039998E+00
 0.4216192440871E+00
 0.4168677078687E+00
 0.4108775320200E+00
 0.4038047015713E+00
 0.3958516964193E+00
 0.3872716077977E+00
 0.3783738804860E+00
 0.3695311370449E+00
 0.3611877193821E+00
 0.3538685861152E+00
 0.3481845021406E+00
 0.3448470306587E+00
 0.3446928282009E+00
 0.3486928473938E+00
 0.3579307759141E+00
 0.3735375878975E+00
 0.3965770914248E+00
 0.4278959727834E+00
 0.4679706229936E+00
 0.5167938065033E+00
 0.5738249539357E+00
 0.6379882697525E+00
 0.7077120174046E+00
 0.7810132445766E+00
 0.8556107983943E+00
 0.9290580939090E+00
 0.9988679994417E+00
 0.3301228703614E+00
 0.3366475894937E+00
 0.3430246978715E+00
 0.3492881305360E+00
 0.3554227711562E+00
 0.3613510069554E+00
 0.3669365194639E+00
 0.3720013191497E+00
 0.3763493090750E+00
 0.3797899504276E+00
 0.3821576234205E+00
 0.3833247829736E+00
 0.3832091203100E+00
 0.3817761642465E+00
 0.3790391791890E+00
 0.3750580598294E+00
 0.3699384480126E+00
 0.3638320058851E+00
 0.3569378621878E+00
 0.3495055958304E+00
 0.3418398134682E+00
 0.3343059556657E+00
 0.3273380374578E+00
 0.3214468170744E+00
 0.3172234445218E+00
 0.3153539712467E+00
 0.3166440647599E+00
 0.3220256843962E+00
 0.3325294248378E+00
 0.3492117420513E+00
 0.3730369896349E+00
 0.4047330608768E+00
 0.4446540300881E+00
 0.4926892446596E+00
 0.5482351844430E+00
 0.6102075652608E+00
 0.6770875982329E+00
 0.7470067654019E+00
 0.8178499930007E+00
 0.8873673507196E+00
 0.9532678920803E+00
 0.2930079354810E+00
 0.2981781393174E+00
 0.3032149036633E+00
 0.3082293868760E+00
 0.3132687684549E+00
 0.3182979968449E+00
 0.3232030853784E+00
 0.3278109494419E+00
 0.3319175477599E+00
 0.3353164761924E+00
 0.3378226423562E+00
 0.3392886669086E+00
 0.3396141535876E+00
 0.3387494092937E+00
 0.3366956935314E+00
 0.3335039116367E+00
 0.3292731505638E+00
 0.3241500845675E+00
 0.3183294210207E+00
 0.3120557831448E+00
 0.3056271953128E+00
 0.2994000026537E+00
 0.2937960194070E+00
 0.2893102614419E+00
 0.2865133918354E+00
 0.2860659892703E+00
 0.2887436860261E+00
 0.2954410800714E+00
 0.3071377131933E+00
 0.3248181240445E+00
 0.3493512049206E+00
 0.3813523693561E+00
 0.4210618492014E+00
 0.4682744640146E+00
 0.5223305325023E+00
 0.5821400104203E+00
 0.6462351527008E+00
 0.7128561716787E+00
 0.7800459531722E+00
 0.8457410502951E+00
 0.9078329633105E+00
 0.2558498043997E+00
 0.2596578577498E+00
 0.2633534857619E+00
 0.2671276662832E+00
 0.2710898894570E+00
 0.2752456498361E+00
 0.2795002781262E+00
 0.2836825893510E+00
 0.2875782746671E+00
 0.2909636898650E+00
 0.2936337891367E+00
 0.2954215333828E+00
 0.2962089689544E+00
 0.2959317877495E+00
 0.2945797104773E+00
 0.2921948308372E+00
 0.2888694839493E+00
 0.2847447449527E+00
 0.2800098716911E+00
 0.2749031194195E+00
 0.2697142138341E+00
 0.2647885356156E+00
 0.2605339224455E+00
 0.2574283086159E+00
 0.2560213488695E+00
 0.2569486877143E+00
 0.2609574501263E+00
 0.2689070016615E+00
 0.2817281368953E+00
 0.3003360618844E+00
 0.3255079512660E+00
 0.3577525667234E+00
 0.3972039295540E+00
 0.4435699336067E+00
 0.4961399058453E+00
 0.5538191249323E+00
 0.6151877382317E+00
 0.6785886762529E+00
 0.7422159309812E+00
 0.8041853568726E+00
 0.8625603421526E+00
 0.2186365876700E+00
 0.2210697138927E+00
 0.2234206397501E+00
 0.2259630558546E+00
 0.2288682552744E+00
 0.2321793161765E+00
 0.2358169444548E+00
 0.2396082020888E+00
 0.2433258648246E+00
 0.2467275895119E+00
 0.2495879457042E+00
 0.2517205121684E+00
 0.2529904193154E+00
 0.2533194505068E+00
 0.2526863348657E+00
 0.2511245931389E+00
 0.2487196511793E+00
 0.2456063894497E+00
 0.2419675774468E+00
 0.2380336548394E+00
 0.2340842852184E+00
 0.2304519906902E+00
 0.2275289141629E+00
 0.2257747897382E+00
 0.2257181896663E+00
 0.2279710212703E+00
 0.2332541573750E+00
 0.2423944095137E+00
 0.2562762933400E+00
 0.2757480427083E+00
 0.3014984258488E+00
 0.3339348433782E+00
 0.3730919897885E+00
 0.4185973316564E+00
 0.4696929424292E+00
 0.5252789691256E+00
 0.5839789920425E+00
 0.6442320785719E+00
 0.7043775004576E+00
 0.7627065067005E+00
 0.8174476486913E+00
 0.1813560203761E+00
 0.1823970363969E+00
 0.1833991009397E+00
 0.1847214342335E+00
 0.1865952491346E+00
 0.1890964266601E+00
 0.1921556778039E+00
 0.1955939778669E+00
 0.1991684993352E+00
 0.2026170463925E+00
 0.2056937663262E+00
 0.2081934757700E+00
 0.2099652777567E+00
 0.2109179104577E+00
 0.2110197445394E+00
 0.2102959974345E+00
 0.2088250114127E+00
 0.2067348113677E+00
 0.2042005228352E+00
 0.2014431585232E+00
 0.1987303719147E+00
 0.1963797905701E+00
 0.1947661539170E+00
 0.1943301726847E+00
 0.1955799354071E+00
 0.1991057947866E+00
 0.2056056413593E+00
 0.2158770390243E+00
 0.2307606579137E+00
 0.2510395476292E+00
 0.2773166782372E+00
 0.3099027869052E+00
 0.3487395114004E+00
 0.3933795036587E+00
 0.4430200875607E+00
 0.4965543879438E+00
 0.5526435700792E+00
 0.6098153200736E+00
 0.6665489215376E+00
 0.7213106587126E+00
 0.7724925770399E+00
 0.1439955432826E+00
 0.1436251124322E+00
 0.1432792169263E+00
 0.1434044353048E+00
 0.1442864890356E+00
 0.1460252600406E+00
 0.1485534764477E+00
 0.1516810760611E+00
 0.1551477596776E+00
 0.1586716755291E+00
 0.1619877493783E+00
 0.1648735277270E+00
 0.1671634797368E+00
 0.1687543929743E+00
 0.1696049639545E+00
 0.1697323078198E+00
 0.1692073458256E+00
 0.1681503306172E+00
 0.1667272354947E+00
 0.1651475986689E+00
 0.1636646555092E+00
 0.1625787523533E+00
 0.1622454862472E+00
 0.1630862492014E+00
 0.1655904514727E+00
 0.1703307512426E+00
 0.1779868801166E+00
 0.1893311641389E+00
 0.2051623880953E+00
 0.2261989912869E+00
 0.2529596161772E+00
 0.2856623769695E+00
 0.3241617088265E+00
 0.3679404481223E+00
 0.4161526516139E+00
 0.4676811987019E+00
 0.5212175460495E+00
 0.5753691106940E+00
 0.6287496531630E+00
 0.6800037177918E+00
 0.7276923048484E+00
 0.1065427393907E+00
 0.1047467577287E+00
 0.1030764944812E+00
 0.1020642946650E+00
 0.1020345565893E+00
 0.1030909112394E+00
 0.1051535729099E+00
 0.1080164534318E+00
 0.1114040201248E+00
 0.1150199784564E+00
 0.1185851829097E+00
 0.1218637771611E+00
 0.1246780769057E+00
 0.1269142796646E+00
 0.1285219014706E+00
 0.1295097123549E+00
 0.1299402551422E+00
 0.1299243042246E+00
 0.1296162076800E+00
 0.1292108840617E+00
 0.1289436658247E+00
 0.1290944864682E+00
 0.1299980970957E+00
 0.1320575273494E+00
 0.1357478811147E+00
 0.1416312170862E+00
 0.1503764970523E+00
 0.1627354182017E+00
 0.1794652671836E+00
 0.2012179357584E+00
 0.2284273286463E+00
 0.2612222593076E+00
 0.2993757082543E+00
 0.3423054434357E+00
 0.3891229534428E+00
 0.4386964107820E+00
 0.4897388374335E+00
 0.5409267572551E+00
 0.5910013064678E+00
 0.6387914071187E+00
 0.6830428417934E+00
 0.6898753558181E-01
 0.6578851366211E-01
 0.6291783365576E-01
 0.6098180658028E-01
 0.6028378420836E-01
 0.6085905401046E-01
 0.6257311270841E-01
 0.6520428351605E-01
 0.6848827312622E-01
 0.7214469591266E-01
 0.7590247909438E-01
 0.7952445714878E-01
 0.8282556320264E-01
 0.8568198427833E-01
 0.8803250424450E-01
 0.8987483825234E-01
 0.9125955995318E-01
 0.9228345458850E-01
 0.9308376720457E-01
 0.9383458415737E-01
 0.9474717001074E-01
 0.9607643915204E-01
 0.9813535761951E-01
 0.1013133251752E+00
 0.1060819972040E+00
 0.1130069766753E+00
 0.1227581750311E+00
 0.1360706522492E+00
 0.1536558543523E+00
 0.1760917639462E+00
 0.2037239173762E+00
 0.2365944347914E+00
 0.2744010091250E+00
 0.3165013432791E+00
 0.3619645535767E+00
 0.4096384470029E+00
 0.4582475378148E+00
 0.5065250796632E+00
 0.5533292049640E+00
 0.5976797972890E+00
 0.6385381825322E+00
 0.3134121765714E-01
 0.2706717846422E-01
 0.2401025079545E-01
 0.2282909311555E-01
 0.2320516475596E-01
 0.2440901956797E-01
 0.2600419198469E-01
 0.2794336376950E-01
 0.3032662835414E-01
 0.3318551207419E-01
 0.3641641532842E-01
 0.3982770940782E-01
 0.4321491377305E-01
 0.4641263563793E-01
 0.4931630041054E-01
 0.5188436070423E-01
 0.5413153209599E-01
 0.5611945187571E-01
 0.5794864077440E-01
 0.5975441208261E-01
 0.6170964173952E-01
 0.6403719384363E-01
 0.6703287189094E-01
 0.7109138651601E-01
 0.7671146480591E-01
 0.8449329699205E-01
 0.9512478322620E-01
 0.1093198147717E+00
 0.1277240506819E+00
 0.1508212758538E+00
 0.1788592662907E+00
 0.2117956487192E+00
 0.2492603823976E+00
 0.2905571015194E+00
 0.3347125969325E+00
 0.3805473724141E+00
 0.4267859973463E+00
 0.4722051053284E+00
 0.5157647376172E+00
 0.5566768557518E+00
 0.5941690024694E+00
 0.6996068637634E-02
 0.1514429921603E-01
 0.2313456435067E-01
 0.2980151926175E-01
 0.3445475269487E-01
 0.3686464135940E-01
 0.3718800789115E-01
 0.3584251946909E-01
 0.3338030344188E-01
 0.3039134252446E-01
 0.2743976090710E-01
 0.2501359952057E-01
 0.2346105183939E-01
 0.2291734133118E-01
 0.2328712679345E-01
 0.2433039133981E-01
 0.2578934757426E-01
 0.2746846714690E-01
 0.2925661138115E-01
 0.3112557714271E-01
 0.3313353235872E-01
 0.3544544564864E-01
 0.3836843245546E-01
 0.4238064584571E-01
 0.4810680396484E-01
 0.5624596030857E-01
 0.6749317689549E-01
 0.8246802081732E-01
 0.1016649307761E+00
 0.1254166228141E+00
 0.1538529283575E+00
 0.1868502562259E+00
 0.2239816888863E+00
 0.2645048335110E+00
 0.3074044785233E+00
 0.3514654111665E+00
 0.3953987824350E+00
 0.4380120720309E+00
 0.4783487759433E+00
 0.5157967004401E+00
 0.5499208088918E+00
 0.4464584107485E-01
 0.5358632331254E-01
 0.6248279042032E-01
 0.6998035033097E-01
 0.7520861613531E-01
 0.7784726301086E-01
 0.7802609647746E-01
 0.7615800051942E-01
 0.7277830451866E-01
 0.6842719880574E-01
 0.6358106862258E-01
 0.5862237928513E-01
 0.5383360736451E-01
 0.4940297152081E-01
 0.4543391711442E-01
 0.4195436036093E-01
 0.3892502412005E-01
 0.3624871596408E-01
 0.3378361314956E-01
 0.3136561724042E-01
 0.2884890261314E-01
 0.2618797619202E-01
 0.2361986004025E-01
 0.2203309184410E-01
 0.2326096846825E-01
 0.2911554512772E-01
 0.3998082630594E-01
 0.5550303751314E-01
 0.7548457127929E-01
 0.9990747911512E-01
 0.1287427728229E+00
 0.1617959445370E+00
 0.1986012348121E+00
 0.2383816581902E+00
 0.2800807946820E+00
 0.3224377618441E+00
 0.3641327666057E+00
 0.4039932772506E+00
 0.4411348716401E+00
 0.4750697981577E+00
 0.5057711506728E+00
 0.8279558507510E-01
 0.9339598969727E-01
 0.1037615240109E+00
 0.1124334311576E+00
 0.1184753024506E+00
 0.1215636612054E+00
 0.1218728209497E+00
 0.1198774556915E+00
 0.1161680883898E+00
 0.1113224017955E+00
 0.1058353257384E+00
 0.1000925630858E+00
 0.9436949967027E-01
 0.8884165024549E-01
 0.8359816899337E-01
 0.7865417693233E-01
 0.7396041795856E-01
 0.6941052013039E-01
 0.6484647429527E-01
 0.6006390035561E-01
 0.5481825971118E-01
 0.4883349264158E-01
 0.4181790071292E-01
 0.3350983606538E-01
 0.2386198608217E-01
 0.1413425178229E-01
 0.1382330941274E-01
 0.2841941171466E-01
 0.4922515150486E-01
 0.7437470422301E-01
 0.1036066649527E+00
 0.1366961739767E+00
 0.1731704462645E+00
 0.2122332070722E+00
 0.2527871603644E+00
 0.2935135687149E+00
 0.3330392437349E+00
 0.3701929665636E+00
 0.4041863574884E+00
 0.4345686696575E+00
 0.4616829609348E+00
 0.1211659832778E+00
 0.1336382323940E+00
 0.1456761447385E+00
 0.1556592760301E+00
 0.1625807767959E+00
 0.1661368737695E+00
 0.1665753962768E+00
 0.1644569005865E+00
 0.1604434401934E+00
 0.1551605470620E+00
 0.1491292103602E+00
 0.1427456614192E+00
 0.1362866904504E+00
 0.1299250229255E+00
 0.1237461492075E+00
 0.1177627504027E+00
 0.1119256228982E+00
 0.1061316278146E+00
 0.1002292259931E+00
 0.9402307524434E-01
 0.8727835861182E-01
 0.7972469944897E-01
 0.7105945378474E-01
 0.6095423205282E-01
 0.4907906769278E-01
 0.3510634406446E-01
 0.1869720683160E-01
 0.1694169200371E-02
 0.2316257041143E-01
 0.4908095291034E-01
 0.7862580474757E-01
 0.1116696079403E+00
 0.1477697970967E+00
 0.1861201834173E+00
 0.2255779092428E+00
 0.2647468712014E+00
 0.3021769364766E+00
 0.3366558465661E+00
 0.3675374557489E+00
 0.3944716262219E+00
 0.4176135505244E+00
 0.1597684657461E+00
 0.1742716352085E+00
 0.1881144652482E+00
 0.1994773711292E+00
 0.2072813406796E+00
 0.2112640996955E+00
 0.2117739756535E+00
 0.2094779850254E+00
 0.2051209383783E+00
 0.1993802416816E+00
 0.1928031517755E+00
 0.1857954371589E+00
 0.1786345191811E+00
 0.1714902720467E+00
 0.1644451297502E+00
 0.1575103368171E+00
 0.1506378631407E+00
 0.1437289664032E+00
 0.1366401606215E+00
 0.1291883025297E+00
 0.1211555788968E+00
 0.1122941788706E+00
 0.1023303245608E+00
 0.9097160743351E-01
 0.7793381353922E-01
 0.6294796877689E-01
 0.4575445827014E-01
 0.2625123361602E-01
 0.8049616217657E-02
 0.2537404305976E-01
 0.5431875289409E-01
 0.8696954653247E-01
 0.1225399010046E+00
 0.1601320254853E+00
 0.1985212044414E+00
 0.2362034113099E+00
 0.2716025625210E+00
 0.3034629070804E+00
 0.3311262821003E+00
 0.3550106420555E+00
 0.3737986980293E+00
 0.1986284425010E+00
 0.2153274323166E+00
 0.2310975339323E+00
 0.2438869299524E+00
 0.2525488135709E+00
 0.2568905818072E+00
 0.2573919693344E+00
 0.2548475476275E+00
 0.2500942903133E+00
 0.2438628089176E+00
 0.2367241872459E+00
 0.2290904263342E+00
 0.2212367887591E+00
 0.2133284104234E+00
 0.2054435928072E+00
 0.1975916091619E+00
 0.1897253060807E+00
 0.1817500050282E+00
 0.1735297066427E+00
 0.1648925889687E+00
 0.1556367464335E+00
 0.1455359178381E+00
 0.1343447174276E+00
 0.1218071568078E+00
 0.1076853902466E+00
 0.9176642218998E-01
 0.7385000907964E-01
 0.5383051565426E-01
 0.3224416661138E-01
 0.1636988542622E-01
 0.3271056501904E-01
 0.6318345356437E-01
 0.9769690640626E-01
 0.1343480549323E+00
 0.1716406314221E+00
 0.2078820024221E+00
 0.2413165175765E+00
 0.2705392881984E+00
 0.2950632435065E+00
 0.3151683187177E+00
 0.3331747490892E+00
 0.2377762298329E+00
 0.2568524251870E+00
 0.2746730622706E+00
 0.2889201798018E+00
 0.2983908871256E+00
 0.3029998104986E+00
 0.3033947435769E+00
 0.3005199083311E+00
 0.2953119960442E+00
 0.2885535758800E+00
 0.2808349509273E+00
 0.2725695568686E+00
 0.2640267470912E+00
 0.2553643986552E+00
 0.2466551577436E+00
 0.2379054694531E+00
 0.2290685454910E+00
 0.2200533177385E+00
 0.2107306263980E+00
 0.2009389275073E+00
 0.1904906679714E+00
 0.1791790698057E+00
 0.1667846059300E+00
 0.1530844712023E+00
 0.1378819460811E+00
 0.1210093296989E+00
 0.1023029136992E+00
 0.8164033851082E-01
 0.5915890649756E-01
 0.3636600749716E-01
 0.2415605458024E-01
 0.4240734559194E-01
 0.7389572477954E-01
 0.1090478214369E+00
 0.1450871520048E+00
 0.1798937225889E+00
 0.2114057788837E+00
 0.2380150762561E+00
 0.2591655600315E+00
 0.2758590184779E+00
 0.2900418195514E+00
 0.2772464408514E+00
 0.2989014702435E+00
 0.3188980633859E+00
 0.3346154400514E+00
 0.3448162990318E+00
 0.3495724758533E+00
 0.3497432320946E+00
 0.3464450158212E+00
 0.3407190891305E+00
 0.3333956637722E+00
 0.3250774455498E+00
 0.3161732540719E+00
 0.3069421836836E+00
 0.2975320851237E+00
 0.2880083444713E+00
 0.2783737173604E+00
 0.2685813157874E+00
 0.2585433245691E+00
 0.2481369160081E+00
 0.2372099405816E+00
 0.2255877924181E+00
 0.2130812629864E+00
 0.1994944445381E+00
 0.1846353278232E+00
 0.1683455969954E+00
 0.1504991877799E+00
 0.1309650577556E+00
 0.1096175204000E+00
 0.8644955548650E-01
 0.6197505092941E-01
 0.3911648809976E-01
 0.3202375144201E-01
 0.5298415134294E-01
 0.8489277973319E-01
 0.1191979777772E+00
 0.1524730689868E+00
 0.1820921522522E+00
 0.2060598255597E+00
 0.2237400502403E+00
 0.2364923830651E+00
 0.2464481431480E+00
 0.3170810488029E+00
 0.3415468413364E+00
 0.3638518612769E+00
 0.3810332311546E+00
 0.3918550328004E+00
 0.3966120603322E+00
 0.3964256406301E+00
 0.3926061780217E+00
 0.3863003125390E+00
 0.3783778392561E+00
 0.3694447315312E+00
 0.3598980476146E+00
 0.3499818953596E+00
 0.3398312846244E+00
 0.3295028102100E+00
 0.3189947836327E+00
 0.3082598704162E+00
 0.2972132853348E+00
 0.2857381796280E+00
 0.2736910734078E+00
 0.2609090393475E+00
 0.2472186471135E+00
 0.2324455909528E+00
 0.2164268689592E+00
 0.1990413170860E+00
 0.1802038855996E+00
 0.1598172958106E+00
 0.1377638619114E+00
 0.1139715976304E+00
 0.8861728888074E-01
 0.6277869190161E-01
 0.4129473189693E-01
 0.4015641092426E-01
 0.6333700074077E-01
 0.9449969553075E-01
 0.1258811691010E+00
 0.1535531206759E+00
 0.1748419339544E+00
 0.1888351952439E+00
 0.1971069334313E+00
 0.2027112354203E+00
 0.3573302542182E+00
 0.3848753722378E+00
 0.4096275919503E+00
 0.4282405815669E+00
 0.4395362536610E+00
 0.4441181630660E+00
 0.4434272830564E+00
 0.4389866685988E+00
 0.4320433178276E+00
 0.4234940810693E+00
 0.4139367208819E+00
 0.4037485216493E+00
 0.3931537427220E+00
 0.3822718786745E+00
 0.3711494029246E+00
 0.3597796148483E+00
 0.3481145501422E+00
 0.3360723865791E+00
 0.3235420602038E+00
 0.3103881798897E+00
 0.2964583101290E+00
 0.2815929981775E+00
 0.2656374903909E+00
 0.2484561513453E+00
 0.2299643224109E+00
 0.2101185734285E+00
 0.1888579061099E+00
 0.1660812668908E+00
 0.1416875923602E+00
 0.1157001791349E+00
 0.8857641917029E-01
 0.6219073304932E-01
 0.4363140461470E-01
 0.4819300545947E-01
 0.7219207030305E-01
 0.1006075546970E+00
 0.1260794050555E+00
 0.1445917766139E+00
 0.1546007891664E+00
 0.1578820467658E+00
 0.1588019395271E+00
 0.3980550141861E+00
 0.4289920476184E+00
 0.4563334313297E+00
 0.4763083972314E+00
 0.4878833575157E+00
 0.4920815097621E+00
 0.4907266168067E+00
 0.4855666630536E+00
 0.4779359778755E+00
 0.4687408423728E+00
 0.4585571511262E+00
 0.4477338786187E+00
 0.4364707233828E+00
 0.4248693177254E+00
 0.4129649953335E+00
 0.4007457214507E+00
 0.3881629101368E+00
 0.3751378042540E+00
 0.3615650999046E+00
 0.3473170666086E+00
 0.3322506408771E+00
 0.3162184535257E+00
 0.2990830247005E+00
 0.2807342626073E+00
 0.2611234679334E+00
 0.2402498795434E+00
 0.2180916946815E+00
 0.1945714189261E+00
 0.1695792534569E+00
 0.1430593564980E+00
 0.1151923593100E+00
 0.8683330421356E-01
 0.6089017915251E-01
 0.4645669466884E-01
 0.5522217299900E-01
 0.7770745259059E-01
 0.1001943868111E+00
 0.1156851254059E+00
 0.1213456951314E+00
 0.1189951127067E+00
 0.1146467842740E+00
 0.4393307147076E+00
 0.4740251170465E+00
 0.5040944514784E+00
 0.5253083083170E+00
 0.5369085560676E+00
 0.5404793849811E+00
 0.5382925163429E+00
 0.5323218152915E+00
 0.5239654638327E+00
 0.5141161273409E+00
 0.5033124537758E+00
 0.4918665375198E+00
 0.4799492850806E+00
 0.4676426384031E+00
 0.4549701846758E+00
 0.4419145239843E+00
 0.4284266634209E+00
 0.4144311869561E+00
 0.3998287088219E+00
 0.3844989148089E+00
 0.3683070889673E+00
 0.3511159288146E+00
 0.3328025804990E+00
 0.3132802331998E+00
 0.2925353514107E+00
 0.2706109052698E+00
 0.2475271970697E+00
 0.2232361628754E+00
 0.1976329801263E+00
 0.1706211883632E+00
 0.1422372122474E+00
 0.1128917491858E+00
 0.8395890204609E-01
 0.5949174862688E-01
 0.4944632635896E-01
 0.5966099393678E-01
 0.7698242409848E-01
 0.8882844734605E-01
 0.8965232232625E-01
 0.8079082856345E-01
 0.7020394279582E-01
 0.4812525232773E+00
 0.5201332000929E+00
 0.5530545805533E+00
 0.5753078451508E+00
 0.5866060284943E+00
 0.5892709198972E+00
 0.5860823374103E+00
 0.5792229037976E+00
 0.5701183423747E+00
 0.5596194968585E+00
 0.5482115130943E+00
 0.5361616394407E+00
 0.5236086076253E+00
 0.5106135487985E+00
 0.4971881948771E+00
 0.4833100706758E+00
 0.4689301981173E+00
 0.4539769450956E+00
 0.4383571946350E+00
 0.4219580354416E+00
 0.4046522417268E+00
 0.3863104665393E+00
 0.3668213706469E+00
 0.3461184953117E+00
 0.3242221211872E+00
 0.3012196922149E+00
 0.2771762413413E+00
 0.2520782303103E+00
 0.2258363757115E+00
 0.1983381022789E+00
 0.1695410991113E+00
 0.1396270974925E+00
 0.1093087991498E+00
 0.8054937783343E-01
 0.5837068579195E-01
 0.5152690846622E-01
 0.5892167825299E-01
 0.6555656039859E-01
 0.6090285828437E-01
 0.4455306612423E-01
 0.2605529974740E-01
 0.5239433383876E+00
 0.5675151220660E+00
 0.6033779791144E+00
 0.6263625554279E+00
 0.6369428709541E+00
 0.6383921718858E+00
 0.6340408481479E+00
 0.6262364438028E+00
 0.6163814154111E+00
 0.6052526316649E+00
 0.5932658904981E+00
 0.5806369905791E+00
 0.5674703333659E+00
 0.5538059996932E+00
 0.5396443224426E+00
 0.5249583744164E+00
 0.5096998055254E+00
 0.4938013532077E+00
 0.4771767098935E+00
 0.4597206403294E+00
 0.4413128353185E+00
 0.4218297966483E+00
 0.4011680847152E+00
 0.3792777851207E+00
 0.3562107837748E+00
 0.3320990798107E+00
 0.3070544703005E+00
 0.2811022682795E+00
 0.2541776165355E+00
 0.2261704137756E+00
 0.1970002546148E+00
 0.1667222611183E+00
 0.1357094034623E+00
 0.1050095532087E+00
 0.7717208526496E-01
 0.5753358261666E-01
 0.5091101915004E-01
 0.4950040210171E-01
 0.3950485587464E-01
 0.2150560443752E-01
 0.2388613017986E-01
 0.5675658886732E+00
 0.6164235615564E+00
 0.6552485417253E+00
 0.6785030662872E+00
 0.6878471944818E+00
 0.6877513912576E+00
 0.6821004418787E+00
 0.6733263523813E+00
 0.6627431874795E+00
 0.6510202711441E+00
 0.6384903105823E+00
 0.6253132238226E+00
 0.6115585104521E+00
 0.5972459837744E+00
 0.5823656391399E+00
 0.5668870462785E+00
 0.5507632538267E+00
 0.5339320517604E+00
 0.5163146465264E+00
 0.4978140893121E+00
 0.4783168597574E+00
 0.4577033969620E+00
 0.4358740819979E+00
 0.4127906609034E+00
 0.3885331984190E+00
 0.3632772540900E+00
 0.3371824182030E+00
 0.3103162041750E+00
 0.2826459778262E+00
 0.2540802095632E+00
 0.2245315103642E+00
 0.1939908300864E+00
 0.1626387768658E+00
 0.1310414343845E+00
 0.1006008501905E+00
 0.7439405215856E-01
 0.5675623332379E-01
 0.4668390918335E-01
 0.3681308437238E-01
 0.4291928880476E-01
 0.6985355188950E-01
 0.6123416809142E+00
 0.6671840057375E+00
 0.7088649251847E+00
 0.7317140992281E+00
 0.7391930397753E+00
 0.7372255047408E+00
 0.7301833184215E+00
 0.7204567994007E+00
 0.7091958860626E+00
 0.6969314216847E+00
 0.6839033017667E+00
 0.6702140729280E+00
 0.6558996416639E+00
 0.6409614499119E+00
 0.6253808284713E+00
 0.6091250888892E+00
 0.5921495549663E+00
 0.5743977797262E+00
 0.5557992901344E+00
 0.5362663964515E+00
 0.5156928858391E+00
 0.4939617328817E+00
 0.4709727650993E+00
 0.4466932698701E+00
 0.4212264321644E+00
 0.3947887507646E+00
 0.3675870516404E+00
 0.3397330235980E+00
 0.3112331100138E+00
 0.2820294959394E+00
 0.2520556865903E+00
 0.2212869033396E+00
 0.1898002210811E+00
 0.1578723305094E+00
 0.1262519517758E+00
 0.9681535206115E-01
 0.7304626992961E-01
 0.5763179583312E-01
 0.5285129625196E-01
 0.7696050952324E-01
 0.1184385941322E+00
 0.6585816569894E+00
 0.7202209013733E+00
 0.7644258122882E+00
 0.7859010271078E+00
 0.7907826847901E+00
 0.7866597779858E+00
 0.7782064580148E+00
 0.7675962645786E+00
 0.7557379144991E+00
 0.7430007294949E+00
 0.7295278986470E+00
 0.7153666764192E+00
 0.7005227612440E+00
 0.6849822549545E+00
 0.6687200747638E+00
 0.6517027623725E+00
 0.6338888309713E+00
 0.6152282409172E+00
 0.5956596369439E+00
 0.5751058890650E+00
 0.5534694723575E+00
 0.5306354780441E+00
 0.5064988920049E+00
 0.4810251246003E+00
 0.4543332916452E+00
 0.4266758146019E+00
 0.3983037670017E+00
 0.3693730223003E+00
 0.3399349562398E+00
 0.3099803737493E+00
 0.2794910156234E+00
 0.2484710440560E+00
 0.2169647033837E+00
 0.1850770339067E+00
 0.1531173651283E+00
 0.1221194495769E+00
 0.9479823585084E-01
 0.7588448269126E-01
 0.7431111249708E-01
 0.1111894867784E+00
 0.1692676547987E+00
 0.7067376856743E+00
 0.7760928517311E+00
 0.8220946198834E+00
 0.8408379667731E+00
 0.8423292308424E+00
 0.8358739056345E+00
 0.8260900536182E+00
 0.8147225910537E+00
 0.8023765854015E+00
 0.7892499218100E+00
 0.7753923335747E+00
 0.7608018602289E+00
 0.7454594994854E+00
 0.7293401171614E+00
 0.7124149696463E+00
 0.6946514857284E+00
 0.6760122404191E+00
 0.6564540681351E+00
 0.6359253513095E+00
 0.6143610076741E+00
 0.5916746137635E+00
 0.5677546028660E+00
 0.5424876462609E+00
 0.5158287093485E+00
 0.4879029296425E+00
 0.4589901171893E+00
 0.4293789190421E+00
 0.3992666271923E+00
 0.3687543173666E+00
 0.3378965186708E+00
 0.3067510636940E+00
 0.2753957997008E+00
 0.2439098797386E+00
 0.2123270898295E+00
 0.1806644552159E+00
 0.1492520644303E+00
 0.1197606348694E+00
 0.9741819958959E-01
 0.9582017709246E-01
 0.1435202002906E+00
 0.2229473289276E+00
 0.7574928869007E+00
 0.8355367417414E+00
 0.8819214975003E+00
 0.8960908443292E+00
 0.8934475107554E+00
 0.8846789604979E+00
 0.8737692039978E+00
 0.8618285312206E+00
 0.8491309711724E+00
 0.8357091939549E+00
 0.8215306384799E+00
 0.8065543506416E+00
 0.7907440980806E+00
 0.7740685402857E+00
 0.7564984064900E+00
 0.7380037430838E+00
 0.7185519320654E+00
 0.6981068554799E+00
 0.6766268579327E+00
 0.6540602764290E+00
 0.6303352435099E+00
 0.6053472425780E+00
 0.5789732578787E+00
 0.5511486964953E+00
 0.5219914247632E+00
 0.4917948791321E+00
 0.4608729985349E+00
 0.4294578865500E+00
 0.3977040800119E+00
 0.3657456809442E+00
 0.3337452929544E+00
 0.3018998920423E+00
 0.2703932500993E+00
 0.2392905167460E+00
 0.2084678015809E+00
 0.1777201306458E+00
 0.1473972524291E+00
 0.1214746102967E+00
 0.1162785054812E+00
 0.1724902958107E+00
 0.2803955741710E+00
 0.8119284508641E+00
 0.8995116067481E+00
 0.9436768940543E+00
 0.9509140434584E+00
 0.9436716048245E+00
 0.9329089075999E+00
 0.9212067874594E+00
 0.9089272698968E+00
 0.8960347065237E+00
 0.8824183658752E+00
 0.8679830801051E+00
 0.8526628649000E+00
 0.8364133364687E+00
 0.8192026752149E+00
 0.8010044307463E+00
 0.7817929615358E+00
 0.7615409881157E+00
 0.7402192187684E+00
 0.7177955561195E+00
 0.6942325043274E+00
 0.6694768770614E+00
 0.6434382832342E+00
 0.6159868936745E+00
 0.5870304472016E+00
 0.5566622023669E+00
 0.5251674934898E+00
 0.4928646343561E+00
 0.4600087406180E+00
 0.4268111002914E+00
 0.3935030236637E+00
 0.3603815159939E+00
 0.3278075653217E+00
 0.2961403581781E+00
 0.2655870131892E+00
 0.2360515711199E+00
 0.2070761759012E+00
 0.1777778993713E+00
 0.1490772838112E+00
 0.1365656420104E+00
 0.1965300947262E+00
 0.3428833203099E+00
 0.8718518130540E+00
 0.9691983127978E+00
 0.1006502994178E+01
 0.1004146001176E+01
 0.9925333065523E+00
 0.9804627246858E+00
 0.9684036019836E+00
 0.9560581708118E+00
 0.9431383491563E+00
 0.9294276516859E+00
 0.9147963900450E+00
 0.8991700438795E+00
 0.8825063595425E+00
 0.8647791137419E+00
 0.8459680439536E+00
 0.8260533579324E+00
 0.8050133509254E+00
 0.7828248660403E+00
 0.7594641529660E+00
 0.7349073368759E+00
 0.7091236357955E+00
 0.6820477215767E+00
 0.6535534543638E+00
 0.6235173134690E+00
 0.5919861595903E+00
 0.5592028852849E+00
 0.5254557277994E+00
 0.4910042544084E+00
 0.4561207349071E+00
 0.4211551503142E+00
 0.3865698181664E+00
 0.3529319310693E+00
 0.3208423945842E+00
 0.2907669147738E+00
 0.2628236437797E+00
 0.2366450178680E+00
 0.2108341243393E+00
 0.1823099723686E+00
 0.1598380227460E+00
 0.2143654691175E+00
 0.4122305883428E+00
 0.9404966755768E+00
 0.1045777844156E+01
 0.1068202520828E+01
 0.1054227185780E+01
 0.1039741806020E+01
 0.1027330682415E+01
 0.1015406145695E+01
 0.1003293161401E+01
 0.9905103052053E+00
 0.9767981439718E+00
 0.9620236634373E+00
 0.9461222038402E+00
 0.9290643830728E+00
 0.9108355974038E+00
 0.8914249460299E+00
 0.8708197364009E+00
 0.8490037118930E+00
 0.8259586378104E+00
 0.8016670413207E+00
 0.7761162355178E+00
 0.7492990739769E+00
 0.7211890547677E+00
 0.6916867016529E+00
 0.6606458620118E+00
 0.6280412885118E+00
 0.5940180211692E+00
 0.5587781428789E+00
 0.5225590109303E+00
 0.4857019822298E+00
 0.4487044812045E+00
 0.4122277124242E+00
 0.3770812215221E+00
 0.3441631216912E+00
 0.3143023073340E+00
 0.2880528787061E+00
 0.2654306342746E+00
 0.2456414511031E+00
 0.2233848088962E+00
 0.1926898648250E+00
 0.2270084207482E+00
 0.4914059711065E+00
 0.1024189748087E+01
 0.1129252332876E+01
 0.1123925361677E+01
 0.1099762634648E+01
 0.1085399881297E+01
 0.1073561685482E+01
 0.1062330892541E+01
 0.1050736594313E+01
 0.1038237524852E+01
 0.1024601691464E+01
 0.1009723894283E+01
 0.9935689164206E+00
 0.9761302741423E+00
 0.9574106547683E+00
 0.9374112281208E+00
 0.9161272481780E+00
 0.8935473677804E+00
 0.8696565217303E+00
 0.8444406182668E+00
 0.8178938176599E+00
 0.7900285357381E+00
 0.7608685875579E+00
 0.7303818465614E+00
 0.6984373803327E+00
 0.6649116376566E+00
 0.6297584191914E+00
 0.5930025839322E+00
 0.5548248982133E+00
 0.5156532911438E+00
 0.4761734813185E+00
 0.4372858929871E+00
 0.4000682704014E+00
 0.3657512625777E+00
 0.3356031924461E+00
 0.3108282557836E+00
 0.2922266274415E+00
 0.2799739829981E+00
 0.2722127346640E+00
 0.2461373552476E+00
 0.2438062875216E+00
 0.5868826954587E+00
 0.1137004430662E+01
 0.1212815618942E+01
 0.1164986489551E+01
 0.1141538626290E+01
 0.1129657915743E+01
 0.1119335666211E+01
 0.1109370657853E+01
 0.1098520778751E+01
 0.1086426784456E+01
 0.1072919344269E+01
 0.1057961387171E+01
 0.1041562279016E+01
 0.1023748004505E+01
 0.1004543122938E+01
 0.9839629832308E+00
 0.9620110773868E+00
 0.9386799855078E+00
 0.9139555967254E+00
 0.8878234444798E+00
 0.8602789342321E+00
 0.8313437382717E+00
 0.8010882106829E+00
 0.7696041057888E+00
 0.7368820347941E+00
 0.7026858219074E+00
 0.6666081741350E+00
 0.6283503442719E+00
 0.5880004523697E+00
 0.5461089424819E+00
 0.5036086950675E+00
 0.4616917827218E+00
 0.4217259202416E+00
 0.3852542257458E+00
 0.3540546815094E+00
 0.3300666690404E+00
 0.3155186277226E+00
 0.3113787612756E+00
 0.3218899479449E+00
 0.3321414603231E+00
 0.2958352587817E+00
 0.7199977860244E+00
 0.1317299893025E+01
 0.1252072554686E+01
 0.1191385270759E+01
 0.1181657686954E+01
 0.1172456326049E+01
 0.1165153633573E+01
 0.1156724551732E+01
 0.1146823796371E+01
 0.1135196944900E+01
 0.1121841266857E+01
 0.1106804187893E+01
 0.1090156104984E+01
 0.1071961912318E+01
 0.1052271572616E+01
 0.1031115806417E+01
 0.1008506087409E+01
 0.9844372155677E+00
 0.9588938889909E+00
 0.9318563198591E+00
 0.9033148564449E+00
 0.8732877063694E+00
 0.8418599170101E+00
 0.8092709766709E+00
 0.7759062122900E+00
 0.7414585397739E+00
 0.7048054513661E+00
 0.6651088483730E+00
 0.6223419021450E+00
 0.5772457832386E+00
 0.5310847838490E+00
 0.4854100214826E+00
 0.4419166046972E+00
 0.4023719526856E+00
 0.3689749402489E+00
 0.3447773438320E+00
 0.3329736135626E+00
 0.3383776278388E+00
 0.3615874909637E+00
 0.4362333502028E+00
 0.4498147566610E+00
 0.1003561793708E+01
 0.2553579110085E+00
 0.3716591270565E+00
 0.4828175225815E+00
 0.5845320524233E+00
 0.6753250121906E+00
 0.7550895657868E+00
 0.8241140847132E+00
 0.8830531967043E+00
 0.9329653572009E+00
 0.9750553906167E+00
 0.1010470587844E+01
 0.1040254783097E+01
 0.1065358525803E+01
 0.1086625942787E+01
 0.1104770690471E+01
 0.1120364552443E+01
 0.1133758067826E+01
 0.1145109661905E+01
 0.1154621787152E+01
 0.1162364873893E+01
 0.2436246029408E+00
 0.3565135607372E+00
 0.4647858279570E+00
 0.5646360697427E+00
 0.6545367215656E+00
 0.7341992539009E+00
 0.8037999470850E+00
 0.8638629443381E+00
 0.9152741392427E+00
 0.9590802649327E+00
 0.9963159580095E+00
 0.1027949206411E+01
 0.1054879023426E+01
 0.1077919945035E+01
 0.1097778097312E+01
 0.1115019546051E+01
 0.1129996783735E+01
 0.1142925931280E+01
 0.1153940259581E+01
 0.1162842704429E+01
 0.2327029992420E+00
 0.3424810262455E+00
 0.4480830203351E+00
 0.5460501205831E+00
 0.6348985265499E+00
 0.7142223286047E+00
 0.7840978329490E+00
 0.8449496262802E+00
 0.8975267436595E+00
 0.9427406829087E+00
 0.9815215207835E+00
 0.1014763363199E+01
 0.1043312756954E+01
 0.1067949721539E+01
 0.1089357880733E+01
 0.1108086294744E+01
 0.1124500876867E+01
 0.1138823659921E+01
 0.1151158992654E+01
 0.1161436397602E+01
 0.2224845112923E+00
 0.3294429031460E+00
 0.4325149900403E+00
 0.5285901002469E+00
 0.6162480292388E+00
 0.6950192862016E+00
 0.7649062484584E+00
 0.8262515155654E+00
 0.8796930520182E+00
 0.9260277395291E+00
 0.9660913547243E+00
 0.1000706914700E+01
 0.1030667453525E+01
 0.1056713200092E+01
 0.1079498357419E+01
 0.1099553798683E+01
 0.1117247176950E+01
 0.1132810433842E+01
 0.1146388677930E+01
 0.1158063060076E+01
 0.2129008607848E+00
 0.3172629298404E+00
 0.4179235655826E+00
 0.5120914470195E+00
 0.5984391001669E+00
 0.6764689380782E+00
 0.7461330012265E+00
 0.8077079406776E+00
 0.8617399700916E+00
 0.9089286496686E+00
 0.9500254620975E+00
 0.9857859857692E+00
 0.1016949409410E+01
 0.1044213463981E+01
 0.1068200430194E+01
 0.1089421133953E+01
 0.1108244288523E+01
 0.1124924465859E+01
 0.1139660932562E+01
 0.1152663441418E+01
 0.2038923704093E+00
 0.3058285419593E+00
 0.4041670142048E+00
 0.4964109824454E+00
 0.5813418943808E+00
 0.6584629400370E+00
 0.7276945459268E+00
 0.7892614505261E+00
 0.8436339746784E+00
 0.8914286235726E+00
 0.9333217327099E+00
 0.9700055851845E+00
 0.1002166510358E+01
 0.1030459213998E+01
 0.1055473476381E+01
 0.1077701185034E+01
 0.1097514514595E+01
 0.1115194031853E+01
 0.1130989763363E+01
 0.1145202120844E+01
 0.1954075831447E+00
 0.2950420183799E+00
 0.3911227561018E+00
 0.4814226253082E+00
 0.5648416247418E+00
 0.6409044263503E+00
 0.7095152759408E+00
 0.7708588974964E+00
 0.8253429156697E+00
 0.8735127550107E+00
 0.9159778079260E+00
 0.9533715441351E+00
 0.9863295351448E+00
 0.1015464421297E+01
 0.1041334603164E+01
 0.1064415198894E+01
 0.1085082934473E+01
 0.1103642837218E+01
 0.1120385261110E+01
 0.1135665108949E+01
 0.1874017020387E+00
 0.2848191145323E+00
 0.3786844308643E+00
 0.4670161559215E+00
 0.5488368144166E+00
 0.6237071374962E+00
 0.6915272715700E+00
 0.7524520010343E+00
 0.8068372503420E+00
 0.8551674921402E+00
 0.8979925550408E+00
 0.9358917395534E+00
 0.9694527202907E+00
 0.9992480707390E+00
 0.1025806759218E+01
 0.1049589059891E+01
 0.1070976018238E+01
 0.1090293057845E+01
 0.1107859123005E+01
 0.1124054106548E+01
 0.1798356711478E+00
 0.2750871193653E+00
 0.3667599993313E+00
 0.4530953997933E+00
 0.5332381464113E+00
 0.6067946264514E+00
 0.6736700905325E+00
 0.7339977061330E+00
 0.7880908681001E+00
 0.8363816992815E+00
 0.8793671021974E+00
 0.9175768526313E+00
 0.9515540268463E+00
 0.9818336650640E+00
 0.1008917422522E+01
 0.1033252086137E+01
 0.1055221854616E+01
 0.1075167788086E+01
 0.1093426940878E+01
 0.1110383196919E+01
 0.1726753776917E+00
 0.2657833999144E+00
 0.3552700124980E+00
 0.4395767879533E+00
 0.5179674425316E+00
 0.5900996980791E+00
 0.6558906156610E+00
 0.7154584686988E+00
 0.7690817210506E+00
 0.8171474594456E+00
 0.8601056049316E+00
 0.8984409089603E+00
 0.9326552936666E+00
 0.9632489398405E+00
 0.9906981403568E+00
 0.1015436958848E+01
 0.1037851101117E+01
 0.1058292815948E+01
 0.1077109556830E+01
 0.1094676688115E+01
 0.1658909206207E+00
 0.2568540902101E+00
 0.3441461019227E+00
 0.4263880295794E+00
 0.5029567231429E+00
 0.5735638399339E+00
 0.6381428378257E+00
 0.6968023701981E+00
 0.7497922041548E+00
 0.7974605855083E+00
 0.8402157336340E+00
 0.8785016077962E+00
 0.9127823385223E+00
 0.9435258053553E+00
 0.9711845644276E+00
 0.9961802173431E+00
 0.1018898139896E+01
 0.1039698084883E+01
 0.1058933346121E+01
 0.1076966775240E+01
 0.1594559826738E+00
 0.2482529744200E+00
 0.3333296894071E+00
 0.4134669734423E+00
 0.4881473808788E+00
 0.5571367159232E+00
 0.6203876392206E+00
 0.6780031672214E+00
 0.7302094098789E+00
 0.7773209789218E+00
 0.8197090247216E+00
 0.8577805846045E+00
 0.8919651223131E+00
 0.9227005101512E+00
 0.9504168173347E+00
 0.9755230416031E+00
 0.9984023458312E+00
 0.1019419025820E+01
 0.1038930082408E+01
 0.1057288398531E+01
 0.1533472732318E+00
 0.2399405049599E+00
 0.3227708517983E+00
 0.4007605849314E+00
 0.4734894086568E+00
 0.5407756570907E+00
 0.6025925237410E+00
 0.6590402352188E+00
 0.7103252349571E+00
 0.7567328236515E+00
 0.7986010864307E+00
 0.8363035864667E+00
 0.8702379128267E+00
 0.9008138866943E+00
 0.9284399658179E+00
 0.9535120839104E+00
 0.9764093006629E+00
 0.9974979693015E+00
 0.1017137784734E+01
 0.1035677094872E+01
 0.1475440365673E+00
 0.2318829287343E+00
 0.3124273061919E+00
 0.3882240110977E+00
 0.4589406636720E+00
 0.5244451424291E+00
 0.5847312976506E+00
 0.6398984259331E+00
 0.6901363739777E+00
 0.7357046607432E+00
 0.7769117052980E+00
 0.8141005917119E+00
 0.8476394454905E+00
 0.8779116287362E+00
 0.9053045143830E+00
 0.9302002571995E+00
 0.9529719170809E+00
 0.9739856647437E+00
 0.9936032122719E+00
 0.1012173603784E+01
 0.1420276413901E+00
 0.2240515335265E+00
 0.3022635253112E+00
 0.3758197516340E+00
 0.4444661964636E+00
 0.5081163064967E+00
 0.5667837439324E+00
 0.6205678884513E+00
 0.6696442546802E+00
 0.7142493975320E+00
 0.7546648973570E+00
 0.7912058963158E+00
 0.8242130717353E+00
 0.8540445573922E+00
 0.8810668536331E+00
 0.9056474144319E+00
 0.9281513869787E+00
 0.9489426296421E+00
 0.9683841044152E+00
 0.9868290254402E+00
 0.1367812161903E+00
 0.2164219647410E+00
 0.2922499236128E+00
 0.3635168741256E+00
 0.4300375861122E+00
 0.4917664181572E+00
 0.5487352384914E+00
 0.6010438074363E+00
 0.6488548733161E+00
 0.6923842109728E+00
 0.7318888584339E+00
 0.7676581095431E+00
 0.8000068214109E+00
 0.8292687885141E+00
 0.8557895725108E+00
 0.8799208326065E+00
 0.9020178600511E+00
 0.9224400687352E+00
 0.9415504840713E+00
 0.9597077988815E+00
 0.1317893441943E+00
 0.2089736236701E+00
 0.2823621279709E+00
 0.3512902953762E+00
 0.4156323129080E+00
 0.4753783693911E+00
 0.5305763527561E+00
 0.5813261072077E+00
 0.6277785802449E+00
 0.6701303923285E+00
 0.7086158524431E+00
 0.7435000847577E+00
 0.7750733905440E+00
 0.8036458013029E+00
 0.8295416298335E+00
 0.8530954986204E+00
 0.8746508494022E+00
 0.8945604173386E+00
 0.9131855193779E+00
 0.9308896071101E+00
 0.1270377997838E+00
 0.2016891257694E+00
 0.2725803080611E+00
 0.3391201062441E+00
 0.4012331505996E+00
 0.4589401607975E+00
 0.5123024332605E+00
 0.5614191157945E+00
 0.6064298120195E+00
 0.6475131289328E+00
 0.6848820297376E+00
 0.7187787716287E+00
 0.7494700351258E+00
 0.7772423868133E+00
 0.8023983677995E+00
 0.8252541893282E+00
 0.8461393800250E+00
 0.8653976089166E+00
 0.8833861160400E+00
 0.9004706755620E+00
 0.1225133195331E+00
 0.1945538051846E+00
 0.2628885520354E+00
 0.3269909271095E+00
 0.3868275685756E+00
 0.4424443767632E+00
 0.4939131528788E+00
 0.5413311844981E+00
 0.5848267649405E+00
 0.6245612153571E+00
 0.6607271631169E+00
 0.6935449715447E+00
 0.7232583477753E+00
 0.7501304513809E+00
 0.7744413460891E+00
 0.7964873356325E+00
 0.8165818890151E+00
 0.8350570732105E+00
 0.8522631958644E+00
 0.8685645688463E+00
 0.1182034087368E+00
 0.1875552687164E+00
 0.2532742926150E+00
 0.3148913048020E+00
 0.3724071608405E+00
 0.4258876720495E+00
 0.4754120587977E+00
 0.5210742899054E+00
 0.5629910371154E+00
 0.6013067190900E+00
 0.6361943229149E+00
 0.6678530131285E+00
 0.6965039302095E+00
 0.7223866862269E+00
 0.7457580099848E+00
 0.7668926926681E+00
 0.7860859085561E+00
 0.8036554629107E+00
 0.8199415933801E+00
 0.8353024581962E+00
 0.1140961690470E+00
 0.1806829801263E+00
 0.2437277627464E+00
 0.3028131302961E+00
 0.3579670828646E+00
 0.4092702527017E+00
 0.4568061016625E+00
 0.5006636040035E+00
 0.5409472253072E+00
 0.5777845868612E+00
 0.6113294765101E+00
 0.6417603323479E+00
 0.6692759459493E+00
 0.6940920890140E+00
 0.7164411818191E+00
 0.7365748094190E+00
 0.7547675366204E+00
 0.7713201344251E+00
 0.7865594990018E+00
 0.8008327150431E+00
 0.1101801463590E+00
 0.1739278736021E+00
 0.2342414814566E+00
 0.2907510815482E+00
 0.3435055047251E+00
 0.3925953630183E+00
 0.4381051599085E+00
 0.4801170476990E+00
 0.5187224921493E+00
 0.5540322064304E+00
 0.5861810255317E+00
 0.6153269686087E+00
 0.6416465628157E+00
 0.6653313453600E+00
 0.6865883810174E+00
 0.7056442997058E+00
 0.7227506895212E+00
 0.7381884576204E+00
 0.7522677834288E+00
 0.7653202965561E+00
 0.1064441931699E+00
 0.1672819900233E+00
 0.2248097641466E+00
 0.2787020881767E+00
 0.3290230802877E+00
 0.3758687809729E+00
 0.4193215636650E+00
 0.4594548335426E+00
 0.4963461103483E+00
 0.5300889306977E+00
 0.5607992874004E+00
 0.5886149830011E+00
 0.6136902907893E+00
 0.6361920745283E+00
 0.6563009741850E+00
 0.6742169060386E+00
 0.6901661200104E+00
 0.7044068816587E+00
 0.7172294998441E+00
 0.7289463652311E+00
 0.1028773392330E+00
 0.1607381284731E+00
 0.2154282504360E+00
 0.2666648132310E+00
 0.3145224303956E+00
 0.3590983224993E+00
 0.4004696206082E+00
 0.4386990016345E+00
 0.4738489891155E+00
 0.5059955703069E+00
 0.5352359280184E+00
 0.5616878059718E+00
 0.5854832225937E+00
 0.6067639458433E+00
 0.6256831576946E+00
 0.6424123513098E+00
 0.6571501564784E+00
 0.6701296280292E+00
 0.6816185950313E+00
 0.6919074783042E+00
 0.9946866584660E-01
 0.1542895073527E+00
 0.2060934450439E+00
 0.2546391501398E+00
 0.3000076411262E+00
 0.3422933582344E+00
 0.3815651493707E+00
 0.4178729560113E+00
 0.4512631916113E+00
 0.4817938647687E+00
 0.5095433566126E+00
 0.5346095261269E+00
 0.5571021890759E+00
 0.5771376770548E+00
 0.5948407806795E+00
 0.6103529741178E+00
 0.6238431442429E+00
 0.6355168980982E+00
 0.6456177065155E+00
 0.6544129302110E+00
 0.9620718241289E-01
 0.1479294341983E+00
 0.1968022737585E+00
 0.2426257412943E+00
 0.2854837877891E+00
 0.3254643566966E+00
 0.3626250369536E+00
 0.3970010200127E+00
 0.4286214637392E+00
 0.4575259540124E+00
 0.4837741057612E+00
 0.5074441438303E+00
 0.5286238533102E+00
 0.5474039384278E+00
 0.5638800292499E+00
 0.5781621608216E+00
 0.5903875842150E+00
 0.6007326504056E+00
 0.6094154585335E+00
 0.6166812191834E+00
 0.9308169155581E-01
 0.1416509669481E+00
 0.1875516361454E+00
 0.2306255005698E+00
 0.2709564682174E+00
 0.3086224384663E+00
 0.3436668057053E+00
 0.3761079977706E+00
 0.4059567638855E+00
 0.4332338430474E+00
 0.4579801924337E+00
 0.4802547882699E+00
 0.5001237450268E+00
 0.5176521681956E+00
 0.5329059831232E+00
 0.5459625869142E+00
 0.5569259761428E+00
 0.5659419531362E+00
 0.5732032090246E+00
 0.5789357024093E+00
 0.9008064709852E-01
 0.1354465710547E+00
 0.1783379659466E+00
 0.2186391583883E+00
 0.2564313703431E+00
 0.2917789705556E+00
 0.3247082218012E+00
 0.3552187763114E+00
 0.3833018311864E+00
 0.4089589007417E+00
 0.4322125038240E+00
 0.4531029429509E+00
 0.4716752803581E+00
 0.4879693461351E+00
 0.5020210994640E+00
 0.5138743376174E+00
 0.5235984383629E+00
 0.5313079113456E+00
 0.5371710417898E+00
 0.5413989733596E+00
 0.8719199108970E-01
 0.1293077573120E+00
 0.1691567859715E+00
 0.2066668203159E+00
 0.2419138677934E+00
 0.2749451951101E+00
 0.3057669386173E+00
 0.3343579617749E+00
 0.3606887880873E+00
 0.3847413926691E+00
 0.4065202122353E+00
 0.4260476859651E+00
 0.4433487725412E+00
 0.4584387313670E+00
 0.4713236413226E+00
 0.4820129601896E+00
 0.4905402053714E+00
 0.4969882501965E+00
 0.5015029450589E+00
 0.5042859006890E+00
 0.8440295858936E-01
 0.1232246827005E+00
 0.1600022449400E+00
 0.1947075329709E+00
 0.2274086413640E+00
 0.2581318906208E+00
 0.2868601719395E+00
 0.3135495471728E+00
 0.3381487790648E+00
 0.3606200584948E+00
 0.3809502395583E+00
 0.3991449724355E+00
 0.4152104611945E+00
 0.4291385889142E+00
 0.4409060832300E+00
 0.4504875236715E+00
 0.4578791993457E+00
 0.4631319499400E+00
 0.4663717143282E+00
 0.4677968456370E+00
 0.8169984777181E-01
 0.1171857148138E+00
 0.1508666530072E+00
 0.1827588920375E+00
 0.2129193719254E+00
 0.2413491136796E+00
 0.2680044533134E+00
 0.2928166571895E+00
 0.3157116951273E+00
 0.3366317939159E+00
 0.3555468455101E+00
 0.3724470432598E+00
 0.3873216409104E+00
 0.4001409679264E+00
 0.4108535419030E+00
 0.4193987598122E+00
 0.4257338729480E+00
 0.4298765720413E+00
 0.4319351389623E+00
 0.4321142750358E+00
 0.7906771788902E-01
 0.1111769106315E+00
 0.1417399761232E+00
 0.1708166623350E+00
 0.1984484746587E+00
 0.2246059813818E+00
 0.2492154083708E+00
 0.2721813078695E+00
 0.2934059215999E+00
 0.3128113866941E+00
 0.3303513125813E+00
 0.3460019579631E+00
 0.3597378918760E+00
 0.3715105062518E+00
 0.3812421613968E+00
 0.3888372043288E+00
 0.3942113241290E+00
 0.3973464767306E+00
 0.3983345690297E+00
 0.3974020050837E+00
 0.7649000163876E-01
 0.1051813960346E+00
 0.1326093163926E+00
 0.1588744707923E+00
 0.1839969472371E+00
 0.2079105565536E+00
 0.2305076072048E+00
 0.2516642156676E+00
 0.2712581395402E+00
 0.2891913457497E+00
 0.3054017965670E+00
 0.3198533636153E+00
 0.3325085483260E+00
 0.3433033488186E+00
 0.3521374280218E+00
 0.3588812112239E+00
 0.3634055418160E+00
 0.3656516404159E+00
 0.3656939973556E+00
 0.3638009317390E+00
 0.7394796243760E-01
 0.9917858275899E-01
 0.1234583701111E+00
 0.1469236160843E+00
 0.1695643722552E+00
 0.1912698560145E+00
 0.2118944807599E+00
 0.2312846402778E+00
 0.2492931606558E+00
 0.2658018112335E+00
 0.2807333696947E+00
 0.2940406194987E+00
 0.3056766182284E+00
 0.3155663927766E+00
 0.3235924182075E+00
 0.3295945989836E+00
 0.3333954570602E+00
 0.3348869022566E+00
 0.3341190410507E+00
 0.3314242029933E+00
 0.7141989802112E-01
 0.9314310259571E-01
 0.1142669012460E+00
 0.1349530649610E+00
 0.1551491400119E+00
 0.1746899610017E+00
 0.1933882550876E+00
 0.2110601861926E+00
 0.2275337060248E+00
 0.2426704329766E+00
 0.2563781438153E+00
 0.2685992604890E+00
 0.2792793723456E+00
 0.2883371694303E+00
 0.2956460567254E+00
 0.3010232528565E+00
 0.3042418648001E+00
 0.3051313097928E+00
 0.3036980263782E+00
 0.3003566243836E+00
 0.6887984611099E-01
 0.8704341731306E-01
 0.1050103091320E+00
 0.1229499981256E+00
 0.1407490036803E+00
 0.1581763303944E+00
 0.1749999237053E+00
 0.1910066305605E+00
 0.2060001731895E+00
 0.2198222204109E+00
 0.2323654447773E+00
 0.2435617820982E+00
 0.2533499242385E+00
 0.2616454250815E+00
 0.2683221124810E+00
 0.2731903974044E+00
 0.2759809098897E+00
 0.2764467295905E+00
 0.2745073904202E+00
 0.2706610789258E+00
 0.6629541135010E-01
 0.8083923197191E-01
 0.9566023022908E-01
 0.1109009210207E+00
 0.1263622539586E+00
 0.1417339300173E+00
 0.1567391825269E+00
 0.1711376725815E+00
 0.1847102394934E+00
 0.1972791616716E+00
 0.2087217170449E+00
 0.2189583578698E+00
 0.2279193470921E+00
 0.2355172402646E+00
 0.2416323133577E+00
 0.2460898353056E+00
 0.2486109948565E+00
 0.2488685974357E+00
 0.2466237689559E+00
 0.2424001745205E+00
 0.6362194450788E-01
 0.7448078751430E-01
 0.8618509270671E-01
 0.9879675359063E-01
 0.1119878246338E+00
 0.1253673247216E+00
 0.1386145665126E+00
 0.1514647044597E+00
 0.1636783577286E+00
 0.1750596725180E+00
 0.1854701296430E+00
 0.1948170472049E+00
 0.2030188799157E+00
 0.2099803471550E+00
 0.2155880504943E+00
 0.2196912734345E+00
 0.2220573544935E+00
 0.2223792055734E+00
 0.2201300323929E+00
 0.2156911873104E+00
 0.6079486263171E-01
 0.6788759222266E-01
 0.7657733101010E-01
 0.8663217341422E-01
 0.9762359593985E-01
 0.1090815511791E+00
 0.1206341594933E+00
 0.1319963573927E+00
 0.1429150193267E+00
 0.1531780649696E+00
 0.1626298245534E+00
 0.1711631285864E+00
 0.1786805384942E+00
 0.1850700389485E+00
 0.1902121040001E+00
 0.1939797958827E+00
 0.1961756163969E+00
 0.1967294099035E+00
 0.1951332385708E+00
 0.1908430821243E+00
 0.5759261992415E-01
 0.6112098799314E-01
 0.6686504616758E-01
 0.7438960441564E-01
 0.8326527098961E-01
 0.9288779185332E-01
 0.1028057649101E+00
 0.1127363140987E+00
 0.1224264464849E+00
 0.1316437539299E+00
 0.1402148425660E+00
 0.1480172334609E+00
 0.1549348488353E+00
 0.1608297976103E+00
 0.1655543256804E+00
 0.1689724126952E+00
 0.1709204116941E+00
 0.1713994628305E+00
 0.1708645818999E+00
 0.1693905992994E+00
 0.1761167872169E+01
 0.1726799854561E+01
 0.1298626990446E+01
 0.1060634398350E+01
 0.8430883856128E+00
 0.6454133650676E+00
 0.5066192421020E+00
 0.4336101134734E+00
 0.3881661984507E+00
 0.3482032513936E+00
 0.3077206533904E+00
 0.2655424104072E+00
 0.2208256581740E+00
 0.1735718132447E+00
 0.1253738119740E+00
 0.7821357454025E-01
 0.3168147696975E-01
 0.1990798712382E-02
 0.3582743789288E-02
 0.2199029486289E-01
 0.1506246632860E+01
 0.1810918729688E+01
 0.1423133413119E+01
 0.1136778546144E+01
 0.9258230480671E+00
 0.7487588443459E+00
 0.6158247145580E+00
 0.5287240850791E+00
 0.4695038672895E+00
 0.4222144276036E+00
 0.3789620831078E+00
 0.3363348256980E+00
 0.2923821083439E+00
 0.2464659659040E+00
 0.1992253959046E+00
 0.1512714306432E+00
 0.1012001307531E+00
 0.6442932647257E-01
 0.5349145591545E-01
 0.7539625355498E-01
 0.1294899960551E+01
 0.1693623071039E+01
 0.1489165739486E+01
 0.1217868268692E+01
 0.1005655431186E+01
 0.8397057770765E+00
 0.7128575793609E+00
 0.6217795438449E+00
 0.5545159410093E+00
 0.5006633132115E+00
 0.4538062424979E+00
 0.4100010901632E+00
 0.3665478273384E+00
 0.3220087921172E+00
 0.2762400530054E+00
 0.2292727794057E+00
 0.1800159006244E+00
 0.1407578699771E+00
 0.1268750395315E+00
 0.1494992663902E+00
 0.1128023539652E+01
 0.1549755455019E+01
 0.1479030576670E+01
 0.1277736012553E+01
 0.1080444948981E+01
 0.9220771085895E+00
 0.8005482762057E+00
 0.7094636409272E+00
 0.6389198957737E+00
 0.5810389680622E+00
 0.5311560059027E+00
 0.4859819310757E+00
 0.4427673512522E+00
 0.3995924725367E+00
 0.3557506876678E+00
 0.3110285970153E+00
 0.2645032609505E+00
 0.2257347616915E+00
 0.2112203493756E+00
 0.2346663913161E+00
 0.9925610057384E+00
 0.1408482852749E+01
 0.1430095967037E+01
 0.1303246530476E+01
 0.1141286521432E+01
 0.9959099568125E+00
 0.8802136099605E+00
 0.7910844244592E+00
 0.7201468419798E+00
 0.6607479110290E+00
 0.6092413304130E+00
 0.5631750153173E+00
 0.5202391957050E+00
 0.4784503830584E+00
 0.4368155942485E+00
 0.3949656355165E+00
 0.3521129053363E+00
 0.3154000884069E+00
 0.3012926454512E+00
 0.3248432630318E+00
 0.8805850515162E+00
 0.1277938478252E+01
 0.1361819332480E+01
 0.1300390910806E+01
 0.1181661099092E+01
 0.1057876130302E+01
 0.9514215584657E+00
 0.8661234324102E+00
 0.7967479726386E+00
 0.7377873546001E+00
 0.6861934184246E+00
 0.6401324429151E+00
 0.5978547803264E+00
 0.5576031390605E+00
 0.5183333714597E+00
 0.4796138103329E+00
 0.4407360130328E+00
 0.4067873311043E+00
 0.3934843715422E+00
 0.4162530742251E+00
 0.7867263035672E+00
 0.1159869621040E+01
 0.1284911464875E+01
 0.1276762279658E+01
 0.1201383281854E+01
 0.1104733411593E+01
 0.1012279576081E+01
 0.9335128623115E+00
 0.8675385134581E+00
 0.8106263015185E+00
 0.7603466093812E+00
 0.7153230377916E+00
 0.6743088703702E+00
 0.6358895008229E+00
 0.5991249434585E+00
 0.5635974592067E+00
 0.5286591058586E+00
 0.4977067923864E+00
 0.4852810492866E+00
 0.5064488170874E+00
 0.7072128009358E+00
 0.1054038751334E+01
 0.1205315352053E+01
 0.1238809249107E+01
 0.1202923780703E+01
 0.1135413731086E+01
 0.1060801823511E+01
 0.9917031705775E+00
 0.9312208019355E+00
 0.8779128087249E+00
 0.8302392613649E+00
 0.7872829335694E+00
 0.7482378053790E+00
 0.7120531143152E+00
 0.6779679343427E+00
 0.6456302632028E+00
 0.6144588378610E+00
 0.5865029754603E+00
 0.5748816152063E+00
 0.5937913656540E+00
 0.6392746129533E+00
 0.9595467552581E+00
 0.1126404790498E+01
 0.1191441942947E+01
 0.1189557541921E+01
 0.1150526927104E+01
 0.1095920423261E+01
 0.1039223415091E+01
 0.9864197215600E+00
 0.9383321552323E+00
 0.8945296515918E+00
 0.8546476855580E+00
 0.8183084630721E+00
 0.7848230780324E+00
 0.7536398975504E+00
 0.7245016504083E+00
 0.6969104092017E+00
 0.6718686384441E+00
 0.6609441379034E+00
 0.6771378850384E+00
 0.5808077384663E+00
 0.8753100407463E+00
 0.1050100075644E+01
 0.1138275103405E+01
 0.1164515510175E+01
 0.1151642685921E+01
 0.1117572016215E+01
 0.1075134714541E+01
 0.1031935352872E+01
 0.9906477751715E+00
 0.9519662583456E+00
 0.9161480586014E+00
 0.8832571570618E+00
 0.8529683986543E+00
 0.8249547927407E+00
 0.7990715304353E+00
 0.7749228351179E+00
 0.7527177937078E+00
 0.7424175982393E+00
 0.7556456448528E+00
 0.5301704047820E+00
 0.8002389260418E+00
 0.9774668405540E+00
 0.1081934581591E+01
 0.1130666676893E+01
 0.1140748297132E+01
 0.1126464637619E+01
 0.1099149979474E+01
 0.1066957785682E+01
 0.1033832875413E+01
 0.1001434492879E+01
 0.9706272284598E+00
 0.9419135385180E+00
 0.9153314759733E+00
 0.8907898022406E+00
 0.8682710919610E+00
 0.8475005140312E+00
 0.8281048188180E+00
 0.8184328202401E+00
 0.8286492106868E+00
 0.4860542485965E+00
 0.7333044178395E+00
 0.9090502183179E+00
 0.1024313358844E+01
 0.1090433841849E+01
 0.1119916927188E+01
 0.1123794276699E+01
 0.1111562480686E+01
 0.1091147070936E+01
 0.1067183470650E+01
 0.1042037630720E+01
 0.1017088023284E+01
 0.9932333315294E+00
 0.9708571452594E+00
 0.9501078915838E+00
 0.9311090389342E+00
 0.9137246400758E+00
 0.8971773251770E+00
 0.8882351564406E+00
 0.8955870894339E+00
 0.4473993224214E+00
 0.6735602449004E+00
 0.8450693975353E+00
 0.9667637122918E+00
 0.1045806039137E+01
 0.1091125748786E+01
 0.1111010776812E+01
 0.1113102482597E+01
 0.1104609761707E+01
 0.1090367026036E+01
 0.1073163350137E+01
 0.1054749587941E+01
 0.1036341679840E+01
 0.1018626746549E+01
 0.1001983435712E+01
 0.9866850129844E+00
 0.9727500722223E+00
 0.9591530763818E+00
 0.9511464723601E+00
 0.9559619284134E+00
 0.4133357998347E+00
 0.6201465617248E+00
 0.7855353296068E+00
 0.9102371258055E+00
 0.9983856333158E+00
 0.1056167093312E+01
 0.1089650587318E+01
 0.1104788856005E+01
 0.1107821420344E+01
 0.1103412430805E+01
 0.1094513323306E+01
 0.1083090535477E+01
 0.1070575898291E+01
 0.1057895997484E+01
 0.1045633611983E+01
 0.1034211943302E+01
 0.1023815575336E+01
 0.1013314498993E+01
 0.1006547240350E+01
 0.1009322756801E+01
 0.3831423930461E+00
 0.5722860932758E+00
 0.7303246407592E+00
 0.8553858604171E+00
 0.9494436476130E+00
 0.1016613268263E+01
 0.1061226962506E+01
 0.1087802857784E+01
 0.1101532062836E+01
 0.1106662693321E+01
 0.1106096141793E+01
 0.1101866974465E+01
 0.1095515530508E+01
 0.1088129353399E+01
 0.1080452895504E+01
 0.1073046987250E+01
 0.1066266585957E+01
 0.1059017009187E+01
 0.1053871754104E+01
 0.1055260474421E+01
 0.3562152557715E+00
 0.5292772687904E+00
 0.6792278710540E+00
 0.8026378916426E+00
 0.8999728524655E+00
 0.9738108013066E+00
 0.1027162585230E+01
 0.1063390760825E+01
 0.1086675271996E+01
 0.1100710629920E+01
 0.1108193724430E+01
 0.1111104594550E+01
 0.1110992585970E+01
 0.1109022643395E+01
 0.1106044663970E+01
 0.1102728522837E+01
 0.1099590766513E+01
 0.1095710558063E+01
 0.1092611512529E+01
 0.1093409002115E+01
 0.3320432128056E+00
 0.4904851229810E+00
 0.6319837052976E+00
 0.7522537776546E+00
 0.8507354852500E+00
 0.9288894889115E+00
 0.9887511824574E+00
 0.1032793286038E+01
 0.1064290340166E+01
 0.1086331819396E+01
 0.1101313083905E+01
 0.1111069949213E+01
 0.1117079921619E+01
 0.1120506863569E+01
 0.1122241426488E+01
 0.1123014153793E+01
 0.1123467958963E+01
 0.1122980246239E+01
 0.1122326380342E+01
 0.1123444489819E+01
 0.3101822455866E+00
 0.4553346241833E+00
 0.5883046255599E+00
 0.7043764490174E+00
 0.8023030443030E+00
 0.8827769831968E+00
 0.9471380239189E+00
 0.9971969779424E+00
 0.1035460451850E+01
 0.1064423607409E+01
 0.1086134023929E+01
 0.1102228938543E+01
 0.1114059661345E+01
 0.1122727197085E+01
 0.1129100427189E+01
 0.1133906269827E+01
 0.1137834962300E+01
 0.1140622705440E+01
 0.1142678841168E+01
 0.1145074803278E+01
 0.2902315652442E+00
 0.4232738331489E+00
 0.5479396061247E+00
 0.6590704750387E+00
 0.7550826708137E+00
 0.8362137868822E+00
 0.9033115488165E+00
 0.9577031174122E+00
 0.1001266711645E+01
 0.1035955023348E+01
 0.1063461861159E+01
 0.1085203163742E+01
 0.1102379344890E+01
 0.1115995055403E+01
 0.1126856861890E+01
 0.1135628478598E+01
 0.1142936226331E+01
 0.1148790795417E+01
 0.1153548753264E+01
 0.1158029077958E+01
 0.2715974017082E+00
 0.3940229566232E+00
 0.5107500321835E+00
 0.6163286784767E+00
 0.7093314487367E+00
 0.7897566113934E+00
 0.8581058371710E+00
 0.9153121778405E+00
 0.9627548121647E+00
 0.1001928496703E+01
 0.1034193120788E+01
 0.1060738319846E+01
 0.1082614263836E+01
 0.1100728563756E+01
 0.1115825313786E+01
 0.1128499246206E+01
 0.1139230045275E+01
 0.1148117904851E+01
 0.1155441058845E+01
 0.1162105107969E+01
 0.5282484594733E-01
 0.5332614784673E-01
 0.5585995900191E-01
 0.6072895120654E-01
 0.6728022436839E-01
 0.7476964851837E-01
 0.8261625258818E-01
 0.9065213600539E-01
 0.9866606075740E-01
 0.1063913548222E+00
 0.1136265406070E+00
 0.1202327606193E+00
 0.1260981174002E+00
 0.1310917463076E+00
 0.1350929690157E+00
 0.1380485591625E+00
 0.1400849314908E+00
 0.1413996516504E+00
 0.1431764207628E+00
 0.1470216969333E+00
 0.4872525448456E-01
 0.4482917532235E-01
 0.4402085228570E-01
 0.4600802373110E-01
 0.4996643412512E-01
 0.5495332043956E-01
 0.6035606765605E-01
 0.6613006231056E-01
 0.7211648331491E-01
 0.7802462015829E-01
 0.8362555860100E-01
 0.8877387507200E-01
 0.9337969076388E-01
 0.9735976028175E-01
 0.1006928761320E+00
 0.1035007176708E+00
 0.1060740373322E+00
 0.1086558657282E+00
 0.1122020205508E+00
 0.1133794880035E+00
 0.4437500138999E-01
 0.3544246963265E-01
 0.3110984839881E-01
 0.3029561598292E-01
 0.3178844316534E-01
 0.3443861057791E-01
 0.3761635998092E-01
 0.4138323582019E-01
 0.4561453249554E-01
 0.4999961481086E-01
 0.5429673769678E-01
 0.5837210407840E-01
 0.6216534365814E-01
 0.6563701450475E-01
 0.6882994041359E-01
 0.7189026032263E-01
 0.7491563766020E-01
 0.7791785085595E-01
 0.8078469182452E-01
 0.8218306577765E-01
 0.3953147956264E-01
 0.2517591337799E-01
 0.1722219596668E-01
 0.1379642542465E-01
 0.1306808661070E-01
 0.1360936688585E-01
 0.1480157234283E-01
 0.1681626884991E-01
 0.1956824498961E-01
 0.2273721786989E-01
 0.2607578690581E-01
 0.2946014010552E-01
 0.3284208612078E-01
 0.3618550409636E-01
 0.3951497935208E-01
 0.4287441498534E-01
 0.4610631582652E-01
 0.4902729168726E-01
 0.5209511301246E-01
 0.5590140922397E-01
 0.3408769543909E-01
 0.1392154332352E-01
 0.3733461811695E-02
 0.5871279652472E-02
 0.8332172843741E-02
 0.9450389706457E-02
 0.9793522201859E-02
 0.9118713657484E-02
 0.7547602979702E-02
 0.5566429066250E-02
 0.3944470775634E-02
 0.4156213652610E-02
 0.6408823745257E-02
 0.9519750189749E-02
 0.1299161940103E-01
 0.1663512642115E-01
 0.2008535371632E-01
 0.2339070296059E-01
 0.2777953873563E-01
 0.3440653975283E-01
 0.2794212172843E-01
 0.2256973066137E-02
 0.1478281226727E-01
 0.2341884550662E-01
 0.2799903365938E-01
 0.3070379250586E-01
 0.3235914167641E-01
 0.3262851290094E-01
 0.3158452916280E-01
 0.2960534359044E-01
 0.2696029887893E-01
 0.2378226811917E-01
 0.2016159988723E-01
 0.1622284888442E-01
 0.1207480118066E-01
 0.7894510670392E-02
 0.4283973400494E-02
 0.3191061395035E-02
 0.8331184139656E-02
 0.1759980978518E-01
 0.2100010549967E-01
 0.1245674241935E-01
 0.3194144216090E-01
 0.4274008530977E-01
 0.4871898703972E-01
 0.5252765109391E-01
 0.5508124337650E-01
 0.5596333755787E-01
 0.5524141191472E-01
 0.5331855695710E-01
 0.5048173111800E-01
 0.4688639196384E-01
 0.4266088107598E-01
 0.3796666255372E-01
 0.3291827230470E-01
 0.2761893265502E-01
 0.2233129781624E-01
 0.1623629888746E-01
 0.7522474928195E-02
 0.5386125589193E-02
 0.1320436775597E-01
 0.2743837786284E-01
 0.5039451348318E-01
 0.6290465685502E-01
 0.6982374392354E-01
 0.7428988935015E-01
 0.7731329051288E-01
 0.7840362943650E-01
 0.7762519114354E-01
 0.7540372438372E-01
 0.7204799793144E-01
 0.6774591591377E-01
 0.6266915927648E-01
 0.5700968593811E-01
 0.5087839443472E-01
 0.4433148654771E-01
 0.3753144226957E-01
 0.2938970038489E-01
 0.1804552099452E-01
 0.3413821166044E-02
 0.5002091184857E-02
 0.4394928940159E-01
 0.7004538191618E-01
 0.8376317898176E-01
 0.9110836198587E-01
 0.9574745930087E-01
 0.9878887397606E-01
 0.9967234198612E-01
 0.9845759958962E-01
 0.9558786636606E-01
 0.9139626867658E-01
 0.8610892951372E-01
 0.7993786787956E-01
 0.7308866224372E-01
 0.6564623260084E-01
 0.5760363624353E-01
 0.4902641835182E-01
 0.3867705785534E-01
 0.2485804792983E-01
 0.7757506040422E-02
 0.7308374589395E-02
 0.6206957902244E-01
 0.9086994712067E-01
 0.1051964634090E+00
 0.1123915320134E+00
 0.1166814536513E+00
 0.1192681064630E+00
 0.1195233790078E+00
 0.1174980933408E+00
 0.1136461566298E+00
 0.1083283884336E+00
 0.1018139402915E+00
 0.9434884981126E-01
 0.8613473422737E-01
 0.7721496246387E-01
 0.6751696006233E-01
 0.5702614374355E-01
 0.4446140191339E-01
 0.2836726033671E-01
 0.9255933417850E-02
 0.1846099529761E-01
 0.8191013973204E-01
 0.1128420887046E+00
 0.1270783572333E+00
 0.1334888897284E+00
 0.1368738085055E+00
 0.1385136114852E+00
 0.1377148590558E+00
 0.1345143813009E+00
 0.1293707164417E+00
 0.1226778241774E+00
 0.1147509266864E+00
 0.1058588001039E+00
 0.9617962729040E-01
 0.8570449071585E-01
 0.7430175349744E-01
 0.6190023597843E-01
 0.4726841576154E-01
 0.2922831278092E-01
 0.8521161402903E-02
 0.3154667963781E-01
 0.1035838990505E+00
 0.1359216409059E+00
 0.1492703105000E+00
 0.1542109501655E+00
 0.1561040548709E+00
 0.1562833188083E+00
 0.1539993403943E+00
 0.1492739801483E+00
 0.1425673071673E+00
 0.1343125990066E+00
 0.1248675330668E+00
 0.1145025258258E+00
 0.1033485103530E+00
 0.9133708251599E-01
 0.7829118494172E-01
 0.6411210151808E-01
 0.4770094293295E-01
 0.2816807406377E-01
 0.6374685684631E-02
 0.4645912503420E-01
 0.1271980135075E+00
 0.1600493129370E+00
 0.1716228185353E+00
 0.1743673799738E+00
 0.1741489368356E+00
 0.1723224020046E+00
 0.1681131325204E+00
 0.1615385506456E+00
 0.1530593662182E+00
 0.1431476013150E+00
 0.1321829465396E+00
 0.1204003281579E+00
 0.1078548536880E+00
 0.9441681961057E-01
 0.7988572796013E-01
 0.6417105790127E-01
 0.4638167804234E-01
 0.2591277610697E-01
 0.3664211267170E-02
 0.6336439654354E-01
 0.1528456290495E+00
 0.1851426138366E+00
 0.1939820862184E+00
 0.1937764091482E+00
 0.1907805702115E+00
 0.1863478736865E+00
 0.1797603423032E+00
 0.1710608848826E+00
 0.1607012602537E+00
 0.1491664141218E+00
 0.1368058558880E+00
 0.1237629555022E+00
 0.1099892817289E+00
 0.9530360420713E-01
 0.7951510680575E-01
 0.6258389617339E-01
 0.4389500550507E-01
 0.2311603699172E-01
 0.1363516455051E-02
 0.8247505164800E-01
 0.1805922017134E+00
 0.2110908959202E+00
 0.2162054405060E+00
 0.2122816499918E+00
 0.2057575863369E+00
 0.1980172338086E+00
 0.1885906632614E+00
 0.1775916714463E+00
 0.1654088853877E+00
 0.1524546152715E+00
 0.1389523140495E+00
 0.1248880738360E+00
 0.1100982125966E+00
 0.9438033361406E-01
 0.7759819523536E-01
 0.5980749308188E-01
 0.4073169836716E-01
 0.2029137907515E-01
 0.1596774190079E-02
 0.1040212282799E+00
 0.2104481996160E+00
 0.2377472805446E+00
 0.2381957661376E+00
 0.2297815636515E+00
 0.2187943320213E+00
 0.2068679307395E+00
 0.1941774756368E+00
 0.1809156139098E+00
 0.1672175746273E+00
 0.1532404211958E+00
 0.1389526864811E+00
 0.1241397621118E+00
 0.1085501805226E+00
 0.9201610320941E-01
 0.7450599902598E-01
 0.5620887070083E-01
 0.3724519764897E-01
 0.1776155389676E-01
 0.2477181389547E-02
 0.1282328656523E+00
 0.2423059459308E+00
 0.2649097777567E+00
 0.2599889151478E+00
 0.2462727635270E+00
 0.2294703443399E+00
 0.2122081035695E+00
 0.1960374838292E+00
 0.1809464905693E+00
 0.1663678859030E+00
 0.1519235072257E+00
 0.1372286770393E+00
 0.1219049281684E+00
 0.1056940552742E+00
 0.8853346033786E-01
 0.7053532154412E-01
 0.5203995284705E-01
 0.3362682921374E-01
 0.1563501612186E-01
 0.2530799544513E-02
 0.1552986707292E+00
 0.2757412701492E+00
 0.2923034668055E+00
 0.2819742587215E+00
 0.2619046269404E+00
 0.2369381817418E+00
 0.2130360758790E+00
 0.1937619301996E+00
 0.1779046129785E+00
 0.1633907993383E+00
 0.1490479567509E+00
 0.1342242947513E+00
 0.1185342415653E+00
 0.1018229105398E+00
 0.8418952248663E-01
 0.6590104280626E-01
 0.4743132411037E-01
 0.2990228430546E-01
 0.1380838758480E-01
 0.1887033081383E-02
 0.1853073573045E+00
 0.3093798506772E+00
 0.3194587366565E+00
 0.3058785578559E+00
 0.2764163224878E+00
 0.2395658921135E+00
 0.2080967686777E+00
 0.1873577521983E+00
 0.1725668722249E+00
 0.1590832968006E+00
 0.1451726403487E+00
 0.1303089695313E+00
 0.1142979335269E+00
 0.9715521050499E-01
 0.7917847950371E-01
 0.6075117420179E-01
 0.4241313818156E-01
 0.2593661677191E-01
 0.1197534420182E-01
 0.1001211586706E-02
 0.2165592905212E+00
 0.3346135116218E+00
 0.3506511670769E+00
 0.3337554896223E+00
 0.2884777725693E+00
 0.2345200549842E+00
 0.1962843757489E+00
 0.1780193660575E+00
 0.1662988702243E+00
 0.1542342633137E+00
 0.1406718979886E+00
 0.1257276679925E+00
 0.1094020744090E+00
 0.9181730003422E-01
 0.7360921114668E-01
 0.5528672577391E-01
 0.3696966982866E-01
 0.2134627452561E-01
 0.9572008855249E-02
 0.4387494400555E-03
 0.1167050957357E+01
 0.1164866317650E+01
 0.1154264919465E+01
 0.1135722915263E+01
 0.1109372268058E+01
 0.1075340088255E+01
 0.1033835089183E+01
 0.9851433689040E+00
 0.9296147847280E+00
 0.8676491518288E+00
 0.7996871777448E+00
 0.7262102965175E+00
 0.6477555430086E+00
 0.5649545571892E+00
 0.4786103457305E+00
 0.3898339193492E+00
 0.3002862699399E+00
 0.2126499111780E+00
 0.1317400924839E+00
 0.6898078072063E-01
 0.1169150148914E+01
 0.1170973280949E+01
 0.1165265259124E+01
 0.1151799916932E+01
 0.1130678573554E+01
 0.1102031686068E+01
 0.1066031628236E+01
 0.1022913631384E+01
 0.9729768762539E+00
 0.9165775277657E+00
 0.8541206720042E+00
 0.7860571806011E+00
 0.7128921284596E+00
 0.6352136183760E+00
 0.5537541275153E+00
 0.4695007540869E+00
 0.3838792858664E+00
 0.2990703887474E+00
 0.2186934223301E+00
 0.1504467086078E+00
 0.1169609629278E+01
 0.1174781584978E+01
 0.1173383093444E+01
 0.1164812974319E+01
 0.1148915003427E+01
 0.1125716972649E+01
 0.1095322743723E+01
 0.1057899758509E+01
 0.1013679710423E+01
 0.9629554876115E+00
 0.9060751089364E+00
 0.8434370132683E+00
 0.7754928917719E+00
 0.7027663873001E+00
 0.6258984593138E+00
 0.5457312592643E+00
 0.4634351749173E+00
 0.3806576422741E+00
 0.2996039339303E+00
 0.2220792069452E+00
 0.1168205711323E+01
 0.1176327096691E+01
 0.1178735785996E+01
 0.1174677239264E+01
 0.1163790573762E+01
 0.1145940105102E+01
 0.1121113424429E+01
 0.1089378692766E+01
 0.1050872476684E+01
 0.1005793606460E+01
 0.9543954656520E+00
 0.8969767014214E+00
 0.8338738709047E+00
 0.7654622211699E+00
 0.6921734608290E+00
 0.6145400445799E+00
 0.5332665744142E+00
 0.4492726788227E+00
 0.3634605793167E+00
 0.2749291365316E+00
 0.1164757858528E+01
 0.1175489062673E+01
 0.1181255825634E+01
 0.1181275416326E+01
 0.1175060516787E+01
 0.1162330316103E+01
 0.1142938767531E+01
 0.1116833209317E+01
 0.1084034340161E+01
 0.1044625394601E+01
 0.9987415194201E+00
 0.9465557749788E+00
 0.8882617956659E+00
 0.8240559914440E+00
 0.7541252737325E+00
 0.6786497853524E+00
 0.5978292508962E+00
 0.5119202217273E+00
 0.4211053543297E+00
 0.3251326057323E+00
 0.1159150230866E+01
 0.1172179102629E+01
 0.1180881523722E+01
 0.1184522769490E+01
 0.1182559377074E+01
 0.1174607260647E+01
 0.1160402282690E+01
 0.1139770858058E+01
 0.1112611829080E+01
 0.1078884450116E+01
 0.1038596632508E+01
 0.9917889328779E+00
 0.9385117405456E+00
 0.8787950912161E+00
 0.8126132784527E+00
 0.7398515597498E+00
 0.6602929036657E+00
 0.5736625677510E+00
 0.4798102848345E+00
 0.3790556318476E+00
 0.1151306018263E+01
 0.1166339703831E+01
 0.1177592850474E+01
 0.1184418935640E+01
 0.1186271143312E+01
 0.1182707296437E+01
 0.1173375808025E+01
 0.1158000228885E+01
 0.1136367226134E+01
 0.1108317062958E+01
 0.1073733289355E+01
 0.1032527855035E+01
 0.9846180551661E+00
 0.9298922521942E+00
 0.8681625116894E+00
 0.7991058748857E+00
 0.7222077822922E+00
 0.6367561031565E+00
 0.5420629671394E+00
 0.4381026731559E+00
 0.1141173566457E+01
 0.1157915581144E+01
 0.1171353763715E+01
 0.1180945075128E+01
 0.1186175160664E+01
 0.1186583303658E+01
 0.1181765703857E+01
 0.1171371608192E+01
 0.1155098143208E+01
 0.1132684884578E+01
 0.1103906716416E+01
 0.1068562264674E+01
 0.1026454471862E+01
 0.9773592711713E+00
 0.9209777123723E+00
 0.8568669605431E+00
 0.7843484795120E+00
 0.7024100638463E+00
 0.6096649525005E+00
 0.5048888391300E+00
 0.1128727244369E+01
 0.1146866472103E+01
 0.1162128042745E+01
 0.1174073131053E+01
 0.1182240651447E+01
 0.1186181519270E+01
 0.1185472139399E+01
 0.1179718704090E+01
 0.1168557873164E+01
 0.1151655678092E+01
 0.1128704284206E+01
 0.1099414897447E+01
 0.1063504101703E+01
 0.1020669855866E+01
 0.9705518591371E+00
 0.9126683777929E+00
 0.8463173055186E+00
 0.7704185865358E+00
 0.6832656537999E+00
 0.5821227672279E+00
 0.1113962678674E+01
 0.1133166437506E+01
 0.1149883472383E+01
 0.1163770680176E+01
 0.1174429186126E+01
 0.1181441427617E+01
 0.1184389483488E+01
 0.1182864251070E+01
 0.1176470435146E+01
 0.1164829377775E+01
 0.1147579984522E+01
 0.1124376830489E+01
 0.1094883616742E+01
 0.1058759179155E+01
 0.1015631791416E+01
 0.9650548043828E+00
 0.9064305622454E+00
 0.8388756191243E+00
 0.7609561056439E+00
 0.6700229192445E+00
 0.1096894350772E+01
 0.1116805636728E+01
 0.1134596986138E+01
 0.1150006489395E+01
 0.1162697769260E+01
 0.1172295444620E+01
 0.1178404314448E+01
 0.1180620680186E+01
 0.1178539959329E+01
 0.1171762572883E+01
 0.1159898751205E+01
 0.1142572018892E+01
 0.1119420473353E+01
 0.1090094399912E+01
 0.1054248069068E+01
 0.1011522354884E+01
 0.9615125388497E+00
 0.9037103727316E+00
 0.8373972630063E+00
 0.7614574592842E+00
 0.1077544856364E+01
 0.1097780029615E+01
 0.1116246363133E+01
 0.1132744921438E+01
 0.1146997307536E+01
 0.1158674628843E+01
 0.1167414692881E+01
 0.1172833262296E+01
 0.1174532578386E+01
 0.1172108935682E+01
 0.1165160183560E+01
 0.1153293427097E+01
 0.1136132813459E+01
 0.1113327094847E+01
 0.1084556661649E+01
 0.1049540032925E+01
 0.1008040671754E+01
 0.9598781551110E+00
 0.9049600412433E+00
 0.8434111929122E+00
 0.1055947315583E+01
 0.1076102998340E+01
 0.1094823845973E+01
 0.1111958752119E+01
 0.1127281463373E+01
 0.1140510601731E+01
 0.1151323110988E+01
 0.1159363824777E+01
 0.1164253335606E+01
 0.1165595659499E+01
 0.1162986659107E+01
 0.1156023806791E+01
 0.1144317637882E+01
 0.1127505204360E+01
 0.1105266097448E+01
 0.1077342349343E+01
 0.1043565158729E+01
 0.1003894841821E+01
 0.9584887331688E+00
 0.9078144518613E+00
 0.1032145902429E+01
 0.1051810145896E+01
 0.1070347479839E+01
 0.1087646031770E+01
 0.1103526631880E+01
 0.1117755038115E+01
 0.1130051086647E+01
 0.1140095607593E+01
 0.1147536429220E+01
 0.1151994661500E+01
 0.1153072207347E+01
 0.1150361227635E+01
 0.1143456115530E+01
 0.1131968457877E+01
 0.1115545561323E+01
 0.1093893540473E+01
 0.1066806770583E+01
 0.1034206345614E+01
 0.9961881828005E+00
 0.9530728720878E+00
 0.1006195613378E+01
 0.1024955730801E+01
 0.1042861180718E+01
 0.1059835364471E+01
 0.1075742544688E+01
 0.1090394760950E+01
 0.1103557141291E+01
 0.1114951836667E+01
 0.1124261410945E+01
 0.1131132619571E+01
 0.1135181454066E+01
 0.1136000224436E+01
 0.1133167315314E+01
 0.1126260079884E+01
 0.1114871145206E+01
 0.1098628240415E+01
 0.1077217602177E+01
 0.1050410710506E+01
 0.1018092304692E+01
 0.9802840010995E+00
 0.9781650067458E+00
 0.9956128255359E+00
 0.1012435159052E+01
 0.1028588467967E+01
 0.1043977656441E+01
 0.1058459949284E+01
 0.1071847282596E+01
 0.1083907453878E+01
 0.1094364645163E+01
 0.1102900054919E+01
 0.1109153408180E+01
 0.1112726106258E+01
 0.1113186712785E+01
 0.1110079298267E+01
 0.1102934810730E+01
 0.1091285071950E+01
 0.1074678270302E+01
 0.1052694595540E+01
 0.1024962108717E+01
 0.9911735436549E+00
 0.9481394781169E+00
 0.9638759853771E+00
 0.9791683553990E+00
 0.9940036260702E+00
 0.1008324470330E+01
 0.1022031682567E+01
 0.1034984660561E+01
 0.1047000330775E+01
 0.1057851030495E+01
 0.1067261905650E+01
 0.1074908436195E+01
 0.1080414770078E+01
 0.1083353606332E+01
 0.1083248348304E+01
 0.1079578024625E+01
 0.1071784882630E+01
 0.1059283520507E+01
 0.1041468973726E+01
 0.1017721828072E+01
 0.9874167479679E+00
 0.9162240860838E+00
 0.9298646299614E+00
 0.9431921249823E+00
 0.9562203216206E+00
 0.9689258579215E+00
 0.9812504570827E+00
 0.9931004536696E+00
 0.1004344284055E+01
 0.1014808382312E+01
 0.1024271841378E+01
 0.1032460215532E+01
 0.1039038941193E+01
 0.1043607032396E+01
 0.1045691941448E+01
 0.1044746672266E+01
 0.1040150167329E+01
 0.1031211261764E+01
 0.1017174618192E+01
 0.9972214294366E+00
 0.9704562985467E+00
 0.8825456548899E+00
 0.8937263291714E+00
 0.9046744290045E+00
 0.9154246463624E+00
 0.9259822703408E+00
 0.9363257938254E+00
 0.9464062953278E+00
 0.9561444204998E+00
 0.9654253055561E+00
 0.9740915705605E+00
 0.9819344457083E+00
 0.9886831406257E+00
 0.9939927574059E+00
 0.9974314419413E+00
 0.9984681275633E+00
 0.9964631012842E+00
 0.9906643025897E+00
 0.9802119203823E+00
 0.9641513403012E+00
 0.9414280584632E+00
 0.8472541402419E+00
 0.8556397299355E+00
 0.8638241109573E+00
 0.8718550701305E+00
 0.8797595580565E+00
 0.8875468378419E+00
 0.8952083772451E+00
 0.9027153031211E+00
 0.9100136054702E+00
 0.9170170108725E+00
 0.9235972610503E+00
 0.9295714286782E+00
 0.9346859141810E+00
 0.9385970049187E+00
 0.9408485578292E+00
 0.9408488609073E+00
 0.9378513598667E+00
 0.9309470633166E+00
 0.9190806136257E+00
 0.9011168730521E+00
 0.8105237639388E+00
 0.8158174894016E+00
 0.8208949999600E+00
 0.8258080367233E+00
 0.8305967862396E+00
 0.8352933741775E+00
 0.8399228601858E+00
 0.8445020594257E+00
 0.8490363215139E+00
 0.8535140834350E+00
 0.8578987241664E+00
 0.8621169468060E+00
 0.8660425964028E+00
 0.8694745310644E+00
 0.8721070794983E+00
 0.8734922281130E+00
 0.8729953456078E+00
 0.8697530190262E+00
 0.8626492020219E+00
 0.8503495321781E+00
 0.7725542656710E+00
 0.7745083151007E+00
 0.7761884652592E+00
 0.7776416297124E+00
 0.7789117650050E+00
 0.7800444075844E+00
 0.7810891587972E+00
 0.7821005207947E+00
 0.7831373033180E+00
 0.7842605327468E+00
 0.7855294505126E+00
 0.7869947606748E+00
 0.7886876895795E+00
 0.7906025320141E+00
 0.7926690252793E+00
 0.7947090717227E+00
 0.7963704248096E+00
 0.7970321871768E+00
 0.7956931121194E+00
 0.7908382940493E+00
 0.7335657936440E+00
 0.7319895267746E+00
 0.7300459089515E+00
 0.7277682939764E+00
 0.7251947419193E+00
 0.7223741188169E+00
 0.7193702124593E+00
 0.7162647700643E+00
 0.7131600492045E+00
 0.7101811791705E+00
 0.7074783333925E+00
 0.7052283547344E+00
 0.7036349266866E+00
 0.7029254005443E+00
 0.7033404923652E+00
 0.7051092635564E+00
 0.7083943170531E+00
 0.7131767165306E+00
 0.7190404096301E+00
 0.7248850494094E+00
 0.6938000678172E+00
 0.6885689568591E+00
 0.6828517597913E+00
 0.6766596791689E+00
 0.6700161127502E+00
 0.6629642321040E+00
 0.6555723561835E+00
 0.6479387713152E+00
 0.6401971784677E+00
 0.6325236255674E+00
 0.6251456171350E+00
 0.6183540336780E+00
 0.6125184601297E+00
 0.6081063678881E+00
 0.6057059756233E+00
 0.6060505807213E+00
 0.6100358614489E+00
 0.6187031769580E+00
 0.6330869527972E+00
 0.6537416046779E+00
 0.6535185994582E+00
 0.6445839141875E+00
 0.6350326173576E+00
 0.6248464802962E+00
 0.6140282709482E+00
 0.6026102319986E+00
 0.5906597202487E+00
 0.5782847601744E+00
 0.5656413712640E+00
 0.5529440869032E+00
 0.5404810528992E+00
 0.5286354354636E+00
 0.5179156183154E+00
 0.5089979891932E+00
 0.5027883429534E+00
 0.5005117626965E+00
 0.5038471564722E+00
 0.5151319012779E+00
 0.5376680610835E+00
 0.5757964487596E+00
 0.6129986404920E+00
 0.6003968254565E+00
 0.5870521920298E+00
 0.5729127838963E+00
 0.5579605137741E+00
 0.5422192304071E+00
 0.5257590842364E+00
 0.5087013932104E+00
 0.4912264389287E+00
 0.4735858805257E+00
 0.4561214603534E+00
 0.4392922592405E+00
 0.4237140268136E+00
 0.4102164499564E+00
 0.3999286112498E+00
 0.3944114901202E+00
 0.3958754690945E+00
 0.4075650671315E+00
 0.4345319756299E+00
 0.4855826894958E+00
 0.5725282332418E+00
 0.5563894154224E+00
 0.5394037543583E+00
 0.5214867289993E+00
 0.5026089987657E+00
 0.4828016065771E+00
 0.4621572741335E+00
 0.4408334431933E+00
 0.4190596410638E+00
 0.3971505415673E+00
 0.3755258990560E+00
 0.3547389535134E+00
 0.3355158597607E+00
 0.3188103728272E+00
 0.3058809289436E+00
 0.2984028671557E+00
 0.2986392724877E+00
 0.3097248202118E+00
 0.3361749073413E+00
 0.3853339176578E+00
 0.5324002121413E+00
 0.5129546272878E+00
 0.4925976250455E+00
 0.4712221875051E+00
 0.4488114003804E+00
 0.4254368453222E+00
 0.4012551328818E+00
 0.3765088490963E+00
 0.3515338094319E+00
 0.3267728593175E+00
 0.3027959159023E+00
 0.2803257485864E+00
 0.2602686682712E+00
 0.2437482874463E+00
 0.2321378444795E+00
 0.2270796071124E+00
 0.2304633710034E+00
 0.2442810010989E+00
 0.2701381797198E+00
 0.3068457557370E+00
 0.4929040466041E+00
 0.4704817435154E+00
 0.4471336969586E+00
 0.4227515757564E+00
 0.3973677528664E+00
 0.3711407835219E+00
 0.3443442061054E+00
 0.3173635766461E+00
 0.2907015200520E+00
 0.2649884892611E+00
 0.2409959111429E+00
 0.2196472539415E+00
 0.2020202892217E+00
 0.1893291658749E+00
 0.1828655495185E+00
 0.1838599033086E+00
 0.1931848605536E+00
 0.2107389705164E+00
 0.2340703939247E+00
 0.2555945506726E+00
 0.4543162144054E+00
 0.4293345718676E+00
 0.4034626216120E+00
 0.3766233084600E+00
 0.3489424634733E+00
 0.3207134876703E+00
 0.2923723005492E+00
 0.2644848761782E+00
 0.2377430332325E+00
 0.2129618145637E+00
 0.1910707297794E+00
 0.1730894045151E+00
 0.1600746642473E+00
 0.1530197489156E+00
 0.1526765871167E+00
 0.1592578829900E+00
 0.1719561343918E+00
 0.1881938578046E+00
 0.2026464878198E+00
 0.2072631510673E+00
 0.4168876657483E+00
 0.3898206145620E+00
 0.3619390902363E+00
 0.3332383482327E+00
 0.3039835266439E+00
 0.2746420985904E+00
 0.2458358496382E+00
 0.2183114743816E+00
 0.1929186681683E+00
 0.1705836954380E+00
 0.1522667654446E+00
 0.1388909248930E+00
 0.1312281528299E+00
 0.1297262312831E+00
 0.1342606865511E+00
 0.1438033160756E+00
 0.1560249171131E+00
 0.1669573242130E+00
 0.1712202423895E+00
 0.1635358688561E+00
 0.3808303403296E+00
 0.3521676753014E+00
 0.3227959173797E+00
 0.2928266049159E+00
 0.2627082416517E+00
 0.2331055053518E+00
 0.2048193383191E+00
 0.1787357078892E+00
 0.1557819182419E+00
 0.1368731440526E+00
 0.1228360487437E+00
 0.1142988980089E+00
 0.1115405503152E+00
 0.1142977809650E+00
 0.1215446612683E+00
 0.1312838484220E+00
 0.1404505707948E+00
 0.1451662396219E+00
 0.1416525744130E+00
 0.1277274895650E+00
 0.3463205551181E+00
 0.3165421815520E+00
 0.2861731791562E+00
 0.2554898433280E+00
 0.2251627392713E+00
 0.1960544095834E+00
 0.1691043744300E+00
 0.1452594398198E+00
 0.1254134945472E+00
 0.1103353278205E+00
 0.1005727426638E+00
 0.9632904147091E-01
 0.9731732545101E-01
 0.1026125940484E+00
 0.1105401405576E+00
 0.1186682703972E+00
 0.1240250277012E+00
 0.1236816346040E+00
 0.1156862476255E+00
 0.9996992990669E-01
 0.3135019677836E+00
 0.2830571674205E+00
 0.2521236314859E+00
 0.2212076337165E+00
 0.1912338100827E+00
 0.1632371329604E+00
 0.1382244582197E+00
 0.1171025395928E+00
 0.1006181642256E+00
 0.8928455476878E-01
 0.8328777817907E-01
 0.8237885429031E-01
 0.8577162201869E-01
 0.9207954110695E-01
 0.9933663165908E-01
 0.1051661170838E+00
 0.1071669705550E+00
 0.1035185745838E+00
 0.9361989882273E-01
 0.7838228383830E-01
 0.2824827606126E+00
 0.2517645275290E+00
 0.2206062574105E+00
 0.1898428371768E+00
 0.1606749936265E+00
 0.1342548678685E+00
 0.1115592157493E+00
 0.9334951120971E-01
 0.8013484027728E-01
 0.7211593029332E-01
 0.6911080364683E-01
 0.7048237786115E-01
 0.7509808630417E-01
 0.8135496049149E-01
 0.8730558432461E-01
 0.9092129104170E-01
 0.9049793807103E-01
 0.8511713727369E-01
 0.7495299436691E-01
 0.6119583071084E-01
 0.2533344879659E+00
 0.2226394777877E+00
 0.1914740357689E+00
 0.1611498469131E+00
 0.1331463878943E+00
 0.1086328557389E+00
 0.8843911679916E-01
 0.7308770224859E-01
 0.6280440520077E-01
 0.5748127707708E-01
 0.5662615411637E-01
 0.5933136219756E-01
 0.6429247211373E-01
 0.6989990720923E-01
 0.7442125575383E-01
 0.7628015694059E-01
 0.7439331695165E-01
 0.6845419874684E-01
 0.5900242038779E-01
 0.4716846827890E-01
 0.2260945907613E+00
 0.1955628388379E+00
 0.1644684713515E+00
 0.1348161399518E+00
 0.1082928023291E+00
 0.8592357973880E-01
 0.6824785046231E-01
 0.5550538057693E-01
 0.4765262939188E-01
 0.4432956084741E-01
 0.4482981044511E-01
 0.4810675884642E-01
 0.5283702319099E-01
 0.5754824435601E-01
 0.6081252749315E-01
 0.6149059901689E-01
 0.5897190376817E-01
 0.5331591101893E-01
 0.4519976421726E-01
 0.3562632914273E-01
 0.2007816290051E+00
 0.1702884358017E+00
 0.1392126968935E+00
 0.1105038207668E+00
 0.8584162038761E-01
 0.6574507483990E-01
 0.5042867928897E-01
 0.3989565726865E-01
 0.3390225358349E-01
 0.3192243582571E-01
 0.3313766130389E-01
 0.3647328399786E-01
 0.4068947012311E-01
 0.4451840319578E-01
 0.4683932113428E-01
 0.4686830329749E-01
 0.4431159043216E-01
 0.3941533322150E-01
 0.3287865605922E-01
 0.2565868229725E-01
 0.1773931688035E+00
 0.1461373612001E+00
 0.1150249664288E+00
 0.8811256385364E-01
 0.6567154744510E-01
 0.4779208720878E-01
 0.3452815859388E-01
 0.2574914867805E-01
 0.2108978350820E-01
 0.1993453730522E-01
 0.2142900392504E-01
 0.2453858879032E-01
 0.2815513595969E-01
 0.3122667545509E-01
 0.3290064920268E-01
 0.3265953976733E-01
 0.3040878490117E-01
 0.2648119451916E-01
 0.2154748798225E-01
 0.1657141008032E-01
 0.1548229028231E+00
 0.1207493936698E+00
 0.9237604595000E-01
 0.6810165982431E-01
 0.4782264891916E-01
 0.3184436285258E-01
 0.2021413963210E-01
 0.1272575871170E-01
 0.8932706625358E-02
 0.8189811948452E-02
 0.9662556790606E-02
 0.1238900214144E-01
 0.1541197447445E-01
 0.1788727196201E-01
 0.1918654955100E-01
 0.1898514574589E-01
 0.1730511826843E-01
 0.1449891367738E-01
 0.1119522431408E-01
 0.8187681914264E-02
</DataArray>
<DataArray type="Float64" Name="CK" NumberOfComponents="1" ComponentName0="CK" format="ascii">
 0.0000000000000E+00
 0.0000000000000E+00
 0.0000000000000E+00
 0.0000000000000E+00
 0.0000000000000E+00
 0.0000000000000E+00
 0.0000000000000E+00
 0.0000000000000E+00
 0.0000000000000E+00
 0.0000000000000E+00
 0.0000000000000E+00
 0.0000000000000E+00
 0.0000000000000E+00
 0.0000000000000E+00
 0.0000000000000E+00
 0.0000000000000E+00
 0.0000000000000E+00
 0.0000000000000E+00
 0.0000000000000E+00
 0.0000000000000E+00
 0.0000000000000E+00
 0.0000000000000E+00
 0.0000000000000E+00
 0.0000000000000E+00
 0.0000000000000E+00
 0.0000000000000E+00
 0.0000000000000E+00
 0.0000000000000E+00
 0.0000000000000E+00
 0.0000000000000E+00
 0.0000000000000E+00
 0.0000000000000E+00
 0.0000000000000E+00
 0.0000000000000E+00
 0.0000000000000E+00
 0.0000000000000E+00
 0.0000000000000E+00
 0.0000000000000E+00
 0.0000000000000E+00
 0.0000000000000E+00
 0.0000000000000E+00
 0.0000000000000E+00
 0.0000000000000E+00
 0.0000000000000E+00
 0.0000000000000E+00
 0.0000000000000E+00
 0.0000000000000E+00
 0.0000000000000E+00
 0.0000000000000E+00
 0.0000000000000E+00
 0.0000000000000E+00
 0.0000000000000E+00
 0.0000000000000E+00
 0.0000000000000E+00
 0.0000000000000E+00
 0.0000000000000E+00
 0.0000000000000E+00
 0.0000000000000E+00
 0.0000000000000E+00
 0.0000000000000E+00
 0.0000000000000E+00
 0.0000000000000E+00
 0.0000000000000E+00
 0.0000000000000E+00
 0.0000000000000E+00
 0.0000000000000E+00
 0.0000000000000E+00
 0.0000000000000E+00
 0.0000000000000E+00
 0.0000000000000E+00
 0.0000000000000E+00
 0.0000000000000E+00
 0.0000000000000E+00
 0.0000000000000E+00
 0.0000000000000E+00
 0.0000000000000E+00
 0.0000000000000E+00
 0.0000000000000E+00
 0.0000000000000E+00
 0.0000000000000E+00
 0.0000000000000E+00
 0.0000000000000E+00
 0.0000000000000E+00
 0.0000000000000E+00
 0.0000000000000E+00
 0.0000000000000E+00
 0.0000000000000E+00
 0.0000000000000E+00
 0.0000000000000E+00
 0.0000000000000E+00
 0.0000000000000E+00
 0.0000000000000E+00
 0.0000000000000E+00
 0.0000000000000E+00
 0.0000000000000E+00
 0.0000000000000E+00
 0.0000000000000E+00
 0.0000000000000E+00
 0.0000000000000E+00
 0.0000000000000E+00
 0.0000000000000E+00
 0.0000000000000E+00
 0.0000000000000E+00
 0.0000000000000E+00
 0.0000000000000E+00
 0.0000000000000E+00
 0.0000000000000E+00
 0.0000000000000E+00
 0.0000000000000E+00
 0.0000000000000E+00
 0.0000000000000E+00
 0.0000000000000E+00
 0.0000000000000E+00
 0.0000000000000E+00
 0.0000000000000E+00
 0.0000000000000E+00
 0.0000000000000E+00
 0.0000000000000E+00
 0.0000000000000E+00
 0.0000000000000E+00
 0.0000000000000E+00
 0.0000000000000E+00
 0.0000000000000E+00
 0.0000000000000E+00
 0.0000000000000E+00
 0.0000000000000E+00
 0.0000000000000E+00
 0.0000000000000E+00
 0.0000000000000E+00
 0.0000000000000E+00
 0.0000000000000E+00
 0.0000000000000E+00
 0.0000000000000E+00
 0.0000000000000E+00
 0.0000000000000E+00
 0.0000000000000E+00
 0.0000000000000E+00
 0.0000000000000E+00
 0.0000000000000E+00
 0.0000000000000E+00
 0.0000000000000E+00
 0.0000000000000E+00
 0.0000000000000E+00
 0.0000000000000E+00
 0.0000000000000E+00
 0.0000000000000E+00
 0.0000000000000E+00
 0.0000000000000E+00
 0.0000000000000E+00
 0.0000000000000E+00
 0.0000000000000E+00
 0.0000000000000E+00
 0.0000000000000E+00
 0.0000000000000E+00
 0.0000000000000E+00
 0.0000000000000E+00
 0.0000000000000E+00
 0.0000000000000E+00
 0.0000000000000E+00
 0.0000000000000E+00
 0.0000000000000E+00
 0.0000000000000E+00
 0.0000000000000E+00
 0.0000000000000E+00
 0.0000000000000E+00
 0.0000000000000E+00
 0.0000000000000E+00
 0.0000000000000E+00
 0.0000000000000E+00
 0.0000000000000E+00
 0.0000000000000E+00
 0.0000000000000E+00
 0.0000000000000E+00
 0.0000000000000E+00
 0.0000000000000E+00
 0.0000000000000E+00
 0.0000000000000E+00
 0.0000000000000E+00
 0.0000000000000E+00
 0.0000000000000E+00
 0.0000000000000E+00
 0.0000000000000E+00
 0.0000000000000E+00
 0.0000000000000E+00
 0.0000000000000E+00
 0.0000000000000E+00
 0.0000000000000E+00
 0.0000000000000E+00
 0.0000000000000E+00
 0.0000000000000E+00
 0.0000000000000E+00
 0.0000000000000E+00
 0.0000000000000E+00
 0.0000000000000E+00
 0.0000000000000E+00
 0.0000000000000E+00
 0.0000000000000E+00
 0.0000000000000E+00
 0.0000000000000E+00
 0.0000000000000E+00
 0.0000000000000E+00
 0.0000000000000E+00
 0.0000000000000E+00
 0.0000000000000E+00
 0.0000000000000E+00
 0.0000000000000E+00
 0.0000000000000E+00
 0.0000000000000E+00
 0.0000000000000E+00
 0.0000000000000E+00
 0.0000000000000E+00
 0.0000000000000E+00
 0.0000000000000E+00
 0.0000000000000E+00
 0.0000000000000E+00
 0.0000000000000E+00
 0.0000000000000E+00
 0.0000000000000E+00
 0.0000000000000E+00
 0.0000000000000E+00
 0.0000000000000E+00
 0.0000000000000E+00
 0.0000000000000E+00
 0.0000000000000E+00
 0.0000000000000E+00
 0.0000000000000E+00
 0.0000000000000E+00
 0.0000000000000E+00
 0.0000000000000E+00
 0.0000000000000E+00
 0.0000000000000E+00
 0.0000000000000E+00
 0.0000000000000E+00
 0.0000000000000E+00
 0.0000000000000E+00
 0.0000000000000E+00
 0.0000000000000E+00
 0.0000000000000E+00
 0.0000000000000E+00
 0.0000000000000E+00
 0.0000000000000E+00
 0.0000000000000E+00
 0.0000000000000E+00
 0.0000000000000E+00
 0.0000000000000E+00
 0.0000000000000E+00
 0.0000000000000E+00
 0.0000000000000E+00
 0.0000000000000E+00
 0.0000000000000E+00
 0.0000000000000E+00
 0.0000000000000E+00
 0.0000000000000E+00
 0.0000000000000E+00
 0.0000000000000E+00
 0.0000000000000E+00
 0.0000000000000E+00
 0.0000000000000E+00
 0.0000000000000E+00
 0.0000000000000E+00
 0.0000000000000E+00
 0.0000000000000E+00
 0.0000000000000E+00
 0.0000000000000E+00
 0.0000000000000E+00
 0.0000000000000E+00
 0.0000000000000E+00
 0.0000000000000E+00
 0.0000000000000E+00
 0.0000000000000E+00
 0.0000000000000E+00
 0.0000000000000E+00
 0.0000000000000E+00
 0.0000000000000E+00
 0.0000000000000E+00
 0.0000000000000E+00
 0.0000000000000E+00
 0.0000000000000E+00
 0.0000000000000E+00
 0.0000000000000E+00
 0.0000000000000E+00
 0.0000000000000E+00
 0.0000000000000E+00
 0.0000000000000E+00
 0.0000000000000E+00
 0.0000000000000E+00
 0.0000000000000E+00
 0.0000000000000E+00
 0.0000000000000E+00
 0.0000000000000E+00
 0.0000000000000E+00
 0.0000000000000E+00
 0.0000000000000E+00
 0.0000000000000E+00
 0.0000000000000E+00
 0.0000000000000E+00
 0.0000000000000E+00
 0.0000000000000E+00
 0.0000000000000E+00
 0.0000000000000E+00
 0.0000000000000E+00
 0.0000000000000E+00
 0.0000000000000E+00
 0.0000000000000E+00
 0.0000000000000E+00
 0.0000000000000E+00
 0.0000000000000E+00
 0.0000000000000E+00
 0.0000000000000E+00
 0.0000000000000E+00
 0.0000000000000E+00
 0.0000000000000E+00
 0.0000000000000E+00
 0.0000000000000E+00
 0.0000000000000E+00
 0.0000000000000E+00
 0.0000000000000E+00
 0.0000000000000E+00
 0.0000000000000E+00
 0.0000000000000E+00
 0.0000000000000E+00
 0.0000000000000E+00
 0.0000000000000E+00
 0.0000000000000E+00
 0.0000000000000E+00
 0.0000000000000E+00
 0.0000000000000E+00
 0.0000000000000E+00
 0.0000000000000E+00
 0.0000000000000E+00
 0.0000000000000E+00
 0.0000000000000E+00
 0.0000000000000E+00
 0.0000000000000E+00
 0.0000000000000E+00
 0.0000000000000E+00
 0.0000000000000E+00
 0.0000000000000E+00
 0.0000000000000E+00
 0.0000000000000E+00
 0.0000000000000E+00
 0.0000000000000E+00
 0.0000000000000E+00
 0.0000000000000E+00
 0.0000000000000E+00
 0.0000000000000E+00
 0.0000000000000E+00
 0.0000000000000E+00
 0.0000000000000E+00
 0.0000000000000E+00
 0.0000000000000E+00
 0.0000000000000E+00
 0.0000000000000E+00
 0.0000000000000E+00
 0.0000000000000E+00
 0.0000000000000E+00
 0.0000000000000E+00
 0.0000000000000E+00
 0.0000000000000E+00
 0.0000000000000E+00
 0.0000000000000E+00
 0.0000000000000E+00
 0.0000000000000E+00
 0.0000000000000E+00
 0.0000000000000E+00
 0.0000000000000E+00
 0.0000000000000E+00
 0.0000000000000E+00
 0.0000000000000E+00
 0.0000000000000E+00
 0.0000000000000E+00
 0.0000000000000E+00
 0.0000000000000E+00
 0.0000000000000E+00
 0.0000000000000E+00
 0.0000000000000E+00
 0.0000000000000E+00
 0.0000000000000E+00
 0.0000000000000E+00
 0.0000000000000E+00
 0.0000000000000E+00
 0.0000000000000E+00
 0.0000000000000E+00
 0.0000000000000E+00
 0.0000000000000E+00
 0.0000000000000E+00
 0.0000000000000E+00
 0.0000000000000E+00
 0.0000000000000E+00
 0.0000000000000E+00
 0.0000000000000E+00
 0.0000000000000E+00
 0.0000000000000E+00
 0.0000000000000E+00
 0.0000000000000E+00
 0.0000000000000E+00
 0.0000000000000E+00
 0.0000000000000E+00
 0.0000000000000E+00
 0.0000000000000E+00
 0.0000000000000E+00
 0.0000000000000E+00
 0.0000000000000E+00
 0.0000000000000E+00
 0.0000000000000E+00
 0.0000000000000E+00
 0.0000000000000E+00
 0.0000000000000E+00
 0.0000000000000E+00
 0.0000000000000E+00
 0.0000000000000E+00
 0.0000000000000E+00
 0.0000000000000E+00
 0.0000000000000E+00
 0.0000000000000E+00
 0.0000000000000E+00
 0.0000000000000E+00
 0.0000000000000E+00
 0.0000000000000E+00
 0.0000000000000E+00
 0.0000000000000E+00
 0.0000000000000E+00
 0.0000000000000E+00
 0.0000000000000E+00
 0.0000000000000E+00
 0.0000000000000E+00
 0.0000000000000E+00
 0.0000000000000E+00
 0.0000000000000E+00
 0.0000000000000E+00
 0.0000000000000E+00
 0.0000000000000E+00
 0.0000000000000E+00
 0.0000000000000E+00
 0.0000000000000E+00
 0.0000000000000E+00
 0.0000000000000E+00
 0.0000000000000E+00
 0.0000000000000E+00
 0.0000000000000E+00
 0.0000000000000E+00
 0.0000000000000E+00
 0.0000000000000E+00
 0.0000000000000E+00
 0.0000000000000E+00
 0.0000000000000E+00
 0.0000000000000E+00
 0.0000000000000E+00
 0.0000000000000E+00
 0.0000000000000E+00
 0.0000000000000E+00
 0.0000000000000E+00
 0.0000000000000E+00
 0.0000000000000E+00
 0.0000000000000E+00
 0.0000000000000E+00
 0.0000000000000E+00
 0.0000000000000E+00
 0.0000000000000E+00
 0.0000000000000E+00
 0.0000000000000E+00
 0.0000000000000E+00
 0.0000000000000E+00
 0.0000000000000E+00
 0.0000000000000E+00
 0.0000000000000E+00
 0.0000000000000E+00
 0.0000000000000E+00
 0.0000000000000E+00
 0.0000000000000E+00
 0.0000000000000E+00
 0.0000000000000E+00
 0.0000000000000E+00
 0.0000000000000E+00
 0.0000000000000E+00
 0.0000000000000E+00
 0.0000000000000E+00
 0.0000000000000E+00
 0.0000000000000E+00
 0.0000000000000E+00
 0.0000000000000E+00
 0.0000000000000E+00
 0.0000000000000E+00
 0.0000000000000E+00
 0.0000000000000E+00
 0.0000000000000E+00
 0.0000000000000E+00
 0.0000000000000E+00
 0.0000000000000E+00
 0.0000000000000E+00
 0.0000000000000E+00
 0.0000000000000E+00
 0.0000000000000E+00
 0.0000000000000E+00
 0.0000000000000E+00
 0.0000000000000E+00
 0.0000000000000E+00
 0.0000000000000E+00
 0.0000000000000E+00
 0.0000000000000E+00
 0.0000000000000E+00
 0.0000000000000E+00
 0.0000000000000E+00
 0.0000000000000E+00
 0.0000000000000E+00
 0.0000000000000E+00
 0.0000000000000E+00
 0.0000000000000E+00
 0.0000000000000E+00
 0.0000000000000E+00
 0.0000000000000E+00
 0.0000000000000E+00
 0.0000000000000E+00
 0.0000000000000E+00
 0.0000000000000E+00
 0.0000000000000E+00
 0.0000000000000E+00
 0.0000000000000E+00
 0.0000000000000E+00
 0.0000000000000E+00
 0.0000000000000E+00
 0.0000000000000E+00
 0.0000000000000E+00
 0.0000000000000E+00
 0.0000000000000E+00
 0.0000000000000E+00
 0.0000000000000E+00
 0.0000000000000E+00
 0.0000000000000E+00
 0.0000000000000E+00
 0.0000000000000E+00
 0.0000000000000E+00
 0.0000000000000E+00
 0.0000000000000E+00
 0.0000000000000E+00
 0.0000000000000E+00
 0.0000000000000E+00
 0.0000000000000E+00
 0.0000000000000E+00
 0.0000000000000E+00
 0.0000000000000E+00
 0.0000000000000E+00
 0.0000000000000E+00
 0.0000000000000E+00
 0.0000000000000E+00
 0.0000000000000E+00
 0.0000000000000E+00
 0.0000000000000E+00
 0.0000000000000E+00
 0.0000000000000E+00
 0.0000000000000E+00
 0.0000000000000E+00
 0.0000000000000E+00
 0.0000000000000E+00
 0.0000000000000E+00
 0.0000000000000E+00
 0.0000000000000E+00
 0.0000000000000E+00
 0.0000000000000E+00
 0.0000000000000E+00
 0.0000000000000E+00
 0.0000000000000E+00
 0.0000000000000E+00
 0.0000000000000E+00
 0.0000000000000E+00
 0.0000000000000E+00
 0.0000000000000E+00
 0.0000000000000E+00
 0.0000000000000E+00
 0.0000000000000E+00
 0.0000000000000E+00
 0.0000000000000E+00
 0.0000000000000E+00
 0.0000000000000E+00
 0.0000000000000E+00
 0.0000000000000E+00
 0.0000000000000E+00
 0.0000000000000E+00
 0.0000000000000E+00
 0.0000000000000E+00
 0.0000000000000E+00
 0.0000000000000E+00
 0.0000000000000E+00
 0.0000000000000E+00
 0.0000000000000E+00
 0.0000000000000E+00
 0.0000000000000E+00
 0.0000000000000E+00
 0.0000000000000E+00
 0.0000000000000E+00
 0.0000000000000E+00
 0.0000000000000E+00
 0.0000000000000E+00
 0.0000000000000E+00
 0.0000000000000E+00
 0.0000000000000E+00
 0.0000000000000E+00
 0.0000000000000E+00
 0.0000000000000E+00
 0.0000000000000E+00
 0.0000000000000E+00
 0.0000000000000E+00
 0.0000000000000E+00
 0.0000000000000E+00
 0.0000000000000E+00
 0.0000000000000E+00
 0.0000000000000E+00
 0.0000000000000E+00
 0.0000000000000E+00
 0.0000000000000E+00
 0.0000000000000E+00
 0.0000000000000E+00
 0.0000000000000E+00
 0.0000000000000E+00
 0.0000000000000E+00
 0.0000000000000E+00
 0.0000000000000E+00
 0.0000000000000E+00
 0.0000000000000E+00
 0.0000000000000E+00
 0.0000000000000E+00
 0.0000000000000E+00
 0.0000000000000E+00
 0.0000000000000E+00
 0.0000000000000E+00
 0.0000000000000E+00
 0.0000000000000E+00
 0.0000000000000E+00
 0.0000000000000E+00
 0.0000000000000E+00
 0.0000000000000E+00
 0.0000000000000E+00
 0.0000000000000E+00
 0.0000000000000E+00
 0.0000000000000E+00
 0.0000000000000E+00
 0.0000000000000E+00
 0.0000000000000E+00
 0.0000000000000E+00
 0.0000000000000E+00
 0.0000000000000E+00
 0.0000000000000E+00
 0.0000000000000E+00
 0.0000000000000E+00
 0.0000000000000E+00
 0.0000000000000E+00
 0.0000000000000E+00
 0.0000000000000E+00
 0.0000000000000E+00
 0.0000000000000E+00
 0.0000000000000E+00
 0.0000000000000E+00
 0.0000000000000E+00
 0.0000000000000E+00
 0.0000000000000E+00
 0.0000000000000E+00
 0.0000000000000E+00
 0.0000000000000E+00
 0.0000000000000E+00
 0.0000000000000E+00
 0.0000000000000E+00
 0.0000000000000E+00
 0.0000000000000E+00
 0.0000000000000E+00
 0.0000000000000E+00
 0.0000000000000E+00
 0.0000000000000E+00
 0.0000000000000E+00
 0.0000000000000E+00
 0.0000000000000E+00
 0.0000000000000E+00
 0.0000000000000E+00
 0.0000000000000E+00
 0.0000000000000E+00
 0.0000000000000E+00
 0.0000000000000E+00
 0.0000000000000E+00
 0.0000000000000E+00
 0.0000000000000E+00
 0.0000000000000E+00
 0.0000000000000E+00
 0.0000000000000E+00
 0.0000000000000E+00
 0.0000000000000E+00
 0.0000000000000E+00
 0.0000000000000E+00
 0.0000000000000E+00
 0.0000000000000E+00
 0.0000000000000E+00
 0.0000000000000E+00
 0.0000000000000E+00
 0.0000000000000E+00
 0.0000000000000E+00
 0.0000000000000E+00
 0.0000000000000E+00
 0.0000000000000E+00
 0.0000000000000E+00
 0.0000000000000E+00
 0.0000000000000E+00
 0.0000000000000E+00
 0.0000000000000E+00
 0.0000000000000E+00
 0.0000000000000E+00
 0.0000000000000E+00
 0.0000000000000E+00
 0.0000000000000E+00
 0.0000000000000E+00
 0.0000000000000E+00
 0.0000000000000E+00
 0.0000000000000E+00
 0.0000000000000E+00
 0.0000000000000E+00
 0.0000000000000E+00
 0.0000000000000E+00
 0.0000000000000E+00
 0.0000000000000E+00
 0.0000000000000E+00
 0.0000000000000E+00
 0.0000000000000E+00
 0.0000000000000E+00
 0.0000000000000E+00
 0.0000000000000E+00
 0.0000000000000E+00
 0.0000000000000E+00
 0.0000000000000E+00
 0.0000000000000E+00
 0.0000000000000E+00
 0.0000000000000E+00
 0.0000000000000E+00
 0.0000000000000E+00
 0.0000000000000E+00
 0.0000000000000E+00
 0.0000000000000E+00
 0.0000000000000E+00
 0.0000000000000E+00
 0.0000000000000E+00
 0.0000000000000E+00
 0.0000000000000E+00
 0.0000000000000E+00
 0.0000000000000E+00
 0.0000000000000E+00
 0.0000000000000E+00
 0.0000000000000E+00
 0.0000000000000E+00
 0.0000000000000E+00
 0.0000000000000E+00
 0.0000000000000E+00
 0.0000000000000E+00
 0.0000000000000E+00
 0.0000000000000E+00
 0.0000000000000E+00
 0.0000000000000E+00
 0.0000000000000E+00
 0.0000000000000E+00
 0.0000000000000E+00
 0.0000000000000E+00
 0.0000000000000E+00
 0.0000000000000E+00
 0.0000000000000E+00
 0.0000000000000E+00
 0.0000000000000E+00
 0.0000000000000E+00
 0.0000000000000E+00
 0.0000000000000E+00
 0.0000000000000E+00
 0.0000000000000E+00
 0.0000000000000E+00
 0.0000000000000E+00
 0.0000000000000E+00
 0.0000000000000E+00
 0.0000000000000E+00
 0.0000000000000E+00
 0.0000000000000E+00
 0.0000000000000E+00
 0.0000000000000E+00
 0.0000000000000E+00
 0.0000000000000E+00
 0.0000000000000E+00
 0.0000000000000E+00
 0.0000000000000E+00
 0.0000000000000E+00
 0.0000000000000E+00
 0.0000000000000E+00
 0.0000000000000E+00
 0.0000000000000E+00
 0.0000000000000E+00
 0.0000000000000E+00
 0.0000000000000E+00
 0.0000000000000E+00
 0.0000000000000E+00
 0.0000000000000E+00
 0.0000000000000E+00
 0.0000000000000E+00
 0.0000000000000E+00
 0.0000000000000E+00
 0.0000000000000E+00
 0.0000000000000E+00
 0.0000000000000E+00
 0.0000000000000E+00
 0.0000000000000E+00
 0.0000000000000E+00
 0.0000000000000E+00
 0.0000000000000E+00
 0.0000000000000E+00
 0.0000000000000E+00
 0.0000000000000E+00
 0.0000000000000E+00
 0.0000000000000E+00
 0.0000000000000E+00
 0.0000000000000E+00
 0.0000000000000E+00
 0.0000000000000E+00
 0.0000000000000E+00
 0.0000000000000E+00
 0.0000000000000E+00
 0.0000000000000E+00
 0.0000000000000E+00
 0.0000000000000E+00
 0.0000000000000E+00
 0.0000000000000E+00
 0.0000000000000E+00
 0.0000000000000E+00
 0.0000000000000E+00
 0.0000000000000E+00
 0.0000000000000E+00
 0.0000000000000E+00
 0.0000000000000E+00
 0.0000000000000E+00
 0.0000000000000E+00
 0.0000000000000E+00
 0.0000000000000E+00
 0.0000000000000E+00
 0.0000000000000E+00
 0.0000000000000E+00
 0.0000000000000E+00
 0.0000000000000E+00
 0.0000000000000E+00
 0.0000000000000E+00
 0.0000000000000E+00
 0.0000000000000E+00
 0.0000000000000E+00
 0.0000000000000E+00
 0.0000000000000E+00
 0.0000000000000E+00
 0.0000000000000E+00
 0.0000000000000E+00
 0.0000000000000E+00
 0.0000000000000E+00
 0.0000000000000E+00
 0.0000000000000E+00
 0.0000000000000E+00
 0.0000000000000E+00
 0.0000000000000E+00
 0.0000000000000E+00
 0.0000000000000E+00
 0.0000000000000E+00
 0.0000000000000E+00
 0.0000000000000E+00
 0.0000000000000E+00
 0.0000000000000E+00
 0.0000000000000E+00
 0.0000000000000E+00
 0.0000000000000E+00
 0.0000000000000E+00
 0.0000000000000E+00
 0.0000000000000E+00
 0.0000000000000E+00
 0.0000000000000E+00
 0.0000000000000E+00
 0.0000000000000E+00
 0.0000000000000E+00
 0.0000000000000E+00
 0.0000000000000E+00
 0.0000000000000E+00
 0.0000000000000E+00
 0.0000000000000E+00
 0.0000000000000E+00
 0.0000000000000E+00
 0.0000000000000E+00
 0.0000000000000E+00
 0.0000000000000E+00
 0.0000000000000E+00
 0.0000000000000E+00
 0.0000000000000E+00
 0.0000000000000E+00
 0.0000000000000E+00
 0.0000000000000E+00
 0.0000000000000E+00
 0.0000000000000E+00
 0.0000000000000E+00
 0.0000000000000E+00
 0.0000000000000E+00
 0.0000000000000E+00
 0.0000000000000E+00
 0.0000000000000E+00
 0.0000000000000E+00
 0.0000000000000E+00
 0.0000000000000E+00
 0.0000000000000E+00
 0.0000000000000E+00
 0.0000000000000E+00
 0.0000000000000E+00
 0.0000000000000E+00
 0.0000000000000E+00
 0.0000000000000E+00
 0.0000000000000E+00
 0.0000000000000E+00
 0.0000000000000E+00
 0.0000000000000E+00
 0.0000000000000E+00
 0.0000000000000E+00
 0.0000000000000E+00
 0.0000000000000E+00
 0.0000000000000E+00
 0.0000000000000E+00
 0.0000000000000E+00
 0.0000000000000E+00
 0.0000000000000E+00
 0.0000000000000E+00
 0.0000000000000E+00
 0.0000000000000E+00
 0.0000000000000E+00
 0.0000000000000E+00
 0.0000000000000E+00
 0.0000000000000E+00
 0.0000000000000E+00
 0.0000000000000E+00
 0.0000000000000E+00
 0.0000000000000E+00
 0.0000000000000E+00
 0.0000000000000E+00
 0.0000000000000E+00
 0.0000000000000E+00
 0.0000000000000E+00
 0.0000000000000E+00
 0.0000000000000E+00
 0.0000000000000E+00
 0.0000000000000E+00
 0.0000000000000E+00
 0.0000000000000E+00
 0.0000000000000E+00
 0.0000000000000E+00
 0.0000000000000E+00
 0.0000000000000E+00
 0.0000000000000E+00
 0.0000000000000E+00
 0.0000000000000E+00
 0.0000000000000E+00
 0.0000000000000E+00
 0.0000000000000E+00
 0.0000000000000E+00
 0.0000000000000E+00
 0.0000000000000E+00
 0.0000000000000E+00
 0.0000000000000E+00
 0.0000000000000E+00
 0.0000000000000E+00
 0.0000000000000E+00
 0.0000000000000E+00
 0.0000000000000E+00
 0.0000000000000E+00
 0.0000000000000E+00
 0.0000000000000E+00
 0.0000000000000E+00
 0.0000000000000E+00
 0.0000000000000E+00
 0.0000000000000E+00
 0.0000000000000E+00
 0.0000000000000E+00
 0.0000000000000E+00
 0.0000000000000E+00
 0.0000000000000E+00
 0.0000000000000E+00
 0.0000000000000E+00
 0.0000000000000E+00
 0.0000000000000E+00
 0.0000000000000E+00
 0.0000000000000E+00
 0.0000000000000E+00
 0.0000000000000E+00
 0.0000000000000E+00
 0.0000000000000E+00
 0.0000000000000E+00
 0.0000000000000E+00
 0.0000000000000E+00
 0.0000000000000E+00
 0.0000000000000E+00
 0.0000000000000E+00
 0.0000000000000E+00
 0.0000000000000E+00
 0.0000000000000E+00
 0.0000000000000E+00
 0.0000000000000E+00
 0.0000000000000E+00
 0.0000000000000E+00
 0.0000000000000E+00
 0.0000000000000E+00
 0.0000000000000E+00
 0.0000000000000E+00
 0.0000000000000E+00
 0.0000000000000E+00
 0.0000000000000E+00
 0.0000000000000E+00
 0.0000000000000E+00
 0.0000000000000E+00
 0.0000000000000E+00
 0.0000000000000E+00
 0.0000000000000E+00
 0.0000000000000E+00
 0.0000000000000E+00
 0.0000000000000E+00
 0.0000000000000E+00
 0.0000000000000E+00
 0.0000000000000E+00
 0.0000000000000E+00
 0.0000000000000E+00
 0.0000000000000E+00
 0.0000000000000E+00
 0.0000000000000E+00
 0.0000000000000E+00
 0.0000000000000E+00
 0.0000000000000E+00
 0.0000000000000E+00
 0.0000000000000E+00
 0.0000000000000E+00
 0.0000000000000E+00
 0.0000000000000E+00
 0.0000000000000E+00
 0.0000000000000E+00
 0.0000000000000E+00
 0.0000000000000E+00
 0.0000000000000E+00
 0.0000000000000E+00
 0.0000000000000E+00
 0.0000000000000E+00
 0.0000000000000E+00
 0.0000000000000E+00
 0.0000000000000E+00
 0.0000000000000E+00
 0.0000000000000E+00
 0.0000000000000E+00
 0.0000000000000E+00
 0.0000000000000E+00
 0.0000000000000E+00
 0.0000000000000E+00
 0.0000000000000E+00
 0.0000000000000E+00
 0.0000000000000E+00
 0.0000000000000E+00
 0.0000000000000E+00
 0.0000000000000E+00
 0.0000000000000E+00
 0.0000000000000E+00
 0.0000000000000E+00
 0.0000000000000E+00
 0.0000000000000E+00
 0.0000000000000E+00
 0.0000000000000E+00
 0.0000000000000E+00
 0.0000000000000E+00
 0.0000000000000E+00
 0.0000000000000E+00
 0.0000000000000E+00
 0.0000000000000E+00
 0.0000000000000E+00
 0.0000000000000E+00
 0.0000000000000E+00
 0.0000000000000E+00
 0.0000000000000E+00
 0.0000000000000E+00
 0.0000000000000E+00
 0.0000000000000E+00
 0.0000000000000E+00
 0.0000000000000E+00
 0.0000000000000E+00
 0.0000000000000E+00
 0.0000000000000E+00
 0.0000000000000E+00
 0.0000000000000E+00
 0.0000000000000E+00
 0.0000000000000E+00
 0.0000000000000E+00
 0.0000000000000E+00
 0.0000000000000E+00
 0.0000000000000E+00
 0.0000000000000E+00
 0.0000000000000E+00
 0.0000000000000E+00
 0.0000000000000E+00
 0.0000000000000E+00
 0.0000000000000E+00
 0.0000000000000E+00
 0.0000000000000E+00
 0.0000000000000E+00
 0.0000000000000E+00
 0.0000000000000E+00
 0.0000000000000E+00
 0.0000000000000E+00
 0.0000000000000E+00
 0.0000000000000E+00
 0.0000000000000E+00
 0.0000000000000E+00
 0.0000000000000E+00
 0.0000000000000E+00
 0.0000000000000E+00
 0.0000000000000E+00
 0.0000000000000E+00
 0.0000000000000E+00
 0.0000000000000E+00
 0.0000000000000E+00
 0.0000000000000E+00
 0.0000000000000E+00
 0.0000000000000E+00
 0.0000000000000E+00
 0.0000000000000E+00
 0.0000000000000E+00
 0.0000000000000E+00
 0.0000000000000E+00
 0.0000000000000E+00
 0.0000000000000E+00
 0.0000000000000E+00
 0.0000000000000E+00
 0.0000000000000E+00
 0.0000000000000E+00
 0.0000000000000E+00
 0.0000000000000E+00
 0.0000000000000E+00
 0.0000000000000E+00
 0.0000000000000E+00
 0.0000000000000E+00
 0.0000000000000E+00
 0.0000000000000E+00
 0.0000000000000E+00
 0.0000000000000E+00
 0.0000000000000E+00
 0.0000000000000E+00
 0.0000000000000E+00
 0.0000000000000E+00
 0.0000000000000E+00
 0.0000000000000E+00
 0.0000000000000E+00
 0.0000000000000E+00
 0.0000000000000E+00
 0.0000000000000E+00
 0.0000000000000E+00
 0.0000000000000E+00
 0.0000000000000E+00
 0.0000000000000E+00
 0.0000000000000E+00
 0.0000000000000E+00
 0.0000000000000E+00
 0.0000000000000E+00
 0.0000000000000E+00
 0.0000000000000E+00
 0.0000000000000E+00
 0.0000000000000E+00
 0.0000000000000E+00
 0.0000000000000E+00
 0.0000000000000E+00
 0.0000000000000E+00
 0.0000000000000E+00
 0.0000000000000E+00
 0.0000000000000E+00
 0.0000000000000E+00
 0.0000000000000E+00
 0.0000000000000E+00
 0.0000000000000E+00
 0.0000000000000E+00
 0.0000000000000E+00
 0.0000000000000E+00
 0.0000000000000E+00
 0.0000000000000E+00
 0.0000000000000E+00
 0.0000000000000E+00
 0.0000000000000E+00
 0.0000000000000E+00
 0.0000000000000E+00
 0.0000000000000E+00
 0.0000000000000E+00
 0.0000000000000E+00
 0.0000000000000E+00
 0.0000000000000E+00
 0.0000000000000E+00
 0.0000000000000E+00
 0.0000000000000E+00
 0.0000000000000E+00
 0.0000000000000E+00
 0.0000000000000E+00
 0.0000000000000E+00
 0.0000000000000E+00
 0.0000000000000E+00
 0.0000000000000E+00
 0.0000000000000E+00
 0.0000000000000E+00
 0.0000000000000E+00
 0.0000000000000E+00
 0.0000000000000E+00
 0.0000000000000E+00
 0.0000000000000E+00
 0.0000000000000E+00
 0.0000000000000E+00
 0.0000000000000E+00
 0.0000000000000E+00
 0.0000000000000E+00
 0.0000000000000E+00
 0.0000000000000E+00
 0.0000000000000E+00
 0.0000000000000E+00
 0.0000000000000E+00
 0.0000000000000E+00
 0.0000000000000E+00
 0.0000000000000E+00
 0.0000000000000E+00
 0.0000000000000E+00
 0.0000000000000E+00
 0.0000000000000E+00
 0.0000000000000E+00
 0.0000000000000E+00
 0.0000000000000E+00
 0.0000000000000E+00
 0.0000000000000E+00
 0.0000000000000E+00
 0.0000000000000E+00
 0.0000000000000E+00
 0.0000000000000E+00
 0.0000000000000E+00
 0.0000000000000E+00
 0.0000000000000E+00
 0.0000000000000E+00
 0.0000000000000E+00
 0.0000000000000E+00
 0.0000000000000E+00
 0.0000000000000E+00
 0.0000000000000E+00
 0.0000000000000E+00
 0.0000000000000E+00
 0.0000000000000E+00
 0.0000000000000E+00
 0.0000000000000E+00
 0.0000000000000E+00
 0.0000000000000E+00
 0.0000000000000E+00
 0.0000000000000E+00
 0.0000000000000E+00
 0.0000000000000E+00
 0.0000000000000E+00
 0.0000000000000E+00
 0.0000000000000E+00
 0.0000000000000E+00
 0.0000000000000E+00
 0.0000000000000E+00
 0.0000000000000E+00
 0.0000000000000E+00
 0.0000000000000E+00
 0.0000000000000E+00
 0.0000000000000E+00
 0.0000000000000E+00
 0.0000000000000E+00
 0.0000000000000E+00
 0.0000000000000E+00
 0.0000000000000E+00
 0.0000000000000E+00
 0.0000000000000E+00
 0.0000000000000E+00
 0.0000000000000E+00
 0.0000000000000E+00
 0.0000000000000E+00
 0.0000000000000E+00
 0.0000000000000E+00
 0.0000000000000E+00
 0.0000000000000E+00
 0.0000000000000E+00
 0.0000000000000E+00
 0.0000000000000E+00
 0.0000000000000E+00
 0.0000000000000E+00
 0.0000000000000E+00
 0.0000000000000E+00
 0.0000000000000E+00
 0.0000000000000E+00
 0.0000000000000E+00
 0.0000000000000E+00
 0.0000000000000E+00
 0.0000000000000E+00
 0.0000000000000E+00
 0.0000000000000E+00
 0.0000000000000E+00
 0.0000000000000E+00
 0.0000000000000E+00
 0.0000000000000E+00
 0.0000000000000E+00
 0.0000000000000E+00
 0.0000000000000E+00
 0.0000000000000E+00
 0.0000000000000E+00
 0.0000000000000E+00
 0.0000000000000E+00
 0.0000000000000E+00
 0.0000000000000E+00
 0.0000000000000E+00
 0.0000000000000E+00
 0.0000000000000E+00
 0.0000000000000E+00
 0.0000000000000E+00
 0.0000000000000E+00
 0.0000000000000E+00
 0.0000000000000E+00
 0.0000000000000E+00
 0.0000000000000E+00
 0.0000000000000E+00
 0.0000000000000E+00
 0.0000000000000E+00
 0.0000000000000E+00
 0.0000000000000E+00
 0.0000000000000E+00
 0.0000000000000E+00
 0.0000000000000E+00
 0.0000000000000E+00
 0.0000000000000E+00
 0.0000000000000E+00
 0.0000000000000E+00
 0.0000000000000E+00
 0.0000000000000E+00
 0.0000000000000E+00
 0.0000000000000E+00
 0.0000000000000E+00
 0.0000000000000E+00
 0.0000000000000E+00
 0.0000000000000E+00
 0.0000000000000E+00
 0.0000000000000E+00
 0.0000000000000E+00
 0.0000000000000E+00
 0.0000000000000E+00
 0.0000000000000E+00
 0.0000000000000E+00
 0.0000000000000E+00
 0.0000000000000E+00
 0.0000000000000E+00
 0.0000000000000E+00
 0.0000000000000E+00
 0.0000000000000E+00
 0.0000000000000E+00
 0.0000000000000E+00
 0.0000000000000E+00
 0.0000000000000E+00
 0.0000000000000E+00
 0.0000000000000E+00
 0.0000000000000E+00
 0.0000000000000E+00
 0.0000000000000E+00
 0.0000000000000E+00
 0.0000000000000E+00
 0.0000000000000E+00
 0.0000000000000E+00
 0.0000000000000E+00
 0.0000000000000E+00
 0.0000000000000E+00
 0.0000000000000E+00
 0.0000000000000E+00
 0.0000000000000E+00
 0.0000000000000E+00
 0.0000000000000E+00
 0.0000000000000E+00
 0.0000000000000E+00
 0.0000000000000E+00
 0.0000000000000E+00
 0.0000000000000E+00
 0.0000000000000E+00
 0.0000000000000E+00
 0.0000000000000E+00
 0.0000000000000E+00
 0.0000000000000E+00
 0.0000000000000E+00
 0.0000000000000E+00
 0.0000000000000E+00
 0.0000000000000E+00
 0.0000000000000E+00
 0.0000000000000E+00
 0.0000000000000E+00
 0.0000000000000E+00
 0.0000000000000E+00
 0.0000000000000E+00
 0.0000000000000E+00
 0.0000000000000E+00
 0.0000000000000E+00
 0.0000000000000E+00
 0.0000000000000E+00
 0.0000000000000E+00
 0.0000000000000E+00
 0.0000000000000E+00
 0.0000000000000E+00
 0.0000000000000E+00
 0.0000000000000E+00
 0.0000000000000E+00
 0.0000000000000E+00
 0.0000000000000E+00
 0.0000000000000E+00
 0.0000000000000E+00
 0.0000000000000E+00
 0.0000000000000E+00
 0.0000000000000E+00
 0.0000000000000E+00
 0.0000000000000E+00
 0.0000000000000E+00
 0.0000000000000E+00
 0.0000000000000E+00
 0.0000000000000E+00
 0.0000000000000E+00
 0.0000000000000E+00
 0.0000000000000E+00
 0.0000000000000E+00
 0.0000000000000E+00
 0.0000000000000E+00
 0.0000000000000E+00
 0.0000000000000E+00
 0.0000000000000E+00
 0.0000000000000E+00
 0.0000000000000E+00
 0.0000000000000E+00
 0.0000000000000E+00
 0.0000000000000E+00
 0.0000000000000E+00
 0.0000000000000E+00
 0.0000000000000E+00
 0.0000000000000E+00
 0.0000000000000E+00
 0.0000000000000E+00
 0.0000000000000E+00
 0.0000000000000E+00
 0.0000000000000E+00
 0.0000000000000E+00
 0.0000000000000E+00
 0.0000000000000E+00
 0.0000000000000E+00
 0.0000000000000E+00
 0.0000000000000E+00
 0.0000000000000E+00
 0.0000000000000E+00
 0.0000000000000E+00
 0.0000000000000E+00
 0.0000000000000E+00
 0.0000000000000E+00
 0.0000000000000E+00
 0.0000000000000E+00
 0.0000000000000E+00
 0.0000000000000E+00
 0.0000000000000E+00
 0.0000000000000E+00
 0.0000000000000E+00
 0.0000000000000E+00
 0.0000000000000E+00
 0.0000000000000E+00
 0.0000000000000E+00
 0.0000000000000E+00
 0.0000000000000E+00
 0.0000000000000E+00
 0.0000000000000E+00
 0.0000000000000E+00
 0.0000000000000E+00
 0.0000000000000E+00
 0.0000000000000E+00
 0.0000000000000E+00
 0.0000000000000E+00
 0.0000000000000E+00
 0.0000000000000E+00
 0.0000000000000E+00
 0.0000000000000E+00
 0.0000000000000E+00
 0.0000000000000E+00
 0.0000000000000E+00
 0.0000000000000E+00
 0.0000000000000E+00
 0.0000000000000E+00
 0.0000000000000E+00
 0.0000000000000E+00
 0.0000000000000E+00
 0.0000000000000E+00
 0.0000000000000E+00
 0.0000000000000E+00
 0.0000000000000E+00
 0.0000000000000E+00
 0.0000000000000E+00
 0.0000000000000E+00
 0.0000000000000E+00
 0.0000000000000E+00
 0.0000000000000E+00
 0.0000000000000E+00
 0.0000000000000E+00
 0.0000000000000E+00
 0.0000000000000E+00
 0.0000000000000E+00
 0.0000000000000E+00
 0.0000000000000E+00
 0.0000000000000E+00
 0.0000000000000E+00
 0.0000000000000E+00
 0.0000000000000E+00
 0.0000000000000E+00
 0.0000000000000E+00
 0.0000000000000E+00
 0.0000000000000E+00
 0.0000000000000E+00
 0.0000000000000E+00
 0.0000000000000E+00
 0.0000000000000E+00
 0.0000000000000E+00
 0.0000000000000E+00
 0.0000000000000E+00
 0.0000000000000E+00
 0.0000000000000E+00
 0.0000000000000E+00
 0.0000000000000E+00
 0.0000000000000E+00
 0.0000000000000E+00
 0.0000000000000E+00
 0.0000000000000E+00
 0.0000000000000E+00
 0.0000000000000E+00
 0.0000000000000E+00
 0.0000000000000E+00
 0.0000000000000E+00
 0.0000000000000E+00
 0.0000000000000E+00
 0.0000000000000E+00
 0.0000000000000E+00
 0.0000000000000E+00
 0.0000000000000E+00
 0.0000000000000E+00
 0.0000000000000E+00
 0.0000000000000E+00
 0.0000000000000E+00
 0.0000000000000E+00
 0.0000000000000E+00
 0.0000000000000E+00
 0.0000000000000E+00
 0.0000000000000E+00
 0.0000000000000E+00
 0.0000000000000E+00
 0.0000000000000E+00
 0.0000000000000E+00
 0.0000000000000E+00
 0.0000000000000E+00
 0.0000000000000E+00
 0.0000000000000E+00
 0.0000000000000E+00
 0.0000000000000E+00
 0.0000000000000E+00
 0.0000000000000E+00
 0.0000000000000E+00
 0.0000000000000E+00
 0.0000000000000E+00
 0.0000000000000E+00
 0.0000000000000E+00
 0.0000000000000E+00
 0.0000000000000E+00
 0.0000000000000E+00
 0.0000000000000E+00
 0.0000000000000E+00
 0.0000000000000E+00
 0.0000000000000E+00
 0.0000000000000E+00
 0.0000000000000E+00
 0.0000000000000E+00
 0.0000000000000E+00
 0.0000000000000E+00
 0.0000000000000E+00
 0.0000000000000E+00
 0.0000000000000E+00
 0.0000000000000E+00
 0.0000000000000E+00
 0.0000000000000E+00
 0.0000000000000E+00
 0.0000000000000E+00
 0.0000000000000E+00
 0.0000000000000E+00
 0.0000000000000E+00
 0.0000000000000E+00
 0.0000000000000E+00
 0.0000000000000E+00
 0.0000000000000E+00
 0.0000000000000E+00
 0.0000000000000E+00
 0.0000000000000E+00
 0.0000000000000E+00
 0.0000000000000E+00
 0.0000000000000E+00
 0.0000000000000E+00
 0.0000000000000E+00
 0.0000000000000E+00
 0.0000000000000E+00
 0.0000000000000E+00
 0.0000000000000E+00
 0.0000000000000E+00
 0.0000000000000E+00
 0.0000000000000E+00
 0.0000000000000E+00
 0.0000000000000E+00
 0.0000000000000E+00
 0.0000000000000E+00
 0.0000000000000E+00
 0.0000000000000E+00
 0.0000000000000E+00
 0.0000000000000E+00
 0.0000000000000E+00
 0.0000000000000E+00
 0.0000000000000E+00
 0.0000000000000E+00
 0.0000000000000E+00
 0.0000000000000E+00
 0.0000000000000E+00
 0.0000000000000E+00
 0.0000000000000E+00
 0.0000000000000E+00
 0.0000000000000E+00
 0.0000000000000E+00
 0.0000000000000E+00
 0.0000000000000E+00
 0.0000000000000E+00
 0.0000000000000E+00
 0.0000000000000E+00
 0.0000000000000E+00
 0.0000000000000E+00
 0.0000000000000E+00
 0.0000000000000E+00
 0.0000000000000E+00
 0.0000000000000E+00
 0.0000000000000E+00
 0.0000000000000E+00
 0.0000000000000E+00
 0.0000000000000E+00
 0.0000000000000E+00
 0.0000000000000E+00
 0.0000000000000E+00
 0.0000000000000E+00
 0.0000000000000E+00
 0.0000000000000E+00
 0.0000000000000E+00
 0.0000000000000E+00
 0.0000000000000E+00
 0.0000000000000E+00
 0.0000000000000E+00
 0.0000000000000E+00
 0.0000000000000E+00
 0.0000000000000E+00
 0.0000000000000E+00
 0.0000000000000E+00
 0.0000000000000E+00
 0.0000000000000E+00
 0.0000000000000E+00
 0.0000000000000E+00
 0.0000000000000E+00
 0.0000000000000E+00
 0.0000000000000E+00
 0.0000000000000E+00
 0.0000000000000E+00
 0.0000000000000E+00
 0.0000000000000E+00
 0.0000000000000E+00
 0.0000000000000E+00
 0.0000000000000E+00
 0.0000000000000E+00
 0.0000000000000E+00
 0.0000000000000E+00
 0.0000000000000E+00
 0.0000000000000E+00
 0.0000000000000E+00
 0.0000000000000E+00
 0.0000000000000E+00
 0.0000000000000E+00
 0.0000000000000E+00
 0.0000000000000E+00
 0.0000000000000E+00
 0.0000000000000E+00
 0.0000000000000E+00
 0.0000000000000E+00
 0.0000000000000E+00
 0.0000000000000E+00
 0.0000000000000E+00
 0.0000000000000E+00
 0.0000000000000E+00
 0.0000000000000E+00
 0.0000000000000E+00
 0.0000000000000E+00
 0.0000000000000E+00
 0.0000000000000E+00
 0.0000000000000E+00
 0.0000000000000E+00
 0.0000000000000E+00
 0.0000000000000E+00
 0.0000000000000E+00
 0.0000000000000E+00
 0.0000000000000E+00
 0.0000000000000E+00
 0.0000000000000E+00
 0.0000000000000E+00
 0.0000000000000E+00
 0.0000000000000E+00
 0.0000000000000E+00
 0.0000000000000E+00
 0.0000000000000E+00
 0.0000000000000E+00
 0.0000000000000E+00
 0.0000000000000E+00
 0.0000000000000E+00
 0.0000000000000E+00
 0.0000000000000E+00
 0.0000000000000E+00
 0.0000000000000E+00
 0.0000000000000E+00
 0.0000000000000E+00
 0.0000000000000E+00
 0.0000000000000E+00
 0.0000000000000E+00
 0.0000000000000E+00
 0.0000000000000E+00
 0.0000000000000E+00
 0.0000000000000E+00
 0.0000000000000E+00
 0.0000000000000E+00
 0.0000000000000E+00
 0.0000000000000E+00
 0.0000000000000E+00
 0.0000000000000E+00
 0.0000000000000E+00
 0.0000000000000E+00
 0.0000000000000E+00
 0.0000000000000E+00
 0.0000000000000E+00
 0.0000000000000E+00
 0.0000000000000E+00
 0.0000000000000E+00
 0.0000000000000E+00
 0.0000000000000E+00
 0.0000000000000E+00
 0.0000000000000E+00
 0.0000000000000E+00
 0.0000000000000E+00
 0.0000000000000E+00
 0.0000000000000E+00
 0.0000000000000E+00
 0.0000000000000E+00
 0.0000000000000E+00
 0.0000000000000E+00
 0.0000000000000E+00
 0.0000000000000E+00
 0.0000000000000E+00
 0.0000000000000E+00
 0.0000000000000E+00
 0.0000000000000E+00
 0.0000000000000E+00
 0.0000000000000E+00
 0.0000000000000E+00
 0.0000000000000E+00
 0.0000000000000E+00
 0.0000000000000E+00
 0.0000000000000E+00
 0.0000000000000E+00
 0.0000000000000E+00
 0.0000000000000E+00
 0.0000000000000E+00
 0.0000000000000E+00
 0.0000000000000E+00
 0.0000000000000E+00
 0.0000000000000E+00
 0.0000000000000E+00
 0.0000000000000E+00
 0.0000000000000E+00
 0.0000000000000E+00
 0.0000000000000E+00
 0.0000000000000E+00
 0.0000000000000E+00
 0.0000000000000E+00
 0.0000000000000E+00
 0.0000000000000E+00
 0.0000000000000E+00
 0.0000000000000E+00
 0.0000000000000E+00
 0.0000000000000E+00
 0.0000000000000E+00
 0.0000000000000E+00
 0.0000000000000E+00
 0.0000000000000E+00
 0.0000000000000E+00
 0.0000000000000E+00
 0.0000000000000E+00
 0.0000000000000E+00
 0.0000000000000E+00
 0.0000000000000E+00
 0.0000000000000E+00
 0.0000000000000E+00
 0.0000000000000E+00
 0.0000000000000E+00
 0.0000000000000E+00
 0.0000000000000E+00
 0.0000000000000E+00
 0.0000000000000E+00
 0.0000000000000E+00
 0.0000000000000E+00
 0.0000000000000E+00
 0.0000000000000E+00
 0.0000000000000E+00
 0.0000000000000E+00
 0.0000000000000E+00
 0.0000000000000E+00
 0.0000000000000E+00
 0.0000000000000E+00
 0.0000000000000E+00
 0.0000000000000E+00
 0.0000000000000E+00
 0.0000000000000E+00
 0.0000000000000E+00
 0.0000000000000E+00
 0.0000000000000E+00
 0.0000000000000E+00
 0.0000000000000E+00
 0.0000000000000E+00
 0.0000000000000E+00
 0.0000000000000E+00
 0.0000000000000E+00
 0.0000000000000E+00
 0.0000000000000E+00
 0.0000000000000E+00
 0.0000000000000E+00
 0.0000000000000E+00
 0.0000000000000E+00
 0.0000000000000E+00
 0.0000000000000E+00
 0.0000000000000E+00
 0.0000000000000E+00
 0.0000000000000E+00
 0.0000000000000E+00
 0.0000000000000E+00
 0.0000000000000E+00
 0.0000000000000E+00
 0.0000000000000E+00
 0.0000000000000E+00
 0.0000000000000E+00
 0.0000000000000E+00
 0.0000000000000E+00
 0.0000000000000E+00
 0.0000000000000E+00
 0.0000000000000E+00
 0.0000000000000E+00
 0.0000000000000E+00
 0.0000000000000E+00
 0.0000000000000E+00
 0.0000000000000E+00
 0.0000000000000E+00
 0.0000000000000E+00
 0.0000000000000E+00
 0.0000000000000E+00
 0.0000000000000E+00
 0.0000000000000E+00
 0.0000000000000E+00
 0.0000000000000E+00
 0.0000000000000E+00
 0.0000000000000E+00
 0.0000000000000E+00
 0.0000000000000E+00
 0.0000000000000E+00
 0.0000000000000E+00
 0.0000000000000E+00
 0.0000000000000E+00
 0.0000000000000E+00
 0.0000000000000E+00
 0.0000000000000E+00
 0.0000000000000E+00
 0.0000000000000E+00
 0.0000000000000E+00
 0.0000000000000E+00
 0.0000000000000E+00
 0.0000000000000E+00
 0.0000000000000E+00
 0.0000000000000E+00
 0.0000000000000E+00
 0.0000000000000E+00
 0.0000000000000E+00
 0.0000000000000E+00
 0.0000000000000E+00
 0.0000000000000E+00
 0.0000000000000E+00
 0.0000000000000E+00
 0.0000000000000E+00
 0.0000000000000E+00
 0.0000000000000E+00
 0.0000000000000E+00
 0.0000000000000E+00
 0.0000000000000E+00
 0.0000000000000E+00
 0.0000000000000E+00
 0.0000000000000E+00
 0.0000000000000E+00
 0.0000000000000E+00
 0.0000000000000E+00
 0.0000000000000E+00
 0.0000000000000E+00
 0.0000000000000E+00
 0.0000000000000E+00
 0.0000000000000E+00
 0.0000000000000E+00
 0.0000000000000E+00
 0.0000000000000E+00
 0.0000000000000E+00
 0.0000000000000E+00
 0.0000000000000E+00
 0.0000000000000E+00
 0.0000000000000E+00
 0.0000000000000E+00
 0.0000000000000E+00
 0.0000000000000E+00
 0.0000000000000E+00
 0.0000000000000E+00
 0.0000000000000E+00
 0.0000000000000E+00
 0.0000000000000E+00
 0.0000000000000E+00
 0.0000000000000E+00
 0.0000000000000E+00
 0.0000000000000E+00
 0.0000000000000E+00
 0.0000000000000E+00
 0.0000000000000E+00
 0.0000000000000E+00
 0.0000000000000E+00
 0.0000000000000E+00
 0.0000000000000E+00
 0.0000000000000E+00
 0.0000000000000E+00
 0.0000000000000E+00
 0.0000000000000E+00
 0.0000000000000E+00
 0.0000000000000E+00
 0.0000000000000E+00
 0.0000000000000E+00
 0.0000000000000E+00
 0.0000000000000E+00
 0.0000000000000E+00
 0.0000000000000E+00
 0.0000000000000E+00
 0.0000000000000E+00
 0.0000000000000E+00
 0.0000000000000E+00
 0.0000000000000E+00
 0.0000000000000E+00
 0.0000000000000E+00
 0.0000000000000E+00
 0.0000000000000E+00
 0.0000000000000E+00
 0.0000000000000E+00
 0.0000000000000E+00
 0.0000000000000E+00
 0.0000000000000E+00
 0.0000000000000E+00
 0.0000000000000E+00
 0.0000000000000E+00
 0.0000000000000E+00
 0.0000000000000E+00
 0.0000000000000E+00
 0.0000000000000E+00
 0.0000000000000E+00
 0.0000000000000E+00
 0.0000000000000E+00
 0.0000000000000E+00
 0.0000000000000E+00
 0.0000000000000E+00
 0.0000000000000E+00
 0.0000000000000E+00
 0.0000000000000E+00
 0.0000000000000E+00
 0.0000000000000E+00
 0.0000000000000E+00
 0.0000000000000E+00
 0.0000000000000E+00
 0.0000000000000E+00
 0.0000000000000E+00
 0.0000000000000E+00
 0.0000000000000E+00
 0.0000000000000E+00
 0.0000000000000E+00
 0.0000000000000E+00
 0.0000000000000E+00
 0.0000000000000E+00
 0.0000000000000E+00
 0.0000000000000E+00
 0.0000000000000E+00
 0.0000000000000E+00
 0.0000000000000E+00
 0.0000000000000E+00
 0.0000000000000E+00
 0.0000000000000E+00
 0.0000000000000E+00
 0.0000000000000E+00
 0.0000000000000E+00
 0.0000000000000E+00
 0.0000000000000E+00
 0.0000000000000E+00
 0.0000000000000E+00
 0.0000000000000E+00
 0.0000000000000E+00
 0.0000000000000E+00
 0.0000000000000E+00
 0.0000000000000E+00
 0.0000000000000E+00
 0.0000000000000E+00
 0.0000000000000E+00
 0.0000000000000E+00
 0.0000000000000E+00
 0.0000000000000E+00
 0.0000000000000E+00
 0.0000000000000E+00
 0.0000000000000E+00
 0.0000000000000E+00
 0.0000000000000E+00
 0.0000000000000E+00
 0.0000000000000E+00
 0.0000000000000E+00
 0.0000000000000E+00
 0.0000000000000E+00
 0.0000000000000E+00
 0.0000000000000E+00
 0.0000000000000E+00
 0.0000000000000E+00
 0.0000000000000E+00
 0.0000000000000E+00
 0.0000000000000E+00
 0.0000000000000E+00
 0.0000000000000E+00
 0.0000000000000E+00
 0.0000000000000E+00
 0.0000000000000E+00
 0.0000000000000E+00
 0.0000000000000E+00
 0.0000000000000E+00
 0.0000000000000E+00
 0.0000000000000E+00
 0.0000000000000E+00
 0.0000000000000E+00
 0.0000000000000E+00
 0.0000000000000E+00
 0.0000000000000E+00
 0.0000000000000E+00
 0.0000000000000E+00
 0.0000000000000E+00
 0.0000000000000E+00
 0.0000000000000E+00
 0.0000000000000E+00
 0.0000000000000E+00
 0.0000000000000E+00
 0.0000000000000E+00
 0.0000000000000E+00
 0.0000000000000E+00
 0.0000000000000E+00
 0.0000000000000E+00
 0.0000000000000E+00
 0.0000000000000E+00
 0.0000000000000E+00
 0.0000000000000E+00
 0.0000000000000E+00
 0.0000000000000E+00
 0.0000000000000E+00
 0.0000000000000E+00
 0.0000000000000E+00
 0.0000000000000E+00
 0.0000000000000E+00
 0.0000000000000E+00
 0.0000000000000E+00
 0.0000000000000E+00
 0.0000000000000E+00
 0.0000000000000E+00
 0.0000000000000E+00
 0.0000000000000E+00
 0.0000000000000E+00
 0.0000000000000E+00
 0.0000000000000E+00
 0.0000000000000E+00
 0.0000000000000E+00
 0.0000000000000E+00
 0.0000000000000E+00
 0.0000000000000E+00
 0.0000000000000E+00
 0.0000000000000E+00
 0.0000000000000E+00
 0.0000000000000E+00
 0.0000000000000E+00
 0.0000000000000E+00
 0.0000000000000E+00
 0.0000000000000E+00
 0.0000000000000E+00
 0.0000000000000E+00
 0.0000000000000E+00
 0.0000000000000E+00
 0.0000000000000E+00
 0.0000000000000E+00
 0.0000000000000E+00
 0.0000000000000E+00
 0.0000000000000E+00
 0.0000000000000E+00
 0.0000000000000E+00
 0.0000000000000E+00
 0.0000000000000E+00
 0.0000000000000E+00
 0.0000000000000E+00
 0.0000000000000E+00
 0.0000000000000E+00
 0.0000000000000E+00
 0.0000000000000E+00
 0.0000000000000E+00
 0.0000000000000E+00
 0.0000000000000E+00
 0.0000000000000E+00
 0.0000000000000E+00
 0.0000000000000E+00
 0.0000000000000E+00
 0.0000000000000E+00
 0.0000000000000E+00
 0.0000000000000E+00
 0.0000000000000E+00
 0.0000000000000E+00
 0.0000000000000E+00
 0.0000000000000E+00
 0.0000000000000E+00
 0.0000000000000E+00
 0.0000000000000E+00
 0.0000000000000E+00
 0.0000000000000E+00
 0.0000000000000E+00
 0.0000000000000E+00
 0.0000000000000E+00
 0.0000000000000E+00
 0.0000000000000E+00
 0.0000000000000E+00
 0.0000000000000E+00
 0.0000000000000E+00
 0.0000000000000E+00
 0.0000000000000E+00
 0.0000000000000E+00
 0.0000000000000E+00
 0.0000000000000E+00
 0.0000000000000E+00
 0.0000000000000E+00
 0.0000000000000E+00
 0.0000000000000E+00
 0.0000000000000E+00
 0.0000000000000E+00
 0.0000000000000E+00
 0.0000000000000E+00
 0.0000000000000E+00
 0.0000000000000E+00
 0.0000000000000E+00
 0.0000000000000E+00
 0.0000000000000E+00
 0.0000000000000E+00
 0.0000000000000E+00
 0.0000000000000E+00
 0.0000000000000E+00
 0.0000000000000E+00
 0.0000000000000E+00
 0.0000000000000E+00
 0.0000000000000E+00
 0.0000000000000E+00
 0.0000000000000E+00
 0.0000000000000E+00
 0.0000000000000E+00
 0.0000000000000E+00
 0.0000000000000E+00
 0.0000000000000E+00
 0.0000000000000E+00
 0.0000000000000E+00
 0.0000000000000E+00
 0.0000000000000E+00
 0.0000000000000E+00
 0.0000000000000E+00
 0.0000000000000E+00
 0.0000000000000E+00
 0.0000000000000E+00
 0.0000000000000E+00
 0.0000000000000E+00
 0.0000000000000E+00
 0.0000000000000E+00
 0.0000000000000E+00
 0.0000000000000E+00
 0.0000000000000E+00
 0.0000000000000E+00
 0.0000000000000E+00
 0.0000000000000E+00
 0.0000000000000E+00
 0.0000000000000E+00
 0.0000000000000E+00
 0.0000000000000E+00
 0.0000000000000E+00
 0.0000000000000E+00
 0.0000000000000E+00
 0.0000000000000E+00
 0.0000000000000E+00
 0.0000000000000E+00
 0.0000000000000E+00
 0.0000000000000E+00
 0.0000000000000E+00
 0.0000000000000E+00
 0.0000000000000E+00
 0.0000000000000E+00
 0.0000000000000E+00
 0.0000000000000E+00
 0.0000000000000E+00
 0.0000000000000E+00
 0.0000000000000E+00
 0.0000000000000E+00
 0.0000000000000E+00
 0.0000000000000E+00
 0.0000000000000E+00
 0.0000000000000E+00
 0.0000000000000E+00
 0.0000000000000E+00
 0.0000000000000E+00
 0.0000000000000E+00
 0.0000000000000E+00
 0.0000000000000E+00
 0.0000000000000E+00
 0.0000000000000E+00
 0.0000000000000E+00
 0.0000000000000E+00
 0.0000000000000E+00
 0.0000000000000E+00
 0.0000000000000E+00
 0.0000000000000E+00
 0.0000000000000E+00
 0.0000000000000E+00
 0.0000000000000E+00
 0.0000000000000E+00
 0.0000000000000E+00
 0.0000000000000E+00
 0.0000000000000E+00
 0.0000000000000E+00
 0.0000000000000E+00
 0.0000000000000E+00
 0.0000000000000E+00
 0.0000000000000E+00
 0.0000000000000E+00
 0.0000000000000E+00
 0.0000000000000E+00
 0.0000000000000E+00
 0.0000000000000E+00
 0.0000000000000E+00
 0.0000000000000E+00
 0.0000000000000E+00
 0.0000000000000E+00
 0.0000000000000E+00
 0.0000000000000E+00
 0.0000000000000E+00
 0.0000000000000E+00
 0.0000000000000E+00
 0.0000000000000E+00
 0.0000000000000E+00
 0.0000000000000E+00
 0.0000000000000E+00
 0.0000000000000E+00
 0.0000000000000E+00
 0.0000000000000E+00
 0.0000000000000E+00
 0.0000000000000E+00
 0.0000000000000E+00
 0.0000000000000E+00
 0.0000000000000E+00
 0.0000000000000E+00
 0.0000000000000E+00
 0.0000000000000E+00
 0.0000000000000E+00
 0.0000000000000E+00
 0.0000000000000E+00
 0.0000000000000E+00
 0.0000000000000E+00
 0.0000000000000E+00
 0.0000000000000E+00
 0.0000000000000E+00
 0.0000000000000E+00
 0.0000000000000E+00
 0.0000000000000E+00
 0.0000000000000E+00
 0.0000000000000E+00
 0.0000000000000E+00
 0.0000000000000E+00
 0.0000000000000E+00
 0.0000000000000E+00
 0.0000000000000E+00
 0.0000000000000E+00
 0.0000000000000E+00
 0.0000000000000E+00
 0.0000000000000E+00
 0.0000000000000E+00
 0.0000000000000E+00
 0.0000000000000E+00
 0.0000000000000E+00
 0.0000000000000E+00
 0.0000000000000E+00
 0.0000000000000E+00
 0.0000000000000E+00
 0.0000000000000E+00
 0.0000000000000E+00
 0.0000000000000E+00
 0.0000000000000E+00
 0.0000000000000E+00
 0.0000000000000E+00
 0.0000000000000E+00
 0.0000000000000E+00
 0.0000000000000E+00
 0.0000000000000E+00
 0.0000000000000E+00
 0.0000000000000E+00
 0.0000000000000E+00
 0.0000000000000E+00
 0.0000000000000E+00
 0.0000000000000E+00
 0.0000000000000E+00
 0.0000000000000E+00
 0.0000000000000E+00
 0.0000000000000E+00
 0.0000000000000E+00
 0.0000000000000E+00
 0.0000000000000E+00
 0.0000000000000E+00
 0.0000000000000E+00
 0.0000000000000E+00
 0.0000000000000E+00
 0.0000000000000E+00
 0.0000000000000E+00
 0.0000000000000E+00
 0.0000000000000E+00
 0.0000000000000E+00
 0.0000000000000E+00
 0.0000000000000E+00
 0.0000000000000E+00
 0.0000000000000E+00
 0.0000000000000E+00
 0.0000000000000E+00
 0.0000000000000E+00
 0.0000000000000E+00
 0.0000000000000E+00
 0.0000000000000E+00
 0.0000000000000E+00
 0.0000000000000E+00
 0.0000000000000E+00
 0.0000000000000E+00
 0.0000000000000E+00
 0.0000000000000E+00
 0.0000000000000E+00
 0.0000000000000E+00
 0.0000000000000E+00
 0.0000000000000E+00
 0.0000000000000E+00
 0.0000000000000E+00
 0.0000000000000E+00
 0.0000000000000E+00
 0.0000000000000E+00
 0.0000000000000E+00
 0.0000000000000E+00
 0.0000000000000E+00
 0.0000000000000E+00
 0.0000000000000E+00
 0.0000000000000E+00
 0.0000000000000E+00
 0.0000000000000E+00
 0.0000000000000E+00
 0.0000000000000E+00
 0.0000000000000E+00
 0.0000000000000E+00
 0.0000000000000E+00
 0.0000000000000E+00
 0.0000000000000E+00
 0.0000000000000E+00
 0.0000000000000E+00
 0.0000000000000E+00
 0.0000000000000E+00
 0.0000000000000E+00
 0.0000000000000E+00
 0.0000000000000E+00
 0.0000000000000E+00
 0.0000000000000E+00
 0.0000000000000E+00
 0.0000000000000E+00
 0.0000000000000E+00
 0.0000000000000E+00
 0.0000000000000E+00
 0.0000000000000E+00
 0.0000000000000E+00
 0.0000000000000E+00
 0.0000000000000E+00
 0.0000000000000E+00
 0.0000000000000E+00
 0.0000000000000E+00
 0.0000000000000E+00
 0.0000000000000E+00
 0.0000000000000E+00
 0.0000000000000E+00
 0.0000000000000E+00
 0.0000000000000E+00
 0.0000000000000E+00
 0.0000000000000E+00
 0.0000000000000E+00
 0.0000000000000E+00
 0.0000000000000E+00
 0.0000000000000E+00
 0.0000000000000E+00
 0.0000000000000E+00
 0.0000000000000E+00
 0.0000000000000E+00
 0.0000000000000E+00
 0.0000000000000E+00
 0.0000000000000E+00
 0.0000000000000E+00
 0.0000000000000E+00
 0.0000000000000E+00
 0.0000000000000E+00
 0.0000000000000E+00
 0.0000000000000E+00
 0.0000000000000E+00
 0.0000000000000E+00
 0.0000000000000E+00
 0.0000000000000E+00
 0.0000000000000E+00
 0.0000000000000E+00
 0.0000000000000E+00
 0.0000000000000E+00
 0.0000000000000E+00
 0.0000000000000E+00
 0.0000000000000E+00
 0.0000000000000E+00
 0.0000000000000E+00
 0.0000000000000E+00
 0.0000000000000E+00
 0.0000000000000E+00
 0.0000000000000E+00
 0.0000000000000E+00
 0.0000000000000E+00
 0.0000000000000E+00
 0.0000000000000E+00
 0.0000000000000E+00
 0.0000000000000E+00
 0.0000000000000E+00
 0.0000000000000E+00
 0.0000000000000E+00
 0.0000000000000E+00
 0.0000000000000E+00
 0.0000000000000E+00
 0.0000000000000E+00
 0.0000000000000E+00
 0.0000000000000E+00
 0.0000000000000E+00
 0.0000000000000E+00
 0.0000000000000E+00
 0.0000000000000E+00
 0.0000000000000E+00
 0.0000000000000E+00
 0.0000000000000E+00
 0.0000000000000E+00
 0.0000000000000E+00
 0.0000000000000E+00
 0.0000000000000E+00
 0.0000000000000E+00
 0.0000000000000E+00
 0.0000000000000E+00
 0.0000000000000E+00
 0.0000000000000E+00
 0.0000000000000E+00
 0.0000000000000E+00
 0.0000000000000E+00
 0.0000000000000E+00
 0.0000000000000E+00
 0.0000000000000E+00
 0.0000000000000E+00
 0.0000000000000E+00
 0.0000000000000E+00
 0.0000000000000E+00
 0.0000000000000E+00
 0.0000000000000E+00
 0.0000000000000E+00
 0.0000000000000E+00
 0.0000000000000E+00
 0.0000000000000E+00
 0.0000000000000E+00
 0.0000000000000E+00
 0.0000000000000E+00
 0.0000000000000E+00
 0.0000000000000E+00
 0.0000000000000E+00
 0.0000000000000E+00
 0.0000000000000E+00
 0.0000000000000E+00
 0.0000000000000E+00
 0.0000000000000E+00
 0.0000000000000E+00
 0.0000000000000E+00
 0.0000000000000E+00
 0.0000000000000E+00
 0.0000000000000E+00
 0.0000000000000E+00
 0.0000000000000E+00
 0.0000000000000E+00
 0.0000000000000E+00
 0.0000000000000E+00
 0.0000000000000E+00
 0.0000000000000E+00
 0.0000000000000E+00
 0.0000000000000E+00
 0.0000000000000E+00
 0.0000000000000E+00
 0.0000000000000E+00
 0.0000000000000E+00
 0.0000000000000E+00
 0.0000000000000E+00
 0.0000000000000E+00
 0.0000000000000E+00
 0.0000000000000E+00
 0.0000000000000E+00
 0.0000000000000E+00
 0.0000000000000E+00
 0.0000000000000E+00
 0.0000000000000E+00
 0.0000000000000E+00
 0.0000000000000E+00
 0.0000000000000E+00
 0.0000000000000E+00
 0.0000000000000E+00
 0.0000000000000E+00
 0.0000000000000E+00
 0.0000000000000E+00
 0.0000000000000E+00
 0.0000000000000E+00
 0.0000000000000E+00
 0.0000000000000E+00
 0.0000000000000E+00
 0.0000000000000E+00
 0.0000000000000E+00
 0.0000000000000E+00
 0.0000000000000E+00
 0.0000000000000E+00
 0.0000000000000E+00
 0.0000000000000E+00
 0.0000000000000E+00
 0.0000000000000E+00
 0.0000000000000E+00
 0.0000000000000E+00
 0.0000000000000E+00
 0.0000000000000E+00
 0.0000000000000E+00
 0.0000000000000E+00
 0.0000000000000E+00
 0.0000000000000E+00
 0.0000000000000E+00
 0.0000000000000E+00
 0.0000000000000E+00
 0.0000000000000E+00
 0.0000000000000E+00
 0.0000000000000E+00
 0.0000000000000E+00
 0.0000000000000E+00
 0.0000000000000E+00
 0.0000000000000E+00
 0.0000000000000E+00
 0.0000000000000E+00
 0.0000000000000E+00
 0.0000000000000E+00
 0.0000000000000E+00
 0.0000000000000E+00
 0.0000000000000E+00
 0.0000000000000E+00
 0.0000000000000E+00
 0.0000000000000E+00
 0.0000000000000E+00
 0.0000000000000E+00
 0.0000000000000E+00
 0.0000000000000E+00
 0.0000000000000E+00
 0.0000000000000E+00
 0.0000000000000E+00
 0.0000000000000E+00
 0.0000000000000E+00
 0.0000000000000E+00
 0.0000000000000E+00
 0.0000000000000E+00
 0.0000000000000E+00
 0.0000000000000E+00
 0.0000000000000E+00
 0.0000000000000E+00
 0.0000000000000E+00
 0.0000000000000E+00
 0.0000000000000E+00
 0.0000000000000E+00
 0.0000000000000E+00
 0.0000000000000E+00
 0.0000000000000E+00
 0.0000000000000E+00
 0.0000000000000E+00
 0.0000000000000E+00
 0.0000000000000E+00
 0.0000000000000E+00
 0.0000000000000E+00
 0.0000000000000E+00
 0.0000000000000E+00
 0.0000000000000E+00
 0.0000000000000E+00
 0.0000000000000E+00
 0.0000000000000E+00
 0.0000000000000E+00
 0.0000000000000E+00
 0.0000000000000E+00
 0.0000000000000E+00
 0.0000000000000E+00
 0.0000000000000E+00
 0.0000000000000E+00
 0.0000000000000E+00
 0.0000000000000E+00
 0.0000000000000E+00
 0.0000000000000E+00
 0.0000000000000E+00
 0.0000000000000E+00
 0.0000000000000E+00
 0.0000000000000E+00
 0.0000000000000E+00
 0.0000000000000E+00
 0.0000000000000E+00
 0.0000000000000E+00
 0.0000000000000E+00
 0.0000000000000E+00
 0.0000000000000E+00
 0.0000000000000E+00
 0.0000000000000E+00
 0.0000000000000E+00
 0.0000000000000E+00
 0.0000000000000E+00
 0.0000000000000E+00
 0.0000000000000E+00
 0.0000000000000E+00
 0.0000000000000E+00
 0.0000000000000E+00
 0.0000000000000E+00
 0.0000000000000E+00
 0.0000000000000E+00
 0.0000000000000E+00
 0.0000000000000E+00
 0.0000000000000E+00
 0.0000000000000E+00
 0.0000000000000E+00
 0.0000000000000E+00
 0.0000000000000E+00
 0.0000000000000E+00
 0.0000000000000E+00
 0.0000000000000E+00
 0.0000000000000E+00
 0.0000000000000E+00
 0.0000000000000E+00
 0.0000000000000E+00
 0.0000000000000E+00
 0.0000000000000E+00
 0.0000000000000E+00
 0.0000000000000E+00
 0.0000000000000E+00
 0.0000000000000E+00
 0.0000000000000E+00
 0.0000000000000E+00
 0.0000000000000E+00
 0.0000000000000E+00
 0.0000000000000E+00
 0.0000000000000E+00
 0.0000000000000E+00
 0.0000000000000E+00
 0.0000000000000E+00
 0.0000000000000E+00
 0.0000000000000E+00
 0.0000000000000E+00
 0.0000000000000E+00
 0.0000000000000E+00
 0.0000000000000E+00
 0.0000000000000E+00
 0.0000000000000E+00
 0.0000000000000E+00
 0.0000000000000E+00
 0.0000000000000E+00
 0.0000000000000E+00
 0.0000000000000E+00
 0.0000000000000E+00
 0.0000000000000E+00
 0.0000000000000E+00
 0.0000000000000E+00
 0.0000000000000E+00
 0.0000000000000E+00
 0.0000000000000E+00
 0.0000000000000E+00
 0.0000000000000E+00
 0.0000000000000E+00
 0.0000000000000E+00
 0.0000000000000E+00
 0.0000000000000E+00
 0.0000000000000E+00
 0.0000000000000E+00
 0.0000000000000E+00
 0.0000000000000E+00
 0.0000000000000E+00
 0.0000000000000E+00
 0.0000000000000E+00
 0.0000000000000E+00
 0.0000000000000E+00
 0.0000000000000E+00
 0.0000000000000E+00
 0.0000000000000E+00
 0.0000000000000E+00
 0.0000000000000E+00
 0.0000000000000E+00
 0.0000000000000E+00
 0.0000000000000E+00
 0.0000000000000E+00
 0.0000000000000E+00
 0.0000000000000E+00
 0.0000000000000E+00
 0.0000000000000E+00
 0.0000000000000E+00
 0.0000000000000E+00
 0.0000000000000E+00
 0.0000000000000E+00
 0.0000000000000E+00
 0.0000000000000E+00
 0.0000000000000E+00
 0.0000000000000E+00
 0.0000000000000E+00
 0.0000000000000E+00
 0.0000000000000E+00
 0.0000000000000E+00
 0.0000000000000E+00
 0.0000000000000E+00
 0.0000000000000E+00
 0.0000000000000E+00
 0.0000000000000E+00
 0.0000000000000E+00
 0.0000000000000E+00
 0.0000000000000E+00
 0.0000000000000E+00
 0.0000000000000E+00
 0.0000000000000E+00
 0.0000000000000E+00
 0.0000000000000E+00
 0.0000000000000E+00
 0.0000000000000E+00
 0.0000000000000E+00
 0.0000000000000E+00
 0.0000000000000E+00
 0.0000000000000E+00
 0.0000000000000E+00
 0.0000000000000E+00
 0.0000000000000E+00
 0.0000000000000E+00
 0.0000000000000E+00
 0.0000000000000E+00
 0.0000000000000E+00
 0.0000000000000E+00
 0.0000000000000E+00
 0.0000000000000E+00
 0.0000000000000E+00
 0.0000000000000E+00
 0.0000000000000E+00
 0.0000000000000E+00
 0.0000000000000E+00
 0.0000000000000E+00
 0.0000000000000E+00
 0.0000000000000E+00
 0.0000000000000E+00
 0.0000000000000E+00
 0.0000000000000E+00
 0.0000000000000E+00
 0.0000000000000E+00
 0.0000000000000E+00
 0.0000000000000E+00
 0.0000000000000E+00
 0.0000000000000E+00
 0.0000000000000E+00
 0.0000000000000E+00
 0.0000000000000E+00
 0.0000000000000E+00
 0.0000000000000E+00
 0.0000000000000E+00
 0.0000000000000E+00
 0.0000000000000E+00
 0.0000000000000E+00
 0.0000000000000E+00
 0.0000000000000E+00
 0.0000000000000E+00
 0.0000000000000E+00
 0.0000000000000E+00
 0.0000000000000E+00
 0.0000000000000E+00
 0.0000000000000E+00
 0.0000000000000E+00
 0.0000000000000E+00
 0.0000000000000E+00
 0.0000000000000E+00
 0.0000000000000E+00
 0.0000000000000E+00
 0.0000000000000E+00
 0.0000000000000E+00
 0.0000000000000E+00
 0.0000000000000E+00
 0.0000000000000E+00
 0.0000000000000E+00
 0.0000000000000E+00
 0.0000000000000E+00
 0.0000000000000E+00
 0.0000000000000E+00
 0.0000000000000E+00
 0.0000000000000E+00
 0.0000000000000E+00
 0.0000000000000E+00
 0.0000000000000E+00
 0.0000000000000E+00
 0.0000000000000E+00
 0.0000000000000E+00
 0.0000000000000E+00
 0.0000000000000E+00
 0.0000000000000E+00
 0.0000000000000E+00
 0.0000000000000E+00
 0.0000000000000E+00
 0.0000000000000E+00
 0.0000000000000E+00
 0.0000000000000E+00
 0.0000000000000E+00
 0.0000000000000E+00
 0.0000000000000E+00
 0.0000000000000E+00
 0.0000000000000E+00
 0.0000000000000E+00
 0.0000000000000E+00
 0.0000000000000E+00
 0.0000000000000E+00
 0.0000000000000E+00
 0.0000000000000E+00
 0.0000000000000E+00
 0.0000000000000E+00
 0.0000000000000E+00
 0.0000000000000E+00
 0.0000000000000E+00
 0.0000000000000E+00
 0.0000000000000E+00
 0.0000000000000E+00
 0.0000000000000E+00
 0.0000000000000E+00
 0.0000000000000E+00
 0.0000000000000E+00
 0.0000000000000E+00
 0.0000000000000E+00
 0.0000000000000E+00
 0.0000000000000E+00
 0.0000000000000E+00
 0.0000000000000E+00
 0.0000000000000E+00
 0.0000000000000E+00
 0.0000000000000E+00
 0.0000000000000E+00
 0.0000000000000E+00
 0.0000000000000E+00
 0.0000000000000E+00
 0.0000000000000E+00
 0.0000000000000E+00
 0.0000000000000E+00
 0.0000000000000E+00
 0.0000000000000E+00
 0.0000000000000E+00
 0.0000000000000E+00
 0.0000000000000E+00
 0.0000000000000E+00
 0.0000000000000E+00
 0.0000000000000E+00
 0.0000000000000E+00
 0.0000000000000E+00
 0.0000000000000E+00
 0.0000000000000E+00
 0.0000000000000E+00
 0.0000000000000E+00
 0.0000000000000E+00
 0.0000000000000E+00
 0.0000000000000E+00
 0.0000000000000E+00
 0.0000000000000E+00
 0.0000000000000E+00
 0.0000000000000E+00
 0.0000000000000E+00
 0.0000000000000E+00
 0.0000000000000E+00
 0.0000000000000E+00
 0.0000000000000E+00
 0.0000000000000E+00
 0.0000000000000E+00
 0.0000000000000E+00
 0.0000000000000E+00
 0.0000000000000E+00
 0.0000000000000E+00
 0.0000000000000E+00
 0.0000000000000E+00
 0.0000000000000E+00
 0.0000000000000E+00
 0.0000000000000E+00
 0.0000000000000E+00
 0.0000000000000E+00
 0.0000000000000E+00
 0.0000000000000E+00
 0.0000000000000E+00
 0.0000000000000E+00
 0.0000000000000E+00
 0.0000000000000E+00
 0.0000000000000E+00
 0.0000000000000E+00
 0.0000000000000E+00
 0.0000000000000E+00
 0.0000000000000E+00
 0.0000000000000E+00
 0.0000000000000E+00
 0.0000000000000E+00
 0.0000000000000E+00
 0.0000000000000E+00
 0.0000000000000E+00
 0.0000000000000E+00
 0.0000000000000E+00
 0.0000000000000E+00
 0.0000000000000E+00
 0.0000000000000E+00
 0.0000000000000E+00
 0.0000000000000E+00
 0.0000000000000E+00
 0.0000000000000E+00
 0.0000000000000E+00
 0.0000000000000E+00
 0.0000000000000E+00
 0.0000000000000E+00
 0.0000000000000E+00
 0.0000000000000E+00
 0.0000000000000E+00
 0.0000000000000E+00
 0.0000000000000E+00
 0.0000000000000E+00
 0.0000000000000E+00
 0.0000000000000E+00
 0.0000000000000E+00
 0.0000000000000E+00
 0.0000000000000E+00
 0.0000000000000E+00
 0.0000000000000E+00
 0.0000000000000E+00
 0.0000000000000E+00
 0.0000000000000E+00
 0.0000000000000E+00
 0.0000000000000E+00
 0.0000000000000E+00
 0.0000000000000E+00
 0.0000000000000E+00
 0.0000000000000E+00
 0.0000000000000E+00
 0.0000000000000E+00
 0.0000000000000E+00
 0.0000000000000E+00
 0.0000000000000E+00
 0.0000000000000E+00
 0.0000000000000E+00
 0.0000000000000E+00
 0.0000000000000E+00
 0.0000000000000E+00
 0.0000000000000E+00
 0.0000000000000E+00
 0.0000000000000E+00
 0.0000000000000E+00
 0.0000000000000E+00
 0.0000000000000E+00
 0.0000000000000E+00
 0.0000000000000E+00
 0.0000000000000E+00
 0.0000000000000E+00
 0.0000000000000E+00
 0.0000000000000E+00
 0.0000000000000E+00
 0.0000000000000E+00
 0.0000000000000E+00
 0.0000000000000E+00
 0.0000000000000E+00
 0.0000000000000E+00
 0.0000000000000E+00
 0.0000000000000E+00
 0.0000000000000E+00
 0.0000000000000E+00
 0.0000000000000E+00
 0.0000000000000E+00
 0.0000000000000E+00
 0.0000000000000E+00
 0.0000000000000E+00
 0.0000000000000E+00
 0.0000000000000E+00
 0.0000000000000E+00
 0.0000000000000E+00
 0.0000000000000E+00
 0.0000000000000E+00
 0.0000000000000E+00
 0.0000000000000E+00
 0.0000000000000E+00
 0.0000000000000E+00
 0.0000000000000E+00
 0.0000000000000E+00
 0.0000000000000E+00
 0.0000000000000E+00
 0.0000000000000E+00
 0.0000000000000E+00
 0.0000000000000E+00
 0.0000000000000E+00
 0.0000000000000E+00
 0.0000000000000E+00
 0.0000000000000E+00
 0.0000000000000E+00
 0.0000000000000E+00
 0.0000000000000E+00
 0.0000000000000E+00
 0.0000000000000E+00
 0.0000000000000E+00
 0.0000000000000E+00
 0.0000000000000E+00
 0.0000000000000E+00
 0.0000000000000E+00
 0.0000000000000E+00
 0.0000000000000E+00
 0.0000000000000E+00
 0.0000000000000E+00
 0.0000000000000E+00
 0.0000000000000E+00
 0.0000000000000E+00
 0.0000000000000E+00
 0.0000000000000E+00
 0.0000000000000E+00
 0.0000000000000E+00
 0.0000000000000E+00
 0.0000000000000E+00
 0.0000000000000E+00
 0.0000000000000E+00
 0.0000000000000E+00
 0.0000000000000E+00
 0.0000000000000E+00
 0.0000000000000E+00
 0.0000000000000E+00
 0.0000000000000E+00
 0.0000000000000E+00
 0.0000000000000E+00
 0.0000000000000E+00
 0.0000000000000E+00
 0.0000000000000E+00
 0.0000000000000E+00
 0.0000000000000E+00
 0.0000000000000E+00
 0.0000000000000E+00
 0.0000000000000E+00
 0.0000000000000E+00
 0.0000000000000E+00
 0.0000000000000E+00
 0.0000000000000E+00
 0.0000000000000E+00
 0.0000000000000E+00
 0.0000000000000E+00
 0.0000000000000E+00
 0.0000000000000E+00
 0.0000000000000E+00
 0.0000000000000E+00
 0.0000000000000E+00
 0.0000000000000E+00
 0.0000000000000E+00
 0.0000000000000E+00
 0.0000000000000E+00
 0.0000000000000E+00
 0.0000000000000E+00
 0.0000000000000E+00
 0.0000000000000E+00
 0.0000000000000E+00
 0.0000000000000E+00
 0.0000000000000E+00
 0.0000000000000E+00
 0.0000000000000E+00
 0.0000000000000E+00
 0.0000000000000E+00
 0.0000000000000E+00
 0.0000000000000E+00
 0.0000000000000E+00
 0.0000000000000E+00
 0.0000000000000E+00
 0.0000000000000E+00
 0.0000000000000E+00
 0.0000000000000E+00
 0.0000000000000E+00
 0.0000000000000E+00
 0.0000000000000E+00
 0.0000000000000E+00
 0.0000000000000E+00
 0.0000000000000E+00
 0.0000000000000E+00
 0.0000000000000E+00
 0.0000000000000E+00
 0.0000000000000E+00
 0.0000000000000E+00
 0.0000000000000E+00
 0.0000000000000E+00
 0.0000000000000E+00
 0.0000000000000E+00
 0.0000000000000E+00
 0.0000000000000E+00
 0.0000000000000E+00
 0.0000000000000E+00
 0.0000000000000E+00
 0.0000000000000E+00
 0.0000000000000E+00
 0.0000000000000E+00
 0.0000000000000E+00
 0.0000000000000E+00
 0.0000000000000E+00
 0.0000000000000E+00
 0.0000000000000E+00
 0.0000000000000E+00
 0.0000000000000E+00
 0.0000000000000E+00
 0.0000000000000E+00
 0.0000000000000E+00
 0.0000000000000E+00
 0.0000000000000E+00
 0.0000000000000E+00
 0.0000000000000E+00
 0.0000000000000E+00
 0.0000000000000E+00
 0.0000000000000E+00
 0.0000000000000E+00
 0.0000000000000E+00
 0.0000000000000E+00
 0.0000000000000E+00
 0.0000000000000E+00
 0.0000000000000E+00
 0.0000000000000E+00
 0.0000000000000E+00
 0.0000000000000E+00
 0.0000000000000E+00
 0.0000000000000E+00
 0.0000000000000E+00
 0.0000000000000E+00
 0.0000000000000E+00
 0.0000000000000E+00
 0.0000000000000E+00
 0.0000000000000E+00
 0.0000000000000E+00
 0.0000000000000E+00
 0.0000000000000E+00
 0.0000000000000E+00
 0.0000000000000E+00
 0.0000000000000E+00
 0.0000000000000E+00
 0.0000000000000E+00
 0.0000000000000E+00
 0.0000000000000E+00
 0.0000000000000E+00
 0.0000000000000E+00
 0.0000000000000E+00
 0.0000000000000E+00
 0.0000000000000E+00
 0.0000000000000E+00
 0.0000000000000E+00
 0.0000000000000E+00
 0.0000000000000E+00
 0.0000000000000E+00
 0.0000000000000E+00
 0.0000000000000E+00
 0.0000000000000E+00
 0.0000000000000E+00
 0.0000000000000E+00
 0.0000000000000E+00
 0.0000000000000E+00
 0.0000000000000E+00
 0.0000000000000E+00
 0.0000000000000E+00
 0.0000000000000E+00
 0.0000000000000E+00
 0.0000000000000E+00
 0.0000000000000E+00
 0.0000000000000E+00
 0.0000000000000E+00
 0.0000000000000E+00
 0.0000000000000E+00
 0.0000000000000E+00
 0.0000000000000E+00
 0.0000000000000E+00
 0.0000000000000E+00
 0.0000000000000E+00
 0.0000000000000E+00
 0.0000000000000E+00
 0.0000000000000E+00
 0.0000000000000E+00
 0.0000000000000E+00
 0.0000000000000E+00
 0.0000000000000E+00
 0.0000000000000E+00
 0.0000000000000E+00
 0.0000000000000E+00
 0.0000000000000E+00
 0.0000000000000E+00
 0.0000000000000E+00
 0.0000000000000E+00
 0.0000000000000E+00
 0.0000000000000E+00
 0.0000000000000E+00
 0.0000000000000E+00
 0.0000000000000E+00
 0.0000000000000E+00
 0.0000000000000E+00
 0.0000000000000E+00
 0.0000000000000E+00
 0.0000000000000E+00
 0.0000000000000E+00
 0.0000000000000E+00
 0.0000000000000E+00
 0.0000000000000E+00
 0.0000000000000E+00
 0.0000000000000E+00
 0.0000000000000E+00
 0.0000000000000E+00
 0.0000000000000E+00
 0.0000000000000E+00
 0.0000000000000E+00
 0.0000000000000E+00
 0.0000000000000E+00
 0.0000000000000E+00
 0.0000000000000E+00
 0.0000000000000E+00
 0.0000000000000E+00
 0.0000000000000E+00
 0.0000000000000E+00
 0.0000000000000E+00
 0.0000000000000E+00
 0.0000000000000E+00
 0.0000000000000E+00
 0.0000000000000E+00
 0.0000000000000E+00
 0.0000000000000E+00
 0.0000000000000E+00
 0.0000000000000E+00
 0.0000000000000E+00
 0.0000000000000E+00
 0.0000000000000E+00
 0.0000000000000E+00
 0.0000000000000E+00
 0.0000000000000E+00
 0.0000000000000E+00
 0.0000000000000E+00
 0.0000000000000E+00
 0.0000000000000E+00
 0.0000000000000E+00
 0.0000000000000E+00
 0.0000000000000E+00
 0.0000000000000E+00
 0.0000000000000E+00
 0.0000000000000E+00
 0.0000000000000E+00
 0.0000000000000E+00
 0.0000000000000E+00
 0.0000000000000E+00
 0.0000000000000E+00
 0.0000000000000E+00
 0.0000000000000E+00
 0.0000000000000E+00
 0.0000000000000E+00
 0.0000000000000E+00
 0.0000000000000E+00
 0.0000000000000E+00
 0.0000000000000E+00
 0.0000000000000E+00
 0.0000000000000E+00
 0.0000000000000E+00
 0.0000000000000E+00
 0.0000000000000E+00
 0.0000000000000E+00
 0.0000000000000E+00
 0.0000000000000E+00
 0.0000000000000E+00
 0.0000000000000E+00
 0.0000000000000E+00
 0.0000000000000E+00
 0.0000000000000E+00
 0.0000000000000E+00
 0.0000000000000E+00
 0.0000000000000E+00
 0.0000000000000E+00
 0.0000000000000E+00
 0.0000000000000E+00
 0.0000000000000E+00
 0.0000000000000E+00
 0.0000000000000E+00
 0.0000000000000E+00
 0.0000000000000E+00
 0.0000000000000E+00
 0.0000000000000E+00
 0.0000000000000E+00
 0.0000000000000E+00
 0.0000000000000E+00
 0.0000000000000E+00
 0.0000000000000E+00
 0.0000000000000E+00
 0.0000000000000E+00
 0.0000000000000E+00
 0.0000000000000E+00
 0.0000000000000E+00
 0.0000000000000E+00
 0.0000000000000E+00
 0.0000000000000E+00
 0.0000000000000E+00
 0.0000000000000E+00
 0.0000000000000E+00
 0.0000000000000E+00
 0.0000000000000E+00
 0.0000000000000E+00
 0.0000000000000E+00
 0.0000000000000E+00
 0.0000000000000E+00
 0.0000000000000E+00
 0.0000000000000E+00
 0.0000000000000E+00
 0.0000000000000E+00
 0.0000000000000E+00
 0.0000000000000E+00
 0.0000000000000E+00
 0.0000000000000E+00
 0.0000000000000E+00
 0.0000000000000E+00
 0.0000000000000E+00
 0.0000000000000E+00
 0.0000000000000E+00
 0.0000000000000E+00
 0.0000000000000E+00
 0.0000000000000E+00
 0.0000000000000E+00
 0.0000000000000E+00
 0.0000000000000E+00
 0.0000000000000E+00
 0.0000000000000E+00
 0.0000000000000E+00
 0.0000000000000E+00
 0.0000000000000E+00
 0.0000000000000E+00
 0.0000000000000E+00
 0.0000000000000E+00
 0.0000000000000E+00
 0.0000000000000E+00
 0.0000000000000E+00
 0.0000000000000E+00
 0.0000000000000E+00
 0.0000000000000E+00
 0.0000000000000E+00
 0.0000000000000E+00
 0.0000000000000E+00
 0.0000000000000E+00
 0.0000000000000E+00
 0.0000000000000E+00
 0.0000000000000E+00
 0.0000000000000E+00
 0.0000000000000E+00
 0.0000000000000E+00
 0.0000000000000E+00
 0.0000000000000E+00
 0.0000000000000E+00
 0.0000000000000E+00
 0.0000000000000E+00
 0.0000000000000E+00
 0.0000000000000E+00
 0.0000000000000E+00
 0.0000000000000E+00
 0.0000000000000E+00
 0.0000000000000E+00
 0.0000000000000E+00
 0.0000000000000E+00
 0.0000000000000E+00
 0.0000000000000E+00
 0.0000000000000E+00
 0.0000000000000E+00
 0.0000000000000E+00
 0.0000000000000E+00
 0.0000000000000E+00
 0.0000000000000E+00
 0.0000000000000E+00
 0.0000000000000E+00
 0.0000000000000E+00
 0.0000000000000E+00
 0.0000000000000E+00
 0.0000000000000E+00
 0.0000000000000E+00
 0.0000000000000E+00
 0.0000000000000E+00
 0.0000000000000E+00
 0.0000000000000E+00
 0.0000000000000E+00
 0.0000000000000E+00
 0.0000000000000E+00
 0.0000000000000E+00
 0.0000000000000E+00
 0.0000000000000E+00
 0.0000000000000E+00
 0.0000000000000E+00
 0.0000000000000E+00
 0.0000000000000E+00
 0.0000000000000E+00
 0.0000000000000E+00
 0.0000000000000E+00
 0.0000000000000E+00
 0.0000000000000E+00
 0.0000000000000E+00
 0.0000000000000E+00
 0.0000000000000E+00
 0.0000000000000E+00
 0.0000000000000E+00
 0.0000000000000E+00
 0.0000000000000E+00
 0.0000000000000E+00
 0.0000000000000E+00
 0.0000000000000E+00
 0.0000000000000E+00
 0.0000000000000E+00
 0.0000000000000E+00
 0.0000000000000E+00
 0.0000000000000E+00
 0.0000000000000E+00
 0.0000000000000E+00
 0.0000000000000E+00
 0.0000000000000E+00
 0.0000000000000E+00
 0.0000000000000E+00
 0.0000000000000E+00
 0.0000000000000E+00
 0.0000000000000E+00
 0.0000000000000E+00
 0.0000000000000E+00
 0.0000000000000E+00
 0.0000000000000E+00
 0.0000000000000E+00
 0.0000000000000E+00
 0.0000000000000E+00
 0.0000000000000E+00
 0.0000000000000E+00
 0.0000000000000E+00
 0.0000000000000E+00
 0.0000000000000E+00
 0.0000000000000E+00
 0.0000000000000E+00
 0.0000000000000E+00
 0.0000000000000E+00
 0.0000000000000E+00
 0.0000000000000E+00
 0.0000000000000E+00
 0.0000000000000E+00
 0.0000000000000E+00
 0.0000000000000E+00
 0.0000000000000E+00
 0.0000000000000E+00
 0.0000000000000E+00
 0.0000000000000E+00
 0.0000000000000E+00
 0.0000000000000E+00
 0.0000000000000E+00
 0.0000000000000E+00
 0.0000000000000E+00
 0.0000000000000E+00
 0.0000000000000E+00
 0.0000000000000E+00
 0.0000000000000E+00
 0.0000000000000E+00
 0.0000000000000E+00
 0.0000000000000E+00
 0.0000000000000E+00
 0.0000000000000E+00
 0.0000000000000E+00
 0.0000000000000E+00
 0.0000000000000E+00
 0.0000000000000E+00
 0.0000000000000E+00
 0.0000000000000E+00
 0.0000000000000E+00
 0.0000000000000E+00
 0.0000000000000E+00
 0.0000000000000E+00
 0.0000000000000E+00
 0.0000000000000E+00
 0.0000000000000E+00
 0.0000000000000E+00
 0.0000000000000E+00
 0.0000000000000E+00
 0.0000000000000E+00
 0.0000000000000E+00
 0.0000000000000E+00
 0.0000000000000E+00
 0.0000000000000E+00
 0.0000000000000E+00
 0.0000000000000E+00
 0.0000000000000E+00
 0.0000000000000E+00
 0.0000000000000E+00
 0.0000000000000E+00
 0.0000000000000E+00
 0.0000000000000E+00
 0.0000000000000E+00
 0.0000000000000E+00
 0.0000000000000E+00
 0.0000000000000E+00
 0.0000000000000E+00
 0.0000000000000E+00
 0.0000000000000E+00
 0.0000000000000E+00
 0.0000000000000E+00
 0.0000000000000E+00
 0.0000000000000E+00
 0.0000000000000E+00
 0.0000000000000E+00
 0.0000000000000E+00
 0.0000000000000E+00
 0.0000000000000E+00
 0.0000000000000E+00
 0.0000000000000E+00
 0.0000000000000E+00
 0.0000000000000E+00
 0.0000000000000E+00
 0.0000000000000E+00
 0.0000000000000E+00
 0.0000000000000E+00
 0.0000000000000E+00
 0.0000000000000E+00
 0.0000000000000E+00
 0.0000000000000E+00
 0.0000000000000E+00
 0.0000000000000E+00
 0.0000000000000E+00
 0.0000000000000E+00
 0.0000000000000E+00
 0.0000000000000E+00
 0.0000000000000E+00
 0.0000000000000E+00
 0.0000000000000E+00
 0.0000000000000E+00
 0.0000000000000E+00
 0.0000000000000E+00
 0.0000000000000E+00
 0.0000000000000E+00
 0.0000000000000E+00
 0.0000000000000E+00
 0.0000000000000E+00
 0.0000000000000E+00
 0.0000000000000E+00
 0.0000000000000E+00
 0.0000000000000E+00
 0.0000000000000E+00
 0.0000000000000E+00
 0.0000000000000E+00
 0.0000000000000E+00
 0.0000000000000E+00
 0.0000000000000E+00
 0.0000000000000E+00
 0.0000000000000E+00
 0.0000000000000E+00
 0.0000000000000E+00
 0.0000000000000E+00
 0.0000000000000E+00
 0.0000000000000E+00
 0.0000000000000E+00
 0.0000000000000E+00
 0.0000000000000E+00
 0.0000000000000E+00
 0.0000000000000E+00
 0.0000000000000E+00
 0.0000000000000E+00
 0.0000000000000E+00
 0.0000000000000E+00
 0.0000000000000E+00
 0.0000000000000E+00
 0.0000000000000E+00
 0.0000000000000E+00
 0.0000000000000E+00
 0.0000000000000E+00
 0.0000000000000E+00
 0.0000000000000E+00
 0.0000000000000E+00
 0.0000000000000E+00
 0.0000000000000E+00
 0.0000000000000E+00
 0.0000000000000E+00
 0.0000000000000E+00
 0.0000000000000E+00
 0.0000000000000E+00
 0.0000000000000E+00
 0.0000000000000E+00
 0.0000000000000E+00
 0.0000000000000E+00
 0.0000000000000E+00
 0.0000000000000E+00
 0.0000000000000E+00
 0.0000000000000E+00
 0.0000000000000E+00
 0.0000000000000E+00
 0.0000000000000E+00
 0.0000000000000E+00
 0.0000000000000E+00
 0.0000000000000E+00
 0.0000000000000E+00
 0.0000000000000E+00
 0.0000000000000E+00
 0.0000000000000E+00
 0.0000000000000E+00
 0.0000000000000E+00
 0.0000000000000E+00
 0.0000000000000E+00
 0.0000000000000E+00
 0.0000000000000E+00
 0.0000000000000E+00
 0.0000000000000E+00
 0.0000000000000E+00
 0.0000000000000E+00
 0.0000000000000E+00
 0.0000000000000E+00
 0.0000000000000E+00
 0.0000000000000E+00
 0.0000000000000E+00
 0.0000000000000E+00
 0.0000000000000E+00
 0.0000000000000E+00
 0.0000000000000E+00
 0.0000000000000E+00
 0.0000000000000E+00
 0.0000000000000E+00
 0.0000000000000E+00
 0.0000000000000E+00
 0.0000000000000E+00
 0.0000000000000E+00
 0.0000000000000E+00
 0.0000000000000E+00
 0.0000000000000E+00
 0.0000000000000E+00
 0.0000000000000E+00
 0.0000000000000E+00
 0.0000000000000E+00
 0.0000000000000E+00
 0.0000000000000E+00
 0.0000000000000E+00
 0.0000000000000E+00
 0.0000000000000E+00
 0.0000000000000E+00
 0.0000000000000E+00
 0.0000000000000E+00
 0.0000000000000E+00
 0.0000000000000E+00
 0.0000000000000E+00
 0.0000000000000E+00
 0.0000000000000E+00
 0.0000000000000E+00
 0.0000000000000E+00
 0.0000000000000E+00
 0.0000000000000E+00
 0.0000000000000E+00
 0.0000000000000E+00
 0.0000000000000E+00
 0.0000000000000E+00
 0.0000000000000E+00
 0.0000000000000E+00
 0.0000000000000E+00
 0.0000000000000E+00
 0.0000000000000E+00
 0.0000000000000E+00
 0.0000000000000E+00
 0.0000000000000E+00
 0.0000000000000E+00
 0.0000000000000E+00
 0.0000000000000E+00
 0.0000000000000E+00
 0.0000000000000E+00
 0.0000000000000E+00
 0.0000000000000E+00
 0.0000000000000E+00
 0.0000000000000E+00
 0.0000000000000E+00
 0.0000000000000E+00
 0.0000000000000E+00
 0.0000000000000E+00
 0.0000000000000E+00
 0.0000000000000E+00
 0.0000000000000E+00
 0.0000000000000E+00
 0.0000000000000E+00
 0.0000000000000E+00
 0.0000000000000E+00
 0.0000000000000E+00
 0.0000000000000E+00
 0.0000000000000E+00
 0.0000000000000E+00
 0.0000000000000E+00
 0.0000000000000E+00
 0.0000000000000E+00
 0.0000000000000E+00
 0.0000000000000E+00
 0.0000000000000E+00
 0.0000000000000E+00
 0.0000000000000E+00
 0.0000000000000E+00
 0.0000000000000E+00
 0.0000000000000E+00
 0.0000000000000E+00
 0.0000000000000E+00
 0.0000000000000E+00
 0.0000000000000E+00
 0.0000000000000E+00
 0.0000000000000E+00
 0.0000000000000E+00
 0.0000000000000E+00
 0.0000000000000E+00
 0.0000000000000E+00
 0.0000000000000E+00
 0.0000000000000E+00
 0.0000000000000E+00
 0.0000000000000E+00
 0.0000000000000E+00
 0.0000000000000E+00
 0.0000000000000E+00
 0.0000000000000E+00
 0.0000000000000E+00
 0.0000000000000E+00
 0.0000000000000E+00
 0.0000000000000E+00
 0.0000000000000E+00
 0.0000000000000E+00
 0.0000000000000E+00
 0.0000000000000E+00
 0.0000000000000E+00
 0.0000000000000E+00
 0.0000000000000E+00
 0.0000000000000E+00
 0.0000000000000E+00
 0.0000000000000E+00
 0.0000000000000E+00
 0.0000000000000E+00
 0.0000000000000E+00
 0.0000000000000E+00
 0.0000000000000E+00
 0.0000000000000E+00
 0.0000000000000E+00
 0.0000000000000E+00
 0.0000000000000E+00
 0.0000000000000E+00
 0.0000000000000E+00
 0.0000000000000E+00
 0.0000000000000E+00
 0.0000000000000E+00
 0.0000000000000E+00
 0.0000000000000E+00
 0.0000000000000E+00
 0.0000000000000E+00
 0.0000000000000E+00
 0.0000000000000E+00
 0.0000000000000E+00
 0.0000000000000E+00
 0.0000000000000E+00
 0.0000000000000E+00
 0.0000000000000E+00
 0.0000000000000E+00
 0.0000000000000E+00
 0.0000000000000E+00
 0.0000000000000E+00
 0.0000000000000E+00
 0.0000000000000E+00
 0.0000000000000E+00
 0.0000000000000E+00
 0.0000000000000E+00
 0.0000000000000E+00
 0.0000000000000E+00
 0.0000000000000E+00
 0.0000000000000E+00
 0.0000000000000E+00
 0.0000000000000E+00
 0.0000000000000E+00
 0.0000000000000E+00
 0.0000000000000E+00
 0.0000000000000E+00
 0.0000000000000E+00
 0.0000000000000E+00
 0.0000000000000E+00
 0.0000000000000E+00
 0.0000000000000E+00
 0.0000000000000E+00
 0.0000000000000E+00
 0.0000000000000E+00
 0.0000000000000E+00
 0.0000000000000E+00
 0.0000000000000E+00
 0.0000000000000E+00
 0.0000000000000E+00
 0.0000000000000E+00
 0.0000000000000E+00
 0.0000000000000E+00
 0.0000000000000E+00
 0.0000000000000E+00
 0.0000000000000E+00
 0.0000000000000E+00
 0.0000000000000E+00
 0.0000000000000E+00
 0.0000000000000E+00
 0.0000000000000E+00
 0.0000000000000E+00
 0.0000000000000E+00
 0.0000000000000E+00
 0.0000000000000E+00
 0.0000000000000E+00
 0.0000000000000E+00
 0.0000000000000E+00
 0.0000000000000E+00
 0.0000000000000E+00
 0.0000000000000E+00
 0.0000000000000E+00
 0.0000000000000E+00
 0.0000000000000E+00
 0.0000000000000E+00
 0.0000000000000E+00
 0.0000000000000E+00
 0.0000000000000E+00
 0.0000000000000E+00
 0.0000000000000E+00
 0.0000000000000E+00
 0.0000000000000E+00
 0.0000000000000E+00
 0.0000000000000E+00
 0.0000000000000E+00
 0.0000000000000E+00
 0.0000000000000E+00
 0.0000000000000E+00
 0.0000000000000E+00
 0.0000000000000E+00
 0.0000000000000E+00
 0.0000000000000E+00
 0.0000000000000E+00
 0.0000000000000E+00
 0.0000000000000E+00
 0.0000000000000E+00
 0.0000000000000E+00
 0.0000000000000E+00
 0.0000000000000E+00
 0.0000000000000E+00
 0.0000000000000E+00
 0.0000000000000E+00
 0.0000000000000E+00
 0.0000000000000E+00
 0.0000000000000E+00
 0.0000000000000E+00
 0.0000000000000E+00
 0.0000000000000E+00
 0.0000000000000E+00
 0.0000000000000E+00
 0.0000000000000E+00
 0.0000000000000E+00
 0.0000000000000E+00
 0.0000000000000E+00
 0.0000000000000E+00
 0.0000000000000E+00
 0.0000000000000E+00
 0.0000000000000E+00
 0.0000000000000E+00
 0.0000000000000E+00
 0.0000000000000E+00
 0.0000000000000E+00
 0.0000000000000E+00
 0.0000000000000E+00
 0.0000000000000E+00
 0.0000000000000E+00
 0.0000000000000E+00
 0.0000000000000E+00
 0.0000000000000E+00
 0.0000000000000E+00
 0.0000000000000E+00
 0.0000000000000E+00
 0.0000000000000E+00
 0.0000000000000E+00
 0.0000000000000E+00
 0.0000000000000E+00
 0.0000000000000E+00
 0.0000000000000E+00
 0.0000000000000E+00
 0.0000000000000E+00
 0.0000000000000E+00
 0.0000000000000E+00
 0.0000000000000E+00
 0.0000000000000E+00
 0.0000000000000E+00
 0.0000000000000E+00
 0.0000000000000E+00
 0.0000000000000E+00
 0.0000000000000E+00
 0.0000000000000E+00
 0.0000000000000E+00
 0.0000000000000E+00
 0.0000000000000E+00
 0.0000000000000E+00
 0.0000000000000E+00
 0.0000000000000E+00
 0.0000000000000E+00
 0.0000000000000E+00
 0.0000000000000E+00
 0.0000000000000E+00
 0.0000000000000E+00
 0.0000000000000E+00
 0.0000000000000E+00
 0.0000000000000E+00
 0.0000000000000E+00
 0.0000000000000E+00
 0.0000000000000E+00
 0.0000000000000E+00
 0.0000000000000E+00
 0.0000000000000E+00
 0.0000000000000E+00
 0.0000000000000E+00
 0.0000000000000E+00
 0.0000000000000E+00
 0.0000000000000E+00
 0.0000000000000E+00
 0.0000000000000E+00
 0.0000000000000E+00
 0.0000000000000E+00
 0.0000000000000E+00
 0.0000000000000E+00
 0.0000000000000E+00
 0.0000000000000E+00
 0.0000000000000E+00
 0.0000000000000E+00
 0.0000000000000E+00
 0.0000000000000E+00
 0.0000000000000E+00
 0.0000000000000E+00
 0.0000000000000E+00
 0.0000000000000E+00
 0.0000000000000E+00
 0.0000000000000E+00
 0.0000000000000E+00
 0.0000000000000E+00
 0.0000000000000E+00
 0.0000000000000E+00
 0.0000000000000E+00
 0.0000000000000E+00
 0.0000000000000E+00
 0.0000000000000E+00
 0.0000000000000E+00
 0.0000000000000E+00
 0.0000000000000E+00
 0.0000000000000E+00
 0.0000000000000E+00
 0.0000000000000E+00
 0.0000000000000E+00
 0.0000000000000E+00
 0.0000000000000E+00
 0.0000000000000E+00
 0.0000000000000E+00
 0.0000000000000E+00
 0.0000000000000E+00
 0.0000000000000E+00
 0.0000000000000E+00
 0.0000000000000E+00
 0.0000000000000E+00
 0.0000000000000E+00
 0.0000000000000E+00
 0.0000000000000E+00
 0.0000000000000E+00
 0.0000000000000E+00
 0.0000000000000E+00
 0.0000000000000E+00
 0.0000000000000E+00
 0.0000000000000E+00
 0.0000000000000E+00
 0.0000000000000E+00
 0.0000000000000E+00
 0.0000000000000E+00
 0.0000000000000E+00
 0.0000000000000E+00
 0.0000000000000E+00
 0.0000000000000E+00
 0.0000000000000E+00
 0.0000000000000E+00
 0.0000000000000E+00
 0.0000000000000E+00
 0.0000000000000E+00
 0.0000000000000E+00
 0.0000000000000E+00
 0.0000000000000E+00
 0.0000000000000E+00
 0.0000000000000E+00
 0.0000000000000E+00
 0.0000000000000E+00
 0.0000000000000E+00
 0.0000000000000E+00
 0.0000000000000E+00
 0.0000000000000E+00
 0.0000000000000E+00
 0.0000000000000E+00
 0.0000000000000E+00
 0.0000000000000E+00
 0.0000000000000E+00
 0.0000000000000E+00
 0.0000000000000E+00
 0.0000000000000E+00
 0.0000000000000E+00
 0.0000000000000E+00
 0.0000000000000E+00
 0.0000000000000E+00
 0.0000000000000E+00
 0.0000000000000E+00
 0.0000000000000E+00
 0.0000000000000E+00
 0.0000000000000E+00
 0.0000000000000E+00
 0.0000000000000E+00
 0.0000000000000E+00
 0.0000000000000E+00
 0.0000000000000E+00
 0.0000000000000E+00
 0.0000000000000E+00
 0.0000000000000E+00
 0.0000000000000E+00
 0.0000000000000E+00
 0.0000000000000E+00
 0.0000000000000E+00
 0.0000000000000E+00
 0.0000000000000E+00
 0.0000000000000E+00
 0.0000000000000E+00
 0.0000000000000E+00
 0.0000000000000E+00
 0.0000000000000E+00
 0.0000000000000E+00
 0.0000000000000E+00
 0.0000000000000E+00
 0.0000000000000E+00
 0.0000000000000E+00
 0.0000000000000E+00
 0.0000000000000E+00
 0.0000000000000E+00
 0.0000000000000E+00
 0.0000000000000E+00
 0.0000000000000E+00
 0.0000000000000E+00
 0.0000000000000E+00
 0.0000000000000E+00
 0.0000000000000E+00
 0.0000000000000E+00
 0.0000000000000E+00
 0.0000000000000E+00
 0.0000000000000E+00
 0.0000000000000E+00
 0.0000000000000E+00
 0.0000000000000E+00
 0.0000000000000E+00
 0.0000000000000E+00
 0.0000000000000E+00
 0.0000000000000E+00
 0.0000000000000E+00
 0.0000000000000E+00
 0.0000000000000E+00
 0.0000000000000E+00
 0.0000000000000E+00
 0.0000000000000E+00
 0.0000000000000E+00
 0.0000000000000E+00
 0.0000000000000E+00
 0.0000000000000E+00
 0.0000000000000E+00
 0.0000000000000E+00
 0.0000000000000E+00
 0.0000000000000E+00
 0.0000000000000E+00
 0.0000000000000E+00
 0.0000000000000E+00
 0.0000000000000E+00
 0.0000000000000E+00
 0.0000000000000E+00
 0.0000000000000E+00
 0.0000000000000E+00
 0.0000000000000E+00
 0.0000000000000E+00
 0.0000000000000E+00
 0.0000000000000E+00
 0.0000000000000E+00
 0.0000000000000E+00
 0.0000000000000E+00
 0.0000000000000E+00
 0.0000000000000E+00
 0.0000000000000E+00
 0.0000000000000E+00
 0.0000000000000E+00
 0.0000000000000E+00
 0.0000000000000E+00
 0.0000000000000E+00
 0.0000000000000E+00
 0.0000000000000E+00
 0.0000000000000E+00
 0.0000000000000E+00
 0.0000000000000E+00
 0.0000000000000E+00
 0.0000000000000E+00
 0.0000000000000E+00
 0.0000000000000E+00
 0.0000000000000E+00
 0.0000000000000E+00
 0.0000000000000E+00
 0.0000000000000E+00
 0.0000000000000E+00
 0.0000000000000E+00
 0.0000000000000E+00
 0.0000000000000E+00
 0.0000000000000E+00
 0.0000000000000E+00
 0.0000000000000E+00
 0.0000000000000E+00
 0.0000000000000E+00
 0.0000000000000E+00
 0.0000000000000E+00
 0.0000000000000E+00
 0.0000000000000E+00
 0.0000000000000E+00
 0.0000000000000E+00
 0.0000000000000E+00
 0.0000000000000E+00
 0.0000000000000E+00
 0.0000000000000E+00
 0.0000000000000E+00
 0.0000000000000E+00
 0.0000000000000E+00
 0.0000000000000E+00
 0.0000000000000E+00
 0.0000000000000E+00
 0.0000000000000E+00
 0.0000000000000E+00
 0.0000000000000E+00
 0.0000000000000E+00
 0.0000000000000E+00
 0.0000000000000E+00
 0.0000000000000E+00
 0.0000000000000E+00
 0.0000000000000E+00
 0.0000000000000E+00
 0.0000000000000E+00
 0.0000000000000E+00
 0.0000000000000E+00
 0.0000000000000E+00
 0.0000000000000E+00
 0.0000000000000E+00
 0.0000000000000E+00
 0.0000000000000E+00
 0.0000000000000E+00
 0.0000000000000E+00
 0.0000000000000E+00
 0.0000000000000E+00
 0.0000000000000E+00
 0.0000000000000E+00
 0.0000000000000E+00
 0.0000000000000E+00
 0.0000000000000E+00
 0.0000000000000E+00
 0.0000000000000E+00
 0.0000000000000E+00
 0.0000000000000E+00
 0.0000000000000E+00
 0.0000000000000E+00
 0.0000000000000E+00
 0.0000000000000E+00
 0.0000000000000E+00
 0.0000000000000E+00
 0.0000000000000E+00
 0.0000000000000E+00
 0.0000000000000E+00
 0.0000000000000E+00
 0.0000000000000E+00
 0.0000000000000E+00
 0.0000000000000E+00
 0.0000000000000E+00
 0.0000000000000E+00
 0.0000000000000E+00
 0.0000000000000E+00
 0.0000000000000E+00
 0.0000000000000E+00
 0.0000000000000E+00
 0.0000000000000E+00
 0.0000000000000E+00
 0.0000000000000E+00
 0.0000000000000E+00
 0.0000000000000E+00
 0.0000000000000E+00
 0.0000000000000E+00
 0.0000000000000E+00
 0.0000000000000E+00
 0.0000000000000E+00
 0.0000000000000E+00
 0.0000000000000E+00
 0.0000000000000E+00
 0.0000000000000E+00
 0.0000000000000E+00
 0.0000000000000E+00
 0.0000000000000E+00
 0.0000000000000E+00
 0.0000000000000E+00
 0.0000000000000E+00
 0.0000000000000E+00
 0.0000000000000E+00
 0.0000000000000E+00
 0.0000000000000E+00
 0.0000000000000E+00
 0.0000000000000E+00
 0.0000000000000E+00
 0.0000000000000E+00
 0.0000000000000E+00
 0.0000000000000E+00
 0.0000000000000E+00
 0.0000000000000E+00
 0.0000000000000E+00
 0.0000000000000E+00
 0.0000000000000E+00
 0.0000000000000E+00
 0.0000000000000E+00
 0.0000000000000E+00
 0.0000000000000E+00
 0.0000000000000E+00
 0.0000000000000E+00
 0.0000000000000E+00
 0.0000000000000E+00
 0.0000000000000E+00
 0.0000000000000E+00
 0.0000000000000E+00
 0.0000000000000E+00
 0.0000000000000E+00
 0.0000000000000E+00
 0.0000000000000E+00
 0.0000000000000E+00
 0.0000000000000E+00
 0.0000000000000E+00
 0.0000000000000E+00
 0.0000000000000E+00
 0.0000000000000E+00
 0.0000000000000E+00
 0.0000000000000E+00
 0.0000000000000E+00
 0.0000000000000E+00
 0.0000000000000E+00
 0.0000000000000E+00
 0.0000000000000E+00
 0.0000000000000E+00
 0.0000000000000E+00
 0.0000000000000E+00
 0.0000000000000E+00
 0.0000000000000E+00
 0.0000000000000E+00
 0.0000000000000E+00
 0.0000000000000E+00
 0.0000000000000E+00
 0.0000000000000E+00
 0.0000000000000E+00
 0.0000000000000E+00
 0.0000000000000E+00
 0.0000000000000E+00
 0.0000000000000E+00
 0.0000000000000E+00
 0.0000000000000E+00
 0.0000000000000E+00
 0.0000000000000E+00
 0.0000000000000E+00
 0.0000000000000E+00
 0.0000000000000E+00
 0.0000000000000E+00
 0.0000000000000E+00
 0.0000000000000E+00
 0.0000000000000E+00
 0.0000000000000E+00
 0.0000000000000E+00
 0.0000000000000E+00
 0.0000000000000E+00
 0.0000000000000E+00
 0.0000000000000E+00
 0.0000000000000E+00
 0.0000000000000E+00
 0.0000000000000E+00
 0.0000000000000E+00
 0.0000000000000E+00
 0.0000000000000E+00
 0.0000000000000E+00
 0.0000000000000E+00
 0.0000000000000E+00
 0.0000000000000E+00
 0.0000000000000E+00
 0.0000000000000E+00
 0.0000000000000E+00
 0.0000000000000E+00
 0.0000000000000E+00
 0.0000000000000E+00
 0.0000000000000E+00
 0.0000000000000E+00
 0.0000000000000E+00
 0.0000000000000E+00
 0.0000000000000E+00
 0.0000000000000E+00
 0.0000000000000E+00
 0.0000000000000E+00
 0.0000000000000E+00
 0.0000000000000E+00
 0.0000000000000E+00
 0.0000000000000E+00
 0.0000000000000E+00
 0.0000000000000E+00
 0.0000000000000E+00
 0.0000000000000E+00
 0.0000000000000E+00
 0.0000000000000E+00
 0.0000000000000E+00
 0.0000000000000E+00
 0.0000000000000E+00
 0.0000000000000E+00
 0.0000000000000E+00
 0.0000000000000E+00
 0.0000000000000E+00
 0.0000000000000E+00
 0.0000000000000E+00
 0.0000000000000E+00
 0.0000000000000E+00
 0.0000000000000E+00
 0.0000000000000E+00
 0.0000000000000E+00
 0.0000000000000E+00
 0.0000000000000E+00
 0.0000000000000E+00
 0.0000000000000E+00
 0.0000000000000E+00
 0.0000000000000E+00
 0.0000000000000E+00
 0.0000000000000E+00
 0.0000000000000E+00
 0.0000000000000E+00
 0.0000000000000E+00
 0.0000000000000E+00
 0.0000000000000E+00
 0.0000000000000E+00
 0.0000000000000E+00
 0.0000000000000E+00
 0.0000000000000E+00
 0.0000000000000E+00
 0.0000000000000E+00
 0.0000000000000E+00
 0.0000000000000E+00
 0.0000000000000E+00
 0.0000000000000E+00
 0.0000000000000E+00
 0.0000000000000E+00
 0.0000000000000E+00
 0.0000000000000E+00
 0.0000000000000E+00
 0.0000000000000E+00
 0.0000000000000E+00
 0.0000000000000E+00
 0.0000000000000E+00
 0.0000000000000E+00
 0.0000000000000E+00
 0.0000000000000E+00
 0.0000000000000E+00
 0.0000000000000E+00
 0.0000000000000E+00
 0.0000000000000E+00
 0.0000000000000E+00
 0.0000000000000E+00
 0.0000000000000E+00
 0.0000000000000E+00
 0.0000000000000E+00
 0.0000000000000E+00
 0.0000000000000E+00
 0.0000000000000E+00
 0.0000000000000E+00
 0.0000000000000E+00
 0.0000000000000E+00
 0.0000000000000E+00
 0.0000000000000E+00
 0.0000000000000E+00
 0.0000000000000E+00
 0.0000000000000E+00
 0.0000000000000E+00
 0.0000000000000E+00
 0.0000000000000E+00
 0.0000000000000E+00
 0.0000000000000E+00
 0.0000000000000E+00
 0.0000000000000E+00
 0.0000000000000E+00
 0.0000000000000E+00
 0.0000000000000E+00
 0.0000000000000E+00
 0.0000000000000E+00
 0.0000000000000E+00
 0.0000000000000E+00
 0.0000000000000E+00
 0.0000000000000E+00
 0.0000000000000E+00
 0.0000000000000E+00
 0.0000000000000E+00
 0.0000000000000E+00
 0.0000000000000E+00
 0.0000000000000E+00
 0.0000000000000E+00
 0.0000000000000E+00
 0.0000000000000E+00
 0.0000000000000E+00
 0.0000000000000E+00
 0.0000000000000E+00
 0.0000000000000E+00
 0.0000000000000E+00
 0.0000000000000E+00
 0.0000000000000E+00
 0.0000000000000E+00
 0.0000000000000E+00
 0.0000000000000E+00
 0.0000000000000E+00
 0.0000000000000E+00
 0.0000000000000E+00
 0.0000000000000E+00
 0.0000000000000E+00
 0.0000000000000E+00
 0.0000000000000E+00
 0.0000000000000E+00
 0.0000000000000E+00
 0.0000000000000E+00
 0.0000000000000E+00
 0.0000000000000E+00
 0.0000000000000E+00
 0.0000000000000E+00
 0.0000000000000E+00
 0.0000000000000E+00
 0.0000000000000E+00
 0.0000000000000E+00
 0.0000000000000E+00
 0.0000000000000E+00
 0.0000000000000E+00
 0.0000000000000E+00
 0.0000000000000E+00
 0.0000000000000E+00
 0.0000000000000E+00
 0.0000000000000E+00
 0.0000000000000E+00
 0.0000000000000E+00
 0.0000000000000E+00
 0.0000000000000E+00
 0.0000000000000E+00
 0.0000000000000E+00
 0.0000000000000E+00
 0.0000000000000E+00
 0.0000000000000E+00
 0.0000000000000E+00
 0.0000000000000E+00
 0.0000000000000E+00
 0.0000000000000E+00
 0.0000000000000E+00
 0.0000000000000E+00
 0.0000000000000E+00
 0.0000000000000E+00
 0.0000000000000E+00
 0.0000000000000E+00
 0.0000000000000E+00
 0.0000000000000E+00
 0.0000000000000E+00
 0.0000000000000E+00
 0.0000000000000E+00
 0.0000000000000E+00
 0.0000000000000E+00
 0.0000000000000E+00
 0.0000000000000E+00
 0.0000000000000E+00
 0.0000000000000E+00
 0.0000000000000E+00
 0.0000000000000E+00
 0.0000000000000E+00
 0.0000000000000E+00
 0.0000000000000E+00
 0.0000000000000E+00
 0.0000000000000E+00
 0.0000000000000E+00
 0.0000000000000E+00
 0.0000000000000E+00
 0.0000000000000E+00
 0.0000000000000E+00
 0.0000000000000E+00
 0.0000000000000E+00
 0.0000000000000E+00
 0.0000000000000E+00
 0.0000000000000E+00
 0.0000000000000E+00
 0.0000000000000E+00
 0.0000000000000E+00
 0.0000000000000E+00
 0.0000000000000E+00
 0.0000000000000E+00
 0.0000000000000E+00
 0.0000000000000E+00
 0.0000000000000E+00
 0.0000000000000E+00
 0.0000000000000E+00
 0.0000000000000E+00
 0.0000000000000E+00
 0.0000000000000E+00
 0.0000000000000E+00
 0.0000000000000E+00
 0.0000000000000E+00
 0.0000000000000E+00
 0.0000000000000E+00
 0.0000000000000E+00
 0.0000000000000E+00
 0.0000000000000E+00
 0.0000000000000E+00
 0.0000000000000E+00
 0.0000000000000E+00
 0.0000000000000E+00
 0.0000000000000E+00
 0.0000000000000E+00
 0.0000000000000E+00
 0.0000000000000E+00
 0.0000000000000E+00
 0.0000000000000E+00
 0.0000000000000E+00
 0.0000000000000E+00
 0.0000000000000E+00
 0.0000000000000E+00
 0.0000000000000E+00
 0.0000000000000E+00
 0.0000000000000E+00
 0.0000000000000E+00
 0.0000000000000E+00
 0.0000000000000E+00
 0.0000000000000E+00
 0.0000000000000E+00
 0.0000000000000E+00
 0.0000000000000E+00
 0.0000000000000E+00
 0.0000000000000E+00
 0.0000000000000E+00
 0.0000000000000E+00
 0.0000000000000E+00
 0.0000000000000E+00
 0.0000000000000E+00
 0.0000000000000E+00
 0.0000000000000E+00
 0.0000000000000E+00
 0.0000000000000E+00
 0.0000000000000E+00
 0.0000000000000E+00
 0.0000000000000E+00
 0.0000000000000E+00
 0.0000000000000E+00
 0.0000000000000E+00
 0.0000000000000E+00
 0.0000000000000E+00
 0.0000000000000E+00
 0.0000000000000E+00
 0.0000000000000E+00
 0.0000000000000E+00
 0.0000000000000E+00
 0.0000000000000E+00
 0.0000000000000E+00
 0.0000000000000E+00
 0.0000000000000E+00
 0.0000000000000E+00
 0.0000000000000E+00
 0.0000000000000E+00
 0.0000000000000E+00
 0.0000000000000E+00
 0.0000000000000E+00
 0.0000000000000E+00
 0.0000000000000E+00
 0.0000000000000E+00
 0.0000000000000E+00
 0.0000000000000E+00
 0.0000000000000E+00
 0.0000000000000E+00
 0.0000000000000E+00
 0.0000000000000E+00
 0.0000000000000E+00
 0.0000000000000E+00
 0.0000000000000E+00
 0.0000000000000E+00
 0.0000000000000E+00
 0.0000000000000E+00
 0.0000000000000E+00
 0.0000000000000E+00
 0.0000000000000E+00
 0.0000000000000E+00
 0.0000000000000E+00
 0.0000000000000E+00
 0.0000000000000E+00
 0.0000000000000E+00
 0.0000000000000E+00
 0.0000000000000E+00
 0.0000000000000E+00
 0.0000000000000E+00
 0.0000000000000E+00
 0.0000000000000E+00
 0.0000000000000E+00
 0.0000000000000E+00
 0.0000000000000E+00
 0.0000000000000E+00
 0.0000000000000E+00
 0.0000000000000E+00
 0.0000000000000E+00
 0.0000000000000E+00
 0.0000000000000E+00
 0.0000000000000E+00
 0.0000000000000E+00
 0.0000000000000E+00
 0.0000000000000E+00
 0.0000000000000E+00
 0.0000000000000E+00
 0.0000000000000E+00
 0.0000000000000E+00
 0.0000000000000E+00
 0.0000000000000E+00
 0.0000000000000E+00
 0.0000000000000E+00
 0.0000000000000E+00
 0.0000000000000E+00
 0.0000000000000E+00
 0.0000000000000E+00
 0.0000000000000E+00
 0.0000000000000E+00
 0.0000000000000E+00
 0.0000000000000E+00
 0.0000000000000E+00
 0.0000000000000E+00
 0.0000000000000E+00
 0.0000000000000E+00
 0.0000000000000E+00
 0.0000000000000E+00
 0.0000000000000E+00
 0.0000000000000E+00
 0.0000000000000E+00
 0.0000000000000E+00
 0.0000000000000E+00
 0.0000000000000E+00
 0.0000000000000E+00
 0.0000000000000E+00
 0.0000000000000E+00
 0.0000000000000E+00
 0.0000000000000E+00
 0.0000000000000E+00
 0.0000000000000E+00
 0.0000000000000E+00
 0.0000000000000E+00
 0.0000000000000E+00
 0.0000000000000E+00
 0.0000000000000E+00
 0.0000000000000E+00
 0.0000000000000E+00
 0.0000000000000E+00
 0.0000000000000E+00
 0.0000000000000E+00
 0.0000000000000E+00
 0.0000000000000E+00
 0.0000000000000E+00
 0.0000000000000E+00
 0.0000000000000E+00
 0.0000000000000E+00
 0.0000000000000E+00
 0.0000000000000E+00
 0.0000000000000E+00
 0.0000000000000E+00
 0.0000000000000E+00
 0.0000000000000E+00
 0.0000000000000E+00
 0.0000000000000E+00
 0.0000000000000E+00
 0.0000000000000E+00
 0.0000000000000E+00
 0.0000000000000E+00
 0.0000000000000E+00
 0.0000000000000E+00
 0.0000000000000E+00
 0.0000000000000E+00
 0.0000000000000E+00
 0.0000000000000E+00
 0.0000000000000E+00
 0.0000000000000E+00
 0.0000000000000E+00
 0.0000000000000E+00
 0.0000000000000E+00
 0.0000000000000E+00
 0.0000000000000E+00
 0.0000000000000E+00
 0.0000000000000E+00
 0.0000000000000E+00
 0.0000000000000E+00
 0.0000000000000E+00
 0.0000000000000E+00
 0.0000000000000E+00
 0.0000000000000E+00
 0.0000000000000E+00
 0.0000000000000E+00
 0.0000000000000E+00
 0.0000000000000E+00
 0.0000000000000E+00
 0.0000000000000E+00
 0.0000000000000E+00
 0.0000000000000E+00
 0.0000000000000E+00
 0.0000000000000E+00
 0.0000000000000E+00
 0.0000000000000E+00
 0.0000000000000E+00
 0.0000000000000E+00
 0.0000000000000E+00
 0.0000000000000E+00
 0.0000000000000E+00
 0.0000000000000E+00
 0.0000000000000E+00
 0.0000000000000E+00
 0.0000000000000E+00
 0.0000000000000E+00
 0.0000000000000E+00
 0.0000000000000E+00
 0.0000000000000E+00
 0.0000000000000E+00
 0.0000000000000E+00
 0.0000000000000E+00
 0.0000000000000E+00
 0.0000000000000E+00
 0.0000000000000E+00
 0.0000000000000E+00
 0.0000000000000E+00
 0.0000000000000E+00
 0.0000000000000E+00
 0.0000000000000E+00
 0.0000000000000E+00
 0.0000000000000E+00
 0.0000000000000E+00
 0.0000000000000E+00
 0.0000000000000E+00
 0.0000000000000E+00
 0.0000000000000E+00
 0.0000000000000E+00
 0.0000000000000E+00
 0.0000000000000E+00
 0.0000000000000E+00
 0.0000000000000E+00
 0.0000000000000E+00
 0.0000000000000E+00
 0.0000000000000E+00
 0.0000000000000E+00
 0.0000000000000E+00
 0.0000000000000E+00
 0.0000000000000E+00
 0.0000000000000E+00
 0.0000000000000E+00
 0.0000000000000E+00
 0.0000000000000E+00
 0.0000000000000E+00
 0.0000000000000E+00
 0.0000000000000E+00
 0.0000000000000E+00
 0.0000000000000E+00
 0.0000000000000E+00
 0.0000000000000E+00
 0.0000000000000E+00
 0.0000000000000E+00
 0.0000000000000E+00
 0.0000000000000E+00
 0.0000000000000E+00
 0.0000000000000E+00
 0.0000000000000E+00
 0.0000000000000E+00
 0.0000000000000E+00
 0.0000000000000E+00
 0.0000000000000E+00
 0.0000000000000E+00
 0.0000000000000E+00
 0.0000000000000E+00
 0.0000000000000E+00
 0.0000000000000E+00
 0.0000000000000E+00
 0.0000000000000E+00
 0.0000000000000E+00
 0.0000000000000E+00
 0.0000000000000E+00
 0.0000000000000E+00
 0.0000000000000E+00
 0.0000000000000E+00
 0.0000000000000E+00
 0.0000000000000E+00
 0.0000000000000E+00
 0.0000000000000E+00
 0.0000000000000E+00
 0.0000000000000E+00
 0.0000000000000E+00
 0.0000000000000E+00
 0.0000000000000E+00
 0.0000000000000E+00
 0.0000000000000E+00
 0.0000000000000E+00
 0.0000000000000E+00
 0.0000000000000E+00
 0.0000000000000E+00
 0.0000000000000E+00
 0.0000000000000E+00
 0.0000000000000E+00
 0.0000000000000E+00
 0.0000000000000E+00
 0.0000000000000E+00
 0.0000000000000E+00
 0.0000000000000E+00
 0.0000000000000E+00
 0.0000000000000E+00
 0.0000000000000E+00
 0.0000000000000E+00
 0.0000000000000E+00
 0.0000000000000E+00
 0.0000000000000E+00
 0.0000000000000E+00
 0.0000000000000E+00
 0.0000000000000E+00
 0.0000000000000E+00
 0.0000000000000E+00
 0.0000000000000E+00
 0.0000000000000E+00
 0.0000000000000E+00
 0.0000000000000E+00
 0.0000000000000E+00
 0.0000000000000E+00
 0.0000000000000E+00
 0.0000000000000E+00
 0.0000000000000E+00
 0.0000000000000E+00
 0.0000000000000E+00
 0.0000000000000E+00
 0.0000000000000E+00
 0.0000000000000E+00
 0.0000000000000E+00
 0.0000000000000E+00
 0.0000000000000E+00
 0.0000000000000E+00
 0.0000000000000E+00
 0.0000000000000E+00
 0.0000000000000E+00
 0.0000000000000E+00
 0.0000000000000E+00
 0.0000000000000E+00
 0.0000000000000E+00
 0.0000000000000E+00
 0.0000000000000E+00
 0.0000000000000E+00
 0.0000000000000E+00
 0.0000000000000E+00
 0.0000000000000E+00
 0.0000000000000E+00
 0.0000000000000E+00
 0.0000000000000E+00
 0.0000000000000E+00
 0.0000000000000E+00
 0.0000000000000E+00
 0.0000000000000E+00
 0.0000000000000E+00
 0.0000000000000E+00
 0.0000000000000E+00
 0.0000000000000E+00
 0.0000000000000E+00
 0.0000000000000E+00
 0.0000000000000E+00
 0.0000000000000E+00
 0.0000000000000E+00
 0.0000000000000E+00
 0.0000000000000E+00
 0.0000000000000E+00
 0.0000000000000E+00
 0.0000000000000E+00
 0.0000000000000E+00
 0.0000000000000E+00
 0.0000000000000E+00
 0.0000000000000E+00
 0.0000000000000E+00
 0.0000000000000E+00
 0.0000000000000E+00
 0.0000000000000E+00
 0.0000000000000E+00
 0.0000000000000E+00
 0.0000000000000E+00
 0.0000000000000E+00
 0.0000000000000E+00
 0.0000000000000E+00
 0.0000000000000E+00
 0.0000000000000E+00
 0.0000000000000E+00
 0.0000000000000E+00
 0.0000000000000E+00
 0.0000000000000E+00
 0.0000000000000E+00
 0.0000000000000E+00
 0.0000000000000E+00
 0.0000000000000E+00
 0.0000000000000E+00
 0.0000000000000E+00
 0.0000000000000E+00
 0.0000000000000E+00
 0.0000000000000E+00
 0.0000000000000E+00
 0.0000000000000E+00
 0.0000000000000E+00
 0.0000000000000E+00
 0.0000000000000E+00
 0.0000000000000E+00
 0.0000000000000E+00
 0.0000000000000E+00
 0.0000000000000E+00
 0.0000000000000E+00
 0.0000000000000E+00
 0.0000000000000E+00
 0.0000000000000E+00
 0.0000000000000E+00
 0.0000000000000E+00
 0.0000000000000E+00
 0.0000000000000E+00
 0.0000000000000E+00
 0.0000000000000E+00
 0.0000000000000E+00
 0.0000000000000E+00
 0.0000000000000E+00
 0.0000000000000E+00
 0.0000000000000E+00
 0.0000000000000E+00
 0.0000000000000E+00
 0.0000000000000E+00
 0.0000000000000E+00
 0.0000000000000E+00
 0.0000000000000E+00
 0.0000000000000E+00
 0.0000000000000E+00
 0.0000000000000E+00
 0.0000000000000E+00
 0.0000000000000E+00
 0.0000000000000E+00
 0.0000000000000E+00
 0.0000000000000E+00
 0.0000000000000E+00
 0.0000000000000E+00
 0.0000000000000E+00
 0.0000000000000E+00
 0.0000000000000E+00
 0.0000000000000E+00
 0.0000000000000E+00
 0.0000000000000E+00
 0.0000000000000E+00
 0.0000000000000E+00
 0.0000000000000E+00
 0.0000000000000E+00
 0.0000000000000E+00
 0.0000000000000E+00
 0.0000000000000E+00
 0.0000000000000E+00
 0.0000000000000E+00
 0.0000000000000E+00
 0.0000000000000E+00
 0.0000000000000E+00
 0.0000000000000E+00
 0.0000000000000E+00
 0.0000000000000E+00
 0.0000000000000E+00
 0.0000000000000E+00
 0.0000000000000E+00
 0.0000000000000E+00
 0.0000000000000E+00
 0.0000000000000E+00
 0.0000000000000E+00
 0.0000000000000E+00
 0.0000000000000E+00
 0.0000000000000E+00
 0.0000000000000E+00
 0.0000000000000E+00
 0.0000000000000E+00
 0.0000000000000E+00
 0.0000000000000E+00
 0.0000000000000E+00
 0.0000000000000E+00
 0.0000000000000E+00
 0.0000000000000E+00
 0.0000000000000E+00
 0.0000000000000E+00
 0.0000000000000E+00
 0.0000000000000E+00
 0.0000000000000E+00
 0.0000000000000E+00
 0.0000000000000E+00
 0.0000000000000E+00
 0.0000000000000E+00
 0.0000000000000E+00
 0.0000000000000E+00
 0.0000000000000E+00
 0.0000000000000E+00
 0.0000000000000E+00
 0.0000000000000E+00
 0.0000000000000E+00
 0.0000000000000E+00
 0.0000000000000E+00
 0.0000000000000E+00
 0.0000000000000E+00
 0.0000000000000E+00
 0.0000000000000E+00
 0.0000000000000E+00
 0.0000000000000E+00
 0.0000000000000E+00
 0.0000000000000E+00
 0.0000000000000E+00
 0.0000000000000E+00
 0.0000000000000E+00
 0.0000000000000E+00
 0.0000000000000E+00
 0.0000000000000E+00
 0.0000000000000E+00
 0.0000000000000E+00
 0.0000000000000E+00
 0.0000000000000E+00
 0.0000000000000E+00
 0.0000000000000E+00
 0.0000000000000E+00
 0.0000000000000E+00
 0.0000000000000E+00
 0.0000000000000E+00
 0.0000000000000E+00
 0.0000000000000E+00
 0.0000000000000E+00
 0.0000000000000E+00
 0.0000000000000E+00
 0.0000000000000E+00
 0.0000000000000E+00
 0.0000000000000E+00
 0.0000000000000E+00
 0.0000000000000E+00
 0.0000000000000E+00
 0.0000000000000E+00
 0.0000000000000E+00
 0.0000000000000E+00
 0.0000000000000E+00
 0.0000000000000E+00
 0.0000000000000E+00
 0.0000000000000E+00
 0.0000000000000E+00
 0.0000000000000E+00
 0.0000000000000E+00
 0.0000000000000E+00
 0.0000000000000E+00
 0.0000000000000E+00
 0.0000000000000E+00
 0.0000000000000E+00
 0.0000000000000E+00
 0.0000000000000E+00
 0.0000000000000E+00
 0.0000000000000E+00
 0.0000000000000E+00
 0.0000000000000E+00
 0.0000000000000E+00
 0.0000000000000E+00
 0.0000000000000E+00
 0.0000000000000E+00
 0.0000000000000E+00
 0.0000000000000E+00
 0.0000000000000E+00
 0.0000000000000E+00
 0.0000000000000E+00
 0.0000000000000E+00
 0.0000000000000E+00
 0.0000000000000E+00
 0.0000000000000E+00
 0.0000000000000E+00
 0.0000000000000E+00
 0.0000000000000E+00
 0.0000000000000E+00
 0.0000000000000E+00
 0.0000000000000E+00
 0.0000000000000E+00
 0.0000000000000E+00
 0.0000000000000E+00
 0.0000000000000E+00
 0.0000000000000E+00
 0.0000000000000E+00
 0.0000000000000E+00
 0.0000000000000E+00
 0.0000000000000E+00
 0.0000000000000E+00
 0.0000000000000E+00
 0.0000000000000E+00
 0.0000000000000E+00
 0.0000000000000E+00
 0.0000000000000E+00
 0.0000000000000E+00
 0.0000000000000E+00
 0.0000000000000E+00
 0.0000000000000E+00
 0.0000000000000E+00
 0.0000000000000E+00
 0.0000000000000E+00
 0.0000000000000E+00
 0.0000000000000E+00
 0.0000000000000E+00
 0.0000000000000E+00
 0.0000000000000E+00
 0.0000000000000E+00
 0.0000000000000E+00
 0.0000000000000E+00
 0.0000000000000E+00
 0.0000000000000E+00
 0.0000000000000E+00
 0.0000000000000E+00
 0.0000000000000E+00
 0.0000000000000E+00
 0.0000000000000E+00
 0.0000000000000E+00
 0.0000000000000E+00
 0.0000000000000E+00
 0.0000000000000E+00
 0.0000000000000E+00
 0.0000000000000E+00
 0.0000000000000E+00
 0.0000000000000E+00
 0.0000000000000E+00
 0.0000000000000E+00
 0.0000000000000E+00
 0.0000000000000E+00
 0.0000000000000E+00
 0.0000000000000E+00
 0.0000000000000E+00
 0.0000000000000E+00
 0.0000000000000E+00
 0.0000000000000E+00
 0.0000000000000E+00
 0.0000000000000E+00
 0.0000000000000E+00
 0.0000000000000E+00
 0.0000000000000E+00
 0.0000000000000E+00
 0.0000000000000E+00
 0.0000000000000E+00
 0.0000000000000E+00
 0.0000000000000E+00
 0.0000000000000E+00
 0.0000000000000E+00
 0.0000000000000E+00
 0.0000000000000E+00
 0.0000000000000E+00
 0.0000000000000E+00
 0.0000000000000E+00
 0.0000000000000E+00
 0.0000000000000E+00
 0.0000000000000E+00
 0.0000000000000E+00
 0.0000000000000E+00
 0.0000000000000E+00
 0.0000000000000E+00
 0.0000000000000E+00
 0.0000000000000E+00
 0.0000000000000E+00
 0.0000000000000E+00
 0.0000000000000E+00
 0.0000000000000E+00
 0.0000000000000E+00
 0.0000000000000E+00
 0.0000000000000E+00
 0.0000000000000E+00
 0.0000000000000E+00
 0.0000000000000E+00
 0.0000000000000E+00
 0.0000000000000E+00
 0.0000000000000E+00
 0.0000000000000E+00
 0.0000000000000E+00
 0.0000000000000E+00
 0.0000000000000E+00
 0.0000000000000E+00
 0.0000000000000E+00
 0.0000000000000E+00
 0.0000000000000E+00
 0.0000000000000E+00
 0.0000000000000E+00
 0.0000000000000E+00
 0.0000000000000E+00
 0.0000000000000E+00
 0.0000000000000E+00
 0.0000000000000E+00
 0.0000000000000E+00
 0.0000000000000E+00
 0.0000000000000E+00
 0.0000000000000E+00
 0.0000000000000E+00
 0.0000000000000E+00
 0.0000000000000E+00
 0.0000000000000E+00
 0.0000000000000E+00
 0.0000000000000E+00
 0.0000000000000E+00
 0.0000000000000E+00
 0.0000000000000E+00
 0.0000000000000E+00
 0.0000000000000E+00
 0.0000000000000E+00
 0.0000000000000E+00
 0.0000000000000E+00
 0.0000000000000E+00
 0.0000000000000E+00
 0.0000000000000E+00
 0.0000000000000E+00
 0.0000000000000E+00
 0.0000000000000E+00
 0.0000000000000E+00
 0.0000000000000E+00
 0.0000000000000E+00
 0.0000000000000E+00
 0.0000000000000E+00
 0.0000000000000E+00
 0.0000000000000E+00
 0.0000000000000E+00
 0.0000000000000E+00
 0.0000000000000E+00
 0.0000000000000E+00
 0.0000000000000E+00
 0.0000000000000E+00
 0.0000000000000E+00
 0.0000000000000E+00
 0.0000000000000E+00
 0.0000000000000E+00
 0.0000000000000E+00
 0.0000000000000E+00
 0.0000000000000E+00
 0.0000000000000E+00
 0.0000000000000E+00
 0.0000000000000E+00
 0.0000000000000E+00
 0.0000000000000E+00
 0.0000000000000E+00
 0.0000000000000E+00
 0.0000000000000E+00
 0.0000000000000E+00
 0.0000000000000E+00
 0.0000000000000E+00
 0.0000000000000E+00
 0.0000000000000E+00
 0.0000000000000E+00
 0.0000000000000E+00
 0.0000000000000E+00
 0.0000000000000E+00
 0.0000000000000E+00
 0.0000000000000E+00
 0.0000000000000E+00
 0.0000000000000E+00
 0.0000000000000E+00
 0.0000000000000E+00
 0.0000000000000E+00
 0.0000000000000E+00
 0.0000000000000E+00
 0.0000000000000E+00
 0.0000000000000E+00
 0.0000000000000E+00
 0.0000000000000E+00
 0.0000000000000E+00
 0.0000000000000E+00
 0.0000000000000E+00
 0.0000000000000E+00
 0.0000000000000E+00
 0.0000000000000E+00
 0.0000000000000E+00
 0.0000000000000E+00
 0.0000000000000E+00
 0.0000000000000E+00
 0.0000000000000E+00
 0.0000000000000E+00
 0.0000000000000E+00
 0.0000000000000E+00
 0.0000000000000E+00
 0.0000000000000E+00
 0.0000000000000E+00
 0.0000000000000E+00
 0.0000000000000E+00
 0.0000000000000E+00
 0.0000000000000E+00
 0.0000000000000E+00
 0.0000000000000E+00
 0.0000000000000E+00
 0.0000000000000E+00
 0.0000000000000E+00
 0.0000000000000E+00
 0.0000000000000E+00
 0.0000000000000E+00
 0.0000000000000E+00
 0.0000000000000E+00
 0.0000000000000E+00
 0.0000000000000E+00
 0.0000000000000E+00
 0.0000000000000E+00
 0.0000000000000E+00
 0.0000000000000E+00
 0.0000000000000E+00
 0.0000000000000E+00
 0.0000000000000E+00
 0.0000000000000E+00
 0.0000000000000E+00
 0.0000000000000E+00
 0.0000000000000E+00
 0.0000000000000E+00
 0.0000000000000E+00
 0.0000000000000E+00
 0.0000000000000E+00
 0.0000000000000E+00
 0.0000000000000E+00
 0.0000000000000E+00
 0.0000000000000E+00
 0.0000000000000E+00
 0.0000000000000E+00
 0.0000000000000E+00
 0.0000000000000E+00
 0.0000000000000E+00
 0.0000000000000E+00
 0.0000000000000E+00
 0.0000000000000E+00
 0.0000000000000E+00
 0.0000000000000E+00
 0.0000000000000E+00
 0.0000000000000E+00
 0.0000000000000E+00
 0.0000000000000E+00
 0.0000000000000E+00
 0.0000000000000E+00
 0.0000000000000E+00
 0.0000000000000E+00
 0.0000000000000E+00
 0.0000000000000E+00
 0.0000000000000E+00
 0.0000000000000E+00
 0.0000000000000E+00
 0.0000000000000E+00
 0.0000000000000E+00
 0.0000000000000E+00
 0.0000000000000E+00
 0.0000000000000E+00
 0.0000000000000E+00
 0.0000000000000E+00
 0.0000000000000E+00
 0.0000000000000E+00
 0.0000000000000E+00
 0.0000000000000E+00
 0.0000000000000E+00
 0.0000000000000E+00
 0.0000000000000E+00
 0.0000000000000E+00
 0.0000000000000E+00
 0.0000000000000E+00
 0.0000000000000E+00
 0.0000000000000E+00
 0.0000000000000E+00
 0.0000000000000E+00
 0.0000000000000E+00
 0.0000000000000E+00
 0.0000000000000E+00
 0.0000000000000E+00
 0.0000000000000E+00
 0.0000000000000E+00
 0.0000000000000E+00
 0.0000000000000E+00
 0.0000000000000E+00
 0.0000000000000E+00
 0.0000000000000E+00
 0.0000000000000E+00
 0.0000000000000E+00
 0.0000000000000E+00
 0.0000000000000E+00
 0.0000000000000E+00
 0.0000000000000E+00
 0.0000000000000E+00
 0.0000000000000E+00
 0.0000000000000E+00
 0.0000000000000E+00
 0.0000000000000E+00
 0.0000000000000E+00
 0.0000000000000E+00
 0.0000000000000E+00
 0.0000000000000E+00
 0.0000000000000E+00
 0.0000000000000E+00
 0.0000000000000E+00
 0.0000000000000E+00
 0.0000000000000E+00
 0.0000000000000E+00
 0.0000000000000E+00
 0.0000000000000E+00
 0.0000000000000E+00
 0.0000000000000E+00
 0.0000000000000E+00
 0.0000000000000E+00
 0.0000000000000E+00
 0.0000000000000E+00
 0.0000000000000E+00
 0.0000000000000E+00
 0.0000000000000E+00
 0.0000000000000E+00
 0.0000000000000E+00
 0.0000000000000E+00
 0.0000000000000E+00
 0.0000000000000E+00
 0.0000000000000E+00
 0.0000000000000E+00
 0.0000000000000E+00
 0.0000000000000E+00
 0.0000000000000E+00
 0.0000000000000E+00
 0.0000000000000E+00
 0.0000000000000E+00
 0.0000000000000E+00
 0.0000000000000E+00
 0.0000000000000E+00
 0.0000000000000E+00
 0.0000000000000E+00
 0.0000000000000E+00
 0.0000000000000E+00
 0.0000000000000E+00
 0.0000000000000E+00
 0.0000000000000E+00
 0.0000000000000E+00
 0.0000000000000E+00
 0.0000000000000E+00
 0.0000000000000E+00
 0.0000000000000E+00
 0.0000000000000E+00
 0.0000000000000E+00
 0.0000000000000E+00
 0.0000000000000E+00
 0.0000000000000E+00
 0.0000000000000E+00
 0.0000000000000E+00
 0.0000000000000E+00
 0.0000000000000E+00
 0.0000000000000E+00
 0.0000000000000E+00
 0.0000000000000E+00
 0.0000000000000E+00
 0.0000000000000E+00
 0.0000000000000E+00
 0.0000000000000E+00
 0.0000000000000E+00
 0.0000000000000E+00
 0.0000000000000E+00
 0.0000000000000E+00
 0.0000000000000E+00
 0.0000000000000E+00
 0.0000000000000E+00
 0.0000000000000E+00
 0.0000000000000E+00
 0.0000000000000E+00
 0.0000000000000E+00
 0.0000000000000E+00
 0.0000000000000E+00
 0.0000000000000E+00
 0.0000000000000E+00
 0.0000000000000E+00
 0.0000000000000E+00
 0.0000000000000E+00
 0.0000000000000E+00
 0.0000000000000E+00
 0.0000000000000E+00
 0.0000000000000E+00
 0.0000000000000E+00
 0.0000000000000E+00
 0.0000000000000E+00
 0.0000000000000E+00
 0.0000000000000E+00
 0.0000000000000E+00
 0.0000000000000E+00
 0.0000000000000E+00
 0.0000000000000E+00
 0.0000000000000E+00
 0.0000000000000E+00
 0.0000000000000E+00
 0.0000000000000E+00
 0.0000000000000E+00
 0.0000000000000E+00
 0.0000000000000E+00
 0.0000000000000E+00
 0.0000000000000E+00
 0.0000000000000E+00
 0.0000000000000E+00
 0.0000000000000E+00
 0.0000000000000E+00
 0.0000000000000E+00
 0.0000000000000E+00
 0.0000000000000E+00
 0.0000000000000E+00
 0.0000000000000E+00
 0.0000000000000E+00
 0.0000000000000E+00
 0.0000000000000E+00
 0.0000000000000E+00
 0.0000000000000E+00
 0.0000000000000E+00
 0.0000000000000E+00
 0.0000000000000E+00
 0.0000000000000E+00
 0.0000000000000E+00
 0.0000000000000E+00
 0.0000000000000E+00
 0.0000000000000E+00
 0.0000000000000E+00
 0.0000000000000E+00
 0.0000000000000E+00
 0.0000000000000E+00
 0.0000000000000E+00
 0.0000000000000E+00
 0.0000000000000E+00
 0.0000000000000E+00
 0.0000000000000E+00
 0.0000000000000E+00
 0.0000000000000E+00
 0.0000000000000E+00
 0.0000000000000E+00
 0.0000000000000E+00
 0.0000000000000E+00
 0.0000000000000E+00
 0.0000000000000E+00
 0.0000000000000E+00
 0.0000000000000E+00
 0.0000000000000E+00
 0.0000000000000E+00
 0.0000000000000E+00
 0.0000000000000E+00
 0.0000000000000E+00
 0.0000000000000E+00
 0.0000000000000E+00
 0.0000000000000E+00
 0.0000000000000E+00
 0.0000000000000E+00
 0.0000000000000E+00
 0.0000000000000E+00
 0.0000000000000E+00
 0.0000000000000E+00
 0.0000000000000E+00
 0.0000000000000E+00
 0.0000000000000E+00
 0.0000000000000E+00
 0.0000000000000E+00
 0.0000000000000E+00
 0.0000000000000E+00
 0.0000000000000E+00
 0.0000000000000E+00
 0.0000000000000E+00
 0.0000000000000E+00
 0.0000000000000E+00
 0.0000000000000E+00
 0.0000000000000E+00
 0.0000000000000E+00
 0.0000000000000E+00
 0.0000000000000E+00
 0.0000000000000E+00
 0.0000000000000E+00
 0.0000000000000E+00
 0.0000000000000E+00
 0.0000000000000E+00
 0.0000000000000E+00
 0.0000000000000E+00
 0.0000000000000E+00
 0.0000000000000E+00
 0.0000000000000E+00
 0.0000000000000E+00
 0.0000000000000E+00
 0.0000000000000E+00
 0.0000000000000E+00
 0.0000000000000E+00
 0.0000000000000E+00
 0.0000000000000E+00
 0.0000000000000E+00
 0.0000000000000E+00
 0.0000000000000E+00
 0.0000000000000E+00
 0.0000000000000E+00
 0.0000000000000E+00
 0.0000000000000E+00
 0.0000000000000E+00
 0.0000000000000E+00
 0.0000000000000E+00
 0.0000000000000E+00
 0.0000000000000E+00
 0.0000000000000E+00
 0.0000000000000E+00
 0.0000000000000E+00
 0.0000000000000E+00
 0.0000000000000E+00
 0.0000000000000E+00
 0.0000000000000E+00
 0.0000000000000E+00
 0.0000000000000E+00
 0.0000000000000E+00
 0.0000000000000E+00
 0.0000000000000E+00
 0.0000000000000E+00
 0.0000000000000E+00
 0.0000000000000E+00
 0.0000000000000E+00
 0.0000000000000E+00
 0.0000000000000E+00
 0.0000000000000E+00
 0.0000000000000E+00
 0.0000000000000E+00
 0.0000000000000E+00
 0.0000000000000E+00
 0.0000000000000E+00
 0.0000000000000E+00
 0.0000000000000E+00
 0.0000000000000E+00
 0.0000000000000E+00
 0.0000000000000E+00
 0.0000000000000E+00
 0.0000000000000E+00
 0.0000000000000E+00
 0.0000000000000E+00
 0.0000000000000E+00
 0.0000000000000E+00
 0.0000000000000E+00
 0.0000000000000E+00
 0.0000000000000E+00
 0.0000000000000E+00
 0.0000000000000E+00
 0.0000000000000E+00
 0.0000000000000E+00
 0.0000000000000E+00
 0.0000000000000E+00
 0.0000000000000E+00
 0.0000000000000E+00
 0.0000000000000E+00
 0.0000000000000E+00
 0.0000000000000E+00
 0.0000000000000E+00
 0.0000000000000E+00
 0.0000000000000E+00
 0.0000000000000E+00
 0.0000000000000E+00
 0.0000000000000E+00
 0.0000000000000E+00
 0.0000000000000E+00
 0.0000000000000E+00
 0.0000000000000E+00
 0.0000000000000E+00
 0.0000000000000E+00
 0.0000000000000E+00
 0.0000000000000E+00
 0.0000000000000E+00
 0.0000000000000E+00
 0.0000000000000E+00
 0.0000000000000E+00
 0.0000000000000E+00
 0.0000000000000E+00
 0.0000000000000E+00
 0.0000000000000E+00
 0.0000000000000E+00
 0.0000000000000E+00
 0.0000000000000E+00
 0.0000000000000E+00
 0.0000000000000E+00
 0.0000000000000E+00
 0.0000000000000E+00
 0.0000000000000E+00
 0.0000000000000E+00
 0.0000000000000E+00
 0.0000000000000E+00
 0.0000000000000E+00
 0.0000000000000E+00
 0.0000000000000E+00
 0.0000000000000E+00
 0.0000000000000E+00
 0.0000000000000E+00
 0.0000000000000E+00
 0.0000000000000E+00
 0.0000000000000E+00
 0.0000000000000E+00
 0.0000000000000E+00
 0.0000000000000E+00
 0.0000000000000E+00
 0.0000000000000E+00
 0.0000000000000E+00
 0.0000000000000E+00
 0.0000000000000E+00
 0.0000000000000E+00
 0.0000000000000E+00
 0.0000000000000E+00
 0.0000000000000E+00
</DataArray>
<DataArray type="Int32" Name="Region" format="ascii">
           1
           1
           1
           1
           1
           1
           1
           1
           1
           1
           1
           1
           1
           1
           1
           1
           1
           1
           1
           1
           1
           1
           1
           1
           1
           1
           1
           1
           1
           1
           1
           1
           1
           1
           1
           1
           1
           1
           1
           1
           1
           1
           1
           1
           1
           1
           1
           1
           1
           1
           1
           1
           1
           1
           1
           1
           1
           1
           1
           1
           1
           1
           1
           1
           1
           1
           1
           1
           1
           1
           1
           1
           1
           1
           1
           1
           1
           1
           1
           1
           1
           1
           1
           1
           1
           1
           1
           1
           1
           1
           1
           1
           1
           1
           1
           1
           1
           1
           1
           1
           1
           1
           1
           1
           1
           1
           1
           1
           1
           1
           1
           1
           1
           1
           1
           1
           1
           1
           1
           1
           1
           1
           1
           1
           1
           1
           1
           1
           1
           1
           1
           1
           1
           1
           1
           1
           1
           1
           1
           1
           1
           1
           1
           1
           1
           1
           1
           1
           1
           1
           1
           1
           1
           1
           1
           1
           1
           1
           1
           1
           1
           1
           1
           1
           1
           1
           1
           1
           1
           1
           1
           1
           1
           1
           1
           1
           1
           1
           1
           1
           1
           1
           1
           1
           1
           1
           1
           1
           1
           1
           1
           1
           1
           1
           1
           1
           1
           1
           1
           1
           1
           1
           1
           1
           1
           1
           1
           1
           1
           1
           1
           1
           1
           1
           1
           1
           1
           1
           1
           1
           1
           1
           1
           1
           1
           1
           1
           1
           1
           1
           1
           1
           1
           1
           1
           1
           1
           1
           1
           1
           1
           1
           1
           1
           1
           1
           1
           1
           1
           1
           1
           1
           1
           1
           1
           1
           1
           1
           1
           1
           1
           1
           1
           1
           1
           1
           1
           1
           1
           1
           1
           1
           1
           1
           1
           1
           1
           1
           1
           1
           1
           1
           1
           1
           1
           1
           1
           1
           1
           1
           1
           1
           1
           1
           1
           1
           1
           1
           1
           1
           1
           1
           1
           1
           1
           1
           1
           1
           1
           1
           1
           1
           1
           1
           1
           1
           1
           1
           1
           1
           1
           1
           1
           1
           1
           1
           1
           1
           1
           1
           1
           1
           1
           1
           1
           1
           1
           1
           1
           1
           1
           1
           1
           1
           1
           1
           1
           1
           1
           1
           1
           1
           1
           1
           1
           1
           1
           1
           1
           1
           1
           1
           1
           1
           1
           1
           1
           1
           1
           1
           1
           1
           1
           1
           1
           1
           1
           1
           1
           1
           1
           1
           1
           1
           1
           1
           1
           1
           1
           1
           1
           1
           1
           1
           1
           1
           1
           1
           1
           1
           1
           1
           1
           1
           1
           1
           1
           1
           1
           1
           1
           1
           1
           1
           1
           1
           1
           1
           1
           1
           1
           1
           1
           1
           1
           1
           1
           1
           1
           1
           1
           1
           1
           1
           1
           1
           1
           1
           1
           1
           1
           1
           1
           1
           1
           1
           1
           1
           1
           1
           1
           1
           1
           1
           1
           1
           1
           1
           1
           1
           1
           1
           1
           1
           1
           1
           1
           1
           1
           1
           1
           1
           1
           1
           1
           1
           1
           1
           1
           1
           1
           1
           1
           1
           1
           1
           1
           1
           1
           1
           1
           1
           1
           1
           1
           1
           1
           1
           1
           1
           1
           1
           1
           1
           1
           1
           1
           1
           1
           1
           1
           1
           1
           1
           1
           1
           1
           1
           1
           1
           1
           1
           1
           1
           1
           1
           1
           1
           1
           1
           1
           1
           1
           1
           1
           1
           1
           1
           1
           1
           1
           1
           1
           1
           1
           1
           1
           1
           1
           1
           1
           1
           1
           1
           1
           1
           1
           1
           1
           1
           1
           1
           1
           1
           1
           1
           1
           1
           1
           1
           1
           1
           1
           1
           1
           1
           1
           1
           1
           1
           1
           1
           1
           1
           1
           1
           1
           1
           1
           1
           1
           1
           1
           1
           1
           1
           1
           1
           1
           1
           1
           1
           1
           1
           1
           1
           1
           1
           1
           1
           1
           1
           1
           1
           1
           1
           1
           1
           1
           1
           1
           1
           1
           1
           1
           1
           1
           1
           1
           1
           1
           1
           1
           1
           1
           1
           1
           1
           1
           1
           1
           1
           1
           1
           1
           1
           1
           1
           1
           1
           1
           1
           1
           1
           1
           1
           1
           1
           1
           1
           1
           1
           1
           1
           1
           1
           1
           1
           1
           1
           1
           1
           1
           1
           1
           1
           1
           1
           1
           1
           1
           1
           1
           1
           1
           1
           1
           1
           1
           1
           1
           1
           1
           1
           1
           1
           1
           1
           1
           1
           1
           1
           1
           1
           1
           1
           1
           1
           1
           1
           1
           1
           1
           1
           1
           1
           1
           1
           1
           1
           1
           1
           1
           1
           1
           1
           1
           1
           1
           1
           1
           1
           1
           1
           1
           1
           1
           1
           1
           1
           1
           1
           1
           1
           1
           1
           1
           1
           1
           1
           1
           1
           1
           1
           1
           1
           1
           1
           1
           1
           1
           1
           1
           1
           1
           1
           1
           1
           1
           1
           1
           1
           1
           1
           1
           1
           1
           1
           1
           1
           1
           1
           1
           1
           1
           1
           1
           1
           1
           1
           1
           1
           1
           1
           1
           1
           1
           1
           1
           1
           1
           1
           1
           1
           1
           1
           1
           1
           1
           1
           1
           1
           1
           1
           1
           1
           1
           1
           1
           1
           1
           1
           1
           1
           1
           1
           1
           1
           1
           1
           1
           1
           1
           1
           1
           1
           1
           1
           1
           1
           1
           1
           1
           1
           1
           1
           1
           1
           1
           1
           1
           1
           1
           1
           1
           1
           1
           1
           1
           1
           1
           1
           1
           1
           1
           1
           1
           1
           1
           1
           1
           1
           1
           1
           1
           1
           1
           1
           1
           1
           1
           1
           1
           1
           1
           1
           1
           1
           1
           1
           1
           1
           1
           1
           1
           1
           1
           1
           1
           1
           1
           1
           1
           1
           1
           1
           1
           1
           1
           1
           1
           1
           1
           1
           1
           1
           1
           1
           1
           1
           1
           1
           1
           1
           1
           1
           1
           1
           1
           1
           1
           1
           1
           1
           1
           1
           1
           1
           1
           1
           1
           1
           1
           1
           1
           1
           1
           1
           1
           1
           1
           1
           1
           1
           1
           1
           1
           1
           1
           1
           1
           1
           1
           1
           1
           1
           1
           1
           1
           1
           1
           1
           1
           1
           1
           1
           1
           1
           1
           1
           1
           1
           1
           1
           1
           1
           1
           1
           1
           1
           1
           1
           1
           1
           1
           1
           1
           1
           1
           1
           1
           1
           1
           1
           1
           1
           1
           1
           1
           1
           1
           1
           1
           1
           1
           1
           1
           1
           1
           1
           1
           1
           1
           1
           1
           1
           1
           1
           1
           1
           1
           1
           1
           1
           1
           1
           1
           1
           1
           1
           1
           1
           1
           1
           1
           1
           1
           1
           1
           1
           1
           1
           1
           1
           1
           1
           1
           1
           1
           1
           1
           1
           1
           1
           1
           1
           1
           1
           1
           1
           1
           1
           1
           1
           1
           1
           1
           1
           1
           1
           1
           1
           1
           1
           1
           1
           1
           1
           1
           1
           1
           1
           1
           1
           1
           1
           1
           1
           1
           1
           1
           1
           1
           1
           1
           1
           1
           1
           1
           1
           1
           1
           1
           1
           1
           1
           1
           1
           1
           1
           1
           1
           1
           1
           1
           1
           1
           1
           1
           1
           1
           1
           1
           1
           1
           1
           1
           1
           1
           1
           1
           1
           1
           1
           1
           1
           1
           1
           1
           1
           1
           1
           1
           1
           1
           1
           1
           1
           1
           1
           1
           1
           1
           1
           1
           1
           1
           1
           1
           1
           1
           1
           1
           1
           1
           1
           1
           1
           1
           1
           1
           1
           1
           1
           1
           1
           1
           1
           1
           1
           1
           1
           1
           1
           1
           1
           1
           1
           1
           1
           1
           1
           1
           1
           1
           1
           1
           1
           1
           1
           1
           1
           1
           1
           1
           1
           1
           1
           1
           1
           1
           1
           1
           1
           1
           1
           1
           1
           1
           1
           1
           1
           1
           1
           1
           1
           1
           1
           1
           1
           1
           1
           1
           1
           1
           1
           1
           1
           1
           1
           1
           1
           1
           1
           1
           1
           1
           1
           1
           1
           1
           1
           1
           1
           1
           1
           1
           1
           1
           1
           1
           1
           1
           1
           1
           1
           1
           1
           1
           1
           1
           1
           1
           1
           1
           1
           1
           1
           1
           1
           1
           1
           1
           1
           1
           1
           1
           1
           1
           1
           1
           1
           1
           1
           1
           1
           1
           1
           1
           1
           1
           1
           1
           1
           1
           1
           1
           1
           1
           1
           1
           1
           1
           1
           1
           1
           1
           1
           1
           1
           1
           1
           1
           1
           1
           1
           1
           1
           1
           1
           1
           1
           1
           1
           1
           1
           1
           1
           1
           1
           1
           1
           1
           1
           1
           1
           1
           1
           1
           1
           1
           1
           1
           1
           1
           1
           1
           1
           1
           1
           1
           1
           1
           1
           1
           1
           1
           1
           1
           1
           1
           1
           1
           1
           1
           1
           1
           1
           1
           1
           1
           1
           1
           1
           1
           1
           1
           1
           1
           1
           1
           1
           1
           1
           1
           1
           1
           1
           1
           1
           1
           1
           1
           1
           1
           1
           1
           1
           1
           1
           1
           1
           1
           1
           1
           1
           1
           1
           1
           1
           1
           1
           1
           1
           1
           1
           1
           1
           1
           1
           1
           1
           1
           1
           1
           1
           1
           1
           1
           1
           1
           1
           1
           1
           1
           1
           1
           1
           1
           1
           1
           1
           1
           1
           1
           1
           1
           1
           1
           1
           1
           1
           1
           1
           1
           1
           1
           1
           1
           1
           1
           1
           1
           1
           1
           1
           1
           1
           1
           1
           1
           1
           1
           1
           1
           1
           1
           1
           1
           1
           1
           1
           1
           1
           1
           1
           1
           1
           1
           1
           1
           1
           1
           1
           1
           1
           1
           1
           1
           1
           1
           1
           1
           1
           1
           1
           1
           1
           1
           1
           1
           1
           1
           1
           1
           1
           1
           1
           1
           1
           1
           1
           1
           1
           1
           1
           1
           1
           1
           1
           1
           1
           1
           1
           1
           1
           1
           1
           1
           1
           1
           1
           1
           1
           1
           1
           1
           1
           1
           1
           1
           1
           1
           1
           1
           1
           1
           1
           1
           1
           1
           1
           1
           1
           1
           1
           1
           1
           1
           1
           1
           1
           1
           1
           1
           1
           1
           1
           1
           1
           1
           1
           1
           1
           1
           1
           1
           1
           1
           1
           1
           1
           1
           1
           1
           1
           1
           1
           1
           1
           1
           1
           1
           1
           1
           1
           1
           1
           1
           1
           1
           1
           1
           1
           1
           1
           1
           1
           1
           1
           1
           1
           1
           1
           1
           1
           1
           1
           1
           1
           1
           1
           1
           1
           1
           1
           1
           1
           1
           1
           1
           1
           1
           1
           1
           1
           1
           1
           1
           1
           1
           1
           1
           1
           1
           1
           1
           1
           1
           1
           1
           1
           1
           1
           1
           1
           1
           1
           1
           1
           1
           1
           1
           1
           1
           1
           1
           1
           1
           1
           1
           1
           1
           1
           1
           1
           1
           1
           1
           1
           1
           1
           1
           1
           1
           1
           1
           1
           1
           1
           1
           1
           1
           1
           1
           1
           1
           1
           1
           1
           1
           1
           1
           1
           1
           1
           1
           1
           1
           1
           1
           1
           1
           1
           1
           1
           1
           1
           1
           1
           1
           1
           1
           1
           1
           1
           1
           1
           1
           1
           1
           1
           1
           1
           1
           1
           1
           1
           1
           1
           1
           1
           1
           1
           1
           1
           1
           1
           1
           1
           1
           1
           1
           1
           1
           1
           1
           1
           1
           1
           1
           1
           1
           1
           1
           1
           1
           1
           1
           1
           1
           1
           1
           1
           1
           1
           1
           1
           1
           1
           1
           1
           1
           1
           1
           1
           1
           1
           1
           1
           1
           1
           1
           1
           1
           1
           1
           1
           1
           1
           1
           1
           1
           1
           1
           1
           1
           1
           1
           1
           1
           1
           1
           1
           1
           1
           1
           1
           1
           1
           1
           1
           1
           1
           1
           1
           1
           1
           1
           1
           1
           1
           1
           1
           1
           1
           1
           1
           1
           1
           1
           1
           1
           1
           1
           1
           1
           1
           1
           1
           1
           1
           1
           1
           1
           1
           1
           1
           1
           1
           1
           1
           1
           1
           1
           1
           1
           1
           1
           1
           1
           1
           1
           1
           1
           1
           1
           1
           1
           1
           1
           1
           1
           1
           1
           1
           1
           1
           1
           1
           1
           1
           1
           1
           1
           1
           1
           1
           1
           1
           1
           1
           1
           1
           1
           1
           1
           1
           1
           1
           1
           1
           1
           1
           1
           1
           1
           1
           1
           1
           1
           1
           1
           1
           1
           1
           1
           1
           1
           1
           1
           1
           1
           1
           1
           1
           1
           1
           1
           1
           1
           1
           1
           1
           1
           1
           1
           1
           1
           1
           1
           1
           1
           1
           1
           1
           1
           1
           1
           1
           1
           1
           1
           1
           1
           1
           1
           1
           1
           1
           1
           1
           1
           1
           1
           1
           1
           1
           1
           1
           1
           1
           1
           1
           1
           1
           1
           1
           1
           1
           1
           1
           1
           1
           1
           1
           1
           1
           1
           1
           1
           1
           1
           1
           1
           1
           1
           1
           1
           1
           1
           1
           1
           1
           1
           1
           1
           1
           1
           1
           1
           1
           1
           1
           1
           1
           1
           1
           1
           1
           1
           1
           1
           1
           1
           1
           1
           1
           1
           1
           1
           1
           1
           1
           1
           1
           1
           1
           1
           1
           1
           1
           1
           1
           1
           1
           1
           1
           1
           1
           1
           1
           1
           1
           1
           1
           1
           1
           1
           1
           1
           1
           1
           1
           1
           1
           1
           1
           1
           1
           1
           1
           1
           1
           1
           1
           1
           1
           1
           1
           1
           1
           1
           1
           1
           1
           1
           1
           1
           1
           1
           1
           1
           1
           1
           1
           1
           1
           1
           1
           1
           1
           1
           1
           1
           1
           1
           1
           1
           1
           1
           1
           1
           1
           1
           1
           1
           1
           1
           1
           1
           1
           1
           1
           1
           1
           1
           1
           1
           1
           1
           1
           1
           1
           1
           1
           1
           1
           1
           1
           1
           1
           1
           1
           1
           1
           1
           1
           1
           1
           1
           1
           1
           1
           1
           1
           1
           1
           1
           1
           1
           1
           1
           1
           1
           1
           1
           1
           1
           1
           1
           1
           1
           1
           1
           1
           1
           1
           1
           1
           1
           1
           1
           1
           1
           1
           1
           1
           1
           1
           1
           1
           1
           1
           1
           1
           1
           1
           1
           1
           1
           1
           1
           1
           1
           1
           1
           1
           1
           1
           1
           1
           1
           1
           1
           1
           1
           1
           1
           1
           1
           1
           1
           1
           1
           1
           1
           1
           1
           1
           1
           1
           1
           1
           1
           1
           1
           1
           1
           1
           1
           1
           1
           1
           1
           1
           1
           1
           1
           1
           1
           1
           1
           1
           1
           1
           1
           1
           1
           1
           1
           1
           1
           1
           1
           1
           1
           1
           1
           1
           1
           1
           1
           1
           1
           1
           1
           1
           1
           1
           1
           1
           1
           1
           1
           1
           1
           1
           1
           1
           1
           1
           1
           1
           1
           1
           1
           1
           1
           1
           1
           1
           1
           1
           1
           1
           1
           1
           1
           1
           1
           1
           1
           1
           1
           1
           1
           1
           1
           1
           1
           1
           1
           1
           1
           1
           1
           1
           1
           1
           1
           1
           1
           1
           1
           1
           1
           1
           1
           1
           1
           1
           1
           1
           1
           1
           1
           1
           1
           1
           1
           1
           1
           1
           1
           1
           1
           1
           1
           1
           1
           1
           1
           1
           1
           1
           1
           1
           1
           1
           1
           1
           1
           1
           1
           1
           1
           1
           1
           1
           1
           1
           1
           1
           1
           1
           1
           1
           1
           1
           1
           1
           1
           1
           1
           1
           1
           1
           1
           1
           1
           1
           1
           1
           1
           1
           1
           1
           1
           1
           1
           1
           1
           1
           1
           1
           1
           1
           1
           1
           1
           1
           1
           1
           1
           1
           1
           1
           1
           1
           1
           1
           1
           1
           1
           1
           1
           1
           1
           1
           1
           1
           1
           1
           1
           1
           1
           1
           1
           1
           1
           1
           1
           1
           1
           1
           1
           1
           1
           1
           1
           1
           1
           1
           1
           1
           1
           1
           1
           1
           1
           1
           1
           1
           1
           1
           1
           1
           1
           1
           1
           1
           1
           1
           1
           1
           1
           1
           1
           1
           1
           1
           1
           1
           1
           1
           1
           1
           1
           1
           1
           1
           1
           1
           1
           1
           1
           1
           1
           1
           1
           1
           1
           1
           1
           1
           1
           1
           1
           1
           1
           1
           1
           1
           1
           1
           1
           1
           1
           1
           1
           1
           1
           1
           1
           1
           1
           1
           1
           1
           1
           1
           1
           1
           1
           1
           1
           1
           1
           1
           1
           1
           1
           1
           1
           1
           1
           1
           1
           1
           1
           1
           1
           1
           1
           1
           1
           1
           1
           1
           1
           1
           1
           1
           1
           1
           1
           1
           1
           1
           1
           1
           1
           1
           1
           1
           1
           1
           1
           1
           1
           1
           1
           1
           1
           1
           1
           1
           1
           1
           1
           1
           1
           1
           1
           1
           1
           1
           1
           1
           1
           1
           1
           1
           1
           1
           1
           1
           1
           1
           1
           1
           1
           1
           1
           1
           1
           1
           1
           1
           1
           1
           1
           1
           1
           1
           1
           1
           1
           1
           1
           1
           1
           1
           1
           1
           1
           1
           1
           1
           1
           1
           1
           1
           1
           1
           1
           1
           1
           1
           1
           1
           1
           1
           1
           1
           1
           1
           1
           1
           1
           1
           1
           1
           1
           1
           1
           1
           1
           1
           1
           1
           1
           1
           1
           1
           1
           1
           1
           1
           1
           1
           1
           1
           1
           1
           1
           1
           1
           1
           1
           1
           1
           1
           1
           1
           1
           1
           1
           1
           1
           1
           1
           1
           1
           1
           1
           1
           1
           1
           1
           1
           1
           1
           1
           1
           1
           1
           1
           1
           1
           1
           1
           1
           1
           1
           1
           1
           1
           1
           1
           1
           1
           1
           1
           1
           1
           1
           1
           1
           1
           1
           1
           1
           1
           1
           1
           1
           1
           1
           1
           1
           1
           1
           1
           1
           1
           1
           1
           1
           1
           1
           1
           1
           1
           1
           1
           1
           1
           1
           1
           1
           1
           1
           1
           1
           1
           1
           1
           1
           1
           1
           1
           1
           1
           1
           1
           1
           1
           1
           1
           1
           1
           1
           1
           1
           1
           1
           1
           1
           1
           1
           1
           1
           1
           1
           1
           1
           1
           1
           1
           1
           1
           1
           1
           1
           1
           1
           1
           1
           1
           1
           1
           1
           1
           1
           1
           1
           1
           1
           1
           1
           1
           1
           1
           1
           1
           1
           1
           1
           1
           1
           1
           1
           1
           1
           1
           1
           1
           1
           1
           1
           1
           1
           1
           1
           1
           1
           1
           1
           1
           1
           1
           1
           1
           1
           1
           1
           1
           1
           1
           1
           1
           1
           1
           1
           1
           1
           1
           1
           1
           1
           1
           1
           1
           1
           1
           1
           1
           1
           1
           1
           1
           1
           1
           1
           1
           1
           1
           1
           1
           1
           1
           1
           1
           1
           1
           1
           1
           1
           1
           1
           1
           1
           1
           1
           1
           1
           1
           1
           1
           1
           1
           1
           1
           1
           1
           1
           1
           1
           1
           1
           1
           1
           1
           1
           1
           1
           1
           1
           1
           1
           1
           1
           1
           1
           1
           1
           1
           1
           1
           1
           1
           1
           1
           1
           1
           1
           1
           1
           1
           1
           1
           1
           1
           1
           1
           1
           1
           1
           1
           1
           1
           1
           1
           1
           1
           1
           1
           1
           1
           1
           1
           1
           1
           1
           1
           1
           1
           1
           1
           1
           1
           1
           1
           1
           1
           1
           1
           1
           1
           1
           1
           1
           1
           1
           1
           1
           1
           1
           1
           1
           1
           1
           1
           1
           1
           1
           1
           1
           1
           1
           1
           1
           1
           1
           1
           1
           1
           1
           1
           1
           1
           1
           1
           1
           1
           1
           1
           1
           1
           1
           1
           1
           1
           1
           1
           1
           1
           1
           1
           1
           1
           1
           1
           1
           1
           1
           1
           1
           1
           1
           1
           1
           1
           1
           1
           1
           1
           1
           1
           1
           1
           1
           1
           1
           1
           1
           1
           1
           1
           1
           1
           1
           1
           1
           1
           1
           1
           1
           1
           1
           1
           1
           1
           1
           1
           1
           1
           1
           1
           1
           1
           1
           1
           1
           1
           1
           1
           1
           1
           1
           1
           1
           1
           1
           1
           1
           1
           1
           1
           1
           1
           1
           1
           1
           1
           1
           1
           1
           1
           1
           1
           1
           1
           1
           1
           1
           1
           1
           1
           1
           1
           1
           1
           1
           1
           1
           1
           1
           1
           1
           1
           1
           1
           1
           1
           1
           1
           1
           1
           1
           1
           1
           1
           1
           1
           1
           1
           1
           1
           1
           1
           1
           1
           1
           1
           1
           1
           1
           1
           1
           1
           1
           1
           1
           1
           1
           1
           1
           1
           1
           1
           1
           1
           1
           1
           1
           1
           1
           1
           1
           1
           1
           1
           1
           1
           1
           1
           1
           1
           1
           1
           1
           1
           1
           1
           1
           1
           1
           1
           1
           1
           1
           1
           1
           1
           1
           1
           1
           2
           2
           2
           2
           2
           2
           2
           2
           2
           2
           2
           2
           2
           2
           2
           2
           2
           2
           2
           2
           2
           2
           2
           2
           2
           2
           2
           2
           2
           2
           2
           2
           2
           2
           2
           2
           2
           2
           2
           2
           2
           2
           2
           2
           2
           2
           2
           2
           2
           2
           2
           2
           2
           2
           2
           2
           2
           2
           2
           2
           2
           2
           2
           2
           2
           2
           2
           2
           2
           2
           2
           2
           2
           2
           2
           2
           2
           2
           2
           2
           2
           2
           2
           2
           2
           2
           2
           2
           2
           2
           2
           2
           2
           2
           2
           2
           2
           2
           2
           2
           2
           2
           2
           2
           2
           2
           2
           2
           2
           2
           2
           2
           2
           2
           2
           2
           2
           2
           2
           2
           2
           2
           2
           2
           2
           2
           2
           2
           2
           2
           2
           2
           2
           2
           2
           2
           2
           2
           2
           2
           2
           2
           2
           2
           2
           2
           2
           2
           2
           2
           2
           2
           2
           2
           2
           2
           2
           2
           2
           2
           2
           2
           2
           2
           2
           2
           2
           2
           2
           2
           2
           2
           2
           2
           2
           2
           2
           2
           2
           2
           2
           2
           2
           2
           2
           2
           2
           2
           2
           2
           2
           2
           2
           2
           2
           2
           2
           2
           2
           2
           2
           2
           2
           2
           2
           2
           2
           2
           2
           2
           2
           2
           2
           2
           2
           2
           2
           2
           2
           2
           2
           2
           2
           2
           2
           2
           2
           2
           2
           2
           2
           2
           2
           2
           2
           2
           2
           2
           2
           2
           2
           2
           2
           2
           2
           2
           2
           2
           2
           2
           2
           2
           2
           2
           2
           2
           2
           2
           2
           2
           2
           2
           2
           2
           2
           2
           2
           2
           2
           2
           2
           2
           2
           2
           2
           2
           2
           2
           2
           2
           2
           2
           2
           2
           2
           2
           2
           2
           2
           2
           2
           2
           2
           2
           2
           2
           2
           2
           2
           2
           2
           2
           2
           2
           2
           2
           2
           2
           2
           2
           2
           2
           2
           2
           2
           2
           2
           2
           2
           2
           2
           2
           2
           2
           2
           2
           2
           2
           2
           2
           2
           2
           2
           2
           2
           2
           2
           2
           2
           2
           2
           2
           2
           2
           2
           2
           2
           2
           2
           2
           2
           2
           2
           2
           2
           2
           2
           2
           2
           2
           2
           2
           2
           2
           2
           2
           2
           2
           2
           2
           2
           2
           2
           2
           2
           2
           2
           2
           2
           2
           2
           2
           2
           2
           2
           2
           2
           2
           2
           2
           2
           2
           2
           2
           2
           2
           2
           2
           2
           2
           2
           2
           2
           2
           2
           2
           2
           2
           2
           2
           2
           2
           2
           2
           2
           2
           2
           2
           2
           2
           2
           2
           2
           2
           2
           2
           2
           2
           2
           2
           2
           2
           2
           2
           2
           2
           2
           2
           2
           2
           2
           2
           2
           2
           2
           2
           2
           2
           2
           2
           2
           2
           2
           2
           2
           2
           2
           2
           2
           2
           2
           2
           2
           2
           2
           2
           2
           2
           2
           2
           2
           2
           2
           2
           2
           2
           2
           2
           2
           2
           2
           2
           2
           2
           2
           2
           2
           2
           2
           2
           2
           2
           2
           2
           2
           2
           2
           2
           2
           2
           2
           2
           2
           2
           2
           2
           2
           2
           2
           2
           2
           2
           2
           2
           2
           2
           2
           2
           2
           2
           2
           2
           2
           2
           2
           2
           2
           2
           2
           2
           2
           2
           2
           2
           2
           2
           2
           2
           2
           2
           2
           2
           2
           2
           2
           2
           2
           2
           2
           2
           2
           2
           2
           2
           2
           2
           2
           2
           2
           2
           2
           2
           2
           2
           2
           2
           2
           2
           2
           2
           2
           2
           2
           2
           2
           2
           2
           2
           2
           2
           2
           2
           2
           2
           2
           2
           2
           2
           2
           2
           2
           2
           2
           2
           2
           2
           2
           2
           2
           2
           2
           2
           2
           2
           2
           2
           2
           2
           2
           2
           2
           2
           2
           2
           2
           2
           2
           2
           2
           2
           2
           2
           2
           2
           2
           2
           2
           2
           2
           2
           2
           2
           2
           2
           2
           2
           2
           2
           2
           2
           2
           2
           2
           2
           2
           2
           2
           2
           2
           2
           2
           2
           2
           2
           2
           2
           2
           2
           2
           2
           2
           2
           2
           2
           2
           2
           2
           2
           2
           2
           2
           2
           2
           2
           2
           2
           2
           2
           2
           2
           2
           2
           2
           2
           2
           2
           2
           2
           2
           2
           2
           2
           2
           2
           2
           2
           2
           2
           2
           2
           2
           2
           2
           2
           2
           2
           2
           2
           2
           2
           2
           2
           2
           2
           2
           2
           2
           2
           2
           2
           2
           2
           2
           2
           2
           2
           2
           2
           2
           2
           2
           2
           2
           2
           2
           2
           2
           2
           2
           2
           2
           2
           2
           2
           2
           2
           2
           2
           2
           2
           2
           2
           2
           2
           2
           2
           2
           2
           2
           2
           2
           2
           2
           2
           2
           2
           2
           2
           2
           2
           2
           2
           2
           2
           2
           2
           2
           2
           2
           2
           2
           2
           2
           2
           2
           2
           2
           2
           2
           2
           2
           2
           2
           2
           2
           2
           2
           2
           2
           2
           2
           2
           2
           2
           2
           2
           2
           2
           2
           2
           2
           2
           2
           2
           2
           2
           2
           2
           2
           2
           2
           2
           2
           2
           2
           2
           2
           2
           2
           2
           2
           2
           2
           2
           2
           2
           2
           2
           2
           2
           2
           2
           2
           2
           2
           2
           2
           2
           2
           2
           2
           2
           2
           2
           2
           2
           2
           2
           2
           2
           2
           2
           2
           2
           2
           2
           2
           2
           2
           2
           2
           2
           2
           2
           2
           2
           2
           2
           2
           2
           2
           2
           2
           2
           2
           2
           2
           2
           2
           2
           2
           2
           2
           2
           2
           2
           2
           2
           2
           2
           2
           2
           2
           2
           2
           2
           2
           2
           2
           2
           2
           2
           2
           2
           2
           2
           2
           2
           2
           2
           2
           2
           2
           2
           2
           2
           2
           2
           2
           2
           2
           2
           2
           2
           2
           2
           2
           2
           2
           2
           2
           2
           2
           2
           2
           2
           2
           2
           2
           2
           2
           2
           2
           2
           2
           2
           2
           2
           2
           2
           2
           2
           2
           2
           2
           2
           2
           2
           2
           2
           2
           2
           2
           2
           2
           2
           2
           2
           2
           2
           2
           2
           2
           2
           2
           2
           2
           2
           2
           2
           2
           2
           2
           2
           2
           2
           2
           2
           2
           2
           2
           2
           2
           2
           2
           2
           2
           2
           2
           2
           2
           2
           2
           2
           2
           2
           2
           2
           2
           2
           2
           2
           2
           2
           2
           2
           2
           2
           2
           2
           2
           2
           2
           2
           2
           2
           2
           2
           2
           2
           2
           2
           2
           2
           2
           2
           2
           2
           2
           2
           2
           2
           2
           2
           2
           2
           2
           2
           2
           2
           2
           2
           2
           2
           2
           2
           2
           2
           2
           2
           2
           2
           2
           2
           2
           2
           2
           2
           2
           2
           2
           2
           2
           2
           2
           2
           2
           2
           2
           2
           2
           2
           2
           2
           2
           2
           2
           2
           2
           2
           2
           2
           2
           2
           2
           2
           2
           2
           2
           2
           2
           2
           2
           2
           2
           2
           2
           2
           2
           2
           2
           2
           2
           2
           2
           2
           2
           2
           2
           2
           2
           2
           2
           2
           2
           2
           2
           2
           2
           2
           2
           2
           2
           2
           2
           2
           2
           2
           2
           2
           2
           2
           2
           2
           2
           2
           2
           2
           2
           2
           2
           2
           2
           2
           2
           2
           2
           2
           2
           2
           2
           2
           2
           2
           2
           2
           2
           2
           2
           2
           2
           2
           2
           2
           2
           2
           2
           2
           2
           2
           2
           2
           2
           2
           2
           2
           2
           2
           2
           2
           2
           2
           2
           2
           2
           2
           2
           2
           2
           2
           2
           2
           2
           2
           2
           2
           2
           2
           2
           2
           2
           2
           2
           2
           2
           2
           2
           2
           2
           2
           2
           2
           2
           2
           2
           2
           2
           2
           2
           2
           2
           2
           2
           2
           2
           2
           2
           2
           2
           2
           2
           2
           2
           2
           2
           2
           2
           2
           2
           2
           2
           2
           2
           2
           2
           2
           2
           2
           2
           2
           2
           2
           2
           2
           2
           2
           2
           2
           2
           2
           2
           2
           2
           2
           2
           2
           2
           2
           2
           2
           2
           2
           2
           2
           2
           2
           2
           2
           2
           2
           2
           2
           2
           2
           2
           2
           2
           2
           2
           2
           2
           2
           2
           2
           2
           2
           2
           2
           2
           2
           2
           2
           2
           2
           2
           2
           2
           2
           2
           2
           2
           2
           2
           2
           2
           2
           2
           2
           2
           2
           2
           2
           2
           2
           2
           2
           2
           2
           2
           2
           2
           2
           2
           2
           2
           2
           2
           2
           2
           2
           2
           2
           2
           2
           2
           2
           2
           2
           2
           2
           2
           2
           2
           2
           2
           2
           2
           2
           2
           2
           2
           2
           2
           2
           2
           2
           2
           2
           2
           2
           2
           2
           2
           2
           2
           2
           2
           2
           2
           2
           2
           2
           2
           2
           2
           2
           2
           2
           2
           2
           2
           2
           2
           2
           2
           2
           2
           2
           2
           2
           2
           2
           2
           2
           2
           2
           2
           2
           2
           2
           2
           2
           2
           2
           2
           2
           2
           2
           2
           2
           2
           2
           2
           2
           2
           2
           2
           2
           2
           2
           2
           2
           2
           2
           2
           2
           2
           2
           2
           2
           2
           2
           2
           2
           2
           2
           2
           2
           2
           2
           2
           2
           2
           2
           2
           2
           2
           2
           2
           2
           2
           2
           2
           2
           2
           2
           2
           2
           2
           2
           2
           2
           2
           2
           2
           2
           2
           2
           2
           2
           2
           2
           2
           2
           2
           2
           2
           2
           2
           2
           2
           2
           2
           2
           2
           2
           2
           2
           2
           2
           2
           2
           2
           2
           2
           2
           2
           2
           2
           2
           2
           2
           2
           2
           2
           2
           2
           2
           2
           2
           2
           2
           2
           2
           2
           2
           2
           2
           2
           2
           2
           2
           2
           2
           2
           2
           2
           2
           2
           2
           2
           2
           2
           2
           2
           2
           2
           2
           2
           2
           2
           2
           2
           2
           2
           2
           2
           2
           2
           2
           2
           2
           2
           2
           2
           2
           2
           2
           2
           2
           2
           2
           2
           2
           2
           2
           2
           2
           2
           2
           2
           2
           2
           2
           2
           2
           2
           2
           2
           2
           2
           2
           2
           2
           2
           2
           2
           2
           2
           2
           2
           2
           2
           2
           2
           2
           2
           2
           2
           2
           2
           2
           2
           2
           2
           2
           2
           2
           2
           2
           2
           2
           2
           2
           2
           2
           2
           2
           2
           2
           2
           2
           2
           2
           2
           2
           2
           2
           2
           2
           2
           2
           2
           2
           2
           2
           2
           2
           2
           2
           2
           2
           2
           2
           2
           2
           2
           2
           2
           2
           2
           2
           2
           2
           2
           2
           2
           2
           2
           2
           2
           2
           2
           2
           2
           2
           2
           2
           2
           2
           2
           2
           2
           2
           2
           2
           2
           2
           2
           2
           2
           2
           2
           2
           2
           2
           2
           2
           2
           2
           2
           2
           2
           2
           2
           2
           2
           2
           2
           2
           2
           2
           2
           2
           2
           2
           2
           2
           2
           2
           2
           2
           2
           2
           2
           2
           2
           2
           2
           2
           2
           2
           2
           2
           2
           2
           2
           2
           2
           2
           2
           2
           2
           2
           2
           2
           2
           2
           2
           2
           2
           2
           2
           2
           2
           2
           2
           2
           2
           2
           2
           2
           2
           2
           2
           2
           2
           2
           2
           2
           2
           2
           2
           2
           2
           2
           2
           2
           2
           2
           2
           2
           2
           2
           2
           2
           2
           2
           2
           2
           2
           2
           2
           2
           2
           2
           2
           2
           2
           2
           2
           2
           2
           2
           2
           2
           2
           2
           2
           2
           2
           2
           2
           2
           2
           2
           2
           2
           2
           2
           2
           2
           2
           2
           2
           2
           2
           2
           2
           2
           2
           2
           2
           2
           2
           2
           2
           2
           2
           2
           2
           2
           2
           2
           2
           2
           2
           2
           2
           2
           2
           2
           2
           2
           2
           2
           2
           2
           2
           2
           2
           2
           2
           2
           2
           2
           2
           2
           2
           2
           2
           2
           2
           2
           2
           2
           2
           2
           2
           2
           2
           2
           2
           2
           2
           2
           2
           2
           2
           2
           2
           2
           2
           2
           2
           2
           2
           2
           2
           2
           2
           2
           2
           2
           2
           2
           2
           2
           2
           2
           2
           2
           2
           2
           2
           2
           2
           2
           2
           2
           2
           2
           2
           2
           2
           2
           2
           2
           2
           2
           2
           2
           2
           2
           2
           2
           2
           2
           2
           2
           2
           2
           2
           2
           2
           2
           2
           2
           2
           2
           2
           2
           2
           2
           2
           2
           2
           2
           2
           2
           2
           2
           2
           2
           2
           2
           2
           2
           2
           2
           2
           2
           2
           2
           2
           2
           2
           2
           2
           2
           2
           2
           2
           2
           2
           2
           2
           2
           2
           2
           2
           2
           2
           2
           2
           2
           2
           2
           2
           2
           2
           2
           2
           2
           2
           2
           2
           2
           2
           2
           2
           2
           2
           2
           2
           2
           2
           2
           2
           2
           2
           2
           2
           2
           2
           2
           2
           2
           2
           2
           2
           2
           2
           2
           2
           2
           2
           2
           2
           2
           2
           2
           2
           2
           2
           2
           2
           2
           2
           2
           2
           2
           2
           2
           2
           2
           2
           2
           2
           2
           2
           2
           2
           2
           2
           2
           2
           2
           2
           2
           2
           2
           2
           2
           2
           2
           2
           2
           2
           2
           2
           2
           2
           2
           2
           2
           2
           2
           2
           2
           2
           2
           2
           2
           2
           2
           2
           2
           2
           2
           2
           2
           2
           2
           2
           2
           2
           2
           2
           2
           2
           2
           2
           2
           2
           2
           2
           2
           2
           2
           2
           2
           2
           2
           2
           2
           2
           2
           2
           2
           2
           2
           2
           2
           2
           2
           2
           2
           2
           2
           2
           2
           2
           2
           2
           2
           2
           2
           2
           2
           2
           2
           2
           2
           2
           2
           2
           2
           2
           2
           2
           2
           2
           2
           2
           2
           2
           2
           2
           2
           2
           2
           2
           2
           2
           2
           2
           2
           2
           2
           2
           2
           2
           2
           2
           2
           2
           2
           2
           2
           2
           2
           2
           2
           2
           2
           2
           2
           2
           2
           2
           2
           2
           2
           2
           2
           2
           2
           2
           2
           2
           2
           2
           2
           2
           2
           2
           2
           2
           2
           2
           2
           2
           2
           2
           2
           2
           2
           2
           2
           2
           2
           2
           2
           2
           2
           2
           2
           2
           2
           2
           2
           2
           2
           2
           2
           2
           2
           2
           2
           2
           2
           2
           2
           2
           2
           2
           2
           2
           2
           2
           2
           2
           2
           2
           2
           2
           2
           2
           2
           2
           2
           2
           2
           2
           2
           2
           2
           2
           2
           2
           2
           2
           2
           2
           2
           2
           2
           2
           2
           2
           2
           2
           2
           2
           2
           2
           2
           2
           2
           2
           2
           2
           2
           2
           2
           2
           2
           2
           2
           2
           2
           2
           2
           2
           2
           2
           2
           2
           2
           2
           2
           2
           2
           2
           2
           2
           2
           2
           2
           2
           2
           2
           2
           2
           2
           2
           2
           2
           2
           2
           2
           2
           2
           2
           2
           2
           2
           2
           2
           2
           2
           2
           2
           2
           2
           2
           2
           2
           2
           2
           2
           2
           2
           2
           2
           2
           2
           2
           2
           2
           2
           2
           2
           2
           2
           2
           2
           2
           2
</DataArray>
</CellData>
</Piece>
</UnstructuredGrid>
</VTKFile>
