<VTKFile type="UnstructuredGrid" version="1,0" byte_order="LittleEndian">
<UnstructuredGrid>
<Piece NumberOfPoints="5802" NumberOfCells="5680">
<Points>
<DataArray type="Float64" NumberOfComponents="3" format="ascii">
-0.1100000000000E+01 -0.4304044648606E+01  0.0000000000000E+00
 0.0000000000000E+00 -0.4304044648606E+01  0.0000000000000E+00
 0.1100000000000E+01 -0.4304044648606E+01  0.0000000000000E+00
-0.1426338184892E+01 -0.1495137730994E+01  0.0000000000000E+00
-0.7131690856113E+00 -0.1351817918288E+01  0.0000000000000E+00
 0.7131690992823E+00 -0.1351817920119E+01  0.0000000000000E+00
 0.1426338184892E+01 -0.1495137730994E+01  0.0000000000000E+00
-0.1297471036855E+01  0.8924645033579E+00  0.0000000000000E+00
 0.1297471037589E+01  0.8924645030013E+00  0.0000000000000E+00
-0.7500000000000E+00  0.3449934570704E+00  0.0000000000000E+00
 0.7500000000000E+00  0.3449934570704E+00  0.0000000000000E+00
-0.1072500000000E+01 -0.4304044648606E+01  0.0000000000000E+00
-0.1045000000000E+01 -0.4304044648606E+01  0.0000000000000E+00
-0.1017500000000E+01 -0.4304044648606E+01  0.0000000000000E+00
-0.9900000000000E+00 -0.4304044648606E+01  0.0000000000000E+00
-0.9625000000000E+00 -0.4304044648606E+01  0.0000000000000E+00
-0.9350000000000E+00 -0.4304044648606E+01  0.0000000000000E+00
-0.9075000000000E+00 -0.4304044648606E+01  0.0000000000000E+00
-0.8800000000000E+00 -0.4304044648606E+01  0.0000000000000E+00
-0.8525000000000E+00 -0.4304044648606E+01  0.0000000000000E+00
-0.8250000000000E+00 -0.4304044648606E+01  0.0000000000000E+00
-0.7975000000000E+00 -0.4304044648606E+01  0.0000000000000E+00
-0.7700000000000E+00 -0.4304044648606E+01  0.0000000000000E+00
-0.7425000000000E+00 -0.4304044648606E+01  0.0000000000000E+00
-0.7150000000000E+00 -0.4304044648606E+01  0.0000000000000E+00
-0.6875000000000E+00 -0.4304044648606E+01  0.0000000000000E+00
-0.6600000000000E+00 -0.4304044648606E+01  0.0000000000000E+00
-0.6325000000000E+00 -0.4304044648606E+01  0.0000000000000E+00
-0.6050000000000E+00 -0.4304044648606E+01  0.0000000000000E+00
-0.5775000000000E+00 -0.4304044648606E+01  0.0000000000000E+00
-0.5500000000000E+00 -0.4304044648606E+01  0.0000000000000E+00
-0.5225000000000E+00 -0.4304044648606E+01  0.0000000000000E+00
-0.4950000000000E+00 -0.4304044648606E+01  0.0000000000000E+00
-0.4675000000000E+00 -0.4304044648606E+01  0.0000000000000E+00
-0.4400000000000E+00 -0.4304044648606E+01  0.0000000000000E+00
-0.4125000000000E+00 -0.4304044648606E+01  0.0000000000000E+00
-0.3850000000000E+00 -0.4304044648606E+01  0.0000000000000E+00
-0.3575000000000E+00 -0.4304044648606E+01  0.0000000000000E+00
-0.3300000000000E+00 -0.4304044648606E+01  0.0000000000000E+00
-0.3025000000000E+00 -0.4304044648606E+01  0.0000000000000E+00
-0.2750000000000E+00 -0.4304044648606E+01  0.0000000000000E+00
-0.2475000000000E+00 -0.4304044648606E+01  0.0000000000000E+00
-0.2200000000000E+00 -0.4304044648606E+01  0.0000000000000E+00
-0.1925000000000E+00 -0.4304044648606E+01  0.0000000000000E+00
-0.1650000000000E+00 -0.4304044648606E+01  0.0000000000000E+00
-0.1375000000000E+00 -0.4304044648606E+01  0.0000000000000E+00
-0.1100000000000E+00 -0.4304044648606E+01  0.0000000000000E+00
-0.8250000000000E-01 -0.4304044648606E+01  0.0000000000000E+00
-0.5500000000000E-01 -0.4304044648606E+01  0.0000000000000E+00
-0.2750000000000E-01 -0.4304044648606E+01  0.0000000000000E+00
 0.2750000000000E-01 -0.4304044648606E+01  0.0000000000000E+00
 0.5500000000000E-01 -0.4304044648606E+01  0.0000000000000E+00
 0.8250000000000E-01 -0.4304044648606E+01  0.0000000000000E+00
 0.1100000000000E+00 -0.4304044648606E+01  0.0000000000000E+00
 0.1375000000000E+00 -0.4304044648606E+01  0.0000000000000E+00
 0.1650000000000E+00 -0.4304044648606E+01  0.0000000000000E+00
 0.1925000000000E+00 -0.4304044648606E+01  0.0000000000000E+00
 0.2200000000000E+00 -0.4304044648606E+01  0.0000000000000E+00
 0.2475000000000E+00 -0.4304044648606E+01  0.0000000000000E+00
 0.2750000000000E+00 -0.4304044648606E+01  0.0000000000000E+00
 0.3025000000000E+00 -0.4304044648606E+01  0.0000000000000E+00
 0.3300000000000E+00 -0.4304044648606E+01  0.0000000000000E+00
 0.3575000000000E+00 -0.4304044648606E+01  0.0000000000000E+00
 0.3850000000000E+00 -0.4304044648606E+01  0.0000000000000E+00
 0.4125000000000E+00 -0.4304044648606E+01  0.0000000000000E+00
 0.4400000000000E+00 -0.4304044648606E+01  0.0000000000000E+00
 0.4675000000000E+00 -0.4304044648606E+01  0.0000000000000E+00
 0.4950000000000E+00 -0.4304044648606E+01  0.0000000000000E+00
 0.5225000000000E+00 -0.4304044648606E+01  0.0000000000000E+00
 0.5500000000000E+00 -0.4304044648606E+01  0.0000000000000E+00
 0.5775000000000E+00 -0.4304044648606E+01  0.0000000000000E+00
 0.6050000000000E+00 -0.4304044648606E+01  0.0000000000000E+00
 0.6325000000000E+00 -0.4304044648606E+01  0.0000000000000E+00
 0.6600000000000E+00 -0.4304044648606E+01  0.0000000000000E+00
 0.6875000000000E+00 -0.4304044648606E+01  0.0000000000000E+00
 0.7150000000000E+00 -0.4304044648606E+01  0.0000000000000E+00
 0.7425000000000E+00 -0.4304044648606E+01  0.0000000000000E+00
 0.7700000000000E+00 -0.4304044648606E+01  0.0000000000000E+00
 0.7975000000000E+00 -0.4304044648606E+01  0.0000000000000E+00
 0.8250000000000E+00 -0.4304044648606E+01  0.0000000000000E+00
 0.8525000000000E+00 -0.4304044648606E+01  0.0000000000000E+00
 0.8800000000000E+00 -0.4304044648606E+01  0.0000000000000E+00
 0.9075000000000E+00 -0.4304044648606E+01  0.0000000000000E+00
 0.9350000000000E+00 -0.4304044648606E+01  0.0000000000000E+00
 0.9625000000000E+00 -0.4304044648606E+01  0.0000000000000E+00
 0.9900000000000E+00 -0.4304044648606E+01  0.0000000000000E+00
 0.1017500000000E+01 -0.4304044648606E+01  0.0000000000000E+00
 0.1045000000000E+01 -0.4304044648606E+01  0.0000000000000E+00
 0.1072500000000E+01 -0.4304044648606E+01  0.0000000000000E+00
-0.1391152984612E+01 -0.1485826169004E+01  0.0000000000000E+00
-0.1355910848380E+01 -0.1476732672072E+01  0.0000000000000E+00
-0.1320612835817E+01 -0.1467858633912E+01  0.0000000000000E+00
-0.1285259981017E+01 -0.1459205415754E+01  0.0000000000000E+00
-0.1249853511796E+01 -0.1450774398559E+01  0.0000000000000E+00
-0.1214394584761E+01 -0.1442566916018E+01  0.0000000000000E+00
-0.1178884329493E+01 -0.1434584266595E+01  0.0000000000000E+00
-0.1143323993112E+01 -0.1426827745365E+01  0.0000000000000E+00
-0.1107714835036E+01 -0.1419298618073E+01  0.0000000000000E+00
-0.1072058114862E+01 -0.1411998118171E+01  0.0000000000000E+00
-0.1036355114016E+01 -0.1404927450906E+01  0.0000000000000E+00
-0.1000607103274E+01 -0.1398087786375E+01  0.0000000000000E+00
-0.9648154637952E+00 -0.1391480281711E+01  0.0000000000000E+00
-0.9289815514207E+00 -0.1385106053576E+01  0.0000000000000E+00
-0.8931067449032E+00 -0.1378966186997E+01  0.0000000000000E+00
-0.8571924453329E+00 -0.1373061734396E+01  0.0000000000000E+00
-0.8212400755349E+00 -0.1367393714636E+01  0.0000000000000E+00
-0.7852510794390E+00 -0.1361963112090E+01  0.0000000000000E+00
-0.7492269214199E+00 -0.1356770875739E+01  0.0000000000000E+00
-0.6777056485815E+00 -0.1347184849055E+01  0.0000000000000E+00
-0.6422126030433E+00 -0.1342784468384E+01  0.0000000000000E+00
-0.6066914054888E+00 -0.1338617534531E+01  0.0000000000000E+00
-0.5711435255488E+00 -0.1334684768748E+01  0.0000000000000E+00
-0.5355704233029E+00 -0.1330986852489E+01  0.0000000000000E+00
-0.4999736369017E+00 -0.1327524435880E+01  0.0000000000000E+00
-0.4643546817971E+00 -0.1324298126257E+01  0.0000000000000E+00
-0.4287150862649E+00 -0.1321308491716E+01  0.0000000000000E+00
-0.3930563807228E+00 -0.1318556059836E+01  0.0000000000000E+00
-0.3573801183139E+00 -0.1316041318931E+01  0.0000000000000E+00
-0.3216878730590E+00 -0.1313764717124E+01  0.0000000000000E+00
-0.2859812157621E+00 -0.1311726660302E+01  0.0000000000000E+00
-0.2502617257092E+00 -0.1309927512732E+01  0.0000000000000E+00
-0.2145309892672E+00 -0.1308367596678E+01  0.0000000000000E+00
-0.1787905926666E+00 -0.1307047191884E+01  0.0000000000000E+00
-0.1430421463503E+00 -0.1305966536203E+01  0.0000000000000E+00
-0.1072872541886E+00 -0.1305125824139E+01  0.0000000000000E+00
-0.7152752388590E-01 -0.1304525207180E+01  0.0000000000000E+00
-0.3576456602431E-01 -0.1304164793652E+01  0.0000000000000E+00
 0.6896563736758E-08 -0.1304044648606E+01  0.0000000000000E+00
 0.3576457981713E-01 -0.1304164793745E+01  0.0000000000000E+00
 0.7152753767778E-01 -0.1304525207365E+01  0.0000000000000E+00
 0.1072872679789E+00 -0.1305125824417E+01  0.0000000000000E+00
 0.1430421601384E+00 -0.1305966536574E+01  0.0000000000000E+00
 0.1787906064519E+00 -0.1307047192347E+01  0.0000000000000E+00
 0.2145310030492E+00 -0.1308367597233E+01  0.0000000000000E+00
 0.2502617394871E+00 -0.1309927513380E+01  0.0000000000000E+00
 0.2859812295354E+00 -0.1311726661042E+01  0.0000000000000E+00
 0.3216878868270E+00 -0.1313764717956E+01  0.0000000000000E+00
 0.3573801320760E+00 -0.1316041319855E+01  0.0000000000000E+00
 0.3930563944785E+00 -0.1318556060852E+01  0.0000000000000E+00
 0.4287151000135E+00 -0.1321308492824E+01  0.0000000000000E+00
 0.4643546955381E+00 -0.1324298127456E+01  0.0000000000000E+00
 0.4999736506343E+00 -0.1327524437170E+01  0.0000000000000E+00
 0.5355704370268E+00 -0.1330986853870E+01  0.0000000000000E+00
 0.5711435392633E+00 -0.1334684770220E+01  0.0000000000000E+00
 0.6066914191932E+00 -0.1338617536093E+01  0.0000000000000E+00
 0.6422126167371E+00 -0.1342784470036E+01  0.0000000000000E+00
 0.6777056622642E+00 -0.1347184850797E+01  0.0000000000000E+00
 0.7492269343955E+00 -0.1356770877566E+01  0.0000000000000E+00
 0.7852510917199E+00 -0.1361963113902E+01  0.0000000000000E+00
 0.8212400871220E+00 -0.1367393716423E+01  0.0000000000000E+00
 0.8571924562271E+00 -0.1373061736151E+01  0.0000000000000E+00
 0.8931067551055E+00 -0.1378966188709E+01  0.0000000000000E+00
 0.9289815609321E+00 -0.1385106055236E+01  0.0000000000000E+00
 0.9648154726170E+00 -0.1391480283310E+01  0.0000000000000E+00
 0.1000607111408E+01 -0.1398087787904E+01  0.0000000000000E+00
 0.1036355121463E+01 -0.1404927452356E+01  0.0000000000000E+00
 0.1072058121623E+01 -0.1411998119533E+01  0.0000000000000E+00
 0.1107714841113E+01 -0.1419298619338E+01  0.0000000000000E+00
 0.1143323998507E+01 -0.1426827746523E+01  0.0000000000000E+00
 0.1178884334206E+01 -0.1434584267638E+01  0.0000000000000E+00
 0.1214394588795E+01 -0.1442566916938E+01  0.0000000000000E+00
 0.1249853515153E+01 -0.1450774399347E+01  0.0000000000000E+00
 0.1285259983698E+01 -0.1459205416402E+01  0.0000000000000E+00
 0.1320612837825E+01 -0.1467858634410E+01  0.0000000000000E+00
 0.1355910849717E+01 -0.1476732672412E+01  0.0000000000000E+00
 0.1391152985279E+01 -0.1485826169179E+01  0.0000000000000E+00
-0.1500282641368E+01 -0.1374379525622E+01  0.0000000000000E+00
-0.1579712636672E+01 -0.1257117726587E+01  0.0000000000000E+00
-0.1659629531058E+01 -0.1140189019983E+01  0.0000000000000E+00
-0.1733164540211E+01 -0.1019175933670E+01  0.0000000000000E+00
-0.1798046249351E+01 -0.8933073152546E+00  0.0000000000000E+00
-0.1854662117542E+01 -0.7635066404071E+00  0.0000000000000E+00
-0.1902918776519E+01 -0.6303741789607E+00  0.0000000000000E+00
-0.1941975481337E+01 -0.4942606593644E+00  0.0000000000000E+00
-0.1971769159893E+01 -0.3558234883184E+00  0.0000000000000E+00
-0.1991516502432E+01 -0.2156092846034E+00  0.0000000000000E+00
-0.1999617540933E+01 -0.7424989119446E-01  0.0000000000000E+00
-0.1998781287050E+01  0.6736447573279E-01  0.0000000000000E+00
-0.1977369471108E+01  0.2070661279160E+00  0.0000000000000E+00
-0.1925316867218E+01  0.3385059547416E+00  0.0000000000000E+00
-0.1849365860808E+01  0.4578477771193E+00  0.0000000000000E+00
-0.1756248887890E+01  0.5644442091257E+00  0.0000000000000E+00
-0.1652195200841E+01  0.6604571002421E+00  0.0000000000000E+00
-0.1540277150090E+01  0.7471961778048E+00  0.0000000000000E+00
-0.1421865714943E+01  0.8248395163169E+00  0.0000000000000E+00
-0.1236157917423E+01  0.9206126839211E+00  0.0000000000000E+00
-0.1173981215584E+01  0.9468055532948E+00  0.0000000000000E+00
-0.1111281399127E+01  0.9717225607392E+00  0.0000000000000E+00
-0.1048246390832E+01  0.9957805369659E+00  0.0000000000000E+00
-0.9850026878781E+00  0.1019284763872E+01  0.0000000000000E+00
-0.9216449825030E+00  0.1042480347406E+01  0.0000000000000E+00
-0.8582438511844E+00  0.1065556940867E+01  0.0000000000000E+00
-0.7946812217419E+00  0.1088183183765E+01  0.0000000000000E+00
-0.7306767253970E+00  0.1109523680148E+01  0.0000000000000E+00
-0.6661180574429E+00  0.1129122063103E+01  0.0000000000000E+00
-0.6010093404920E+00  0.1146807084276E+01  0.0000000000000E+00
-0.5354041844713E+00  0.1162549250252E+01  0.0000000000000E+00
-0.4693692539535E+00  0.1176378185166E+01  0.0000000000000E+00
-0.4029695874389E+00  0.1188340213072E+01  0.0000000000000E+00
-0.3362668810131E+00  0.1198477309315E+01  0.0000000000000E+00
-0.2693161135181E+00  0.1206817739605E+01  0.0000000000000E+00
-0.2021667219355E+00  0.1213370604034E+01  0.0000000000000E+00
-0.1348660417516E+00  0.1218121850014E+01  0.0000000000000E+00
-0.6746061515966E-01  0.1221030416244E+01  0.0000000000000E+00
 0.4058847535558E-09  0.1222022719718E+01  0.0000000000000E+00
 0.6746061597099E-01  0.1221030416217E+01  0.0000000000000E+00
 0.1348660425620E+00  0.1218121849962E+01  0.0000000000000E+00
 0.2021667227442E+00  0.1213370603957E+01  0.0000000000000E+00
 0.2693161143243E+00  0.1206817739504E+01  0.0000000000000E+00
 0.3362668818164E+00  0.1198477309191E+01  0.0000000000000E+00
 0.4029695882387E+00  0.1188340212925E+01  0.0000000000000E+00
 0.4693692547501E+00  0.1176378184996E+01  0.0000000000000E+00
 0.5354041852619E+00  0.1162549250060E+01  0.0000000000000E+00
 0.6010093412774E+00  0.1146807084062E+01  0.0000000000000E+00
 0.6661180582227E+00  0.1129122062868E+01  0.0000000000000E+00
 0.7306767261711E+00  0.1109523679893E+01  0.0000000000000E+00
 0.7946812225112E+00  0.1088183183495E+01  0.0000000000000E+00
 0.8582438519506E+00  0.1065556940589E+01  0.0000000000000E+00
 0.9216449832687E+00  0.1042480347127E+01  0.0000000000000E+00
 0.9850026886429E+00  0.1019284763591E+01  0.0000000000000E+00
 0.1048246391595E+01  0.9957805366789E+00  0.0000000000000E+00
 0.1111281399886E+01  0.9717225604423E+00  0.0000000000000E+00
 0.1173981216337E+01  0.9468055529829E+00  0.0000000000000E+00
 0.1236157918167E+01  0.9206126835887E+00  0.0000000000000E+00
 0.1421865715609E+01  0.8248395159258E+00  0.0000000000000E+00
 0.1540277150686E+01  0.7471961773831E+00  0.0000000000000E+00
 0.1652195201364E+01  0.6604570997956E+00  0.0000000000000E+00
 0.1756248888337E+01  0.5644442086587E+00  0.0000000000000E+00
 0.1849365861169E+01  0.4578477766335E+00  0.0000000000000E+00
 0.1925316867476E+01  0.3385059542402E+00  0.0000000000000E+00
 0.1977369471244E+01  0.2070661274129E+00  0.0000000000000E+00
 0.1998781287072E+01  0.6736447525390E-01  0.0000000000000E+00
 0.1999617540926E+01 -0.7424989163157E-01  0.0000000000000E+00
 0.1991516502379E+01 -0.2156092849952E+00  0.0000000000000E+00
 0.1971769159793E+01 -0.3558234886609E+00  0.0000000000000E+00
 0.1941975481197E+01 -0.4942606596555E+00  0.0000000000000E+00
 0.1902918776353E+01 -0.6303741792004E+00  0.0000000000000E+00
 0.1854662117367E+01 -0.7635066405985E+00  0.0000000000000E+00
 0.1798046249184E+01 -0.8933073154033E+00  0.0000000000000E+00
 0.1733164540072E+01 -0.1019175933786E+01  0.0000000000000E+00
 0.1659629530969E+01 -0.1140189020080E+01  0.0000000000000E+00
 0.1579712636620E+01 -0.1257117726658E+01  0.0000000000000E+00
 0.1500282641316E+01 -0.1374379525643E+01  0.0000000000000E+00
-0.1100000000000E+01 -0.4234290980465E+01  0.0000000000000E+00
-0.1100000000000E+01 -0.4164537374556E+01  0.0000000000000E+00
-0.1100000000000E+01 -0.4094783637185E+01  0.0000000000000E+00
-0.1100000000000E+01 -0.4025029839181E+01  0.0000000000000E+00
-0.1100000000000E+01 -0.3955276133193E+01  0.0000000000000E+00
-0.1100000000000E+01 -0.3885522440291E+01  0.0000000000000E+00
-0.1100000000000E+01 -0.3815768738526E+01  0.0000000000000E+00
-0.1100000000000E+01 -0.3746015026237E+01  0.0000000000000E+00
-0.1100000000000E+01 -0.3676261319430E+01  0.0000000000000E+00
-0.1100000000000E+01 -0.3606507611668E+01  0.0000000000000E+00
-0.1100000000000E+01 -0.3536753776913E+01  0.0000000000000E+00
-0.1100000000000E+01 -0.3467000160269E+01  0.0000000000000E+00
-0.1100000000000E+01 -0.3397246335911E+01  0.0000000000000E+00
-0.1100000000000E+01 -0.3327491483183E+01  0.0000000000000E+00
-0.1100000000000E+01 -0.3257738937264E+01  0.0000000000000E+00
-0.1100000000000E+01 -0.3187985423319E+01  0.0000000000000E+00
-0.1100000000000E+01 -0.3118231710338E+01  0.0000000000000E+00
-0.1100000000000E+01 -0.3048478034801E+01  0.0000000000000E+00
-0.1100000000000E+01 -0.2978724449557E+01  0.0000000000000E+00
-0.1100081949193E+01 -0.2908970897701E+01  0.0000000000000E+00
-0.1100742728942E+01 -0.2839220824704E+01  0.0000000000000E+00
-0.1102521741007E+01 -0.2769490993372E+01  0.0000000000000E+00
-0.1105743074114E+01 -0.2699813216018E+01  0.0000000000000E+00
-0.1110533766938E+01 -0.2630225810104E+01  0.0000000000000E+00
-0.1116908162342E+01 -0.2560765504263E+01  0.0000000000000E+00
-0.1124837122290E+01 -0.2491465260483E+01  0.0000000000000E+00
-0.1134287691960E+01 -0.2422356178019E+01  0.0000000000000E+00
-0.1145243591943E+01 -0.2353469532743E+01  0.0000000000000E+00
-0.1157716694154E+01 -0.2284841544654E+01  0.0000000000000E+00
-0.1171756578450E+01 -0.2216517038769E+01  0.0000000000000E+00
-0.1187382332609E+01 -0.2148537564097E+01  0.0000000000000E+00
-0.1204496719736E+01 -0.2080917362614E+01  0.0000000000000E+00
-0.1223027229037E+01 -0.2013671356569E+01  0.0000000000000E+00
-0.1242939072837E+01 -0.1946821322119E+01  0.0000000000000E+00
-0.1264231112750E+01 -0.1880397992225E+01  0.0000000000000E+00
-0.1286935945292E+01 -0.1814444247962E+01  0.0000000000000E+00
-0.1311124079738E+01 -0.1749020523908E+01  0.0000000000000E+00
-0.1336914565389E+01 -0.1684211332234E+01  0.0000000000000E+00
-0.1364492429937E+01 -0.1620144016975E+01  0.0000000000000E+00
-0.1394146623869E+01 -0.1557011712595E+01  0.0000000000000E+00
 0.1394146623938E+01 -0.1557011712631E+01  0.0000000000000E+00
 0.1364492430018E+01 -0.1620144017018E+01  0.0000000000000E+00
 0.1336914565463E+01 -0.1684211332275E+01  0.0000000000000E+00
 0.1311124079803E+01 -0.1749020523939E+01  0.0000000000000E+00
 0.1286935945344E+01 -0.1814444247990E+01  0.0000000000000E+00
 0.1264231112793E+01 -0.1880397992249E+01  0.0000000000000E+00
 0.1242939072872E+01 -0.1946821322142E+01  0.0000000000000E+00
 0.1223027229066E+01 -0.2013671356589E+01  0.0000000000000E+00
 0.1204496719761E+01 -0.2080917362633E+01  0.0000000000000E+00
 0.1187382332630E+01 -0.2148537564113E+01  0.0000000000000E+00
 0.1171756578464E+01 -0.2216517038784E+01  0.0000000000000E+00
 0.1157716694160E+01 -0.2284841544667E+01  0.0000000000000E+00
 0.1145243591945E+01 -0.2353469532755E+01  0.0000000000000E+00
 0.1134287691960E+01 -0.2422356178030E+01  0.0000000000000E+00
 0.1124837122289E+01 -0.2491465260492E+01  0.0000000000000E+00
 0.1116908162341E+01 -0.2560765504273E+01  0.0000000000000E+00
 0.1110533766937E+01 -0.2630225810113E+01  0.0000000000000E+00
 0.1105743074114E+01 -0.2699813216027E+01  0.0000000000000E+00
 0.1102521741008E+01 -0.2769490993381E+01  0.0000000000000E+00
 0.1100742728943E+01 -0.2839220824713E+01  0.0000000000000E+00
 0.1100081949193E+01 -0.2908970897709E+01  0.0000000000000E+00
 0.1100000000000E+01 -0.2978724449564E+01  0.0000000000000E+00
 0.1100000000000E+01 -0.3048478034808E+01  0.0000000000000E+00
 0.1100000000000E+01 -0.3118231710345E+01  0.0000000000000E+00
 0.1100000000000E+01 -0.3187985423326E+01  0.0000000000000E+00
 0.1100000000000E+01 -0.3257738937270E+01  0.0000000000000E+00
 0.1100000000000E+01 -0.3327491483189E+01  0.0000000000000E+00
 0.1100000000000E+01 -0.3397246335917E+01  0.0000000000000E+00
 0.1100000000000E+01 -0.3467000160274E+01  0.0000000000000E+00
 0.1100000000000E+01 -0.3536753776917E+01  0.0000000000000E+00
 0.1100000000000E+01 -0.3606507611672E+01  0.0000000000000E+00
 0.1100000000000E+01 -0.3676261319434E+01  0.0000000000000E+00
 0.1100000000000E+01 -0.3746015026240E+01  0.0000000000000E+00
 0.1100000000000E+01 -0.3815768738529E+01  0.0000000000000E+00
 0.1100000000000E+01 -0.3885522440293E+01  0.0000000000000E+00
 0.1100000000000E+01 -0.3955276133195E+01  0.0000000000000E+00
 0.1100000000000E+01 -0.4025029839183E+01  0.0000000000000E+00
 0.1100000000000E+01 -0.4094783637186E+01  0.0000000000000E+00
 0.1100000000000E+01 -0.4164537374557E+01  0.0000000000000E+00
 0.1100000000000E+01 -0.4234290980466E+01  0.0000000000000E+00
-0.7132895388975E+00  0.3545892595695E+00  0.0000000000000E+00
-0.6764636662017E+00  0.3637314849837E+00  0.0000000000000E+00
-0.6395267434147E+00  0.3724145815178E+00  0.0000000000000E+00
-0.6024837198702E+00  0.3806330875003E+00  0.0000000000000E+00
-0.5653396500945E+00  0.3883817695657E+00  0.0000000000000E+00
-0.5280996171512E+00  0.3956556459469E+00  0.0000000000000E+00
-0.4907691319433E+00  0.4024499201459E+00  0.0000000000000E+00
-0.4533537451325E+00  0.4087600740826E+00  0.0000000000000E+00
-0.4158592885785E+00  0.4145818366128E+00  0.0000000000000E+00
-0.3782916751723E+00  0.4199112310808E+00  0.0000000000000E+00
-0.3406570303206E+00  0.4247445663511E+00  0.0000000000000E+00
-0.3029616164712E+00  0.4290784607705E+00  0.0000000000000E+00
-0.2652118192254E+00  0.4329098541257E+00  0.0000000000000E+00
-0.2274141490083E+00  0.4362360171118E+00  0.0000000000000E+00
-0.1895752452634E+00  0.4390545606537E+00  0.0000000000000E+00
-0.1517018295911E+00  0.4413634482121E+00  0.0000000000000E+00
-0.1138007051193E+00  0.4431610022710E+00  0.0000000000000E+00
-0.7587874076696E-01  0.4444459110349E+00  0.0000000000000E+00
-0.3794285511804E-01  0.4452172336970E+00  0.0000000000000E+00
-0.3330669073875E-15  0.4454744042321E+00  0.0000000000000E+00
 0.3794285511804E-01  0.4452172336970E+00  0.0000000000000E+00
 0.7587874076696E-01  0.4444459110349E+00  0.0000000000000E+00
 0.1138007051193E+00  0.4431610022710E+00  0.0000000000000E+00
 0.1517018295911E+00  0.4413634482121E+00  0.0000000000000E+00
 0.1895752452634E+00  0.4390545606537E+00  0.0000000000000E+00
 0.2274141490083E+00  0.4362360171118E+00  0.0000000000000E+00
 0.2652118192254E+00  0.4329098541257E+00  0.0000000000000E+00
 0.3029616164712E+00  0.4290784607705E+00  0.0000000000000E+00
 0.3406570303206E+00  0.4247445663511E+00  0.0000000000000E+00
 0.3782916751723E+00  0.4199112310808E+00  0.0000000000000E+00
 0.4158592885785E+00  0.4145818366128E+00  0.0000000000000E+00
 0.4533537451325E+00  0.4087600740826E+00  0.0000000000000E+00
 0.4907691319433E+00  0.4024499201459E+00  0.0000000000000E+00
 0.5280996171512E+00  0.3956556459469E+00  0.0000000000000E+00
 0.5653396500945E+00  0.3883817695657E+00  0.0000000000000E+00
 0.6024837198702E+00  0.3806330875003E+00  0.0000000000000E+00
 0.6395267434147E+00  0.3724145815178E+00  0.0000000000000E+00
 0.6764636662017E+00  0.3637314849837E+00  0.0000000000000E+00
 0.7132895388975E+00  0.3545892595695E+00  0.0000000000000E+00
-0.7498714525667E+00  0.2601244253178E+00  0.0000000000000E+00
-0.7494610908407E+00  0.1752564208624E+00  0.0000000000000E+00
-0.7487273443814E+00  0.9039062493678E-01  0.0000000000000E+00
-0.7476230150202E+00  0.5528898378488E-02  0.0000000000000E+00
-0.7460974662219E+00 -0.7932632445184E-01  0.0000000000000E+00
-0.7441028539882E+00 -0.1641717347835E+00  0.0000000000000E+00
-0.7416076935207E+00 -0.2490040130765E+00  0.0000000000000E+00
-0.7386208425271E+00 -0.3338203224162E+00  0.0000000000000E+00
-0.7352226651418E+00 -0.4186212392773E+00  0.0000000000000E+00
-0.7315845453817E+00 -0.5034122306519E+00  0.0000000000000E+00
-0.7279464255305E+00 -0.5882032220226E+00  0.0000000000000E+00
-0.7245482478836E+00 -0.6730041388732E+00  0.0000000000000E+00
-0.7215613964884E+00 -0.7578204481989E+00  0.0000000000000E+00
-0.7190662355151E+00 -0.8426527264768E+00  0.0000000000000E+00
-0.7170716227036E+00 -0.9274981367952E+00  0.0000000000000E+00
-0.7155460732803E+00 -0.1012353359614E+01  0.0000000000000E+00
-0.7144417432648E+00 -0.1097215086164E+01  0.0000000000000E+00
-0.7137079961342E+00 -0.1182080882084E+01  0.0000000000000E+00
-0.7132976337280E+00 -0.1266948886536E+01  0.0000000000000E+00
 0.7498714525670E+00  0.2601244252411E+00  0.0000000000000E+00
 0.7494610908447E+00  0.1752564207090E+00  0.0000000000000E+00
 0.7487273443980E+00  0.9039062470648E-01  0.0000000000000E+00
 0.7476230150664E+00  0.5528898070996E-02  0.0000000000000E+00
 0.7460974663270E+00 -0.7932632483698E-01  0.0000000000000E+00
 0.7441028541992E+00 -0.1641717352482E+00  0.0000000000000E+00
 0.7416076939094E+00 -0.2490040136230E+00  0.0000000000000E+00
 0.7386208431973E+00 -0.3338203230495E+00  0.0000000000000E+00
 0.7352226662333E+00 -0.4186212400042E+00  0.0000000000000E+00
 0.7315845470645E+00 -0.5034122314810E+00  0.0000000000000E+00
 0.7279464279870E+00 -0.5882032229617E+00  0.0000000000000E+00
 0.7245482512846E+00 -0.6730041399270E+00  0.0000000000000E+00
 0.7215614009742E+00 -0.7578204493675E+00  0.0000000000000E+00
 0.7190662411903E+00 -0.8426527277573E+00  0.0000000000000E+00
 0.7170716296405E+00 -0.9274981381818E+00  0.0000000000000E+00
 0.7155460815261E+00 -0.1012353361101E+01  0.0000000000000E+00
 0.7144417528489E+00 -0.1097215087745E+01  0.0000000000000E+00
 0.7137080070737E+00 -0.1182080883753E+01  0.0000000000000E+00
 0.7132976460316E+00 -0.1266948888289E+01  0.0000000000000E+00
-0.7773735518427E+00  0.3723670093848E+00  0.0000000000000E+00
-0.8047471036855E+00  0.3997405616991E+00  0.0000000000000E+00
-0.8321206555283E+00  0.4271141140135E+00  0.0000000000000E+00
-0.8594942073710E+00  0.4544876663279E+00  0.0000000000000E+00
-0.8868677592138E+00  0.4818612186423E+00  0.0000000000000E+00
-0.9142413110566E+00  0.5092347709566E+00  0.0000000000000E+00
-0.9416148628994E+00  0.5366083232710E+00  0.0000000000000E+00
-0.9689884147421E+00  0.5639818755854E+00  0.0000000000000E+00
-0.9963619665849E+00  0.5913554278998E+00  0.0000000000000E+00
-0.1023735518428E+01  0.6187289802141E+00  0.0000000000000E+00
-0.1051109070270E+01  0.6461025325285E+00  0.0000000000000E+00
-0.1078482622113E+01  0.6734760848429E+00  0.0000000000000E+00
-0.1105856173956E+01  0.7008496371573E+00  0.0000000000000E+00
-0.1133229725799E+01  0.7282231894716E+00  0.0000000000000E+00
-0.1160603277642E+01  0.7555967417860E+00  0.0000000000000E+00
-0.1187976829484E+01  0.7829702941004E+00  0.0000000000000E+00
-0.1215350381327E+01  0.8103438464148E+00  0.0000000000000E+00
-0.1242723933170E+01  0.8377173987291E+00  0.0000000000000E+00
-0.1270097485013E+01  0.8650909510435E+00  0.0000000000000E+00
 0.7773735518794E+00  0.3723670093669E+00  0.0000000000000E+00
 0.8047471037588E+00  0.3997405616635E+00  0.0000000000000E+00
 0.8321206556383E+00  0.4271141139600E+00  0.0000000000000E+00
 0.8594942075177E+00  0.4544876662566E+00  0.0000000000000E+00
 0.8868677593971E+00  0.4818612185531E+00  0.0000000000000E+00
 0.9142413112766E+00  0.5092347708497E+00  0.0000000000000E+00
 0.9416148631560E+00  0.5366083231462E+00  0.0000000000000E+00
 0.9689884150354E+00  0.5639818754428E+00  0.0000000000000E+00
 0.9963619669149E+00  0.5913554277393E+00  0.0000000000000E+00
 0.1023735518794E+01  0.6187289800359E+00  0.0000000000000E+00
 0.1051109070674E+01  0.6461025323324E+00  0.0000000000000E+00
 0.1078482622553E+01  0.6734760846289E+00  0.0000000000000E+00
 0.1105856174433E+01  0.7008496369255E+00  0.0000000000000E+00
 0.1133229726312E+01  0.7282231892220E+00  0.0000000000000E+00
 0.1160603278191E+01  0.7555967415186E+00  0.0000000000000E+00
 0.1187976830071E+01  0.7829702938151E+00  0.0000000000000E+00
 0.1215350381950E+01  0.8103438461117E+00  0.0000000000000E+00
 0.1242723933830E+01  0.8377173984082E+00  0.0000000000000E+00
 0.1270097485709E+01  0.8650909507048E+00  0.0000000000000E+00
-0.1072512531531E+01 -0.4234063866316E+01  0.0000000000000E+00
-0.1072525063052E+01 -0.4164083146461E+01  0.0000000000000E+00
-0.1072537594596E+01 -0.4094102294716E+01  0.0000000000000E+00
-0.1072550126150E+01 -0.4024121382140E+01  0.0000000000000E+00
-0.1072562657689E+01 -0.3954140561879E+01  0.0000000000000E+00
-0.1072575189225E+01 -0.3884159754748E+01  0.0000000000000E+00
-0.1072587720762E+01 -0.3814178938725E+01  0.0000000000000E+00
-0.1072600252302E+01 -0.3744198112143E+01  0.0000000000000E+00
-0.1072612783840E+01 -0.3674217291062E+01  0.0000000000000E+00
-0.1072625315378E+01 -0.3604236469021E+01  0.0000000000000E+00
-0.1072637846940E+01 -0.3534255519575E+01  0.0000000000000E+00
-0.1072650378462E+01 -0.3464274788950E+01  0.0000000000000E+00
-0.1072662910022E+01 -0.3394293849935E+01  0.0000000000000E+00
-0.1072675441766E+01 -0.3324311879201E+01  0.0000000000000E+00
-0.1072687973096E+01 -0.3254332222786E+01  0.0000000000000E+00
-0.1072700504600E+01 -0.3184351595195E+01  0.0000000000000E+00
-0.1072713036139E+01 -0.3114370767918E+01  0.0000000000000E+00
-0.1072725567672E+01 -0.3044389978209E+01  0.0000000000000E+00
-0.1072738099188E+01 -0.2974409279085E+01  0.0000000000000E+00
-0.1072830520992E+01 -0.2904428613303E+01  0.0000000000000E+00
-0.1073487230625E+01 -0.2834451427672E+01  0.0000000000000E+00
-0.1075234077757E+01 -0.2764494485924E+01  0.0000000000000E+00
-0.1078387008707E+01 -0.2694589599196E+01  0.0000000000000E+00
-0.1083069870449E+01 -0.2624775084183E+01  0.0000000000000E+00
-0.1089296645518E+01 -0.2555087669031E+01  0.0000000000000E+00
-0.1097038927970E+01 -0.2485560315349E+01  0.0000000000000E+00
-0.1106264590896E+01 -0.2416224123304E+01  0.0000000000000E+00
-0.1116957763942E+01 -0.2347110367907E+01  0.0000000000000E+00
-0.1129130020690E+01 -0.2278255270224E+01  0.0000000000000E+00
-0.1142829695345E+01 -0.2209703655273E+01  0.0000000000000E+00
-0.1158075396169E+01 -0.2141497071144E+01  0.0000000000000E+00
-0.1174772329272E+01 -0.2073649759721E+01  0.0000000000000E+00
-0.1192849805623E+01 -0.2006176643474E+01  0.0000000000000E+00
-0.1212273911551E+01 -0.1939099498740E+01  0.0000000000000E+00
-0.1233043537267E+01 -0.1872449058536E+01  0.0000000000000E+00
-0.1255190460318E+01 -0.1806268204055E+01  0.0000000000000E+00
-0.1278783418399E+01 -0.1740617371563E+01  0.0000000000000E+00
-0.1303938469955E+01 -0.1675581070262E+01  0.0000000000000E+00
-0.1330835993654E+01 -0.1611286650534E+01  0.0000000000000E+00
-0.1359757680489E+01 -0.1547927244028E+01  0.0000000000000E+00
-0.1045023674207E+01 -0.4233842070895E+01  0.0000000000000E+00
-0.1045047348392E+01 -0.4163639555816E+01  0.0000000000000E+00
-0.1045071022622E+01 -0.4093436908429E+01  0.0000000000000E+00
-0.1045094696873E+01 -0.4023234200019E+01  0.0000000000000E+00
-0.1045118371092E+01 -0.3953031584216E+01  0.0000000000000E+00
-0.1045142045307E+01 -0.3882828981585E+01  0.0000000000000E+00
-0.1045165719525E+01 -0.3812626370033E+01  0.0000000000000E+00
-0.1045189393746E+01 -0.3742423747889E+01  0.0000000000000E+00
-0.1045213067966E+01 -0.3672221131264E+01  0.0000000000000E+00
-0.1045236742186E+01 -0.3602018513676E+01  0.0000000000000E+00
-0.1045260416449E+01 -0.3531815768278E+01  0.0000000000000E+00
-0.1045284090638E+01 -0.3461613242396E+01  0.0000000000000E+00
-0.1045307764898E+01 -0.3391410507462E+01  0.0000000000000E+00
-0.1045331439506E+01 -0.3321206737540E+01  0.0000000000000E+00
-0.1045355113332E+01 -0.3251005289272E+01  0.0000000000000E+00
-0.1045378787486E+01 -0.3180802866750E+01  0.0000000000000E+00
-0.1045402461708E+01 -0.3110600243909E+01  0.0000000000000E+00
-0.1045426135917E+01 -0.3040397658755E+01  0.0000000000000E+00
-0.1045449810095E+01 -0.2970195164473E+01  0.0000000000000E+00
-0.1045551315657E+01 -0.2899992703486E+01  0.0000000000000E+00
-0.1046202566339E+01 -0.2829793723913E+01  0.0000000000000E+00
-0.1047915859739E+01 -0.2759614990390E+01  0.0000000000000E+00
-0.1050998999770E+01 -0.2689488312903E+01  0.0000000000000E+00
-0.1055572641697E+01 -0.2619452007401E+01  0.0000000000000E+00
-0.1061650407731E+01 -0.2549542801550E+01  0.0000000000000E+00
-0.1069204624013E+01 -0.2479793656596E+01  0.0000000000000E+00
-0.1078203991553E+01 -0.2410235673589E+01  0.0000000000000E+00
-0.1088633049045E+01 -0.2340900126704E+01  0.0000000000000E+00
-0.1100503071749E+01 -0.2271823238048E+01  0.0000000000000E+00
-0.1113861148214E+01 -0.2203049832639E+01  0.0000000000000E+00
-0.1128725407183E+01 -0.2134621457671E+01  0.0000000000000E+00
-0.1145003497769E+01 -0.2066552354937E+01  0.0000000000000E+00
-0.1162626552704E+01 -0.1998857447123E+01  0.0000000000000E+00
-0.1181561532320E+01 -0.1931558510742E+01  0.0000000000000E+00
-0.1201807355426E+01 -0.1864686278866E+01  0.0000000000000E+00
-0.1223394980603E+01 -0.1798283632802E+01  0.0000000000000E+00
-0.1246391373975E+01 -0.1732411010466E+01  0.0000000000000E+00
-0.1270909603116E+01 -0.1667152918159E+01  0.0000000000000E+00
-0.1297125397712E+01 -0.1602636712462E+01  0.0000000000000E+00
-0.1325313189253E+01 -0.1539055522277E+01  0.0000000000000E+00
-0.1017533453958E+01 -0.4233625628194E+01  0.0000000000000E+00
-0.1017566907886E+01 -0.4163206670607E+01  0.0000000000000E+00
-0.1017600361877E+01 -0.4092787580305E+01  0.0000000000000E+00
-0.1017633815897E+01 -0.4022368428792E+01  0.0000000000000E+00
-0.1017667269873E+01 -0.3951949370171E+01  0.0000000000000E+00
-0.1017700723842E+01 -0.3881530324762E+01  0.0000000000000E+00
-0.1017734177816E+01 -0.3811111270406E+01  0.0000000000000E+00
-0.1017767631795E+01 -0.3740692205424E+01  0.0000000000000E+00
-0.1017801085772E+01 -0.3670273145978E+01  0.0000000000000E+00
-0.1017834539748E+01 -0.3599854085567E+01  0.0000000000000E+00
-0.1017867993786E+01 -0.3529434896952E+01  0.0000000000000E+00
-0.1017901447719E+01 -0.3459015928528E+01  0.0000000000000E+00
-0.1017934901752E+01 -0.3388596750409E+01  0.0000000000000E+00
-0.1017968356278E+01 -0.3318176534111E+01  0.0000000000000E+00
-0.1018001809697E+01 -0.3247758646625E+01  0.0000000000000E+00
-0.1018035263581E+01 -0.3177339781880E+01  0.0000000000000E+00
-0.1018068717560E+01 -0.3106920716200E+01  0.0000000000000E+00
-0.1018102171522E+01 -0.3036501688322E+01  0.0000000000000E+00
-0.1018135625440E+01 -0.2966082751597E+01  0.0000000000000E+00
-0.1018244851837E+01 -0.2895663848120E+01  0.0000000000000E+00
-0.1018889280661E+01 -0.2825248427290E+01  0.0000000000000E+00
-0.1020567657443E+01 -0.2754853254624E+01  0.0000000000000E+00
-0.1023579643686E+01 -0.2684510138987E+01  0.0000000000000E+00
-0.1028042702948E+01 -0.2614257395599E+01  0.0000000000000E+00
-0.1033970097107E+01 -0.2544131751656E+01  0.0000000000000E+00
-0.1041334884389E+01 -0.2474166168050E+01  0.0000000000000E+00
-0.1050106593729E+01 -0.2404391746694E+01  0.0000000000000E+00
-0.1060270172863E+01 -0.2334839760947E+01  0.0000000000000E+00
-0.1071836598734E+01 -0.2265546433933E+01  0.0000000000000E+00
-0.1084851714238E+01 -0.2196556590667E+01  0.0000000000000E+00
-0.1099333168593E+01 -0.2127911777470E+01  0.0000000000000E+00
-0.1115191053912E+01 -0.2059626236046E+01  0.0000000000000E+00
-0.1132358324692E+01 -0.1991714889293E+01  0.0000000000000E+00
-0.1150802815268E+01 -0.1924199513894E+01  0.0000000000000E+00
-0.1170523473049E+01 -0.1857110842977E+01  0.0000000000000E+00
-0.1191550437648E+01 -0.1790491757958E+01  0.0000000000000E+00
-0.1213948903631E+01 -0.1724402698364E+01  0.0000000000000E+00
-0.1237828947684E+01 -0.1658928167667E+01  0.0000000000000E+00
-0.1263361650553E+01 -0.1594195528494E+01  0.0000000000000E+00
-0.1290814184204E+01 -0.1530397907066E+01  0.0000000000000E+00
-0.9900418962607E+00 -0.4233414571416E+01  0.0000000000000E+00
-0.9900837924840E+00 -0.4162784557239E+01  0.0000000000000E+00
-0.9901256887862E+00 -0.4092154409949E+01  0.0000000000000E+00
-0.9901675851249E+00 -0.4021524201263E+01  0.0000000000000E+00
-0.9902094814083E+00 -0.3950894085750E+01  0.0000000000000E+00
-0.9902513776839E+00 -0.3880263983487E+01  0.0000000000000E+00
-0.9902932739648E+00 -0.3809633872251E+01  0.0000000000000E+00
-0.9903351702520E+00 -0.3739003750357E+01  0.0000000000000E+00
-0.9903770665359E+00 -0.3668373634015E+01  0.0000000000000E+00
-0.9904189628203E+00 -0.3597743516705E+01  0.0000000000000E+00
-0.9904608591811E+00 -0.3527113270807E+01  0.0000000000000E+00
-0.9905027554109E+00 -0.3456483245761E+01  0.0000000000000E+00
-0.9905446517654E+00 -0.3385853010391E+01  0.0000000000000E+00
-0.9905865487375E+00 -0.3315221733730E+01  0.0000000000000E+00
-0.9906284443242E+00 -0.3244592792861E+01  0.0000000000000E+00
-0.9906703404922E+00 -0.3173962871804E+01  0.0000000000000E+00
-0.9907122367799E+00 -0.3103332749209E+01  0.0000000000000E+00
-0.9907541330450E+00 -0.3032702664530E+01  0.0000000000000E+00
-0.9907960292559E+00 -0.2962072671278E+01  0.0000000000000E+00
-0.9909116390403E+00 -0.2891442711229E+01  0.0000000000000E+00
-0.9915479085496E+00 -0.2820816235028E+01  0.0000000000000E+00
-0.9931900312463E+00 -0.2750210009053E+01  0.0000000000000E+00
-0.9961295262075E+00 -0.2679655841074E+01  0.0000000000000E+00
-0.1000480665275E+01 -0.2609192045601E+01  0.0000000000000E+00
-0.1006256349991E+01 -0.2538855349374E+01  0.0000000000000E+00
-0.1013430370667E+01 -0.2468678712937E+01  0.0000000000000E+00
-0.1021973084167E+01 -0.2398693239047E+01  0.0000000000000E+00
-0.1031869847265E+01 -0.2328930200265E+01  0.0000000000000E+00
-0.1043131338593E+01 -0.2259425820705E+01  0.0000000000000E+00
-0.1055802155392E+01 -0.2190224925383E+01  0.0000000000000E+00
-0.1069899467351E+01 -0.2121369059769E+01  0.0000000000000E+00
-0.1085335809584E+01 -0.2052872465477E+01  0.0000000000000E+00
-0.1102045958354E+01 -0.1984750065613E+01  0.0000000000000E+00
-0.1119998622005E+01 -0.1917023637028E+01  0.0000000000000E+00
-0.1139192776541E+01 -0.1849723912900E+01  0.0000000000000E+00
-0.1159657742613E+01 -0.1782893774755E+01  0.0000000000000E+00
-0.1181456943232E+01 -0.1716593663690E+01  0.0000000000000E+00
-0.1204697464179E+01 -0.1650908080416E+01  0.0000000000000E+00
-0.1229545737291E+01 -0.1585964393460E+01  0.0000000000000E+00
-0.1256261674990E+01 -0.1521955726426E+01  0.0000000000000E+00
-0.9625490307744E+00 -0.4233208934242E+01  0.0000000000000E+00
-0.9625980615051E+00 -0.4162373283074E+01  0.0000000000000E+00
-0.9626470923282E+00 -0.4091537498405E+01  0.0000000000000E+00
-0.9626961231939E+00 -0.4020701652163E+01  0.0000000000000E+00
-0.9627451539950E+00 -0.3949865899364E+01  0.0000000000000E+00
-0.9627941847868E+00 -0.3879030159854E+01  0.0000000000000E+00
-0.9628432155849E+00 -0.3808194411344E+01  0.0000000000000E+00
-0.9628922463903E+00 -0.3737358652146E+01  0.0000000000000E+00
-0.9629412771919E+00 -0.3666522898516E+01  0.0000000000000E+00
-0.9629903079942E+00 -0.3595687143916E+01  0.0000000000000E+00
-0.9630393388858E+00 -0.3524851260352E+01  0.0000000000000E+00
-0.9630883696240E+00 -0.3454015598284E+01  0.0000000000000E+00
-0.9631374005082E+00 -0.3383179725279E+01  0.0000000000000E+00
-0.9631864321153E+00 -0.3312342807951E+01  0.0000000000000E+00
-0.9632354621009E+00 -0.3241508233216E+01  0.0000000000000E+00
-0.9632844927670E+00 -0.3170672675440E+01  0.0000000000000E+00
-0.9633335235729E+00 -0.3099836915539E+01  0.0000000000000E+00
-0.9633825543526E+00 -0.3029001193664E+01  0.0000000000000E+00
-0.9634315850687E+00 -0.2958165563482E+01  0.0000000000000E+00
-0.9635522704534E+00 -0.2887329966460E+01  0.0000000000000E+00
-0.9641790728768E+00 -0.2816497854456E+01  0.0000000000000E+00
-0.9657836337437E+00 -0.2745685994687E+01  0.0000000000000E+00
-0.9686493297033E+00 -0.2674926193857E+01  0.0000000000000E+00
-0.9728872408782E+00 -0.2604256765783E+01  0.0000000000000E+00
-0.9785099084739E+00 -0.2533714436761E+01  0.0000000000000E+00
-0.9854918548825E+00 -0.2463332166997E+01  0.0000000000000E+00
-0.9938042649014E+00 -0.2393141060067E+01  0.0000000000000E+00
-0.1003432904341E+01 -0.2323172387757E+01  0.0000000000000E+00
-0.1014388153526E+01 -0.2253462375149E+01  0.0000000000000E+00
-0.1026713364044E+01 -0.2184055847255E+01  0.0000000000000E+00
-0.1040425226048E+01 -0.2114994348714E+01  0.0000000000000E+00
-0.1055438717652E+01 -0.2046292121059E+01  0.0000000000000E+00
-0.1071690436889E+01 -0.1977964087595E+01  0.0000000000000E+00
-0.1089149966106E+01 -0.1910032025335E+01  0.0000000000000E+00
-0.1107816309908E+01 -0.1842526667508E+01  0.0000000000000E+00
-0.1127717969982E+01 -0.1775490895749E+01  0.0000000000000E+00
-0.1148916597798E+01 -0.1708985152681E+01  0.0000000000000E+00
-0.1171516288212E+01 -0.1643093936327E+01  0.0000000000000E+00
-0.1195678824192E+01 -0.1577944620960E+01  0.0000000000000E+00
-0.1221656858605E+01 -0.1513730327639E+01  0.0000000000000E+00
-0.9350548857341E+00 -0.4233008749201E+01  0.0000000000000E+00
-0.9351097714192E+00 -0.4161972913172E+01  0.0000000000000E+00
-0.9351646572077E+00 -0.4090936943265E+01  0.0000000000000E+00
-0.9352195430440E+00 -0.4019900911610E+01  0.0000000000000E+00
-0.9352744288078E+00 -0.3948864973661E+01  0.0000000000000E+00
-0.9353293145614E+00 -0.3877829049040E+01  0.0000000000000E+00
-0.9353842003219E+00 -0.3806793115393E+01  0.0000000000000E+00
-0.9354390860907E+00 -0.3735757171028E+01  0.0000000000000E+00
-0.9354939718552E+00 -0.3664721232247E+01  0.0000000000000E+00
-0.9355488576204E+00 -0.3593685292493E+01  0.0000000000000E+00
-0.9356037434856E+00 -0.3522649223411E+01  0.0000000000000E+00
-0.9356586291791E+00 -0.3451613376450E+01  0.0000000000000E+00
-0.9357135150361E+00 -0.3380577317956E+01  0.0000000000000E+00
-0.9357684017023E+00 -0.3309540212189E+01  0.0000000000000E+00
-0.9358232865533E+00 -0.3238505455634E+01  0.0000000000000E+00
-0.9358781721661E+00 -0.3167469713260E+01  0.0000000000000E+00
-0.9359330579354E+00 -0.3096433768190E+01  0.0000000000000E+00
-0.9359879436753E+00 -0.3025397861254E+01  0.0000000000000E+00
-0.9360428293441E+00 -0.2954362046269E+01  0.0000000000000E+00
-0.9361673107769E+00 -0.2883326264402E+01  0.0000000000000E+00
-0.9367833665756E+00 -0.2812293968694E+01  0.0000000000000E+00
-0.9383490860972E+00 -0.2741281927175E+01  0.0000000000000E+00
-0.9411397035599E+00 -0.2670321945513E+01  0.0000000000000E+00
-0.9452631073643E+00 -0.2599452336852E+01  0.0000000000000E+00
-0.9507314783757E+00 -0.2528709827051E+01  0.0000000000000E+00
-0.9575200710652E+00 -0.2458127375992E+01  0.0000000000000E+00
-0.9656008981693E+00 -0.2387736088047E+01  0.0000000000000E+00
-0.9749601345276E+00 -0.2317567234247E+01  0.0000000000000E+00
-0.9856078621643E+00 -0.2247657040614E+01  0.0000000000000E+00
-0.9975861870151E+00 -0.2178050332159E+01  0.0000000000000E+00
-0.1010911319691E+01 -0.2108788652715E+01  0.0000000000000E+00
-0.1025500681307E+01 -0.2039886243729E+01  0.0000000000000E+00
-0.1041292691662E+01 -0.1971358028703E+01  0.0000000000000E+00
-0.1058257807111E+01 -0.1903225784809E+01  0.0000000000000E+00
-0.1076395060859E+01 -0.1835520245327E+01  0.0000000000000E+00
-0.1095732135628E+01 -0.1768284291992E+01  0.0000000000000E+00
-0.1116328911357E+01 -0.1701578368917E+01  0.0000000000000E+00
-0.1138286491965E+01 -0.1635486971509E+01  0.0000000000000E+00
-0.1161762011589E+01 -0.1570137479634E+01  0.0000000000000E+00
-0.1187000863524E+01 -0.1505723011870E+01  0.0000000000000E+00
-0.9075594888834E+00 -0.4232814047965E+01  0.0000000000000E+00
-0.9076189777137E+00 -0.4161583510873E+01  0.0000000000000E+00
-0.9076784666562E+00 -0.4090352839537E+01  0.0000000000000E+00
-0.9077379556503E+00 -0.4019122106283E+01  0.0000000000000E+00
-0.9077974445660E+00 -0.3947891466993E+01  0.0000000000000E+00
-0.9078569334706E+00 -0.3876660841067E+01  0.0000000000000E+00
-0.9079164223826E+00 -0.3805430206090E+01  0.0000000000000E+00
-0.9079759113037E+00 -0.3734199560366E+01  0.0000000000000E+00
-0.9080354002201E+00 -0.3662968920241E+01  0.0000000000000E+00
-0.9080948891373E+00 -0.3591738279139E+01  0.0000000000000E+00
-0.9081543781628E+00 -0.3520507508356E+01  0.0000000000000E+00
-0.9082138670023E+00 -0.3449276960303E+01  0.0000000000000E+00
-0.9082733560189E+00 -0.3378046200137E+01  0.0000000000000E+00
-0.9083328459126E+00 -0.3306814389827E+01  0.0000000000000E+00
-0.9083923338389E+00 -0.3235584935169E+01  0.0000000000000E+00
-0.9084518225908E+00 -0.3164354491989E+01  0.0000000000000E+00
-0.9085113115124E+00 -0.3093123845558E+01  0.0000000000000E+00
-0.9085708004021E+00 -0.3021893237364E+01  0.0000000000000E+00
-0.9086302892149E+00 -0.2950662721375E+01  0.0000000000000E+00
-0.9087573148855E+00 -0.2879432238462E+01  0.0000000000000E+00
-0.9093613722480E+00 -0.2808205242816E+01  0.0000000000000E+00
-0.9108869986093E+00 -0.2736998503262E+01  0.0000000000000E+00
-0.9136012857450E+00 -0.2665843824457E+01  0.0000000000000E+00
-0.9176089303279E+00 -0.2594779518890E+01  0.0000000000000E+00
-0.9229217528804E+00 -0.2523842311999E+01  0.0000000000000E+00
-0.9295157399506E+00 -0.2453065163345E+01  0.0000000000000E+00
-0.9373637322199E+00 -0.2382479178080E+01  0.0000000000000E+00
-0.9464523135519E+00 -0.2312115626497E+01  0.0000000000000E+00
-0.9567912676773E+00 -0.2242010735533E+01  0.0000000000000E+00
-0.9684214548780E+00 -0.2172209330199E+01  0.0000000000000E+00
-0.9813586062191E+00 -0.2102752953541E+01  0.0000000000000E+00
-0.9955225858144E+00 -0.2033655846927E+01  0.0000000000000E+00
-0.1010853635234E+01 -0.1964932934049E+01  0.0000000000000E+00
-0.1027323084841E+01 -0.1896605992232E+01  0.0000000000000E+00
-0.1044929996441E+01 -0.1828705754805E+01  0.0000000000000E+00
-0.1063701233792E+01 -0.1761275103603E+01  0.0000000000000E+00
-0.1083694905311E+01 -0.1694374484189E+01  0.0000000000000E+00
-0.1105009123960E+01 -0.1628088389422E+01  0.0000000000000E+00
-0.1127796375076E+01 -0.1562544204608E+01  0.0000000000000E+00
-0.1152294792365E+01 -0.1497935045915E+01  0.0000000000000E+00
-0.8800628705364E+00 -0.4232624862121E+01  0.0000000000000E+00
-0.8801257410166E+00 -0.4161205139353E+01  0.0000000000000E+00
-0.8801886116154E+00 -0.4089785281985E+01  0.0000000000000E+00
-0.8802514822688E+00 -0.4018365362534E+01  0.0000000000000E+00
-0.8803143528392E+00 -0.3946945537297E+01  0.0000000000000E+00
-0.8803772233979E+00 -0.3875525725460E+01  0.0000000000000E+00
-0.8804400939646E+00 -0.3804105904547E+01  0.0000000000000E+00
-0.8805029645407E+00 -0.3732686072859E+01  0.0000000000000E+00
-0.8805658351119E+00 -0.3661266246784E+01  0.0000000000000E+00
-0.8806287056840E+00 -0.3589846419731E+01  0.0000000000000E+00
-0.8806915763705E+00 -0.3518426462652E+01  0.0000000000000E+00
-0.8807544468605E+00 -0.3447006728894E+01  0.0000000000000E+00
-0.8808173175376E+00 -0.3375586782460E+01  0.0000000000000E+00
-0.8808801891417E+00 -0.3304165783093E+01  0.0000000000000E+00
-0.8809430586665E+00 -0.3232747145634E+01  0.0000000000000E+00
-0.8810059290639E+00 -0.3161327517028E+01  0.0000000000000E+00
-0.8810687996407E+00 -0.3089907684630E+01  0.0000000000000E+00
-0.8811316701837E+00 -0.3018487890573E+01  0.0000000000000E+00
-0.8811945406453E+00 -0.2947068188964E+01  0.0000000000000E+00
-0.8813228890586E+00 -0.2875648520392E+01  0.0000000000000E+00
-0.8819137264959E+00 -0.2804232340163E+01  0.0000000000000E+00
-0.8833980382182E+00 -0.2732836417874E+01  0.0000000000000E+00
-0.8860347735525E+00 -0.2661492557202E+01  0.0000000000000E+00
-0.8899254374389E+00 -0.2590239069998E+01  0.0000000000000E+00
-0.8950814900544E+00 -0.2519112681292E+01  0.0000000000000E+00
-0.9014796500221E+00 -0.2448146350332E+01  0.0000000000000E+00
-0.9090935859732E+00 -0.2377371183027E+01  0.0000000000000E+00
-0.9179102907911E+00 -0.2306818448954E+01  0.0000000000000E+00
-0.9279392499182E+00 -0.2236524375941E+01  0.0000000000000E+00
-0.9392200779827E+00 -0.2166533788996E+01  0.0000000000000E+00
-0.9517680264986E+00 -0.2096888230403E+01  0.0000000000000E+00
-0.9655054025790E+00 -0.2027601941450E+01  0.0000000000000E+00
-0.9803742695659E+00 -0.1958689846016E+01  0.0000000000000E+00
-0.9963468318319E+00 -0.1890173721573E+01  0.0000000000000E+00
-0.1013422179782E+01 -0.1822084301500E+01  0.0000000000000E+00
-0.1031626358213E+01 -0.1754464467729E+01  0.0000000000000E+00
-0.1051015704027E+01 -0.1687374667227E+01  0.0000000000000E+00
-0.1071685339213E+01 -0.1620899390382E+01  0.0000000000000E+00
-0.1093783100342E+01 -0.1555166027787E+01  0.0000000000000E+00
-0.1117539861519E+01 -0.1490367693265E+01  0.0000000000000E+00
-0.8525650613475E+00 -0.4232441222540E+01  0.0000000000000E+00
-0.8526301226369E+00 -0.4160837860356E+01  0.0000000000000E+00
-0.8526951840489E+00 -0.4089234363225E+01  0.0000000000000E+00
-0.8527602455175E+00 -0.4017630803852E+01  0.0000000000000E+00
-0.8528253069002E+00 -0.3946027338935E+01  0.0000000000000E+00
-0.8528903682708E+00 -0.3874423887452E+01  0.0000000000000E+00
-0.8529554296496E+00 -0.3802820426871E+01  0.0000000000000E+00
-0.8530204910382E+00 -0.3731216955486E+01  0.0000000000000E+00
-0.8530855524217E+00 -0.3659613489729E+01  0.0000000000000E+00
-0.8531506138061E+00 -0.3588010022991E+01  0.0000000000000E+00
-0.8532156753090E+00 -0.3516406425893E+01  0.0000000000000E+00
-0.8532807366084E+00 -0.3444803052690E+01  0.0000000000000E+00
-0.8533457981016E+00 -0.3373199466264E+01  0.0000000000000E+00
-0.8534108605539E+00 -0.3301594824198E+01  0.0000000000000E+00
-0.8534759208546E+00 -0.3229992550113E+01  0.0000000000000E+00
-0.8535409820583E+00 -0.3158389282333E+01  0.0000000000000E+00
-0.8536060434475E+00 -0.3086785810237E+01  0.0000000000000E+00
-0.8536711048019E+00 -0.3015182376580E+01  0.0000000000000E+00
-0.8537361660720E+00 -0.2943579035609E+01  0.0000000000000E+00
-0.8538646463877E+00 -0.2871975727635E+01  0.0000000000000E+00
-0.8544410730703E+00 -0.2800375909051E+01  0.0000000000000E+00
-0.8558828793436E+00 -0.2728796350200E+01  0.0000000000000E+00
-0.8584408720812E+00 -0.2657268853809E+01  0.0000000000000E+00
-0.8622133644880E+00 -0.2585831731108E+01  0.0000000000000E+00
-0.8672114563930E+00 -0.2514521706732E+01  0.0000000000000E+00
-0.8734125984922E+00 -0.2443371739627E+01  0.0000000000000E+00
-0.8807912873710E+00 -0.2372412936434E+01  0.0000000000000E+00
-0.8893349249278E+00 -0.2301676566038E+01  0.0000000000000E+00
-0.8990526983227E+00 -0.2231198857128E+01  0.0000000000000E+00
-0.9099829765306E+00 -0.2161024634712E+01  0.0000000000000E+00
-0.9221405315093E+00 -0.2091195440332E+01  0.0000000000000E+00
-0.9354501133705E+00 -0.2021725515203E+01  0.0000000000000E+00
-0.9498556072284E+00 -0.1952629783379E+01  0.0000000000000E+00
-0.9653300914659E+00 -0.1883930022482E+01  0.0000000000000E+00
-0.9818726850887E+00 -0.1815656965932E+01  0.0000000000000E+00
-0.9995086139303E+00 -0.1747853495759E+01  0.0000000000000E+00
-0.1018292443390E+01 -0.1680580060295E+01  0.0000000000000E+00
-0.1038316304469E+01 -0.1613921147526E+01  0.0000000000000E+00
-0.1059723385008E+01 -0.1548004153177E+01  0.0000000000000E+00
-0.1082737299492E+01 -0.1483022188796E+01  0.0000000000000E+00
-0.8250660920538E+00 -0.4232263159309E+01  0.0000000000000E+00
-0.8251321840486E+00 -0.4160481734051E+01  0.0000000000000E+00
-0.8251982761680E+00 -0.4088700173511E+01  0.0000000000000E+00
-0.8252643683448E+00 -0.4016918550576E+01  0.0000000000000E+00
-0.8253304604344E+00 -0.3945137022330E+01  0.0000000000000E+00
-0.8253965525117E+00 -0.3873355507552E+01  0.0000000000000E+00
-0.8254626445973E+00 -0.3801573983653E+01  0.0000000000000E+00
-0.8255287366929E+00 -0.3729792448923E+01  0.0000000000000E+00
-0.8255948287833E+00 -0.3658010919836E+01  0.0000000000000E+00
-0.8256609208746E+00 -0.3586229389765E+01  0.0000000000000E+00
-0.8257270130863E+00 -0.3514447729009E+01  0.0000000000000E+00
-0.8257931050913E+00 -0.3442666292706E+01  0.0000000000000E+00
-0.8258591972930E+00 -0.3370884642650E+01  0.0000000000000E+00
-0.8259252904692E+00 -0.3299101934328E+01  0.0000000000000E+00
-0.8259913814597E+00 -0.3227321599875E+01  0.0000000000000E+00
-0.8260574733674E+00 -0.3155540269257E+01  0.0000000000000E+00
-0.8261235654636E+00 -0.3083758733815E+01  0.0000000000000E+00
-0.8261896575244E+00 -0.3011977236907E+01  0.0000000000000E+00
-0.8262557494996E+00 -0.2940195832915E+01  0.0000000000000E+00
-0.8263832016146E+00 -0.2868414461884E+01  0.0000000000000E+00
-0.8269440574487E+00 -0.2796636581256E+01  0.0000000000000E+00
-0.8283421981958E+00 -0.2724878962100E+01  0.0000000000000E+00
-0.8308202882722E+00 -0.2653173406220E+01  0.0000000000000E+00
-0.8344734491439E+00 -0.2581558224248E+01  0.0000000000000E+00
-0.8393124202894E+00 -0.2510070140431E+01  0.0000000000000E+00
-0.8453153844756E+00 -0.2438742113425E+01  0.0000000000000E+00
-0.8524576662468E+00 -0.2367605250581E+01  0.0000000000000E+00
-0.8607270765120E+00 -0.2296690820111E+01  0.0000000000000E+00
-0.8701325041541E+00 -0.2226035051540E+01  0.0000000000000E+00
-0.8807110724950E+00 -0.2155682769878E+01  0.0000000000000E+00
-0.8924770739321E+00 -0.2085675515945E+01  0.0000000000000E+00
-0.9053577015745E+00 -0.2016027530883E+01  0.0000000000000E+00
-0.9192986623094E+00 -0.1946753738922E+01  0.0000000000000E+00
-0.9342739085305E+00 -0.1877875917823E+01  0.0000000000000E+00
-0.9502825878444E+00 -0.1809424801052E+01  0.0000000000000E+00
-0.9673491071235E+00 -0.1741443270728E+01  0.0000000000000E+00
-0.9855262602718E+00 -0.1673991776510E+01  0.0000000000000E+00
-0.1004903187288E+01 -0.1607154804054E+01  0.0000000000000E+00
-0.1025618427315E+01 -0.1541059754062E+01  0.0000000000000E+00
-0.1047888335209E+01 -0.1475899735876E+01  0.0000000000000E+00
-0.7975659939323E+00 -0.4232090701822E+01  0.0000000000000E+00
-0.7976319878057E+00 -0.4160136819232E+01  0.0000000000000E+00
-0.7976979818034E+00 -0.4088182801034E+01  0.0000000000000E+00
-0.7977639758586E+00 -0.4016228720290E+01  0.0000000000000E+00
-0.7978299698266E+00 -0.3944274734464E+01  0.0000000000000E+00
-0.7978959637823E+00 -0.3872320762138E+01  0.0000000000000E+00
-0.7979619577464E+00 -0.3800366780669E+01  0.0000000000000E+00
-0.7980279517205E+00 -0.3728412788344E+01  0.0000000000000E+00
-0.7980939456893E+00 -0.3656458801674E+01  0.0000000000000E+00
-0.7981599396591E+00 -0.3584504814019E+01  0.0000000000000E+00
-0.7982259337490E+00 -0.3512550695365E+01  0.0000000000000E+00
-0.7982919276325E+00 -0.3440596801702E+01  0.0000000000000E+00
-0.7983579217126E+00 -0.3368642693773E+01  0.0000000000000E+00
-0.7984239167656E+00 -0.3296687525035E+01  0.0000000000000E+00
-0.7984899096361E+00 -0.3224734735871E+01  0.0000000000000E+00
-0.7985559034225E+00 -0.3152780948147E+01  0.0000000000000E+00
-0.7986218973972E+00 -0.3080826955107E+01  0.0000000000000E+00
-0.7986878913365E+00 -0.3008873000694E+01  0.0000000000000E+00
-0.7987538851903E+00 -0.2936919139421E+01  0.0000000000000E+00
-0.7988791802779E+00 -0.2864965311072E+01  0.0000000000000E+00
-0.7994233364446E+00 -0.2793014974107E+01  0.0000000000000E+00
-0.8007766828600E+00 -0.2721084900299E+01  0.0000000000000E+00
-0.8031737414778E+00 -0.2649206890558E+01  0.0000000000000E+00
-0.8067064420217E+00 -0.2577419254934E+01  0.0000000000000E+00
-0.8113851636173E+00 -0.2505758717304E+01  0.0000000000000E+00
-0.8171888211005E+00 -0.2434258236037E+01  0.0000000000000E+00
-0.8240935669787E+00 -0.2362948919174E+01  0.0000000000000E+00
-0.8320876211673E+00 -0.2291862034276E+01  0.0000000000000E+00
-0.8411795742777E+00 -0.2221033811677E+01  0.0000000000000E+00
-0.8514053039785E+00 -0.2150509076388E+01  0.0000000000000E+00
-0.8627786231021E+00 -0.2080329368531E+01  0.0000000000000E+00
-0.8752291677545E+00 -0.2010508929178E+01  0.0000000000000E+00
-0.8887044665969E+00 -0.1941062682728E+01  0.0000000000000E+00
-0.9031793460348E+00 -0.1872012407076E+01  0.0000000000000E+00
-0.9186529822757E+00 -0.1803388835734E+01  0.0000000000000E+00
-0.9351489632314E+00 -0.1735234850908E+01  0.0000000000000E+00
-0.9527183113194E+00 -0.1667610903540E+01  0.0000000000000E+00
-0.9714471755213E+00 -0.1600601477032E+01  0.0000000000000E+00
-0.9914694463155E+00 -0.1534333976903E+01  0.0000000000000E+00
-0.1012994218913E+01 -0.1469001510359E+01  0.0000000000000E+00
-0.7700647981096E+00 -0.4231923878620E+01  0.0000000000000E+00
-0.7701295961614E+00 -0.4159803172976E+01  0.0000000000000E+00
-0.7701943943354E+00 -0.4087682331411E+01  0.0000000000000E+00
-0.7702591925656E+00 -0.4015561427154E+01  0.0000000000000E+00
-0.7703239907104E+00 -0.3943440618035E+01  0.0000000000000E+00
-0.7703887888430E+00 -0.3871319822448E+01  0.0000000000000E+00
-0.7704535869839E+00 -0.3799199017697E+01  0.0000000000000E+00
-0.7705183851345E+00 -0.3727078202063E+01  0.0000000000000E+00
-0.7705831832801E+00 -0.3654957392099E+01  0.0000000000000E+00
-0.7706479814265E+00 -0.3582836581146E+01  0.0000000000000E+00
-0.7707127796909E+00 -0.3510715638892E+01  0.0000000000000E+00
-0.7707775777527E+00 -0.3438594922150E+01  0.0000000000000E+00
-0.7708423760074E+00 -0.3366473990645E+01  0.0000000000000E+00
-0.7709071752175E+00 -0.3294351995872E+01  0.0000000000000E+00
-0.7709719722846E+00 -0.3222232386190E+01  0.0000000000000E+00
-0.7710367702510E+00 -0.3150111775632E+01  0.0000000000000E+00
-0.7711015684022E+00 -0.3077990959283E+01  0.0000000000000E+00
-0.7711663665187E+00 -0.3005870181650E+01  0.0000000000000E+00
-0.7712311645513E+00 -0.2933749497373E+01  0.0000000000000E+00
-0.7713532049104E+00 -0.2861628845984E+01  0.0000000000000E+00
-0.7718795637062E+00 -0.2789511686930E+01  0.0000000000000E+00
-0.7731870180811E+00 -0.2717414792663E+01  0.0000000000000E+00
-0.7755019475157E+00 -0.2645369963226E+01  0.0000000000000E+00
-0.7789130899857E+00 -0.2573415508111E+01  0.0000000000000E+00
-0.7834304642614E+00 -0.2501588150830E+01  0.0000000000000E+00
-0.7890337172463E+00 -0.2429920849482E+01  0.0000000000000E+00
-0.7956998294157E+00 -0.2358444712771E+01  0.0000000000000E+00
-0.8034174296876E+00 -0.2287191007629E+01  0.0000000000000E+00
-0.8121948104066E+00 -0.2216195965175E+01  0.0000000000000E+00
-0.8220666035875E+00 -0.2145504410416E+01  0.0000000000000E+00
-0.8330461424932E+00 -0.2075157882804E+01  0.0000000000000E+00
-0.8450655062273E+00 -0.2005170623341E+01  0.0000000000000E+00
-0.8580740452271E+00 -0.1935557556587E+01  0.0000000000000E+00
-0.8720474599112E+00 -0.1866340460572E+01  0.0000000000000E+00
-0.8869849550885E+00 -0.1797550068848E+01  0.0000000000000E+00
-0.9029092997104E+00 -0.1729229263707E+01  0.0000000000000E+00
-0.9198697447146E+00 -0.1661438497332E+01  0.0000000000000E+00
-0.9379494480500E+00 -0.1594262250943E+01  0.0000000000000E+00
-0.9572776515575E+00 -0.1527827934722E+01  0.0000000000000E+00
-0.9780561907860E+00 -0.1462328653807E+01  0.0000000000000E+00
-0.7425625381275E+00 -0.4231762717925E+01  0.0000000000000E+00
-0.7426250761992E+00 -0.4159480851731E+01  0.0000000000000E+00
-0.7426876143887E+00 -0.4087198849311E+01  0.0000000000000E+00
-0.7427501526326E+00 -0.4014916784060E+01  0.0000000000000E+00
-0.7428126907940E+00 -0.3942634814159E+01  0.0000000000000E+00
-0.7428752289437E+00 -0.3870352857819E+01  0.0000000000000E+00
-0.7429377671013E+00 -0.3798070892296E+01  0.0000000000000E+00
-0.7430003052684E+00 -0.3725788915866E+01  0.0000000000000E+00
-0.7430628434305E+00 -0.3653506945118E+01  0.0000000000000E+00
-0.7431253815935E+00 -0.3581224973379E+01  0.0000000000000E+00
-0.7431879198704E+00 -0.3508942870045E+01  0.0000000000000E+00
-0.7432504579517E+00 -0.3436660992727E+01  0.0000000000000E+00
-0.7433129962192E+00 -0.3364378900167E+01  0.0000000000000E+00
-0.7433755354087E+00 -0.3292095741962E+01  0.0000000000000E+00
-0.7434380725301E+00 -0.3219814974178E+01  0.0000000000000E+00
-0.7435006105193E+00 -0.3147533203282E+01  0.0000000000000E+00
-0.7435631486870E+00 -0.3075251226135E+01  0.0000000000000E+00
-0.7436256868211E+00 -0.3002969287790E+01  0.0000000000000E+00
-0.7436882248742E+00 -0.2930687443010E+01  0.0000000000000E+00
-0.7438059463465E+00 -0.2858405631084E+01  0.0000000000000E+00
-0.7443134436217E+00 -0.2786127312410E+01  0.0000000000000E+00
-0.7455739418209E+00 -0.2713869260097E+01  0.0000000000000E+00
-0.7478056779474E+00 -0.2641663273355E+01  0.0000000000000E+00
-0.7510941982260E+00 -0.2569547661129E+01  0.0000000000000E+00
-0.7554491610694E+00 -0.2497559146585E+01  0.0000000000000E+00
-0.7608509454467E+00 -0.2425730687557E+01  0.0000000000000E+00
-0.7672773598055E+00 -0.2354093393392E+01  0.0000000000000E+00
-0.7747174420619E+00 -0.2282678530414E+01  0.0000000000000E+00
-0.7831791862991E+00 -0.2211522330498E+01  0.0000000000000E+00
-0.7926959788783E+00 -0.2140669618651E+01  0.0000000000000E+00
-0.8032806734883E+00 -0.2070161933674E+01  0.0000000000000E+00
-0.8148677922298E+00 -0.2000013516502E+01  0.0000000000000E+00
-0.8274085073170E+00 -0.1930239291855E+01  0.0000000000000E+00
-0.8408793931821E+00 -0.1860861037888E+01  0.0000000000000E+00
-0.8552796832357E+00 -0.1791909488193E+01  0.0000000000000E+00
-0.8706313274695E+00 -0.1723427525147E+01  0.0000000000000E+00
-0.8869818053497E+00 -0.1655475602130E+01  0.0000000000000E+00
-0.9044112837790E+00 -0.1588138198255E+01  0.0000000000000E+00
-0.9230443559913E+00 -0.1521542728208E+01  0.0000000000000E+00
-0.9430755978615E+00 -0.1455882295130E+01  0.0000000000000E+00
-0.7150592470639E+00 -0.4231607246974E+01  0.0000000000000E+00
-0.7151184940750E+00 -0.4159169909968E+01  0.0000000000000E+00
-0.7151777411977E+00 -0.4086732436442E+01  0.0000000000000E+00
-0.7152369883719E+00 -0.4014294899951E+01  0.0000000000000E+00
-0.7152962354680E+00 -0.3941857459014E+01  0.0000000000000E+00
-0.7153554825529E+00 -0.3869420031669E+01  0.0000000000000E+00
-0.7154147296454E+00 -0.3796982595119E+01  0.0000000000000E+00
-0.7154739767468E+00 -0.3724545147640E+01  0.0000000000000E+00
-0.7155332238436E+00 -0.3652107705855E+01  0.0000000000000E+00
-0.7155924709412E+00 -0.3579670263077E+01  0.0000000000000E+00
-0.7156517181466E+00 -0.3507232688420E+01  0.0000000000000E+00
-0.7157109651668E+00 -0.3434795340266E+01  0.0000000000000E+00
-0.7157702123634E+00 -0.3362357776407E+01  0.0000000000000E+00
-0.7158294604335E+00 -0.3289919144611E+01  0.0000000000000E+00
-0.7158887065442E+00 -0.3217482908377E+01  0.0000000000000E+00
-0.7159479534771E+00 -0.3145045666874E+01  0.0000000000000E+00
-0.7160072005791E+00 -0.3072608218676E+01  0.0000000000000E+00
-0.7160664476493E+00 -0.3000170809363E+01  0.0000000000000E+00
-0.7161256946429E+00 -0.2927733493817E+01  0.0000000000000E+00
-0.7162380661482E+00 -0.2855296211092E+01  0.0000000000000E+00
-0.7167256708301E+00 -0.2782862422504E+01  0.0000000000000E+00
-0.7179381817940E+00 -0.2710448901796E+01  0.0000000000000E+00
-0.7200856935616E+00 -0.2638087447371E+01  0.0000000000000E+00
-0.7232505606037E+00 -0.2565816367651E+01  0.0000000000000E+00
-0.7274420809730E+00 -0.2493672385468E+01  0.0000000000000E+00
-0.7326413657027E+00 -0.2421688458397E+01  0.0000000000000E+00
-0.7388270512163E+00 -0.2349895696407E+01  0.0000000000000E+00
-0.7459885844246E+00 -0.2278325365235E+01  0.0000000000000E+00
-0.7541336611539E+00 -0.2207013697486E+01  0.0000000000000E+00
-0.7632944221120E+00 -0.2136005518168E+01  0.0000000000000E+00
-0.7734832414096E+00 -0.2065342365452E+01  0.0000000000000E+00
-0.7846370841437E+00 -0.1995038480210E+01  0.0000000000000E+00
-0.7967089443062E+00 -0.1925108787314E+01  0.0000000000000E+00
-0.8096762703438E+00 -0.1855575065041E+01  0.0000000000000E+00
-0.8235383242689E+00 -0.1786468047024E+01  0.0000000000000E+00
-0.8383162371141E+00 -0.1717830615718E+01  0.0000000000000E+00
-0.8540557168821E+00 -0.1649723225659E+01  0.0000000000000E+00
-0.8708339394160E+00 -0.1582230353929E+01  0.0000000000000E+00
-0.8887708493720E+00 -0.1515479419557E+01  0.0000000000000E+00
-0.9080537629396E+00 -0.1449663523759E+01  0.0000000000000E+00
-0.6875549585543E+00 -0.4231457492231E+01  0.0000000000000E+00
-0.6876099170595E+00 -0.4158870400615E+01  0.0000000000000E+00
-0.6876648756684E+00 -0.4086283172198E+01  0.0000000000000E+00
-0.6877198343249E+00 -0.4013695880685E+01  0.0000000000000E+00
-0.6877747929090E+00 -0.3941108684925E+01  0.0000000000000E+00
-0.6878297514828E+00 -0.3868521502783E+01  0.0000000000000E+00
-0.6878847100636E+00 -0.3795934311418E+01  0.0000000000000E+00
-0.6879396686527E+00 -0.3723347109101E+01  0.0000000000000E+00
-0.6879946272374E+00 -0.3650759912490E+01  0.0000000000000E+00
-0.6880495858229E+00 -0.3578172714884E+01  0.0000000000000E+00
-0.6881045445085E+00 -0.3505585385126E+01  0.0000000000000E+00
-0.6881595030222E+00 -0.3432998282340E+01  0.0000000000000E+00
-0.6882144616995E+00 -0.3360410963403E+01  0.0000000000000E+00
-0.6882694211871E+00 -0.3287822574321E+01  0.0000000000000E+00
-0.6883243788572E+00 -0.3215236585753E+01  0.0000000000000E+00
-0.6883793372900E+00 -0.3142649589838E+01  0.0000000000000E+00
-0.6884342958796E+00 -0.3070062386801E+01  0.0000000000000E+00
-0.6884892544397E+00 -0.2997475222730E+01  0.0000000000000E+00
-0.6885442129287E+00 -0.2924888152618E+01  0.0000000000000E+00
-0.6886502370222E+00 -0.2852301115297E+01  0.0000000000000E+00
-0.6891169516725E+00 -0.2779717572965E+01  0.0000000000000E+00
-0.6902804779749E+00 -0.2707154299975E+01  0.0000000000000E+00
-0.6923427679648E+00 -0.2634643093955E+01  0.0000000000000E+00
-0.6953829843556E+00 -0.2562222262823E+01  0.0000000000000E+00
-0.6994100648383E+00 -0.2489928529086E+01  0.0000000000000E+00
-0.7044058525081E+00 -0.2417794850073E+01  0.0000000000000E+00
-0.7103498117688E+00 -0.2345852336351E+01  0.0000000000000E+00
-0.7172317985216E+00 -0.2274132253092E+01  0.0000000000000E+00
-0.7250592103409E+00 -0.2202670833605E+01  0.0000000000000E+00
-0.7338629422812E+00 -0.2131512902894E+01  0.0000000000000E+00
-0.7436548888710E+00 -0.2060699998530E+01  0.0000000000000E+00
-0.7543744582030E+00 -0.1990246361320E+01  0.0000000000000E+00
-0.7659764660477E+00 -0.1920166916283E+01  0.0000000000000E+00
-0.7784392348670E+00 -0.1850483441816E+01  0.0000000000000E+00
-0.7917620552753E+00 -0.1781226671587E+01  0.0000000000000E+00
-0.8059652393467E+00 -0.1712439488130E+01  0.0000000000000E+00
-0.8210927236280E+00 -0.1644182347095E+01  0.0000000000000E+00
-0.8372186928899E+00 -0.1576539723603E+01  0.0000000000000E+00
-0.8544584432393E+00 -0.1509639040870E+01  0.0000000000000E+00
-0.8729920311679E+00 -0.1443673398257E+01  0.0000000000000E+00
-0.6600497067773E+00 -0.4231313479365E+01  0.0000000000000E+00
-0.6600994135103E+00 -0.4158582375012E+01  0.0000000000000E+00
-0.6601491203370E+00 -0.4085851133586E+01  0.0000000000000E+00
-0.6601988272069E+00 -0.4013119828939E+01  0.0000000000000E+00
-0.6602485340112E+00 -0.3940388620235E+01  0.0000000000000E+00
-0.6602982408062E+00 -0.3867657425176E+01  0.0000000000000E+00
-0.6603479476074E+00 -0.3794926220876E+01  0.0000000000000E+00
-0.6603976544162E+00 -0.3722195005602E+01  0.0000000000000E+00
-0.6604473612211E+00 -0.3649463796046E+01  0.0000000000000E+00
-0.6604970680267E+00 -0.3576732585492E+01  0.0000000000000E+00
-0.6605467749228E+00 -0.3504001242525E+01  0.0000000000000E+00
-0.6605964816634E+00 -0.3431270126979E+01  0.0000000000000E+00
-0.6606461885521E+00 -0.3358538794853E+01  0.0000000000000E+00
-0.6606958961735E+00 -0.3285806390460E+01  0.0000000000000E+00
-0.6607456021512E+00 -0.3213076391343E+01  0.0000000000000E+00
-0.6607953088186E+00 -0.3140345382881E+01  0.0000000000000E+00
-0.6608450156279E+00 -0.3067614166885E+01  0.0000000000000E+00
-0.6608947224105E+00 -0.2994882989933E+01  0.0000000000000E+00
-0.6609444291288E+00 -0.2922151907127E+01  0.0000000000000E+00
-0.6610431425442E+00 -0.2849420857080E+01  0.0000000000000E+00
-0.6614880039029E+00 -0.2776693302843E+01  0.0000000000000E+00
-0.6626015822945E+00 -0.2703986019355E+01  0.0000000000000E+00
-0.6645776872636E+00 -0.2631330803497E+01  0.0000000000000E+00
-0.6674922897633E+00 -0.2558765962702E+01  0.0000000000000E+00
-0.6713539671204E+00 -0.2486328219165E+01  0.0000000000000E+00
-0.6761452944910E+00 -0.2414050529980E+01  0.0000000000000E+00
-0.6818465642625E+00 -0.2341964006289E+01  0.0000000000000E+00
-0.6884480413232E+00 -0.2270099912718E+01  0.0000000000000E+00
-0.6959568250001E+00 -0.2198494483253E+01  0.0000000000000E+00
-0.7044025646942E+00 -0.2127192542900E+01  0.0000000000000E+00
-0.7137966753483E+00 -0.2056235628645E+01  0.0000000000000E+00
-0.7240810080500E+00 -0.1985637981238E+01  0.0000000000000E+00
-0.7352122003494E+00 -0.1915414525839E+01  0.0000000000000E+00
-0.7471694487241E+00 -0.1845587040956E+01  0.0000000000000E+00
-0.7599520723911E+00 -0.1776186260296E+01  0.0000000000000E+00
-0.7735795644664E+00 -0.1707255066466E+01  0.0000000000000E+00
-0.7880940900479E+00 -0.1638853916186E+01  0.0000000000000E+00
-0.8035668428218E+00 -0.1571067282696E+01  0.0000000000000E+00
-0.8201084703724E+00 -0.1504022593235E+01  0.0000000000000E+00
-0.8378917694826E+00 -0.1437912945380E+01  0.0000000000000E+00
-0.6325435264408E+00 -0.4231175233227E+01  0.0000000000000E+00
-0.6325870528428E+00 -0.4158305882860E+01  0.0000000000000E+00
-0.6326305793268E+00 -0.4085436395159E+01  0.0000000000000E+00
-0.6326741058486E+00 -0.4012566844116E+01  0.0000000000000E+00
-0.6327176323130E+00 -0.3939697389199E+01  0.0000000000000E+00
-0.6327611587693E+00 -0.3866827947953E+01  0.0000000000000E+00
-0.6328046852310E+00 -0.3793958497448E+01  0.0000000000000E+00
-0.6328482116994E+00 -0.3721089035949E+01  0.0000000000000E+00
-0.6328917381643E+00 -0.3648219580177E+01  0.0000000000000E+00
-0.6329352646298E+00 -0.3575350123407E+01  0.0000000000000E+00
-0.6329787911746E+00 -0.3502480533972E+01  0.0000000000000E+00
-0.6330223175833E+00 -0.3429611172390E+01  0.0000000000000E+00
-0.6330658441215E+00 -0.3356741593817E+01  0.0000000000000E+00
-0.6331093713015E+00 -0.3283870940938E+01  0.0000000000000E+00
-0.6331528970420E+00 -0.3211002697907E+01  0.0000000000000E+00
-0.6331964233866E+00 -0.3138133443612E+01  0.0000000000000E+00
-0.6332399498554E+00 -0.3065263981390E+01  0.0000000000000E+00
-0.6332834763008E+00 -0.2992394558285E+01  0.0000000000000E+00
-0.6333270026899E+00 -0.2919525229505E+01  0.0000000000000E+00
-0.6334174768685E+00 -0.2846655933456E+01  0.0000000000000E+00
-0.6338395563828E+00 -0.2773790134003E+01  0.0000000000000E+00
-0.6349022583205E+00 -0.2700944606649E+01  0.0000000000000E+00
-0.6367912497310E+00 -0.2628151147559E+01  0.0000000000000E+00
-0.6395793098040E+00 -0.2555448063701E+01  0.0000000000000E+00
-0.6432746555003E+00 -0.2482872076970E+01  0.0000000000000E+00
-0.6478605940350E+00 -0.2410456144233E+01  0.0000000000000E+00
-0.6533182457832E+00 -0.2338231377183E+01  0.0000000000000E+00
-0.6596382846166E+00 -0.2266229039926E+01  0.0000000000000E+00
-0.6668275116189E+00 -0.2194485367097E+01  0.0000000000000E+00
-0.6749143305382E+00 -0.2123045183699E+01  0.0000000000000E+00
-0.6839096767271E+00 -0.2051950026162E+01  0.0000000000000E+00
-0.6937578442685E+00 -0.1981214135179E+01  0.0000000000000E+00
-0.7044172924922E+00 -0.1910852436044E+01  0.0000000000000E+00
-0.7158680918929E+00 -0.1840886707377E+01  0.0000000000000E+00
-0.7281095902899E+00 -0.1771347682916E+01  0.0000000000000E+00
-0.7411604618417E+00 -0.1702278245340E+01  0.0000000000000E+00
-0.7550611002044E+00 -0.1633738852398E+01  0.0000000000000E+00
-0.7698797079675E+00 -0.1565813975523E+01  0.0000000000000E+00
-0.7857222842192E+00 -0.1498631045816E+01  0.0000000000000E+00
-0.8027543660217E+00 -0.1432383159141E+01  0.0000000000000E+00
-0.6050364527661E+00 -0.4231042777827E+01  0.0000000000000E+00
-0.6050729054997E+00 -0.4158040972176E+01  0.0000000000000E+00
-0.6051093583019E+00 -0.4085039028943E+01  0.0000000000000E+00
-0.6051458111359E+00 -0.4012037022253E+01  0.0000000000000E+00
-0.6051822639217E+00 -0.3939035111863E+01  0.0000000000000E+00
-0.6052187167008E+00 -0.3866033215170E+01  0.0000000000000E+00
-0.6052551694844E+00 -0.3793031309200E+01  0.0000000000000E+00
-0.6052916222736E+00 -0.3720029392216E+01  0.0000000000000E+00
-0.6053280750599E+00 -0.3647027480971E+01  0.0000000000000E+00
-0.6053645278467E+00 -0.3574025568724E+01  0.0000000000000E+00
-0.6054009806998E+00 -0.3501023523572E+01  0.0000000000000E+00
-0.6054374334390E+00 -0.3428021706688E+01  0.0000000000000E+00
-0.6054738862868E+00 -0.3355019672416E+01  0.0000000000000E+00
-0.6055103396719E+00 -0.3282016561887E+01  0.0000000000000E+00
-0.6055467918515E+00 -0.3209015865587E+01  0.0000000000000E+00
-0.6055832445370E+00 -0.3136014156184E+01  0.0000000000000E+00
-0.6056196973266E+00 -0.3063012238476E+01  0.0000000000000E+00
-0.6056561500965E+00 -0.2990010359956E+01  0.0000000000000E+00
-0.6056926028193E+00 -0.2917008575933E+01  0.0000000000000E+00
-0.6057739444239E+00 -0.2844006824612E+01  0.0000000000000E+00
-0.6061723487616E+00 -0.2771008570642E+01  0.0000000000000E+00
-0.6071832809226E+00 -0.2698030590064E+01  0.0000000000000E+00
-0.6089842654561E+00 -0.2625104678358E+01  0.0000000000000E+00
-0.6116448897857E+00 -0.2552269142045E+01  0.0000000000000E+00
-0.6151730105041E+00 -0.2479560702734E+01  0.0000000000000E+00
-0.6195526668839E+00 -0.2407012317074E+01  0.0000000000000E+00
-0.6247658072915E+00 -0.2334655097287E+01  0.0000000000000E+00
-0.6308035145786E+00 -0.2262520306978E+01  0.0000000000000E+00
-0.6376722915901E+00 -0.2190644181405E+01  0.0000000000000E+00
-0.6453992964206E+00 -0.2119071545571E+01  0.0000000000000E+00
-0.6539949848298E+00 -0.2047843935370E+01  0.0000000000000E+00
-0.6634060938944E+00 -0.1976975591441E+01  0.0000000000000E+00
-0.6735929047258E+00 -0.1906481439207E+01  0.0000000000000E+00
-0.6845363618356E+00 -0.1836383257392E+01  0.0000000000000E+00
-0.6962358416462E+00 -0.1766711779769E+01  0.0000000000000E+00
-0.7087091993589E+00 -0.1697509889085E+01  0.0000000000000E+00
-0.7219950571948E+00 -0.1628838044074E+01  0.0000000000000E+00
-0.7361586266348E+00 -0.1560780714435E+01  0.0000000000000E+00
-0.7513012582960E+00 -0.1493465334972E+01  0.0000000000000E+00
-0.7675812295093E+00 -0.1427084999909E+01  0.0000000000000E+00
-0.5775285214724E+00 -0.4230916136309E+01  0.0000000000000E+00
-0.5775570429194E+00 -0.4157787689254E+01  0.0000000000000E+00
-0.5775855644201E+00 -0.4084659104378E+01  0.0000000000000E+00
-0.5776140859456E+00 -0.4011530455935E+01  0.0000000000000E+00
-0.5776426074335E+00 -0.3938401903959E+01  0.0000000000000E+00
-0.5776711289161E+00 -0.3865273365703E+01  0.0000000000000E+00
-0.5776996504022E+00 -0.3792144818156E+01  0.0000000000000E+00
-0.5777281718927E+00 -0.3719016259574E+01  0.0000000000000E+00
-0.5777566933810E+00 -0.3645887706741E+01  0.0000000000000E+00
-0.5777852148696E+00 -0.3572759152905E+01  0.0000000000000E+00
-0.5778137364101E+00 -0.3499630465933E+01  0.0000000000000E+00
-0.5778422578615E+00 -0.3426502007624E+01  0.0000000000000E+00
-0.5778707793978E+00 -0.3353373331552E+01  0.0000000000000E+00
-0.5778993013546E+00 -0.3280243577355E+01  0.0000000000000E+00
-0.5779278223681E+00 -0.3207116241575E+01  0.0000000000000E+00
-0.5779563437775E+00 -0.3133987890935E+01  0.0000000000000E+00
-0.5779848652682E+00 -0.3060859331627E+01  0.0000000000000E+00
-0.5780133867437E+00 -0.2987730811577E+01  0.0000000000000E+00
-0.5780419081822E+00 -0.2914602386187E+01  0.0000000000000E+00
-0.5781132595947E+00 -0.2841473993472E+01  0.0000000000000E+00
-0.5784871311427E+00 -0.2768349098829E+01  0.0000000000000E+00
-0.5794454359221E+00 -0.2695244478816E+01  0.0000000000000E+00
-0.5811575559778E+00 -0.2622191928255E+01  0.0000000000000E+00
-0.5836898869641E+00 -0.2549229753241E+01  0.0000000000000E+00
-0.5870499251040E+00 -0.2476394675110E+01  0.0000000000000E+00
-0.5912224417263E+00 -0.2403719650301E+01  0.0000000000000E+00
-0.5961902131919E+00 -0.2331235791543E+01  0.0000000000000E+00
-0.6019447313292E+00 -0.2258974361963E+01  0.0000000000000E+00
-0.6084922007484E+00 -0.2186971597412E+01  0.0000000000000E+00
-0.6158585338908E+00 -0.2115272322895E+01  0.0000000000000E+00
-0.6240537069192E+00 -0.2043918073793E+01  0.0000000000000E+00
-0.6330268999046E+00 -0.1972923090693E+01  0.0000000000000E+00
-0.6427402157399E+00 -0.1902302299143E+01  0.0000000000000E+00
-0.6531754729551E+00 -0.1832077477966E+01  0.0000000000000E+00
-0.6643320765753E+00 -0.1762279360967E+01  0.0000000000000E+00
-0.6762270628454E+00 -0.1692950830957E+01  0.0000000000000E+00
-0.6888972825577E+00 -0.1624152347613E+01  0.0000000000000E+00
-0.7024049560735E+00 -0.1555968378978E+01  0.0000000000000E+00
-0.7168467855624E+00 -0.1488526363395E+01  0.0000000000000E+00
-0.7323737886136E+00 -0.1422019393519E+01  0.0000000000000E+00
-0.5500197687602E+00 -0.4230795330937E+01  0.0000000000000E+00
-0.5500395375027E+00 -0.4157546078617E+01  0.0000000000000E+00
-0.5500593062825E+00 -0.4084296688248E+01  0.0000000000000E+00
-0.5500790750795E+00 -0.4011047234207E+01  0.0000000000000E+00
-0.5500988438504E+00 -0.3937797876793E+01  0.0000000000000E+00
-0.5501186126176E+00 -0.3864548533122E+01  0.0000000000000E+00
-0.5501383813873E+00 -0.3791299180143E+01  0.0000000000000E+00
-0.5501581501600E+00 -0.3718049816112E+01  0.0000000000000E+00
-0.5501779189312E+00 -0.3644800457840E+01  0.0000000000000E+00
-0.5501976877026E+00 -0.3571551098563E+01  0.0000000000000E+00
-0.5502174565100E+00 -0.3498301605929E+01  0.0000000000000E+00
-0.5502372252556E+00 -0.3425052342338E+01  0.0000000000000E+00
-0.5502569940600E+00 -0.3351802860622E+01  0.0000000000000E+00
-0.5502767631559E+00 -0.3278552299001E+01  0.0000000000000E+00
-0.5502965315980E+00 -0.3205304159791E+01  0.0000000000000E+00
-0.5503163003145E+00 -0.3132055004046E+01  0.0000000000000E+00
-0.5503360690874E+00 -0.3058805639288E+01  0.0000000000000E+00
-0.5503558378497E+00 -0.2985556313852E+01  0.0000000000000E+00
-0.5503756065864E+00 -0.2912307083233E+01  0.0000000000000E+00
-0.5504361463889E+00 -0.2839057885264E+01  0.0000000000000E+00
-0.5507846637340E+00 -0.2765812186054E+01  0.0000000000000E+00
-0.5516895197264E+00 -0.2692586762654E+01  0.0000000000000E+00
-0.5533119539024E+00 -0.2619413409260E+01  0.0000000000000E+00
-0.5557151701444E+00 -0.2546330431560E+01  0.0000000000000E+00
-0.5589063043036E+00 -0.2473374550628E+01  0.0000000000000E+00
-0.5628708597639E+00 -0.2400578722707E+01  0.0000000000000E+00
-0.5675924408837E+00 -0.2327974061005E+01  0.0000000000000E+00
-0.5730629484655E+00 -0.2255591828195E+01  0.0000000000000E+00
-0.5792882888882E+00 -0.2183468260695E+01  0.0000000000000E+00
-0.5862931289399E+00 -0.2111648183508E+01  0.0000000000000E+00
-0.5940869651833E+00 -0.2040173131530E+01  0.0000000000000E+00
-0.6026214206831E+00 -0.1969057345296E+01  0.0000000000000E+00
-0.6118604201151E+00 -0.1898315750472E+01  0.0000000000000E+00
-0.6217866560276E+00 -0.1827970125978E+01  0.0000000000000E+00
-0.6323995620492E+00 -0.1758051205649E+01  0.0000000000000E+00
-0.6437153554685E+00 -0.1688601872357E+01  0.0000000000000E+00
-0.6557691156551E+00 -0.1619682586678E+01  0.0000000000000E+00
-0.6686200718399E+00 -0.1551377815076E+01  0.0000000000000E+00
-0.6823602777685E+00 -0.1483814999269E+01  0.0000000000000E+00
-0.6971334912775E+00 -0.1417187230416E+01  0.0000000000000E+00
-0.5225235369655E+00 -0.4230682327815E+01  0.0000000000000E+00
-0.5225470739100E+00 -0.4157320072474E+01  0.0000000000000E+00
-0.5225706108988E+00 -0.4083957678871E+01  0.0000000000000E+00
-0.5225941479082E+00 -0.4010595221498E+01  0.0000000000000E+00
-0.5226176848864E+00 -0.3937232860900E+01  0.0000000000000E+00
-0.5226412218603E+00 -0.3863870514067E+01  0.0000000000000E+00
-0.5226647588371E+00 -0.3790508157912E+01  0.0000000000000E+00
-0.5226882958175E+00 -0.3717145790687E+01  0.0000000000000E+00
-0.5227118327961E+00 -0.3643783429230E+01  0.0000000000000E+00
-0.5227353697749E+00 -0.3570421066767E+01  0.0000000000000E+00
-0.5227589067966E+00 -0.3497058570741E+01  0.0000000000000E+00
-0.5227824437448E+00 -0.3423696304111E+01  0.0000000000000E+00
-0.5228059807630E+00 -0.3350333819021E+01  0.0000000000000E+00
-0.5228295181282E+00 -0.3276970252358E+01  0.0000000000000E+00
-0.5228530547150E+00 -0.3203609111845E+01  0.0000000000000E+00
-0.5228765916285E+00 -0.3130246953227E+01  0.0000000000000E+00
-0.5229001286091E+00 -0.3056884585275E+01  0.0000000000000E+00
-0.5229236655771E+00 -0.2983522256705E+01  0.0000000000000E+00
-0.5229472025146E+00 -0.2910160023098E+01  0.0000000000000E+00
-0.5230094719650E+00 -0.2836797822117E+01  0.0000000000000E+00
-0.5233453200490E+00 -0.2763439120539E+01  0.0000000000000E+00
-0.5242096897925E+00 -0.2690100695875E+01  0.0000000000000E+00
-0.5257557587769E+00 -0.2616814341734E+01  0.0000000000000E+00
-0.5280435707054E+00 -0.2543618363426E+01  0.0000000000000E+00
-0.5310799046469E+00 -0.2470549481778E+01  0.0000000000000E+00
-0.5348509888241E+00 -0.2397640652849E+01  0.0000000000000E+00
-0.5393412473588E+00 -0.2324922990298E+01  0.0000000000000E+00
-0.5445429860314E+00 -0.2252427756369E+01  0.0000000000000E+00
-0.5504618158794E+00 -0.2180191188014E+01  0.0000000000000E+00
-0.5571211703511E+00 -0.2108258110234E+01  0.0000000000000E+00
-0.5645300712003E+00 -0.2036670057468E+01  0.0000000000000E+00
-0.5726425603411E+00 -0.1965441270206E+01  0.0000000000000E+00
-0.5814243662114E+00 -0.1894586674225E+01  0.0000000000000E+00
-0.5908590467288E+00 -0.1824128048532E+01  0.0000000000000E+00
-0.6009460638389E+00 -0.1754096126991E+01  0.0000000000000E+00
-0.6117008239636E+00 -0.1684533792533E+01  0.0000000000000E+00
-0.6231566524677E+00 -0.1615501506574E+01  0.0000000000000E+00
-0.6353698171822E+00 -0.1547083734099E+01  0.0000000000000E+00
-0.6484277690306E+00 -0.1479407919987E+01  0.0000000000000E+00
-0.6624670780150E+00 -0.1412667153993E+01  0.0000000000000E+00
-0.4950265829563E+00 -0.4230575000095E+01  0.0000000000000E+00
-0.4950531658889E+00 -0.4157105417131E+01  0.0000000000000E+00
-0.4950797488716E+00 -0.4083635695702E+01  0.0000000000000E+00
-0.4951063318774E+00 -0.4010165910410E+01  0.0000000000000E+00
-0.4951329148482E+00 -0.3936696222035E+01  0.0000000000000E+00
-0.4951594978139E+00 -0.3863226547444E+01  0.0000000000000E+00
-0.4951860807830E+00 -0.3789756863518E+01  0.0000000000000E+00
-0.4952126637562E+00 -0.3716287168507E+01  0.0000000000000E+00
-0.4952392467272E+00 -0.3642817479271E+01  0.0000000000000E+00
-0.4952658296986E+00 -0.3569347789027E+01  0.0000000000000E+00
-0.4952924127185E+00 -0.3495877965026E+01  0.0000000000000E+00
-0.4953189956551E+00 -0.3422408370756E+01  0.0000000000000E+00
-0.4953455786710E+00 -0.3348938557706E+01  0.0000000000000E+00
-0.4953721620788E+00 -0.3275467661502E+01  0.0000000000000E+00
-0.4953987446074E+00 -0.3201999194996E+01  0.0000000000000E+00
-0.4954253275049E+00 -0.3128529708896E+01  0.0000000000000E+00
-0.4954519104783E+00 -0.3055060013155E+01  0.0000000000000E+00
-0.4954784934375E+00 -0.2981590356855E+01  0.0000000000000E+00
-0.4955050763622E+00 -0.2908120795657E+01  0.0000000000000E+00
-0.4955683532472E+00 -0.2834651267061E+01  0.0000000000000E+00
-0.4958908098644E+00 -0.2761185238480E+01  0.0000000000000E+00
-0.4967139711667E+00 -0.2687739487860E+01  0.0000000000000E+00
-0.4981829527790E+00 -0.2614345808257E+01  0.0000000000000E+00
-0.5003546382236E+00 -0.2541042504616E+01  0.0000000000000E+00
-0.5032354497856E+00 -0.2467866297535E+01  0.0000000000000E+00
-0.5068123405251E+00 -0.2394850142894E+01  0.0000000000000E+00
-0.5110705543301E+00 -0.2322025154781E+01  0.0000000000000E+00
-0.5160028019559E+00 -0.2249422595037E+01  0.0000000000000E+00
-0.5216143991022E+00 -0.2177078701116E+01  0.0000000000000E+00
-0.5279275458778E+00 -0.2105038298018E+01  0.0000000000000E+00
-0.5349507892246E+00 -0.2033342919751E+01  0.0000000000000E+00
-0.5426405899055E+00 -0.1962006806759E+01  0.0000000000000E+00
-0.5509644801207E+00 -0.1891044884923E+01  0.0000000000000E+00
-0.5599068831572E+00 -0.1820478933337E+01  0.0000000000000E+00
-0.5694672892784E+00 -0.1750339685891E+01  0.0000000000000E+00
-0.5796602940392E+00 -0.1680670025571E+01  0.0000000000000E+00
-0.5905174688062E+00 -0.1611530414592E+01  0.0000000000000E+00
-0.6020921200010E+00 -0.1543005316536E+01  0.0000000000000E+00
-0.6144670957471E+00 -0.1475222179278E+01  0.0000000000000E+00
-0.6277717782043E+00 -0.1408374091247E+01  0.0000000000000E+00
-0.4675289422681E+00 -0.4230473366273E+01  0.0000000000000E+00
-0.4675578845103E+00 -0.4156902149577E+01  0.0000000000000E+00
-0.4675868268072E+00 -0.4083330794226E+01  0.0000000000000E+00
-0.4676157691291E+00 -0.4009759374922E+01  0.0000000000000E+00
-0.4676447114129E+00 -0.3936188052670E+01  0.0000000000000E+00
-0.4676736536913E+00 -0.3862616744221E+01  0.0000000000000E+00
-0.4677025959733E+00 -0.3789045426423E+01  0.0000000000000E+00
-0.4677315382597E+00 -0.3715474097525E+01  0.0000000000000E+00
-0.4677604805438E+00 -0.3641902774411E+01  0.0000000000000E+00
-0.4677894228283E+00 -0.3568331450288E+01  0.0000000000000E+00
-0.4678183651656E+00 -0.3494759992222E+01  0.0000000000000E+00
-0.4678473074123E+00 -0.3421188764204E+01  0.0000000000000E+00
-0.4678762497452E+00 -0.3347617317104E+01  0.0000000000000E+00
-0.4679051925048E+00 -0.3274044785352E+01  0.0000000000000E+00
-0.4679341343072E+00 -0.3200474686659E+01  0.0000000000000E+00
-0.4679630765113E+00 -0.3126903566961E+01  0.0000000000000E+00
-0.4679920187980E+00 -0.3053332237333E+01  0.0000000000000E+00
-0.4680209610692E+00 -0.2979760947200E+01  0.0000000000000E+00
-0.4680499033029E+00 -0.2906189752300E+01  0.0000000000000E+00
-0.4681135009444E+00 -0.2832618589982E+01  0.0000000000000E+00
-0.4684218794232E+00 -0.2759050928256E+01  0.0000000000000E+00
-0.4692031456246E+00 -0.2685503545485E+01  0.0000000000000E+00
-0.4705943532147E+00 -0.2612008234196E+01  0.0000000000000E+00
-0.4726492255332E+00 -0.2538603298994E+01  0.0000000000000E+00
-0.4753738280800E+00 -0.2465325460254E+01  0.0000000000000E+00
-0.4787558387513E+00 -0.2392207673692E+01  0.0000000000000E+00
-0.4827813212037E+00 -0.2319281053801E+01  0.0000000000000E+00
-0.4874433911652E+00 -0.2246576862038E+01  0.0000000000000E+00
-0.4927470690006E+00 -0.2174131336332E+01  0.0000000000000E+00
-0.4987133214795E+00 -0.2101989301687E+01  0.0000000000000E+00
-0.5053502207294E+00 -0.2030192291697E+01  0.0000000000000E+00
-0.5126166463610E+00 -0.1958754546766E+01  0.0000000000000E+00
-0.5204819343374E+00 -0.1887690992875E+01  0.0000000000000E+00
-0.5289313733153E+00 -0.1817023409196E+01  0.0000000000000E+00
-0.5379644818757E+00 -0.1746782529646E+01  0.0000000000000E+00
-0.5475950447077E+00 -0.1677011237263E+01  0.0000000000000E+00
-0.5578528791844E+00 -0.1607769995018E+01  0.0000000000000E+00
-0.5687883303103E+00 -0.1539143265162E+01  0.0000000000000E+00
-0.5804796434283E+00 -0.1471258498414E+01  0.0000000000000E+00
-0.5930490128488E+00 -0.1404308781941E+01  0.0000000000000E+00
-0.4400306507643E+00 -0.4230377443940E+01  0.0000000000000E+00
-0.4400613015012E+00 -0.4156710304996E+01  0.0000000000000E+00
-0.4400919522959E+00 -0.4083043027216E+01  0.0000000000000E+00
-0.4401226031172E+00 -0.4009375685400E+01  0.0000000000000E+00
-0.4401532538981E+00 -0.3935708440762E+01  0.0000000000000E+00
-0.4401839046733E+00 -0.3862041209946E+01  0.0000000000000E+00
-0.4402145554523E+00 -0.3788373969769E+01  0.0000000000000E+00
-0.4402452062360E+00 -0.3714706718477E+01  0.0000000000000E+00
-0.4402758570172E+00 -0.3641039472976E+01  0.0000000000000E+00
-0.4403065077989E+00 -0.3567372226465E+01  0.0000000000000E+00
-0.4403371586364E+00 -0.3493704845836E+01  0.0000000000000E+00
-0.4403678093781E+00 -0.3420037695556E+01  0.0000000000000E+00
-0.4403984602110E+00 -0.3346370325908E+01  0.0000000000000E+00
-0.4404291114958E+00 -0.3272701870193E+01  0.0000000000000E+00
-0.4404597617669E+00 -0.3199035850710E+01  0.0000000000000E+00
-0.4404904124634E+00 -0.3125368808892E+01  0.0000000000000E+00
-0.4405210632474E+00 -0.3051701556869E+01  0.0000000000000E+00
-0.4405517140149E+00 -0.2978034344391E+01  0.0000000000000E+00
-0.4405823647428E+00 -0.2904367227272E+01  0.0000000000000E+00
-0.4406456323261E+00 -0.2830700142715E+01  0.0000000000000E+00
-0.4409392818568E+00 -0.2757036559295E+01  0.0000000000000E+00
-0.4416780021563E+00 -0.2683393255768E+01  0.0000000000000E+00
-0.4429907849293E+00 -0.2609802024162E+01  0.0000000000000E+00
-0.4449281933311E+00 -0.2536301168759E+01  0.0000000000000E+00
-0.4474959360748E+00 -0.2462927409729E+01  0.0000000000000E+00
-0.4506824158919E+00 -0.2389713702628E+01  0.0000000000000E+00
-0.4544745162100E+00 -0.2316691162333E+01  0.0000000000000E+00
-0.4588657577271E+00 -0.2243891049936E+01  0.0000000000000E+00
-0.4638608654765E+00 -0.2171349603822E+01  0.0000000000000E+00
-0.4694795728885E+00 -0.2099111648990E+01  0.0000000000000E+00
-0.4757294772735E+00 -0.2027218718648E+01  0.0000000000000E+00
-0.4825718770898E+00 -0.1955685053162E+01  0.0000000000000E+00
-0.4899779120636E+00 -0.1884525578604E+01  0.0000000000000E+00
-0.4979337362219E+00 -0.1813762074224E+01  0.0000000000000E+00
-0.5064388964637E+00 -0.1743425273962E+01  0.0000000000000E+00
-0.5155063666123E+00 -0.1673558060906E+01  0.0000000000000E+00
-0.5251642100526E+00 -0.1604220898739E+01  0.0000000000000E+00
-0.5354598103634E+00 -0.1535498248461E+01  0.0000000000000E+00
-0.5464668101259E+00 -0.1467517563467E+01  0.0000000000000E+00
-0.5583002157936E+00 -0.1400471929739E+01  0.0000000000000E+00
-0.4125317441520E+00 -0.4230287249716E+01  0.0000000000000E+00
-0.4125634882758E+00 -0.4156529916629E+01  0.0000000000000E+00
-0.4125952324593E+00 -0.4082772444536E+01  0.0000000000000E+00
-0.4126269766705E+00 -0.4009014908329E+01  0.0000000000000E+00
-0.4126587208397E+00 -0.3935257469419E+01  0.0000000000000E+00
-0.4126904650030E+00 -0.3861500044347E+01  0.0000000000000E+00
-0.4127222091704E+00 -0.3787742609903E+01  0.0000000000000E+00
-0.4127539533425E+00 -0.3713985164330E+01  0.0000000000000E+00
-0.4127856975121E+00 -0.3640227724555E+01  0.0000000000000E+00
-0.4128174416822E+00 -0.3566470283769E+01  0.0000000000000E+00
-0.4128491859101E+00 -0.3492712708702E+01  0.0000000000000E+00
-0.4128809300387E+00 -0.3418955364265E+01  0.0000000000000E+00
-0.4129126742618E+00 -0.3345197800191E+01  0.0000000000000E+00
-0.4129444189530E+00 -0.3271439148721E+01  0.0000000000000E+00
-0.4129761625943E+00 -0.3197682936466E+01  0.0000000000000E+00
-0.4130079066762E+00 -0.3123925700623E+01  0.0000000000000E+00
-0.4130396508486E+00 -0.3050168254318E+01  0.0000000000000E+00
-0.4130713950040E+00 -0.2976410847608E+01  0.0000000000000E+00
-0.4131031391183E+00 -0.2902653536372E+01  0.0000000000000E+00
-0.4131654615348E+00 -0.2828896257679E+01  0.0000000000000E+00
-0.4134437670066E+00 -0.2755142480638E+01  0.0000000000000E+00
-0.4141393262886E+00 -0.2681408984369E+01  0.0000000000000E+00
-0.4153730691176E+00 -0.2607727560436E+01  0.0000000000000E+00
-0.4171923984613E+00 -0.2534136512816E+01  0.0000000000000E+00
-0.4196026662446E+00 -0.2460672561482E+01  0.0000000000000E+00
-0.4225930000332E+00 -0.2387368661845E+01  0.0000000000000E+00
-0.4261511030289E+00 -0.2314255929140E+01  0.0000000000000E+00
-0.4302709008973E+00 -0.2241365624120E+01  0.0000000000000E+00
-0.4349568233429E+00 -0.2168733985590E+01  0.0000000000000E+00
-0.4402273704565E+00 -0.2096405838553E+01  0.0000000000000E+00
-0.4460896647286E+00 -0.2024422715852E+01  0.0000000000000E+00
-0.4525074234658E+00 -0.1952798857813E+01  0.0000000000000E+00
-0.4594535901587E+00 -0.1881549190599E+01  0.0000000000000E+00
-0.4669151842055E+00 -0.1810695493531E+01  0.0000000000000E+00
-0.4748917808231E+00 -0.1740268500570E+01  0.0000000000000E+00
-0.4833955429692E+00 -0.1670311094851E+01  0.0000000000000E+00
-0.4924527800443E+00 -0.1600883740729E+01  0.0000000000000E+00
-0.5021079141925E+00 -0.1532070898023E+01  0.0000000000000E+00
-0.5124299852484E+00 -0.1464000022650E+01  0.0000000000000E+00
-0.5235268117985E+00 -0.1396864199472E+01  0.0000000000000E+00
-0.3850322598414E+00 -0.4230202799459E+01  0.0000000000000E+00
-0.3850645196540E+00 -0.4156361016191E+01  0.0000000000000E+00
-0.3850967795275E+00 -0.4082519093757E+01  0.0000000000000E+00
-0.3851290394289E+00 -0.4008677107136E+01  0.0000000000000E+00
-0.3851612992878E+00 -0.3934835217923E+01  0.0000000000000E+00
-0.3851935591407E+00 -0.3860993342564E+01  0.0000000000000E+00
-0.3852258189976E+00 -0.3787151457823E+01  0.0000000000000E+00
-0.3852580788595E+00 -0.3713309561940E+01  0.0000000000000E+00
-0.3852903387188E+00 -0.3639467671862E+01  0.0000000000000E+00
-0.3853225985785E+00 -0.3565625780771E+01  0.0000000000000E+00
-0.3853548584969E+00 -0.3491783755245E+01  0.0000000000000E+00
-0.3853871183145E+00 -0.3417941960614E+01  0.0000000000000E+00
-0.3854193782282E+00 -0.3344099946094E+01  0.0000000000000E+00
-0.3854516386174E+00 -0.3270256842933E+01  0.0000000000000E+00
-0.3854838979398E+00 -0.3196416181779E+01  0.0000000000000E+00
-0.3855161577099E+00 -0.3122574495866E+01  0.0000000000000E+00
-0.3855484175721E+00 -0.3048732599250E+01  0.0000000000000E+00
-0.3855806774169E+00 -0.2974890742274E+01  0.0000000000000E+00
-0.3856129372200E+00 -0.2901048980883E+01  0.0000000000000E+00
-0.3856737367721E+00 -0.2827207252015E+01  0.0000000000000E+00
-0.3859361204928E+00 -0.2753369025280E+01  0.0000000000000E+00
-0.3865879410748E+00 -0.2679551080143E+01  0.0000000000000E+00
-0.3877420662852E+00 -0.2605785207729E+01  0.0000000000000E+00
-0.3894427389025E+00 -0.2532109711729E+01  0.0000000000000E+00
-0.3916949540622E+00 -0.2458561311938E+01  0.0000000000000E+00
-0.3944885641635E+00 -0.2385172963623E+01  0.0000000000000E+00
-0.3978120921840E+00 -0.2311975782359E+01  0.0000000000000E+00
-0.4016598687551E+00 -0.2239001028580E+01  0.0000000000000E+00
-0.4060360282553E+00 -0.2166284941488E+01  0.0000000000000E+00
-0.4109578374357E+00 -0.2093872346084E+01  0.0000000000000E+00
-0.4164319439649E+00 -0.2021804774870E+01  0.0000000000000E+00
-0.4224244839971E+00 -0.1950096468140E+01  0.0000000000000E+00
-0.4289102047877E+00 -0.1878762352137E+01  0.0000000000000E+00
-0.4358769911063E+00 -0.1807824206249E+01  0.0000000000000E+00
-0.4433244464880E+00 -0.1737312764459E+01  0.0000000000000E+00
-0.4512639230252E+00 -0.1667270909945E+01  0.0000000000000E+00
-0.4597199761387E+00 -0.1597759107689E+01  0.0000000000000E+00
-0.4687340665305E+00 -0.1528861816408E+01  0.0000000000000E+00
-0.4783706313056E+00 -0.1460706494377E+01  0.0000000000000E+00
-0.4887303011774E+00 -0.1393486225414E+01  0.0000000000000E+00
-0.3575322348022E+00 -0.4230124107983E+01  0.0000000000000E+00
-0.3575644695756E+00 -0.4156203633308E+01  0.0000000000000E+00
-0.3575967044098E+00 -0.4082283019319E+01  0.0000000000000E+00
-0.3576289392720E+00 -0.4008362341075E+01  0.0000000000000E+00
-0.3576611740917E+00 -0.3934441760342E+01  0.0000000000000E+00
-0.3576934089054E+00 -0.3860521193479E+01  0.0000000000000E+00
-0.3577256437231E+00 -0.3786600617223E+01  0.0000000000000E+00
-0.3577578785457E+00 -0.3712680029813E+01  0.0000000000000E+00
-0.3577901133658E+00 -0.3638759448214E+01  0.0000000000000E+00
-0.3578223481863E+00 -0.3564838865602E+01  0.0000000000000E+00
-0.3578545830655E+00 -0.3490918148411E+01  0.0000000000000E+00
-0.3578868178439E+00 -0.3416997662361E+01  0.0000000000000E+00
-0.3579190527183E+00 -0.3343076956189E+01  0.0000000000000E+00
-0.3579512880679E+00 -0.3269155160214E+01  0.0000000000000E+00
-0.3579835223515E+00 -0.3195235808850E+01  0.0000000000000E+00
-0.3580157570825E+00 -0.3121315431634E+01  0.0000000000000E+00
-0.3580479919054E+00 -0.3047394843491E+01  0.0000000000000E+00
-0.3580802267110E+00 -0.2973474295030E+01  0.0000000000000E+00
-0.3581124614749E+00 -0.2899553842255E+01  0.0000000000000E+00
-0.3581711974348E+00 -0.2825633421987E+01  0.0000000000000E+00
-0.3584171186813E+00 -0.2751716504300E+01  0.0000000000000E+00
-0.3590246598484E+00 -0.2677819868980E+01  0.0000000000000E+00
-0.3600986267318E+00 -0.2603975306743E+01  0.0000000000000E+00
-0.3616801019192E+00 -0.2530221121018E+01  0.0000000000000E+00
-0.3637737237556E+00 -0.2456594031425E+01  0.0000000000000E+00
-0.3663700694726E+00 -0.2383126993105E+01  0.0000000000000E+00
-0.3694584818260E+00 -0.2309851121947E+01  0.0000000000000E+00
-0.3730336964106E+00 -0.2236797678087E+01  0.0000000000000E+00
-0.3770995522815E+00 -0.2164002901096E+01  0.0000000000000E+00
-0.3816720828503E+00 -0.2091511615977E+01  0.0000000000000E+00
-0.3867574609618E+00 -0.2019365354912E+01  0.0000000000000E+00
-0.3923242416169E+00 -0.1947578358163E+01  0.0000000000000E+00
-0.3983489758364E+00 -0.1876165552051E+01  0.0000000000000E+00
-0.4048204137615E+00 -0.1805148716025E+01  0.0000000000000E+00
-0.4117381872457E+00 -0.1734558584088E+01  0.0000000000000E+00
-0.4191128375166E+00 -0.1664438039460E+01  0.0000000000000E+00
-0.4269671660192E+00 -0.1594847547706E+01  0.0000000000000E+00
-0.4353396720069E+00 -0.1525871566515E+01  0.0000000000000E+00
-0.4442901898707E+00 -0.1457637556361E+01  0.0000000000000E+00
-0.4539121624448E+00 -0.1390338600087E+01  0.0000000000000E+00
-0.3300317063161E+00 -0.4230051189142E+01  0.0000000000000E+00
-0.3300634126040E+00 -0.4156057795692E+01  0.0000000000000E+00
-0.3300951189516E+00 -0.4082064262790E+01  0.0000000000000E+00
-0.3301268253268E+00 -0.4008070665569E+01  0.0000000000000E+00
-0.3301585316601E+00 -0.3934077165957E+01  0.0000000000000E+00
-0.3301902379875E+00 -0.3860083680227E+01  0.0000000000000E+00
-0.3302219443189E+00 -0.3786090185095E+01  0.0000000000000E+00
-0.3302536506551E+00 -0.3712096678799E+01  0.0000000000000E+00
-0.3302853569888E+00 -0.3638103178319E+01  0.0000000000000E+00
-0.3303170633230E+00 -0.3564109676825E+01  0.0000000000000E+00
-0.3303487697148E+00 -0.3490116040619E+01  0.0000000000000E+00
-0.3303804760076E+00 -0.3416122635783E+01  0.0000000000000E+00
-0.3304121823947E+00 -0.3342129010606E+01  0.0000000000000E+00
-0.3304438892493E+00 -0.3268134294553E+01  0.0000000000000E+00
-0.3304755950553E+00 -0.3194142025521E+01  0.0000000000000E+00
-0.3305073013014E+00 -0.3120148729626E+01  0.0000000000000E+00
-0.3305390076379E+00 -0.3046155222595E+01  0.0000000000000E+00
-0.3305707139574E+00 -0.2972161755286E+01  0.0000000000000E+00
-0.3306024202359E+00 -0.2898168383757E+01  0.0000000000000E+00
-0.3306585891574E+00 -0.2824175044720E+01  0.0000000000000E+00
-0.3308875444874E+00 -0.2750185208679E+01  0.0000000000000E+00
-0.3314503028045E+00 -0.2676215655717E+01  0.0000000000000E+00
-0.3324436079309E+00 -0.2602298176172E+01  0.0000000000000E+00
-0.3339053822620E+00 -0.2528471073228E+01  0.0000000000000E+00
-0.3358399073513E+00 -0.2454771066347E+01  0.0000000000000E+00
-0.3382384852618E+00 -0.2381231110551E+01  0.0000000000000E+00
-0.3410912785297E+00 -0.2307882322018E+01  0.0000000000000E+00
-0.3443934277111E+00 -0.2234755960610E+01  0.0000000000000E+00
-0.3481484765401E+00 -0.2161888266242E+01  0.0000000000000E+00
-0.3523712250890E+00 -0.2089324063914E+01  0.0000000000000E+00
-0.3570673713764E+00 -0.2017104885515E+01  0.0000000000000E+00
-0.3622078892501E+00 -0.1945244971277E+01  0.0000000000000E+00
-0.3677711334962E+00 -0.1873759247591E+01  0.0000000000000E+00
-0.3737467196281E+00 -0.1802669493966E+01  0.0000000000000E+00
-0.3801343078177E+00 -0.1732006444421E+01  0.0000000000000E+00
-0.3869436284280E+00 -0.1661812982214E+01  0.0000000000000E+00
-0.3941957289323E+00 -0.1592149573454E+01  0.0000000000000E+00
-0.4019261471290E+00 -0.1523100674874E+01  0.0000000000000E+00
-0.4101901147095E+00 -0.1454793748987E+01  0.0000000000000E+00
-0.4190738866231E+00 -0.1387421877732E+01  0.0000000000000E+00
-0.3025307117473E+00 -0.4229984055806E+01  0.0000000000000E+00
-0.3025614234671E+00 -0.4155923529079E+01  0.0000000000000E+00
-0.3025921352449E+00 -0.4081862862774E+01  0.0000000000000E+00
-0.3026228470493E+00 -0.4007802132092E+01  0.0000000000000E+00
-0.3026535588133E+00 -0.3933741499106E+01  0.0000000000000E+00
-0.3026842705714E+00 -0.3859680880016E+01  0.0000000000000E+00
-0.3027149823335E+00 -0.3785620251516E+01  0.0000000000000E+00
-0.3027456941002E+00 -0.3711559611840E+01  0.0000000000000E+00
-0.3027764058645E+00 -0.3637498977987E+01  0.0000000000000E+00
-0.3028071176292E+00 -0.3563438343118E+01  0.0000000000000E+00
-0.3028378294498E+00 -0.3489377573416E+01  0.0000000000000E+00
-0.3028685411744E+00 -0.3415317035292E+01  0.0000000000000E+00
-0.3028992529905E+00 -0.3341256276629E+01  0.0000000000000E+00
-0.3029299652593E+00 -0.3267194426099E+01  0.0000000000000E+00
-0.3029606765125E+00 -0.3193135024811E+01  0.0000000000000E+00
-0.3029913881918E+00 -0.3119074595728E+01  0.0000000000000E+00
-0.3030220999588E+00 -0.3045013955318E+01  0.0000000000000E+00
-0.3030528117094E+00 -0.2970953354665E+01  0.0000000000000E+00
-0.3030835234201E+00 -0.2896892849879E+01  0.0000000000000E+00
-0.3031366592207E+00 -0.2822832377572E+01  0.0000000000000E+00
-0.3033481825528E+00 -0.2748775408642E+01  0.0000000000000E+00
-0.3038656919401E+00 -0.2674738723447E+01  0.0000000000000E+00
-0.3047778692279E+00 -0.2600754111977E+01  0.0000000000000E+00
-0.3061194766177E+00 -0.2526859877189E+01  0.0000000000000E+00
-0.3078944388703E+00 -0.2453092738402E+01  0.0000000000000E+00
-0.3100947828795E+00 -0.2379485650525E+01  0.0000000000000E+00
-0.3127114909635E+00 -0.2306069730006E+01  0.0000000000000E+00
-0.3157401086385E+00 -0.2232876236452E+01  0.0000000000000E+00
-0.3191838843193E+00 -0.2159941410094E+01  0.0000000000000E+00
-0.3230563847390E+00 -0.2087310075932E+01  0.0000000000000E+00
-0.3273628330882E+00 -0.2015023765584E+01  0.0000000000000E+00
-0.3320766220613E+00 -0.1943096719253E+01  0.0000000000000E+00
-0.3371779102106E+00 -0.1871543863397E+01  0.0000000000000E+00
-0.3426571784222E+00 -0.1800386977578E+01  0.0000000000000E+00
-0.3485141151863E+00 -0.1729656795832E+01  0.0000000000000E+00
-0.3547576400016E+00 -0.1659396201451E+01  0.0000000000000E+00
-0.3614070463731E+00 -0.1589665661042E+01  0.0000000000000E+00
-0.3684949106376E+00 -0.1520549630462E+01  0.0000000000000E+00
-0.3760718617994E+00 -0.1452175574100E+01  0.0000000000000E+00
-0.3842169669163E+00 -0.1384736573063E+01  0.0000000000000E+00
-0.2750292889768E+00 -0.4229922719884E+01  0.0000000000000E+00
-0.2750585779274E+00 -0.4155800857289E+01  0.0000000000000E+00
-0.2750878669333E+00 -0.4081678855002E+01  0.0000000000000E+00
-0.2751171559646E+00 -0.4007556788283E+01  0.0000000000000E+00
-0.2751464449573E+00 -0.3933434819343E+01  0.0000000000000E+00
-0.2751757339445E+00 -0.3859312864309E+01  0.0000000000000E+00
-0.2752050229354E+00 -0.3785190899856E+01  0.0000000000000E+00
-0.2752343119307E+00 -0.3711068924220E+01  0.0000000000000E+00
-0.2752636009237E+00 -0.3636946954411E+01  0.0000000000000E+00
-0.2752928899171E+00 -0.3562824983585E+01  0.0000000000000E+00
-0.2753221789639E+00 -0.3488702877815E+01  0.0000000000000E+00
-0.2753514679190E+00 -0.3414581003814E+01  0.0000000000000E+00
-0.2753807569614E+00 -0.3340458909091E+01  0.0000000000000E+00
-0.2754100464356E+00 -0.3266335721598E+01  0.0000000000000E+00
-0.2754393349412E+00 -0.3192214985375E+01  0.0000000000000E+00
-0.2754686238532E+00 -0.3118093220505E+01  0.0000000000000E+00
-0.2754979128488E+00 -0.3043971244133E+01  0.0000000000000E+00
-0.2755272018287E+00 -0.2969849307552E+01  0.0000000000000E+00
-0.2755564907707E+00 -0.2895727466917E+01  0.0000000000000E+00
-0.2756061652489E+00 -0.2821605658747E+01  0.0000000000000E+00
-0.2757998283827E+00 -0.2747487354304E+01  0.0000000000000E+00
-0.2762716606411E+00 -0.2673389334195E+01  0.0000000000000E+00
-0.2771022818897E+00 -0.2599343388093E+01  0.0000000000000E+00
-0.2783232941339E+00 -0.2525387818747E+01  0.0000000000000E+00
-0.2799382653412E+00 -0.2451559345344E+01  0.0000000000000E+00
-0.2819399472355E+00 -0.2377890922692E+01  0.0000000000000E+00
-0.2843201419189E+00 -0.2304413667485E+01  0.0000000000000E+00
-0.2870747998656E+00 -0.2231158839097E+01  0.0000000000000E+00
-0.2902068741738E+00 -0.2158162678047E+01  0.0000000000000E+00
-0.2937286982369E+00 -0.2085470009335E+01  0.0000000000000E+00
-0.2976450204157E+00 -0.2013122364332E+01  0.0000000000000E+00
-0.3019316522513E+00 -0.1941133983216E+01  0.0000000000000E+00
-0.3065705560629E+00 -0.1869519792505E+01  0.0000000000000E+00
-0.3115530781095E+00 -0.1798301571807E+01  0.0000000000000E+00
-0.3168789352001E+00 -0.1727510055176E+01  0.0000000000000E+00
-0.3225562359690E+00 -0.1657188125934E+01  0.0000000000000E+00
-0.3286025199556E+00 -0.1587396251146E+01  0.0000000000000E+00
-0.3350474020297E+00 -0.1518218885865E+01  0.0000000000000E+00
-0.3419369085198E+00 -0.1449783496195E+01  0.0000000000000E+00
-0.3493429185865E+00 -0.1382283162483E+01  0.0000000000000E+00
-0.2475274763612E+00 -0.4229867192306E+01  0.0000000000000E+00
-0.2475549526979E+00 -0.4155689802184E+01  0.0000000000000E+00
-0.2475824290864E+00 -0.4081512272263E+01  0.0000000000000E+00
-0.2476099054988E+00 -0.4007334677864E+01  0.0000000000000E+00
-0.2476373818750E+00 -0.3933157181315E+01  0.0000000000000E+00
-0.2476648582459E+00 -0.3858979698684E+01  0.0000000000000E+00
-0.2476923346204E+00 -0.3784802206627E+01  0.0000000000000E+00
-0.2477198109990E+00 -0.3710624703378E+01  0.0000000000000E+00
-0.2477472873755E+00 -0.3636447205960E+01  0.0000000000000E+00
-0.2477747637523E+00 -0.3562269707525E+01  0.0000000000000E+00
-0.2478022401792E+00 -0.3488092074044E+01  0.0000000000000E+00
-0.2478297165201E+00 -0.3413914672507E+01  0.0000000000000E+00
-0.2478571929429E+00 -0.3339737050082E+01  0.0000000000000E+00
-0.2478846697707E+00 -0.3265558334068E+01  0.0000000000000E+00
-0.2479121456899E+00 -0.3191382071160E+01  0.0000000000000E+00
-0.2479396219904E+00 -0.3117204778836E+01  0.0000000000000E+00
-0.2479670983693E+00 -0.3043027274851E+01  0.0000000000000E+00
-0.2479945747334E+00 -0.2968849810686E+01  0.0000000000000E+00
-0.2480220510620E+00 -0.2894672442539E+01  0.0000000000000E+00
-0.2480678743733E+00 -0.2820495106846E+01  0.0000000000000E+00
-0.2482432874676E+00 -0.2746321275196E+01  0.0000000000000E+00
-0.2486690527616E+00 -0.2672167728422E+01  0.0000000000000E+00
-0.2494177281399E+00 -0.2598066255909E+01  0.0000000000000E+00
-0.2505177554111E+00 -0.2524055160221E+01  0.0000000000000E+00
-0.2519723457481E+00 -0.2450171160422E+01  0.0000000000000E+00
-0.2537749757042E+00 -0.2376447211231E+01  0.0000000000000E+00
-0.2559182671670E+00 -0.2302914429563E+01  0.0000000000000E+00
-0.2583985755675E+00 -0.2229604074582E+01  0.0000000000000E+00
-0.2612185586887E+00 -0.2156552387068E+01  0.0000000000000E+00
-0.2643893165847E+00 -0.2083804192021E+01  0.0000000000000E+00
-0.2679151227846E+00 -0.2011401020588E+01  0.0000000000000E+00
-0.2717742076764E+00 -0.1939357112923E+01  0.0000000000000E+00
-0.2759503373461E+00 -0.1867687395599E+01  0.0000000000000E+00
-0.2804357234259E+00 -0.1796413648268E+01  0.0000000000000E+00
-0.2852301110435E+00 -0.1725566604998E+01  0.0000000000000E+00
-0.2903407979693E+00 -0.1655189149140E+01  0.0000000000000E+00
-0.2957835697803E+00 -0.1585341748170E+01  0.0000000000000E+00
-0.3015850798740E+00 -0.1516108856418E+01  0.0000000000000E+00
-0.3077867519147E+00 -0.1447617941537E+01  0.0000000000000E+00
-0.3144532771611E+00 -0.1380062083186E+01  0.0000000000000E+00
-0.2200253122177E+00 -0.4229817482972E+01  0.0000000000000E+00
-0.2200506244127E+00 -0.4155590383561E+01  0.0000000000000E+00
-0.2200759366555E+00 -0.4081363144257E+01  0.0000000000000E+00
-0.2201012489203E+00 -0.4007135840432E+01  0.0000000000000E+00
-0.2201265611517E+00 -0.3932908634523E+01  0.0000000000000E+00
-0.2201518733783E+00 -0.3858681442540E+01  0.0000000000000E+00
-0.2201771856082E+00 -0.3784454241126E+01  0.0000000000000E+00
-0.2202024978419E+00 -0.3710227028512E+01  0.0000000000000E+00
-0.2202278100736E+00 -0.3635999821733E+01  0.0000000000000E+00
-0.2202531223056E+00 -0.3561772613937E+01  0.0000000000000E+00
-0.2202784345837E+00 -0.3487545271003E+01  0.0000000000000E+00
-0.2203037467827E+00 -0.3413318160169E+01  0.0000000000000E+00
-0.2203290590570E+00 -0.3339090828300E+01  0.0000000000000E+00
-0.2203543717045E+00 -0.3264862402108E+01  0.0000000000000E+00
-0.2203796835150E+00 -0.3190636430667E+01  0.0000000000000E+00
-0.2204049956767E+00 -0.3116409429118E+01  0.0000000000000E+00
-0.2204303079106E+00 -0.3042182215768E+01  0.0000000000000E+00
-0.2204556201309E+00 -0.2967955042264E+01  0.0000000000000E+00
-0.2204809323185E+00 -0.2893727964843E+01  0.0000000000000E+00
-0.2205225529353E+00 -0.2819500919865E+01  0.0000000000000E+00
-0.2206793644652E+00 -0.2745277379213E+01  0.0000000000000E+00
-0.2210587112750E+00 -0.2671074123923E+01  0.0000000000000E+00
-0.2217250892667E+00 -0.2596922943121E+01  0.0000000000000E+00
-0.2227037800508E+00 -0.2522862139205E+01  0.0000000000000E+00
-0.2239976380052E+00 -0.2448928431131E+01  0.0000000000000E+00
-0.2256008645120E+00 -0.2375154773537E+01  0.0000000000000E+00
-0.2275069012456E+00 -0.2301572283534E+01  0.0000000000000E+00
-0.2297125085923E+00 -0.2228212220101E+01  0.0000000000000E+00
-0.2322200490218E+00 -0.2155110824251E+01  0.0000000000000E+00
-0.2350393892486E+00 -0.2082312920983E+01  0.0000000000000E+00
-0.2381743279693E+00 -0.2009860041244E+01  0.0000000000000E+00
-0.2416055144180E+00 -0.1937766425166E+01  0.0000000000000E+00
-0.2453185184479E+00 -0.1866046999373E+01  0.0000000000000E+00
-0.2493064170647E+00 -0.1794723543554E+01  0.0000000000000E+00
-0.2535689837149E+00 -0.1723826791791E+01  0.0000000000000E+00
-0.2581127053052E+00 -0.1653399627459E+01  0.0000000000000E+00
-0.2629516134529E+00 -0.1583502518406E+01  0.0000000000000E+00
-0.2681094000786E+00 -0.1514219918310E+01  0.0000000000000E+00
-0.2736228861926E+00 -0.1445679296214E+01  0.0000000000000E+00
-0.2795495751478E+00 -0.1378073731162E+01  0.0000000000000E+00
-0.1925228350695E+00 -0.4229773600768E+01  0.0000000000000E+00
-0.1925456701187E+00 -0.4155502619191E+01  0.0000000000000E+00
-0.1925685052109E+00 -0.4081231497639E+01  0.0000000000000E+00
-0.1925913403229E+00 -0.4006960311527E+01  0.0000000000000E+00
-0.1926141754049E+00 -0.3932689223390E+01  0.0000000000000E+00
-0.1926370104825E+00 -0.3858418149187E+01  0.0000000000000E+00
-0.1926598455630E+00 -0.3784147065547E+01  0.0000000000000E+00
-0.1926826806470E+00 -0.3709875970701E+01  0.0000000000000E+00
-0.1927055157292E+00 -0.3635604881693E+01  0.0000000000000E+00
-0.1927283508117E+00 -0.3561333791667E+01  0.0000000000000E+00
-0.1927511859358E+00 -0.3487062566424E+01  0.0000000000000E+00
-0.1927740209885E+00 -0.3412791573417E+01  0.0000000000000E+00
-0.1927968561092E+00 -0.3338520359245E+01  0.0000000000000E+00
-0.1928196915665E+00 -0.3264248050103E+01  0.0000000000000E+00
-0.1928425262686E+00 -0.3189978197163E+01  0.0000000000000E+00
-0.1928653612877E+00 -0.3115707313507E+01  0.0000000000000E+00
-0.1928881963719E+00 -0.3041436217924E+01  0.0000000000000E+00
-0.1929110314439E+00 -0.2967165162210E+01  0.0000000000000E+00
-0.1929338664863E+00 -0.2892894202637E+01  0.0000000000000E+00
-0.1929709714044E+00 -0.2818623275497E+01  0.0000000000000E+00
-0.1931088683680E+00 -0.2744355852933E+01  0.0000000000000E+00
-0.1934414836956E+00 -0.2670108716159E+01  0.0000000000000E+00
-0.1940252513053E+00 -0.2595913654076E+01  0.0000000000000E+00
-0.1948822926087E+00 -0.2521808968931E+01  0.0000000000000E+00
-0.1960151051878E+00 -0.2447831379587E+01  0.0000000000000E+00
-0.1974186152532E+00 -0.2374013840609E+01  0.0000000000000E+00
-0.1990870842670E+00 -0.2300387469284E+01  0.0000000000000E+00
-0.2010176775699E+00 -0.2226983524425E+01  0.0000000000000E+00
-0.2032124623196E+00 -0.2153838247250E+01  0.0000000000000E+00
-0.2056800718913E+00 -0.2080996462759E+01  0.0000000000000E+00
-0.2084238301475E+00 -0.2008499701722E+01  0.0000000000000E+00
-0.2114268051683E+00 -0.1936362204253E+01  0.0000000000000E+00
-0.2146763705746E+00 -0.1864598897017E+01  0.0000000000000E+00
-0.2181664687455E+00 -0.1793231559741E+01  0.0000000000000E+00
-0.2218969014465E+00 -0.1722290926515E+01  0.0000000000000E+00
-0.2258733447208E+00 -0.1651819880738E+01  0.0000000000000E+00
-0.2301080762283E+00 -0.1581878890584E+01  0.0000000000000E+00
-0.2346218264090E+00 -0.1512552409157E+01  0.0000000000000E+00
-0.2394468136277E+00 -0.1443967906727E+01  0.0000000000000E+00
-0.2446333533281E+00 -0.1376318461792E+01  0.0000000000000E+00
-0.1650200836141E+00 -0.4229735553552E+01  0.0000000000000E+00
-0.1650401672104E+00 -0.4155426524793E+01  0.0000000000000E+00
-0.1650602508445E+00 -0.4081117355988E+01  0.0000000000000E+00
-0.1650803344960E+00 -0.4006808122590E+01  0.0000000000000E+00
-0.1651004181210E+00 -0.3932498987216E+01  0.0000000000000E+00
-0.1651205017423E+00 -0.3858189865784E+01  0.0000000000000E+00
-0.1651405853662E+00 -0.3783880734910E+01  0.0000000000000E+00
-0.1651606689930E+00 -0.3709571592824E+01  0.0000000000000E+00
-0.1651807526183E+00 -0.3635262456580E+01  0.0000000000000E+00
-0.1652008362438E+00 -0.3560953319316E+01  0.0000000000000E+00
-0.1652209199060E+00 -0.3486644046767E+01  0.0000000000000E+00
-0.1652410035053E+00 -0.3412335006573E+01  0.0000000000000E+00
-0.1652610871644E+00 -0.3338025745100E+01  0.0000000000000E+00
-0.1652811711196E+00 -0.3263715388096E+01  0.0000000000000E+00
-0.1653012544107E+00 -0.3189407488552E+01  0.0000000000000E+00
-0.1653213379804E+00 -0.3115098557765E+01  0.0000000000000E+00
-0.1653414216075E+00 -0.3040789414941E+01  0.0000000000000E+00
-0.1653615052238E+00 -0.2966480312009E+01  0.0000000000000E+00
-0.1653815888140E+00 -0.2892171305265E+01  0.0000000000000E+00
-0.1654139037265E+00 -0.2817862330946E+01  0.0000000000000E+00
-0.1655326118186E+00 -0.2743556861420E+01  0.0000000000000E+00
-0.1658182213616E+00 -0.2669271678057E+01  0.0000000000000E+00
-0.1663191042885E+00 -0.2595038569558E+01  0.0000000000000E+00
-0.1670542218109E+00 -0.2520895838043E+01  0.0000000000000E+00
-0.1680257147146E+00 -0.2446880202293E+01  0.0000000000000E+00
-0.1692292340380E+00 -0.2373024616811E+01  0.0000000000000E+00
-0.1706598610322E+00 -0.2299360199036E+01  0.0000000000000E+00
-0.1723151659912E+00 -0.2225918207636E+01  0.0000000000000E+00
-0.1741969207619E+00 -0.2152734884009E+01  0.0000000000000E+00
-0.1763125253801E+00 -0.2079855053154E+01  0.0000000000000E+00
-0.1786648288734E+00 -0.2007320245687E+01  0.0000000000000E+00
-0.1812393181677E+00 -0.1935144701707E+01  0.0000000000000E+00
-0.1840251706515E+00 -0.1863343347917E+01  0.0000000000000E+00
-0.1870171940779E+00 -0.1791937964073E+01  0.0000000000000E+00
-0.1902152185315E+00 -0.1720959284274E+01  0.0000000000000E+00
-0.1936241091919E+00 -0.1650450191940E+01  0.0000000000000E+00
-0.1972543897637E+00 -0.1580471155527E+01  0.0000000000000E+00
-0.2011238292027E+00 -0.1511106627642E+01  0.0000000000000E+00
-0.2052600432362E+00 -0.1442484079618E+01  0.0000000000000E+00
-0.2097061593950E+00 -0.1374796589482E+01  0.0000000000000E+00
-0.1375170965664E+00 -0.4229703348149E+01  0.0000000000000E+00
-0.1375341931175E+00 -0.4155362114015E+01  0.0000000000000E+00
-0.1375512897008E+00 -0.4081020739775E+01  0.0000000000000E+00
-0.1375683862990E+00 -0.4006679300913E+01  0.0000000000000E+00
-0.1375854828746E+00 -0.3932337960118E+01  0.0000000000000E+00
-0.1376025794470E+00 -0.3857996633271E+01  0.0000000000000E+00
-0.1376196760216E+00 -0.3783655296978E+01  0.0000000000000E+00
-0.1376367725988E+00 -0.3709313949468E+01  0.0000000000000E+00
-0.1376538691746E+00 -0.3634972607802E+01  0.0000000000000E+00
-0.1376709657507E+00 -0.3560631265117E+01  0.0000000000000E+00
-0.1376880623579E+00 -0.3486289787087E+01  0.0000000000000E+00
-0.1377051589116E+00 -0.3411948541514E+01  0.0000000000000E+00
-0.1377222555162E+00 -0.3337607074565E+01  0.0000000000000E+00
-0.1377393523729E+00 -0.3263264511611E+01  0.0000000000000E+00
-0.1377564486642E+00 -0.3188924407182E+01  0.0000000000000E+00
-0.1377735451928E+00 -0.3114583271062E+01  0.0000000000000E+00
-0.1377906417701E+00 -0.3040241922814E+01  0.0000000000000E+00
-0.1378077383383E+00 -0.2965900614475E+01  0.0000000000000E+00
-0.1378248348843E+00 -0.2891559402366E+01  0.0000000000000E+00
-0.1378521241988E+00 -0.2817218222675E+01  0.0000000000000E+00
-0.1379514078263E+00 -0.2742880547961E+01  0.0000000000000E+00
-0.1381897759909E+00 -0.2668563159723E+01  0.0000000000000E+00
-0.1386075386376E+00 -0.2594297846497E+01  0.0000000000000E+00
-0.1392204967773E+00 -0.2520122910295E+01  0.0000000000000E+00
-0.1400304343989E+00 -0.2446075069828E+01  0.0000000000000E+00
-0.1410337273682E+00 -0.2372187279545E+01  0.0000000000000E+00
-0.1422262767265E+00 -0.2298490657014E+01  0.0000000000000E+00
-0.1436060577199E+00 -0.2225016460781E+01  0.0000000000000E+00
-0.1451745468860E+00 -0.2151800932397E+01  0.0000000000000E+00
-0.1469379109210E+00 -0.2078888896859E+01  0.0000000000000E+00
-0.1488985240163E+00 -0.2006321884654E+01  0.0000000000000E+00
-0.1510442919439E+00 -0.1934114135868E+01  0.0000000000000E+00
-0.1533661958606E+00 -0.1862280577234E+01  0.0000000000000E+00
-0.1558599088936E+00 -0.1790842988534E+01  0.0000000000000E+00
-0.1585252894466E+00 -0.1719832103876E+01  0.0000000000000E+00
-0.1613663918356E+00 -0.1649290806696E+01  0.0000000000000E+00
-0.1643919858117E+00 -0.1579279565690E+01  0.0000000000000E+00
-0.1676168788429E+00 -0.1509882833043E+01  0.0000000000000E+00
-0.1710640840249E+00 -0.1441228080987E+01  0.0000000000000E+00
-0.1747695409720E+00 -0.1373508387153E+01  0.0000000000000E+00
-0.1100139131733E+00 -0.4229676990359E+01  0.0000000000000E+00
-0.1100278263343E+00 -0.4155309398459E+01  0.0000000000000E+00
-0.1100417395214E+00 -0.4080941666402E+01  0.0000000000000E+00
-0.1100556527207E+00 -0.4006573869701E+01  0.0000000000000E+00
-0.1100695659016E+00 -0.3932206171102E+01  0.0000000000000E+00
-0.1100834790799E+00 -0.3857838486456E+01  0.0000000000000E+00
-0.1100973922599E+00 -0.3783470792361E+01  0.0000000000000E+00
-0.1101113054421E+00 -0.3709103087044E+01  0.0000000000000E+00
-0.1101252186231E+00 -0.3634735387573E+01  0.0000000000000E+00
-0.1101391318044E+00 -0.3560367687083E+01  0.0000000000000E+00
-0.1101530450109E+00 -0.3485999851201E+01  0.0000000000000E+00
-0.1101669581740E+00 -0.3411632247857E+01  0.0000000000000E+00
-0.1101808713785E+00 -0.3337264423059E+01  0.0000000000000E+00
-0.1101947847881E+00 -0.3262895501867E+01  0.0000000000000E+00
-0.1102086977376E+00 -0.3188529040072E+01  0.0000000000000E+00
-0.1102226108802E+00 -0.3114161546221E+01  0.0000000000000E+00
-0.1102365240625E+00 -0.3039793840166E+01  0.0000000000000E+00
-0.1102504372373E+00 -0.2965426174034E+01  0.0000000000000E+00
-0.1102643503941E+00 -0.2891058604166E+01  0.0000000000000E+00
-0.1102864177656E+00 -0.2816691066711E+01  0.0000000000000E+00
-0.1103660805855E+00 -0.2742327034383E+01  0.0000000000000E+00
-0.1105570110314E+00 -0.2667983288788E+01  0.0000000000000E+00
-0.1108914570603E+00 -0.2593691618327E+01  0.0000000000000E+00
-0.1113820594814E+00 -0.2519490324921E+01  0.0000000000000E+00
-0.1120302454863E+00 -0.2445416127225E+01  0.0000000000000E+00
-0.1128331157681E+00 -0.2371501979645E+01  0.0000000000000E+00
-0.1137873911589E+00 -0.2297778999854E+01  0.0000000000000E+00
-0.1148914518564E+00 -0.2224278446299E+01  0.0000000000000E+00
-0.1161464790893E+00 -0.2151036560653E+01  0.0000000000000E+00
-0.1175574062147E+00 -0.2078098167915E+01  0.0000000000000E+00
-0.1191261325870E+00 -0.2005504798465E+01  0.0000000000000E+00
-0.1208429828240E+00 -0.1933270692377E+01  0.0000000000000E+00
-0.1227007418508E+00 -0.1861410776411E+01  0.0000000000000E+00
-0.1246959481691E+00 -0.1789946830370E+01  0.0000000000000E+00
-0.1268284885014E+00 -0.1718909588368E+01  0.0000000000000E+00
-0.1291016063007E+00 -0.1648341933855E+01  0.0000000000000E+00
-0.1315223173657E+00 -0.1578304335721E+01  0.0000000000000E+00
-0.1341024676744E+00 -0.1508881245808E+01  0.0000000000000E+00
-0.1368604676965E+00 -0.1440200137086E+01  0.0000000000000E+00
-0.1398250691276E+00 -0.1372454086857E+01  0.0000000000000E+00
-0.8251057255733E-01 -0.4229656484926E+01  0.0000000000000E+00
-0.8252114510523E-01 -0.4155268387612E+01  0.0000000000000E+00
-0.8253171767305E-01 -0.4080880150103E+01  0.0000000000000E+00
-0.8254229025007E-01 -0.4006491847932E+01  0.0000000000000E+00
-0.8255286281313E-01 -0.3932103643889E+01  0.0000000000000E+00
-0.8256343537422E-01 -0.3857715453803E+01  0.0000000000000E+00
-0.8257400793664E-01 -0.3783327254265E+01  0.0000000000000E+00
-0.8258458050067E-01 -0.3708939043503E+01  0.0000000000000E+00
-0.8259515306386E-01 -0.3634550838589E+01  0.0000000000000E+00
-0.8260572562719E-01 -0.3560162632655E+01  0.0000000000000E+00
-0.8261629820978E-01 -0.3485774291291E+01  0.0000000000000E+00
-0.8262687075930E-01 -0.3411386182529E+01  0.0000000000000E+00
-0.8263744334031E-01 -0.3336997852253E+01  0.0000000000000E+00
-0.8264801607719E-01 -0.3262608425281E+01  0.0000000000000E+00
-0.8265858846443E-01 -0.3188221458384E+01  0.0000000000000E+00
-0.8266916099838E-01 -0.3113833459145E+01  0.0000000000000E+00
-0.8267973356251E-01 -0.3039445247645E+01  0.0000000000000E+00
-0.8269030612096E-01 -0.2965057076078E+01  0.0000000000000E+00
-0.8270087866573E-01 -0.2890669000802E+01  0.0000000000000E+00
-0.8271756687138E-01 -0.2816280957935E+01  0.0000000000000E+00
-0.8277745166208E-01 -0.2741896420311E+01  0.0000000000000E+00
-0.8292078717006E-01 -0.2667532169621E+01  0.0000000000000E+00
-0.8317175936353E-01 -0.2593219994158E+01  0.0000000000000E+00
-0.8353984884971E-01 -0.2518998195776E+01  0.0000000000000E+00
-0.8402612602254E-01 -0.2444903493085E+01  0.0000000000000E+00
-0.8462841640204E-01 -0.2370968840455E+01  0.0000000000000E+00
-0.8534426061171E-01 -0.2297225355644E+01  0.0000000000000E+00
-0.8617244380030E-01 -0.2223704297020E+01  0.0000000000000E+00
-0.8711385188860E-01 -0.2150441906354E+01  0.0000000000000E+00
-0.8817218489417E-01 -0.2077483008642E+01  0.0000000000000E+00
-0.8934886733396E-01 -0.2004869134183E+01  0.0000000000000E+00
-0.9063664267160E-01 -0.1932614523043E+01  0.0000000000000E+00
-0.9203009960065E-01 -0.1860734102001E+01  0.0000000000000E+00
-0.9352664199702E-01 -0.1789249650877E+01  0.0000000000000E+00
-0.9512618490244E-01 -0.1718191903789E+01  0.0000000000000E+00
-0.9683116090668E-01 -0.1647603744198E+01  0.0000000000000E+00
-0.9864683185755E-01 -0.1577545641147E+01  0.0000000000000E+00
-0.1005820822409E+00 -0.1508102046211E+01  0.0000000000000E+00
-0.1026507199050E+00 -0.1439400432931E+01  0.0000000000000E+00
-0.1048743086251E+00 -0.1371633878354E+01  0.0000000000000E+00
-0.5500711393383E-01 -0.4229641835546E+01  0.0000000000000E+00
-0.5501422786132E-01 -0.4155239088865E+01  0.0000000000000E+00
-0.5502134180221E-01 -0.4080836201962E+01  0.0000000000000E+00
-0.5502845574929E-01 -0.4006433250383E+01  0.0000000000000E+00
-0.5503556968698E-01 -0.3932030396953E+01  0.0000000000000E+00
-0.5504268362334E-01 -0.3857627557482E+01  0.0000000000000E+00
-0.5504979756060E-01 -0.3783224708557E+01  0.0000000000000E+00
-0.5505691149894E-01 -0.3708821848406E+01  0.0000000000000E+00
-0.5506402543671E-01 -0.3634418994103E+01  0.0000000000000E+00
-0.5507113937459E-01 -0.3560016138781E+01  0.0000000000000E+00
-0.5507825332541E-01 -0.3485613148002E+01  0.0000000000000E+00
-0.5508536725399E-01 -0.3411210389871E+01  0.0000000000000E+00
-0.5509248120376E-01 -0.3336807410182E+01  0.0000000000000E+00
-0.5509959525840E-01 -0.3262403333581E+01  0.0000000000000E+00
-0.5510670907779E-01 -0.3188001717540E+01  0.0000000000000E+00
-0.5511382299589E-01 -0.3113599068954E+01  0.0000000000000E+00
-0.5512093693430E-01 -0.3039196208064E+01  0.0000000000000E+00
-0.5512805086889E-01 -0.2964793387116E+01  0.0000000000000E+00
-0.5513516479427E-01 -0.2890390662477E+01  0.0000000000000E+00
-0.5514635582678E-01 -0.2815987970245E+01  0.0000000000000E+00
-0.5518634458180E-01 -0.2741588783338E+01  0.0000000000000E+00
-0.5528196714690E-01 -0.2667209883509E+01  0.0000000000000E+00
-0.5544934750096E-01 -0.2592883058975E+01  0.0000000000000E+00
-0.5569480604889E-01 -0.2518646611538E+01  0.0000000000000E+00
-0.5601905638671E-01 -0.2444537259779E+01  0.0000000000000E+00
-0.5642064886117E-01 -0.2370587958044E+01  0.0000000000000E+00
-0.5689794388766E-01 -0.2296829824147E+01  0.0000000000000E+00
-0.5745013156543E-01 -0.2223294116403E+01  0.0000000000000E+00
-0.5807780250795E-01 -0.2150017076651E+01  0.0000000000000E+00
-0.5878342339336E-01 -0.2077043529887E+01  0.0000000000000E+00
-0.5956794390064E-01 -0.2004415006351E+01  0.0000000000000E+00
-0.6042652633910E-01 -0.1932145746102E+01  0.0000000000000E+00
-0.6135556317081E-01 -0.1860250675935E+01  0.0000000000000E+00
-0.6235332364616E-01 -0.1788751575680E+01  0.0000000000000E+00
-0.6341975112603E-01 -0.1717679179460E+01  0.0000000000000E+00
-0.6455646733708E-01 -0.1647076370742E+01  0.0000000000000E+00
-0.6576698017705E-01 -0.1577003618680E+01  0.0000000000000E+00
-0.6705721263822E-01 -0.1507545374656E+01  0.0000000000000E+00
-0.6843636995069E-01 -0.1438829112620E+01  0.0000000000000E+00
-0.6991882796803E-01 -0.1371047909439E+01  0.0000000000000E+00
-0.2750357658843E-01 -0.4229633044861E+01  0.0000000000000E+00
-0.2750715317366E-01 -0.4155221507503E+01  0.0000000000000E+00
-0.2751072976564E-01 -0.4080809829905E+01  0.0000000000000E+00
-0.2751430636072E-01 -0.4006398087624E+01  0.0000000000000E+00
-0.2751788295109E-01 -0.3931986443504E+01  0.0000000000000E+00
-0.2752145954079E-01 -0.3857574813344E+01  0.0000000000000E+00
-0.2752503613094E-01 -0.3783163173730E+01  0.0000000000000E+00
-0.2752861272163E-01 -0.3708751522888E+01  0.0000000000000E+00
-0.2753218931203E-01 -0.3634339877895E+01  0.0000000000000E+00
-0.2753576590249E-01 -0.3559928231882E+01  0.0000000000000E+00
-0.2753934249946E-01 -0.3485516450397E+01  0.0000000000000E+00
-0.2754291908525E-01 -0.3411104901588E+01  0.0000000000000E+00
-0.2754649568168E-01 -0.3336693131194E+01  0.0000000000000E+00
-0.2755007233085E-01 -0.3262280263758E+01  0.0000000000000E+00
-0.2755364886173E-01 -0.3187869857173E+01  0.0000000000000E+00
-0.2755722544225E-01 -0.3113458417920E+01  0.0000000000000E+00
-0.2756080203298E-01 -0.3039046766340E+01  0.0000000000000E+00
-0.2756437862178E-01 -0.2964635154705E+01  0.0000000000000E+00
-0.2756795520596E-01 -0.2890223639392E+01  0.0000000000000E+00
-0.2757357034351E-01 -0.2815812156483E+01  0.0000000000000E+00
-0.2759358434146E-01 -0.2741404178949E+01  0.0000000000000E+00
-0.2764141524306E-01 -0.2667016488579E+01  0.0000000000000E+00
-0.2772512503744E-01 -0.2592680873544E+01  0.0000000000000E+00
-0.2784787392694E-01 -0.2518435635618E+01  0.0000000000000E+00
-0.2801001870949E-01 -0.2444317493361E+01  0.0000000000000E+00
-0.2821083455843E-01 -0.2370359401105E+01  0.0000000000000E+00
-0.2844950168136E-01 -0.2296592476699E+01  0.0000000000000E+00
-0.2872561512776E-01 -0.2223047978426E+01  0.0000000000000E+00
-0.2903947020410E-01 -0.2149762148164E+01  0.0000000000000E+00
-0.2939230024913E-01 -0.2076779810912E+01  0.0000000000000E+00
-0.2978458010354E-01 -0.2004142496872E+01  0.0000000000000E+00
-0.3021389092229E-01 -0.1931864446101E+01  0.0000000000000E+00
-0.3067842893605E-01 -0.1859960585402E+01  0.0000000000000E+00
-0.3117732876971E-01 -0.1788452694611E+01  0.0000000000000E+00
-0.3171056210335E-01 -0.1717371507854E+01  0.0000000000000E+00
-0.3227893980056E-01 -0.1646759908603E+01  0.0000000000000E+00
-0.3288421580958E-01 -0.1576678366077E+01  0.0000000000000E+00
-0.3352935162807E-01 -0.1507211331542E+01  0.0000000000000E+00
-0.3421894987024E-01 -0.1438486279195E+01  0.0000000000000E+00
-0.3496019846693E-01 -0.1370696285795E+01  0.0000000000000E+00
 0.1466269727017E-09 -0.4229630114457E+01  0.0000000000000E+00
 0.2932532055263E-09 -0.4155215646697E+01  0.0000000000000E+00
 0.4398803798697E-09 -0.4080801038692E+01  0.0000000000000E+00
 0.5865072632801E-09 -0.4006386366002E+01  0.0000000000000E+00
 0.7331339456125E-09 -0.3931971791476E+01  0.0000000000000E+00
 0.8797607629187E-09 -0.3857557230911E+01  0.0000000000000E+00
 0.1026387601599E-08 -0.3783142660891E+01  0.0000000000000E+00
 0.1173014146470E-08 -0.3708728079643E+01  0.0000000000000E+00
 0.1319641038940E-08 -0.3634313504245E+01  0.0000000000000E+00
 0.1466267822695E-08 -0.3559898927826E+01  0.0000000000000E+00
 0.1612894884936E-08 -0.3485484215930E+01  0.0000000000000E+00
 0.1759521559980E-08 -0.3411069736718E+01  0.0000000000000E+00
 0.1906148624904E-08 -0.3336655035914E+01  0.0000000000000E+00
 0.2052777753410E-08 -0.3262239238024E+01  0.0000000000000E+00
 0.2199402290491E-08 -0.3187825901082E+01  0.0000000000000E+00
 0.2346028468075E-08 -0.3113411531432E+01  0.0000000000000E+00
 0.2492655403194E-08 -0.3038996949445E+01  0.0000000000000E+00
 0.2639282414546E-08 -0.2964582407406E+01  0.0000000000000E+00
 0.2785908708559E-08 -0.2890167961692E+01  0.0000000000000E+00
 0.2932963750762E-08 -0.2815753548382E+01  0.0000000000000E+00
 0.3081668126355E-08 -0.2741342640464E+01  0.0000000000000E+00
 0.3233148692405E-08 -0.2666952019738E+01  0.0000000000000E+00
 0.3388282564229E-08 -0.2592613474360E+01  0.0000000000000E+00
 0.3547520115210E-08 -0.2518365306095E+01  0.0000000000000E+00
 0.3711086251809E-08 -0.2444244233496E+01  0.0000000000000E+00
 0.3879109370085E-08 -0.2370283210891E+01  0.0000000000000E+00
 0.4051601455226E-08 -0.2296513356140E+01  0.0000000000000E+00
 0.4229037818245E-08 -0.2222965927515E+01  0.0000000000000E+00
 0.4411708547429E-08 -0.2149677166908E+01  0.0000000000000E+00
 0.4600299816833E-08 -0.2076691899317E+01  0.0000000000000E+00
 0.4792582977744E-08 -0.2004051654933E+01  0.0000000000000E+00
 0.4987928936109E-08 -0.1931770673812E+01  0.0000000000000E+00
 0.5187018094136E-08 -0.1859863882760E+01  0.0000000000000E+00
 0.5390384780373E-08 -0.1788353061614E+01  0.0000000000000E+00
 0.5598754705489E-08 -0.1717268944503E+01  0.0000000000000E+00
 0.5811610974171E-08 -0.1646654414899E+01  0.0000000000000E+00
 0.6029914565701E-08 -0.1576569942042E+01  0.0000000000000E+00
 0.6251219526846E-08 -0.1507099977162E+01  0.0000000000000E+00
 0.6476122786694E-08 -0.1438371994536E+01  0.0000000000000E+00
 0.6697123319916E-08 -0.1370579070886E+01  0.0000000000000E+00
 0.2750357688167E-01 -0.4229633044863E+01  0.0000000000000E+00
 0.2750715376015E-01 -0.4155221507507E+01  0.0000000000000E+00
 0.2751073064538E-01 -0.4080809829911E+01  0.0000000000000E+00
 0.2751430753371E-01 -0.4006398087633E+01  0.0000000000000E+00
 0.2751788441732E-01 -0.3931986443515E+01  0.0000000000000E+00
 0.2752146130026E-01 -0.3857574813358E+01  0.0000000000000E+00
 0.2752503818366E-01 -0.3783163173746E+01  0.0000000000000E+00
 0.2752861506759E-01 -0.3708751522906E+01  0.0000000000000E+00
 0.2753219195125E-01 -0.3634339877916E+01  0.0000000000000E+00
 0.2753576883495E-01 -0.3559928231905E+01  0.0000000000000E+00
 0.2753934572517E-01 -0.3485516450422E+01  0.0000000000000E+00
 0.2754292260420E-01 -0.3411104901615E+01  0.0000000000000E+00
 0.2754649949388E-01 -0.3336693131223E+01  0.0000000000000E+00
 0.2755007643630E-01 -0.3262280263790E+01  0.0000000000000E+00
 0.2755365326042E-01 -0.3187869857207E+01  0.0000000000000E+00
 0.2755723013419E-01 -0.3113458417957E+01  0.0000000000000E+00
 0.2756080701816E-01 -0.3039046766379E+01  0.0000000000000E+00
 0.2756438390021E-01 -0.2964635154746E+01  0.0000000000000E+00
 0.2756796077763E-01 -0.2890223639435E+01  0.0000000000000E+00
 0.2757357620929E-01 -0.2815812156528E+01  0.0000000000000E+00
 0.2759359050464E-01 -0.2741404178997E+01  0.0000000000000E+00
 0.2764142170919E-01 -0.2667016488629E+01  0.0000000000000E+00
 0.2772513181383E-01 -0.2592680873597E+01  0.0000000000000E+00
 0.2784788102180E-01 -0.2518435635673E+01  0.0000000000000E+00
 0.2801002613147E-01 -0.2444317493417E+01  0.0000000000000E+00
 0.2821084231645E-01 -0.2370359401164E+01  0.0000000000000E+00
 0.2844950978436E-01 -0.2296592476761E+01  0.0000000000000E+00
 0.2872562358562E-01 -0.2223047978490E+01  0.0000000000000E+00
 0.2903947902730E-01 -0.2149762148230E+01  0.0000000000000E+00
 0.2939230944951E-01 -0.2076779810981E+01  0.0000000000000E+00
 0.2978458968848E-01 -0.2004142496943E+01  0.0000000000000E+00
 0.3021390089791E-01 -0.1931864446174E+01  0.0000000000000E+00
 0.3067843930983E-01 -0.1859960585477E+01  0.0000000000000E+00
 0.3117733955022E-01 -0.1788452694688E+01  0.0000000000000E+00
 0.3171057330060E-01 -0.1717371507933E+01  0.0000000000000E+00
 0.3227895142350E-01 -0.1646759908685E+01  0.0000000000000E+00
 0.3288422786913E-01 -0.1576678366161E+01  0.0000000000000E+00
 0.3352936413022E-01 -0.1507211331629E+01  0.0000000000000E+00
 0.3421896282219E-01 -0.1438486279285E+01  0.0000000000000E+00
 0.3496021186087E-01 -0.1370696285886E+01  0.0000000000000E+00
 0.5500711422706E-01 -0.4229641835551E+01  0.0000000000000E+00
 0.5501422844776E-01 -0.4155239088874E+01  0.0000000000000E+00
 0.5502134268188E-01 -0.4080836201975E+01  0.0000000000000E+00
 0.5502845692218E-01 -0.4006433250401E+01  0.0000000000000E+00
 0.5503557115310E-01 -0.3932030396975E+01  0.0000000000000E+00
 0.5504268538268E-01 -0.3857627557509E+01  0.0000000000000E+00
 0.5504979961317E-01 -0.3783224708589E+01  0.0000000000000E+00
 0.5505691384472E-01 -0.3708821848442E+01  0.0000000000000E+00
 0.5506402807572E-01 -0.3634418994144E+01  0.0000000000000E+00
 0.5507114230682E-01 -0.3560016138826E+01  0.0000000000000E+00
 0.5507825655087E-01 -0.3485613148052E+01  0.0000000000000E+00
 0.5508537077267E-01 -0.3411210389926E+01  0.0000000000000E+00
 0.5509248501566E-01 -0.3336807410241E+01  0.0000000000000E+00
 0.5509959936354E-01 -0.3262403333645E+01  0.0000000000000E+00
 0.5510671347613E-01 -0.3188001717608E+01  0.0000000000000E+00
 0.5511382768746E-01 -0.3113599069026E+01  0.0000000000000E+00
 0.5512094191909E-01 -0.3039196208141E+01  0.0000000000000E+00
 0.5512805614690E-01 -0.2964793387197E+01  0.0000000000000E+00
 0.5513517036551E-01 -0.2890390662564E+01  0.0000000000000E+00
 0.5514636169210E-01 -0.2815987970336E+01  0.0000000000000E+00
 0.5518635074450E-01 -0.2741588783433E+01  0.0000000000000E+00
 0.5528197361253E-01 -0.2667209883609E+01  0.0000000000000E+00
 0.5544935427683E-01 -0.2592883059079E+01  0.0000000000000E+00
 0.5569481314320E-01 -0.2518646611647E+01  0.0000000000000E+00
 0.5601906380812E-01 -0.2444537259892E+01  0.0000000000000E+00
 0.5642065661860E-01 -0.2370587958162E+01  0.0000000000000E+00
 0.5689795199004E-01 -0.2296829824270E+01  0.0000000000000E+00
 0.5745014002266E-01 -0.2223294116531E+01  0.0000000000000E+00
 0.5807781133049E-01 -0.2150017076782E+01  0.0000000000000E+00
 0.5878343259305E-01 -0.2077043530024E+01  0.0000000000000E+00
 0.5956795348486E-01 -0.2004415006491E+01  0.0000000000000E+00
 0.6042653631398E-01 -0.1932145746248E+01  0.0000000000000E+00
 0.6135557354385E-01 -0.1860250676085E+01  0.0000000000000E+00
 0.6235333442590E-01 -0.1788751575835E+01  0.0000000000000E+00
 0.6341976232248E-01 -0.1717679179619E+01  0.0000000000000E+00
 0.6455647895921E-01 -0.1647076370906E+01  0.0000000000000E+00
 0.6576699223576E-01 -0.1577003618849E+01  0.0000000000000E+00
 0.6705722513951E-01 -0.1507545374830E+01  0.0000000000000E+00
 0.6843638290175E-01 -0.1438829112798E+01  0.0000000000000E+00
 0.6991884136106E-01 -0.1371047909622E+01  0.0000000000000E+00
 0.8251057285052E-01 -0.4229656484933E+01  0.0000000000000E+00
 0.8252114569160E-01 -0.4155268387626E+01  0.0000000000000E+00
 0.8253171855261E-01 -0.4080880150123E+01  0.0000000000000E+00
 0.8254229142281E-01 -0.4006491847959E+01  0.0000000000000E+00
 0.8255286427906E-01 -0.3932103643923E+01  0.0000000000000E+00
 0.8256343713333E-01 -0.3857715453844E+01  0.0000000000000E+00
 0.8257400998894E-01 -0.3783327254313E+01  0.0000000000000E+00
 0.8258458284615E-01 -0.3708939043558E+01  0.0000000000000E+00
 0.8259515570252E-01 -0.3634550838650E+01  0.0000000000000E+00
 0.8260572855905E-01 -0.3560162632723E+01  0.0000000000000E+00
 0.8261630143482E-01 -0.3485774291366E+01  0.0000000000000E+00
 0.8262687427753E-01 -0.3411386182611E+01  0.0000000000000E+00
 0.8263744715172E-01 -0.3336997852342E+01  0.0000000000000E+00
 0.8264802018179E-01 -0.3262608425376E+01  0.0000000000000E+00
 0.8265859286221E-01 -0.3188221458486E+01  0.0000000000000E+00
 0.8266916568935E-01 -0.3113833459254E+01  0.0000000000000E+00
 0.8267973854666E-01 -0.3039445247761E+01  0.0000000000000E+00
 0.8269031139830E-01 -0.2965057076200E+01  0.0000000000000E+00
 0.8270088423625E-01 -0.2890669000931E+01  0.0000000000000E+00
 0.8271757273595E-01 -0.2816280958071E+01  0.0000000000000E+00
 0.8277745782398E-01 -0.2741896420454E+01  0.0000000000000E+00
 0.8292079363485E-01 -0.2667532169771E+01  0.0000000000000E+00
 0.8317176613852E-01 -0.2593219994315E+01  0.0000000000000E+00
 0.8353985594311E-01 -0.2518998195939E+01  0.0000000000000E+00
 0.8402613344300E-01 -0.2444903493255E+01  0.0000000000000E+00
 0.8462842415848E-01 -0.2370968840632E+01  0.0000000000000E+00
 0.8534426871307E-01 -0.2297225355828E+01  0.0000000000000E+00
 0.8617245225646E-01 -0.2223704297211E+01  0.0000000000000E+00
 0.8711386071004E-01 -0.2150441906551E+01  0.0000000000000E+00
 0.8817219409272E-01 -0.2077483008847E+01  0.0000000000000E+00
 0.8934887691701E-01 -0.2004869134394E+01  0.0000000000000E+00
 0.9063665264527E-01 -0.1932614523261E+01  0.0000000000000E+00
 0.9203010997243E-01 -0.1860734102227E+01  0.0000000000000E+00
 0.9352665277546E-01 -0.1789249651109E+01  0.0000000000000E+00
 0.9512619609756E-01 -0.1718191904028E+01  0.0000000000000E+00
 0.9683117252744E-01 -0.1647603744444E+01  0.0000000000000E+00
 0.9864684391485E-01 -0.1577545641400E+01  0.0000000000000E+00
 0.1005820947408E+00 -0.1508102046472E+01  0.0000000000000E+00
 0.1026507328546E+00 -0.1439400433198E+01  0.0000000000000E+00
 0.1048743220166E+00 -0.1371633878628E+01  0.0000000000000E+00
 0.1100139134665E+00 -0.4229676990368E+01  0.0000000000000E+00
 0.1100278269205E+00 -0.4155309398477E+01  0.0000000000000E+00
 0.1100417404008E+00 -0.4080941666429E+01  0.0000000000000E+00
 0.1100556538932E+00 -0.4006573869738E+01  0.0000000000000E+00
 0.1100695673672E+00 -0.3932206171148E+01  0.0000000000000E+00
 0.1100834808386E+00 -0.3857838486511E+01  0.0000000000000E+00
 0.1100973943118E+00 -0.3783470792424E+01  0.0000000000000E+00
 0.1101113077871E+00 -0.3709103087117E+01  0.0000000000000E+00
 0.1101252212613E+00 -0.3634735387655E+01  0.0000000000000E+00
 0.1101391347357E+00 -0.3560367687174E+01  0.0000000000000E+00
 0.1101530482354E+00 -0.3485999851300E+01  0.0000000000000E+00
 0.1101669616916E+00 -0.3411632247966E+01  0.0000000000000E+00
 0.1101808751892E+00 -0.3337264423177E+01  0.0000000000000E+00
 0.1101947888920E+00 -0.3262895501994E+01  0.0000000000000E+00
 0.1102087021346E+00 -0.3188529040208E+01  0.0000000000000E+00
 0.1102226155703E+00 -0.3114161546366E+01  0.0000000000000E+00
 0.1102365290458E+00 -0.3039793840320E+01  0.0000000000000E+00
 0.1102504425137E+00 -0.2965426174197E+01  0.0000000000000E+00
 0.1102643559636E+00 -0.2891058604338E+01  0.0000000000000E+00
 0.1102864236291E+00 -0.2816691066893E+01  0.0000000000000E+00
 0.1103660867463E+00 -0.2742327034573E+01  0.0000000000000E+00
 0.1105570174950E+00 -0.2667983288988E+01  0.0000000000000E+00
 0.1108914638340E+00 -0.2593691618536E+01  0.0000000000000E+00
 0.1113820665735E+00 -0.2519490325139E+01  0.0000000000000E+00
 0.1120302529054E+00 -0.2445416127452E+01  0.0000000000000E+00
 0.1128331235231E+00 -0.2371501979881E+01  0.0000000000000E+00
 0.1137873992588E+00 -0.2297779000099E+01  0.0000000000000E+00
 0.1148914603110E+00 -0.2224278446553E+01  0.0000000000000E+00
 0.1161464879092E+00 -0.2151036560917E+01  0.0000000000000E+00
 0.1175574154117E+00 -0.2078098168188E+01  0.0000000000000E+00
 0.1191261421684E+00 -0.2005504798746E+01  0.0000000000000E+00
 0.1208429927959E+00 -0.1933270692668E+01  0.0000000000000E+00
 0.1227007522209E+00 -0.1861410776712E+01  0.0000000000000E+00
 0.1246959589458E+00 -0.1789946830680E+01  0.0000000000000E+00
 0.1268284996947E+00 -0.1718909588687E+01  0.0000000000000E+00
 0.1291016179195E+00 -0.1648341934183E+01  0.0000000000000E+00
 0.1315223294210E+00 -0.1578304336058E+01  0.0000000000000E+00
 0.1341024801722E+00 -0.1508881246156E+01  0.0000000000000E+00
 0.1368604806440E+00 -0.1440200137443E+01  0.0000000000000E+00
 0.1398250825170E+00 -0.1372454087222E+01  0.0000000000000E+00
 0.1375170968594E+00 -0.4229703348160E+01  0.0000000000000E+00
 0.1375341937036E+00 -0.4155362114038E+01  0.0000000000000E+00
 0.1375512905800E+00 -0.4081020739809E+01  0.0000000000000E+00
 0.1375683874712E+00 -0.4006679300958E+01  0.0000000000000E+00
 0.1375854843399E+00 -0.3932337960175E+01  0.0000000000000E+00
 0.1376025812054E+00 -0.3857996633339E+01  0.0000000000000E+00
 0.1376196780730E+00 -0.3783655297058E+01  0.0000000000000E+00
 0.1376367749433E+00 -0.3709313949559E+01  0.0000000000000E+00
 0.1376538718122E+00 -0.3634972607904E+01  0.0000000000000E+00
 0.1376709686813E+00 -0.3560631265231E+01  0.0000000000000E+00
 0.1376880655816E+00 -0.3486289787212E+01  0.0000000000000E+00
 0.1377051624283E+00 -0.3411948541650E+01  0.0000000000000E+00
 0.1377222593261E+00 -0.3337607074712E+01  0.0000000000000E+00
 0.1377393564758E+00 -0.3263264511770E+01  0.0000000000000E+00
 0.1377564530602E+00 -0.3188924407352E+01  0.0000000000000E+00
 0.1377735498818E+00 -0.3114583271243E+01  0.0000000000000E+00
 0.1377906467522E+00 -0.3040241923007E+01  0.0000000000000E+00
 0.1378077436134E+00 -0.2965900614679E+01  0.0000000000000E+00
 0.1378248404525E+00 -0.2891559402581E+01  0.0000000000000E+00
 0.1378521300609E+00 -0.2817218222902E+01  0.0000000000000E+00
 0.1379514139857E+00 -0.2742880548199E+01  0.0000000000000E+00
 0.1381897824530E+00 -0.2668563159972E+01  0.0000000000000E+00
 0.1386075454098E+00 -0.2594297846758E+01  0.0000000000000E+00
 0.1392205038678E+00 -0.2520122910568E+01  0.0000000000000E+00
 0.1400304418163E+00 -0.2446075070112E+01  0.0000000000000E+00
 0.1410337351215E+00 -0.2372187279840E+01  0.0000000000000E+00
 0.1422262848245E+00 -0.2298490657320E+01  0.0000000000000E+00
 0.1436060661727E+00 -0.2225016461099E+01  0.0000000000000E+00
 0.1451745557039E+00 -0.2151800932726E+01  0.0000000000000E+00
 0.1469379201159E+00 -0.2078888897200E+01  0.0000000000000E+00
 0.1488985335956E+00 -0.2006321885006E+01  0.0000000000000E+00
 0.1510443019137E+00 -0.1934114136231E+01  0.0000000000000E+00
 0.1533662062284E+00 -0.1862280577609E+01  0.0000000000000E+00
 0.1558599196680E+00 -0.1790842988921E+01  0.0000000000000E+00
 0.1585253006374E+00 -0.1719832104274E+01  0.0000000000000E+00
 0.1613664034520E+00 -0.1649290807107E+01  0.0000000000000E+00
 0.1643919978645E+00 -0.1579279566112E+01  0.0000000000000E+00
 0.1676168913382E+00 -0.1509882833477E+01  0.0000000000000E+00
 0.1710640969698E+00 -0.1441228081433E+01  0.0000000000000E+00
 0.1747695543587E+00 -0.1373508387609E+01  0.0000000000000E+00
 0.1650200839071E+00 -0.4229735553566E+01  0.0000000000000E+00
 0.1650401677963E+00 -0.4155426524821E+01  0.0000000000000E+00
 0.1650602517234E+00 -0.4081117356029E+01  0.0000000000000E+00
 0.1650803356679E+00 -0.4006808122644E+01  0.0000000000000E+00
 0.1651004195859E+00 -0.3932498987284E+01  0.0000000000000E+00
 0.1651205035002E+00 -0.3858189865866E+01  0.0000000000000E+00
 0.1651405874170E+00 -0.3783880735006E+01  0.0000000000000E+00
 0.1651606713369E+00 -0.3709571592933E+01  0.0000000000000E+00
 0.1651807552551E+00 -0.3635262456702E+01  0.0000000000000E+00
 0.1652008391737E+00 -0.3560953319452E+01  0.0000000000000E+00
 0.1652209231288E+00 -0.3486644046916E+01  0.0000000000000E+00
 0.1652410070211E+00 -0.3412335006736E+01  0.0000000000000E+00
 0.1652610909732E+00 -0.3338025745277E+01  0.0000000000000E+00
 0.1652811752214E+00 -0.3263715388287E+01  0.0000000000000E+00
 0.1653012588054E+00 -0.3189407488756E+01  0.0000000000000E+00
 0.1653213426681E+00 -0.3115098557982E+01  0.0000000000000E+00
 0.1653414265882E+00 -0.3040789415173E+01  0.0000000000000E+00
 0.1653615104974E+00 -0.2966480312253E+01  0.0000000000000E+00
 0.1653815943807E+00 -0.2892171305523E+01  0.0000000000000E+00
 0.1654139095870E+00 -0.2817862331218E+01  0.0000000000000E+00
 0.1655326179762E+00 -0.2743556861706E+01  0.0000000000000E+00
 0.1658182278219E+00 -0.2669271678356E+01  0.0000000000000E+00
 0.1663191110588E+00 -0.2595038569871E+01  0.0000000000000E+00
 0.1670542288993E+00 -0.2520895838369E+01  0.0000000000000E+00
 0.1680257221299E+00 -0.2446880202634E+01  0.0000000000000E+00
 0.1692292417891E+00 -0.2373024617165E+01  0.0000000000000E+00
 0.1706598691281E+00 -0.2299360199403E+01  0.0000000000000E+00
 0.1723151744417E+00 -0.2225918208017E+01  0.0000000000000E+00
 0.1741969295774E+00 -0.2152734884404E+01  0.0000000000000E+00
 0.1763125345726E+00 -0.2079855053562E+01  0.0000000000000E+00
 0.1786648384501E+00 -0.2007320246109E+01  0.0000000000000E+00
 0.1812393281348E+00 -0.1935144702143E+01  0.0000000000000E+00
 0.1840251810165E+00 -0.1863343348367E+01  0.0000000000000E+00
 0.1870172048494E+00 -0.1791937964537E+01  0.0000000000000E+00
 0.1902152297195E+00 -0.1720959284752E+01  0.0000000000000E+00
 0.1936241208052E+00 -0.1650450192432E+01  0.0000000000000E+00
 0.1972544018134E+00 -0.1580471156033E+01  0.0000000000000E+00
 0.2011238416948E+00 -0.1511106628163E+01  0.0000000000000E+00
 0.2052600561778E+00 -0.1442484080152E+01  0.0000000000000E+00
 0.2097061727783E+00 -0.1374796590029E+01  0.0000000000000E+00
 0.1925228353624E+00 -0.4229773600784E+01  0.0000000000000E+00
 0.1925456707045E+00 -0.4155502619222E+01  0.0000000000000E+00
 0.1925685060895E+00 -0.4081231497687E+01  0.0000000000000E+00
 0.1925913414945E+00 -0.4006960311591E+01  0.0000000000000E+00
 0.1926141768693E+00 -0.3932689223469E+01  0.0000000000000E+00
 0.1926370122398E+00 -0.3858418149282E+01  0.0000000000000E+00
 0.1926598476132E+00 -0.3784147065658E+01  0.0000000000000E+00
 0.1926826829901E+00 -0.3709875970828E+01  0.0000000000000E+00
 0.1927055183652E+00 -0.3635604881835E+01  0.0000000000000E+00
 0.1927283537406E+00 -0.3561333791825E+01  0.0000000000000E+00
 0.1927511891575E+00 -0.3487062566598E+01  0.0000000000000E+00
 0.1927740245031E+00 -0.3412791573608E+01  0.0000000000000E+00
 0.1927968599166E+00 -0.3338520359451E+01  0.0000000000000E+00
 0.1928196956668E+00 -0.3264248050325E+01  0.0000000000000E+00
 0.1928425306619E+00 -0.3189978197401E+01  0.0000000000000E+00
 0.1928653659738E+00 -0.3115707313761E+01  0.0000000000000E+00
 0.1928882013509E+00 -0.3041436218193E+01  0.0000000000000E+00
 0.1929110367158E+00 -0.2967165162496E+01  0.0000000000000E+00
 0.1929338720510E+00 -0.2892894202938E+01  0.0000000000000E+00
 0.1929709772629E+00 -0.2818623275814E+01  0.0000000000000E+00
 0.1931088745236E+00 -0.2744355853266E+01  0.0000000000000E+00
 0.1934414901538E+00 -0.2670108716509E+01  0.0000000000000E+00
 0.1940252580734E+00 -0.2595913654441E+01  0.0000000000000E+00
 0.1948822996948E+00 -0.2521808969312E+01  0.0000000000000E+00
 0.1960151126007E+00 -0.2447831379984E+01  0.0000000000000E+00
 0.1974186230017E+00 -0.2374013841021E+01  0.0000000000000E+00
 0.1990870923602E+00 -0.2300387469712E+01  0.0000000000000E+00
 0.2010176860176E+00 -0.2226983524869E+01  0.0000000000000E+00
 0.2032124711323E+00 -0.2153838247711E+01  0.0000000000000E+00
 0.2056800810808E+00 -0.2080996463236E+01  0.0000000000000E+00
 0.2084238397212E+00 -0.2008499702214E+01  0.0000000000000E+00
 0.2114268151323E+00 -0.1936362204762E+01  0.0000000000000E+00
 0.2146763809363E+00 -0.1864598897542E+01  0.0000000000000E+00
 0.2181664795136E+00 -0.1793231560282E+01  0.0000000000000E+00
 0.2218969126310E+00 -0.1722290927072E+01  0.0000000000000E+00
 0.2258733563306E+00 -0.1651819881312E+01  0.0000000000000E+00
 0.2301080882744E+00 -0.1581878891174E+01  0.0000000000000E+00
 0.2346218388973E+00 -0.1512552409764E+01  0.0000000000000E+00
 0.2394468265655E+00 -0.1443967907350E+01  0.0000000000000E+00
 0.2446333667075E+00 -0.1376318462430E+01  0.0000000000000E+00
 0.2200253125104E+00 -0.4229817482990E+01  0.0000000000000E+00
 0.2200506249983E+00 -0.4155590383597E+01  0.0000000000000E+00
 0.2200759375338E+00 -0.4081363144312E+01  0.0000000000000E+00
 0.2201012500914E+00 -0.4007135840505E+01  0.0000000000000E+00
 0.2201265626155E+00 -0.3932908634614E+01  0.0000000000000E+00
 0.2201518751349E+00 -0.3858681442649E+01  0.0000000000000E+00
 0.2201771876576E+00 -0.3784454241253E+01  0.0000000000000E+00
 0.2202025001840E+00 -0.3710227028657E+01  0.0000000000000E+00
 0.2202278127085E+00 -0.3635999821897E+01  0.0000000000000E+00
 0.2202531252333E+00 -0.3561772614118E+01  0.0000000000000E+00
 0.2202784378042E+00 -0.3487545271203E+01  0.0000000000000E+00
 0.2203037502959E+00 -0.3413318160387E+01  0.0000000000000E+00
 0.2203290628630E+00 -0.3339090828536E+01  0.0000000000000E+00
 0.2203543758033E+00 -0.3264862402362E+01  0.0000000000000E+00
 0.2203796879065E+00 -0.3190636430938E+01  0.0000000000000E+00
 0.2204050003610E+00 -0.3116409429408E+01  0.0000000000000E+00
 0.2204303128877E+00 -0.3042182216076E+01  0.0000000000000E+00
 0.2204556254008E+00 -0.2967955042590E+01  0.0000000000000E+00
 0.2204809378811E+00 -0.2893727965187E+01  0.0000000000000E+00
 0.2205225587916E+00 -0.2819500920227E+01  0.0000000000000E+00
 0.2206793706184E+00 -0.2745277379593E+01  0.0000000000000E+00
 0.2210587177307E+00 -0.2671074124321E+01  0.0000000000000E+00
 0.2217250960322E+00 -0.2596922943538E+01  0.0000000000000E+00
 0.2227037871342E+00 -0.2522862139640E+01  0.0000000000000E+00
 0.2239976454152E+00 -0.2448928431584E+01  0.0000000000000E+00
 0.2256008722577E+00 -0.2375154774008E+01  0.0000000000000E+00
 0.2275069093357E+00 -0.2301572284024E+01  0.0000000000000E+00
 0.2297125170368E+00 -0.2228212220609E+01  0.0000000000000E+00
 0.2322200578312E+00 -0.2155110824777E+01  0.0000000000000E+00
 0.2350393984347E+00 -0.2082312921528E+01  0.0000000000000E+00
 0.2381743375395E+00 -0.2009860041806E+01  0.0000000000000E+00
 0.2416055243783E+00 -0.1937766425747E+01  0.0000000000000E+00
 0.2453185288059E+00 -0.1866046999972E+01  0.0000000000000E+00
 0.2493064278290E+00 -0.1794723544173E+01  0.0000000000000E+00
 0.2535689948955E+00 -0.1723826792427E+01  0.0000000000000E+00
 0.2581127169110E+00 -0.1653399628115E+01  0.0000000000000E+00
 0.2629516254948E+00 -0.1583502519080E+01  0.0000000000000E+00
 0.2681094125627E+00 -0.1514219919004E+01  0.0000000000000E+00
 0.2736228991260E+00 -0.1445679296927E+01  0.0000000000000E+00
 0.2795495885227E+00 -0.1378073731891E+01  0.0000000000000E+00
 0.2475274766539E+00 -0.4229867192326E+01  0.0000000000000E+00
 0.2475549532832E+00 -0.4155689802224E+01  0.0000000000000E+00
 0.2475824299644E+00 -0.4081512272324E+01  0.0000000000000E+00
 0.2476099066694E+00 -0.4007334677945E+01  0.0000000000000E+00
 0.2476373833382E+00 -0.3933157181417E+01  0.0000000000000E+00
 0.2476648600018E+00 -0.3858979698806E+01  0.0000000000000E+00
 0.2476923366689E+00 -0.3784802206770E+01  0.0000000000000E+00
 0.2477198133402E+00 -0.3710624703541E+01  0.0000000000000E+00
 0.2477472900093E+00 -0.3636447206144E+01  0.0000000000000E+00
 0.2477747666787E+00 -0.3562269707729E+01  0.0000000000000E+00
 0.2478022433982E+00 -0.3488092074268E+01  0.0000000000000E+00
 0.2478297200318E+00 -0.3413914672752E+01  0.0000000000000E+00
 0.2478571967472E+00 -0.3339737050347E+01  0.0000000000000E+00
 0.2478846738677E+00 -0.3265558334353E+01  0.0000000000000E+00
 0.2479121500795E+00 -0.3191382071466E+01  0.0000000000000E+00
 0.2479396266726E+00 -0.3117204779162E+01  0.0000000000000E+00
 0.2479671033442E+00 -0.3043027275197E+01  0.0000000000000E+00
 0.2479945800010E+00 -0.2968849811053E+01  0.0000000000000E+00
 0.2480220566222E+00 -0.2894672442926E+01  0.0000000000000E+00
 0.2480678802269E+00 -0.2820495107254E+01  0.0000000000000E+00
 0.2482432936180E+00 -0.2746321275624E+01  0.0000000000000E+00
 0.2486690592144E+00 -0.2672167728870E+01  0.0000000000000E+00
 0.2494177349024E+00 -0.2598066256378E+01  0.0000000000000E+00
 0.2505177624914E+00 -0.2524055160710E+01  0.0000000000000E+00
 0.2519723531549E+00 -0.2450171160932E+01  0.0000000000000E+00
 0.2537749834465E+00 -0.2376447211761E+01  0.0000000000000E+00
 0.2559182752537E+00 -0.2302914430113E+01  0.0000000000000E+00
 0.2583985840084E+00 -0.2229604075153E+01  0.0000000000000E+00
 0.2612185674944E+00 -0.2156552387660E+01  0.0000000000000E+00
 0.2643893257669E+00 -0.2083804192633E+01  0.0000000000000E+00
 0.2679151323508E+00 -0.2011401021221E+01  0.0000000000000E+00
 0.2717742176326E+00 -0.1939357113576E+01  0.0000000000000E+00
 0.2759503476999E+00 -0.1867687396273E+01  0.0000000000000E+00
 0.2804357341858E+00 -0.1796413648963E+01  0.0000000000000E+00
 0.2852301222195E+00 -0.1725566605714E+01  0.0000000000000E+00
 0.2903408095704E+00 -0.1655189149877E+01  0.0000000000000E+00
 0.2957835818175E+00 -0.1585341748928E+01  0.0000000000000E+00
 0.3015850923532E+00 -0.1516108857198E+01  0.0000000000000E+00
 0.3077867648430E+00 -0.1447617942338E+01  0.0000000000000E+00
 0.3144532905308E+00 -0.1380062084006E+01  0.0000000000000E+00
 0.2750292892693E+00 -0.4229922719906E+01  0.0000000000000E+00
 0.2750585785124E+00 -0.4155800857335E+01  0.0000000000000E+00
 0.2750878678108E+00 -0.4081678855069E+01  0.0000000000000E+00
 0.2751171571346E+00 -0.4007556788374E+01  0.0000000000000E+00
 0.2751464464198E+00 -0.3933434819456E+01  0.0000000000000E+00
 0.2751757356995E+00 -0.3859312864444E+01  0.0000000000000E+00
 0.2752050249829E+00 -0.3785190900015E+01  0.0000000000000E+00
 0.2752343142707E+00 -0.3711068924401E+01  0.0000000000000E+00
 0.2752636035562E+00 -0.3636946954615E+01  0.0000000000000E+00
 0.2752928928421E+00 -0.3562824983812E+01  0.0000000000000E+00
 0.2753221821814E+00 -0.3488702878064E+01  0.0000000000000E+00
 0.2753514714290E+00 -0.3414581004086E+01  0.0000000000000E+00
 0.2753807607639E+00 -0.3340458909386E+01  0.0000000000000E+00
 0.2754100505306E+00 -0.3266335721915E+01  0.0000000000000E+00
 0.2754393393287E+00 -0.3192214985714E+01  0.0000000000000E+00
 0.2754686285332E+00 -0.3118093220867E+01  0.0000000000000E+00
 0.2754979178213E+00 -0.3043971244518E+01  0.0000000000000E+00
 0.2755272070937E+00 -0.2969849307959E+01  0.0000000000000E+00
 0.2755564963282E+00 -0.2895727467347E+01  0.0000000000000E+00
 0.2756061710997E+00 -0.2821605659200E+01  0.0000000000000E+00
 0.2757998345302E+00 -0.2747487354780E+01  0.0000000000000E+00
 0.2762716670907E+00 -0.2673389334693E+01  0.0000000000000E+00
 0.2771022886488E+00 -0.2599343388614E+01  0.0000000000000E+00
 0.2783233012108E+00 -0.2525387819291E+01  0.0000000000000E+00
 0.2799382727445E+00 -0.2451559345910E+01  0.0000000000000E+00
 0.2819399549741E+00 -0.2377890923281E+01  0.0000000000000E+00
 0.2843201500017E+00 -0.2304413668096E+01  0.0000000000000E+00
 0.2870748083025E+00 -0.2231158839731E+01  0.0000000000000E+00
 0.2902068829753E+00 -0.2158162678704E+01  0.0000000000000E+00
 0.2937287074149E+00 -0.2085470010015E+01  0.0000000000000E+00
 0.2976450299774E+00 -0.2013122365035E+01  0.0000000000000E+00
 0.3019316622029E+00 -0.1941133983942E+01  0.0000000000000E+00
 0.3065705664120E+00 -0.1869519793253E+01  0.0000000000000E+00
 0.3115530888646E+00 -0.1798301572579E+01  0.0000000000000E+00
 0.3168789463712E+00 -0.1727510055970E+01  0.0000000000000E+00
 0.3225562475650E+00 -0.1657188126752E+01  0.0000000000000E+00
 0.3286025319875E+00 -0.1587396251987E+01  0.0000000000000E+00
 0.3350474145034E+00 -0.1518218886732E+01  0.0000000000000E+00
 0.3419369214426E+00 -0.1449783497085E+01  0.0000000000000E+00
 0.3493429319505E+00 -0.1382283163393E+01  0.0000000000000E+00
 0.3025307120396E+00 -0.4229984055830E+01  0.0000000000000E+00
 0.3025614240518E+00 -0.4155923529129E+01  0.0000000000000E+00
 0.3025921361219E+00 -0.4081862862849E+01  0.0000000000000E+00
 0.3026228482187E+00 -0.4007802132191E+01  0.0000000000000E+00
 0.3026535602750E+00 -0.3933741499231E+01  0.0000000000000E+00
 0.3026842723255E+00 -0.3859680880166E+01  0.0000000000000E+00
 0.3027149843799E+00 -0.3785620251690E+01  0.0000000000000E+00
 0.3027456964389E+00 -0.3711559612040E+01  0.0000000000000E+00
 0.3027764084955E+00 -0.3637498978211E+01  0.0000000000000E+00
 0.3028071205526E+00 -0.3563438343367E+01  0.0000000000000E+00
 0.3028378326656E+00 -0.3489377573690E+01  0.0000000000000E+00
 0.3028685446825E+00 -0.3415317035591E+01  0.0000000000000E+00
 0.3028992567909E+00 -0.3341256276953E+01  0.0000000000000E+00
 0.3029299693521E+00 -0.3267194426448E+01  0.0000000000000E+00
 0.3029606808976E+00 -0.3193135025185E+01  0.0000000000000E+00
 0.3029913928693E+00 -0.3119074596126E+01  0.0000000000000E+00
 0.3030221049286E+00 -0.3045013955741E+01  0.0000000000000E+00
 0.3030528169715E+00 -0.2970953355113E+01  0.0000000000000E+00
 0.3030835289746E+00 -0.2896892850352E+01  0.0000000000000E+00
 0.3031366650683E+00 -0.2822832378069E+01  0.0000000000000E+00
 0.3033481886970E+00 -0.2748775409164E+01  0.0000000000000E+00
 0.3038656983863E+00 -0.2674738723994E+01  0.0000000000000E+00
 0.3047778759835E+00 -0.2600754112549E+01  0.0000000000000E+00
 0.3061194836908E+00 -0.2526859877786E+01  0.0000000000000E+00
 0.3078944462696E+00 -0.2453092739024E+01  0.0000000000000E+00
 0.3100947906140E+00 -0.2379485651171E+01  0.0000000000000E+00
 0.3127114990421E+00 -0.2306069730678E+01  0.0000000000000E+00
 0.3157401170710E+00 -0.2232876237149E+01  0.0000000000000E+00
 0.3191838931162E+00 -0.2159941410816E+01  0.0000000000000E+00
 0.3230563939122E+00 -0.2087310076679E+01  0.0000000000000E+00
 0.3273628426451E+00 -0.2015023766356E+01  0.0000000000000E+00
 0.3320766320079E+00 -0.1943096720051E+01  0.0000000000000E+00
 0.3371779205545E+00 -0.1871543864221E+01  0.0000000000000E+00
 0.3426571891719E+00 -0.1800386978427E+01  0.0000000000000E+00
 0.3485141263518E+00 -0.1729656796705E+01  0.0000000000000E+00
 0.3547576515920E+00 -0.1659396202350E+01  0.0000000000000E+00
 0.3614070583991E+00 -0.1589665661967E+01  0.0000000000000E+00
 0.3684949231053E+00 -0.1520549631415E+01  0.0000000000000E+00
 0.3760718747160E+00 -0.1452175575078E+01  0.0000000000000E+00
 0.3842169802741E+00 -0.1384736574064E+01  0.0000000000000E+00
 0.3300317066083E+00 -0.4230051189169E+01  0.0000000000000E+00
 0.3300634131883E+00 -0.4156057795746E+01  0.0000000000000E+00
 0.3300951198281E+00 -0.4082064262871E+01  0.0000000000000E+00
 0.3301268264954E+00 -0.4008070665678E+01  0.0000000000000E+00
 0.3301585331209E+00 -0.3934077166092E+01  0.0000000000000E+00
 0.3301902397405E+00 -0.3860083680390E+01  0.0000000000000E+00
 0.3302219463641E+00 -0.3786090185285E+01  0.0000000000000E+00
 0.3302536529925E+00 -0.3712096679016E+01  0.0000000000000E+00
 0.3302853596183E+00 -0.3638103178563E+01  0.0000000000000E+00
 0.3303170662447E+00 -0.3564109677096E+01  0.0000000000000E+00
 0.3303487729287E+00 -0.3490116040918E+01  0.0000000000000E+00
 0.3303804795136E+00 -0.3416122636108E+01  0.0000000000000E+00
 0.3304121861929E+00 -0.3342129010959E+01  0.0000000000000E+00
 0.3304438933397E+00 -0.3268134294932E+01  0.0000000000000E+00
 0.3304755994379E+00 -0.3194142025928E+01  0.0000000000000E+00
 0.3305073059761E+00 -0.3120148730060E+01  0.0000000000000E+00
 0.3305390126048E+00 -0.3046155223056E+01  0.0000000000000E+00
 0.3305707192164E+00 -0.2972161755774E+01  0.0000000000000E+00
 0.3306024257871E+00 -0.2898168384272E+01  0.0000000000000E+00
 0.3306585950016E+00 -0.2824175045263E+01  0.0000000000000E+00
 0.3308875506280E+00 -0.2750185209249E+01  0.0000000000000E+00
 0.3314503092469E+00 -0.2676215656314E+01  0.0000000000000E+00
 0.3324436146825E+00 -0.2602298176796E+01  0.0000000000000E+00
 0.3339053893309E+00 -0.2528471073879E+01  0.0000000000000E+00
 0.3358399147463E+00 -0.2454771067025E+01  0.0000000000000E+00
 0.3382384929918E+00 -0.2381231111256E+01  0.0000000000000E+00
 0.3410912866036E+00 -0.2307882322751E+01  0.0000000000000E+00
 0.3443934361388E+00 -0.2234755961370E+01  0.0000000000000E+00
 0.3481484853320E+00 -0.2161888267029E+01  0.0000000000000E+00
 0.3523712342570E+00 -0.2089324064728E+01  0.0000000000000E+00
 0.3570673809279E+00 -0.2017104886358E+01  0.0000000000000E+00
 0.3622078991912E+00 -0.1945244972146E+01  0.0000000000000E+00
 0.3677711438344E+00 -0.1873759248489E+01  0.0000000000000E+00
 0.3737467303719E+00 -0.1802669494891E+01  0.0000000000000E+00
 0.3801343189772E+00 -0.1732006445373E+01  0.0000000000000E+00
 0.3869436400121E+00 -0.1661812983195E+01  0.0000000000000E+00
 0.3941957409519E+00 -0.1592149574463E+01  0.0000000000000E+00
 0.4019261595902E+00 -0.1523100675912E+01  0.0000000000000E+00
 0.4101901276194E+00 -0.1454793750053E+01  0.0000000000000E+00
 0.4190738999739E+00 -0.1387421878824E+01  0.0000000000000E+00
 0.3575322350942E+00 -0.4230124108012E+01  0.0000000000000E+00
 0.3575644701596E+00 -0.4156203633367E+01  0.0000000000000E+00
 0.3575967052858E+00 -0.4082283019407E+01  0.0000000000000E+00
 0.3576289404400E+00 -0.4008362341192E+01  0.0000000000000E+00
 0.3576611755516E+00 -0.3934441760489E+01  0.0000000000000E+00
 0.3576934106573E+00 -0.3860521193655E+01  0.0000000000000E+00
 0.3577256457670E+00 -0.3786600617428E+01  0.0000000000000E+00
 0.3577578808816E+00 -0.3712680030048E+01  0.0000000000000E+00
 0.3577901159936E+00 -0.3638759448479E+01  0.0000000000000E+00
 0.3578223511061E+00 -0.3564838865896E+01  0.0000000000000E+00
 0.3578545862773E+00 -0.3490918148735E+01  0.0000000000000E+00
 0.3578868213477E+00 -0.3416997662714E+01  0.0000000000000E+00
 0.3579190565140E+00 -0.3343076956571E+01  0.0000000000000E+00
 0.3579512921557E+00 -0.3269155160625E+01  0.0000000000000E+00
 0.3579835267312E+00 -0.3195235809291E+01  0.0000000000000E+00
 0.3580157617542E+00 -0.3121315432104E+01  0.0000000000000E+00
 0.3580479968691E+00 -0.3047394843990E+01  0.0000000000000E+00
 0.3580802319667E+00 -0.2973474295559E+01  0.0000000000000E+00
 0.3581124670225E+00 -0.2899553842813E+01  0.0000000000000E+00
 0.3581712032753E+00 -0.2825633422575E+01  0.0000000000000E+00
 0.3584171248179E+00 -0.2751716504917E+01  0.0000000000000E+00
 0.3590246662867E+00 -0.2677819869626E+01  0.0000000000000E+00
 0.3600986334791E+00 -0.2603975307419E+01  0.0000000000000E+00
 0.3616801089837E+00 -0.2530221121722E+01  0.0000000000000E+00
 0.3637737311460E+00 -0.2456594032159E+01  0.0000000000000E+00
 0.3663700771977E+00 -0.2383126993868E+01  0.0000000000000E+00
 0.3694584898948E+00 -0.2309851122740E+01  0.0000000000000E+00
 0.3730337048331E+00 -0.2236797678909E+01  0.0000000000000E+00
 0.3770995610680E+00 -0.2164002901948E+01  0.0000000000000E+00
 0.3816720920128E+00 -0.2091511616858E+01  0.0000000000000E+00
 0.3867574705075E+00 -0.2019365355824E+01  0.0000000000000E+00
 0.3923242515520E+00 -0.1947578359104E+01  0.0000000000000E+00
 0.3983489861684E+00 -0.1876165553022E+01  0.0000000000000E+00
 0.4048204244990E+00 -0.1805148717026E+01  0.0000000000000E+00
 0.4117381983987E+00 -0.1734558585119E+01  0.0000000000000E+00
 0.4191128490940E+00 -0.1664438040521E+01  0.0000000000000E+00
 0.4269671780319E+00 -0.1594847548798E+01  0.0000000000000E+00
 0.4353396844610E+00 -0.1525871567639E+01  0.0000000000000E+00
 0.4442902027733E+00 -0.1457637557515E+01  0.0000000000000E+00
 0.4539121757881E+00 -0.1390338601268E+01  0.0000000000000E+00
 0.3850322601332E+00 -0.4230202799491E+01  0.0000000000000E+00
 0.3850645202376E+00 -0.4156361016254E+01  0.0000000000000E+00
 0.3850967804028E+00 -0.4082519093852E+01  0.0000000000000E+00
 0.3851290405960E+00 -0.4008677107263E+01  0.0000000000000E+00
 0.3851613007467E+00 -0.3934835218081E+01  0.0000000000000E+00
 0.3851935608914E+00 -0.3860993342754E+01  0.0000000000000E+00
 0.3852258210401E+00 -0.3787151458044E+01  0.0000000000000E+00
 0.3852580811937E+00 -0.3713309562193E+01  0.0000000000000E+00
 0.3852903413448E+00 -0.3639467672146E+01  0.0000000000000E+00
 0.3853226014963E+00 -0.3565625781087E+01  0.0000000000000E+00
 0.3853548617065E+00 -0.3491783755593E+01  0.0000000000000E+00
 0.3853871218159E+00 -0.3417941960993E+01  0.0000000000000E+00
 0.3854193820213E+00 -0.3344099946505E+01  0.0000000000000E+00
 0.3854516427024E+00 -0.3270256843375E+01  0.0000000000000E+00
 0.3854839023165E+00 -0.3196416182253E+01  0.0000000000000E+00
 0.3855161623784E+00 -0.3122574496372E+01  0.0000000000000E+00
 0.3855484225323E+00 -0.3048732599788E+01  0.0000000000000E+00
 0.3855806826689E+00 -0.2974890742843E+01  0.0000000000000E+00
 0.3856129427638E+00 -0.2901048981483E+01  0.0000000000000E+00
 0.3856737426085E+00 -0.2827207252647E+01  0.0000000000000E+00
 0.3859361266252E+00 -0.2753369025944E+01  0.0000000000000E+00
 0.3865879475086E+00 -0.2679551080838E+01  0.0000000000000E+00
 0.3877420730279E+00 -0.2605785208455E+01  0.0000000000000E+00
 0.3894427459622E+00 -0.2532109712488E+01  0.0000000000000E+00
 0.3916949614475E+00 -0.2458561312728E+01  0.0000000000000E+00
 0.3944885718833E+00 -0.2385172964444E+01  0.0000000000000E+00
 0.3978121002474E+00 -0.2311975783213E+01  0.0000000000000E+00
 0.4016598771719E+00 -0.2239001029465E+01  0.0000000000000E+00
 0.4060360370360E+00 -0.2166284942405E+01  0.0000000000000E+00
 0.4109578465920E+00 -0.2093872347033E+01  0.0000000000000E+00
 0.4164319535044E+00 -0.2021804775852E+01  0.0000000000000E+00
 0.4224244939258E+00 -0.1950096469153E+01  0.0000000000000E+00
 0.4289102151131E+00 -0.1878762353182E+01  0.0000000000000E+00
 0.4358770018369E+00 -0.1807824207326E+01  0.0000000000000E+00
 0.4433244576339E+00 -0.1737312765568E+01  0.0000000000000E+00
 0.4512639345954E+00 -0.1667270911087E+01  0.0000000000000E+00
 0.4597199881440E+00 -0.1597759108864E+01  0.0000000000000E+00
 0.4687340789769E+00 -0.1528861817618E+01  0.0000000000000E+00
 0.4783706442004E+00 -0.1460706495619E+01  0.0000000000000E+00
 0.4887303145127E+00 -0.1393486226685E+01  0.0000000000000E+00
 0.4125317444436E+00 -0.4230287249750E+01  0.0000000000000E+00
 0.4125634888589E+00 -0.4156529916697E+01  0.0000000000000E+00
 0.4125952333340E+00 -0.4082772444637E+01  0.0000000000000E+00
 0.4126269778367E+00 -0.4009014908464E+01  0.0000000000000E+00
 0.4126587222975E+00 -0.3935257469588E+01  0.0000000000000E+00
 0.4126904667524E+00 -0.3861500044550E+01  0.0000000000000E+00
 0.4127222112113E+00 -0.3787742610140E+01  0.0000000000000E+00
 0.4127539556750E+00 -0.3713985164601E+01  0.0000000000000E+00
 0.4127857001362E+00 -0.3640227724860E+01  0.0000000000000E+00
 0.4128174445979E+00 -0.3566470284108E+01  0.0000000000000E+00
 0.4128491891173E+00 -0.3492712709074E+01  0.0000000000000E+00
 0.4128809335375E+00 -0.3418955364671E+01  0.0000000000000E+00
 0.4129126780522E+00 -0.3345197800631E+01  0.0000000000000E+00
 0.4129444230349E+00 -0.3271439149195E+01  0.0000000000000E+00
 0.4129761669678E+00 -0.3197682936973E+01  0.0000000000000E+00
 0.4130079113412E+00 -0.3123925701164E+01  0.0000000000000E+00
 0.4130396558052E+00 -0.3050168254893E+01  0.0000000000000E+00
 0.4130714002522E+00 -0.2976410848217E+01  0.0000000000000E+00
 0.4131031446580E+00 -0.2902653537015E+01  0.0000000000000E+00
 0.4131654673669E+00 -0.2828896258356E+01  0.0000000000000E+00
 0.4134437731345E+00 -0.2755142481348E+01  0.0000000000000E+00
 0.4141393327177E+00 -0.2681408985113E+01  0.0000000000000E+00
 0.4153730758553E+00 -0.2607727561214E+01  0.0000000000000E+00
 0.4171924055158E+00 -0.2534136513627E+01  0.0000000000000E+00
 0.4196026736245E+00 -0.2460672562328E+01  0.0000000000000E+00
 0.4225930077475E+00 -0.2387368662724E+01  0.0000000000000E+00
 0.4261511110864E+00 -0.2314255930053E+01  0.0000000000000E+00
 0.4302709093080E+00 -0.2241365625067E+01  0.0000000000000E+00
 0.4349568321173E+00 -0.2168733986572E+01  0.0000000000000E+00
 0.4402273796064E+00 -0.2096405839569E+01  0.0000000000000E+00
 0.4460896742614E+00 -0.2024422716902E+01  0.0000000000000E+00
 0.4525074333876E+00 -0.1952798858897E+01  0.0000000000000E+00
 0.4594536004770E+00 -0.1881549191718E+01  0.0000000000000E+00
 0.4669151949288E+00 -0.1810695494684E+01  0.0000000000000E+00
 0.4748917919615E+00 -0.1740268501757E+01  0.0000000000000E+00
 0.4833955545316E+00 -0.1670311096074E+01  0.0000000000000E+00
 0.4924527920416E+00 -0.1600883741987E+01  0.0000000000000E+00
 0.5021079266308E+00 -0.1532070899318E+01  0.0000000000000E+00
 0.5124299981347E+00 -0.1464000023979E+01  0.0000000000000E+00
 0.5235268251251E+00 -0.1396864200833E+01  0.0000000000000E+00
 0.4400306510556E+00 -0.4230377443976E+01  0.0000000000000E+00
 0.4400613020839E+00 -0.4156710305068E+01  0.0000000000000E+00
 0.4400919531699E+00 -0.4083043027324E+01  0.0000000000000E+00
 0.4401226042826E+00 -0.4009375685544E+01  0.0000000000000E+00
 0.4401532553548E+00 -0.3935708440943E+01  0.0000000000000E+00
 0.4401839064213E+00 -0.3862041210162E+01  0.0000000000000E+00
 0.4402145574917E+00 -0.3788373970022E+01  0.0000000000000E+00
 0.4402452085667E+00 -0.3714706718766E+01  0.0000000000000E+00
 0.4402758596393E+00 -0.3641039473300E+01  0.0000000000000E+00
 0.4403065107123E+00 -0.3567372226825E+01  0.0000000000000E+00
 0.4403371618411E+00 -0.3493704846233E+01  0.0000000000000E+00
 0.4403678128741E+00 -0.3420037695989E+01  0.0000000000000E+00
 0.4403984639983E+00 -0.3346370326377E+01  0.0000000000000E+00
 0.4404291155744E+00 -0.3272701870698E+01  0.0000000000000E+00
 0.4404597661369E+00 -0.3199035851251E+01  0.0000000000000E+00
 0.4404904171248E+00 -0.3125368809468E+01  0.0000000000000E+00
 0.4405210682001E+00 -0.3051701557481E+01  0.0000000000000E+00
 0.4405517192589E+00 -0.2978034345040E+01  0.0000000000000E+00
 0.4405823702781E+00 -0.2904367227957E+01  0.0000000000000E+00
 0.4406456381536E+00 -0.2830700143436E+01  0.0000000000000E+00
 0.4409392879798E+00 -0.2757036560052E+01  0.0000000000000E+00
 0.4416780085804E+00 -0.2683393256561E+01  0.0000000000000E+00
 0.4429907916617E+00 -0.2609802024991E+01  0.0000000000000E+00
 0.4449282003801E+00 -0.2536301169624E+01  0.0000000000000E+00
 0.4474959434490E+00 -0.2462927410630E+01  0.0000000000000E+00
 0.4506824236002E+00 -0.2389713703565E+01  0.0000000000000E+00
 0.4544745242614E+00 -0.2316691163306E+01  0.0000000000000E+00
 0.4588657661314E+00 -0.2243891050946E+01  0.0000000000000E+00
 0.4638608742442E+00 -0.2171349604868E+01  0.0000000000000E+00
 0.4694795820315E+00 -0.2099111650073E+01  0.0000000000000E+00
 0.4757294867991E+00 -0.2027218719768E+01  0.0000000000000E+00
 0.4825718870042E+00 -0.1955685054318E+01  0.0000000000000E+00
 0.4899779223743E+00 -0.1884525579796E+01  0.0000000000000E+00
 0.4979337469374E+00 -0.1813762075454E+01  0.0000000000000E+00
 0.5064389075941E+00 -0.1743425275228E+01  0.0000000000000E+00
 0.5155063781664E+00 -0.1673558062210E+01  0.0000000000000E+00
 0.5251642220414E+00 -0.1604220900080E+01  0.0000000000000E+00
 0.5354598227929E+00 -0.1535498249841E+01  0.0000000000000E+00
 0.5464668230032E+00 -0.1467517564884E+01  0.0000000000000E+00
 0.5583002291111E+00 -0.1400471931189E+01  0.0000000000000E+00
 0.4675289425592E+00 -0.4230473366311E+01  0.0000000000000E+00
 0.4675578850925E+00 -0.4156902149654E+01  0.0000000000000E+00
 0.4675868276804E+00 -0.4083330794340E+01  0.0000000000000E+00
 0.4676157702935E+00 -0.4009759375075E+01  0.0000000000000E+00
 0.4676447128684E+00 -0.3936188052861E+01  0.0000000000000E+00
 0.4676736554378E+00 -0.3862616744450E+01  0.0000000000000E+00
 0.4677025980109E+00 -0.3789045426691E+01  0.0000000000000E+00
 0.4677315405884E+00 -0.3715474097832E+01  0.0000000000000E+00
 0.4677604831636E+00 -0.3641902774755E+01  0.0000000000000E+00
 0.4677894257392E+00 -0.3568331450670E+01  0.0000000000000E+00
 0.4678183683676E+00 -0.3494759992643E+01  0.0000000000000E+00
 0.4678473109054E+00 -0.3421188764663E+01  0.0000000000000E+00
 0.4678762535293E+00 -0.3347617317602E+01  0.0000000000000E+00
 0.4679051965800E+00 -0.3274044785887E+01  0.0000000000000E+00
 0.4679341386736E+00 -0.3200474687233E+01  0.0000000000000E+00
 0.4679630811688E+00 -0.3126903567574E+01  0.0000000000000E+00
 0.4679920237465E+00 -0.3053332237984E+01  0.0000000000000E+00
 0.4680209663088E+00 -0.2979760947889E+01  0.0000000000000E+00
 0.4680499088336E+00 -0.2906189753027E+01  0.0000000000000E+00
 0.4681135067670E+00 -0.2832618590747E+01  0.0000000000000E+00
 0.4684218855411E+00 -0.2759050929060E+01  0.0000000000000E+00
 0.4692031520433E+00 -0.2685503546327E+01  0.0000000000000E+00
 0.4705943599415E+00 -0.2612008235077E+01  0.0000000000000E+00
 0.4726492325763E+00 -0.2538603299912E+01  0.0000000000000E+00
 0.4753738354481E+00 -0.2465325461211E+01  0.0000000000000E+00
 0.4787558464532E+00 -0.2392207674687E+01  0.0000000000000E+00
 0.4827813292485E+00 -0.2319281054835E+01  0.0000000000000E+00
 0.4874433995627E+00 -0.2246576863109E+01  0.0000000000000E+00
 0.4927470777613E+00 -0.2174131337442E+01  0.0000000000000E+00
 0.4987133306152E+00 -0.2101989302836E+01  0.0000000000000E+00
 0.5053502302475E+00 -0.2030192292885E+01  0.0000000000000E+00
 0.5126166562676E+00 -0.1958754547993E+01  0.0000000000000E+00
 0.5204819446400E+00 -0.1887690994141E+01  0.0000000000000E+00
 0.5289313840225E+00 -0.1817023410501E+01  0.0000000000000E+00
 0.5379644929975E+00 -0.1746782530989E+01  0.0000000000000E+00
 0.5475950562530E+00 -0.1677011238647E+01  0.0000000000000E+00
 0.5578528911642E+00 -0.1607769996440E+01  0.0000000000000E+00
 0.5687883427305E+00 -0.1539143266628E+01  0.0000000000000E+00
 0.5804796562961E+00 -0.1471258499918E+01  0.0000000000000E+00
 0.5930490261565E+00 -0.1404308783480E+01  0.0000000000000E+00
 0.4950265832471E+00 -0.4230575000136E+01  0.0000000000000E+00
 0.4950531664706E+00 -0.4157105417212E+01  0.0000000000000E+00
 0.4950797497441E+00 -0.4083635695824E+01  0.0000000000000E+00
 0.4951063330407E+00 -0.4010165910572E+01  0.0000000000000E+00
 0.4951329163023E+00 -0.3936696222237E+01  0.0000000000000E+00
 0.4951594995589E+00 -0.3863226547687E+01  0.0000000000000E+00
 0.4951860828189E+00 -0.3789756863802E+01  0.0000000000000E+00
 0.4952126660828E+00 -0.3716287168831E+01  0.0000000000000E+00
 0.4952392493447E+00 -0.3642817479635E+01  0.0000000000000E+00
 0.4952658326070E+00 -0.3569347789432E+01  0.0000000000000E+00
 0.4952924159176E+00 -0.3495877965472E+01  0.0000000000000E+00
 0.4953189991451E+00 -0.3422408371242E+01  0.0000000000000E+00
 0.4953455824518E+00 -0.3348938558232E+01  0.0000000000000E+00
 0.4953721661504E+00 -0.3275467662068E+01  0.0000000000000E+00
 0.4953987489699E+00 -0.3201999195603E+01  0.0000000000000E+00
 0.4954253321582E+00 -0.3128529709543E+01  0.0000000000000E+00
 0.4954519154225E+00 -0.3055060013843E+01  0.0000000000000E+00
 0.4954784986724E+00 -0.2981590357583E+01  0.0000000000000E+00
 0.4955050818880E+00 -0.2908120796426E+01  0.0000000000000E+00
 0.4955683590647E+00 -0.2834651267871E+01  0.0000000000000E+00
 0.4958908159768E+00 -0.2761185239330E+01  0.0000000000000E+00
 0.4967139775797E+00 -0.2687739488751E+01  0.0000000000000E+00
 0.4981829594999E+00 -0.2614345809188E+01  0.0000000000000E+00
 0.5003546452605E+00 -0.2541042505588E+01  0.0000000000000E+00
 0.5032354571473E+00 -0.2467866298547E+01  0.0000000000000E+00
 0.5068123482204E+00 -0.2394850143946E+01  0.0000000000000E+00
 0.5110705623679E+00 -0.2322025155875E+01  0.0000000000000E+00
 0.5160028103462E+00 -0.2249422596171E+01  0.0000000000000E+00
 0.5216144078554E+00 -0.2177078702290E+01  0.0000000000000E+00
 0.5279275550057E+00 -0.2105038299234E+01  0.0000000000000E+00
 0.5349507987347E+00 -0.2033342921007E+01  0.0000000000000E+00
 0.5426405998039E+00 -0.1962006808056E+01  0.0000000000000E+00
 0.5509644904148E+00 -0.1891044886262E+01  0.0000000000000E+00
 0.5599068938557E+00 -0.1820478934717E+01  0.0000000000000E+00
 0.5694673003911E+00 -0.1750339687312E+01  0.0000000000000E+00
 0.5796603055753E+00 -0.1680670027035E+01  0.0000000000000E+00
 0.5905174807764E+00 -0.1611530416097E+01  0.0000000000000E+00
 0.6020921324114E+00 -0.1543005318085E+01  0.0000000000000E+00
 0.6144671086049E+00 -0.1475222180869E+01  0.0000000000000E+00
 0.6277717915016E+00 -0.1408374092875E+01  0.0000000000000E+00
 0.5225235372561E+00 -0.4230682327857E+01  0.0000000000000E+00
 0.5225470744911E+00 -0.4157320072559E+01  0.0000000000000E+00
 0.5225706117705E+00 -0.4083957678999E+01  0.0000000000000E+00
 0.5225941490704E+00 -0.4010595221668E+01  0.0000000000000E+00
 0.5226176863392E+00 -0.3937232861114E+01  0.0000000000000E+00
 0.5226412236036E+00 -0.3863870514323E+01  0.0000000000000E+00
 0.5226647608710E+00 -0.3790508158210E+01  0.0000000000000E+00
 0.5226882981420E+00 -0.3717145791029E+01  0.0000000000000E+00
 0.5227118354111E+00 -0.3643783429614E+01  0.0000000000000E+00
 0.5227353726805E+00 -0.3570421067194E+01  0.0000000000000E+00
 0.5227589099928E+00 -0.3497058571211E+01  0.0000000000000E+00
 0.5227824472315E+00 -0.3423696304623E+01  0.0000000000000E+00
 0.5228059845402E+00 -0.3350333819576E+01  0.0000000000000E+00
 0.5228295221960E+00 -0.3276970252956E+01  0.0000000000000E+00
 0.5228530590734E+00 -0.3203609112485E+01  0.0000000000000E+00
 0.5228765962774E+00 -0.3130246953910E+01  0.0000000000000E+00
 0.5229001335486E+00 -0.3056884586000E+01  0.0000000000000E+00
 0.5229236708072E+00 -0.2983522257473E+01  0.0000000000000E+00
 0.5229472080352E+00 -0.2910160023909E+01  0.0000000000000E+00
 0.5230094777771E+00 -0.2836797822971E+01  0.0000000000000E+00
 0.5233453261558E+00 -0.2763439121435E+01  0.0000000000000E+00
 0.5242096961996E+00 -0.2690100696814E+01  0.0000000000000E+00
 0.5257557654915E+00 -0.2616814342716E+01  0.0000000000000E+00
 0.5280435777358E+00 -0.2543618364450E+01  0.0000000000000E+00
 0.5310799120018E+00 -0.2470549482845E+01  0.0000000000000E+00
 0.5348509965123E+00 -0.2397640653958E+01  0.0000000000000E+00
 0.5393412553893E+00 -0.2324922991450E+01  0.0000000000000E+00
 0.5445429944141E+00 -0.2252427757564E+01  0.0000000000000E+00
 0.5504618246247E+00 -0.2180191189252E+01  0.0000000000000E+00
 0.5571211794709E+00 -0.2108258111516E+01  0.0000000000000E+00
 0.5645300807020E+00 -0.2036670058793E+01  0.0000000000000E+00
 0.5726425702308E+00 -0.1965441271575E+01  0.0000000000000E+00
 0.5814243764965E+00 -0.1894586675636E+01  0.0000000000000E+00
 0.5908590574180E+00 -0.1824128049987E+01  0.0000000000000E+00
 0.6009460749422E+00 -0.1754096128489E+01  0.0000000000000E+00
 0.6117008354898E+00 -0.1684533794076E+01  0.0000000000000E+00
 0.6231566644279E+00 -0.1615501508160E+01  0.0000000000000E+00
 0.6353698295822E+00 -0.1547083735733E+01  0.0000000000000E+00
 0.6484277818778E+00 -0.1479407921664E+01  0.0000000000000E+00
 0.6624670913015E+00 -0.1412667155710E+01  0.0000000000000E+00
 0.5500197690505E+00 -0.4230795330981E+01  0.0000000000000E+00
 0.5500395380833E+00 -0.4157546078707E+01  0.0000000000000E+00
 0.5500593071533E+00 -0.4084296688383E+01  0.0000000000000E+00
 0.5500790762406E+00 -0.4011047234387E+01  0.0000000000000E+00
 0.5500988453018E+00 -0.3937797877017E+01  0.0000000000000E+00
 0.5501186143593E+00 -0.3864548533391E+01  0.0000000000000E+00
 0.5501383834192E+00 -0.3791299180457E+01  0.0000000000000E+00
 0.5501581524822E+00 -0.3718049816471E+01  0.0000000000000E+00
 0.5501779215436E+00 -0.3644800458244E+01  0.0000000000000E+00
 0.5501976906053E+00 -0.3571551099011E+01  0.0000000000000E+00
 0.5502174597030E+00 -0.3498301606423E+01  0.0000000000000E+00
 0.5502372287388E+00 -0.3425052342876E+01  0.0000000000000E+00
 0.5502569978336E+00 -0.3351802861205E+01  0.0000000000000E+00
 0.5502767672198E+00 -0.3278552299629E+01  0.0000000000000E+00
 0.5502965359522E+00 -0.3205304160464E+01  0.0000000000000E+00
 0.5503163049589E+00 -0.3132055004764E+01  0.0000000000000E+00
 0.5503360740221E+00 -0.3058805640051E+01  0.0000000000000E+00
 0.5503558430746E+00 -0.2985556314660E+01  0.0000000000000E+00
 0.5503756121016E+00 -0.2912307084086E+01  0.0000000000000E+00
 0.5504361521952E+00 -0.2839057886161E+01  0.0000000000000E+00
 0.5507846698348E+00 -0.2765812186996E+01  0.0000000000000E+00
 0.5516895261272E+00 -0.2692586763641E+01  0.0000000000000E+00
 0.5533119606105E+00 -0.2619413410292E+01  0.0000000000000E+00
 0.5557151771680E+00 -0.2546330432637E+01  0.0000000000000E+00
 0.5589063116513E+00 -0.2473374551750E+01  0.0000000000000E+00
 0.5628708674447E+00 -0.2400578723873E+01  0.0000000000000E+00
 0.5675924489065E+00 -0.2327974062217E+01  0.0000000000000E+00
 0.5730629568402E+00 -0.2255591829452E+01  0.0000000000000E+00
 0.5792882976252E+00 -0.2183468261997E+01  0.0000000000000E+00
 0.5862931380511E+00 -0.2111648184856E+01  0.0000000000000E+00
 0.5940869746762E+00 -0.2040173132923E+01  0.0000000000000E+00
 0.6026214305636E+00 -0.1969057346735E+01  0.0000000000000E+00
 0.6118604303908E+00 -0.1898315751957E+01  0.0000000000000E+00
 0.6217866667071E+00 -0.1827970127509E+01  0.0000000000000E+00
 0.6323995731424E+00 -0.1758051207224E+01  0.0000000000000E+00
 0.6437153669844E+00 -0.1688601873979E+01  0.0000000000000E+00
 0.6557691276047E+00 -0.1619682588347E+01  0.0000000000000E+00
 0.6686200842292E+00 -0.1551377816794E+01  0.0000000000000E+00
 0.6823602906046E+00 -0.1483815001033E+01  0.0000000000000E+00
 0.6971335045526E+00 -0.1417187232221E+01  0.0000000000000E+00
 0.5775285217479E+00 -0.4230916136354E+01  0.0000000000000E+00
 0.5775570434703E+00 -0.4157787689344E+01  0.0000000000000E+00
 0.5775855652465E+00 -0.4084659104512E+01  0.0000000000000E+00
 0.5776140870475E+00 -0.4011530456114E+01  0.0000000000000E+00
 0.5776426088109E+00 -0.3938401904183E+01  0.0000000000000E+00
 0.5776711305689E+00 -0.3865273365972E+01  0.0000000000000E+00
 0.5776996523305E+00 -0.3792144818469E+01  0.0000000000000E+00
 0.5777281740965E+00 -0.3719016259932E+01  0.0000000000000E+00
 0.5777566958602E+00 -0.3645887707143E+01  0.0000000000000E+00
 0.5777852176243E+00 -0.3572759153353E+01  0.0000000000000E+00
 0.5778137394403E+00 -0.3499630466425E+01  0.0000000000000E+00
 0.5778422611671E+00 -0.3426502008162E+01  0.0000000000000E+00
 0.5778707829789E+00 -0.3353373332134E+01  0.0000000000000E+00
 0.5778993052112E+00 -0.3280243577982E+01  0.0000000000000E+00
 0.5779278265002E+00 -0.3207116242246E+01  0.0000000000000E+00
 0.5779563481850E+00 -0.3133987891651E+01  0.0000000000000E+00
 0.5779848699513E+00 -0.3060859332388E+01  0.0000000000000E+00
 0.5780133917022E+00 -0.2987730812382E+01  0.0000000000000E+00
 0.5780419134162E+00 -0.2914602387037E+01  0.0000000000000E+00
 0.5781132651049E+00 -0.2841473994368E+01  0.0000000000000E+00
 0.5784871369324E+00 -0.2768349099769E+01  0.0000000000000E+00
 0.5794454419965E+00 -0.2695244479801E+01  0.0000000000000E+00
 0.5811575623438E+00 -0.2622191929285E+01  0.0000000000000E+00
 0.5836898936295E+00 -0.2549229754315E+01  0.0000000000000E+00
 0.5870499320770E+00 -0.2476394676228E+01  0.0000000000000E+00
 0.5912224490155E+00 -0.2403719651464E+01  0.0000000000000E+00
 0.5961902208056E+00 -0.2331235792752E+01  0.0000000000000E+00
 0.6019447392772E+00 -0.2258974363216E+01  0.0000000000000E+00
 0.6084922090405E+00 -0.2186971598711E+01  0.0000000000000E+00
 0.6158585425385E+00 -0.2115272324239E+01  0.0000000000000E+00
 0.6240537159295E+00 -0.2043918075183E+01  0.0000000000000E+00
 0.6330269092831E+00 -0.1972923092128E+01  0.0000000000000E+00
 0.6427402254938E+00 -0.1902302300624E+01  0.0000000000000E+00
 0.6531754830925E+00 -0.1832077479492E+01  0.0000000000000E+00
 0.6643320871059E+00 -0.1762279362538E+01  0.0000000000000E+00
 0.6762270737778E+00 -0.1692950832575E+01  0.0000000000000E+00
 0.6888972939023E+00 -0.1624152349277E+01  0.0000000000000E+00
 0.7024049678359E+00 -0.1555968380692E+01  0.0000000000000E+00
 0.7168467977495E+00 -0.1488526365155E+01  0.0000000000000E+00
 0.7323738012168E+00 -0.1422019395320E+01  0.0000000000000E+00
 0.6050364530268E+00 -0.4231042777871E+01  0.0000000000000E+00
 0.6050729060210E+00 -0.4158040972265E+01  0.0000000000000E+00
 0.6051093590840E+00 -0.4085039029076E+01  0.0000000000000E+00
 0.6051458121786E+00 -0.4012037022431E+01  0.0000000000000E+00
 0.6051822652252E+00 -0.3939035112085E+01  0.0000000000000E+00
 0.6052187182649E+00 -0.3866033215436E+01  0.0000000000000E+00
 0.6052551713092E+00 -0.3793031309511E+01  0.0000000000000E+00
 0.6052916243591E+00 -0.3720029392571E+01  0.0000000000000E+00
 0.6053280774061E+00 -0.3647027481370E+01  0.0000000000000E+00
 0.6053645304536E+00 -0.3574025569168E+01  0.0000000000000E+00
 0.6054009835674E+00 -0.3501023524060E+01  0.0000000000000E+00
 0.6054374365673E+00 -0.3428021707220E+01  0.0000000000000E+00
 0.6054738896757E+00 -0.3355019672994E+01  0.0000000000000E+00
 0.6055103433215E+00 -0.3282016562509E+01  0.0000000000000E+00
 0.6055467957618E+00 -0.3209015866253E+01  0.0000000000000E+00
 0.6055832487080E+00 -0.3136014156895E+01  0.0000000000000E+00
 0.6056197017582E+00 -0.3063012239231E+01  0.0000000000000E+00
 0.6056561547889E+00 -0.2990010360755E+01  0.0000000000000E+00
 0.6056926077723E+00 -0.2917008576777E+01  0.0000000000000E+00
 0.6057739496384E+00 -0.2844006825500E+01  0.0000000000000E+00
 0.6061723542407E+00 -0.2771008571574E+01  0.0000000000000E+00
 0.6071832866711E+00 -0.2698030591041E+01  0.0000000000000E+00
 0.6089842714805E+00 -0.2625104679380E+01  0.0000000000000E+00
 0.6116448960934E+00 -0.2552269143111E+01  0.0000000000000E+00
 0.6151730171029E+00 -0.2479560703844E+01  0.0000000000000E+00
 0.6195526737819E+00 -0.2407012318228E+01  0.0000000000000E+00
 0.6247658144968E+00 -0.2334655098486E+01  0.0000000000000E+00
 0.6308035221003E+00 -0.2262520308222E+01  0.0000000000000E+00
 0.6376722994378E+00 -0.2190644182693E+01  0.0000000000000E+00
 0.6453993046053E+00 -0.2119071546904E+01  0.0000000000000E+00
 0.6539949933580E+00 -0.2047843936749E+01  0.0000000000000E+00
 0.6634061027715E+00 -0.1976975592865E+01  0.0000000000000E+00
 0.6735929139584E+00 -0.1906481440676E+01  0.0000000000000E+00
 0.6845363714316E+00 -0.1836383258907E+01  0.0000000000000E+00
 0.6962358516148E+00 -0.1766711781329E+01  0.0000000000000E+00
 0.7087092097083E+00 -0.1697509890691E+01  0.0000000000000E+00
 0.7219950679352E+00 -0.1628838045726E+01  0.0000000000000E+00
 0.7361586377713E+00 -0.1560780716136E+01  0.0000000000000E+00
 0.7513012698347E+00 -0.1493465336719E+01  0.0000000000000E+00
 0.7675812414413E+00 -0.1427085001696E+01  0.0000000000000E+00
 0.6325435266867E+00 -0.4231175233271E+01  0.0000000000000E+00
 0.6325870533346E+00 -0.4158305882947E+01  0.0000000000000E+00
 0.6326305800645E+00 -0.4085436395290E+01  0.0000000000000E+00
 0.6326741068323E+00 -0.4012566844291E+01  0.0000000000000E+00
 0.6327176335426E+00 -0.3939697389418E+01  0.0000000000000E+00
 0.6327611602448E+00 -0.3866827948216E+01  0.0000000000000E+00
 0.6328046869525E+00 -0.3793958497755E+01  0.0000000000000E+00
 0.6328482136668E+00 -0.3721089036299E+01  0.0000000000000E+00
 0.6328917403776E+00 -0.3648219580572E+01  0.0000000000000E+00
 0.6329352670890E+00 -0.3575350123845E+01  0.0000000000000E+00
 0.6329787938797E+00 -0.3502480534454E+01  0.0000000000000E+00
 0.6330223205343E+00 -0.3429611172916E+01  0.0000000000000E+00
 0.6330658473185E+00 -0.3356741594387E+01  0.0000000000000E+00
 0.6331093747444E+00 -0.3283870941551E+01  0.0000000000000E+00
 0.6331529007309E+00 -0.3211002698565E+01  0.0000000000000E+00
 0.6331964273214E+00 -0.3138133444314E+01  0.0000000000000E+00
 0.6332399540361E+00 -0.3065263982135E+01  0.0000000000000E+00
 0.6332834807274E+00 -0.2992394559074E+01  0.0000000000000E+00
 0.6333270073624E+00 -0.2919525230338E+01  0.0000000000000E+00
 0.6334174817877E+00 -0.2846655934332E+01  0.0000000000000E+00
 0.6338395615515E+00 -0.2773790134923E+01  0.0000000000000E+00
 0.6349022637435E+00 -0.2700944607613E+01  0.0000000000000E+00
 0.6367912554143E+00 -0.2628151148567E+01  0.0000000000000E+00
 0.6395793157545E+00 -0.2555448064753E+01  0.0000000000000E+00
 0.6432746617255E+00 -0.2482872078066E+01  0.0000000000000E+00
 0.6478606005424E+00 -0.2410456145372E+01  0.0000000000000E+00
 0.6533182525806E+00 -0.2338231378367E+01  0.0000000000000E+00
 0.6596382917126E+00 -0.2266229041154E+01  0.0000000000000E+00
 0.6668275190228E+00 -0.2194485368369E+01  0.0000000000000E+00
 0.6749143382604E+00 -0.2123045185016E+01  0.0000000000000E+00
 0.6839096847739E+00 -0.2051950027523E+01  0.0000000000000E+00
 0.6937578526447E+00 -0.1981214136585E+01  0.0000000000000E+00
 0.7044173012042E+00 -0.1910852437495E+01  0.0000000000000E+00
 0.7158681009481E+00 -0.1840886708872E+01  0.0000000000000E+00
 0.7281095996972E+00 -0.1771347684455E+01  0.0000000000000E+00
 0.7411604716089E+00 -0.1702278246925E+01  0.0000000000000E+00
 0.7550611103412E+00 -0.1633738854029E+01  0.0000000000000E+00
 0.7698797184786E+00 -0.1565813977203E+01  0.0000000000000E+00
 0.7857222951103E+00 -0.1498631047541E+01  0.0000000000000E+00
 0.8027543772834E+00 -0.1432383160906E+01  0.0000000000000E+00
 0.6600497070085E+00 -0.4231313479408E+01  0.0000000000000E+00
 0.6600994139727E+00 -0.4158582375098E+01  0.0000000000000E+00
 0.6601491210305E+00 -0.4085851133716E+01  0.0000000000000E+00
 0.6601988281316E+00 -0.4013119829111E+01  0.0000000000000E+00
 0.6602485351671E+00 -0.3940388620450E+01  0.0000000000000E+00
 0.6602982421932E+00 -0.3867657425435E+01  0.0000000000000E+00
 0.6603479492257E+00 -0.3794926221178E+01  0.0000000000000E+00
 0.6603976562657E+00 -0.3722195005947E+01  0.0000000000000E+00
 0.6604473633017E+00 -0.3649463796433E+01  0.0000000000000E+00
 0.6604970703385E+00 -0.3576732585922E+01  0.0000000000000E+00
 0.6605467774657E+00 -0.3504001242998E+01  0.0000000000000E+00
 0.6605964844376E+00 -0.3431270127496E+01  0.0000000000000E+00
 0.6606461915574E+00 -0.3358538795412E+01  0.0000000000000E+00
 0.6606958994101E+00 -0.3285806391062E+01  0.0000000000000E+00
 0.6607456056189E+00 -0.3213076391989E+01  0.0000000000000E+00
 0.6607953125175E+00 -0.3140345383569E+01  0.0000000000000E+00
 0.6608450195580E+00 -0.3067614167617E+01  0.0000000000000E+00
 0.6608947265717E+00 -0.2994882990707E+01  0.0000000000000E+00
 0.6609444335212E+00 -0.2922151907945E+01  0.0000000000000E+00
 0.6610431471685E+00 -0.2849420857941E+01  0.0000000000000E+00
 0.6614880087619E+00 -0.2776693303747E+01  0.0000000000000E+00
 0.6626015873924E+00 -0.2703986020302E+01  0.0000000000000E+00
 0.6645776926062E+00 -0.2631330804486E+01  0.0000000000000E+00
 0.6674922953571E+00 -0.2558765963735E+01  0.0000000000000E+00
 0.6713539729724E+00 -0.2486328220241E+01  0.0000000000000E+00
 0.6761453006083E+00 -0.2414050531099E+01  0.0000000000000E+00
 0.6818465706525E+00 -0.2341964007451E+01  0.0000000000000E+00
 0.6884480479942E+00 -0.2270099913923E+01  0.0000000000000E+00
 0.6959568319607E+00 -0.2198494484502E+01  0.0000000000000E+00
 0.7044025719548E+00 -0.2127192544193E+01  0.0000000000000E+00
 0.7137966829144E+00 -0.2056235629981E+01  0.0000000000000E+00
 0.7240810159262E+00 -0.1985637982619E+01  0.0000000000000E+00
 0.7352122085415E+00 -0.1915414527263E+01  0.0000000000000E+00
 0.7471694572393E+00 -0.1845587042425E+01  0.0000000000000E+00
 0.7599520812379E+00 -0.1776186261808E+01  0.0000000000000E+00
 0.7735795736522E+00 -0.1707255068023E+01  0.0000000000000E+00
 0.7880940995820E+00 -0.1638853917788E+01  0.0000000000000E+00
 0.8035668527085E+00 -0.1571067284346E+01  0.0000000000000E+00
 0.8201084806169E+00 -0.1504022594929E+01  0.0000000000000E+00
 0.8378917800749E+00 -0.1437912947113E+01  0.0000000000000E+00
 0.6875549587707E+00 -0.4231457492273E+01  0.0000000000000E+00
 0.6876099174925E+00 -0.4158870400699E+01  0.0000000000000E+00
 0.6876648763177E+00 -0.4086283172324E+01  0.0000000000000E+00
 0.6877198351908E+00 -0.4013695880853E+01  0.0000000000000E+00
 0.6877747939914E+00 -0.3941108685135E+01  0.0000000000000E+00
 0.6878297527816E+00 -0.3868521503035E+01  0.0000000000000E+00
 0.6878847115788E+00 -0.3795934311712E+01  0.0000000000000E+00
 0.6879396703844E+00 -0.3723347109437E+01  0.0000000000000E+00
 0.6879946291856E+00 -0.3650759912868E+01  0.0000000000000E+00
 0.6880495879875E+00 -0.3578172715304E+01  0.0000000000000E+00
 0.6881045468895E+00 -0.3505585385588E+01  0.0000000000000E+00
 0.6881595056197E+00 -0.3432998282844E+01  0.0000000000000E+00
 0.6882144645135E+00 -0.3360410963949E+01  0.0000000000000E+00
 0.6882694242176E+00 -0.3287822574909E+01  0.0000000000000E+00
 0.6883243821042E+00 -0.3215236586383E+01  0.0000000000000E+00
 0.6883793407534E+00 -0.3142649590510E+01  0.0000000000000E+00
 0.6884342995595E+00 -0.3070062387515E+01  0.0000000000000E+00
 0.6884892583360E+00 -0.2997475223486E+01  0.0000000000000E+00
 0.6885442170415E+00 -0.2924888153416E+01  0.0000000000000E+00
 0.6886502413522E+00 -0.2852301116137E+01  0.0000000000000E+00
 0.6891169562223E+00 -0.2779717573847E+01  0.0000000000000E+00
 0.6902804827484E+00 -0.2707154300899E+01  0.0000000000000E+00
 0.6923427729674E+00 -0.2634643094921E+01  0.0000000000000E+00
 0.6953829895934E+00 -0.2562222263831E+01  0.0000000000000E+00
 0.6994100703178E+00 -0.2489928530135E+01  0.0000000000000E+00
 0.7044058582361E+00 -0.2417794851164E+01  0.0000000000000E+00
 0.7103498177522E+00 -0.2345852337485E+01  0.0000000000000E+00
 0.7172318047682E+00 -0.2274132254268E+01  0.0000000000000E+00
 0.7250592168591E+00 -0.2202670834823E+01  0.0000000000000E+00
 0.7338629490808E+00 -0.2131512904156E+01  0.0000000000000E+00
 0.7436548959572E+00 -0.2060699999834E+01  0.0000000000000E+00
 0.7543744655799E+00 -0.1990246362667E+01  0.0000000000000E+00
 0.7659764737208E+00 -0.1920166917674E+01  0.0000000000000E+00
 0.7784392428430E+00 -0.1850483443250E+01  0.0000000000000E+00
 0.7917620635625E+00 -0.1781226673063E+01  0.0000000000000E+00
 0.8059652479520E+00 -0.1712439489651E+01  0.0000000000000E+00
 0.8210927325603E+00 -0.1644182348659E+01  0.0000000000000E+00
 0.8372187021531E+00 -0.1576539725215E+01  0.0000000000000E+00
 0.8544584528381E+00 -0.1509639042525E+01  0.0000000000000E+00
 0.8729920410917E+00 -0.1443673399950E+01  0.0000000000000E+00
 0.7150592472657E+00 -0.4231607247015E+01  0.0000000000000E+00
 0.7151184944785E+00 -0.4159169910049E+01  0.0000000000000E+00
 0.7151777418030E+00 -0.4086732436564E+01  0.0000000000000E+00
 0.7152369891790E+00 -0.4014294900114E+01  0.0000000000000E+00
 0.7152962364768E+00 -0.3941857459218E+01  0.0000000000000E+00
 0.7153554837636E+00 -0.3869420031913E+01  0.0000000000000E+00
 0.7154147310578E+00 -0.3796982595404E+01  0.0000000000000E+00
 0.7154739783610E+00 -0.3724545147966E+01  0.0000000000000E+00
 0.7155332256595E+00 -0.3652107706221E+01  0.0000000000000E+00
 0.7155924729589E+00 -0.3579670263484E+01  0.0000000000000E+00
 0.7156517203661E+00 -0.3507232688868E+01  0.0000000000000E+00
 0.7157109675880E+00 -0.3434795340755E+01  0.0000000000000E+00
 0.7157702149864E+00 -0.3362357776937E+01  0.0000000000000E+00
 0.7158294632583E+00 -0.3289919145182E+01  0.0000000000000E+00
 0.7158887095708E+00 -0.3217482908988E+01  0.0000000000000E+00
 0.7159479567055E+00 -0.3145045667526E+01  0.0000000000000E+00
 0.7160072040093E+00 -0.3072608219369E+01  0.0000000000000E+00
 0.7160664512812E+00 -0.3000170810097E+01  0.0000000000000E+00
 0.7161256984765E+00 -0.2927733494591E+01  0.0000000000000E+00
 0.7162380701844E+00 -0.2855296211907E+01  0.0000000000000E+00
 0.7167256750711E+00 -0.2782862423360E+01  0.0000000000000E+00
 0.7179381862435E+00 -0.2710448902693E+01  0.0000000000000E+00
 0.7200856982247E+00 -0.2638087448308E+01  0.0000000000000E+00
 0.7232505654860E+00 -0.2565816368629E+01  0.0000000000000E+00
 0.7274420860806E+00 -0.2493672386486E+01  0.0000000000000E+00
 0.7326413710420E+00 -0.2421688459455E+01  0.0000000000000E+00
 0.7388270567937E+00 -0.2349895697507E+01  0.0000000000000E+00
 0.7459885902476E+00 -0.2278325366376E+01  0.0000000000000E+00
 0.7541336672304E+00 -0.2207013698669E+01  0.0000000000000E+00
 0.7632944284514E+00 -0.2136005519392E+01  0.0000000000000E+00
 0.7734832480167E+00 -0.2065342366718E+01  0.0000000000000E+00
 0.7846370910221E+00 -0.1995038481518E+01  0.0000000000000E+00
 0.7967089514612E+00 -0.1925108788663E+01  0.0000000000000E+00
 0.8096762777816E+00 -0.1855575066432E+01  0.0000000000000E+00
 0.8235383319973E+00 -0.1786468048456E+01  0.0000000000000E+00
 0.8383162451398E+00 -0.1717830617193E+01  0.0000000000000E+00
 0.8540557252136E+00 -0.1649723227177E+01  0.0000000000000E+00
 0.8708339480567E+00 -0.1582230355494E+01  0.0000000000000E+00
 0.8887708583262E+00 -0.1515479421163E+01  0.0000000000000E+00
 0.9080537721960E+00 -0.1449663525402E+01  0.0000000000000E+00
 0.7425625383146E+00 -0.4231762717964E+01  0.0000000000000E+00
 0.7426250765734E+00 -0.4159480851809E+01  0.0000000000000E+00
 0.7426876149500E+00 -0.4087198849429E+01  0.0000000000000E+00
 0.7427501533810E+00 -0.4014916784217E+01  0.0000000000000E+00
 0.7428126917296E+00 -0.3942634814355E+01  0.0000000000000E+00
 0.7428752300663E+00 -0.3870352858055E+01  0.0000000000000E+00
 0.7429377684111E+00 -0.3798070892571E+01  0.0000000000000E+00
 0.7430003067652E+00 -0.3725788916180E+01  0.0000000000000E+00
 0.7430628451145E+00 -0.3653506945471E+01  0.0000000000000E+00
 0.7431253834646E+00 -0.3581224973772E+01  0.0000000000000E+00
 0.7431879219286E+00 -0.3508942870477E+01  0.0000000000000E+00
 0.7432504601970E+00 -0.3436660993198E+01  0.0000000000000E+00
 0.7433129986516E+00 -0.3364378900677E+01  0.0000000000000E+00
 0.7433755380283E+00 -0.3292095742512E+01  0.0000000000000E+00
 0.7434380753367E+00 -0.3219814974767E+01  0.0000000000000E+00
 0.7435006135130E+00 -0.3147533203911E+01  0.0000000000000E+00
 0.7435631518678E+00 -0.3075251226803E+01  0.0000000000000E+00
 0.7436256901890E+00 -0.3002969288497E+01  0.0000000000000E+00
 0.7436882284293E+00 -0.2930687443756E+01  0.0000000000000E+00
 0.7438059500894E+00 -0.2858405631870E+01  0.0000000000000E+00
 0.7443134475546E+00 -0.2786127313235E+01  0.0000000000000E+00
 0.7455739459472E+00 -0.2713869260962E+01  0.0000000000000E+00
 0.7478056822717E+00 -0.2641663274258E+01  0.0000000000000E+00
 0.7510942027536E+00 -0.2569547662071E+01  0.0000000000000E+00
 0.7554491658059E+00 -0.2497559147567E+01  0.0000000000000E+00
 0.7608509503981E+00 -0.2425730688578E+01  0.0000000000000E+00
 0.7672773649777E+00 -0.2354093394452E+01  0.0000000000000E+00
 0.7747174474621E+00 -0.2282678531514E+01  0.0000000000000E+00
 0.7831791919347E+00 -0.2211522331637E+01  0.0000000000000E+00
 0.7926959847584E+00 -0.2140669619831E+01  0.0000000000000E+00
 0.8032806796171E+00 -0.2070161934894E+01  0.0000000000000E+00
 0.8148677986107E+00 -0.2000013517763E+01  0.0000000000000E+00
 0.8274085139547E+00 -0.1930239293156E+01  0.0000000000000E+00
 0.8408794000826E+00 -0.1860861039229E+01  0.0000000000000E+00
 0.8552796904064E+00 -0.1791909489574E+01  0.0000000000000E+00
 0.8706313349167E+00 -0.1723427526570E+01  0.0000000000000E+00
 0.8869818130815E+00 -0.1655475603594E+01  0.0000000000000E+00
 0.9044112917983E+00 -0.1588138199765E+01  0.0000000000000E+00
 0.9230443643019E+00 -0.1521542729758E+01  0.0000000000000E+00
 0.9430756064517E+00 -0.1455882296715E+01  0.0000000000000E+00
 0.7700647982821E+00 -0.4231923878657E+01  0.0000000000000E+00
 0.7701295965064E+00 -0.4159803173051E+01  0.0000000000000E+00
 0.7701943948528E+00 -0.4087682331523E+01  0.0000000000000E+00
 0.7702591932555E+00 -0.4015561427305E+01  0.0000000000000E+00
 0.7703239915728E+00 -0.3943440618223E+01  0.0000000000000E+00
 0.7703887898779E+00 -0.3871319822673E+01  0.0000000000000E+00
 0.7704535881912E+00 -0.3799199017960E+01  0.0000000000000E+00
 0.7705183865143E+00 -0.3727078202364E+01  0.0000000000000E+00
 0.7705831848324E+00 -0.3654957392437E+01  0.0000000000000E+00
 0.7706479831513E+00 -0.3582836581522E+01  0.0000000000000E+00
 0.7707127815881E+00 -0.3510715639305E+01  0.0000000000000E+00
 0.7707775798224E+00 -0.3438594922601E+01  0.0000000000000E+00
 0.7708423782496E+00 -0.3366473991133E+01  0.0000000000000E+00
 0.7709071776321E+00 -0.3294351996398E+01  0.0000000000000E+00
 0.7709719748717E+00 -0.3222232386753E+01  0.0000000000000E+00
 0.7710367730106E+00 -0.3150111776233E+01  0.0000000000000E+00
 0.7711015713344E+00 -0.3077990959922E+01  0.0000000000000E+00
 0.7711663696233E+00 -0.3005870182326E+01  0.0000000000000E+00
 0.7712311678284E+00 -0.2933749498087E+01  0.0000000000000E+00
 0.7713532083606E+00 -0.2861628846736E+01  0.0000000000000E+00
 0.7718795673317E+00 -0.2789511687719E+01  0.0000000000000E+00
 0.7731870218849E+00 -0.2717414793489E+01  0.0000000000000E+00
 0.7755019515019E+00 -0.2645369964090E+01  0.0000000000000E+00
 0.7789130941592E+00 -0.2573415509012E+01  0.0000000000000E+00
 0.7834304686275E+00 -0.2501588151769E+01  0.0000000000000E+00
 0.7890337218105E+00 -0.2429920850458E+01  0.0000000000000E+00
 0.7956998341836E+00 -0.2358444713785E+01  0.0000000000000E+00
 0.8034174346658E+00 -0.2287191008681E+01  0.0000000000000E+00
 0.8121948156023E+00 -0.2216195966265E+01  0.0000000000000E+00
 0.8220666090092E+00 -0.2145504411545E+01  0.0000000000000E+00
 0.8330461481448E+00 -0.2075157883972E+01  0.0000000000000E+00
 0.8450655121117E+00 -0.2005170624547E+01  0.0000000000000E+00
 0.8580740513487E+00 -0.1935557557832E+01  0.0000000000000E+00
 0.8720474662756E+00 -0.1866340461856E+01  0.0000000000000E+00
 0.8869849617026E+00 -0.1797550070169E+01  0.0000000000000E+00
 0.9029093065802E+00 -0.1729229265069E+01  0.0000000000000E+00
 0.9198697518478E+00 -0.1661438498734E+01  0.0000000000000E+00
 0.9379494554491E+00 -0.1594262252389E+01  0.0000000000000E+00
 0.9572776592258E+00 -0.1527827936206E+01  0.0000000000000E+00
 0.9780561987112E+00 -0.1462328655324E+01  0.0000000000000E+00
 0.7975659940902E+00 -0.4232090701858E+01  0.0000000000000E+00
 0.7976319881214E+00 -0.4160136819303E+01  0.0000000000000E+00
 0.7976979822771E+00 -0.4088182801141E+01  0.0000000000000E+00
 0.7977639764901E+00 -0.4016228720433E+01  0.0000000000000E+00
 0.7978299706160E+00 -0.3944274734643E+01  0.0000000000000E+00
 0.7978959647296E+00 -0.3872320762352E+01  0.0000000000000E+00
 0.7979619588516E+00 -0.3800366780919E+01  0.0000000000000E+00
 0.7980279529835E+00 -0.3728412788629E+01  0.0000000000000E+00
 0.7980939471102E+00 -0.3656458801995E+01  0.0000000000000E+00
 0.7981599412379E+00 -0.3584504814375E+01  0.0000000000000E+00
 0.7982259354857E+00 -0.3512550695757E+01  0.0000000000000E+00
 0.7982919295271E+00 -0.3440596802130E+01  0.0000000000000E+00
 0.7983579237650E+00 -0.3368642694236E+01  0.0000000000000E+00
 0.7984239189759E+00 -0.3296687525534E+01  0.0000000000000E+00
 0.7984899120043E+00 -0.3224734736406E+01  0.0000000000000E+00
 0.7985559059486E+00 -0.3152780948717E+01  0.0000000000000E+00
 0.7986219000812E+00 -0.3080826955713E+01  0.0000000000000E+00
 0.7986878941783E+00 -0.3008873001336E+01  0.0000000000000E+00
 0.7987538881900E+00 -0.2936919140098E+01  0.0000000000000E+00
 0.7988791834362E+00 -0.2864965311785E+01  0.0000000000000E+00
 0.7994233397633E+00 -0.2793014974856E+01  0.0000000000000E+00
 0.8007766863419E+00 -0.2721084901084E+01  0.0000000000000E+00
 0.8031737451268E+00 -0.2649206891378E+01  0.0000000000000E+00
 0.8067064458421E+00 -0.2577419255790E+01  0.0000000000000E+00
 0.8113851676139E+00 -0.2505758718195E+01  0.0000000000000E+00
 0.8171888252784E+00 -0.2434258236964E+01  0.0000000000000E+00
 0.8240935713432E+00 -0.2362948920137E+01  0.0000000000000E+00
 0.8320876257245E+00 -0.2291862035274E+01  0.0000000000000E+00
 0.8411795790344E+00 -0.2221033812712E+01  0.0000000000000E+00
 0.8514053089427E+00 -0.2150509077459E+01  0.0000000000000E+00
 0.8627786282774E+00 -0.2080329369639E+01  0.0000000000000E+00
 0.8752291731434E+00 -0.2010508930323E+01  0.0000000000000E+00
 0.8887044722034E+00 -0.1941062683910E+01  0.0000000000000E+00
 0.9031793518640E+00 -0.1872012408295E+01  0.0000000000000E+00
 0.9186529883343E+00 -0.1803388836989E+01  0.0000000000000E+00
 0.9351489695250E+00 -0.1735234852202E+01  0.0000000000000E+00
 0.9527183178552E+00 -0.1667610904871E+01  0.0000000000000E+00
 0.9714471823014E+00 -0.1600601478405E+01  0.0000000000000E+00
 0.9914694533427E+00 -0.1534333978313E+01  0.0000000000000E+00
 0.1012994226174E+01 -0.1469001511800E+01  0.0000000000000E+00
 0.8250660921971E+00 -0.4232263159342E+01  0.0000000000000E+00
 0.8251321843352E+00 -0.4160481734118E+01  0.0000000000000E+00
 0.8251982765979E+00 -0.4088700173612E+01  0.0000000000000E+00
 0.8252643689180E+00 -0.4016918550710E+01  0.0000000000000E+00
 0.8253304611510E+00 -0.3945137022497E+01  0.0000000000000E+00
 0.8253965533715E+00 -0.3873355507753E+01  0.0000000000000E+00
 0.8254626456005E+00 -0.3801573983887E+01  0.0000000000000E+00
 0.8255287378394E+00 -0.3729792449191E+01  0.0000000000000E+00
 0.8255948300731E+00 -0.3658010920137E+01  0.0000000000000E+00
 0.8256609223078E+00 -0.3586229390100E+01  0.0000000000000E+00
 0.8257270146627E+00 -0.3514447729378E+01  0.0000000000000E+00
 0.8257931068110E+00 -0.3442666293108E+01  0.0000000000000E+00
 0.8258591991561E+00 -0.3370884643085E+01  0.0000000000000E+00
 0.8259252924756E+00 -0.3299101934797E+01  0.0000000000000E+00
 0.8259913836094E+00 -0.3227321600378E+01  0.0000000000000E+00
 0.8260574756604E+00 -0.3155540269793E+01  0.0000000000000E+00
 0.8261235679000E+00 -0.3083758734385E+01  0.0000000000000E+00
 0.8261896601041E+00 -0.3011977237510E+01  0.0000000000000E+00
 0.8262557522226E+00 -0.2940195833552E+01  0.0000000000000E+00
 0.8263832044815E+00 -0.2868414462554E+01  0.0000000000000E+00
 0.8269440604613E+00 -0.2796636581959E+01  0.0000000000000E+00
 0.8283422013566E+00 -0.2724878962837E+01  0.0000000000000E+00
 0.8308202915846E+00 -0.2653173406991E+01  0.0000000000000E+00
 0.8344734526118E+00 -0.2581558225052E+01  0.0000000000000E+00
 0.8393124239173E+00 -0.2510070141269E+01  0.0000000000000E+00
 0.8453153882681E+00 -0.2438742114296E+01  0.0000000000000E+00
 0.8524576702087E+00 -0.2367605251486E+01  0.0000000000000E+00
 0.8607270806491E+00 -0.2296690821050E+01  0.0000000000000E+00
 0.8701325084729E+00 -0.2226035052513E+01  0.0000000000000E+00
 0.8807110770029E+00 -0.2155682770885E+01  0.0000000000000E+00
 0.8924770786323E+00 -0.2085675516987E+01  0.0000000000000E+00
 0.9053577064690E+00 -0.2016027531960E+01  0.0000000000000E+00
 0.9192986674019E+00 -0.1946753740033E+01  0.0000000000000E+00
 0.9342739138258E+00 -0.1877875918969E+01  0.0000000000000E+00
 0.9502825933488E+00 -0.1809424802232E+01  0.0000000000000E+00
 0.9673491128421E+00 -0.1741443271944E+01  0.0000000000000E+00
 0.9855262662115E+00 -0.1673991777762E+01  0.0000000000000E+00
 0.1004903193450E+01 -0.1607154805347E+01  0.0000000000000E+00
 0.1025618433703E+01 -0.1541059755389E+01  0.0000000000000E+00
 0.1047888341808E+01 -0.1475899737231E+01  0.0000000000000E+00
 0.8525650614762E+00 -0.4232441222572E+01  0.0000000000000E+00
 0.8526301228944E+00 -0.4160837860419E+01  0.0000000000000E+00
 0.8526951844352E+00 -0.4089234363318E+01  0.0000000000000E+00
 0.8527602460326E+00 -0.4017630803977E+01  0.0000000000000E+00
 0.8528253075442E+00 -0.3946027339091E+01  0.0000000000000E+00
 0.8528903690435E+00 -0.3874423887639E+01  0.0000000000000E+00
 0.8529554305511E+00 -0.3802820427089E+01  0.0000000000000E+00
 0.8530204920685E+00 -0.3731216955735E+01  0.0000000000000E+00
 0.8530855535808E+00 -0.3659613490009E+01  0.0000000000000E+00
 0.8531506150940E+00 -0.3588010023303E+01  0.0000000000000E+00
 0.8532156767257E+00 -0.3516406426235E+01  0.0000000000000E+00
 0.8532807381539E+00 -0.3444803053064E+01  0.0000000000000E+00
 0.8533457997758E+00 -0.3373199466669E+01  0.0000000000000E+00
 0.8534108623570E+00 -0.3301594824634E+01  0.0000000000000E+00
 0.8534759227865E+00 -0.3229992550580E+01  0.0000000000000E+00
 0.8535409841189E+00 -0.3158389282831E+01  0.0000000000000E+00
 0.8536060456369E+00 -0.3086785810767E+01  0.0000000000000E+00
 0.8536711071201E+00 -0.3015182377140E+01  0.0000000000000E+00
 0.8537361685190E+00 -0.2943579036201E+01  0.0000000000000E+00
 0.8538646489641E+00 -0.2871975728258E+01  0.0000000000000E+00
 0.8544410757777E+00 -0.2800375909705E+01  0.0000000000000E+00
 0.8558828821841E+00 -0.2728796350886E+01  0.0000000000000E+00
 0.8584408750580E+00 -0.2657268854525E+01  0.0000000000000E+00
 0.8622133676045E+00 -0.2585831731856E+01  0.0000000000000E+00
 0.8672114596532E+00 -0.2514521707511E+01  0.0000000000000E+00
 0.8734126019002E+00 -0.2443371740437E+01  0.0000000000000E+00
 0.8807912909314E+00 -0.2372412937276E+01  0.0000000000000E+00
 0.8893349286460E+00 -0.2301676566911E+01  0.0000000000000E+00
 0.8990527022045E+00 -0.2231198858032E+01  0.0000000000000E+00
 0.9099829805832E+00 -0.2161024635649E+01  0.0000000000000E+00
 0.9221405357354E+00 -0.2091195441301E+01  0.0000000000000E+00
 0.9354501177719E+00 -0.2021725516204E+01  0.0000000000000E+00
 0.9498556118082E+00 -0.1952629784413E+01  0.0000000000000E+00
 0.9653300962285E+00 -0.1883930023548E+01  0.0000000000000E+00
 0.9818726900401E+00 -0.1815656967030E+01  0.0000000000000E+00
 0.9995086190752E+00 -0.1747853496891E+01  0.0000000000000E+00
 0.1018292448735E+01 -0.1680580061460E+01  0.0000000000000E+00
 0.1038316310015E+01 -0.1613921148730E+01  0.0000000000000E+00
 0.1059723390757E+01 -0.1548004154413E+01  0.0000000000000E+00
 0.1082737305430E+01 -0.1483022190057E+01  0.0000000000000E+00
 0.8800628706507E+00 -0.4232624862149E+01  0.0000000000000E+00
 0.8801257412452E+00 -0.4161205139410E+01  0.0000000000000E+00
 0.8801886119583E+00 -0.4089785282070E+01  0.0000000000000E+00
 0.8802514827260E+00 -0.4018365362649E+01  0.0000000000000E+00
 0.8803143534107E+00 -0.3946945537440E+01  0.0000000000000E+00
 0.8803772240837E+00 -0.3875525725631E+01  0.0000000000000E+00
 0.8804400947647E+00 -0.3804105904747E+01  0.0000000000000E+00
 0.8805029654551E+00 -0.3732686073087E+01  0.0000000000000E+00
 0.8805658361406E+00 -0.3661266247042E+01  0.0000000000000E+00
 0.8806287068270E+00 -0.3589846420017E+01  0.0000000000000E+00
 0.8806915776278E+00 -0.3518426462966E+01  0.0000000000000E+00
 0.8807544482321E+00 -0.3447006729237E+01  0.0000000000000E+00
 0.8808173190235E+00 -0.3375586782831E+01  0.0000000000000E+00
 0.8808801907419E+00 -0.3304165783493E+01  0.0000000000000E+00
 0.8809430603810E+00 -0.3232747146062E+01  0.0000000000000E+00
 0.8810059308927E+00 -0.3161327517485E+01  0.0000000000000E+00
 0.8810688015838E+00 -0.3089907685116E+01  0.0000000000000E+00
 0.8811316722411E+00 -0.3018487891087E+01  0.0000000000000E+00
 0.8811945428171E+00 -0.2947068189507E+01  0.0000000000000E+00
 0.8813228913452E+00 -0.2875648520963E+01  0.0000000000000E+00
 0.8819137288988E+00 -0.2804232340763E+01  0.0000000000000E+00
 0.8833980407394E+00 -0.2732836418503E+01  0.0000000000000E+00
 0.8860347761945E+00 -0.2661492557860E+01  0.0000000000000E+00
 0.8899254402048E+00 -0.2590239070684E+01  0.0000000000000E+00
 0.8950814929478E+00 -0.2519112682006E+01  0.0000000000000E+00
 0.9014796530467E+00 -0.2448146351075E+01  0.0000000000000E+00
 0.9090935891332E+00 -0.2377371183799E+01  0.0000000000000E+00
 0.9179102940913E+00 -0.2306818449755E+01  0.0000000000000E+00
 0.9279392533642E+00 -0.2236524376770E+01  0.0000000000000E+00
 0.9392200815813E+00 -0.2166533789856E+01  0.0000000000000E+00
 0.9517680302519E+00 -0.2096888231292E+01  0.0000000000000E+00
 0.9655054064884E+00 -0.2027601942369E+01  0.0000000000000E+00
 0.9803742736342E+00 -0.1958689846964E+01  0.0000000000000E+00
 0.9963468360632E+00 -0.1890173722552E+01  0.0000000000000E+00
 0.1013422184182E+01 -0.1822084302508E+01  0.0000000000000E+00
 0.1031626362785E+01 -0.1754464468768E+01  0.0000000000000E+00
 0.1051015708778E+01 -0.1687374668298E+01  0.0000000000000E+00
 0.1071685344144E+01 -0.1620899391489E+01  0.0000000000000E+00
 0.1093783105455E+01 -0.1555166028923E+01  0.0000000000000E+00
 0.1117539866798E+01 -0.1490367694424E+01  0.0000000000000E+00
 0.9075594889833E+00 -0.4232814047991E+01  0.0000000000000E+00
 0.9076189779134E+00 -0.4161583510925E+01  0.0000000000000E+00
 0.9076784669557E+00 -0.4090352839614E+01  0.0000000000000E+00
 0.9077379560498E+00 -0.4019122106386E+01  0.0000000000000E+00
 0.9077974450653E+00 -0.3947891467122E+01  0.0000000000000E+00
 0.9078569340697E+00 -0.3876660841222E+01  0.0000000000000E+00
 0.9079164230816E+00 -0.3805430206271E+01  0.0000000000000E+00
 0.9079759121025E+00 -0.3734199560572E+01  0.0000000000000E+00
 0.9080354011187E+00 -0.3662968920473E+01  0.0000000000000E+00
 0.9080948901358E+00 -0.3591738279397E+01  0.0000000000000E+00
 0.9081543792612E+00 -0.3520507508640E+01  0.0000000000000E+00
 0.9082138682005E+00 -0.3449276960612E+01  0.0000000000000E+00
 0.9082733573170E+00 -0.3378046200472E+01  0.0000000000000E+00
 0.9083328473105E+00 -0.3306814390188E+01  0.0000000000000E+00
 0.9083923353367E+00 -0.3235584935555E+01  0.0000000000000E+00
 0.9084518241884E+00 -0.3164354492402E+01  0.0000000000000E+00
 0.9085113132099E+00 -0.3093123845996E+01  0.0000000000000E+00
 0.9085708021995E+00 -0.3021893237829E+01  0.0000000000000E+00
 0.9086302911121E+00 -0.2950662721865E+01  0.0000000000000E+00
 0.9087573168832E+00 -0.2879432238978E+01  0.0000000000000E+00
 0.9093613743473E+00 -0.2808205243358E+01  0.0000000000000E+00
 0.9108870008119E+00 -0.2736998503829E+01  0.0000000000000E+00
 0.9136012880531E+00 -0.2665843825050E+01  0.0000000000000E+00
 0.9176089327442E+00 -0.2594779519508E+01  0.0000000000000E+00
 0.9229217554080E+00 -0.2523842312644E+01  0.0000000000000E+00
 0.9295157425928E+00 -0.2453065164015E+01  0.0000000000000E+00
 0.9373637349804E+00 -0.2382479178777E+01  0.0000000000000E+00
 0.9464523164353E+00 -0.2312115627219E+01  0.0000000000000E+00
 0.9567912706887E+00 -0.2242010736282E+01  0.0000000000000E+00
 0.9684214580236E+00 -0.2172209330975E+01  0.0000000000000E+00
 0.9813586095009E+00 -0.2102752954344E+01  0.0000000000000E+00
 0.9955225892331E+00 -0.2033655847757E+01  0.0000000000000E+00
 0.1010853638792E+01 -0.1964932934906E+01  0.0000000000000E+00
 0.1027323088543E+01 -0.1896605993116E+01  0.0000000000000E+00
 0.1044930000291E+01 -0.1828705755716E+01  0.0000000000000E+00
 0.1063701237794E+01 -0.1761275104543E+01  0.0000000000000E+00
 0.1083694909471E+01 -0.1694374485157E+01  0.0000000000000E+00
 0.1105009128278E+01 -0.1628088390423E+01  0.0000000000000E+00
 0.1127796379553E+01 -0.1562544205636E+01  0.0000000000000E+00
 0.1152294796986E+01 -0.1497935046963E+01  0.0000000000000E+00
 0.9350548858195E+00 -0.4233008749224E+01  0.0000000000000E+00
 0.9351097715901E+00 -0.4161972913217E+01  0.0000000000000E+00
 0.9351646574641E+00 -0.4090936943333E+01  0.0000000000000E+00
 0.9352195433858E+00 -0.4019900911701E+01  0.0000000000000E+00
 0.9352744292350E+00 -0.3948864973775E+01  0.0000000000000E+00
 0.9353293150740E+00 -0.3877829049177E+01  0.0000000000000E+00
 0.9353842009200E+00 -0.3806793115553E+01  0.0000000000000E+00
 0.9354390867743E+00 -0.3735757171211E+01  0.0000000000000E+00
 0.9354939726242E+00 -0.3664721232452E+01  0.0000000000000E+00
 0.9355488584749E+00 -0.3593685292720E+01  0.0000000000000E+00
 0.9356037444255E+00 -0.3522649223661E+01  0.0000000000000E+00
 0.9356586302045E+00 -0.3451613376723E+01  0.0000000000000E+00
 0.9357135161469E+00 -0.3380577318253E+01  0.0000000000000E+00
 0.9357684028986E+00 -0.3309540212508E+01  0.0000000000000E+00
 0.9358232878350E+00 -0.3238505455976E+01  0.0000000000000E+00
 0.9358781735332E+00 -0.3167469713625E+01  0.0000000000000E+00
 0.9359330593880E+00 -0.3096433768578E+01  0.0000000000000E+00
 0.9359879452134E+00 -0.3025397861664E+01  0.0000000000000E+00
 0.9360428309677E+00 -0.2954362046702E+01  0.0000000000000E+00
 0.9361673124864E+00 -0.2883326264858E+01  0.0000000000000E+00
 0.9367833683722E+00 -0.2812293969172E+01  0.0000000000000E+00
 0.9383490879822E+00 -0.2741281927676E+01  0.0000000000000E+00
 0.9411397055351E+00 -0.2670321946037E+01  0.0000000000000E+00
 0.9452631094320E+00 -0.2599452337398E+01  0.0000000000000E+00
 0.9507314805386E+00 -0.2528709827621E+01  0.0000000000000E+00
 0.9575200733262E+00 -0.2458127376583E+01  0.0000000000000E+00
 0.9656009005317E+00 -0.2387736088663E+01  0.0000000000000E+00
 0.9749601369954E+00 -0.2317567234886E+01  0.0000000000000E+00
 0.9856078647423E+00 -0.2247657041276E+01  0.0000000000000E+00
 0.9975861897091E+00 -0.2178050332845E+01  0.0000000000000E+00
 0.1010911322503E+01 -0.2108788653425E+01  0.0000000000000E+00
 0.1025500684237E+01 -0.2039886244463E+01  0.0000000000000E+00
 0.1041292694711E+01 -0.1971358029462E+01  0.0000000000000E+00
 0.1058257810283E+01 -0.1903225785592E+01  0.0000000000000E+00
 0.1076395064160E+01 -0.1835520246133E+01  0.0000000000000E+00
 0.1095732139060E+01 -0.1768284292824E+01  0.0000000000000E+00
 0.1116328914927E+01 -0.1701578369774E+01  0.0000000000000E+00
 0.1138286495672E+01 -0.1635486972397E+01  0.0000000000000E+00
 0.1161762015432E+01 -0.1570137480546E+01  0.0000000000000E+00
 0.1187000867489E+01 -0.1505723012798E+01  0.0000000000000E+00
 0.9625490308455E+00 -0.4233208934261E+01  0.0000000000000E+00
 0.9625980616473E+00 -0.4162373283113E+01  0.0000000000000E+00
 0.9626470925415E+00 -0.4091537498464E+01  0.0000000000000E+00
 0.9626961234783E+00 -0.4020701652242E+01  0.0000000000000E+00
 0.9627451543504E+00 -0.3949865899462E+01  0.0000000000000E+00
 0.9627941852133E+00 -0.3879030159972E+01  0.0000000000000E+00
 0.9628432160825E+00 -0.3808194411481E+01  0.0000000000000E+00
 0.9628922469590E+00 -0.3737358652303E+01  0.0000000000000E+00
 0.9629412778317E+00 -0.3666522898693E+01  0.0000000000000E+00
 0.9629903087051E+00 -0.3595687144111E+01  0.0000000000000E+00
 0.9630393396677E+00 -0.3524851260568E+01  0.0000000000000E+00
 0.9630883704770E+00 -0.3454015598519E+01  0.0000000000000E+00
 0.9631374014324E+00 -0.3383179725533E+01  0.0000000000000E+00
 0.9631864331105E+00 -0.3312342808225E+01  0.0000000000000E+00
 0.9632354631672E+00 -0.3241508233510E+01  0.0000000000000E+00
 0.9632844939044E+00 -0.3170672675753E+01  0.0000000000000E+00
 0.9633335247814E+00 -0.3099836915872E+01  0.0000000000000E+00
 0.9633825556321E+00 -0.3029001194016E+01  0.0000000000000E+00
 0.9634315864194E+00 -0.2958165563854E+01  0.0000000000000E+00
 0.9635522718756E+00 -0.2887329966851E+01  0.0000000000000E+00
 0.9641790743716E+00 -0.2816497854867E+01  0.0000000000000E+00
 0.9657836353121E+00 -0.2745685995118E+01  0.0000000000000E+00
 0.9686493313466E+00 -0.2674926194307E+01  0.0000000000000E+00
 0.9728872425984E+00 -0.2604256766253E+01  0.0000000000000E+00
 0.9785099102731E+00 -0.2533714437250E+01  0.0000000000000E+00
 0.9854918567633E+00 -0.2463332167505E+01  0.0000000000000E+00
 0.9938042668667E+00 -0.2393141060596E+01  0.0000000000000E+00
 0.1003432906395E+01 -0.2323172388306E+01  0.0000000000000E+00
 0.1014388155672E+01 -0.2253462375718E+01  0.0000000000000E+00
 0.1026713366288E+01 -0.2184055847844E+01  0.0000000000000E+00
 0.1040425228390E+01 -0.2114994349325E+01  0.0000000000000E+00
 0.1055438720094E+01 -0.2046292121691E+01  0.0000000000000E+00
 0.1071690439431E+01 -0.1977964088247E+01  0.0000000000000E+00
 0.1089149968751E+01 -0.1910032026008E+01  0.0000000000000E+00
 0.1107816312662E+01 -0.1842526668202E+01  0.0000000000000E+00
 0.1127717972847E+01 -0.1775490896466E+01  0.0000000000000E+00
 0.1148916600779E+01 -0.1708985153419E+01  0.0000000000000E+00
 0.1171516291308E+01 -0.1643093937094E+01  0.0000000000000E+00
 0.1195678827404E+01 -0.1577944621747E+01  0.0000000000000E+00
 0.1221656861916E+01 -0.1513730328440E+01  0.0000000000000E+00
 0.9900418963175E+00 -0.4233414571432E+01  0.0000000000000E+00
 0.9900837925975E+00 -0.4162784557271E+01  0.0000000000000E+00
 0.9901256889566E+00 -0.4092154409997E+01  0.0000000000000E+00
 0.9901675853520E+00 -0.4021524201328E+01  0.0000000000000E+00
 0.9902094816922E+00 -0.3950894085830E+01  0.0000000000000E+00
 0.9902513780245E+00 -0.3880263983584E+01  0.0000000000000E+00
 0.9902932743622E+00 -0.3809633872364E+01  0.0000000000000E+00
 0.9903351707061E+00 -0.3739003750486E+01  0.0000000000000E+00
 0.9903770670468E+00 -0.3668373634161E+01  0.0000000000000E+00
 0.9904189633881E+00 -0.3597743516867E+01  0.0000000000000E+00
 0.9904608598056E+00 -0.3527113270985E+01  0.0000000000000E+00
 0.9905027560921E+00 -0.3456483245955E+01  0.0000000000000E+00
 0.9905446525034E+00 -0.3385853010601E+01  0.0000000000000E+00
 0.9905865495323E+00 -0.3315221733956E+01  0.0000000000000E+00
 0.9906284451757E+00 -0.3244592793103E+01  0.0000000000000E+00
 0.9906703414006E+00 -0.3173962872062E+01  0.0000000000000E+00
 0.9907122377450E+00 -0.3103332749484E+01  0.0000000000000E+00
 0.9907541340669E+00 -0.3032702664821E+01  0.0000000000000E+00
 0.9907960303345E+00 -0.2962072671585E+01  0.0000000000000E+00
 0.9909116401763E+00 -0.2891442711552E+01  0.0000000000000E+00
 0.9915479097436E+00 -0.2820816235367E+01  0.0000000000000E+00
 0.9931900324991E+00 -0.2750210009408E+01  0.0000000000000E+00
 0.9961295275201E+00 -0.2679655841445E+01  0.0000000000000E+00
 0.1000480666649E+01 -0.2609192045989E+01  0.0000000000000E+00
 0.1006256351428E+01 -0.2538855349777E+01  0.0000000000000E+00
 0.1013430372169E+01 -0.2468678713357E+01  0.0000000000000E+00
 0.1021973085736E+01 -0.2398693239484E+01  0.0000000000000E+00
 0.1031869848906E+01 -0.2328930200717E+01  0.0000000000000E+00
 0.1043131340308E+01 -0.2259425821175E+01  0.0000000000000E+00
 0.1055802157187E+01 -0.2190224925870E+01  0.0000000000000E+00
 0.1069899469226E+01 -0.2121369060273E+01  0.0000000000000E+00
 0.1085335811539E+01 -0.2052872465999E+01  0.0000000000000E+00
 0.1102045960391E+01 -0.1984750066153E+01  0.0000000000000E+00
 0.1119998624125E+01 -0.1917023637585E+01  0.0000000000000E+00
 0.1139192778749E+01 -0.1849723913474E+01  0.0000000000000E+00
 0.1159657744912E+01 -0.1782893775349E+01  0.0000000000000E+00
 0.1181456945627E+01 -0.1716593664302E+01  0.0000000000000E+00
 0.1204697466668E+01 -0.1650908081054E+01  0.0000000000000E+00
 0.1229545739873E+01 -0.1585964394114E+01  0.0000000000000E+00
 0.1256261677649E+01 -0.1521955727091E+01  0.0000000000000E+00
 0.1017533454000E+01 -0.4233625628207E+01  0.0000000000000E+00
 0.1017566907971E+01 -0.4163206670632E+01  0.0000000000000E+00
 0.1017600362004E+01 -0.4092787580343E+01  0.0000000000000E+00
 0.1017633816067E+01 -0.4022368428842E+01  0.0000000000000E+00
 0.1017667270085E+01 -0.3951949370234E+01  0.0000000000000E+00
 0.1017700724097E+01 -0.3881530324838E+01  0.0000000000000E+00
 0.1017734178114E+01 -0.3811111270494E+01  0.0000000000000E+00
 0.1017767632135E+01 -0.3740692205524E+01  0.0000000000000E+00
 0.1017801086154E+01 -0.3670273146091E+01  0.0000000000000E+00
 0.1017834540173E+01 -0.3599854085692E+01  0.0000000000000E+00
 0.1017867994254E+01 -0.3529434897089E+01  0.0000000000000E+00
 0.1017901448229E+01 -0.3459015928678E+01  0.0000000000000E+00
 0.1017934902304E+01 -0.3388596750572E+01  0.0000000000000E+00
 0.1017968356873E+01 -0.3318176534286E+01  0.0000000000000E+00
 0.1018001810335E+01 -0.3247758646812E+01  0.0000000000000E+00
 0.1018035264261E+01 -0.3177339782080E+01  0.0000000000000E+00
 0.1018068718283E+01 -0.3106920716413E+01  0.0000000000000E+00
 0.1018102172287E+01 -0.3036501688547E+01  0.0000000000000E+00
 0.1018135626247E+01 -0.2966082751835E+01  0.0000000000000E+00
 0.1018244852688E+01 -0.2895663848371E+01  0.0000000000000E+00
 0.1018889281555E+01 -0.2825248427553E+01  0.0000000000000E+00
 0.1020567658381E+01 -0.2754853254900E+01  0.0000000000000E+00
 0.1023579644669E+01 -0.2684510139275E+01  0.0000000000000E+00
 0.1028042703977E+01 -0.2614257395899E+01  0.0000000000000E+00
 0.1033970098182E+01 -0.2544131751969E+01  0.0000000000000E+00
 0.1041334885514E+01 -0.2474166168375E+01  0.0000000000000E+00
 0.1050106594904E+01 -0.2404391747033E+01  0.0000000000000E+00
 0.1060270174092E+01 -0.2334839761298E+01  0.0000000000000E+00
 0.1071836600020E+01 -0.2265546434297E+01  0.0000000000000E+00
 0.1084851715585E+01 -0.2196556591045E+01  0.0000000000000E+00
 0.1099333170002E+01 -0.2127911777862E+01  0.0000000000000E+00
 0.1115191055382E+01 -0.2059626236452E+01  0.0000000000000E+00
 0.1132358326224E+01 -0.1991714889712E+01  0.0000000000000E+00
 0.1150802816865E+01 -0.1924199514328E+01  0.0000000000000E+00
 0.1170523474713E+01 -0.1857110843424E+01  0.0000000000000E+00
 0.1191550439383E+01 -0.1790491758421E+01  0.0000000000000E+00
 0.1213948905440E+01 -0.1724402698843E+01  0.0000000000000E+00
 0.1237828949566E+01 -0.1658928168167E+01  0.0000000000000E+00
 0.1263361652507E+01 -0.1594195529007E+01  0.0000000000000E+00
 0.1290814186213E+01 -0.1530397907585E+01  0.0000000000000E+00
 0.1045023674235E+01 -0.4233842070904E+01  0.0000000000000E+00
 0.1045047348449E+01 -0.4163639555833E+01  0.0000000000000E+00
 0.1045071022707E+01 -0.4093436908455E+01  0.0000000000000E+00
 0.1045094696986E+01 -0.4023234200054E+01  0.0000000000000E+00
 0.1045118371233E+01 -0.3953031584260E+01  0.0000000000000E+00
 0.1045142045477E+01 -0.3882828981637E+01  0.0000000000000E+00
 0.1045165719723E+01 -0.3812626370094E+01  0.0000000000000E+00
 0.1045189393973E+01 -0.3742423747959E+01  0.0000000000000E+00
 0.1045213068221E+01 -0.3672221131342E+01  0.0000000000000E+00
 0.1045236742469E+01 -0.3602018513763E+01  0.0000000000000E+00
 0.1045260416760E+01 -0.3531815768374E+01  0.0000000000000E+00
 0.1045284090977E+01 -0.3461613242500E+01  0.0000000000000E+00
 0.1045307765265E+01 -0.3391410507575E+01  0.0000000000000E+00
 0.1045331439902E+01 -0.3321206737662E+01  0.0000000000000E+00
 0.1045355113756E+01 -0.3251005289403E+01  0.0000000000000E+00
 0.1045378787939E+01 -0.3180802866889E+01  0.0000000000000E+00
 0.1045402462189E+01 -0.3110600244057E+01  0.0000000000000E+00
 0.1045426136426E+01 -0.3040397658911E+01  0.0000000000000E+00
 0.1045449810633E+01 -0.2970195164638E+01  0.0000000000000E+00
 0.1045551316223E+01 -0.2899992703660E+01  0.0000000000000E+00
 0.1046202566935E+01 -0.2829793724095E+01  0.0000000000000E+00
 0.1047915860364E+01 -0.2759614990581E+01  0.0000000000000E+00
 0.1050999000424E+01 -0.2689488313102E+01  0.0000000000000E+00
 0.1055572642382E+01 -0.2619452007610E+01  0.0000000000000E+00
 0.1061650408446E+01 -0.2549542801767E+01  0.0000000000000E+00
 0.1069204624761E+01 -0.2479793656821E+01  0.0000000000000E+00
 0.1078203992335E+01 -0.2410235673824E+01  0.0000000000000E+00
 0.1088633049863E+01 -0.2340900126947E+01  0.0000000000000E+00
 0.1100503072607E+01 -0.2271823238302E+01  0.0000000000000E+00
 0.1113861149115E+01 -0.2203049832902E+01  0.0000000000000E+00
 0.1128725408128E+01 -0.2134621457944E+01  0.0000000000000E+00
 0.1145003498756E+01 -0.2066552355220E+01  0.0000000000000E+00
 0.1162626553734E+01 -0.1998857447416E+01  0.0000000000000E+00
 0.1181561533394E+01 -0.1931558511045E+01  0.0000000000000E+00
 0.1201807356548E+01 -0.1864686279179E+01  0.0000000000000E+00
 0.1223394981775E+01 -0.1798283633127E+01  0.0000000000000E+00
 0.1246391375200E+01 -0.1732411010803E+01  0.0000000000000E+00
 0.1270909604393E+01 -0.1667152918514E+01  0.0000000000000E+00
 0.1297125399040E+01 -0.1602636712827E+01  0.0000000000000E+00
 0.1325313190613E+01 -0.1539055522643E+01  0.0000000000000E+00
 0.1072512531546E+01 -0.4234063866321E+01  0.0000000000000E+00
 0.1072525063080E+01 -0.4164083146470E+01  0.0000000000000E+00
 0.1072537594638E+01 -0.4094102294730E+01  0.0000000000000E+00
 0.1072550126207E+01 -0.4024121382159E+01  0.0000000000000E+00
 0.1072562657759E+01 -0.3954140561902E+01  0.0000000000000E+00
 0.1072575189309E+01 -0.3884159754776E+01  0.0000000000000E+00
 0.1072587720861E+01 -0.3814178938758E+01  0.0000000000000E+00
 0.1072600252414E+01 -0.3744198112180E+01  0.0000000000000E+00
 0.1072612783967E+01 -0.3674217291104E+01  0.0000000000000E+00
 0.1072625315520E+01 -0.3604236469068E+01  0.0000000000000E+00
 0.1072637847095E+01 -0.3534255519626E+01  0.0000000000000E+00
 0.1072650378631E+01 -0.3464274789006E+01  0.0000000000000E+00
 0.1072662910205E+01 -0.3394293849995E+01  0.0000000000000E+00
 0.1072675441964E+01 -0.3324311879266E+01  0.0000000000000E+00
 0.1072687973307E+01 -0.3254332222856E+01  0.0000000000000E+00
 0.1072700504825E+01 -0.3184351595269E+01  0.0000000000000E+00
 0.1072713036379E+01 -0.3114370767997E+01  0.0000000000000E+00
 0.1072725567926E+01 -0.3044389978293E+01  0.0000000000000E+00
 0.1072738099457E+01 -0.2974409279174E+01  0.0000000000000E+00
 0.1072830521275E+01 -0.2904428613396E+01  0.0000000000000E+00
 0.1073487230923E+01 -0.2834451427769E+01  0.0000000000000E+00
 0.1075234078069E+01 -0.2764494486027E+01  0.0000000000000E+00
 0.1078387009034E+01 -0.2694589599303E+01  0.0000000000000E+00
 0.1083069870790E+01 -0.2624775084295E+01  0.0000000000000E+00
 0.1089296645875E+01 -0.2555087669146E+01  0.0000000000000E+00
 0.1097038928343E+01 -0.2485560315469E+01  0.0000000000000E+00
 0.1106264591286E+01 -0.2416224123429E+01  0.0000000000000E+00
 0.1116957764351E+01 -0.2347110368037E+01  0.0000000000000E+00
 0.1129130021121E+01 -0.2278255270360E+01  0.0000000000000E+00
 0.1142829695801E+01 -0.2209703655415E+01  0.0000000000000E+00
 0.1158075396650E+01 -0.2141497071292E+01  0.0000000000000E+00
 0.1174772329777E+01 -0.2073649759875E+01  0.0000000000000E+00
 0.1192849806151E+01 -0.2006176643634E+01  0.0000000000000E+00
 0.1212273912104E+01 -0.1939099498907E+01  0.0000000000000E+00
 0.1233043537849E+01 -0.1872449058708E+01  0.0000000000000E+00
 0.1255190460929E+01 -0.1806268204236E+01  0.0000000000000E+00
 0.1278783419043E+01 -0.1740617371751E+01  0.0000000000000E+00
 0.1303938470630E+01 -0.1675581070464E+01  0.0000000000000E+00
 0.1330835994357E+01 -0.1611286650742E+01  0.0000000000000E+00
 0.1359757681202E+01 -0.1547927244234E+01  0.0000000000000E+00
-0.6778574956198E+00 -0.1262067680153E+01  0.0000000000000E+00
-0.6782770661586E+00 -0.1176951538939E+01  0.0000000000000E+00
-0.6790038521434E+00 -0.1091837606340E+01  0.0000000000000E+00
-0.6800826918120E+00 -0.1006727743275E+01  0.0000000000000E+00
-0.6815616898838E+00 -0.9216243838726E+00  0.0000000000000E+00
-0.6834862980979E+00 -0.8365308372119E+00  0.0000000000000E+00
-0.6858864270538E+00 -0.7514504222619E+00  0.0000000000000E+00
-0.6887536618310E+00 -0.6663859764994E+00  0.0000000000000E+00
-0.6920116565350E+00 -0.5813369229450E+00  0.0000000000000E+00
-0.6954975963156E+00 -0.4962977947840E+00  0.0000000000000E+00
-0.6989835360050E+00 -0.4112586666193E+00  0.0000000000000E+00
-0.7022415304475E+00 -0.3262096130549E+00  0.0000000000000E+00
-0.7051087648230E+00 -0.2411451672791E+00  0.0000000000000E+00
-0.7075088932732E+00 -0.1560647523149E+00  0.0000000000000E+00
-0.7094335009094E+00 -0.7097120564155E-01  0.0000000000000E+00
-0.7109124983562E+00  0.1413215377165E-01  0.0000000000000E+00
-0.7119913373706E+00  0.9924201684453E-01  0.0000000000000E+00
-0.7127181226840E+00  0.1843559494488E+00  0.0000000000000E+00
-0.7131376925427E+00  0.2694720906668E+00  0.0000000000000E+00
-0.6423834586364E+00 -0.1257430206780E+01  0.0000000000000E+00
-0.6428079469815E+00 -0.1172076973233E+01  0.0000000000000E+00
-0.6435234815340E+00 -0.1086725948382E+01  0.0000000000000E+00
-0.6445725406163E+00 -0.1001378993222E+01  0.0000000000000E+00
-0.6460006971461E+00 -0.9160385416585E+00  0.0000000000000E+00
-0.6478510106322E+00 -0.8307079030675E+00  0.0000000000000E+00
-0.6501518174942E+00 -0.7453903958721E+00  0.0000000000000E+00
-0.6528951456395E+00 -0.6600888580888E+00  0.0000000000000E+00
-0.6560086674312E+00 -0.5748027122585E+00  0.0000000000000E+00
-0.6593381371986E+00 -0.4895264917391E+00  0.0000000000000E+00
-0.6626676068748E+00 -0.4042502712162E+00  0.0000000000000E+00
-0.6657811284050E+00 -0.3189641253765E+00  0.0000000000000E+00
-0.6685244561486E+00 -0.2336625875806E+00  0.0000000000000E+00
-0.6708252625048E+00 -0.1483450803717E+00  0.0000000000000E+00
-0.6726755754131E+00 -0.6301444176865E-01  0.0000000000000E+00
-0.6741037313179E+00  0.2232600980478E-01  0.0000000000000E+00
-0.6751527897460E+00  0.1076729649727E+00  0.0000000000000E+00
-0.6758683236271E+00  0.1930239898287E+00  0.0000000000000E+00
-0.6762928112920E+00  0.2783772233786E+00  0.0000000000000E+00
-0.6068771248225E+00 -0.1253037464350E+01  0.0000000000000E+00
-0.6073023861501E+00 -0.1167458422578E+01  0.0000000000000E+00
-0.6080025244294E+00 -0.1081881589579E+01  0.0000000000000E+00
-0.6090176580661E+00 -0.9963088264196E+00  0.0000000000000E+00
-0.6103908281695E+00 -0.9107425667951E+00  0.0000000000000E+00
-0.6121627020206E+00 -0.8251861203621E+00  0.0000000000000E+00
-0.6143600418475E+00 -0.7396428050247E+00  0.0000000000000E+00
-0.6169753183957E+00 -0.6541154593135E+00  0.0000000000000E+00
-0.6199402222819E+00 -0.5686035053123E+00  0.0000000000000E+00
-0.6231090770279E+00 -0.4831014765433E+00  0.0000000000000E+00
-0.6262779316826E+00 -0.3975994477710E+00  0.0000000000000E+00
-0.6292428353073E+00 -0.3120874937608E+00  0.0000000000000E+00
-0.6318581114538E+00 -0.2265601480377E+00  0.0000000000000E+00
-0.6340554507749E+00 -0.1410168326875E+00  0.0000000000000E+00
-0.6358273240482E+00 -0.5546038624327E-01  0.0000000000000E+00
-0.6372004935266E+00  0.3010587339095E-01  0.0000000000000E+00
-0.6382156265091E+00  0.1156786365575E+00  0.0000000000000E+00
-0.6389157641170E+00  0.2012554695615E+00  0.0000000000000E+00
-0.6393410247644E+00  0.2868345113357E+00  0.0000000000000E+00
-0.5713401376445E+00 -0.1248890411137E+01  0.0000000000000E+00
-0.5717622009905E+00 -0.1163097082270E+01  0.0000000000000E+00
-0.5724429720439E+00 -0.1077305962247E+01  0.0000000000000E+00
-0.5734202092963E+00 -0.9915189122057E+00  0.0000000000000E+00
-0.5747344220463E+00 -0.9057383656401E+00  0.0000000000000E+00
-0.5764238853537E+00 -0.8199676324743E+00  0.0000000000000E+00
-0.5785137872467E+00 -0.7342100301194E+00  0.0000000000000E+00
-0.5809970413178E+00 -0.6484683975936E+00  0.0000000000000E+00
-0.5838093564268E+00 -0.5627421565474E+00  0.0000000000000E+00
-0.5868136252857E+00 -0.4770258406587E+00  0.0000000000000E+00
-0.5898178940533E+00 -0.3913095247669E+00  0.0000000000000E+00
-0.5926302089008E+00 -0.3055832837122E+00  0.0000000000000E+00
-0.5951134625703E+00 -0.2198416511753E+00  0.0000000000000E+00
-0.5972033639575E+00 -0.1340840488083E+00  0.0000000000000E+00
-0.5988928266870E+00 -0.4831331563190E-01  0.0000000000000E+00
-0.6002070388120E+00  0.3746723094278E-01  0.0000000000000E+00
-0.6011842754101E+00  0.1232542809908E+00  0.0000000000000E+00
-0.6018650457922E+00  0.2090454010180E+00  0.0000000000000E+00
-0.6022871084581E+00  0.2948387298880E+00  0.0000000000000E+00
-0.5357741369022E+00 -0.1244989956190E+01  0.0000000000000E+00
-0.5361892110234E+00 -0.1158994088951E+01  0.0000000000000E+00
-0.5368468236192E+00 -0.1073000430625E+01  0.0000000000000E+00
-0.5377823732698E+00 -0.9870108424148E+00  0.0000000000000E+00
-0.5390338374614E+00 -0.9010277576241E+00  0.0000000000000E+00
-0.5406370990385E+00 -0.8150544864300E+00  0.0000000000000E+00
-0.5426157718221E+00 -0.7290943457776E+00  0.0000000000000E+00
-0.5449632122597E+00 -0.6431501751464E+00  0.0000000000000E+00
-0.5476191474442E+00 -0.5572213957766E+00  0.0000000000000E+00
-0.5504550392749E+00 -0.4713025414940E+00  0.0000000000000E+00
-0.5532909310144E+00 -0.3853836872084E+00  0.0000000000000E+00
-0.5559468659374E+00 -0.2994549078308E+00  0.0000000000000E+00
-0.5582943059733E+00 -0.2135107371891E+00  0.0000000000000E+00
-0.5602729782511E+00 -0.1275505965254E+00  0.0000000000000E+00
-0.5618762392504E+00 -0.4157732532137E-01  0.0000000000000E+00
-0.5631277028170E+00  0.4440575947785E-01  0.0000000000000E+00
-0.5640632518133E+00  0.1303953476947E+00  0.0000000000000E+00
-0.5647208637377E+00  0.2163890060246E+00  0.0000000000000E+00
-0.5651359371787E+00  0.3023848732658E+00  0.0000000000000E+00
-0.5001808381180E+00 -0.1241336966218E+01  0.0000000000000E+00
-0.5005853091216E+00 -0.1155150525915E+01  0.0000000000000E+00
-0.5012161493549E+00 -0.1068966294589E+01  0.0000000000000E+00
-0.5021063974859E+00 -0.9827861335033E+00  0.0000000000000E+00
-0.5032914991826E+00 -0.8966124757853E+00  0.0000000000000E+00
-0.5048049450772E+00 -0.8104486318491E+00  0.0000000000000E+00
-0.5066687747735E+00 -0.7242979182013E+00  0.0000000000000E+00
-0.5088767875828E+00 -0.6381631747553E+00  0.0000000000000E+00
-0.5113727288271E+00 -0.5520438223657E+00  0.0000000000000E+00
-0.5140366296026E+00 -0.4659343949968E+00  0.0000000000000E+00
-0.5167005302870E+00 -0.3798249676253E+00  0.0000000000000E+00
-0.5191964712696E+00 -0.2937056152283E+00  0.0000000000000E+00
-0.5214044836774E+00 -0.2075708717725E+00  0.0000000000000E+00
-0.5232683128678E+00 -0.1214201581142E+00  0.0000000000000E+00
-0.5247817581846E+00 -0.3525631416868E-01  0.0000000000000E+00
-0.5259668592563E+00  0.5091734355727E-01  0.0000000000000E+00
-0.5268571067330E+00  0.1370975046484E+00  0.0000000000000E+00
-0.5274879462949E+00  0.2232817359786E+00  0.0000000000000E+00
-0.5278924166184E+00  0.3094681762846E+00  0.0000000000000E+00
-0.4645619564064E+00 -0.1237932258017E+01  0.0000000000000E+00
-0.4649524100802E+00 -0.1151567419413E+01  0.0000000000000E+00
-0.4655530637473E+00 -0.1065204789847E+01  0.0000000000000E+00
-0.4663945961656E+00 -0.9788462306392E+00  0.0000000000000E+00
-0.4675099211833E+00 -0.8924941747498E+00  0.0000000000000E+00
-0.4689301372252E+00 -0.8061519328155E+00  0.0000000000000E+00
-0.4706757096711E+00 -0.7198228209325E+00  0.0000000000000E+00
-0.4727408807035E+00 -0.6335096794204E+00  0.0000000000000E+00
-0.4750734138646E+00 -0.5472119287727E+00  0.0000000000000E+00
-0.4775619094464E+00 -0.4609241030837E+00  0.0000000000000E+00
-0.4800504049371E+00 -0.3746362773921E+00  0.0000000000000E+00
-0.4823829378366E+00 -0.2883385267376E+00  0.0000000000000E+00
-0.4844481084674E+00 -0.2020253852164E+00  0.0000000000000E+00
-0.4861936804074E+00 -0.1156962733237E+00  0.0000000000000E+00
-0.4876138958714E+00 -0.2935403138074E-01  0.0000000000000E+00
-0.4887292202642E+00  0.5699802451606E-01  0.0000000000000E+00
-0.4895707520282E+00  0.1433565837290E+00  0.0000000000000E+00
-0.4901714050239E+00  0.2297192132988E+00  0.0000000000000E+00
-0.4905618580176E+00  0.3160840519049E+00  0.0000000000000E+00
-0.4289192212257E+00 -0.1234776597180E+01  0.0000000000000E+00
-0.4292924445295E+00 -0.1148245732540E+01  0.0000000000000E+00
-0.4298596985868E+00 -0.1061717076994E+01  0.0000000000000E+00
-0.4306493022459E+00 -0.9751924919160E+00  0.0000000000000E+00
-0.4316916375313E+00 -0.8886744101102E+00  0.0000000000000E+00
-0.4330154106638E+00 -0.8021661424208E+00  0.0000000000000E+00
-0.4346395127912E+00 -0.7156710045621E+00  0.0000000000000E+00
-0.4365586289750E+00 -0.6291918372315E+00  0.0000000000000E+00
-0.4387245409721E+00 -0.5427280605867E+00  0.0000000000000E+00
-0.4410344182749E+00 -0.4562742088428E+00  0.0000000000000E+00
-0.4433442954865E+00 -0.3698203570966E+00  0.0000000000000E+00
-0.4455102072220E+00 -0.2833565804456E+00  0.0000000000000E+00
-0.4474293230042E+00 -0.1968774131066E+00  0.0000000000000E+00
-0.4490534246258E+00 -0.1103822752388E+00  0.0000000000000E+00
-0.4503771971804E+00 -0.2387400754147E-01  0.0000000000000E+00
-0.4514195318408E+00  0.6264407427117E-01  0.0000000000000E+00
-0.4522091348456E+00  0.1491686593542E+00  0.0000000000000E+00
-0.4527763882315E+00  0.2356973149040E+00  0.0000000000000E+00
-0.4531496108551E+00  0.3222281795461E+00  0.0000000000000E+00
-0.3932543780196E+00 -0.1231870698467E+01  0.0000000000000E+00
-0.3936073729461E+00 -0.1145186367233E+01  0.0000000000000E+00
-0.3941382293917E+00 -0.1058504245145E+01  0.0000000000000E+00
-0.3948729062967E+00 -0.9718261936258E+00  0.0000000000000E+00
-0.3958392538597E+00 -0.8851546453368E+00  0.0000000000000E+00
-0.3970635861021E+00 -0.7984929113133E+00  0.0000000000000E+00
-0.3985632199332E+00 -0.7118443069165E+00  0.0000000000000E+00
-0.4003332833000E+00 -0.6252116731933E+00  0.0000000000000E+00
-0.4023295761670E+00 -0.5385944299907E+00  0.0000000000000E+00
-0.4044578372269E+00 -0.4519871116356E+00  0.0000000000000E+00
-0.4065860981956E+00 -0.3653797932784E+00  0.0000000000000E+00
-0.4085823908010E+00 -0.2787625500701E+00  0.0000000000000E+00
-0.4103524537661E+00 -0.1921299163392E+00  0.0000000000000E+00
-0.4118520870914E+00 -0.1054813119341E+00  0.0000000000000E+00
-0.4130764187560E+00 -0.1881957790332E-01  0.0000000000000E+00
-0.4140427656940E+00  0.6785197039194E-01  0.0000000000000E+00
-0.4147774419447E+00  0.1545300219154E+00  0.0000000000000E+00
-0.4153082977189E+00  0.2412121440070E+00  0.0000000000000E+00
-0.4156612919653E+00  0.3278964752429E+00  0.0000000000000E+00
-0.3575691979619E+00 -0.1229215224608E+01  0.0000000000000E+00
-0.3578991845277E+00 -0.1142390160639E+01  0.0000000000000E+00
-0.3583908633752E+00 -0.1055567305864E+01  0.0000000000000E+00
-0.3590678335372E+00 -0.9687485217511E+00  0.0000000000000E+00
-0.3599554133833E+00 -0.8819362408292E+00  0.0000000000000E+00
-0.3610775247381E+00 -0.7951337743095E+00  0.0000000000000E+00
-0.3624499102658E+00 -0.7083444372294E+00  0.0000000000000E+00
-0.3640681408054E+00 -0.6215710709562E+00  0.0000000000000E+00
-0.3658920345241E+00 -0.5348130950523E+00  0.0000000000000E+00
-0.3678358993193E+00 -0.4480650439469E+00  0.0000000000000E+00
-0.3697797640233E+00 -0.3613169928396E+00  0.0000000000000E+00
-0.3716036574805E+00 -0.2745590169304E+00  0.0000000000000E+00
-0.3732218876184E+00 -0.1877856506502E+00  0.0000000000000E+00
-0.3745942726403E+00 -0.1009963135626E+00  0.0000000000000E+00
-0.3757163834173E+00 -0.1419384703630E-01  0.0000000000000E+00
-0.3766039626383E+00  0.7261843389131E-01  0.0000000000000E+00
-0.3772809321460E+00  0.1594372180084E+00  0.0000000000000E+00
-0.3777726103222E+00  0.2462600727866E+00  0.0000000000000E+00
-0.3781025962077E+00  0.3330851367569E+00  0.0000000000000E+00
-0.3218654826118E+00 -0.1226810785876E+01  0.0000000000000E+00
-0.3221699083761E+00 -0.1139857885184E+01  0.0000000000000E+00
-0.3226198571880E+00 -0.1052907193727E+01  0.0000000000000E+00
-0.3232365681736E+00 -0.9659605730175E+00  0.0000000000000E+00
-0.3240428278714E+00 -0.8790204554635E+00  0.0000000000000E+00
-0.3250601659129E+00 -0.7920901524360E+00  0.0000000000000E+00
-0.3263027507117E+00 -0.7051729786780E+00  0.0000000000000E+00
-0.3277665960040E+00 -0.6182717758481E+00  0.0000000000000E+00
-0.3294155381548E+00 -0.5313859632499E+00  0.0000000000000E+00
-0.3311724542660E+00 -0.4445100754058E+00  0.0000000000000E+00
-0.3329293702861E+00 -0.3576341875599E+00  0.0000000000000E+00
-0.3345783121753E+00 -0.2707483749570E+00  0.0000000000000E+00
-0.3360421570660E+00 -0.1838471721208E+00  0.0000000000000E+00
-0.3372847413589E+00 -0.9692999835613E-01  0.0000000000000E+00
-0.3383020788226E+00 -0.9999695322564E-02  0.0000000000000E+00
-0.3391083378954E+00  0.7694042223655E-01  0.0000000000000E+00
-0.3397250482267E+00  0.1638870429499E+00  0.0000000000000E+00
-0.3401749963672E+00  0.2508377344090E+00  0.0000000000000E+00
-0.3404794214513E+00  0.3377906351034E+00  0.0000000000000E+00
-0.2861450373520E+00 -0.1224657936950E+01  0.0000000000000E+00
-0.2864215844532E+00 -0.1137590244331E+01  0.0000000000000E+00
-0.2868274853715E+00 -0.1050524760987E+01  0.0000000000000E+00
-0.2873816193277E+00 -0.9634633484665E+00  0.0000000000000E+00
-0.2881042410273E+00 -0.8764084390695E+00  0.0000000000000E+00
-0.2890144879123E+00 -0.7893633443104E+00  0.0000000000000E+00
-0.2901249541400E+00 -0.7023313786683E+00  0.0000000000000E+00
-0.2914320963498E+00 -0.6153153840630E+00  0.0000000000000E+00
-0.2929037690984E+00 -0.5283147795659E+00  0.0000000000000E+00
-0.2944714186929E+00 -0.4413240997829E+00  0.0000000000000E+00
-0.2960390681962E+00 -0.3543334199984E+00  0.0000000000000E+00
-0.2975107406832E+00 -0.2673328154971E+00  0.0000000000000E+00
-0.2988178824914E+00 -0.1803168208862E+00  0.0000000000000E+00
-0.2999283482133E+00 -0.9328485523812E-01  0.0000000000000E+00
-0.3008385945204E+00 -0.6239760473675E-02  0.0000000000000E+00
-0.3015612155950E+00  0.8081514892790E-01  0.0000000000000E+00
-0.3021153488969E+00  0.1678765614522E+00  0.0000000000000E+00
-0.3025212491438E+00  0.2549420447980E+00  0.0000000000000E+00
-0.3027977955648E+00  0.3420097374179E+00  0.0000000000000E+00
-0.2504096817960E+00 -0.1222757176891E+01  0.0000000000000E+00
-0.2506562726981E+00 -0.1135587871943E+01  0.0000000000000E+00
-0.2510160481881E+00 -0.1048420776304E+01  0.0000000000000E+00
-0.2515055275823E+00 -0.9612577515542E+00  0.0000000000000E+00
-0.2521424337517E+00 -0.8741012299005E+00  0.0000000000000E+00
-0.2529435119511E+00 -0.7869545229834E+00  0.0000000000000E+00
-0.2539197820773E+00 -0.6998209450482E+00  0.0000000000000E+00
-0.2550681436771E+00 -0.6127033382460E+00  0.0000000000000E+00
-0.2563604694946E+00 -0.5256011214427E+00  0.0000000000000E+00
-0.2577367750435E+00 -0.4385088293183E+00  0.0000000000000E+00
-0.2591130805012E+00 -0.3514165371924E+00  0.0000000000000E+00
-0.2604054060573E+00 -0.2643143203854E+00  0.0000000000000E+00
-0.2615537672554E+00 -0.1771967135784E+00  0.0000000000000E+00
-0.2625300368757E+00 -0.9006313563793E-01  0.0000000000000E+00
-0.2633311144972E+00 -0.2916428716145E-02  0.0000000000000E+00
-0.2639680200416E+00  0.8424009294153E-01  0.0000000000000E+00
-0.2644574987815E+00  0.1714031176939E+00  0.0000000000000E+00
-0.2648172736002E+00  0.2585702133351E+00  0.0000000000000E+00
-0.2650638638220E+00  0.3457395182847E+00  0.0000000000000E+00
-0.2146612485249E+00 -0.1221108948317E+01  0.0000000000000E+00
-0.2148760519034E+00 -0.1133851330987E+01  0.0000000000000E+00
-0.2151878706402E+00 -0.1046595922996E+01  0.0000000000000E+00
-0.2156108641473E+00 -0.9593445859525E+00  0.0000000000000E+00
-0.2161602234591E+00 -0.8720997519805E+00  0.0000000000000E+00
-0.2168503016456E+00 -0.7848647328308E+00  0.0000000000000E+00
-0.2176905443385E+00 -0.6976428425456E+00  0.0000000000000E+00
-0.2186782939965E+00 -0.6104369234771E+00  0.0000000000000E+00
-0.2197894415477E+00 -0.5232463943124E+00  0.0000000000000E+00
-0.2209725717140E+00 -0.4360657897959E+00  0.0000000000000E+00
-0.2221557017892E+00 -0.3488851852782E+00  0.0000000000000E+00
-0.2232668490789E+00 -0.2616946561104E+00  0.0000000000000E+00
-0.2242545983352E+00 -0.1744887370377E+00  0.0000000000000E+00
-0.2250948405222E+00 -0.8726684674795E-01  0.0000000000000E+00
-0.2257849181308E+00 -0.3182759427317E-04  0.0000000000000E+00
-0.2263342768177E+00  0.8721300638113E-01  0.0000000000000E+00
-0.2267572696704E+00  0.1744643434270E+00  0.0000000000000E+00
-0.2270690877358E+00  0.2617197514199E+00  0.0000000000000E+00
-0.2272838904341E+00  0.3489773687512E+00  0.0000000000000E+00
-0.1789015764263E+00 -0.1219713636439E+01  0.0000000000000E+00
-0.1790830136144E+00 -0.1132381112142E+01  0.0000000000000E+00
-0.1793452969311E+00 -0.1045050797208E+01  0.0000000000000E+00
-0.1797002258847E+00 -0.9577245532724E+00  0.0000000000000E+00
-0.1801604596716E+00 -0.8704048123869E+00  0.0000000000000E+00
-0.1807379591784E+00 -0.7830948863965E+00  0.0000000000000E+00
-0.1814405957685E+00 -0.6957980891710E+00  0.0000000000000E+00
-0.1822661548159E+00 -0.6085172632330E+00  0.0000000000000E+00
-0.1831945454296E+00 -0.5212518271183E+00  0.0000000000000E+00
-0.1841829215412E+00 -0.4339963156258E+00  0.0000000000000E+00
-0.1851712975617E+00 -0.3467408041322E+00  0.0000000000000E+00
-0.1860996879139E+00 -0.2594753680149E+00  0.0000000000000E+00
-0.1869252465596E+00 -0.1721945420735E+00  0.0000000000000E+00
-0.1876278826438E+00 -0.8489774484416E-01  0.0000000000000E+00
-0.1882053815728E+00  0.2412181149585E-02  0.0000000000000E+00
-0.1886656147347E+00  0.8973192203785E-01  0.0000000000000E+00
-0.1890205430340E+00  0.1770581659759E+00  0.0000000000000E+00
-0.1892828256793E+00  0.2643884809106E+00  0.0000000000000E+00
-0.1894642621872E+00  0.3517210052090E+00  0.0000000000000E+00
-0.1431325314919E+00 -0.1218571569045E+01  0.0000000000000E+00
-0.1432792793728E+00 -0.1131177633129E+01  0.0000000000000E+00
-0.1434907041544E+00 -0.1043785906598E+01  0.0000000000000E+00
-0.1437762454418E+00 -0.9563982511045E+00  0.0000000000000E+00
-0.1441460305922E+00 -0.8690170986448E+00  0.0000000000000E+00
-0.1446096283113E+00 -0.7816457611397E+00  0.0000000000000E+00
-0.1451733356905E+00 -0.6942875523177E+00  0.0000000000000E+00
-0.1458353810224E+00 -0.6069453148415E+00  0.0000000000000E+00
-0.1465796915941E+00 -0.5196184671224E+00  0.0000000000000E+00
-0.1473719905470E+00 -0.4323015440042E+00  0.0000000000000E+00
-0.1481642894086E+00 -0.3449846208852E+00  0.0000000000000E+00
-0.1489085997188E+00 -0.2576577731640E+00  0.0000000000000E+00
-0.1495706446490E+00 -0.1703155356850E+00  0.0000000000000E+00
-0.1501343515224E+00 -0.8295732686004E-01  0.0000000000000E+00
-0.1505979486635E+00  0.4414010647753E-02  0.0000000000000E+00
-0.1509677331890E+00  0.9179516310974E-01  0.0000000000000E+00
-0.1512532738221E+00  0.1791828186046E+00  0.0000000000000E+00
-0.1514646979322E+00  0.2665745451367E+00  0.0000000000000E+00
-0.1516114451329E+00  0.3539684810533E+00  0.0000000000000E+00
-0.1073559775584E+00 -0.1217683014787E+01  0.0000000000000E+00
-0.1074669729805E+00 -0.1130241236752E+01  0.0000000000000E+00
-0.1076264760765E+00 -0.1042801668119E+01  0.0000000000000E+00
-0.1078415665488E+00 -0.9553661705542E+00  0.0000000000000E+00
-0.1081198399148E+00 -0.8679371760100E+00  0.0000000000000E+00
-0.1084684727000E+00 -0.7805179964667E+00  0.0000000000000E+00
-0.1088921877222E+00 -0.6931119455429E+00  0.0000000000000E+00
-0.1093896561947E+00 -0.6057218660102E+00  0.0000000000000E+00
-0.1099488235801E+00 -0.5183471761831E+00  0.0000000000000E+00
-0.1105439822303E+00 -0.4309824109404E+00  0.0000000000000E+00
-0.1111391407892E+00 -0.3436176456970E+00  0.0000000000000E+00
-0.1116983079131E+00 -0.2562429558684E+00  0.0000000000000E+00
-0.1121957759839E+00 -0.1688528763335E+00  0.0000000000000E+00
-0.1126194905003E+00 -0.8144682540749E-01  0.0000000000000E+00
-0.1129681227076E+00  0.5972354137743E-02  0.0000000000000E+00
-0.1132463954486E+00  0.9340134868365E-01  0.0000000000000E+00
-0.1134614852666E+00  0.1808368462493E+00  0.0000000000000E+00
-0.1136209876912E+00  0.2682764148838E+00  0.0000000000000E+00
-0.1137319824330E+00  0.3557181929189E+00  0.0000000000000E+00
-0.7157378539324E-01 -0.1217048183171E+01  0.0000000000000E+00
-0.7164822826765E-01 -0.1129572190533E+01  0.0000000000000E+00
-0.7175500958976E-01 -0.1042098407307E+01  0.0000000000000E+00
-0.7189884915972E-01 -0.9546286951723E+00  0.0000000000000E+00
-0.7208481065407E-01 -0.8671654860487E+00  0.0000000000000E+00
-0.7231767841974E-01 -0.7797120919591E+00  0.0000000000000E+00
-0.7260060099874E-01 -0.6922718264434E+00  0.0000000000000E+00
-0.7293269252678E-01 -0.6048475323512E+00  0.0000000000000E+00
-0.7330591664062E-01 -0.5174386279278E+00  0.0000000000000E+00
-0.7370313490275E-01 -0.4300396480768E+00  0.0000000000000E+00
-0.7410035307365E-01 -0.3426406682255E+00  0.0000000000000E+00
-0.7447357692595E-01 -0.2552317638011E+00  0.0000000000000E+00
-0.7480566805232E-01 -0.1678074697074E+00  0.0000000000000E+00
-0.7508859012547E-01 -0.8036720419022E-01  0.0000000000000E+00
-0.7532145731324E-01  0.7086189900652E-02  0.0000000000000E+00
-0.7550741818259E-01  0.9454939902542E-01  0.0000000000000E+00
-0.7565125709823E-01  0.1820191111605E+00  0.0000000000000E+00
-0.7575803774893E-01  0.2694928943870E+00  0.0000000000000E+00
-0.7583247994311E-01  0.3569688870258E+00  0.0000000000000E+00
-0.3578783098112E-01 -0.1216667224146E+01  0.0000000000000E+00
-0.3582518662058E-01 -0.1129170686043E+01  0.0000000000000E+00
-0.3587871148179E-01 -0.1041676357359E+01  0.0000000000000E+00
-0.3595076546273E-01 -0.9541860997805E+00  0.0000000000000E+00
-0.3604388039874E-01 -0.8667023452065E+00  0.0000000000000E+00
-0.3616044845866E-01 -0.7792284056865E+00  0.0000000000000E+00
-0.3630204390757E-01 -0.6917675947129E+00  0.0000000000000E+00
-0.3646822380494E-01 -0.6043227551822E+00  0.0000000000000E+00
-0.3665496996040E-01 -0.5168933052982E+00  0.0000000000000E+00
-0.3685371314750E-01 -0.4294737799797E+00  0.0000000000000E+00
-0.3705245624338E-01 -0.3420542546609E+00  0.0000000000000E+00
-0.3723920213730E-01 -0.2546248047764E+00  0.0000000000000E+00
-0.3740538163300E-01 -0.1671799652449E+00  0.0000000000000E+00
-0.3754697657605E-01 -0.7971915427061E-01  0.0000000000000E+00
-0.3766354405808E-01  0.7754785250058E-02  0.0000000000000E+00
-0.3775665836908E-01  0.9523853982455E-01  0.0000000000000E+00
-0.3782871169569E-01  0.1827287974037E+00  0.0000000000000E+00
-0.3788223588549E-01  0.2702231260879E+00  0.0000000000000E+00
-0.3791959084473E-01  0.3577196641912E+00  0.0000000000000E+00
 0.6209850736676E-08 -0.1216540227813E+01  0.0000000000000E+00
 0.5524735811083E-08 -0.1129036838433E+01  0.0000000000000E+00
 0.4843998396465E-08 -0.1041535658474E+01  0.0000000000000E+00
 0.4171790525972E-08 -0.9540385496249E+00  0.0000000000000E+00
 0.3514266425853E-08 -0.8665479437785E+00  0.0000000000000E+00
 0.2880364529407E-08 -0.7790671529925E+00  0.0000000000000E+00
 0.2282599226633E-08 -0.6915994907437E+00  0.0000000000000E+00
 0.1737109434959E-08 -0.6041477999442E+00  0.0000000000000E+00
 0.1261877266097E-08 -0.5167114987841E+00  0.0000000000000E+00
 0.8719449662753E-09 -0.4292851221871E+00  0.0000000000000E+00
 0.5732300334473E-09 -0.3418587455901E+00  0.0000000000000E+00
 0.3595447320818E-09 -0.2544224444300E+00  0.0000000000000E+00
 0.2157243325992E-09 -0.1669707536305E+00  0.0000000000000E+00
 0.1238229916565E-09 -0.7950309138169E-01  0.0000000000000E+00
 0.6781348193177E-10  0.7977699404264E-02  0.0000000000000E+00
 0.3529812102035E-10  0.9546830525066E-01  0.0000000000000E+00
 0.1742641910935E-10  0.1829654140998E+00  0.0000000000000E+00
 0.8104205705961E-11  0.2704665940585E+00  0.0000000000000E+00
 0.3215440234396E-11  0.3579699834387E+00  0.0000000000000E+00
 0.3578784340053E-01 -0.1216667224235E+01  0.0000000000000E+00
 0.3582519766977E-01 -0.1129170686128E+01  0.0000000000000E+00
 0.3587872116953E-01 -0.1041676357439E+01  0.0000000000000E+00
 0.3595077380607E-01 -0.9541860998557E+00  0.0000000000000E+00
 0.3604388742704E-01 -0.8667023452767E+00  0.0000000000000E+00
 0.3616045421917E-01 -0.7792284057513E+00  0.0000000000000E+00
 0.3630204847257E-01 -0.6917675947721E+00  0.0000000000000E+00
 0.3646822727897E-01 -0.6043227552356E+00  0.0000000000000E+00
 0.3665497248399E-01 -0.5168933053458E+00  0.0000000000000E+00
 0.3685371489124E-01 -0.4294737800217E+00  0.0000000000000E+00
 0.3705245738970E-01 -0.3420542546977E+00  0.0000000000000E+00
 0.3723920285627E-01 -0.2546248048085E+00  0.0000000000000E+00
 0.3740538206434E-01 -0.1671799652727E+00  0.0000000000000E+00
 0.3754697682360E-01 -0.7971915429417E-01  0.0000000000000E+00
 0.3766354419363E-01  0.7754785230528E-02  0.0000000000000E+00
 0.3775665843962E-01  0.9523853980896E-01  0.0000000000000E+00
 0.3782871173050E-01  0.1827287973920E+00  0.0000000000000E+00
 0.3788223590167E-01  0.2702231260801E+00  0.0000000000000E+00
 0.3791959085114E-01  0.3577196641874E+00  0.0000000000000E+00
 0.7157379781176E-01 -0.1217048183348E+01  0.0000000000000E+00
 0.7164823931600E-01 -0.1129572190701E+01  0.0000000000000E+00
 0.7175501927670E-01 -0.1042098407466E+01  0.0000000000000E+00
 0.7189885750231E-01 -0.9546286953227E+00  0.0000000000000E+00
 0.7208481768167E-01 -0.8671654861889E+00  0.0000000000000E+00
 0.7231768417959E-01 -0.7797120920887E+00  0.0000000000000E+00
 0.7260060556313E-01 -0.6922718265617E+00  0.0000000000000E+00
 0.7293269600025E-01 -0.6048475324578E+00  0.0000000000000E+00
 0.7330591916369E-01 -0.5174386280229E+00  0.0000000000000E+00
 0.7370313664601E-01 -0.4300396481608E+00  0.0000000000000E+00
 0.7410035421955E-01 -0.3426406682992E+00  0.0000000000000E+00
 0.7447357764454E-01 -0.2552317638653E+00  0.0000000000000E+00
 0.7480566848334E-01 -0.1678074697628E+00  0.0000000000000E+00
 0.7508859037274E-01 -0.8036720423734E-01  0.0000000000000E+00
 0.7532145744856E-01  0.7086189861597E-02  0.0000000000000E+00
 0.7550741825294E-01  0.9454939899424E-01  0.0000000000000E+00
 0.7565125713289E-01  0.1820191111371E+00  0.0000000000000E+00
 0.7575803776501E-01  0.2694928943715E+00  0.0000000000000E+00
 0.7583247994948E-01  0.3569688870181E+00  0.0000000000000E+00
 0.1073559899754E+00 -0.1217683015053E+01  0.0000000000000E+00
 0.1074669840274E+00 -0.1130241237005E+01  0.0000000000000E+00
 0.1076264857621E+00 -0.1042801668358E+01  0.0000000000000E+00
 0.1078415748901E+00 -0.9553661707798E+00  0.0000000000000E+00
 0.1081198469412E+00 -0.8679371762203E+00  0.0000000000000E+00
 0.1084684784588E+00 -0.7805179966610E+00  0.0000000000000E+00
 0.1088921922856E+00 -0.6931119457203E+00  0.0000000000000E+00
 0.1093896596672E+00 -0.6057218661702E+00  0.0000000000000E+00
 0.1099488261023E+00 -0.5183471763258E+00  0.0000000000000E+00
 0.1105439839728E+00 -0.4309824110663E+00  0.0000000000000E+00
 0.1111391419344E+00 -0.3436176458075E+00  0.0000000000000E+00
 0.1116983086311E+00 -0.2562429559646E+00  0.0000000000000E+00
 0.1121957764143E+00 -0.1688528764166E+00  0.0000000000000E+00
 0.1126194907471E+00 -0.8144682547815E-01  0.0000000000000E+00
 0.1129681228425E+00  0.5972354079172E-02  0.0000000000000E+00
 0.1132463955186E+00  0.9340134863688E-01  0.0000000000000E+00
 0.1134614853010E+00  0.1808368462143E+00  0.0000000000000E+00
 0.1136209877071E+00  0.2682764148604E+00  0.0000000000000E+00
 0.1137319824393E+00  0.3557181929073E+00  0.0000000000000E+00
 0.1431325439069E+00 -0.1218571569399E+01  0.0000000000000E+00
 0.1432792904178E+00 -0.1131177633466E+01  0.0000000000000E+00
 0.1434907138381E+00 -0.1043785906917E+01  0.0000000000000E+00
 0.1437762537814E+00 -0.9563982514053E+00  0.0000000000000E+00
 0.1441460376170E+00 -0.8690170989253E+00  0.0000000000000E+00
 0.1446096340685E+00 -0.7816457613987E+00  0.0000000000000E+00
 0.1451733402525E+00 -0.6942875525541E+00  0.0000000000000E+00
 0.1458353844936E+00 -0.6069453150547E+00  0.0000000000000E+00
 0.1465796941151E+00 -0.5196184673125E+00  0.0000000000000E+00
 0.1473719922884E+00 -0.4323015441721E+00  0.0000000000000E+00
 0.1481642905529E+00 -0.3449846210325E+00  0.0000000000000E+00
 0.1489086004358E+00 -0.2576577732924E+00  0.0000000000000E+00
 0.1495706450787E+00 -0.1703155357958E+00  0.0000000000000E+00
 0.1501343517685E+00 -0.8295732695422E-01  0.0000000000000E+00
 0.1505979487979E+00  0.4414010569677E-02  0.0000000000000E+00
 0.1509677332586E+00  0.9179516304740E-01  0.0000000000000E+00
 0.1512532738562E+00  0.1791828185579E+00  0.0000000000000E+00
 0.1514646979479E+00  0.2665745451056E+00  0.0000000000000E+00
 0.1516114451391E+00  0.3539684810378E+00  0.0000000000000E+00
 0.1789015888386E+00 -0.1219713636882E+01  0.0000000000000E+00
 0.1790830246568E+00 -0.1132381112564E+01  0.0000000000000E+00
 0.1793453066125E+00 -0.1045050797608E+01  0.0000000000000E+00
 0.1797002342220E+00 -0.9577245536482E+00  0.0000000000000E+00
 0.1801604666943E+00 -0.8704048127374E+00  0.0000000000000E+00
 0.1807379649337E+00 -0.7830948867202E+00  0.0000000000000E+00
 0.1814406003287E+00 -0.6957980894664E+00  0.0000000000000E+00
 0.1822661582854E+00 -0.6085172634995E+00  0.0000000000000E+00
 0.1831945479491E+00 -0.5212518273559E+00  0.0000000000000E+00
 0.1841829232813E+00 -0.4339963158356E+00  0.0000000000000E+00
 0.1851712987046E+00 -0.3467408043163E+00  0.0000000000000E+00
 0.1860996886299E+00 -0.2594753681753E+00  0.0000000000000E+00
 0.1869252469883E+00 -0.1721945422119E+00  0.0000000000000E+00
 0.1876278828891E+00 -0.8489774496185E-01  0.0000000000000E+00
 0.1882053817065E+00  0.2412181052021E-02  0.0000000000000E+00
 0.1886656148037E+00  0.8973192195995E-01  0.0000000000000E+00
 0.1890205430676E+00  0.1770581659176E+00  0.0000000000000E+00
 0.1892828256947E+00  0.2643884808718E+00  0.0000000000000E+00
 0.1894642621932E+00  0.3517210051896E+00  0.0000000000000E+00
 0.2146612609340E+00 -0.1221108948849E+01  0.0000000000000E+00
 0.2148760629428E+00 -0.1133851331493E+01  0.0000000000000E+00
 0.2151878803187E+00 -0.1046595923475E+01  0.0000000000000E+00
 0.2156108724819E+00 -0.9593445864034E+00  0.0000000000000E+00
 0.2161602304793E+00 -0.8720997524010E+00  0.0000000000000E+00
 0.2168503073985E+00 -0.7848647332192E+00  0.0000000000000E+00
 0.2176905488964E+00 -0.6976428429001E+00  0.0000000000000E+00
 0.2186782974640E+00 -0.6104369237968E+00  0.0000000000000E+00
 0.2197894440653E+00 -0.5232463945975E+00  0.0000000000000E+00
 0.2209725734523E+00 -0.4360657900476E+00  0.0000000000000E+00
 0.2221557029306E+00 -0.3488851854990E+00  0.0000000000000E+00
 0.2232668497935E+00 -0.2616946563028E+00  0.0000000000000E+00
 0.2242545987627E+00 -0.1744887372037E+00  0.0000000000000E+00
 0.2250948407665E+00 -0.8726684688914E-01  0.0000000000000E+00
 0.2257849182636E+00 -0.3182771130406E-04  0.0000000000000E+00
 0.2263342768860E+00  0.8721300628769E-01  0.0000000000000E+00
 0.2267572697036E+00  0.1744643433570E+00  0.0000000000000E+00
 0.2270690877509E+00  0.2617197513733E+00  0.0000000000000E+00
 0.2272838904400E+00  0.3489773687279E+00  0.0000000000000E+00
 0.2504096942013E+00 -0.1222757177511E+01  0.0000000000000E+00
 0.2506562837339E+00 -0.1135587872533E+01  0.0000000000000E+00
 0.2510160578632E+00 -0.1048420776863E+01  0.0000000000000E+00
 0.2515055359137E+00 -0.9612577520800E+00  0.0000000000000E+00
 0.2521424407689E+00 -0.8741012303908E+00  0.0000000000000E+00
 0.2529435177012E+00 -0.7869545234362E+00  0.0000000000000E+00
 0.2539197866326E+00 -0.6998209454615E+00  0.0000000000000E+00
 0.2550681471422E+00 -0.6127033386189E+00  0.0000000000000E+00
 0.2563604720100E+00 -0.5256011217751E+00  0.0000000000000E+00
 0.2577367767798E+00 -0.4385088296118E+00  0.0000000000000E+00
 0.2591130816408E+00 -0.3514165374499E+00  0.0000000000000E+00
 0.2604054067703E+00 -0.2643143206098E+00  0.0000000000000E+00
 0.2615537676815E+00 -0.1771967137720E+00  0.0000000000000E+00
 0.2625300371188E+00 -0.9006313580257E-01  0.0000000000000E+00
 0.2633311146290E+00 -0.2916428852618E-02  0.0000000000000E+00
 0.2639680201092E+00  0.8424009283257E-01  0.0000000000000E+00
 0.2644574988141E+00  0.1714031176123E+00  0.0000000000000E+00
 0.2648172736148E+00  0.2585702132807E+00  0.0000000000000E+00
 0.2650638638277E+00  0.3457395182575E+00  0.0000000000000E+00
 0.2861450497528E+00 -0.1224657937658E+01  0.0000000000000E+00
 0.2864215954848E+00 -0.1137590245005E+01  0.0000000000000E+00
 0.2868274950427E+00 -0.1050524761626E+01  0.0000000000000E+00
 0.2873816276554E+00 -0.9634633490672E+00  0.0000000000000E+00
 0.2881042480409E+00 -0.8764084396296E+00  0.0000000000000E+00
 0.2890144936591E+00 -0.7893633448277E+00  0.0000000000000E+00
 0.2901249586923E+00 -0.7023313791405E+00  0.0000000000000E+00
 0.2914320998121E+00 -0.6153153844889E+00  0.0000000000000E+00
 0.2929037716112E+00 -0.5283147799456E+00  0.0000000000000E+00
 0.2944714204269E+00 -0.4413241001183E+00  0.0000000000000E+00
 0.2960390693338E+00 -0.3543334202925E+00  0.0000000000000E+00
 0.2975107413944E+00 -0.2673328157534E+00  0.0000000000000E+00
 0.2988178829159E+00 -0.1803168211074E+00  0.0000000000000E+00
 0.2999283484550E+00 -0.9328485542617E-01  0.0000000000000E+00
 0.3008385946511E+00 -0.6239760629561E-02  0.0000000000000E+00
 0.3015612156617E+00  0.8081514880343E-01  0.0000000000000E+00
 0.3021153489287E+00  0.1678765613589E+00  0.0000000000000E+00
 0.3025212491580E+00  0.2549420447359E+00  0.0000000000000E+00
 0.3027977955703E+00  0.3420097373869E+00  0.0000000000000E+00
 0.3218654950076E+00 -0.1226810786673E+01  0.0000000000000E+00
 0.3221699194030E+00 -0.1139857885942E+01  0.0000000000000E+00
 0.3226198668546E+00 -0.1052907194445E+01  0.0000000000000E+00
 0.3232365764971E+00 -0.9659605736929E+00  0.0000000000000E+00
 0.3240428348810E+00 -0.8790204560934E+00  0.0000000000000E+00
 0.3250601716561E+00 -0.7920901530176E+00  0.0000000000000E+00
 0.3263027552606E+00 -0.7051729792090E+00  0.0000000000000E+00
 0.3277665994632E+00 -0.6182717763270E+00  0.0000000000000E+00
 0.3294155406647E+00 -0.5313859636768E+00  0.0000000000000E+00
 0.3311724559974E+00 -0.4445100757828E+00  0.0000000000000E+00
 0.3329293714212E+00 -0.3576341878906E+00  0.0000000000000E+00
 0.3345783128843E+00 -0.2707483752451E+00  0.0000000000000E+00
 0.3360421574886E+00 -0.1838471723695E+00  0.0000000000000E+00
 0.3372847415990E+00 -0.9692999856756E-01  0.0000000000000E+00
 0.3383020789519E+00 -0.9999695497830E-02  0.0000000000000E+00
 0.3391083379610E+00  0.7694042209661E-01  0.0000000000000E+00
 0.3397250482577E+00  0.1638870428451E+00  0.0000000000000E+00
 0.3401749963809E+00  0.2508377343392E+00  0.0000000000000E+00
 0.3404794214564E+00  0.3377906350684E+00  0.0000000000000E+00
 0.3575692103522E+00 -0.1229215225492E+01  0.0000000000000E+00
 0.3578991955492E+00 -0.1142390161481E+01  0.0000000000000E+00
 0.3583908730369E+00 -0.1055567306661E+01  0.0000000000000E+00
 0.3590678418560E+00 -0.9687485225011E+00  0.0000000000000E+00
 0.3599554203886E+00 -0.8819362415286E+00  0.0000000000000E+00
 0.3610775304771E+00 -0.7951337749554E+00  0.0000000000000E+00
 0.3624499148109E+00 -0.7083444378190E+00  0.0000000000000E+00
 0.3640681442610E+00 -0.6215710714880E+00  0.0000000000000E+00
 0.3658920370309E+00 -0.5348130955263E+00  0.0000000000000E+00
 0.3678359010477E+00 -0.4480650443656E+00  0.0000000000000E+00
 0.3697797651558E+00 -0.3613169932067E+00  0.0000000000000E+00
 0.3716036581872E+00 -0.2745590172503E+00  0.0000000000000E+00
 0.3732218880390E+00 -0.1877856509263E+00  0.0000000000000E+00
 0.3745942728787E+00 -0.1009963137974E+00  0.0000000000000E+00
 0.3757163835452E+00 -0.1419384723091E-01  0.0000000000000E+00
 0.3766039627027E+00  0.7261843373593E-01  0.0000000000000E+00
 0.3772809321762E+00  0.1594372178920E+00  0.0000000000000E+00
 0.3777726103353E+00  0.2462600727091E+00  0.0000000000000E+00
 0.3781025962126E+00  0.3330851367181E+00  0.0000000000000E+00
 0.3932543904037E+00 -0.1231870699439E+01  0.0000000000000E+00
 0.3936073839619E+00 -0.1145186368159E+01  0.0000000000000E+00
 0.3941382390479E+00 -0.1058504246021E+01  0.0000000000000E+00
 0.3948729146103E+00 -0.9718261944503E+00  0.0000000000000E+00
 0.3958392608602E+00 -0.8851546461056E+00  0.0000000000000E+00
 0.3970635918366E+00 -0.7984929120234E+00  0.0000000000000E+00
 0.3985632244741E+00 -0.7118443075646E+00  0.0000000000000E+00
 0.4003332867518E+00 -0.6252116737778E+00  0.0000000000000E+00
 0.4023295786701E+00 -0.5385944305118E+00  0.0000000000000E+00
 0.4044578389521E+00 -0.4519871120958E+00  0.0000000000000E+00
 0.4065860993252E+00 -0.3653797936820E+00  0.0000000000000E+00
 0.4085823915051E+00 -0.2787625504218E+00  0.0000000000000E+00
 0.4103524541845E+00 -0.1921299166427E+00  0.0000000000000E+00
 0.4118520873278E+00 -0.1054813121922E+00  0.0000000000000E+00
 0.4130764188822E+00 -0.1881957811723E-01  0.0000000000000E+00
 0.4140427657571E+00  0.6785197022115E-01  0.0000000000000E+00
 0.4147774419739E+00  0.1545300217875E+00  0.0000000000000E+00
 0.4153082977314E+00  0.2412121439217E+00  0.0000000000000E+00
 0.4156612919698E+00  0.3278964752003E+00  0.0000000000000E+00
 0.4289192336032E+00 -0.1234776598240E+01  0.0000000000000E+00
 0.4292924555389E+00 -0.1148245733549E+01  0.0000000000000E+00
 0.4298597082370E+00 -0.1061717077950E+01  0.0000000000000E+00
 0.4306493105539E+00 -0.9751924928149E+00  0.0000000000000E+00
 0.4316916445264E+00 -0.8886744109484E+00  0.0000000000000E+00
 0.4330154163933E+00 -0.8021661431949E+00  0.0000000000000E+00
 0.4346395173275E+00 -0.7156710052686E+00  0.0000000000000E+00
 0.4365586324225E+00 -0.6291918378687E+00  0.0000000000000E+00
 0.4387245434713E+00 -0.5427280611548E+00  0.0000000000000E+00
 0.4410344199965E+00 -0.4562742093445E+00  0.0000000000000E+00
 0.4433442966129E+00 -0.3698203575366E+00  0.0000000000000E+00
 0.4455102079233E+00 -0.2833565808289E+00  0.0000000000000E+00
 0.4474293234200E+00 -0.1968774134374E+00  0.0000000000000E+00
 0.4490534248601E+00 -0.1103822755201E+00  0.0000000000000E+00
 0.4503771973049E+00 -0.2387400777464E-01  0.0000000000000E+00
 0.4514195319025E+00  0.6264407408500E-01  0.0000000000000E+00
 0.4522091348738E+00  0.1491686592148E+00  0.0000000000000E+00
 0.4527763882432E+00  0.2356973148111E+00  0.0000000000000E+00
 0.4531496108593E+00  0.3222281794997E+00  0.0000000000000E+00
 0.4645619687765E+00 -0.1237932259164E+01  0.0000000000000E+00
 0.4649524210827E+00 -0.1151567420505E+01  0.0000000000000E+00
 0.4655530733909E+00 -0.1065204790881E+01  0.0000000000000E+00
 0.4663946044674E+00 -0.9788462316122E+00  0.0000000000000E+00
 0.4675099281727E+00 -0.8924941756571E+00  0.0000000000000E+00
 0.4689301429494E+00 -0.8061519336535E+00  0.0000000000000E+00
 0.4706757142023E+00 -0.7198228216974E+00  0.0000000000000E+00
 0.4727408841464E+00 -0.6335096801102E+00  0.0000000000000E+00
 0.4750734163596E+00 -0.5472119293876E+00  0.0000000000000E+00
 0.4775619111642E+00 -0.4609241036267E+00  0.0000000000000E+00
 0.4800504060600E+00 -0.3746362778683E+00  0.0000000000000E+00
 0.4823829385348E+00 -0.2883385271526E+00  0.0000000000000E+00
 0.4844481088806E+00 -0.2020253855745E+00  0.0000000000000E+00
 0.4861936806394E+00 -0.1156962736281E+00  0.0000000000000E+00
 0.4876138959940E+00 -0.2935403163311E-01  0.0000000000000E+00
 0.4887292203243E+00  0.5699802431457E-01  0.0000000000000E+00
 0.4895707520552E+00  0.1433565835781E+00  0.0000000000000E+00
 0.4901714050349E+00  0.2297192131983E+00  0.0000000000000E+00
 0.4905618580214E+00  0.3160840518546E+00  0.0000000000000E+00
 0.5001808504803E+00 -0.1241336967453E+01  0.0000000000000E+00
 0.5005853201167E+00 -0.1155150527090E+01  0.0000000000000E+00
 0.5012161589915E+00 -0.1068966295702E+01  0.0000000000000E+00
 0.5021064057811E+00 -0.9827861345503E+00  0.0000000000000E+00
 0.5032915061658E+00 -0.8966124767617E+00  0.0000000000000E+00
 0.5048049507956E+00 -0.8104486327508E+00  0.0000000000000E+00
 0.5066687792994E+00 -0.7242979190243E+00  0.0000000000000E+00
 0.5088767910208E+00 -0.6381631754975E+00  0.0000000000000E+00
 0.5113727313176E+00 -0.5520438230273E+00  0.0000000000000E+00
 0.5140366313163E+00 -0.4659343955811E+00  0.0000000000000E+00
 0.5167005314062E+00 -0.3798249681376E+00  0.0000000000000E+00
 0.5191964719646E+00 -0.2937056156747E+00  0.0000000000000E+00
 0.5214044840877E+00 -0.2075708721577E+00  0.0000000000000E+00
 0.5232683130974E+00 -0.1214201584418E+00  0.0000000000000E+00
 0.5247817583051E+00 -0.3525631444021E-01  0.0000000000000E+00
 0.5259668593148E+00  0.5091734334048E-01  0.0000000000000E+00
 0.5268571067588E+00  0.1370975044860E+00  0.0000000000000E+00
 0.5274879463051E+00  0.2232817358704E+00  0.0000000000000E+00
 0.5278924166218E+00  0.3094681762305E+00  0.0000000000000E+00
 0.5357741492561E+00 -0.1244989957511E+01  0.0000000000000E+00
 0.5361892220105E+00 -0.1158994090209E+01  0.0000000000000E+00
 0.5368468332483E+00 -0.1073000431817E+01  0.0000000000000E+00
 0.5377823815580E+00 -0.9870108435357E+00  0.0000000000000E+00
 0.5390338444379E+00 -0.9010277586693E+00  0.0000000000000E+00
 0.5406371047507E+00 -0.8150544873953E+00  0.0000000000000E+00
 0.5426157763422E+00 -0.7290943466587E+00  0.0000000000000E+00
 0.5449632156924E+00 -0.6431501759410E+00  0.0000000000000E+00
 0.5476191499298E+00 -0.5572213964849E+00  0.0000000000000E+00
 0.5504550409842E+00 -0.4713025421194E+00  0.0000000000000E+00
 0.5532909321297E+00 -0.3853836877569E+00  0.0000000000000E+00
 0.5559468666287E+00 -0.2994549083086E+00  0.0000000000000E+00
 0.5582943063805E+00 -0.2135107376014E+00  0.0000000000000E+00
 0.5602729784780E+00 -0.1275505968760E+00  0.0000000000000E+00
 0.5618762393687E+00 -0.4157732561200E-01  0.0000000000000E+00
 0.5631277028737E+00  0.4440575924581E-01  0.0000000000000E+00
 0.5640632518377E+00  0.1303953475209E+00  0.0000000000000E+00
 0.5647208637470E+00  0.2163890059088E+00  0.0000000000000E+00
 0.5651359371817E+00  0.3023848732079E+00  0.0000000000000E+00
 0.5713401499894E+00 -0.1248890412545E+01  0.0000000000000E+00
 0.5717622119691E+00 -0.1163097083611E+01  0.0000000000000E+00
 0.5724429816650E+00 -0.1077305963517E+01  0.0000000000000E+00
 0.5734202175769E+00 -0.9915189134002E+00  0.0000000000000E+00
 0.5747344290158E+00 -0.9057383667540E+00  0.0000000000000E+00
 0.5764238910593E+00 -0.8199676335031E+00  0.0000000000000E+00
 0.5785137917608E+00 -0.7342100310583E+00  0.0000000000000E+00
 0.5809970447448E+00 -0.6484683984404E+00  0.0000000000000E+00
 0.5838093589073E+00 -0.5627421573021E+00  0.0000000000000E+00
 0.5868136269902E+00 -0.4770258413251E+00  0.0000000000000E+00
 0.5898178951644E+00 -0.3913095253513E+00  0.0000000000000E+00
 0.5926302095884E+00 -0.3055832842213E+00  0.0000000000000E+00
 0.5951134629742E+00 -0.2198416516146E+00  0.0000000000000E+00
 0.5972033641815E+00 -0.1340840491819E+00  0.0000000000000E+00
 0.5988928268029E+00 -0.4831331594156E-01  0.0000000000000E+00
 0.6002070388669E+00  0.3746723069555E-01  0.0000000000000E+00
 0.6011842754332E+00  0.1232542808057E+00  0.0000000000000E+00
 0.6018650458005E+00  0.2090454008946E+00  0.0000000000000E+00
 0.6022871084605E+00  0.2948387298263E+00  0.0000000000000E+00
 0.6068771371579E+00 -0.1253037465844E+01  0.0000000000000E+00
 0.6073023971197E+00 -0.1167458424002E+01  0.0000000000000E+00
 0.6080025340419E+00 -0.1081881590927E+01  0.0000000000000E+00
 0.6090176663387E+00 -0.9963088276876E+00  0.0000000000000E+00
 0.6103908351315E+00 -0.9107425679775E+00  0.0000000000000E+00
 0.6121627077193E+00 -0.8251861214541E+00  0.0000000000000E+00
 0.6143600463551E+00 -0.7396428060213E+00  0.0000000000000E+00
 0.6169753218167E+00 -0.6541154602123E+00  0.0000000000000E+00
 0.6199402247568E+00 -0.5686035061133E+00  0.0000000000000E+00
 0.6231090787274E+00 -0.4831014772506E+00  0.0000000000000E+00
 0.6262779327892E+00 -0.3975994483912E+00  0.0000000000000E+00
 0.6292428359909E+00 -0.3120874943012E+00  0.0000000000000E+00
 0.6318581118542E+00 -0.2265601485040E+00  0.0000000000000E+00
 0.6340554509959E+00 -0.1410168330840E+00  0.0000000000000E+00
 0.6358273241616E+00 -0.5546038657190E-01  0.0000000000000E+00
 0.6372004935795E+00  0.3010587312856E-01  0.0000000000000E+00
 0.6382156265306E+00  0.1156786363610E+00  0.0000000000000E+00
 0.6389157641243E+00  0.2012554694305E+00  0.0000000000000E+00
 0.6393410247663E+00  0.2868345112703E+00  0.0000000000000E+00
 0.6423834709618E+00 -0.1257430208361E+01  0.0000000000000E+00
 0.6428079579416E+00 -0.1172076974739E+01  0.0000000000000E+00
 0.6435234911376E+00 -0.1086725949808E+01  0.0000000000000E+00
 0.6445725488804E+00 -0.1001378994563E+01  0.0000000000000E+00
 0.6460007041001E+00 -0.9160385429092E+00  0.0000000000000E+00
 0.6478510163235E+00 -0.8307079042225E+00  0.0000000000000E+00
 0.6501518219949E+00 -0.7453903969262E+00  0.0000000000000E+00
 0.6528951490542E+00 -0.6600888590394E+00  0.0000000000000E+00
 0.6560086699003E+00 -0.5748027131058E+00  0.0000000000000E+00
 0.6593381388929E+00 -0.4895264924872E+00  0.0000000000000E+00
 0.6626676079766E+00 -0.4042502718721E+00  0.0000000000000E+00
 0.6657811290843E+00 -0.3189641259479E+00  0.0000000000000E+00
 0.6685244565453E+00 -0.2336625880737E+00  0.0000000000000E+00
 0.6708252627226E+00 -0.1483450807910E+00  0.0000000000000E+00
 0.6726755755239E+00 -0.6301444211619E-01  0.0000000000000E+00
 0.6741037313687E+00  0.2232600952730E-01  0.0000000000000E+00
 0.6751527897659E+00  0.1076729647648E+00  0.0000000000000E+00
 0.6758683236333E+00  0.1930239896902E+00  0.0000000000000E+00
 0.6762928112935E+00  0.2783772233094E+00  0.0000000000000E+00
 0.6778575079345E+00 -0.1262067681820E+01  0.0000000000000E+00
 0.6782770771087E+00 -0.1176951540526E+01  0.0000000000000E+00
 0.6790038617375E+00 -0.1091837607843E+01  0.0000000000000E+00
 0.6800827000673E+00 -0.1006727744689E+01  0.0000000000000E+00
 0.6815616968295E+00 -0.9216243851913E+00  0.0000000000000E+00
 0.6834863037813E+00 -0.8365308384297E+00  0.0000000000000E+00
 0.6858864315472E+00 -0.7514504233734E+00  0.0000000000000E+00
 0.6887536652390E+00 -0.6663859775017E+00  0.0000000000000E+00
 0.6920116589981E+00 -0.5813369238382E+00  0.0000000000000E+00
 0.6954975980043E+00 -0.4962977955727E+00  0.0000000000000E+00
 0.6989835371017E+00 -0.4112586673108E+00  0.0000000000000E+00
 0.7022415311224E+00 -0.3262096136574E+00  0.0000000000000E+00
 0.7051087652158E+00 -0.2411451677989E+00  0.0000000000000E+00
 0.7075088934877E+00 -0.1560647527569E+00  0.0000000000000E+00
 0.7094335010174E+00 -0.7097120600793E-01  0.0000000000000E+00
 0.7109124984047E+00  0.1413215347913E-01  0.0000000000000E+00
 0.7119913373889E+00  0.9924201662545E-01  0.0000000000000E+00
 0.7127181226891E+00  0.1843559493029E+00  0.0000000000000E+00
 0.7131376925436E+00  0.2694720905938E+00  0.0000000000000E+00
-0.1461382977135E+01 -0.1366969715354E+01  0.0000000000000E+00
-0.1536838318740E+01 -0.1251434914183E+01  0.0000000000000E+00
-0.1612772383862E+01 -0.1136216660518E+01  0.0000000000000E+00
-0.1682662190134E+01 -0.1017118437211E+01  0.0000000000000E+00
-0.1744352422289E+01 -0.8934077853993E+00  0.0000000000000E+00
-0.1798213558619E+01 -0.7659621724060E+00  0.0000000000000E+00
-0.1844158474103E+01 -0.6353520178781E+00  0.0000000000000E+00
-0.1881388018209E+01 -0.5019106555406E+00  0.0000000000000E+00
-0.1909838253907E+01 -0.3662625943974E+00  0.0000000000000E+00
-0.1928756468757E+01 -0.2289268443260E+00  0.0000000000000E+00
-0.1936610695830E+01 -0.9050316094402E-01  0.0000000000000E+00
-0.1935962495635E+01  0.4816323147748E-01  0.0000000000000E+00
-0.1915746975476E+01  0.1850134490903E+00  0.0000000000000E+00
-0.1866398119172E+01  0.3140157130469E+00  0.0000000000000E+00
-0.1794320744535E+01  0.4315254877347E+00  0.0000000000000E+00
-0.1705912240744E+01  0.5369275948221E+00  0.0000000000000E+00
-0.1607092793437E+01  0.6322756433932E+00  0.0000000000000E+00
-0.1500783670345E+01  0.7188137666816E+00  0.0000000000000E+00
-0.1388289662873E+01  0.7967110478414E+00  0.0000000000000E+00
-0.1422429226874E+01 -0.1359767065380E+01  0.0000000000000E+00
-0.1493912765281E+01 -0.1245948355879E+01  0.0000000000000E+00
-0.1565866851627E+01 -0.1132429649044E+01  0.0000000000000E+00
-0.1632114304946E+01 -0.1015235383770E+01  0.0000000000000E+00
-0.1690615909786E+01 -0.8936717932586E+00  0.0000000000000E+00
-0.1741725163678E+01 -0.7685703365138E+00  0.0000000000000E+00
-0.1785361184768E+01 -0.6404715832861E+00  0.0000000000000E+00
-0.1820766416911E+01 -0.5096914726017E+00  0.0000000000000E+00
-0.1847876058184E+01 -0.3768216156395E+00  0.0000000000000E+00
-0.1865967993324E+01 -0.2423534138595E+00  0.0000000000000E+00
-0.1873578256475E+01 -0.1068545354329E+00  0.0000000000000E+00
-0.1873120957503E+01  0.2887478878923E-01  0.0000000000000E+00
-0.1854104576422E+01  0.1628844644037E+00  0.0000000000000E+00
-0.1807462310472E+01  0.2894600596444E+00  0.0000000000000E+00
-0.1739261410714E+01  0.4051486846621E+00  0.0000000000000E+00
-0.1655564219598E+01  0.5093673682636E+00  0.0000000000000E+00
-0.1561981855766E+01  0.6040614774211E+00  0.0000000000000E+00
-0.1461284503982E+01  0.6904095498839E+00  0.0000000000000E+00
-0.1354710767645E+01  0.7685716769124E+00  0.0000000000000E+00
-0.1383422395682E+01 -0.1352772899744E+01  0.0000000000000E+00
-0.1450936926762E+01 -0.1240659305974E+01  0.0000000000000E+00
-0.1518913830188E+01 -0.1128829170111E+01  0.0000000000000E+00
-0.1581521725986E+01 -0.1013527888229E+01  0.0000000000000E+00
-0.1636837498850E+01 -0.8941003841387E+00  0.0000000000000E+00
-0.1685197665562E+01 -0.7713321085327E+00  0.0000000000000E+00
-0.1726527587358E+01 -0.6457337815459E+00  0.0000000000000E+00
-0.1760111302466E+01 -0.5176039475250E+00  0.0000000000000E+00
-0.1785883144110E+01 -0.3875013196816E+00  0.0000000000000E+00
-0.1803151594074E+01 -0.2558896915364E+00  0.0000000000000E+00
-0.1810520687586E+01 -0.1233046437126E+00  0.0000000000000E+00
-0.1810257084305E+01  0.9498587900696E-02  0.0000000000000E+00
-0.1792442632968E+01  0.1406786833209E+00  0.0000000000000E+00
-0.1748509748075E+01  0.2648385733975E+00  0.0000000000000E+00
-0.1684188114646E+01  0.3787170164180E+00  0.0000000000000E+00
-0.1605205028395E+01  0.4817632478827E+00  0.0000000000000E+00
-0.1516862540600E+01  0.5758143908855E+00  0.0000000000000E+00
-0.1421779752733E+01  0.6619833862764E+00  0.0000000000000E+00
-0.1321129080072E+01  0.7404213328697E+00  0.0000000000000E+00
-0.1344363461517E+01 -0.1345988511677E+01  0.0000000000000E+00
-0.1407911724722E+01 -0.1235568989505E+01  0.0000000000000E+00
-0.1471914184652E+01 -0.1125416380539E+01  0.0000000000000E+00
-0.1530885262298E+01 -0.1011997039425E+01  0.0000000000000E+00
-0.1583017942955E+01 -0.8946945791509E+00  0.0000000000000E+00
-0.1628631762636E+01 -0.7742484420609E+00  0.0000000000000E+00
-0.1667658325614E+01 -0.6511394989236E+00  0.0000000000000E+00
-0.1699423264513E+01 -0.5256488994063E+00  0.0000000000000E+00
-0.1723860047741E+01 -0.3983024585749E+00  0.0000000000000E+00
-0.1740307754039E+01 -0.2695363624626E+00  0.0000000000000E+00
-0.1747438419795E+01 -0.1398541040076E+00  0.0000000000000E+00
-0.1747371254740E+01 -0.9965922536359E-02  0.0000000000000E+00
-0.1730761473034E+01  0.1183956213862E+00  0.0000000000000E+00
-0.1689540710730E+01  0.2401508372010E+00  0.0000000000000E+00
-0.1629101087155E+01  0.3522301339270E+00  0.0000000000000E+00
-0.1554834850913E+01  0.4541149533462E+00  0.0000000000000E+00
-0.1471734985227E+01  0.5475341727792E+00  0.0000000000000E+00
-0.1382269507802E+01  0.6335351346815E+00  0.0000000000000E+00
-0.1287544645600E+01  0.7122599448561E+00  0.0000000000000E+00
-0.1305253595826E+01 -0.1339415213000E+01  0.0000000000000E+00
-0.1364838274543E+01 -0.1230678649356E+01  0.0000000000000E+00
-0.1424868974351E+01 -0.1122192454299E+01  0.0000000000000E+00
-0.1480205916758E+01 -0.1010643942172E+01  0.0000000000000E+00
-0.1529158187961E+01 -0.8954554136531E+00  0.0000000000000E+00
-0.1572028343215E+01 -0.7773203027582E+00  0.0000000000000E+00
-0.1608754229756E+01 -0.6566896311765E+00  0.0000000000000E+00
-0.1638703074586E+01 -0.5338271539178E+00  0.0000000000000E+00
-0.1661807481336E+01 -0.4092257877632E+00  0.0000000000000E+00
-0.1677437125571E+01 -0.2832941117465E+00  0.0000000000000E+00
-0.1684332044841E+01 -0.1565035310225E+00  0.0000000000000E+00
-0.1684463999390E+01 -0.2951928680034E-01  0.0000000000000E+00
-0.1669061564887E+01  0.9603480454536E-01  0.0000000000000E+00
-0.1630555602536E+01  0.2153964467291E+00  0.0000000000000E+00
-0.1574000666711E+01  0.3256877018770E+00  0.0000000000000E+00
-0.1504453958951E+01  0.4264222175976E+00  0.0000000000000E+00
-0.1426599394119E+01  0.5192206236651E+00  0.0000000000000E+00
-0.1342753905869E+01  0.6050646627177E+00  0.0000000000000E+00
-0.1253957532744E+01  0.6840874469890E+00  0.0000000000000E+00
-0.1266093896943E+01 -0.1333054270719E+01  0.0000000000000E+00
-0.1321717616255E+01 -0.1225989485819E+01  0.0000000000000E+00
-0.1377779181010E+01 -0.1119158524968E+01  0.0000000000000E+00
-0.1429484612826E+01 -0.1009469663358E+01  0.0000000000000E+00
-0.1475259099109E+01 -0.8963838878734E+00  0.0000000000000E+00
-0.1515388214367E+01 -0.7805486242106E+00  0.0000000000000E+00
-0.1549816048729E+01 -0.6623850452667E+00  0.0000000000000E+00
-0.1577951423558E+01 -0.5421395114141E+00  0.0000000000000E+00
-0.1599726077743E+01 -0.4202720410058E+00  0.0000000000000E+00
-0.1614540283554E+01 -0.2971636065640E+00  0.0000000000000E+00
-0.1621202079703E+01 -0.1732535253581E+00  0.0000000000000E+00
-0.1621535777370E+01 -0.4916203891051E-01  0.0000000000000E+00
-0.1607343309956E+01  0.7359576528685E-01  0.0000000000000E+00
-0.1571554767384E+01  0.1905750010332E+00  0.0000000000000E+00
-0.1518887139772E+01  0.2990893859719E+00  0.0000000000000E+00
-0.1454062581599E+01  0.3986847730844E+00  0.0000000000000E+00
-0.1381455939042E+01  0.4908735428029E+00  0.0000000000000E+00
-0.1303233061414E+01  0.5765718365090E+00  0.0000000000000E+00
-0.1220367798727E+01  0.6559037723053E+00  0.0000000000000E+00
-0.1226885434598E+01 -0.1326906918420E+01  0.0000000000000E+00
-0.1278550759514E+01 -0.1221502667451E+01  0.0000000000000E+00
-0.1330645754203E+01 -0.1116315696059E+01  0.0000000000000E+00
-0.1378722240279E+01 -0.1008475241632E+01  0.0000000000000E+00
-0.1421321506754E+01 -0.8974809757901E+00  0.0000000000000E+00
-0.1458712147377E+01 -0.7839343158880E+00  0.0000000000000E+00
-0.1490844495113E+01 -0.6682265862935E+00  0.0000000000000E+00
-0.1517168965702E+01 -0.5505867527475E+00  0.0000000000000E+00
-0.1537616433326E+01 -0.4314419350033E+00  0.0000000000000E+00
-0.1551617766864E+01 -0.3111454995403E+00  0.0000000000000E+00
-0.1558049006250E+01 -0.1901046756128E+00  0.0000000000000E+00
-0.1558587013893E+01 -0.6889470344107E-01  0.0000000000000E+00
-0.1545607077695E+01  0.5107804305651E-01  0.0000000000000E+00
-0.1512538520197E+01  0.1656861039298E+00  0.0000000000000E+00
-0.1463760767663E+01  0.2724348549213E+00  0.0000000000000E+00
-0.1403660927249E+01  0.3709023539556E+00  0.0000000000000E+00
-0.1336304775877E+01  0.4624927302273E+00  0.0000000000000E+00
-0.1263707078111E+01  0.5480565223604E+00  0.0000000000000E+00
-0.1186775495267E+01  0.6277088537534E+00  0.0000000000000E+00
-0.1187629395366E+01 -0.1320974386387E+01  0.0000000000000E+00
-0.1235338830454E+01 -0.1217219359810E+01  0.0000000000000E+00
-0.1283469759628E+01 -0.1113665068416E+01  0.0000000000000E+00
-0.1327919804237E+01 -0.1007661713037E+01  0.0000000000000E+00
-0.1367346355235E+01 -0.8987476485388E+00  0.0000000000000E+00
-0.1402001025609E+01 -0.7874782839299E+00  0.0000000000000E+00
-0.1431840391102E+01 -0.6742150953269E+00  0.0000000000000E+00
-0.1456356461827E+01 -0.5591696538526E+00  0.0000000000000E+00
-0.1475479247296E+01 -0.4427361805032E+00  0.0000000000000E+00
-0.1488670212889E+01 -0.3252404361983E+00  0.0000000000000E+00
-0.1494873399790E+01 -0.2070575620616E+00  0.0000000000000E+00
-0.1495618221986E+01 -0.8871779540677E-01  0.0000000000000E+00
-0.1483853318484E+01  0.2848118797714E-01  0.0000000000000E+00
-0.1453507248027E+01  0.1407293705068E+00  0.0000000000000E+00
-0.1408621873567E+01  0.2457237885353E+00  0.0000000000000E+00
-0.1353249254825E+01  0.3430747044833E+00  0.0000000000000E+00
-0.1291146099045E+01  0.4340779944504E+00  0.0000000000000E+00
-0.1224176085705E+01  0.5195185928221E+00  0.0000000000000E+00
-0.1153180687300E+01  0.5995026277207E+00  0.0000000000000E+00
-0.1148326976788E+01 -0.1315257877050E+01  0.0000000000000E+00
-0.1192082964804E+01 -0.1213140702054E+01  0.0000000000000E+00
-0.1236252271205E+01 -0.1111207717923E+01  0.0000000000000E+00
-0.1277078316727E+01 -0.1007030090139E+01  0.0000000000000E+00
-0.1313334594560E+01 -0.9001848553013E+00  0.0000000000000E+00
-0.1345255736939E+01 -0.7911814140789E+00  0.0000000000000E+00
-0.1372804562317E+01 -0.6803513946257E+00  0.0000000000000E+00
-0.1395514675171E+01 -0.5678889734651E+00  0.0000000000000E+00
-0.1413315220375E+01 -0.4541554726861E+00  0.0000000000000E+00
-0.1425698259699E+01 -0.3394490481422E+00  0.0000000000000E+00
-0.1431675835588E+01 -0.2241127527187E+00  0.0000000000000E+00
-0.1432629913986E+01 -0.1086318192211E+00  0.0000000000000E+00
-0.1422082481537E+01  0.5804759131052E-02  0.0000000000000E+00
-0.1394461336550E+01  0.1157044232416E+00  0.0000000000000E+00
-0.1353470779282E+01  0.2189558725478E+00  0.0000000000000E+00
-0.1302827821999E+01  0.3152015735085E+00  0.0000000000000E+00
-0.1245980101937E+01  0.4056291472893E+00  0.0000000000000E+00
-0.1184640213205E+01  0.4909579225658E+00  0.0000000000000E+00
-0.1119583439366E+01  0.5712850316116E+00  0.0000000000000E+00
-0.1108979375216E+01 -0.1309758562184E+01  0.0000000000000E+00
-0.1148784295643E+01 -0.1209267804259E+01  0.0000000000000E+00
-0.1188994358740E+01 -0.1108944692962E+01  0.0000000000000E+00
-0.1226198784311E+01 -0.1006581359642E+01  0.0000000000000E+00
-0.1259287168077E+01 -0.9017935211183E+00  0.0000000000000E+00
-0.1288477161522E+01 -0.7950445697246E+00  0.0000000000000E+00
-0.1313737825754E+01 -0.6866362859398E+00  0.0000000000000E+00
-0.1334644359599E+01 -0.5767454517047E+00  0.0000000000000E+00
-0.1351125043330E+01 -0.4657004900490E+00  0.0000000000000E+00
-0.1362702534998E+01 -0.3537719522543E+00  0.0000000000000E+00
-0.1368456878322E+01 -0.2412708028569E+00  0.0000000000000E+00
-0.1369622591563E+01 -0.1286372685415E+00  0.0000000000000E+00
-0.1360295005660E+01 -0.1695167559519E-01  0.0000000000000E+00
-0.1335401161793E+01  0.9061089160135E-01  0.0000000000000E+00
-0.1298307798104E+01  0.1921307980690E+00  0.0000000000000E+00
-0.1252396879368E+01  0.2872827138462E+00  0.0000000000000E+00
-0.1200806972471E+01  0.3771460033088E+00  0.0000000000000E+00
-0.1145099585870E+01  0.4623743879392E+00  0.0000000000000E+00
-0.1085983814086E+01  0.5430560035856E+00  0.0000000000000E+00
-0.1069587807609E+01 -0.1304477586773E+01  0.0000000000000E+00
-0.1105443975430E+01 -0.1205601751120E+01  0.0000000000000E+00
-0.1141697110190E+01 -0.1106877017936E+01  0.0000000000000E+00
-0.1175282230482E+01 -0.1006316485686E+01  0.0000000000000E+00
-0.1205205034859E+01 -0.9035745498883E+00  0.0000000000000E+00
-0.1231666194052E+01 -0.7990685945414E+00  0.0000000000000E+00
-0.1254641011766E+01 -0.6930705527353E+00  0.0000000000000E+00
-0.1273746281175E+01 -0.5857398118447E+00  0.0000000000000E+00
-0.1288909417977E+01 -0.4773718956829E+00  0.0000000000000E+00
-0.1299683676407E+01 -0.3682097514539E+00  0.0000000000000E+00
-0.1305217101473E+01 -0.2585322552314E+00  0.0000000000000E+00
-0.1306596764096E+01 -0.1487346259530E+00  0.0000000000000E+00
-0.1298491336305E+01 -0.3978853868330E-01  0.0000000000000E+00
-0.1276327105409E+01  0.6544841325714E-01  0.0000000000000E+00
-0.1243133247977E+01  0.1652482630036E+00  0.0000000000000E+00
-0.1201956681219E+01  0.2593178837163E+00  0.0000000000000E+00
-0.1155626901319E+01  0.3486283811055E+00  0.0000000000000E+00
-0.1105554330784E+01  0.4337678679626E+00  0.0000000000000E+00
-0.1052381874987E+01  0.5148154831302E+00  0.0000000000000E+00
-0.1030153478891E+01 -0.1299416062439E+01  0.0000000000000E+00
-0.1062063143085E+01 -0.1202143595677E+01  0.0000000000000E+00
-0.1094361598468E+01 -0.1105005687296E+01  0.0000000000000E+00
-0.1124329662344E+01 -0.1006236404253E+01  0.0000000000000E+00
-0.1151089136449E+01 -0.9055288192595E+00  0.0000000000000E+00
-0.1174823710759E+01 -0.8032543079536E+00  0.0000000000000E+00
-0.1195514931520E+01 -0.6996549563073E+00  0.0000000000000E+00
-0.1212821186271E+01 -0.5948727571351E+00  0.0000000000000E+00
-0.1226669026167E+01 -0.4891703348581E+00  0.0000000000000E+00
-0.1236642301545E+01 -0.3827630330845E+00  0.0000000000000E+00
-0.1241957058761E+01 -0.2758976392924E+00  0.0000000000000E+00
-0.1243552921638E+01 -0.1689243630130E+00  0.0000000000000E+00
-0.1236671900503E+01 -0.6270624381806E-01  0.0000000000000E+00
-0.1217239532245E+01  0.4021663263883E-01  0.0000000000000E+00
-0.1187947432191E+01  0.1383079702589E+00  0.0000000000000E+00
-0.1151507469733E+01  0.2313068448822E+00  0.0000000000000E+00
-0.1110440069832E+01  0.3200761016069E+00  0.0000000000000E+00
-0.1066004568682E+01  0.4051382429913E+00  0.0000000000000E+00
-0.1018777682354E+01  0.4865634102839E+00  0.0000000000000E+00
-0.9906777036991E+00 -0.1294575088408E+01  0.0000000000000E+00
-0.1018643046870E+01 -0.1198894379352E+01  0.0000000000000E+00
-0.1046989005467E+01 -0.1103331684666E+01  0.0000000000000E+00
-0.1073342195220E+01 -0.1006342041053E+01  0.0000000000000E+00
-0.1096940521322E+01 -0.9076571968749E+00  0.0000000000000E+00
-0.1117950692994E+01 -0.8076025194146E+00  0.0000000000000E+00
-0.1136360498971E+01 -0.7063902478163E+00  0.0000000000000E+00
-0.1151869921146E+01 -0.6041449803516E+00  0.0000000000000E+00
-0.1164404646165E+01 -0.5010964418930E+00  0.0000000000000E+00
-0.1173579120367E+01 -0.3974323729538E+00  0.0000000000000E+00
-0.1178677391469E+01 -0.2933674723030E+00  0.0000000000000E+00
-0.1180491636525E+01 -0.1892069384262E+00  0.0000000000000E+00
-0.1174837201104E+01 -0.8570519127675E-01  0.0000000000000E+00
-0.1158138874721E+01  0.1491520765000E-01  0.0000000000000E+00
-0.1132750711982E+01  0.1113096355665E+00  0.0000000000000E+00
-0.1101049534424E+01  0.2032493705286E+00  0.0000000000000E+00
-0.1065246695464E+01  0.2914889951333E+00  0.0000000000000E+00
-0.1026450444716E+01  0.3764854001971E+00  0.0000000000000E+00
-0.9851713088512E+00  0.4582997287889E+00  0.0000000000000E+00
-0.9511617699266E+00 -0.1289955725504E+01  0.0000000000000E+00
-0.9751849067139E+00 -0.1195855107115E+01  0.0000000000000E+00
-0.9995804831506E+00 -0.1101855959167E+01  0.0000000000000E+00
-0.1022320913129E+01 -0.1006634289366E+01  0.0000000000000E+00
-0.1042760205564E+01 -0.9099605201844E+00  0.0000000000000E+00
-0.1061048088928E+01 -0.8121140105493E+00  0.0000000000000E+00
-0.1077178594388E+01 -0.7132771530690E+00  0.0000000000000E+00
-0.1090893298189E+01 -0.6135571514881E+00  0.0000000000000E+00
-0.1102117022494E+01 -0.5131508309729E+00  0.0000000000000E+00
-0.1110494809551E+01 -0.4122183294437E+00  0.0000000000000E+00
-0.1115378708452E+01 -0.3109422568459E+00  0.0000000000000E+00
-0.1117413449799E+01 -0.2095827989697E+00  0.0000000000000E+00
-0.1112987711460E+01 -0.1087857720977E+00  0.0000000000000E+00
-0.1099025538536E+01 -0.1045619698468E-01  0.0000000000000E+00
-0.1077543425416E+01  0.8425297945760E-01  0.0000000000000E+00
-0.1050583145725E+01  0.1751452370352E+00  0.0000000000000E+00
-0.1020046981025E+01  0.2628668939426E+00  0.0000000000000E+00
-0.9868920940821E+00  0.3478092277359E+00  0.0000000000000E+00
-0.9515628220696E+00  0.4300243827152E+00  0.0000000000000E+00
-0.9116069872608E+00 -0.1285559004498E+01  0.0000000000000E+00
-0.9316899632209E+00 -0.1193026755469E+01  0.0000000000000E+00
-0.9521372030405E+00 -0.1100579433030E+01  0.0000000000000E+00
-0.9712669185257E+00 -0.1007114017167E+01  0.0000000000000E+00
-0.9885492225798E+00 -0.9124396029110E+00  0.0000000000000E+00
-0.1004116862923E+01 -0.8167895408345E+00  0.0000000000000E+00
-0.1017970113108E+01 -0.7203163773010E+00  0.0000000000000E+00
-0.1029892143722E+01 -0.6231099215445E+00  0.0000000000000E+00
-0.1039806912476E+01 -0.5253340988647E+00  0.0000000000000E+00
-0.1047390057437E+01 -0.4271214450931E+00  0.0000000000000E+00
-0.1052061629091E+01 -0.3286224812346E+00  0.0000000000000E+00
-0.1054318911882E+01 -0.2300523787265E+00  0.0000000000000E+00
-0.1051123913148E+01 -0.1319483661985E+00  0.0000000000000E+00
-0.1039899936456E+01 -0.3589790699629E-01  0.0000000000000E+00
-0.1022325916455E+01  0.5713773042639E-01  0.0000000000000E+00
-0.1000108578797E+01  0.1469942271592E+00  0.0000000000000E+00
-0.9748411328702E+00  0.2342096350805E+00  0.0000000000000E+00
-0.9473296543422E+00  0.3191096169583E+00  0.0000000000000E+00
-0.9179522907849E+00  0.4017373177321E+00  0.0000000000000E+00
-0.8720146866331E+00 -0.1281385925185E+01  0.0000000000000E+00
-0.8881594771479E+00 -0.1190410271569E+01  0.0000000000000E+00
-0.9046603557195E+00 -0.1099503000773E+01  0.0000000000000E+00
-0.9201813318361E+00 -0.1007782066347E+01  0.0000000000000E+00
-0.9343086226444E+00 -0.9150952343233E+00  0.0000000000000E+00
-0.9471579951153E+00 -0.8216298469200E+00  0.0000000000000E+00
-0.9587359651358E+00 -0.7275086045478E+00  0.0000000000000E+00
-0.9688672976347E+00 -0.6328039219456E+00  0.0000000000000E+00
-0.9774750858942E+00 -0.5376468243853E+00  0.0000000000000E+00
-0.9842655637184E+00 -0.4421422461151E+00  0.0000000000000E+00
-0.9887267829990E+00 -0.3464086190817E+00  0.0000000000000E+00
-0.9912085823139E+00 -0.2506160987026E+00  0.0000000000000E+00
-0.9892462957472E+00 -0.1551933420424E+00  0.0000000000000E+00
-0.9807624881220E+00 -0.6141023828673E-01  0.0000000000000E+00
-0.9670985347967E+00  0.2996362516681E-01  0.0000000000000E+00
-0.9496261133913E+00  0.1187961302237E+00  0.0000000000000E+00
-0.9296293608063E+00  0.2055170605213E+00  0.0000000000000E+00
-0.9077632653588E+00  0.2903864625034E+00  0.0000000000000E+00
-0.8843397849235E+00  0.3734384811542E+00  0.0000000000000E+00
-0.8323862196444E+00 -0.1277437455478E+01  0.0000000000000E+00
-0.8445947288565E+00 -0.1188006572371E+01  0.0000000000000E+00
-0.8571511503101E+00 -0.1098627528392E+01  0.0000000000000E+00
-0.8690652909581E+00 -0.1008639251951E+01  0.0000000000000E+00
-0.8800394724388E+00 -0.9179281785215E+00  0.0000000000000E+00
-0.8901724809746E+00 -0.8266356419629E+00  0.0000000000000E+00
-0.8994770747405E+00 -0.7348544970267E+00  0.0000000000000E+00
-0.9078196130017E+00 -0.6426397639724E+00  0.0000000000000E+00
-0.9151223246404E+00 -0.5500895678812E+00  0.0000000000000E+00
-0.9211220391125E+00 -0.4572812419253E+00  0.0000000000000E+00
-0.9253748097363E+00 -0.3643011288742E+00  0.0000000000000E+00
-0.9280830294945E+00 -0.2712743664508E+00  0.0000000000000E+00
-0.9273553566028E+00 -0.1785210563106E+00  0.0000000000000E+00
-0.9216136198406E+00 -0.8699349664939E-01  0.0000000000000E+00
-0.9118616357056E+00  0.2730408804202E-02  0.0000000000000E+00
-0.8991360337160E+00  0.9055074230215E-01  0.0000000000000E+00
-0.8844118779828E+00  0.1767890173054E+00  0.0000000000000E+00
-0.8681930692261E+00  0.2616396623902E+00  0.0000000000000E+00
-0.8507253755287E+00  0.3451278219878E+00  0.0000000000000E+00
-0.7927229579626E+00 -0.1273714530528E+01  0.0000000000000E+00
-0.8009970177392E+00 -0.1185816543790E+01  0.0000000000000E+00
-0.8096108139298E+00 -0.1097953852569E+01  0.0000000000000E+00
-0.8179199507468E+00 -0.1009686361438E+01  0.0000000000000E+00
-0.8257428545609E+00 -0.9209391737407E+00  0.0000000000000E+00
-0.8331613308469E+00 -0.8318076149775E+00  0.0000000000000E+00
-0.8401943800219E+00 -0.7423546945341E+00  0.0000000000000E+00
-0.8467499556851E+00 -0.6526180382057E+00  0.0000000000000E+00
-0.8527494223438E+00 -0.5626628707190E+00  0.0000000000000E+00
-0.8579602050271E+00 -0.4725389246792E+00  0.0000000000000E+00
-0.8620063584978E+00 -0.3823004535589E+00  0.0000000000000E+00
-0.8649428304042E+00 -0.2920275757042E+00  0.0000000000000E+00
-0.8654516005855E+00 -0.2019318535823E+00  0.0000000000000E+00
-0.8624537643804E+00 -0.1126479774958E+00  0.0000000000000E+00
-0.8566155798348E+00 -0.2456216487784E-01  0.0000000000000E+00
-0.8486386282961E+00  0.6225786639916E-01  0.0000000000000E+00
-0.8391889007890E+00  0.1480253576752E+00  0.0000000000000E+00
-0.8286192101987E+00  0.2328691181076E+00  0.0000000000000E+00
-0.8171091347244E+00  0.3168052909748E+00  0.0000000000000E+00
-0.7530262926939E+00 -0.1270218051859E+01  0.0000000000000E+00
-0.7573676616205E+00 -0.1183841039890E+01  0.0000000000000E+00
-0.7620405911220E+00 -0.1097482779905E+01  0.0000000000000E+00
-0.7667464824764E+00 -0.1010924153951E+01  0.0000000000000E+00
-0.7714198670190E+00 -0.9241289316708E+00  0.0000000000000E+00
-0.7761255694772E+00 -0.8371464302010E+00  0.0000000000000E+00
-0.7808888324672E+00 -0.7500098138566E+00  0.0000000000000E+00
-0.7856592039196E+00 -0.6627393139834E+00  0.0000000000000E+00
-0.7903571839912E+00 -0.5753672547891E+00  0.0000000000000E+00
-0.7947807932090E+00 -0.4879157688224E+00  0.0000000000000E+00
-0.7986220877978E+00 -0.4004070201384E+00  0.0000000000000E+00
-0.8017885703212E+00 -0.3128761060169E+00  0.0000000000000E+00
-0.8035355398389E+00 -0.2254260660222E+00  0.0000000000000E+00
-0.8032833607526E+00 -0.1383739655889E+00  0.0000000000000E+00
-0.8013607330460E+00 -0.5191433321603E-01  0.0000000000000E+00
-0.7981341898262E+00  0.3391731262723E-01  0.0000000000000E+00
-0.7939606487436E+00  0.1192259392064E+00  0.0000000000000E+00
-0.7890418346189E+00  0.2040747347020E+00  0.0000000000000E+00
-0.7834911356789E+00  0.2884708406368E+00  0.0000000000000E+00
 0.7530263043685E+00 -0.1270218053608E+01  0.0000000000000E+00
 0.7573676719998E+00 -0.1183841041557E+01  0.0000000000000E+00
 0.7620406002124E+00 -0.1097482781485E+01  0.0000000000000E+00
 0.7667464902935E+00 -0.1010924155438E+01  0.0000000000000E+00
 0.7714198735918E+00 -0.9241289330601E+00  0.0000000000000E+00
 0.7761255748516E+00 -0.8371464314874E+00  0.0000000000000E+00
 0.7808888367128E+00 -0.7500098150348E+00  0.0000000000000E+00
 0.7856592071364E+00 -0.6627393150508E+00  0.0000000000000E+00
 0.7903571863134E+00 -0.5753672557459E+00  0.0000000000000E+00
 0.7947807947991E+00 -0.4879157696728E+00  0.0000000000000E+00
 0.7986220888290E+00 -0.4004070208897E+00  0.0000000000000E+00
 0.8017885709542E+00 -0.3128761066771E+00  0.0000000000000E+00
 0.8035355402108E+00 -0.2254260665967E+00  0.0000000000000E+00
 0.8032833609624E+00 -0.1383739660813E+00  0.0000000000000E+00
 0.8013607331609E+00 -0.5191433362778E-01  0.0000000000000E+00
 0.7981341898900E+00  0.3391731229450E-01  0.0000000000000E+00
 0.7939606487837E+00  0.1192259389523E+00  0.0000000000000E+00
 0.7890418346513E+00  0.2040747345265E+00  0.0000000000000E+00
 0.7834911357119E+00  0.2884708405401E+00  0.0000000000000E+00
 0.7927229690089E+00 -0.1273714532262E+01  0.0000000000000E+00
 0.8009970275589E+00 -0.1185816545447E+01  0.0000000000000E+00
 0.8096108225272E+00 -0.1097953854141E+01  0.0000000000000E+00
 0.8179199581358E+00 -0.1009686362918E+01  0.0000000000000E+00
 0.8257428607702E+00 -0.9209391751259E+00  0.0000000000000E+00
 0.8331613359210E+00 -0.8318076162633E+00  0.0000000000000E+00
 0.8401943840277E+00 -0.7423546957159E+00  0.0000000000000E+00
 0.8467499587182E+00 -0.6526180392811E+00  0.0000000000000E+00
 0.8527494245320E+00 -0.5626628716882E+00  0.0000000000000E+00
 0.8579602065249E+00 -0.4725389255462E+00  0.0000000000000E+00
 0.8620063594690E+00 -0.3823004543303E+00  0.0000000000000E+00
 0.8649428310004E+00 -0.2920275763873E+00  0.0000000000000E+00
 0.8654516009409E+00 -0.2019318541816E+00  0.0000000000000E+00
 0.8624537645892E+00 -0.1126479780131E+00  0.0000000000000E+00
 0.8566155799597E+00 -0.2456216531384E-01  0.0000000000000E+00
 0.8486386283778E+00  0.6225786604307E-01  0.0000000000000E+00
 0.8391889008528E+00  0.1480253573988E+00  0.0000000000000E+00
 0.8286192102596E+00  0.2328691179110E+00  0.0000000000000E+00
 0.8171091347902E+00  0.3168052908585E+00  0.0000000000000E+00
 0.8323862300631E+00 -0.1277437457190E+01  0.0000000000000E+00
 0.8445947381175E+00 -0.1188006574008E+01  0.0000000000000E+00
 0.8571511584150E+00 -0.1098627529947E+01  0.0000000000000E+00
 0.8690652979196E+00 -0.1008639253417E+01  0.0000000000000E+00
 0.8800394782851E+00 -0.9179281798955E+00  0.0000000000000E+00
 0.8901724857490E+00 -0.8266356432415E+00  0.0000000000000E+00
 0.8994770785070E+00 -0.7348544982060E+00  0.0000000000000E+00
 0.9078196158517E+00 -0.6426397650503E+00  0.0000000000000E+00
 0.9151223266951E+00 -0.5500895688577E+00  0.0000000000000E+00
 0.9211220405183E+00 -0.4572812428042E+00  0.0000000000000E+00
 0.9253748106480E+00 -0.3643011296615E+00  0.0000000000000E+00
 0.9280830300542E+00 -0.2712743671533E+00  0.0000000000000E+00
 0.9273553569420E+00 -0.1785210569313E+00  0.0000000000000E+00
 0.9216136200487E+00 -0.8699349718877E-01  0.0000000000000E+00
 0.9118616358407E+00  0.2730408346272E-02  0.0000000000000E+00
 0.8991360338156E+00  0.9055074192457E-01  0.0000000000000E+00
 0.8844118780703E+00  0.1767890170080E+00  0.0000000000000E+00
 0.8681930693155E+00  0.2616396621734E+00  0.0000000000000E+00
 0.8507253756273E+00  0.3451278218524E+00  0.0000000000000E+00
 0.8720146964251E+00 -0.1281385926866E+01  0.0000000000000E+00
 0.8881594858509E+00 -0.1190410273179E+01  0.0000000000000E+00
 0.9046603633328E+00 -0.1099503002303E+01  0.0000000000000E+00
 0.9201813383709E+00 -0.1007782067791E+01  0.0000000000000E+00
 0.9343086281286E+00 -0.9150952356790E+00  0.0000000000000E+00
 0.9471579995906E+00 -0.8216298481850E+00  0.0000000000000E+00
 0.9587359686636E+00 -0.7275086057185E+00  0.0000000000000E+00
 0.9688673003020E+00 -0.6328039230203E+00  0.0000000000000E+00
 0.9774750878159E+00 -0.5376468253640E+00  0.0000000000000E+00
 0.9842655650327E+00 -0.4421422470013E+00  0.0000000000000E+00
 0.9887267838514E+00 -0.3464086198808E+00  0.0000000000000E+00
 0.9912085828374E+00 -0.2506160994206E+00  0.0000000000000E+00
 0.9892462960706E+00 -0.1551933426814E+00  0.0000000000000E+00
 0.9807624883295E+00 -0.6141023884543E-01  0.0000000000000E+00
 0.9670985349422E+00  0.2996362468928E-01  0.0000000000000E+00
 0.9496261135090E+00  0.1187961298265E+00  0.0000000000000E+00
 0.9296293609177E+00  0.2055170602043E+00  0.0000000000000E+00
 0.9077632654769E+00  0.2903864622674E+00  0.0000000000000E+00
 0.8843397850549E+00  0.3734384810002E+00  0.0000000000000E+00
 0.9116069964270E+00 -0.1285559006139E+01  0.0000000000000E+00
 0.9316899713668E+00 -0.1193026757043E+01  0.0000000000000E+00
 0.9521372101630E+00 -0.1100579434527E+01  0.0000000000000E+00
 0.9712669246345E+00 -0.1007114018582E+01  0.0000000000000E+00
 0.9885492277025E+00 -0.9124396042416E+00  0.0000000000000E+00
 0.1004116867100E+01 -0.8167895420793E+00  0.0000000000000E+00
 0.1017970116397E+01 -0.7203163784571E+00  0.0000000000000E+00
 0.1029892146207E+01 -0.6231099226104E+00  0.0000000000000E+00
 0.1039806914265E+01 -0.5253340998405E+00  0.0000000000000E+00
 0.1047390058661E+01 -0.4271214459819E+00  0.0000000000000E+00
 0.1052061629884E+01 -0.3286224820412E+00  0.0000000000000E+00
 0.1054318912369E+01 -0.2300523794564E+00  0.0000000000000E+00
 0.1051123913456E+01 -0.1319483668524E+00  0.0000000000000E+00
 0.1039899936664E+01 -0.3589790757152E-01  0.0000000000000E+00
 0.1022325916611E+01  0.5713772993158E-01  0.0000000000000E+00
 0.1000108578933E+01  0.1469942267442E+00  0.0000000000000E+00
 0.9748411330057E+00  0.2342096347455E+00  0.0000000000000E+00
 0.9473296544890E+00  0.3191096167040E+00  0.0000000000000E+00
 0.9179522909491E+00  0.4017373175599E+00  0.0000000000000E+00
 0.9511617784682E+00 -0.1289955727096E+01  0.0000000000000E+00
 0.9751849143037E+00 -0.1195855108645E+01  0.0000000000000E+00
 0.9995804897833E+00 -0.1101855960624E+01  0.0000000000000E+00
 0.1022320918812E+01 -0.1006634290744E+01  0.0000000000000E+00
 0.1042760210326E+01 -0.9099605214829E+00  0.0000000000000E+00
 0.1061048092807E+01 -0.8121140117675E+00  0.0000000000000E+00
 0.1077178597441E+01 -0.7132771542044E+00  0.0000000000000E+00
 0.1090893300493E+01 -0.6135571525397E+00  0.0000000000000E+00
 0.1102117024151E+01 -0.5131508319408E+00  0.0000000000000E+00
 0.1110494810684E+01 -0.4122183303305E+00  0.0000000000000E+00
 0.1115378709188E+01 -0.3109422576558E+00  0.0000000000000E+00
 0.1117413450252E+01 -0.2095827997078E+00  0.0000000000000E+00
 0.1112987711753E+01 -0.1087857727634E+00  0.0000000000000E+00
 0.1099025538743E+01 -0.1045619757369E-01  0.0000000000000E+00
 0.1077543425583E+01  0.8425297894781E-01  0.0000000000000E+00
 0.1050583145880E+01  0.1751452366042E+00  0.0000000000000E+00
 0.1020046981184E+01  0.2628668935907E+00  0.0000000000000E+00
 0.9868920942577E+00  0.3478092274642E+00  0.0000000000000E+00
 0.9515628222668E+00  0.4300243825253E+00  0.0000000000000E+00
 0.9906777116171E+00 -0.1294575089943E+01  0.0000000000000E+00
 0.1018643053905E+01 -0.1198894380829E+01  0.0000000000000E+00
 0.1046989011611E+01 -0.1103331686075E+01  0.0000000000000E+00
 0.1073342200480E+01 -0.1006342042387E+01  0.0000000000000E+00
 0.1096940525724E+01 -0.9076571981345E+00  0.0000000000000E+00
 0.1117950696577E+01 -0.8076025205997E+00  0.0000000000000E+00
 0.1136360501787E+01 -0.7063902489253E+00  0.0000000000000E+00
 0.1151869923269E+01 -0.6041449813834E+00  0.0000000000000E+00
 0.1164404647691E+01 -0.5010964428479E+00  0.0000000000000E+00
 0.1173579121410E+01 -0.3974323738340E+00  0.0000000000000E+00
 0.1178677392146E+01 -0.2933674731123E+00  0.0000000000000E+00
 0.1180491636942E+01 -0.1892069391688E+00  0.0000000000000E+00
 0.1174837201382E+01 -0.8570519195099E-01  0.0000000000000E+00
 0.1158138874929E+01  0.1491520704997E-01  0.0000000000000E+00
 0.1132750712161E+01  0.1113096350441E+00  0.0000000000000E+00
 0.1101049534597E+01  0.2032493700836E+00  0.0000000000000E+00
 0.1065246695648E+01  0.2914889947660E+00  0.0000000000000E+00
 0.1026450444921E+01  0.3764853999090E+00  0.0000000000000E+00
 0.9851713090814E+00  0.4582997285817E+00  0.0000000000000E+00
 0.1030153486187E+01 -0.1299416063908E+01  0.0000000000000E+00
 0.1062063149566E+01 -0.1202143597094E+01  0.0000000000000E+00
 0.1094361604124E+01 -0.1105005688649E+01  0.0000000000000E+00
 0.1124329667181E+01 -0.1006236405536E+01  0.0000000000000E+00
 0.1151089140492E+01 -0.9055288204733E+00  0.0000000000000E+00
 0.1174823714046E+01 -0.8032543090994E+00  0.0000000000000E+00
 0.1195514934100E+01 -0.6996549573837E+00  0.0000000000000E+00
 0.1212821188214E+01 -0.5948727581417E+00  0.0000000000000E+00
 0.1226669027563E+01 -0.4891703357950E+00  0.0000000000000E+00
 0.1236642302499E+01 -0.3827630339536E+00  0.0000000000000E+00
 0.1241957059382E+01 -0.2758976400968E+00  0.0000000000000E+00
 0.1243552922021E+01 -0.1689243637565E+00  0.0000000000000E+00
 0.1236671900766E+01 -0.6270624449766E-01  0.0000000000000E+00
 0.1217239532454E+01  0.4021663203052E-01  0.0000000000000E+00
 0.1187947432381E+01  0.1383079697260E+00  0.0000000000000E+00
 0.1151507469925E+01  0.2313068444249E+00  0.0000000000000E+00
 0.1110440070041E+01  0.3200761012256E+00  0.0000000000000E+00
 0.1066004568916E+01  0.4051382426875E+00  0.0000000000000E+00
 0.1018777682617E+01  0.4865634100600E+00  0.0000000000000E+00
 0.1069587814283E+01 -0.1304477588167E+01  0.0000000000000E+00
 0.1105443981358E+01 -0.1205601752468E+01  0.0000000000000E+00
 0.1141697115360E+01 -0.1106877019225E+01  0.0000000000000E+00
 0.1175282234897E+01 -0.1006316486910E+01  0.0000000000000E+00
 0.1205205038544E+01 -0.9035745510495E+00  0.0000000000000E+00
 0.1231666197044E+01 -0.7990685956414E+00  0.0000000000000E+00
 0.1254641014112E+01 -0.6930705537734E+00  0.0000000000000E+00
 0.1273746282939E+01 -0.5857398128207E+00  0.0000000000000E+00
 0.1288909419242E+01 -0.4773718965968E+00  0.0000000000000E+00
 0.1299683677272E+01 -0.3682097523073E+00  0.0000000000000E+00
 0.1305217102037E+01 -0.2585322560269E+00  0.0000000000000E+00
 0.1306596764446E+01 -0.1487346266938E+00  0.0000000000000E+00
 0.1298491336554E+01 -0.3978853936507E-01  0.0000000000000E+00
 0.1276327105619E+01  0.6544841264325E-01  0.0000000000000E+00
 0.1243133248179E+01  0.1652482624626E+00  0.0000000000000E+00
 0.1201956681431E+01  0.2593178832485E+00  0.0000000000000E+00
 0.1155626901552E+01  0.3486283807115E+00  0.0000000000000E+00
 0.1105554331047E+01  0.4337678676442E+00  0.0000000000000E+00
 0.1052381875283E+01  0.5148154828900E+00  0.0000000000000E+00
 0.1108979381271E+01 -0.1309758563495E+01  0.0000000000000E+00
 0.1148784301020E+01 -0.1209267805530E+01  0.0000000000000E+00
 0.1188994363424E+01 -0.1108944694180E+01  0.0000000000000E+00
 0.1226198788305E+01 -0.1006581360800E+01  0.0000000000000E+00
 0.1259287171406E+01 -0.9017935222202E+00  0.0000000000000E+00
 0.1288477164220E+01 -0.7950445707726E+00  0.0000000000000E+00
 0.1313737827865E+01 -0.6866362869336E+00  0.0000000000000E+00
 0.1334644361185E+01 -0.5767454526446E+00  0.0000000000000E+00
 0.1351125044467E+01 -0.4657004909350E+00  0.0000000000000E+00
 0.1362702535776E+01 -0.3537719530876E+00  0.0000000000000E+00
 0.1368456878830E+01 -0.2412708036395E+00  0.0000000000000E+00
 0.1369622591879E+01 -0.1286372692759E+00  0.0000000000000E+00
 0.1360295005896E+01 -0.1695167627600E-01  0.0000000000000E+00
 0.1335401162004E+01  0.9061089098460E-01  0.0000000000000E+00
 0.1298307798319E+01  0.1921307975221E+00  0.0000000000000E+00
 0.1252396879599E+01  0.2872827133698E+00  0.0000000000000E+00
 0.1200806972730E+01  0.3771460029035E+00  0.0000000000000E+00
 0.1145099586162E+01  0.4623743876070E+00  0.0000000000000E+00
 0.1085983814416E+01  0.5430560033294E+00  0.0000000000000E+00
 0.1148326982225E+01 -0.1315257878269E+01  0.0000000000000E+00
 0.1192082969631E+01 -0.1213140703241E+01  0.0000000000000E+00
 0.1236252275405E+01 -0.1111207719063E+01  0.0000000000000E+00
 0.1277078320301E+01 -0.1007030091224E+01  0.0000000000000E+00
 0.1313334597533E+01 -0.9001848563373E+00  0.0000000000000E+00
 0.1345255739343E+01 -0.7911814150685E+00  0.0000000000000E+00
 0.1372804564196E+01 -0.6803513955696E+00  0.0000000000000E+00
 0.1395514676580E+01 -0.5678889743635E+00  0.0000000000000E+00
 0.1413315221384E+01 -0.4541554735392E+00  0.0000000000000E+00
 0.1425698260390E+01 -0.3394490489509E+00  0.0000000000000E+00
 0.1431675836041E+01 -0.2241127534843E+00  0.0000000000000E+00
 0.1432629914269E+01 -0.1086318199455E+00  0.0000000000000E+00
 0.1422082481760E+01  0.5804758454327E-02  0.0000000000000E+00
 0.1394461336764E+01  0.1157044226246E+00  0.0000000000000E+00
 0.1353470779509E+01  0.2189558719973E+00  0.0000000000000E+00
 0.1302827822250E+01  0.3152015730252E+00  0.0000000000000E+00
 0.1245980102221E+01  0.4056291468740E+00  0.0000000000000E+00
 0.1184640213527E+01  0.4909579222208E+00  0.0000000000000E+00
 0.1119583439729E+01  0.5712850313400E+00  0.0000000000000E+00
 0.1187629400186E+01 -0.1320974387505E+01  0.0000000000000E+00
 0.1235338834732E+01 -0.1217219360904E+01  0.0000000000000E+00
 0.1283469763345E+01 -0.1113665069469E+01  0.0000000000000E+00
 0.1327919807393E+01 -0.1007661714042E+01  0.0000000000000E+00
 0.1367346357854E+01 -0.8987476495021E+00  0.0000000000000E+00
 0.1402001027722E+01 -0.7874782848550E+00  0.0000000000000E+00
 0.1431840392749E+01 -0.6742150962150E+00  0.0000000000000E+00
 0.1456356463060E+01 -0.5591696547043E+00  0.0000000000000E+00
 0.1475479248178E+01 -0.4427361813186E+00  0.0000000000000E+00
 0.1488670213493E+01 -0.3252404369779E+00  0.0000000000000E+00
 0.1494873400188E+01 -0.2070575628063E+00  0.0000000000000E+00
 0.1495618222237E+01 -0.8871779611777E-01  0.0000000000000E+00
 0.1483853318695E+01  0.2848118730761E-01  0.0000000000000E+00
 0.1453507248244E+01  0.1407293698923E+00  0.0000000000000E+00
 0.1408621873807E+01  0.2457237879833E+00  0.0000000000000E+00
 0.1353249255096E+01  0.3430747039949E+00  0.0000000000000E+00
 0.1291146099354E+01  0.4340779940265E+00  0.0000000000000E+00
 0.1224176086056E+01  0.5195185924651E+00  0.0000000000000E+00
 0.1153180687696E+01  0.5995026274340E+00  0.0000000000000E+00
 0.1226885438803E+01 -0.1326906919430E+01  0.0000000000000E+00
 0.1278550763245E+01 -0.1221502668444E+01  0.0000000000000E+00
 0.1330645757439E+01 -0.1116315697018E+01  0.0000000000000E+00
 0.1378722243017E+01 -0.1008475242550E+01  0.0000000000000E+00
 0.1421321509020E+01 -0.8974809766741E+00  0.0000000000000E+00
 0.1458712149199E+01 -0.7839343167424E+00  0.0000000000000E+00
 0.1490844496529E+01 -0.6682265871201E+00  0.0000000000000E+00
 0.1517168966759E+01 -0.5505867535472E+00  0.0000000000000E+00
 0.1537616434081E+01 -0.4314419357761E+00  0.0000000000000E+00
 0.1551617767383E+01 -0.3111455002865E+00  0.0000000000000E+00
 0.1558049006595E+01 -0.1901046763326E+00  0.0000000000000E+00
 0.1558587014113E+01 -0.6889470413509E-01  0.0000000000000E+00
 0.1545607077895E+01  0.5107804239726E-01  0.0000000000000E+00
 0.1512538520417E+01  0.1656861033204E+00  0.0000000000000E+00
 0.1463760767916E+01  0.2724348543701E+00  0.0000000000000E+00
 0.1403660927541E+01  0.3709023534638E+00  0.0000000000000E+00
 0.1336304776212E+01  0.4624927297960E+00  0.0000000000000E+00
 0.1263707078492E+01  0.5480565219923E+00  0.0000000000000E+00
 0.1186775495697E+01  0.6277088534522E+00  0.0000000000000E+00
 0.1266093900534E+01 -0.1333054271612E+01  0.0000000000000E+00
 0.1321717619441E+01 -0.1225989486703E+01  0.0000000000000E+00
 0.1377779183766E+01 -0.1119158525826E+01  0.0000000000000E+00
 0.1429484615149E+01 -0.1009469664182E+01  0.0000000000000E+00
 0.1475259101023E+01 -0.8963838886716E+00  0.0000000000000E+00
 0.1515388215900E+01 -0.7805486249883E+00  0.0000000000000E+00
 0.1549816049915E+01 -0.6623850460261E+00  0.0000000000000E+00
 0.1577951424441E+01 -0.5421395121565E+00  0.0000000000000E+00
 0.1599726078373E+01 -0.4202720417312E+00  0.0000000000000E+00
 0.1614540283988E+01 -0.2971636072724E+00  0.0000000000000E+00
 0.1621202079995E+01 -0.1732535260491E+00  0.0000000000000E+00
 0.1621535777559E+01 -0.4916203958404E-01  0.0000000000000E+00
 0.1607343310144E+01  0.7359576464093E-01  0.0000000000000E+00
 0.1571554767608E+01  0.1905750004316E+00  0.0000000000000E+00
 0.1518887140039E+01  0.2990893854236E+00  0.0000000000000E+00
 0.1454062581912E+01  0.3986847725911E+00  0.0000000000000E+00
 0.1381455939403E+01  0.4908735423656E+00  0.0000000000000E+00
 0.1303233061826E+01  0.5765718361307E+00  0.0000000000000E+00
 0.1220367799190E+01  0.6559037719900E+00  0.0000000000000E+00
 0.1305253598805E+01 -0.1339415213768E+01  0.0000000000000E+00
 0.1364838277184E+01 -0.1230678650124E+01  0.0000000000000E+00
 0.1424868976629E+01 -0.1122192455048E+01  0.0000000000000E+00
 0.1480205918667E+01 -0.1010643942895E+01  0.0000000000000E+00
 0.1529158189524E+01 -0.8954554143590E+00  0.0000000000000E+00
 0.1572028344460E+01 -0.7773203034531E+00  0.0000000000000E+00
 0.1608754230714E+01 -0.6566896318631E+00  0.0000000000000E+00
 0.1638703075296E+01 -0.5338271545977E+00  0.0000000000000E+00
 0.1661807481841E+01 -0.4092257884365E+00  0.0000000000000E+00
 0.1677437125922E+01 -0.2832941124128E+00  0.0000000000000E+00
 0.1684332045081E+01 -0.1565035316807E+00  0.0000000000000E+00
 0.1684463999550E+01 -0.2951928744993E-01  0.0000000000000E+00
 0.1669061565065E+01  0.9603480391581E-01  0.0000000000000E+00
 0.1630555602763E+01  0.2153964461378E+00  0.0000000000000E+00
 0.1574000666993E+01  0.3256877013338E+00  0.0000000000000E+00
 0.1504453959286E+01  0.4264222171044E+00  0.0000000000000E+00
 0.1426599394506E+01  0.5192206232231E+00  0.0000000000000E+00
 0.1342753906311E+01  0.6050646623300E+00  0.0000000000000E+00
 0.1253957533241E+01  0.6840874466600E+00  0.0000000000000E+00
 0.1344363463886E+01 -0.1345988512312E+01  0.0000000000000E+00
 0.1407911726821E+01 -0.1235568990149E+01  0.0000000000000E+00
 0.1471914186453E+01 -0.1125416381172E+01  0.0000000000000E+00
 0.1530885263794E+01 -0.1011997040041E+01  0.0000000000000E+00
 0.1583017944169E+01 -0.8946945797580E+00  0.0000000000000E+00
 0.1628631763594E+01 -0.7742484426668E+00  0.0000000000000E+00
 0.1667658326345E+01 -0.6511394995318E+00  0.0000000000000E+00
 0.1699423265050E+01 -0.5256489000186E+00  0.0000000000000E+00
 0.1723860048123E+01 -0.3983024591913E+00  0.0000000000000E+00
 0.1740307754306E+01 -0.2695363630824E+00  0.0000000000000E+00
 0.1747438419983E+01 -0.1398541046292E+00  0.0000000000000E+00
 0.1747371254871E+01 -0.9965923158563E-02  0.0000000000000E+00
 0.1730761473203E+01  0.1183956207761E+00  0.0000000000000E+00
 0.1689540710963E+01  0.2401508366226E+00  0.0000000000000E+00
 0.1629101087451E+01  0.3522301333911E+00  0.0000000000000E+00
 0.1554834851269E+01  0.4541149528549E+00  0.0000000000000E+00
 0.1471734985641E+01  0.5475341723337E+00  0.0000000000000E+00
 0.1382269508274E+01  0.6335351342853E+00  0.0000000000000E+00
 0.1287544646131E+01  0.7122599445139E+00  0.0000000000000E+00
 0.1383422397442E+01 -0.1352772900237E+01  0.0000000000000E+00
 0.1450936928321E+01 -0.1240659306487E+01  0.0000000000000E+00
 0.1518913831514E+01 -0.1128829170621E+01  0.0000000000000E+00
 0.1581521727071E+01 -0.1013527888730E+01  0.0000000000000E+00
 0.1636837499717E+01 -0.8941003846407E+00  0.0000000000000E+00
 0.1685197666234E+01 -0.7713321090438E+00  0.0000000000000E+00
 0.1726527587863E+01 -0.6457337820702E+00  0.0000000000000E+00
 0.1760111302833E+01 -0.5176039480646E+00  0.0000000000000E+00
 0.1785883144369E+01 -0.3875013202364E+00  0.0000000000000E+00
 0.1803151594260E+01 -0.2558896921055E+00  0.0000000000000E+00
 0.1810520687724E+01 -0.1233046442937E+00  0.0000000000000E+00
 0.1810257084407E+01  0.9498587309285E-02  0.0000000000000E+00
 0.1792442633128E+01  0.1406786827331E+00  0.0000000000000E+00
 0.1748509748313E+01  0.2648385728346E+00  0.0000000000000E+00
 0.1684188114957E+01  0.3787170158914E+00  0.0000000000000E+00
 0.1605205028773E+01  0.4817632473949E+00  0.0000000000000E+00
 0.1516862541040E+01  0.5758143904379E+00  0.0000000000000E+00
 0.1421779753236E+01  0.6619833858726E+00  0.0000000000000E+00
 0.1321129080636E+01  0.7404213325146E+00  0.0000000000000E+00
 0.1422429228029E+01 -0.1359767065724E+01  0.0000000000000E+00
 0.1493912766301E+01 -0.1245948356251E+01  0.0000000000000E+00
 0.1565866852479E+01 -0.1132429649424E+01  0.0000000000000E+00
 0.1632114305621E+01 -0.1015235384149E+01  0.0000000000000E+00
 0.1690615910306E+01 -0.8936717936491E+00  0.0000000000000E+00
 0.1741725164067E+01 -0.7685703369241E+00  0.0000000000000E+00
 0.1785361185048E+01 -0.6404715837209E+00  0.0000000000000E+00
 0.1820766417108E+01 -0.5096914730635E+00  0.0000000000000E+00
 0.1847876058322E+01 -0.3768216161282E+00  0.0000000000000E+00
 0.1865967993429E+01 -0.2423534143737E+00  0.0000000000000E+00
 0.1873578256564E+01 -0.1068545359697E+00  0.0000000000000E+00
 0.1873120957578E+01  0.2887478823199E-01  0.0000000000000E+00
 0.1854104576573E+01  0.1628844638412E+00  0.0000000000000E+00
 0.1807462310716E+01  0.2894600590995E+00  0.0000000000000E+00
 0.1739261411041E+01  0.4051486841471E+00  0.0000000000000E+00
 0.1655564219998E+01  0.5093673677810E+00  0.0000000000000E+00
 0.1561981856234E+01  0.6040614769726E+00  0.0000000000000E+00
 0.1461284504515E+01  0.6904095494733E+00  0.0000000000000E+00
 0.1354710768243E+01  0.7685716765449E+00  0.0000000000000E+00
 0.1461382977685E+01 -0.1366969715541E+01  0.0000000000000E+00
 0.1536838319223E+01 -0.1251434914409E+01  0.0000000000000E+00
 0.1612772384243E+01 -0.1136216660760E+01  0.0000000000000E+00
 0.1682662190401E+01 -0.1017118437462E+01  0.0000000000000E+00
 0.1744352422465E+01 -0.8934077856720E+00  0.0000000000000E+00
 0.1798213558725E+01 -0.7659621727097E+00  0.0000000000000E+00
 0.1844158474159E+01 -0.6353520182180E+00  0.0000000000000E+00
 0.1881388018237E+01 -0.5019106559195E+00  0.0000000000000E+00
 0.1909838253925E+01 -0.3662625948152E+00  0.0000000000000E+00
 0.1928756468782E+01 -0.2289268447810E+00  0.0000000000000E+00
 0.1936610695870E+01 -0.9050316143287E-01  0.0000000000000E+00
 0.1935962495682E+01  0.4816323095776E-01  0.0000000000000E+00
 0.1915746975620E+01  0.1850134485560E+00  0.0000000000000E+00
 0.1866398119422E+01  0.3140157125225E+00  0.0000000000000E+00
 0.1794320744879E+01  0.4315254872332E+00  0.0000000000000E+00
 0.1705912241167E+01  0.5369275943465E+00  0.0000000000000E+00
 0.1607092793932E+01  0.6322756429451E+00  0.0000000000000E+00
 0.1500783670909E+01  0.7188137662650E+00  0.0000000000000E+00
 0.1388289663505E+01  0.7967110474620E+00  0.0000000000000E+00
-0.7394329578238E+00  0.3828904307871E+00  0.0000000000000E+00
-0.7655763767500E+00  0.4111916020047E+00  0.0000000000000E+00
-0.7917197956763E+00  0.4394927732223E+00  0.0000000000000E+00
-0.8178632146026E+00  0.4677939444398E+00  0.0000000000000E+00
-0.8440066335289E+00  0.4960951156574E+00  0.0000000000000E+00
-0.8701500524552E+00  0.5243962868750E+00  0.0000000000000E+00
-0.8962934713814E+00  0.5526974580926E+00  0.0000000000000E+00
-0.9224368903077E+00  0.5809986293101E+00  0.0000000000000E+00
-0.9485803092340E+00  0.6092998005277E+00  0.0000000000000E+00
-0.9747237281603E+00  0.6376009717453E+00  0.0000000000000E+00
-0.1000867147087E+01  0.6659021429629E+00  0.0000000000000E+00
-0.1027010566013E+01  0.6942033141804E+00  0.0000000000000E+00
-0.1053153984939E+01  0.7225044853980E+00  0.0000000000000E+00
-0.1079297403865E+01  0.7508056566156E+00  0.0000000000000E+00
-0.1105440822792E+01  0.7791068278332E+00  0.0000000000000E+00
-0.1131584241718E+01  0.8074079990507E+00  0.0000000000000E+00
-0.1157727660644E+01  0.8357091702683E+00  0.0000000000000E+00
-0.1183871079571E+01  0.8640103414859E+00  0.0000000000000E+00
-0.1210014498497E+01  0.8923115127035E+00  0.0000000000000E+00
-0.7013395436708E+00  0.3928851883992E+00  0.0000000000000E+00
-0.7262154211400E+00  0.4220388918148E+00  0.0000000000000E+00
-0.7510912986091E+00  0.4511925952303E+00  0.0000000000000E+00
-0.7759671760782E+00  0.4803462986459E+00  0.0000000000000E+00
-0.8008430535474E+00  0.5095000020614E+00  0.0000000000000E+00
-0.8257189310165E+00  0.5386537054770E+00  0.0000000000000E+00
-0.8505948084856E+00  0.5678074088926E+00  0.0000000000000E+00
-0.8754706859548E+00  0.5969611123081E+00  0.0000000000000E+00
-0.9003465634239E+00  0.6261148157237E+00  0.0000000000000E+00
-0.9252224408930E+00  0.6552685191392E+00  0.0000000000000E+00
-0.9500983183622E+00  0.6844222225548E+00  0.0000000000000E+00
-0.9749741958313E+00  0.7135759259704E+00  0.0000000000000E+00
-0.9998500733004E+00  0.7427296293859E+00  0.0000000000000E+00
-0.1024725950770E+01  0.7718833328015E+00  0.0000000000000E+00
-0.1049601828239E+01  0.8010370362170E+00  0.0000000000000E+00
-0.1074477705708E+01  0.8301907396326E+00  0.0000000000000E+00
-0.1099353583177E+01  0.8593444430482E+00  0.0000000000000E+00
-0.1124229460646E+01  0.8884981464637E+00  0.0000000000000E+00
-0.1149105338115E+01  0.9176518498793E+00  0.0000000000000E+00
-0.6631144762003E+00  0.4023799804788E+00  0.0000000000000E+00
-0.6867022089859E+00  0.4323453794399E+00  0.0000000000000E+00
-0.7102899417715E+00  0.4623107784010E+00  0.0000000000000E+00
-0.7338776745571E+00  0.4922761773621E+00  0.0000000000000E+00
-0.7574654073427E+00  0.5222415763231E+00  0.0000000000000E+00
-0.7810531401284E+00  0.5522069752842E+00  0.0000000000000E+00
-0.8046408729140E+00  0.5821723742453E+00  0.0000000000000E+00
-0.8282286056996E+00  0.6121377732064E+00  0.0000000000000E+00
-0.8518163384852E+00  0.6421031721674E+00  0.0000000000000E+00
-0.8754040712708E+00  0.6720685711285E+00  0.0000000000000E+00
-0.8989918040564E+00  0.7020339700896E+00  0.0000000000000E+00
-0.9225795368421E+00  0.7319993690506E+00  0.0000000000000E+00
-0.9461672696277E+00  0.7619647680117E+00  0.0000000000000E+00
-0.9697550024133E+00  0.7919301669728E+00  0.0000000000000E+00
-0.9933427351989E+00  0.8218955659339E+00  0.0000000000000E+00
-0.1016930467985E+01  0.8518609648949E+00  0.0000000000000E+00
-0.1040518200770E+01  0.8818263638560E+00  0.0000000000000E+00
-0.1064105933556E+01  0.9117917628171E+00  0.0000000000000E+00
-0.1087693666341E+01  0.9417571617782E+00  0.0000000000000E+00
-0.6247718534183E+00  0.4113904599736E+00  0.0000000000000E+00
-0.6470599869664E+00  0.4421478324469E+00  0.0000000000000E+00
-0.6693481205145E+00  0.4729052049202E+00  0.0000000000000E+00
-0.6916362540626E+00  0.5036625773935E+00  0.0000000000000E+00
-0.7139243876107E+00  0.5344199498667E+00  0.0000000000000E+00
-0.7362125211588E+00  0.5651773223400E+00  0.0000000000000E+00
-0.7585006547069E+00  0.5959346948133E+00  0.0000000000000E+00
-0.7807887882550E+00  0.6266920672866E+00  0.0000000000000E+00
-0.8030769218031E+00  0.6574494397599E+00  0.0000000000000E+00
-0.8253650553512E+00  0.6882068122331E+00  0.0000000000000E+00
-0.8476531888993E+00  0.7189641847064E+00  0.0000000000000E+00
-0.8699413224474E+00  0.7497215571797E+00  0.0000000000000E+00
-0.8922294559955E+00  0.7804789296530E+00  0.0000000000000E+00
-0.9145175895436E+00  0.8112363021263E+00  0.0000000000000E+00
-0.9368057230917E+00  0.8419936745995E+00  0.0000000000000E+00
-0.9590938566398E+00  0.8727510470728E+00  0.0000000000000E+00
-0.9813819901879E+00  0.9035084195461E+00  0.0000000000000E+00
-0.1003670123736E+01  0.9342657920194E+00  0.0000000000000E+00
-0.1025958257284E+01  0.9650231644927E+00  0.0000000000000E+00
-0.5863228019837E+00  0.4199269192811E+00  0.0000000000000E+00
-0.6073059538729E+00  0.4514720689964E+00  0.0000000000000E+00
-0.6282891057621E+00  0.4830172187117E+00  0.0000000000000E+00
-0.6492722576512E+00  0.5145623684270E+00  0.0000000000000E+00
-0.6702554095404E+00  0.5461075181424E+00  0.0000000000000E+00
-0.6912385614296E+00  0.5776526678577E+00  0.0000000000000E+00
-0.7122217133188E+00  0.6091978175730E+00  0.0000000000000E+00
-0.7332048652079E+00  0.6407429672884E+00  0.0000000000000E+00
-0.7541880170971E+00  0.6722881170037E+00  0.0000000000000E+00
-0.7751711689863E+00  0.7038332667190E+00  0.0000000000000E+00
-0.7961543208755E+00  0.7353784164343E+00  0.0000000000000E+00
-0.8171374727647E+00  0.7669235661497E+00  0.0000000000000E+00
-0.8381206246538E+00  0.7984687158650E+00  0.0000000000000E+00
-0.8591037765430E+00  0.8300138655803E+00  0.0000000000000E+00
-0.8800869284322E+00  0.8615590152956E+00  0.0000000000000E+00
-0.9010700803214E+00  0.8931041650110E+00  0.0000000000000E+00
-0.9220532322105E+00  0.9246493147263E+00  0.0000000000000E+00
-0.9430363840997E+00  0.9561944644416E+00  0.0000000000000E+00
-0.9640195359889E+00  0.9877396141569E+00  0.0000000000000E+00
-0.5477768854188E+00  0.4279968810199E+00  0.0000000000000E+00
-0.5674541536864E+00  0.4603381160929E+00  0.0000000000000E+00
-0.5871314219540E+00  0.4926793511658E+00  0.0000000000000E+00
-0.6068086902216E+00  0.5250205862388E+00  0.0000000000000E+00
-0.6264859584892E+00  0.5573618213118E+00  0.0000000000000E+00
-0.6461632267567E+00  0.5897030563848E+00  0.0000000000000E+00
-0.6658404950243E+00  0.6220442914577E+00  0.0000000000000E+00
-0.6855177632919E+00  0.6543855265307E+00  0.0000000000000E+00
-0.7051950315595E+00  0.6867267616037E+00  0.0000000000000E+00
-0.7248722998271E+00  0.7190679966767E+00  0.0000000000000E+00
-0.7445495680947E+00  0.7514092317496E+00  0.0000000000000E+00
-0.7642268363623E+00  0.7837504668226E+00  0.0000000000000E+00
-0.7839041046299E+00  0.8160917018956E+00  0.0000000000000E+00
-0.8035813728974E+00  0.8484329369686E+00  0.0000000000000E+00
-0.8232586411650E+00  0.8807741720415E+00  0.0000000000000E+00
-0.8429359094326E+00  0.9131154071145E+00  0.0000000000000E+00
-0.8626131777002E+00  0.9454566421875E+00  0.0000000000000E+00
-0.8822904459678E+00  0.9777978772605E+00  0.0000000000000E+00
-0.9019677142354E+00  0.1010139112333E+01  0.0000000000000E+00
-0.5091428679054E+00  0.4356052711820E+00  0.0000000000000E+00
-0.5275166038674E+00  0.4687606222180E+00  0.0000000000000E+00
-0.5458903398295E+00  0.5019159732541E+00  0.0000000000000E+00
-0.5642640757915E+00  0.5350713242901E+00  0.0000000000000E+00
-0.5826378117536E+00  0.5682266753261E+00  0.0000000000000E+00
-0.6010115477157E+00  0.6013820263622E+00  0.0000000000000E+00
-0.6193852836777E+00  0.6345373773982E+00  0.0000000000000E+00
-0.6377590196398E+00  0.6676927284343E+00  0.0000000000000E+00
-0.6561327556018E+00  0.7008480794703E+00  0.0000000000000E+00
-0.6745064915639E+00  0.7340034305064E+00  0.0000000000000E+00
-0.6928802275259E+00  0.7671587815424E+00  0.0000000000000E+00
-0.7112539634880E+00  0.8003141325785E+00  0.0000000000000E+00
-0.7296276994500E+00  0.8334694836145E+00  0.0000000000000E+00
-0.7480014354121E+00  0.8666248346506E+00  0.0000000000000E+00
-0.7663751713741E+00  0.8997801856866E+00  0.0000000000000E+00
-0.7847489073362E+00  0.9329355367227E+00  0.0000000000000E+00
-0.8031226432983E+00  0.9660908877587E+00  0.0000000000000E+00
-0.8214963792603E+00  0.9992462387948E+00  0.0000000000000E+00
-0.8398701152224E+00  0.1032401589831E+01  0.0000000000000E+00
-0.4704201189630E+00  0.4427312295667E+00  0.0000000000000E+00
-0.4874864927934E+00  0.4767023850508E+00  0.0000000000000E+00
-0.5045528666239E+00  0.5106735405349E+00  0.0000000000000E+00
-0.5216192404544E+00  0.5446446960190E+00  0.0000000000000E+00
-0.5386856142848E+00  0.5786158515031E+00  0.0000000000000E+00
-0.5557519881153E+00  0.6125870069873E+00  0.0000000000000E+00
-0.5728183619458E+00  0.6465581624714E+00  0.0000000000000E+00
-0.5898847357762E+00  0.6805293179555E+00  0.0000000000000E+00
-0.6069511096067E+00  0.7145004734396E+00  0.0000000000000E+00
-0.6240174834372E+00  0.7484716289237E+00  0.0000000000000E+00
-0.6410838572677E+00  0.7824427844079E+00  0.0000000000000E+00
-0.6581502310981E+00  0.8164139398920E+00  0.0000000000000E+00
-0.6752166049286E+00  0.8503850953761E+00  0.0000000000000E+00
-0.6922829787591E+00  0.8843562508602E+00  0.0000000000000E+00
-0.7093493525895E+00  0.9183274063443E+00  0.0000000000000E+00
-0.7264157264200E+00  0.9522985618284E+00  0.0000000000000E+00
-0.7434821002505E+00  0.9862697173126E+00  0.0000000000000E+00
-0.7605484740810E+00  0.1020240872797E+01  0.0000000000000E+00
-0.7776148479114E+00  0.1054212028281E+01  0.0000000000000E+00
-0.4316001604194E+00  0.4493289287895E+00  0.0000000000000E+00
-0.4473410322604E+00  0.4840760209663E+00  0.0000000000000E+00
-0.4630819041013E+00  0.5188231131430E+00  0.0000000000000E+00
-0.4788227759422E+00  0.5535702053198E+00  0.0000000000000E+00
-0.4945636477831E+00  0.5883172974965E+00  0.0000000000000E+00
-0.5103045196240E+00  0.6230643896733E+00  0.0000000000000E+00
-0.5260453914650E+00  0.6578114818500E+00  0.0000000000000E+00
-0.5417862633059E+00  0.6925585740268E+00  0.0000000000000E+00
-0.5575271351468E+00  0.7273056662035E+00  0.0000000000000E+00
-0.5732680069877E+00  0.7620527583802E+00  0.0000000000000E+00
-0.5890088788287E+00  0.7967998505570E+00  0.0000000000000E+00
-0.6047497506696E+00  0.8315469427337E+00  0.0000000000000E+00
-0.6204906225105E+00  0.8662940349105E+00  0.0000000000000E+00
-0.6362314943514E+00  0.9010411270872E+00  0.0000000000000E+00
-0.6519723661924E+00  0.9357882192640E+00  0.0000000000000E+00
-0.6677132380333E+00  0.9705353114407E+00  0.0000000000000E+00
-0.6834541098742E+00  0.1005282403617E+01  0.0000000000000E+00
-0.6991949817151E+00  0.1040029495794E+01  0.0000000000000E+00
-0.7149358535560E+00  0.1074776587971E+01  0.0000000000000E+00
-0.3926829942859E+00  0.4553717726819E+00  0.0000000000000E+00
-0.4070743133994E+00  0.4908323142830E+00  0.0000000000000E+00
-0.4214656325129E+00  0.5262928558841E+00  0.0000000000000E+00
-0.4358569516264E+00  0.5617533974853E+00  0.0000000000000E+00
-0.4502482707400E+00  0.5972139390864E+00  0.0000000000000E+00
-0.4646395898535E+00  0.6326744806875E+00  0.0000000000000E+00
-0.4790309089670E+00  0.6681350222886E+00  0.0000000000000E+00
-0.4934222280806E+00  0.7035955638897E+00  0.0000000000000E+00
-0.5078135471941E+00  0.7390561054908E+00  0.0000000000000E+00
-0.5222048663076E+00  0.7745166470919E+00  0.0000000000000E+00
-0.5365961854212E+00  0.8099771886930E+00  0.0000000000000E+00
-0.5509875045347E+00  0.8454377302941E+00  0.0000000000000E+00
-0.5653788236482E+00  0.8808982718952E+00  0.0000000000000E+00
-0.5797701427618E+00  0.9163588134963E+00  0.0000000000000E+00
-0.5941614618753E+00  0.9518193550975E+00  0.0000000000000E+00
-0.6085527809888E+00  0.9872798966986E+00  0.0000000000000E+00
-0.6229441001024E+00  0.1022740438300E+01  0.0000000000000E+00
-0.6373354192159E+00  0.1058200979901E+01  0.0000000000000E+00
-0.6517267383294E+00  0.1093661521502E+01  0.0000000000000E+00
-0.3536746458292E+00  0.4608476922473E+00  0.0000000000000E+00
-0.3666922613378E+00  0.4969508181436E+00  0.0000000000000E+00
-0.3797098768463E+00  0.5330539440399E+00  0.0000000000000E+00
-0.3927274923549E+00  0.5691570699361E+00  0.0000000000000E+00
-0.4057451078635E+00  0.6052601958324E+00  0.0000000000000E+00
-0.4187627233720E+00  0.6413633217287E+00  0.0000000000000E+00
-0.4317803388806E+00  0.6774664476250E+00  0.0000000000000E+00
-0.4447979543892E+00  0.7135695735212E+00  0.0000000000000E+00
-0.4578155698977E+00  0.7496726994175E+00  0.0000000000000E+00
-0.4708331854063E+00  0.7857758253138E+00  0.0000000000000E+00
-0.4838508009149E+00  0.8218789512100E+00  0.0000000000000E+00
-0.4968684164235E+00  0.8579820771063E+00  0.0000000000000E+00
-0.5098860319320E+00  0.8940852030026E+00  0.0000000000000E+00
-0.5229036474406E+00  0.9301883288989E+00  0.0000000000000E+00
-0.5359212629492E+00  0.9662914547951E+00  0.0000000000000E+00
-0.5489388784577E+00  0.1002394580691E+01  0.0000000000000E+00
-0.5619564939663E+00  0.1038497706588E+01  0.0000000000000E+00
-0.5749741094749E+00  0.1074600832484E+01  0.0000000000000E+00
-0.5879917249834E+00  0.1110703958380E+01  0.0000000000000E+00
-0.3145837448712E+00  0.4657520002446E+00  0.0000000000000E+00
-0.3262058732712E+00  0.5024255397187E+00  0.0000000000000E+00
-0.3378280016712E+00  0.5390990791928E+00  0.0000000000000E+00
-0.3494501300712E+00  0.5757726186668E+00  0.0000000000000E+00
-0.3610722584712E+00  0.6124461581409E+00  0.0000000000000E+00
-0.3726943868712E+00  0.6491196976150E+00  0.0000000000000E+00
-0.3843165152712E+00  0.6857932370891E+00  0.0000000000000E+00
-0.3959386436712E+00  0.7224667765632E+00  0.0000000000000E+00
-0.4075607720712E+00  0.7591403160373E+00  0.0000000000000E+00
-0.4191829004712E+00  0.7958138555114E+00  0.0000000000000E+00
-0.4308050288712E+00  0.8324873949855E+00  0.0000000000000E+00
-0.4424271572712E+00  0.8691609344596E+00  0.0000000000000E+00
-0.4540492856712E+00  0.9058344739336E+00  0.0000000000000E+00
-0.4656714140712E+00  0.9425080134077E+00  0.0000000000000E+00
-0.4772935424712E+00  0.9791815528818E+00  0.0000000000000E+00
-0.4889156708713E+00  0.1015855092356E+01  0.0000000000000E+00
-0.5005377992713E+00  0.1052528631830E+01  0.0000000000000E+00
-0.5121599276713E+00  0.1089202171304E+01  0.0000000000000E+00
-0.5237820560713E+00  0.1125875710778E+01  0.0000000000000E+00
-0.2754196909618E+00  0.4700832706777E+00  0.0000000000000E+00
-0.2856275626982E+00  0.5072566872297E+00  0.0000000000000E+00
-0.2958354344346E+00  0.5444301037817E+00  0.0000000000000E+00
-0.3060433061710E+00  0.5816035203337E+00  0.0000000000000E+00
-0.3162511779074E+00  0.6187769368857E+00  0.0000000000000E+00
-0.3264590496438E+00  0.6559503534378E+00  0.0000000000000E+00
-0.3366669213802E+00  0.6931237699898E+00  0.0000000000000E+00
-0.3468747931166E+00  0.7302971865418E+00  0.0000000000000E+00
-0.3570826648530E+00  0.7674706030938E+00  0.0000000000000E+00
-0.3672905365894E+00  0.8046440196458E+00  0.0000000000000E+00
-0.3774984083258E+00  0.8418174361978E+00  0.0000000000000E+00
-0.3877062800623E+00  0.8789908527498E+00  0.0000000000000E+00
-0.3979141517987E+00  0.9161642693018E+00  0.0000000000000E+00
-0.4081220235351E+00  0.9533376858538E+00  0.0000000000000E+00
-0.4183298952715E+00  0.9905111024059E+00  0.0000000000000E+00
-0.4285377670079E+00  0.1027684518958E+01  0.0000000000000E+00
-0.4387456387443E+00  0.1064857935510E+01  0.0000000000000E+00
-0.4489535104807E+00  0.1102031352062E+01  0.0000000000000E+00
-0.4591613822171E+00  0.1139204768614E+01  0.0000000000000E+00
-0.2361919209299E+00  0.4738412269098E+00  0.0000000000000E+00
-0.2449696928514E+00  0.5114464367078E+00  0.0000000000000E+00
-0.2537474647729E+00  0.5490516465058E+00  0.0000000000000E+00
-0.2625252366944E+00  0.5866568563038E+00  0.0000000000000E+00
-0.2713030086160E+00  0.6242620661018E+00  0.0000000000000E+00
-0.2800807805375E+00  0.6618672758998E+00  0.0000000000000E+00
-0.2888585524590E+00  0.6994724856977E+00  0.0000000000000E+00
-0.2976363243805E+00  0.7370776954957E+00  0.0000000000000E+00
-0.3064140963021E+00  0.7746829052937E+00  0.0000000000000E+00
-0.3151918682236E+00  0.8122881150917E+00  0.0000000000000E+00
-0.3239696401451E+00  0.8498933248897E+00  0.0000000000000E+00
-0.3327474120667E+00  0.8874985346877E+00  0.0000000000000E+00
-0.3415251839882E+00  0.9251037444857E+00  0.0000000000000E+00
-0.3503029559097E+00  0.9627089542837E+00  0.0000000000000E+00
-0.3590807278312E+00  0.1000314164082E+01  0.0000000000000E+00
-0.3678584997528E+00  0.1037919373880E+01  0.0000000000000E+00
-0.3766362716743E+00  0.1075524583678E+01  0.0000000000000E+00
-0.3854140435958E+00  0.1113129793476E+01  0.0000000000000E+00
-0.3941918155173E+00  0.1150735003274E+01  0.0000000000000E+00
-0.1969098270509E+00  0.4770256980868E+00  0.0000000000000E+00
-0.2042444088384E+00  0.5149968355198E+00  0.0000000000000E+00
-0.2115789906258E+00  0.5529679729529E+00  0.0000000000000E+00
-0.2189135724133E+00  0.5909391103860E+00  0.0000000000000E+00
-0.2262481542008E+00  0.6289102478191E+00  0.0000000000000E+00
-0.2335827359883E+00  0.6668813852521E+00  0.0000000000000E+00
-0.2409173177758E+00  0.7048525226852E+00  0.0000000000000E+00
-0.2482518995633E+00  0.7428236601183E+00  0.0000000000000E+00
-0.2555864813508E+00  0.7807947975513E+00  0.0000000000000E+00
-0.2629210631383E+00  0.8187659349844E+00  0.0000000000000E+00
-0.2702556449257E+00  0.8567370724175E+00  0.0000000000000E+00
-0.2775902267132E+00  0.8947082098506E+00  0.0000000000000E+00
-0.2849248085007E+00  0.9326793472836E+00  0.0000000000000E+00
-0.2922593902882E+00  0.9706504847167E+00  0.0000000000000E+00
-0.2995939720757E+00  0.1008621622150E+01  0.0000000000000E+00
-0.3069285538632E+00  0.1046592759583E+01  0.0000000000000E+00
-0.3142631356507E+00  0.1084563897016E+01  0.0000000000000E+00
-0.3215977174382E+00  0.1122535034449E+01  0.0000000000000E+00
-0.3289322992256E+00  0.1160506171882E+01  0.0000000000000E+00
-0.1575825437874E+00  0.4796361627817E+00  0.0000000000000E+00
-0.1634632579838E+00  0.5179088773513E+00  0.0000000000000E+00
-0.1693439721801E+00  0.5561815919210E+00  0.0000000000000E+00
-0.1752246863765E+00  0.5944543064906E+00  0.0000000000000E+00
-0.1811054005728E+00  0.6327270210602E+00  0.0000000000000E+00
-0.1869861147692E+00  0.6709997356298E+00  0.0000000000000E+00
-0.1928668289655E+00  0.7092724501995E+00  0.0000000000000E+00
-0.1987475431619E+00  0.7475451647691E+00  0.0000000000000E+00
-0.2046282573582E+00  0.7858178793387E+00  0.0000000000000E+00
-0.2105089715546E+00  0.8240905939083E+00  0.0000000000000E+00
-0.2163896857509E+00  0.8623633084779E+00  0.0000000000000E+00
-0.2222703999473E+00  0.9006360230476E+00  0.0000000000000E+00
-0.2281511141436E+00  0.9389087376172E+00  0.0000000000000E+00
-0.2340318283400E+00  0.9771814521868E+00  0.0000000000000E+00
-0.2399125425363E+00  0.1015454166756E+01  0.0000000000000E+00
-0.2457932567327E+00  0.1053726881326E+01  0.0000000000000E+00
-0.2516739709290E+00  0.1091999595896E+01  0.0000000000000E+00
-0.2575546851254E+00  0.1130272310465E+01  0.0000000000000E+00
-0.2634353993217E+00  0.1168545025035E+01  0.0000000000000E+00
-0.1182190059601E+00  0.4816714823591E+00  0.0000000000000E+00
-0.1226373068009E+00  0.5201819624472E+00  0.0000000000000E+00
-0.1270556076417E+00  0.5586924425354E+00  0.0000000000000E+00
-0.1314739084825E+00  0.5972029226235E+00  0.0000000000000E+00
-0.1358922093234E+00  0.6357134027116E+00  0.0000000000000E+00
-0.1403105101642E+00  0.6742238827997E+00  0.0000000000000E+00
-0.1447288110050E+00  0.7127343628879E+00  0.0000000000000E+00
-0.1491471118458E+00  0.7512448429760E+00  0.0000000000000E+00
-0.1535654126866E+00  0.7897553230641E+00  0.0000000000000E+00
-0.1579837135274E+00  0.8282658031523E+00  0.0000000000000E+00
-0.1624020143682E+00  0.8667762832404E+00  0.0000000000000E+00
-0.1668203152090E+00  0.9052867633285E+00  0.0000000000000E+00
-0.1712386160498E+00  0.9437972434166E+00  0.0000000000000E+00
-0.1756569168906E+00  0.9823077235048E+00  0.0000000000000E+00
-0.1800752177314E+00  0.1020818203593E+01  0.0000000000000E+00
-0.1844935185722E+00  0.1059328683681E+01  0.0000000000000E+00
-0.1889118194131E+00  0.1097839163769E+01  0.0000000000000E+00
-0.1933301202539E+00  0.1136349643857E+01  0.0000000000000E+00
-0.1977484210947E+00  0.1174860123945E+01  0.0000000000000E+00
-0.7882810581620E-01  0.4831297079839E+00  0.0000000000000E+00
-0.8177747086543E-01  0.5218135049328E+00  0.0000000000000E+00
-0.8472683591466E-01  0.5604973018818E+00  0.0000000000000E+00
-0.8767620096390E-01  0.5991810988308E+00  0.0000000000000E+00
-0.9062556601313E-01  0.6378648957797E+00  0.0000000000000E+00
-0.9357493106237E-01  0.6765486927287E+00  0.0000000000000E+00
-0.9652429611160E-01  0.7152324896776E+00  0.0000000000000E+00
-0.9947366116083E-01  0.7539162866266E+00  0.0000000000000E+00
-0.1024230262101E+00  0.7926000835756E+00  0.0000000000000E+00
-0.1053723912593E+00  0.8312838805245E+00  0.0000000000000E+00
-0.1083217563085E+00  0.8699676774735E+00  0.0000000000000E+00
-0.1112711213578E+00  0.9086514744224E+00  0.0000000000000E+00
-0.1142204864070E+00  0.9473352713714E+00  0.0000000000000E+00
-0.1171698514562E+00  0.9860190683204E+00  0.0000000000000E+00
-0.1201192165055E+00  0.1024702865269E+01  0.0000000000000E+00
-0.1230685815547E+00  0.1063386662218E+01  0.0000000000000E+00
-0.1260179466039E+00  0.1102070459167E+01  0.0000000000000E+00
-0.1289673116532E+00  0.1140754256116E+01  0.0000000000000E+00
-0.1319166767024E+00  0.1179438053065E+01  0.0000000000000E+00
-0.3941874312013E-01  0.4840078928243E+00  0.0000000000000E+00
-0.4089463112221E-01  0.5227985519517E+00  0.0000000000000E+00
-0.4237051912429E-01  0.5615892110790E+00  0.0000000000000E+00
-0.4384640712637E-01  0.6003798702064E+00  0.0000000000000E+00
-0.4532229512845E-01  0.6391705293337E+00  0.0000000000000E+00
-0.4679818313053E-01  0.6779611884610E+00  0.0000000000000E+00
-0.4827407113261E-01  0.7167518475884E+00  0.0000000000000E+00
-0.4974995913469E-01  0.7555425067157E+00  0.0000000000000E+00
-0.5122584713677E-01  0.7943331658430E+00  0.0000000000000E+00
-0.5270173513885E-01  0.8331238249704E+00  0.0000000000000E+00
-0.5417762314093E-01  0.8719144840977E+00  0.0000000000000E+00
-0.5565351114301E-01  0.9107051432250E+00  0.0000000000000E+00
-0.5712939914509E-01  0.9494958023524E+00  0.0000000000000E+00
-0.5860528714717E-01  0.9882864614797E+00  0.0000000000000E+00
-0.6008117514925E-01  0.1027077120607E+01  0.0000000000000E+00
-0.6155706315133E-01  0.1065867779734E+01  0.0000000000000E+00
-0.6303295115341E-01  0.1104658438862E+01  0.0000000000000E+00
-0.6450883915549E-01  0.1143449097989E+01  0.0000000000000E+00
-0.6598472715757E-01  0.1182239757116E+01  0.0000000000000E+00
 0.2029389626142E-10  0.4843018200064E+00  0.0000000000000E+00
 0.4058818043640E-10  0.5231292357807E+00  0.0000000000000E+00
 0.6088245073360E-10  0.5619566515550E+00  0.0000000000000E+00
 0.8117677654195E-10  0.6007840673293E+00  0.0000000000000E+00
 0.1014709774502E-09  0.6396114831037E+00  0.0000000000000E+00
 0.1217652893808E-09  0.6784388988780E+00  0.0000000000000E+00
 0.1420595458002E-09  0.7172663146523E+00  0.0000000000000E+00
 0.1623538299752E-09  0.7560937304266E+00  0.0000000000000E+00
 0.1826479198611E-09  0.7949211462009E+00  0.0000000000000E+00
 0.2029422873028E-09  0.8337485619753E+00  0.0000000000000E+00
 0.2232365992334E-09  0.8725759777496E+00  0.0000000000000E+00
 0.2435308556528E-09  0.9114033935239E+00  0.0000000000000E+00
 0.2638250010499E-09  0.9502308092982E+00  0.0000000000000E+00
 0.2841192574693E-09  0.9890582250725E+00  0.0000000000000E+00
 0.3044134583776E-09  0.1027885640847E+01  0.0000000000000E+00
 0.3247076037747E-09  0.1066713056621E+01  0.0000000000000E+00
 0.3450020822387E-09  0.1105540472396E+01  0.0000000000000E+00
 0.3652963386581E-09  0.1144367888170E+01  0.0000000000000E+00
 0.3855903730329E-09  0.1183195303944E+01  0.0000000000000E+00
 0.3941874316069E-01  0.4840078928230E+00  0.0000000000000E+00
 0.4089463120334E-01  0.5227985519491E+00  0.0000000000000E+00
 0.4237051924599E-01  0.5615892110751E+00  0.0000000000000E+00
 0.4384640728863E-01  0.6003798702011E+00  0.0000000000000E+00
 0.4532229533128E-01  0.6391705293271E+00  0.0000000000000E+00
 0.4679818337393E-01  0.6779611884531E+00  0.0000000000000E+00
 0.4827407141658E-01  0.7167518475791E+00  0.0000000000000E+00
 0.4974995945922E-01  0.7555425067052E+00  0.0000000000000E+00
 0.5122584750187E-01  0.7943331658312E+00  0.0000000000000E+00
 0.5270173554452E-01  0.8331238249572E+00  0.0000000000000E+00
 0.5417762358717E-01  0.8719144840832E+00  0.0000000000000E+00
 0.5565351162981E-01  0.9107051432092E+00  0.0000000000000E+00
 0.5712939967246E-01  0.9494958023353E+00  0.0000000000000E+00
 0.5860528771511E-01  0.9882864614613E+00  0.0000000000000E+00
 0.6008117575775E-01  0.1027077120587E+01  0.0000000000000E+00
 0.6155706380040E-01  0.1065867779713E+01  0.0000000000000E+00
 0.6303295184305E-01  0.1104658438839E+01  0.0000000000000E+00
 0.6450883988570E-01  0.1143449097965E+01  0.0000000000000E+00
 0.6598472792834E-01  0.1182239757091E+01  0.0000000000000E+00
 0.7882810585671E-01  0.4831297079813E+00  0.0000000000000E+00
 0.8177747094646E-01  0.5218135049277E+00  0.0000000000000E+00
 0.8472683603621E-01  0.5604973018741E+00  0.0000000000000E+00
 0.8767620112596E-01  0.5991810988204E+00  0.0000000000000E+00
 0.9062556621572E-01  0.6378648957668E+00  0.0000000000000E+00
 0.9357493130547E-01  0.6765486927132E+00  0.0000000000000E+00
 0.9652429639522E-01  0.7152324896596E+00  0.0000000000000E+00
 0.9947366148497E-01  0.7539162866059E+00  0.0000000000000E+00
 0.1024230265747E+00  0.7926000835523E+00  0.0000000000000E+00
 0.1053723916645E+00  0.8312838804987E+00  0.0000000000000E+00
 0.1083217567542E+00  0.8699676774451E+00  0.0000000000000E+00
 0.1112711218440E+00  0.9086514743914E+00  0.0000000000000E+00
 0.1142204869337E+00  0.9473352713378E+00  0.0000000000000E+00
 0.1171698520235E+00  0.9860190682842E+00  0.0000000000000E+00
 0.1201192171132E+00  0.1024702865231E+01  0.0000000000000E+00
 0.1230685822030E+00  0.1063386662177E+01  0.0000000000000E+00
 0.1260179472927E+00  0.1102070459123E+01  0.0000000000000E+00
 0.1289673123825E+00  0.1140754256070E+01  0.0000000000000E+00
 0.1319166774722E+00  0.1179438053016E+01  0.0000000000000E+00
 0.1182190060006E+00  0.4816714823553E+00  0.0000000000000E+00
 0.1226373068818E+00  0.5201819624396E+00  0.0000000000000E+00
 0.1270556077630E+00  0.5586924425239E+00  0.0000000000000E+00
 0.1314739086443E+00  0.5972029226082E+00  0.0000000000000E+00
 0.1358922095255E+00  0.6357134026926E+00  0.0000000000000E+00
 0.1403105104068E+00  0.6742238827769E+00  0.0000000000000E+00
 0.1447288112880E+00  0.7127343628612E+00  0.0000000000000E+00
 0.1491471121693E+00  0.7512448429455E+00  0.0000000000000E+00
 0.1535654130505E+00  0.7897553230298E+00  0.0000000000000E+00
 0.1579837139318E+00  0.8282658031141E+00  0.0000000000000E+00
 0.1624020148130E+00  0.8667762831985E+00  0.0000000000000E+00
 0.1668203156943E+00  0.9052867632828E+00  0.0000000000000E+00
 0.1712386165755E+00  0.9437972433671E+00  0.0000000000000E+00
 0.1756569174567E+00  0.9823077234514E+00  0.0000000000000E+00
 0.1800752183380E+00  0.1020818203536E+01  0.0000000000000E+00
 0.1844935192192E+00  0.1059328683620E+01  0.0000000000000E+00
 0.1889118201005E+00  0.1097839163704E+01  0.0000000000000E+00
 0.1933301209817E+00  0.1136349643789E+01  0.0000000000000E+00
 0.1977484218630E+00  0.1174860123873E+01  0.0000000000000E+00
 0.1575825438277E+00  0.4796361627767E+00  0.0000000000000E+00
 0.1634632580644E+00  0.5179088773413E+00  0.0000000000000E+00
 0.1693439723011E+00  0.5561815919059E+00  0.0000000000000E+00
 0.1752246865377E+00  0.5944543064706E+00  0.0000000000000E+00
 0.1811054007744E+00  0.6327270210352E+00  0.0000000000000E+00
 0.1869861150110E+00  0.6709997355998E+00  0.0000000000000E+00
 0.1928668292477E+00  0.7092724501644E+00  0.0000000000000E+00
 0.1987475434844E+00  0.7475451647290E+00  0.0000000000000E+00
 0.2046282577210E+00  0.7858178792936E+00  0.0000000000000E+00
 0.2105089719577E+00  0.8240905938582E+00  0.0000000000000E+00
 0.2163896861943E+00  0.8623633084229E+00  0.0000000000000E+00
 0.2222704004310E+00  0.9006360229875E+00  0.0000000000000E+00
 0.2281511146677E+00  0.9389087375521E+00  0.0000000000000E+00
 0.2340318289043E+00  0.9771814521167E+00  0.0000000000000E+00
 0.2399125431410E+00  0.1015454166681E+01  0.0000000000000E+00
 0.2457932573776E+00  0.1053726881246E+01  0.0000000000000E+00
 0.2516739716143E+00  0.1091999595811E+01  0.0000000000000E+00
 0.2575546858510E+00  0.1130272310375E+01  0.0000000000000E+00
 0.2634354000876E+00  0.1168545024940E+01  0.0000000000000E+00
 0.1969098270910E+00  0.4770256980806E+00  0.0000000000000E+00
 0.2042444089187E+00  0.5149968355075E+00  0.0000000000000E+00
 0.2115789907463E+00  0.5529679729344E+00  0.0000000000000E+00
 0.2189135725740E+00  0.5909391103613E+00  0.0000000000000E+00
 0.2262481544016E+00  0.6289102477881E+00  0.0000000000000E+00
 0.2335827362293E+00  0.6668813852150E+00  0.0000000000000E+00
 0.2409173180569E+00  0.7048525226419E+00  0.0000000000000E+00
 0.2482518998846E+00  0.7428236600688E+00  0.0000000000000E+00
 0.2555864817122E+00  0.7807947974957E+00  0.0000000000000E+00
 0.2629210635399E+00  0.8187659349226E+00  0.0000000000000E+00
 0.2702556453675E+00  0.8567370723495E+00  0.0000000000000E+00
 0.2775902271952E+00  0.8947082097764E+00  0.0000000000000E+00
 0.2849248090228E+00  0.9326793472033E+00  0.0000000000000E+00
 0.2922593908505E+00  0.9706504846302E+00  0.0000000000000E+00
 0.2995939726781E+00  0.1008621622057E+01  0.0000000000000E+00
 0.3069285545058E+00  0.1046592759484E+01  0.0000000000000E+00
 0.3142631363334E+00  0.1084563896911E+01  0.0000000000000E+00
 0.3215977181611E+00  0.1122535034338E+01  0.0000000000000E+00
 0.3289322999887E+00  0.1160506171765E+01  0.0000000000000E+00
 0.2361919209698E+00  0.4738412269025E+00  0.0000000000000E+00
 0.2449696929314E+00  0.5114464366931E+00  0.0000000000000E+00
 0.2537474648929E+00  0.5490516464838E+00  0.0000000000000E+00
 0.2625252368544E+00  0.5866568562744E+00  0.0000000000000E+00
 0.2713030088159E+00  0.6242620660651E+00  0.0000000000000E+00
 0.2800807807774E+00  0.6618672758557E+00  0.0000000000000E+00
 0.2888585527389E+00  0.6994724856464E+00  0.0000000000000E+00
 0.2976363247005E+00  0.7370776954370E+00  0.0000000000000E+00
 0.3064140966620E+00  0.7746829052277E+00  0.0000000000000E+00
 0.3151918686235E+00  0.8122881150183E+00  0.0000000000000E+00
 0.3239696405850E+00  0.8498933248090E+00  0.0000000000000E+00
 0.3327474125465E+00  0.8874985345996E+00  0.0000000000000E+00
 0.3415251845080E+00  0.9251037443903E+00  0.0000000000000E+00
 0.3503029564696E+00  0.9627089541809E+00  0.0000000000000E+00
 0.3590807284311E+00  0.1000314163972E+01  0.0000000000000E+00
 0.3678585003926E+00  0.1037919373762E+01  0.0000000000000E+00
 0.3766362723541E+00  0.1075524583553E+01  0.0000000000000E+00
 0.3854140443156E+00  0.1113129793344E+01  0.0000000000000E+00
 0.3941918162772E+00  0.1150735003134E+01  0.0000000000000E+00
 0.2754196910016E+00  0.4700832706692E+00  0.0000000000000E+00
 0.2856275627779E+00  0.5072566872127E+00  0.0000000000000E+00
 0.2958354345541E+00  0.5444301037562E+00  0.0000000000000E+00
 0.3060433063303E+00  0.5816035202998E+00  0.0000000000000E+00
 0.3162511781066E+00  0.6187769368433E+00  0.0000000000000E+00
 0.3264590498828E+00  0.6559503533868E+00  0.0000000000000E+00
 0.3366669216591E+00  0.6931237699303E+00  0.0000000000000E+00
 0.3468747934353E+00  0.7302971864738E+00  0.0000000000000E+00
 0.3570826652115E+00  0.7674706030173E+00  0.0000000000000E+00
 0.3672905369878E+00  0.8046440195609E+00  0.0000000000000E+00
 0.3774984087640E+00  0.8418174361044E+00  0.0000000000000E+00
 0.3877062805402E+00  0.8789908526479E+00  0.0000000000000E+00
 0.3979141523165E+00  0.9161642691914E+00  0.0000000000000E+00
 0.4081220240927E+00  0.9533376857349E+00  0.0000000000000E+00
 0.4183298958690E+00  0.9905111022785E+00  0.0000000000000E+00
 0.4285377676452E+00  0.1027684518822E+01  0.0000000000000E+00
 0.4387456394214E+00  0.1064857935365E+01  0.0000000000000E+00
 0.4489535111977E+00  0.1102031351909E+01  0.0000000000000E+00
 0.4591613829739E+00  0.1139204768453E+01  0.0000000000000E+00
 0.3145837449108E+00  0.4657520002350E+00  0.0000000000000E+00
 0.3262058733503E+00  0.5024255396995E+00  0.0000000000000E+00
 0.3378280017898E+00  0.5390990791639E+00  0.0000000000000E+00
 0.3494501302294E+00  0.5757726186284E+00  0.0000000000000E+00
 0.3610722586689E+00  0.6124461580929E+00  0.0000000000000E+00
 0.3726943871084E+00  0.6491196975574E+00  0.0000000000000E+00
 0.3843165155480E+00  0.6857932370219E+00  0.0000000000000E+00
 0.3959386439875E+00  0.7224667764863E+00  0.0000000000000E+00
 0.4075607724270E+00  0.7591403159508E+00  0.0000000000000E+00
 0.4191829008666E+00  0.7958138554153E+00  0.0000000000000E+00
 0.4308050293061E+00  0.8324873948798E+00  0.0000000000000E+00
 0.4424271577456E+00  0.8691609343443E+00  0.0000000000000E+00
 0.4540492861852E+00  0.9058344738087E+00  0.0000000000000E+00
 0.4656714146247E+00  0.9425080132732E+00  0.0000000000000E+00
 0.4772935430642E+00  0.9791815527377E+00  0.0000000000000E+00
 0.4889156715038E+00  0.1015855092202E+01  0.0000000000000E+00
 0.5005377999433E+00  0.1052528631667E+01  0.0000000000000E+00
 0.5121599283828E+00  0.1089202171131E+01  0.0000000000000E+00
 0.5237820568224E+00  0.1125875710596E+01  0.0000000000000E+00
 0.3536746458685E+00  0.4608476922366E+00  0.0000000000000E+00
 0.3666922614163E+00  0.4969508181222E+00  0.0000000000000E+00
 0.3797098769641E+00  0.5330539440077E+00  0.0000000000000E+00
 0.3927274925120E+00  0.5691570698933E+00  0.0000000000000E+00
 0.4057451080598E+00  0.6052601957789E+00  0.0000000000000E+00
 0.4187627236076E+00  0.6413633216644E+00  0.0000000000000E+00
 0.4317803391555E+00  0.6774664475500E+00  0.0000000000000E+00
 0.4447979547033E+00  0.7135695734356E+00  0.0000000000000E+00
 0.4578155702512E+00  0.7496726993211E+00  0.0000000000000E+00
 0.4708331857990E+00  0.7857758252067E+00  0.0000000000000E+00
 0.4838508013468E+00  0.8218789510922E+00  0.0000000000000E+00
 0.4968684168947E+00  0.8579820769778E+00  0.0000000000000E+00
 0.5098860324425E+00  0.8940852028634E+00  0.0000000000000E+00
 0.5229036479903E+00  0.9301883287489E+00  0.0000000000000E+00
 0.5359212635382E+00  0.9662914546345E+00  0.0000000000000E+00
 0.5489388790860E+00  0.1002394580520E+01  0.0000000000000E+00
 0.5619564946338E+00  0.1038497706406E+01  0.0000000000000E+00
 0.5749741101817E+00  0.1074600832291E+01  0.0000000000000E+00
 0.5879917257295E+00  0.1110703958177E+01  0.0000000000000E+00
 0.3926829943248E+00  0.4553717726702E+00  0.0000000000000E+00
 0.4070743134774E+00  0.4908323142595E+00  0.0000000000000E+00
 0.4214656326299E+00  0.5262928558488E+00  0.0000000000000E+00
 0.4358569517824E+00  0.5617533974382E+00  0.0000000000000E+00
 0.4502482709349E+00  0.5972139390275E+00  0.0000000000000E+00
 0.4646395900874E+00  0.6326744806169E+00  0.0000000000000E+00
 0.4790309092400E+00  0.6681350222062E+00  0.0000000000000E+00
 0.4934222283925E+00  0.7035955637956E+00  0.0000000000000E+00
 0.5078135475450E+00  0.7390561053849E+00  0.0000000000000E+00
 0.5222048666975E+00  0.7745166469743E+00  0.0000000000000E+00
 0.5365961858501E+00  0.8099771885636E+00  0.0000000000000E+00
 0.5509875050026E+00  0.8454377301529E+00  0.0000000000000E+00
 0.5653788241551E+00  0.8808982717423E+00  0.0000000000000E+00
 0.5797701433076E+00  0.9163588133316E+00  0.0000000000000E+00
 0.5941614624601E+00  0.9518193549210E+00  0.0000000000000E+00
 0.6085527816127E+00  0.9872798965103E+00  0.0000000000000E+00
 0.6229441007652E+00  0.1022740438100E+01  0.0000000000000E+00
 0.6373354199177E+00  0.1058200979689E+01  0.0000000000000E+00
 0.6517267390702E+00  0.1093661521278E+01  0.0000000000000E+00
 0.4316001604581E+00  0.4493289287768E+00  0.0000000000000E+00
 0.4473410323378E+00  0.4840760209408E+00  0.0000000000000E+00
 0.4630819042174E+00  0.5188231131049E+00  0.0000000000000E+00
 0.4788227760970E+00  0.5535702052689E+00  0.0000000000000E+00
 0.4945636479767E+00  0.5883172974329E+00  0.0000000000000E+00
 0.5103045198563E+00  0.6230643895969E+00  0.0000000000000E+00
 0.5260453917359E+00  0.6578114817609E+00  0.0000000000000E+00
 0.5417862636155E+00  0.6925585739250E+00  0.0000000000000E+00
 0.5575271354952E+00  0.7273056660890E+00  0.0000000000000E+00
 0.5732680073748E+00  0.7620527582530E+00  0.0000000000000E+00
 0.5890088792544E+00  0.7967998504170E+00  0.0000000000000E+00
 0.6047497511341E+00  0.8315469425810E+00  0.0000000000000E+00
 0.6204906230137E+00  0.8662940347451E+00  0.0000000000000E+00
 0.6362314948933E+00  0.9010411269091E+00  0.0000000000000E+00
 0.6519723667730E+00  0.9357882190731E+00  0.0000000000000E+00
 0.6677132386526E+00  0.9705353112371E+00  0.0000000000000E+00
 0.6834541105322E+00  0.1005282403401E+01  0.0000000000000E+00
 0.6991949824118E+00  0.1040029495565E+01  0.0000000000000E+00
 0.7149358542915E+00  0.1074776587729E+01  0.0000000000000E+00
 0.4704201190014E+00  0.4427312295532E+00  0.0000000000000E+00
 0.4874864928703E+00  0.4767023850238E+00  0.0000000000000E+00
 0.5045528667393E+00  0.5106735404944E+00  0.0000000000000E+00
 0.5216192406082E+00  0.5446446959651E+00  0.0000000000000E+00
 0.5386856144772E+00  0.5786158514357E+00  0.0000000000000E+00
 0.5557519883461E+00  0.6125870069063E+00  0.0000000000000E+00
 0.5728183622150E+00  0.6465581623769E+00  0.0000000000000E+00
 0.5898847360840E+00  0.6805293178476E+00  0.0000000000000E+00
 0.6069511099529E+00  0.7145004733182E+00  0.0000000000000E+00
 0.6240174838218E+00  0.7484716287888E+00  0.0000000000000E+00
 0.6410838576908E+00  0.7824427842594E+00  0.0000000000000E+00
 0.6581502315597E+00  0.8164139397300E+00  0.0000000000000E+00
 0.6752166054286E+00  0.8503850952007E+00  0.0000000000000E+00
 0.6922829792976E+00  0.8843562506713E+00  0.0000000000000E+00
 0.7093493531665E+00  0.9183274061419E+00  0.0000000000000E+00
 0.7264157270354E+00  0.9522985616125E+00  0.0000000000000E+00
 0.7434821009044E+00  0.9862697170832E+00  0.0000000000000E+00
 0.7605484747733E+00  0.1020240872554E+01  0.0000000000000E+00
 0.7776148486422E+00  0.1054212028024E+01  0.0000000000000E+00
 0.5091428679437E+00  0.4356052711680E+00  0.0000000000000E+00
 0.5275166039441E+00  0.4687606221902E+00  0.0000000000000E+00
 0.5458903399444E+00  0.5019159732123E+00  0.0000000000000E+00
 0.5642640759448E+00  0.5350713242345E+00  0.0000000000000E+00
 0.5826378119451E+00  0.5682266752566E+00  0.0000000000000E+00
 0.6010115479455E+00  0.6013820262787E+00  0.0000000000000E+00
 0.6193852839459E+00  0.6345373773009E+00  0.0000000000000E+00
 0.6377590199462E+00  0.6676927283230E+00  0.0000000000000E+00
 0.6561327559466E+00  0.7008480793452E+00  0.0000000000000E+00
 0.6745064919470E+00  0.7340034303673E+00  0.0000000000000E+00
 0.6928802279473E+00  0.7671587813894E+00  0.0000000000000E+00
 0.7112539639477E+00  0.8003141324116E+00  0.0000000000000E+00
 0.7296276999480E+00  0.8334694834337E+00  0.0000000000000E+00
 0.7480014359484E+00  0.8666248344558E+00  0.0000000000000E+00
 0.7663751719488E+00  0.8997801854780E+00  0.0000000000000E+00
 0.7847489079491E+00  0.9329355365001E+00  0.0000000000000E+00
 0.8031226439495E+00  0.9660908875223E+00  0.0000000000000E+00
 0.8214963799499E+00  0.9992462385444E+00  0.0000000000000E+00
 0.8398701159502E+00  0.1032401589567E+01  0.0000000000000E+00
 0.5477768854571E+00  0.4279968810059E+00  0.0000000000000E+00
 0.5674541537630E+00  0.4603381160649E+00  0.0000000000000E+00
 0.5871314220688E+00  0.4926793511240E+00  0.0000000000000E+00
 0.6068086903747E+00  0.5250205861830E+00  0.0000000000000E+00
 0.6264859586806E+00  0.5573618212420E+00  0.0000000000000E+00
 0.6461632269865E+00  0.5897030563010E+00  0.0000000000000E+00
 0.6658404952923E+00  0.6220442913601E+00  0.0000000000000E+00
 0.6855177635982E+00  0.6543855264191E+00  0.0000000000000E+00
 0.7051950319041E+00  0.6867267614781E+00  0.0000000000000E+00
 0.7248723002099E+00  0.7190679965371E+00  0.0000000000000E+00
 0.7445495685158E+00  0.7514092315961E+00  0.0000000000000E+00
 0.7642268368217E+00  0.7837504666552E+00  0.0000000000000E+00
 0.7839041051276E+00  0.8160917017142E+00  0.0000000000000E+00
 0.8035813734334E+00  0.8484329367732E+00  0.0000000000000E+00
 0.8232586417393E+00  0.8807741718322E+00  0.0000000000000E+00
 0.8429359100452E+00  0.9131154068912E+00  0.0000000000000E+00
 0.8626131783511E+00  0.9454566419503E+00  0.0000000000000E+00
 0.8822904466569E+00  0.9777978770093E+00  0.0000000000000E+00
 0.9019677149628E+00  0.1010139112068E+01  0.0000000000000E+00
 0.5863228020220E+00  0.4199269192670E+00  0.0000000000000E+00
 0.6073059539494E+00  0.4514720689682E+00  0.0000000000000E+00
 0.6282891058768E+00  0.4830172186695E+00  0.0000000000000E+00
 0.6492722578042E+00  0.5145623683708E+00  0.0000000000000E+00
 0.6702554097316E+00  0.5461075180720E+00  0.0000000000000E+00
 0.6912385616590E+00  0.5776526677733E+00  0.0000000000000E+00
 0.7122217135865E+00  0.6091978174745E+00  0.0000000000000E+00
 0.7332048655139E+00  0.6407429671758E+00  0.0000000000000E+00
 0.7541880174413E+00  0.6722881168770E+00  0.0000000000000E+00
 0.7751711693687E+00  0.7038332665783E+00  0.0000000000000E+00
 0.7961543212961E+00  0.7353784162796E+00  0.0000000000000E+00
 0.8171374732236E+00  0.7669235659808E+00  0.0000000000000E+00
 0.8381206251510E+00  0.7984687156821E+00  0.0000000000000E+00
 0.8591037770784E+00  0.8300138653833E+00  0.0000000000000E+00
 0.8800869290058E+00  0.8615590150846E+00  0.0000000000000E+00
 0.9010700809332E+00  0.8931041647858E+00  0.0000000000000E+00
 0.9220532328607E+00  0.9246493144871E+00  0.0000000000000E+00
 0.9430363847881E+00  0.9561944641884E+00  0.0000000000000E+00
 0.9640195367155E+00  0.9877396138896E+00  0.0000000000000E+00
 0.6247718534565E+00  0.4113904599593E+00  0.0000000000000E+00
 0.6470599870427E+00  0.4421478324182E+00  0.0000000000000E+00
 0.6693481206289E+00  0.4729052048771E+00  0.0000000000000E+00
 0.6916362542152E+00  0.5036625773361E+00  0.0000000000000E+00
 0.7139243878014E+00  0.5344199497950E+00  0.0000000000000E+00
 0.7362125213877E+00  0.5651773222539E+00  0.0000000000000E+00
 0.7585006549739E+00  0.5959346947128E+00  0.0000000000000E+00
 0.7807887885601E+00  0.6266920671718E+00  0.0000000000000E+00
 0.8030769221464E+00  0.6574494396307E+00  0.0000000000000E+00
 0.8253650557326E+00  0.6882068120896E+00  0.0000000000000E+00
 0.8476531893188E+00  0.7189641845486E+00  0.0000000000000E+00
 0.8699413229051E+00  0.7497215570075E+00  0.0000000000000E+00
 0.8922294564913E+00  0.7804789294664E+00  0.0000000000000E+00
 0.9145175900776E+00  0.8112363019254E+00  0.0000000000000E+00
 0.9368057236638E+00  0.8419936743843E+00  0.0000000000000E+00
 0.9590938572500E+00  0.8727510468432E+00  0.0000000000000E+00
 0.9813819908363E+00  0.9035084193021E+00  0.0000000000000E+00
 0.1003670124423E+01  0.9342657917611E+00  0.0000000000000E+00
 0.1025958258009E+01  0.9650231642200E+00  0.0000000000000E+00
 0.6631144762382E+00  0.4023799804640E+00  0.0000000000000E+00
 0.6867022090618E+00  0.4323453794102E+00  0.0000000000000E+00
 0.7102899418854E+00  0.4623107783564E+00  0.0000000000000E+00
 0.7338776747089E+00  0.4922761773027E+00  0.0000000000000E+00
 0.7574654075325E+00  0.5222415762489E+00  0.0000000000000E+00
 0.7810531403561E+00  0.5522069751951E+00  0.0000000000000E+00
 0.8046408731796E+00  0.5821723741413E+00  0.0000000000000E+00
 0.8282286060032E+00  0.6121377730876E+00  0.0000000000000E+00
 0.8518163388268E+00  0.6421031720338E+00  0.0000000000000E+00
 0.8754040716504E+00  0.6720685709800E+00  0.0000000000000E+00
 0.8989918044739E+00  0.7020339699262E+00  0.0000000000000E+00
 0.9225795372975E+00  0.7319993688725E+00  0.0000000000000E+00
 0.9461672701211E+00  0.7619647678187E+00  0.0000000000000E+00
 0.9697550029446E+00  0.7919301667649E+00  0.0000000000000E+00
 0.9933427357682E+00  0.8218955657111E+00  0.0000000000000E+00
 0.1016930468592E+01  0.8518609646574E+00  0.0000000000000E+00
 0.1040518201415E+01  0.8818263636036E+00  0.0000000000000E+00
 0.1064105934239E+01  0.9117917625498E+00  0.0000000000000E+00
 0.1087693667062E+01  0.9417571614961E+00  0.0000000000000E+00
 0.7013395437085E+00  0.3928851883836E+00  0.0000000000000E+00
 0.7262154212153E+00  0.4220388917836E+00  0.0000000000000E+00
 0.7510912987220E+00  0.4511925951835E+00  0.0000000000000E+00
 0.7759671762288E+00  0.4803462985835E+00  0.0000000000000E+00
 0.8008430537356E+00  0.5095000019835E+00  0.0000000000000E+00
 0.8257189312424E+00  0.5386537053834E+00  0.0000000000000E+00
 0.8505948087492E+00  0.5678074087834E+00  0.0000000000000E+00
 0.8754706862560E+00  0.5969611121833E+00  0.0000000000000E+00
 0.9003465637627E+00  0.6261148155833E+00  0.0000000000000E+00
 0.9252224412695E+00  0.6552685189833E+00  0.0000000000000E+00
 0.9500983187763E+00  0.6844222223832E+00  0.0000000000000E+00
 0.9749741962831E+00  0.7135759257832E+00  0.0000000000000E+00
 0.9998500737899E+00  0.7427296291831E+00  0.0000000000000E+00
 0.1024725951297E+01  0.7718833325831E+00  0.0000000000000E+00
 0.1049601828803E+01  0.8010370359831E+00  0.0000000000000E+00
 0.1074477706310E+01  0.8301907393830E+00  0.0000000000000E+00
 0.1099353583817E+01  0.8593444427830E+00  0.0000000000000E+00
 0.1124229461324E+01  0.8884981461829E+00  0.0000000000000E+00
 0.1149105338831E+01  0.9176518495829E+00  0.0000000000000E+00
 0.7394329578610E+00  0.3828904307705E+00  0.0000000000000E+00
 0.7655763768245E+00  0.4111916019715E+00  0.0000000000000E+00
 0.7917197957880E+00  0.4394927731724E+00  0.0000000000000E+00
 0.8178632147515E+00  0.4677939443734E+00  0.0000000000000E+00
 0.8440066337150E+00  0.4960951155743E+00  0.0000000000000E+00
 0.8701500526785E+00  0.5243962867753E+00  0.0000000000000E+00
 0.8962934716420E+00  0.5526974579763E+00  0.0000000000000E+00
 0.9224368906055E+00  0.5809986291772E+00  0.0000000000000E+00
 0.9485803095690E+00  0.6092998003782E+00  0.0000000000000E+00
 0.9747237285325E+00  0.6376009715791E+00  0.0000000000000E+00
 0.1000867147496E+01  0.6659021427801E+00  0.0000000000000E+00
 0.1027010566459E+01  0.6942033139810E+00  0.0000000000000E+00
 0.1053153985423E+01  0.7225044851820E+00  0.0000000000000E+00
 0.1079297404386E+01  0.7508056563830E+00  0.0000000000000E+00
 0.1105440823350E+01  0.7791068275839E+00  0.0000000000000E+00
 0.1131584242313E+01  0.8074079987849E+00  0.0000000000000E+00
 0.1157727661277E+01  0.8357091699858E+00  0.0000000000000E+00
 0.1183871080240E+01  0.8640103411868E+00  0.0000000000000E+00
 0.1210014499204E+01  0.8923115123877E+00  0.0000000000000E+00
</DataArray>
</Points>
<Cells>
<DataArray type="Int64" Name="connectivity" format="ascii">
0 11 438 243
243 438 439 244
244 439 440 245
245 440 441 246
246 441 442 247
247 442 443 248
248 443 444 249
249 444 445 250
250 445 446 251
251 446 447 252
252 447 448 253
253 448 449 254
254 449 450 255
255 450 451 256
256 451 452 257
257 452 453 258
258 453 454 259
259 454 455 260
260 455 456 261
261 456 457 262
262 457 458 263
263 458 459 264
264 459 460 265
265 460 461 266
266 461 462 267
267 462 463 268
268 463 464 269
269 464 465 270
270 465 466 271
271 466 467 272
272 467 468 273
273 468 469 274
274 469 470 275
275 470 471 276
276 471 472 277
277 472 473 278
278 473 474 279
279 474 475 280
280 475 476 281
281 476 477 282
282 477 89 3
11 12 478 438
438 478 479 439
439 479 480 440
440 480 481 441
441 481 482 442
442 482 483 443
443 483 484 444
444 484 485 445
445 485 486 446
446 486 487 447
447 487 488 448
448 488 489 449
449 489 490 450
450 490 491 451
451 491 492 452
452 492 493 453
453 493 494 454
454 494 495 455
455 495 496 456
456 496 497 457
457 497 498 458
458 498 499 459
459 499 500 460
460 500 501 461
461 501 502 462
462 502 503 463
463 503 504 464
464 504 505 465
465 505 506 466
466 506 507 467
467 507 508 468
468 508 509 469
469 509 510 470
470 510 511 471
471 511 512 472
472 512 513 473
473 513 514 474
474 514 515 475
475 515 516 476
476 516 517 477
477 517 90 89
12 13 518 478
478 518 519 479
479 519 520 480
480 520 521 481
481 521 522 482
482 522 523 483
483 523 524 484
484 524 525 485
485 525 526 486
486 526 527 487
487 527 528 488
488 528 529 489
489 529 530 490
490 530 531 491
491 531 532 492
492 532 533 493
493 533 534 494
494 534 535 495
495 535 536 496
496 536 537 497
497 537 538 498
498 538 539 499
499 539 540 500
500 540 541 501
501 541 542 502
502 542 543 503
503 543 544 504
504 544 545 505
505 545 546 506
506 546 547 507
507 547 548 508
508 548 549 509
509 549 550 510
510 550 551 511
511 551 552 512
512 552 553 513
513 553 554 514
514 554 555 515
515 555 556 516
516 556 557 517
517 557 91 90
13 14 558 518
518 558 559 519
519 559 560 520
520 560 561 521
521 561 562 522
522 562 563 523
523 563 564 524
524 564 565 525
525 565 566 526
526 566 567 527
527 567 568 528
528 568 569 529
529 569 570 530
530 570 571 531
531 571 572 532
532 572 573 533
533 573 574 534
534 574 575 535
535 575 576 536
536 576 577 537
537 577 578 538
538 578 579 539
539 579 580 540
540 580 581 541
541 581 582 542
542 582 583 543
543 583 584 544
544 584 585 545
545 585 586 546
546 586 587 547
547 587 588 548
548 588 589 549
549 589 590 550
550 590 591 551
551 591 592 552
552 592 593 553
553 593 594 554
554 594 595 555
555 595 596 556
556 596 597 557
557 597 92 91
14 15 598 558
558 598 599 559
559 599 600 560
560 600 601 561
561 601 602 562
562 602 603 563
563 603 604 564
564 604 605 565
565 605 606 566
566 606 607 567
567 607 608 568
568 608 609 569
569 609 610 570
570 610 611 571
571 611 612 572
572 612 613 573
573 613 614 574
574 614 615 575
575 615 616 576
576 616 617 577
577 617 618 578
578 618 619 579
579 619 620 580
580 620 621 581
581 621 622 582
582 622 623 583
583 623 624 584
584 624 625 585
585 625 626 586
586 626 627 587
587 627 628 588
588 628 629 589
589 629 630 590
590 630 631 591
591 631 632 592
592 632 633 593
593 633 634 594
594 634 635 595
595 635 636 596
596 636 637 597
597 637 93 92
15 16 638 598
598 638 639 599
599 639 640 600
600 640 641 601
601 641 642 602
602 642 643 603
603 643 644 604
604 644 645 605
605 645 646 606
606 646 647 607
607 647 648 608
608 648 649 609
609 649 650 610
610 650 651 611
611 651 652 612
612 652 653 613
613 653 654 614
614 654 655 615
615 655 656 616
616 656 657 617
617 657 658 618
618 658 659 619
619 659 660 620
620 660 661 621
621 661 662 622
622 662 663 623
623 663 664 624
624 664 665 625
625 665 666 626
626 666 667 627
627 667 668 628
628 668 669 629
629 669 670 630
630 670 671 631
631 671 672 632
632 672 673 633
633 673 674 634
634 674 675 635
635 675 676 636
636 676 677 637
637 677 94 93
16 17 678 638
638 678 679 639
639 679 680 640
640 680 681 641
641 681 682 642
642 682 683 643
643 683 684 644
644 684 685 645
645 685 686 646
646 686 687 647
647 687 688 648
648 688 689 649
649 689 690 650
650 690 691 651
651 691 692 652
652 692 693 653
653 693 694 654
654 694 695 655
655 695 696 656
656 696 697 657
657 697 698 658
658 698 699 659
659 699 700 660
660 700 701 661
661 701 702 662
662 702 703 663
663 703 704 664
664 704 705 665
665 705 706 666
666 706 707 667
667 707 708 668
668 708 709 669
669 709 710 670
670 710 711 671
671 711 712 672
672 712 713 673
673 713 714 674
674 714 715 675
675 715 716 676
676 716 717 677
677 717 95 94
17 18 718 678
678 718 719 679
679 719 720 680
680 720 721 681
681 721 722 682
682 722 723 683
683 723 724 684
684 724 725 685
685 725 726 686
686 726 727 687
687 727 728 688
688 728 729 689
689 729 730 690
690 730 731 691
691 731 732 692
692 732 733 693
693 733 734 694
694 734 735 695
695 735 736 696
696 736 737 697
697 737 738 698
698 738 739 699
699 739 740 700
700 740 741 701
701 741 742 702
702 742 743 703
703 743 744 704
704 744 745 705
705 745 746 706
706 746 747 707
707 747 748 708
708 748 749 709
709 749 750 710
710 750 751 711
711 751 752 712
712 752 753 713
713 753 754 714
714 754 755 715
715 755 756 716
716 756 757 717
717 757 96 95
18 19 758 718
718 758 759 719
719 759 760 720
720 760 761 721
721 761 762 722
722 762 763 723
723 763 764 724
724 764 765 725
725 765 766 726
726 766 767 727
727 767 768 728
728 768 769 729
729 769 770 730
730 770 771 731
731 771 772 732
732 772 773 733
733 773 774 734
734 774 775 735
735 775 776 736
736 776 777 737
737 777 778 738
738 778 779 739
739 779 780 740
740 780 781 741
741 781 782 742
742 782 783 743
743 783 784 744
744 784 785 745
745 785 786 746
746 786 787 747
747 787 788 748
748 788 789 749
749 789 790 750
750 790 791 751
751 791 792 752
752 792 793 753
753 793 794 754
754 794 795 755
755 795 796 756
756 796 797 757
757 797 97 96
19 20 798 758
758 798 799 759
759 799 800 760
760 800 801 761
761 801 802 762
762 802 803 763
763 803 804 764
764 804 805 765
765 805 806 766
766 806 807 767
767 807 808 768
768 808 809 769
769 809 810 770
770 810 811 771
771 811 812 772
772 812 813 773
773 813 814 774
774 814 815 775
775 815 816 776
776 816 817 777
777 817 818 778
778 818 819 779
779 819 820 780
780 820 821 781
781 821 822 782
782 822 823 783
783 823 824 784
784 824 825 785
785 825 826 786
786 826 827 787
787 827 828 788
788 828 829 789
789 829 830 790
790 830 831 791
791 831 832 792
792 832 833 793
793 833 834 794
794 834 835 795
795 835 836 796
796 836 837 797
797 837 98 97
20 21 838 798
798 838 839 799
799 839 840 800
800 840 841 801
801 841 842 802
802 842 843 803
803 843 844 804
804 844 845 805
805 845 846 806
806 846 847 807
807 847 848 808
808 848 849 809
809 849 850 810
810 850 851 811
811 851 852 812
812 852 853 813
813 853 854 814
814 854 855 815
815 855 856 816
816 856 857 817
817 857 858 818
818 858 859 819
819 859 860 820
820 860 861 821
821 861 862 822
822 862 863 823
823 863 864 824
824 864 865 825
825 865 866 826
826 866 867 827
827 867 868 828
828 868 869 829
829 869 870 830
830 870 871 831
831 871 872 832
832 872 873 833
833 873 874 834
834 874 875 835
835 875 876 836
836 876 877 837
837 877 99 98
21 22 878 838
838 878 879 839
839 879 880 840
840 880 881 841
841 881 882 842
842 882 883 843
843 883 884 844
844 884 885 845
845 885 886 846
846 886 887 847
847 887 888 848
848 888 889 849
849 889 890 850
850 890 891 851
851 891 892 852
852 892 893 853
853 893 894 854
854 894 895 855
855 895 896 856
856 896 897 857
857 897 898 858
858 898 899 859
859 899 900 860
860 900 901 861
861 901 902 862
862 902 903 863
863 903 904 864
864 904 905 865
865 905 906 866
866 906 907 867
867 907 908 868
868 908 909 869
869 909 910 870
870 910 911 871
871 911 912 872
872 912 913 873
873 913 914 874
874 914 915 875
875 915 916 876
876 916 917 877
877 917 100 99
22 23 918 878
878 918 919 879
879 919 920 880
880 920 921 881
881 921 922 882
882 922 923 883
883 923 924 884
884 924 925 885
885 925 926 886
886 926 927 887
887 927 928 888
888 928 929 889
889 929 930 890
890 930 931 891
891 931 932 892
892 932 933 893
893 933 934 894
894 934 935 895
895 935 936 896
896 936 937 897
897 937 938 898
898 938 939 899
899 939 940 900
900 940 941 901
901 941 942 902
902 942 943 903
903 943 944 904
904 944 945 905
905 945 946 906
906 946 947 907
907 947 948 908
908 948 949 909
909 949 950 910
910 950 951 911
911 951 952 912
912 952 953 913
913 953 954 914
914 954 955 915
915 955 956 916
916 956 957 917
917 957 101 100
23 24 958 918
918 958 959 919
919 959 960 920
920 960 961 921
921 961 962 922
922 962 963 923
923 963 964 924
924 964 965 925
925 965 966 926
926 966 967 927
927 967 968 928
928 968 969 929
929 969 970 930
930 970 971 931
931 971 972 932
932 972 973 933
933 973 974 934
934 974 975 935
935 975 976 936
936 976 977 937
937 977 978 938
938 978 979 939
939 979 980 940
940 980 981 941
941 981 982 942
942 982 983 943
943 983 984 944
944 984 985 945
945 985 986 946
946 986 987 947
947 987 988 948
948 988 989 949
949 989 990 950
950 990 991 951
951 991 992 952
952 992 993 953
953 993 994 954
954 994 995 955
955 995 996 956
956 996 997 957
957 997 102 101
24 25 998 958
958 998 999 959
959 999 1000 960
960 1000 1001 961
961 1001 1002 962
962 1002 1003 963
963 1003 1004 964
964 1004 1005 965
965 1005 1006 966
966 1006 1007 967
967 1007 1008 968
968 1008 1009 969
969 1009 1010 970
970 1010 1011 971
971 1011 1012 972
972 1012 1013 973
973 1013 1014 974
974 1014 1015 975
975 1015 1016 976
976 1016 1017 977
977 1017 1018 978
978 1018 1019 979
979 1019 1020 980
980 1020 1021 981
981 1021 1022 982
982 1022 1023 983
983 1023 1024 984
984 1024 1025 985
985 1025 1026 986
986 1026 1027 987
987 1027 1028 988
988 1028 1029 989
989 1029 1030 990
990 1030 1031 991
991 1031 1032 992
992 1032 1033 993
993 1033 1034 994
994 1034 1035 995
995 1035 1036 996
996 1036 1037 997
997 1037 103 102
25 26 1038 998
998 1038 1039 999
999 1039 1040 1000
1000 1040 1041 1001
1001 1041 1042 1002
1002 1042 1043 1003
1003 1043 1044 1004
1004 1044 1045 1005
1005 1045 1046 1006
1006 1046 1047 1007
1007 1047 1048 1008
1008 1048 1049 1009
1009 1049 1050 1010
1010 1050 1051 1011
1011 1051 1052 1012
1012 1052 1053 1013
1013 1053 1054 1014
1014 1054 1055 1015
1015 1055 1056 1016
1016 1056 1057 1017
1017 1057 1058 1018
1018 1058 1059 1019
1019 1059 1060 1020
1020 1060 1061 1021
1021 1061 1062 1022
1022 1062 1063 1023
1023 1063 1064 1024
1024 1064 1065 1025
1025 1065 1066 1026
1026 1066 1067 1027
1027 1067 1068 1028
1028 1068 1069 1029
1029 1069 1070 1030
1030 1070 1071 1031
1031 1071 1072 1032
1032 1072 1073 1033
1033 1073 1074 1034
1034 1074 1075 1035
1035 1075 1076 1036
1036 1076 1077 1037
1037 1077 104 103
26 27 1078 1038
1038 1078 1079 1039
1039 1079 1080 1040
1040 1080 1081 1041
1041 1081 1082 1042
1042 1082 1083 1043
1043 1083 1084 1044
1044 1084 1085 1045
1045 1085 1086 1046
1046 1086 1087 1047
1047 1087 1088 1048
1048 1088 1089 1049
1049 1089 1090 1050
1050 1090 1091 1051
1051 1091 1092 1052
1052 1092 1093 1053
1053 1093 1094 1054
1054 1094 1095 1055
1055 1095 1096 1056
1056 1096 1097 1057
1057 1097 1098 1058
1058 1098 1099 1059
1059 1099 1100 1060
1060 1100 1101 1061
1061 1101 1102 1062
1062 1102 1103 1063
1063 1103 1104 1064
1064 1104 1105 1065
1065 1105 1106 1066
1066 1106 1107 1067
1067 1107 1108 1068
1068 1108 1109 1069
1069 1109 1110 1070
1070 1110 1111 1071
1071 1111 1112 1072
1072 1112 1113 1073
1073 1113 1114 1074
1074 1114 1115 1075
1075 1115 1116 1076
1076 1116 1117 1077
1077 1117 105 104
27 28 1118 1078
1078 1118 1119 1079
1079 1119 1120 1080
1080 1120 1121 1081
1081 1121 1122 1082
1082 1122 1123 1083
1083 1123 1124 1084
1084 1124 1125 1085
1085 1125 1126 1086
1086 1126 1127 1087
1087 1127 1128 1088
1088 1128 1129 1089
1089 1129 1130 1090
1090 1130 1131 1091
1091 1131 1132 1092
1092 1132 1133 1093
1093 1133 1134 1094
1094 1134 1135 1095
1095 1135 1136 1096
1096 1136 1137 1097
1097 1137 1138 1098
1098 1138 1139 1099
1099 1139 1140 1100
1100 1140 1141 1101
1101 1141 1142 1102
1102 1142 1143 1103
1103 1143 1144 1104
1104 1144 1145 1105
1105 1145 1146 1106
1106 1146 1147 1107
1107 1147 1148 1108
1108 1148 1149 1109
1109 1149 1150 1110
1110 1150 1151 1111
1111 1151 1152 1112
1112 1152 1153 1113
1113 1153 1154 1114
1114 1154 1155 1115
1115 1155 1156 1116
1116 1156 1157 1117
1117 1157 106 105
28 29 1158 1118
1118 1158 1159 1119
1119 1159 1160 1120
1120 1160 1161 1121
1121 1161 1162 1122
1122 1162 1163 1123
1123 1163 1164 1124
1124 1164 1165 1125
1125 1165 1166 1126
1126 1166 1167 1127
1127 1167 1168 1128
1128 1168 1169 1129
1129 1169 1170 1130
1130 1170 1171 1131
1131 1171 1172 1132
1132 1172 1173 1133
1133 1173 1174 1134
1134 1174 1175 1135
1135 1175 1176 1136
1136 1176 1177 1137
1137 1177 1178 1138
1138 1178 1179 1139
1139 1179 1180 1140
1140 1180 1181 1141
1141 1181 1182 1142
1142 1182 1183 1143
1143 1183 1184 1144
1144 1184 1185 1145
1145 1185 1186 1146
1146 1186 1187 1147
1147 1187 1188 1148
1148 1188 1189 1149
1149 1189 1190 1150
1150 1190 1191 1151
1151 1191 1192 1152
1152 1192 1193 1153
1153 1193 1194 1154
1154 1194 1195 1155
1155 1195 1196 1156
1156 1196 1197 1157
1157 1197 107 106
29 30 1198 1158
1158 1198 1199 1159
1159 1199 1200 1160
1160 1200 1201 1161
1161 1201 1202 1162
1162 1202 1203 1163
1163 1203 1204 1164
1164 1204 1205 1165
1165 1205 1206 1166
1166 1206 1207 1167
1167 1207 1208 1168
1168 1208 1209 1169
1169 1209 1210 1170
1170 1210 1211 1171
1171 1211 1212 1172
1172 1212 1213 1173
1173 1213 1214 1174
1174 1214 1215 1175
1175 1215 1216 1176
1176 1216 1217 1177
1177 1217 1218 1178
1178 1218 1219 1179
1179 1219 1220 1180
1180 1220 1221 1181
1181 1221 1222 1182
1182 1222 1223 1183
1183 1223 1224 1184
1184 1224 1225 1185
1185 1225 1226 1186
1186 1226 1227 1187
1187 1227 1228 1188
1188 1228 1229 1189
1189 1229 1230 1190
1190 1230 1231 1191
1191 1231 1232 1192
1192 1232 1233 1193
1193 1233 1234 1194
1194 1234 1235 1195
1195 1235 1236 1196
1196 1236 1237 1197
1197 1237 4 107
30 31 1238 1198
1198 1238 1239 1199
1199 1239 1240 1200
1200 1240 1241 1201
1201 1241 1242 1202
1202 1242 1243 1203
1203 1243 1244 1204
1204 1244 1245 1205
1205 1245 1246 1206
1206 1246 1247 1207
1207 1247 1248 1208
1208 1248 1249 1209
1209 1249 1250 1210
1210 1250 1251 1211
1211 1251 1252 1212
1212 1252 1253 1213
1213 1253 1254 1214
1214 1254 1255 1215
1215 1255 1256 1216
1216 1256 1257 1217
1217 1257 1258 1218
1218 1258 1259 1219
1219 1259 1260 1220
1220 1260 1261 1221
1221 1261 1262 1222
1222 1262 1263 1223
1223 1263 1264 1224
1224 1264 1265 1225
1225 1265 1266 1226
1226 1266 1267 1227
1227 1267 1268 1228
1228 1268 1269 1229
1229 1269 1270 1230
1230 1270 1271 1231
1231 1271 1272 1232
1232 1272 1273 1233
1233 1273 1274 1234
1234 1274 1275 1235
1235 1275 1276 1236
1236 1276 1277 1237
1237 1277 108 4
31 32 1278 1238
1238 1278 1279 1239
1239 1279 1280 1240
1240 1280 1281 1241
1241 1281 1282 1242
1242 1282 1283 1243
1243 1283 1284 1244
1244 1284 1285 1245
1245 1285 1286 1246
1246 1286 1287 1247
1247 1287 1288 1248
1248 1288 1289 1249
1249 1289 1290 1250
1250 1290 1291 1251
1251 1291 1292 1252
1252 1292 1293 1253
1253 1293 1294 1254
1254 1294 1295 1255
1255 1295 1296 1256
1256 1296 1297 1257
1257 1297 1298 1258
1258 1298 1299 1259
1259 1299 1300 1260
1260 1300 1301 1261
1261 1301 1302 1262
1262 1302 1303 1263
1263 1303 1304 1264
1264 1304 1305 1265
1265 1305 1306 1266
1266 1306 1307 1267
1267 1307 1308 1268
1268 1308 1309 1269
1269 1309 1310 1270
1270 1310 1311 1271
1271 1311 1312 1272
1272 1312 1313 1273
1273 1313 1314 1274
1274 1314 1315 1275
1275 1315 1316 1276
1276 1316 1317 1277
1277 1317 109 108
32 33 1318 1278
1278 1318 1319 1279
1279 1319 1320 1280
1280 1320 1321 1281
1281 1321 1322 1282
1282 1322 1323 1283
1283 1323 1324 1284
1284 1324 1325 1285
1285 1325 1326 1286
1286 1326 1327 1287
1287 1327 1328 1288
1288 1328 1329 1289
1289 1329 1330 1290
1290 1330 1331 1291
1291 1331 1332 1292
1292 1332 1333 1293
1293 1333 1334 1294
1294 1334 1335 1295
1295 1335 1336 1296
1296 1336 1337 1297
1297 1337 1338 1298
1298 1338 1339 1299
1299 1339 1340 1300
1300 1340 1341 1301
1301 1341 1342 1302
1302 1342 1343 1303
1303 1343 1344 1304
1304 1344 1345 1305
1305 1345 1346 1306
1306 1346 1347 1307
1307 1347 1348 1308
1308 1348 1349 1309
1309 1349 1350 1310
1310 1350 1351 1311
1311 1351 1352 1312
1312 1352 1353 1313
1313 1353 1354 1314
1314 1354 1355 1315
1315 1355 1356 1316
1316 1356 1357 1317
1317 1357 110 109
33 34 1358 1318
1318 1358 1359 1319
1319 1359 1360 1320
1320 1360 1361 1321
1321 1361 1362 1322
1322 1362 1363 1323
1323 1363 1364 1324
1324 1364 1365 1325
1325 1365 1366 1326
1326 1366 1367 1327
1327 1367 1368 1328
1328 1368 1369 1329
1329 1369 1370 1330
1330 1370 1371 1331
1331 1371 1372 1332
1332 1372 1373 1333
1333 1373 1374 1334
1334 1374 1375 1335
1335 1375 1376 1336
1336 1376 1377 1337
1337 1377 1378 1338
1338 1378 1379 1339
1339 1379 1380 1340
1340 1380 1381 1341
1341 1381 1382 1342
1342 1382 1383 1343
1343 1383 1384 1344
1344 1384 1385 1345
1345 1385 1386 1346
1346 1386 1387 1347
1347 1387 1388 1348
1348 1388 1389 1349
1349 1389 1390 1350
1350 1390 1391 1351
1351 1391 1392 1352
1352 1392 1393 1353
1353 1393 1394 1354
1354 1394 1395 1355
1355 1395 1396 1356
1356 1396 1397 1357
1357 1397 111 110
34 35 1398 1358
1358 1398 1399 1359
1359 1399 1400 1360
1360 1400 1401 1361
1361 1401 1402 1362
1362 1402 1403 1363
1363 1403 1404 1364
1364 1404 1405 1365
1365 1405 1406 1366
1366 1406 1407 1367
1367 1407 1408 1368
1368 1408 1409 1369
1369 1409 1410 1370
1370 1410 1411 1371
1371 1411 1412 1372
1372 1412 1413 1373
1373 1413 1414 1374
1374 1414 1415 1375
1375 1415 1416 1376
1376 1416 1417 1377
1377 1417 1418 1378
1378 1418 1419 1379
1379 1419 1420 1380
1380 1420 1421 1381
1381 1421 1422 1382
1382 1422 1423 1383
1383 1423 1424 1384
1384 1424 1425 1385
1385 1425 1426 1386
1386 1426 1427 1387
1387 1427 1428 1388
1388 1428 1429 1389
1389 1429 1430 1390
1390 1430 1431 1391
1391 1431 1432 1392
1392 1432 1433 1393
1393 1433 1434 1394
1394 1434 1435 1395
1395 1435 1436 1396
1396 1436 1437 1397
1397 1437 112 111
35 36 1438 1398
1398 1438 1439 1399
1399 1439 1440 1400
1400 1440 1441 1401
1401 1441 1442 1402
1402 1442 1443 1403
1403 1443 1444 1404
1404 1444 1445 1405
1405 1445 1446 1406
1406 1446 1447 1407
1407 1447 1448 1408
1408 1448 1449 1409
1409 1449 1450 1410
1410 1450 1451 1411
1411 1451 1452 1412
1412 1452 1453 1413
1413 1453 1454 1414
1414 1454 1455 1415
1415 1455 1456 1416
1416 1456 1457 1417
1417 1457 1458 1418
1418 1458 1459 1419
1419 1459 1460 1420
1420 1460 1461 1421
1421 1461 1462 1422
1422 1462 1463 1423
1423 1463 1464 1424
1424 1464 1465 1425
1425 1465 1466 1426
1426 1466 1467 1427
1427 1467 1468 1428
1428 1468 1469 1429
1429 1469 1470 1430
1430 1470 1471 1431
1431 1471 1472 1432
1432 1472 1473 1433
1433 1473 1474 1434
1434 1474 1475 1435
1435 1475 1476 1436
1436 1476 1477 1437
1437 1477 113 112
36 37 1478 1438
1438 1478 1479 1439
1439 1479 1480 1440
1440 1480 1481 1441
1441 1481 1482 1442
1442 1482 1483 1443
1443 1483 1484 1444
1444 1484 1485 1445
1445 1485 1486 1446
1446 1486 1487 1447
1447 1487 1488 1448
1448 1488 1489 1449
1449 1489 1490 1450
1450 1490 1491 1451
1451 1491 1492 1452
1452 1492 1493 1453
1453 1493 1494 1454
1454 1494 1495 1455
1455 1495 1496 1456
1456 1496 1497 1457
1457 1497 1498 1458
1458 1498 1499 1459
1459 1499 1500 1460
1460 1500 1501 1461
1461 1501 1502 1462
1462 1502 1503 1463
1463 1503 1504 1464
1464 1504 1505 1465
1465 1505 1506 1466
1466 1506 1507 1467
1467 1507 1508 1468
1468 1508 1509 1469
1469 1509 1510 1470
1470 1510 1511 1471
1471 1511 1512 1472
1472 1512 1513 1473
1473 1513 1514 1474
1474 1514 1515 1475
1475 1515 1516 1476
1476 1516 1517 1477
1477 1517 114 113
37 38 1518 1478
1478 1518 1519 1479
1479 1519 1520 1480
1480 1520 1521 1481
1481 1521 1522 1482
1482 1522 1523 1483
1483 1523 1524 1484
1484 1524 1525 1485
1485 1525 1526 1486
1486 1526 1527 1487
1487 1527 1528 1488
1488 1528 1529 1489
1489 1529 1530 1490
1490 1530 1531 1491
1491 1531 1532 1492
1492 1532 1533 1493
1493 1533 1534 1494
1494 1534 1535 1495
1495 1535 1536 1496
1496 1536 1537 1497
1497 1537 1538 1498
1498 1538 1539 1499
1499 1539 1540 1500
1500 1540 1541 1501
1501 1541 1542 1502
1502 1542 1543 1503
1503 1543 1544 1504
1504 1544 1545 1505
1505 1545 1546 1506
1506 1546 1547 1507
1507 1547 1548 1508
1508 1548 1549 1509
1509 1549 1550 1510
1510 1550 1551 1511
1511 1551 1552 1512
1512 1552 1553 1513
1513 1553 1554 1514
1514 1554 1555 1515
1515 1555 1556 1516
1516 1556 1557 1517
1517 1557 115 114
38 39 1558 1518
1518 1558 1559 1519
1519 1559 1560 1520
1520 1560 1561 1521
1521 1561 1562 1522
1522 1562 1563 1523
1523 1563 1564 1524
1524 1564 1565 1525
1525 1565 1566 1526
1526 1566 1567 1527
1527 1567 1568 1528
1528 1568 1569 1529
1529 1569 1570 1530
1530 1570 1571 1531
1531 1571 1572 1532
1532 1572 1573 1533
1533 1573 1574 1534
1534 1574 1575 1535
1535 1575 1576 1536
1536 1576 1577 1537
1537 1577 1578 1538
1538 1578 1579 1539
1539 1579 1580 1540
1540 1580 1581 1541
1541 1581 1582 1542
1542 1582 1583 1543
1543 1583 1584 1544
1544 1584 1585 1545
1545 1585 1586 1546
1546 1586 1587 1547
1547 1587 1588 1548
1548 1588 1589 1549
1549 1589 1590 1550
1550 1590 1591 1551
1551 1591 1592 1552
1552 1592 1593 1553
1553 1593 1594 1554
1554 1594 1595 1555
1555 1595 1596 1556
1556 1596 1597 1557
1557 1597 116 115
39 40 1598 1558
1558 1598 1599 1559
1559 1599 1600 1560
1560 1600 1601 1561
1561 1601 1602 1562
1562 1602 1603 1563
1563 1603 1604 1564
1564 1604 1605 1565
1565 1605 1606 1566
1566 1606 1607 1567
1567 1607 1608 1568
1568 1608 1609 1569
1569 1609 1610 1570
1570 1610 1611 1571
1571 1611 1612 1572
1572 1612 1613 1573
1573 1613 1614 1574
1574 1614 1615 1575
1575 1615 1616 1576
1576 1616 1617 1577
1577 1617 1618 1578
1578 1618 1619 1579
1579 1619 1620 1580
1580 1620 1621 1581
1581 1621 1622 1582
1582 1622 1623 1583
1583 1623 1624 1584
1584 1624 1625 1585
1585 1625 1626 1586
1586 1626 1627 1587
1587 1627 1628 1588
1588 1628 1629 1589
1589 1629 1630 1590
1590 1630 1631 1591
1591 1631 1632 1592
1592 1632 1633 1593
1593 1633 1634 1594
1594 1634 1635 1595
1595 1635 1636 1596
1596 1636 1637 1597
1597 1637 117 116
40 41 1638 1598
1598 1638 1639 1599
1599 1639 1640 1600
1600 1640 1641 1601
1601 1641 1642 1602
1602 1642 1643 1603
1603 1643 1644 1604
1604 1644 1645 1605
1605 1645 1646 1606
1606 1646 1647 1607
1607 1647 1648 1608
1608 1648 1649 1609
1609 1649 1650 1610
1610 1650 1651 1611
1611 1651 1652 1612
1612 1652 1653 1613
1613 1653 1654 1614
1614 1654 1655 1615
1615 1655 1656 1616
1616 1656 1657 1617
1617 1657 1658 1618
1618 1658 1659 1619
1619 1659 1660 1620
1620 1660 1661 1621
1621 1661 1662 1622
1622 1662 1663 1623
1623 1663 1664 1624
1624 1664 1665 1625
1625 1665 1666 1626
1626 1666 1667 1627
1627 1667 1668 1628
1628 1668 1669 1629
1629 1669 1670 1630
1630 1670 1671 1631
1631 1671 1672 1632
1632 1672 1673 1633
1633 1673 1674 1634
1634 1674 1675 1635
1635 1675 1676 1636
1636 1676 1677 1637
1637 1677 118 117
41 42 1678 1638
1638 1678 1679 1639
1639 1679 1680 1640
1640 1680 1681 1641
1641 1681 1682 1642
1642 1682 1683 1643
1643 1683 1684 1644
1644 1684 1685 1645
1645 1685 1686 1646
1646 1686 1687 1647
1647 1687 1688 1648
1648 1688 1689 1649
1649 1689 1690 1650
1650 1690 1691 1651
1651 1691 1692 1652
1652 1692 1693 1653
1653 1693 1694 1654
1654 1694 1695 1655
1655 1695 1696 1656
1656 1696 1697 1657
1657 1697 1698 1658
1658 1698 1699 1659
1659 1699 1700 1660
1660 1700 1701 1661
1661 1701 1702 1662
1662 1702 1703 1663
1663 1703 1704 1664
1664 1704 1705 1665
1665 1705 1706 1666
1666 1706 1707 1667
1667 1707 1708 1668
1668 1708 1709 1669
1669 1709 1710 1670
1670 1710 1711 1671
1671 1711 1712 1672
1672 1712 1713 1673
1673 1713 1714 1674
1674 1714 1715 1675
1675 1715 1716 1676
1676 1716 1717 1677
1677 1717 119 118
42 43 1718 1678
1678 1718 1719 1679
1679 1719 1720 1680
1680 1720 1721 1681
1681 1721 1722 1682
1682 1722 1723 1683
1683 1723 1724 1684
1684 1724 1725 1685
1685 1725 1726 1686
1686 1726 1727 1687
1687 1727 1728 1688
1688 1728 1729 1689
1689 1729 1730 1690
1690 1730 1731 1691
1691 1731 1732 1692
1692 1732 1733 1693
1693 1733 1734 1694
1694 1734 1735 1695
1695 1735 1736 1696
1696 1736 1737 1697
1697 1737 1738 1698
1698 1738 1739 1699
1699 1739 1740 1700
1700 1740 1741 1701
1701 1741 1742 1702
1702 1742 1743 1703
1703 1743 1744 1704
1704 1744 1745 1705
1705 1745 1746 1706
1706 1746 1747 1707
1707 1747 1748 1708
1708 1748 1749 1709
1709 1749 1750 1710
1710 1750 1751 1711
1711 1751 1752 1712
1712 1752 1753 1713
1713 1753 1754 1714
1714 1754 1755 1715
1715 1755 1756 1716
1716 1756 1757 1717
1717 1757 120 119
43 44 1758 1718
1718 1758 1759 1719
1719 1759 1760 1720
1720 1760 1761 1721
1721 1761 1762 1722
1722 1762 1763 1723
1723 1763 1764 1724
1724 1764 1765 1725
1725 1765 1766 1726
1726 1766 1767 1727
1727 1767 1768 1728
1728 1768 1769 1729
1729 1769 1770 1730
1730 1770 1771 1731
1731 1771 1772 1732
1732 1772 1773 1733
1733 1773 1774 1734
1734 1774 1775 1735
1735 1775 1776 1736
1736 1776 1777 1737
1737 1777 1778 1738
1738 1778 1779 1739
1739 1779 1780 1740
1740 1780 1781 1741
1741 1781 1782 1742
1742 1782 1783 1743
1743 1783 1784 1744
1744 1784 1785 1745
1745 1785 1786 1746
1746 1786 1787 1747
1747 1787 1788 1748
1748 1788 1789 1749
1749 1789 1790 1750
1750 1790 1791 1751
1751 1791 1792 1752
1752 1792 1793 1753
1753 1793 1794 1754
1754 1794 1795 1755
1755 1795 1796 1756
1756 1796 1797 1757
1757 1797 121 120
44 45 1798 1758
1758 1798 1799 1759
1759 1799 1800 1760
1760 1800 1801 1761
1761 1801 1802 1762
1762 1802 1803 1763
1763 1803 1804 1764
1764 1804 1805 1765
1765 1805 1806 1766
1766 1806 1807 1767
1767 1807 1808 1768
1768 1808 1809 1769
1769 1809 1810 1770
1770 1810 1811 1771
1771 1811 1812 1772
1772 1812 1813 1773
1773 1813 1814 1774
1774 1814 1815 1775
1775 1815 1816 1776
1776 1816 1817 1777
1777 1817 1818 1778
1778 1818 1819 1779
1779 1819 1820 1780
1780 1820 1821 1781
1781 1821 1822 1782
1782 1822 1823 1783
1783 1823 1824 1784
1784 1824 1825 1785
1785 1825 1826 1786
1786 1826 1827 1787
1787 1827 1828 1788
1788 1828 1829 1789
1789 1829 1830 1790
1790 1830 1831 1791
1791 1831 1832 1792
1792 1832 1833 1793
1793 1833 1834 1794
1794 1834 1835 1795
1795 1835 1836 1796
1796 1836 1837 1797
1797 1837 122 121
45 46 1838 1798
1798 1838 1839 1799
1799 1839 1840 1800
1800 1840 1841 1801
1801 1841 1842 1802
1802 1842 1843 1803
1803 1843 1844 1804
1804 1844 1845 1805
1805 1845 1846 1806
1806 1846 1847 1807
1807 1847 1848 1808
1808 1848 1849 1809
1809 1849 1850 1810
1810 1850 1851 1811
1811 1851 1852 1812
1812 1852 1853 1813
1813 1853 1854 1814
1814 1854 1855 1815
1815 1855 1856 1816
1816 1856 1857 1817
1817 1857 1858 1818
1818 1858 1859 1819
1819 1859 1860 1820
1820 1860 1861 1821
1821 1861 1862 1822
1822 1862 1863 1823
1823 1863 1864 1824
1824 1864 1865 1825
1825 1865 1866 1826
1826 1866 1867 1827
1827 1867 1868 1828
1828 1868 1869 1829
1829 1869 1870 1830
1830 1870 1871 1831
1831 1871 1872 1832
1832 1872 1873 1833
1833 1873 1874 1834
1834 1874 1875 1835
1835 1875 1876 1836
1836 1876 1877 1837
1837 1877 123 122
46 47 1878 1838
1838 1878 1879 1839
1839 1879 1880 1840
1840 1880 1881 1841
1841 1881 1882 1842
1842 1882 1883 1843
1843 1883 1884 1844
1844 1884 1885 1845
1845 1885 1886 1846
1846 1886 1887 1847
1847 1887 1888 1848
1848 1888 1889 1849
1849 1889 1890 1850
1850 1890 1891 1851
1851 1891 1892 1852
1852 1892 1893 1853
1853 1893 1894 1854
1854 1894 1895 1855
1855 1895 1896 1856
1856 1896 1897 1857
1857 1897 1898 1858
1858 1898 1899 1859
1859 1899 1900 1860
1860 1900 1901 1861
1861 1901 1902 1862
1862 1902 1903 1863
1863 1903 1904 1864
1864 1904 1905 1865
1865 1905 1906 1866
1866 1906 1907 1867
1867 1907 1908 1868
1868 1908 1909 1869
1869 1909 1910 1870
1870 1910 1911 1871
1871 1911 1912 1872
1872 1912 1913 1873
1873 1913 1914 1874
1874 1914 1915 1875
1875 1915 1916 1876
1876 1916 1917 1877
1877 1917 124 123
47 48 1918 1878
1878 1918 1919 1879
1879 1919 1920 1880
1880 1920 1921 1881
1881 1921 1922 1882
1882 1922 1923 1883
1883 1923 1924 1884
1884 1924 1925 1885
1885 1925 1926 1886
1886 1926 1927 1887
1887 1927 1928 1888
1888 1928 1929 1889
1889 1929 1930 1890
1890 1930 1931 1891
1891 1931 1932 1892
1892 1932 1933 1893
1893 1933 1934 1894
1894 1934 1935 1895
1895 1935 1936 1896
1896 1936 1937 1897
1897 1937 1938 1898
1898 1938 1939 1899
1899 1939 1940 1900
1900 1940 1941 1901
1901 1941 1942 1902
1902 1942 1943 1903
1903 1943 1944 1904
1904 1944 1945 1905
1905 1945 1946 1906
1906 1946 1947 1907
1907 1947 1948 1908
1908 1948 1949 1909
1909 1949 1950 1910
1910 1950 1951 1911
1911 1951 1952 1912
1912 1952 1953 1913
1913 1953 1954 1914
1914 1954 1955 1915
1915 1955 1956 1916
1916 1956 1957 1917
1917 1957 125 124
48 49 1958 1918
1918 1958 1959 1919
1919 1959 1960 1920
1920 1960 1961 1921
1921 1961 1962 1922
1922 1962 1963 1923
1923 1963 1964 1924
1924 1964 1965 1925
1925 1965 1966 1926
1926 1966 1967 1927
1927 1967 1968 1928
1928 1968 1969 1929
1929 1969 1970 1930
1930 1970 1971 1931
1931 1971 1972 1932
1932 1972 1973 1933
1933 1973 1974 1934
1934 1974 1975 1935
1935 1975 1976 1936
1936 1976 1977 1937
1937 1977 1978 1938
1938 1978 1979 1939
1939 1979 1980 1940
1940 1980 1981 1941
1941 1981 1982 1942
1942 1982 1983 1943
1943 1983 1984 1944
1944 1984 1985 1945
1945 1985 1986 1946
1946 1986 1987 1947
1947 1987 1988 1948
1948 1988 1989 1949
1949 1989 1990 1950
1950 1990 1991 1951
1951 1991 1992 1952
1952 1992 1993 1953
1953 1993 1994 1954
1954 1994 1995 1955
1955 1995 1996 1956
1956 1996 1997 1957
1957 1997 126 125
49 1 1998 1958
1958 1998 1999 1959
1959 1999 2000 1960
1960 2000 2001 1961
1961 2001 2002 1962
1962 2002 2003 1963
1963 2003 2004 1964
1964 2004 2005 1965
1965 2005 2006 1966
1966 2006 2007 1967
1967 2007 2008 1968
1968 2008 2009 1969
1969 2009 2010 1970
1970 2010 2011 1971
1971 2011 2012 1972
1972 2012 2013 1973
1973 2013 2014 1974
1974 2014 2015 1975
1975 2015 2016 1976
1976 2016 2017 1977
1977 2017 2018 1978
1978 2018 2019 1979
1979 2019 2020 1980
1980 2020 2021 1981
1981 2021 2022 1982
1982 2022 2023 1983
1983 2023 2024 1984
1984 2024 2025 1985
1985 2025 2026 1986
1986 2026 2027 1987
1987 2027 2028 1988
1988 2028 2029 1989
1989 2029 2030 1990
1990 2030 2031 1991
1991 2031 2032 1992
1992 2032 2033 1993
1993 2033 2034 1994
1994 2034 2035 1995
1995 2035 2036 1996
1996 2036 2037 1997
1997 2037 127 126
1 50 2038 1998
1998 2038 2039 1999
1999 2039 2040 2000
2000 2040 2041 2001
2001 2041 2042 2002
2002 2042 2043 2003
2003 2043 2044 2004
2004 2044 2045 2005
2005 2045 2046 2006
2006 2046 2047 2007
2007 2047 2048 2008
2008 2048 2049 2009
2009 2049 2050 2010
2010 2050 2051 2011
2011 2051 2052 2012
2012 2052 2053 2013
2013 2053 2054 2014
2014 2054 2055 2015
2015 2055 2056 2016
2016 2056 2057 2017
2017 2057 2058 2018
2018 2058 2059 2019
2019 2059 2060 2020
2020 2060 2061 2021
2021 2061 2062 2022
2022 2062 2063 2023
2023 2063 2064 2024
2024 2064 2065 2025
2025 2065 2066 2026
2026 2066 2067 2027
2027 2067 2068 2028
2028 2068 2069 2029
2029 2069 2070 2030
2030 2070 2071 2031
2031 2071 2072 2032
2032 2072 2073 2033
2033 2073 2074 2034
2034 2074 2075 2035
2035 2075 2076 2036
2036 2076 2077 2037
2037 2077 128 127
50 51 2078 2038
2038 2078 2079 2039
2039 2079 2080 2040
2040 2080 2081 2041
2041 2081 2082 2042
2042 2082 2083 2043
2043 2083 2084 2044
2044 2084 2085 2045
2045 2085 2086 2046
2046 2086 2087 2047
2047 2087 2088 2048
2048 2088 2089 2049
2049 2089 2090 2050
2050 2090 2091 2051
2051 2091 2092 2052
2052 2092 2093 2053
2053 2093 2094 2054
2054 2094 2095 2055
2055 2095 2096 2056
2056 2096 2097 2057
2057 2097 2098 2058
2058 2098 2099 2059
2059 2099 2100 2060
2060 2100 2101 2061
2061 2101 2102 2062
2062 2102 2103 2063
2063 2103 2104 2064
2064 2104 2105 2065
2065 2105 2106 2066
2066 2106 2107 2067
2067 2107 2108 2068
2068 2108 2109 2069
2069 2109 2110 2070
2070 2110 2111 2071
2071 2111 2112 2072
2072 2112 2113 2073
2073 2113 2114 2074
2074 2114 2115 2075
2075 2115 2116 2076
2076 2116 2117 2077
2077 2117 129 128
51 52 2118 2078
2078 2118 2119 2079
2079 2119 2120 2080
2080 2120 2121 2081
2081 2121 2122 2082
2082 2122 2123 2083
2083 2123 2124 2084
2084 2124 2125 2085
2085 2125 2126 2086
2086 2126 2127 2087
2087 2127 2128 2088
2088 2128 2129 2089
2089 2129 2130 2090
2090 2130 2131 2091
2091 2131 2132 2092
2092 2132 2133 2093
2093 2133 2134 2094
2094 2134 2135 2095
2095 2135 2136 2096
2096 2136 2137 2097
2097 2137 2138 2098
2098 2138 2139 2099
2099 2139 2140 2100
2100 2140 2141 2101
2101 2141 2142 2102
2102 2142 2143 2103
2103 2143 2144 2104
2104 2144 2145 2105
2105 2145 2146 2106
2106 2146 2147 2107
2107 2147 2148 2108
2108 2148 2149 2109
2109 2149 2150 2110
2110 2150 2151 2111
2111 2151 2152 2112
2112 2152 2153 2113
2113 2153 2154 2114
2114 2154 2155 2115
2115 2155 2156 2116
2116 2156 2157 2117
2117 2157 130 129
52 53 2158 2118
2118 2158 2159 2119
2119 2159 2160 2120
2120 2160 2161 2121
2121 2161 2162 2122
2122 2162 2163 2123
2123 2163 2164 2124
2124 2164 2165 2125
2125 2165 2166 2126
2126 2166 2167 2127
2127 2167 2168 2128
2128 2168 2169 2129
2129 2169 2170 2130
2130 2170 2171 2131
2131 2171 2172 2132
2132 2172 2173 2133
2133 2173 2174 2134
2134 2174 2175 2135
2135 2175 2176 2136
2136 2176 2177 2137
2137 2177 2178 2138
2138 2178 2179 2139
2139 2179 2180 2140
2140 2180 2181 2141
2141 2181 2182 2142
2142 2182 2183 2143
2143 2183 2184 2144
2144 2184 2185 2145
2145 2185 2186 2146
2146 2186 2187 2147
2147 2187 2188 2148
2148 2188 2189 2149
2149 2189 2190 2150
2150 2190 2191 2151
2151 2191 2192 2152
2152 2192 2193 2153
2153 2193 2194 2154
2154 2194 2195 2155
2155 2195 2196 2156
2156 2196 2197 2157
2157 2197 131 130
53 54 2198 2158
2158 2198 2199 2159
2159 2199 2200 2160
2160 2200 2201 2161
2161 2201 2202 2162
2162 2202 2203 2163
2163 2203 2204 2164
2164 2204 2205 2165
2165 2205 2206 2166
2166 2206 2207 2167
2167 2207 2208 2168
2168 2208 2209 2169
2169 2209 2210 2170
2170 2210 2211 2171
2171 2211 2212 2172
2172 2212 2213 2173
2173 2213 2214 2174
2174 2214 2215 2175
2175 2215 2216 2176
2176 2216 2217 2177
2177 2217 2218 2178
2178 2218 2219 2179
2179 2219 2220 2180
2180 2220 2221 2181
2181 2221 2222 2182
2182 2222 2223 2183
2183 2223 2224 2184
2184 2224 2225 2185
2185 2225 2226 2186
2186 2226 2227 2187
2187 2227 2228 2188
2188 2228 2229 2189
2189 2229 2230 2190
2190 2230 2231 2191
2191 2231 2232 2192
2192 2232 2233 2193
2193 2233 2234 2194
2194 2234 2235 2195
2195 2235 2236 2196
2196 2236 2237 2197
2197 2237 132 131
54 55 2238 2198
2198 2238 2239 2199
2199 2239 2240 2200
2200 2240 2241 2201
2201 2241 2242 2202
2202 2242 2243 2203
2203 2243 2244 2204
2204 2244 2245 2205
2205 2245 2246 2206
2206 2246 2247 2207
2207 2247 2248 2208
2208 2248 2249 2209
2209 2249 2250 2210
2210 2250 2251 2211
2211 2251 2252 2212
2212 2252 2253 2213
2213 2253 2254 2214
2214 2254 2255 2215
2215 2255 2256 2216
2216 2256 2257 2217
2217 2257 2258 2218
2218 2258 2259 2219
2219 2259 2260 2220
2220 2260 2261 2221
2221 2261 2262 2222
2222 2262 2263 2223
2223 2263 2264 2224
2224 2264 2265 2225
2225 2265 2266 2226
2226 2266 2267 2227
2227 2267 2268 2228
2228 2268 2269 2229
2229 2269 2270 2230
2230 2270 2271 2231
2231 2271 2272 2232
2232 2272 2273 2233
2233 2273 2274 2234
2234 2274 2275 2235
2235 2275 2276 2236
2236 2276 2277 2237
2237 2277 133 132
55 56 2278 2238
2238 2278 2279 2239
2239 2279 2280 2240
2240 2280 2281 2241
2241 2281 2282 2242
2242 2282 2283 2243
2243 2283 2284 2244
2244 2284 2285 2245
2245 2285 2286 2246
2246 2286 2287 2247
2247 2287 2288 2248
2248 2288 2289 2249
2249 2289 2290 2250
2250 2290 2291 2251
2251 2291 2292 2252
2252 2292 2293 2253
2253 2293 2294 2254
2254 2294 2295 2255
2255 2295 2296 2256
2256 2296 2297 2257
2257 2297 2298 2258
2258 2298 2299 2259
2259 2299 2300 2260
2260 2300 2301 2261
2261 2301 2302 2262
2262 2302 2303 2263
2263 2303 2304 2264
2264 2304 2305 2265
2265 2305 2306 2266
2266 2306 2307 2267
2267 2307 2308 2268
2268 2308 2309 2269
2269 2309 2310 2270
2270 2310 2311 2271
2271 2311 2312 2272
2272 2312 2313 2273
2273 2313 2314 2274
2274 2314 2315 2275
2275 2315 2316 2276
2276 2316 2317 2277
2277 2317 134 133
56 57 2318 2278
2278 2318 2319 2279
2279 2319 2320 2280
2280 2320 2321 2281
2281 2321 2322 2282
2282 2322 2323 2283
2283 2323 2324 2284
2284 2324 2325 2285
2285 2325 2326 2286
2286 2326 2327 2287
2287 2327 2328 2288
2288 2328 2329 2289
2289 2329 2330 2290
2290 2330 2331 2291
2291 2331 2332 2292
2292 2332 2333 2293
2293 2333 2334 2294
2294 2334 2335 2295
2295 2335 2336 2296
2296 2336 2337 2297
2297 2337 2338 2298
2298 2338 2339 2299
2299 2339 2340 2300
2300 2340 2341 2301
2301 2341 2342 2302
2302 2342 2343 2303
2303 2343 2344 2304
2304 2344 2345 2305
2305 2345 2346 2306
2306 2346 2347 2307
2307 2347 2348 2308
2308 2348 2349 2309
2309 2349 2350 2310
2310 2350 2351 2311
2311 2351 2352 2312
2312 2352 2353 2313
2313 2353 2354 2314
2314 2354 2355 2315
2315 2355 2356 2316
2316 2356 2357 2317
2317 2357 135 134
57 58 2358 2318
2318 2358 2359 2319
2319 2359 2360 2320
2320 2360 2361 2321
2321 2361 2362 2322
2322 2362 2363 2323
2323 2363 2364 2324
2324 2364 2365 2325
2325 2365 2366 2326
2326 2366 2367 2327
2327 2367 2368 2328
2328 2368 2369 2329
2329 2369 2370 2330
2330 2370 2371 2331
2331 2371 2372 2332
2332 2372 2373 2333
2333 2373 2374 2334
2334 2374 2375 2335
2335 2375 2376 2336
2336 2376 2377 2337
2337 2377 2378 2338
2338 2378 2379 2339
2339 2379 2380 2340
2340 2380 2381 2341
2341 2381 2382 2342
2342 2382 2383 2343
2343 2383 2384 2344
2344 2384 2385 2345
2345 2385 2386 2346
2346 2386 2387 2347
2347 2387 2388 2348
2348 2388 2389 2349
2349 2389 2390 2350
2350 2390 2391 2351
2351 2391 2392 2352
2352 2392 2393 2353
2353 2393 2394 2354
2354 2394 2395 2355
2355 2395 2396 2356
2356 2396 2397 2357
2357 2397 136 135
58 59 2398 2358
2358 2398 2399 2359
2359 2399 2400 2360
2360 2400 2401 2361
2361 2401 2402 2362
2362 2402 2403 2363
2363 2403 2404 2364
2364 2404 2405 2365
2365 2405 2406 2366
2366 2406 2407 2367
2367 2407 2408 2368
2368 2408 2409 2369
2369 2409 2410 2370
2370 2410 2411 2371
2371 2411 2412 2372
2372 2412 2413 2373
2373 2413 2414 2374
2374 2414 2415 2375
2375 2415 2416 2376
2376 2416 2417 2377
2377 2417 2418 2378
2378 2418 2419 2379
2379 2419 2420 2380
2380 2420 2421 2381
2381 2421 2422 2382
2382 2422 2423 2383
2383 2423 2424 2384
2384 2424 2425 2385
2385 2425 2426 2386
2386 2426 2427 2387
2387 2427 2428 2388
2388 2428 2429 2389
2389 2429 2430 2390
2390 2430 2431 2391
2391 2431 2432 2392
2392 2432 2433 2393
2393 2433 2434 2394
2394 2434 2435 2395
2395 2435 2436 2396
2396 2436 2437 2397
2397 2437 137 136
59 60 2438 2398
2398 2438 2439 2399
2399 2439 2440 2400
2400 2440 2441 2401
2401 2441 2442 2402
2402 2442 2443 2403
2403 2443 2444 2404
2404 2444 2445 2405
2405 2445 2446 2406
2406 2446 2447 2407
2407 2447 2448 2408
2408 2448 2449 2409
2409 2449 2450 2410
2410 2450 2451 2411
2411 2451 2452 2412
2412 2452 2453 2413
2413 2453 2454 2414
2414 2454 2455 2415
2415 2455 2456 2416
2416 2456 2457 2417
2417 2457 2458 2418
2418 2458 2459 2419
2419 2459 2460 2420
2420 2460 2461 2421
2421 2461 2462 2422
2422 2462 2463 2423
2423 2463 2464 2424
2424 2464 2465 2425
2425 2465 2466 2426
2426 2466 2467 2427
2427 2467 2468 2428
2428 2468 2469 2429
2429 2469 2470 2430
2430 2470 2471 2431
2431 2471 2472 2432
2432 2472 2473 2433
2433 2473 2474 2434
2434 2474 2475 2435
2435 2475 2476 2436
2436 2476 2477 2437
2437 2477 138 137
60 61 2478 2438
2438 2478 2479 2439
2439 2479 2480 2440
2440 2480 2481 2441
2441 2481 2482 2442
2442 2482 2483 2443
2443 2483 2484 2444
2444 2484 2485 2445
2445 2485 2486 2446
2446 2486 2487 2447
2447 2487 2488 2448
2448 2488 2489 2449
2449 2489 2490 2450
2450 2490 2491 2451
2451 2491 2492 2452
2452 2492 2493 2453
2453 2493 2494 2454
2454 2494 2495 2455
2455 2495 2496 2456
2456 2496 2497 2457
2457 2497 2498 2458
2458 2498 2499 2459
2459 2499 2500 2460
2460 2500 2501 2461
2461 2501 2502 2462
2462 2502 2503 2463
2463 2503 2504 2464
2464 2504 2505 2465
2465 2505 2506 2466
2466 2506 2507 2467
2467 2507 2508 2468
2468 2508 2509 2469
2469 2509 2510 2470
2470 2510 2511 2471
2471 2511 2512 2472
2472 2512 2513 2473
2473 2513 2514 2474
2474 2514 2515 2475
2475 2515 2516 2476
2476 2516 2517 2477
2477 2517 139 138
61 62 2518 2478
2478 2518 2519 2479
2479 2519 2520 2480
2480 2520 2521 2481
2481 2521 2522 2482
2482 2522 2523 2483
2483 2523 2524 2484
2484 2524 2525 2485
2485 2525 2526 2486
2486 2526 2527 2487
2487 2527 2528 2488
2488 2528 2529 2489
2489 2529 2530 2490
2490 2530 2531 2491
2491 2531 2532 2492
2492 2532 2533 2493
2493 2533 2534 2494
2494 2534 2535 2495
2495 2535 2536 2496
2496 2536 2537 2497
2497 2537 2538 2498
2498 2538 2539 2499
2499 2539 2540 2500
2500 2540 2541 2501
2501 2541 2542 2502
2502 2542 2543 2503
2503 2543 2544 2504
2504 2544 2545 2505
2505 2545 2546 2506
2506 2546 2547 2507
2507 2547 2548 2508
2508 2548 2549 2509
2509 2549 2550 2510
2510 2550 2551 2511
2511 2551 2552 2512
2512 2552 2553 2513
2513 2553 2554 2514
2514 2554 2555 2515
2515 2555 2556 2516
2516 2556 2557 2517
2517 2557 140 139
62 63 2558 2518
2518 2558 2559 2519
2519 2559 2560 2520
2520 2560 2561 2521
2521 2561 2562 2522
2522 2562 2563 2523
2523 2563 2564 2524
2524 2564 2565 2525
2525 2565 2566 2526
2526 2566 2567 2527
2527 2567 2568 2528
2528 2568 2569 2529
2529 2569 2570 2530
2530 2570 2571 2531
2531 2571 2572 2532
2532 2572 2573 2533
2533 2573 2574 2534
2534 2574 2575 2535
2535 2575 2576 2536
2536 2576 2577 2537
2537 2577 2578 2538
2538 2578 2579 2539
2539 2579 2580 2540
2540 2580 2581 2541
2541 2581 2582 2542
2542 2582 2583 2543
2543 2583 2584 2544
2544 2584 2585 2545
2545 2585 2586 2546
2546 2586 2587 2547
2547 2587 2588 2548
2548 2588 2589 2549
2549 2589 2590 2550
2550 2590 2591 2551
2551 2591 2592 2552
2552 2592 2593 2553
2553 2593 2594 2554
2554 2594 2595 2555
2555 2595 2596 2556
2556 2596 2597 2557
2557 2597 141 140
63 64 2598 2558
2558 2598 2599 2559
2559 2599 2600 2560
2560 2600 2601 2561
2561 2601 2602 2562
2562 2602 2603 2563
2563 2603 2604 2564
2564 2604 2605 2565
2565 2605 2606 2566
2566 2606 2607 2567
2567 2607 2608 2568
2568 2608 2609 2569
2569 2609 2610 2570
2570 2610 2611 2571
2571 2611 2612 2572
2572 2612 2613 2573
2573 2613 2614 2574
2574 2614 2615 2575
2575 2615 2616 2576
2576 2616 2617 2577
2577 2617 2618 2578
2578 2618 2619 2579
2579 2619 2620 2580
2580 2620 2621 2581
2581 2621 2622 2582
2582 2622 2623 2583
2583 2623 2624 2584
2584 2624 2625 2585
2585 2625 2626 2586
2586 2626 2627 2587
2587 2627 2628 2588
2588 2628 2629 2589
2589 2629 2630 2590
2590 2630 2631 2591
2591 2631 2632 2592
2592 2632 2633 2593
2593 2633 2634 2594
2594 2634 2635 2595
2595 2635 2636 2596
2596 2636 2637 2597
2597 2637 142 141
64 65 2638 2598
2598 2638 2639 2599
2599 2639 2640 2600
2600 2640 2641 2601
2601 2641 2642 2602
2602 2642 2643 2603
2603 2643 2644 2604
2604 2644 2645 2605
2605 2645 2646 2606
2606 2646 2647 2607
2607 2647 2648 2608
2608 2648 2649 2609
2609 2649 2650 2610
2610 2650 2651 2611
2611 2651 2652 2612
2612 2652 2653 2613
2613 2653 2654 2614
2614 2654 2655 2615
2615 2655 2656 2616
2616 2656 2657 2617
2617 2657 2658 2618
2618 2658 2659 2619
2619 2659 2660 2620
2620 2660 2661 2621
2621 2661 2662 2622
2622 2662 2663 2623
2623 2663 2664 2624
2624 2664 2665 2625
2625 2665 2666 2626
2626 2666 2667 2627
2627 2667 2668 2628
2628 2668 2669 2629
2629 2669 2670 2630
2630 2670 2671 2631
2631 2671 2672 2632
2632 2672 2673 2633
2633 2673 2674 2634
2634 2674 2675 2635
2635 2675 2676 2636
2636 2676 2677 2637
2637 2677 143 142
65 66 2678 2638
2638 2678 2679 2639
2639 2679 2680 2640
2640 2680 2681 2641
2641 2681 2682 2642
2642 2682 2683 2643
2643 2683 2684 2644
2644 2684 2685 2645
2645 2685 2686 2646
2646 2686 2687 2647
2647 2687 2688 2648
2648 2688 2689 2649
2649 2689 2690 2650
2650 2690 2691 2651
2651 2691 2692 2652
2652 2692 2693 2653
2653 2693 2694 2654
2654 2694 2695 2655
2655 2695 2696 2656
2656 2696 2697 2657
2657 2697 2698 2658
2658 2698 2699 2659
2659 2699 2700 2660
2660 2700 2701 2661
2661 2701 2702 2662
2662 2702 2703 2663
2663 2703 2704 2664
2664 2704 2705 2665
2665 2705 2706 2666
2666 2706 2707 2667
2667 2707 2708 2668
2668 2708 2709 2669
2669 2709 2710 2670
2670 2710 2711 2671
2671 2711 2712 2672
2672 2712 2713 2673
2673 2713 2714 2674
2674 2714 2715 2675
2675 2715 2716 2676
2676 2716 2717 2677
2677 2717 144 143
66 67 2718 2678
2678 2718 2719 2679
2679 2719 2720 2680
2680 2720 2721 2681
2681 2721 2722 2682
2682 2722 2723 2683
2683 2723 2724 2684
2684 2724 2725 2685
2685 2725 2726 2686
2686 2726 2727 2687
2687 2727 2728 2688
2688 2728 2729 2689
2689 2729 2730 2690
2690 2730 2731 2691
2691 2731 2732 2692
2692 2732 2733 2693
2693 2733 2734 2694
2694 2734 2735 2695
2695 2735 2736 2696
2696 2736 2737 2697
2697 2737 2738 2698
2698 2738 2739 2699
2699 2739 2740 2700
2700 2740 2741 2701
2701 2741 2742 2702
2702 2742 2743 2703
2703 2743 2744 2704
2704 2744 2745 2705
2705 2745 2746 2706
2706 2746 2747 2707
2707 2747 2748 2708
2708 2748 2749 2709
2709 2749 2750 2710
2710 2750 2751 2711
2711 2751 2752 2712
2712 2752 2753 2713
2713 2753 2754 2714
2714 2754 2755 2715
2715 2755 2756 2716
2716 2756 2757 2717
2717 2757 145 144
67 68 2758 2718
2718 2758 2759 2719
2719 2759 2760 2720
2720 2760 2761 2721
2721 2761 2762 2722
2722 2762 2763 2723
2723 2763 2764 2724
2724 2764 2765 2725
2725 2765 2766 2726
2726 2766 2767 2727
2727 2767 2768 2728
2728 2768 2769 2729
2729 2769 2770 2730
2730 2770 2771 2731
2731 2771 2772 2732
2732 2772 2773 2733
2733 2773 2774 2734
2734 2774 2775 2735
2735 2775 2776 2736
2736 2776 2777 2737
2737 2777 2778 2738
2738 2778 2779 2739
2739 2779 2780 2740
2740 2780 2781 2741
2741 2781 2782 2742
2742 2782 2783 2743
2743 2783 2784 2744
2744 2784 2785 2745
2745 2785 2786 2746
2746 2786 2787 2747
2747 2787 2788 2748
2748 2788 2789 2749
2749 2789 2790 2750
2750 2790 2791 2751
2751 2791 2792 2752
2752 2792 2793 2753
2753 2793 2794 2754
2754 2794 2795 2755
2755 2795 2796 2756
2756 2796 2797 2757
2757 2797 146 145
68 69 2798 2758
2758 2798 2799 2759
2759 2799 2800 2760
2760 2800 2801 2761
2761 2801 2802 2762
2762 2802 2803 2763
2763 2803 2804 2764
2764 2804 2805 2765
2765 2805 2806 2766
2766 2806 2807 2767
2767 2807 2808 2768
2768 2808 2809 2769
2769 2809 2810 2770
2770 2810 2811 2771
2771 2811 2812 2772
2772 2812 2813 2773
2773 2813 2814 2774
2774 2814 2815 2775
2775 2815 2816 2776
2776 2816 2817 2777
2777 2817 2818 2778
2778 2818 2819 2779
2779 2819 2820 2780
2780 2820 2821 2781
2781 2821 2822 2782
2782 2822 2823 2783
2783 2823 2824 2784
2784 2824 2825 2785
2785 2825 2826 2786
2786 2826 2827 2787
2787 2827 2828 2788
2788 2828 2829 2789
2789 2829 2830 2790
2790 2830 2831 2791
2791 2831 2832 2792
2792 2832 2833 2793
2793 2833 2834 2794
2794 2834 2835 2795
2795 2835 2836 2796
2796 2836 2837 2797
2797 2837 5 146
69 70 2838 2798
2798 2838 2839 2799
2799 2839 2840 2800
2800 2840 2841 2801
2801 2841 2842 2802
2802 2842 2843 2803
2803 2843 2844 2804
2804 2844 2845 2805
2805 2845 2846 2806
2806 2846 2847 2807
2807 2847 2848 2808
2808 2848 2849 2809
2809 2849 2850 2810
2810 2850 2851 2811
2811 2851 2852 2812
2812 2852 2853 2813
2813 2853 2854 2814
2814 2854 2855 2815
2815 2855 2856 2816
2816 2856 2857 2817
2817 2857 2858 2818
2818 2858 2859 2819
2819 2859 2860 2820
2820 2860 2861 2821
2821 2861 2862 2822
2822 2862 2863 2823
2823 2863 2864 2824
2824 2864 2865 2825
2825 2865 2866 2826
2826 2866 2867 2827
2827 2867 2868 2828
2828 2868 2869 2829
2829 2869 2870 2830
2830 2870 2871 2831
2831 2871 2872 2832
2832 2872 2873 2833
2833 2873 2874 2834
2834 2874 2875 2835
2835 2875 2876 2836
2836 2876 2877 2837
2837 2877 147 5
70 71 2878 2838
2838 2878 2879 2839
2839 2879 2880 2840
2840 2880 2881 2841
2841 2881 2882 2842
2842 2882 2883 2843
2843 2883 2884 2844
2844 2884 2885 2845
2845 2885 2886 2846
2846 2886 2887 2847
2847 2887 2888 2848
2848 2888 2889 2849
2849 2889 2890 2850
2850 2890 2891 2851
2851 2891 2892 2852
2852 2892 2893 2853
2853 2893 2894 2854
2854 2894 2895 2855
2855 2895 2896 2856
2856 2896 2897 2857
2857 2897 2898 2858
2858 2898 2899 2859
2859 2899 2900 2860
2860 2900 2901 2861
2861 2901 2902 2862
2862 2902 2903 2863
2863 2903 2904 2864
2864 2904 2905 2865
2865 2905 2906 2866
2866 2906 2907 2867
2867 2907 2908 2868
2868 2908 2909 2869
2869 2909 2910 2870
2870 2910 2911 2871
2871 2911 2912 2872
2872 2912 2913 2873
2873 2913 2914 2874
2874 2914 2915 2875
2875 2915 2916 2876
2876 2916 2917 2877
2877 2917 148 147
71 72 2918 2878
2878 2918 2919 2879
2879 2919 2920 2880
2880 2920 2921 2881
2881 2921 2922 2882
2882 2922 2923 2883
2883 2923 2924 2884
2884 2924 2925 2885
2885 2925 2926 2886
2886 2926 2927 2887
2887 2927 2928 2888
2888 2928 2929 2889
2889 2929 2930 2890
2890 2930 2931 2891
2891 2931 2932 2892
2892 2932 2933 2893
2893 2933 2934 2894
2894 2934 2935 2895
2895 2935 2936 2896
2896 2936 2937 2897
2897 2937 2938 2898
2898 2938 2939 2899
2899 2939 2940 2900
2900 2940 2941 2901
2901 2941 2942 2902
2902 2942 2943 2903
2903 2943 2944 2904
2904 2944 2945 2905
2905 2945 2946 2906
2906 2946 2947 2907
2907 2947 2948 2908
2908 2948 2949 2909
2909 2949 2950 2910
2910 2950 2951 2911
2911 2951 2952 2912
2912 2952 2953 2913
2913 2953 2954 2914
2914 2954 2955 2915
2915 2955 2956 2916
2916 2956 2957 2917
2917 2957 149 148
72 73 2958 2918
2918 2958 2959 2919
2919 2959 2960 2920
2920 2960 2961 2921
2921 2961 2962 2922
2922 2962 2963 2923
2923 2963 2964 2924
2924 2964 2965 2925
2925 2965 2966 2926
2926 2966 2967 2927
2927 2967 2968 2928
2928 2968 2969 2929
2929 2969 2970 2930
2930 2970 2971 2931
2931 2971 2972 2932
2932 2972 2973 2933
2933 2973 2974 2934
2934 2974 2975 2935
2935 2975 2976 2936
2936 2976 2977 2937
2937 2977 2978 2938
2938 2978 2979 2939
2939 2979 2980 2940
2940 2980 2981 2941
2941 2981 2982 2942
2942 2982 2983 2943
2943 2983 2984 2944
2944 2984 2985 2945
2945 2985 2986 2946
2946 2986 2987 2947
2947 2987 2988 2948
2948 2988 2989 2949
2949 2989 2990 2950
2950 2990 2991 2951
2951 2991 2992 2952
2952 2992 2993 2953
2953 2993 2994 2954
2954 2994 2995 2955
2955 2995 2996 2956
2956 2996 2997 2957
2957 2997 150 149
73 74 2998 2958
2958 2998 2999 2959
2959 2999 3000 2960
2960 3000 3001 2961
2961 3001 3002 2962
2962 3002 3003 2963
2963 3003 3004 2964
2964 3004 3005 2965
2965 3005 3006 2966
2966 3006 3007 2967
2967 3007 3008 2968
2968 3008 3009 2969
2969 3009 3010 2970
2970 3010 3011 2971
2971 3011 3012 2972
2972 3012 3013 2973
2973 3013 3014 2974
2974 3014 3015 2975
2975 3015 3016 2976
2976 3016 3017 2977
2977 3017 3018 2978
2978 3018 3019 2979
2979 3019 3020 2980
2980 3020 3021 2981
2981 3021 3022 2982
2982 3022 3023 2983
2983 3023 3024 2984
2984 3024 3025 2985
2985 3025 3026 2986
2986 3026 3027 2987
2987 3027 3028 2988
2988 3028 3029 2989
2989 3029 3030 2990
2990 3030 3031 2991
2991 3031 3032 2992
2992 3032 3033 2993
2993 3033 3034 2994
2994 3034 3035 2995
2995 3035 3036 2996
2996 3036 3037 2997
2997 3037 151 150
74 75 3038 2998
2998 3038 3039 2999
2999 3039 3040 3000
3000 3040 3041 3001
3001 3041 3042 3002
3002 3042 3043 3003
3003 3043 3044 3004
3004 3044 3045 3005
3005 3045 3046 3006
3006 3046 3047 3007
3007 3047 3048 3008
3008 3048 3049 3009
3009 3049 3050 3010
3010 3050 3051 3011
3011 3051 3052 3012
3012 3052 3053 3013
3013 3053 3054 3014
3014 3054 3055 3015
3015 3055 3056 3016
3016 3056 3057 3017
3017 3057 3058 3018
3018 3058 3059 3019
3019 3059 3060 3020
3020 3060 3061 3021
3021 3061 3062 3022
3022 3062 3063 3023
3023 3063 3064 3024
3024 3064 3065 3025
3025 3065 3066 3026
3026 3066 3067 3027
3027 3067 3068 3028
3028 3068 3069 3029
3029 3069 3070 3030
3030 3070 3071 3031
3031 3071 3072 3032
3032 3072 3073 3033
3033 3073 3074 3034
3034 3074 3075 3035
3035 3075 3076 3036
3036 3076 3077 3037
3037 3077 152 151
75 76 3078 3038
3038 3078 3079 3039
3039 3079 3080 3040
3040 3080 3081 3041
3041 3081 3082 3042
3042 3082 3083 3043
3043 3083 3084 3044
3044 3084 3085 3045
3045 3085 3086 3046
3046 3086 3087 3047
3047 3087 3088 3048
3048 3088 3089 3049
3049 3089 3090 3050
3050 3090 3091 3051
3051 3091 3092 3052
3052 3092 3093 3053
3053 3093 3094 3054
3054 3094 3095 3055
3055 3095 3096 3056
3056 3096 3097 3057
3057 3097 3098 3058
3058 3098 3099 3059
3059 3099 3100 3060
3060 3100 3101 3061
3061 3101 3102 3062
3062 3102 3103 3063
3063 3103 3104 3064
3064 3104 3105 3065
3065 3105 3106 3066
3066 3106 3107 3067
3067 3107 3108 3068
3068 3108 3109 3069
3069 3109 3110 3070
3070 3110 3111 3071
3071 3111 3112 3072
3072 3112 3113 3073
3073 3113 3114 3074
3074 3114 3115 3075
3075 3115 3116 3076
3076 3116 3117 3077
3077 3117 153 152
76 77 3118 3078
3078 3118 3119 3079
3079 3119 3120 3080
3080 3120 3121 3081
3081 3121 3122 3082
3082 3122 3123 3083
3083 3123 3124 3084
3084 3124 3125 3085
3085 3125 3126 3086
3086 3126 3127 3087
3087 3127 3128 3088
3088 3128 3129 3089
3089 3129 3130 3090
3090 3130 3131 3091
3091 3131 3132 3092
3092 3132 3133 3093
3093 3133 3134 3094
3094 3134 3135 3095
3095 3135 3136 3096
3096 3136 3137 3097
3097 3137 3138 3098
3098 3138 3139 3099
3099 3139 3140 3100
3100 3140 3141 3101
3101 3141 3142 3102
3102 3142 3143 3103
3103 3143 3144 3104
3104 3144 3145 3105
3105 3145 3146 3106
3106 3146 3147 3107
3107 3147 3148 3108
3108 3148 3149 3109
3109 3149 3150 3110
3110 3150 3151 3111
3111 3151 3152 3112
3112 3152 3153 3113
3113 3153 3154 3114
3114 3154 3155 3115
3115 3155 3156 3116
3116 3156 3157 3117
3117 3157 154 153
77 78 3158 3118
3118 3158 3159 3119
3119 3159 3160 3120
3120 3160 3161 3121
3121 3161 3162 3122
3122 3162 3163 3123
3123 3163 3164 3124
3124 3164 3165 3125
3125 3165 3166 3126
3126 3166 3167 3127
3127 3167 3168 3128
3128 3168 3169 3129
3129 3169 3170 3130
3130 3170 3171 3131
3131 3171 3172 3132
3132 3172 3173 3133
3133 3173 3174 3134
3134 3174 3175 3135
3135 3175 3176 3136
3136 3176 3177 3137
3137 3177 3178 3138
3138 3178 3179 3139
3139 3179 3180 3140
3140 3180 3181 3141
3141 3181 3182 3142
3142 3182 3183 3143
3143 3183 3184 3144
3144 3184 3185 3145
3145 3185 3186 3146
3146 3186 3187 3147
3147 3187 3188 3148
3148 3188 3189 3149
3149 3189 3190 3150
3150 3190 3191 3151
3151 3191 3192 3152
3152 3192 3193 3153
3153 3193 3194 3154
3154 3194 3195 3155
3155 3195 3196 3156
3156 3196 3197 3157
3157 3197 155 154
78 79 3198 3158
3158 3198 3199 3159
3159 3199 3200 3160
3160 3200 3201 3161
3161 3201 3202 3162
3162 3202 3203 3163
3163 3203 3204 3164
3164 3204 3205 3165
3165 3205 3206 3166
3166 3206 3207 3167
3167 3207 3208 3168
3168 3208 3209 3169
3169 3209 3210 3170
3170 3210 3211 3171
3171 3211 3212 3172
3172 3212 3213 3173
3173 3213 3214 3174
3174 3214 3215 3175
3175 3215 3216 3176
3176 3216 3217 3177
3177 3217 3218 3178
3178 3218 3219 3179
3179 3219 3220 3180
3180 3220 3221 3181
3181 3221 3222 3182
3182 3222 3223 3183
3183 3223 3224 3184
3184 3224 3225 3185
3185 3225 3226 3186
3186 3226 3227 3187
3187 3227 3228 3188
3188 3228 3229 3189
3189 3229 3230 3190
3190 3230 3231 3191
3191 3231 3232 3192
3192 3232 3233 3193
3193 3233 3234 3194
3194 3234 3235 3195
3195 3235 3236 3196
3196 3236 3237 3197
3197 3237 156 155
79 80 3238 3198
3198 3238 3239 3199
3199 3239 3240 3200
3200 3240 3241 3201
3201 3241 3242 3202
3202 3242 3243 3203
3203 3243 3244 3204
3204 3244 3245 3205
3205 3245 3246 3206
3206 3246 3247 3207
3207 3247 3248 3208
3208 3248 3249 3209
3209 3249 3250 3210
3210 3250 3251 3211
3211 3251 3252 3212
3212 3252 3253 3213
3213 3253 3254 3214
3214 3254 3255 3215
3215 3255 3256 3216
3216 3256 3257 3217
3217 3257 3258 3218
3218 3258 3259 3219
3219 3259 3260 3220
3220 3260 3261 3221
3221 3261 3262 3222
3222 3262 3263 3223
3223 3263 3264 3224
3224 3264 3265 3225
3225 3265 3266 3226
3226 3266 3267 3227
3227 3267 3268 3228
3228 3268 3269 3229
3229 3269 3270 3230
3230 3270 3271 3231
3231 3271 3272 3232
3232 3272 3273 3233
3233 3273 3274 3234
3234 3274 3275 3235
3235 3275 3276 3236
3236 3276 3277 3237
3237 3277 157 156
80 81 3278 3238
3238 3278 3279 3239
3239 3279 3280 3240
3240 3280 3281 3241
3241 3281 3282 3242
3242 3282 3283 3243
3243 3283 3284 3244
3244 3284 3285 3245
3245 3285 3286 3246
3246 3286 3287 3247
3247 3287 3288 3248
3248 3288 3289 3249
3249 3289 3290 3250
3250 3290 3291 3251
3251 3291 3292 3252
3252 3292 3293 3253
3253 3293 3294 3254
3254 3294 3295 3255
3255 3295 3296 3256
3256 3296 3297 3257
3257 3297 3298 3258
3258 3298 3299 3259
3259 3299 3300 3260
3260 3300 3301 3261
3261 3301 3302 3262
3262 3302 3303 3263
3263 3303 3304 3264
3264 3304 3305 3265
3265 3305 3306 3266
3266 3306 3307 3267
3267 3307 3308 3268
3268 3308 3309 3269
3269 3309 3310 3270
3270 3310 3311 3271
3271 3311 3312 3272
3272 3312 3313 3273
3273 3313 3314 3274
3274 3314 3315 3275
3275 3315 3316 3276
3276 3316 3317 3277
3277 3317 158 157
81 82 3318 3278
3278 3318 3319 3279
3279 3319 3320 3280
3280 3320 3321 3281
3281 3321 3322 3282
3282 3322 3323 3283
3283 3323 3324 3284
3284 3324 3325 3285
3285 3325 3326 3286
3286 3326 3327 3287
3287 3327 3328 3288
3288 3328 3329 3289
3289 3329 3330 3290
3290 3330 3331 3291
3291 3331 3332 3292
3292 3332 3333 3293
3293 3333 3334 3294
3294 3334 3335 3295
3295 3335 3336 3296
3296 3336 3337 3297
3297 3337 3338 3298
3298 3338 3339 3299
3299 3339 3340 3300
3300 3340 3341 3301
3301 3341 3342 3302
3302 3342 3343 3303
3303 3343 3344 3304
3304 3344 3345 3305
3305 3345 3346 3306
3306 3346 3347 3307
3307 3347 3348 3308
3308 3348 3349 3309
3309 3349 3350 3310
3310 3350 3351 3311
3311 3351 3352 3312
3312 3352 3353 3313
3313 3353 3354 3314
3314 3354 3355 3315
3315 3355 3356 3316
3316 3356 3357 3317
3317 3357 159 158
82 83 3358 3318
3318 3358 3359 3319
3319 3359 3360 3320
3320 3360 3361 3321
3321 3361 3362 3322
3322 3362 3363 3323
3323 3363 3364 3324
3324 3364 3365 3325
3325 3365 3366 3326
3326 3366 3367 3327
3327 3367 3368 3328
3328 3368 3369 3329
3329 3369 3370 3330
3330 3370 3371 3331
3331 3371 3372 3332
3332 3372 3373 3333
3333 3373 3374 3334
3334 3374 3375 3335
3335 3375 3376 3336
3336 3376 3377 3337
3337 3377 3378 3338
3338 3378 3379 3339
3339 3379 3380 3340
3340 3380 3381 3341
3341 3381 3382 3342
3342 3382 3383 3343
3343 3383 3384 3344
3344 3384 3385 3345
3345 3385 3386 3346
3346 3386 3387 3347
3347 3387 3388 3348
3348 3388 3389 3349
3349 3389 3390 3350
3350 3390 3391 3351
3351 3391 3392 3352
3352 3392 3393 3353
3353 3393 3394 3354
3354 3394 3395 3355
3355 3395 3396 3356
3356 3396 3397 3357
3357 3397 160 159
83 84 3398 3358
3358 3398 3399 3359
3359 3399 3400 3360
3360 3400 3401 3361
3361 3401 3402 3362
3362 3402 3403 3363
3363 3403 3404 3364
3364 3404 3405 3365
3365 3405 3406 3366
3366 3406 3407 3367
3367 3407 3408 3368
3368 3408 3409 3369
3369 3409 3410 3370
3370 3410 3411 3371
3371 3411 3412 3372
3372 3412 3413 3373
3373 3413 3414 3374
3374 3414 3415 3375
3375 3415 3416 3376
3376 3416 3417 3377
3377 3417 3418 3378
3378 3418 3419 3379
3379 3419 3420 3380
3380 3420 3421 3381
3381 3421 3422 3382
3382 3422 3423 3383
3383 3423 3424 3384
3384 3424 3425 3385
3385 3425 3426 3386
3386 3426 3427 3387
3387 3427 3428 3388
3388 3428 3429 3389
3389 3429 3430 3390
3390 3430 3431 3391
3391 3431 3432 3392
3392 3432 3433 3393
3393 3433 3434 3394
3394 3434 3435 3395
3395 3435 3436 3396
3396 3436 3437 3397
3397 3437 161 160
84 85 3438 3398
3398 3438 3439 3399
3399 3439 3440 3400
3400 3440 3441 3401
3401 3441 3442 3402
3402 3442 3443 3403
3403 3443 3444 3404
3404 3444 3445 3405
3405 3445 3446 3406
3406 3446 3447 3407
3407 3447 3448 3408
3408 3448 3449 3409
3409 3449 3450 3410
3410 3450 3451 3411
3411 3451 3452 3412
3412 3452 3453 3413
3413 3453 3454 3414
3414 3454 3455 3415
3415 3455 3456 3416
3416 3456 3457 3417
3417 3457 3458 3418
3418 3458 3459 3419
3419 3459 3460 3420
3420 3460 3461 3421
3421 3461 3462 3422
3422 3462 3463 3423
3423 3463 3464 3424
3424 3464 3465 3425
3425 3465 3466 3426
3426 3466 3467 3427
3427 3467 3468 3428
3428 3468 3469 3429
3429 3469 3470 3430
3430 3470 3471 3431
3431 3471 3472 3432
3432 3472 3473 3433
3433 3473 3474 3434
3434 3474 3475 3435
3435 3475 3476 3436
3436 3476 3477 3437
3437 3477 162 161
85 86 3478 3438
3438 3478 3479 3439
3439 3479 3480 3440
3440 3480 3481 3441
3441 3481 3482 3442
3442 3482 3483 3443
3443 3483 3484 3444
3444 3484 3485 3445
3445 3485 3486 3446
3446 3486 3487 3447
3447 3487 3488 3448
3448 3488 3489 3449
3449 3489 3490 3450
3450 3490 3491 3451
3451 3491 3492 3452
3452 3492 3493 3453
3453 3493 3494 3454
3454 3494 3495 3455
3455 3495 3496 3456
3456 3496 3497 3457
3457 3497 3498 3458
3458 3498 3499 3459
3459 3499 3500 3460
3460 3500 3501 3461
3461 3501 3502 3462
3462 3502 3503 3463
3463 3503 3504 3464
3464 3504 3505 3465
3465 3505 3506 3466
3466 3506 3507 3467
3467 3507 3508 3468
3468 3508 3509 3469
3469 3509 3510 3470
3470 3510 3511 3471
3471 3511 3512 3472
3472 3512 3513 3473
3473 3513 3514 3474
3474 3514 3515 3475
3475 3515 3516 3476
3476 3516 3517 3477
3477 3517 163 162
86 87 3518 3478
3478 3518 3519 3479
3479 3519 3520 3480
3480 3520 3521 3481
3481 3521 3522 3482
3482 3522 3523 3483
3483 3523 3524 3484
3484 3524 3525 3485
3485 3525 3526 3486
3486 3526 3527 3487
3487 3527 3528 3488
3488 3528 3529 3489
3489 3529 3530 3490
3490 3530 3531 3491
3491 3531 3532 3492
3492 3532 3533 3493
3493 3533 3534 3494
3494 3534 3535 3495
3495 3535 3536 3496
3496 3536 3537 3497
3497 3537 3538 3498
3498 3538 3539 3499
3499 3539 3540 3500
3500 3540 3541 3501
3501 3541 3542 3502
3502 3542 3543 3503
3503 3543 3544 3504
3504 3544 3545 3505
3505 3545 3546 3506
3506 3546 3547 3507
3507 3547 3548 3508
3508 3548 3549 3509
3509 3549 3550 3510
3510 3550 3551 3511
3511 3551 3552 3512
3512 3552 3553 3513
3513 3553 3554 3514
3514 3554 3555 3515
3515 3555 3556 3516
3516 3556 3557 3517
3517 3557 164 163
87 88 3558 3518
3518 3558 3559 3519
3519 3559 3560 3520
3520 3560 3561 3521
3521 3561 3562 3522
3522 3562 3563 3523
3523 3563 3564 3524
3524 3564 3565 3525
3525 3565 3566 3526
3526 3566 3567 3527
3527 3567 3568 3528
3528 3568 3569 3529
3529 3569 3570 3530
3530 3570 3571 3531
3531 3571 3572 3532
3532 3572 3573 3533
3533 3573 3574 3534
3534 3574 3575 3535
3535 3575 3576 3536
3536 3576 3577 3537
3537 3577 3578 3538
3538 3578 3579 3539
3539 3579 3580 3540
3540 3580 3581 3541
3541 3581 3582 3542
3542 3582 3583 3543
3543 3583 3584 3544
3544 3584 3585 3545
3545 3585 3586 3546
3546 3586 3587 3547
3547 3587 3588 3548
3548 3588 3589 3549
3549 3589 3590 3550
3550 3590 3591 3551
3551 3591 3592 3552
3552 3592 3593 3553
3553 3593 3594 3554
3554 3594 3595 3555
3555 3595 3596 3556
3556 3596 3597 3557
3557 3597 165 164
88 2 322 3558
3558 322 321 3559
3559 321 320 3560
3560 320 319 3561
3561 319 318 3562
3562 318 317 3563
3563 317 316 3564
3564 316 315 3565
3565 315 314 3566
3566 314 313 3567
3567 313 312 3568
3568 312 311 3569
3569 311 310 3570
3570 310 309 3571
3571 309 308 3572
3572 308 307 3573
3573 307 306 3574
3574 306 305 3575
3575 305 304 3576
3576 304 303 3577
3577 303 302 3578
3578 302 301 3579
3579 301 300 3580
3580 300 299 3581
3581 299 298 3582
3582 298 297 3583
3583 297 296 3584
3584 296 295 3585
3585 295 294 3586
3586 294 293 3587
3587 293 292 3588
3588 292 291 3589
3589 291 290 3590
3590 290 289 3591
3591 289 288 3592
3592 288 287 3593
3593 287 286 3594
3594 286 285 3595
3595 285 284 3596
3596 284 283 3597
3597 283 6 165
4 108 3598 380
380 3598 3599 379
379 3599 3600 378
378 3600 3601 377
377 3601 3602 376
376 3602 3603 375
375 3603 3604 374
374 3604 3605 373
373 3605 3606 372
372 3606 3607 371
371 3607 3608 370
370 3608 3609 369
369 3609 3610 368
368 3610 3611 367
367 3611 3612 366
366 3612 3613 365
365 3613 3614 364
364 3614 3615 363
363 3615 3616 362
362 3616 323 9
108 109 3617 3598
3598 3617 3618 3599
3599 3618 3619 3600
3600 3619 3620 3601
3601 3620 3621 3602
3602 3621 3622 3603
3603 3622 3623 3604
3604 3623 3624 3605
3605 3624 3625 3606
3606 3625 3626 3607
3607 3626 3627 3608
3608 3627 3628 3609
3609 3628 3629 3610
3610 3629 3630 3611
3611 3630 3631 3612
3612 3631 3632 3613
3613 3632 3633 3614
3614 3633 3634 3615
3615 3634 3635 3616
3616 3635 324 323
109 110 3636 3617
3617 3636 3637 3618
3618 3637 3638 3619
3619 3638 3639 3620
3620 3639 3640 3621
3621 3640 3641 3622
3622 3641 3642 3623
3623 3642 3643 3624
3624 3643 3644 3625
3625 3644 3645 3626
3626 3645 3646 3627
3627 3646 3647 3628
3628 3647 3648 3629
3629 3648 3649 3630
3630 3649 3650 3631
3631 3650 3651 3632
3632 3651 3652 3633
3633 3652 3653 3634
3634 3653 3654 3635
3635 3654 325 324
110 111 3655 3636
3636 3655 3656 3637
3637 3656 3657 3638
3638 3657 3658 3639
3639 3658 3659 3640
3640 3659 3660 3641
3641 3660 3661 3642
3642 3661 3662 3643
3643 3662 3663 3644
3644 3663 3664 3645
3645 3664 3665 3646
3646 3665 3666 3647
3647 3666 3667 3648
3648 3667 3668 3649
3649 3668 3669 3650
3650 3669 3670 3651
3651 3670 3671 3652
3652 3671 3672 3653
3653 3672 3673 3654
3654 3673 326 325
111 112 3674 3655
3655 3674 3675 3656
3656 3675 3676 3657
3657 3676 3677 3658
3658 3677 3678 3659
3659 3678 3679 3660
3660 3679 3680 3661
3661 3680 3681 3662
3662 3681 3682 3663
3663 3682 3683 3664
3664 3683 3684 3665
3665 3684 3685 3666
3666 3685 3686 3667
3667 3686 3687 3668
3668 3687 3688 3669
3669 3688 3689 3670
3670 3689 3690 3671
3671 3690 3691 3672
3672 3691 3692 3673
3673 3692 327 326
112 113 3693 3674
3674 3693 3694 3675
3675 3694 3695 3676
3676 3695 3696 3677
3677 3696 3697 3678
3678 3697 3698 3679
3679 3698 3699 3680
3680 3699 3700 3681
3681 3700 3701 3682
3682 3701 3702 3683
3683 3702 3703 3684
3684 3703 3704 3685
3685 3704 3705 3686
3686 3705 3706 3687
3687 3706 3707 3688
3688 3707 3708 3689
3689 3708 3709 3690
3690 3709 3710 3691
3691 3710 3711 3692
3692 3711 328 327
113 114 3712 3693
3693 3712 3713 3694
3694 3713 3714 3695
3695 3714 3715 3696
3696 3715 3716 3697
3697 3716 3717 3698
3698 3717 3718 3699
3699 3718 3719 3700
3700 3719 3720 3701
3701 3720 3721 3702
3702 3721 3722 3703
3703 3722 3723 3704
3704 3723 3724 3705
3705 3724 3725 3706
3706 3725 3726 3707
3707 3726 3727 3708
3708 3727 3728 3709
3709 3728 3729 3710
3710 3729 3730 3711
3711 3730 329 328
114 115 3731 3712
3712 3731 3732 3713
3713 3732 3733 3714
3714 3733 3734 3715
3715 3734 3735 3716
3716 3735 3736 3717
3717 3736 3737 3718
3718 3737 3738 3719
3719 3738 3739 3720
3720 3739 3740 3721
3721 3740 3741 3722
3722 3741 3742 3723
3723 3742 3743 3724
3724 3743 3744 3725
3725 3744 3745 3726
3726 3745 3746 3727
3727 3746 3747 3728
3728 3747 3748 3729
3729 3748 3749 3730
3730 3749 330 329
115 116 3750 3731
3731 3750 3751 3732
3732 3751 3752 3733
3733 3752 3753 3734
3734 3753 3754 3735
3735 3754 3755 3736
3736 3755 3756 3737
3737 3756 3757 3738
3738 3757 3758 3739
3739 3758 3759 3740
3740 3759 3760 3741
3741 3760 3761 3742
3742 3761 3762 3743
3743 3762 3763 3744
3744 3763 3764 3745
3745 3764 3765 3746
3746 3765 3766 3747
3747 3766 3767 3748
3748 3767 3768 3749
3749 3768 331 330
116 117 3769 3750
3750 3769 3770 3751
3751 3770 3771 3752
3752 3771 3772 3753
3753 3772 3773 3754
3754 3773 3774 3755
3755 3774 3775 3756
3756 3775 3776 3757
3757 3776 3777 3758
3758 3777 3778 3759
3759 3778 3779 3760
3760 3779 3780 3761
3761 3780 3781 3762
3762 3781 3782 3763
3763 3782 3783 3764
3764 3783 3784 3765
3765 3784 3785 3766
3766 3785 3786 3767
3767 3786 3787 3768
3768 3787 332 331
117 118 3788 3769
3769 3788 3789 3770
3770 3789 3790 3771
3771 3790 3791 3772
3772 3791 3792 3773
3773 3792 3793 3774
3774 3793 3794 3775
3775 3794 3795 3776
3776 3795 3796 3777
3777 3796 3797 3778
3778 3797 3798 3779
3779 3798 3799 3780
3780 3799 3800 3781
3781 3800 3801 3782
3782 3801 3802 3783
3783 3802 3803 3784
3784 3803 3804 3785
3785 3804 3805 3786
3786 3805 3806 3787
3787 3806 333 332
118 119 3807 3788
3788 3807 3808 3789
3789 3808 3809 3790
3790 3809 3810 3791
3791 3810 3811 3792
3792 3811 3812 3793
3793 3812 3813 3794
3794 3813 3814 3795
3795 3814 3815 3796
3796 3815 3816 3797
3797 3816 3817 3798
3798 3817 3818 3799
3799 3818 3819 3800
3800 3819 3820 3801
3801 3820 3821 3802
3802 3821 3822 3803
3803 3822 3823 3804
3804 3823 3824 3805
3805 3824 3825 3806
3806 3825 334 333
119 120 3826 3807
3807 3826 3827 3808
3808 3827 3828 3809
3809 3828 3829 3810
3810 3829 3830 3811
3811 3830 3831 3812
3812 3831 3832 3813
3813 3832 3833 3814
3814 3833 3834 3815
3815 3834 3835 3816
3816 3835 3836 3817
3817 3836 3837 3818
3818 3837 3838 3819
3819 3838 3839 3820
3820 3839 3840 3821
3821 3840 3841 3822
3822 3841 3842 3823
3823 3842 3843 3824
3824 3843 3844 3825
3825 3844 335 334
120 121 3845 3826
3826 3845 3846 3827
3827 3846 3847 3828
3828 3847 3848 3829
3829 3848 3849 3830
3830 3849 3850 3831
3831 3850 3851 3832
3832 3851 3852 3833
3833 3852 3853 3834
3834 3853 3854 3835
3835 3854 3855 3836
3836 3855 3856 3837
3837 3856 3857 3838
3838 3857 3858 3839
3839 3858 3859 3840
3840 3859 3860 3841
3841 3860 3861 3842
3842 3861 3862 3843
3843 3862 3863 3844
3844 3863 336 335
121 122 3864 3845
3845 3864 3865 3846
3846 3865 3866 3847
3847 3866 3867 3848
3848 3867 3868 3849
3849 3868 3869 3850
3850 3869 3870 3851
3851 3870 3871 3852
3852 3871 3872 3853
3853 3872 3873 3854
3854 3873 3874 3855
3855 3874 3875 3856
3856 3875 3876 3857
3857 3876 3877 3858
3858 3877 3878 3859
3859 3878 3879 3860
3860 3879 3880 3861
3861 3880 3881 3862
3862 3881 3882 3863
3863 3882 337 336
122 123 3883 3864
3864 3883 3884 3865
3865 3884 3885 3866
3866 3885 3886 3867
3867 3886 3887 3868
3868 3887 3888 3869
3869 3888 3889 3870
3870 3889 3890 3871
3871 3890 3891 3872
3872 3891 3892 3873
3873 3892 3893 3874
3874 3893 3894 3875
3875 3894 3895 3876
3876 3895 3896 3877
3877 3896 3897 3878
3878 3897 3898 3879
3879 3898 3899 3880
3880 3899 3900 3881
3881 3900 3901 3882
3882 3901 338 337
123 124 3902 3883
3883 3902 3903 3884
3884 3903 3904 3885
3885 3904 3905 3886
3886 3905 3906 3887
3887 3906 3907 3888
3888 3907 3908 3889
3889 3908 3909 3890
3890 3909 3910 3891
3891 3910 3911 3892
3892 3911 3912 3893
3893 3912 3913 3894
3894 3913 3914 3895
3895 3914 3915 3896
3896 3915 3916 3897
3897 3916 3917 3898
3898 3917 3918 3899
3899 3918 3919 3900
3900 3919 3920 3901
3901 3920 339 338
124 125 3921 3902
3902 3921 3922 3903
3903 3922 3923 3904
3904 3923 3924 3905
3905 3924 3925 3906
3906 3925 3926 3907
3907 3926 3927 3908
3908 3927 3928 3909
3909 3928 3929 3910
3910 3929 3930 3911
3911 3930 3931 3912
3912 3931 3932 3913
3913 3932 3933 3914
3914 3933 3934 3915
3915 3934 3935 3916
3916 3935 3936 3917
3917 3936 3937 3918
3918 3937 3938 3919
3919 3938 3939 3920
3920 3939 340 339
125 126 3940 3921
3921 3940 3941 3922
3922 3941 3942 3923
3923 3942 3943 3924
3924 3943 3944 3925
3925 3944 3945 3926
3926 3945 3946 3927
3927 3946 3947 3928
3928 3947 3948 3929
3929 3948 3949 3930
3930 3949 3950 3931
3931 3950 3951 3932
3932 3951 3952 3933
3933 3952 3953 3934
3934 3953 3954 3935
3935 3954 3955 3936
3936 3955 3956 3937
3937 3956 3957 3938
3938 3957 3958 3939
3939 3958 341 340
126 127 3959 3940
3940 3959 3960 3941
3941 3960 3961 3942
3942 3961 3962 3943
3943 3962 3963 3944
3944 3963 3964 3945
3945 3964 3965 3946
3946 3965 3966 3947
3947 3966 3967 3948
3948 3967 3968 3949
3949 3968 3969 3950
3950 3969 3970 3951
3951 3970 3971 3952
3952 3971 3972 3953
3953 3972 3973 3954
3954 3973 3974 3955
3955 3974 3975 3956
3956 3975 3976 3957
3957 3976 3977 3958
3958 3977 342 341
127 128 3978 3959
3959 3978 3979 3960
3960 3979 3980 3961
3961 3980 3981 3962
3962 3981 3982 3963
3963 3982 3983 3964
3964 3983 3984 3965
3965 3984 3985 3966
3966 3985 3986 3967
3967 3986 3987 3968
3968 3987 3988 3969
3969 3988 3989 3970
3970 3989 3990 3971
3971 3990 3991 3972
3972 3991 3992 3973
3973 3992 3993 3974
3974 3993 3994 3975
3975 3994 3995 3976
3976 3995 3996 3977
3977 3996 343 342
128 129 3997 3978
3978 3997 3998 3979
3979 3998 3999 3980
3980 3999 4000 3981
3981 4000 4001 3982
3982 4001 4002 3983
3983 4002 4003 3984
3984 4003 4004 3985
3985 4004 4005 3986
3986 4005 4006 3987
3987 4006 4007 3988
3988 4007 4008 3989
3989 4008 4009 3990
3990 4009 4010 3991
3991 4010 4011 3992
3992 4011 4012 3993
3993 4012 4013 3994
3994 4013 4014 3995
3995 4014 4015 3996
3996 4015 344 343
129 130 4016 3997
3997 4016 4017 3998
3998 4017 4018 3999
3999 4018 4019 4000
4000 4019 4020 4001
4001 4020 4021 4002
4002 4021 4022 4003
4003 4022 4023 4004
4004 4023 4024 4005
4005 4024 4025 4006
4006 4025 4026 4007
4007 4026 4027 4008
4008 4027 4028 4009
4009 4028 4029 4010
4010 4029 4030 4011
4011 4030 4031 4012
4012 4031 4032 4013
4013 4032 4033 4014
4014 4033 4034 4015
4015 4034 345 344
130 131 4035 4016
4016 4035 4036 4017
4017 4036 4037 4018
4018 4037 4038 4019
4019 4038 4039 4020
4020 4039 4040 4021
4021 4040 4041 4022
4022 4041 4042 4023
4023 4042 4043 4024
4024 4043 4044 4025
4025 4044 4045 4026
4026 4045 4046 4027
4027 4046 4047 4028
4028 4047 4048 4029
4029 4048 4049 4030
4030 4049 4050 4031
4031 4050 4051 4032
4032 4051 4052 4033
4033 4052 4053 4034
4034 4053 346 345
131 132 4054 4035
4035 4054 4055 4036
4036 4055 4056 4037
4037 4056 4057 4038
4038 4057 4058 4039
4039 4058 4059 4040
4040 4059 4060 4041
4041 4060 4061 4042
4042 4061 4062 4043
4043 4062 4063 4044
4044 4063 4064 4045
4045 4064 4065 4046
4046 4065 4066 4047
4047 4066 4067 4048
4048 4067 4068 4049
4049 4068 4069 4050
4050 4069 4070 4051
4051 4070 4071 4052
4052 4071 4072 4053
4053 4072 347 346
132 133 4073 4054
4054 4073 4074 4055
4055 4074 4075 4056
4056 4075 4076 4057
4057 4076 4077 4058
4058 4077 4078 4059
4059 4078 4079 4060
4060 4079 4080 4061
4061 4080 4081 4062
4062 4081 4082 4063
4063 4082 4083 4064
4064 4083 4084 4065
4065 4084 4085 4066
4066 4085 4086 4067
4067 4086 4087 4068
4068 4087 4088 4069
4069 4088 4089 4070
4070 4089 4090 4071
4071 4090 4091 4072
4072 4091 348 347
133 134 4092 4073
4073 4092 4093 4074
4074 4093 4094 4075
4075 4094 4095 4076
4076 4095 4096 4077
4077 4096 4097 4078
4078 4097 4098 4079
4079 4098 4099 4080
4080 4099 4100 4081
4081 4100 4101 4082
4082 4101 4102 4083
4083 4102 4103 4084
4084 4103 4104 4085
4085 4104 4105 4086
4086 4105 4106 4087
4087 4106 4107 4088
4088 4107 4108 4089
4089 4108 4109 4090
4090 4109 4110 4091
4091 4110 349 348
134 135 4111 4092
4092 4111 4112 4093
4093 4112 4113 4094
4094 4113 4114 4095
4095 4114 4115 4096
4096 4115 4116 4097
4097 4116 4117 4098
4098 4117 4118 4099
4099 4118 4119 4100
4100 4119 4120 4101
4101 4120 4121 4102
4102 4121 4122 4103
4103 4122 4123 4104
4104 4123 4124 4105
4105 4124 4125 4106
4106 4125 4126 4107
4107 4126 4127 4108
4108 4127 4128 4109
4109 4128 4129 4110
4110 4129 350 349
135 136 4130 4111
4111 4130 4131 4112
4112 4131 4132 4113
4113 4132 4133 4114
4114 4133 4134 4115
4115 4134 4135 4116
4116 4135 4136 4117
4117 4136 4137 4118
4118 4137 4138 4119
4119 4138 4139 4120
4120 4139 4140 4121
4121 4140 4141 4122
4122 4141 4142 4123
4123 4142 4143 4124
4124 4143 4144 4125
4125 4144 4145 4126
4126 4145 4146 4127
4127 4146 4147 4128
4128 4147 4148 4129
4129 4148 351 350
136 137 4149 4130
4130 4149 4150 4131
4131 4150 4151 4132
4132 4151 4152 4133
4133 4152 4153 4134
4134 4153 4154 4135
4135 4154 4155 4136
4136 4155 4156 4137
4137 4156 4157 4138
4138 4157 4158 4139
4139 4158 4159 4140
4140 4159 4160 4141
4141 4160 4161 4142
4142 4161 4162 4143
4143 4162 4163 4144
4144 4163 4164 4145
4145 4164 4165 4146
4146 4165 4166 4147
4147 4166 4167 4148
4148 4167 352 351
137 138 4168 4149
4149 4168 4169 4150
4150 4169 4170 4151
4151 4170 4171 4152
4152 4171 4172 4153
4153 4172 4173 4154
4154 4173 4174 4155
4155 4174 4175 4156
4156 4175 4176 4157
4157 4176 4177 4158
4158 4177 4178 4159
4159 4178 4179 4160
4160 4179 4180 4161
4161 4180 4181 4162
4162 4181 4182 4163
4163 4182 4183 4164
4164 4183 4184 4165
4165 4184 4185 4166
4166 4185 4186 4167
4167 4186 353 352
138 139 4187 4168
4168 4187 4188 4169
4169 4188 4189 4170
4170 4189 4190 4171
4171 4190 4191 4172
4172 4191 4192 4173
4173 4192 4193 4174
4174 4193 4194 4175
4175 4194 4195 4176
4176 4195 4196 4177
4177 4196 4197 4178
4178 4197 4198 4179
4179 4198 4199 4180
4180 4199 4200 4181
4181 4200 4201 4182
4182 4201 4202 4183
4183 4202 4203 4184
4184 4203 4204 4185
4185 4204 4205 4186
4186 4205 354 353
139 140 4206 4187
4187 4206 4207 4188
4188 4207 4208 4189
4189 4208 4209 4190
4190 4209 4210 4191
4191 4210 4211 4192
4192 4211 4212 4193
4193 4212 4213 4194
4194 4213 4214 4195
4195 4214 4215 4196
4196 4215 4216 4197
4197 4216 4217 4198
4198 4217 4218 4199
4199 4218 4219 4200
4200 4219 4220 4201
4201 4220 4221 4202
4202 4221 4222 4203
4203 4222 4223 4204
4204 4223 4224 4205
4205 4224 355 354
140 141 4225 4206
4206 4225 4226 4207
4207 4226 4227 4208
4208 4227 4228 4209
4209 4228 4229 4210
4210 4229 4230 4211
4211 4230 4231 4212
4212 4231 4232 4213
4213 4232 4233 4214
4214 4233 4234 4215
4215 4234 4235 4216
4216 4235 4236 4217
4217 4236 4237 4218
4218 4237 4238 4219
4219 4238 4239 4220
4220 4239 4240 4221
4221 4240 4241 4222
4222 4241 4242 4223
4223 4242 4243 4224
4224 4243 356 355
141 142 4244 4225
4225 4244 4245 4226
4226 4245 4246 4227
4227 4246 4247 4228
4228 4247 4248 4229
4229 4248 4249 4230
4230 4249 4250 4231
4231 4250 4251 4232
4232 4251 4252 4233
4233 4252 4253 4234
4234 4253 4254 4235
4235 4254 4255 4236
4236 4255 4256 4237
4237 4256 4257 4238
4238 4257 4258 4239
4239 4258 4259 4240
4240 4259 4260 4241
4241 4260 4261 4242
4242 4261 4262 4243
4243 4262 357 356
142 143 4263 4244
4244 4263 4264 4245
4245 4264 4265 4246
4246 4265 4266 4247
4247 4266 4267 4248
4248 4267 4268 4249
4249 4268 4269 4250
4250 4269 4270 4251
4251 4270 4271 4252
4252 4271 4272 4253
4253 4272 4273 4254
4254 4273 4274 4255
4255 4274 4275 4256
4256 4275 4276 4257
4257 4276 4277 4258
4258 4277 4278 4259
4259 4278 4279 4260
4260 4279 4280 4261
4261 4280 4281 4262
4262 4281 358 357
143 144 4282 4263
4263 4282 4283 4264
4264 4283 4284 4265
4265 4284 4285 4266
4266 4285 4286 4267
4267 4286 4287 4268
4268 4287 4288 4269
4269 4288 4289 4270
4270 4289 4290 4271
4271 4290 4291 4272
4272 4291 4292 4273
4273 4292 4293 4274
4274 4293 4294 4275
4275 4294 4295 4276
4276 4295 4296 4277
4277 4296 4297 4278
4278 4297 4298 4279
4279 4298 4299 4280
4280 4299 4300 4281
4281 4300 359 358
144 145 4301 4282
4282 4301 4302 4283
4283 4302 4303 4284
4284 4303 4304 4285
4285 4304 4305 4286
4286 4305 4306 4287
4287 4306 4307 4288
4288 4307 4308 4289
4289 4308 4309 4290
4290 4309 4310 4291
4291 4310 4311 4292
4292 4311 4312 4293
4293 4312 4313 4294
4294 4313 4314 4295
4295 4314 4315 4296
4296 4315 4316 4297
4297 4316 4317 4298
4298 4317 4318 4299
4299 4318 4319 4300
4300 4319 360 359
145 146 4320 4301
4301 4320 4321 4302
4302 4321 4322 4303
4303 4322 4323 4304
4304 4323 4324 4305
4305 4324 4325 4306
4306 4325 4326 4307
4307 4326 4327 4308
4308 4327 4328 4309
4309 4328 4329 4310
4310 4329 4330 4311
4311 4330 4331 4312
4312 4331 4332 4313
4313 4332 4333 4314
4314 4333 4334 4315
4315 4334 4335 4316
4316 4335 4336 4317
4317 4336 4337 4318
4318 4337 4338 4319
4319 4338 361 360
146 5 399 4320
4320 399 398 4321
4321 398 397 4322
4322 397 396 4323
4323 396 395 4324
4324 395 394 4325
4325 394 393 4326
4326 393 392 4327
4327 392 391 4328
4328 391 390 4329
4329 390 389 4330
4330 389 388 4331
4331 388 387 4332
4332 387 386 4333
4333 386 385 4334
4334 385 384 4335
4335 384 383 4336
4336 383 382 4337
4337 382 381 4338
4338 381 10 361
3 89 4339 166
166 4339 4340 167
167 4340 4341 168
168 4341 4342 169
169 4342 4343 170
170 4343 4344 171
171 4344 4345 172
172 4345 4346 173
173 4346 4347 174
174 4347 4348 175
175 4348 4349 176
176 4349 4350 177
177 4350 4351 178
178 4351 4352 179
179 4352 4353 180
180 4353 4354 181
181 4354 4355 182
182 4355 4356 183
183 4356 4357 184
184 4357 418 7
89 90 4358 4339
4339 4358 4359 4340
4340 4359 4360 4341
4341 4360 4361 4342
4342 4361 4362 4343
4343 4362 4363 4344
4344 4363 4364 4345
4345 4364 4365 4346
4346 4365 4366 4347
4347 4366 4367 4348
4348 4367 4368 4349
4349 4368 4369 4350
4350 4369 4370 4351
4351 4370 4371 4352
4352 4371 4372 4353
4353 4372 4373 4354
4354 4373 4374 4355
4355 4374 4375 4356
4356 4375 4376 4357
4357 4376 417 418
90 91 4377 4358
4358 4377 4378 4359
4359 4378 4379 4360
4360 4379 4380 4361
4361 4380 4381 4362
4362 4381 4382 4363
4363 4382 4383 4364
4364 4383 4384 4365
4365 4384 4385 4366
4366 4385 4386 4367
4367 4386 4387 4368
4368 4387 4388 4369
4369 4388 4389 4370
4370 4389 4390 4371
4371 4390 4391 4372
4372 4391 4392 4373
4373 4392 4393 4374
4374 4393 4394 4375
4375 4394 4395 4376
4376 4395 416 417
91 92 4396 4377
4377 4396 4397 4378
4378 4397 4398 4379
4379 4398 4399 4380
4380 4399 4400 4381
4381 4400 4401 4382
4382 4401 4402 4383
4383 4402 4403 4384
4384 4403 4404 4385
4385 4404 4405 4386
4386 4405 4406 4387
4387 4406 4407 4388
4388 4407 4408 4389
4389 4408 4409 4390
4390 4409 4410 4391
4391 4410 4411 4392
4392 4411 4412 4393
4393 4412 4413 4394
4394 4413 4414 4395
4395 4414 415 416
92 93 4415 4396
4396 4415 4416 4397
4397 4416 4417 4398
4398 4417 4418 4399
4399 4418 4419 4400
4400 4419 4420 4401
4401 4420 4421 4402
4402 4421 4422 4403
4403 4422 4423 4404
4404 4423 4424 4405
4405 4424 4425 4406
4406 4425 4426 4407
4407 4426 4427 4408
4408 4427 4428 4409
4409 4428 4429 4410
4410 4429 4430 4411
4411 4430 4431 4412
4412 4431 4432 4413
4413 4432 4433 4414
4414 4433 414 415
93 94 4434 4415
4415 4434 4435 4416
4416 4435 4436 4417
4417 4436 4437 4418
4418 4437 4438 4419
4419 4438 4439 4420
4420 4439 4440 4421
4421 4440 4441 4422
4422 4441 4442 4423
4423 4442 4443 4424
4424 4443 4444 4425
4425 4444 4445 4426
4426 4445 4446 4427
4427 4446 4447 4428
4428 4447 4448 4429
4429 4448 4449 4430
4430 4449 4450 4431
4431 4450 4451 4432
4432 4451 4452 4433
4433 4452 413 414
94 95 4453 4434
4434 4453 4454 4435
4435 4454 4455 4436
4436 4455 4456 4437
4437 4456 4457 4438
4438 4457 4458 4439
4439 4458 4459 4440
4440 4459 4460 4441
4441 4460 4461 4442
4442 4461 4462 4443
4443 4462 4463 4444
4444 4463 4464 4445
4445 4464 4465 4446
4446 4465 4466 4447
4447 4466 4467 4448
4448 4467 4468 4449
4449 4468 4469 4450
4450 4469 4470 4451
4451 4470 4471 4452
4452 4471 412 413
95 96 4472 4453
4453 4472 4473 4454
4454 4473 4474 4455
4455 4474 4475 4456
4456 4475 4476 4457
4457 4476 4477 4458
4458 4477 4478 4459
4459 4478 4479 4460
4460 4479 4480 4461
4461 4480 4481 4462
4462 4481 4482 4463
4463 4482 4483 4464
4464 4483 4484 4465
4465 4484 4485 4466
4466 4485 4486 4467
4467 4486 4487 4468
4468 4487 4488 4469
4469 4488 4489 4470
4470 4489 4490 4471
4471 4490 411 412
96 97 4491 4472
4472 4491 4492 4473
4473 4492 4493 4474
4474 4493 4494 4475
4475 4494 4495 4476
4476 4495 4496 4477
4477 4496 4497 4478
4478 4497 4498 4479
4479 4498 4499 4480
4480 4499 4500 4481
4481 4500 4501 4482
4482 4501 4502 4483
4483 4502 4503 4484
4484 4503 4504 4485
4485 4504 4505 4486
4486 4505 4506 4487
4487 4506 4507 4488
4488 4507 4508 4489
4489 4508 4509 4490
4490 4509 410 411
97 98 4510 4491
4491 4510 4511 4492
4492 4511 4512 4493
4493 4512 4513 4494
4494 4513 4514 4495
4495 4514 4515 4496
4496 4515 4516 4497
4497 4516 4517 4498
4498 4517 4518 4499
4499 4518 4519 4500
4500 4519 4520 4501
4501 4520 4521 4502
4502 4521 4522 4503
4503 4522 4523 4504
4504 4523 4524 4505
4505 4524 4525 4506
4506 4525 4526 4507
4507 4526 4527 4508
4508 4527 4528 4509
4509 4528 409 410
98 99 4529 4510
4510 4529 4530 4511
4511 4530 4531 4512
4512 4531 4532 4513
4513 4532 4533 4514
4514 4533 4534 4515
4515 4534 4535 4516
4516 4535 4536 4517
4517 4536 4537 4518
4518 4537 4538 4519
4519 4538 4539 4520
4520 4539 4540 4521
4521 4540 4541 4522
4522 4541 4542 4523
4523 4542 4543 4524
4524 4543 4544 4525
4525 4544 4545 4526
4526 4545 4546 4527
4527 4546 4547 4528
4528 4547 408 409
99 100 4548 4529
4529 4548 4549 4530
4530 4549 4550 4531
4531 4550 4551 4532
4532 4551 4552 4533
4533 4552 4553 4534
4534 4553 4554 4535
4535 4554 4555 4536
4536 4555 4556 4537
4537 4556 4557 4538
4538 4557 4558 4539
4539 4558 4559 4540
4540 4559 4560 4541
4541 4560 4561 4542
4542 4561 4562 4543
4543 4562 4563 4544
4544 4563 4564 4545
4545 4564 4565 4546
4546 4565 4566 4547
4547 4566 407 408
100 101 4567 4548
4548 4567 4568 4549
4549 4568 4569 4550
4550 4569 4570 4551
4551 4570 4571 4552
4552 4571 4572 4553
4553 4572 4573 4554
4554 4573 4574 4555
4555 4574 4575 4556
4556 4575 4576 4557
4557 4576 4577 4558
4558 4577 4578 4559
4559 4578 4579 4560
4560 4579 4580 4561
4561 4580 4581 4562
4562 4581 4582 4563
4563 4582 4583 4564
4564 4583 4584 4565
4565 4584 4585 4566
4566 4585 406 407
101 102 4586 4567
4567 4586 4587 4568
4568 4587 4588 4569
4569 4588 4589 4570
4570 4589 4590 4571
4571 4590 4591 4572
4572 4591 4592 4573
4573 4592 4593 4574
4574 4593 4594 4575
4575 4594 4595 4576
4576 4595 4596 4577
4577 4596 4597 4578
4578 4597 4598 4579
4579 4598 4599 4580
4580 4599 4600 4581
4581 4600 4601 4582
4582 4601 4602 4583
4583 4602 4603 4584
4584 4603 4604 4585
4585 4604 405 406
102 103 4605 4586
4586 4605 4606 4587
4587 4606 4607 4588
4588 4607 4608 4589
4589 4608 4609 4590
4590 4609 4610 4591
4591 4610 4611 4592
4592 4611 4612 4593
4593 4612 4613 4594
4594 4613 4614 4595
4595 4614 4615 4596
4596 4615 4616 4597
4597 4616 4617 4598
4598 4617 4618 4599
4599 4618 4619 4600
4600 4619 4620 4601
4601 4620 4621 4602
4602 4621 4622 4603
4603 4622 4623 4604
4604 4623 404 405
103 104 4624 4605
4605 4624 4625 4606
4606 4625 4626 4607
4607 4626 4627 4608
4608 4627 4628 4609
4609 4628 4629 4610
4610 4629 4630 4611
4611 4630 4631 4612
4612 4631 4632 4613
4613 4632 4633 4614
4614 4633 4634 4615
4615 4634 4635 4616
4616 4635 4636 4617
4617 4636 4637 4618
4618 4637 4638 4619
4619 4638 4639 4620
4620 4639 4640 4621
4621 4640 4641 4622
4622 4641 4642 4623
4623 4642 403 404
104 105 4643 4624
4624 4643 4644 4625
4625 4644 4645 4626
4626 4645 4646 4627
4627 4646 4647 4628
4628 4647 4648 4629
4629 4648 4649 4630
4630 4649 4650 4631
4631 4650 4651 4632
4632 4651 4652 4633
4633 4652 4653 4634
4634 4653 4654 4635
4635 4654 4655 4636
4636 4655 4656 4637
4637 4656 4657 4638
4638 4657 4658 4639
4639 4658 4659 4640
4640 4659 4660 4641
4641 4660 4661 4642
4642 4661 402 403
105 106 4662 4643
4643 4662 4663 4644
4644 4663 4664 4645
4645 4664 4665 4646
4646 4665 4666 4647
4647 4666 4667 4648
4648 4667 4668 4649
4649 4668 4669 4650
4650 4669 4670 4651
4651 4670 4671 4652
4652 4671 4672 4653
4653 4672 4673 4654
4654 4673 4674 4655
4655 4674 4675 4656
4656 4675 4676 4657
4657 4676 4677 4658
4658 4677 4678 4659
4659 4678 4679 4660
4660 4679 4680 4661
4661 4680 401 402
106 107 4681 4662
4662 4681 4682 4663
4663 4682 4683 4664
4664 4683 4684 4665
4665 4684 4685 4666
4666 4685 4686 4667
4667 4686 4687 4668
4668 4687 4688 4669
4669 4688 4689 4670
4670 4689 4690 4671
4671 4690 4691 4672
4672 4691 4692 4673
4673 4692 4693 4674
4674 4693 4694 4675
4675 4694 4695 4676
4676 4695 4696 4677
4677 4696 4697 4678
4678 4697 4698 4679
4679 4698 4699 4680
4680 4699 400 401
107 4 380 4681
4681 380 379 4682
4682 379 378 4683
4683 378 377 4684
4684 377 376 4685
4685 376 375 4686
4686 375 374 4687
4687 374 373 4688
4688 373 372 4689
4689 372 371 4690
4690 371 370 4691
4691 370 369 4692
4692 369 368 4693
4693 368 367 4694
4694 367 366 4695
4695 366 365 4696
4696 365 364 4697
4697 364 363 4698
4698 363 362 4699
4699 362 9 400
5 147 4700 399
399 4700 4701 398
398 4701 4702 397
397 4702 4703 396
396 4703 4704 395
395 4704 4705 394
394 4705 4706 393
393 4706 4707 392
392 4707 4708 391
391 4708 4709 390
390 4709 4710 389
389 4710 4711 388
388 4711 4712 387
387 4712 4713 386
386 4713 4714 385
385 4714 4715 384
384 4715 4716 383
383 4716 4717 382
382 4717 4718 381
381 4718 419 10
147 148 4719 4700
4700 4719 4720 4701
4701 4720 4721 4702
4702 4721 4722 4703
4703 4722 4723 4704
4704 4723 4724 4705
4705 4724 4725 4706
4706 4725 4726 4707
4707 4726 4727 4708
4708 4727 4728 4709
4709 4728 4729 4710
4710 4729 4730 4711
4711 4730 4731 4712
4712 4731 4732 4713
4713 4732 4733 4714
4714 4733 4734 4715
4715 4734 4735 4716
4716 4735 4736 4717
4717 4736 4737 4718
4718 4737 420 419
148 149 4738 4719
4719 4738 4739 4720
4720 4739 4740 4721
4721 4740 4741 4722
4722 4741 4742 4723
4723 4742 4743 4724
4724 4743 4744 4725
4725 4744 4745 4726
4726 4745 4746 4727
4727 4746 4747 4728
4728 4747 4748 4729
4729 4748 4749 4730
4730 4749 4750 4731
4731 4750 4751 4732
4732 4751 4752 4733
4733 4752 4753 4734
4734 4753 4754 4735
4735 4754 4755 4736
4736 4755 4756 4737
4737 4756 421 420
149 150 4757 4738
4738 4757 4758 4739
4739 4758 4759 4740
4740 4759 4760 4741
4741 4760 4761 4742
4742 4761 4762 4743
4743 4762 4763 4744
4744 4763 4764 4745
4745 4764 4765 4746
4746 4765 4766 4747
4747 4766 4767 4748
4748 4767 4768 4749
4749 4768 4769 4750
4750 4769 4770 4751
4751 4770 4771 4752
4752 4771 4772 4753
4753 4772 4773 4754
4754 4773 4774 4755
4755 4774 4775 4756
4756 4775 422 421
150 151 4776 4757
4757 4776 4777 4758
4758 4777 4778 4759
4759 4778 4779 4760
4760 4779 4780 4761
4761 4780 4781 4762
4762 4781 4782 4763
4763 4782 4783 4764
4764 4783 4784 4765
4765 4784 4785 4766
4766 4785 4786 4767
4767 4786 4787 4768
4768 4787 4788 4769
4769 4788 4789 4770
4770 4789 4790 4771
4771 4790 4791 4772
4772 4791 4792 4773
4773 4792 4793 4774
4774 4793 4794 4775
4775 4794 423 422
151 152 4795 4776
4776 4795 4796 4777
4777 4796 4797 4778
4778 4797 4798 4779
4779 4798 4799 4780
4780 4799 4800 4781
4781 4800 4801 4782
4782 4801 4802 4783
4783 4802 4803 4784
4784 4803 4804 4785
4785 4804 4805 4786
4786 4805 4806 4787
4787 4806 4807 4788
4788 4807 4808 4789
4789 4808 4809 4790
4790 4809 4810 4791
4791 4810 4811 4792
4792 4811 4812 4793
4793 4812 4813 4794
4794 4813 424 423
152 153 4814 4795
4795 4814 4815 4796
4796 4815 4816 4797
4797 4816 4817 4798
4798 4817 4818 4799
4799 4818 4819 4800
4800 4819 4820 4801
4801 4820 4821 4802
4802 4821 4822 4803
4803 4822 4823 4804
4804 4823 4824 4805
4805 4824 4825 4806
4806 4825 4826 4807
4807 4826 4827 4808
4808 4827 4828 4809
4809 4828 4829 4810
4810 4829 4830 4811
4811 4830 4831 4812
4812 4831 4832 4813
4813 4832 425 424
153 154 4833 4814
4814 4833 4834 4815
4815 4834 4835 4816
4816 4835 4836 4817
4817 4836 4837 4818
4818 4837 4838 4819
4819 4838 4839 4820
4820 4839 4840 4821
4821 4840 4841 4822
4822 4841 4842 4823
4823 4842 4843 4824
4824 4843 4844 4825
4825 4844 4845 4826
4826 4845 4846 4827
4827 4846 4847 4828
4828 4847 4848 4829
4829 4848 4849 4830
4830 4849 4850 4831
4831 4850 4851 4832
4832 4851 426 425
154 155 4852 4833
4833 4852 4853 4834
4834 4853 4854 4835
4835 4854 4855 4836
4836 4855 4856 4837
4837 4856 4857 4838
4838 4857 4858 4839
4839 4858 4859 4840
4840 4859 4860 4841
4841 4860 4861 4842
4842 4861 4862 4843
4843 4862 4863 4844
4844 4863 4864 4845
4845 4864 4865 4846
4846 4865 4866 4847
4847 4866 4867 4848
4848 4867 4868 4849
4849 4868 4869 4850
4850 4869 4870 4851
4851 4870 427 426
155 156 4871 4852
4852 4871 4872 4853
4853 4872 4873 4854
4854 4873 4874 4855
4855 4874 4875 4856
4856 4875 4876 4857
4857 4876 4877 4858
4858 4877 4878 4859
4859 4878 4879 4860
4860 4879 4880 4861
4861 4880 4881 4862
4862 4881 4882 4863
4863 4882 4883 4864
4864 4883 4884 4865
4865 4884 4885 4866
4866 4885 4886 4867
4867 4886 4887 4868
4868 4887 4888 4869
4869 4888 4889 4870
4870 4889 428 427
156 157 4890 4871
4871 4890 4891 4872
4872 4891 4892 4873
4873 4892 4893 4874
4874 4893 4894 4875
4875 4894 4895 4876
4876 4895 4896 4877
4877 4896 4897 4878
4878 4897 4898 4879
4879 4898 4899 4880
4880 4899 4900 4881
4881 4900 4901 4882
4882 4901 4902 4883
4883 4902 4903 4884
4884 4903 4904 4885
4885 4904 4905 4886
4886 4905 4906 4887
4887 4906 4907 4888
4888 4907 4908 4889
4889 4908 429 428
157 158 4909 4890
4890 4909 4910 4891
4891 4910 4911 4892
4892 4911 4912 4893
4893 4912 4913 4894
4894 4913 4914 4895
4895 4914 4915 4896
4896 4915 4916 4897
4897 4916 4917 4898
4898 4917 4918 4899
4899 4918 4919 4900
4900 4919 4920 4901
4901 4920 4921 4902
4902 4921 4922 4903
4903 4922 4923 4904
4904 4923 4924 4905
4905 4924 4925 4906
4906 4925 4926 4907
4907 4926 4927 4908
4908 4927 430 429
158 159 4928 4909
4909 4928 4929 4910
4910 4929 4930 4911
4911 4930 4931 4912
4912 4931 4932 4913
4913 4932 4933 4914
4914 4933 4934 4915
4915 4934 4935 4916
4916 4935 4936 4917
4917 4936 4937 4918
4918 4937 4938 4919
4919 4938 4939 4920
4920 4939 4940 4921
4921 4940 4941 4922
4922 4941 4942 4923
4923 4942 4943 4924
4924 4943 4944 4925
4925 4944 4945 4926
4926 4945 4946 4927
4927 4946 431 430
159 160 4947 4928
4928 4947 4948 4929
4929 4948 4949 4930
4930 4949 4950 4931
4931 4950 4951 4932
4932 4951 4952 4933
4933 4952 4953 4934
4934 4953 4954 4935
4935 4954 4955 4936
4936 4955 4956 4937
4937 4956 4957 4938
4938 4957 4958 4939
4939 4958 4959 4940
4940 4959 4960 4941
4941 4960 4961 4942
4942 4961 4962 4943
4943 4962 4963 4944
4944 4963 4964 4945
4945 4964 4965 4946
4946 4965 432 431
160 161 4966 4947
4947 4966 4967 4948
4948 4967 4968 4949
4949 4968 4969 4950
4950 4969 4970 4951
4951 4970 4971 4952
4952 4971 4972 4953
4953 4972 4973 4954
4954 4973 4974 4955
4955 4974 4975 4956
4956 4975 4976 4957
4957 4976 4977 4958
4958 4977 4978 4959
4959 4978 4979 4960
4960 4979 4980 4961
4961 4980 4981 4962
4962 4981 4982 4963
4963 4982 4983 4964
4964 4983 4984 4965
4965 4984 433 432
161 162 4985 4966
4966 4985 4986 4967
4967 4986 4987 4968
4968 4987 4988 4969
4969 4988 4989 4970
4970 4989 4990 4971
4971 4990 4991 4972
4972 4991 4992 4973
4973 4992 4993 4974
4974 4993 4994 4975
4975 4994 4995 4976
4976 4995 4996 4977
4977 4996 4997 4978
4978 4997 4998 4979
4979 4998 4999 4980
4980 4999 5000 4981
4981 5000 5001 4982
4982 5001 5002 4983
4983 5002 5003 4984
4984 5003 434 433
162 163 5004 4985
4985 5004 5005 4986
4986 5005 5006 4987
4987 5006 5007 4988
4988 5007 5008 4989
4989 5008 5009 4990
4990 5009 5010 4991
4991 5010 5011 4992
4992 5011 5012 4993
4993 5012 5013 4994
4994 5013 5014 4995
4995 5014 5015 4996
4996 5015 5016 4997
4997 5016 5017 4998
4998 5017 5018 4999
4999 5018 5019 5000
5000 5019 5020 5001
5001 5020 5021 5002
5002 5021 5022 5003
5003 5022 435 434
163 164 5023 5004
5004 5023 5024 5005
5005 5024 5025 5006
5006 5025 5026 5007
5007 5026 5027 5008
5008 5027 5028 5009
5009 5028 5029 5010
5010 5029 5030 5011
5011 5030 5031 5012
5012 5031 5032 5013
5013 5032 5033 5014
5014 5033 5034 5015
5015 5034 5035 5016
5016 5035 5036 5017
5017 5036 5037 5018
5018 5037 5038 5019
5019 5038 5039 5020
5020 5039 5040 5021
5021 5040 5041 5022
5022 5041 436 435
164 165 5042 5023
5023 5042 5043 5024
5024 5043 5044 5025
5025 5044 5045 5026
5026 5045 5046 5027
5027 5046 5047 5028
5028 5047 5048 5029
5029 5048 5049 5030
5030 5049 5050 5031
5031 5050 5051 5032
5032 5051 5052 5033
5033 5052 5053 5034
5034 5053 5054 5035
5035 5054 5055 5036
5036 5055 5056 5037
5037 5056 5057 5038
5038 5057 5058 5039
5039 5058 5059 5040
5040 5059 5060 5041
5041 5060 437 436
165 6 242 5042
5042 242 241 5043
5043 241 240 5044
5044 240 239 5045
5045 239 238 5046
5046 238 237 5047
5047 237 236 5048
5048 236 235 5049
5049 235 234 5050
5050 234 233 5051
5051 233 232 5052
5052 232 231 5053
5053 231 230 5054
5054 230 229 5055
5055 229 228 5056
5056 228 227 5057
5057 227 226 5058
5058 226 225 5059
5059 225 224 5060
5060 224 8 437
9 323 5061 400
400 5061 5062 401
401 5062 5063 402
402 5063 5064 403
403 5064 5065 404
404 5065 5066 405
405 5066 5067 406
406 5067 5068 407
407 5068 5069 408
408 5069 5070 409
409 5070 5071 410
410 5071 5072 411
411 5072 5073 412
412 5073 5074 413
413 5074 5075 414
414 5075 5076 415
415 5076 5077 416
416 5077 5078 417
417 5078 5079 418
418 5079 185 7
323 324 5080 5061
5061 5080 5081 5062
5062 5081 5082 5063
5063 5082 5083 5064
5064 5083 5084 5065
5065 5084 5085 5066
5066 5085 5086 5067
5067 5086 5087 5068
5068 5087 5088 5069
5069 5088 5089 5070
5070 5089 5090 5071
5071 5090 5091 5072
5072 5091 5092 5073
5073 5092 5093 5074
5074 5093 5094 5075
5075 5094 5095 5076
5076 5095 5096 5077
5077 5096 5097 5078
5078 5097 5098 5079
5079 5098 186 185
324 325 5099 5080
5080 5099 5100 5081
5081 5100 5101 5082
5082 5101 5102 5083
5083 5102 5103 5084
5084 5103 5104 5085
5085 5104 5105 5086
5086 5105 5106 5087
5087 5106 5107 5088
5088 5107 5108 5089
5089 5108 5109 5090
5090 5109 5110 5091
5091 5110 5111 5092
5092 5111 5112 5093
5093 5112 5113 5094
5094 5113 5114 5095
5095 5114 5115 5096
5096 5115 5116 5097
5097 5116 5117 5098
5098 5117 187 186
325 326 5118 5099
5099 5118 5119 5100
5100 5119 5120 5101
5101 5120 5121 5102
5102 5121 5122 5103
5103 5122 5123 5104
5104 5123 5124 5105
5105 5124 5125 5106
5106 5125 5126 5107
5107 5126 5127 5108
5108 5127 5128 5109
5109 5128 5129 5110
5110 5129 5130 5111
5111 5130 5131 5112
5112 5131 5132 5113
5113 5132 5133 5114
5114 5133 5134 5115
5115 5134 5135 5116
5116 5135 5136 5117
5117 5136 188 187
326 327 5137 5118
5118 5137 5138 5119
5119 5138 5139 5120
5120 5139 5140 5121
5121 5140 5141 5122
5122 5141 5142 5123
5123 5142 5143 5124
5124 5143 5144 5125
5125 5144 5145 5126
5126 5145 5146 5127
5127 5146 5147 5128
5128 5147 5148 5129
5129 5148 5149 5130
5130 5149 5150 5131
5131 5150 5151 5132
5132 5151 5152 5133
5133 5152 5153 5134
5134 5153 5154 5135
5135 5154 5155 5136
5136 5155 189 188
327 328 5156 5137
5137 5156 5157 5138
5138 5157 5158 5139
5139 5158 5159 5140
5140 5159 5160 5141
5141 5160 5161 5142
5142 5161 5162 5143
5143 5162 5163 5144
5144 5163 5164 5145
5145 5164 5165 5146
5146 5165 5166 5147
5147 5166 5167 5148
5148 5167 5168 5149
5149 5168 5169 5150
5150 5169 5170 5151
5151 5170 5171 5152
5152 5171 5172 5153
5153 5172 5173 5154
5154 5173 5174 5155
5155 5174 190 189
328 329 5175 5156
5156 5175 5176 5157
5157 5176 5177 5158
5158 5177 5178 5159
5159 5178 5179 5160
5160 5179 5180 5161
5161 5180 5181 5162
5162 5181 5182 5163
5163 5182 5183 5164
5164 5183 5184 5165
5165 5184 5185 5166
5166 5185 5186 5167
5167 5186 5187 5168
5168 5187 5188 5169
5169 5188 5189 5170
5170 5189 5190 5171
5171 5190 5191 5172
5172 5191 5192 5173
5173 5192 5193 5174
5174 5193 191 190
329 330 5194 5175
5175 5194 5195 5176
5176 5195 5196 5177
5177 5196 5197 5178
5178 5197 5198 5179
5179 5198 5199 5180
5180 5199 5200 5181
5181 5200 5201 5182
5182 5201 5202 5183
5183 5202 5203 5184
5184 5203 5204 5185
5185 5204 5205 5186
5186 5205 5206 5187
5187 5206 5207 5188
5188 5207 5208 5189
5189 5208 5209 5190
5190 5209 5210 5191
5191 5210 5211 5192
5192 5211 5212 5193
5193 5212 192 191
330 331 5213 5194
5194 5213 5214 5195
5195 5214 5215 5196
5196 5215 5216 5197
5197 5216 5217 5198
5198 5217 5218 5199
5199 5218 5219 5200
5200 5219 5220 5201
5201 5220 5221 5202
5202 5221 5222 5203
5203 5222 5223 5204
5204 5223 5224 5205
5205 5224 5225 5206
5206 5225 5226 5207
5207 5226 5227 5208
5208 5227 5228 5209
5209 5228 5229 5210
5210 5229 5230 5211
5211 5230 5231 5212
5212 5231 193 192
331 332 5232 5213
5213 5232 5233 5214
5214 5233 5234 5215
5215 5234 5235 5216
5216 5235 5236 5217
5217 5236 5237 5218
5218 5237 5238 5219
5219 5238 5239 5220
5220 5239 5240 5221
5221 5240 5241 5222
5222 5241 5242 5223
5223 5242 5243 5224
5224 5243 5244 5225
5225 5244 5245 5226
5226 5245 5246 5227
5227 5246 5247 5228
5228 5247 5248 5229
5229 5248 5249 5230
5230 5249 5250 5231
5231 5250 194 193
332 333 5251 5232
5232 5251 5252 5233
5233 5252 5253 5234
5234 5253 5254 5235
5235 5254 5255 5236
5236 5255 5256 5237
5237 5256 5257 5238
5238 5257 5258 5239
5239 5258 5259 5240
5240 5259 5260 5241
5241 5260 5261 5242
5242 5261 5262 5243
5243 5262 5263 5244
5244 5263 5264 5245
5245 5264 5265 5246
5246 5265 5266 5247
5247 5266 5267 5248
5248 5267 5268 5249
5249 5268 5269 5250
5250 5269 195 194
333 334 5270 5251
5251 5270 5271 5252
5252 5271 5272 5253
5253 5272 5273 5254
5254 5273 5274 5255
5255 5274 5275 5256
5256 5275 5276 5257
5257 5276 5277 5258
5258 5277 5278 5259
5259 5278 5279 5260
5260 5279 5280 5261
5261 5280 5281 5262
5262 5281 5282 5263
5263 5282 5283 5264
5264 5283 5284 5265
5265 5284 5285 5266
5266 5285 5286 5267
5267 5286 5287 5268
5268 5287 5288 5269
5269 5288 196 195
334 335 5289 5270
5270 5289 5290 5271
5271 5290 5291 5272
5272 5291 5292 5273
5273 5292 5293 5274
5274 5293 5294 5275
5275 5294 5295 5276
5276 5295 5296 5277
5277 5296 5297 5278
5278 5297 5298 5279
5279 5298 5299 5280
5280 5299 5300 5281
5281 5300 5301 5282
5282 5301 5302 5283
5283 5302 5303 5284
5284 5303 5304 5285
5285 5304 5305 5286
5286 5305 5306 5287
5287 5306 5307 5288
5288 5307 197 196
335 336 5308 5289
5289 5308 5309 5290
5290 5309 5310 5291
5291 5310 5311 5292
5292 5311 5312 5293
5293 5312 5313 5294
5294 5313 5314 5295
5295 5314 5315 5296
5296 5315 5316 5297
5297 5316 5317 5298
5298 5317 5318 5299
5299 5318 5319 5300
5300 5319 5320 5301
5301 5320 5321 5302
5302 5321 5322 5303
5303 5322 5323 5304
5304 5323 5324 5305
5305 5324 5325 5306
5306 5325 5326 5307
5307 5326 198 197
336 337 5327 5308
5308 5327 5328 5309
5309 5328 5329 5310
5310 5329 5330 5311
5311 5330 5331 5312
5312 5331 5332 5313
5313 5332 5333 5314
5314 5333 5334 5315
5315 5334 5335 5316
5316 5335 5336 5317
5317 5336 5337 5318
5318 5337 5338 5319
5319 5338 5339 5320
5320 5339 5340 5321
5321 5340 5341 5322
5322 5341 5342 5323
5323 5342 5343 5324
5324 5343 5344 5325
5325 5344 5345 5326
5326 5345 199 198
337 338 5346 5327
5327 5346 5347 5328
5328 5347 5348 5329
5329 5348 5349 5330
5330 5349 5350 5331
5331 5350 5351 5332
5332 5351 5352 5333
5333 5352 5353 5334
5334 5353 5354 5335
5335 5354 5355 5336
5336 5355 5356 5337
5337 5356 5357 5338
5338 5357 5358 5339
5339 5358 5359 5340
5340 5359 5360 5341
5341 5360 5361 5342
5342 5361 5362 5343
5343 5362 5363 5344
5344 5363 5364 5345
5345 5364 200 199
338 339 5365 5346
5346 5365 5366 5347
5347 5366 5367 5348
5348 5367 5368 5349
5349 5368 5369 5350
5350 5369 5370 5351
5351 5370 5371 5352
5352 5371 5372 5353
5353 5372 5373 5354
5354 5373 5374 5355
5355 5374 5375 5356
5356 5375 5376 5357
5357 5376 5377 5358
5358 5377 5378 5359
5359 5378 5379 5360
5360 5379 5380 5361
5361 5380 5381 5362
5362 5381 5382 5363
5363 5382 5383 5364
5364 5383 201 200
339 340 5384 5365
5365 5384 5385 5366
5366 5385 5386 5367
5367 5386 5387 5368
5368 5387 5388 5369
5369 5388 5389 5370
5370 5389 5390 5371
5371 5390 5391 5372
5372 5391 5392 5373
5373 5392 5393 5374
5374 5393 5394 5375
5375 5394 5395 5376
5376 5395 5396 5377
5377 5396 5397 5378
5378 5397 5398 5379
5379 5398 5399 5380
5380 5399 5400 5381
5381 5400 5401 5382
5382 5401 5402 5383
5383 5402 202 201
340 341 5403 5384
5384 5403 5404 5385
5385 5404 5405 5386
5386 5405 5406 5387
5387 5406 5407 5388
5388 5407 5408 5389
5389 5408 5409 5390
5390 5409 5410 5391
5391 5410 5411 5392
5392 5411 5412 5393
5393 5412 5413 5394
5394 5413 5414 5395
5395 5414 5415 5396
5396 5415 5416 5397
5397 5416 5417 5398
5398 5417 5418 5399
5399 5418 5419 5400
5400 5419 5420 5401
5401 5420 5421 5402
5402 5421 203 202
341 342 5422 5403
5403 5422 5423 5404
5404 5423 5424 5405
5405 5424 5425 5406
5406 5425 5426 5407
5407 5426 5427 5408
5408 5427 5428 5409
5409 5428 5429 5410
5410 5429 5430 5411
5411 5430 5431 5412
5412 5431 5432 5413
5413 5432 5433 5414
5414 5433 5434 5415
5415 5434 5435 5416
5416 5435 5436 5417
5417 5436 5437 5418
5418 5437 5438 5419
5419 5438 5439 5420
5420 5439 5440 5421
5421 5440 204 203
342 343 5441 5422
5422 5441 5442 5423
5423 5442 5443 5424
5424 5443 5444 5425
5425 5444 5445 5426
5426 5445 5446 5427
5427 5446 5447 5428
5428 5447 5448 5429
5429 5448 5449 5430
5430 5449 5450 5431
5431 5450 5451 5432
5432 5451 5452 5433
5433 5452 5453 5434
5434 5453 5454 5435
5435 5454 5455 5436
5436 5455 5456 5437
5437 5456 5457 5438
5438 5457 5458 5439
5439 5458 5459 5440
5440 5459 205 204
343 344 5460 5441
5441 5460 5461 5442
5442 5461 5462 5443
5443 5462 5463 5444
5444 5463 5464 5445
5445 5464 5465 5446
5446 5465 5466 5447
5447 5466 5467 5448
5448 5467 5468 5449
5449 5468 5469 5450
5450 5469 5470 5451
5451 5470 5471 5452
5452 5471 5472 5453
5453 5472 5473 5454
5454 5473 5474 5455
5455 5474 5475 5456
5456 5475 5476 5457
5457 5476 5477 5458
5458 5477 5478 5459
5459 5478 206 205
344 345 5479 5460
5460 5479 5480 5461
5461 5480 5481 5462
5462 5481 5482 5463
5463 5482 5483 5464
5464 5483 5484 5465
5465 5484 5485 5466
5466 5485 5486 5467
5467 5486 5487 5468
5468 5487 5488 5469
5469 5488 5489 5470
5470 5489 5490 5471
5471 5490 5491 5472
5472 5491 5492 5473
5473 5492 5493 5474
5474 5493 5494 5475
5475 5494 5495 5476
5476 5495 5496 5477
5477 5496 5497 5478
5478 5497 207 206
345 346 5498 5479
5479 5498 5499 5480
5480 5499 5500 5481
5481 5500 5501 5482
5482 5501 5502 5483
5483 5502 5503 5484
5484 5503 5504 5485
5485 5504 5505 5486
5486 5505 5506 5487
5487 5506 5507 5488
5488 5507 5508 5489
5489 5508 5509 5490
5490 5509 5510 5491
5491 5510 5511 5492
5492 5511 5512 5493
5493 5512 5513 5494
5494 5513 5514 5495
5495 5514 5515 5496
5496 5515 5516 5497
5497 5516 208 207
346 347 5517 5498
5498 5517 5518 5499
5499 5518 5519 5500
5500 5519 5520 5501
5501 5520 5521 5502
5502 5521 5522 5503
5503 5522 5523 5504
5504 5523 5524 5505
5505 5524 5525 5506
5506 5525 5526 5507
5507 5526 5527 5508
5508 5527 5528 5509
5509 5528 5529 5510
5510 5529 5530 5511
5511 5530 5531 5512
5512 5531 5532 5513
5513 5532 5533 5514
5514 5533 5534 5515
5515 5534 5535 5516
5516 5535 209 208
347 348 5536 5517
5517 5536 5537 5518
5518 5537 5538 5519
5519 5538 5539 5520
5520 5539 5540 5521
5521 5540 5541 5522
5522 5541 5542 5523
5523 5542 5543 5524
5524 5543 5544 5525
5525 5544 5545 5526
5526 5545 5546 5527
5527 5546 5547 5528
5528 5547 5548 5529
5529 5548 5549 5530
5530 5549 5550 5531
5531 5550 5551 5532
5532 5551 5552 5533
5533 5552 5553 5534
5534 5553 5554 5535
5535 5554 210 209
348 349 5555 5536
5536 5555 5556 5537
5537 5556 5557 5538
5538 5557 5558 5539
5539 5558 5559 5540
5540 5559 5560 5541
5541 5560 5561 5542
5542 5561 5562 5543
5543 5562 5563 5544
5544 5563 5564 5545
5545 5564 5565 5546
5546 5565 5566 5547
5547 5566 5567 5548
5548 5567 5568 5549
5549 5568 5569 5550
5550 5569 5570 5551
5551 5570 5571 5552
5552 5571 5572 5553
5553 5572 5573 5554
5554 5573 211 210
349 350 5574 5555
5555 5574 5575 5556
5556 5575 5576 5557
5557 5576 5577 5558
5558 5577 5578 5559
5559 5578 5579 5560
5560 5579 5580 5561
5561 5580 5581 5562
5562 5581 5582 5563
5563 5582 5583 5564
5564 5583 5584 5565
5565 5584 5585 5566
5566 5585 5586 5567
5567 5586 5587 5568
5568 5587 5588 5569
5569 5588 5589 5570
5570 5589 5590 5571
5571 5590 5591 5572
5572 5591 5592 5573
5573 5592 212 211
350 351 5593 5574
5574 5593 5594 5575
5575 5594 5595 5576
5576 5595 5596 5577
5577 5596 5597 5578
5578 5597 5598 5579
5579 5598 5599 5580
5580 5599 5600 5581
5581 5600 5601 5582
5582 5601 5602 5583
5583 5602 5603 5584
5584 5603 5604 5585
5585 5604 5605 5586
5586 5605 5606 5587
5587 5606 5607 5588
5588 5607 5608 5589
5589 5608 5609 5590
5590 5609 5610 5591
5591 5610 5611 5592
5592 5611 213 212
351 352 5612 5593
5593 5612 5613 5594
5594 5613 5614 5595
5595 5614 5615 5596
5596 5615 5616 5597
5597 5616 5617 5598
5598 5617 5618 5599
5599 5618 5619 5600
5600 5619 5620 5601
5601 5620 5621 5602
5602 5621 5622 5603
5603 5622 5623 5604
5604 5623 5624 5605
5605 5624 5625 5606
5606 5625 5626 5607
5607 5626 5627 5608
5608 5627 5628 5609
5609 5628 5629 5610
5610 5629 5630 5611
5611 5630 214 213
352 353 5631 5612
5612 5631 5632 5613
5613 5632 5633 5614
5614 5633 5634 5615
5615 5634 5635 5616
5616 5635 5636 5617
5617 5636 5637 5618
5618 5637 5638 5619
5619 5638 5639 5620
5620 5639 5640 5621
5621 5640 5641 5622
5622 5641 5642 5623
5623 5642 5643 5624
5624 5643 5644 5625
5625 5644 5645 5626
5626 5645 5646 5627
5627 5646 5647 5628
5628 5647 5648 5629
5629 5648 5649 5630
5630 5649 215 214
353 354 5650 5631
5631 5650 5651 5632
5632 5651 5652 5633
5633 5652 5653 5634
5634 5653 5654 5635
5635 5654 5655 5636
5636 5655 5656 5637
5637 5656 5657 5638
5638 5657 5658 5639
5639 5658 5659 5640
5640 5659 5660 5641
5641 5660 5661 5642
5642 5661 5662 5643
5643 5662 5663 5644
5644 5663 5664 5645
5645 5664 5665 5646
5646 5665 5666 5647
5647 5666 5667 5648
5648 5667 5668 5649
5649 5668 216 215
354 355 5669 5650
5650 5669 5670 5651
5651 5670 5671 5652
5652 5671 5672 5653
5653 5672 5673 5654
5654 5673 5674 5655
5655 5674 5675 5656
5656 5675 5676 5657
5657 5676 5677 5658
5658 5677 5678 5659
5659 5678 5679 5660
5660 5679 5680 5661
5661 5680 5681 5662
5662 5681 5682 5663
5663 5682 5683 5664
5664 5683 5684 5665
5665 5684 5685 5666
5666 5685 5686 5667
5667 5686 5687 5668
5668 5687 217 216
355 356 5688 5669
5669 5688 5689 5670
5670 5689 5690 5671
5671 5690 5691 5672
5672 5691 5692 5673
5673 5692 5693 5674
5674 5693 5694 5675
5675 5694 5695 5676
5676 5695 5696 5677
5677 5696 5697 5678
5678 5697 5698 5679
5679 5698 5699 5680
5680 5699 5700 5681
5681 5700 5701 5682
5682 5701 5702 5683
5683 5702 5703 5684
5684 5703 5704 5685
5685 5704 5705 5686
5686 5705 5706 5687
5687 5706 218 217
356 357 5707 5688
5688 5707 5708 5689
5689 5708 5709 5690
5690 5709 5710 5691
5691 5710 5711 5692
5692 5711 5712 5693
5693 5712 5713 5694
5694 5713 5714 5695
5695 5714 5715 5696
5696 5715 5716 5697
5697 5716 5717 5698
5698 5717 5718 5699
5699 5718 5719 5700
5700 5719 5720 5701
5701 5720 5721 5702
5702 5721 5722 5703
5703 5722 5723 5704
5704 5723 5724 5705
5705 5724 5725 5706
5706 5725 219 218
357 358 5726 5707
5707 5726 5727 5708
5708 5727 5728 5709
5709 5728 5729 5710
5710 5729 5730 5711
5711 5730 5731 5712
5712 5731 5732 5713
5713 5732 5733 5714
5714 5733 5734 5715
5715 5734 5735 5716
5716 5735 5736 5717
5717 5736 5737 5718
5718 5737 5738 5719
5719 5738 5739 5720
5720 5739 5740 5721
5721 5740 5741 5722
5722 5741 5742 5723
5723 5742 5743 5724
5724 5743 5744 5725
5725 5744 220 219
358 359 5745 5726
5726 5745 5746 5727
5727 5746 5747 5728
5728 5747 5748 5729
5729 5748 5749 5730
5730 5749 5750 5731
5731 5750 5751 5732
5732 5751 5752 5733
5733 5752 5753 5734
5734 5753 5754 5735
5735 5754 5755 5736
5736 5755 5756 5737
5737 5756 5757 5738
5738 5757 5758 5739
5739 5758 5759 5740
5740 5759 5760 5741
5741 5760 5761 5742
5742 5761 5762 5743
5743 5762 5763 5744
5744 5763 221 220
359 360 5764 5745
5745 5764 5765 5746
5746 5765 5766 5747
5747 5766 5767 5748
5748 5767 5768 5749
5749 5768 5769 5750
5750 5769 5770 5751
5751 5770 5771 5752
5752 5771 5772 5753
5753 5772 5773 5754
5754 5773 5774 5755
5755 5774 5775 5756
5756 5775 5776 5757
5757 5776 5777 5758
5758 5777 5778 5759
5759 5778 5779 5760
5760 5779 5780 5761
5761 5780 5781 5762
5762 5781 5782 5763
5763 5782 222 221
360 361 5783 5764
5764 5783 5784 5765
5765 5784 5785 5766
5766 5785 5786 5767
5767 5786 5787 5768
5768 5787 5788 5769
5769 5788 5789 5770
5770 5789 5790 5771
5771 5790 5791 5772
5772 5791 5792 5773
5773 5792 5793 5774
5774 5793 5794 5775
5775 5794 5795 5776
5776 5795 5796 5777
5777 5796 5797 5778
5778 5797 5798 5779
5779 5798 5799 5780
5780 5799 5800 5781
5781 5800 5801 5782
5782 5801 223 222
361 10 419 5783
5783 419 420 5784
5784 420 421 5785
5785 421 422 5786
5786 422 423 5787
5787 423 424 5788
5788 424 425 5789
5789 425 426 5790
5790 426 427 5791
5791 427 428 5792
5792 428 429 5793
5793 429 430 5794
5794 430 431 5795
5795 431 432 5796
5796 432 433 5797
5797 433 434 5798
5798 434 435 5799
5799 435 436 5800
5800 436 437 5801
5801 437 8 223
</DataArray>
<DataArray type="Int64" Name="offsets" format="ascii">
4
8
12
16
20
24
28
32
36
40
44
48
52
56
60
64
68
72
76
80
84
88
92
96
100
104
108
112
116
120
124
128
132
136
140
144
148
152
156
160
164
168
172
176
180
184
188
192
196
200
204
208
212
216
220
224
228
232
236
240
244
248
252
256
260
264
268
272
276
280
284
288
292
296
300
304
308
312
316
320
324
328
332
336
340
344
348
352
356
360
364
368
372
376
380
384
388
392
396
400
404
408
412
416
420
424
428
432
436
440
444
448
452
456
460
464
468
472
476
480
484
488
492
496
500
504
508
512
516
520
524
528
532
536
540
544
548
552
556
560
564
568
572
576
580
584
588
592
596
600
604
608
612
616
620
624
628
632
636
640
644
648
652
656
660
664
668
672
676
680
684
688
692
696
700
704
708
712
716
720
724
728
732
736
740
744
748
752
756
760
764
768
772
776
780
784
788
792
796
800
804
808
812
816
820
824
828
832
836
840
844
848
852
856
860
864
868
872
876
880
884
888
892
896
900
904
908
912
916
920
924
928
932
936
940
944
948
952
956
960
964
968
972
976
980
984
988
992
996
1000
1004
1008
1012
1016
1020
1024
1028
1032
1036
1040
1044
1048
1052
1056
1060
1064
1068
1072
1076
1080
1084
1088
1092
1096
1100
1104
1108
1112
1116
1120
1124
1128
1132
1136
1140
1144
1148
1152
1156
1160
1164
1168
1172
1176
1180
1184
1188
1192
1196
1200
1204
1208
1212
1216
1220
1224
1228
1232
1236
1240
1244
1248
1252
1256
1260
1264
1268
1272
1276
1280
1284
1288
1292
1296
1300
1304
1308
1312
1316
1320
1324
1328
1332
1336
1340
1344
1348
1352
1356
1360
1364
1368
1372
1376
1380
1384
1388
1392
1396
1400
1404
1408
1412
1416
1420
1424
1428
1432
1436
1440
1444
1448
1452
1456
1460
1464
1468
1472
1476
1480
1484
1488
1492
1496
1500
1504
1508
1512
1516
1520
1524
1528
1532
1536
1540
1544
1548
1552
1556
1560
1564
1568
1572
1576
1580
1584
1588
1592
1596
1600
1604
1608
1612
1616
1620
1624
1628
1632
1636
1640
1644
1648
1652
1656
1660
1664
1668
1672
1676
1680
1684
1688
1692
1696
1700
1704
1708
1712
1716
1720
1724
1728
1732
1736
1740
1744
1748
1752
1756
1760
1764
1768
1772
1776
1780
1784
1788
1792
1796
1800
1804
1808
1812
1816
1820
1824
1828
1832
1836
1840
1844
1848
1852
1856
1860
1864
1868
1872
1876
1880
1884
1888
1892
1896
1900
1904
1908
1912
1916
1920
1924
1928
1932
1936
1940
1944
1948
1952
1956
1960
1964
1968
1972
1976
1980
1984
1988
1992
1996
2000
2004
2008
2012
2016
2020
2024
2028
2032
2036
2040
2044
2048
2052
2056
2060
2064
2068
2072
2076
2080
2084
2088
2092
2096
2100
2104
2108
2112
2116
2120
2124
2128
2132
2136
2140
2144
2148
2152
2156
2160
2164
2168
2172
2176
2180
2184
2188
2192
2196
2200
2204
2208
2212
2216
2220
2224
2228
2232
2236
2240
2244
2248
2252
2256
2260
2264
2268
2272
2276
2280
2284
2288
2292
2296
2300
2304
2308
2312
2316
2320
2324
2328
2332
2336
2340
2344
2348
2352
2356
2360
2364
2368
2372
2376
2380
2384
2388
2392
2396
2400
2404
2408
2412
2416
2420
2424
2428
2432
2436
2440
2444
2448
2452
2456
2460
2464
2468
2472
2476
2480
2484
2488
2492
2496
2500
2504
2508
2512
2516
2520
2524
2528
2532
2536
2540
2544
2548
2552
2556
2560
2564
2568
2572
2576
2580
2584
2588
2592
2596
2600
2604
2608
2612
2616
2620
2624
2628
2632
2636
2640
2644
2648
2652
2656
2660
2664
2668
2672
2676
2680
2684
2688
2692
2696
2700
2704
2708
2712
2716
2720
2724
2728
2732
2736
2740
2744
2748
2752
2756
2760
2764
2768
2772
2776
2780
2784
2788
2792
2796
2800
2804
2808
2812
2816
2820
2824
2828
2832
2836
2840
2844
2848
2852
2856
2860
2864
2868
2872
2876
2880
2884
2888
2892
2896
2900
2904
2908
2912
2916
2920
2924
2928
2932
2936
2940
2944
2948
2952
2956
2960
2964
2968
2972
2976
2980
2984
2988
2992
2996
3000
3004
3008
3012
3016
3020
3024
3028
3032
3036
3040
3044
3048
3052
3056
3060
3064
3068
3072
3076
3080
3084
3088
3092
3096
3100
3104
3108
3112
3116
3120
3124
3128
3132
3136
3140
3144
3148
3152
3156
3160
3164
3168
3172
3176
3180
3184
3188
3192
3196
3200
3204
3208
3212
3216
3220
3224
3228
3232
3236
3240
3244
3248
3252
3256
3260
3264
3268
3272
3276
3280
3284
3288
3292
3296
3300
3304
3308
3312
3316
3320
3324
3328
3332
3336
3340
3344
3348
3352
3356
3360
3364
3368
3372
3376
3380
3384
3388
3392
3396
3400
3404
3408
3412
3416
3420
3424
3428
3432
3436
3440
3444
3448
3452
3456
3460
3464
3468
3472
3476
3480
3484
3488
3492
3496
3500
3504
3508
3512
3516
3520
3524
3528
3532
3536
3540
3544
3548
3552
3556
3560
3564
3568
3572
3576
3580
3584
3588
3592
3596
3600
3604
3608
3612
3616
3620
3624
3628
3632
3636
3640
3644
3648
3652
3656
3660
3664
3668
3672
3676
3680
3684
3688
3692
3696
3700
3704
3708
3712
3716
3720
3724
3728
3732
3736
3740
3744
3748
3752
3756
3760
3764
3768
3772
3776
3780
3784
3788
3792
3796
3800
3804
3808
3812
3816
3820
3824
3828
3832
3836
3840
3844
3848
3852
3856
3860
3864
3868
3872
3876
3880
3884
3888
3892
3896
3900
3904
3908
3912
3916
3920
3924
3928
3932
3936
3940
3944
3948
3952
3956
3960
3964
3968
3972
3976
3980
3984
3988
3992
3996
4000
4004
4008
4012
4016
4020
4024
4028
4032
4036
4040
4044
4048
4052
4056
4060
4064
4068
4072
4076
4080
4084
4088
4092
4096
4100
4104
4108
4112
4116
4120
4124
4128
4132
4136
4140
4144
4148
4152
4156
4160
4164
4168
4172
4176
4180
4184
4188
4192
4196
4200
4204
4208
4212
4216
4220
4224
4228
4232
4236
4240
4244
4248
4252
4256
4260
4264
4268
4272
4276
4280
4284
4288
4292
4296
4300
4304
4308
4312
4316
4320
4324
4328
4332
4336
4340
4344
4348
4352
4356
4360
4364
4368
4372
4376
4380
4384
4388
4392
4396
4400
4404
4408
4412
4416
4420
4424
4428
4432
4436
4440
4444
4448
4452
4456
4460
4464
4468
4472
4476
4480
4484
4488
4492
4496
4500
4504
4508
4512
4516
4520
4524
4528
4532
4536
4540
4544
4548
4552
4556
4560
4564
4568
4572
4576
4580
4584
4588
4592
4596
4600
4604
4608
4612
4616
4620
4624
4628
4632
4636
4640
4644
4648
4652
4656
4660
4664
4668
4672
4676
4680
4684
4688
4692
4696
4700
4704
4708
4712
4716
4720
4724
4728
4732
4736
4740
4744
4748
4752
4756
4760
4764
4768
4772
4776
4780
4784
4788
4792
4796
4800
4804
4808
4812
4816
4820
4824
4828
4832
4836
4840
4844
4848
4852
4856
4860
4864
4868
4872
4876
4880
4884
4888
4892
4896
4900
4904
4908
4912
4916
4920
4924
4928
4932
4936
4940
4944
4948
4952
4956
4960
4964
4968
4972
4976
4980
4984
4988
4992
4996
5000
5004
5008
5012
5016
5020
5024
5028
5032
5036
5040
5044
5048
5052
5056
5060
5064
5068
5072
5076
5080
5084
5088
5092
5096
5100
5104
5108
5112
5116
5120
5124
5128
5132
5136
5140
5144
5148
5152
5156
5160
5164
5168
5172
5176
5180
5184
5188
5192
5196
5200
5204
5208
5212
5216
5220
5224
5228
5232
5236
5240
5244
5248
5252
5256
5260
5264
5268
5272
5276
5280
5284
5288
5292
5296
5300
5304
5308
5312
5316
5320
5324
5328
5332
5336
5340
5344
5348
5352
5356
5360
5364
5368
5372
5376
5380
5384
5388
5392
5396
5400
5404
5408
5412
5416
5420
5424
5428
5432
5436
5440
5444
5448
5452
5456
5460
5464
5468
5472
5476
5480
5484
5488
5492
5496
5500
5504
5508
5512
5516
5520
5524
5528
5532
5536
5540
5544
5548
5552
5556
5560
5564
5568
5572
5576
5580
5584
5588
5592
5596
5600
5604
5608
5612
5616
5620
5624
5628
5632
5636
5640
5644
5648
5652
5656
5660
5664
5668
5672
5676
5680
5684
5688
5692
5696
5700
5704
5708
5712
5716
5720
5724
5728
5732
5736
5740
5744
5748
5752
5756
5760
5764
5768
5772
5776
5780
5784
5788
5792
5796
5800
5804
5808
5812
5816
5820
5824
5828
5832
5836
5840
5844
5848
5852
5856
5860
5864
5868
5872
5876
5880
5884
5888
5892
5896
5900
5904
5908
5912
5916
5920
5924
5928
5932
5936
5940
5944
5948
5952
5956
5960
5964
5968
5972
5976
5980
5984
5988
5992
5996
6000
6004
6008
6012
6016
6020
6024
6028
6032
6036
6040
6044
6048
6052
6056
6060
6064
6068
6072
6076
6080
6084
6088
6092
6096
6100
6104
6108
6112
6116
6120
6124
6128
6132
6136
6140
6144
6148
6152
6156
6160
6164
6168
6172
6176
6180
6184
6188
6192
6196
6200
6204
6208
6212
6216
6220
6224
6228
6232
6236
6240
6244
6248
6252
6256
6260
6264
6268
6272
6276
6280
6284
6288
6292
6296
6300
6304
6308
6312
6316
6320
6324
6328
6332
6336
6340
6344
6348
6352
6356
6360
6364
6368
6372
6376
6380
6384
6388
6392
6396
6400
6404
6408
6412
6416
6420
6424
6428
6432
6436
6440
6444
6448
6452
6456
6460
6464
6468
6472
6476
6480
6484
6488
6492
6496
6500
6504
6508
6512
6516
6520
6524
6528
6532
6536
6540
6544
6548
6552
6556
6560
6564
6568
6572
6576
6580
6584
6588
6592
6596
6600
6604
6608
6612
6616
6620
6624
6628
6632
6636
6640
6644
6648
6652
6656
6660
6664
6668
6672
6676
6680
6684
6688
6692
6696
6700
6704
6708
6712
6716
6720
6724
6728
6732
6736
6740
6744
6748
6752
6756
6760
6764
6768
6772
6776
6780
6784
6788
6792
6796
6800
6804
6808
6812
6816
6820
6824
6828
6832
6836
6840
6844
6848
6852
6856
6860
6864
6868
6872
6876
6880
6884
6888
6892
6896
6900
6904
6908
6912
6916
6920
6924
6928
6932
6936
6940
6944
6948
6952
6956
6960
6964
6968
6972
6976
6980
6984
6988
6992
6996
7000
7004
7008
7012
7016
7020
7024
7028
7032
7036
7040
7044
7048
7052
7056
7060
7064
7068
7072
7076
7080
7084
7088
7092
7096
7100
7104
7108
7112
7116
7120
7124
7128
7132
7136
7140
7144
7148
7152
7156
7160
7164
7168
7172
7176
7180
7184
7188
7192
7196
7200
7204
7208
7212
7216
7220
7224
7228
7232
7236
7240
7244
7248
7252
7256
7260
7264
7268
7272
7276
7280
7284
7288
7292
7296
7300
7304
7308
7312
7316
7320
7324
7328
7332
7336
7340
7344
7348
7352
7356
7360
7364
7368
7372
7376
7380
7384
7388
7392
7396
7400
7404
7408
7412
7416
7420
7424
7428
7432
7436
7440
7444
7448
7452
7456
7460
7464
7468
7472
7476
7480
7484
7488
7492
7496
7500
7504
7508
7512
7516
7520
7524
7528
7532
7536
7540
7544
7548
7552
7556
7560
7564
7568
7572
7576
7580
7584
7588
7592
7596
7600
7604
7608
7612
7616
7620
7624
7628
7632
7636
7640
7644
7648
7652
7656
7660
7664
7668
7672
7676
7680
7684
7688
7692
7696
7700
7704
7708
7712
7716
7720
7724
7728
7732
7736
7740
7744
7748
7752
7756
7760
7764
7768
7772
7776
7780
7784
7788
7792
7796
7800
7804
7808
7812
7816
7820
7824
7828
7832
7836
7840
7844
7848
7852
7856
7860
7864
7868
7872
7876
7880
7884
7888
7892
7896
7900
7904
7908
7912
7916
7920
7924
7928
7932
7936
7940
7944
7948
7952
7956
7960
7964
7968
7972
7976
7980
7984
7988
7992
7996
8000
8004
8008
8012
8016
8020
8024
8028
8032
8036
8040
8044
8048
8052
8056
8060
8064
8068
8072
8076
8080
8084
8088
8092
8096
8100
8104
8108
8112
8116
8120
8124
8128
8132
8136
8140
8144
8148
8152
8156
8160
8164
8168
8172
8176
8180
8184
8188
8192
8196
8200
8204
8208
8212
8216
8220
8224
8228
8232
8236
8240
8244
8248
8252
8256
8260
8264
8268
8272
8276
8280
8284
8288
8292
8296
8300
8304
8308
8312
8316
8320
8324
8328
8332
8336
8340
8344
8348
8352
8356
8360
8364
8368
8372
8376
8380
8384
8388
8392
8396
8400
8404
8408
8412
8416
8420
8424
8428
8432
8436
8440
8444
8448
8452
8456
8460
8464
8468
8472
8476
8480
8484
8488
8492
8496
8500
8504
8508
8512
8516
8520
8524
8528
8532
8536
8540
8544
8548
8552
8556
8560
8564
8568
8572
8576
8580
8584
8588
8592
8596
8600
8604
8608
8612
8616
8620
8624
8628
8632
8636
8640
8644
8648
8652
8656
8660
8664
8668
8672
8676
8680
8684
8688
8692
8696
8700
8704
8708
8712
8716
8720
8724
8728
8732
8736
8740
8744
8748
8752
8756
8760
8764
8768
8772
8776
8780
8784
8788
8792
8796
8800
8804
8808
8812
8816
8820
8824
8828
8832
8836
8840
8844
8848
8852
8856
8860
8864
8868
8872
8876
8880
8884
8888
8892
8896
8900
8904
8908
8912
8916
8920
8924
8928
8932
8936
8940
8944
8948
8952
8956
8960
8964
8968
8972
8976
8980
8984
8988
8992
8996
9000
9004
9008
9012
9016
9020
9024
9028
9032
9036
9040
9044
9048
9052
9056
9060
9064
9068
9072
9076
9080
9084
9088
9092
9096
9100
9104
9108
9112
9116
9120
9124
9128
9132
9136
9140
9144
9148
9152
9156
9160
9164
9168
9172
9176
9180
9184
9188
9192
9196
9200
9204
9208
9212
9216
9220
9224
9228
9232
9236
9240
9244
9248
9252
9256
9260
9264
9268
9272
9276
9280
9284
9288
9292
9296
9300
9304
9308
9312
9316
9320
9324
9328
9332
9336
9340
9344
9348
9352
9356
9360
9364
9368
9372
9376
9380
9384
9388
9392
9396
9400
9404
9408
9412
9416
9420
9424
9428
9432
9436
9440
9444
9448
9452
9456
9460
9464
9468
9472
9476
9480
9484
9488
9492
9496
9500
9504
9508
9512
9516
9520
9524
9528
9532
9536
9540
9544
9548
9552
9556
9560
9564
9568
9572
9576
9580
9584
9588
9592
9596
9600
9604
9608
9612
9616
9620
9624
9628
9632
9636
9640
9644
9648
9652
9656
9660
9664
9668
9672
9676
9680
9684
9688
9692
9696
9700
9704
9708
9712
9716
9720
9724
9728
9732
9736
9740
9744
9748
9752
9756
9760
9764
9768
9772
9776
9780
9784
9788
9792
9796
9800
9804
9808
9812
9816
9820
9824
9828
9832
9836
9840
9844
9848
9852
9856
9860
9864
9868
9872
9876
9880
9884
9888
9892
9896
9900
9904
9908
9912
9916
9920
9924
9928
9932
9936
9940
9944
9948
9952
9956
9960
9964
9968
9972
9976
9980
9984
9988
9992
9996
10000
10004
10008
10012
10016
10020
10024
10028
10032
10036
10040
10044
10048
10052
10056
10060
10064
10068
10072
10076
10080
10084
10088
10092
10096
10100
10104
10108
10112
10116
10120
10124
10128
10132
10136
10140
10144
10148
10152
10156
10160
10164
10168
10172
10176
10180
10184
10188
10192
10196
10200
10204
10208
10212
10216
10220
10224
10228
10232
10236
10240
10244
10248
10252
10256
10260
10264
10268
10272
10276
10280
10284
10288
10292
10296
10300
10304
10308
10312
10316
10320
10324
10328
10332
10336
10340
10344
10348
10352
10356
10360
10364
10368
10372
10376
10380
10384
10388
10392
10396
10400
10404
10408
10412
10416
10420
10424
10428
10432
10436
10440
10444
10448
10452
10456
10460
10464
10468
10472
10476
10480
10484
10488
10492
10496
10500
10504
10508
10512
10516
10520
10524
10528
10532
10536
10540
10544
10548
10552
10556
10560
10564
10568
10572
10576
10580
10584
10588
10592
10596
10600
10604
10608
10612
10616
10620
10624
10628
10632
10636
10640
10644
10648
10652
10656
10660
10664
10668
10672
10676
10680
10684
10688
10692
10696
10700
10704
10708
10712
10716
10720
10724
10728
10732
10736
10740
10744
10748
10752
10756
10760
10764
10768
10772
10776
10780
10784
10788
10792
10796
10800
10804
10808
10812
10816
10820
10824
10828
10832
10836
10840
10844
10848
10852
10856
10860
10864
10868
10872
10876
10880
10884
10888
10892
10896
10900
10904
10908
10912
10916
10920
10924
10928
10932
10936
10940
10944
10948
10952
10956
10960
10964
10968
10972
10976
10980
10984
10988
10992
10996
11000
11004
11008
11012
11016
11020
11024
11028
11032
11036
11040
11044
11048
11052
11056
11060
11064
11068
11072
11076
11080
11084
11088
11092
11096
11100
11104
11108
11112
11116
11120
11124
11128
11132
11136
11140
11144
11148
11152
11156
11160
11164
11168
11172
11176
11180
11184
11188
11192
11196
11200
11204
11208
11212
11216
11220
11224
11228
11232
11236
11240
11244
11248
11252
11256
11260
11264
11268
11272
11276
11280
11284
11288
11292
11296
11300
11304
11308
11312
11316
11320
11324
11328
11332
11336
11340
11344
11348
11352
11356
11360
11364
11368
11372
11376
11380
11384
11388
11392
11396
11400
11404
11408
11412
11416
11420
11424
11428
11432
11436
11440
11444
11448
11452
11456
11460
11464
11468
11472
11476
11480
11484
11488
11492
11496
11500
11504
11508
11512
11516
11520
11524
11528
11532
11536
11540
11544
11548
11552
11556
11560
11564
11568
11572
11576
11580
11584
11588
11592
11596
11600
11604
11608
11612
11616
11620
11624
11628
11632
11636
11640
11644
11648
11652
11656
11660
11664
11668
11672
11676
11680
11684
11688
11692
11696
11700
11704
11708
11712
11716
11720
11724
11728
11732
11736
11740
11744
11748
11752
11756
11760
11764
11768
11772
11776
11780
11784
11788
11792
11796
11800
11804
11808
11812
11816
11820
11824
11828
11832
11836
11840
11844
11848
11852
11856
11860
11864
11868
11872
11876
11880
11884
11888
11892
11896
11900
11904
11908
11912
11916
11920
11924
11928
11932
11936
11940
11944
11948
11952
11956
11960
11964
11968
11972
11976
11980
11984
11988
11992
11996
12000
12004
12008
12012
12016
12020
12024
12028
12032
12036
12040
12044
12048
12052
12056
12060
12064
12068
12072
12076
12080
12084
12088
12092
12096
12100
12104
12108
12112
12116
12120
12124
12128
12132
12136
12140
12144
12148
12152
12156
12160
12164
12168
12172
12176
12180
12184
12188
12192
12196
12200
12204
12208
12212
12216
12220
12224
12228
12232
12236
12240
12244
12248
12252
12256
12260
12264
12268
12272
12276
12280
12284
12288
12292
12296
12300
12304
12308
12312
12316
12320
12324
12328
12332
12336
12340
12344
12348
12352
12356
12360
12364
12368
12372
12376
12380
12384
12388
12392
12396
12400
12404
12408
12412
12416
12420
12424
12428
12432
12436
12440
12444
12448
12452
12456
12460
12464
12468
12472
12476
12480
12484
12488
12492
12496
12500
12504
12508
12512
12516
12520
12524
12528
12532
12536
12540
12544
12548
12552
12556
12560
12564
12568
12572
12576
12580
12584
12588
12592
12596
12600
12604
12608
12612
12616
12620
12624
12628
12632
12636
12640
12644
12648
12652
12656
12660
12664
12668
12672
12676
12680
12684
12688
12692
12696
12700
12704
12708
12712
12716
12720
12724
12728
12732
12736
12740
12744
12748
12752
12756
12760
12764
12768
12772
12776
12780
12784
12788
12792
12796
12800
12804
12808
12812
12816
12820
12824
12828
12832
12836
12840
12844
12848
12852
12856
12860
12864
12868
12872
12876
12880
12884
12888
12892
12896
12900
12904
12908
12912
12916
12920
12924
12928
12932
12936
12940
12944
12948
12952
12956
12960
12964
12968
12972
12976
12980
12984
12988
12992
12996
13000
13004
13008
13012
13016
13020
13024
13028
13032
13036
13040
13044
13048
13052
13056
13060
13064
13068
13072
13076
13080
13084
13088
13092
13096
13100
13104
13108
13112
13116
13120
13124
13128
13132
13136
13140
13144
13148
13152
13156
13160
13164
13168
13172
13176
13180
13184
13188
13192
13196
13200
13204
13208
13212
13216
13220
13224
13228
13232
13236
13240
13244
13248
13252
13256
13260
13264
13268
13272
13276
13280
13284
13288
13292
13296
13300
13304
13308
13312
13316
13320
13324
13328
13332
13336
13340
13344
13348
13352
13356
13360
13364
13368
13372
13376
13380
13384
13388
13392
13396
13400
13404
13408
13412
13416
13420
13424
13428
13432
13436
13440
13444
13448
13452
13456
13460
13464
13468
13472
13476
13480
13484
13488
13492
13496
13500
13504
13508
13512
13516
13520
13524
13528
13532
13536
13540
13544
13548
13552
13556
13560
13564
13568
13572
13576
13580
13584
13588
13592
13596
13600
13604
13608
13612
13616
13620
13624
13628
13632
13636
13640
13644
13648
13652
13656
13660
13664
13668
13672
13676
13680
13684
13688
13692
13696
13700
13704
13708
13712
13716
13720
13724
13728
13732
13736
13740
13744
13748
13752
13756
13760
13764
13768
13772
13776
13780
13784
13788
13792
13796
13800
13804
13808
13812
13816
13820
13824
13828
13832
13836
13840
13844
13848
13852
13856
13860
13864
13868
13872
13876
13880
13884
13888
13892
13896
13900
13904
13908
13912
13916
13920
13924
13928
13932
13936
13940
13944
13948
13952
13956
13960
13964
13968
13972
13976
13980
13984
13988
13992
13996
14000
14004
14008
14012
14016
14020
14024
14028
14032
14036
14040
14044
14048
14052
14056
14060
14064
14068
14072
14076
14080
14084
14088
14092
14096
14100
14104
14108
14112
14116
14120
14124
14128
14132
14136
14140
14144
14148
14152
14156
14160
14164
14168
14172
14176
14180
14184
14188
14192
14196
14200
14204
14208
14212
14216
14220
14224
14228
14232
14236
14240
14244
14248
14252
14256
14260
14264
14268
14272
14276
14280
14284
14288
14292
14296
14300
14304
14308
14312
14316
14320
14324
14328
14332
14336
14340
14344
14348
14352
14356
14360
14364
14368
14372
14376
14380
14384
14388
14392
14396
14400
14404
14408
14412
14416
14420
14424
14428
14432
14436
14440
14444
14448
14452
14456
14460
14464
14468
14472
14476
14480
14484
14488
14492
14496
14500
14504
14508
14512
14516
14520
14524
14528
14532
14536
14540
14544
14548
14552
14556
14560
14564
14568
14572
14576
14580
14584
14588
14592
14596
14600
14604
14608
14612
14616
14620
14624
14628
14632
14636
14640
14644
14648
14652
14656
14660
14664
14668
14672
14676
14680
14684
14688
14692
14696
14700
14704
14708
14712
14716
14720
14724
14728
14732
14736
14740
14744
14748
14752
14756
14760
14764
14768
14772
14776
14780
14784
14788
14792
14796
14800
14804
14808
14812
14816
14820
14824
14828
14832
14836
14840
14844
14848
14852
14856
14860
14864
14868
14872
14876
14880
14884
14888
14892
14896
14900
14904
14908
14912
14916
14920
14924
14928
14932
14936
14940
14944
14948
14952
14956
14960
14964
14968
14972
14976
14980
14984
14988
14992
14996
15000
15004
15008
15012
15016
15020
15024
15028
15032
15036
15040
15044
15048
15052
15056
15060
15064
15068
15072
15076
15080
15084
15088
15092
15096
15100
15104
15108
15112
15116
15120
15124
15128
15132
15136
15140
15144
15148
15152
15156
15160
15164
15168
15172
15176
15180
15184
15188
15192
15196
15200
15204
15208
15212
15216
15220
15224
15228
15232
15236
15240
15244
15248
15252
15256
15260
15264
15268
15272
15276
15280
15284
15288
15292
15296
15300
15304
15308
15312
15316
15320
15324
15328
15332
15336
15340
15344
15348
15352
15356
15360
15364
15368
15372
15376
15380
15384
15388
15392
15396
15400
15404
15408
15412
15416
15420
15424
15428
15432
15436
15440
15444
15448
15452
15456
15460
15464
15468
15472
15476
15480
15484
15488
15492
15496
15500
15504
15508
15512
15516
15520
15524
15528
15532
15536
15540
15544
15548
15552
15556
15560
15564
15568
15572
15576
15580
15584
15588
15592
15596
15600
15604
15608
15612
15616
15620
15624
15628
15632
15636
15640
15644
15648
15652
15656
15660
15664
15668
15672
15676
15680
15684
15688
15692
15696
15700
15704
15708
15712
15716
15720
15724
15728
15732
15736
15740
15744
15748
15752
15756
15760
15764
15768
15772
15776
15780
15784
15788
15792
15796
15800
15804
15808
15812
15816
15820
15824
15828
15832
15836
15840
15844
15848
15852
15856
15860
15864
15868
15872
15876
15880
15884
15888
15892
15896
15900
15904
15908
15912
15916
15920
15924
15928
15932
15936
15940
15944
15948
15952
15956
15960
15964
15968
15972
15976
15980
15984
15988
15992
15996
16000
16004
16008
16012
16016
16020
16024
16028
16032
16036
16040
16044
16048
16052
16056
16060
16064
16068
16072
16076
16080
16084
16088
16092
16096
16100
16104
16108
16112
16116
16120
16124
16128
16132
16136
16140
16144
16148
16152
16156
16160
16164
16168
16172
16176
16180
16184
16188
16192
16196
16200
16204
16208
16212
16216
16220
16224
16228
16232
16236
16240
16244
16248
16252
16256
16260
16264
16268
16272
16276
16280
16284
16288
16292
16296
16300
16304
16308
16312
16316
16320
16324
16328
16332
16336
16340
16344
16348
16352
16356
16360
16364
16368
16372
16376
16380
16384
16388
16392
16396
16400
16404
16408
16412
16416
16420
16424
16428
16432
16436
16440
16444
16448
16452
16456
16460
16464
16468
16472
16476
16480
16484
16488
16492
16496
16500
16504
16508
16512
16516
16520
16524
16528
16532
16536
16540
16544
16548
16552
16556
16560
16564
16568
16572
16576
16580
16584
16588
16592
16596
16600
16604
16608
16612
16616
16620
16624
16628
16632
16636
16640
16644
16648
16652
16656
16660
16664
16668
16672
16676
16680
16684
16688
16692
16696
16700
16704
16708
16712
16716
16720
16724
16728
16732
16736
16740
16744
16748
16752
16756
16760
16764
16768
16772
16776
16780
16784
16788
16792
16796
16800
16804
16808
16812
16816
16820
16824
16828
16832
16836
16840
16844
16848
16852
16856
16860
16864
16868
16872
16876
16880
16884
16888
16892
16896
16900
16904
16908
16912
16916
16920
16924
16928
16932
16936
16940
16944
16948
16952
16956
16960
16964
16968
16972
16976
16980
16984
16988
16992
16996
17000
17004
17008
17012
17016
17020
17024
17028
17032
17036
17040
17044
17048
17052
17056
17060
17064
17068
17072
17076
17080
17084
17088
17092
17096
17100
17104
17108
17112
17116
17120
17124
17128
17132
17136
17140
17144
17148
17152
17156
17160
17164
17168
17172
17176
17180
17184
17188
17192
17196
17200
17204
17208
17212
17216
17220
17224
17228
17232
17236
17240
17244
17248
17252
17256
17260
17264
17268
17272
17276
17280
17284
17288
17292
17296
17300
17304
17308
17312
17316
17320
17324
17328
17332
17336
17340
17344
17348
17352
17356
17360
17364
17368
17372
17376
17380
17384
17388
17392
17396
17400
17404
17408
17412
17416
17420
17424
17428
17432
17436
17440
17444
17448
17452
17456
17460
17464
17468
17472
17476
17480
17484
17488
17492
17496
17500
17504
17508
17512
17516
17520
17524
17528
17532
17536
17540
17544
17548
17552
17556
17560
17564
17568
17572
17576
17580
17584
17588
17592
17596
17600
17604
17608
17612
17616
17620
17624
17628
17632
17636
17640
17644
17648
17652
17656
17660
17664
17668
17672
17676
17680
17684
17688
17692
17696
17700
17704
17708
17712
17716
17720
17724
17728
17732
17736
17740
17744
17748
17752
17756
17760
17764
17768
17772
17776
17780
17784
17788
17792
17796
17800
17804
17808
17812
17816
17820
17824
17828
17832
17836
17840
17844
17848
17852
17856
17860
17864
17868
17872
17876
17880
17884
17888
17892
17896
17900
17904
17908
17912
17916
17920
17924
17928
17932
17936
17940
17944
17948
17952
17956
17960
17964
17968
17972
17976
17980
17984
17988
17992
17996
18000
18004
18008
18012
18016
18020
18024
18028
18032
18036
18040
18044
18048
18052
18056
18060
18064
18068
18072
18076
18080
18084
18088
18092
18096
18100
18104
18108
18112
18116
18120
18124
18128
18132
18136
18140
18144
18148
18152
18156
18160
18164
18168
18172
18176
18180
18184
18188
18192
18196
18200
18204
18208
18212
18216
18220
18224
18228
18232
18236
18240
18244
18248
18252
18256
18260
18264
18268
18272
18276
18280
18284
18288
18292
18296
18300
18304
18308
18312
18316
18320
18324
18328
18332
18336
18340
18344
18348
18352
18356
18360
18364
18368
18372
18376
18380
18384
18388
18392
18396
18400
18404
18408
18412
18416
18420
18424
18428
18432
18436
18440
18444
18448
18452
18456
18460
18464
18468
18472
18476
18480
18484
18488
18492
18496
18500
18504
18508
18512
18516
18520
18524
18528
18532
18536
18540
18544
18548
18552
18556
18560
18564
18568
18572
18576
18580
18584
18588
18592
18596
18600
18604
18608
18612
18616
18620
18624
18628
18632
18636
18640
18644
18648
18652
18656
18660
18664
18668
18672
18676
18680
18684
18688
18692
18696
18700
18704
18708
18712
18716
18720
18724
18728
18732
18736
18740
18744
18748
18752
18756
18760
18764
18768
18772
18776
18780
18784
18788
18792
18796
18800
18804
18808
18812
18816
18820
18824
18828
18832
18836
18840
18844
18848
18852
18856
18860
18864
18868
18872
18876
18880
18884
18888
18892
18896
18900
18904
18908
18912
18916
18920
18924
18928
18932
18936
18940
18944
18948
18952
18956
18960
18964
18968
18972
18976
18980
18984
18988
18992
18996
19000
19004
19008
19012
19016
19020
19024
19028
19032
19036
19040
19044
19048
19052
19056
19060
19064
19068
19072
19076
19080
19084
19088
19092
19096
19100
19104
19108
19112
19116
19120
19124
19128
19132
19136
19140
19144
19148
19152
19156
19160
19164
19168
19172
19176
19180
19184
19188
19192
19196
19200
19204
19208
19212
19216
19220
19224
19228
19232
19236
19240
19244
19248
19252
19256
19260
19264
19268
19272
19276
19280
19284
19288
19292
19296
19300
19304
19308
19312
19316
19320
19324
19328
19332
19336
19340
19344
19348
19352
19356
19360
19364
19368
19372
19376
19380
19384
19388
19392
19396
19400
19404
19408
19412
19416
19420
19424
19428
19432
19436
19440
19444
19448
19452
19456
19460
19464
19468
19472
19476
19480
19484
19488
19492
19496
19500
19504
19508
19512
19516
19520
19524
19528
19532
19536
19540
19544
19548
19552
19556
19560
19564
19568
19572
19576
19580
19584
19588
19592
19596
19600
19604
19608
19612
19616
19620
19624
19628
19632
19636
19640
19644
19648
19652
19656
19660
19664
19668
19672
19676
19680
19684
19688
19692
19696
19700
19704
19708
19712
19716
19720
19724
19728
19732
19736
19740
19744
19748
19752
19756
19760
19764
19768
19772
19776
19780
19784
19788
19792
19796
19800
19804
19808
19812
19816
19820
19824
19828
19832
19836
19840
19844
19848
19852
19856
19860
19864
19868
19872
19876
19880
19884
19888
19892
19896
19900
19904
19908
19912
19916
19920
19924
19928
19932
19936
19940
19944
19948
19952
19956
19960
19964
19968
19972
19976
19980
19984
19988
19992
19996
20000
20004
20008
20012
20016
20020
20024
20028
20032
20036
20040
20044
20048
20052
20056
20060
20064
20068
20072
20076
20080
20084
20088
20092
20096
20100
20104
20108
20112
20116
20120
20124
20128
20132
20136
20140
20144
20148
20152
20156
20160
20164
20168
20172
20176
20180
20184
20188
20192
20196
20200
20204
20208
20212
20216
20220
20224
20228
20232
20236
20240
20244
20248
20252
20256
20260
20264
20268
20272
20276
20280
20284
20288
20292
20296
20300
20304
20308
20312
20316
20320
20324
20328
20332
20336
20340
20344
20348
20352
20356
20360
20364
20368
20372
20376
20380
20384
20388
20392
20396
20400
20404
20408
20412
20416
20420
20424
20428
20432
20436
20440
20444
20448
20452
20456
20460
20464
20468
20472
20476
20480
20484
20488
20492
20496
20500
20504
20508
20512
20516
20520
20524
20528
20532
20536
20540
20544
20548
20552
20556
20560
20564
20568
20572
20576
20580
20584
20588
20592
20596
20600
20604
20608
20612
20616
20620
20624
20628
20632
20636
20640
20644
20648
20652
20656
20660
20664
20668
20672
20676
20680
20684
20688
20692
20696
20700
20704
20708
20712
20716
20720
20724
20728
20732
20736
20740
20744
20748
20752
20756
20760
20764
20768
20772
20776
20780
20784
20788
20792
20796
20800
20804
20808
20812
20816
20820
20824
20828
20832
20836
20840
20844
20848
20852
20856
20860
20864
20868
20872
20876
20880
20884
20888
20892
20896
20900
20904
20908
20912
20916
20920
20924
20928
20932
20936
20940
20944
20948
20952
20956
20960
20964
20968
20972
20976
20980
20984
20988
20992
20996
21000
21004
21008
21012
21016
21020
21024
21028
21032
21036
21040
21044
21048
21052
21056
21060
21064
21068
21072
21076
21080
21084
21088
21092
21096
21100
21104
21108
21112
21116
21120
21124
21128
21132
21136
21140
21144
21148
21152
21156
21160
21164
21168
21172
21176
21180
21184
21188
21192
21196
21200
21204
21208
21212
21216
21220
21224
21228
21232
21236
21240
21244
21248
21252
21256
21260
21264
21268
21272
21276
21280
21284
21288
21292
21296
21300
21304
21308
21312
21316
21320
21324
21328
21332
21336
21340
21344
21348
21352
21356
21360
21364
21368
21372
21376
21380
21384
21388
21392
21396
21400
21404
21408
21412
21416
21420
21424
21428
21432
21436
21440
21444
21448
21452
21456
21460
21464
21468
21472
21476
21480
21484
21488
21492
21496
21500
21504
21508
21512
21516
21520
21524
21528
21532
21536
21540
21544
21548
21552
21556
21560
21564
21568
21572
21576
21580
21584
21588
21592
21596
21600
21604
21608
21612
21616
21620
21624
21628
21632
21636
21640
21644
21648
21652
21656
21660
21664
21668
21672
21676
21680
21684
21688
21692
21696
21700
21704
21708
21712
21716
21720
21724
21728
21732
21736
21740
21744
21748
21752
21756
21760
21764
21768
21772
21776
21780
21784
21788
21792
21796
21800
21804
21808
21812
21816
21820
21824
21828
21832
21836
21840
21844
21848
21852
21856
21860
21864
21868
21872
21876
21880
21884
21888
21892
21896
21900
21904
21908
21912
21916
21920
21924
21928
21932
21936
21940
21944
21948
21952
21956
21960
21964
21968
21972
21976
21980
21984
21988
21992
21996
22000
22004
22008
22012
22016
22020
22024
22028
22032
22036
22040
22044
22048
22052
22056
22060
22064
22068
22072
22076
22080
22084
22088
22092
22096
22100
22104
22108
22112
22116
22120
22124
22128
22132
22136
22140
22144
22148
22152
22156
22160
22164
22168
22172
22176
22180
22184
22188
22192
22196
22200
22204
22208
22212
22216
22220
22224
22228
22232
22236
22240
22244
22248
22252
22256
22260
22264
22268
22272
22276
22280
22284
22288
22292
22296
22300
22304
22308
22312
22316
22320
22324
22328
22332
22336
22340
22344
22348
22352
22356
22360
22364
22368
22372
22376
22380
22384
22388
22392
22396
22400
22404
22408
22412
22416
22420
22424
22428
22432
22436
22440
22444
22448
22452
22456
22460
22464
22468
22472
22476
22480
22484
22488
22492
22496
22500
22504
22508
22512
22516
22520
22524
22528
22532
22536
22540
22544
22548
22552
22556
22560
22564
22568
22572
22576
22580
22584
22588
22592
22596
22600
22604
22608
22612
22616
22620
22624
22628
22632
22636
22640
22644
22648
22652
22656
22660
22664
22668
22672
22676
22680
22684
22688
22692
22696
22700
22704
22708
22712
22716
22720
</DataArray>
<DataArray type="Int64" Name="types" format="ascii">
9
9
9
9
9
9
9
9
9
9
9
9
9
9
9
9
9
9
9
9
9
9
9
9
9
9
9
9
9
9
9
9
9
9
9
9
9
9
9
9
9
9
9
9
9
9
9
9
9
9
9
9
9
9
9
9
9
9
9
9
9
9
9
9
9
9
9
9
9
9
9
9
9
9
9
9
9
9
9
9
9
9
9
9
9
9
9
9
9
9
9
9
9
9
9
9
9
9
9
9
9
9
9
9
9
9
9
9
9
9
9
9
9
9
9
9
9
9
9
9
9
9
9
9
9
9
9
9
9
9
9
9
9
9
9
9
9
9
9
9
9
9
9
9
9
9
9
9
9
9
9
9
9
9
9
9
9
9
9
9
9
9
9
9
9
9
9
9
9
9
9
9
9
9
9
9
9
9
9
9
9
9
9
9
9
9
9
9
9
9
9
9
9
9
9
9
9
9
9
9
9
9
9
9
9
9
9
9
9
9
9
9
9
9
9
9
9
9
9
9
9
9
9
9
9
9
9
9
9
9
9
9
9
9
9
9
9
9
9
9
9
9
9
9
9
9
9
9
9
9
9
9
9
9
9
9
9
9
9
9
9
9
9
9
9
9
9
9
9
9
9
9
9
9
9
9
9
9
9
9
9
9
9
9
9
9
9
9
9
9
9
9
9
9
9
9
9
9
9
9
9
9
9
9
9
9
9
9
9
9
9
9
9
9
9
9
9
9
9
9
9
9
9
9
9
9
9
9
9
9
9
9
9
9
9
9
9
9
9
9
9
9
9
9
9
9
9
9
9
9
9
9
9
9
9
9
9
9
9
9
9
9
9
9
9
9
9
9
9
9
9
9
9
9
9
9
9
9
9
9
9
9
9
9
9
9
9
9
9
9
9
9
9
9
9
9
9
9
9
9
9
9
9
9
9
9
9
9
9
9
9
9
9
9
9
9
9
9
9
9
9
9
9
9
9
9
9
9
9
9
9
9
9
9
9
9
9
9
9
9
9
9
9
9
9
9
9
9
9
9
9
9
9
9
9
9
9
9
9
9
9
9
9
9
9
9
9
9
9
9
9
9
9
9
9
9
9
9
9
9
9
9
9
9
9
9
9
9
9
9
9
9
9
9
9
9
9
9
9
9
9
9
9
9
9
9
9
9
9
9
9
9
9
9
9
9
9
9
9
9
9
9
9
9
9
9
9
9
9
9
9
9
9
9
9
9
9
9
9
9
9
9
9
9
9
9
9
9
9
9
9
9
9
9
9
9
9
9
9
9
9
9
9
9
9
9
9
9
9
9
9
9
9
9
9
9
9
9
9
9
9
9
9
9
9
9
9
9
9
9
9
9
9
9
9
9
9
9
9
9
9
9
9
9
9
9
9
9
9
9
9
9
9
9
9
9
9
9
9
9
9
9
9
9
9
9
9
9
9
9
9
9
9
9
9
9
9
9
9
9
9
9
9
9
9
9
9
9
9
9
9
9
9
9
9
9
9
9
9
9
9
9
9
9
9
9
9
9
9
9
9
9
9
9
9
9
9
9
9
9
9
9
9
9
9
9
9
9
9
9
9
9
9
9
9
9
9
9
9
9
9
9
9
9
9
9
9
9
9
9
9
9
9
9
9
9
9
9
9
9
9
9
9
9
9
9
9
9
9
9
9
9
9
9
9
9
9
9
9
9
9
9
9
9
9
9
9
9
9
9
9
9
9
9
9
9
9
9
9
9
9
9
9
9
9
9
9
9
9
9
9
9
9
9
9
9
9
9
9
9
9
9
9
9
9
9
9
9
9
9
9
9
9
9
9
9
9
9
9
9
9
9
9
9
9
9
9
9
9
9
9
9
9
9
9
9
9
9
9
9
9
9
9
9
9
9
9
9
9
9
9
9
9
9
9
9
9
9
9
9
9
9
9
9
9
9
9
9
9
9
9
9
9
9
9
9
9
9
9
9
9
9
9
9
9
9
9
9
9
9
9
9
9
9
9
9
9
9
9
9
9
9
9
9
9
9
9
9
9
9
9
9
9
9
9
9
9
9
9
9
9
9
9
9
9
9
9
9
9
9
9
9
9
9
9
9
9
9
9
9
9
9
9
9
9
9
9
9
9
9
9
9
9
9
9
9
9
9
9
9
9
9
9
9
9
9
9
9
9
9
9
9
9
9
9
9
9
9
9
9
9
9
9
9
9
9
9
9
9
9
9
9
9
9
9
9
9
9
9
9
9
9
9
9
9
9
9
9
9
9
9
9
9
9
9
9
9
9
9
9
9
9
9
9
9
9
9
9
9
9
9
9
9
9
9
9
9
9
9
9
9
9
9
9
9
9
9
9
9
9
9
9
9
9
9
9
9
9
9
9
9
9
9
9
9
9
9
9
9
9
9
9
9
9
9
9
9
9
9
9
9
9
9
9
9
9
9
9
9
9
9
9
9
9
9
9
9
9
9
9
9
9
9
9
9
9
9
9
9
9
9
9
9
9
9
9
9
9
9
9
9
9
9
9
9
9
9
9
9
9
9
9
9
9
9
9
9
9
9
9
9
9
9
9
9
9
9
9
9
9
9
9
9
9
9
9
9
9
9
9
9
9
9
9
9
9
9
9
9
9
9
9
9
9
9
9
9
9
9
9
9
9
9
9
9
9
9
9
9
9
9
9
9
9
9
9
9
9
9
9
9
9
9
9
9
9
9
9
9
9
9
9
9
9
9
9
9
9
9
9
9
9
9
9
9
9
9
9
9
9
9
9
9
9
9
9
9
9
9
9
9
9
9
9
9
9
9
9
9
9
9
9
9
9
9
9
9
9
9
9
9
9
9
9
9
9
9
9
9
9
9
9
9
9
9
9
9
9
9
9
9
9
9
9
9
9
9
9
9
9
9
9
9
9
9
9
9
9
9
9
9
9
9
9
9
9
9
9
9
9
9
9
9
9
9
9
9
9
9
9
9
9
9
9
9
9
9
9
9
9
9
9
9
9
9
9
9
9
9
9
9
9
9
9
9
9
9
9
9
9
9
9
9
9
9
9
9
9
9
9
9
9
9
9
9
9
9
9
9
9
9
9
9
9
9
9
9
9
9
9
9
9
9
9
9
9
9
9
9
9
9
9
9
9
9
9
9
9
9
9
9
9
9
9
9
9
9
9
9
9
9
9
9
9
9
9
9
9
9
9
9
9
9
9
9
9
9
9
9
9
9
9
9
9
9
9
9
9
9
9
9
9
9
9
9
9
9
9
9
9
9
9
9
9
9
9
9
9
9
9
9
9
9
9
9
9
9
9
9
9
9
9
9
9
9
9
9
9
9
9
9
9
9
9
9
9
9
9
9
9
9
9
9
9
9
9
9
9
9
9
9
9
9
9
9
9
9
9
9
9
9
9
9
9
9
9
9
9
9
9
9
9
9
9
9
9
9
9
9
9
9
9
9
9
9
9
9
9
9
9
9
9
9
9
9
9
9
9
9
9
9
9
9
9
9
9
9
9
9
9
9
9
9
9
9
9
9
9
9
9
9
9
9
9
9
9
9
9
9
9
9
9
9
9
9
9
9
9
9
9
9
9
9
9
9
9
9
9
9
9
9
9
9
9
9
9
9
9
9
9
9
9
9
9
9
9
9
9
9
9
9
9
9
9
9
9
9
9
9
9
9
9
9
9
9
9
9
9
9
9
9
9
9
9
9
9
9
9
9
9
9
9
9
9
9
9
9
9
9
9
9
9
9
9
9
9
9
9
9
9
9
9
9
9
9
9
9
9
9
9
9
9
9
9
9
9
9
9
9
9
9
9
9
9
9
9
9
9
9
9
9
9
9
9
9
9
9
9
9
9
9
9
9
9
9
9
9
9
9
9
9
9
9
9
9
9
9
9
9
9
9
9
9
9
9
9
9
9
9
9
9
9
9
9
9
9
9
9
9
9
9
9
9
9
9
9
9
9
9
9
9
9
9
9
9
9
9
9
9
9
9
9
9
9
9
9
9
9
9
9
9
9
9
9
9
9
9
9
9
9
9
9
9
9
9
9
9
9
9
9
9
9
9
9
9
9
9
9
9
9
9
9
9
9
9
9
9
9
9
9
9
9
9
9
9
9
9
9
9
9
9
9
9
9
9
9
9
9
9
9
9
9
9
9
9
9
9
9
9
9
9
9
9
9
9
9
9
9
9
9
9
9
9
9
9
9
9
9
9
9
9
9
9
9
9
9
9
9
9
9
9
9
9
9
9
9
9
9
9
9
9
9
9
9
9
9
9
9
9
9
9
9
9
9
9
9
9
9
9
9
9
9
9
9
9
9
9
9
9
9
9
9
9
9
9
9
9
9
9
9
9
9
9
9
9
9
9
9
9
9
9
9
9
9
9
9
9
9
9
9
9
9
9
9
9
9
9
9
9
9
9
9
9
9
9
9
9
9
9
9
9
9
9
9
9
9
9
9
9
9
9
9
9
9
9
9
9
9
9
9
9
9
9
9
9
9
9
9
9
9
9
9
9
9
9
9
9
9
9
9
9
9
9
9
9
9
9
9
9
9
9
9
9
9
9
9
9
9
9
9
9
9
9
9
9
9
9
9
9
9
9
9
9
9
9
9
9
9
9
9
9
9
9
9
9
9
9
9
9
9
9
9
9
9
9
9
9
9
9
9
9
9
9
9
9
9
9
9
9
9
9
9
9
9
9
9
9
9
9
9
9
9
9
9
9
9
9
9
9
9
9
9
9
9
9
9
9
9
9
9
9
9
9
9
9
9
9
9
9
9
9
9
9
9
9
9
9
9
9
9
9
9
9
9
9
9
9
9
9
9
9
9
9
9
9
9
9
9
9
9
9
9
9
9
9
9
9
9
9
9
9
9
9
9
9
9
9
9
9
9
9
9
9
9
9
9
9
9
9
9
9
9
9
9
9
9
9
9
9
9
9
9
9
9
9
9
9
9
9
9
9
9
9
9
9
9
9
9
9
9
9
9
9
9
9
9
9
9
9
9
9
9
9
9
9
9
9
9
9
9
9
9
9
9
9
9
9
9
9
9
9
9
9
9
9
9
9
9
9
9
9
9
9
9
9
9
9
9
9
9
9
9
9
9
9
9
9
9
9
9
9
9
9
9
9
9
9
9
9
9
9
9
9
9
9
9
9
9
9
9
9
9
9
9
9
9
9
9
9
9
9
9
9
9
9
9
9
9
9
9
9
9
9
9
9
9
9
9
9
9
9
9
9
9
9
9
9
9
9
9
9
9
9
9
9
9
9
9
9
9
9
9
9
9
9
9
9
9
9
9
9
9
9
9
9
9
9
9
9
9
9
9
9
9
9
9
9
9
9
9
9
9
9
9
9
9
9
9
9
9
9
9
9
9
9
9
9
9
9
9
9
9
9
9
9
9
9
9
9
9
9
9
9
9
9
9
9
9
9
9
9
9
9
9
9
9
9
9
9
9
9
9
9
9
9
9
9
9
9
9
9
9
9
9
9
9
9
9
9
9
9
9
9
9
9
9
9
9
9
9
9
9
9
9
9
9
9
9
9
9
9
9
9
9
9
9
9
9
9
9
9
9
9
9
9
9
9
9
9
9
9
9
9
9
9
9
9
9
9
9
9
9
9
9
9
9
9
9
9
9
9
9
9
9
9
9
9
9
9
9
9
9
9
9
9
9
9
9
9
9
9
9
9
9
9
9
9
9
9
9
9
9
9
9
9
9
9
9
9
9
9
9
9
9
9
9
9
9
9
9
9
9
9
9
9
9
9
9
9
9
9
9
9
9
9
9
9
9
9
9
9
9
9
9
9
9
9
9
9
9
9
9
9
9
9
9
9
9
9
9
9
9
9
9
9
9
9
9
9
9
9
9
9
9
9
9
9
9
9
9
9
9
9
9
9
9
9
9
9
9
9
9
9
9
9
9
9
9
9
9
9
9
9
9
9
9
9
9
9
9
9
9
9
9
9
9
9
9
9
9
9
9
9
9
9
9
9
9
9
9
9
9
9
9
9
9
9
9
9
9
9
9
9
9
9
9
9
9
9
9
9
9
9
9
9
9
9
9
9
9
9
9
9
9
9
9
9
9
9
9
9
9
9
9
9
9
9
9
9
9
9
9
9
9
9
9
9
9
9
9
9
9
9
9
9
9
9
9
9
9
9
9
9
9
9
9
9
9
9
9
9
9
9
9
9
9
9
9
9
9
9
9
9
9
9
9
9
9
9
9
9
9
9
9
9
9
9
9
9
9
9
9
9
9
9
9
9
9
9
9
9
9
9
9
9
9
9
9
9
9
9
9
9
9
9
9
9
9
9
9
9
9
9
9
9
9
9
9
9
9
9
9
9
9
9
9
9
9
9
9
9
9
9
9
9
9
9
9
9
9
9
9
9
9
9
9
9
9
9
9
9
9
9
9
9
9
9
9
9
9
9
9
9
9
9
9
9
9
9
9
9
9
9
9
9
9
9
9
9
9
9
9
9
9
9
9
9
9
9
9
9
9
9
9
9
9
9
9
9
9
9
9
9
9
9
9
9
9
9
9
9
9
9
9
9
9
9
9
9
9
9
9
9
9
9
9
9
9
9
9
9
9
9
9
9
9
9
9
9
9
9
9
9
9
9
9
9
9
9
9
9
9
9
9
9
9
9
9
9
9
9
9
9
9
9
9
9
9
9
9
9
9
9
9
9
9
9
9
9
9
9
9
9
9
9
9
9
9
9
9
9
9
9
9
9
9
9
9
9
9
9
9
9
9
9
9
9
9
9
9
9
9
9
9
9
9
9
9
9
9
9
9
9
9
9
9
9
9
9
9
9
9
9
9
9
9
9
9
9
9
9
9
9
9
9
9
9
9
9
9
9
9
9
9
9
9
9
9
9
9
9
9
9
9
9
9
9
9
9
9
9
9
9
9
9
9
9
9
9
9
9
9
9
9
9
9
9
9
9
9
9
9
9
9
9
9
9
9
9
9
9
9
9
9
9
9
9
9
9
9
9
9
9
9
9
9
9
9
9
9
9
9
9
9
9
9
9
9
9
9
9
9
9
9
9
9
9
9
9
9
9
9
9
9
9
9
9
9
9
9
9
9
9
9
9
9
9
9
9
9
9
9
9
9
9
9
9
9
9
9
9
9
9
9
9
9
9
9
9
9
9
9
9
9
9
9
9
9
9
9
9
9
9
9
9
9
9
9
9
9
9
9
9
9
9
9
9
9
9
9
9
9
9
9
9
9
9
9
9
9
9
9
9
9
9
9
9
9
9
9
9
9
9
9
9
9
9
9
9
9
9
9
9
9
9
9
9
9
9
9
9
9
9
9
9
9
9
9
9
9
9
9
9
9
9
9
9
9
9
9
9
9
9
9
9
9
9
9
9
9
9
9
9
9
9
9
9
9
9
9
9
9
9
9
9
9
9
9
9
9
9
9
9
9
9
9
9
9
9
9
9
9
9
9
9
9
9
9
9
9
9
9
9
9
9
9
9
9
9
9
9
9
9
9
9
9
9
9
9
9
9
9
9
9
9
9
9
9
9
9
9
9
9
9
9
9
9
9
9
9
9
9
9
9
9
9
9
9
9
9
9
9
9
9
9
9
9
9
9
9
9
9
9
9
9
9
9
9
9
9
9
9
9
9
9
9
9
9
9
9
9
9
9
9
9
9
9
9
9
9
9
9
9
9
9
9
9
9
9
9
9
9
9
9
9
9
9
9
9
9
9
9
9
9
9
9
9
9
9
9
9
9
9
9
9
9
9
9
9
9
9
9
9
9
9
9
9
9
9
9
9
9
9
9
9
9
9
9
9
9
9
9
9
9
9
9
9
9
9
9
9
9
9
9
9
9
9
9
9
9
9
9
9
9
9
9
9
9
9
9
9
9
9
9
9
9
9
9
9
9
9
9
9
9
9
9
9
9
9
9
9
9
9
9
9
9
9
9
9
9
9
9
9
9
9
9
9
9
9
9
9
9
9
9
9
9
9
9
9
9
9
9
9
9
9
9
9
9
9
9
9
9
9
9
9
9
9
9
9
9
9
9
9
9
9
9
9
9
9
9
9
9
9
9
9
9
9
9
9
9
9
9
9
9
9
9
9
9
9
9
9
9
9
9
9
9
9
9
9
9
9
9
9
9
9
9
9
9
9
9
9
9
9
9
9
9
9
9
9
9
9
9
9
9
9
9
9
9
9
9
9
9
9
9
9
9
9
9
9
9
9
9
9
9
9
9
9
9
9
9
9
9
9
9
9
9
9
9
9
9
9
9
9
9
9
9
9
9
9
9
9
9
9
9
9
9
9
9
9
9
9
9
9
9
9
9
9
9
9
9
9
9
9
9
9
9
9
9
9
9
9
9
9
9
9
9
9
9
9
9
9
9
9
9
9
9
9
9
9
9
9
9
9
9
9
9
9
9
9
9
9
9
9
9
9
9
9
9
9
9
9
9
9
9
9
9
9
9
9
9
9
9
9
9
9
9
9
9
9
9
9
9
9
9
9
9
9
9
9
9
9
9
9
9
9
9
9
9
9
9
9
9
9
9
9
9
9
9
9
9
9
9
9
9
9
9
9
9
9
9
9
9
9
9
9
9
9
9
9
9
9
9
9
9
9
9
9
9
9
9
9
9
9
9
9
9
9
9
9
9
9
9
9
9
9
9
9
9
9
9
9
9
9
9
9
9
9
9
9
9
9
9
9
9
9
9
9
9
9
9
9
9
9
9
9
9
9
9
9
9
9
9
9
9
9
9
9
9
9
9
9
9
9
9
9
9
9
9
9
9
9
9
9
9
9
9
9
9
9
9
9
9
9
9
9
9
9
9
9
9
9
9
9
9
9
9
9
9
9
9
9
9
9
9
9
9
9
9
9
9
9
9
9
9
9
9
9
9
9
9
9
9
9
9
9
9
9
9
9
9
9
9
9
9
9
9
9
9
9
9
9
9
9
9
9
9
9
9
9
9
9
9
9
9
9
9
9
9
9
9
9
9
9
9
9
9
9
9
9
9
9
9
9
9
9
9
9
9
9
9
9
9
9
9
9
9
9
9
9
9
9
9
9
9
9
9
9
9
9
9
9
9
9
9
9
9
9
9
9
9
9
9
9
9
9
9
9
9
9
9
9
9
9
9
9
9
9
9
9
9
9
9
9
9
9
9
9
9
9
9
9
9
9
9
9
9
9
9
9
9
9
9
9
9
9
9
9
9
9
9
9
9
9
9
9
9
9
9
9
9
9
9
9
9
9
9
9
9
9
9
9
9
9
9
9
9
9
9
9
9
9
9
9
9
9
9
9
9
9
9
9
9
9
9
9
9
9
9
9
9
9
9
9
9
9
9
9
9
9
9
9
9
9
9
9
9
9
9
9
9
9
9
9
9
9
9
9
9
9
9
9
9
9
9
9
9
9
9
9
9
9
9
9
9
9
9
9
9
9
9
9
9
9
9
9
9
9
9
9
9
9
9
9
9
9
9
9
9
9
9
9
9
9
9
9
9
9
9
9
9
9
9
9
9
9
9
9
9
9
9
9
9
9
9
9
9
9
9
9
9
9
9
9
9
9
9
9
9
9
9
9
9
9
9
9
9
9
9
9
9
9
9
9
9
9
9
9
9
9
9
9
9
9
9
9
9
9
9
9
9
9
9
9
9
9
9
9
9
9
9
9
9
9
9
9
9
9
9
9
9
9
9
9
9
9
9
9
9
9
9
9
9
9
9
9
9
9
9
9
9
9
9
9
9
9
9
9
9
9
9
9
9
9
9
9
9
9
9
9
9
9
9
9
9
9
9
9
9
9
9
9
9
9
9
9
9
9
9
9
9
9
9
9
9
9
9
9
9
9
9
9
9
9
9
9
9
9
9
9
9
9
9
9
9
9
9
9
9
9
9
9
9
9
9
9
9
9
9
9
9
9
9
9
9
9
9
9
9
9
9
9
9
9
9
9
9
9
9
9
9
9
9
9
9
9
9
9
9
9
9
9
9
9
9
9
9
9
9
9
9
9
9
9
9
9
9
9
9
9
9
9
9
9
9
9
9
9
9
9
9
9
9
9
9
9
9
9
9
9
9
9
9
9
9
9
9
9
9
9
9
9
9
9
9
9
9
9
9
9
9
9
9
9
9
9
9
9
9
9
9
9
9
9
9
9
9
9
9
9
9
9
9
9
9
9
9
9
9
9
9
9
9
9
9
9
9
9
9
9
9
9
9
9
9
9
9
9
9
9
9
9
9
9
9
9
9
9
9
9
9
9
9
9
9
9
9
9
9
9
9
9
9
9
9
9
9
9
9
9
9
9
9
9
9
9
9
9
9
9
9
9
9
9
9
9
9
9
9
9
9
9
9
9
9
9
9
9
9
9
9
9
9
9
9
9
9
9
9
9
9
9
9
9
9
9
9
9
9
9
9
9
9
9
9
9
9
9
9
9
9
9
9
9
9
9
9
9
9
9
9
9
9
9
9
9
9
9
9
9
9
9
9
9
9
9
9
9
9
9
9
9
9
9
9
9
9
9
9
9
9
9
9
9
9
9
9
9
9
9
9
9
9
9
9
9
9
9
9
9
9
9
9
9
9
9
9
9
9
9
9
9
9
9
9
9
9
9
9
9
9
9
9
9
9
9
9
9
9
9
9
9
9
9
9
9
9
9
9
9
9
9
9
9
9
9
9
9
9
9
9
9
9
9
9
9
9
9
9
9
9
9
9
9
9
9
9
9
9
9
9
9
9
9
9
9
9
9
9
9
9
9
9
9
9
9
9
9
9
9
9
9
9
9
9
9
9
9
9
9
9
9
9
9
9
9
9
9
9
9
9
9
9
9
9
9
9
9
9
9
9
9
9
9
9
9
9
9
9
9
9
9
9
9
9
9
9
9
9
9
9
9
9
9
9
9
9
9
9
9
9
9
9
9
9
9
9
9
9
9
9
9
9
9
9
9
9
9
9
9
9
9
9
9
9
9
9
9
9
9
9
9
9
9
9
9
9
9
9
9
9
9
9
9
9
9
9
9
9
9
9
9
9
9
9
9
9
9
9
9
9
9
9
9
9
9
9
9
9
9
9
9
9
9
9
9
9
9
9
9
9
9
9
9
9
9
9
9
9
9
9
9
9
9
9
9
9
9
9
9
9
9
9
9
9
9
9
9
9
9
9
9
9
9
9
9
9
9
9
9
9
9
9
9
9
9
9
9
9
9
9
9
9
9
9
9
9
9
9
9
9
9
9
9
9
9
9
9
9
9
9
9
9
9
9
9
9
9
9
9
9
9
9
9
9
9
9
9
9
9
9
9
9
9
9
9
9
9
9
9
9
9
9
9
9
9
9
9
9
9
9
9
9
9
9
9
9
9
9
9
9
9
9
9
9
9
9
9
9
9
9
9
9
9
9
9
9
9
9
9
9
9
9
9
9
9
9
9
9
9
9
9
9
9
9
9
9
9
9
9
9
9
9
9
9
9
9
9
9
9
9
9
9
9
9
9
9
9
9
9
9
9
9
9
9
9
9
9
9
9
9
9
9
9
9
9
9
9
9
9
9
9
9
9
9
9
9
9
9
9
9
9
9
9
9
9
9
9
9
9
9
9
9
9
9
9
9
9
9
9
9
9
9
9
9
9
9
9
9
9
9
9
9
9
9
9
9
9
9
9
9
9
9
9
9
9
9
9
9
9
9
9
9
9
9
9
9
9
9
9
9
9
9
9
9
9
9
9
9
9
9
9
9
9
9
9
9
9
9
9
9
9
9
9
9
9
9
9
9
9
9
9
9
9
9
9
9
9
9
9
9
9
9
9
9
9
9
9
9
9
9
9
9
9
9
9
9
9
9
9
9
9
9
9
9
9
9
9
9
9
9
9
9
9
9
9
9
9
9
9
9
9
9
9
9
9
9
9
9
9
9
9
9
9
9
9
9
9
9
9
9
9
9
9
9
9
9
9
9
9
9
9
9
9
9
9
9
9
9
9
9
9
9
9
9
9
9
9
9
9
9
9
9
9
9
9
9
9
9
9
9
9
9
9
9
9
9
9
9
9
9
9
9
9
9
9
9
9
9
9
9
9
9
9
9
9
9
9
9
9
9
9
9
9
9
9
9
9
9
9
9
9
9
9
9
9
9
9
9
9
9
9
9
9
9
9
9
9
9
9
9
9
9
9
9
9
9
9
9
9
9
9
9
9
9
9
9
9
9
9
9
9
9
9
9
9
9
9
9
9
9
9
9
9
9
9
9
9
9
9
9
9
9
9
9
9
9
9
9
9
9
9
9
9
9
9
9
9
9
9
9
9
9
9
9
9
9
9
9
9
9
9
9
9
9
9
9
9
9
9
9
9
9
9
9
9
9
9
9
9
9
9
9
9
9
9
9
9
9
9
9
9
9
9
9
9
9
9
9
9
9
9
9
9
9
9
9
9
9
9
9
9
9
9
9
9
9
9
9
9
9
9
9
9
9
9
9
9
9
9
9
9
9
9
9
9
9
9
9
9
9
9
9
9
9
9
9
9
9
9
9
9
9
9
9
9
9
9
9
9
9
9
9
9
9
9
9
9
9
9
9
9
9
9
9
9
9
9
9
9
9
9
9
9
9
9
9
9
9
9
9
9
9
9
9
9
9
9
9
9
9
9
9
9
9
9
9
9
9
9
9
9
9
9
9
9
9
9
9
9
9
9
9
9
9
9
9
9
9
9
9
9
9
9
9
9
9
9
9
9
9
9
9
9
9
9
9
9
9
9
9
9
9
9
9
9
9
9
9
9
9
9
9
9
9
9
9
9
9
9
9
9
9
9
9
9
9
9
9
9
9
9
9
9
9
9
9
9
9
9
9
9
9
9
9
9
9
9
9
9
9
9
9
9
9
9
9
9
9
9
9
</DataArray>
</Cells>
<PointData Vectors="'U'">
<DataArray type="Float64" Name="U" NumberOfComponents="2" ComponentName0="U1" ComponentName1="U2" format="ascii">
-0.1823862024051E-37 -0.4666769965909E-37
-0.2698893216242E-37 -0.2587018051530E-37
-0.1768106398120E-37  0.4525887405485E-37
 0.5326835030587E-02 -0.2683325759542E-01
 0.1360511027883E-01 -0.1265020391898E-01
 0.2708634446636E-01 -0.2262878370388E-01
 0.3411715435485E-01 -0.5214124480182E-01
-0.4147814776554E-02 -0.3865299668623E+00
 0.5639498022822E+00 -0.3291509488342E+00
-0.9222152253731E-01 -0.6164488620750E+00
 0.5848289892221E+00 -0.4351046395563E+00
 0.2999593641398E-38 -0.3316287182473E-37
 0.1166035695724E-38 -0.2931202059597E-37
 0.3365584050936E-39 -0.2800352125947E-37
-0.3870489490822E-39 -0.2747198159599E-37
-0.1128017977633E-38 -0.2724498330240E-37
-0.1894952125621E-38 -0.2715301458582E-37
-0.2679855711788E-38 -0.2712311772732E-37
-0.3474670676920E-38 -0.2712019198788E-37
-0.4273565233107E-38 -0.2712621400139E-37
-0.5072665499630E-38 -0.2713165560759E-37
-0.5869489537314E-38 -0.2713152014317E-37
-0.6662491707644E-38 -0.2712335152413E-37
-0.7450747076836E-38 -0.2710616800623E-37
-0.8233742377263E-38 -0.2707985992161E-37
-0.9011237688794E-38 -0.2704483584355E-37
-0.9783174522408E-38 -0.2700180709122E-37
-0.1054961388368E-37 -0.2695165252022E-37
-0.1131069351100E-37 -0.2689533087375E-37
-0.1206659496714E-37 -0.2683381882007E-37
-0.1281755112790E-37 -0.2676810710550E-37
-0.1356126609941E-37 -0.2670885494403E-37
-0.1430019480445E-37 -0.2664858046759E-37
-0.1503469752204E-37 -0.2658799988183E-37
-0.1576499842882E-37 -0.2652781238647E-37
-0.1649130610951E-37 -0.2646864048613E-37
-0.1721381173243E-37 -0.2641102615087E-37
-0.1793268776570E-37 -0.2635542634270E-37
-0.1864808661581E-37 -0.2630221236720E-37
-0.1936013990970E-37 -0.2625166925305E-37
-0.2006895803343E-37 -0.2620399648592E-37
-0.2077463008777E-37 -0.2615930880008E-37
-0.2147722422406E-37 -0.2611763677413E-37
-0.2217678803704E-37 -0.2607892858523E-37
-0.2287334920288E-37 -0.2604305172394E-37
-0.2356691631396E-37 -0.2600979474134E-37
-0.2425747970373E-37 -0.2597887006623E-37
-0.2494501267795E-37 -0.2594991538906E-37
-0.2562947267185E-37 -0.2592249627234E-37
-0.2631080257384E-37 -0.2589610851125E-37
-0.2766377964262E-37 -0.2584407573347E-37
-0.2833525330516E-37 -0.2581709492818E-37
-0.2900325329098E-37 -0.2578847835560E-37
-0.2966767344335E-37 -0.2575740792969E-37
-0.3032840327285E-37 -0.2572300916276E-37
-0.3098533002745E-37 -0.2568435288339E-37
-0.3163834080949E-37 -0.2564045712748E-37
-0.3228732502160E-37 -0.2559028707093E-37
-0.3293217662448E-37 -0.2553275667121E-37
-0.3357279666669E-37 -0.2546672860763E-37
-0.3420909588967E-37 -0.2539101384003E-37
-0.3484099735762E-37 -0.2530437104159E-37
-0.3546843937284E-37 -0.2520550365116E-37
-0.3609137833610E-37 -0.2509305685566E-37
-0.3670979150901E-37 -0.2496561451772E-37
-0.3732367993910E-37 -0.2482169347177E-37
-0.3793307108810E-37 -0.2465973873497E-37
-0.3853802244825E-37 -0.2447811115888E-37
-0.3913862653596E-37 -0.2427508625149E-37
-0.3973503506747E-37 -0.2404881977916E-37
-0.4033133004534E-37 -0.2376385157898E-37
-0.4092395263979E-37 -0.2345020171336E-37
-0.4151305317186E-37 -0.2310562814272E-37
-0.4209888552496E-37 -0.2272766638624E-37
-0.4268170522865E-37 -0.2231365726878E-37
-0.4326173229718E-37 -0.2186074462672E-37
-0.4383908915609E-37 -0.2136589350775E-37
-0.4441369434768E-37 -0.2082595462515E-37
-0.4498508071528E-37 -0.2023782370032E-37
-0.4555208440468E-37 -0.1959879763733E-37
-0.4611231736474E-37 -0.1890732132802E-37
-0.4666127978173E-37 -0.1816461554676E-37
-0.4719093603295E-37 -0.1737824569046E-37
-0.4768771479675E-37 -0.1657038631979E-37
-0.4813106086032E-37 -0.1579836702745E-37
-0.4850001653745E-37 -0.1521114365461E-37
-0.4882937174009E-37 -0.1522782879523E-37
-0.4956316775800E-37 -0.1722597874792E-37
-0.5400884723100E-37 -0.2706638937179E-37
 0.5632115012838E-02 -0.2229270978699E-01
 0.6192770596169E-02 -0.1971403246779E-01
 0.6760166452086E-02 -0.1799144294235E-01
 0.7284058547014E-02 -0.1674556348830E-01
 0.7767615374538E-02 -0.1579975047048E-01
 0.8221032582716E-02 -0.1505973859363E-01
 0.8653004689897E-02 -0.1447041827582E-01
 0.9069626116897E-02 -0.1399699712557E-01
 0.9474968516222E-02 -0.1361603452015E-01
 0.9871751299734E-02 -0.1331086484216E-01
 0.1026183074789E-01 -0.1306911383656E-01
 0.1064651471630E-01 -0.1288127062118E-01
 0.1102675468154E-01 -0.1273982290374E-01
 0.1140326420895E-01 -0.1263870622948E-01
 0.1177658809072E-01 -0.1257294065176E-01
 0.1214714089877E-01 -0.1253838258417E-01
 0.1251522079261E-01 -0.1253155168066E-01
 0.1288099335548E-01 -0.1254950813675E-01
 0.1324442781074E-01 -0.1258975118022E-01
 0.1395842678795E-01 -0.1272751624198E-01
 0.1431133246539E-01 -0.1281912106374E-01
 0.1466358777903E-01 -0.1292405604914E-01
 0.1501519116292E-01 -0.1304122153201E-01
 0.1536616325296E-01 -0.1316955255761E-01
 0.1571653330534E-01 -0.1330808362790E-01
 0.1606632777119E-01 -0.1345595482166E-01
 0.1641556503420E-01 -0.1361240921397E-01
 0.1676425328198E-01 -0.1377678743881E-01
 0.1711238960550E-01 -0.1394852179160E-01
 0.1745996016162E-01 -0.1412713083081E-01
 0.1780694101771E-01 -0.1431221471471E-01
 0.1815329893126E-01 -0.1450345101115E-01
 0.1849899243004E-01 -0.1470059115841E-01
 0.1884397305447E-01 -0.1490345748368E-01
 0.1918818635415E-01 -0.1511194050423E-01
 0.1953157345280E-01 -0.1532599694639E-01
 0.1987407221929E-01 -0.1554564789277E-01
 0.2021561853858E-01 -0.1577097731696E-01
 0.2055614755542E-01 -0.1600213091794E-01
 0.2089559486189E-01 -0.1623931522924E-01
 0.2123389766230E-01 -0.1648279702980E-01
 0.2157099587397E-01 -0.1673290304277E-01
 0.2190683312433E-01 -0.1699001991413E-01
 0.2224135768182E-01 -0.1725459452749E-01
 0.2257452329803E-01 -0.1752713467936E-01
 0.2290628984860E-01 -0.1780821007016E-01
 0.2323662425675E-01 -0.1809845407952E-01
 0.2356550078989E-01 -0.1839856565171E-01
 0.2389290153398E-01 -0.1870931204000E-01
 0.2421881667553E-01 -0.1903153222478E-01
 0.2454324449772E-01 -0.1936614104253E-01
 0.2486619147432E-01 -0.1971413461143E-01
 0.2518767181470E-01 -0.2007659666805E-01
 0.2550770618919E-01 -0.2045470583177E-01
 0.2582631944708E-01 -0.2084974424843E-01
 0.2614353544233E-01 -0.2126310530468E-01
 0.2645936291148E-01 -0.2169630253926E-01
 0.2677377663651E-01 -0.2215092103348E-01
 0.2740363720029E-01 -0.2314195748341E-01
 0.2772062109592E-01 -0.2368417390480E-01
 0.2803719802912E-01 -0.2425818368156E-01
 0.2835340058261E-01 -0.2486702660365E-01
 0.2866938595754E-01 -0.2551420386779E-01
 0.2898541559712E-01 -0.2620379547141E-01
 0.2930186340302E-01 -0.2694061092223E-01
 0.2961924633989E-01 -0.2773039562888E-01
 0.2993828182763E-01 -0.2858012467173E-01
 0.3025998323414E-01 -0.2949843207591E-01
 0.3058581821698E-01 -0.3049626751417E-01
 0.3091796460307E-01 -0.3158792631425E-01
 0.3125972713306E-01 -0.3279276251866E-01
 0.3161618877360E-01 -0.3413818065771E-01
 0.3199512405908E-01 -0.3566517322853E-01
 0.3240787848732E-01 -0.3743921118333E-01
 0.3286836733874E-01 -0.3957319725311E-01
 0.3338333437368E-01 -0.4228027414650E-01
 0.3389716232267E-01 -0.4602100559229E-01
-0.1028506702474E+00 -0.1163741005291E+00
-0.1626347613992E+00 -0.1777420060199E+00
-0.2107876852010E+00 -0.2135652994279E+00
-0.2486705331005E+00 -0.2331951900821E+00
-0.2776194418708E+00 -0.2420121748818E+00
-0.2984207551043E+00 -0.2438662838965E+00
-0.3117212232052E+00 -0.2409691648873E+00
-0.3179546111123E+00 -0.2348081795407E+00
-0.3174309807920E+00 -0.2266487810398E+00
-0.3103812295507E+00 -0.2176353372636E+00
-0.2970847689210E+00 -0.2089774930068E+00
-0.2779505477699E+00 -0.2016142915199E+00
-0.2537885800556E+00 -0.1983278497129E+00
-0.2263729996297E+00 -0.2017889691402E+00
-0.1966536329102E+00 -0.2119353284858E+00
-0.1646593404704E+00 -0.2288983658352E+00
-0.1297503392076E+00 -0.2529960873734E+00
-0.9150794410603E-01 -0.2855069670844E+00
-0.4984309195347E-01 -0.3287141688874E+00
 0.1759684942759E-01 -0.4193490683311E+00
 0.4071321372746E-01 -0.4581134666303E+00
 0.6548845424226E-01 -0.5039966989035E+00
 0.9313429203707E-01 -0.5599268197220E+00
 0.1252835129445E+00 -0.6287862342408E+00
 0.1603017130220E+00 -0.7072922578140E+00
 0.1949699062590E+00 -0.7889200302160E+00
 0.2272259541874E+00 -0.8699014111351E+00
 0.2552699967134E+00 -0.9476254404583E+00
 0.2783393190478E+00 -0.1019932854549E+01
 0.2963685260822E+00 -0.1085025961358E+01
 0.3096668356056E+00 -0.1141437090539E+01
 0.3187368664354E+00 -0.1187996042651E+01
 0.3241817997205E+00 -0.1223798165786E+01
 0.3266598570113E+00 -0.1248177824381E+01
 0.3268631465814E+00 -0.1260692530846E+01
 0.3255080902114E+00 -0.1261111116112E+01
 0.3233327728297E+00 -0.1249408371812E+01
 0.3210991866006E+00 -0.1225766025061E+01
 0.3196001015798E+00 -0.1190578537896E+01
 0.3196368404537E+00 -0.1144479532966E+01
 0.3218745700068E+00 -0.1088404078216E+01
 0.3268444350822E+00 -0.1023563888466E+01
 0.3349510739671E+00 -0.9514943494600E+00
 0.3464402509345E+00 -0.8741519627697E+00
 0.3613168350936E+00 -0.7940880777993E+00
 0.3791108191975E+00 -0.7148163186415E+00
 0.3983450238176E+00 -0.6420698334449E+00
 0.4168559912023E+00 -0.5824194767470E+00
 0.4341845940377E+00 -0.5355716600522E+00
 0.4509918599294E+00 -0.4969638057186E+00
 0.4671936121177E+00 -0.4644258485182E+00
 0.4826243359966E+00 -0.4366884986163E+00
 0.4970027022844E+00 -0.4128567928526E+00
 0.5102877068323E+00 -0.3923620236298E+00
 0.5226109701954E+00 -0.3748241435121E+00
 0.5340811037887E+00 -0.3599361035766E+00
 0.5447752244723E+00 -0.3474550589958E+00
 0.5547361154724E+00 -0.3372054539314E+00
 0.5819647662275E+00 -0.3170880064421E+00
 0.5968185376838E+00 -0.3112781320778E+00
 0.6083795155445E+00 -0.3104129808633E+00
 0.6163633967398E+00 -0.3133328600205E+00
 0.6206370235545E+00 -0.3189212856569E+00
 0.6212262479773E+00 -0.3260483210503E+00
 0.6182518451040E+00 -0.3336686180321E+00
 0.6117221545734E+00 -0.3409818002344E+00
 0.6011180742818E+00 -0.3481064596497E+00
 0.5858277552405E+00 -0.3550203796353E+00
 0.5654914276532E+00 -0.3603963544564E+00
 0.5397235537687E+00 -0.3634417061695E+00
 0.5081828895626E+00 -0.3631775421605E+00
 0.4704905260966E+00 -0.3582965641111E+00
 0.4260957416011E+00 -0.3473193522301E+00
 0.3743273113257E+00 -0.3277815562508E+00
 0.3145301325526E+00 -0.2952638461220E+00
 0.2454325198267E+00 -0.2438587732020E+00
 0.1660426166990E+00 -0.1632852194116E+00
-0.5684519939839E-04 -0.1018352609712E-03
-0.4987326763145E-04 -0.1657386248890E-03
 0.7579692382056E-05 -0.2270164358630E-03
 0.1098892366024E-03 -0.2911096807611E-03
 0.2530143439641E-03 -0.3611695860719E-03
 0.4341009597047E-03 -0.4391221245181E-03
 0.6508176110856E-03 -0.5263348287543E-03
 0.9012337866700E-03 -0.6239022563662E-03
 0.1183681584786E-02 -0.7327799334687E-03
 0.1496687369609E-02 -0.8538668103366E-03
 0.1838920384732E-02 -0.9880606608441E-03
 0.2209153230782E-02 -0.1136300756623E-02
 0.2606239752450E-02 -0.1299610788835E-02
 0.3029090914272E-02 -0.1479141116746E-02
 0.3476625722846E-02 -0.1676205616813E-02
 0.3947823382842E-02 -0.1892379447881E-02
 0.4441644298513E-02 -0.2129572446954E-02
 0.4957058214392E-02 -0.2390224525950E-02
 0.5493033113158E-02 -0.2677814465386E-02
 0.6047895209005E-02 -0.2997294949600E-02
 0.6618157143929E-02 -0.3350681923886E-02
 0.7199076046706E-02 -0.3736947276871E-02
 0.7785619394348E-02 -0.4154485000282E-02
 0.8372798660788E-02 -0.4602543805680E-02
 0.8955601153209E-02 -0.5081570600927E-02
 0.9528780477639E-02 -0.5593086956010E-02
 0.1008662914593E-01 -0.6139478492613E-02
 0.1062277133435E-01 -0.6723846173855E-02
 0.1112988673768E-01 -0.7349876675124E-02
 0.1159942772456E-01 -0.8021293471294E-02
 0.1202196145150E-01 -0.8741711373615E-02
 0.1238785476710E-01 -0.9516745535352E-02
 0.1268632991736E-01 -0.1035540565831E-01
 0.1290422566319E-01 -0.1127071014395E-01
 0.1302454141050E-01 -0.1228179050818E-01
 0.1302438983083E-01 -0.1341795574738E-01
 0.1286805481558E-01 -0.1472797179402E-01
 0.1250398641091E-01 -0.1629835079402E-01
 0.1178871383446E-01 -0.1830877092039E-01
 0.1060758240557E-01 -0.2132326164323E-01
 0.2664781357353E-01 -0.4491310146224E-01
 0.2412382765788E-01 -0.4078248486272E-01
 0.2212494588546E-01 -0.3790839627942E-01
 0.2052436007669E-01 -0.3559682541130E-01
 0.1915201453274E-01 -0.3362346093502E-01
 0.1794839453237E-01 -0.3187793679295E-01
 0.1687266299147E-01 -0.3029645884665E-01
 0.1589953280992E-01 -0.2883960066379E-01
 0.1501099771267E-01 -0.2748104336118E-01
 0.1419393626401E-01 -0.2620269665146E-01
 0.1343838846778E-01 -0.2499229242876E-01
 0.1273610129961E-01 -0.2384260314251E-01
 0.1207973480451E-01 -0.2274718459099E-01
 0.1146316513445E-01 -0.2169922739705E-01
 0.1088169213709E-01 -0.2069292832769E-01
 0.1033175899697E-01 -0.1972405834921E-01
 0.9810667498807E-02 -0.1879006251738E-01
 0.9316267996531E-02 -0.1789012775364E-01
 0.8846497524037E-02 -0.1702508733208E-01
 0.8398675290689E-02 -0.1619662065974E-01
 0.7968728716068E-02 -0.1540505410248E-01
 0.7551237410647E-02 -0.1464566096998E-01
 0.7141673401199E-02 -0.1390788286307E-01
 0.6738764984804E-02 -0.1318289704228E-01
 0.6342615159694E-02 -0.1246593754102E-01
 0.5953283246487E-02 -0.1175396355265E-01
 0.5570737148298E-02 -0.1104470746591E-01
 0.5194828162581E-02 -0.1033632205170E-01
 0.4825322388396E-02 -0.9627319818407E-02
 0.4461804603613E-02 -0.8916350170557E-02
 0.4103652567760E-02 -0.8202152193267E-02
 0.3749970887601E-02 -0.7483466568681E-02
 0.3399488870186E-02 -0.6758916024132E-02
 0.3050428939626E-02 -0.6026867314635E-02
 0.2700275612502E-02 -0.5285216799929E-02
 0.2345479223780E-02 -0.4531017777859E-02
 0.1980554164850E-02 -0.3759841575351E-02
 0.1597678253636E-02 -0.2964274571469E-02
 0.1179947895043E-02 -0.2129654572987E-02
 0.7026657709257E-03 -0.1234171185539E-02
-0.7552739274434E-01 -0.6376410229922E+00
-0.5796401549127E-01 -0.6584787711241E+00
-0.3949258507295E-01 -0.6787152455199E+00
-0.2014173705395E-01 -0.6981411088537E+00
 0.3998008502293E-04 -0.7165548546428E+00
 0.2098903620578E-01 -0.7337656017646E+00
 0.4263009010800E-01 -0.7495955196279E+00
 0.6487851163522E-01 -0.7638826045850E+00
 0.8764212296977E-01 -0.7764813651150E+00
 0.1108226625367E+00 -0.7872637245668E+00
 0.1343170075631E+00 -0.7961215958260E+00
 0.1580186315710E+00 -0.8029685040352E+00
 0.1818189841149E+00 -0.8077404036723E+00
 0.2056087472470E+00 -0.8103960663580E+00
 0.2292789729705E+00 -0.8109172221547E+00
 0.2527221613100E+00 -0.8093085294591E+00
 0.2758332512998E+00 -0.8055973628824E+00
 0.2985105971328E+00 -0.7998334342663E+00
 0.3206569527436E+00 -0.7920882311872E+00
 0.3421804949099E+00 -0.7824542545028E+00
 0.3629958994527E+00 -0.7710440023184E+00
 0.3830254435364E+00 -0.7579885499011E+00
 0.4022001447506E+00 -0.7434358826417E+00
 0.4204609055921E+00 -0.7275489130623E+00
 0.4377596205875E+00 -0.7105031122468E+00
 0.4540601769084E+00 -0.6924837201197E+00
 0.4693392579127E+00 -0.6736825381059E+00
 0.4835868359482E+00 -0.6542943114906E+00
 0.4968062484152E+00 -0.6345126898495E+00
 0.5090136828811E+00 -0.6145259444119E+00
 0.5202370148617E+00 -0.5945127555316E+00
 0.5305140402642E+00 -0.5746384789336E+00
 0.5398902528100E+00 -0.5550520968579E+00
 0.5484163019512E+00 -0.5358843248247E+00
 0.5561456658076E+00 -0.5172483966865E+00
 0.5631329087911E+00 -0.4992415735180E+00
 0.5694325604686E+00 -0.4819465674210E+00
 0.5750993302279E+00 -0.4654360163358E+00
 0.5801922768108E+00 -0.4497828682248E+00
-0.1014475793686E+00 -0.5776377736258E+00
-0.1090745684401E+00 -0.5393334189805E+00
-0.1153818483218E+00 -0.5014301901337E+00
-0.1205777108458E+00 -0.4640142898015E+00
-0.1247669689900E+00 -0.4271628573833E+00
-0.1279788190416E+00 -0.3909318724178E+00
-0.1301757630509E+00 -0.3553608564218E+00
-0.1312698226403E+00 -0.3204817737909E+00
-0.1311211806094E+00 -0.2863534527485E+00
-0.1296184407363E+00 -0.2530756680355E+00
-0.1266798500537E+00 -0.2207770064063E+00
-0.1221580155660E+00 -0.1896239817773E+00
-0.1158336923543E+00 -0.1598257365736E+00
-0.1074055616878E+00 -0.1316258802118E+00
-0.9649297194503E-01 -0.1052972482152E+00
-0.8264757429130E-01 -0.8113803534555E-01
-0.6535763932759E-01 -0.5946723730656E-01
-0.4403897577645E-01 -0.4061719830108E-01
-0.1799986076923E-01 -0.2491877535688E-01
 0.5752053424412E+00 -0.4189819401644E+00
 0.5632919802108E+00 -0.4014062667300E+00
 0.5493914396095E+00 -0.3824154977931E+00
 0.5337763649791E+00 -0.3621837632039E+00
 0.5166271515530E+00 -0.3408961149078E+00
 0.4980469188648E+00 -0.3187218481111E+00
 0.4780587895259E+00 -0.2958133848370E+00
 0.4566223726628E+00 -0.2723125048060E+00
 0.4336354246058E+00 -0.2483771296562E+00
 0.4090108713304E+00 -0.2241981127846E+00
 0.3826759919671E+00 -0.1999907072844E+00
 0.3544987642879E+00 -0.1759942965220E+00
 0.3242858923640E+00 -0.1524727017625E+00
 0.2917747515018E+00 -0.1297021700145E+00
 0.2566381207175E+00 -0.1079608277300E+00
 0.2184975110369E+00 -0.8751815544206E-01
 0.1769361799668E+00 -0.6862056877645E-01
 0.1315096516506E+00 -0.5146680035820E-01
 0.8173870577743E-01 -0.3616264588802E-01
-0.1002575451596E+00 -0.6160169681577E+00
-0.1074879818923E+00 -0.6140406468072E+00
-0.1137629502366E+00 -0.6105043256514E+00
-0.1189734545716E+00 -0.6054081709822E+00
-0.1230183954655E+00 -0.5987550208479E+00
-0.1257980047963E+00 -0.5905600331984E+00
-0.1272123507248E+00 -0.5808556336634E+00
-0.1271625991153E+00 -0.5696962439526E+00
-0.1255539049875E+00 -0.5571627191099E+00
-0.1222997276563E+00 -0.5433666758095E+00
-0.1173276772444E+00 -0.5284546179074E+00
-0.1105872112194E+00 -0.5126116253992E+00
-0.1020596218957E+00 -0.4960641710755E+00
-0.9177077788730E-01 -0.4790813255473E+00
-0.7980688263182E-01 -0.4619730999055E+00
-0.6633282863778E-01 -0.4450838361705E+00
-0.5161046476338E-01 -0.4287769533641E+00
-0.3601022329754E-01 -0.4134057344943E+00
-0.1999374880880E-01 -0.3992607833380E+00
 0.5915338539016E+00 -0.4304648651194E+00
 0.5972354433805E+00 -0.4251859294357E+00
 0.6018665605890E+00 -0.4193967718012E+00
 0.6054290186402E+00 -0.4132034856539E+00
 0.6079459883637E+00 -0.4067030501878E+00
 0.6094535438700E+00 -0.3999899127470E+00
 0.6099974924413E+00 -0.3931576471463E+00
 0.6096326144901E+00 -0.3862990886399E+00
 0.6084225137500E+00 -0.3795055434951E+00
 0.6064394228342E+00 -0.3728654436947E+00
 0.6037636388858E+00 -0.3664626731425E+00
 0.6004824740035E+00 -0.3603747676780E+00
 0.5966887339870E+00 -0.3546711848271E+00
 0.5924788422816E+00 -0.3494118272464E+00
 0.5879508165097E+00 -0.3446459629567E+00
 0.5832024089115E+00 -0.3404116176773E+00
 0.5783297217430E+00 -0.3367353306105E+00
 0.5734274637711E+00 -0.3336323277829E+00
 0.5685898895391E+00 -0.3311051927383E+00
-0.4766627589473E-04 -0.9423046243162E-04
-0.4313143580994E-04 -0.1801590822369E-03
 0.1529575291798E-04 -0.2590267567209E-03
 0.1187716228767E-03 -0.3396752254074E-03
 0.2636131332618E-03 -0.4251980422151E-03
 0.4467584563520E-03 -0.5177587929534E-03
 0.6658512883127E-03 -0.6188687189341E-03
 0.9189228082541E-03 -0.7297320962630E-03
 0.1204286131654E-02 -0.8513872098500E-03
 0.1520454182276E-02 -0.9847972392964E-03
 0.1866088631057E-02 -0.1130910643514E-02
 0.2239958814437E-02 -0.1290707204168E-02
 0.2640919465635E-02 -0.1465243339277E-02
 0.3067886676898E-02 -0.1655695731612E-02
 0.3519789732359E-02 -0.1863399345110E-02
 0.3995625550433E-02 -0.2089946616540E-02
 0.4494383787015E-02 -0.2337259262556E-02
 0.5015089347673E-02 -0.2607786290981E-02
 0.5556771186724E-02 -0.2904817800415E-02
 0.6117721590875E-02 -0.3231885628311E-02
 0.6694253951759E-02 -0.3589216534368E-02
 0.7281317606053E-02 -0.3975269926805E-02
 0.7873623627926E-02 -0.4388789736041E-02
 0.8466020777906E-02 -0.4829457052223E-02
 0.9053384904630E-02 -0.5297889224868E-02
 0.9630355764360E-02 -0.5795446658010E-02
 0.1019107019918E-01 -0.6324056384824E-02
 0.1072892334676E-01 -0.6886090601587E-02
 0.1123625696659E-01 -0.7484226005312E-02
 0.1170415937483E-01 -0.8121339102295E-02
 0.1212305141956E-01 -0.8800993421365E-02
 0.1248317584233E-01 -0.9528211997754E-02
 0.1277333265167E-01 -0.1030990192837E-01
 0.1297959889704E-01 -0.1115581118383E-01
 0.1308387358709E-01 -0.1207987166475E-01
 0.1306056877821E-01 -0.1310259474817E-01
 0.1287220549182E-01 -0.1425598328171E-01
 0.1244539656069E-01 -0.1558991520163E-01
 0.1167405770309E-01 -0.1720803618974E-01
 0.9956559101974E-02 -0.1917051730874E-01
-0.4091706513634E-04 -0.9743186874603E-04
-0.3450936728761E-04 -0.1954471281402E-03
 0.2424671138451E-04 -0.2907618199314E-03
 0.1290355949032E-03 -0.3868364965181E-03
 0.2754981398460E-03 -0.4872061403648E-03
 0.4606381083072E-03 -0.5939246547302E-03
 0.6820285801955E-03 -0.7085813205235E-03
 0.9376774767623E-03 -0.8324380488658E-03
 0.1225876771587E-02 -0.9665875758288E-03
 0.1545126606125E-02 -0.1112036956035E-02
 0.1894080604507E-02 -0.1269769283323E-02
 0.2271504399660E-02 -0.1440790034089E-02
 0.2676252925045E-02 -0.1626172842438E-02
 0.3107246532443E-02 -0.1827102623597E-02
 0.3563423175580E-02 -0.2044911083748E-02
 0.4043794383523E-02 -0.2281172225395E-02
 0.4547372891391E-02 -0.2537760501919E-02
 0.5073209892891E-02 -0.2816991299597E-02
 0.5620255775083E-02 -0.3121665284786E-02
 0.6186606958883E-02 -0.3454242162287E-02
 0.6768437488099E-02 -0.3813952636755E-02
 0.7360596304231E-02 -0.4198883686075E-02
 0.7957659325738E-02 -0.4607882387835E-02
 0.8554326781187E-02 -0.5040813938279E-02
 0.9145324078490E-02 -0.5498325178475E-02
 0.9725126340499E-02 -0.5981579353800E-02
 0.1028767116677E-01 -0.6492081056226E-02
 0.1082609490427E-01 -0.7031574169361E-02
 0.1133244626097E-01 -0.7601982352988E-02
 0.1179760674296E-01 -0.8205523009503E-02
 0.1221180798626E-01 -0.8845189253090E-02
 0.1256488572647E-01 -0.9524991868537E-02
 0.1284498409992E-01 -0.1024989304275E-01
 0.1303720851065E-01 -0.1102645524608E-01
 0.1312169511902E-01 -0.1186353853740E-01
 0.1307036475284E-01 -0.1277338360212E-01
 0.1283804469586E-01 -0.1377219511842E-01
 0.1234893472690E-01 -0.1488520655980E-01
 0.1142747807061E-01 -0.1612556624520E-01
 0.9547136432110E-02 -0.1755949381846E-01
-0.3542562018666E-04 -0.1045405745921E-03
-0.2557960360693E-04 -0.2130168062474E-03
 0.3430840145478E-04 -0.3222752976725E-03
 0.1404056546694E-03 -0.4329028755579E-03
 0.2885237043725E-03 -0.5474201140115E-03
 0.4756131959780E-03 -0.6678216488331E-03
 0.6992444671133E-03 -0.7956440184475E-03
 0.9574007705326E-03 -0.9321676548167E-03
 0.1248359281629E-02 -0.1078508041842E-02
 0.1570608283161E-02 -0.1235695441273E-02
 0.1922793833232E-02 -0.1404730679199E-02
 0.2303677421328E-02 -0.1586629556447E-02
 0.2712113123079E-02 -0.1782466950926E-02
 0.3147023568383E-02 -0.1993417299042E-02
 0.3607351681737E-02 -0.2220784510990E-02
 0.4092116499901E-02 -0.2466088740775E-02
 0.4600337421250E-02 -0.2731097050897E-02
 0.5131034613402E-02 -0.3017876739506E-02
 0.5683000398439E-02 -0.3328692331060E-02
 0.6254105650567E-02 -0.3665201609584E-02
 0.6840424048316E-02 -0.4026034370189E-02
 0.7436790749323E-02 -0.4409031180067E-02
 0.8037720413048E-02 -0.4813025118596E-02
 0.8637787588995E-02 -0.5237910193223E-02
 0.9231553852958E-02 -0.5684266191800E-02
 0.9813303818404E-02 -0.6153035583390E-02
 0.1037675318898E-01 -0.6645339010759E-02
 0.1091478212360E-01 -0.7162396544573E-02
 0.1141919634415E-01 -0.7705533855746E-02
 0.1188070091934E-01 -0.8276348978352E-02
 0.1228927797049E-01 -0.8877089539582E-02
 0.1263424336259E-01 -0.9510631617361E-02
 0.1290297098677E-01 -0.1018013632098E-01
 0.1307942413529E-01 -0.1088933832447E-01
 0.1314203143632E-01 -0.1164280563952E-01
 0.1305951632325E-01 -0.1244586236112E-01
 0.1278277796587E-01 -0.1330478571780E-01
 0.1222566931552E-01 -0.1422432971608E-01
 0.1120473749021E-01 -0.1520828926865E-01
 0.9390206628010E-02 -0.1635895919537E-01
-0.3053627633319E-04 -0.1133581499939E-03
-0.1674005031974E-04 -0.2321198505456E-03
 0.4507553053332E-04 -0.3538647798226E-03
 0.1526969155639E-03 -0.4780206408835E-03
 0.3025227948514E-03 -0.6060408059543E-03
 0.4915591950823E-03 -0.7396242712711E-03
 0.7173897393525E-03 -0.8802158051834E-03
 0.9779932600836E-03 -0.1029062147181E-02
 0.1271637103795E-02 -0.1187274604218E-02
 0.1596801030964E-02 -0.1355885341796E-02
 0.1952124385059E-02 -0.1535896084962E-02
 0.2336364220175E-02 -0.1728317448739E-02
 0.2748372280360E-02 -0.1934209579146E-02
 0.3187070486148E-02 -0.2154717962219E-02
 0.3651401132784E-02 -0.2391095191625E-02
 0.4140380173321E-02 -0.2644774639969E-02
 0.4653008161309E-02 -0.2917364445447E-02
 0.5188225005575E-02 -0.3210631067722E-02
 0.5744632248743E-02 -0.3526340316084E-02
 0.6319887547062E-02 -0.3865542029706E-02
 0.6909991686880E-02 -0.4226487326728E-02
 0.7509801681810E-02 -0.4606856648945E-02
 0.8113810772200E-02 -0.5005418504761E-02
 0.8716489983426E-02 -0.5422005679118E-02
 0.9312238678146E-02 -0.5857070816350E-02
 0.9895143147084E-02 -0.6311326025094E-02
 0.1045869375824E-01 -0.6785549803642E-02
 0.1099553240129E-01 -0.7280526223354E-02
 0.1149725328035E-01 -0.7797079133365E-02
 0.1195438113735E-01 -0.8336224542619E-02
 0.1235660994109E-01 -0.8899445467555E-02
 0.1269271072913E-01 -0.9488530280072E-02
 0.1294926928844E-01 -0.1010507694602E-01
 0.1310917647366E-01 -0.1075055112724E-01
 0.1314929521075E-01 -0.1142624258618E-01
 0.1303627625793E-01 -0.1213307763452E-01
 0.1271862084130E-01 -0.1287133206107E-01
 0.1210919395657E-01 -0.1364097971105E-01
 0.1105860591780E-01 -0.1446003039727E-01
 0.9399559997891E-02 -0.1543483514542E-01
-0.2592442547961E-04 -0.1229802752235E-03
-0.8042125676220E-05 -0.2520842160703E-03
 0.5626612813997E-04 -0.3855131129915E-03
 0.1657121333640E-03 -0.5223256896349E-03
 0.3173448995646E-03 -0.6632143160689E-03
 0.5083494993424E-03 -0.8094874102888E-03
 0.7363553431768E-03 -0.9624417035679E-03
 0.9993542322725E-03 -0.1123256514543E-02
 0.1295612719204E-02 -0.1293011787835E-02
 0.1623605909718E-02 -0.1472722070139E-02
 0.1981967969358E-02 -0.1663373464013E-02
 0.2369451258871E-02 -0.1865956282284E-02
 0.2784903383440E-02 -0.2081500443901E-02
 0.3227241726799E-02 -0.2311104987365E-02
 0.3695400946546E-02 -0.2555949818255E-02
 0.4188380480861E-02 -0.2817353310828E-02
 0.4705135902693E-02 -0.3096731300686E-02
 0.5244494298388E-02 -0.3395538510166E-02
 0.5804860835884E-02 -0.3715102775703E-02
 0.6383704394169E-02 -0.4056005286104E-02
 0.6976972578195E-02 -0.4416252870905E-02
 0.7579557540357E-02 -0.4793423498225E-02
 0.8185951096664E-02 -0.5186202815162E-02
 0.8790539322142E-02 -0.5594315492973E-02
 0.9387569447688E-02 -0.6018055303004E-02
 0.9970934750759E-02 -0.6457907329734E-02
 0.1053391057603E-01 -0.6914350211688E-02
 0.1106892333160E-01 -0.7387803634410E-02
 0.1156737690477E-01 -0.7878664530703E-02
 0.1201961132483E-01 -0.8387425377205E-02
 0.1241502585170E-01 -0.8914870985337E-02
 0.1274187999435E-01 -0.9461849128635E-02
 0.1298606386744E-01 -0.1002872155285E-01
 0.1312959908254E-01 -0.1061531299972E-01
 0.1314834493882E-01 -0.1122086087560E-01
 0.1300817862487E-01 -0.1184403989503E-01
 0.1265834319278E-01 -0.1248359827286E-01
 0.1202128401411E-01 -0.1314328404892E-01
 0.1099274439568E-01 -0.1385312295543E-01
 0.9510740913287E-02 -0.1470502755215E-01
-0.2143173272219E-04 -0.1329755154198E-03
 0.5477597469571E-06 -0.2724633890052E-03
 0.6771634232228E-04 -0.4170973426821E-03
 0.1792778675485E-03 -0.5658892522240E-03
 0.3328489091846E-03 -0.7190580388852E-03
 0.5258626295956E-03 -0.8775428230367E-03
 0.7560334246000E-03 -0.1042454928219E-02
 0.1021383643551E-02 -0.1214879502761E-02
 0.1320188925101E-02 -0.1395842880691E-02
 0.1650924506011E-02 -0.1586323887649E-02
 0.2012221233214E-02 -0.1787277576531E-02
 0.2402826597297E-02 -0.1999659590261E-02
 0.2821581997997E-02 -0.2224455083331E-02
 0.3267395902348E-02 -0.2462700749704E-02
 0.3739187415347E-02 -0.2715485442404E-02
 0.4235925339046E-02 -0.2983991510053E-02
 0.4756498654980E-02 -0.3269426525762E-02
 0.5299604221447E-02 -0.3572945530675E-02
 0.5863459329241E-02 -0.3895500673141E-02
 0.6445370150478E-02 -0.4237306251855E-02
 0.7041245582879E-02 -0.4596210643896E-02
 0.7646016515982E-02 -0.4969728812629E-02
 0.8254182882147E-02 -0.5356461464969E-02
 0.8860061103197E-02 -0.5756005663116E-02
 0.9457761090948E-02 -0.6168485518616E-02
 0.1004099743779E-01 -0.6594172624953E-02
 0.1060284938364E-01 -0.7033287349969E-02
 0.1113555276363E-01 -0.7485947073222E-02
 0.1163034095768E-01 -0.7952192054288E-02
 0.1207737727610E-01 -0.8432070209471E-02
 0.1246579104813E-01 -0.8925782850032E-02
 0.1278341424972E-01 -0.9433441499741E-02
 0.1301561145741E-01 -0.9954536244424E-02
 0.1314387898334E-01 -0.1048790050491E-01
 0.1314380214093E-01 -0.1103182281244E-01
 0.1298197738182E-01 -0.1158455118182E-01
 0.1261177694447E-01 -0.1214630751909E-01
 0.1197090296505E-01 -0.1272642276765E-01
 0.1099570307868E-01 -0.1335992617611E-01
 0.9684838391373E-02 -0.1411931773243E-01
-0.1698222366940E-04 -0.1431181696816E-03
 0.9071440715170E-05 -0.2929754641223E-03
 0.7933356020893E-04 -0.4484882781465E-03
 0.1932562732276E-03 -0.6087356623734E-03
 0.3489063406372E-03 -0.7736622564786E-03
 0.5439839216069E-03 -0.9439039361540E-03
 0.7763194971451E-03 -0.1120377235080E-02
 0.1043983383740E-02 -0.1304054162672E-02
 0.1345270041776E-02 -0.1495889868510E-02
 0.1678659996303E-02 -0.1696811697093E-02
 0.2042782861361E-02 -0.1907729590563E-02
 0.2436381122928E-02 -0.2129551303567E-02
 0.2858287781840E-02 -0.2363204028507E-02
 0.3307397757502E-02 -0.2609648281099E-02
 0.3782606527634E-02 -0.2869867251078E-02
 0.4282839442715E-02 -0.3144893997553E-02
 0.4806903585490E-02 -0.3435724990486E-02
 0.5353359488104E-02 -0.3743238576796E-02
 0.5920251678084E-02 -0.4068067802111E-02
 0.6504747867040E-02 -0.4410136145751E-02
 0.7102729338425E-02 -0.4767191021388E-02
 0.7709165566995E-02 -0.5136712599084E-02
 0.8318569247017E-02 -0.5517223053491E-02
 0.8925200335360E-02 -0.5908189460752E-02
 0.9523048936707E-02 -0.6309570141365E-02
 0.1010567108404E-01 -0.6721444106980E-02
 0.1066597413424E-01 -0.7143814576803E-02
 0.1119603046377E-01 -0.7576554243806E-02
 0.1168692685697E-01 -0.8019417871224E-02
 0.1212867375068E-01 -0.8472101764981E-02
 0.1251018355111E-01 -0.8934363446860E-02
 0.1281898299579E-01 -0.9405804618379E-02
 0.1304013890616E-01 -0.9885408463263E-02
 0.1315504177221E-01 -0.1037160173343E-01
 0.1313977971918E-01 -0.1086261371122E-01
 0.1296310367496E-01 -0.1135752780250E-01
 0.1258488415723E-01 -0.1185922326573E-01
 0.1195927181160E-01 -0.1238134743077E-01
 0.1105389277386E-01 -0.1295856114665E-01
 0.9899100456386E-02 -0.1364525305192E-01
-0.1254144137911E-04 -0.1532828384065E-03
 0.1755964739702E-04 -0.3134441012465E-03
 0.9106299628849E-04 -0.4795809122466E-03
 0.2075414015928E-03 -0.6508667981394E-03
 0.3654041684676E-03 -0.8270950825030E-03
 0.5626068142076E-03 -0.1008668938361E-02
 0.7971138704431E-03 -0.1196320343241E-02
 0.1067058463521E-02 -0.1390898240386E-02
 0.1370762920512E-02 -0.1593273447603E-02
 0.1706718102959E-02 -0.1804308724770E-02
 0.2073554546016E-02 -0.2024856521007E-02
 0.2470009632339E-02 -0.2255764906879E-02
 0.2894905776530E-02 -0.2497891552093E-02
 0.3347119802306E-02 -0.2752109347595E-02
 0.3825516092774E-02 -0.3019285269476E-02
 0.4328966259949E-02 -0.3300296756134E-02
 0.4856186367235E-02 -0.3595935045343E-02
 0.5405602212078E-02 -0.3906828907184E-02
 0.5975103267310E-02 -0.4233341446019E-02
 0.6561740396905E-02 -0.4575163641996E-02
 0.7161376317243E-02 -0.4929982198892E-02
 0.7769018047529E-02 -0.5295263728652E-02
 0.8379193934149E-02 -0.5669462846675E-02
 0.8986119656592E-02 -0.6051924814770E-02
 0.9583684611489E-02 -0.6442455787834E-02
 0.1016530995751E-01 -0.6840968139724E-02
 0.1072375882705E-01 -0.7247288970279E-02
 0.1125097006139E-01 -0.7661101977343E-02
 0.1173791423933E-01 -0.8081949006647E-02
 0.1217448805768E-01 -0.8509274459858E-02
 0.1254946230702E-01 -0.8942539518089E-02
 0.1285020699949E-01 -0.9381059724588E-02
 0.1306174927766E-01 -0.9823641323231E-02
 0.1316580924624E-01 -0.1026877815444E-01
 0.1313969888368E-01 -0.1071526538243E-01
 0.1295542580191E-01 -0.1116365797490E-01
 0.1258043265669E-01 -0.1161945319482E-01
 0.1198388659351E-01 -0.1209862705192E-01
 0.1115547823383E-01 -0.1263251793639E-01
 0.1014008099754E-01 -0.1326068823677E-01
-0.8096234437515E-05 -0.1633971307029E-03
 0.2602995855258E-04 -0.3337593543529E-03
 0.1028687370775E-03 -0.5102988581923E-03
 0.2220516146395E-03 -0.6922778770866E-03
 0.3822450309940E-03 -0.8794095049230E-03
 0.5816338527275E-03 -0.1071923710066E-02
 0.8183226781417E-03 -0.1270387581629E-02
 0.1090518057929E-02 -0.1475524888206E-02
 0.1396577914000E-02 -0.1688113259938E-02
 0.1735008049591E-02 -0.1908940445308E-02
 0.2104441982999E-02 -0.2138790888190E-02
 0.2503611930338E-02 -0.2378442795791E-02
 0.2931327673511E-02 -0.2628674583142E-02
 0.3386443800633E-02 -0.2890262610955E-02
 0.3867787332716E-02 -0.3163950998558E-02
 0.4374168877499E-02 -0.3450460756945E-02
 0.4904209632624E-02 -0.3750389008445E-02
 0.5456207177318E-02 -0.4064142603882E-02
 0.6027914187230E-02 -0.4391856737021E-02
 0.6616283807421E-02 -0.4733035753107E-02
 0.7217168116751E-02 -0.5085335060035E-02
 0.7825611123540E-02 -0.5446224562705E-02
 0.8436159661203E-02 -0.5814104727578E-02
 0.9042997114158E-02 -0.6188213503096E-02
 0.9639932240194E-02 -0.6568224651711E-02
 0.1022027713487E-01 -0.6953913030327E-02
 0.1077668074850E-01 -0.7344970555070E-02
 0.1130098139236E-01 -0.7740946329896E-02
 0.1178407060272E-01 -0.8141241612040E-02
 0.1221578301635E-01 -0.8545148669530E-02
 0.1258483843651E-01 -0.8951974986801E-02
 0.1287861177560E-01 -0.9360952796893E-02
 0.1308235211900E-01 -0.9770984253721E-02
 0.1317851260428E-01 -0.1018097384647E-01
 0.1314620933546E-01 -0.1059063981181E-01
 0.1296136110196E-01 -0.1100214837317E-01
 0.1259901849908E-01 -0.1142300216102E-01
 0.1204082959320E-01 -0.1186978648299E-01
 0.1129109035588E-01 -0.1236932739034E-01
 0.1039958058364E-01 -0.1294975375161E-01
-0.3644473768539E-05 -0.1734184360308E-03
 0.3448930911283E-04 -0.3538533321651E-03
 0.1147239010525E-03 -0.5405907095221E-03
 0.2367226484454E-03 -0.7329655225055E-03
 0.3993457514169E-03 -0.9306495717435E-03
 0.6009770525504E-03 -0.1133744785288E-02
 0.8398585689986E-03 -0.1342675418425E-02
 0.1114276298140E-02 -0.1558043371310E-02
 0.1422629678960E-02 -0.1780528066410E-02
 0.1763443366674E-02 -0.2010834389045E-02
 0.2135355709658E-02 -0.2249670197485E-02
 0.2537093732348E-02 -0.2497735381859E-02
 0.2967452804024E-02 -0.2755721288272E-02
 0.3425261814182E-02 -0.3024301358307E-02
 0.3909305707476E-02 -0.3304093662512E-02
 0.4418329838067E-02 -0.3595666044277E-02
 0.4950860855825E-02 -0.3899435438395E-02
 0.5505077631973E-02 -0.4215613213542E-02
 0.6078613889617E-02 -0.4544142475259E-02
 0.6668342139130E-02 -0.4884377885529E-02
 0.7270111255000E-02 -0.5233965935308E-02
 0.7879002786065E-02 -0.5590393843752E-02
 0.8489585691075E-02 -0.5952022536566E-02
 0.9096023321269E-02 -0.6318000736750E-02
 0.9692064480944E-02 -0.6687893148565E-02
 0.1027093924871E-01 -0.7061367917050E-02
 0.1082521413292E-01 -0.7438022204581E-02
 0.1134666278349E-01 -0.7817323174125E-02
 0.1182614061700E-01 -0.8198601228231E-02
 0.1225348070028E-01 -0.8581090839357E-02
 0.1261745049848E-01 -0.8964074784697E-02
 0.1290559187222E-01 -0.9346872637198E-02
 0.1310361878670E-01 -0.9728688095803E-02
 0.1319505367670E-01 -0.1010905056481E-01
 0.1316121227774E-01 -0.1048873308220E-01
 0.1298215812059E-01 -0.1087134485762E-01
 0.1263993101547E-01 -0.1126563606017E-01
 0.1212593014746E-01 -0.1168760777360E-01
 0.1145355754900E-01 -0.1215941026979E-01
 0.1067239697812E-01 -0.1270060534642E-01
 0.8103283558431E-06 -0.1833217076362E-03
 0.4293709917429E-04 -0.3736851848587E-03
 0.1266058464960E-03 -0.5704247819898E-03
 0.2515024258806E-03 -0.7729311498198E-03
 0.4166352750734E-03 -0.9808548349940E-03
 0.6205577010256E-03 -0.1194202057483E-02
 0.8616411018953E-03 -0.1413274886894E-02
 0.1138252854272E-02 -0.1638559734702E-02
 0.1448837825279E-02 -0.1870635891332E-02
 0.1791942566373E-02 -0.2110119892193E-02
 0.2166211804661E-02 -0.2357636327684E-02
 0.2570367394082E-02 -0.2613800067239E-02
 0.3003188881745E-02 -0.2879209484109E-02
 0.3463476856829E-02 -0.3154431059873E-02
 0.3949971163067E-02 -0.3439956483401E-02
 0.4461350387563E-02 -0.3736206489682E-02
 0.4996050080477E-02 -0.4043432962983E-02
 0.5552141626874E-02 -0.4361676243283E-02
 0.6127156840531E-02 -0.4690717971481E-02
 0.6717903105019E-02 -0.5029793551536E-02
 0.7320233423943E-02 -0.5376558218724E-02
 0.7929268772650E-02 -0.5728528619932E-02
 0.8539605048927E-02 -0.6084041172429E-02
 0.9145398357642E-02 -0.6442175239797E-02
 0.9740358626880E-02 -0.6802411521394E-02
 0.1031766162256E-01 -0.7164342714570E-02
 0.1086982428449E-01 -0.7527510472658E-02
 0.1138859369476E-01 -0.7891349960044E-02
 0.1186483609903E-01 -0.8255185568906E-02
 0.1228844825463E-01 -0.8618278776732E-02
 0.1264834503034E-01 -0.8979997382368E-02
 0.1293238684673E-01 -0.9339881316600E-02
 0.1312696053143E-01 -0.9697573794672E-02
 0.1321690723629E-01 -0.1005333056541E-01
 0.1318595051546E-01 -0.1040895006947E-01
 0.1301820714235E-01 -0.1076917041522E-01
 0.1270176079109E-01 -0.1114330283929E-01
 0.1223528087849E-01 -0.1154605638232E-01
 0.1163743518651E-01 -0.1199524929648E-01
 0.1095509008571E-01 -0.1250410707312E-01
 0.5261907169483E-05 -0.1930926798675E-03
 0.5136782044396E-04 -0.3932317545649E-03
 0.1384940167931E-03 -0.5997843162848E-03
 0.2663475149368E-03 -0.8121819109527E-03
 0.4340526600735E-03 -0.1030063203733E-02
 0.6403058272053E-03 -0.1253361015652E-02
 0.8835969029270E-03 -0.1482272892171E-02
 0.1162373357053E-02 -0.1717177444505E-02
 0.1475127446085E-02 -0.1958554181243E-02
 0.1820429719186E-02 -0.2206927866918E-02
 0.2196932486663E-02 -0.2462834933746E-02
 0.2603352512385E-02 -0.2726800228308E-02
 0.3038452555940E-02 -0.2999325067315E-02
 0.3501003261713E-02 -0.3280867017775E-02
 0.3989698012995E-02 -0.3571793303880E-02
 0.4503149451682E-02 -0.3872385404818E-02
 0.5039707743939E-02 -0.4182745495748E-02
 0.5597348900098E-02 -0.4502765115781E-02
 0.6173518966337E-02 -0.4832090768044E-02
 0.6764974533913E-02 -0.5169864115938E-02
 0.7367580205488E-02 -0.5513763518613E-02
 0.7976499622458E-02 -0.5861345793612E-02
 0.8586361705030E-02 -0.6210937792520E-02
 0.9191328701708E-02 -0.6561569950008E-02
 0.9785092961883E-02 -0.6912664413173E-02
 0.1036080388282E-01 -0.7263769140857E-02
 0.1091096228962E-01 -0.7614407554279E-02
 0.1142732809727E-01 -0.7964028976822E-02
 0.1190082731868E-01 -0.8312009865413E-02
 0.1232148654926E-01 -0.8657711268258E-02
 0.1267846291373E-01 -0.9000673687688E-02
 0.1296006833225E-01 -0.9340752107318E-02
 0.1315352577568E-01 -0.9678106079559E-02
 0.1324515291480E-01 -0.1001373137565E-01
 0.1322112703080E-01 -0.1035032502699E-01
 0.1306931129317E-01 -0.1069340409058E-01
 0.1278278746498E-01 -0.1105230604863E-01
 0.1236542593578E-01 -0.1144010205312E-01
 0.1183857499010E-01 -0.1187082158823E-01
 0.1124529486472E-01 -0.1235302328088E-01
 0.9702829919238E-05 -0.2027239266064E-03
 0.5977302501219E-04 -0.4124816513506E-03
 0.1503690954536E-03 -0.6286636150607E-03
 0.2812208150246E-03 -0.8507304587560E-03
 0.4515453553412E-03 -0.1078312566782E-02
 0.6601595021107E-03 -0.1311284375226E-02
 0.9056596020333E-03 -0.1549753247632E-02
 0.1186569626774E-02 -0.1793997857202E-02
 0.1501429471010E-02 -0.2044399813377E-02
 0.1848834853827E-02 -0.2301390410044E-02
 0.2227446517860E-02 -0.2565414663399E-02
 0.2635976291551E-02 -0.2836903990010E-02
 0.3073169667323E-02 -0.3116260235016E-02
 0.3537766676710E-02 -0.3403831876007E-02
 0.4028414420505E-02 -0.3699865280557E-02
 0.4543662327461E-02 -0.4004511562829E-02
 0.5081782485885E-02 -0.4317738133514E-02
 0.5640668019996E-02 -0.4639307749114E-02
 0.6217694482457E-02 -0.4968754549150E-02
 0.6809581147440E-02 -0.5305148173868E-02
 0.7412211946504E-02 -0.5646202105709E-02
 0.8020797689215E-02 -0.5989523010062E-02
 0.8630007610866E-02 -0.6333442668257E-02
 0.9234024064473E-02 -0.6676962753540E-02
 0.9826543177894E-02 -0.7019471759767E-02
 0.1040071581353E-01 -0.7360502232023E-02
 0.1094906014476E-01 -0.7699593916139E-02
 0.1146338857491E-01 -0.8036251715881E-02
 0.1193473576389E-01 -0.8369954147146E-02
 0.1235332176694E-01 -0.8700220766385E-02
 0.1270863124478E-01 -0.9026829921644E-02
 0.1298953656067E-01 -0.9350010766308E-02
 0.1318421182242E-01 -0.9670465517005E-02
 0.1328052395525E-01 -0.9989882804582E-02
 0.1326702498371E-01 -0.1031168522980E-01
 0.1313489759090E-01 -0.1064184526924E-01
 0.1288121026601E-01 -0.1098935234797E-01
 0.1251339402931E-01 -0.1136553441962E-01
 0.1205378697846E-01 -0.1178121203019E-01
 0.1154132676826E-01 -0.1224150129536E-01
 0.1412538097677E-04 -0.2122124868658E-03
 0.6814273446718E-04 -0.4314314485656E-03
 0.1622127983672E-03 -0.6570651280660E-03
 0.2960901180541E-03 -0.8885942874220E-03
 0.4690678716411E-03 -0.1125641682605E-02
 0.6800641672856E-03 -0.1368033296206E-02
 0.9277697017051E-03 -0.1615797601121E-02
 0.1210779845987E-02 -0.1869120736957E-02
 0.1527680988934E-02 -0.2128289238769E-02
 0.1877094345750E-02 -0.2393640605801E-02
 0.2257689603837E-02 -0.2665526619007E-02
 0.2668173899685E-02 -0.2944283304130E-02
 0.3107275476074E-02 -0.3230212097026E-02
 0.3573704020930E-02 -0.3523553674735E-02
 0.4066061884619E-02 -0.3824438367276E-02
 0.4582839525534E-02 -0.4132896306094E-02
 0.5122239336848E-02 -0.4448774344311E-02
 0.5682084110487E-02 -0.4771724394651E-02
 0.6259693396886E-02 -0.5101188043338E-02
 0.6851761997492E-02 -0.5436181589114E-02
 0.7454201208107E-02 -0.5774463827931E-02
 0.8062274624655E-02 -0.6113700049144E-02
 0.8670700156385E-02 -0.6452240753341E-02
 0.9273694689647E-02 -0.6789078183946E-02
 0.9864979379063E-02 -0.7123590835973E-02
 0.1043773395096E-01 -0.7455323122197E-02
 0.1098452681933E-01 -0.7783862314636E-02
 0.1149726172157E-01 -0.8108804876210E-02
 0.1196712892472E-01 -0.8429772580068E-02
 0.1238460028747E-01 -0.8746488521030E-02
 0.1273956047261E-01 -0.9059012722289E-02
 0.1302152471394E-01 -0.9367976959490E-02
 0.1321968638242E-01 -0.9674614167515E-02
 0.1332346262503E-01 -0.9981221941986E-02
 0.1332361510349E-01 -0.1029176485219E-01
 0.1321417069589E-01 -0.1061240191543E-01
 0.1299527663371E-01 -0.1095153897210E-01
 0.1267666638564E-01 -0.1131880263968E-01
 0.1228059110603E-01 -0.1172234486250E-01
 0.1184194910310E-01 -0.1216472557134E-01
 0.1852206091175E-04 -0.2215583811394E-03
 0.7646641724237E-04 -0.4500831792028E-03
 0.1740079311375E-03 -0.6849972701170E-03
 0.3109272144679E-03 -0.9257949133262E-03
 0.4865807604482E-03 -0.1172090524185E-02
 0.6999719892136E-03 -0.1423668131082E-02
 0.9498743372201E-03 -0.1680486052990E-02
 0.1234948584233E-02 -0.1942644555626E-02
 0.1553825409363E-02 -0.2210338437926E-02
 0.1905151130187E-02 -0.2483812141557E-02
 0.2287604595741E-02 -0.2763323622669E-02
 0.2699888595662E-02 -0.3049112827005E-02
 0.3140714624632E-02 -0.3341381110161E-02
 0.3608763155326E-02 -0.3640263800023E-02
 0.4102594468859E-02 -0.3945780824743E-02
 0.4620645455533E-02 -0.4257850822906E-02
 0.5161057891248E-02 -0.4576213382060E-02
 0.5721596669149E-02 -0.4900425601416E-02
 0.6299539140686E-02 -0.5229853818181E-02
 0.6891568004357E-02 -0.5563477169631E-02
 0.7493630254609E-02 -0.5899108511535E-02
 0.8101048836881E-02 -0.6234479715081E-02
 0.8708599576229E-02 -0.6567972894141E-02
 0.9310548643815E-02 -0.6898588960452E-02
 0.9900663180327E-02 -0.7225718325193E-02
 0.1047217842734E-01 -0.7548942011172E-02
 0.1101774480057E-01 -0.7867922194758E-02
 0.1152939442504E-01 -0.8182377020348E-02
 0.1199851666345E-01 -0.8492103755899E-02
 0.1241588623485E-01 -0.8797060754331E-02
 0.1277184562067E-01 -0.9097614610415E-02
 0.1305660870735E-01 -0.9394803468029E-02
 0.1326041425542E-01 -0.9690352596841E-02
 0.1337417484568E-01 -0.9987067040736E-02
 0.1339064460710E-01 -0.1028928091295E-01
 0.1330621919231E-01 -0.1060313277243E-01
 0.1312334704464E-01 -0.1093631730669E-01
 0.1285312111400E-01 -0.1129688520932E-01
 0.1251703772306E-01 -0.1169079371415E-01
 0.1214622844395E-01 -0.1211867987373E-01
 0.2288586893232E-04 -0.2307636582681E-03
 0.8473365962529E-04 -0.4684426642087E-03
 0.1857385485069E-03 -0.7124728169293E-03
 0.3257073573115E-03 -0.9623570899800E-03
 0.5040498662291E-03 -0.1217700340421E-02
 0.7198413062946E-03 -0.1478248883225E-02
 0.9719270170663E-03 -0.1743897597436E-02
 0.1259026762377E-02 -0.2014666714228E-02
 0.1579812553619E-02 -0.2290662859318E-02
 0.1932954841501E-02 -0.2572038946403E-02
 0.2317141612834E-02 -0.2858959538549E-02
 0.2731071767199E-02 -0.3151568897417E-02
 0.3173441005398E-02 -0.3449969680104E-02
 0.3642902471626E-02 -0.3754195206061E-02
 0.4137978003187E-02 -0.4064161139295E-02
 0.4657057187226E-02 -0.4379683959750E-02
 0.5198230675461E-02 -0.4700408288851E-02
 0.5759217667221E-02 -0.5025810708532E-02
 0.6337266515292E-02 -0.5355197458321E-02
 0.6929059809478E-02 -0.5687524571317E-02
 0.7530588836116E-02 -0.6020666501762E-02
 0.8137243220231E-02 -0.6352428878903E-02
 0.8743866629112E-02 -0.6681237290022E-02
 0.9344789425095E-02 -0.7006117907269E-02
 0.9933845217670E-02 -0.7326492891455E-02
 0.1050435037044E-01 -0.7642001736087E-02
 0.1104906741913E-01 -0.7952404791998E-02
 0.1156019130185E-01 -0.8257566026537E-02
 0.1202934931362E-01 -0.8557481774341E-02
 0.1244766153717E-01 -0.8852365277649E-02
 0.1280597084761E-01 -0.9142898689436E-02
 0.1309522060342E-01 -0.9430511676813E-02
 0.1330668587114E-01 -0.9717367298814E-02
 0.1343268001340E-01 -0.1000667261762E-01
 0.1346770735120E-01 -0.1030298132804E-01
 0.1341008613870E-01 -0.1061226238590E-01
 0.1326392189646E-01 -0.1094144937033E-01
 0.1304097381105E-01 -0.1129718542482E-01
 0.1276158017035E-01 -0.1168364137543E-01
 0.1245344315145E-01 -0.1209997761809E-01
 0.2721046078224E-04 -0.2398317652667E-03
 0.9293462176760E-04 -0.4865183741654E-03
 0.1973901318936E-03 -0.7395077237393E-03
 0.3404089442586E-03 -0.9983081090832E-03
 0.5214457823244E-03 -0.1262513551722E-02
 0.7396361643210E-03 -0.1531835444351E-02
 0.9938873574106E-03 -0.1806110397093E-02
 0.1282971563802E-02 -0.2085283665756E-02
 0.1605598673804E-02 -0.2369377308703E-02
 0.1960461870690E-02 -0.2658454814927E-02
 0.2346258074883E-02 -0.2952588610905E-02
 0.2761682871167E-02 -0.3251828568696E-02
 0.3205417530114E-02 -0.3556180875429E-02
 0.3676090402132E-02 -0.3865580832918E-02
 0.4172189258543E-02 -0.4179846235231E-02
 0.4692063266232E-02 -0.4498700406268E-02
 0.5233761656613E-02 -0.4821704289228E-02
 0.5794969849136E-02 -0.5148266672759E-02
 0.6372919863244E-02 -0.5477646969741E-02
 0.6964305854543E-02 -0.5808790317802E-02
 0.7565172192540E-02 -0.6139639256385E-02
 0.8170983103995E-02 -0.6468079580095E-02
 0.8776660510696E-02 -0.6792591078126E-02
 0.9376613851799E-02 -0.7112240090213E-02
 0.9964763025102E-02 -0.7426498059584E-02
 0.1053452980688E-01 -0.7735081727539E-02
 0.1107881689152E-01 -0.8037868675293E-02
 0.1159001317564E-01 -0.8334886985573E-02
 0.1206001727797E-01 -0.8626347610837E-02
 0.1248032800526E-01 -0.8912727835004E-02
 0.1284231637158E-01 -0.9195021693043E-02
 0.1313766394205E-01 -0.9475022606491E-02
 0.1335864526583E-01 -0.9755268914483E-02
 0.1349885407597E-01 -0.1003926929684E-01
 0.1355429720802E-01 -0.1033167366361E-01
 0.1352481400246E-01 -0.1063818137161E-01
 0.1341564637559E-01 -0.1096496619384E-01
 0.1323872122492E-01 -0.1131744790524E-01
 0.1301298501516E-01 -0.1169837010109E-01
 0.1276302682770E-01 -0.1210573573655E-01
 0.3149023345186E-04 -0.2487671180197E-03
 0.1010603454593E-03 -0.5043206399770E-03
 0.2089497494843E-03 -0.7661202517892E-03
 0.3550133299042E-03 -0.1033677202629E-02
 0.5387434554429E-03 -0.1306573559911E-02
 0.7593259322013E-03 -0.1584487678540E-02
 0.1015720824169E-02 -0.1867201924947E-02
 0.1306746308453E-02 -0.2154590952727E-02
 0.1631146412571E-02 -0.2446595795747E-02
 0.1987635352472E-02 -0.2743193022414E-02
 0.2374918657085E-02 -0.3044364826014E-02
 0.2791689293321E-02 -0.3350068704328E-02
 0.3236615824687E-02 -0.3660217259472E-02
 0.3708304879197E-02 -0.3974652212381E-02
 0.4205215119888E-02 -0.4293099949458E-02
 0.4725662595640E-02 -0.4615199195327E-02
 0.5267664882626E-02 -0.4940437505508E-02
 0.5828885206835E-02 -0.5268167170363E-02
 0.6406551434096E-02 -0.5597612379178E-02
 0.6997380664728E-02 -0.5927717938049E-02
 0.7597479268692E-02 -0.6256500012334E-02
 0.8202394423008E-02 -0.6581930203216E-02
 0.8807137012046E-02 -0.6902552035088E-02
 0.9406210244111E-02 -0.7217485131743E-02
 0.9993639285363E-02 -0.7526265333025E-02
 0.1056297406452E-01 -0.7828702244408E-02
 0.1110728304962E-01 -0.8124805572043E-02
 0.1161917650797E-01 -0.8414780295869E-02
 0.1209085190222E-01 -0.8699060399157E-02
 0.1251421096421E-01 -0.8978387673232E-02
 0.1288116690902E-01 -0.9254054855407E-02
 0.1318412967850E-01 -0.9528183299455E-02
 0.1341631600498E-01 -0.9803622236904E-02
 0.1357246543485E-01 -0.1008409174452E-01
 0.1364984748765E-01 -0.1037424109811E-01
 0.1364947202819E-01 -0.1067943877562E-01
 0.1357730363725E-01 -0.1100513279454E-01
 0.1344508873562E-01 -0.1135569408294E-01
 0.1327026704237E-01 -0.1173276815742E-01
 0.1307454310750E-01 -0.1213347076098E-01
 0.3572036563245E-04 -0.2575747946220E-03
 0.1091029616822E-03 -0.5218610991178E-03
 0.2204061850845E-03 -0.7923303174001E-03
 0.3695047132793E-03 -0.1068495040448E-02
 0.5559218954481E-03 -0.1349924520649E-02
 0.7788849847794E-03 -0.1636265403054E-02
 0.1037398488934E-02 -0.1927249004940E-02
 0.1330320301478E-02 -0.2222683174745E-02
 0.1656424715315E-02 -0.2522431345975E-02
 0.2014445093172E-02 -0.2826385937746E-02
 0.2403095180181E-02 -0.3134441304416E-02
 0.2821066143534E-02 -0.3446465142599E-02
 0.3267015869873E-02 -0.3762279840343E-02
 0.3739532766765E-02 -0.4081638249925E-02
 0.4237051775629E-02 -0.4404181738044E-02
 0.4757863389192E-02 -0.4729472469996E-02
 0.5299963244387E-02 -0.5056933938839E-02
 0.5861003610103E-02 -0.5385871926949E-02
 0.6438219925189E-02 -0.5715485503107E-02
 0.7028363320075E-02 -0.6044728217825E-02
 0.7627611131822E-02 -0.6371694532903E-02
 0.8231602109468E-02 -0.6694446732827E-02
 0.8835446928066E-02 -0.7011600381356E-02
 0.9433756902679E-02 -0.7322339665114E-02
 0.1002068045130E-01 -0.7626277481939E-02
 0.1058991665576E-01 -0.7923328786267E-02
 0.1113472270689E-01 -0.8213646326453E-02
 0.1164795366433E-01 -0.8497619740667E-02
 0.1212212738222E-01 -0.8775908334544E-02
 0.1254956399257E-01 -0.9049511997919E-02
 0.1292272091314E-01 -0.9320002353668E-02
 0.1323471178505E-01 -0.9589788748837E-02
 0.1347962428277E-01 -0.9861969232127E-02
 0.1365320401214E-01 -0.1014039767437E-01
 0.1375375948067E-01 -0.1042964992173E-01
 0.1378317134103E-01 -0.1073473161419E-01
 0.1374780421083E-01 -0.1106041659184E-01
 0.1365898168458E-01 -0.1141018693422E-01
 0.1353262966547E-01 -0.1178483898970E-01
 0.1338770452939E-01 -0.1218099640236E-01
 0.3989683198174E-04 -0.2662602787864E-03
 0.1170558347336E-03 -0.5391523301357E-03
 0.2317500280240E-03 -0.8181589868417E-03
 0.3838700694934E-03 -0.1102793316601E-02
 0.5729639566568E-03 -0.1392611104092E-02
 0.7982924393214E-03 -0.1687228302880E-02
 0.1058896800373E-02 -0.1986327778000E-02
 0.1353668664938E-02 -0.2289653901500E-02
 0.1681408704746E-02 -0.2596995786748E-02
 0.2040867449934E-02 -0.2908164640037E-02
 0.2430766447769E-02 -0.3222969728266E-02
 0.2849796001169E-02 -0.3541191932719E-02
 0.3296605604979E-02 -0.3862567135683E-02
 0.3769769281102E-02 -0.4186764168658E-02
 0.4267703935511E-02 -0.4513345586422E-02
 0.4788682198321E-02 -0.4841804477118E-02
 0.5330687351812E-02 -0.5171508672121E-02
 0.5891371578493E-02 -0.5501726238753E-02
 0.6467989182243E-02 -0.5831639864101E-02
 0.7057336102783E-02 -0.6160219557227E-02
 0.7655669583645E-02 -0.6485641934445E-02
 0.8258728702385E-02 -0.6806064081635E-02
 0.8861734714532E-02 -0.7120180669142E-02
 0.9459420880514E-02 -0.7427249888395E-02
 0.1004607572593E-01 -0.7726971937880E-02
 0.1061556661176E-01 -0.8019376589781E-02
 0.1116135959600E-01 -0.8304766858724E-02
 0.1167657388398E-01 -0.8583720368275E-02
 0.1215406346293E-01 -0.8857118980279E-02
 0.1258657437177E-01 -0.9126209111691E-02
 0.1296710004596E-01 -0.9392817280436E-02
 0.1328942190042E-01 -0.9659599774948E-02
 0.1354841890007E-01 -0.9929846345549E-02
 0.1374070431960E-01 -0.1020748027381E-01
 0.1386542245938E-01 -0.1049695181219E-01
 0.1392507299044E-01 -0.1080289306549E-01
 0.1392617076181E-01 -0.1112946302618E-01
 0.1387945940611E-01 -0.1147939642939E-01
 0.1379936541253E-01 -0.1185281483731E-01
 0.1370247275759E-01 -0.1224615754323E-01
 0.4401348281761E-04 -0.2748189994019E-03
 0.1249014650268E-03 -0.5561775309716E-03
 0.2429479983085E-03 -0.8435709467478E-03
 0.3980557258320E-03 -0.1136512308041E-02
 0.5897919297046E-03 -0.1434543743422E-02
 0.8174442193898E-03 -0.1737251616424E-02
 0.1080084184834E-02 -0.2044272879899E-02
 0.1376632049025E-02 -0.2355291882149E-02
 0.1705911550473E-02 -0.2670027200660E-02
 0.2066688872712E-02 -0.2988212675450E-02
 0.2457693450191E-02 -0.3309576473437E-02
 0.2877616266798E-02 -0.3633817088629E-02
 0.3325101441448E-02 -0.3960589122375E-02
 0.3798713247938E-02 -0.4289483691104E-02
 0.4296857015781E-02 -0.4619992024040E-02
 0.4817795816388E-02 -0.4951546613697E-02
 0.5359510500662E-02 -0.5283468721124E-02
 0.5919664067107E-02 -0.5614997876713E-02
 0.6495540744266E-02 -0.5945309207987E-02
 0.7083991598724E-02 -0.6273396664114E-02
 0.7681362014913E-02 -0.6597522487542E-02
 0.8283499128119E-02 -0.6915942066733E-02
 0.8885743938495E-02 -0.7227435127602E-02
 0.9482962951299E-02 -0.7531341462483E-02
 0.1006959793549E-01 -0.7827456064100E-02
 0.1063969849412E-01 -0.8115929181921E-02
 0.1118695275052E-01 -0.8397216327221E-02
 0.1170475421723E-01 -0.8672080258058E-02
 0.1218629679351E-01 -0.8941615556612E-02
 0.1262474484687E-01 -0.9207296411589E-02
 0.1301360157016E-01 -0.9471174285760E-02
 0.1334726050495E-01 -0.9736108797568E-02
 0.1362129496926E-01 -0.1000552799068E-01
 0.1383303937197E-01 -0.1028337205758E-01
 0.1398228019760E-01 -0.1057393257191E-01
 0.1407191830438E-01 -0.1088147761060E-01
 0.1410842765781E-01 -0.1120962201133E-01
 0.1410187818284E-01 -0.1156047872374E-01
 0.1406528398023E-01 -0.1193366383481E-01
 0.1401311654019E-01 -0.1232536738507E-01
 0.4807100282418E-04 -0.2832681008816E-03
 0.1326483238582E-03 -0.5729813341167E-03
 0.2540211998739E-03 -0.8686477130951E-03
 0.4120991895495E-03 -0.1169779968207E-02
 0.6064628620411E-03 -0.1475906394571E-02
 0.8364199085221E-03 -0.1786584520584E-02
 0.1101065687456E-02 -0.2101407263109E-02
 0.1399343690882E-02 -0.2420001586772E-02
 0.1730097076034E-02 -0.2742018483340E-02
 0.2092105763458E-02 -0.3067117436892E-02
 0.2484106760712E-02 -0.3394948604818E-02
 0.2904792908245E-02 -0.3725131470717E-02
 0.3352805603198E-02 -0.4057243280485E-02
 0.3826703592767E-02 -0.4390802113413E-02
 0.4324886534643E-02 -0.4725233353224E-02
 0.4845615492576E-02 -0.5059915026980E-02
 0.5386877859849E-02 -0.5394128291389E-02
 0.5946357327083E-02 -0.5727090562249E-02
 0.6521378212649E-02 -0.6057975478920E-02
 0.7108856505626E-02 -0.6385805959364E-02
 0.7705234096045E-02 -0.6708932033548E-02
 0.8306474510684E-02 -0.7025709809395E-02
 0.8908048417067E-02 -0.7335008456013E-02
 0.9504967595413E-02 -0.7636254990058E-02
 0.1009184085844E-01 -0.7929344620410E-02
 0.1066291466529E-01 -0.8214551859089E-02
 0.1121211312830E-01 -0.8492485499603E-02
 0.1173311513902E-01 -0.8764089801226E-02
 0.1221945958510E-01 -0.9030662445172E-02
 0.1266472374838E-01 -0.9293888361920E-02
 0.1306289838937E-01 -0.9556017985967E-02
 0.1340894161821E-01 -0.9820077940080E-02
 0.1369903963899E-01 -0.1008959226362E-01
 0.1393112811795E-01 -0.1036847923287E-01
 0.1410548240809E-01 -0.1066085096887E-01
 0.1422523875857E-01 -0.1097062539201E-01
 0.1429669138304E-01 -0.1130093168037E-01
 0.1432917837494E-01 -0.1165336014485E-01
 0.1433437086686E-01 -0.1202711389287E-01
 0.1432481326149E-01 -0.1241825253454E-01
 0.5206784897363E-04 -0.2916139364218E-03
 0.1402938220164E-03 -0.5895776359681E-03
 0.2649660581009E-03 -0.8934120045258E-03
 0.4259955962543E-03 -0.1202629294891E-02
 0.6229703755286E-03 -0.1516743944797E-02
 0.8552117793930E-03 -0.1835285360401E-02
 0.1121832825313E-02 -0.2157804080872E-02
 0.1421795241020E-02 -0.2483872084033E-02
 0.1753958101085E-02 -0.2813075576362E-02
 0.2117113210099E-02 -0.3145002675602E-02
 0.2510004887190E-02 -0.3479228690777E-02
 0.2931329086180E-02 -0.3815297557978E-02
 0.3379727243685E-02 -0.4152713107916E-02
 0.3853756894383E-02 -0.4490924924841E-02
 0.4351817943132E-02 -0.4829297683306E-02
 0.4872176875439E-02 -0.5167160509372E-02
 0.5412836321986E-02 -0.5503760154449E-02
 0.5971510148251E-02 -0.5838297423762E-02
 0.6545572505352E-02 -0.6169949510005E-02
 0.7132013732275E-02 -0.6497772291095E-02
 0.7727380372865E-02 -0.6820205115448E-02
 0.8327760501682E-02 -0.7135706574247E-02
 0.8928764002468E-02 -0.7443238592694E-02
 0.9525559199257E-02 -0.7742319489839E-02
 0.1011293447714E-01 -0.8032948179285E-02
 0.1068534589561E-01 -0.8315524999548E-02
 0.1123696492453E-01 -0.8590810412819E-02
 0.1176176358300E-01 -0.8859924152036E-02
 0.1225362673308E-01 -0.9124355333279E-02
 0.1270653456120E-01 -0.9385981478447E-02
 0.1311493882740E-01 -0.9647226594654E-02
 0.1347431206614E-01 -0.9911251278864E-02
 0.1378137389688E-01 -0.1018164001971E-01
 0.1403455123822E-01 -0.1046226002525E-01
 0.1423447539735E-01 -0.1075703337266E-01
 0.1438438269640E-01 -0.1106954778926E-01
 0.1449028400108E-01 -0.1140250297103E-01
 0.1456075477236E-01 -0.1175704946314E-01
 0.1460619567139E-01 -0.1213206219161E-01
 0.1463745204960E-01 -0.1252352663442E-01
 0.5600324883857E-04 -0.2998628906796E-03
 0.1478367286826E-03 -0.6059804189590E-03
 0.2757809289222E-03 -0.9178866053325E-03
 0.4397426631522E-03 -0.1235093218917E-02
 0.6393113766190E-03 -0.1557100939207E-02
 0.8738160598388E-03 -0.1883411744239E-02
 0.1142381642940E-02 -0.2213535295558E-02
 0.1443983335429E-02 -0.2546990782330E-02
 0.1777492792335E-02 -0.2883302282265E-02
 0.2141711937655E-02 -0.3221989482368E-02
 0.2535392204327E-02 -0.3562556016104E-02
 0.2957233985209E-02 -0.3904473751562E-02
 0.3405881587736E-02 -0.4247176993806E-02
 0.3879895685509E-02 -0.4590051189792E-02
 0.4377682303314E-02 -0.4932405077516E-02
 0.4897520606207E-02 -0.5273523895005E-02
 0.5437436850336E-02 -0.5612624966199E-02
 0.5995184156370E-02 -0.5948897137925E-02
 0.6568195821422E-02 -0.6281525243601E-02
 0.7153545569226E-02 -0.6609601150547E-02
 0.7747892480156E-02 -0.6931654468946E-02
 0.8347457083045E-02 -0.7246247417972E-02
 0.8947997580392E-02 -0.7552436977463E-02
 0.9544849301142E-02 -0.7849835407659E-02
 0.1013299145871E-01 -0.8138547050639E-02
 0.1070710065349E-01 -0.8419097670585E-02
 0.1126160469792E-01 -0.8692395766112E-02
 0.1179077351059E-01 -0.8959728661110E-02
 0.1228883544732E-01 -0.9222763904891E-02
 0.1275016000215E-01 -0.9483553154922E-02
 0.1316963044825E-01 -0.9744669942700E-02
 0.1354318282738E-01 -0.1000937953624E-01
 0.1386799438708E-01 -0.1028129774195E-01
 0.1414288384236E-01 -0.1056421981233E-01
 0.1436872436179E-01 -0.1086187496733E-01
 0.1454874290734E-01 -0.1117754452919E-01
 0.1468859094915E-01 -0.1151355120157E-01
 0.1479607004637E-01 -0.1187067780210E-01
 0.1488039101891E-01 -0.1224754535202E-01
 0.1495090317805E-01 -0.1264011078731E-01
 0.5987718089426E-04 -0.3080213460291E-03
 0.1552771654842E-03 -0.6222036449900E-03
 0.2864660880872E-03 -0.9420942190900E-03
 0.4533406446436E-03 -0.1267204438657E-02
 0.6554859614258E-03 -0.1597021419748E-02
 0.8922327928460E-03 -0.1931020397636E-02
 0.1162712543323E-02 -0.2268671535655E-02
 0.1465909409064E-02 -0.2609443266025E-02
 0.1800704460238E-02 -0.2952800055225E-02
 0.2165908078817E-02 -0.3298196015937E-02
 0.2560278683035E-02 -0.3645066244052E-02
 0.2982522486141E-02 -0.3992813980932E-02
 0.3431289534917E-02 -0.4340807794315E-02
 0.3905147983703E-02 -0.4688373132809E-02
 0.4402515753718E-02 -0.5034767197403E-02
 0.4921691735281E-02 -0.5379235818949E-02
 0.5460733868016E-02 -0.5720971195426E-02
 0.6017443196539E-02 -0.6059154077219E-02
 0.6589321038432E-02 -0.6392980142390E-02
 0.7173533122023E-02 -0.6721579387298E-02
 0.7766858639890E-02 -0.7043572083905E-02
 0.8365658173005E-02 -0.7357624645084E-02
 0.8965846844027E-02 -0.7662890459172E-02
 0.9562936614674E-02 -0.7959077044198E-02
 0.1015210753548E-01 -0.8246394307858E-02
 0.1072826598503E-01 -0.8525491332738E-02
 0.1128610293300E-01 -0.8797419365260E-02
 0.1182018837812E-01 -0.9063624065507E-02
 0.1232508885592E-01 -0.9325937667084E-02
 0.1279554692839E-01 -0.9586567826838E-02
 0.1322684623738E-01 -0.9848215412886E-02
 0.1361533606438E-01 -0.1011422492875E-01
 0.1395858030474E-01 -0.1038822024750E-01
 0.1425570063874E-01 -0.1067391067653E-01
 0.1450771501571E-01 -0.1097483560886E-01
 0.1471775329460E-01 -0.1129399577764E-01
 0.1489105298974E-01 -0.1163338544642E-01
 0.1503464530701E-01 -0.1199348285668E-01
 0.1515663348377E-01 -0.1237271759976E-01
 0.1526504296917E-01 -0.1276705374191E-01
 0.6369035270558E-04 -0.3160956460398E-03
 0.1626165870586E-03 -0.6382611702119E-03
 0.2970237061033E-03 -0.9660573399081E-03
 0.4667922766354E-03 -0.1298995264898E-02
 0.6714973143907E-03 -0.1636548759806E-02
 0.9104656901146E-03 -0.1978166994707E-02
 0.1182830106256E-02 -0.2323281915897E-02
 0.1487579487311E-02 -0.2671313085908E-02
 0.1823601324571E-02 -0.3021667742238E-02
 0.2189712907157E-02 -0.3373737181565E-02
 0.2584679580430E-02 -0.3726891029822E-02
 0.3007214801778E-02 -0.4080467262823E-02
 0.3455977234123E-02 -0.4433772361023E-02
 0.3929546805075E-02 -0.4786075672443E-02
 0.4426358971392E-02 -0.5136586887125E-02
 0.4944739149448E-02 -0.5484516401101E-02
 0.5482784671145E-02 -0.5829034956059E-02
 0.6038352753177E-02 -0.6169318336155E-02
 0.6609021159632E-02 -0.6504575451620E-02
 0.7192055808609E-02 -0.6833975747275E-02
 0.7784363239239E-02 -0.7156230059219E-02
 0.8382451327251E-02 -0.7470109025694E-02
 0.8982400176745E-02 -0.7774862928988E-02
 0.9579907169989E-02 -0.8070294662514E-02
 0.1017036200397E-01 -0.8356718430703E-02
 0.1074890849630E-01 -0.8634903071475E-02
 0.1131050565905E-01 -0.8906035968074E-02
 0.1185002356287E-01 -0.9171710909589E-02
 0.1236235939155E-01 -0.9433910795176E-02
 0.1284261074916E-01 -0.9694981921074E-02
 0.1328642990073E-01 -0.9957732462319E-02
 0.1369053082765E-01 -0.1022556452614E-01
 0.1405279857606E-01 -0.1050209204621E-01
 0.1437257926608E-01 -0.1079093004989E-01
 0.1465095366460E-01 -0.1109543539719E-01
 0.1489088478328E-01 -0.1141835480351E-01
 0.1509715842000E-01 -0.1176139859270E-01
 0.1527604913197E-01 -0.1212479510233E-01
 0.1543463190076E-01 -0.1250683320075E-01
 0.1557974843818E-01 -0.1290350802921E-01
 0.6744417899827E-04 -0.3240920665785E-03
 0.1698577577813E-03 -0.6541666842360E-03
 0.3074578216645E-03 -0.9897981622214E-03
 0.4801027289540E-03 -0.1330497513591E-02
 0.6873516268714E-03 -0.1675725554178E-02
 0.9285220154090E-03 -0.2024906052821E-02
 0.1202742942582E-02 -0.2377433933325E-02
 0.1509004017263E-02 -0.2732681645093E-02
 0.1846196323976E-02 -0.3090001445728E-02
 0.2213142620691E-02 -0.3448724462006E-02
 0.2608615189920E-02 -0.3808157820558E-02
 0.3031336186187E-02 -0.4167577481924E-02
 0.3479975748292E-02 -0.4526231325271E-02
 0.3953129786963E-02 -0.4883336242184E-02
 0.4449256762259E-02 -0.5238058070879E-02
 0.4966715145641E-02 -0.5589575263114E-02
 0.5503649004738E-02 -0.5937040186127E-02
 0.6057979547188E-02 -0.6279626112284E-02
 0.6627368951911E-02 -0.6616556819499E-02
 0.7209191061008E-02 -0.6947041768004E-02
 0.7800486626191E-02 -0.7269881809508E-02
 0.8397917670237E-02 -0.7583951354049E-02
 0.8997736775618E-02 -0.7888597275267E-02
 0.9595834703026E-02 -0.8183716885914E-02
 0.1018781847253E-01 -0.8469726189637E-02
 0.1076907557251E-01 -0.8747508997129E-02
 0.1133483627087E-01 -0.9018381194706E-02
 0.1188026891802E-01 -0.9284073895442E-02
 0.1240059218001E-01 -0.9546706748719E-02
 0.1289123964939E-01 -0.9808748420232E-02
 0.1334820073506E-01 -0.1007309665556E-01
 0.1376850809506E-01 -0.1034319313824E-01
 0.1415030825224E-01 -0.1062262843695E-01
 0.1449310297821E-01 -0.1091491951929E-01
 0.1479796714581E-01 -0.1122325100839E-01
 0.1506764200783E-01 -0.1155014202532E-01
 0.1530643676365E-01 -0.1189705924069E-01
 0.1551988937981E-01 -0.1226402769079E-01
 0.1571411950261E-01 -0.1264923524820E-01
 0.1589490030780E-01 -0.1304872462894E-01
 0.7114075834353E-04 -0.3320167898520E-03
 0.1770047210228E-03 -0.6699336553076E-03
 0.3177743029740E-03 -0.1013338496609E-02
 0.4932795451576E-03 -0.1361742398566E-02
 0.7030580035293E-03 -0.1714593497657E-02
 0.9464124538801E-03 -0.2071290801720E-02
 0.1222463529194E-02 -0.2431193323848E-02
 0.1530197672281E-02 -0.2793628033759E-02
 0.1868506891244E-02 -0.3157894325936E-02
 0.2236218085467E-02 -0.3523265681010E-02
 0.2632110548696E-02 -0.3888989581262E-02
 0.3054916602399E-02 -0.4254283090283E-02
 0.3503320682114E-02 -0.4618338792142E-02
 0.3975938780943E-02 -0.4980324508780E-02
 0.4471257630802E-02 -0.5339365531435E-02
 0.4987674993515E-02 -0.5694611405899E-02
 0.5523388636969E-02 -0.6045198663047E-02
 0.6076391141340E-02 -0.6390299896621E-02
 0.6644436602639E-02 -0.6729154698294E-02
 0.7225014057469E-02 -0.7061012424551E-02
 0.7815304947390E-02 -0.7384762990879E-02
 0.8412131879063E-02 -0.7699383691531E-02
 0.9011926834189E-02 -0.8004316983075E-02
 0.9610781103777E-02 -0.8299552691905E-02
 0.1020452565585E-01 -0.8585605064275E-02
 0.1078879661195E-01 -0.8863467098364E-02
 0.1135909730153E-01 -0.9134574788444E-02
 0.1191089117183E-01 -0.9400785458999E-02
 0.1243970810638E-01 -0.9664341976698E-02
 0.1294129826086E-01 -0.9927820392454E-02
 0.1341195766802E-01 -0.1019419259333E-01
 0.1384899470469E-01 -0.1046692513380E-01
 0.1425076361022E-01 -0.1074957572265E-01
 0.1461686204084E-01 -0.1104556309595E-01
 0.1494830175669E-01 -0.1135791195042E-01
 0.1524755944158E-01 -0.1168893943831E-01
 0.1551845247591E-01 -0.1203990461852E-01
 0.1576580558270E-01 -0.1241066835757E-01
 0.1599484856529E-01 -0.1279934837711E-01
 0.1621038245441E-01 -0.1320204635344E-01
 0.7478284956202E-04 -0.3398758837541E-03
 0.1840627658260E-03 -0.6855752874900E-03
 0.3279808058162E-03 -0.1036699704396E-02
 0.5063325822941E-03 -0.1392760447631E-02
 0.7186283736372E-03 -0.1753193289190E-02
 0.9641509904287E-03 -0.2117373079679E-02
 0.1242008055177E-02 -0.2484623948779E-02
 0.1551179168362E-02 -0.2854228899772E-02
 0.1890554741091E-02 -0.3225436448382E-02
 0.2258964593862E-02 -0.3597464823706E-02
 0.2655195164627E-02 -0.3969504590775E-02
 0.3077990417031E-02 -0.4340716889943E-02
 0.3526051846699E-02 -0.4710242129364E-02
 0.3998019494604E-02 -0.5077202194395E-02
 0.4492413410993E-02 -0.5440684797593E-02
 0.5007676571536E-02 -0.5799813196864E-02
 0.5542067018471E-02 -0.6153710125296E-02
 0.6093655641664E-02 -0.6501548763352E-02
 0.6660295483340E-02 -0.6842584834287E-02
 0.7239597572047E-02 -0.7176106850561E-02
 0.7828890113203E-02 -0.7501092484163E-02
 0.8425162302403E-02 -0.7816620644577E-02
 0.9025031864242E-02 -0.8122227739147E-02
 0.9624797000965E-02 -0.8417993372494E-02
 0.1022051829264E-01 -0.8704525576166E-02
 0.1080808435357E-01 -0.8982919942105E-02
 0.1138327223431E-01 -0.9254723638204E-02
 0.1194183627752E-01 -0.9521909010011E-02
 0.1247960670350E-01 -0.9786829187928E-02
 0.1299263099061E-01 -0.1005215401047E-01
 0.1347748277528E-01 -0.1032091631181E-01
 0.1393170661892E-01 -0.1059659580805E-01
 0.1435381654598E-01 -0.1088271117585E-01
 0.1474345456869E-01 -0.1118258555831E-01
 0.1510152199113E-01 -0.1149909728821E-01
 0.1543019788959E-01 -0.1183438594548E-01
 0.1573279964370E-01 -0.1218953489842E-01
 0.1601346324050E-01 -0.1256427343254E-01
 0.1627658680337E-01 -0.1295667301255E-01
 0.1652608108257E-01 -0.1336290185729E-01
 0.7837384771391E-04 -0.3476752848325E-03
 0.1910383907711E-03 -0.7011044851047E-03
 0.3380867270319E-03 -0.1059902642632E-02
 0.5192739466650E-03 -0.1423581430130E-02
 0.7340774002363E-03 -0.1791564546047E-02
 0.9817547871026E-03 -0.2163203236744E-02
 0.1261396266596E-02 -0.2537787685678E-02
 0.1571971077590E-02 -0.2914558322265E-02
 0.1912365653511E-02 -0.3292714634736E-02
 0.2281411618236E-02 -0.3671421862220E-02
 0.2677902740494E-02 -0.4049816245346E-02
 0.3100596096770E-02 -0.4427005824950E-02
 0.3548212933037E-02 -0.4802081765697E-02
 0.4019421150764E-02 -0.5174122905638E-02
 0.4512778924236E-02 -0.5542182032545E-02
 0.5026780039788E-02 -0.5905358348476E-02
 0.5559748987960E-02 -0.6262762372444E-02
 0.6109841454720E-02 -0.6613568621929E-02
 0.6675015978841E-02 -0.6957048701360E-02
 0.7253011899003E-02 -0.7292528981401E-02
 0.7841309845886E-02 -0.7619073275485E-02
 0.8437071168209E-02 -0.7935860510775E-02
 0.9037105107279E-02 -0.8242518869897E-02
 0.9637922429584E-02 -0.8539214284325E-02
 0.1023581812739E-01 -0.8826643357881E-02
 0.1082693623182E-01 -0.9105997044214E-02
 0.1140732728014E-01 -0.9378924394846E-02
 0.1197303163539E-01 -0.9647501682727E-02
 0.1252016878453E-01 -0.9914180054988E-02
 0.1304506493653E-01 -0.1018171095362E-01
 0.1354454422225E-01 -0.1045317706854E-01
 0.1401635148641E-01 -0.1073206222215E-01
 0.1445911823357E-01 -0.1102184265875E-01
 0.1487248674431E-01 -0.1132575071860E-01
 0.1525720894257E-01 -0.1164653261375E-01
 0.1561514106238E-01 -0.1198617327148E-01
 0.1594909727194E-01 -0.1234560845922E-01
 0.1626254909497E-01 -0.1272446292996E-01
 0.1655911429394E-01 -0.1312078035493E-01
 0.1684188346581E-01 -0.1353080004517E-01
 0.8191776012671E-04 -0.3554207852091E-03
 0.1979392668564E-03 -0.7165338257141E-03
 0.3481031566288E-03 -0.1082967622486E-02
 0.5321179297508E-03 -0.1454234302004E-02
 0.7494223921921E-03 -0.1829745738226E-02
 0.9992440659141E-03 -0.2208830060155E-02
 0.1280651318209E-02 -0.2590744343654E-02
 0.1592599649236E-02 -0.2974687713262E-02
 0.1933969265570E-02 -0.3359812346932E-02
 0.2303592574912E-02 -0.3745232621029E-02
 0.2700270912225E-02 -0.4130032908960E-02
 0.3122775924597E-02 -0.4513270826696E-02
 0.3569851212733E-02 -0.4893991047710E-02
 0.4040196182797E-02 -0.5271232023665E-02
 0.4532411682788E-02 -0.5644013982951E-02
 0.5045047567626E-02 -0.6011413953911E-02
 0.5576500541735E-02 -0.6372531415371E-02
 0.6125017117498E-02 -0.6726542509380E-02
 0.6688667397524E-02 -0.7072733961866E-02
 0.7265324866166E-02 -0.7410468208521E-02
 0.7852627823140E-02 -0.7738893328394E-02
 0.8447914890544E-02 -0.8057286392399E-02
 0.9048192044231E-02 -0.8365364717049E-02
 0.9650187588438E-02 -0.8663376499481E-02
 0.1025043496289E-01 -0.8952101077376E-02
 0.1084533576753E-01 -0.9232817041412E-02
 0.1143121313594E-01 -0.9507265828037E-02
 0.1200438821597E-01 -0.9777616765893E-02
 0.1256125887281E-01 -0.1004640754756E-01
 0.1309841248225E-01 -0.1031646041846E-01
 0.1361289877459E-01 -0.1059089876662E-01
 0.1410263070768E-01 -0.1087320378023E-01
 0.1456632031337E-01 -0.1116680815662E-01
 0.1500357272098E-01 -0.1147485984166E-01
 0.1541495868253E-01 -0.1179998743923E-01
 0.1580199252270E-01 -0.1214404257148E-01
 0.1616698536646E-01 -0.1250783805458E-01
 0.1651276741604E-01 -0.1289091655265E-01
 0.1684222108252E-01 -0.1329130812315E-01
 0.1715767701908E-01 -0.1370532522530E-01
 0.8541918263957E-04 -0.3631180230504E-03
 0.2047742000951E-03 -0.7318755408323E-03
 0.3580428295212E-03 -0.1105914379914E-02
 0.5448809450032E-03 -0.1484747167294E-02
 0.7646832192571E-03 -0.1867774142511E-02
 0.1016641996694E-02 -0.2254300721932E-02
 0.1299799631518E-02 -0.2643551603436E-02
 0.1613094637907E-02 -0.3034685747441E-02
 0.1955398871078E-02 -0.3426809603876E-02
 0.2325544597770E-02 -0.3818988680247E-02
 0.2722340999978E-02 -0.4210257807209E-02
 0.3144575733798E-02 -0.4599626707851E-02
 0.3591017263016E-02 -0.4986096148836E-02
 0.4060399961744E-02 -0.5368666648091E-02
 0.4551371632943E-02 -0.5746327980723E-02
 0.5062543109042E-02 -0.6118136571410E-02
 0.5592388658627E-02 -0.6483181668368E-02
 0.6139251190242E-02 -0.6840640914888E-02
 0.6701317951672E-02 -0.7189814947383E-02
 0.7276601924805E-02 -0.7530100038453E-02
 0.7862903903108E-02 -0.7860726442082E-02
 0.8457744460000E-02 -0.8181067273524E-02
 0.9058330986275E-02 -0.8490925949446E-02
 0.9661613669241E-02 -0.8790628359308E-02
 0.1026436776457E-01 -0.9081030226004E-02
 0.1086325397685E-01 -0.9363489681861E-02
 0.1145486670941E-01 -0.9639830954116E-02
 0.1203580257879E-01 -0.9912305859752E-02
 0.1260272743949E-01 -0.1018352796321E-01
 0.1315247360518E-01 -0.1045638082631E-01
 0.1368229394169E-01 -0.1073402112049E-01
 0.1419024109921E-01 -0.1101992265031E-01
 0.1467507572510E-01 -0.1131747531548E-01
 0.1513633432265E-01 -0.1162975027218E-01
 0.1557438069511E-01 -0.1195927301881E-01
 0.1599037301776E-01 -0.1230778166815E-01
 0.1638612170850E-01 -0.1267598772889E-01
 0.1676383708196E-01 -0.1306337043351E-01
 0.1712570536687E-01 -0.1346795699855E-01
 0.1747334880099E-01 -0.1388613303047E-01
 0.8888327603598E-04 -0.3707724756874E-03
 0.2115530936282E-03 -0.7471415018303E-03
 0.3679200760776E-03 -0.1128762053878E-02
 0.5575814633396E-03 -0.1515147248713E-02
 0.7798822261297E-03 -0.1905685805844E-02
 0.1033974583979E-02 -0.2299660734748E-02
 0.1318870751252E-02 -0.2696264963944E-02
 0.1633489129072E-02 -0.3094618296445E-02
 0.1976691216755E-02 -0.3493782900859E-02
 0.2347308308352E-02 -0.3892777279794E-02
 0.2744157757217E-02 -0.4290588919822E-02
 0.3166044643111E-02 -0.4686182051788E-02
 0.3611764697574E-02 -0.5078515969120E-02
 0.4080090535107E-02 -0.5466555524664E-02
 0.4569720916466E-02 -0.5849261919119E-02
 0.5079332203150E-02 -0.6225672270898E-02
 0.5607481157036E-02 -0.6594866088826E-02
 0.6152612188302E-02 -0.6956022034811E-02
 0.6713034783503E-02 -0.7308453050306E-02
 0.7286906291014E-02 -0.7651586640453E-02
 0.7872194404898E-02 -0.7984732973191E-02
 0.8466605890472E-02 -0.8307358932175E-02
 0.9067553717678E-02 -0.8619350677285E-02
 0.9672213725673E-02 -0.8921106793568E-02
 0.1027760578173E-01 -0.9213552630390E-02
 0.1088065075976E-01 -0.9498117495051E-02
 0.1147821276893E-01 -0.9776698798866E-02
 0.1206715874331E-01 -0.1005162062990E-01
 0.1264441290551E-01 -0.1032556253258E-01
 0.1320703785613E-01 -0.1060146111038E-01
 0.1375246971261E-01 -0.1088250044542E-01
 0.1427887610941E-01 -0.1117214389878E-01
 0.1478503911739E-01 -0.1147374082695E-01
 0.1527040042669E-01 -0.1179029407094E-01
 0.1573509617612E-01 -0.1212424034405E-01
 0.1617991789398E-01 -0.1247722259467E-01
 0.1660617888045E-01 -0.1284987010042E-01
 0.1701548891196E-01 -0.1324161423462E-01
 0.1740937174772E-01 -0.1365048743168E-01
 0.1778878494337E-01 -0.1407294677066E-01
 0.9231574309647E-04 -0.3783894559380E-03
 0.2182869108179E-03 -0.7623432128081E-03
 0.3777507741555E-03 -0.1151529175703E-02
 0.5702399511425E-03 -0.1545460873469E-02
 0.7950441503612E-03 -0.1943515527421E-02
 0.1051270558931E-02 -0.2344953929338E-02
 0.1337897207625E-02 -0.2748937712779E-02
 0.1653819370831E-02 -0.3154548389446E-02
 0.1997886305303E-02 -0.3560805157735E-02
 0.2368927594324E-02 -0.3966681254909E-02
 0.2765769130771E-02 -0.4371118906893E-02
 0.3187234806817E-02 -0.4773039137255E-02
 0.3632149917466E-02 -0.5171362070418E-02
 0.4099328391699E-02 -0.5565019006715E-02
 0.4587523664446E-02 -0.5952944258721E-02
 0.5095481813537E-02 -0.6334156704136E-02
 0.5621846597109E-02 -0.6707726331650E-02
 0.6165168565154E-02 -0.7072832031079E-02
 0.6723884047889E-02 -0.7428797104896E-02
 0.7296299148298E-02 -0.7775077367065E-02
 0.7880552453058E-02 -0.8111060511106E-02
 0.8474540729682E-02 -0.8436304783356E-02
 0.9075886197651E-02 -0.8750775471140E-02
 0.9681993590068E-02 -0.9054938514830E-02
 0.1029012969617E-01 -0.9349781807232E-02
 0.1089747628419E-01 -0.9636797271440E-02
 0.1150116554428E-01 -0.9917945939643E-02
 0.1209832995367E-01 -0.1019561431879E-01
 0.1268614347241E-01 -0.1047253877751E-01
 0.1326188610537E-01 -0.1075170177679E-01
 0.1382316001453E-01 -0.1103631027608E-01
 0.1436822675338E-01 -0.1132981554677E-01
 0.1489586703208E-01 -0.1163552985989E-01
 0.1540540624673E-01 -0.1195639684012E-01
 0.1589673641681E-01 -0.1229477846432E-01
 0.1637027480144E-01 -0.1265223956453E-01
 0.1682684173607E-01 -0.1302934411900E-01
 0.1726746347504E-01 -0.1342548873070E-01
 0.1769302987367E-01 -0.1383871696496E-01
 0.1810387041166E-01 -0.1426555437259E-01
 0.9572280647095E-04 -0.3859741114895E-03
 0.2249876398404E-03 -0.7774918100962E-03
 0.3875523033284E-03 -0.1174233669007E-02
 0.5828788113246E-03 -0.1575713473506E-02
 0.8101960442294E-03 -0.1981296858522E-02
 0.1068561275847E-02 -0.2390222452131E-02
 0.1356914383387E-02 -0.2801620918784E-02
 0.1674124610443E-02 -0.3214536197224E-02
 0.2019027203442E-02 -0.3627945691832E-02
 0.2390449393828E-02 -0.4040778997433E-02
 0.2787226028805E-02 -0.4451935061437E-02
 0.3208201175979E-02 -0.4860293889097E-02
 0.3652231877476E-02 -0.5264738636065E-02
 0.4118176246961E-02 -0.5664169037755E-02
 0.4604845817049E-02 -0.6057494049192E-02
 0.5111060199022E-02 -0.6443715183088E-02
 0.5635554219766E-02 -0.6821892902006E-02
 0.6176988737414E-02 -0.7191205275734E-02
 0.6733931041737E-02 -0.7550983739935E-02
 0.7304839900447E-02 -0.7900709229364E-02
 0.7888028374213E-02 -0.8239844488499E-02
 0.8481586620958E-02 -0.8568036635192E-02
 0.9083349308253E-02 -0.8885326269250E-02
 0.9690952824902E-02 -0.9192241073978E-02
 0.1030191278614E-01 -0.9489824150855E-02
 0.1091367235622E-01 -0.9779621347439E-02
 0.1152363027329E-01 -0.1006364783009E-01
 0.1212918033941E-01 -0.1034434302710E-01
 0.1272773879439E-01 -0.1062449164283E-01
 0.1331679207936E-01 -0.1090711576728E-01
 0.1389409392994E-01 -0.1119544184350E-01
 0.1445798230941E-01 -0.1149290857103E-01
 0.1500721790280E-01 -0.1180279554559E-01
 0.1554099253650E-01 -0.1212799671975E-01
 0.1605894125723E-01 -0.1247081308466E-01
 0.1656110162300E-01 -0.1283274729322E-01
 0.1704780520338E-01 -0.1321431321008E-01
 0.1751950924868E-01 -0.1361488379432E-01
 0.1797649337751E-01 -0.1403251799126E-01
 0.1841848899476E-01 -0.1446380581557E-01
 0.9911118751613E-04 -0.3935314270699E-03
 0.2316682599719E-03 -0.7925980673888E-03
 0.3973435012863E-03 -0.1196892858096E-02
 0.5955223267938E-03 -0.1605929596592E-02
 0.8253671988719E-03 -0.2019062114574E-02
 0.1085880610268E-02 -0.2435506775293E-02
 0.1375960381330E-02 -0.2854363435926E-02
 0.1694446929997E-02 -0.3274639025456E-02
 0.2040159848092E-02 -0.3695270197138E-02
 0.2411923477777E-02 -0.4115144419636E-02
 0.2808582087681E-02 -0.4533119259866E-02
 0.3229001260748E-02 -0.4948035821108E-02
 0.3672071856863E-02 -0.5358742415370E-02
 0.4136698836889E-02 -0.5764109109816E-02
 0.4621754956655E-02 -0.6163020915648E-02
 0.5126136802864E-02 -0.6554462709594E-02
 0.5648673909285E-02 -0.6937485243834E-02
 0.6188141138418E-02 -0.7311264513428E-02
 0.6743240366408E-02 -0.7675137629279E-02
 0.7312586460920E-02 -0.8028607247823E-02
 0.7894670131859E-02 -0.8371208642977E-02
 0.8487777901864E-02 -0.8702675269340E-02
 0.9089959633490E-02 -0.9023119080141E-02
 0.9699085693630E-02 -0.9333123680668E-02
 0.1031292208972E-01 -0.9633779855304E-02
 0.1092917376006E-01 -0.9926678596847E-02
 0.1154550467823E-01 -0.1021387980915E-01
 0.1215956645676E-01 -0.1049786666792E-01
 0.1276901147669E-01 -0.1078146430605E-01
 0.1337152367257E-01 -0.1106772902573E-01
 0.1396499665213E-01 -0.1135990430599E-01
 0.1454783074440E-01 -0.1166141673156E-01
 0.1511875181048E-01 -0.1197551837793E-01
 0.1567680461768E-01 -0.1230506338982E-01
 0.1622135745661E-01 -0.1265230524592E-01
 0.1675206441003E-01 -0.1301869945129E-01
 0.1726877214188E-01 -0.1340472357094E-01
 0.1777138081075E-01 -0.1380973654363E-01
 0.1825957876980E-01 -0.1423181569961E-01
 0.1873252316206E-01 -0.1466761079659E-01
 0.1024880866810E-03 -0.4010662303306E-03
 0.2383427114352E-03 -0.8076724095266E-03
 0.4071446259193E-03 -0.1219523490939E-02
 0.6081966116162E-03 -0.1636132938459E-02
 0.8405890778018E-03 -0.2056842414774E-02
 0.1103264867687E-02 -0.2480845740431E-02
 0.1395075903200E-02 -0.2907211946516E-02
 0.1714831094155E-02 -0.3334911352642E-02
 0.2061332865520E-02 -0.3762840773222E-02
 0.2433402246634E-02 -0.4189846972702E-02
 0.2829893455626E-02 -0.4614747971790E-02
 0.3249694912623E-02 -0.5036348042341E-02
 0.3691733253849E-02 -0.5453462734850E-02
 0.4154962739835E-02 -0.5864934290548E-02
 0.4638320173042E-02 -0.6269625114272E-02
 0.5140782177985E-02 -0.6666504072978E-02
 0.5661276195512E-02 -0.7054611893056E-02
 0.6198694314537E-02 -0.7433121083325E-02
 0.6751876135400E-02 -0.7801371794437E-02
 0.7319595589068E-02 -0.8158884845796E-02
 0.7900523808252E-02 -0.8505265509940E-02
 0.8493146248302E-02 -0.8840331039405E-02
 0.9095730279531E-02 -0.9164260688668E-02
 0.9706382164597E-02 -0.9477688012193E-02
 0.1032311958874E-01 -0.9781743811022E-02
 0.1094390960057E-01 -0.1007805538685E-01
 0.1156668042205E-01 -0.1036871807191E-01
 0.1218933878451E-01 -0.1065624989171E-01
 0.1280976850515E-01 -0.1094350898246E-01
 0.1342584417696E-01 -0.1123358110469E-01
 0.1403559036418E-01 -0.1152972508536E-01
 0.1463745909864E-01 -0.1183535658785E-01
 0.1523013027119E-01 -0.1215370589593E-01
 0.1581249154931E-01 -0.1248759744688E-01
 0.1638363733858E-01 -0.1283925045709E-01
 0.1694283572616E-01 -0.1321008762417E-01
 0.1748945171124E-01 -0.1360056300692E-01
 0.1802283759981E-01 -0.1401003005693E-01
 0.1854210491864E-01 -0.1443658662522E-01
 0.1904585450493E-01 -0.1487693705047E-01
 0.1058611654416E-03 -0.4085832006859E-03
 0.2450258682842E-03 -0.8227249322373E-03
 0.4169773214508E-03 -0.1242141771024E-02
 0.6209295664385E-03 -0.1666346386203E-02
 0.8558952539272E-03 -0.2094667734183E-02
 0.1120752694092E-02 -0.2526276614461E-02
 0.1414304128155E-02 -0.2960211014554E-02
 0.1735324395001E-02 -0.3395404874589E-02
 0.2082597385572E-02 -0.3830715955790E-02
 0.2454940521078E-02 -0.4264951660805E-02
 0.2851218570194E-02 -0.4696892258235E-02
 0.3270344101601E-02 -0.5125307243459E-02
 0.3711281377121E-02 -0.5548981479708E-02
 0.4173036198251E-02 -0.5966731209187E-02
 0.4654611931984E-02 -0.6377397533618E-02
 0.5155067919373E-02 -0.6779933878265E-02
 0.5673432267114E-02 -0.7173370544300E-02
 0.6208717036265E-02 -0.7556875035413E-02
 0.6759902200073E-02 -0.7929787780469E-02
 0.7325923246788E-02 -0.8291644093397E-02
 0.7905634107621E-02 -0.8642116741197E-02
 0.8497721338462E-02 -0.8981104268948E-02
 0.9100671709826E-02 -0.9308849134495E-02
 0.9712828920155E-02 -0.9626028767743E-02
 0.1033246338190E-01 -0.9933806221789E-02
 0.1095780461226E-01 -0.1023383623354E-01
 0.1158704450076E-01 -0.1052824032685E-01
 0.1221834311926E-01 -0.1081956269583E-01
 0.1284981253587E-01 -0.1111068742815E-01
 0.1347951333433E-01 -0.1140472549985E-01
 0.1410559491352E-01 -0.1170494997794E-01
 0.1472655365564E-01 -0.1201476734999E-01
 0.1534101582011E-01 -0.1233739226659E-01
 0.1594770512422E-01 -0.1267562974222E-01
 0.1654543730384E-01 -0.1303167783596E-01
 0.1713309289015E-01 -0.1340694030727E-01
 0.1770955764256E-01 -0.1380185981412E-01
 0.1827364254272E-01 -0.1421579214098E-01
 0.1882389232937E-01 -0.1464685726796E-01
 0.1935836389265E-01 -0.1509180876517E-01
 0.1092385303501E-03 -0.4160868818749E-03
 0.2517335159085E-03 -0.8377654301035E-03
 0.4268645913908E-03 -0.1264763402500E-02
 0.6337508420943E-03 -0.1696592080019E-02
 0.8713213550376E-03 -0.2132566978582E-02
 0.1138384994257E-02 -0.2571835171479E-02
 0.1433690597608E-02 -0.3013403167060E-02
 0.1755976501798E-02 -0.3456168577612E-02
 0.2104006859708E-02 -0.3898950775729E-02
 0.2476595336170E-02 -0.4340519082631E-02
 0.2872617939901E-02 -0.4779617795556E-02
 0.3291012699073E-02 -0.5214983706226E-02
 0.3730783245434E-02 -0.5645373094926E-02
 0.4190988951382E-02 -0.6069578057324E-02
 0.4670701957858E-02 -0.6486419704438E-02
 0.5169066613534E-02 -0.6894836574945E-02
 0.5685214004714E-02 -0.7293848108367E-02
 0.6218278431712E-02 -0.7682615225830E-02
 0.6767382399806E-02 -0.8060475797300E-02
 0.7331624980894E-02 -0.8426975901448E-02
 0.7910044885276E-02 -0.8781853356776E-02
 0.8501531541318E-02 -0.9125085564583E-02
 0.9104792601267E-02 -0.9456974087066E-02
 0.9718410380378E-02 -0.9778234101296E-02
 0.1034090886259E-01 -0.1009005308506E-01
 0.1097078045862E-01 -0.1039410431086E-01
 0.1160648060828E-01 -0.1069252630500E-01
 0.1224642192331E-01 -0.1098788089618E-01
 0.1288894311787E-01 -0.1128307132938E-01
 0.1353228830786E-01 -0.1158122991120E-01
 0.1417472840280E-01 -0.1188564324705E-01
 0.1481480004243E-01 -0.1219971077627E-01
 0.1545107155961E-01 -0.1252663798283E-01
 0.1608209888117E-01 -0.1286922089731E-01
 0.1670641641936E-01 -0.1322964947545E-01
 0.1732251635131E-01 -0.1360932215847E-01
 0.1792880667962E-01 -0.1400868193822E-01
 0.1852356086384E-01 -0.1442709439114E-01
 0.1910476259445E-01 -0.1486270302489E-01
 0.1966993176988E-01 -0.1531230534179E-01
 0.1126287195910E-03 -0.4235816984313E-03
 0.2584823339643E-03 -0.8528034330597E-03
 0.4368307793418E-03 -0.1287403648909E-02
 0.6466918122944E-03 -0.1726891493416E-02
 0.8869050181346E-03 -0.2170568081758E-02
 0.1156204857352E-02 -0.2617555799589E-02
 0.1453283105099E-02 -0.3066829001170E-02
 0.1776839313386E-02 -0.3517248836815E-02
 0.2125616879792E-02 -0.3967596841308E-02
 0.2498425735233E-02 -0.4416605493212E-02
 0.2894153925564E-02 -0.4862984916029E-02
 0.3311766261426E-02 -0.5305441325223E-02
 0.3750307389677E-02 -0.5742704593126E-02
 0.4208892072685E-02 -0.6173544589833E-02
 0.4686663123488E-02 -0.6596763801616E-02
 0.5182851797708E-02 -0.7011286468167E-02
 0.5696694026177E-02 -0.7416120740697E-02
 0.6227448134323E-02 -0.7810419369938E-02
 0.6774380828041E-02 -0.8193514803703E-02
 0.7336756322422E-02 -0.8564960141447E-02
 0.7913799693886E-02 -0.8924555904687E-02
 0.8504604621311E-02 -0.9272356018002E-02
 0.9108100713845E-02 -0.9608717090275E-02
 0.9723109735330E-02 -0.9934385906141E-02
 0.1034840989736E-01 -0.1025056650903E-01
 0.1098275702139E-01 -0.1055894178702E-01
 0.1162487047725E-01 -0.1086165809598E-01
 0.1227341563230E-01 -0.1116128643668E-01
 0.1292695785989E-01 -0.1146074255486E-01
 0.1358392458531E-01 -0.1176317640603E-01
 0.1424270770763E-01 -0.1207188766913E-01
 0.1490188326279E-01 -0.1239027108425E-01
 0.1555996065980E-01 -0.1272152963500E-01
 0.1621532709997E-01 -0.1306846094652E-01
 0.1686623502600E-01 -0.1343325997777E-01
 0.1751078811458E-01 -0.1381733344389E-01
 0.1814691708693E-01 -0.1422113634173E-01
 0.1877235895969E-01 -0.1464405147246E-01
 0.1938453789063E-01 -0.1508424736095E-01
 0.1998043847038E-01 -0.1553856041922E-01
 0.1160406925407E-03 -0.4310719764312E-03
 0.2652898858144E-03 -0.8678482522257E-03
 0.4469015591586E-03 -0.1310077406765E-02
 0.6597855569662E-03 -0.1757265533505E-02
 0.9026858538420E-03 -0.2208698126967E-02
 0.1174257490491E-02 -0.2663471634245E-02
 0.1473131591105E-02 -0.3120527318192E-02
 0.1797966812421E-02 -0.3578689540028E-02
 0.2147484996208E-02 -0.4036702443395E-02
 0.2520492561571E-02 -0.4493262885151E-02
 0.2915890519072E-02 -0.4947048663435E-02
 0.3332671811659E-02 -0.5396737639419E-02
 0.3769923654323E-02 -0.5841035566272E-02
 0.4226817808496E-02 -0.6278692122501E-02
 0.4702569343302E-02 -0.6708492634330E-02
 0.5196497924455E-02 -0.7129347708159E-02
 0.5707945739133E-02 -0.7540253836344E-02
 0.6236296439456E-02 -0.7940354048386E-02
 0.6780962108435E-02 -0.8328972529056E-02
 0.7341373196844E-02 -0.8705665686512E-02
 0.7916942340876E-02 -0.9070294523633E-02
 0.8506968453613E-02 -0.9422987292057E-02
 0.9110603769323E-02 -0.9764151672330E-02
 0.9726909983339E-02 -0.1009455994715E-01
 0.1035492000565E-01 -0.1041542486344E-01
 0.1099365368404E-01 -0.1072842998683E-01
 0.1164209520525E-01 -0.1103572031090E-01
 0.1229916393805E-01 -0.1133986753811E-01
 0.1296365356188E-01 -0.1164379327302E-01
 0.1363417683856E-01 -0.1195066148646E-01
 0.1430924894645E-01 -0.1226378453467E-01
 0.1498748768537E-01 -0.1258655487326E-01
 0.1566734582392E-01 -0.1292217975070E-01
 0.1634704377800E-01 -0.1327346909691E-01
 0.1702455334667E-01 -0.1364263614194E-01
 0.1769759018152E-01 -0.1403110966023E-01
 0.1836360718029E-01 -0.1443936856118E-01
 0.1901980329132E-01 -0.1486682060214E-01
 0.1966304047840E-01 -0.1531166119729E-01
 0.2028976450826E-01 -0.1577076114058E-01
 0.1194838229221E-03 -0.4385619690017E-03
 0.2721746157923E-03 -0.8829090362151E-03
 0.4571039363285E-03 -0.1332799295860E-02
 0.6730668582595E-03 -0.1787734663917E-02
 0.9187054226361E-03 -0.2246983495617E-02
 0.1192590161391E-02 -0.2709614721408E-02
 0.1493288043262E-02 -0.3174535287901E-02
 0.1819414921342E-02 -0.3640532240547E-02
 0.2169670534737E-02 -0.4106312686678E-02
 0.2542858247045E-02 -0.4570539092166E-02
 0.2937893118319E-02 -0.5031858866659E-02
 0.3353797617464E-02 -0.5488923876847E-02
 0.3789702996377E-02 -0.5940418204853E-02
 0.4244839415636E-02 -0.6385073530538E-02
 0.4718495467023E-02 -0.6821659629292E-02
 0.5210080328274E-02 -0.7249074263456E-02
 0.5719043396832E-02 -0.7666301997877E-02
 0.6244894465258E-02 -0.8072474673528E-02
 0.6787191676001E-02 -0.8466905441163E-02
 0.7345532339681E-02 -0.8849150382668E-02
 0.7919517451396E-02 -0.9219128919100E-02
 0.8508651744910E-02 -0.9577041602542E-02
 0.9112310335041E-02 -0.9923343333763E-02
 0.9729794973614E-02 -0.1025882585527E-01
 0.1036039354249E-01 -0.1058470278036E-01
 0.1100339061614E-01 -0.1090264939777E-01
 0.1165803657890E-01 -0.1121480009193E-01
 0.1232350706592E-01 -0.1152371870822E-01
 0.1299882733741E-01 -0.1183232595832E-01
 0.1368279977093E-01 -0.1214379608625E-01
 0.1437406793700E-01 -0.1246145362947E-01
 0.1507129701965E-01 -0.1278869108399E-01
 0.1577288874635E-01 -0.1312872672691E-01
 0.1647690160661E-01 -0.1348439362839E-01
 0.1718103010238E-01 -0.1385793682724E-01
 0.1788260300577E-01 -0.1425082135571E-01
 0.1857859387439E-01 -0.1466356247752E-01
 0.1926565929140E-01 -0.1509560125763E-01
 0.1994009220897E-01 -0.1554516254181E-01
 0.2059779086471E-01 -0.1600914768697E-01
 0.1229678962236E-03 -0.4460558871239E-03
 0.2791558557206E-03 -0.8979948390741E-03
 0.4674662624976E-03 -0.1355583768057E-02
 0.6865722111354E-03 -0.1818319052538E-02
 0.9350072242762E-03 -0.2285450045412E-02
 0.1211252150641E-02 -0.2756016212404E-02
 0.1513806401540E-02 -0.3228888644274E-02
 0.1841241358704E-02 -0.3702816338962E-02
 0.2192234410122E-02 -0.4176469646188E-02
 0.2565586594966E-02 -0.4648477913292E-02
 0.2960228295335E-02 -0.5117460228777E-02
 0.3375212962469E-02 -0.5582045009144E-02
 0.3809717278156E-02 -0.6040897320662E-02
 0.4263030993942E-02 -0.6492733243553E-02
 0.4734517169474E-02 -0.6936308802144E-02
 0.5223675189434E-02 -0.7370509872604E-02
 0.5730062152038E-02 -0.7794308970484E-02
 0.6253314312151E-02 -0.8206825410064E-02
 0.6793136057156E-02 -0.8607358653690E-02
 0.7349291711220E-02 -0.8995460943645E-02
 0.7921571030654E-02 -0.9371108245662E-02
 0.8509684753988E-02 -0.9734571588119E-02
 0.9113230708331E-02 -0.1008634940569E-01
 0.9731750450657E-02 -0.1042724697594E-01
 0.1036478688450E-01 -0.1075847099618E-01
 0.1101189006297E-01 -0.1108167951103E-01
 0.1167257840517E-01 -0.1139898695953E-01
 0.1234628706073E-01 -0.1171294060351E-01
 0.1303227774554E-01 -0.1202645327629E-01
 0.1372954897379E-01 -0.1234270548659E-01
 0.1443688066009E-01 -0.1266503318528E-01
 0.1515299429548E-01 -0.1299683098307E-01
 0.1587624956831E-01 -0.1334133484184E-01
 0.1660455093798E-01 -0.1370141192015E-01
 0.1733532111039E-01 -0.1407935297785E-01
 0.1806550392173E-01 -0.1447667413495E-01
 0.1879159119541E-01 -0.1489394028446E-01
 0.1950969022911E-01 -0.1533063509505E-01
 0.2021551398326E-01 -0.1578501634713E-01
 0.2090439922057E-01 -0.1625401306413E-01
 0.1265031121801E-03 -0.4535579364046E-03
 0.2862538423825E-03 -0.9131147013138E-03
 0.4780182654165E-03 -0.1378445236812E-02
 0.7003398507690E-03 -0.1849038746825E-02
 0.9516367020141E-03 -0.2324123320806E-02
 0.1230294714120E-02 -0.2802706592916E-02
 0.1534742467819E-02 -0.3283621914246E-02
 0.1863505494403E-02 -0.3765579294601E-02
 0.2215238934166E-02 -0.4247212548572E-02
 0.2588742554657E-02 -0.4727119256205E-02
 0.2982963554658E-02 -0.5203892429266E-02
 0.3396987907379E-02 -0.5676139812884E-02
 0.3830039050396E-02 -0.6142510369522E-02
 0.4281467309906E-02 -0.6601707232816E-02
 0.4750710832355E-02 -0.7052474712375E-02
 0.5237359490494E-02 -0.7493687969201E-02
 0.5741078104068E-02 -0.7924307538666E-02
 0.6261629215617E-02 -0.8343439043838E-02
 0.6798863143070E-02 -0.8750365766608E-02
 0.7352710904566E-02 -0.9144632762031E-02
 0.7923151019917E-02 -0.9526270887690E-02
 0.8510100007012E-02 -0.9895620059858E-02
 0.9113377797598E-02 -0.1025321876886E-01
 0.9732765098549E-02 -0.1059988006096E-01
 0.1036805962043E-01 -0.1093679602329E-01
 0.1101907764537E-01 -0.1126559848432E-01
 0.1168560785975E-01 -0.1158837248260E-01
 0.1236734909676E-01 -0.1190763972695E-01
 0.1306380595228E-01 -0.1222629783076E-01
 0.1377418181512E-01 -0.1254752913334E-01
 0.1449740375272E-01 -0.1287467978192E-01
 0.1523226186289E-01 -0.1321114815513E-01
 0.1597708633800E-01 -0.1356019432927E-01
 0.1672963873437E-01 -0.1392473058738E-01
 0.1748707783999E-01 -0.1430710779324E-01
 0.1824596550710E-01 -0.1470890883275E-01
 0.1900230870811E-01 -0.1513076264067E-01
 0.1975165597761E-01 -0.1557220606447E-01
 0.2048912510840E-01 -0.1603153458319E-01
 0.2120947208608E-01 -0.1650570313100E-01
 0.1301000932728E-03 -0.4610723606642E-03
 0.2934897480301E-03 -0.9282777459819E-03
 0.4887910971360E-03 -0.1401398230537E-02
 0.7144097996284E-03 -0.1879913880762E-02
 0.9686412637906E-03 -0.2363028800336E-02
 0.1249771056765E-02 -0.2849715950652E-02
 0.1556153819987E-02 -0.3338768683679E-02
 0.1886268203083E-02 -0.3828856870288E-02
 0.2238747617118E-02 -0.4318577981430E-02
 0.2612391986147E-02 -0.4806499302886E-02
 0.3006167080217E-02 -0.5291190242749E-02
 0.3419193039152E-02 -0.5771240941562E-02
 0.3850741323566E-02 -0.6245287478473E-02
 0.4300223608993E-02 -0.6712022996088E-02
 0.4767153415174E-02 -0.7170182407877E-02
 0.5251210962212E-02 -0.7618631587369E-02
 0.5752168335115E-02 -0.8056319392598E-02
 0.6269913687828E-02 -0.8482336807863E-02
 0.6804442451250E-02 -0.8895948649753E-02
 0.7355851541501E-02 -0.9296689647856E-02
 0.7924307840581E-02 -0.9684644150432E-02
 0.8509933002260E-02 -0.1006021964308E-01
 0.9112767995977E-02 -0.1042399144678E-01
 0.9732831583184E-02 -0.1077677481731E-01
 0.1037017574752E-01 -0.1111973966487E-01
 0.1102488367632E-01 -0.1145448263998E-01
 0.1169701686484E-01 -0.1178304978486E-01
 0.1238654283091E-01 -0.1210792797427E-01
 0.1309321694766E-01 -0.1243199178593E-01
 0.1381645839190E-01 -0.1275842036937E-01
 0.1455535506568E-01 -0.1309056821655E-01
 0.1530878144639E-01 -0.1343183852106E-01
 0.1607505450358E-01 -0.1378552153833E-01
 0.1685180751923E-01 -0.1415458575535E-01
 0.1763594593410E-01 -0.1454145707595E-01
 0.1842365387776E-01 -0.1494780189218E-01
 0.1921044985171E-01 -0.1537432904420E-01
 0.1999131168028E-01 -0.1582064076354E-01
 0.2076074255733E-01 -0.1628507656971E-01
 0.2151289284772E-01 -0.1676461692005E-01
 0.1337699003773E-03 -0.4686034933398E-03
 0.3008857263333E-03 -0.9434932919731E-03
 0.4998174036101E-03 -0.1424457573187E-02
 0.7288239372278E-03 -0.1910964917646E-02
 0.9860703224241E-03 -0.2402192185117E-02
 0.1269736318247E-02 -0.2897074285398E-02
 0.1578099729787E-02 -0.3394361903161E-02
 0.1909591713907E-02 -0.3892683411812E-02
 0.2262824959884E-02 -0.4390600131030E-02
 0.2636601412177E-02 -0.4886650697077E-02
 0.3029907467722E-02 -0.5379383673180E-02
 0.3441899205027E-02 -0.5867375006859E-02
 0.3871897324020E-02 -0.6349251475879E-02
 0.4319375413016E-02 -0.6823699538417E-02
 0.4783922311358E-02 -0.7289447357508E-02
 0.5265308014493E-02 -0.7745353245932E-02
 0.5763410931067E-02 -0.8190354962388E-02
 0.6278243642861E-02 -0.8623528163759E-02
 0.6809945369676E-02 -0.9044117167558E-02
 0.7358777650178E-02 -0.9451643492453E-02
 0.7925094920197E-02 -0.9846243858935E-02
 0.8509222898561E-02 -0.1022839230834E-01
 0.9111422042783E-02 -0.1059869806873E-01
 0.9731947589486E-02 -0.1095797330756E-01
 0.1037110487385E-01 -0.1130735836547E-01
 0.1102924449795E-01 -0.1164840578856E-01
 0.1170670350562E-01 -0.1198311287497E-01
 0.1240372381417E-01 -0.1231392201437E-01
 0.1312032083952E-01 -0.1264367634680E-01
 0.1385614257181E-01 -0.1297554606475E-01
 0.1461045431217E-01 -0.1331289132385E-01
 0.1538223427680E-01 -0.1365912036911E-01
 0.1616980645307E-01 -0.1401755916955E-01
 0.1697069432968E-01 -0.1439124346697E-01
 0.1778156367973E-01 -0.1478268975732E-01
 0.1859822688247E-01 -0.1519366595126E-01
 0.1941571014082E-01 -0.1562497843615E-01
 0.2022840626841E-01 -0.1607630903914E-01
 0.2103018008691E-01 -0.1654604958158E-01
 0.2181454569648E-01 -0.1703120726729E-01
 0.1375240569166E-03 -0.4761558179654E-03
 0.3084649765977E-03 -0.9587709872195E-03
 0.5111314192858E-03 -0.1447638595937E-02
 0.7436260957052E-03 -0.1942212933123E-02
 0.1003975356499E-02 -0.2441639732514E-02
 0.1290247570405E-02 -0.2944811864045E-02
 0.1600641082449E-02 -0.3450434234139E-02
 0.1933539453434E-02 -0.3957092160245E-02
 0.2287536233007E-02 -0.4463311044251E-02
 0.2661437753069E-02 -0.4967602747410E-02
 0.3054253437909E-02 -0.5468498095610E-02
 0.3465177226610E-02 -0.5964562659697E-02
 0.3893580230068E-02 -0.6454417913413E-02
 0.4338998297495E-02 -0.6936747336216E-02
 0.4801095184370E-02 -0.7410275357202E-02
 0.5279729647088E-02 -0.7873854794981E-02
 0.5774884981430E-02 -0.8326413201867E-02
 0.6286696500027E-02 -0.8767010518042E-02
 0.6815445377925E-02 -0.9194868822074E-02
 0.7361556019060E-02 -0.9609493832169E-02
 0.7925569195109E-02 -0.1001107383651E-01
 0.8508013182601E-02 -0.1040014876003E-01
 0.9109365868954E-02 -0.1077735916740E-01
 0.9730116851508E-02 -0.1114350916181E-01
 0.1037082342692E-01 -0.1149970235236E-01
 0.1103210384333E-01 -0.1184743832688E-01
 0.1171457349384E-01 -0.1218865574304E-01
 0.1241875497491E-01 -0.1252574243951E-01
 0.1314493424179E-01 -0.1286150102843E-01
 0.1389300314444E-01 -0.1319908607136E-01
 0.1466242382634E-01 -0.1354185967214E-01
 0.1545230131248E-01 -0.1389323432490E-01
 0.1626099109887E-01 -0.1425657651704E-01
 0.1708592964729E-01 -0.1463500015811E-01
 0.1792356037832E-01 -0.1503112853998E-01
 0.1876933212259E-01 -0.1544685057971E-01
 0.1961777513520E-01 -0.1588308997649E-01
 0.2046268071973E-01 -0.1633962478070E-01
 0.2129724709759E-01 -0.1681490967252E-01
 0.2211431532099E-01 -0.1730598170040E-01
 0.1413745831708E-03 -0.4837340391434E-03
 0.3162518300720E-03 -0.9741209656293E-03
 0.5227690920587E-03 -0.1470957386848E-02
 0.7588621869982E-03 -0.1973679948446E-02
 0.1022409997159E-02 -0.2481398647639E-02
 0.1311363830741E-02 -0.2992959635621E-02
 0.1623840301913E-02 -0.3507018452893E-02
 0.1958175885412E-02 -0.4022115617793E-02
 0.2312947246750E-02 -0.4536740939679E-02
 0.2686968049503E-02 -0.5049381676551E-02
 0.3079273536262E-02 -0.5558554442473E-02
 0.3489097599915E-02 -0.6062818715655E-02
 0.3915862893627E-02 -0.6560795132883E-02
 0.4359167653980E-02 -0.7051168346625E-02
 0.4818749787612E-02 -0.7532662481282E-02
 0.5294555342178E-02 -0.8004127306642E-02
 0.5786670558457E-02 -0.8464481414491E-02
 0.6295351262983E-02 -0.8912768977128E-02
 0.6821018240350E-02 -0.9348188429837E-02
 0.7364256519589E-02 -0.9770227439515E-02
 0.7925791579896E-02 -0.1017912540264E-01
 0.8506352303777E-02 -0.1057548783486E-01
 0.9106631414865E-02 -0.1095998447571E-01
 0.9727350165406E-02 -0.1133340677806E-01
 0.1036931586273E-01 -0.1169681475591E-01
 0.1103341422426E-01 -0.1205164631001E-01
 0.1172054169124E-01 -0.1239977143344E-01
 0.1243150820202E-01 -0.1274351290622E-01
 0.1316688180501E-01 -0.1308562294544E-01
 0.1392681515274E-01 -0.1342923274628E-01
 0.1471098952706E-01 -0.1377770139535E-01
 0.1551866366925E-01 -0.1413444353949E-01
 0.1634825364822E-01 -0.1450287001739E-01
 0.1719713646860E-01 -0.1488618352495E-01
 0.1806155479812E-01 -0.1528713100376E-01
 0.1893660500359E-01 -0.1570774353296E-01
 0.1981631841957E-01 -0.1614908437723E-01
 0.2069386634570E-01 -0.1661104730855E-01
 0.2156174758023E-01 -0.1709216314036E-01
 0.2241208677507E-01 -0.1758950403087E-01
 0.1453340427029E-03 -0.4913431660165E-03
 0.3242718619384E-03 -0.9895540308974E-03
 0.5347682422151E-03 -0.1494431081463E-02
 0.7745803630667E-03 -0.2005389314543E-02
 0.1041430138394E-02 -0.2521497528270E-02
 0.1333146085130E-02 -0.3041549694371E-02
 0.1647761270659E-02 -0.3564147890980E-02
 0.1983566333360E-02 -0.4087785935153E-02
 0.2339124095918E-02 -0.4610918524491E-02
 0.2713259155373E-02 -0.5132010861143E-02
 0.3105035800557E-02 -0.5649569366729E-02
 0.3513730162281E-02 -0.6162152243810E-02
 0.3938817528493E-02 -0.6668384282732E-02
 0.4379958418980E-02 -0.7166955951686E-02
 0.4836963751009E-02 -0.7656594952005E-02
 0.5309864923632E-02 -0.8136150865517E-02
 0.5798848662647E-02 -0.8604534958169E-02
 0.6304288564630E-02 -0.9060775958257E-02
 0.6826742164321E-02 -0.9504047629278E-02
 0.7366952393606E-02 -0.9933817717002E-02
 0.7925827402463E-02 -0.1035037664301E-01
 0.8504294277796E-02 -0.1075439563909E-01
 0.9103257423386E-02 -0.1114657192640E-01
 0.9723666388714E-02 -0.1152768018755E-01
 0.1036657587789E-01 -0.1189873035693E-01
 0.1103313834523E-01 -0.1226109011468E-01
 0.1172453368788E-01 -0.1261655067997E-01
 0.1244186601481E-01 -0.1296735882065E-01
 0.1318599786279E-01 -0.1331620564545E-01
 0.1395736135792E-01 -0.1366619003930E-01
 0.1475588200955E-01 -0.1402066163234E-01
 0.1558100313757E-01 -0.1438303354795E-01
 0.1643123537777E-01 -0.1475676354446E-01
 0.1730392925496E-01 -0.1514515321138E-01
 0.1819515335401E-01 -0.1555109059257E-01
 0.1909966636144E-01 -0.1597677192714E-01
 0.2001099903360E-01 -0.1642342517980E-01
 0.2092168245118E-01 -0.1689108272610E-01
 0.2182347840399E-01 -0.1737836798597E-01
 0.2270774469180E-01 -0.1788239598701E-01
 0.1494156033922E-03 -0.4989886105029E-03
 0.3325520347292E-03 -0.1005081873354E-02
 0.5471687632837E-03 -0.1518078205239E-02
 0.7908312174262E-03 -0.2037366162450E-02
 0.1061094078135E-02 -0.2561966882733E-02
 0.1355657325993E-02 -0.3090615814092E-02
 0.1672469250196E-02 -0.3621856939446E-02
 0.2009776792730E-02 -0.4154135353176E-02
 0.2366132887721E-02 -0.4685871357327E-02
 0.2740377410685E-02 -0.5215511112165E-02
 0.3131607407431E-02 -0.5741555442677E-02
 0.3539143738029E-02 -0.6262566692488E-02
 0.3962515376904E-02 -0.6777179371514E-02
 0.4401444780239E-02 -0.7284094939354E-02
 0.4855814343319E-02 -0.7782049044956E-02
 0.5325738389585E-02 -0.8269894392775E-02
 0.5811501138328E-02 -0.8746536980219E-02
 0.6313590677979E-02 -0.9210990825535E-02
 0.6832697919829E-02 -0.9662404406595E-02
 0.7369720497864E-02 -0.1010022410088E-01
 0.7925746793503E-02 -0.1052479167872E-01
 0.8501899245054E-02 -0.1093684467158E-01
 0.9099290193079E-02 -0.1133710662162E-01
 0.9719093412227E-02 -0.1172633187207E-01
 0.1036260761606E-01 -0.1210547426703E-01
 0.1103125054433E-01 -0.1247582301816E-01
 0.1172648745169E-01 -0.1283908044429E-01
 0.1244972335854E-01 -0.1319740592588E-01
 0.1320212826326E-01 -0.1355341786002E-01
 0.1398443394438E-01 -0.1391017253730E-01
 0.1479683791420E-01 -0.1427100198937E-01
 0.1563900298153E-01 -0.1463931224313E-01
 0.1650957365049E-01 -0.1501860892839E-01
 0.1740591304152E-01 -0.1541230183277E-01
 0.1832394833497E-01 -0.1582343803575E-01
 0.1925812002832E-01 -0.1625440392228E-01
 0.2020145877403E-01 -0.1670662059272E-01
 0.2114583386489E-01 -0.1718028587969E-01
 0.2208222753627E-01 -0.1767413604144E-01
 0.2300117253238E-01 -0.1818533959766E-01
 0.1536331160671E-03 -0.5066763032425E-03
 0.3411208792234E-03 -0.1020717325826E-02
 0.5600128717357E-03 -0.1541919076016E-02
 0.8076680328375E-03 -0.2069637928374E-02
 0.1081462690942E-02 -0.2602839726314E-02
 0.1378962602424E-02 -0.3140194054249E-02
 0.1698030795422E-02 -0.3680181611175E-02
 0.2036873724112E-02 -0.4221196687034E-02
 0.2394039443458E-02 -0.4761626239780E-02
 0.2768388285232E-02 -0.5299900973463E-02
 0.3159054288886E-02 -0.5834521377747E-02
 0.3565405753818E-02 -0.6364060020820E-02
 0.3987026345365E-02 -0.6887167322496E-02
 0.4423699851369E-02 -0.7402561480228E-02
 0.4875378201399E-02 -0.7908990983298E-02
 0.5342255710046E-02 -0.8405315450488E-02
 0.5824710551623E-02 -0.8890438122167E-02
 0.6323341485971E-02 -0.9363359483631E-02
 0.6838968914054E-02 -0.9823202565106E-02
 0.7372641499693E-02 -0.1026939139193E-01
 0.7925625024660E-02 -0.1070231984330E-01
 0.8499233978193E-02 -0.1112279283241E-01
 0.9094784285895E-02 -0.1153155966189E-01
 0.9713669098666E-02 -0.1192935141094E-01
 0.1035742686270E-01 -0.1231706040631E-01
 0.1102773825547E-01 -0.1269588954141E-01
 0.1172635504486E-01 -0.1306744218893E-01
 0.1245498952316E-01 -0.1343377860381E-01
 0.1321513238581E-01 -0.1379743196804E-01
 0.1400783646650E-01 -0.1416140424469E-01
 0.1483360157210E-01 -0.1452899979487E-01
 0.1569234900831E-01 -0.1490360973102E-01
 0.1658290214015E-01 -0.1528878647126E-01
 0.1750268262963E-01 -0.1568805611989E-01
 0.1844751604647E-01 -0.1610464300053E-01
 0.1941155013988E-01 -0.1654115071830E-01
 0.2038731911200E-01 -0.1699922569486E-01
 0.2136600804201E-01 -0.1747926273003E-01
 0.2233777186834E-01 -0.1798013557474E-01
 0.2329225151897E-01 -0.1849908014066E-01
 0.1580012145146E-03 -0.5144128310731E-03
 0.3500087206196E-03 -0.1036474666748E-02
 0.5733454146431E-03 -0.1565976278482E-02
 0.8251470819475E-03 -0.2102234966713E-02
 0.1102599634591E-02 -0.2644152267784E-02
 0.1403129080177E-02 -0.3190323445412E-02
 0.1724513657985E-02 -0.3739160164189E-02
 0.2064923821606E-02 -0.4289003851645E-02
 0.2422908968493E-02 -0.4838209632626E-02
 0.2797355988309E-02 -0.5385197033268E-02
 0.3187440714667E-02 -0.5928472229683E-02
 0.3592581819999E-02 -0.6466624830455E-02
 0.4012418606072E-02 -0.6998328023608E-02
 0.4446795310980E-02 -0.7522323093764E-02
 0.4895731022335E-02 -0.8037376813746E-02
 0.5359496585244E-02 -0.8542360017842E-02
 0.5838560026391E-02 -0.9036176184547E-02
 0.6333626405662E-02 -0.9517813917627E-02
 0.6845641215971E-02 -0.9986371124851E-02
 0.7375800018386E-02 -0.1044124899820E-01
 0.7925542789387E-02 -0.1088289475031E-01
 0.8496372332269E-02 -0.1131218229657E-01
 0.9089803182429E-02 -0.1172988681040E-01
 0.9707442181319E-02 -0.1213671392851E-01
 0.1035106222251E-01 -0.1253348974183E-01
 0.1102260348888E-01 -0.1292132351054E-01
 0.1172410440887E-01 -0.1330170982716E-01
 0.1245759019566E-01 -0.1367659782009E-01
 0.1322488536543E-01 -0.1404842208569E-01
 0.1402738607438E-01 -0.1442011700296E-01
 0.1486592697901E-01 -0.1479494704378E-01
 0.1574073096912E-01 -0.1517627796877E-01
 0.1665085132122E-01 -0.1556770537417E-01
 0.1759382190053E-01 -0.1597287812062E-01
 0.1856541486721E-01 -0.1639521593883E-01
 0.1955951813477E-01 -0.1683756884710E-01
 0.2056817763399E-01 -0.1730184499695E-01
 0.2158187163061E-01 -0.1778867313198E-01
 0.2258987454501E-01 -0.1829709437992E-01
 0.2358085914838E-01 -0.1882442968158E-01
 0.1625354415044E-03 -0.5222056003974E-03
 0.3592479598473E-03 -0.1052369980773E-02
 0.5872142470637E-03 -0.1590275226529E-02
 0.8433279902537E-03 -0.2135191270137E-02
 0.1124571595311E-02 -0.2685944705247E-02
 0.1428226112310E-02 -0.3241046771440E-02
 0.1751986677747E-02 -0.3798833801758E-02
 0.2093993756107E-02 -0.4357592444742E-02
 0.2452805692147E-02 -0.4915648116374E-02
 0.2827343048212E-02 -0.5471414274003E-02
 0.3216828845829E-02 -0.6023409661981E-02
 0.3620735283976E-02 -0.6570248539034E-02
 0.4038758169678E-02 -0.7110634423767E-02
 0.4470801011122E-02 -0.7643338664767E-02
 0.4916947221829E-02 -0.8167152335142E-02
 0.5377540166315E-02 -0.8680962320529E-02
 0.5853133037578E-02 -0.9183675843997E-02
 0.6344532263600E-02 -0.9674271783077E-02
 0.6852803524678E-02 -0.1015182376902E-01
 0.7379284702402E-02 -0.1061571021945E-01
 0.7925586412687E-02 -0.1106643339509E-01
 0.8493395619927E-02 -0.1150493841080E-01
 0.9084419863809E-02 -0.1193202716462E-01
 0.9700473099464E-02 -0.1234837852742E-01
 0.1034355625580E-01 -0.1275474848424E-01
 0.1101586430895E-01 -0.1315214604336E-01
 0.1171972120503E-01 -0.1354194756289E-01
 0.1245746964688E-01 -0.1392597892921E-01
 0.1323128054772E-01 -0.1430656200312E-01
 0.1404291607233E-01 -0.1468654877351E-01
 0.1489358018832E-01 -0.1506914926647E-01
 0.1578384442008E-01 -0.1545769044086E-01
 0.1671304938403E-01 -0.1585580436501E-01
 0.1767890342639E-01 -0.1626726679391E-01
 0.1867718339485E-01 -0.1669571051363E-01
 0.1970155960819E-01 -0.1714426319169E-01
 0.2074360416733E-01 -0.1761513582262E-01
 0.2179306670340E-01 -0.1810923450425E-01
 0.2283828207833E-01 -0.1862580386881E-01
 0.2386686762464E-01 -0.1916227176110E-01
 0.1672524068236E-03 -0.5300630328370E-03
 0.3688734218653E-03 -0.1068421589900E-02
 0.6016706916933E-03 -0.1614844830962E-02
 0.8622741685108E-03 -0.2168545313617E-02
 0.1147448570449E-02 -0.2728262141804E-02
 0.1454325311970E-02 -0.3292411448644E-02
 0.1780519649666E-02 -0.3859247438431E-02
 0.2124149879576E-02 -0.4427000366695E-02
 0.2483792464110E-02 -0.4993968867121E-02
 0.2858409849133E-02 -0.5558566424621E-02
 0.3247278247882E-02 -0.6119332195619E-02
 0.3649926744263E-02 -0.6674913546947E-02
 0.4066108418206E-02 -0.7224052619603E-02
 0.4495784543977E-02 -0.7765558445457E-02
 0.4939099548266E-02 -0.8298253004840E-02
 0.5396464728831E-02 -0.8821044627249E-02
 0.5868513154086E-02 -0.9332848324343E-02
 0.6356147116360E-02 -0.9832635934986E-02
 0.6860547077299E-02 -0.1031945821244E-01
 0.7383188239818E-02 -0.1079267143453E-01
 0.7925847988405E-02 -0.1125283513710E-01
 0.8490392910874E-02 -0.1170096844428E-01
 0.9078717319458E-02 -0.1213790164876E-01
 0.9692834768956E-02 -0.1256428650197E-01
 0.1033496657081E-01 -0.1298080601479E-01
 0.1100755630451E-01 -0.1338836320753E-01
 0.1171321070421E-01 -0.1378820733748E-01
 0.1245459304729E-01 -0.1418202902318E-01
 0.1323423217334E-01 -0.1457202261520E-01
 0.1405427881539E-01 -0.1496094139692E-01
 0.1491634213489E-01 -0.1535192390750E-01
 0.1582139305406E-01 -0.1574824144461E-01
 0.1676912356706E-01 -0.1615355210111E-01
 0.1775748832227E-01 -0.1657175959050E-01
 0.1878233853886E-01 -0.1700672623136E-01
 0.1983718076039E-01 -0.1746189038751E-01
 0.2091313620948E-01 -0.1793981217074E-01
 0.2199920619890E-01 -0.1844172603428E-01
 0.2308272078032E-01 -0.1896712381054E-01
 0.2415014168085E-01 -0.1951356689682E-01
 0.1721699849911E-03 -0.5379948012807E-03
 0.3789227862761E-03 -0.1084650572460E-02
 0.6167700971420E-03 -0.1639718296951E-02
 0.8820533244739E-03 -0.2202341047979E-02
 0.1171304189085E-02 -0.2771155641339E-02
 0.1481500620639E-02 -0.3344470513408E-02
 0.1810183156566E-02 -0.3920450535004E-02
 0.2155457881529E-02 -0.4497268474655E-02
 0.2515930301063E-02 -0.5073200143258E-02
 0.2890614121665E-02 -0.5646666311634E-02
 0.3278845361385E-02 -0.6216235455238E-02
 0.3680213523773E-02 -0.6780597397868E-02
 0.4094529596387E-02 -0.7338541935120E-02
 0.4521810764400E-02 -0.7888924046914E-02
 0.4962258649384E-02 -0.8430603827132E-02
 0.5416347295602E-02 -0.8962517017267E-02
 0.5884783727338E-02 -0.9483591024903E-02
 0.6368560012247E-02 -0.9992793898192E-02
 0.6868965492020E-02 -0.1048915549391E-01
 0.7387607296824E-02 -0.1097201119305E-01
 0.7926425437668E-02 -0.1144198056387E-01
 0.8487461247837E-02 -0.1190016019316E-01
 0.9072788971349E-02 -0.1234741132561E-01
 0.9684613277063E-02 -0.1278435932695E-01
 0.1032536685988E-01 -0.1321161253188E-01
 0.1099773404004E-01 -0.1362996332969E-01
 0.1170459971835E-01 -0.1404052584771E-01
 0.1244894891420E-01 -0.1444484376732E-01
 0.1323367831184E-01 -0.1484496876544E-01
 0.1406134899195E-01 -0.1524353772309E-01
 0.1493401197350E-01 -0.1564359809014E-01
 0.1585309162360E-01 -0.1604834485649E-01
 0.1681870205048E-01 -0.1646144723554E-01
 0.1782912647896E-01 -0.1688693394901E-01
 0.1888037365616E-01 -0.1732891126614E-01
 0.1996585444973E-01 -0.1779116265411E-01
 0.2107627357105E-01 -0.1827664914148E-01
 0.2219986844472E-01 -0.1878699349235E-01
 0.2332289248024E-01 -0.1932198779638E-01
 0.2443053576086E-01 -0.1987935903394E-01
 0.1773075623671E-03 -0.5460121162047E-03
 0.3894371196795E-03 -0.1101081391712E-02
 0.6325725153024E-03 -0.1664934082315E-02
 0.9027380662066E-03 -0.2236629076241E-02
 0.1196216071890E-02 -0.2814683452266E-02
 0.1509828366077E-02 -0.3397283737598E-02
 0.1841048360882E-02 -0.3982498015515E-02
 0.2187982394001E-02 -0.4568441282950E-02
 0.2549277884496E-02 -0.5153371799074E-02
 0.2924010392055E-02 -0.5735726232858E-02
 0.3311582937774E-02 -0.6314112444082E-02
 0.3711649110969E-02 -0.6887272978749E-02
 0.4124078269499E-02 -0.7454055051615E-02
 0.4548941274819E-02 -0.8013368488836E-02
 0.4986492595946E-02 -0.8564119304140E-02
 0.5437263210923E-02 -0.9105277210987E-02
 0.5902027525354E-02 -0.9635787210032E-02
 0.6381860691248E-02 -0.1015461739611E-01
 0.6878154539967E-02 -0.1066077932360E-01
 0.7392642373717E-02 -0.1115358935811E-01
 0.7927422473031E-02 -0.1163373040001E-01
 0.8484705758151E-02 -0.1210238062058E-01
 0.9066738988275E-02 -0.1256043572765E-01
 0.9675908469616E-02 -0.1300849663957E-01
 0.1031484784298E-01 -0.1344709665106E-01
 0.1098647244884E-01 -0.1387691420163E-01
 0.1169393853683E-01 -0.1429892138788E-01
 0.1244055166372E-01 -0.1471450397635E-01
 0.1322958404199E-01 -0.1512555575007E-01
 0.1406402732876E-01 -0.1553457834951E-01
 0.1494641102424E-01 -0.1594450599914E-01
 0.1587866961382E-01 -0.1635843262179E-01
 0.1686141663128E-01 -0.1678001842604E-01
 0.1789335743396E-01 -0.1721340904973E-01
 0.1897075698315E-01 -0.1766296590926E-01
 0.2008701604981E-01 -0.1813285259739E-01
 0.2123247233820E-01 -0.1862648855784E-01
 0.2239459085679E-01 -0.1914595527565E-01
 0.2355846983191E-01 -0.1969141009013E-01
 0.2470789105475E-01 -0.2026078365274E-01
 0.1826863467095E-03 -0.5541280771481E-03
 0.4004615341741E-03 -0.1117742663538E-02
 0.6491435209053E-03 -0.1690537054964E-02
 0.9244066058870E-03 -0.2271468047831E-02
 0.1222266222013E-02 -0.2858912418906E-02
 0.1539387290393E-02 -0.3450918870782E-02
 0.1873186732286E-02 -0.4045451246481E-02
 0.2221786523582E-02 -0.4640567676083E-02
 0.2583890991769E-02 -0.5234515782249E-02
 0.2958649375215E-02 -0.5825758303980E-02
 0.3345539426965E-02 -0.6412953791276E-02
 0.3744282555740E-02 -0.6994908695277E-02
 0.4154806734120E-02 -0.7570538114476E-02
 0.4577233858445E-02 -0.8138816222497E-02
 0.5011866348596E-02 -0.8698703349793E-02
 0.5459285653748E-02 -0.9249210347621E-02
 0.5920326302365E-02 -0.9789305625515E-02
 0.6396139216636E-02 -0.1031796178379E-01
 0.6888211842965E-02 -0.1083417531104E-01
 0.7398397578881E-02 -0.1133724610443E-01
 0.7928948471649E-02 -0.1182792424403E-01
 0.8482239666392E-02 -0.1230747429197E-01
 0.9060682496479E-02 -0.1277683094271E-01
 0.9666834436075E-02 -0.1323657392279E-01
 0.1030351812157E-01 -0.1368716263573E-01
 0.1097386816705E-01 -0.1412915982399E-01
 0.1168130286253E-01 -0.1456339011185E-01
 0.1242944426131E-01 -0.1499107147262E-01
 0.1322194487777E-01 -0.1541392496063E-01
 0.1406224473439E-01 -0.1583429737761E-01
 0.1495338736932E-01 -0.1625498522563E-01
 0.1589787574101E-01 -0.1667895226382E-01
 0.1689690627491E-01 -0.1710982356329E-01
 0.1794971194068E-01 -0.1755184713952E-01
 0.1905293033963E-01 -0.1800964598723E-01
 0.2020005889650E-01 -0.1848779846057E-01
 0.2138113768532E-01 -0.1899024530998E-01
 0.2258286203334E-01 -0.1951960926166E-01
 0.2378909071927E-01 -0.2007649315339E-01
 0.2498203192010E-01 -0.2065907744424E-01
 0.1883297555427E-03 -0.5623581061444E-03
 0.4120460034278E-03 -0.1134668098475E-02
 0.6665552048501E-03 -0.1716579899944E-02
 0.9471435806273E-03 -0.2306926324151E-02
 0.1249541447681E-02 -0.2903919625004E-02
 0.1570258543063E-02 -0.3505453044278E-02
 0.1906669710555E-02 -0.4109379111996E-02
 0.2256931320076E-02 -0.4713701677826E-02
 0.2619821880736E-02 -0.5316666678298E-02
 0.2994577340100E-02 -0.5916774867120E-02
 0.3380758350225E-02 -0.6512748090791E-02
 0.3778157854996E-02 -0.7103468774912E-02
 0.4186762415452E-02 -0.7687931003599E-02
 0.4606741890826E-02 -0.8265183349909E-02
 0.5038441192649E-02 -0.8834249427828E-02
 0.5482485108230E-02 -0.9394189010694E-02
 0.5939760315117E-02 -0.9944000385080E-02
 0.6411485540829E-02 -0.1048266577453E-01
 0.6899236489377E-02 -0.1100917051316E-01
 0.7404980300481E-02 -0.1152280126664E-01
 0.7931118223049E-02 -0.1202437968767E-01
 0.8480184158177E-02 -0.1251526222525E-01
 0.9054745620562E-02 -0.1299642814333E-01
 0.9657519810041E-02 -0.1346844065184E-01
 0.1029150484453E-01 -0.1393168809378E-01
 0.1096004069709E-01 -0.1438661759484E-01
 0.1166679562925E-01 -0.1483390268892E-01
 0.1241570085774E-01 -0.1527458525764E-01
 0.1321079035334E-01 -0.1571019974169E-01
 0.1405596685161E-01 -0.1614291829782E-01
 0.1495482116642E-01 -0.1657537321671E-01
 0.1591048347701E-01 -0.1701036459755E-01
 0.1692482188957E-01 -0.1745144948987E-01
 0.1799771475117E-01 -0.1790295579921E-01
 0.1912630862896E-01 -0.1836976789585E-01
 0.2030433010289E-01 -0.1885691135409E-01
 0.2152161589501E-01 -0.1936891699301E-01
 0.2276411300871E-01 -0.1990904187097E-01
 0.2401435205573E-01 -0.2047843923635E-01
 0.2525276556856E-01 -0.2107559050010E-01
 0.1942639071348E-03 -0.5707204973128E-03
 0.4242463757888E-03 -0.1151897669925E-02
 0.6848873740834E-03 -0.1743124841479E-02
 0.9710409906569E-03 -0.2343083964394E-02
 0.1278133784499E-02 -0.2949794277181E-02
 0.1602525587820E-02 -0.3560974297760E-02
 0.1941568246446E-02 -0.4174359101524E-02
 0.2293475125413E-02 -0.4787903156272E-02
 0.2657118573535E-02 -0.5399862148516E-02
 0.3031835393723E-02 -0.6008788773962E-02
 0.3417277603878E-02 -0.6613482106858E-02
 0.3813313272371E-02 -0.7212913429008E-02
 0.4219987195006E-02 -0.7806167449399E-02
 0.4637513674686E-02 -0.8392377664623E-02
 0.5066274089826E-02 -0.8970640475140E-02
 0.5506928748495E-02 -0.9540072991031E-02
 0.5960407754762E-02 -0.1009971053777E-01
 0.6427988990107E-02 -0.1064855078573E-01
 0.6911328571009E-02 -0.1118557253759E-01
 0.7412500798677E-02 -0.1171005317724E-01
 0.7934051594544E-02 -0.1222289085666E-01
 0.8478668157825E-02 -0.1272554008854E-01
 0.9049065434931E-02 -0.1321903137938E-01
 0.9648107979008E-02 -0.1370391760285E-01
 0.1027895428749E-01 -0.1418052071005E-01
 0.1094513350152E-01 -0.1464917437269E-01
 0.1165054879274E-01 -0.1511039962997E-01
 0.1239942948742E-01 -0.1556505610421E-01
 0.1319618782551E-01 -0.1601447938449E-01
 0.1404519906114E-01 -0.1646064772240E-01
 0.1495063071327E-01 -0.1690600134073E-01
 0.1591629762090E-01 -0.1735313897045E-01
 0.1694483232624E-01 -0.1780550937600E-01
 0.1803688843815E-01 -0.1826748829653E-01
 0.1919027993594E-01 -0.1874421220497E-01
 0.2039912532419E-01 -0.1924118219286E-01
 0.2165318610650E-01 -0.1976359188113E-01
 0.2293770122479E-01 -0.2031544315952E-01
 0.2423380760028E-01 -0.2089854883621E-01
 0.2551987365992E-01 -0.2151182719261E-01
 0.2005182421975E-03 -0.5792371377687E-03
 0.4371256342733E-03 -0.1169479048285E-02
 0.7042290096628E-03 -0.1770245780887E-02
 0.9961992677624E-03 -0.2380035110124E-02
 0.1308140908800E-02 -0.2996639890995E-02
 0.1636274010087E-02 -0.3617583272183E-02
 0.1977952221345E-02 -0.4240478456265E-02
 0.2331472823295E-02 -0.4863238532494E-02
 0.2695824077737E-02 -0.5484143365231E-02
 0.3070458734276E-02 -0.6101813691644E-02
 0.3455128750864E-02 -0.6715141043162E-02
 0.3849780650651E-02 -0.7323199123974E-02
 0.4254516724677E-02 -0.7925175300095E-02
 0.4669591747926E-02 -0.8520298878572E-02
 0.5095416987930E-02 -0.9107749036422E-02
 0.5532679768006E-02 -0.9686709277652E-02
 0.5982344112836E-02 -0.1025625987490E-01
 0.6445737673302E-02 -0.1081542053614E-01
 0.6924588630305E-02 -0.1136316891391E-01
 0.7421071688877E-02 -0.1189877779478E-01
 0.7937873063770E-02 -0.1242322726962E-01
 0.8477827946723E-02 -0.1293807674681E-01
 0.9043789729183E-02 -0.1344441574784E-01
 0.9638757083090E-02 -0.1394279455620E-01
 0.1026603220236E-01 -0.1443347536954E-01
 0.1092931486382E-01 -0.1491668289128E-01
 0.1163272491869E-01 -0.1539278687733E-01
 0.1238077465356E-01 -0.1586246126619E-01
 0.1317824634606E-01 -0.1632683303660E-01
 0.1402999186354E-01 -0.1678766880265E-01
 0.1494077932619E-01 -0.1724718844445E-01
 0.1591516220125E-01 -0.1770774794130E-01
 0.1695663213715E-01 -0.1817263975447E-01
 0.1806675918864E-01 -0.1864624413165E-01
 0.1924420693344E-01 -0.1913392844935E-01
 0.2048368498838E-01 -0.1964169020669E-01
 0.2177504778225E-01 -0.2017546193194E-01
 0.2310290709509E-01 -0.2074011596351E-01
 0.2444691402492E-01 -0.2133826491975E-01
 0.2578324441978E-01 -0.2196937813980E-01
 0.2071225181808E-03 -0.5879206675164E-03
 0.4507541990390E-03 -0.1187452789352E-02
 0.7246868435516E-03 -0.1798021211723E-02
 0.1022748525057E-02 -0.2417899003555E-02
 0.1339703120170E-02 -0.3044613600018E-02
 0.1671645922610E-02 -0.3675470803810E-02
 0.2015962541635E-02 -0.4307959700016E-02
 0.2371064627407E-02 -0.4939963520439E-02
 0.2736079866666E-02 -0.5569803938897E-02
 0.3110592064235E-02 -0.6196188104990E-02
 0.3494461025241E-02 -0.6818116681945E-02
 0.3887714171379E-02 -0.7434780362086E-02
 0.4290509623754E-02 -0.8045482136766E-02
 0.4703137684045E-02 -0.8649559153226E-02
 0.5126031821332E-02 -0.9246284820388E-02
 0.5559896572274E-02 -0.9834919860165E-02
 0.6005718986090E-02 -0.1041459929137E-01
 0.6464865895779E-02 -0.1098437326386E-01
 0.6939128549360E-02 -0.1154322526541E-01
 0.7430775500054E-02 -0.1209042967615E-01
 0.7942630138946E-02 -0.1262705599130E-01
 0.8477672010049E-02 -0.1315477770197E-01
 0.9038885357206E-02 -0.1367475345025E-01
 0.9629390601028E-02 -0.1418754078977E-01
 0.1025261733332E-01 -0.1469335059332E-01
 0.1091241753825E-01 -0.1519230450458E-01
 0.1161310956290E-01 -0.1568462322402E-01
 0.1235947370668E-01 -0.1617079207783E-01
 0.1315665470615E-01 -0.1665171934283E-01
 0.1400998686337E-01 -0.1712894053521E-01
 0.1492486688472E-01 -0.1760442253720E-01
 0.1590664985479E-01 -0.1808022843820E-01
 0.1695979931124E-01 -0.1855943326297E-01
 0.1808697476809E-01 -0.1904636249387E-01
 0.1928792038611E-01 -0.1954657900724E-01
 0.2055819892871E-01 -0.2006659297944E-01
 0.2188799282144E-01 -0.2061316640045E-01
 0.2326140319832E-01 -0.2119220185972E-01
 0.2465653350193E-01 -0.2180731950798E-01
 0.2604696246188E-01 -0.2245857905303E-01
 0.2141182513653E-03 -0.5968142272863E-03
 0.4652152335446E-03 -0.1205901324486E-02
 0.7463671404005E-03 -0.1826562315975E-02
 0.1050791186651E-02 -0.2456794427021E-02
 0.1372896484955E-02 -0.3093814171876E-02
 0.1708678972166E-02 -0.3734688258578E-02
 0.2055596220310E-02 -0.4376784126577E-02
 0.2412211093330E-02 -0.5017972359190E-02
 0.2777817320005E-02 -0.5656638464541E-02
 0.3152145940497E-02 -0.6291596839496E-02
 0.3535172694804E-02 -0.6921974801386E-02
 0.3927008320098E-02 -0.7547094424145E-02
 0.4327865147471E-02 -0.8166386648586E-02
 0.4738064189377E-02 -0.8779307792447E-02
 0.5158053502975E-02 -0.9385236478475E-02
 0.5588544879046E-02 -0.9983521314698E-02
 0.6030537012907E-02 -0.1057336201768E-01
 0.6485424610831E-02 -0.1115384792603E-01
 0.6955052243575E-02 -0.1172397582531E-01
 0.7441775084798E-02 -0.1228302829948E-01
 0.7948549822206E-02 -0.1283217097868E-01
 0.8478495657251E-02 -0.1337319984411E-01
 0.9034718354406E-02 -0.1390735304517E-01
 0.9620444926107E-02 -0.1443520688517E-01
 0.1023921198341E-01 -0.1495693232263E-01
 0.1089499966051E-01 -0.1547255825789E-01
 0.1159229902036E-01 -0.1598216450720E-01
 0.1233613322310E-01 -0.1648605231760E-01
 0.1313198830522E-01 -0.1698490977365E-01
 0.1398566929523E-01 -0.1748003057599E-01
 0.1490320804429E-01 -0.1797310341680E-01
 0.1589080046178E-01 -0.1846585220026E-01
 0.1695397333005E-01 -0.1896106965178E-01
 0.1809663753789E-01 -0.1946295345140E-01
 0.1931985807629E-01 -0.1997720372818E-01
 0.2062035122566E-01 -0.2051083470369E-01
 0.2198892682742E-01 -0.2107151232435E-01
 0.2340937425846E-01 -0.2166634221288E-01
 0.2485821836558E-01 -0.2230015919137E-01
 0.2630614304558E-01 -0.2297393488090E-01
 0.2215504265853E-03 -0.6059563296061E-03
 0.4806046450671E-03 -0.1224908934343E-02
 0.7693987308067E-03 -0.1855996972555E-02
 0.1080461157118E-02 -0.2496878056680E-02
 0.1407837857004E-02 -0.3144405401781E-02
 0.1747462678923E-02 -0.3795386402507E-02
 0.2096915039020E-02 -0.4447075674026E-02
 0.2454951165876E-02 -0.5097355036479E-02
 0.2821059097414E-02 -0.5744700504709E-02
 0.3195133045099E-02 -0.6388056898365E-02
 0.3577271939069E-02 -0.7026696412748E-02
 0.3967671479907E-02 -0.7660086748142E-02
 0.4366596075379E-02 -0.8287798732494E-02
 0.4774392306683E-02 -0.8909418976648E-02
 0.5191514864550E-02 -0.9524442516215E-02
 0.5618672264817E-02 -0.1013231721065E-01
 0.6056862594378E-02 -0.1073231847786E-01
 0.6507496136545E-02 -0.1132358475044E-01
 0.6972460349542E-02 -0.1190513464869E-01
 0.7454189736516E-02 -0.1247626646811E-01
 0.7955770999915E-02 -0.1303824913477E-01
 0.8480459071010E-02 -0.1359301001028E-01
 0.9031472205593E-02 -0.1414187813054E-01
 0.9612128338657E-02 -0.1468546161034E-01
 0.1022604932348E-01 -0.1522390509831E-01
 0.1087731709874E-01 -0.1575715800379E-01
 0.1157056633207E-01 -0.1628517132543E-01
 0.1231103310194E-01 -0.1680807177972E-01
 0.1310451670006E-01 -0.1732633179413E-01
 0.1395727160621E-01 -0.1784099892852E-01
 0.1487595901184E-01 -0.1835346383850E-01
 0.1586764106221E-01 -0.1886506667874E-01
 0.1693898853571E-01 -0.1937824756638E-01
 0.1809532643476E-01 -0.1989698798414E-01
 0.1933930443074E-01 -0.2042704268862E-01
 0.2066914833287E-01 -0.2097589542241E-01
 0.2207668223060E-01 -0.2155218051040E-01
 0.2354567322792E-01 -0.2216439368730E-01
 0.2505109897957E-01 -0.2281887840819E-01
 0.2656046893012E-01 -0.2351780722800E-01
 0.2294721863518E-03 -0.6153944070507E-03
 0.4970350179550E-03 -0.1244579013714E-02
 0.7939291830411E-03 -0.1886480334127E-02
 0.1111906235109E-02 -0.2538336505537E-02
 0.1444650183845E-02 -0.3196578022157E-02
 0.1788085649878E-02 -0.3857736717438E-02
 0.2139975201806E-02 -0.4518972269969E-02
 0.2499315739207E-02 -0.5178209888819E-02
 0.2865818759814E-02 -0.5834047833026E-02
 0.3239556627670E-02 -0.6485586617602E-02
 0.3620757438778E-02 -0.7132261777016E-02
 0.4009702537346E-02 -0.7773700266682E-02
 0.4406705745055E-02 -0.8409623957481E-02
 0.4812133846794E-02 -0.9039760374885E-02
 0.5226440024876E-02 -0.9663732224401E-02
 0.5650318538221E-02 -0.1028109868097E-01
 0.6084753735490E-02 -0.1089122306636E-01
 0.6531158073276E-02 -0.1149330418486E-01
 0.6991450640059E-02 -0.1208639228490E-01
 0.7468137917260E-02 -0.1266980986518E-01
 0.7964434112661E-02 -0.1324493668642E-01
 0.8483726990660E-02 -0.1381384073409E-01
 0.9029338809185E-02 -0.1437795414685E-01
 0.9604662417392E-02 -0.1493793133347E-01
 0.1021338188741E-01 -0.1549390630076E-01
 0.1085965251799E-01 -0.1604576513830E-01
 0.1154822037537E-01 -0.1659334621201E-01
 0.1228449991717E-01 -0.1713661690605E-01
 0.1307456866947E-01 -0.1767584580218E-01
 0.1392509891018E-01 -0.1821183844946E-01
 0.1484336083352E-01 -0.1874567595316E-01
 0.1583729017700E-01 -0.1927827553888E-01
 0.1691476523421E-01 -0.1981165221360E-01
 0.1808268081212E-01 -0.2034946837208E-01
 0.1934555313962E-01 -0.2089742234905E-01
 0.2070353306432E-01 -0.2146339796638E-01
 0.2214995106352E-01 -0.2205703909522E-01
 0.2366896977385E-01 -0.2268843782974E-01
 0.2523414541102E-01 -0.2336579805353E-01
 0.2680948049641E-01 -0.2409282235314E-01
 0.2379471508748E-03 -0.6251873871965E-03
 0.5146398803342E-03 -0.1265039471291E-02
 0.8201284767274E-03 -0.1918201710827E-02
 0.1145289474688E-02 -0.2581392547332E-02
 0.1483461742108E-02 -0.3250553838984E-02
 0.1830633776414E-02 -0.3921933355577E-02
 0.2184825427630E-02 -0.4592626306600E-02
 0.2545326083267E-02 -0.5260643392322E-02
 0.2912099599051E-02 -0.5924742094305E-02
 0.3285409640075E-02 -0.6584205488361E-02
 0.3665617673825E-02 -0.7238650508279E-02
 0.4053090208859E-02 -0.7887875807995E-02
 0.4448187298032E-02 -0.8531764210966E-02
 0.4851290485595E-02 -0.9170193925245E-02
 0.5262843326924E-02 -0.9802926433517E-02
 0.5683514567630E-02 -0.1042964497286E-01
 0.6114260847212E-02 -0.1104981434944E-01
 0.6556482142982E-02 -0.1166270667824E-01
 0.7012116905112E-02 -0.1226741514828E-01
 0.7483736143324E-02 -0.1286329607509E-01
 0.7974680013313E-02 -0.1345184792632E-01
 0.8488467541398E-02 -0.1403528874380E-01
 0.9028517298799E-02 -0.1461516659763E-01
 0.9598280886818E-02 -0.1519219783141E-01
 0.1020148050456E-01 -0.1576652328858E-01
 0.1084231452585E-01 -0.1633798467683E-01
 0.1152560549154E-01 -0.1690632811702E-01
 0.1225690753427E-01 -0.1747138301950E-01
 0.1304253467102E-01 -0.1803323440285E-01
 0.1388953454455E-01 -0.1859246057748E-01
 0.1480574963081E-01 -0.1914983339155E-01
 0.1579997417656E-01 -0.1970581812530E-01
 0.1688133248796E-01 -0.2026193511336E-01
 0.1805842703257E-01 -0.2082141333235E-01
 0.1933793056640E-01 -0.2138975261650E-01
 0.2072239333234E-01 -0.2197512116298E-01
 0.2220727014893E-01 -0.2258817517549E-01
 0.2377770974015E-01 -0.2324081492959E-01
 0.2540610969633E-01 -0.2394352040262E-01
 0.2705258317184E-01 -0.2470193862613E-01
 0.2470525624788E-03 -0.6354092559013E-03
 0.5335792672445E-03 -0.1286449996086E-02
 0.8481933262744E-03 -0.1951393478616E-02
 0.1180790256153E-02 -0.2626312621201E-02
 0.1524404628132E-02 -0.3306590179153E-02
 0.1875187753876E-02 -0.3988194781916E-02
 0.2231504633989E-02 -0.4668204617059E-02
 0.2592992101010E-02 -0.5344769519131E-02
 0.2959893444334E-02 -0.6016848168337E-02
 0.3332673918629E-02 -0.6683933814429E-02
 0.3711830293803E-02 -0.7345841621473E-02
 0.4097812436015E-02 -0.8002552534780E-02
 0.4491022967014E-02 -0.8654118466781E-02
 0.4891852853106E-02 -0.9300576806757E-02
 0.5300728204225E-02 -0.9941838500193E-02
 0.5718280981146E-02 -0.1057772422392E-01
 0.6145425391418E-02 -0.1120781543530E-01
 0.6583532874503E-02 -0.1183147254382E-01
 0.7034547697755E-02 -0.1244784488932E-01
 0.7501097749912E-02 -0.1305633356168E-01
 0.7986648705031E-02 -0.1365856392080E-01
 0.8494850929353E-02 -0.1425691348636E-01
 0.9029212696036E-02 -0.1485305938906E-01
 0.9593228230248E-02 -0.1544779631579E-01
 0.1019063289244E-01 -0.1604129082898E-01
 0.1082563632896E-01 -0.1663336164238E-01
 0.1150310043425E-01 -0.1722368713109E-01
 0.1222867684068E-01 -0.1781198657547E-01
 0.1300886825913E-01 -0.1839819122176E-01
 0.1385104464305E-01 -0.1898267972429E-01
 0.1476356638487E-01 -0.1956593060354E-01
 0.1575604459582E-01 -0.2014794424726E-01
 0.1683885442255E-01 -0.2072968710426E-01
 0.1802241212188E-01 -0.2131383535657E-01
 0.1931582900459E-01 -0.2190551734994E-01
 0.2072458045566E-01 -0.2251301214663E-01
 0.2224700807289E-01 -0.2314792992586E-01
 0.2387006554527E-01 -0.2382417688500E-01
 0.2556546188554E-01 -0.2455499941777E-01
 0.2728903651907E-01 -0.2534855098979E-01
 0.2568836222874E-03 -0.6461540539699E-03
 0.5540470245887E-03 -0.1309012007403E-02
 0.8783521686073E-03 -0.1986342679558E-02
 0.1218604729353E-02 -0.2673415804117E-02
 0.1567612170505E-02 -0.3364984453060E-02
 0.1921819759733E-02 -0.4056764817230E-02
 0.2280039186443E-02 -0.4745887745078E-02
 0.2642310449222E-02 -0.5430708550362E-02
 0.3009179488217E-02 -0.6110433189634E-02
 0.3381319451833E-02 -0.6784792185974E-02
 0.3759361593996E-02 -0.7453813518718E-02
 0.4143835879743E-02 -0.8117668424404E-02
 0.4535183432147E-02 -0.8776583690858E-02
 0.4933799635180E-02 -0.9430762637224E-02
 0.5340085981772E-02 -0.1008027557915E-01
 0.5754626723826E-02 -0.1072509452583E-01
 0.6178278338470E-02 -0.1136493456319E-01
 0.6612366103437E-02 -0.1199926192449E-01
 0.7058824924536E-02 -0.1262729775126E-01
 0.7520331529892E-02 -0.1324850056351E-01
 0.8000477969112E-02 -0.1386463114193E-01
 0.8503048024444E-02 -0.1447823565731E-01
 0.9031634421494E-02 -0.1509113330607E-01
 0.9589758090554E-02 -0.1570421373640E-01
 0.1018114191591E-01 -0.1631768892070E-01
 0.1080997387744E-01 -0.1693137790877E-01
 0.1148111656520E-01 -0.1754491964298E-01
 0.1220027442990E-01 -0.1815795767987E-01
 0.1297408616560E-01 -0.1877030955136E-01
 0.1381018123162E-01 -0.1938219660429E-01
 0.1471736556902E-01 -0.1999383953422E-01
 0.1570599561879E-01 -0.2060478381874E-01
 0.1678765967671E-01 -0.2121540311826E-01
 0.1797464533073E-01 -0.2182770732871E-01
 0.1927875293331E-01 -0.2244625479549E-01
 0.2070894154576E-01 -0.2307919405952E-01
 0.2226735857505E-01 -0.2373894019407E-01
 0.2394387810144E-01 -0.2444155764281E-01
 0.2571031068072E-01 -0.2520363462877E-01
 0.2751791629059E-01 -0.2603660483329E-01
 0.2675595898571E-03 -0.6575430289262E-03
 0.5762804641295E-03 -0.1332982503391E-02
 0.9108707142573E-03 -0.2023406210963E-02
 0.1258945086071E-02 -0.2723084367074E-02
 0.1613214826635E-02 -0.3426078454779E-02
 0.1970589129796E-02 -0.4127912671178E-02
 0.2330439725979E-02 -0.4825868260737E-02
 0.2693262584417E-02 -0.5518585237344E-02
 0.3059923189538E-02 -0.6205565183849E-02
 0.3431303778251E-02 -0.6886800756419E-02
 0.3808166133478E-02 -0.7562543910205E-02
 0.4191115547923E-02 -0.8233160792405E-02
 0.4580627280411E-02 -0.8899055898383E-02
 0.4977096716659E-02 -0.9560602932786E-02
 0.5380894623248E-02 -0.1021804024422E-01
 0.5792547456632E-02 -0.1087150535652E-01
 0.6212838398260E-02 -0.1152086598251E-01
 0.6643027242090E-02 -0.1216571489118E-01
 0.7085022249093E-02 -0.1280536389103E-01
 0.7541540236932E-02 -0.1343934384711E-01
 0.8016301895838E-02 -0.1406955995853E-01
 0.8513228863299E-02 -0.1469873569876E-01
 0.9035994705537E-02 -0.1532884463558E-01
 0.9588131495726E-02 -0.1596088742556E-01
 0.1017332353314E-01 -0.1659514112082E-01
 0.1079570348961E-01 -0.1723144965665E-01
 0.1146009524192E-01 -0.1786944414680E-01
 0.1217221009571E-01 -0.1850873317027E-01
 0.1293876674120E-01 -0.1914907122024E-01
 0.1376758329608E-01 -0.1979058094871E-01
 0.1466782174535E-01 -0.2043328397102E-01
 0.1565048056942E-01 -0.2107631116158E-01
 0.1672827300901E-01 -0.2171943724983E-01
 0.1791534801008E-01 -0.2236391492939E-01
 0.1922638165468E-01 -0.2301352241035E-01
 0.2067437286594E-01 -0.2367596427092E-01
 0.2226634749391E-01 -0.2436418522133E-01
 0.2399659122314E-01 -0.2509646507239E-01
 0.2583829491744E-01 -0.2589339071871E-01
 0.2773804905999E-01 -0.2677074183719E-01
 0.2792325519351E-03 -0.6697351184945E-03
 0.6005731949156E-03 -0.1358693668125E-02
 0.9460577221473E-03 -0.2063030777381E-02
 0.1302036804659E-02 -0.2775775843232E-02
 0.1661334016102E-02 -0.3490261731478E-02
 0.2021536911389E-02 -0.4201931406080E-02
 0.2382697647776E-02 -0.4908347850855E-02
 0.2745812830869E-02 -0.5608526218438E-02
 0.3112075325407E-02 -0.6302311296593E-02
 0.3482571564597E-02 -0.6989978317476E-02
 0.3858186534384E-02 -0.7672009667776E-02
 0.4239594593897E-02 -0.8348966858513E-02
 0.4627300609081E-02 -0.9021431370961E-02
 0.5021696405928E-02 -0.9689948863450E-02
 0.5423117447302E-02 -0.1035493253207E-01
 0.5832023784050E-02 -0.1101669948648E-01
 0.6249109974800E-02 -0.1167529122244E-01
 0.6675549256051E-02 -0.1233045172304E-01
 0.7113203260393E-02 -0.1298160663728E-01
 0.7564818934936E-02 -0.1362837723166E-01
 0.8034249334772E-02 -0.1427282288637E-01
 0.8525561118426E-02 -0.1491785220228E-01
 0.9042506959353E-02 -0.1556560394000E-01
 0.9588614964582E-02 -0.1621720415364E-01
 0.1016750446491E-01 -0.1687301349892E-01
 0.1078321896739E-01 -0.1753292561209E-01
 0.1144050436743E-01 -0.1819659793218E-01
 0.1214503302416E-01 -0.1886365059729E-01
 0.1290354647980E-01 -0.1953383617131E-01
 0.1372397524380E-01 -0.2020725424453E-01
 0.1461573308013E-01 -0.2088381223279E-01
 0.1559032579747E-01 -0.2156230423235E-01
 0.1666144722795E-01 -0.2224194697406E-01
 0.1784501118464E-01 -0.2292319077307E-01
 0.1915865167114E-01 -0.2360883844365E-01
 0.2061990350688E-01 -0.2430577431633E-01
 0.2224186513803E-01 -0.2502703448696E-01
 0.2402518099534E-01 -0.2579299849268E-01
 0.2594643189253E-01 -0.2662895674252E-01
 0.2794790927766E-01 -0.2755649799099E-01
 0.2921003389874E-03 -0.6829427400533E-03
 0.6272922157706E-03 -0.1386581139913E-02
 0.9842701824615E-03 -0.2105779082050E-02
 0.1348112548453E-02 -0.2832036114715E-02
 0.1712073257443E-02 -0.3557972907825E-02
 0.2074679271282E-02 -0.4279134110765E-02
 0.2436781388110E-02 -0.4993532914245E-02
 0.2799906597970E-02 -0.5700656620527E-02
 0.3165571266920E-02 -0.6400735594144E-02
 0.3535054406585E-02 -0.7094341155283E-02
 0.3909353490383E-02 -0.7782186584009E-02
 0.4289204312755E-02 -0.8465024316239E-02
 0.4675136808029E-02 -0.9143607992538E-02
 0.5067536781844E-02 -0.9818653283487E-02
 0.5466701839800E-02 -0.1049075243338E-01
 0.5873019292231E-02 -0.1116041542995E-01
 0.6287080770312E-02 -0.1182788082031E-01
 0.6709950246367E-02 -0.1249307335982E-01
 0.7143419321414E-02 -0.1315556155103E-01
 0.7590253154810E-02 -0.1381507964087E-01
 0.8054442281350E-02 -0.1447385231056E-01
 0.8540208600162E-02 -0.1513497995913E-01
 0.9051384198504E-02 -0.1580077478960E-01
 0.9591478581615E-02 -0.1647249946350E-01
 0.1016401965731E-01 -0.1715061411363E-01
 0.1077292825462E-01 -0.1783508596850E-01
 0.1142283413456E-01 -0.1852563457892E-01
 0.1211932666065E-01 -0.1922194310650E-01
 0.1286911445323E-01 -0.1992383290970E-01
 0.1368016226892E-01 -0.2063147288303E-01
 0.1456202070542E-01 -0.2134476876188E-01
 0.1552653999608E-01 -0.2206229912914E-01
 0.1658819261535E-01 -0.2278282547954E-01
 0.1776445857505E-01 -0.2350602546387E-01
 0.1907586123975E-01 -0.2423358926450E-01
 0.2054482148083E-01 -0.2497117611444E-01
 0.2219174339801E-01 -0.2573128598334E-01
 0.2402608913680E-01 -0.2653599684751E-01
 0.2603090480929E-01 -0.2741596501185E-01
 0.2814545567352E-01 -0.2840058145632E-01
 0.3064260678170E-03 -0.6974562992333E-03
 0.6569006046123E-03 -0.1417225532291E-02
 0.1025916181201E-02 -0.2152363940401E-02
 0.1397400778974E-02 -0.2892512159456E-02
 0.1765506022197E-02 -0.3629697231179E-02
 0.2129999981727E-02 -0.4359846987861E-02
 0.2492632837026E-02 -0.5081628519540E-02
 0.2855468960272E-02 -0.5795095907151E-02
 0.3220330619101E-02 -0.6500896545205E-02
 0.3588670958873E-02 -0.7199901815350E-02
 0.3961586078031E-02 -0.7893049176731E-02
 0.4339864432539E-02 -0.8581272060546E-02
 0.4724056634542E-02 -0.9265486886770E-02
 0.5114541295914E-02 -0.9946573281026E-02
 0.5511578090053E-02 -0.1062530318761E-01
 0.5915478470199E-02 -0.1130239093421E-01
 0.6326719022525E-02 -0.1197829709051E-01
 0.6746230560073E-02 -0.1265316258960E-01
 0.7175707022147E-02 -0.1332673575697E-01
 0.7617916828567E-02 -0.1399889308191E-01
 0.8076994232962E-02 -0.1467203812728E-01
 0.8557329874463E-02 -0.1534946828086E-01
 0.9062837608246E-02 -0.1603367332382E-01
 0.9596994087888E-02 -0.1672605840027E-01
 0.1016320951871E-01 -0.1742719434030E-01
 0.1076524955935E-01 -0.1813714351380E-01
 0.1140759183732E-01 -0.1885572400705E-01
 0.1209570204766E-01 -0.1958273730636E-01
 0.1283620427066E-01 -0.2031815239919E-01
 0.1363702184586E-01 -0.2106231495986E-01
 0.1450772240124E-01 -0.2181526862448E-01
 0.1546031611154E-01 -0.2257554446073E-01
 0.1650979916064E-01 -0.2334162616661E-01
 0.1767490944975E-01 -0.2411255581238E-01
 0.1897879590473E-01 -0.2488889356167E-01
 0.2044885548700E-01 -0.2567471529669E-01
 0.2211390794414E-01 -0.2648117858498E-01
 0.2399518331005E-01 -0.2733122644641E-01
 0.2608676744688E-01 -0.2826130694331E-01
 0.2832786393398E-01 -0.2931128174505E-01
 0.3225686107580E-03 -0.7136836096984E-03
 0.6899872069326E-03 -0.1451414654222E-02
 0.1071451974537E-02 -0.2203691831862E-02
 0.1450106316620E-02 -0.2957961420927E-02
 0.1821659938978E-02 -0.3705957762805E-02
 0.2187442481624E-02 -0.4444398534575E-02
 0.2550164214281E-02 -0.5172830618618E-02
 0.2912403712825E-02 -0.5891952920046E-02
 0.3276257231536E-02 -0.6602844075965E-02
 0.3643327347851E-02 -0.7306667602620E-02
 0.4014792299139E-02 -0.8004570289309E-02
 0.4391483624353E-02 -0.8697650743801E-02
 0.4773968521404E-02 -0.9386973946869E-02
 0.5162618603113E-02 -0.1007357278390E-01
 0.5557658339909E-02 -0.1075839492659E-01
 0.5959324449529E-02 -0.1144236710929E-01
 0.6367970192656E-02 -0.1212619752660E-01
 0.6784369158563E-02 -0.1281028536429E-01
 0.7210084982906E-02 -0.1349460656420E-01
 0.7647869856235E-02 -0.1417921918583E-01
 0.8102008527028E-02 -0.1486672369912E-01
 0.8577077155236E-02 -0.1556061790289E-01
 0.9077075492385E-02 -0.1626356692474E-01
 0.9605433247423E-02 -0.1697711582644E-01
 0.1016541718713E-01 -0.1770195002936E-01
 0.1076060722686E-01 -0.1843824463291E-01
 0.1139529612185E-01 -0.1918595241630E-01
 0.1207479010400E-01 -0.1994505119568E-01
 0.1280558404848E-01 -0.2071574238306E-01
 0.1359549164019E-01 -0.2149866781726E-01
 0.1445398026835E-01 -0.2229417231973E-01
 0.1539302410706E-01 -0.2310095331502E-01
 0.1642784718497E-01 -0.2391747666344E-01
 0.1757803357643E-01 -0.2474242353499E-01
 0.1886886922571E-01 -0.2557540333096E-01
 0.2033242559004E-01 -0.2641872948707E-01
 0.2200665293635E-01 -0.2728132873571E-01
 0.2392779547200E-01 -0.2818559419252E-01
 0.2610754131122E-01 -0.2917358642864E-01
 0.2849106872159E-01 -0.3029907911321E-01
 0.3410316709799E-03 -0.7322158854939E-03
 0.7273040551635E-03 -0.1490238549224E-02
 0.1121366611604E-02 -0.2260915902935E-02
 0.1506379382097E-02 -0.3029251660879E-02
 0.1880497874013E-02 -0.3787296918486E-02
 0.2246902617299E-02 -0.4533104508787E-02
 0.2609255951464E-02 -0.5267316809746E-02
 0.2970593164340E-02 -0.5991320355703E-02
 0.3333239755926E-02 -0.6706616438747E-02
 0.3698918002184E-02 -0.7414639061912E-02
 0.4068869976333E-02 -0.8116720742000E-02
 0.4443960359839E-02 -0.8814103435311E-02
 0.4824769274334E-02 -0.9507981558733E-02
 0.5211662833063E-02 -0.1019952558069E-01
 0.5604835907283E-02 -0.1088984919062E-01
 0.6004456775243E-02 -0.1158009402437E-01
 0.6410753130139E-02 -0.1227123995269E-01
 0.6824319075655E-02 -0.1296399339487E-01
 0.7246549784926E-02 -0.1365862028728E-01
 0.7680155175321E-02 -0.1435541497599E-01
 0.8129576697498E-02 -0.1505720083207E-01
 0.8599595638213E-02 -0.1576767753651E-01
 0.9094302780667E-02 -0.1648967355497E-01
 0.9617066557400E-02 -0.1722485831230E-01
 0.1017098574815E-01 -0.1797402481481E-01
 0.1075942717326E-01 -0.1873747275300E-01
 0.1138647046078E-01 -0.1951532494401E-01
 0.1205723264358E-01 -0.2030779540694E-01
 0.1277804411881E-01 -0.2111540612252E-01
 0.1355655326409E-01 -0.2193922145526E-01
 0.1440202103794E-01 -0.2278006760372E-01
 0.1532619149185E-01 -0.2363706151296E-01
 0.1634419961425E-01 -0.2450899315916E-01
 0.1747598475285E-01 -0.2539461488303E-01
 0.1874826043980E-01 -0.2629303861412E-01
 0.2019696476838E-01 -0.2720501085487E-01
 0.2186910357799E-01 -0.2813651806744E-01
 0.2381894480328E-01 -0.2910735774647E-01
 0.2608469830633E-01 -0.3016379336184E-01
 0.2862895586163E-01 -0.3137760475556E-01
 0.3625456973845E-03 -0.7539436364289E-03
 0.7698093207141E-03 -0.1535237294899E-02
 0.1176141672332E-02 -0.2325493388063E-02
 0.1566269665671E-02 -0.3107339835843E-02
 0.1941898162361E-02 -0.3874245077809E-02
 0.2308223606524E-02 -0.4626249314847E-02
 0.2669755979572E-02 -0.5365236034179E-02
 0.3029898808264E-02 -0.6093268795855E-02
 0.3391152795432E-02 -0.6812236954315E-02
 0.3755326885846E-02 -0.7523808405198E-02
 0.4123707967583E-02 -0.8229468929852E-02
 0.4497184079194E-02 -0.8930576213931E-02
 0.4876345143294E-02 -0.9628430266593E-02
 0.5261554357902E-02 -0.1032431842492E-01
 0.5652985149611E-02 -0.1101950401260E-01
 0.6050749377635E-02 -0.1171533773500E-01
 0.6454955646783E-02 -0.1241308972658E-01
 0.6866001582488E-02 -0.1311382827231E-01
 0.7285070540796E-02 -0.1381819090128E-01
 0.7714795024590E-02 -0.1452678678541E-01
 0.8159776880006E-02 -0.1524270242604E-01
 0.8625023585766E-02 -0.1596983892966E-01
 0.9114721479729E-02 -0.1671116094830E-01
 0.9632162601391E-02 -0.1746842695439E-01
 0.1018025557502E-01 -0.1824251487063E-01
 0.1076213199362E-01 -0.1903385329677E-01
 0.1138163606150E-01 -0.1984276979002E-01
 0.1204367257207E-01 -0.2066977632573E-01
 0.1275438310133E-01 -0.2151580429451E-01
 0.1352121247282E-01 -0.2238246721503E-01
 0.1435312911843E-01 -0.2327125897418E-01
 0.1526147015696E-01 -0.2418199474848E-01
 0.1626097071667E-01 -0.2511420050622E-01
 0.1737139811195E-01 -0.2606729030812E-01
 0.1862001700366E-01 -0.2704065675249E-01
 0.2004528707728E-01 -0.2803427655954E-01
 0.2170194327197E-01 -0.2905118245221E-01
 0.2366395394260E-01 -0.3010620962201E-01
 0.2600709012242E-01 -0.3124629144970E-01
 0.2873189549047E-01 -0.3256521212756E-01
 0.3882099578706E-03 -0.7802723182496E-03
 0.8187040893210E-03 -0.1588633632974E-02
 0.1236163945932E-02 -0.2399227676546E-02
 0.1629664971197E-02 -0.3193210776964E-02
 0.2005639474783E-02 -0.3967275864969E-02
 0.2371194829390E-02 -0.4724065971449E-02
 0.2731480660300E-02 -0.5466697554925E-02
 0.3090163083933E-02 -0.6197840592559E-02
 0.3449858722297E-02 -0.6919710847306E-02
 0.3812429164536E-02 -0.7634157994366E-02
 0.4179187724327E-02 -0.8342780442701E-02
 0.4551036691913E-02 -0.9047018732120E-02
 0.4928573305635E-02 -0.9748250370695E-02
 0.5312161172565E-02 -0.1044785412007E-01
 0.5701962171213E-02 -0.1114721945596E-01
 0.6098049170317E-02 -0.1184788902840E-01
 0.6500429637040E-02 -0.1255143002556E-01
 0.6909298630857E-02 -0.1325932837420E-01
 0.7325581386683E-02 -0.1397269897274E-01
 0.7751785919376E-02 -0.1469258167828E-01
 0.8192672325794E-02 -0.1542239188249E-01
 0.8653493626779E-02 -0.1616623008893E-01
 0.9138532565648E-02 -0.1692714601000E-01
 0.9650988343623E-02 -0.1770692188769E-01
 0.1019356184761E-01 -0.1850647601169E-01
 0.1076913563674E-01 -0.1932636096432E-01
 0.1138130415541E-01 -0.2016714439701E-01
 0.1203474352242E-01 -0.2102970156010E-01
 0.1273539293044E-01 -0.2191546096766E-01
 0.1349047646778E-01 -0.2282670381909E-01
 0.1430861274940E-01 -0.2376576871202E-01
 0.1520058848770E-01 -0.2473345156968E-01
 0.1618046672162E-01 -0.2573046955201E-01
 0.1726733712800E-01 -0.2675762439188E-01
 0.1848807510471E-01 -0.2781568757501E-01
 0.1988192010362E-01 -0.2890541974092E-01
 0.2150844991539E-01 -0.3002836752594E-01
 0.2345984086101E-01 -0.3119291177731E-01
 0.2586061155774E-01 -0.3244020081768E-01
 0.2878404597692E-01 -0.3388767507823E-01
 0.4197490985824E-03 -0.8135539210805E-03
 0.8754227808506E-03 -0.1653696992841E-02
 0.1301554901668E-02 -0.2484235140441E-02
 0.1696225420540E-02 -0.3287750704413E-02
 0.2071399550492E-02 -0.4066757238104E-02
 0.2435554554240E-02 -0.4826717012540E-02
 0.2794217556596E-02 -0.5571759158486E-02
 0.3151212478096E-02 -0.6305044247060E-02
 0.3509210151333E-02 -0.7029022338598E-02
 0.3870093323344E-02 -0.7745658988810E-02
 0.4235185193277E-02 -0.8456617768909E-02
 0.4605394409514E-02 -0.9163384759724E-02
 0.4981323763257E-02 -0.9867383416388E-02
 0.5363340938868E-02 -0.1057005439754E-01
 0.5751606691728E-02 -0.1127288319751E-01
 0.6146175964231E-02 -0.1197757382203E-01
 0.6546986192662E-02 -0.1268597645301E-01
 0.6954043051122E-02 -0.1340004057202E-01
 0.7367970698361E-02 -0.1412149158975E-01
 0.7791091491482E-02 -0.1485197508496E-01
 0.8228310153119E-02 -0.1559534752140E-01
 0.8685136047097E-02 -0.1635590593373E-01
 0.9165940064016E-02 -0.1713669474303E-01
 0.9673810780256E-02 -0.1793940925922E-01
 0.1021123234379E-01 -0.1876493399660E-01
 0.1078083748375E-01 -0.1961393009380E-01
 0.1138596751863E-01 -0.2048724399531E-01
 0.1203105927643E-01 -0.2138618759475E-01
 0.1272184387266E-01 -0.2231277379583E-01
 0.1346532962586E-01 -0.2327005244566E-01
 0.1426976448733E-01 -0.2426135312708E-01
 0.1514528952162E-01 -0.2528870903013E-01
 0.1610509527701E-01 -0.2635448555662E-01
 0.1716718181966E-01 -0.2746167857796E-01
 0.1835715491500E-01 -0.2861379529135E-01
 0.1971322962775E-01 -0.2981461129314E-01
 0.2129572079739E-01 -0.3106785319630E-01
 0.2320809995782E-01 -0.3237768153646E-01
 0.2562903415616E-01 -0.3377100741051E-01
 0.2875844908353E-01 -0.3538304314987E-01
 0.4599952731235E-03 -0.8580382369334E-03
 0.9414525081113E-03 -0.1735275453725E-02
 0.1371872806882E-02 -0.2582673453189E-02
 0.1765355758931E-02 -0.3391553294005E-02
 0.2138774668563E-02 -0.4172924387786E-02
 0.2500993362435E-02 -0.4934272065433E-02
 0.2857731310040E-02 -0.5680415952943E-02
 0.3212861763771E-02 -0.6414849924317E-02
 0.3569052937743E-02 -0.7140131835937E-02
 0.3928183665075E-02 -0.7858270199030E-02
 0.4291572930201E-02 -0.8570939902344E-02
 0.4660129795547E-02 -0.9279632486367E-02
 0.5034461522592E-02 -0.9985783253324E-02
 0.5414943536591E-02 -0.1069086211155E-01
 0.5801745163705E-02 -0.1139641510930E-01
 0.6194924595872E-02 -0.1210426400013E-01
 0.6594391723003E-02 -0.1281649683496E-01
 0.7000005872493E-02 -0.1353553978418E-01
 0.7412064819994E-02 -0.1426388425002E-01
 0.7832631522340E-02 -0.1500405158726E-01
 0.8266720515637E-02 -0.1576053815716E-01
 0.8720085268130E-02 -0.1653783435000E-01
 0.9197158291300E-02 -0.1733882201925E-01
 0.9700900393066E-02 -0.1816493015925E-01
 0.1023358559478E-01 -0.1901689723954E-01
 0.1079761559357E-01 -0.1989546695261E-01
 0.1139609084258E-01 -0.2080181041495E-01
 0.1203320339563E-01 -0.2173776588332E-01
 0.1271447125610E-01 -0.2270602429086E-01
 0.1344671032821E-01 -0.2371047806025E-01
 0.1423781815730E-01 -0.2475553381721E-01
 0.1509725877430E-01 -0.2584465056342E-01
 0.1603724592744E-01 -0.2698225745746E-01
 0.1707445028173E-01 -0.2817432784073E-01
 0.1823253202591E-01 -0.2942861014696E-01
 0.1954711783858E-01 -0.3075450847262E-01
 0.2107547599600E-01 -0.3216336664137E-01
 0.2291955242911E-01 -0.3366553957747E-01
 0.2529867450054E-01 -0.3527105787470E-01
 0.2860868280587E-01 -0.3711065230859E-01
 0.5138211580367E-03 -0.9222746299904E-03
 0.1017599152911E-02 -0.1840305575785E-02
 0.1445710739547E-02 -0.2695847888428E-02
 0.1836319268842E-02 -0.3504812944483E-02
 0.2207294832496E-02 -0.4285880736642E-02
 0.2567159517853E-02 -0.5046668521819E-02
 0.2921775023968E-02 -0.5792599320867E-02
 0.3274917921492E-02 -0.6527183374510E-02
 0.3629230294258E-02 -0.7252974595053E-02
 0.3986563016735E-02 -0.7971937086419E-02
 0.4348222531222E-02 -0.8685702165317E-02
 0.4715114051147E-02 -0.9395724785713E-02
 0.5087849111901E-02 -0.1010341685136E-01
 0.5466814092286E-02 -0.1081024299485E-01
 0.5852195059083E-02 -0.1151777053401E-01
 0.6244070547170E-02 -0.1222788682127E-01
 0.6642367759359E-02 -0.1294283720805E-01
 0.7046880858995E-02 -0.1366546365126E-01
 0.7457602558969E-02 -0.1439916910686E-01
 0.7876264288286E-02 -0.1514777506247E-01
 0.8307916992400E-02 -0.1591678563784E-01
 0.8758491702115E-02 -0.1671087765091E-01
 0.9232423620025E-02 -0.1753249346294E-01
 0.9732536825870E-02 -0.1838251418421E-01
 0.1026092939360E-01 -0.1926137450824E-01
 0.1081981866745E-01 -0.2016986693250E-01
 0.1141209871642E-01 -0.2110954409719E-01
 0.1204171844176E-01 -0.2208288796658E-01
 0.1271396600821E-01 -0.2309338786617E-01
 0.1343549136433E-01 -0.2414582155101E-01
 0.1421390589377E-01 -0.2524565043561E-01
 0.1505803949976E-01 -0.2639782957404E-01
 0.1597916043231E-01 -0.2760916728375E-01
 0.1699253150692E-01 -0.2888931914571E-01
 0.1811970267635E-01 -0.3025152187251E-01
 0.1939235583339E-01 -0.3171387435133E-01
 0.2086290578921E-01 -0.3330007386077E-01
 0.2262047986813E-01 -0.3504574405575E-01
 0.2487406452241E-01 -0.3697266208576E-01
 0.2825729047635E-01 -0.3916823175900E-01
 0.5898942195341E-03 -0.1026541760724E-02
 0.1101510247554E-02 -0.1976260336584E-02
 0.1520737275163E-02 -0.2822402371816E-02
 0.1908552509458E-02 -0.3627914102745E-02
 0.2276333650930E-02 -0.4405350614628E-02
 0.2633716292091E-02 -0.5163757175441E-02
 0.2986088049890E-02 -0.5908156716378E-02
 0.3337189685261E-02 -0.6641927158830E-02
 0.3689586140045E-02 -0.7367458867546E-02
 0.4045096127098E-02 -0.8086591651643E-02
 0.4405007226118E-02 -0.8800856231977E-02
 0.4770219564185E-02 -0.9511629582075E-02
 0.5141349361920E-02 -0.1022026495291E-01
 0.5518796531757E-02 -0.1092818685078E-01
 0.5902769633417E-02 -0.1163694275954E-01
 0.6293379377849E-02 -0.1234842902372E-01
 0.6690599922621E-02 -0.1306494988839E-01
 0.7094268723994E-02 -0.1378957573745E-01
 0.7504192874328E-02 -0.1452663950177E-01
 0.7921756501435E-02 -0.1528193782585E-01
 0.8351900642829E-02 -0.1606270621934E-01
 0.8800542718238E-02 -0.1687376959623E-01
 0.9272012565605E-02 -0.1771663170511E-01
 0.9769017261751E-02 -0.1859119998977E-01
 0.1029355967115E-01 -0.1949739923873E-01
 0.1084775689017E-01 -0.2043603835696E-01
 0.1143435953830E-01 -0.2140912292402E-01
 0.1205709266239E-01 -0.2241992838016E-01
 0.1272097253523E-01 -0.2347293695145E-01
 0.1343247101952E-01 -0.2457384547396E-01
 0.1419901346129E-01 -0.2572894646483E-01
 0.1502895216985E-01 -0.2694456333494E-01
 0.1593275823313E-01 -0.2823010083420E-01
 0.1692449792524E-01 -0.2959936364757E-01
 0.1802354503032E-01 -0.3107204227950E-01
 0.1925851551952E-01 -0.3267657388969E-01
 0.2067239159281E-01 -0.3445613297492E-01
 0.2235139685620E-01 -0.3647645890964E-01
 0.2441923095151E-01 -0.3886992721413E-01
 0.2759982867544E-01 -0.4171640056140E-01
-0.1577803588280E-01 -0.2478890670901E-01
-0.4008289360394E-01 -0.4048044542905E-01
-0.5982711339471E-01 -0.5948773964834E-01
-0.7570279787337E-01 -0.8146164979370E-01
-0.8828581813496E-01 -0.1060523932641E+00
-0.9807471672360E-01 -0.1329283880885E+00
-0.1055024689217E+00 -0.1617846911352E+00
-0.1109343550450E+00 -0.1923459150757E+00
-0.1146589928430E+00 -0.2243682166212E+00
-0.1168857499342E+00 -0.2576444781056E+00
-0.1177527581818E+00 -0.2920118389978E+00
-0.1173430315604E+00 -0.3273408671832E+00
-0.1157609872577E+00 -0.3635390794910E+00
-0.1131276649691E+00 -0.4005548007227E+00
-0.1095224540373E+00 -0.4383549804810E+00
-0.1049791148879E+00 -0.4769093943724E+00
-0.9946602467400E-01 -0.5161782576245E+00
-0.9287639467639E-01 -0.5561130449927E+00
-0.8497722979917E-01 -0.5966535753940E+00
-0.1346251830107E-01 -0.2466966790525E-01
-0.3597368297128E-01 -0.4036846431902E-01
-0.5409549218643E-01 -0.5954534962848E-01
-0.6851677525287E-01 -0.8182559006850E-01
-0.7980257377731E-01 -0.1068432332368E+00
-0.8843579697145E-01 -0.1342559282531E+00
-0.9483211137069E-01 -0.1637526982485E+00
-0.9934034808715E-01 -0.1950558609274E+00
-0.1022355930277E+00 -0.2279222922002E+00
-0.1037162845464E+00 -0.2621476398789E+00
-0.1039125591246E+00 -0.2975709297723E+00
-0.1029061663893E+00 -0.3340680273196E+00
-0.1007921124513E+00 -0.3715529218866E+00
-0.9767595172597E-01 -0.4099777714489E+00
-0.9362853680158E-01 -0.4493147247935E+00
-0.8867756677282E-01 -0.4895417832820E+00
-0.8278838027385E-01 -0.5306330367514E+00
-0.7584755555612E-01 -0.5725522868467E+00
-0.6764675215942E-01 -0.6152101423777E+00
-0.1105701512783E-01 -0.2457071936194E-01
-0.3171259673233E-01 -0.4028166185951E-01
-0.4816651738659E-01 -0.5963313129585E-01
-0.6109628129391E-01 -0.8221863992222E-01
-0.7105252070448E-01 -0.1076548617080E+00
-0.7850014752059E-01 -0.1355893545604E+00
-0.8383586462735E-01 -0.1657058111310E+00
-0.8739090957208E-01 -0.1977248673633E+00
-0.8942583451552E-01 -0.2314046758890E+00
-0.9012775933028E-01 -0.2665437664996E+00
-0.8961859366750E-01 -0.3029846745614E+00
-0.8797655552666E-01 -0.3406090814846E+00
-0.8528698008586E-01 -0.3793373177364E+00
-0.8164138887227E-01 -0.4191260941794E+00
-0.7710185405061E-01 -0.4599529508714E+00
-0.7168979425793E-01 -0.5018035958575E+00
-0.6536699575863E-01 -0.5446607354106E+00
-0.5802435101611E-01 -0.5884878776940E+00
-0.4947311700316E-01 -0.6332072452041E+00
-0.8564892208400E-02 -0.2449287290834E-01
-0.2730429776679E-01 -0.4022004554027E-01
-0.4204640570765E-01 -0.5974581854438E-01
-0.5345007780359E-01 -0.8263089388913E-01
-0.6204690395220E-01 -0.1084732091347E+00
-0.6828125237842E-01 -0.1369102767742E+00
-0.7252923223427E-01 -0.1676209635334E+00
-0.7510333305851E-01 -0.2003247649034E+00
-0.7624867596730E-01 -0.2347814992934E+00
-0.7614045130063E-01 -0.2707931467630E+00
-0.7489182650357E-01 -0.3082064884559E+00
-0.7257585364338E-01 -0.3469091667909E+00
-0.6926808584373E-01 -0.3868276380404E+00
-0.6504717905689E-01 -0.4279232806112E+00
-0.5996652101275E-01 -0.4701787236345E+00
-0.5404154767995E-01 -0.5135856712184E+00
-0.4723309889281E-01 -0.5581317306683E+00
-0.3943783132965E-01 -0.6037863561072E+00
-0.3048083297054E-01 -0.6504852805332E+00
-0.5989831825733E-02 -0.2443624783851E-01
-0.2275503093009E-01 -0.4018239347680E-01
-0.3574361317960E-01 -0.5987886571589E-01
-0.4558895226918E-01 -0.8305350088247E-01
-0.5279894492642E-01 -0.1092851628433E+00
-0.5779463821102E-01 -0.1382012342560E+00
-0.6092987274512E-01 -0.1694760687858E+00
-0.6249724787741E-01 -0.2028284215098E+00
-0.6272554601876E-01 -0.2380201516327E+00
-0.6177734654675E-01 -0.2748570500408E+00
-0.5975650108814E-01 -0.3131905302630E+00
-0.5672966926333E-01 -0.3529140189997E+00
-0.5276265483941E-01 -0.3939596520068E+00
-0.4792227858195E-01 -0.4362932011100E+00
-0.4225361807613E-01 -0.4799016525878E+00
-0.3576712603755E-01 -0.5247812474157E+00
-0.2842377919307E-01 -0.5709246032962E+00
-0.2012602007241E-01 -0.6183078598919E+00
-0.1071038888100E-01 -0.6668778036188E+00
-0.3336135532243E-02 -0.2440070323398E-01
-0.1807238427319E-01 -0.4016731225320E-01
-0.2926841442029E-01 -0.6002799851927E-01
-0.3752565404566E-01 -0.8347842555729E-01
-0.4332381776934E-01 -0.1100785703760E+00
-0.4705783219903E-01 -0.1394458016975E+00
-0.4905755139021E-01 -0.1712501769088E+00
-0.4959453525947E-01 -0.2052099941829E+00
-0.4888032911253E-01 -0.2410893868097E+00
-0.4706421485140E-01 -0.2786981186946E+00
-0.4424017314330E-01 -0.3178923016757E+00
-0.4046757749486E-01 -0.3585707411137E+00
-0.3580263162511E-01 -0.4006706045001E+00
-0.3030127030563E-01 -0.4441614977152E+00
-0.2400086871445E-01 -0.4890339421964E+00
-0.1690769378006E-01 -0.5352879849911E+00
-0.8983503423179E-02 -0.5829207357291E+00
-0.1367892499730E-03 -0.6319140577951E+00
 0.9784595535335E-02 -0.6822217532639E+00
-0.6087812355258E-03 -0.2438609961838E-01
-0.1326517491964E-01 -0.4017343989589E-01
-0.2263269282604E-01 -0.6018927489629E-01
-0.2927472958957E-01 -0.8389830608647E-01
-0.3363856902556E-01 -0.1108422208289E+00
-0.3609029709905E-01 -0.1406286701350E+00
-0.3693407570109E-01 -0.1729236275973E+00
-0.3641928419127E-01 -0.2074451030147E+00
-0.3473936264802E-01 -0.2439595790775E+00
-0.3202964368199E-01 -0.2822807438456E+00
-0.2837374371730E-01 -0.3222692097476E+00
-0.2382312819874E-01 -0.3638285664933E+00
-0.1842464344062E-01 -0.4069002169454E+00
-0.1222422927108E-01 -0.4514568734412E+00
-0.5252188640286E-02 -0.4974918100039E+00
 0.2488700224571E-02 -0.5450080481189E+00
 0.1103526174480E-01 -0.5940061833387E+00
 0.2047218276769E-01 -0.6444719389204E+00
 0.3093898117189E-01 -0.6963622739475E+00
 0.2186574342565E-02 -0.2439235454126E-01
-0.8343364531610E-02 -0.4019954893511E-01
-0.1584978790966E-01 -0.6035911155253E-01
-0.2085236161108E-01 -0.8430644129617E-01
-0.2376197424453E-01 -0.1115658510502E+00
-0.2491329506389E-01 -0.1417357339970E+00
-0.2458315138406E-01 -0.1744782030898E+00
-0.2299764116814E-01 -0.2095110532781E+00
-0.2033128395502E-01 -0.2466030346622E+00
-0.1670487242109E-01 -0.2855715140329E+00
-0.1219125003982E-01 -0.3262811850125E+00
-0.6833572671278E-02 -0.3686396779969E+00
-0.6696430227771E-03 -0.4125917287635E+00
 0.6263776745234E-02 -0.4581123235791E+00
 0.1394282405426E-01 -0.5051966061049E+00
 0.2236752209233E-01 -0.5538495508383E+00
 0.3157250370579E-01 -0.6040738670097E+00
 0.4163444197005E-01 -0.6558570595684E+00
 0.5267811445665E-01 -0.7091560838283E+00
 0.5043627425378E-02 -0.2441945578373E-01
-0.3317973982220E-02 -0.4024457835483E-01
-0.8934367910761E-02 -0.6053430628621E-01
-0.1227622967678E-01 -0.8469679772837E-01
-0.1371440870413E-01 -0.1122401734880E+00
-0.1354977177483E-01 -0.1427541657704E+00
-0.1203027568783E-01 -0.1758972639437E+00
-0.9357709174349E-02 -0.2113870388304E+00
-0.5686931009727E-02 -0.2489942834498E+00
-0.1123682727237E-02 -0.2885396230321E+00
 0.4270279205419E-02 -0.3298912308834E+00
 0.1046033216996E-01 -0.3729599164877E+00
 0.1741735481040E-01 -0.4176927672037E+00
 0.2511300697260E-01 -0.4640661040407E+00
 0.3352922695941E-01 -0.5120759309042E+00
 0.4266811706563E-01 -0.5617279754242E+00
 0.5256120769358E-01 -0.6130255216154E+00
 0.6327572184353E-01 -0.6659558452758E+00
 0.7491927381708E-01 -0.7204734415000E+00
 0.7955474063610E-02 -0.2446745574918E-01
 0.1799010870359E-02 -0.4030764253077E-01
-0.1902297056051E-02 -0.6071205247544E-01
-0.3565354774074E-02 -0.8506403098083E-01
-0.3517682968723E-02 -0.1128569194206E+00
-0.2024187519356E-02 -0.1436725014716E+00
 0.6974388643014E-03 -0.1771658916380E+00
 0.4470642246112E-02 -0.2130543561398E+00
 0.9160870142844E-02 -0.2511103823799E+00
 0.1467785108398E-01 -0.2911572850167E+00
 0.2097113195360E-01 -0.3330659688476E+00
 0.2801470392896E-01 -0.3767494683686E+00
 0.3578772880403E-01 -0.4221561742106E+00
 0.4426957822835E-01 -0.4692627067424E+00
 0.5344733967760E-01 -0.5180648062990E+00
 0.6332443572515E-01 -0.5685676402430E+00
 0.7392830010922E-01 -0.6207734887732E+00
 0.8531517914094E-01 -0.6746675526139E+00
 0.9757306662428E-01 -0.7301998889701E+00
 0.1091466828096E-01 -0.2453645915099E-01
 0.6994740345342E-02 -0.4038802840928E-01
 0.5229496602871E-02 -0.6088994727436E-01
 0.5260051186941E-02 -0.8540350708480E-01
 0.6805115169660E-02 -0.1134088829890E+00
 0.9637643674217E-02 -0.1444807206716E+00
 0.1357142976784E-01 -0.1782710183481E+00
 0.1845595321016E-01 -0.2144965973386E+00
 0.2417750263045E-01 -0.2529311870988E+00
 0.3066159448788E-01 -0.2934001008853E+00
 0.3786919841403E-01 -0.3357761118760E+00
 0.4578288312269E-01 -0.3799734536693E+00
 0.5438966669091E-01 -0.4259407179787E+00
 0.6367595529970E-01 -0.4736537123079E+00
 0.7363332676167E-01 -0.5231067084623E+00
 0.8426574995825E-01 -0.5743029471717E+00
 0.9559554875264E-01 -0.6272421625884E+00
 0.1076664913732E+00 -0.6819058306896E+00
 0.1205446229983E+00 -0.7382380223397E+00
 0.1391328987656E-01 -0.2462660912784E-01
 0.1225561537894E-01 -0.4048518862276E-01
 0.1244316935335E-01 -0.6106599720956E-01
 0.1417875715439E-01 -0.8571132438942E-01
 0.1722980847953E-01 -0.1138899663828E+00
 0.2140875495908E-01 -0.1451703252844E+00
 0.2656190117916E-01 -0.1792015510642E+00
 0.3256541327025E-01 -0.2156998320558E+00
 0.3932683270247E-01 -0.2544396044969E+00
 0.4678767503725E-01 -0.2952473941792E+00
 0.5492035756255E-01 -0.3379968933677E+00
 0.6371589339444E-01 -0.3826024570626E+00
 0.7316870664092E-01 -0.4290117383267E+00
 0.8327158730962E-01 -0.4771985683633E+00
 0.9401994984970E-01 -0.5271545007102E+00
 0.1054175505530E+00 -0.5788794777541E+00
 0.1174806331693E+00 -0.6323692265151E+00
 0.1302391071015E+00 -0.6876000718071E+00
 0.1437350323390E+00 -0.7445089963905E+00
 0.1694301473268E-01 -0.2473807335284E-01
 0.1756740331520E-01 -0.4059873267745E-01
 0.1972010903223E-01 -0.6123862091386E-01
 0.2316868241349E-01 -0.8598433194631E-01
 0.2773131628332E-01 -0.1142952194082E+00
 0.3326122778618E-01 -0.1457344081120E+00
 0.3963804361698E-01 -0.1799484784313E+00
 0.4676510762100E-01 -0.2166527625365E+00
 0.5457149372608E-01 -0.2556218062583E+00
 0.6301481787286E-01 -0.2966824924945E+00
 0.7207887885646E-01 -0.3397084241044E+00
 0.8176291977925E-01 -0.3846129686351E+00
 0.9206830219937E-01 -0.4313416825251E+00
 0.1029935746394E+00 -0.4798652332190E+00
 0.1145373552232E+00 -0.5301711947058E+00
 0.1267024755643E+00 -0.5822548688165E+00
 0.1394982283766E+00 -0.6361066225332E+00
 0.1529394932210E+00 -0.6916964371033E+00
 0.1670427234380E+00 -0.7489535029476E+00
 0.1999519023503E-01 -0.2487103123882E-01
 0.2291536071820E-01 -0.4072841765420E-01
 0.2704108985503E-01 -0.6140664961685E-01
 0.3220707444066E-01 -0.8622014372959E-01
 0.3828385056774E-01 -0.1146208718765E+00
 0.4516640584544E-01 -0.1461677093216E+00
 0.5276826978439E-01 -0.1805049584049E+00
 0.6102028291906E-01 -0.2173468500500E+00
 0.6987319317991E-01 -0.2564674015099E+00
 0.7930070714634E-01 -0.2976929531942E+00
 0.8929785209652E-01 -0.3408959767775E+00
 0.9987181818837E-01 -0.3859877337411E+00
 0.1110304228551E+00 -0.4329105285328E+00
 0.1227773753683E+00 -0.4816306796508E+00
 0.1351139012373E+00 -0.5321305369491E+00
 0.1480412712645E+00 -0.5843994732455E+00
 0.1615611044095E+00 -0.6384212615212E+00
 0.1756723592515E+00 -0.6941585585586E+00
 0.1903647540999E+00 -0.7515323662770E+00
 0.2306091426665E-01 -0.2502566273147E-01
 0.2828436126775E-01 -0.4087413904562E-01
 0.3438643295634E-01 -0.6156932543290E-01
 0.4127069317219E-01 -0.8641714771956E-01
 0.4886111991826E-01 -0.1148643568800E+00
 0.5709511899058E-01 -0.1464666581975E+00
 0.6592046300358E-01 -0.1808663835039E+00
 0.7529562845798E-01 -0.2177764088887E+00
 0.8519303759138E-01 -0.2569695645477E+00
 0.9560236761477E-01 -0.2982707292041E+00
 0.1065296392878E+00 -0.3415501934016E+00
 0.1179896492768E+00 -0.3867160059661E+00
 0.1299961818262E+00 -0.4337060878577E+00
 0.1425575404376E+00 -0.4824812500628E+00
 0.1556770124440E+00 -0.5330174136386E+00
 0.1693537714415E+00 -0.5852968027963E+00
 0.1835812245451E+00 -0.6392954763505E+00
 0.1983418435569E+00 -0.6949679528804E+00
 0.2135980147494E+00 -0.7522268532466E+00
 0.2613111392894E-01 -0.2520213870410E-01
 0.3365902316961E-01 -0.4103592187793E-01
 0.4173616636313E-01 -0.6172629727534E-01
 0.5033599525996E-01 -0.8657450907794E-01
 0.5943653494748E-01 -0.1150243235445E+00
 0.6901791106608E-01 -0.1466293982297E+00
 0.7906223257530E-01 -0.1810304213301E+00
 0.8955556755918E-01 -0.2179386653258E+00
 0.1004918709983E+00 -0.2571251147808E+00
 0.1118765629207E+00 -0.2984122717577E+00
 0.1237263461633E+00 -0.3416672118665E+00
 0.1360632353241E+00 -0.3867936984037E+00
 0.1489064902712E+00 -0.4337241821667E+00
 0.1622684772804E+00 -0.4824128568742E+00
 0.1761540612751E+00 -0.5328280689539E+00
 0.1905598979757E+00 -0.5849437510992E+00
 0.2054708504215E+00 -0.6387272263866E+00
 0.2208526838061E+00 -0.6941241753206E+00
 0.2366403933229E+00 -0.7510387466191E+00
 0.2919662982514E-01 -0.2540061335538E-01
 0.3902384502184E-01 -0.4121391232202E-01
 0.4907019496513E-01 -0.6187761421570E-01
 0.5937932906831E-01 -0.8669216667952E-01
 0.6998342483841E-01 -0.1151006379199E+00
 0.8090527896850E-01 -0.1466557936507E+00
 0.9216118014193E-01 -0.1809970279915E+00
 0.1037645592151E+00 -0.2178337787642E+00
 0.1157306222709E+00 -0.2569345457216E+00
 0.1280802006368E+00 -0.2981185664136E+00
 0.1408402976831E+00 -0.3412487071851E+00
 0.1540397179817E+00 -0.3862234278392E+00
 0.1677027086619E+00 -0.4329686874172E+00
 0.1818452053238E+00 -0.4814310216907E+00
 0.1964732337064E+00 -0.5315701312445E+00
 0.2115806337281E+00 -0.5833505947880E+00
 0.2271436036969E+00 -0.6367300580704E+00
 0.2431113264953E+00 -0.6916447253894E+00
 0.2593918659396E+00 -0.7479901909800E+00
 0.3224829725639E-01 -0.2562121835985E-01
 0.4436333657870E-01 -0.4140836964007E-01
 0.5636846386763E-01 -0.6202371608864E-01
 0.6837712208260E-01 -0.8677082264711E-01
 0.8047524588671E-01 -0.1150943714994E+00
 0.9272790372303E-01 -0.1465474168433E+00
 0.1051851582749E+00 -0.1807684339317E+00
 0.1178873921021E+00 -0.2174648247992E+00
 0.1308706446945E+00 -0.2564020030804E+00
 0.1441707290831E+00 -0.2973951027886E+00
 0.1578245043984E+00 -0.3403018482585E+00
 0.1718671057863E+00 -0.3850144531164E+00
 0.1863272864559E+00 -0.4314514475515E+00
 0.2012240973832E+00 -0.4795507566642E+00
 0.2165643771301E+00 -0.5292624528783E+00
 0.2323389727405E+00 -0.5805407820398E+00
 0.2485155001749E+00 -0.6333328347767E+00
 0.2650270072273E+00 -0.6875647189125E+00
 0.2817555631897E+00 -0.7431233231780E+00
 0.3527702763654E-01 -0.2586405890136E-01
 0.4966214984192E-01 -0.4161965857815E-01
 0.6361112206444E-01 -0.6216542138973E-01
 0.7730606850511E-01 -0.8681192486759E-01
 0.9088578999365E-01 -0.1150077773005E+00
 0.1044568810911E+00 -0.1463075165822E+00
 0.1181025278335E+00 -0.1803491022577E+00
 0.1318894760876E+00 -0.2168377405222E+00
 0.1458740511179E+00 -0.2555352126025E+00
 0.1601065270473E+00 -0.2962517789875E+00
 0.1746331183131E+00 -0.3388391714833E+00
 0.1894948072381E+00 -0.3831825094098E+00
 0.2047243828658E+00 -0.4291920600622E+00
 0.2203435970400E+00 -0.4767962912201E+00
 0.2363598187757E+00 -0.5259347681035E+00
 0.2527608362580E+00 -0.5765505138197E+00
 0.2695059480619E+00 -0.6285792404891E+00
 0.2865127998447E+00 -0.6819363270929E+00
 0.3036388201604E+00 -0.7364996811701E+00
 0.3827388825762E-01 -0.2612921155422E-01
 0.5490520752471E-01 -0.4184824220372E-01
 0.7077868272547E-01 -0.6230391252309E-01
 0.8614331271807E-01 -0.8681764260219E-01
 0.1011893881673E+00 -0.1148442537163E+00
 0.1160639460714E+00 -0.1459409674992E+00
 0.1308824076662E+00 -0.1797456602586E+00
 0.1457371239120E+00 -0.2159612331919E+00
 0.1607040363490E+00 -0.2543453593374E+00
 0.1758472769745E+00 -0.2947027431005E+00
 0.1912218675923E+00 -0.3368783743544E+00
 0.2068741374626E+00 -0.3807495424706E+00
 0.2228404554829E+00 -0.4262175385560E+00
 0.2391448979572E+00 -0.4732006504394E+00
 0.2557951408170E+00 -0.5216271761551E+00
 0.2727759424799E+00 -0.5714281250443E+00
 0.2900387022329E+00 -0.6225270617595E+00
 0.3074866336266E+00 -0.6748279801969E+00
 0.3249542205052E+00 -0.7281993800483E+00
 0.4123017936250E-01 -0.2641672396991E-01
 0.6007782727918E-01 -0.4209467523842E-01
 0.7785217811679E-01 -0.6244071859602E-01
 0.9486662627999E-01 -0.8679083558689E-01
 0.1113611062639E+00 -0.1146082967988E+00
 0.1275216879610E+00 -0.1454542017976E+00
 0.1434949126141E+00 -0.1789668056386E+00
 0.1593978181520E+00 -0.2148466544552E+00
 0.1753251809015E+00 -0.2528469213534E+00
 0.1913543145797E+00 -0.2927661757854E+00
 0.2075484617724E+00 -0.3344420342446E+00
 0.2239587886819E+00 -0.3777433493370E+00
 0.2406248055651E+00 -0.4225618602081E+00
 0.2575725728585E+00 -0.4688050942408E+00
 0.2748098994922E+00 -0.5163894594067E+00
 0.2923186180593E+00 -0.5652332746407E+00
 0.3100427643568E+00 -0.6152472536041E+00
 0.3278722722075E+00 -0.6663233314576E+00
 0.3456206379057E+00 -0.7183200321784E+00
 0.4413750805141E-01 -0.2672661636593E-01
 0.6516584105014E-01 -0.4235959800710E-01
 0.8481330846655E-01 -0.6257769609889E-01
 0.1034545776877E+00 -0.8673501724547E-01
 0.1213769320060E+00 -0.1143054419583E+00
 0.1388037546703E+00 -0.1448551246742E+00
 0.1559113780096E+00 -0.1780231895453E+00
 0.1728404610005E+00 -0.2135078430007E+00
 0.1897037328097E+00 -0.2510574617870E+00
 0.2065909506090E+00 -0.2904640190512E+00
 0.2235729620481E+00 -0.3315572589198E+00
 0.2407052577482E+00 -0.3741971336755E+00
 0.2580300718507E+00 -0.4182654079025E+00
 0.2755751427738E+00 -0.4636584285064E+00
 0.2933482779533E+00 -0.5102802481866E+00
 0.3113285406658E+00 -0.5580359549222E+00
 0.3294532185162E+00 -0.6068227955055E+00
 0.3476002425269E+00 -0.6565199788874E+00
 0.3655642606488E+00 -0.7069753704419E+00
 0.4698785793721E-01 -0.2705888476054E-01
 0.7015570787307E-01 -0.4264373112122E-01
 0.9164458269333E-01 -0.6271700789624E-01
 0.1118866924638E+00 -0.8665431284494E-01
 0.1312139504349E+00 -0.1139421964112E+00
 0.1498850429611E+00 -0.1441530154083E+00
 0.1681045667507E+00 -0.1769272791436E+00
 0.1860356022482E+00 -0.2119609393955E+00
 0.2038078620719E+00 -0.2489973842326E+00
 0.2215227583517E+00 -0.2878216577760E+00
 0.2392581091164E+00 -0.3282552771143E+00
 0.2570732219053E+00 -0.3701489860806E+00
 0.2750126625914E+00 -0.4133743194307E+00
 0.2931055747149E+00 -0.4578162022409E+00
 0.3113596594640E+00 -0.5033660471340E+00
 0.3297513978132E+00 -0.5499153340905E+00
 0.3482119857360E+00 -0.5973473476810E+00
 0.3666086962415E+00 -0.6455279498704E+00
 0.3847195702212E+00 -0.6942936001317E+00
 0.4977365357113E-01 -0.2741350587658E-01
 0.7503461861112E-01 -0.4294787103543E-01
 0.9832944914508E-01 -0.6286110105460E-01
 0.1201436014109E+00 -0.8655341362723E-01
 0.1408505052981E+00 -0.1135259640320E+00
 0.1607418716984E+00 -0.1433584165322E+00
 0.1800488555555E+00 -0.1756932030918E+00
 0.1989556414904E+00 -0.2102241776419E+00
 0.2176078830681E+00 -0.2466896574703E+00
 0.2361178214344E+00 -0.2848675617457E+00
 0.2545696021343E+00 -0.3245709790735E+00
 0.2730258551295E+00 -0.3656413016242E+00
 0.2915331166837E+00 -0.4079397585241E+00
 0.3101216968896E+00 -0.4513398077904E+00
 0.3287991079434E+00 -0.4957201415323E+00
 0.3475394463053E+00 -0.5409584499859E+00
 0.3662684790438E+00 -0.5869237228074E+00
 0.3848441815428E+00 -0.6334679582338E+00
 0.4030302640608E+00 -0.6804154866745E+00
 0.5248781939577E-01 -0.2779044369347E-01
 0.7979059237513E-01 -0.4327288669004E-01
 0.1048524161604E+00 -0.6301268413733E-01
 0.1282071768842E+00 -0.8643752808830E-01
 0.1502663461770E+00 -0.1130649644324E+00
 0.1713521377848E+00 -0.1424830136899E+00
 0.1917203998309E+00 -0.1743365834941E+00
 0.2115750036736E+00 -0.2083176582396E+00
 0.2310764436317E+00 -0.2441595158490E+00
 0.2503469400137E+00 -0.2816328964222E+00
 0.2694763261585E+00 -0.3205424175375E+00
 0.2885300813831E+00 -0.3607201477317E+00
 0.3075563888149E+00 -0.4020171236075E+00
 0.3265865244697E+00 -0.4442955027619E+00
 0.3456277462214E+00 -0.4874214044537E+00
 0.3646519591109E+00 -0.5312587767311E+00
 0.3835801409983E+00 -0.5756621929002E+00
 0.4022623034170E+00 -0.6204694471143E+00
 0.4204500912671E+00 -0.6654921571388E+00
 0.5512383255627E-01 -0.2818965757844E-01
 0.8441256364409E-01 -0.4361971743167E-01
 0.1111991612899E+00 -0.6317470464059E-01
 0.1360606557624E+00 -0.8631233170511E-01
 0.1594427598497E+00 -0.1125681483118E+00
 0.1816954530403E+00 -0.1415395091107E+00
 0.2030972751568E+00 -0.1728743583196E+00
 0.2238702856829E+00 -0.2062631080766E+00
 0.2441886781264E+00 -0.2414341423249E+00
 0.2641837922676E+00 -0.2781511115361E+00
 0.2839505243563E+00 -0.3162102808025E+00
 0.3035567601707E+00 -0.3554345969747E+00
 0.3230520526923E+00 -0.3956652121650E+00
 0.3424684880336E+00 -0.4367533750696E+00
 0.3618130212038E+00 -0.4785530295937E+00
 0.3810555443954E+00 -0.5209146916670E+00
 0.4001128421489E+00 -0.5636786587346E+00
 0.4188282408153E+00 -0.6066684367547E+00
 0.4369435521822E+00 -0.6496826173143E+00
 0.5767576836759E-01 -0.2861111181020E-01
 0.8889045823587E-01 -0.4398937231181E-01
 0.1173566269095E+00 -0.6335032722906E-01
 0.1436887465386E+00 -0.8618391651475E-01
 0.1683626830478E+00 -0.1120451113582E+00
 0.1917532589685E+00 -0.1405414919711E+00
 0.2141595921601E+00 -0.1713245987389E+00
 0.2358203706289E+00 -0.2040836330388E+00
 0.2569223210972E+00 -0.2385423418592E+00
 0.2776050476358E+00 -0.2744575174736E+00
 0.2979679112075E+00 -0.3116173505931E+00
 0.3180808001111E+00 -0.3498360407567E+00
 0.3379944171437E+00 -0.3889453603887E+00
 0.3577415579314E+00 -0.4287862749716E+00
 0.3773288465024E+00 -0.4692012183354E+00
 0.3967243225937E+00 -0.5100278757521E+00
 0.4158411182725E+00 -0.5510927172423E+00
 0.4345170853728E+00 -0.5922052096019E+00
 0.4524864059818E+00 -0.6331510074486E+00
 0.6013834172757E-01 -0.2905478694573E-01
 0.9321526362221E-01 -0.4438293140938E-01
 0.1233131093423E+00 -0.6354291377202E-01
 0.1510777286941E+00 -0.8605874198327E-01
 0.1770108053045E+00 -0.1115060086441E+00
 0.2015089282315E+00 -0.1395033081920E+00
 0.2248895934233E+00 -0.1697063246922E+00
 0.2474065180915E+00 -0.2018034677269E+00
 0.2692577891729E+00 -0.2355142111004E+00
 0.2905904386963E+00 -0.2705888575316E+00
 0.3115077325181E+00 -0.3068079556555E+00
 0.3320812048579E+00 -0.3439774983007E+00
 0.3523625574155E+00 -0.3819205766961E+00
 0.3723852642593E+00 -0.4204687377771E+00
 0.3921556184402E+00 -0.4594538511805E+00
 0.4116399513128E+00 -0.4987016855584E+00
 0.4307482255761E+00 -0.5380256734829E+00
 0.4493139633193E+00 -0.5772218840687E+00
 0.4670659211192E+00 -0.6160636400400E+00
 0.6250693757651E-01 -0.2952069199227E-01
 0.9737908283899E-01 -0.4480154849452E-01
 0.1290583283370E+00 -0.6375600538488E-01
 0.1582155299219E+00 -0.8594358857637E-01
 0.1853736470689E+00 -0.1109614722381E+00
 0.2109478383946E+00 -0.1384399336886E+00
 0.2352717190913E+00 -0.1680393239864E+00
 0.2586124187340E+00 -0.1994477289207E+00
 0.2811782219436E+00 -0.2323808125430E+00
 0.3031227851065E+00 -0.2665828861355E+00
 0.3245527685760E+00 -0.3018274334804E+00
 0.3455410504969E+00 -0.3379129359185E+00
 0.3661402633808E+00 -0.3746546867179E+00
 0.3863846165303E+00 -0.4118759177148E+00
 0.4062801112503E+00 -0.4493991679977E+00
 0.4257915036498E+00 -0.4870395275544E+00
 0.4448260143778E+00 -0.5245985370463E+00
 0.4632139262673E+00 -0.5618599256534E+00
 0.4806808229392E+00 -0.5985858608276E+00
 0.6477763621897E-01 -0.3000887798087E-01
 0.1013751811597E+00 -0.4524645577038E-01
 0.1345834880472E+00 -0.6399330758425E-01
 0.1650917930177E+00 -0.8584551569978E-01
 0.1934396244806E+00 -0.1104225343746E+00
 0.2200574280657E+00 -0.1373668541917E+00
 0.2452926494559E+00 -0.1663439790202E+00
 0.2694242193644E+00 -0.1970421782761E+00
 0.2926694854529E+00 -0.2291738607232E+00
 0.3151879705970E+00 -0.2624779636970E+00
 0.3370892784660E+00 -0.2967216152770E+00
 0.3584473888507E+00 -0.3316966173881E+00
 0.3793158948794E+00 -0.3672115171880E+00
 0.3997299089103E+00 -0.4030825680155E+00
 0.4196952329772E+00 -0.4391245023291E+00
 0.4391751761491E+00 -0.4751432953765E+00
 0.4580745884344E+00 -0.5109300875799E+00
 0.4762215586943E+00 -0.5462577150860E+00
 0.4933408429856E+00 -0.5808788925955E+00
 0.6694723079323E-01 -0.3051945241313E-01
 0.1051980219254E+00 -0.4571897026210E-01
 0.1398813257248E+00 -0.6425867888675E-01
 0.1716979288771E+00 -0.8577182542146E-01
 0.2011990977452E+00 -0.1099005586443E+00
 0.2288272332310E+00 -0.1362999549523E+00
 0.2549413236292E+00 -0.1646411051328E+00
 0.2798305193940E+00 -0.1946129988924E+00
 0.3037201416495E+00 -0.2259254259068E+00
 0.3267748792570E+00 -0.2583126749265E+00
 0.3491068949105E+00 -0.2915363434126E+00
 0.3707910887480E+00 -0.3253824980087E+00
 0.3918821582373E+00 -0.3596541347052E+00
 0.4124164271261E+00 -0.3941620856464E+00
 0.4323996615435E+00 -0.4287150908973E+00
 0.4517938502704E+00 -0.4631118993876E+00
 0.4705017765450E+00 -0.4971350573083E+00
 0.4883503247804E+00 -0.5305482582405E+00
 0.5050658691306E+00 -0.5630968222704E+00
 0.6901323634347E-01 -0.3105259394568E-01
 0.1088432914095E+00 -0.4622050118392E-01
 0.1449461485755E+00 -0.6455612299982E-01
 0.1780271563571E+00 -0.8573003336686E-01
 0.2086444039395E+00 -0.1094071816726E+00
 0.2372489046895E+00 -0.1352554235302E+00
 0.2642089355315E+00 -0.1629518042934E+00
 0.2898223406070E+00 -0.1921865899672E+00
 0.3143213868929E+00 -0.2226676600525E+00
 0.3378752959773E+00 -0.2541254764754E+00
 0.3605984767397E+00 -0.2863170297172E+00
 0.3825666239653E+00 -0.3190236754313E+00
 0.4038358127418E+00 -0.3520441579236E+00
 0.4244440652438E+00 -0.3851856428759E+00
 0.4443973707834E+00 -0.4182529811054E+00
 0.4636565242700E+00 -0.4510399157412E+00
 0.4821224421390E+00 -0.4833224823450E+00
 0.4996216867901E+00 -0.5148571349791E+00
 0.5158847363636E+00 -0.5453839203379E+00
 0.7097389279420E-01 -0.3160856690690E-01
 0.1123079181083E+00 -0.4675255752744E-01
 0.1497738669806E+00 -0.6488978480107E-01
 0.1840745390907E+00 -0.8572784826755E-01
 0.2157698854244E+00 -0.1089542674279E+00
 0.2453162186369E+00 -0.1342496675717E+00
 0.2730889202425E+00 -0.1612973355052E+00
 0.2993930844687E+00 -0.1897893803351E+00
 0.3244669751515E+00 -0.2194325451295E+00
 0.3484837888422E+00 -0.2499543729512E+00
 0.3715599399372E+00 -0.2811082541626E+00
 0.3937718316427E+00 -0.3126719005345E+00
 0.4151773308510E+00 -0.3444411540903E+00
 0.4358168730634E+00 -0.3762214212219E+00
 0.4556970657589E+00 -0.4078160483383E+00
 0.4747776434277E+00 -0.4390163570590E+00
 0.4929576837889E+00 -0.4695942360053E+00
 0.5100640660152E+00 -0.4993007759254E+00
 0.5258337483961E+00 -0.5278724351948E+00
 0.7282815702353E-01 -0.3218773294401E-01
 0.1155900796033E+00 -0.4731675254260E-01
 0.1543620146181E+00 -0.6526394936317E-01
 0.1898370052838E+00 -0.8577316354582E-01
 0.2225718941277E+00 -0.1085538803864E+00
 0.2530250549369E+00 -0.1332992560152E+00
 0.2815769001288E+00 -0.1596990129192E+00
 0.3085384416472E+00 -0.1874476759283E+00
 0.3341530860998E+00 -0.2162516834434E+00
 0.3585975301150E+00 -0.2458366454643E+00
 0.3819900233509E+00 -0.2759534325350E+00
 0.4044075984069E+00 -0.3063771888561E+00
 0.4259104683066E+00 -0.3369021808927E+00
 0.4465424814007E+00 -0.3673340363196E+00
 0.4663114631235E+00 -0.3974772185349E+00
 0.4851762681170E+00 -0.4271236479163E+00
 0.5030339022200E+00 -0.4560438146911E+00
 0.5197117006750E+00 -0.4839852118370E+00
 0.5349549767560E+00 -0.5106812913458E+00
 0.7457568182535E-01 -0.3279055513601E-01
 0.1186892018850E+00 -0.4791479778923E-01
 0.1587097687680E+00 -0.6568304173509E-01
 0.1953133705215E+00 -0.8587406190738E-01
 0.2290487981891E+00 -0.1082182782967E+00
 0.2603733780515E+00 -0.1324208788040E+00
 0.2896706366142E+00 -0.1581781215544E+00
 0.3172563112317E+00 -0.1851875257159E+00
 0.3433782068350E+00 -0.2131561083704E+00
 0.3682161360311E+00 -0.2418086003556E+00
 0.3918900828579E+00 -0.2708945050929E+00
 0.4144775889408E+00 -0.3001874632520E+00
 0.4360418773866E+00 -0.3294814094679E+00
 0.4566315440998E+00 -0.3585840987879E+00
 0.4762565363673E+00 -0.3873038497600E+00
 0.4948751909656E+00 -0.4154366673602E+00
 0.5123818941873E+00 -0.4427551340055E+00
 0.5286036803996E+00 -0.4690049747025E+00
 0.5432948693719E+00 -0.4939156388579E+00
 0.7621677875427E-01 -0.3341758111118E-01
 0.1216059540942E+00 -0.4854847508292E-01
 0.1628179743277E+00 -0.6615162394675E-01
 0.2005043563204E+00 -0.8603884718349E-01
 0.2352009675319E+00 -0.1079599369398E+00
 0.2673611834672E+00 -0.1316313388191E+00
 0.2973699379974E+00 -0.1567558660501E+00
 0.3255466670375E+00 -0.1830346331134E+00
 0.3521429487684E+00 -0.2101761554986E+00
 0.3773414296188E+00 -0.2379053917004E+00
 0.4012638043661E+00 -0.2659717083903E+00
 0.4239878977475E+00 -0.2941482962492E+00
 0.4455806654638E+00 -0.3222298908192E+00
 0.4660970916058E+00 -0.3500281142505E+00
 0.4855505717718E+00 -0.3773575374593E+00
 0.5038997567840E+00 -0.4040221887641E+00
 0.5210357384071E+00 -0.4298013878315E+00
 0.5367830969435E+00 -0.4544421534768E+00
 0.5509033192584E+00 -0.4776669657776E+00
 0.7775234305584E-01 -0.3406938466464E-01
 0.1243422445124E+00 -0.4921953054406E-01
 0.1666891961422E+00 -0.6667440139023E-01
 0.2054126280437E+00 -0.8627610923293E-01
 0.2410307665895E+00 -0.1077916200785E+00
 0.2739904525018E+00 -0.1309475536736E+00
 0.3046765921815E+00 -0.1554533280510E+00
 0.3334114617433E+00 -0.1810142790403E+00
 0.3604499107359E+00 -0.2073413534757E+00
 0.3859772546144E+00 -0.2341608612313E+00
 0.4101169785964E+00 -0.2612233484871E+00
 0.4329467925006E+00 -0.2883026191376E+00
 0.4545380871452E+00 -0.3151952675752E+00
 0.4749541465523E+00 -0.3417183583254E+00
 0.4942133083946E+00 -0.3676945610598E+00
 0.5122764893209E+00 -0.3929385632754E+00
 0.5290314406742E+00 -0.4172437602822E+00
 0.5442965414675E+00 -0.4403642557570E+00
 0.5578337630437E+00 -0.4620129334792E+00
 0.7918372022551E-01 -0.3474625771280E-01
 0.1269012554604E+00 -0.4992949165812E-01
 0.1703278450903E+00 -0.6725617775311E-01
 0.2100428566714E+00 -0.8659496020481E-01
 0.2465425006765E+00 -0.1077264770044E+00
 0.2802650666935E+00 -0.1303865849221E+00
 0.3115942551437E+00 -0.1542914457464E+00
 0.3408544798541E+00 -0.1791513019004E+00
 0.3683034719327E+00 -0.2046803979153E+00
 0.3941291930583E+00 -0.2306074954398E+00
 0.4184571556087E+00 -0.2566857041021E+00
 0.4413643259312E+00 -0.2826905445439E+00
 0.4629271548071E+00 -0.3084215528431E+00
 0.4832193048470E+00 -0.3337028108062E+00
 0.5022655687446E+00 -0.3583664419737E+00
 0.5200310187698E+00 -0.3822387152785E+00
 0.5364042460697E+00 -0.4051291838745E+00
 0.5511933460841E+00 -0.4268210385043E+00
 0.5641446418573E+00 -0.4470150677652E+00
 0.8051228422842E-01 -0.3544788739021E-01
 0.1292876320844E+00 -0.5067836714432E-01
 0.1737405667032E+00 -0.6790254543457E-01
 0.2144016570246E+00 -0.8700529535398E-01
 0.2517423284520E+00 -0.1077781555919E+00
 0.2861907009114E+00 -0.1299656591438E+00
 0.3181283317465E+00 -0.1532910095026E+00
 0.3478812220547E+00 -0.1774700378032E+00
 0.3757096251794E+00 -0.2022212142020E+00
 0.4018042950896E+00 -0.2272764399680E+00
 0.4262933230459E+00 -0.2523929717526E+00
 0.4492519617810E+00 -0.2773492461811E+00
 0.4707622662169E+00 -0.3019487892574E+00
 0.4909105663462E+00 -0.3260247844019E+00
 0.5097290889335E+00 -0.3494199328417E+00
 0.5271890125751E+00 -0.3719719951534E+00
 0.5431816271943E+00 -0.3935031995144E+00
 0.5575212772897E+00 -0.4138237559597E+00
 0.5699067165204E+00 -0.4327138411506E+00
-0.9955373235950E-01 -0.8877179086662E-01
-0.1636763611152E+00 -0.1536689209598E+00
-0.2117352910758E+00 -0.1958373254301E+00
-0.2495349068817E+00 -0.2204890744432E+00
-0.2784628853152E+00 -0.2334432779289E+00
-0.2994262829557E+00 -0.2387859392385E+00
-0.3130887824640E+00 -0.2389844093752E+00
-0.3198787956954E+00 -0.2356620474500E+00
-0.3200846056081E+00 -0.2301133369105E+00
-0.3139226909525E+00 -0.2234612511459E+00
-0.3016014191722E+00 -0.2168995080709E+00
-0.2834549424345E+00 -0.2111263817328E+00
-0.2602550886159E+00 -0.2086624575203E+00
-0.2336675457477E+00 -0.2124546685866E+00
-0.2047482029509E+00 -0.2228940937760E+00
-0.1736991350088E+00 -0.2402674543941E+00
-0.1399963078078E+00 -0.2649042953419E+00
-0.1032672054209E+00 -0.2979995780150E+00
-0.6342369524491E-01 -0.3416984068567E+00
-0.9260286207650E-01 -0.7368306138249E-01
-0.1610705662158E+00 -0.1317736106154E+00
-0.2108244870873E+00 -0.1772066754722E+00
-0.2490113621444E+00 -0.2064535722259E+00
-0.2781808344686E+00 -0.2235827542740E+00
-0.2994246791958E+00 -0.2325794908774E+00
-0.3135042874223E+00 -0.2360366334866E+00
-0.3208815663480E+00 -0.2356860540952E+00
-0.3218497484042E+00 -0.2328680299813E+00
-0.3166125633703E+00 -0.2286964029759E+00
-0.3053538063628E+00 -0.2242848983358E+00
-0.2883693449932E+00 -0.2202660237559E+00
-0.2663224624025E+00 -0.2190034407599E+00
-0.2407402809291E+00 -0.2235482276865E+00
-0.2127522085770E+00 -0.2345997689183E+00
-0.1827226601535E+00 -0.2526013646295E+00
-0.1502501595107E+00 -0.2779053434521E+00
-0.1150137370687E+00 -0.3116402860914E+00
-0.7692626872527E-01 -0.3557543016130E+00
-0.8585298027912E-01 -0.6345161161548E-01
-0.1557145591702E+00 -0.1147923709921E+00
-0.2076115034377E+00 -0.1593953243917E+00
-0.2468237811834E+00 -0.1917703631420E+00
-0.2765372279208E+00 -0.2127234294742E+00
-0.2982338904983E+00 -0.2253672441026E+00
-0.3128217638179E+00 -0.2321748308429E+00
-0.3208386157307E+00 -0.2349091824470E+00
-0.3226105539050E+00 -0.2349380865458E+00
-0.3183509148516E+00 -0.2333601591507E+00
-0.3082330269860E+00 -0.2312377653953E+00
-0.2925342711408E+00 -0.2291712732965E+00
-0.2717865020770E+00 -0.2294170813158E+00
-0.2473628388854E+00 -0.2350656054757E+00
-0.2204356868672E+00 -0.2470235558295E+00
-0.1915007575294E+00 -0.2658562462227E+00
-0.1602815244974E+00 -0.2919462907588E+00
-0.1265185080400E+00 -0.3263563206273E+00
-0.9019988573522E-01 -0.3709519565551E+00
-0.7967432415268E-01 -0.5602973833556E-01
-0.1491498425024E+00 -0.1014630612841E+00
-0.2023835853283E+00 -0.1437666018381E+00
-0.2428282046212E+00 -0.1773854254750E+00
-0.2733594432594E+00 -0.2013502215355E+00
-0.2956888349725E+00 -0.2173843766539E+00
-0.3108967084195E+00 -0.2275135136474E+00
-0.3196205216489E+00 -0.2333915665950E+00
-0.3222468505083E+00 -0.2363606102613E+00
-0.3190166796833E+00 -0.2374949185569E+00
-0.3101047283264E+00 -0.2378163103503E+00
-0.2957864362031E+00 -0.2379095598267E+00
-0.2764532875933E+00 -0.2399408498737E+00
-0.2533141098462E+00 -0.2469958469892E+00
-0.2275615573058E+00 -0.2601193033997E+00
-0.1997908456159E+00 -0.2799655588941E+00
-0.1698460681656E+00 -0.3069449366383E+00
-0.1375427060439E+00 -0.3420830932001E+00
-0.1029147892020E+00 -0.3871713056025E+00
-0.7408990812157E-01 -0.5040534823625E-01
-0.1420877562385E+00 -0.9087093431726E-01
-0.1957645452432E+00 -0.1304004375119E+00
-0.2371743984804E+00 -0.1640562343230E+00
-0.2685918888626E+00 -0.1900348221672E+00
-0.2916789381461E+00 -0.2089689137109E+00
-0.3076059427448E+00 -0.2222378304170E+00
-0.3171051803432E+00 -0.2312338972295E+00
-0.3206362872439E+00 -0.2371946663500E+00
-0.3184811006261E+00 -0.2411426924993E+00
-0.3108256121541E+00 -0.2440568361202E+00
-0.2979577035839E+00 -0.2465083521088E+00
-0.2801283549897E+00 -0.2505774377853E+00
-0.2583740325670E+00 -0.2593036884535E+00
-0.2338893324354E+00 -0.2738171517767E+00
-0.2073410873886E+00 -0.2948329474703E+00
-0.1786848371547E+00 -0.3227890527417E+00
-0.1478007326770E+00 -0.3586772886067E+00
-0.1147310246032E+00 -0.4041926038730E+00
-0.6902219880540E-01 -0.4601290780862E-01
-0.1348892821776E+00 -0.8234478948722E-01
-0.1882355463130E+00 -0.1190859720187E+00
-0.2301630805076E+00 -0.1520812930769E+00
-0.2623222451735E+00 -0.1792493831015E+00
-0.2861740113923E+00 -0.2004902228997E+00
-0.3028693328276E+00 -0.2165855239435E+00
-0.3131910996762E+00 -0.2285768010794E+00
-0.3176649650140E+00 -0.2375205640724E+00
-0.3166172093056E+00 -0.2443481930181E+00
-0.3102516255011E+00 -0.2499801654815E+00
-0.2988795894971E+00 -0.2549670326243E+00
-0.2826170226858E+00 -0.2612973768388E+00
-0.2623227824356E+00 -0.2719232513750E+00
-0.2391774108433E+00 -0.2880155085029E+00
-0.2138947453445E+00 -0.3103259267472E+00
-0.1865266879354E+00 -0.3393137683107E+00
-0.1570017900160E+00 -0.3759267158977E+00
-0.1253410217068E+00 -0.4217313732519E+00
-0.6437813883951E-01 -0.4250101078244E-01
-0.1277307112740E+00 -0.7540126764098E-01
-0.1801338334853E+00 -0.1095380916757E+00
-0.2220918225001E+00 -0.1415171718937E+00
-0.2547204251698E+00 -0.1692723071815E+00
-0.2792245971154E+00 -0.1922644155913E+00
-0.2966611720588E+00 -0.2108048097886E+00
-0.3078099344669E+00 -0.2255852882242E+00
-0.3132379515194E+00 -0.2374359098660E+00
-0.3133089076467E+00 -0.2471596495644E+00
-0.3082454593716E+00 -0.2555963762371E+00
-0.2983887813337E+00 -0.2632622783272E+00
-0.2837286617238E+00 -0.2720414187514E+00
-0.2649444250439E+00 -0.2847554685051E+00
-0.2431880137308E+00 -0.3025762633576E+00
-0.2191982720858E+00 -0.3262686824552E+00
-0.1931072368635E+00 -0.3563028644454E+00
-0.1648775411081E+00 -0.3935668951899E+00
-0.1344945762238E+00 -0.4394723375659E+00
-0.6007087991368E-01 -0.3963796778302E-01
-0.1206917942067E+00 -0.6968509664213E-01
-0.1716837829141E+00 -0.1014789109599E+00
-0.2132116294681E+00 -0.1322969600329E+00
-0.2459774623656E+00 -0.1602316950102E+00
-0.2709339015476E+00 -0.1845112544983E+00
-0.2890072130934E+00 -0.2051119812816E+00
-0.3009322081479E+00 -0.2224241351521E+00
-0.3072874299298E+00 -0.2370450379049E+00
-0.3084590029023E+00 -0.2496264544897E+00
-0.3046838570903E+00 -0.2609066793526E+00
-0.2963336179433E+00 -0.2713515338487E+00
-0.2832829442148E+00 -0.2827227071259E+00
-0.2660334926906E+00 -0.2976681295870E+00
-0.2456954281573E+00 -0.3173236178926E+00
-0.2230139032180E+00 -0.3424440129048E+00
-0.1981865212443E+00 -0.3734985118544E+00
-0.1712011092519E+00 -0.4113017866396E+00
-0.1420064994074E+00 -0.4570947384693E+00
-0.5602604352085E-01 -0.3726421027994E-01
-0.1138003162321E+00 -0.6493045016600E-01
-0.1630301678825E+00 -0.9466087370633E-01
-0.2037191486224E+00 -0.1242984783250E+00
-0.2362742739199E+00 -0.1521540629345E+00
-0.2614288044993E+00 -0.1773585442645E+00
-0.2799707704567E+00 -0.1996678614202E+00
-0.2925653192171E+00 -0.2192351327561E+00
-0.2997764020922E+00 -0.2364451123290E+00
-0.3019951285155E+00 -0.2517934202489E+00
-0.2994641641211E+00 -0.2659030165525E+00
-0.2925808542124E+00 -0.2791752947656E+00
-0.2811171753866E+00 -0.2932296555092E+00
-0.2654032790369E+00 -0.3104986228065E+00
-0.2464961045937E+00 -0.3320481357917E+00
-0.2251321535890E+00 -0.3586012737064E+00
-0.2015626348985E+00 -0.3906154287225E+00
-0.1757968509193E+00 -0.4288229308442E+00
-0.1477548965664E+00 -0.4742900468082E+00
-0.5218238108678E-01 -0.3526632817468E-01
-0.1070564191415E+00 -0.6093516130043E-01
-0.1542632604049E+00 -0.8887133692902E-01
-0.1937624723534E+00 -0.1173796546664E+00
-0.2257686787292E+00 -0.1450032340812E+00
-0.2508403965324E+00 -0.1708603396320E+00
-0.2696376143816E+00 -0.1945741528314E+00
-0.2827465013662E+00 -0.2161234951562E+00
-0.2906981006060E+00 -0.2357138827030E+00
-0.2938728746915E+00 -0.2536937689920E+00
-0.2925094163646E+00 -0.2705661257504E+00
-0.2870219332904E+00 -0.2866587481579E+00
-0.2770937366806E+00 -0.3034297336132E+00
-0.2628944791968E+00 -0.3230594120434E+00
-0.2454184529381E+00 -0.3465146321832E+00
-0.2253820887715E+00 -0.3744677791632E+00
-0.2030802693696E+00 -0.4073557716770E+00
-0.1785433409477E+00 -0.4458252758189E+00
-0.1516746890633E+00 -0.4907735261740E+00
-0.4849063678571E-01 -0.3356180210019E-01
-0.1004462681270E+00 -0.5754345669060E-01
-0.1454367651129E+00 -0.8393056297851E-01
-0.1834503275531E+00 -0.1113966789112E+00
-0.2145924107856E+00 -0.1387069948061E+00
-0.2392931497627E+00 -0.1650168897792E+00
-0.2581041881385E+00 -0.1898797941359E+00
-0.2715346868772E+00 -0.2131538828843E+00
-0.2800726479742E+00 -0.2349022220640E+00
-0.2840763611536E+00 -0.2553433516348E+00
-0.2837715711163E+00 -0.2748634263800E+00
-0.2795780752509E+00 -0.2937133386769E+00
-0.2711066918630E+00 -0.3131742149357E+00
-0.2583828932831E+00 -0.3351455443180E+00
-0.2423309220723E+00 -0.3604723762134E+00
-0.2236384197085E+00 -0.3897614113780E+00
-0.2026347260186E+00 -0.4234229025092E+00
-0.1793718730028E+00 -0.4620193595020E+00
-0.1537492408751E+00 -0.5062912237249E+00
-0.4491191627139E-01 -0.3208953455084E-01
-0.9394993553017E-01 -0.5463410504446E-01
-0.1365803680955E+00 -0.7968782708177E-01
-0.1728611564741E+00 -0.1062129582715E+00
-0.2028528238676E+00 -0.1331745223248E+00
-0.2269000975373E+00 -0.1597916484872E+00
-0.2454698565043E+00 -0.1855911087345E+00
-0.2590034744912E+00 -0.2103527602652E+00
-0.2679427419115E+00 -0.2340318342114E+00
-0.2726170171229E+00 -0.2567376113693E+00
-0.2732329132337E+00 -0.2787479644280E+00
-0.2702037410731E+00 -0.3002388555367E+00
-0.2630868168588E+00 -0.3223037443738E+00
-0.2517852792839E+00 -0.3465433506060E+00
-0.2371475885693E+00 -0.3736662163459E+00
-0.2198253488196E+00 -0.4042029931369E+00
-0.2001724138019E+00 -0.4385332059018E+00
-0.1782623477284E+00 -0.4771401693898E+00
-0.1540016843489E+00 -0.5206236048855E+00
-0.4141607103037E-01 -0.3080370924863E-01
-0.8754602823831E-01 -0.5211209219070E-01
-0.1277085440908E+00 -0.7601732139379E-01
-0.1620510106749E+00 -0.1017032537531E+00
-0.1906365500938E+00 -0.1283075055687E+00
-0.2137616992343E+00 -0.1551245298378E+00
-0.2318325587270E+00 -0.1816823749046E+00
-0.2452359610426E+00 -0.2077141150592E+00
-0.2543695453534E+00 -0.2330969194729E+00
-0.2595314407346E+00 -0.2578515386666E+00
-0.2609059817313E+00 -0.2821590492088E+00
-0.2588883666509E+00 -0.3061263896489E+00
-0.2530046529833E+00 -0.3306544777751E+00
-0.2430628582151E+00 -0.3570395358466E+00
-0.2298309956618E+00 -0.3858475823541E+00
-0.2139175170203E+00 -0.4175275887415E+00
-0.1956888958141E+00 -0.4524257400725E+00
-0.1752379430706E+00 -0.4909531744938E+00
-0.1524868561218E+00 -0.5335867088483E+00
-0.3798023970365E-01 -0.2966964207438E-01
-0.8121437246460E-01 -0.4990259954651E-01
-0.1188267179650E+00 -0.7281438973033E-01
-0.1510599996087E+00 -0.9775525264803E-01
-0.1780136450176E+00 -0.1240071271638E+00
-0.1999666792347E+00 -0.1509417911605E+00
-0.2172868170643E+00 -0.1781053772847E+00
-0.2303212972787E+00 -0.2052064956791E+00
-0.2394292148269E+00 -0.2320683635585E+00
-0.2448788680112E+00 -0.2586421138734E+00
-0.2468323461599E+00 -0.2850246465769E+00
-0.2456564016283E+00 -0.3112622546917E+00
-0.2408713938407E+00 -0.3380645606902E+00
-0.2322222209562E+00 -0.3664301016371E+00
-0.2203921981978E+00 -0.3967847921642E+00
-0.2059384510393E+00 -0.4294944900191E+00
-0.1892253446944E+00 -0.4648700011339E+00
-0.1703595683315E+00 -0.5032581917975E+00
-0.1492844044873E+00 -0.5450315178393E+00
-0.3458762015232E-01 -0.2866088800296E-01
-0.7493757217574E-01 -0.4794654048375E-01
-0.1099356390671E+00 -0.6999224188671E-01
-0.1399174849759E+00 -0.9426980303277E-01
-0.1650416439779E+00 -0.1201783956596E+00
-0.1855938903112E+00 -0.1471632658598E+00
-0.2019233240596E+00 -0.1747974974850E+00
-0.2143526780414E+00 -0.2027801766915E+00
-0.2232102367971E+00 -0.2308992177471E+00
-0.2287386543766E+00 -0.2590524078450E+00
-0.2310806438485E+00 -0.2872650886375E+00
-0.2305659411739E+00 -0.3155325368337E+00
-0.2267377322359E+00 -0.3443804342649E+00
-0.2193136768615E+00 -0.3745284439089E+00
-0.2088880912012E+00 -0.4062721111495E+00
-0.1959568241582E+00 -0.4398958180408E+00
-0.1808640003881E+00 -0.4756722323414E+00
-0.1637208550789E+00 -0.5138918076776E+00
-0.1444935413121E+00 -0.5548420559303E+00
-0.3122645795829E-01 -0.2775714803868E-01
-0.6870186297334E-01 -0.4619713585298E-01
-0.1010344655874E+00 -0.6747908628404E-01
-0.1286461670934E+00 -0.9116041134213E-01
-0.1517691969429E+00 -0.1167327446219E+00
-0.1707145389841E+00 -0.1437075872477E+00
-0.1858294212235E+00 -0.1716883293938E+00
-0.1974263097056E+00 -0.2003738398639E+00
-0.2058114306039E+00 -0.2295306195021E+00
-0.2112078822285E+00 -0.2590165944074E+00
-0.2137441365256E+00 -0.2887975844738E+00
-0.2137062589280E+00 -0.3188278517786E+00
-0.2106909768073E+00 -0.3494624299452E+00
-0.2044271944342E+00 -0.3811718675461E+00
-0.1954160248395E+00 -0.4141370558450E+00
-0.1840803765755E+00 -0.4485637035688E+00
-0.1707227160754E+00 -0.4846811903056E+00
-0.1554440876047E+00 -0.5227294116149E+00
-0.1382299784932E+00 -0.5629329116849E+00
-0.2788924835308E-01 -0.2694269892154E-01
-0.6249754167545E-01 -0.4461716945373E-01
-0.9212291571350E-01 -0.6521558916229E-01
-0.1172652399948E+00 -0.8835231450407E-01
-0.1382391628619E+00 -0.1135894929162E+00
-0.1553944139161E+00 -0.1404959277248E+00
-0.1690900230919E+00 -0.1687049776814E+00
-0.1796409961143E+00 -0.1979204979861E+00
-0.1873404468637E+00 -0.2278975926755E+00
-0.1923991304885E+00 -0.2584652767585E+00
-0.1949380148679E+00 -0.2895410515890E+00
-0.1951946745511E+00 -0.3210479096014E+00
-0.1928510527984E+00 -0.3531891076544E+00
-0.1876867074261E+00 -0.3862255452998E+00
-0.1801056459619E+00 -0.4202442562941E+00
-0.1704469103246E+00 -0.4553757499035E+00
-0.1589475225056E+00 -0.4917937868663E+00
-0.1456769788984E+00 -0.5296891659039E+00
-0.1306257751876E+00 -0.5692469877976E+00
-0.2457215904027E-01 -0.2620509389250E-01
-0.5631913588837E-01 -0.4317668247465E-01
-0.8320271381558E-01 -0.6315249223887E-01
-0.1057927178802E+00 -0.8578131088746E-01
-0.1244911097472E+00 -0.1106765326225E+00
-0.1396958880860E+00 -0.1374546594250E+00
-0.1517886907755E+00 -0.1657762591148E+00
-0.1610980648501E+00 -0.1953525418628E+00
-0.1679125735965E+00 -0.2259343921673E+00
-0.1724383594987E+00 -0.2573306895107E+00
-0.1747965658104E+00 -0.2894209744673E+00
-0.1751731545167E+00 -0.3221058220500E+00
-0.1733663179435E+00 -0.3554603256406E+00
-0.1692442041524E+00 -0.3895834289589E+00
-0.1631102089596E+00 -0.4244937799241E+00
-0.1552103720832E+00 -0.4602529750409E+00
-0.1457006815404E+00 -0.4969629835897E+00
-0.1345880777028E+00 -0.5347394115477E+00
-0.1218332505196E+00 -0.5737578550108E+00
-0.2127471734597E-01 -0.2553418108134E-01
-0.5016544399928E-01 -0.4185053919166E-01
-0.7427836167071E-01 -0.6124845707830E-01
-0.9424702865563E-01 -0.8339234423492E-01
-0.1105631373527E+00 -0.1079305564986E+00
-0.1236795662670E+00 -0.1345172715788E+00
-0.1340086519202E+00 -0.1628360255757E+00
-0.1419014964502E+00 -0.1926059805555E+00
-0.1476497151327E+00 -0.2235789877258E+00
-0.1514627459705E+00 -0.2555515171721E+00
-0.1534701713149E+00 -0.2883741333039E+00
-0.1538047483107E+00 -0.3219324297665E+00
-0.1524098196578E+00 -0.3562002477921E+00
-0.1492757322732E+00 -0.3911677272391E+00
-0.1446007467498E+00 -0.4268147528172E+00
-0.1385312318542E+00 -0.4631449145134E+00
-0.1311324306648E+00 -0.5001811037725E+00
-0.1223532942025E+00 -0.5379339900248E+00
-0.1120353349441E+00 -0.5764782307574E+00
 0.8457261034076E-01 -0.3745603064630E-01
 0.1368524452797E+00 -0.5347514572270E-01
 0.1847741534840E+00 -0.7127170230027E-01
 0.2287886140079E+00 -0.9072176450451E-01
 0.2692436228581E+00 -0.1115897592869E+00
 0.3064702134998E+00 -0.1335901974634E+00
 0.3407910337736E+00 -0.1564256687521E+00
 0.3724925269850E+00 -0.1798021051757E+00
 0.4018137500731E+00 -0.2034355069879E+00
 0.4289314852456E+00 -0.2270651875389E+00
 0.4539606326328E+00 -0.2504663165863E+00
 0.4770058899157E+00 -0.2734456797861E+00
 0.4980375844114E+00 -0.2958764713163E+00
 0.5170371120794E+00 -0.3176660593350E+00
 0.5341276849591E+00 -0.3387277690752E+00
 0.5493987189892E+00 -0.3589828937178E+00
 0.5628722870293E+00 -0.3783489013783E+00
 0.5744643318038E+00 -0.3967254954306E+00
 0.5839917743578E+00 -0.4140729949626E+00
 0.8740536512460E-01 -0.3882982786283E-01
 0.1422002726351E+00 -0.5562968543632E-01
 0.1925987718666E+00 -0.7415187152890E-01
 0.2390100512476E+00 -0.9424059104667E-01
 0.2816831115222E+00 -0.1156055152932E+00
 0.3208669274321E+00 -0.1379091260171E+00
 0.3568346367670E+00 -0.1608191012155E+00
 0.3898405237778E+00 -0.1840228371132E+00
 0.4201091981887E+00 -0.2072308418589E+00
 0.4478102626703E+00 -0.2301904347026E+00
 0.4730533819907E+00 -0.2526993585149E+00
 0.4959817685308E+00 -0.2745918911278E+00
 0.5164738092192E+00 -0.2958021470182E+00
 0.5344184310689E+00 -0.3163233306302E+00
 0.5500198602391E+00 -0.3361505574229E+00
 0.5634717047300E+00 -0.3552969641437E+00
 0.5749147624334E+00 -0.3737719950346E+00
 0.5843573355863E+00 -0.3915755129228E+00
 0.5917711978508E+00 -0.4087554381614E+00
 0.9024279135341E-01 -0.4029169872696E-01
 0.1475659156226E+00 -0.5795724570072E-01
 0.2004270876696E+00 -0.7731032279258E-01
 0.2491758348554E+00 -0.9814406795214E-01
 0.2939608240807E+00 -0.1200930632505E+00
 0.3349555771949E+00 -0.1427547671605E+00
 0.3723934108331E+00 -0.1657553413787E+00
 0.4065077550928E+00 -0.1887619649430E+00
 0.4375195696911E+00 -0.2114838063283E+00
 0.4656021698620E+00 -0.2336824487649E+00
 0.4908710382822E+00 -0.2551841286551E+00
 0.5135100773586E+00 -0.2758613136326E+00
 0.5333316154190E+00 -0.2957076565953E+00
 0.5501624273177E+00 -0.3148168546472E+00
 0.5642853438010E+00 -0.3332924383614E+00
 0.5759915002732E+00 -0.3512524369358E+00
 0.5855279538151E+00 -0.3687973162957E+00
 0.5929970831307E+00 -0.3860004425628E+00
 0.5984330365381E+00 -0.4029059703719E+00
 0.9309346038602E-01 -0.4185456653801E-01
 0.1529677193855E+00 -0.6049038932561E-01
 0.2082801471748E+00 -0.8080434730769E-01
 0.2593009131173E+00 -0.1025114172124E+00
 0.3060791399046E+00 -0.1251467507824E+00
 0.3487234393737E+00 -0.1482293037111E+00
 0.3874405706256E+00 -0.1713384667522E+00
 0.4224571765889E+00 -0.1941215755461E+00
 0.4540029301693E+00 -0.2162931779992E+00
 0.4822659172350E+00 -0.2376371442299E+00
 0.5073774997706E+00 -0.2580160392069E+00
 0.5295627407078E+00 -0.2773539497775E+00
 0.5485929706464E+00 -0.2957012309657E+00
 0.5642620600910E+00 -0.3132624958645E+00
 0.5769277887561E+00 -0.3302717252898E+00
 0.5869688229143E+00 -0.3469592982768E+00
 0.5947222726777E+00 -0.3635071320762E+00
 0.6003522008098E+00 -0.3800368850486E+00
 0.6039217934280E+00 -0.3966185905080E+00
 0.9596947007624E-01 -0.4353479174103E-01
 0.1584288390258E+00 -0.6326976996255E-01
 0.2161820569594E+00 -0.8470220175687E-01
 0.2693994437229E+00 -0.1074335640695E+00
 0.3180361249937E+00 -0.1308704645904E+00
 0.3621515279263E+00 -0.1544398570943E+00
 0.4019431208330E+00 -0.1776714934475E+00
 0.4376474670775E+00 -0.2001965495675E+00
 0.4695162776476E+00 -0.2217452833269E+00
 0.4977631111649E+00 -0.2421349076835E+00
 0.5225440152766E+00 -0.2612742283882E+00
 0.5441240179084E+00 -0.2791541902932E+00
 0.5622567594988E+00 -0.2958772192222E+00
 0.5767292025660E+00 -0.3117642172461E+00
 0.5879674848319E+00 -0.3271968634677E+00
 0.5964251288269E+00 -0.3425215411072E+00
 0.6025059489682E+00 -0.3579942269774E+00
 0.6064145701540E+00 -0.3737851906555E+00
 0.6082309704807E+00 -0.3900073239765E+00
 0.9888717275621E-01 -0.4535329233444E-01
 0.1639772197220E+00 -0.6634602401799E-01
 0.2241584559182E+00 -0.8908576676951E-01
 0.2794821935741E+00 -0.1130148718568E+00
 0.3298223485489E+00 -0.1373775970482E+00
 0.3752114235879E+00 -0.1614965221350E+00
 0.4158591838748E+00 -0.1848528626322E+00
 0.4520311096056E+00 -0.2070701793813E+00
 0.4840145167177E+00 -0.2279096329054E+00
 0.5120580707036E+00 -0.2472364433171E+00
 0.5363494287886E+00 -0.2650176935730E+00
 0.5571905245585E+00 -0.2813272972728E+00
 0.5743379688792E+00 -0.2963133552881E+00
 0.5875932327270E+00 -0.3104136504218E+00
 0.5974415650769E+00 -0.3241700050874E+00
 0.6043965616154E+00 -0.3380465991766E+00
 0.6089081280944E+00 -0.3523712107641E+00
 0.6112069289719E+00 -0.3673641906223E+00
 0.6113870257241E+00 -0.3831917193648E+00
 0.1018680502824E+00 -0.4733693689415E-01
 0.1696454148830E+00 -0.6978243014549E-01
 0.2322344954830E+00 -0.9405329755721E-01
 0.2895531219922E+00 -0.1193746840331E+00
 0.3414170573224E+00 -0.1447904250385E+00
 0.3878618551817E+00 -0.1695095142494E+00
 0.4291355255256E+00 -0.1929719539166E+00
 0.4655530611892E+00 -0.2148090222866E+00
 0.4974501495858E+00 -0.2348339629002E+00
 0.5251181650897E+00 -0.2529785658422E+00
 0.5487806893552E+00 -0.2692820000556E+00
 0.5687714080618E+00 -0.2839169950578E+00
 0.5848673869811E+00 -0.2970693789078E+00
 0.5969011571010E+00 -0.3092897837864E+00
 0.6054057889861E+00 -0.3212873342057E+00
 0.6109403480902E+00 -0.3336438065972E+00
 0.6139829438237E+00 -0.3467567961928E+00
 0.6147800639924E+00 -0.3608975463353E+00
 0.6134400326270E+00 -0.3762893069092E+00
 0.1049397992899E+00 -0.4952045954663E-01
 0.1754700932966E+00 -0.7365825263333E-01
 0.2404320065746E+00 -0.9972260146380E-01
 0.2996050697008E+00 -0.1266485993165E+00
 0.3527837422613E+00 -0.1532385806852E+00
 0.4000451985187E+00 -0.1785850100340E+00
 0.4417055364289E+00 -0.2021033107941E+00
 0.4781502296044E+00 -0.2234568363639E+00
 0.5097738493302E+00 -0.2425389823937E+00
 0.5369148797344E+00 -0.2593703302154E+00
 0.5598338196134E+00 -0.2740768248398E+00
 0.5788888022722E+00 -0.2869440731523E+00
 0.5938915469985E+00 -0.2981861437277E+00
 0.6047175819004E+00 -0.3084577466743E+00
 0.6119353622524E+00 -0.3186363596023E+00
 0.6161352413983E+00 -0.3294179436373E+00
 0.6178079527260E+00 -0.3412671864572E+00
 0.6172077862221E+00 -0.3545054414333E+00
 0.6144579272389E+00 -0.3694131053183E+00
 0.1081376649916E+00 -0.5194906885495E-01
 0.1814910137209E+00 -0.7807306426120E-01
 0.2487655329048E+00 -0.1062347367405E+00
 0.3096143473319E+00 -0.1349893128546E+00
 0.3638651443107E+00 -0.1628561398215E+00
 0.4116841532323E+00 -0.1888191579777E+00
 0.4534880390780E+00 -0.2122992510749E+00
 0.4897521083396E+00 -0.2330276458238E+00
 0.5209361707517E+00 -0.2510131622972E+00
 0.5474257423241E+00 -0.2663899552699E+00
 0.5695153689550E+00 -0.2793846726116E+00
 0.5875784159522E+00 -0.2904061107913E+00
 0.6014723981141E+00 -0.2996853327495E+00
 0.6111237955983E+00 -0.3079674463231E+00
 0.6171234166350E+00 -0.3162925925883E+00
 0.6200790762092E+00 -0.3254641044480E+00
 0.6204802323294E+00 -0.3360100414023E+00
 0.6185820882656E+00 -0.3483000373673E+00
 0.6145227698203E+00 -0.3626698016069E+00
 0.1115060520226E+00 -0.5468208849652E-01
 0.1877491260290E+00 -0.8315244597950E-01
 0.2572367599825E+00 -0.1137583338599E+00
 0.3195339719405E+00 -0.1445666092821E+00
 0.3745778142579E+00 -0.1737765740276E+00
 0.4226790285872E+00 -0.2002895593364E+00
 0.4643874681463E+00 -0.2235805905724E+00
 0.5002830232468E+00 -0.2434981794348E+00
 0.5308906407691E+00 -0.2602081433067E+00
 0.5566371397258E+00 -0.2739831473624E+00
 0.5778442345496E+00 -0.2851611861382E+00
 0.5948900341129E+00 -0.2942785868293E+00
 0.6076864867937E+00 -0.3015701512989E+00
 0.6162158205632E+00 -0.3078528849943E+00
 0.6210780656894E+00 -0.3143172583271E+00
 0.6228848886581E+00 -0.3218641666659E+00
 0.6221118493251E+00 -0.3310806951073E+00
 0.6190087545886E+00 -0.3423825232876E+00
 0.6137279718594E+00 -0.3561581068255E+00
 0.1151004367521E+00 -0.5779819462885E-01
 0.1942832610017E+00 -0.8905570884658E-01
 0.2658266844446E+00 -0.1224946125438E+00
 0.3292853171662E+00 -0.1555657603819E+00
 0.3848065883637E+00 -0.1861244111428E+00
 0.4329064164306E+00 -0.2130433899767E+00
 0.4742962445419E+00 -0.2359254475527E+00
 0.5096665352343E+00 -0.2548003789589E+00
 0.5395983950878E+00 -0.2700357356091E+00
 0.5645479058995E+00 -0.2820636188144E+00
 0.5848536113596E+00 -0.2913374707753E+00
 0.6008877321494E+00 -0.2985175311508E+00
 0.6126236052806E+00 -0.3038271399706E+00
 0.6201017805028E+00 -0.3081325139529E+00
 0.6239187476559E+00 -0.3127562533078E+00
 0.6246765601329E+00 -0.3186848211333E+00
 0.6228252861148E+00 -0.3265598796459E+00
 0.6186033510203E+00 -0.3368411060029E+00
 0.6121758312026E+00 -0.3499671044194E+00
 0.1189895172417E+00 -0.6140315846489E-01
 0.2011244163590E+00 -0.9598655902673E-01
 0.2744844650397E+00 -0.1326828962230E+00
 0.3387479439316E+00 -0.1681827663564E+00
 0.3943997062155E+00 -0.2000016805939E+00
 0.4422204579181E+00 -0.2270811554549E+00
 0.4831003484508E+00 -0.2492565434919E+00
 0.5178324046289E+00 -0.2668153049590E+00
 0.5470341936642E+00 -0.2803678595256E+00
 0.5711732222283E+00 -0.2905165768941E+00
 0.5905926152941E+00 -0.2978245852879E+00
 0.6056495333197E+00 -0.3030635216221E+00
 0.6163849188263E+00 -0.3064288953595E+00
 0.6228988835532E+00 -0.3088105083748E+00
 0.6257723777583E+00 -0.3116402625845E+00
 0.6255844832440E+00 -0.3159769034876E+00
 0.6227490764605E+00 -0.3225126150648E+00
 0.6174874539194E+00 -0.3317496866353E+00
 0.6099750375856E+00 -0.3441747091076E+00
 0.1232574229019E+00 -0.6564176850272E-01
 0.2082859740994E+00 -0.1042082544884E+00
 0.2831115288293E+00 -0.1446059921647E+00
 0.3477478546901E+00 -0.1826136485287E+00
 0.4031663229044E+00 -0.2154664211289E+00
 0.4504587777483E+00 -0.2423355498673E+00
 0.4906893559375E+00 -0.2634287398088E+00
 0.5247262468363E+00 -0.2793709525913E+00
 0.5531932088012E+00 -0.2910411817162E+00
 0.5765480715046E+00 -0.2992057176825E+00
 0.5951270391072E+00 -0.3045198790142E+00
 0.6092663088271E+00 -0.3078464200274E+00
 0.6190806639031E+00 -0.3093371882529E+00
 0.6247303352418E+00 -0.3098786524430E+00
 0.6267697138476E+00 -0.3109858056899E+00
 0.6257415828447E+00 -0.3137757914677E+00
 0.6220137879001E+00 -0.3189880343519E+00
 0.6157850634710E+00 -0.3271671419499E+00
 0.6072380401203E+00 -0.3388463782913E+00
 0.1280053755082E+00 -0.7071700482616E-01
 0.2157467099585E+00 -0.1140656254080E+00
 0.2915388575709E+00 -0.1585933759671E+00
 0.3560454709794E+00 -0.1990323293100E+00
 0.4108798066206E+00 -0.2324995166518E+00
 0.4574560050464E+00 -0.2586462937988E+00
 0.4969717703549E+00 -0.2782208787809E+00
 0.5303209673883E+00 -0.2922476027990E+00
 0.5580971001423E+00 -0.3018678894600E+00
 0.5807290722092E+00 -0.3079832835458E+00
 0.5985386431358E+00 -0.3113140963814E+00
 0.6118397848740E+00 -0.3127898546265E+00
 0.6208275592396E+00 -0.3125058529736E+00
 0.6257224762086E+00 -0.3113185237826E+00
 0.6270422538363E+00 -0.3107970456406E+00
 0.6252799126538E+00 -0.3121027325384E+00
 0.6207484301653E+00 -0.3160200297012E+00
 0.6136191971301E+00 -0.3231371911634E+00
 0.6040783101733E+00 -0.3340342038447E+00
 0.1333512066710E+00 -0.7692255119019E-01
 0.2234205274525E+00 -0.1260178670123E+00
 0.2994951517207E+00 -0.1750164149832E+00
 0.3633275816949E+00 -0.2175471193362E+00
 0.4172933784135E+00 -0.2509559822145E+00
 0.4630681941329E+00 -0.2757365674136E+00
 0.5018948344016E+00 -0.2933395881871E+00
 0.5346272491520E+00 -0.3051948325027E+00
 0.5617970856726E+00 -0.3126521903068E+00
 0.5837935719325E+00 -0.3167012811097E+00
 0.6009226695649E+00 -0.3180975522382E+00
 0.6134797810969E+00 -0.3178143567668E+00
 0.6217462256482E+00 -0.3158828997981E+00
 0.6260025050653E+00 -0.3131037587990E+00
 0.6267199870742E+00 -0.3110682931366E+00
 0.6243280085592E+00 -0.3109670428680E+00
 0.6190773279048E+00 -0.3136286338211E+00
 0.6111086551346E+00 -0.3196887730753E+00
 0.6006075972139E+00 -0.3297764134006E+00
 0.1394220696596E+00 -0.8470218853519E-01
 0.2311009878434E+00 -0.1406875846909E+00
 0.3065644949523E+00 -0.1942609740588E+00
 0.3692157630810E+00 -0.2381164167926E+00
 0.4221783883755E+00 -0.2705033269633E+00
 0.4672094152424E+00 -0.2932058124074E+00
 0.5054633310331E+00 -0.3084473491374E+00
 0.5376981752862E+00 -0.3179598574245E+00
 0.5643719660600E+00 -0.3232087770190E+00
 0.5858355156104E+00 -0.3252207582185E+00
 0.6023837785338E+00 -0.3247636442319E+00
 0.6143010689829E+00 -0.3228383065479E+00
 0.6219590303153E+00 -0.3194114655224E+00
 0.6256972123554E+00 -0.3152023246947E+00
 0.6259303481415E+00 -0.3117872577764E+00
 0.6230091867901E+00 -0.3103692672029E+00
 0.6171174163631E+00 -0.3118220890381E+00
 0.6083648686808E+00 -0.3168367992837E+00
 0.5969332265575E+00 -0.3260971584364E+00
 0.1463282138172E+00 -0.9476716625664E-01
 0.2383518395891E+00 -0.1589363891685E+00
 0.3121459340833E+00 -0.2166285444985E+00
 0.3733184494160E+00 -0.2604015755275E+00
 0.4253998115815E+00 -0.2905651212276E+00
 0.4698880389183E+00 -0.3105801345514E+00
 0.5077454411146E+00 -0.3232140927034E+00
 0.5396245174172E+00 -0.3303184384560E+00
 0.5659207480017E+00 -0.3333770338987E+00
 0.5869587480068E+00 -0.3334164258164E+00
 0.6030310346216E+00 -0.3312087073366E+00
 0.6144203844772E+00 -0.3277760963535E+00
 0.6215888424514E+00 -0.3230293682852E+00
 0.6249331936667E+00 -0.3175787186027E+00
 0.6247988519995E+00 -0.3129392975047E+00
 0.6214409964445E+00 -0.3103054860235E+00
 0.6149759614229E+00 -0.3105997933376E+00
 0.6054884571403E+00 -0.3145830248781E+00
 0.5931553894927E+00 -0.3230063233211E+00
 0.1540594546977E+00 -0.1083832458755E+00
 0.2443011699182E+00 -0.1819371638288E+00
 0.3154517204113E+00 -0.2420712140226E+00
 0.3754185397692E+00 -0.2834972820333E+00
 0.4269935207957E+00 -0.3104303382916E+00
 0.4712091166867E+00 -0.3274148404512E+00
 0.5088609700379E+00 -0.3373695835723E+00
 0.5405215209144E+00 -0.3420948976989E+00
 0.5665522073722E+00 -0.3430268942629E+00
 0.5872689731448E+00 -0.3411767104476E+00
 0.6029724882677E+00 -0.3373278849202E+00
 0.6139540861546E+00 -0.3325329917417E+00
 0.6207592506678E+00 -0.3266668629936E+00
 0.6238391702312E+00 -0.3201965261609E+00
 0.6234516655649E+00 -0.3145124113712E+00
 0.6197366065967E+00 -0.3107735587370E+00
 0.6127485050283E+00 -0.3099562754670E+00
 0.6025652548436E+00 -0.3129172621020E+00
 0.5893633647798E+00 -0.3204983276677E+00
 0.1621831074549E+00 -0.1280960084295E+00
 0.2470512607037E+00 -0.2113052120276E+00
 0.3160840207074E+00 -0.2689819140467E+00
 0.3756529817743E+00 -0.3062447382302E+00
 0.4271390442247E+00 -0.3294793496489E+00
 0.4713449922494E+00 -0.3433837922395E+00
 0.5089565363043E+00 -0.3507270560762E+00
 0.5405142008600E+00 -0.3531641269530E+00
 0.5663742144520E+00 -0.3520596081386E+00
 0.5868651433015E+00 -0.3484008700660E+00
 0.6023088592789E+00 -0.3430081091663E+00
 0.6130164339333E+00 -0.3369928477505E+00
 0.6195979286685E+00 -0.3302426029186E+00
 0.6225518450955E+00 -0.3230235444945E+00
 0.6220194355791E+00 -0.3165035459572E+00
 0.6180069516263E+00 -0.3117777647541E+00
 0.6105220966518E+00 -0.3098914216786E+00
 0.5996574379495E+00 -0.3118172328872E+00
 0.5856307273126E+00 -0.3185495879281E+00
-0.8357337894977E-01 -0.6390404031273E+00
-0.9090270477416E-01 -0.6391130610615E+00
-0.9732540688767E-01 -0.6376739425126E+00
-0.1027582841792E+00 -0.6346531372033E+00
-0.1070992963616E+00 -0.6300145265345E+00
-0.1102404897352E+00 -0.6237410343510E+00
-0.1120676598627E+00 -0.6158321480880E+00
-0.1124626973154E+00 -0.6063058740123E+00
-0.1113061757859E+00 -0.5952024998808E+00
-0.1084809419419E+00 -0.5825893838397E+00
-0.1038769556421E+00 -0.5685665129877E+00
-0.9739788226164E-01 -0.5532727602674E+00
-0.8897011858682E-01 -0.5368927738832E+00
-0.7855521534012E-01 -0.5196642960354E+00
-0.6616704135207E-01 -0.5018853455069E+00
-0.5189545475321E-01 -0.4839198465554E+00
-0.3593873627483E-01 -0.4661984484259E+00
-0.1864517571399E-01 -0.4492066904898E+00
-0.5606395661217E-03 -0.4334445769395E+00
-0.6581019105600E-01 -0.6619754753797E+00
-0.7307306094353E-01 -0.6641674888805E+00
-0.7955687860392E-01 -0.6649400660992E+00
-0.8513639931138E-01 -0.6641784122713E+00
-0.8970489863103E-01 -0.6618061197550E+00
-0.9314897052210E-01 -0.6577688727229E+00
-0.9534723192917E-01 -0.6520295434897E+00
-0.9617027733180E-01 -0.6445672490338E+00
-0.9548223794495E-01 -0.6353793245527E+00
-0.9314300988533E-01 -0.6244851787333E+00
-0.8901133164490E-01 -0.6119317171754E+00
-0.8294904440468E-01 -0.5978003335546E+00
-0.7482717464184E-01 -0.5822156886389E+00
-0.6453490399962E-01 -0.5653566394923E+00
-0.5199324049191E-01 -0.5474697557306E+00
-0.3717664967454E-01 -0.5288858136446E+00
-0.2014842870484E-01 -0.5100391446196E+00
-0.1121376256914E-02 -0.4914880515266E+00
 0.1944089860530E-01 -0.4739261544559E+00
-0.4704932075620E-01 -0.6844339084053E+00
-0.5410323937455E-01 -0.6889034474812E+00
-0.6049698722286E-01 -0.6920254176131E+00
-0.6609290601223E-01 -0.6936919483538E+00
-0.7076936061223E-01 -0.6938043076289E+00
-0.7440578953032E-01 -0.6922803607614E+00
-0.7687439645717E-01 -0.6890517006119E+00
-0.7803801403369E-01 -0.6840627216394E+00
-0.7774961128995E-01 -0.6772713551930E+00
-0.7585279587486E-01 -0.6686515588158E+00
-0.7218285828009E-01 -0.6581974432667E+00
-0.6656838427359E-01 -0.6459291687543E+00
-0.5883371620174E-01 -0.6319009931579E+00
-0.4880291401485E-01 -0.6162121836640E+00
-0.3630652623915E-01 -0.5990219769370E+00
-0.2119377463405E-01 -0.5805705422782E+00
-0.3355772050540E-02 -0.5612093342942E+00
 0.1722833022336E-01 -0.5414467079060E+00
 0.4038988856584E-01 -0.5220194549922E+00
-0.2730633493884E-01 -0.7061532880190E+00
-0.3403470149799E-01 -0.7130026329061E+00
-0.4019549726030E-01 -0.7185987582494E+00
-0.4565685847890E-01 -0.7228379336469E+00
-0.5029149777174E-01 -0.7256162819703E+00
-0.5397171010602E-01 -0.7268361427551E+00
-0.5656340681162E-01 -0.7264083049986E+00
-0.5792230533739E-01 -0.7242519455626E+00
-0.5789202171665E-01 -0.7202950950175E+00
-0.5630295346848E-01 -0.7144760302451E+00
-0.5297150432092E-01 -0.7067458372866E+00
-0.4769935238492E-01 -0.6970723333082E+00
-0.4027263906643E-01 -0.6854457101408E+00
-0.3046108762829E-01 -0.6718865694308E+00
-0.1801724635793E-01 -0.6564575582831E+00
-0.2676442328282E-02 -0.6392808223718E+00
 0.1584124426704E-01 -0.6205655071017E+00
 0.3782301683717E-01 -0.6006542429499E+00
 0.6353902702388E-01 -0.5801093567143E+00
-0.6626715703995E-02 -0.7268881110701E+00
-0.1291386973751E-01 -0.7361730127505E+00
-0.1870788836341E-01 -0.7443216913542E+00
-0.2388538345531E-01 -0.7512351631186E+00
-0.2831926789969E-01 -0.7568096476576E+00
-0.3187767769429E-01 -0.7609420091441E+00
-0.3442046176125E-01 -0.7635324176744E+00
-0.3579570449701E-01 -0.7644855196768E+00
-0.3583689795643E-01 -0.7637110687723E+00
-0.3436055682486E-01 -0.7611248661772E+00
-0.3116380325129E-01 -0.7566503106212E+00
-0.2602150559046E-01 -0.7502207705556E+00
-0.1868251360525E-01 -0.7417830170548E+00
-0.8864408685488E-02 -0.7313021157298E+00
 0.3754113866100E-02 -0.7187684871517E+00
 0.1954479643987E-01 -0.7042084181249E+00
 0.3894830722336E-01 -0.6877004216485E+00
 0.6250682013925E-01 -0.6694020804777E+00
 0.9092764580256E-01 -0.6495982325371E+00
 0.1492562642022E-01 -0.7464101176506E+00
 0.9192113879789E-02 -0.7581404475654E+00
 0.3891029546754E-02 -0.7688707158143E+00
-0.8619595422272E-03 -0.7785061029266E+00
-0.4942009130642E-02 -0.7869458083498E+00
-0.8215168383611E-02 -0.7940864718957E+00
-0.1053612584762E-01 -0.7998246597455E+00
-0.1174514190265E-01 -0.8040582799139E+00
-0.1166481735637E-01 -0.8066874770315E+00
-0.1009672419207E-01 -0.8076154309999E+00
-0.6817614712642E-02 -0.8067493650354E+00
-0.1574746219541E-02 -0.8040019050139E+00
 0.5920296313882E-02 -0.7992928736683E+00
 0.1600017743252E-01 -0.7925515793909E+00
 0.2905421988974E-01 -0.7837196399049E+00
 0.4554711690943E-01 -0.7727542901760E+00
 0.6604866570537E-01 -0.7596317488637E+00
 0.9128403607420E-01 -0.7443488396644E+00
 0.1222292860650E+00 -0.7269151487013E+00
 0.3727043457216E-01 -0.7645077429504E+00
 0.3219708450691E-01 -0.7786517896781E+00
 0.2750534267598E-01 -0.7919443212279E+00
 0.2330476473268E-01 -0.8042946404819E+00
 0.1971731864738E-01 -0.8156057840417E+00
 0.1687758085677E-01 -0.8257765171722E+00
 0.1493461304644E-01 -0.8347031123270E+00
 0.1405483972901E-01 -0.8422805988213E+00
 0.1442550056201E-01 -0.8484035583361E+00
 0.1625860209060E-01 -0.8529666720557E+00
 0.1979556095217E-01 -0.8558651467369E+00
 0.2531291990065E-01 -0.8569950432634E+00
 0.3312970504043E-01 -0.8562534000345E+00
 0.4361724467564E-01 -0.8535378814802E+00
 0.5721267486032E-01 -0.8487454091297E+00
 0.7443803629195E-01 -0.8417686929029E+00
 0.9592793871433E-01 -0.8324883965457E+00
 0.1224704155809E+00 -0.8207559325158E+00
 0.1550649316079E+00 -0.8063544429367E+00
 0.6031636064526E-01 -0.7809762776970E+00
 0.5600158866062E-01 -0.7974532415798E+00
 0.5202400359640E-01 -0.8132337095186E+00
 0.4848775877370E-01 -0.8282312119216E+00
 0.4551121705237E-01 -0.8423527915720E+00
 0.4322777394446E-01 -0.8554999762644E+00
 0.4178780791133E-01 -0.8675698321881E+00
 0.4136152150327E-01 -0.8784557470192E+00
 0.4214245925753E-01 -0.8880478596407E+00
 0.4435164579001E-01 -0.8962331449864E+00
 0.4824245054778E-01 -0.9028951461493E+00
 0.5410642054776E-01 -0.9079132515556E+00
 0.6228043635868E-01 -0.9111612755595E+00
 0.7315565635363E-01 -0.9125048944695E+00
 0.8718881289935E-01 -0.9117971666919E+00
 0.1049164337148E+00 -0.9088708213343E+00
 0.1269721922571E+00 -0.9035250855413E+00
 0.1541057863450E+00 -0.8955033291127E+00
 0.1871938587482E+00 -0.8844574990249E+00
 0.8396263865179E-01 -0.7956142714403E+00
 0.8049483415459E-01 -0.8142820969011E+00
 0.7732283633708E-01 -0.8324097372035E+00
 0.7454473187533E-01 -0.8499152616604E+00
 0.7227354185255E-01 -0.8667097220133E+00
 0.7063861121466E-01 -0.8826974347681E+00
 0.6978771972149E-01 -0.8977763666362E+00
 0.6988988495231E-01 -0.9118383559497E+00
 0.7113876187068E-01 -0.9247690269284E+00
 0.7375658922219E-01 -0.9364473157080E+00
 0.7799870315158E-01 -0.9467445137291E+00
 0.8415869179792E-01 -0.9555226671297E+00
 0.9257428202512E-01 -0.9626320581623E+00
 0.1036340064621E+00 -0.9679073377518E+00
 0.1177845383402E+00 -0.9711616672866E+00
 0.1355381613130E+00 -0.9721779695785E+00
 0.1574788563972E+00 -0.9706961620900E+00
 0.1842631864121E+00 -0.9663955530063E+00
 0.2166097713215E+00 -0.9588735756558E+00
 0.1080985057421E+00 -0.8082462357849E+00
 0.1055525992204E+00 -0.8289100169580E+00
 0.1032619572781E+00 -0.8491853954456E+00
 0.1013168917076E+00 -0.8689952367515E+00
 0.9982249771304E-01 -0.8882545487080E+00
 0.9890037257448E-01 -0.9068702710978E+00
 0.9869079255882E-01 -0.9247410952232E+00
 0.9935537762445E-01 -0.9417571355801E+00
 0.1010801911383E+00 -0.9577993200331E+00
 0.1040792089774E+00 -0.9727383917360E+00
 0.1085980969831E+00 -0.9864334084673E+00
 0.1149182242643E+00 -0.9987295849806E+00
 0.1233607863205E+00 -0.1009455262226E+01
 0.1342907853650E+00 -0.1018417716352E+01
 0.1481203644832E+00 -0.1025397465799E+01
 0.1653105412732E+00 -0.1030140756596E+01
 0.1863696331013E+00 -0.1032350162354E+01
 0.2118459219611E+00 -0.1031674006908E+01
 0.2423119158713E+00 -0.1027696602722E+01
 0.1326062720799E+00 -0.8187266571679E+00
 0.1310416702729E+00 -0.8411489889726E+00
 0.1296912033515E+00 -0.8633245878302E+00
 0.1286351270830E+00 -0.8851812019469E+00
 0.1279675548479E+00 -0.9066377198840E+00
 0.1277982440508E+00 -0.9276035765795E+00
 0.1282546834412E+00 -0.9479781078624E+00
 0.1294844956373E+00 -0.9676497486383E+00
 0.1316581021005E+00 -0.9864949754434E+00
 0.1349715601398E+00 -0.1004376904810E+01
 0.1396494507327E+00 -0.1021143457606E+01
 0.1459476502871E+00 -0.1036624987254E+01
 0.1541557406904E+00 -0.1050631255964E+01
 0.1645986822365E+00 -0.1062947646283E+01
 0.1776371785611E+00 -0.1073330546714E+01
 0.1936659026356E+00 -0.1081502004836E+01
 0.2131085344144E+00 -0.1087144073722E+01
 0.2364085927053E+00 -0.1089893791224E+01
 0.2640157220488E+00 -0.1089340316039E+01
 0.1573641473519E+00 -0.8269402523698E+00
 0.1568240845468E+00 -0.8508504417813E+00
 0.1564555039438E+00 -0.8746406224762E+00
 0.1563261879067E+00 -0.8982433458804E+00
 0.1565161308680E+00 -0.9215813191858E+00
 0.1571191897266E+00 -0.9445664898245E+00
 0.1582449360845E+00 -0.9670990277257E+00
 0.1600206957069E+00 -0.9890661481357E+00
 0.1625937097545E+00 -0.1010340716890E+01
 0.1661333100792E+00 -0.1030779587176E+01
 0.1708329585533E+00 -0.1050221624483E+01
 0.1769119483929E+00 -0.1068485385269E+01
 0.1846164968812E+00 -0.1085366433003E+01
 0.1942198731649E+00 -0.1100634316884E+01
 0.2060211137017E+00 -0.1114029324000E+01
 0.2203418257564E+00 -0.1125259266280E+01
 0.2375206472918E+00 -0.1133996777914E+01
 0.2579052418936E+00 -0.1139877829872E+01
 0.2818423056234E+00 -0.1142502276695E+01
 0.1822483187770E+00 -0.8328014781753E+00
 0.1827600352610E+00 -0.8579035884322E+00
 0.1833985237750E+00 -0.8829935056085E+00
 0.1842168559497E+00 -0.9080084003354E+00
 0.1852780244065E+00 -0.9328747743241E+00
 0.1866563170008E+00 -0.9575072801346E+00
 0.1884388275603E+00 -0.9818074150995E+00
 0.1907270701692E+00 -0.1005662065547E+01
 0.1936386262476E+00 -0.1028941880587E+01
 0.1973087163185E+00 -0.1051499465681E+01
 0.2018915494493E+00 -0.1073167401817E+01
 0.2075612610505E+00 -0.1093756117400E+01
 0.2145122059346E+00 -0.1113051671263E+01
 0.2229583372335E+00 -0.1130813553197E+01
 0.2331313938653E+00 -0.1146772678636E+01
 0.2452776736803E+00 -0.1160629843674E+01
 0.2596533290537E+00 -0.1172054995185E+01
 0.2765184047906E+00 -0.1180687710177E+01
 0.2961302031439E+00 -0.1186139212238E+01
 0.2071344814971E+00 -0.8362539092668E+00
 0.2087097217468E+00 -0.8622338306773E+00
 0.2103647883376E+00 -0.8882873502548E+00
 0.2121361990559E+00 -0.9143560088295E+00
 0.2140675679509E+00 -0.9403701180985E+00
 0.2162106115433E+00 -0.9662473781870E+00
 0.2186262495197E+00 -0.9918913616182E+00
 0.2213857646118E+00 -0.1017189863314E+01
 0.2245719598531E+00 -0.1042013125627E+01
 0.2282802234236E+00 -0.1066211963300E+01
 0.2326193824412E+00 -0.1089615834412E+01
 0.2377121991264E+00 -0.1112030929586E+01
 0.2436953410367E+00 -0.1133238383645E+01
 0.2507186520993E+00 -0.1152992751109E+01
 0.2589435787583E+00 -0.1171020925881E+01
 0.2685406834646E+00 -0.1187021715895E+01
 0.2796863149822E+00 -0.1200666285991E+01
 0.2925586888330E+00 -0.1211599633983E+01
 0.3073338129164E+00 -0.1219443152069E+01
 0.2318989716041E+00 -0.8372696761160E+00
 0.2345344565137E+00 -0.8638014767515E+00
 0.2372007022154E+00 -0.8904683081686E+00
 0.2399163663678E+00 -0.9172157723483E+00
 0.2427039880408E+00 -0.9439780164639E+00
 0.2455905669334E+00 -0.9706762172721E+00
 0.2486082117095E+00 -0.9972169292905E+00
 0.2517948332034E+00 -0.1023490311268E+01
 0.2551948427925E+00 -0.1049368259416E+01
 0.2588597995210E+00 -0.1074702495423E+01
 0.2628489325147E+00 -0.1099322681309E+01
 0.2672294498689E+00 -0.1123034660437E+01
 0.2720765358522E+00 -0.1145618951930E+01
 0.2774729420176E+00 -0.1166829650144E+01
 0.2835081032425E+00 -0.1186393894433E+01
 0.2902767626461E+00 -0.1204012067239E+01
 0.2978771664504E+00 -0.1219358839467E+01
 0.3064089759477E+00 -0.1232085102533E+01
 0.3159711197954E+00 -0.1241820709896E+01
 0.2564199477820E+00 -0.8358490300429E+00
 0.2600978971134E+00 -0.8626008774837E+00
 0.2637557455755E+00 -0.8895232269033E+00
 0.2673936083644E+00 -0.9165653507834E+00
 0.2710120407391E+00 -0.9436652140350E+00
 0.2746121539061E+00 -0.9707478989050E+00
 0.2781957834968E+00 -0.9977238895244E+00
 0.2817657054096E+00 -0.1024487236473E+01
 0.2853258896295E+00 -0.1050913637633E+01
 0.2888817779668E+00 -0.1076858492538E+01
 0.2924405665626E+00 -0.1102155012540E+01
 0.2960114686702E+00 -0.1126612496364E+01
 0.2996059284986E+00 -0.1150014906574E+01
 0.3032377546709E+00 -0.1172119900973E+01
 0.3069231445782E+00 -0.1192658476175E+01
 0.3106805802396E+00 -0.1211335359827E+01
 0.3145305893166E+00 -0.1227830238306E+01
 0.3184953700791E+00 -0.1241799827826E+01
 0.3225982723559E+00 -0.1252880686586E+01
 0.2805783531432E+00 -0.8320198324133E+00
 0.2852669132462E+00 -0.8586595975717E+00
 0.2898831481814E+00 -0.8854784710534E+00
 0.2944086128851E+00 -0.9124288878142E+00
 0.2988218086487E+00 -0.9394525028695E+00
 0.3030978171947E+00 -0.9664786336594E+00
 0.3072079702651E+00 -0.9934225542288E+00
 0.3111195703576E+00 -0.1020183658462E+01
 0.3147956851257E+00 -0.1046643524423E+01
 0.3181950457375E+00 -0.1072663931624E+01
 0.3212720870207E+00 -0.1098084907481E+01
 0.3239771722125E+00 -0.1122722907017E+01
 0.3262570442572E+00 -0.1146369257970E+01
 0.3280555347610E+00 -0.1168789026458E+01
 0.3293145377354E+00 -0.1189720468047E+01
 0.3299752179062E+00 -0.1208875216535E+01
 0.3299793778580E+00 -0.1225939321977E+01
 0.3292708566475E+00 -0.1240575186779E+01
 0.3277967450423E+00 -0.1252424372945E+01
 0.3042588056723E+00 -0.8258369947204E+00
 0.3099123239101E+00 -0.8520376797567E+00
 0.3154403743733E+00 -0.8783990156095E+00
 0.3208065970001E+00 -0.9048759374560E+00
 0.3259682096489E+00 -0.9314134852356E+00
 0.3308751596495E+00 -0.9579453419712E+00
 0.3354692846117E+00 -0.9843922147268E+00
 0.3396835141811E+00 -0.1010660064532E+01
 0.3434411614996E+00 -0.1036638201820E+01
 0.3466553734540E+00 -0.1062197279738E+01
 0.3492288302882E+00 -0.1087187239080E+01
 0.3510538043749E+00 -0.1111435286054E+01
 0.3520126981944E+00 -0.1134744017008E+01
 0.3519791727937E+00 -0.1156889840137E+01
 0.3508199386730E+00 -0.1177621876196E+01
 0.3483972051660E+00 -0.1196661536728E+01
 0.3445716789793E+00 -0.1213702965851E+01
 0.3392059026029E+00 -0.1228414482873E+01
 0.3321676439071E+00 -0.1240441121178E+01
 0.3273505866329E+00 -0.8173818009573E+00
 0.3339098327079E+00 -0.8428268856815E+00
 0.3402899168704E+00 -0.8683876508771E+00
 0.3464378318337E+00 -0.8940206917051E+00
 0.3522910778363E+00 -0.9196738956929E+00
 0.3577763538417E+00 -0.9452851530528E+00
 0.3628082165409E+00 -0.9707809066536E+00
 0.3672877435616E+00 -0.9960745299379E+00
 0.3711012638981E+00 -0.1021064525102E+01
 0.3741192495217E+00 -0.1045632542533E+01
 0.3761954980738E+00 -0.1069641236999E+01
 0.3771667748738E+00 -0.1092931998948E+01
 0.3768531164315E+00 -0.1115322634136E+01
 0.3750590134702E+00 -0.1136605114804E+01
 0.3715756671997E+00 -0.1156543590238E+01
 0.3661844232440E+00 -0.1174872912571E+01
 0.3586613273138E+00 -0.1191297978784E+01
 0.3487825433286E+00 -0.1205494178829E+01
 0.3363302994516E+00 -0.1217109139696E+01
 0.3497486288017E+00 -0.8067610669764E+00
 0.3571409382021E+00 -0.8311498371908E+00
 0.3643000666834E+00 -0.8555841907628E+00
 0.3711581720727E+00 -0.8800213711140E+00
 0.3776353050360E+00 -0.9044113162365E+00
 0.3836376959198E+00 -0.9286956119849E+00
 0.3890559471331E+00 -0.9528062956205E+00
 0.3937631608872E+00 -0.9766644765632E+00
 0.3976130620268E+00 -0.1000178738159E+01
 0.4004382128635E+00 -0.1023243282964E+01
 0.4020484638179E+00 -0.1045735786415E+01
 0.4022298419725E+00 -0.1067514934027E+01
 0.4007441473716E+00 -0.1088417642851E+01
 0.3973295944448E+00 -0.1108256019859E+01
 0.3917028770507E+00 -0.1126814201360E+01
 0.3835629990224E+00 -0.1143845352828E+01
 0.3725970324005E+00 -0.1159069260568E+01
 0.3584876377214E+00 -0.1172171040937E+01
 0.3409217372016E+00 -0.1182801420911E+01
 0.3713550590537E+00 -0.7941073981857E+00
 0.3794949151432E+00 -0.8171616090729E+00
 0.3873472711934E+00 -0.8401685139097E+00
 0.3948316695213E+00 -0.8630848557586E+00
 0.4018535227637E+00 -0.8858615692209E+00
 0.4083020881822E+00 -0.9084430360111E+00
 0.4140482694279E+00 -0.9307662207874E+00
 0.4189422557027E+00 -0.9527596350559E+00
 0.4228110358490E+00 -0.9743420668974E+00
 0.4254558595066E+00 -0.9954210013946E+00
 0.4266497658306E+00 -0.1015890642217E+01
 0.4261353693592E+00 -0.1035629432647E+01
 0.4236231903490E+00 -0.1054496972645E+01
 0.4187909484533E+00 -0.1072330253684E+01
 0.4112843969825E+00 -0.1088939213356E+01
 0.4007204081082E+00 -0.1104101790357E+01
 0.3866929840023E+00 -0.1117558962161E+01
 0.3687824602280E+00 -0.1129010591414E+01
 0.3465673842737E+00 -0.1138113090998E+01
 0.3920819017585E+00 -0.7795812767369E+00
 0.4008730792897E+00 -0.8010553446538E+00
 0.4093217903135E+00 -0.8223697368243E+00
 0.4173373584596E+00 -0.8434794695275E+00
 0.4248136324528E+00 -0.8643351993720E+00
 0.4316267760303E+00 -0.8848828183159E+00
 0.4376328001108E+00 -0.9050629801834E+00
 0.4426648200088E+00 -0.9248104954786E+00
 0.4465300364942E+00 -0.9440535167597E+00
 0.4490064611460E+00 -0.9627124138660E+00
 0.4498394409314E+00 -0.9806982064487E+00
 0.4487380955365E+00 -0.9979103808607E+00
 0.4453718812429E+00 -0.1014233873134E+01
 0.4393676643483E+00 -0.1029534961355E+01
 0.4303079593082E+00 -0.1043655810638E+01
 0.4177313914088E+00 -0.1056407522778E+01
 0.4011368812896E+00 -0.1067561912424E+01
 0.3799930486465E+00 -0.1076842983284E+01
 0.3537532403332E+00 -0.1083919921715E+01
 0.4118514042583E+00 -0.7633644532545E+00
 0.4211883586750E+00 -0.7830506942767E+00
 0.4301266122554E+00 -0.8024497286073E+00
 0.4385676200973E+00 -0.8215136983303E+00
 0.4463967271447E+00 -0.8401916510207E+00
 0.4534809259333E+00 -0.8584294797970E+00
 0.4596662823427E+00 -0.8761698620524E+00
 0.4647749823143E+00 -0.8933521356246E+00
 0.4686019521689E+00 -0.9099120359292E+00
 0.4709110043378E+00 -0.9257811904149E+00
 0.4714304646357E+00 -0.9408862237962E+00
 0.4698482568871E+00 -0.9551472637952E+00
 0.4658064756295E+00 -0.9684755464653E+00
 0.4588956062311E+00 -0.9807696977645E+00
 0.4486488320145E+00 -0.9919101192385E+00
 0.4345374316888E+00 -0.1001750776502E+01
 0.4159693736463E+00 -0.1010107744871E+01
 0.3922947461188E+00 -0.1016744700926E+01
 0.3628217863258E+00 -0.1021357725948E+01
 0.4305971305016E+00 -0.7456563134524E+00
 0.4403664412384E+00 -0.7633885095757E+00
 0.4496788095580E+00 -0.7806961619570E+00
 0.4584299403678E+00 -0.7975276895841E+00
 0.4664994740079E+00 -0.8138294026959E+00
 0.4737488739236E+00 -0.8295457541637E+00
 0.4800189356824E+00 -0.8446196624325E+00
 0.4851268467380E+00 -0.8589928582104E+00
 0.4888627094523E+00 -0.8726061977691E+00
 0.4909854131306E+00 -0.8853998639367E+00
 0.4912177053735E+00 -0.8973133356288E+00
 0.4892402718774E+00 -0.9082849385124E+00
 0.4846845955159E+00 -0.9182506772582E+00
 0.4771243550278E+00 -0.9271418675889E+00
 0.4660652048448E+00 -0.9348807923990E+00
 0.4509331382316E+00 -0.9413731458655E+00
 0.4310626832072E+00 -0.9464953801901E+00
 0.4056894222611E+00 -0.9500744971334E+00
 0.3739573290804E+00 -0.9518599225598E+00
 0.4482654663669E+00 -0.7266711495066E+00
 0.4583478196168E+00 -0.7423276831400E+00
 0.4679123088315E+00 -0.7574188778116E+00
 0.4768506428350E+00 -0.7718891447787E+00
 0.4850391008923E+00 -0.7856814663531E+00
 0.4923367016518E+00 -0.7987378913425E+00
 0.4985829837888E+00 -0.8110001647945E+00
 0.5035953197275E+00 -0.8224104630957E+00
 0.5071656559620E+00 -0.8329122084273E+00
 0.5090565263966E+00 -0.8424509306408E+00
 0.5089961145146E+00 -0.8509751239568E+00
 0.5066720383916E+00 -0.8584370009571E+00
 0.5017233876111E+00 -0.8647929591090E+00
 0.4937303365972E+00 -0.8700034095932E+00
 0.4822003847542E+00 -0.8740313013393E+00
 0.4665499471442E+00 -0.8768380480256E+00
 0.4460799334570E+00 -0.8783743122638E+00
 0.4199448662561E+00 -0.8785604959408E+00
 0.3871253447563E+00 -0.8772471744853E+00
 0.4648171021373E+00 -0.7066347273500E+00
 0.4750899271353E+00 -0.7201409115433E+00
 0.4847809171202E+00 -0.7329446797914E+00
 0.4937791223269E+00 -0.7449869977633E+00
 0.5019592495954E+00 -0.7562078488204E+00
 0.5091802298093E+00 -0.7665468965855E+00
 0.5152834215640E+00 -0.7759443195634E+00
 0.5200903851656E+00 -0.7843418030418E+00
 0.5234001333678E+00 -0.7916836922192E+00
 0.5249857120165E+00 -0.7979183268755E+00
 0.5245898782896E+00 -0.8029995886429E+00
 0.5219195118413E+00 -0.8068886932086E+00
 0.5166381855127E+00 -0.8095562433400E+00
 0.5083559815624E+00 -0.8109845038560E+00
 0.4966150562569E+00 -0.8111697134232E+00
 0.4808684233453E+00 -0.8101238757885E+00
 0.4604474628128E+00 -0.8078744697646E+00
 0.4345102390923E+00 -0.8044578061725E+00
 0.4019548578896E+00 -0.7998921283261E+00
 0.4802282569434E+00 -0.6857802545576E+00
 0.4905689691482E+00 -0.6971095608902E+00
 0.5002610292943E+00 -0.7076107737158E+00
 0.5091918049869E+00 -0.7172230628609E+00
 0.5172357070379E+00 -0.7258850179596E+00
 0.5242532229875E+00 -0.7335354368928E+00
 0.5300896272609E+00 -0.7401142969139E+00
 0.5345733346161E+00 -0.7455638933033E+00
 0.5375138492327E+00 -0.7498301650124E+00
 0.5386992194182E+00 -0.7528642648806E+00
 0.5378928353017E+00 -0.7546244730835E+00
 0.5348292927001E+00 -0.7550786017263E+00
 0.5292088621429E+00 -0.7542071055086E+00
 0.5206897861085E+00 -0.7520072119804E+00
 0.5088770475906E+00 -0.7484985345442E+00
 0.4933050961415E+00 -0.7437308494714E+00
 0.4734095057934E+00 -0.7377950161951E+00
 0.4484762466112E+00 -0.7308380351723E+00
 0.4175390972905E+00 -0.7230823040286E+00
 0.4944915759534E+00 -0.6643436294866E+00
 0.5047813925251E+00 -0.6735173467572E+00
 0.5143539227378E+00 -0.6817563286939E+00
 0.5230956400824E+00 -0.6890007873060E+00
 0.5308816404099E+00 -0.6951909966101E+00
 0.5375751659541E+00 -0.7002682636393E+00
 0.5430268316828E+00 -0.7041760911277E+00
 0.5470735690774E+00 -0.7068615024520E+00
 0.5495373111881E+00 -0.7082765541066E+00
 0.5502234211655E+00 -0.7083801194386E+00
 0.5489188261836E+00 -0.7071400906974E+00
 0.5453897633965E+00 -0.7045362282318E+00
 0.5393789675066E+00 -0.7005640118239E+00
 0.5306020097057E+00 -0.6952400653913E+00
 0.5187422868428E+00 -0.6886101207358E+00
 0.5034437440686E+00 -0.6807612522363E+00
 0.4842995078607E+00 -0.6718417077963E+00
 0.4608320997074E+00 -0.6620954473194E+00
 0.4324546005424E+00 -0.6519284554693E+00
 0.5076165460728E+00 -0.6425578934183E+00
 0.5177447341894E+00 -0.6496426429349E+00
 0.5270871886310E+00 -0.6557117825865E+00
 0.5355303550732E+00 -0.6607103675871E+00
 0.5429510754967E+00 -0.6645846470888E+00
 0.5492166225311E+00 -0.6672833933791E+00
 0.5541844160926E+00 -0.6687594620627E+00
 0.5577015077260E+00 -0.6689715353854E+00
 0.5596039496509E+00 -0.6678860921155E+00
 0.5597161595732E+00 -0.6654797324924E+00
 0.5578503840688E+00 -0.6617420679059E+00
 0.5538063772565E+00 -0.6566794837521E+00
 0.5473714697229E+00 -0.6503202336842E+00
 0.5383213416666E+00 -0.6427215775787E+00
 0.5264221152631E+00 -0.6339801329358E+00
 0.5114350505549E+00 -0.6242474806122E+00
 0.4931267047687E+00 -0.6137548523675E+00
 0.4712919968776E+00 -0.6028548771207E+00
 0.4458101037153E+00 -0.5920991108031E+00
 0.5196290620552E+00 -0.6206474272182E+00
 0.5294972176642E+00 -0.6257503878181E+00
 0.5385142686266E+00 -0.6297873767428E+00
 0.5465678169250E+00 -0.6327123346899E+00
 0.5535379773915E+00 -0.6344819863100E+00
 0.5592979803747E+00 -0.6350577225390E+00
 0.5637143677964E+00 -0.6344077421062E+00
 0.5666469906137E+00 -0.6325093700767E+00
 0.5679490506737E+00 -0.6293516226453E+00
 0.5674674165575E+00 -0.6249381934540E+00
 0.5650434490726E+00 -0.6192911142760E+00
 0.5605146358931E+00 -0.6124554202471E+00
 0.5537174940685E+00 -0.6045052564868E+00
 0.5444925192946E+00 -0.5955520288113E+00
 0.5326925833337E+00 -0.5857554631124E+00
 0.5181974319169E+00 -0.5753388419750E+00
 0.5009396477762E+00 -0.5646102859583E+00
 0.4809536945487E+00 -0.5539924598119E+00
 0.4584782546652E+00 -0.5440629165066E+00
 0.5305702826929E+00 -0.5988222918596E+00
 0.5400963272043E+00 -0.6020843844178E+00
 0.5487122187116E+00 -0.6042626660239E+00
 0.5563082193688E+00 -0.6053233080088E+00
 0.5627698007346E+00 -0.6052369891951E+00
 0.5679788657132E+00 -0.6039814727499E+00
 0.5718143771909E+00 -0.6015443364578E+00
 0.5741528221447E+00 -0.5979257355885E+00
 0.5748689120179E+00 -0.5931412951307E+00
 0.5738368555736E+00 -0.5872253314687E+00
 0.5709325251210E+00 -0.5802346359345E+00
 0.5660369068253E+00 -0.5722530566473E+00
 0.5590414039534E+00 -0.5633971092414E+00
 0.5498558886853E+00 -0.5538228240121E+00
 0.5384209559921E+00 -0.5437339470823E+00
 0.5247267675196E+00 -0.5333913134899E+00
 0.5088424065479E+00 -0.5231222626948E+00
 0.4909617047102E+00 -0.5133261105317E+00
 0.4714714601356E+00 -0.5044609601238E+00
 0.5404950263711E+00 -0.5772734598630E+00
 0.5496167866850E+00 -0.5788613159544E+00
 0.5577783122142E+00 -0.5793791857730E+00
 0.5648740610271E+00 -0.5788073518340E+00
 0.5707972458695E+00 -0.5771321389056E+00
 0.5754415529580E+00 -0.5743492894987E+00
 0.5787019879091E+00 -0.5704671342859E+00
 0.5804756105622E+00 -0.5655094522045E+00
 0.5806627234497E+00 -0.5595181949848E+00
 0.5791688941429E+00 -0.5525563078448E+00
 0.5759081127652E+00 -0.5447108275497E+00
 0.5708074129405E+00 -0.5360963437145E+00
 0.5638133949147E+00 -0.5268587846430E+00
 0.5549012606653E+00 -0.5171792988726E+00
 0.5440871631402E+00 -0.5072776583551E+00
 0.5314447654074E+00 -0.4974139164832E+00
 0.5171263904002E+00 -0.4878856065298E+00
 0.5013865910201E+00 -0.4790147258288E+00
 0.4845925791135E+00 -0.4711130936060E+00
 0.5494702259198E+00 -0.5561692586696E+00
 0.5581487004688E+00 -0.5562668717745E+00
 0.5658266182183E+00 -0.5553363626004E+00
 0.5724038748200E+00 -0.5533720910756E+00
 0.5777837905849E+00 -0.5503757499015E+00
 0.5818748595430E+00 -0.5463606166799E+00
 0.5845913309103E+00 -0.5413548680840E+00
 0.5858538460722E+00 -0.5354040564274E+00
 0.5855908041976E+00 -0.5285731171358E+00
 0.5837407622833E+00 -0.5209482151838E+00
 0.5802560215088E+00 -0.5126385596744E+00
 0.5751075267596E+00 -0.5037781306239E+00
 0.5682912214860E+00 -0.4945270656723E+00
 0.5598359758640E+00 -0.4850722092489E+00
 0.5498130309982E+00 -0.4756259620307E+00
 0.5383463358021E+00 -0.4664220024125E+00
 0.5256217446264E+00 -0.4577056689847E+00
 0.5118894433761E+00 -0.4497161064437E+00
 0.4974508461337E+00 -0.4426606149081E+00
 0.5575722777731E+00 -0.5356534642246E+00
 0.5657934456984E+00 -0.5344541410955E+00
 0.5729814677899E+00 -0.5322906167236E+00
 0.5790425567904E+00 -0.5291692908368E+00
 0.5838924570067E+00 -0.5251053802288E+00
 0.5874571787783E+00 -0.5201279665975E+00
 0.5896725607799E+00 -0.5142829279626E+00
 0.5904843808911E+00 -0.5076344273037E+00
 0.5898495990957E+00 -0.5002657078374E+00
 0.5877387803438E+00 -0.4922795925199E+00
 0.5841395813336E+00 -0.4837987672918E+00
 0.5790611592249E+00 -0.4749656768207E+00
 0.5725393277467E+00 -0.4659416801359E+00
 0.5646421469239E+00 -0.4569049363815E+00
 0.5554752991234E+00 -0.4480463021712E+00
 0.5451859719970E+00 -0.4395623752660E+00
 0.5339629069256E+00 -0.4316449367041E+00
 0.5220295666037E+00 -0.4244673116027E+00
 0.5096287805089E+00 -0.4181706773452E+00
 0.5648734679253E+00 -0.5158440483295E+00
 0.5726406939775E+00 -0.5135425644247E+00
 0.5793474665408E+00 -0.5103569587138E+00
 0.5849077440937E+00 -0.5063019051379E+00
 0.5892526868805E+00 -0.5014035578953E+00
 0.5923285086770E+00 -0.4957047910992E+00
 0.5940941848358E+00 -0.4892667573619E+00
 0.5945207943444E+00 -0.4821687028781E+00
 0.5935925434996E+00 -0.4745071909299E+00
 0.5913090141307E+00 -0.4663951854802E+00
 0.5876881848733E+00 -0.4579609267356E+00
 0.5827698627725E+00 -0.4493463421793E+00
 0.5766191408565E+00 -0.4407046407768E+00
 0.5693293643692E+00 -0.4321967034532E+00
 0.5610238339854E+00 -0.4239859174215E+00
 0.5518551386976E+00 -0.4162312922791E+00
 0.5420009046595E+00 -0.4090792488199E+00
 0.5316554539762E+00 -0.4026554405428E+00
 0.5210188737714E+00 -0.3970590825117E+00
 0.5714414455182E+00 -0.4968385547278E+00
 0.5787684036315E+00 -0.4936267345165E+00
 0.5850102510479E+00 -0.4896204500994E+00
 0.5900924448438E+00 -0.4848379719633E+00
 0.5939658961766E+00 -0.4793144879425E+00
 0.5965995487176E+00 -0.4731054548494E+00
 0.5979758717831E+00 -0.4662853221804E+00
 0.5980898237471E+00 -0.4589449705539E+00
 0.5969499180734E+00 -0.4511894313264E+00
 0.5945802512282E+00 -0.4431358431892E+00
 0.5910228756888E+00 -0.4349113707934E+00
 0.5863400603023E+00 -0.4266507437736E+00
 0.5806160276806E+00 -0.4184931299332E+00
 0.5739577014041E+00 -0.4105781597163E+00
 0.5664939134491E+00 -0.4030410972046E+00
 0.5583725466704E+00 -0.3960074570367E+00
 0.5497553659820E+00 -0.3895877839653E+00
 0.5408110858180E+00 -0.3838736342075E+00
 0.5317084171742E+00 -0.3789356994687E+00
 0.5773435025714E+00 -0.4787199602955E+00
 0.5842494651884E+00 -0.4747836192202E+00
 0.5900453171689E+00 -0.4701423017455E+00
 0.5946763176195E+00 -0.4648149630072E+00
 0.5981186305928E+00 -0.4588467837819E+00
 0.6003648256332E+00 -0.4523066786857E+00
 0.6014190235912E+00 -0.4452808801711E+00
 0.6012968559614E+00 -0.4378685139441E+00
 0.6000268477250E+00 -0.4301784298282E+00
 0.5976522289798E+00 -0.4223267015813E+00
 0.5942325637396E+00 -0.4144342181488E+00
 0.5898448562356E+00 -0.4066240043379E+00
 0.5845838499208E+00 -0.3990180891819E+00
 0.5785612576839E+00 -0.3917339239993E+00
 0.5719037242959E+00 -0.3848805603516E+00
 0.5647494876229E+00 -0.3785550317007E+00
 0.5572440613481E+00 -0.3728395887145E+00
 0.5495353059620E+00 -0.3678004295910E+00
 0.5417682706664E+00 -0.3634877294355E+00
 0.5826429422243E+00 -0.4615628563175E+00
 0.5891441494413E+00 -0.4570756734761E+00
 0.5945105391041E+00 -0.4519588979330E+00
 0.5987227402298E+00 -0.4462368176276E+00
 0.6017840030788E+00 -0.4399727220791E+00
 0.6037066998742E+00 -0.4332503367938E+00
 0.6045123036630E+00 -0.4261654479996E+00
 0.6042325702108E+00 -0.4188212618064E+00
 0.6029112061450E+00 -0.4113256436438E+00
 0.6006052032722E+00 -0.4037889513470E+00
 0.5973856228856E+00 -0.3963218678685E+00
 0.5933376659391E+00 -0.3890329759941E+00
 0.5885599257787E+00 -0.3820260447884E+00
 0.5831627808095E+00 -0.3753971662656E+00
 0.5772660017353E+00 -0.3692320255555E+00
 0.5709958558388E+00 -0.3636037083469E+00
 0.5644821322528E+00 -0.3585714883594E+00
 0.5578559496664E+00 -0.3541811086681E+00
 0.5512467607424E+00 -0.3504671502107E+00
 0.5873873806856E+00 -0.4454453250797E+00
 0.5934803750580E+00 -0.4405494104292E+00
 0.5984399180313E+00 -0.4350679010156E+00
 0.6022844127719E+00 -0.4290642596443E+00
 0.6050312025112E+00 -0.4226254022225E+00
 0.6067055025814E+00 -0.4158471769657E+00
 0.6073411337349E+00 -0.4088292369162E+00
 0.6069819844396E+00 -0.4016729802469E+00
 0.6056829093632E+00 -0.3944801611933E+00
 0.6035102121275E+00 -0.3873514340893E+00
 0.6005415529172E+00 -0.3803846008353E+00
 0.5968652219331E+00 -0.3736725719982E+00
 0.5925787713186E+00 -0.3673011728161E+00
 0.5877870899421E+00 -0.3613470021490E+00
 0.5826001325491E+00 -0.3558755973598E+00
 0.5771306523378E+00 -0.3509401546314E+00
 0.5714925433137E+00 -0.3465810470571E+00
 0.5658001948090E+00 -0.3428262716505E+00
 0.5601731134412E+00 -0.3396943709345E+00
</DataArray>
</PointData>
   <DataArray type="Float64" Name="Load" NumberOfComponents="1"    ComponentName0="Load" format="ascii">
 0.6230802591143E+00
 0.5175047362746E+00
 0.4775040438405E+00
 0.4946935531567E+00
 0.5315186228465E+00
 0.5826275037703E+00
 0.6434794405274E+00
 0.7121960024163E+00
 0.7877150345295E+00
 0.8695930357100E+00
 0.9577730989713E+00
 0.1052510990354E+01
 0.1154345332417E+01
 0.1264109736912E+01
 0.1382981217866E+01
 0.1512604502348E+01
 0.1655320301521E+01
 0.1814730025910E+01
 0.1997017000164E+01
 0.2211461446179E+01
 0.2458500610128E+01
 0.2723696743379E+01
 0.2991155530005E+01
 0.3251817370274E+01
 0.3502744423718E+01
 0.3743992343852E+01
 0.3976077069872E+01
 0.4198510105574E+01
 0.4408724258705E+01
 0.4600989562071E+01
 0.4770349672776E+01
 0.4921597560548E+01
 0.5064600474346E+01
 0.5206463476456E+01
 0.5354927977244E+01
 0.5517576403314E+01
 0.5716354172664E+01
 0.5922284351606E+01
 0.6361951381475E+01
 0.5674255460712E+01
 0.1140963276551E+02
 0.5974972921776E+00
 0.6131377329878E+00
 0.5911241279074E+00
 0.5999355937386E+00
 0.6322150435770E+00
 0.6781082988097E+00
 0.7344850309645E+00
 0.7991576410909E+00
 0.8710398463878E+00
 0.9495939881589E+00
 0.1034694513510E+01
 0.1126533269561E+01
 0.1225589826709E+01
 0.1332638136070E+01
 0.1448788992297E+01
 0.1575590888326E+01
 0.1715225336056E+01
 0.1870834138012E+01
 0.2046147240371E+01
 0.2243387969266E+01
 0.2460032608331E+01
 0.2688277390840E+01
 0.2918930933713E+01
 0.3145181137383E+01
 0.3363332540054E+01
 0.3571629424316E+01
 0.3768814713898E+01
 0.3953008825006E+01
 0.4121219009890E+01
 0.4270225169684E+01
 0.4398092870610E+01
 0.4504531156341E+01
 0.4590071111930E+01
 0.4654153332117E+01
 0.4692000498459E+01
 0.4693996311029E+01
 0.4626693526025E+01
 0.4463546941943E+01
 0.3910634328292E+01
 0.3012142662724E+01
 0.9819096171898E+01
 0.6208140333028E+00
 0.6729074609154E+00
 0.6852042813576E+00
 0.6968211124089E+00
 0.7264783214115E+00
 0.7690594949146E+00
 0.8217565259688E+00
 0.8828598717174E+00
 0.9513107132874E+00
 0.1026576385819E+01
 0.1108492662085E+01
 0.1197200696345E+01
 0.1293115939491E+01
 0.1396930534090E+01
 0.1509638946064E+01
 0.1632600796068E+01
 0.1767632100831E+01
 0.1916842672734E+01
 0.2081460329159E+01
 0.2260489984916E+01
 0.2450768769117E+01
 0.2647681088913E+01
 0.2845900586236E+01
 0.3040492941448E+01
 0.3227702246780E+01
 0.3404796630996E+01
 0.3569405881689E+01
 0.3718900704658E+01
 0.3850451164989E+01
 0.3961848509481E+01
 0.4051228734007E+01
 0.4115462834332E+01
 0.4150009150686E+01
 0.4148277056915E+01
 0.4099004246787E+01
 0.3980396698473E+01
 0.3758958036679E+01
 0.3368147621945E+01
 0.2708834578751E+01
 0.2904282354777E+01
 0.9123506590442E+01
 0.6634238483963E+00
 0.7285157719321E+00
 0.7634006795211E+00
 0.7848132055803E+00
 0.8146324345634E+00
 0.8552918040060E+00
 0.9051963510304E+00
 0.9631922313873E+00
 0.1028442239940E+01
 0.1100472302116E+01
 0.1179117510241E+01
 0.1264479681784E+01
 0.1356906473908E+01
 0.1456987125937E+01
 0.1565555574850E+01
 0.1683700895260E+01
 0.1812694672420E+01
 0.1953474036576E+01
 0.2105515996970E+01
 0.2266439354565E+01
 0.2433167217771E+01
 0.2602800493313E+01
 0.2772217910731E+01
 0.2937880712967E+01
 0.3096303680888E+01
 0.3244335138561E+01
 0.3379024763413E+01
 0.3497450250144E+01
 0.3596970145007E+01
 0.3675563561149E+01
 0.3730820711094E+01
 0.3758046524028E+01
 0.3750150122644E+01
 0.3697783199930E+01
 0.3587312449882E+01
 0.3399021459838E+01
 0.3108764902197E+01
 0.2694953078056E+01
 0.2343166079978E+01
 0.3574979138883E+01
 0.8487637465643E+01
 0.7145915688280E+00
 0.7848783290748E+00
 0.8330903710806E+00
 0.8645489339510E+00
 0.8969544048608E+00
 0.9368789551255E+00
 0.9847687369269E+00
 0.1040112425902E+01
 0.1102391460854E+01
 0.1171251001506E+01
 0.1246553320464E+01
 0.1328372871012E+01
 0.1416986527231E+01
 0.1512863324739E+01
 0.1616642154161E+01
 0.1729078713850E+01
 0.1850825414129E+01
 0.1981804686098E+01
 0.2120428606883E+01
 0.2263811453439E+01
 0.2409177857063E+01
 0.2554617609820E+01
 0.2698287688301E+01
 0.2837642537960E+01
 0.2969598479881E+01
 0.3090946539039E+01
 0.3198547969796E+01
 0.3289453876461E+01
 0.3361153914610E+01
 0.3411549208013E+01
 0.3437785942571E+01
 0.3434559759548E+01
 0.3394160428430E+01
 0.3307174053341E+01
 0.3162388210225E+01
 0.2948884911962E+01
 0.2665124441958E+01
 0.2370240696920E+01
 0.2454727159442E+01
 0.4175020405340E+01
 0.7956263210834E+01
 0.7696314728635E+00
 0.8422041604637E+00
 0.8981660982646E+00
 0.9378108024903E+00
 0.9738337686192E+00
 0.1014012821195E+01
 0.1060526953094E+01
 0.1113630719747E+01
 0.1173158532557E+01
 0.1238916912603E+01
 0.1310817838624E+01
 0.1388918047254E+01
 0.1473422235020E+01
 0.1564667318875E+01
 0.1663074503032E+01
 0.1769036682803E+01
 0.1882615407267E+01
 0.2002969458106E+01
 0.2127934681533E+01
 0.2254545468625E+01
 0.2380367920611E+01
 0.2504093517140E+01
 0.2624639871995E+01
 0.2740168396314E+01
 0.2848033256975E+01
 0.2945195722443E+01
 0.3028592033832E+01
 0.3095405320081E+01
 0.3143255897617E+01
 0.3169995679501E+01
 0.3172654843913E+01
 0.3146128758035E+01
 0.3083511270855E+01
 0.2977522905922E+01
 0.2822479759398E+01
 0.2620092942278E+01
 0.2399295306292E+01
 0.2293226951197E+01
 0.2761513401179E+01
 0.4584810645315E+01
 0.7529786045852E+01
 0.8262588700458E+00
 0.8999269623678E+00
 0.9604277087555E+00
 0.1006191035056E+01
 0.1045889762229E+01
 0.1086948405263E+01
 0.1132594993402E+01
 0.1183806288563E+01
 0.1240782225016E+01
 0.1303507924942E+01
 0.1371960530574E+01
 0.1446186375164E+01
 0.1526318279405E+01
 0.1612555370992E+01
 0.1705092843290E+01
 0.1803968222160E+01
 0.1908740927588E+01
 0.2018049618455E+01
 0.2129473541984E+01
 0.2240168173067E+01
 0.2348023909640E+01
 0.2452120472187E+01
 0.2551846826998E+01
 0.2645882226550E+01
 0.2732016312639E+01
 0.2807516168727E+01
 0.2869561145135E+01
 0.2915575221218E+01
 0.2943370458373E+01
 0.2950907201865E+01
 0.2935474035249E+01
 0.2892814447132E+01
 0.2817852767856E+01
 0.2706906278407E+01
 0.2561470652858E+01
 0.2397737994939E+01
 0.2274624153934E+01
 0.2372128144406E+01
 0.3096920692552E+01
 0.4844657691424E+01
 0.7190131825260E+01
 0.8832791071649E+00
 0.9574955926417E+00
 0.1020677273409E+01
 0.1070831297895E+01
 0.1113788305717E+01
 0.1156003127715E+01
 0.1201143478660E+01
 0.1250740500540E+01
 0.1305335530538E+01
 0.1365092480289E+01
 0.1430060213658E+01
 0.1500279753532E+01
 0.1575814139618E+01
 0.1656725591407E+01
 0.1742989914584E+01
 0.1834325221904E+01
 0.1929900226679E+01
 0.2028034776866E+01
 0.2126251899088E+01
 0.2221918952412E+01
 0.2313220015940E+01
 0.2399504398118E+01
 0.2480472266662E+01
 0.2555201224194E+01
 0.2621900717547E+01
 0.2678219447359E+01
 0.2721684793219E+01
 0.2750047045118E+01
 0.2761405652316E+01
 0.2754025004170E+01
 0.2725789827239E+01
 0.2673773584297E+01
 0.2595395256189E+01
 0.2491355194364E+01
 0.2370978974756E+01
 0.2264692400507E+01
 0.2254723072294E+01
 0.2531975253125E+01
 0.3397142928016E+01
 0.5004700178588E+01
 0.6917686762527E+01
 0.9400400634281E+00
 0.1014507497867E+01
 0.1079267619728E+01
 0.1132495842269E+01
 0.1178128014455E+01
 0.1221524303494E+01
 0.1266376633914E+01
 0.1314567414108E+01
 0.1366921117425E+01
 0.1423766213700E+01
 0.1485222216570E+01
 0.1551327618080E+01
 0.1622079594993E+01
 0.1697410658102E+01
 0.1777096624246E+01
 0.1860588951415E+01
 0.1946776564769E+01
 0.2033814662703E+01
 0.2119292242276E+01
 0.2200825524825E+01
 0.2276863577813E+01
 0.2346960444255E+01
 0.2411041137895E+01
 0.2468508616511E+01
 0.2517973583452E+01
 0.2557505136170E+01
 0.2585043621349E+01
 0.2598736448301E+01
 0.2597074782008E+01
 0.2578812033298E+01
 0.2542695995842E+01
 0.2487451290259E+01
 0.2413348452050E+01
 0.2325759121153E+01
 0.2241696945116E+01
 0.2203686111588E+01
 0.2306481837519E+01
 0.2722429767667E+01
 0.3647261697499E+01
 0.5101555858441E+01
 0.6696622738625E+01
 0.9961786352083E+00
 0.1070698641544E+01
 0.1136357181365E+01
 0.1191690321462E+01
 0.1239405490194E+01
 0.1283856404759E+01
 0.1328519384003E+01
 0.1375445590412E+01
 0.1425666239961E+01
 0.1479648414912E+01
 0.1537575197350E+01
 0.1599483349457E+01
 0.1665309766081E+01
 0.1734869867946E+01
 0.1807767871504E+01
 0.1883248006101E+01
 0.1960018423064E+01
 0.2036182714978E+01
 0.2109468587214E+01
 0.2177752484555E+01
 0.2239726031796E+01
 0.2295114251955E+01
 0.2344022864460E+01
 0.2386136862272E+01
 0.2420450543628E+01
 0.2445470030635E+01
 0.2459588149525E+01
 0.2461407061773E+01
 0.2449904909488E+01
 0.2424475549145E+01
 0.2384918036090E+01
 0.2331789042704E+01
 0.2268334358518E+01
 0.2204518946139E+01
 0.2164209903936E+01
 0.2198327346761E+01
 0.2402493038576E+01
 0.2915329583110E+01
 0.3850100906903E+01
 0.5159095229879E+01
 0.6515213963106E+01
 0.1051494077366E+01
 0.1125909319749E+01
 0.1192025729666E+01
 0.1248756389676E+01
 0.1298019963229E+01
 0.1343321288888E+01
 0.1387805156733E+01
 0.1433550836934E+01
 0.1481717722724E+01
 0.1532878287539E+01
 0.1587267714711E+01
 0.1644920384119E+01
 0.1705719871609E+01
 0.1769381137971E+01
 0.1835370164541E+01
 0.1902782980996E+01
 0.1970230001804E+01
 0.2035843832768E+01
 0.2097532991427E+01
 0.2153433935259E+01
 0.2202464836205E+01
 0.2244505882846E+01
 0.2279823198550E+01
 0.2308358710793E+01
 0.2329474476632E+01
 0.2342117177664E+01
 0.2345154695166E+01
 0.2337687950937E+01
 0.2319258699275E+01
 0.2290011825136E+01
 0.2250913369851E+01
 0.2204421389558E+01
 0.2156707878076E+01
 0.2121953218320E+01
 0.2129417359276E+01
 0.2233820356320E+01
 0.2522394297165E+01
 0.3097172979648E+01
 0.4013453312636E+01
 0.5192384809700E+01
 0.6364965512256E+01
 0.1105880846157E+01
 0.1180053307366E+01
 0.1246325852465E+01
 0.1303935500344E+01
 0.1354291224153E+01
 0.1400210286296E+01
 0.1444466549745E+01
 0.1489069824817E+01
 0.1535237312347E+01
 0.1583611220896E+01
 0.1634464722002E+01
 0.1687828245011E+01
 0.1743540022333E+01
 0.1801233613540E+01
 0.1860271692580E+01
 0.1919656520419E+01
 0.1977967673114E+01
 0.2033423095541E+01
 0.2084135493208E+01
 0.2128496390143E+01
 0.2165639679132E+01
 0.2195594974279E+01
 0.2218781508968E+01
 0.2235383739086E+01
 0.2245117280233E+01
 0.2247365037561E+01
 0.2241480479128E+01
 0.2227093550588E+01
 0.2204364406003E+01
 0.2174260301595E+01
 0.2138969959152E+01
 0.2102836332240E+01
 0.2074769559348E+01
 0.2072514918733E+01
 0.2128785113014E+01
 0.2297591464692E+01
 0.2652433916418E+01
 0.3262707505234E+01
 0.4145455621451E+01
 0.5210895678229E+01
 0.6239686622587E+01
 0.1159291211147E+01
 0.1233094827710E+01
 0.1299304931994E+01
 0.1357409134122E+01
 0.1408478900469E+01
 0.1454783641205E+01
 0.1498729380402E+01
 0.1542194797490E+01
 0.1586397473459E+01
 0.1632015198810E+01
 0.1679344086086E+01
 0.1728408626388E+01
 0.1779010284464E+01
 0.1830721232257E+01
 0.1882834809781E+01
 0.1934307276632E+01
 0.1983739756018E+01
 0.2029474161537E+01
 0.2069839400895E+01
 0.2103475547715E+01
 0.2129725062368E+01
 0.2148766536224E+01
 0.2161171614639E+01
 0.2167358748710E+01
 0.2167383996433E+01
 0.2161057207310E+01
 0.2148218945207E+01
 0.2129045567496E+01
 0.2104349460833E+01
 0.2075958064412E+01
 0.2047290835364E+01
 0.2024489301095E+01
 0.2018887400786E+01
 0.2050906937987E+01
 0.2154570037010E+01
 0.2379608174610E+01
 0.2784021670801E+01
 0.3410903576079E+01
 0.4253153838021E+01
 0.5220625676980E+01
 0.6134777907411E+01
 0.1211713569203E+01
 0.1285032410236E+01
 0.1351013705442E+01
 0.1409323336350E+01
 0.1460798826059E+01
 0.1507273569742E+01
 0.1550809590126E+01
 0.1593119528147E+01
 0.1635377736856E+01
 0.1678267479624E+01
 0.1722093277972E+01
 0.1766871703940E+01
 0.1812376232498E+01
 0.1858137414123E+01
 0.1903410637890E+01
 0.1947146601368E+01
 0.1988008080087E+01
 0.2024486885771E+01
 0.2055133260514E+01
 0.2078829059089E+01
 0.2095120468744E+01
 0.2104336985028E+01
 0.2107204791123E+01
 0.2104370658710E+01
 0.2096218496722E+01
 0.2082972559448E+01
 0.2064955145569E+01
 0.2042895277732E+01
 0.2018273433731E+01
 0.1993787900390E+01
 0.1974057909908E+01
 0.1966873766821E+01
 0.1985560804394E+01
 0.2052167909766E+01
 0.2200012811619E+01
 0.2472302828425E+01
 0.2912163852178E+01
 0.3542712378281E+01
 0.4342246557632E+01
 0.5225422157830E+01
 0.6046732883443E+01
 0.1263159404968E+01
 0.1335887828634E+01
 0.1401508848835E+01
 0.1459803380070E+01
 0.1511435610625E+01
 0.1557888582550E+01
 0.1600912122959E+01
 0.1642036440666E+01
 0.1682361631449E+01
 0.1722551603978E+01
 0.1762906312751E+01
 0.1803432766167E+01
 0.1843885090523E+01
 0.1883770857247E+01
 0.1922335384778E+01
 0.1958557084561E+01
 0.1991190456607E+01
 0.2018894079481E+01
 0.2040440461426E+01
 0.2054946642398E+01
 0.2062158928080E+01
 0.2062560266103E+01
 0.2057034157186E+01
 0.2046451059247E+01
 0.2031510251425E+01
 0.2012835664487E+01
 0.1991220860430E+01
 0.1967944825654E+01
 0.1945157470717E+01
 0.1926416404809E+01
 0.1917474737119E+01
 0.1927560347338E+01
 0.1971459587202E+01
 0.2071755206497E+01
 0.2259442934452E+01
 0.2570223857605E+01
 0.3034197772880E+01
 0.3659884911682E+01
 0.4417221167317E+01
 0.5227801330563E+01
 0.5972801614570E+01
 0.1313655201214E+01
 0.1385698562533E+01
 0.1450853022221E+01
 0.1508962375923E+01
 0.1560551767625E+01
 0.1606817809114E+01
 0.1649230964111E+01
 0.1689134656706E+01
 0.1727534152599E+01
 0.1765054726646E+01
 0.1801980955027E+01
 0.1838309190750E+01
 0.1873782456932E+01
 0.1907902299119E+01
 0.1939927964376E+01
 0.1968892289915E+01
 0.1993663543804E+01
 0.2013077469929E+01
 0.2026127155176E+01
 0.2032158422086E+01
 0.2031114527390E+01
 0.2023634024001E+01
 0.2010759976646E+01
 0.1993581905351E+01
 0.1973101865285E+01
 0.1950327335744E+01
 0.1926509073355E+01
 0.1903466501515E+01
 0.1884008651395E+01
 0.1872521518709E+01
 0.1875792401455E+01
 0.1904218780407E+01
 0.1973458390220E+01
 0.2105616853293E+01
 0.2328273410867E+01
 0.2669588959769E+01
 0.3148892329039E+01
 0.3764367008280E+01
 0.4481582165618E+01
 0.5229472281166E+01
 0.5910768363517E+01
 0.1363237273727E+01
 0.1434512654896E+01
 0.1499113964598E+01
 0.1556906245680E+01
 0.1608294137360E+01
 0.1654234799629E+01
 0.1695949794102E+01
 0.1734598764901E+01
 0.1771079753081E+01
 0.1805965323349E+01
 0.1839516263721E+01
 0.1871717838489E+01
 0.1902309638933E+01
 0.1930802142801E+01
 0.1956488626523E+01
 0.1978477285037E+01
 0.1995765848858E+01
 0.2007372974182E+01
 0.2012508939222E+01
 0.2010742008713E+01
 0.2002209125774E+01
 0.1987705665860E+01
 0.1968435390139E+01
 0.1945701752352E+01
 0.1920796824525E+01
 0.1895094747556E+01
 0.1870287057548E+01
 0.1848718963695E+01
 0.1833838438308E+01
 0.1830810512286E+01
 0.1847324197716E+01
 0.1894633748495E+01
 0.1988671351710E+01
 0.2150234944642E+01
 0.2402906640724E+01
 0.2767860360625E+01
 0.3255852675307E+01
 0.3857990554176E+01
 0.4538051696985E+01
 0.5231697686639E+01
 0.5858813432524E+01
 0.1411948379602E+01
 0.1482385189523E+01
 0.1546363339595E+01
 0.1603736521570E+01
 0.1654798302089E+01
 0.1700300628421E+01
 0.1741242882596E+01
 0.1778608090052E+01
 0.1813180776693E+01
 0.1845471255614E+01
 0.1875710479271E+01
 0.1903872859572E+01
 0.1929701543565E+01
 0.1952728795608E+01
 0.1972298329458E+01
 0.1987609671319E+01
 0.1997800716916E+01
 0.2002075398957E+01
 0.1999856629801E+01
 0.1990928677764E+01
 0.1975618476015E+01
 0.1954878267677E+01
 0.1930072319671E+01
 0.1902712200750E+01
 0.1874367146783E+01
 0.1846760831901E+01
 0.1822007733345E+01
 0.1802960149203E+01
 0.1793675698647E+01
 0.1800030977427E+01
 0.1830454838794E+01
 0.1896720395813E+01
 0.2014482721425E+01
 0.2202632113960E+01
 0.2480592041376E+01
 0.2863392678468E+01
 0.3355152265056E+01
 0.3942316340188E+01
 0.4588674167987E+01
 0.5235561585068E+01
 0.5815450278313E+01
 0.1459835409394E+01
 0.1529375899503E+01
 0.1592675615351E+01
 0.1649551851108E+01
 0.1700191573098E+01
 0.1745166311708E+01
 0.1785276009549E+01
 0.1821336293127E+01
 0.1854016258398E+01
 0.1883758172067E+01
 0.1910759249313E+01
 0.1934983897084E+01
 0.1956185066149E+01
 0.1973927587309E+01
 0.1987618655091E+01
 0.1996560921564E+01
 0.2000039233405E+01
 0.1997442666202E+01
 0.1988401346383E+01
 0.1972908874410E+01
 0.1951477866231E+01
 0.1925216263160E+01
 0.1895647336757E+01
 0.1864484272130E+01
 0.1833560654400E+01
 0.1804932696493E+01
 0.1781119110643E+01
 0.1765457006339E+01
 0.1762575367223E+01
 0.1778977585388E+01
 0.1823648101932E+01
 0.1908540263271E+01
 0.2048567034312E+01
 0.2260344482507E+01
 0.2559271325252E+01
 0.2955163030394E+01
 0.3447111855649E+01
 0.4018622083408E+01
 0.4634726873691E+01
 0.5242157500919E+01
 0.5779541426696E+01
 0.1506947672985E+01
 0.1575547760605E+01
 0.1638126944427E+01
 0.1694448789155E+01
 0.1744594973997E+01
 0.1788974631658E+01
 0.1828207305813E+01
 0.1862951179023E+01
 0.1893761019838E+01
 0.1921008215177E+01
 0.1944854175591E+01
 0.1965254658879E+01
 0.1981977910858E+01
 0.1994630151069E+01
 0.2002692115448E+01
 0.2005577897573E+01
 0.2002723004930E+01
 0.1993699645486E+01
 0.1978339060337E+01
 0.1956837190865E+01
 0.1929887346770E+01
 0.1898750862876E+01
 0.1865107338762E+01
 0.1830864509174E+01
 0.1798107668492E+01
 0.1769208919515E+01
 0.1747071840026E+01
 0.1735492515254E+01
 0.1739624082669E+01
 0.1766496889748E+01
 0.1825454633064E+01
 0.1928315546703E+01
 0.2088895101331E+01
 0.2321371841353E+01
 0.2637432722801E+01
 0.3042578042131E+01
 0.3532157760433E+01
 0.4087994271769E+01
 0.4676772777425E+01
 0.5251949600904E+01
 0.5750772958326E+01
 0.1553329170431E+01
 0.1620945990638E+01
 0.1682764074353E+01
 0.1738481853552E+01
 0.1788074418306E+01
 0.1831802215390E+01
 0.1870120342968E+01
 0.1903539881407E+01
 0.1932504830449E+01
 0.1957315628678E+01
 0.1978097803551E+01
 0.1994800656016E+01
 0.2007212838996E+01
 0.2014989234003E+01
 0.2017691652126E+01
 0.2014850914762E+01
 0.2006054062126E+01
 0.1991052306906E+01
 0.1969870422405E+01
 0.1942898233942E+01
 0.1911002975498E+01
 0.1875594834908E+01
 0.1838504635108E+01
 0.1801825431637E+01
 0.1767879687092E+01
 0.1739336434688E+01
 0.1719460713498E+01
 0.1712474127695E+01
 0.1723994097695E+01
 0.1761463132384E+01
 0.1834386099218E+01
 0.1954176631074E+01
 0.2133322463111E+01
 0.2383577876220E+01
 0.2713346339893E+01
 0.3124647933467E+01
 0.3610123638116E+01
 0.4150745316725E+01
 0.4715225413888E+01
 0.5262047873625E+01
 0.5739163708654E+01
 0.1599040183412E+01
 0.1665639211384E+01
 0.1726669221742E+01
 0.1781748571661E+01
 0.1830745877571E+01
 0.1873782860319E+01
 0.1911163483695E+01
 0.1943261548288E+01
 0.1970415018511E+01
 0.1992854902378E+01
 0.2010671855506E+01
 0.2023811102130E+01
 0.2032086016765E+01
 0.2035205725374E+01
 0.2032818349230E+01
 0.2024574311148E+01
 0.2010211126102E+01
 0.1989653807420E+01
 0.1963112680604E+01
 0.1931162728818E+01
 0.1894837777499E+01
 0.1855691565110E+01
 0.1815700423432E+01
 0.1777133467730E+01
 0.1742536388873E+01
 0.1714856839672E+01
 0.1697697405975E+01
 0.1695668620048E+01
 0.1714786343186E+01
 0.1762786775801E+01
 0.1849152706822E+01
 0.1984681432782E+01
 0.2180409046649E+01
 0.2445785030794E+01
 0.2786375344529E+01
 0.3201432326563E+01
 0.3681669854283E+01
 0.4207792083969E+01
 0.4750543462728E+01
 0.5272588746748E+01
 0.5733874443792E+01
 0.1644133358732E+01
 0.1709708530652E+01
 0.1769946678797E+01
 0.1824378821843E+01
 0.1872766523507E+01
 0.1915100375117E+01
 0.1951543936604E+01
 0.1982342429131E+01
 0.2007732657100E+01
 0.2027878300232E+01
 0.2042836448415E+01
 0.2052550261820E+01
 0.2056861041392E+01
 0.2055536018370E+01
 0.2048312840801E+01
 0.2034962572445E+01
 0.2015370991071E+01
 0.1989631472716E+01
 0.1958132411869E+01
 0.1921625994646E+01
 0.1881306024646E+01
 0.1838865091375E+01
 0.1796420115712E+01
 0.1756408560060E+01
 0.1721587884540E+01
 0.1695168988481E+01
 0.1681070475747E+01
 0.1684256072343E+01
 0.1711074359856E+01
 0.1769442195514E+01
 0.1868661403716E+01
 0.2018757468336E+01
 0.2229267527541E+01
 0.2507502512870E+01
 0.2856597526746E+01
 0.3273606835664E+01
 0.3747895230437E+01
 0.4260275475768E+01
 0.4783439405148E+01
 0.5284141558719E+01
 0.5728816369253E+01
 0.1688661193390E+01
 0.1753218385339E+01
 0.1812672568651E+01
 0.1866461953426E+01
 0.1914240574809E+01
 0.1955873853251E+01
 0.1991393871116E+01
 0.2020925216012E+01
 0.2044608713478E+01
 0.2062543572975E+01
 0.2074755210535E+01
 0.2081186779745E+01
 0.2081710099869E+01
 0.2076153177575E+01
 0.2064344877400E+01
 0.2046176435803E+01
 0.2021678534618E+01
 0.1991106830688E+01
 0.1955020005489E+01
 0.1914339239564E+01
 0.1870411352924E+01
 0.1825062626970E+01
 0.1780545255970E+01
 0.1739457271630E+01
 0.1704756654975E+01
 0.1679902097199E+01
 0.1669105412038E+01
 0.1677644877844E+01
 0.1712133642020E+01
 0.1780561770047E+01
 0.1891917547242E+01
 0.2055353198671E+01
 0.2278924173762E+01
 0.2568003503676E+01
 0.2923671472091E+01
 0.3341256313070E+01
 0.3809214500437E+01
 0.4308715216092E+01
 0.4814357186077E+01
 0.5296503467856E+01
 0.5726185302732E+01
 0.1732675665816E+01
 0.1796232619323E+01
 0.1854922038446E+01
 0.1908085471511E+01
 0.1955269135713E+01
 0.1996218036448E+01
 0.2030840262433E+01
 0.2059146946876E+01
 0.2081188168030E+01
 0.2097001981903E+01
 0.2106584399625E+01
 0.2109880592848E+01
 0.2106794931411E+01
 0.2097217847789E+01
 0.2081069845168E+01
 0.2058360644808E+01
 0.2029261565044E+01
 0.1994183953166E+01
 0.1953848750902E+01
 0.1909337725047E+01
 0.1862143493006E+01
 0.1814220538698E+01
 0.1767950728032E+01
 0.1726084831984E+01
 0.1691770190184E+01
 0.1668697546105E+01
 0.1661347835150E+01
 0.1675273227617E+01
 0.1717283612310E+01
 0.1795345088489E+01
 0.1918029215948E+01
 0.2093561580981E+01
 0.2328579331490E+01
 0.2626730737982E+01
 0.2987377673172E+01
 0.3404508701859E+01
 0.3866005256589E+01
 0.4353561638289E+01
 0.4843603845721E+01
 0.5309610325334E+01
 0.5726063037321E+01
 0.1776228071700E+01
 0.1838814138237E+01
 0.1896768997939E+01
 0.1949334934403E+01
 0.1995950297628E+01
 0.2036243549981E+01
 0.2070005102985E+01
 0.2097139082799E+01
 0.2117609936322E+01
 0.2131398122319E+01
 0.2138472730467E+01
 0.2138782884834E+01
 0.2132267033493E+01
 0.2118878819925E+01
 0.2098629763087E+01
 0.2071645398183E+01
 0.2038232692878E+01
 0.1998951694326E+01
 0.1954677384892E+01
 0.1906643565016E+01
 0.1856481258487E+01
 0.1806267434680E+01
 0.1758507817724E+01
 0.1716098017051E+01
 0.1682363522590E+01
 0.1661210962298E+01
 0.1657365207918E+01
 0.1676610797121E+01
 0.1725889587632E+01
 0.1813060276702E+01
 0.1946204205016E+01
 0.2132606977323E+01
 0.2377581017514E+01
 0.2683260945923E+01
 0.3047584425923E+01
 0.3463513296032E+01
 0.3918604642288E+01
 0.4395182165771E+01
 0.4871379925743E+01
 0.5323313566954E+01
 0.5728204675197E+01
 0.1819368875192E+01
 0.1881024698497E+01
 0.1938285909354E+01
 0.1990293858986E+01
 0.2036379202964E+01
 0.2076057076743E+01
 0.2109005579195E+01
 0.2135027599672E+01
 0.2154006854155E+01
 0.2165869844450E+01
 0.2170561316651E+01
 0.2168036153539E+01
 0.2158267960372E+01
 0.2141273649423E+01
 0.2117154276627E+01
 0.2086147731183E+01
 0.2048691074456E+01
 0.2005485750477E+01
 0.1957552417511E+01
 0.1906268265278E+01
 0.1853395233483E+01
 0.1801126908755E+01
 0.1752086891632E+01
 0.1709307619839E+01
 0.1676281362498E+01
 0.1657113978554E+01
 0.1656748348880E+01
 0.1681160282599E+01
 0.1737364281285E+01
 0.1833044028460E+01
 0.1975745051414E+01
 0.2171831089954E+01
 0.2425400938208E+01
 0.2737275762076E+01
 0.3104222065839E+01
 0.3518426208977E+01
 0.3967305949277E+01
 0.4433866471600E+01
 0.4897799555221E+01
 0.5337445462230E+01
 0.5732290503998E+01
 0.1862147587822E+01
 0.1922924760585E+01
 0.1979543632766E+01
 0.2031043640955E+01
 0.2076648087458E+01
 0.2115761492107E+01
 0.2147954223408E+01
 0.2172933090283E+01
 0.2190505710285E+01
 0.2200548249523E+01
 0.2202983700214E+01
 0.2197774362629E+01
 0.2184929685568E+01
 0.2164529302133E+01
 0.2136761630118E+01
 0.2101972821997E+01
 0.2060724029770E+01
 0.2013850550341E+01
 0.1962510250402E+01
 0.1908215019205E+01
 0.1852850179667E+01
 0.1798719969055E+01
 0.1748559733424E+01
 0.1705530573344E+01
 0.1673279918731E+01
 0.1656095756062E+01
 0.1659112791727E+01
 0.1688458727831E+01
 0.1751168705128E+01
 0.1854700386159E+01
 0.2006042650974E+01
 0.2210678864238E+01
 0.2471613351320E+01
 0.2788538224828E+01
 0.3157263768814E+01
 0.3569400486836E+01
 0.4012359206487E+01
 0.4469837489241E+01
 0.4922923149217E+01
 0.5351840608298E+01
 0.5737990443522E+01
 0.1904612676132E+01
 0.1964573382847E+01
 0.2020611312661E+01
 0.2071663490144E+01
 0.2116846305978E+01
 0.2155455965218E+01
 0.2186959037756E+01
 0.2210970860788E+01
 0.2227227299804E+01
 0.2235557726320E+01
 0.2235865929947E+01
 0.2228123136546E+01
 0.2212374988272E+01
 0.2188762792244E+01
 0.2157559590563E+01
 0.2119215206300E+01
 0.2074408528213E+01
 0.2024100978533E+01
 0.1969579097777E+01
 0.1912480777117E+01
 0.1854807189087E+01
 0.1798967188958E+01
 0.1747801591365E+01
 0.1704591796629E+01
 0.1673128486933E+01
 0.1657864342532E+01
 0.1664100010893E+01
 0.1698078583863E+01
 0.1766812414443E+01
 0.1877498438855E+01
 0.2036569016091E+01
 0.2248684986936E+01
 0.2515876792557E+01
 0.2836873956843E+01
 0.3206711251896E+01
 0.3616579973289E+01
 0.4053974386344E+01
 0.4503265745281E+01
 0.4946778694492E+01
 0.5366341069260E+01
 0.5744987236065E+01
 0.1946811493841E+01
 0.2006028148386E+01
 0.2061556301839E+01
 0.2112230389569E+01
 0.2157060359877E+01
 0.2195236048263E+01
 0.2226123608508E+01
 0.2249251033105E+01
 0.2264286502668E+01
 0.2271016027362E+01
 0.2269326684025E+01
 0.2259199992457E+01
 0.2240717857142E+01
 0.2214081807240E+01
 0.2179646320974E+01
 0.2137959901617E+01
 0.2089812546558E+01
 0.2036283937533E+01
 0.1978780715206E+01
 0.1919058094640E+01
 0.1859225590084E+01
 0.1801790592632E+01
 0.1749692956870E+01
 0.1706325791738E+01
 0.1675610833853E+01
 0.1662147875987E+01
 0.1671378483154E+01
 0.1709628442801E+01
 0.1783853111789E+01
 0.1900969200355E+01
 0.2066869703276E+01
 0.2285461441157E+01
 0.2557918602011E+01
 0.2882156278308E+01
 0.3252584342012E+01
 0.3660095982858E+01
 0.4092326318964E+01
 0.4534281973632E+01
 0.4969374044156E+01
 0.5380798321254E+01
 0.5752986267982E+01
 0.1988790235899E+01
 0.2047345119254E+01
 0.2102444116829E+01
 0.2152819077947E+01
 0.2197373931470E+01
 0.2235193760645E+01
 0.2265547214209E+01
 0.2287878649856E+01
 0.2301792377044E+01
 0.2307034369021E+01
 0.2303477417889E+01
 0.2291114588909E+01
 0.2270063892146E+01
 0.2240585303700E+01
 0.2203111191976E+01
 0.2158283435996E+01
 0.2106996299192E+01
 0.2050439753043E+01
 0.1990131945631E+01
 0.1927936774718E+01
 0.1866064627714E+01
 0.1807115304945E+01
 0.1754121112607E+01
 0.1710578035456E+01
 0.1680526417226E+01
 0.1668695653065E+01
 0.1680644573054E+01
 0.1722753432271E+01
 0.1801895691696E+01
 0.1924701943067E+01
 0.2096556307623E+01
 0.2320686335524E+01
 0.2597521994180E+01
 0.2924294522687E+01
 0.3294913478964E+01
 0.3700065927396E+01
 0.4127559943107E+01
 0.4562986849384E+01
 0.4990704468897E+01
 0.5395074738178E+01
 0.5761720344449E+01
 0.2030593912066E+01
 0.2088578815889E+01
 0.2143338423602E+01
 0.2193502058894E+01
 0.2237867934126E+01
 0.2275417678854E+01
 0.2305324936838E+01
 0.2326953786822E+01
 0.2339848267580E+01
 0.2343717551619E+01
 0.2338422531008E+01
 0.2323968984012E+01
 0.2300510698164E+01
 0.2268364070070E+01
 0.2228035531320E+01
 0.2180254784545E+01
 0.2126013347698E+01
 0.2066603432795E+01
 0.2003646095630E+01
 0.1939105319954E+01
 0.1875284940236E+01
 0.1814870993047E+01
 0.1760981482465E+01
 0.1717206199090E+01
 0.1687691466637E+01
 0.1677279069401E+01
 0.1691623235454E+01
 0.1737135290706E+01
 0.1820590852551E+01
 0.1948340260504E+01
 0.2125299331067E+01
 0.2354094107958E+01
 0.2634515398297E+01
 0.2963224959029E+01
 0.3333734443642E+01
 0.3736593173972E+01
 0.4159795149943E+01
 0.4589458302241E+01
 0.5010757782525E+01
 0.5409045124101E+01
 0.5770951979199E+01
 0.2072266337943E+01
 0.2129782218301E+01
 0.2184301049064E+01
 0.2234349633560E+01
 0.2278620576924E+01
 0.2315993031287E+01
 0.2345547772636E+01
 0.2366571664964E+01
 0.2378551915605E+01
 0.2381164082434E+01
 0.2374259532887E+01
 0.2357857882854E+01
 0.2332148251259E+01
 0.2297501240230E+01
 0.2254493299286E+01
 0.2203936206481E+01
 0.2146911587159E+01
 0.2084805780765E+01
 0.2019334148618E+01
 0.1952552207261E+01
 0.1886849849509E+01
 0.1824993123041E+01
 0.1770178810129E+01
 0.1726081221147E+01
 0.1696939940367E+01
 0.1687692432038E+01
 0.1704068530860E+01
 0.1752492155289E+01
 0.1839633396898E+01
 0.1971578064437E+01
 0.2152821593055E+01
 0.2385467058977E+01
 0.2668763726952E+01
 0.2998903756491E+01
 0.3369084677742E+01
 0.3769767540135E+01
 0.4189130925068E+01
 0.4613757021542E+01
 0.5029518123674E+01
 0.5422598156941E+01
 0.5780474509589E+01
 0.2113850142989E+01
 0.2171006788039E+01
 0.2225392017262E+01
 0.2275429956742E+01
 0.2319707445662E+01
 0.2357001800334E+01
 0.2386302743279E+01
 0.2406822759350E+01
 0.2417995564747E+01
 0.2419466291826E+01
 0.2411079196523E+01
 0.2392868861840E+01
 0.2365059226254E+01
 0.2328072748666E+01
 0.2282551683782E+01
 0.2229383979861E+01
 0.2169734109608E+01
 0.2105074370426E+01
 0.2037205822023E+01
 0.1968266995756E+01
 0.1900726480374E+01
 0.1837424050345E+01
 0.1781628186086E+01
 0.1737088249425E+01
 0.1708124366646E+01
 0.1699753644842E+01
 0.1717763963715E+01
 0.1768578118484E+01
 0.1858760352656E+01
 0.1994155695758E+01
 0.2178892297963E+01
 0.2414628143276E+01
 0.2700161283431E+01
 0.3031301557093E+01
 0.3401000734849E+01
 0.3799666072224E+01
 0.4215648772282E+01
 0.4635930659915E+01
 0.5046968879931E+01
 0.5435637649287E+01
 0.5790112538419E+01
 0.2155386795164E+01
 0.2212302511644E+01
 0.2266669611665E+01
 0.2316809119323E+01
 0.2361201604907E+01
 0.2398522837299E+01
 0.2427673012194E+01
 0.2447792907656E+01
 0.2458266062073E+01
 0.2458710440390E+01
 0.2448965695999E+01
 0.2429082566531E+01
 0.2399319283208E+01
 0.2360147726746E+01
 0.2312271617033E+01
 0.2256649038378E+01
 0.2194519951419E+01
 0.2127434386099E+01
 0.2057270479911E+01
 0.1986241282009E+01
 0.1916886725785E+01
 0.1852113962311E+01
 0.1795255941155E+01
 0.1750127466928E+01
 0.1721116577894E+01
 0.1713304774569E+01
 0.1732522668923E+01
 0.1785182624868E+01
 0.1877749045364E+01
 0.2015856295126E+01
 0.2203321828920E+01
 0.2441434934600E+01
 0.2728626064107E+01
 0.3060399322115E+01
 0.3429516537402E+01
 0.3826353913016E+01
 0.4239415501946E+01
 0.4656017085814E+01
 0.5063094992131E+01
 0.5448083569141E+01
 0.5799721968707E+01
 0.2196916642062E+01
 0.2253717964834E+01
 0.2308190462135E+01
 0.2358551255361E+01
 0.2403173719279E+01
 0.2440631987546E+01
 0.2469738001410E+01
 0.2489563410719E+01
 0.2499444944095E+01
 0.2498976803949E+01
 0.2487996713497E+01
 0.2466572868024E+01
 0.2434997298775E+01
 0.2393788827975E+01
 0.2343708204291E+01
 0.2285777503500E+01
 0.2221304720780E+01
 0.2151909331494E+01
 0.2079537903193E+01
 0.2006469507923E+01
 0.1935308065753E+01
 0.1869021682698E+01
 0.1811000415427E+01
 0.1765114807039E+01
 0.1735808339550E+01
 0.1728212501768E+01
 0.1748187469846E+01
 0.1802129769548E+01
 0.1896415217947E+01
 0.2036502519012E+01
 0.2225957270473E+01
 0.2465774636256E+01
 0.2754095210372E+01
 0.3086185150641E+01
 0.3454662168765E+01
 0.3849885117203E+01
 0.4260485446113E+01
 0.4674046885806E+01
 0.5077884740141E+01
 0.5459872796125E+01
 0.5809189763739E+01
 0.2238478969792E+01
 0.2295300399793E+01
 0.2350009660000E+01
 0.2400718678264E+01
 0.2445692199318E+01
 0.2483402231486E+01
 0.2512573513916E+01
 0.2532211128768E+01
 0.2541608509750E+01
 0.2540339737350E+01
 0.2528243516332E+01
 0.2505406978948E+01
 0.2472155544770E+01
 0.2429052486396E+01
 0.2376911070824E+01
 0.2316811120306E+01
 0.2250121115615E+01
 0.2178521617678E+01
 0.2104018931523E+01
 0.2028949637135E+01
 0.1955974257363E+01
 0.1888115355676E+01
 0.1828812619164E+01
 0.1781982572307E+01
 0.1752111887331E+01
 0.1744368477821E+01
 0.1764630851135E+01
 0.1819277575244E+01
 0.1914611298402E+01
 0.2055953682516E+01
 0.2246678669340E+01
 0.2487560048108E+01
 0.2776521440835E+01
 0.3108651873216E+01
 0.3476463043898E+01
 0.3870303366637E+01
 0.4278902189583E+01
 0.4690045270411E+01
 0.5091331093544E+01
 0.5470959617318E+01
 0.5818433584795E+01
 0.2280112079887E+01
 0.2337095856551E+01
 0.2392180902240E+01
 0.2443372047037E+01
 0.2488823372584E+01
 0.2526903841163E+01
 0.2556251859696E+01
 0.2575808569469E+01
 0.2584827874604E+01
 0.2582867709956E+01
 0.2569770996342E+01
 0.2545645521747E+01
 0.2510849807719E+01
 0.2465989103553E+01
 0.2411924624539E+01
 0.2349787596392E+01
 0.2280999333252E+01
 0.2207293033595E+01
 0.2130725981703E+01
 0.2053683706218E+01
 0.1978875903072E+01
 0.1909373016466E+01
 0.1848656791409E+01
 0.1800679960757E+01
 0.1769960377393E+01
 0.1761689600377E+01
 0.1781754877079E+01
 0.1836517301928E+01
 0.1932224877529E+01
 0.2074103362932E+01
 0.2265396001660E+01
 0.2506726380634E+01
 0.2795870297489E+01
 0.3127795241779E+01
 0.3494939321170E+01
 0.3887642535061E+01
 0.4294699860995E+01
 0.4704033465070E+01
 0.5103432662513E+01
 0.5481315986842E+01
 0.5827401264657E+01
 0.2321853385964E+01
 0.2379149299707E+01
 0.2434756665789E+01
 0.2486570562843E+01
 0.2532631678942E+01
 0.2571204549455E+01
 0.2600841980048E+01
 0.2620423959916E+01
 0.2629168996150E+01
 0.2626623301156E+01
 0.2612637659277E+01
 0.2587342537053E+01
 0.2551129438099E+01
 0.2504643154133E+01
 0.2448788226086E+01
 0.2384740837514E+01
 0.2313967367281E+01
 0.2238245096302E+01
 0.2159673441360E+01
 0.2080678250809E+01
 0.2004010898271E+01
 0.1932783049734E+01
 0.1870510856917E+01
 0.1821173500189E+01
 0.1789308252517E+01
 0.1780118219299E+01
 0.1799491083829E+01
 0.1853772833711E+01
 0.1949177442158E+01
 0.2090877481277E+01
 0.2282046810641E+01
 0.2523228822343E+01
 0.2812118074186E+01
 0.3143612581687E+01
 0.3510105458201E+01
 0.3901927071248E+01
 0.4307904016653E+01
 0.4716029639330E+01
 0.5114194281296E+01
 0.5490931549375E+01
 0.5836070196836E+01
 0.2363739531921E+01
 0.2421504784075E+01
 0.2477788416693E+01
 0.2530372201186E+01
 0.2577179895157E+01
 0.2616369736173E+01
 0.2646409573228E+01
 0.2666121304300E+01
 0.2674692671124E+01
 0.2671663156580E+01
 0.2656895565261E+01
 0.2630545434156E+01
 0.2593037332522E+01
 0.2545053214986E+01
 0.2487536272519E+01
 0.2421701087233E+01
 0.2349051199839E+01
 0.2271399289786E+01
 0.2190877947136E+01
 0.2109944615943E+01
 0.2031384767061E+01
 0.1958344543985E+01
 0.1894366788962E+01
 0.1843447398432E+01
 0.1810131535980E+01
 0.1799622293789E+01
 0.1817800379882E+01
 0.1871000189093E+01
 0.1965423407968E+01
 0.2106232882815E+01
 0.2296594496826E+01
 0.2537040804033E+01
 0.2825250348269E+01
 0.3156101829877E+01
 0.3521969866016E+01
 0.3913172201582E+01
 0.4318532158071E+01
 0.4726049426062E+01
 0.5123627257282E+01
 0.5499813457819E+01
 0.5844446649858E+01
 0.2405806533942E+01
 0.2464205652330E+01
 0.2521326857672E+01
 0.2574833982829E+01
 0.2622529390479E+01
 0.2662462630566E+01
 0.2693017218519E+01
 0.2712960422342E+01
 0.2721454498499E+01
 0.2718037898086E+01
 0.2702590213579E+01
 0.2675294877566E+01
 0.2636609844017E+01
 0.2587251913955E+01
 0.2528198192250E+01
 0.2460694969507E+01
 0.2386274889218E+01
 0.2306777193023E+01
 0.2224358548468E+01
 0.2141499151787E+01
 0.2061010887220E+01
 0.1986067542554E+01
 0.1920230878506E+01
 0.1867503811248E+01
 0.1832428058653E+01
 0.1820195513671E+01
 0.1836672977162E+01
 0.1888187182379E+01
 0.1980949473856E+01
 0.2120156418226E+01
 0.2309027233467E+01
 0.2548152905307E+01
 0.2835261046258E+01
 0.3165260894183E+01
 0.3530534619005E+01
 0.3921383942085E+01
 0.4326593900308E+01
 0.4734106055537E+01
 0.5131749304382E+01
 0.5507985998386E+01
 0.5852565019915E+01
 0.2448089949191E+01
 0.2507294768896E+01
 0.2565422219197E+01
 0.2620012288323E+01
 0.2668740416563E+01
 0.2709544531210E+01
 0.2740724497238E+01
 0.2760996965033E+01
 0.2769504803723E+01
 0.2765791983050E+01
 0.2749760367949E+01
 0.2721624606913E+01
 0.2681876618869E+01
 0.2631265798224E+01
 0.2570798352134E+01
 0.2501745435954E+01
 0.2425660555169E+01
 0.2344400499925E+01
 0.2260136759575E+01
 0.2175363297003E+01
 0.2092910605983E+01
 0.2015973192270E+01
 0.1948123910918E+01
 0.1893363030676E+01
 0.1856217626039E+01
 0.1841857397649E+01
 0.1856128371628E+01
 0.1905353257225E+01
 0.1995774312852E+01
 0.2132664526366E+01
 0.2319357490111E+01
 0.2556572371250E+01
 0.2842152004350E+01
 0.3171087298525E+01
 0.3535795200059E+01
 0.3926558919044E+01
 0.4332090805559E+01
 0.4740210123169E+01
 0.5138584176193E+01
 0.5515490036626E+01
 0.5860487038190E+01
 0.2490625074644E+01
 0.2550814795218E+01
 0.2610124600282E+01
 0.2665963221849E+01
 0.2715872435373E+01
 0.2757675043923E+01
 0.2789588108428E+01
 0.2810282403460E+01
 0.2818888519158E+01
 0.2814963508137E+01
 0.2798437818444E+01
 0.2769561187606E+01
 0.2728860358770E+01
 0.2677115122122E+01
 0.2615355877573E+01
 0.2544871619382E+01
 0.2467228263849E+01
 0.2384290933129E+01
 0.2298236501192E+01
 0.2211563550553E+01
 0.2127113246590E+01
 0.2048093789127E+01
 0.1978081249822E+01
 0.1921063595119E+01
 0.1881542130039E+01
 0.1864653377692E+01
 0.1876215385572E+01
 0.1922549503544E+01
 0.2009948605322E+01
 0.2143803316247E+01
 0.2327622154311E+01
 0.2562323223785E+01
 0.2845933006414E+01
 0.3173578099306E+01
 0.3537740273156E+01
 0.3928683999327E+01
 0.4335015889635E+01
 0.4744369000161E+01
 0.5144161007449E+01
 0.5522382295376E+01
 0.5868300946061E+01
 0.2533447180287E+01
 0.2594808512504E+01
 0.2655484366130E+01
 0.2712743030713E+01
 0.2763984488552E+01
 0.2806912337372E+01
 0.2839661975328E+01
 0.2860863984504E+01
 0.2869645013787E+01
 0.2865583951166E+01
 0.2848647074865E+01
 0.2819123688478E+01
 0.2777576505766E+01
 0.2724813552863E+01
 0.2661884384822E+01
 0.2590088593151E+01
 0.2510995812074E+01
 0.2426470050990E+01
 0.2338683930734E+01
 0.2250131329606E+01
 0.2163656002136E+01
 0.2082472716798E+01
 0.2010152824159E+01
 0.1950662319063E+01
 0.1908465606423E+01
 0.1888654873457E+01
 0.1897012276049E+01
 0.1939858859306E+01
 0.2023555411672E+01
 0.2153649143666E+01
 0.2333883249021E+01
 0.2565446969353E+01
 0.2846622304238E+01
 0.3172730078763E+01
 0.3536351488623E+01
 0.3927735734372E+01
 0.4335352803655E+01
 0.4746585888106E+01
 0.5148513365836E+01
 0.5528734471527E+01
 0.5876120653179E+01
 0.2576591781863E+01
 0.2639319199578E+01
 0.2701552611741E+01
 0.2760408588557E+01
 0.2813135612851E+01
 0.2857313416290E+01
 0.2890997338586E+01
 0.2912784647187E+01
 0.2921807865704E+01
 0.2917677845712E+01
 0.2900404987997E+01
 0.2870323284601E+01
 0.2828032849595E+01
 0.2774367794770E+01
 0.2710391626618E+01
 0.2637407037739E+01
 0.2556978412107E+01
 0.2470958948488E+01
 0.2381507160628E+01
 0.2291102711957E+01
 0.2202583713773E+01
 0.2119164274045E+01
 0.2044403014656E+01
 0.1982234240086E+01
 0.1937074238049E+01
 0.1913959358289E+01
 0.1918626909323E+01
 0.1957396492418E+01
 0.2036710876521E+01
 0.2162309678221E+01
 0.2338229252966E+01
 0.2566003923544E+01
 0.2844247648665E+01
 0.3168540243334E+01
 0.3531603341145E+01
 0.3923679626684E+01
 0.4333074690201E+01
 0.4746858512403E+01
 0.5151678011196E+01
 0.5534632196412E+01
 0.5884084896147E+01
 0.2620094959508E+01
 0.2684391075246E+01
 0.2748381702520E+01
 0.2809017951833E+01
 0.2863385306629E+01
 0.2908934411709E+01
 0.2943642831005E+01
 0.2966082892244E+01
 0.2975404570174E+01
 0.2971262383063E+01
 0.2953720295710E+01
 0.2923162784350E+01
 0.2880229058021E+01
 0.2825777133509E+01
 0.2760879053058E+01
 0.2686832816446E+01
 0.2605188278630E+01
 0.2517777852999E+01
 0.2426735864587E+01
 0.2334518061183E+01
 0.2243948529757E+01
 0.2158233386261E+01
 0.2080910434574E+01
 0.2015872479069E+01
 0.1967476301385E+01
 0.1940690414535E+01
 0.1941196995520E+01
 0.1975310350451E+01
 0.2049565249119E+01
 0.2169925454005E+01
 0.2340777037697E+01
 0.2564075189468E+01
 0.2838847882321E+01
 0.3161006676113E+01
 0.3523463114213E+01
 0.3916469230898E+01
 0.4328142707910E+01
 0.4745177440891E+01
 0.5153693351743E+01
 0.5540173840852E+01
 0.5892356413500E+01
 0.2663993729907E+01
 0.2730069816164E+01
 0.2796025904512E+01
 0.2858630999677E+01
 0.2914794051318E+01
 0.2961830884657E+01
 0.2997644524585E+01
 0.3020792593190E+01
 0.3030456172056E+01
 0.3026346932566E+01
 0.3008593087645E+01
 0.2977636076620E+01
 0.2934156127335E+01
 0.2879032897953E+01
 0.2813341285261E+01
 0.2738366457401E+01
 0.2655634114398E+01
 0.2566945610408E+01
 0.2474400765884E+01
 0.2380421526689E+01
 0.2287809435511E+01
 0.2199755189601E+01
 0.2119767592545E+01
 0.2051688001987E+01
 0.1999802045887E+01
 0.1968997767364E+01
 0.1964890368307E+01
 0.1993781855647E+01
 0.2062304195033E+01
 0.2176671892045E+01
 0.2341674439735E+01
 0.2559765343456E+01
 0.2830475169884E+01
 0.3150129818559E+01
 0.3511890963398E+01
 0.3906045108380E+01
 0.4320504214983E+01
 0.4741524005993E+01
 0.5154597579062E+01
 0.5545469158903E+01
 0.5901121152388E+01
 0.2708326481851E+01
 0.2776403165427E+01
 0.2844542122329E+01
 0.2909310172875E+01
 0.2967423896693E+01
 0.3016058144303E+01
 0.3053045945585E+01
 0.3076942743598E+01
 0.3086976819898E+01
 0.3082932482195E+01
 0.3065014194876E+01
 0.3033727508223E+01
 0.2989795765423E+01
 0.2934117853352E+01
 0.2867765516106E+01
 0.2792002556350E+01
 0.2708320509009E+01
 0.2618479075603E+01
 0.2524533020610E+01
 0.2428860429970E+01
 0.2334231663802E+01
 0.2243814494611E+01
 0.2161080442694E+01
 0.2089809287654E+01
 0.2034203510097E+01
 0.1999057298521E+01
 0.1989905303846E+01
 0.2013026728094E+01
 0.2075150375184E+01
 0.2182761782468E+01
 0.2341103491229E+01
 0.2553205896433E+01
 0.2819197964841E+01
 0.3135914280245E+01
 0.3496840206454E+01
 0.3892333656901E+01
 0.4310090594144E+01
 0.4735867798529E+01
 0.5154426460172E+01
 0.5550637762165E+01
 0.5910587533792E+01
 0.2753133486350E+01
 0.2823441647823E+01
 0.2893990762052E+01
 0.2961121323712E+01
 0.3021339110571E+01
 0.3071671569290E+01
 0.3109888038287E+01
 0.3134557118741E+01
 0.3144973221818E+01
 0.3141010983374E+01
 0.3122964492403E+01
 0.3091411181698E+01
 0.3047119698331E+01
 0.2991005516227E+01
 0.2924130827227E+01
 0.2847729088083E+01
 0.2763247237274E+01
 0.2672392392292E+01
 0.2577163479009E+01
 0.2479884517763E+01
 0.2383285962929E+01
 0.2290505104423E+01
 0.2204967794940E+01
 0.2130381873318E+01
 0.2070854246183E+01
 0.2031071010660E+01
 0.2016470844526E+01
 0.2033295892912E+01
 0.2088365242730E+01
 0.2188448193278E+01
 0.2339284323974E+01
 0.2544559610351E+01
 0.2805104841080E+01
 0.3118371312971E+01
 0.3478257919340E+01
 0.3875245850398E+01
 0.4296814695970E+01
 0.4728163686855E+01
 0.5153210746269E+01
 0.5555807408358E+01
 0.5920985736821E+01
 0.2798457496369E+01
 0.2871239413270E+01
 0.2944436742862E+01
 0.3014134693616E+01
 0.3076606896295E+01
 0.3128726921807E+01
 0.3168209058772E+01
 0.3193653831953E+01
 0.3204443987769E+01
 0.3200564590897E+01
 0.3182414110760E+01
 0.3150650173186E+01
 0.3106088901216E+01
 0.3049659391474E+01
 0.2982407421695E+01
 0.2905526624683E+01
 0.2820408454331E+01
 0.2728696158262E+01
 0.2632321819552E+01
 0.2533545074661E+01
 0.2435047712728E+01
 0.2339928974251E+01
 0.2251560569378E+01
 0.2173567760001E+01
 0.2109948933895E+01
 0.2065266921839E+01
 0.2044847101872E+01
 0.2054876434718E+01
 0.2102251011625E+01
 0.2194027773006E+01
 0.2336479767787E+01
 0.2534025772443E+01
 0.2788309361300E+01
 0.3097522139816E+01
 0.3456085985555E+01
 0.3854675951693E+01
 0.4280567883066E+01
 0.4718348311767E+01
 0.5150973168332E+01
 0.5561112073476E+01
 0.5932567059566E+01
 0.2844344454416E+01
 0.2919855236387E+01
 0.2995950688557E+01
 0.3068426041417E+01
 0.3133298184318E+01
 0.3187280645168E+01
 0.3228044381960E+01
 0.3254244770711E+01
 0.3265378851182E+01
 0.3261564800590E+01
 0.3243321567434E+01
 0.3211395686148E+01
 0.3166652771583E+01
 0.3110032149801E+01
 0.3042555789785E+01
 0.2965367477300E+01
 0.2879791803735E+01
 0.2787396491874E+01
 0.2690035570641E+01
 0.2589893908136E+01
 0.2489595898184E+01
 0.2392195217716E+01
 0.2301000895353E+01
 0.2219544673381E+01
 0.2151702875426E+01
 0.2101898877184E+01
 0.2075325517385E+01
 0.2078092561989E+01
 0.2117152740417E+01
 0.2199844392902E+01
 0.2333000640596E+01
 0.2521846520874E+01
 0.2768956168445E+01
 0.3073402359798E+01
 0.3430262772433E+01
 0.3830500263040E+01
 0.4261216629275E+01
 0.4706335972341E+01
 0.5147724969726E+01
 0.5566689789179E+01
 0.5945603269868E+01
 0.2890844330972E+01
 0.2969353704860E+01
 0.3048610332797E+01
 0.3124077941758E+01
 0.3191488493333E+01
 0.3247390118736E+01
 0.3289426185388E+01
 0.3316334877658E+01
 0.3327757743945E+01
 0.3323971468688E+01
 0.3305632809529E+01
 0.3273586135810E+01
 0.3228748239708E+01
 0.3172064738125E+01
 0.3104525797438E+01
 0.3027214748338E+01
 0.2941377423513E+01
 0.2848493983438E+01
 0.2750329002122E+01
 0.2648982185979E+01
 0.2547011917377E+01
 0.2447418932391E+01
 0.2353441022585E+01
 0.2268505142614E+01
 0.2196351329955E+01
 0.2141246234372E+01
 0.2108229034473E+01
 0.2103306523393E+01
 0.2133460455344E+01
 0.2206293052150E+01
 0.2329211711310E+01
 0.2508314326363E+01
 0.2747228539110E+01
 0.3046067734870E+01
 0.3400725698688E+01
 0.3802576038678E+01
 0.4238598635336E+01
 0.4692013795092E+01
 0.5143461932546E+01
 0.5572680210930E+01
 0.5960385851913E+01
 0.2938012123507E+01
 0.3019806640592E+01
 0.3102502184354E+01
 0.3181181281998E+01
 0.3251258859935E+01
 0.3309113845121E+01
 0.3352382976504E+01
 0.3379921250302E+01
 0.3391549713357E+01
 0.3387731716730E+01
 0.3369280182398E+01
 0.3337146184775E+01
 0.3292298837966E+01
 0.3235685443335E+01
 0.3168255715638E+01
 0.3091021310606E+01
 0.3005136866142E+01
 0.2911982547682E+01
 0.2813221903011E+01
 0.2710859141667E+01
 0.2607378236659E+01
 0.2505719852801E+01
 0.2409042046008E+01
 0.2320655390943E+01
 0.2244148673993E+01
 0.2183613402848E+01
 0.2143912154609E+01
 0.2130919433953E+01
 0.2151611241367E+01
 0.2213823953533E+01
 0.2325538284503E+01
 0.2493780713639E+01
 0.2723357656318E+01
 0.3015601724710E+01
 0.3367415029082E+01
 0.3770740724078E+01
 0.4212518395155E+01
 0.4675236013447E+01
 0.5138159848574E+01
 0.5579221923254E+01
 0.5977224940872E+01
 0.2985909053501E+01
 0.3071294807875E+01
 0.3157723506312E+01
 0.3239836984647E+01
 0.3312696823603E+01
 0.3372511525760E+01
 0.3416938910995E+01
 0.3444992017461E+01
 0.3456711657958E+01
 0.3452778716392E+01
 0.3434181330153E+01
 0.3401985740353E+01
 0.3357213739041E+01
 0.3300808915772E+01
 0.3233671192614E+01
 0.3156728711797E+01
 0.3071031929044E+01
 0.2977848173571E+01
 0.2878728241736E+01
 0.2775570643147E+01
 0.2670776885991E+01
 0.2567220818970E+01
 0.2467972425006E+01
 0.2376214009318E+01
 0.2295367349153E+01
 0.2229329191250E+01
 0.2182760827510E+01
 0.2161371950096E+01
 0.2172091210893E+01
 0.2222946625245E+01
 0.2322473310456E+01
 0.2478666278438E+01
 0.2697633888896E+01
 0.2982125231185E+01
 0.3330279363130E+01
 0.3734811788967E+01
 0.4182742145359E+01
 0.4655817079060E+01
 0.5131769373340E+01
 0.5586449533753E+01
 0.5996447484237E+01
 0.3034604010266E+01
 0.3123909977109E+01
 0.3214384673970E+01
 0.3300157980832E+01
 0.3375897438110E+01
 0.3437643957752E+01
 0.3483112827377E+01
 0.3511524933629E+01
 0.3523186847550E+01
 0.3519030339994E+01
 0.3500238025437E+01
 0.3467998914120E+01
 0.3423386760435E+01
 0.3367335143274E+01
 0.3300684152274E+01
 0.3224265981550E+01
 0.3139013369145E+01
 0.3046067543639E+01
 0.2946854680750E+01
 0.2843157596135E+01
 0.2737287763075E+01
 0.2632046024251E+01
 0.2530406252941E+01
 0.2435410358237E+01
 0.2350296530951E+01
 0.2278745888348E+01
 0.2225192098469E+01
 0.2195144713480E+01
 0.2195437246274E+01
 0.2234233940696E+01
 0.2320584879642E+01
 0.2463472023096E+01
 0.2670420403559E+01
 0.2945809148265E+01
 0.3289283485721E+01
 0.3694587616386E+01
 0.4148992186974E+01
 0.4633523178502E+01
 0.5124210138327E+01
 0.5594490840866E+01
 0.6018393362569E+01
 0.3084175306224E+01
 0.3177757436142E+01
 0.3272611997856E+01
 0.3362271469129E+01
 0.3440964275178E+01
 0.3504572675931E+01
 0.3550916922145E+01
 0.3579485644230E+01
 0.3590903215910E+01
 0.3586387693107E+01
 0.3567334960789E+01
 0.3535062981445E+01
 0.3490695371243E+01
 0.3435148406187E+01
 0.3369191642775E+01
 0.3293548360105E+01
 0.3209019518754E+01
 0.3116606541442E+01
 0.3017598966938E+01
 0.2913654205526E+01
 0.2806986769806E+01
 0.2700319062252E+01
 0.2596521288178E+01
 0.2498482694812E+01
 0.2409240497228E+01
 0.2332238038337E+01
 0.2271653462430E+01
 0.2232758504557E+01
 0.2222238426200E+01
 0.2248325874002E+01
 0.2320523891882E+01
 0.2448791934294E+01
 0.2642169395567E+01
 0.2906890377437E+01
 0.3244419409815E+01
 0.3649850123765E+01
 0.4110940648098E+01
 0.4608061427091E+01
 0.5115363804405E+01
 0.5603464760771E+01
 0.6043406715019E+01
 0.3134712828922E+01
 0.3232959065395E+01
 0.3332551114063E+01
 0.3426321486374E+01
 0.3508010353354E+01
 0.3573359222824E+01
 0.3620354955365E+01
 0.3648825551938E+01
 0.3659771400362E+01
 0.3654733534511E+01
 0.3635338521805E+01
 0.3603037363589E+01
 0.3558999718321E+01
 0.3504116220632E+01
 0.3439074631640E+01
 0.3364475936001E+01
 0.3280974785442E+01
 0.3189418629413E+01
 0.3090948182386E+01
 0.2987086081927E+01
 0.2879943768476E+01
 0.2772160757069E+01
 0.2666496722144E+01
 0.2565675984853E+01
 0.2472516633935E+01
 0.2390200825396E+01
 0.2322621825837E+01
 0.2274774004240E+01
 0.2253137017231E+01
 0.2265932797447E+01
 0.2323031617062E+01
 0.2435326614783E+01
 0.2613441183803E+01
 0.2865692109703E+01
 0.3195721648717E+01
 0.3600370252583E+01
 0.4068203039862E+01
 0.4579065689074E+01
 0.5105065120689E+01
 0.5613482085310E+01
 0.6071814017545E+01
 0.3186320708301E+01
 0.3289657129958E+01
 0.3394371078123E+01
 0.3492471824311E+01
 0.3577158903808E+01
 0.3644063908197E+01
 0.3691419874240E+01
 0.3719479233843E+01
 0.3729682538002E+01
 0.3723930632396E+01
 0.3704095609378E+01
 0.3671762703944E+01
 0.3628141739505E+01
 0.3574088329696E+01
 0.3510196798028E+01
 0.3436932236856E+01
 0.3354788078737E+01
 0.3264443144884E+01
 0.3166876912249E+01
 0.3063468259599E+01
 0.2956220431402E+01
 0.2847686853327E+01
 0.2740510756219E+01
 0.2637239456621E+01
 0.2540453108152E+01
 0.2453048063629E+01
 0.2378602043796E+01
 0.2321791118094E+01
 0.2288828965676E+01
 0.2287838166118E+01
 0.2328946821618E+01
 0.2423897640546E+01
 0.2584926247912E+01
 0.2822649284076E+01
 0.3143287909644E+01
 0.3545917561028E+01
 0.4020333569784E+01
 0.4546075924755E+01
 0.5093090741569E+01
 0.5624653651751E+01
 0.6103860669986E+01
 0.3239120666804E+01
 0.3348018958571E+01
 0.3458269325616E+01
 0.3560909290699E+01
 0.3648543796862E+01
 0.3716743830175E+01
 0.3764090666766E+01
 0.3791361303006E+01
 0.3800505780043E+01
 0.3793820055157E+01
 0.3773432519949E+01
 0.3741060042168E+01
 0.3697944354014E+01
 0.3644895713972E+01
 0.3582403272846E+01
 0.3510782705056E+01
 0.3430351082849E+01
 0.3341603429141E+01
 0.3245345246632E+01
 0.3142803047028E+01
 0.3035867908964E+01
 0.2927005491290E+01
 0.2818737906152E+01
 0.2713423797601E+01
 0.2613386079581E+01
 0.2521209624744E+01
 0.2440124832528E+01
 0.2374447658342E+01
 0.2330063701121E+01
 0.2314900356173E+01
 0.2339212056731E+01
 0.2415462114322E+01
 0.2557470232308E+01
 0.2778339942467E+01
 0.3087307867274E+01
 0.3486273289466E+01
 0.3966828240364E+01
 0.4508510393071E+01
 0.5079125507122E+01
 0.5637167150899E+01
 0.6139445012544E+01
 0.3293256342362E+01
 0.3408242601446E+01
 0.3524477827430E+01
 0.3631847246107E+01
 0.3722309403382E+01
 0.3791449876471E+01
 0.3838328246067E+01
 0.3864362632893E+01
 0.3872085529035E+01
 0.3864219443157E+01
 0.3843153940033E+01
 0.3810730136550E+01
 0.3768210766941E+01
 0.3716349640160E+01
 0.3655519324207E+01
 0.3585873036226E+01
 0.3507536340901E+01
 0.3420804753285E+01
 0.3326296588758E+01
 0.3225077693236E+01
 0.3118924311247E+01
 0.3010214470098E+01
 0.2901346036288E+01
 0.2794477981935E+01
 0.2691656404760E+01
 0.2595128207116E+01
 0.2507743906775E+01
 0.2433417207396E+01
 0.2377643089988E+01
 0.2348053473064E+01
 0.2354878708166E+01
 0.2411126773206E+01
 0.2532101426629E+01
 0.2733524001773E+01
 0.3028100075505E+01
 0.3421257491215E+01
 0.3907109168704E+01
 0.4465713107329E+01
 0.5062538735768E+01
 0.5651711258241E+01
 0.6177026385004E+01
 0.3348903750547E+01
 0.3470587213675E+01
 0.3593311932465E+01
 0.3705591740943E+01
 0.3798693119020E+01
 0.3868325454513E+01
 0.3914190644415E+01
 0.3938481906730E+01
 0.3944389017677E+01
 0.3935086553984E+01
 0.3913223062157E+01
 0.3880751556326E+01
 0.3838942670219E+01
 0.3788482641357E+01
 0.3729617068419E+01
 0.3662324527358E+01
 0.3586523717240E+01
 0.3502293562829E+01
 0.3410050290967E+01
 0.3310689952039E+01
 0.3205871785401E+01
 0.3097887556114E+01
 0.2989008486114E+01
 0.2881182047928E+01
 0.2776155412991E+01
 0.2675807290192E+01
 0.2582571493214E+01
 0.2499913102916E+01
 0.2432869693309E+01
 0.2388670508421E+01
 0.2377352680639E+01
 0.2412246276138E+01
 0.2509960074095E+01
 0.2688894234163E+01
 0.2965698778430E+01
 0.3350191105131E+01
 0.3840000231402E+01
 0.4416396685667E+01
 0.5042794809162E+01
 0.5667148204421E+01
 0.6225829702316E+01
 0.3406262584075E+01
 0.3535336381395E+01
 0.3665094564629E+01
 0.3782420442094E+01
 0.3877856702906E+01
 0.3947395186745E+01
 0.3991585907962E+01
 0.4013548080898E+01
 0.4017200784411E+01
 0.4006185454143E+01
 0.3983397088870E+01
 0.3950881574482E+01
 0.3909901571308E+01
 0.3861064796146E+01
 0.3804481258444E+01
 0.3739944599625E+01
 0.3667152087749E+01
 0.3585948345406E+01
 0.3496531468276E+01
 0.3399618350424E+01
 0.3296750427656E+01
 0.3190137047449E+01
 0.3081922602061E+01
 0.2973832300577E+01
 0.2867292268718E+01
 0.2763782368324E+01
 0.2665282698079E+01
 0.2574763831960E+01
 0.2496740278434E+01
 0.2437930928097E+01
 0.2407998717033E+01
 0.2420327504296E+01
 0.2492550177749E+01
 0.2645675571078E+01
 0.2900717677750E+01
 0.3272872208734E+01
 0.3764559197581E+01
 0.4359349902531E+01
 0.5018822586080E+01
 0.5684132594252E+01
 0.6286604121682E+01
 0.3465577947630E+01
 0.3602818654746E+01
 0.3740178928431E+01
 0.3862596778556E+01
 0.3959890845816E+01
 0.4028563541689E+01
 0.4070269536817E+01
 0.4089219269446E+01
 0.4090123411681E+01
 0.4077088287155E+01
 0.4053228824694E+01
 0.4020656359057E+01
 0.3980606413200E+01
 0.3933597678147E+01
 0.3879598609752E+01
 0.3818210819214E+01
 0.3748897740852E+01
 0.3671252420639E+01
 0.3585238355947E+01
 0.3491384417681E+01
 0.3391115742752E+01
 0.3286566723672E+01
 0.3179758589537E+01
 0.3072186902660E+01
 0.2964937865917E+01
 0.2859065782459E+01
 0.2756065275322E+01
 0.2658373295157E+01
 0.2569923825344E+01
 0.2496825972375E+01
 0.2448187403313E+01
 0.2437142516909E+01
 0.2481955496759E+01
 0.2605977303447E+01
 0.2834834582331E+01
 0.3190121988277E+01
 0.3680632811869E+01
 0.4293740732986E+01
 0.4989826458938E+01
 0.5703232978378E+01
 0.6354820752466E+01
 0.3527150902606E+01
 0.3673458191789E+01
 0.3819028324251E+01
 0.3946478450637E+01
 0.4044954874873E+01
 0.4111791048044E+01
 0.4150060051119E+01
 0.4165236993877E+01
 0.4162868289239E+01
 0.4147501139832E+01
 0.4122428064794E+01
 0.4089790172138E+01
 0.4050774298368E+01
 0.4005801178127E+01
 0.3954695579821E+01
 0.3896864189880E+01
 0.3831526776777E+01
 0.3758007381607E+01
 0.3676016518612E+01
 0.3585884956135E+01
 0.3488924105607E+01
 0.3387203623887E+01
 0.3282627993083E+01
 0.3176457436427E+01
 0.3069420472599E+01
 0.2962120843270E+01
 0.2855539012488E+01
 0.2751543773226E+01
 0.2653437162397E+01
 0.2566626380646E+01
 0.2499487311707E+01
 0.2464583115772E+01
 0.2480324992739E+01
 0.2571931966563E+01
 0.2769653557966E+01
 0.3102485416806E+01
 0.3587535378330E+01
 0.4218085593240E+01
 0.4954596004130E+01
 0.5723812504546E+01
 0.6431529543690E+01
 0.3591353203866E+01
 0.3747777995357E+01
 0.3902197851605E+01
 0.4034464377237E+01
 0.4133190162060E+01
 0.4196984088226E+01
 0.4230713667654E+01
 0.4241289142326E+01
 0.4235106612966E+01
 0.4217101374442E+01
 0.4190683146960E+01
 0.4157978818153E+01
 0.4120103272602E+01
 0.4077372914617E+01
 0.4029471851105E+01
 0.3975614758888E+01
 0.3914771873669E+01
 0.3845981140209E+01
 0.3768679212518E+01
 0.3682986503868E+01
 0.3590103767864E+01
 0.3492048818154E+01
 0.3390618551725E+01
 0.3286833815933E+01
 0.3181049087549E+01
 0.3073395265534E+01
 0.2964314911639E+01
 0.2855081224617E+01
 0.2748321666426E+01
 0.2648659819524E+01
 0.2563573958458E+01
 0.2504730848648E+01
 0.2490134765627E+01
 0.2546177091751E+01
 0.2707389336013E+01
 0.3010995924674E+01
 0.3484709195333E+01
 0.4130643581432E+01
 0.4911331195169E+01
 0.5745058805954E+01
 0.6518001646497E+01
 0.3658649100704E+01
 0.3826429140089E+01
 0.3990353747782E+01
 0.4126991382715E+01
 0.4224700407548E+01
 0.4283973108428E+01
 0.4311909233721E+01
 0.4317002751320E+01
 0.4306467588949E+01
 0.4285538669343E+01
 0.4257663132166E+01
 0.4224901976506E+01
 0.4188274136887E+01
 0.4147988937686E+01
 0.4103599445860E+01
 0.4054138992786E+01
 0.3998328304794E+01
 0.3934903378489E+01
 0.3863003049961E+01
 0.3782521636447E+01
 0.3694551841586E+01
 0.3601074810858E+01
 0.3503791470683E+01
 0.3403480614313E+01
 0.3300107912332E+01
 0.3193313018908E+01
 0.3082984047437E+01
 0.2969781466527E+01
 0.2855628048304E+01
 0.2744296277127E+01
 0.2642217251344E+01
 0.2559847655147E+01
 0.2514193159542E+01
 0.2531916185508E+01
 0.2651031942733E+01
 0.2917406291245E+01
 0.3371889777046E+01
 0.4029374707023E+01
 0.4857590447892E+01
 0.5765934730070E+01
 0.6615837016498E+01
 0.3729625917604E+01
 0.3910230210231E+01
 0.4084295837478E+01
 0.4224523814219E+01
 0.4319521779038E+01
 0.4372484266590E+01
 0.4393231200502E+01
 0.4391937403180E+01
 0.4376537974617E+01
 0.4352437320896E+01
 0.4323021030172E+01
 0.4290226430407E+01
 0.4254953063368E+01
 0.4217305096222E+01
 0.4176722195079E+01
 0.4132077010042E+01
 0.4081849291190E+01
 0.4024460044401E+01
 0.3958722782065E+01
 0.3884284761002E+01
 0.3802131283753E+01
 0.3714223419272E+01
 0.3622179433683E+01
 0.3526534066181E+01
 0.3426851082151E+01
 0.3322265701751E+01
 0.3212104876271E+01
 0.3096413348005E+01
 0.2976396416838E+01
 0.2854927358492E+01
 0.2737262521530E+01
 0.2632359331212E+01
 0.2555632483937E+01
 0.2532960674217E+01
 0.2604523859655E+01
 0.2824504026659E+01
 0.3249374768842E+01
 0.3911984188572E+01
 0.4790180358228E+01
 0.5785065733925E+01
 0.6727029149914E+01
 0.3805037759621E+01
 0.4000221333733E+01
 0.4184982163009E+01
 0.4327530841338E+01
 0.4417578697275E+01
 0.4462103554873E+01
 0.4474151508379E+01
 0.4465580265001E+01
 0.4444863569993E+01
 0.4417400090958E+01
 0.4386398202172E+01
 0.4353610288560E+01
 0.4319795148018E+01
 0.4284959261989E+01
 0.4248455764286E+01
 0.4209029759518E+01
 0.4164940559571E+01
 0.4114286565122E+01
 0.4055524824600E+01
 0.3988027150524E+01
 0.3912667865887E+01
 0.3831404356390E+01
 0.3745785740127E+01
 0.3656100152807E+01
 0.3561497998684E+01
 0.3460603706168E+01
 0.3352189190098E+01
 0.3235698904937E+01
 0.3111631037384E+01
 0.2981937842636E+01
 0.2850602508302E+01
 0.2724829846241E+01
 0.2617886281828E+01
 0.2553742433785E+01
 0.2572927575388E+01
 0.2736520501042E+01
 0.3118467958192E+01
 0.3776074651130E+01
 0.4704976068813E+01
 0.5800497218315E+01
 0.6854086014914E+01
 0.3885869436891E+01
 0.4097739070612E+01
 0.4293553016816E+01
 0.4436442766109E+01
 0.4518619806431E+01
 0.4552233153041E+01
 0.4554012177804E+01
 0.4537344197768E+01
 0.4510953335521E+01
 0.4480013854371E+01
 0.4447430033310E+01
 0.4414708264624E+01
 0.4382449025078E+01
 0.4350574645064E+01
 0.4318388533728E+01
 0.4284556331648E+01
 0.4247153990281E+01
 0.4203959343398E+01
 0.4153038973589E+01
 0.4093450818802E+01
 0.4025947071455E+01
 0.3952494823622E+01
 0.3874585088390E+01
 0.3792254297967E+01
 0.3704229676223E+01
 0.3608627493271E+01
 0.3503687027370E+01
 0.3388290749747E+01
 0.3262269575596E+01
 0.3126668017369E+01
 0.2984136882768E+01
 0.2839922544537E+01
 0.2704651013927E+01
 0.2599289898883E+01
 0.2562548081663E+01
 0.2659624141002E+01
 0.2982182644335E+01
 0.3619490943946E+01
 0.4596670676588E+01
 0.5809321972010E+01
 0.7000227592664E+01
 0.3973432452781E+01
 0.4204521189191E+01
 0.4411347518526E+01
 0.4551572196023E+01
 0.4622127606511E+01
 0.4642041463444E+01
 0.4632011733818E+01
 0.4606570722584E+01
 0.4574286777521E+01
 0.4539857221103E+01
 0.4505752898479E+01
 0.4473178017696E+01
 0.4442562628828E+01
 0.4413764456230E+01
 0.4386083739830E+01
 0.4358171731865E+01
 0.4327980277331E+01
 0.4292984941951E+01
 0.4250827459933E+01
 0.4200200563034E+01
 0.4141710748606E+01
 0.4077340481065E+01
 0.4008526667683E+01
 0.3935043295870E+01
 0.3855186500046E+01
 0.3766579226505E+01
 0.3666970852644E+01
 0.3554747163116E+01
 0.3429147100560E+01
 0.3290365825228E+01
 0.3139715529070E+01
 0.2980341559458E+01
 0.2819828092626E+01
 0.2675166230898E+01
 0.2580969286491E+01
 0.2602439952233E+01
 0.2846306298094E+01
 0.3441033984594E+01
 0.4458502911678E+01
 0.5807095007574E+01
 0.7169687060849E+01
 0.4069513478242E+01
 0.4322854181824E+01
 0.4539897304276E+01
 0.4672977408873E+01
 0.4727195375642E+01
 0.4730411746482E+01
 0.4707200355953E+01
 0.4672539833328E+01
 0.4634325133838E+01
 0.4596510254346E+01
 0.4561012424700E+01
 0.4528687549690E+01
 0.4499790202514E+01
 0.4474138264135E+01
 0.4451083531087E+01
 0.4429345810891E+01
 0.4406840796391E+01
 0.4380786352592E+01
 0.4348370261567E+01
 0.4307853315109E+01
 0.4259653447406E+01
 0.4205758587349E+01
 0.4147540799308E+01
 0.4084490622204E+01
 0.4014468188927E+01
 0.3934635327383E+01
 0.3842319734243E+01
 0.3735506095922E+01
 0.3612956347115E+01
 0.3474129488929E+01
 0.3319062994979E+01
 0.3148745048970E+01
 0.2967436062477E+01
 0.2787370774506E+01
 0.2636975562618E+01
 0.2576464821893E+01
 0.2720901532684E+01
 0.3241881516393E+01
 0.4282092282061E+01
 0.5786883711087E+01
 0.7368163389017E+01
 0.4176611832677E+01
 0.4455780866497E+01
 0.4680863796644E+01
 0.4800232426725E+01
 0.4832368517250E+01
 0.4815900312097E+01
 0.4778490234964E+01
 0.4734488216543E+01
 0.4690526512237E+01
 0.4649566186912E+01
 0.4612872863233E+01
 0.4580923465623E+01
 0.4553800447943E+01
 0.4531310231453E+01
 0.4512915615965E+01
 0.4497504280664E+01
 0.4483079006407E+01
 0.4466685375241E+01
 0.4445044724969E+01
 0.4415903017860E+01
 0.4379417825637E+01
 0.4337543986268E+01
 0.4291550374630E+01
 0.4240606080334E+01
 0.4182136228961E+01
 0.4112899748724E+01
 0.4029903476303E+01
 0.3930858847754E+01
 0.3814205932896E+01
 0.3678842290531E+01
 0.3523682901455E+01
 0.3347620989997E+01
 0.3151473714545E+01
 0.2942195012318E+01
 0.2740360715824E+01
 0.2596188339906E+01
 0.2622156233710E+01
 0.3028309283876E+01
 0.4057738477462E+01
 0.5737703485786E+01
 0.7603495636899E+01
 0.4298334142538E+01
 0.4607388513280E+01
 0.4835847564981E+01
 0.4932051451117E+01
 0.4935459738517E+01
 0.4896724807858E+01
 0.4844688067302E+01
 0.4791636367742E+01
 0.4742364849718E+01
 0.4698644936262E+01
 0.4661027320499E+01
 0.4629599862762E+01
 0.4604285632874E+01
 0.4584909350822E+01
 0.4571103387113E+01
 0.4562033420411E+01
 0.4555952457914E+01
 0.4549880184475E+01
 0.4540096753511E+01
 0.4523738347960E+01
 0.4500588344776E+01
 0.4472479268315E+01
 0.4440489229970E+01
 0.4403401357986E+01
 0.4358219270142E+01
 0.4301397688406E+01
 0.4229766571529E+01
 0.4140924540903E+01
 0.4033179458883E+01
 0.3905103644805E+01
 0.3754744916538E+01
 0.3579119620862E+01
 0.3375709614127E+01
 0.3145999186355E+01
 0.2901645955669E+01
 0.2678776742786E+01
 0.2574070890275E+01
 0.2816601408699E+01
 0.3776138318158E+01
 0.5641973799374E+01
 0.7886640564132E+01
 0.4440079809352E+01
 0.4783190715503E+01
 0.5005917789726E+01
 0.5065699950216E+01
 0.5033378961734E+01
 0.4970814658350E+01
 0.4904553295140E+01
 0.4843223467807E+01
 0.4789352441423E+01
 0.4743408051051E+01
 0.4705208539350E+01
 0.4674467597505E+01
 0.4650971381509E+01
 0.4634591614725E+01
 0.4625180482800E+01
 0.4622290994954E+01
 0.4624627867443E+01
 0.4629417554993E+01
 0.4632599597753E+01
 0.4630609048501E+01
 0.4622682210930E+01
 0.4610351560117E+01
 0.4594331002438E+01
 0.4572913961100E+01
 0.4542722307098E+01
 0.4500069378039E+01
 0.4441811587941E+01
 0.4365626735754E+01
 0.4269899812049E+01
 0.4153163534564E+01
 0.4012962093037E+01
 0.3844843953814E+01
 0.3643376700593E+01
 0.3404848167433E+01
 0.3131679060594E+01
 0.2843381733349E+01
 0.2608905702492E+01
 0.2640847416912E+01
 0.3434002201671E+01
 0.5471623669371E+01
 0.8232986319054E+01
 0.4610295134490E+01
 0.4990566237233E+01
 0.5190538353619E+01
 0.5196137690435E+01
 0.5122087773816E+01
 0.5035959315061E+01
 0.4956875500372E+01
 0.4888548277444E+01
 0.4831065610165E+01
 0.4783574269610E+01
 0.4745199787313E+01
 0.4715323517168E+01
 0.4693626621268E+01
 0.4680053496574E+01
 0.4674710198624E+01
 0.4677626653284E+01
 0.4688183842943E+01
 0.4704160022100E+01
 0.4721393853304E+01
 0.4735573197871E+01
 0.4745135402279E+01
 0.4750979646381E+01
 0.4753133362390E+01
 0.4749242251625E+01
 0.4735639919182E+01
 0.4708762460068E+01
 0.4665779951295E+01
 0.4604672222322E+01
 0.4524103336002E+01
 0.4422869578312E+01
 0.4298471040097E+01
 0.4145610053390E+01
 0.3956763791911E+01
 0.3723941277492E+01
 0.3440968600001E+01
 0.3110238101399E+01
 0.2765547340855E+01
 0.2561786979004E+01
 0.3049789455569E+01
 0.5183216935937E+01
 0.8663737635695E+01
 0.4822917376513E+01
 0.5239005178520E+01
 0.5385206179977E+01
 0.5314980278881E+01
 0.5196910564241E+01
 0.5090054301709E+01
 0.5000551298122E+01
 0.4927018000369E+01
 0.4867171668387E+01
 0.4818934744857E+01
 0.4780845474871E+01
 0.4752019212482E+01
 0.4732073178063E+01
 0.4721045666432E+01
 0.4719309062702E+01
 0.4727415654150E+01
 0.4745630025126E+01
 0.4772751399216E+01
 0.4804999005642E+01
 0.4837411997666E+01
 0.4867280629459E+01
 0.4894258524827E+01
 0.4917105546303E+01
 0.4932595335900E+01
 0.4936974055515E+01
 0.4927221322221E+01
 0.4901226874241E+01
 0.4857530738447E+01
 0.4795229803597E+01
 0.4713640339111E+01
 0.4610732045974E+01
 0.4481201735838E+01
 0.4316722484375E+01
 0.4106797758576E+01
 0.3838561942781E+01
 0.3499250859196E+01
 0.3086748220082E+01
 0.2668608278767E+01
 0.2702497435971E+01
 0.4716739261789E+01
 0.9206116085790E+01
 0.5102534943872E+01
 0.5539058881271E+01
 0.5576418762396E+01
 0.5409968964522E+01
 0.5253534957263E+01
 0.5131310028217E+01
 0.5034659751329E+01
 0.4958208764170E+01
 0.4897451422207E+01
 0.4849368229696E+01
 0.4812060580318E+01
 0.4784468825778E+01
 0.4766194444405E+01
 0.4757385530733E+01
 0.4758671504577E+01
 0.4771108085439E+01
 0.4795957814864E+01
 0.4833591986697E+01
 0.4881481232042E+01
 0.4934486384665E+01
 0.4988312001973E+01
 0.5040234308423E+01
 0.5086710530605E+01
 0.5123361004607E+01
 0.5146755458918E+01
 0.5155070704010E+01
 0.5147483929109E+01
 0.5123409131032E+01
 0.5082433039039E+01
 0.5024482918851E+01
 0.4948469379109E+01
 0.4850143341059E+01
 0.4722158180173E+01
 0.4554192179259E+01
 0.4330398023750E+01
 0.4027274692910E+01
 0.3615711769348E+01
 0.3068514030661E+01
 0.2597035421739E+01
 0.4023653158594E+01
 0.9887959840595E+01
 0.5496525197686E+01
 0.5895231596841E+01
 0.5731816351752E+01
 0.5467649257758E+01
 0.5289498930313E+01
 0.5158140376160E+01
 0.5058647257949E+01
 0.4981897451976E+01
 0.4921822964356E+01
 0.4874854092720E+01
 0.4838838348903E+01
 0.4812655539459E+01
 0.4795942514704E+01
 0.4788967916980E+01
 0.4792590255477E+01
 0.4808288365479E+01
 0.4838246115063E+01
 0.4884856789404E+01
 0.4948254453900E+01
 0.5024483770537E+01
 0.5107230621787E+01
 0.5189235992292E+01
 0.5262818705965E+01
 0.5322194264616E+01
 0.5365066655546E+01
 0.5391792391272E+01
 0.5403602091210E+01
 0.5401204381491E+01
 0.5384616590380E+01
 0.5354084089781E+01
 0.5309680995119E+01
 0.5249500331817E+01
 0.5169592311068E+01
 0.5063060882818E+01
 0.4916840225720E+01
 0.4704693660343E+01
 0.4386081874636E+01
 0.3880297599387E+01
 0.3066271510490E+01
 0.3252908260380E+01
 0.1071909710768E+02
 0.6108464543603E+01
 0.6269710511137E+01
 0.5788562950606E+01
 0.5485910454103E+01
 0.5302534521418E+01
 0.5169650888432E+01
 0.5072437219709E+01
 0.4998072348725E+01
 0.4940370982094E+01
 0.4895478304466E+01
 0.4861257348707E+01
 0.4836635971068E+01
 0.4821343302858E+01
 0.4815773572442E+01
 0.4820970200199E+01
 0.4838721068384E+01
 0.4871841993035E+01
 0.4924651258613E+01
 0.5001783343258E+01
 0.5103937252999E+01
 0.5222774886358E+01
 0.5342118771846E+01
 0.5446934220504E+01
 0.5530127643024E+01
 0.5592061739887E+01
 0.5636696713647E+01
 0.5668275559697E+01
 0.5689401990225E+01
 0.5700485205855E+01
 0.5701049703614E+01
 0.5691730066951E+01
 0.5674753633014E+01
 0.5652718640581E+01
 0.5626044898421E+01
 0.5589318680799E+01
 0.5530858353339E+01
 0.5409676390085E+01
 0.5193547005634E+01
 0.4526238834287E+01
 0.3451459747888E+01
 0.1166324337106E+02
 0.7215661239040E+01
 0.6376149266881E+01
 0.5726527878800E+01
 0.5471354105600E+01
 0.5289046721869E+01
 0.5166921069461E+01
 0.5076102713481E+01
 0.5007072008809E+01
 0.4953327044687E+01
 0.4911447414294E+01
 0.4879482814610E+01
 0.4856543254221E+01
 0.4842499144015E+01
 0.4837873140597E+01
 0.4843840120303E+01
 0.4862359323608E+01
 0.4896533474344E+01
 0.4951581239815E+01
 0.5037176243772E+01
 0.5167184292033E+01
 0.5333423041938E+01
 0.5500707778280E+01
 0.5641511695990E+01
 0.5748698801219E+01
 0.5827970270914E+01
 0.5888882561357E+01
 0.5939770133486E+01
 0.5985863501180E+01
 0.6028512256708E+01
 0.6064483922309E+01
 0.6091577819249E+01
 0.6119476232661E+01
 0.6162567009504E+01
 0.6230272913324E+01
 0.6332062111391E+01
 0.6476733650558E+01
 0.6690325886841E+01
 0.6936075411457E+01
 0.7491152379033E+01
 0.6702672104073E+01
 0.1375752383146E+02
 0.8140575322411E+00
 0.1113723278197E+01
 0.1389427276772E+01
 0.1636861794180E+01
 0.1855854155524E+01
 0.2047957491262E+01
 0.2215544429206E+01
 0.2361304868991E+01
 0.2487849602889E+01
 0.2597625182122E+01
 0.2693078887231E+01
 0.2775655716860E+01
 0.2847234177182E+01
 0.2911049218239E+01
 0.2969085667591E+01
 0.3021495739201E+01
 0.3067463292674E+01
 0.3105792106044E+01
 0.3135997440706E+01
 0.3158695997579E+01
 0.7898631068120E+00
 0.1106456755646E+01
 0.1395269534290E+01
 0.1654046694950E+01
 0.1883026790540E+01
 0.2084145913760E+01
 0.2260153295545E+01
 0.2414006414373E+01
 0.2548502567877E+01
 0.2666280238472E+01
 0.2769834658360E+01
 0.2860799769279E+01
 0.2941483177334E+01
 0.3014965692239E+01
 0.3083036687056E+01
 0.3146293426883E+01
 0.3204364211650E+01
 0.3256545408375E+01
 0.3299416437033E+01
 0.3327685997003E+01
 0.7664203785231E+00
 0.1100263759342E+01
 0.1402110375527E+01
 0.1671575658936E+01
 0.1909874630565E+01
 0.2119429599625E+01
 0.2303329918172E+01
 0.2464784612396E+01
 0.2606804137879E+01
 0.2732181373205E+01
 0.2843492763687E+01
 0.2942726564108E+01
 0.3032345084144E+01
 0.3115269948308E+01
 0.3193356603916E+01
 0.3267374276558E+01
 0.3337170833693E+01
 0.3401386407986E+01
 0.3456002736875E+01
 0.3498271879731E+01
 0.7440997571726E+00
 0.1094815536337E+01
 0.1409446649126E+01
 0.1689102130695E+01
 0.1936103911745E+01
 0.2153499680728E+01
 0.2344742381608E+01
 0.2513294483465E+01
 0.2662371866089E+01
 0.2794925503092E+01
 0.2913670466396E+01
 0.3020876159817E+01
 0.3119115593590E+01
 0.3211196300171E+01
 0.3299001111121E+01
 0.3383384656614E+01
 0.3464109921504E+01
 0.3539567688446E+01
 0.3606516301946E+01
 0.3662739612971E+01
 0.7230174390972E+00
 0.1090025395104E+01
 0.1416958207216E+01
 0.1706283444350E+01
 0.1961402107547E+01
 0.2186045192781E+01
 0.2384067141253E+01
 0.2559191607450E+01
 0.2714837638715E+01
 0.2854122364245E+01
 0.2979906952565E+01
 0.3094688245491E+01
 0.3201120496822E+01
 0.3301916791689E+01
 0.3398951857594E+01
 0.3493076726879E+01
 0.3584008205051E+01
 0.3670230064946E+01
 0.3748970538543E+01
 0.3817920839441E+01
 0.7032485361771E+00
 0.1085797992108E+01
 0.1424411188266E+01
 0.1722818395768E+01
 0.1985461098160E+01
 0.2216758935173E+01
 0.2420987975414E+01
 0.2602142407933E+01
 0.2763844032803E+01
 0.2909374084631E+01
 0.3041734952887E+01
 0.3163603621009E+01
 0.3277690718375E+01
 0.3386625147026E+01
 0.3492244675703E+01
 0.3595383357551E+01
 0.3695774362228E+01
 0.3791994771806E+01
 0.3881475602476E+01
 0.3961504022808E+01
 0.6848516600483E+00
 0.1082042916187E+01
 0.1431602877979E+01
 0.1738441429532E+01
 0.2007991548967E+01
 0.2245344852388E+01
 0.2455200588737E+01
 0.2641826488185E+01
 0.2809043479229E+01
 0.2960289324650E+01
 0.3098695154768E+01
 0.3227077514070E+01
 0.3348181610714E+01
 0.3464558103740E+01
 0.3577998066824E+01
 0.3689321238379E+01
 0.3798277540019E+01
 0.3903480059416E+01
 0.4002359478955E+01
 0.4091678334388E+01
 0.6678785474163E+00
 0.1078674821576E+01
 0.1438351938321E+01
 0.1752913550670E+01
 0.2028726996881E+01
 0.2271524693329E+01
 0.2486417109577E+01
 0.2677939690201E+01
 0.2850104062491E+01
 0.3006492539468E+01
 0.3150348545979E+01
 0.3284593364221E+01
 0.3411988210399E+01
 0.3535010992187E+01
 0.3655403046798E+01
 0.3773963630481E+01
 0.3890438108997E+01
 0.4003413623017E+01
 0.4110199150058E+01
 0.4207001217883E+01
 0.6523766524013E+00
 0.1075615396054E+01
 0.1444494801050E+01
 0.1766019449169E+01
 0.2047424814621E+01
 0.2295042143224E+01
 0.2514370354914E+01
 0.2710198582033E+01
 0.2886715526723E+01
 0.3047632546388E+01
 0.3196286795899E+01
 0.3335674466416E+01
 0.3468557284461E+01
 0.3597344281157E+01
 0.3723723405528E+01
 0.3848461945861E+01
 0.3971274822377E+01
 0.4090678557076E+01
 0.4203802424848E+01
 0.4306318481812E+01
 0.6383897970944E+00
 0.1072794355103E+01
 0.1449885051582E+01
 0.1777566667211E+01
 0.2063867225645E+01
 0.2315665643422E+01
 0.2538817705376E+01
 0.2738345066362E+01
 0.2918595165134E+01
 0.3083390048057E+01
 0.3236140980637E+01
 0.3379893345356E+01
 0.3517395984039E+01
 0.3650990413632E+01
 0.3782306260951E+01
 0.3912066143356E+01
 0.4039933156967E+01
 0.4164326924583E+01
 0.4282177169234E+01
 0.4388676274377E+01
 0.6259580247802E+00
 0.1070150073327E+01
 0.1454393649141E+01
 0.1787385842705E+01
 0.2077862434291E+01
 0.2333190762988E+01
 0.2559544521265E+01
 0.2762150735005E+01
 0.2945493238729E+01
 0.3113484193530E+01
 0.3269588886842E+01
 0.3416879334940E+01
 0.3558079371021E+01
 0.3695462175289E+01
 0.3830593639756E+01
 0.3964140851799E+01
 0.4095700896694E+01
 0.4223585118751E+01
 0.4344525882348E+01
 0.4453314075475E+01
 0.6151172456882E+00
 0.1067629979270E+01
 0.1457909461580E+01
 0.1795331382080E+01
 0.2089245863258E+01
 0.2347442289488E+01
 0.2576367131652E+01
 0.2781420716002E+01
 0.2967197685648E+01
 0.3137678074940E+01
 0.3296360958833E+01
 0.3446324801974E+01
 0.3590257168548E+01
 0.3730360614659E+01
 0.3868132378308E+01
 0.4004176393648E+01
 0.4138017004298E+01
 0.4267858200494E+01
 0.4390256147930E+01
 0.4499691784268E+01
 0.6058988636500E+00
 0.1065190804046E+01
 0.1460339849687E+01
 0.1801282259890E+01
 0.2097881365489E+01
 0.2358276068898E+01
 0.2589135391765E+01
 0.2795996943823E+01
 0.2983538059704E+01
 0.3155783218310E+01
 0.3316245113263E+01
 0.3467990303467E+01
 0.3613659548972E+01
 0.3755381750515E+01
 0.3894581675906E+01
 0.4031796102258E+01
 0.4166476801430E+01
 0.4296732298588E+01
 0.4418979142868E+01
 0.4527483635054E+01
 0.5983294705685E+00
 0.1062798728796E+01
 0.1461611191751E+01
 0.1805142771638E+01
 0.2103662293463E+01
 0.2365580534828E+01
 0.2597734752118E+01
 0.2805760765453E+01
 0.2994388614692E+01
 0.3167663035577E+01
 0.3329090417589E+01
 0.3481708555657E+01
 0.3628101586472E+01
 0.3770321518281E+01
 0.3909718178903E+01
 0.4046760599330E+01
 0.4180834111335E+01
 0.4309972444253E+01
 0.4430499235175E+01
 0.4536560203266E+01
 0.5924306278220E+00
 0.1060429447715E+01
 0.1461669293586E+01
 0.1806843151651E+01
 0.2106512357384E+01
 0.2369277896084E+01
 0.2602087828569E+01
 0.2810634881256E+01
 0.2999670554255E+01
 0.3173235289417E+01
 0.3334809673768E+01
 0.3487387184834E+01
 0.3633486259543E+01
 0.3775078903465E+01
 0.3913438834934E+01
 0.4048969582866E+01
 0.4181000671453E+01
 0.4307517477461E+01
 0.4424802446010E+01
 0.4526970767133E+01
 0.5882187318476E+00
 0.1058068157213E+01
 0.1460479652166E+01
 0.1806339997388E+01
 0.2106386216299E+01
 0.2369324944095E+01
 0.2602155451437E+01
 0.2810584611358E+01
 0.2999353451639E+01
 0.3172473581544E+01
 0.3333380895062E+01
 0.3485010205263E+01
 0.3629805939068E+01
 0.3769657274776E+01
 0.3905761698045E+01
 0.4038461448330E+01
 0.4167043561556E+01
 0.4289474146303E+01
 0.4402046901143E+01
 0.4498930419029E+01
 0.5857049212000E+00
 0.1055709464087E+01
 0.1458027542281E+01
 0.1803616455687E+01
 0.2103269758185E+01
 0.2365713447736E+01
 0.2597937175443E+01
 0.2805618481864E+01
 0.2993455842351E+01
 0.3165407866663E+01
 0.3324847660218E+01
 0.3474638191946E+01
 0.3617142344581E+01
 0.3754163963615E+01
 0.3886824838024E+01
 0.4015411088408E+01
 0.4139181394048E+01
 0.4256111452138E+01
 0.4362555888677E+01
 0.4452812342151E+01
 0.5848950168445E+00
 0.1053357217506E+01
 0.1454317920708E+01
 0.1798682154821E+01
 0.2097180051922E+01
 0.2358470125614E+01
 0.2589471251365E+01
 0.2795788141961E+01
 0.2982045006986E+01
 0.3152124008384E+01
 0.3309318352467E+01
 0.3456407153440E+01
 0.3595664994939E+01
 0.3728808164495E+01
 0.3856883513124E+01
 0.3980126167977E+01
 0.4097779682632E+01
 0.4207855530198E+01
 0.4306813262627E+01
 0.4389144648425E+01
 0.5857894625183E+00
 0.1051024261529E+01
 0.1449375137568E+01
 0.1791572869417E+01
 0.2088164960581E+01
 0.2347656193517E+01
 0.2576834068562E+01
 0.2781187632236E+01
 0.2965235972908E+01
 0.3132762409739E+01
 0.3286964316248E+01
 0.3430526144157E+01
 0.3565628213391E+01
 0.3693897251601E+01
 0.3816305749313E+01
 0.3933042046149E+01
 0.4043345495088E+01
 0.4145284929865E+01
 0.4235460826570E+01
 0.4308611483131E+01
 0.5883832489858E+00
 0.1048732109600E+01
 0.1443242457183E+01
 0.1782349920584E+01
 0.2076302421616E+01
 0.2333366499463E+01
 0.2560139089999E+01
 0.2761952035180E+01
 0.2943189773324E+01
 0.3107515761758E+01
 0.3258016977996E+01
 0.3397273668672E+01
 0.3527366751674E+01
 0.3649831589002E+01
 0.3765566402574E+01
 0.3874715366388E+01
 0.3976521229227E+01
 0.4069125861149E+01
 0.4149297055534E+01
 0.4212057782129E+01
 0.5926658193490E+00
 0.1046510544677E+01
 0.1435981395212E+01
 0.1771099320203E+01
 0.2061699406902E+01
 0.2315728266251E+01
 0.2539535308879E+01
 0.2738255546959E+01
 0.2916111012344E+01
 0.3076625967043E+01
 0.3222763994818E+01
 0.3356992949093E+01
 0.3481290109674E+01
 0.3597097904860E+01
 0.3705239736962E+01
 0.3805816246991E+01
 0.3898077228497E+01
 0.3980246701209E+01
 0.4049276089105E+01
 0.4100496067967E+01
 0.5986209644510E+00
 0.1044397151602E+01
 0.1427670884357E+01
 0.1757930675853E+01
 0.2044490584071E+01
 0.2294899470049E+01
 0.2515205264645E+01
 0.2710309018766E+01
 0.2884244795392E+01
 0.3040380308347E+01
 0.3181544510215E+01
 0.3310086141260E+01
 0.3427875635029E+01
 0.3536261291179E+01
 0.3635990517339E+01
 0.3727118940258E+01
 0.3808902893448E+01
 0.3879650933501E+01
 0.3936504656017E+01
 0.3975109712935E+01
 0.6062267294185E+00
 0.1042436791230E+01
 0.1418406286509E+01
 0.1742975879669E+01
 0.2024836707984E+01
 0.2271066891140E+01
 0.2487362663928E+01
 0.2678357024728E+01
 0.2847873094622E+01
 0.2999106944836E+01
 0.3134743611097E+01
 0.3257007601095E+01
 0.3367660498870E+01
 0.3467955894300E+01
 0.3558563603974E+01
 0.3639490808479E+01
 0.3709995901764E+01
 0.3768467973841E+01
 0.3812235978235E+01
 0.3837254641534E+01
 0.6154553595031E+00
 0.1040681028716E+01
 0.1408298274712E+01
 0.1726387611711E+01
 0.2002922779410E+01
 0.2244443881666E+01
 0.2456249661363E+01
 0.2642674523919E+01
 0.2807310631663E+01
 0.2953169834110E+01
 0.3082786098798E+01
 0.3198256323276E+01
 0.3301232666302E+01
 0.3392874383768E+01
 0.3473772060479E+01
 0.3543879478660E+01
 0.3602449212875E+01
 0.3647941345764E+01
 0.3677861735835E+01
 0.3688459770509E+01
 0.6262733164731E+00
 0.1039187530280E+01
 0.1397471611895E+01
 0.1708337692688E+01
 0.1978956012249E+01
 0.2215267899214E+01
 0.2422133859204E+01
 0.2603563188710E+01
 0.2762900366183E+01
 0.2902963186546E+01
 0.3026129698326E+01
 0.3134367689462E+01
 0.3229221000100E+01
 0.3311756316383E+01
 0.3382483826020E+01
 0.3441298100828E+01
 0.3487435550450E+01
 0.3519413687707E+01
 0.3534900136408E+01
 0.3530422102372E+01
 0.6386413959403E+00
 0.1038019444596E+01
 0.1386063856785E+01
 0.1689015324910E+01
 0.1953163654496E+01
 0.2183797858357E+01
 0.2385305087552E+01
 0.2561347475141E+01
 0.2715008683968E+01
 0.2848905566428E+01
 0.2965257841501E+01
 0.3065904679482E+01
 0.3152284660892E+01
 0.3225375553160E+01
 0.3285607072496E+01
 0.3332808723798E+01
 0.3366189168493E+01
 0.3384307820823E+01
 0.3384977934865E+01
 0.3364992990568E+01
 0.6525149683259E+00
 0.1037244786366E+01
 0.1374224032250E+01
 0.1668625267696E+01
 0.1925790716180E+01
 0.2150311360036E+01
 0.2346072034653E+01
 0.2516370519454E+01
 0.2664020388950E+01
 0.2791433768703E+01
 0.2900672178716E+01
 0.2993448723368E+01
 0.3071102001059E+01
 0.3134526942736E+01
 0.3184074461075E+01
 0.3219503949188E+01
 0.3239984840602E+01
 0.3244103291597E+01
 0.3229805217211E+01
 0.3194152995573E+01
 0.6678443616900E+00
 0.1036935838259E+01
 0.1362111286282E+01
 0.1647385984983E+01
 0.1897097645661E+01
 0.2115101843474E+01
 0.2304758779026E+01
 0.2468989926856E+01
 0.2610333588030E+01
 0.2730996589724E+01
 0.2832884970025E+01
 0.2917590374455E+01
 0.2986359161011E+01
 0.3040012518864E+01
 0.3078826598922E+01
 0.3102487196222E+01
 0.3110114299059E+01
 0.3100308229552E+01
 0.3071142022131E+01
 0.3019972788576E+01
 0.6845753941519E+00
 0.1037168591692E+01
 0.1349893592729E+01
 0.1625527826548E+01
 0.1867358020763E+01
 0.2078475727890E+01
 0.2261701293660E+01
 0.2419573533479E+01
 0.2554354571071E+01
 0.2668048625334E+01
 0.2762411523606E+01
 0.2838919998458E+01
 0.2898738582933E+01
 0.2942627466040E+01
 0.2970795036829E+01
 0.2982852053355E+01
 0.2977860705823E+01
 0.2954426889364E+01
 0.2910755957468E+01
 0.2844556406015E+01
 0.7026500287174E+00
 0.1038022236201E+01
 0.1337746528308E+01
 0.1603291297786E+01
 0.1836856315239E+01
 0.2040749604119E+01
 0.2217243984777E+01
 0.2368495216812E+01
 0.2496492789765E+01
 0.2603044245582E+01
 0.2689762886993E+01
 0.2758018728660E+01
 0.2808907715431E+01
 0.2843146166906E+01
 0.2860885252923E+01
 0.2861661442040E+01
 0.2844472300227E+01
 0.2807924373490E+01
 0.2750371707789E+01
 0.2669965171244E+01
 0.7220071470673E+00
 0.1039578712229E+01
 0.1325852173812E+01
 0.1580925481400E+01
 0.1805885801456E+01
 0.2002247526094E+01
 0.2171736308601E+01
 0.2316130804049E+01
 0.2437156010126E+01
 0.2536431872934E+01
 0.2615438996030E+01
 0.2675449958688E+01
 0.2717508195424E+01
 0.2742308606487E+01
 0.2749960003669E+01
 0.2739927375953E+01
 0.2711136727175E+01
 0.2662191160596E+01
 0.2591616690215E+01
 0.2498128560452E+01
 0.7425833905117E+00
 0.1041922325276E+01
 0.1314398194820E+01
 0.1558686696220E+01
 0.1774746666462E+01
 0.1963298456577E+01
 0.2125529504141E+01
 0.2262854113012E+01
 0.2376745684360E+01
 0.2468648654113E+01
 0.2539922469091E+01
 0.2591751670715E+01
 0.2625145819660E+01
 0.2640807329055E+01
 0.2638823149898E+01
 0.2618591835315E+01
 0.2578957721630E+01
 0.2518510699131E+01
 0.2435969629348E+01
 0.2330756624398E+01
 0.7643140010242E+00
 0.1045139408477E+01
 0.1303577171813E+01
 0.1536837491880E+01
 0.1743744406390E+01
 0.1924233880837E+01
 0.2078973430623E+01
 0.2209033108471E+01
 0.2315652519794E+01
 0.2400115519046E+01
 0.2463673158807E+01
 0.2507429920408E+01
 0.2532381763346E+01
 0.2539275188878E+01
 0.2528203760584E+01
 0.2498508553531E+01
 0.2448935707154E+01
 0.2378034590638E+01
 0.2284717944088E+01
 0.2169265616026E+01
 0.7871335254097E+00
 0.1049317992953E+01
 0.1293586312190E+01
 0.1515646177004E+01
 0.1713188620014E+01
 0.1885385636366E+01
 0.2032413550861E+01
 0.2155026255054E+01
 0.2254252332693E+01
 0.2331232687885E+01
 0.2387123609102E+01
 0.2422954024700E+01
 0.2439726051342E+01
 0.2438274900638E+01
 0.2418740384058E+01
 0.2380424679956E+01
 0.2321952278949E+01
 0.2241771846070E+01
 0.2138935212960E+01
 0.2014723216271E+01
 0.8109761330683E+00
 0.1054547382581E+01
 0.1284627843004E+01
 0.1495387198603E+01
 0.1683392318590E+01
 0.1847083863752E+01
 0.1986187988520E+01
 0.2101179061781E+01
 0.2192902167015E+01
 0.2262375447683E+01
 0.2310675059742E+01
 0.2338753360970E+01
 0.2347634405651E+01
 0.2338292000089E+01
 0.2310965776546E+01
 0.2264958482322E+01
 0.2198754319772E+01
 0.2110592895625E+01
 0.1999504650061E+01
 0.1867868783077E+01
 0.8357748866273E+00
 0.1060917535229E+01
 0.1276910631814E+01
 0.1476343094570E+01
 0.1654671696721E+01
 0.1809654828675E+01
 0.1940624498635E+01
 0.2047820973672E+01
 0.2131936862364E+01
 0.2193890165269E+01
 0.2234693632099E+01
 0.2255214996728E+01
 0.2256509101772E+01
 0.2239736334722E+01
 0.2205294962235E+01
 0.2152570114117E+01
 0.2079923962376E+01
 0.1985243018856E+01
 0.1867187614663E+01
 0.1729213903714E+01
 0.8614586845974E+00
 0.1068517381495E+01
 0.1270655587292E+01
 0.1458808863940E+01
 0.1627346370956E+01
 0.1773417547997E+01
 0.1896037277264E+01
 0.1995262835741E+01
 0.2071666354289E+01
 0.2126090530759E+01
 0.2159505989954E+01
 0.2172680706765E+01
 0.2166700535672E+01
 0.2142955435357E+01
 0.2102036353628E+01
 0.2043517432950E+01
 0.1965814681361E+01
 0.1866327290376E+01
 0.1742739658304E+01
 0.1599153566206E+01
 0.8879407552786E+00
 0.1077436507139E+01
 0.1266107215618E+01
 0.1443104187594E+01
 0.1601735845518E+01
 0.1738678283598E+01
 0.1852723652592E+01
 0.1943795545319E+01
 0.2012374165083E+01
 0.2059254560819E+01
 0.2085394399043E+01
 0.2091441365671E+01
 0.2078506878348E+01
 0.2048246840777E+01
 0.2001447822070E+01
 0.1937881310864E+01
 0.1856335851040E+01
 0.1754228698442E+01
 0.1627050225261E+01
 0.1478262953278E+01
 0.9150919543994E+00
 0.1087744757626E+01
 0.1263602735831E+01
 0.1429576891849E+01
 0.1578146535250E+01
 0.1705724826834E+01
 0.1810960781387E+01
 0.1893688932686E+01
 0.1954320789656E+01
 0.1993621762462E+01
 0.2012591275307E+01
 0.2011730170195E+01
 0.1992164032438E+01
 0.1955867200711E+01
 0.1903770353499E+01
 0.1835791591232E+01
 0.1750951790688E+01
 0.1648026934719E+01
 0.1521671317578E+01
 0.1368184552915E+01
 0.9424633449315E+00
 0.1099842134819E+01
 0.1263649764164E+01
 0.1418562077475E+01
 0.1556855872757E+01
 0.1674820979466E+01
 0.1771006213736E+01
 0.1845185922844E+01
 0.1897745824906E+01
 0.1929415315407E+01
 0.1941249938760E+01
 0.1933711550954E+01
 0.1907856634461E+01
 0.1865983537274E+01
 0.1809265489759E+01
 0.1737476862150E+01
 0.1649701843993E+01
 0.1545016714692E+01
 0.1423368533751E+01
 0.1278389770371E+01
 0.2006704085058E+01
 0.7500779906029E+00
 0.1504678742709E+00
 0.7896325685434E-02
 0.9965178481939E-01
 0.1638045139840E+00
 0.2149134733359E+00
 0.2573308823931E+00
 0.2911273867028E+00
 0.3149460775717E+00
 0.3251970487708E+00
 0.3170227326854E+00
 0.2837513479779E+00
 0.2278721087952E+00
 0.1561114043250E+00
 0.7511248688662E-01
 0.1568348861017E-01
 0.8681227230780E-01
 0.1647499990886E+00
 0.2828621784343E+00
 0.2086843414387E+01
 0.1459103077871E+01
 0.5787384380513E+00
 0.2339909355859E+00
 0.7639159652108E-01
 0.2040603720056E-01
 0.8753447147814E-01
 0.1396660872994E+00
 0.1814288918817E+00
 0.2133705701062E+00
 0.2337977802930E+00
 0.2430892110092E+00
 0.2330192234920E+00
 0.1979249877623E+00
 0.1433591677245E+00
 0.7748504444841E-01
 0.1363702245189E-01
 0.5600614273698E-01
 0.1216319201642E+00
 0.1929719907078E+00
 0.1941308964838E+01
 0.1683199322809E+01
 0.9970684300749E+00
 0.5282590860908E+00
 0.2887396622305E+00
 0.1510965243822E+00
 0.6040273683294E-01
 0.6062643385909E-02
 0.5807965483390E-01
 0.9995393044747E-01
 0.1322467039531E+00
 0.1565530177546E+00
 0.1649618667158E+00
 0.1482629619012E+00
 0.1105674227947E+00
 0.6010940489802E-01
 0.8048461324854E-02
 0.4587124964709E-01
 0.9375136388834E-01
 0.1342424988373E+00
 0.1792131642050E+01
 0.1733903023434E+01
 0.1259242364325E+01
 0.8170041361990E+00
 0.5239374385065E+00
 0.3445503532601E+00
 0.2273299161388E+00
 0.1438603645180E+00
 0.7933533800118E-01
 0.2643371108829E-01
 0.1764838353339E-01
 0.5538144664773E-01
 0.7970886020534E-01
 0.7941463902754E-01
 0.5722769552431E-01
 0.2122969281902E-01
 0.1945237038882E-01
 0.5917839487367E-01
 0.9398323947909E-01
 0.1226063529686E+00
 0.1659593906460E+01
 0.1714249826439E+01
 0.1411156176114E+01
 0.1046283972563E+01
 0.7532249804218E+00
 0.5487267292598E+00
 0.4084567365616E+00
 0.3078308551056E+00
 0.2303261494923E+00
 0.1662612249702E+00
 0.1112975601191E+00
 0.6168668385381E-01
 0.2372811900422E-01
 0.9958683136526E-02
 0.1799964004372E-01
 0.4101182117901E-01
 0.7067927354829E-01
 0.1012539288975E+00
 0.1303811554351E+00
 0.1621326388512E+00
 0.1546493772006E+01
 0.1665504576171E+01
 0.1492726943864E+01
 0.1215891938972E+01
 0.9544488526687E+00
 0.7486077556036E+00
 0.5957959278291E+00
 0.4819714934110E+00
 0.3930731325469E+00
 0.3189484663378E+00
 0.2543069491748E+00
 0.1945804847160E+00
 0.1448038125767E+00
 0.1181370596976E+00
 0.1149442945569E+00
 0.1278517567568E+00
 0.1495801229467E+00
 0.1754310932224E+00
 0.2057537074605E+00
 0.2499648424961E+00
 0.1450620310959E+01
 0.1606457219637E+01
 0.1530769021061E+01
 0.1336959422250E+01
 0.1122090891518E+01
 0.9330901805045E+00
 0.7807458083890E+00
 0.6609096387548E+00
 0.5644830934264E+00
 0.4828038069742E+00
 0.4106402971662E+00
 0.3431102461062E+00
 0.2841662470277E+00
 0.2474579081597E+00
 0.2351383060310E+00
 0.2405539345565E+00
 0.2576462860507E+00
 0.2829235611869E+00
 0.3192223289610E+00
 0.3799371197275E+00
 0.1368995079271E+01
 0.1546062741665E+01
 0.1542474516093E+01
 0.1421592174034E+01
 0.1258145703109E+01
 0.1097424305671E+01
 0.9567905210257E+00
 0.8392408053733E+00
 0.7407559635603E+00
 0.6553019543597E+00
 0.5786267929438E+00
 0.5061317465800E+00
 0.4409247029556E+00
 0.3969826445028E+00
 0.3783312417427E+00
 0.3792260269007E+00
 0.3948167497592E+00
 0.4226589953647E+00
 0.4673189661167E+00
 0.5444400387777E+00
 0.1298814656721E+01
 0.1488565064400E+01
 0.1538806109386E+01
 0.1479968109533E+01
 0.1367380309253E+01
 0.1240988415902E+01
 0.1120311085654E+01
 0.1012657942171E+01
 0.9181126292011E+00
 0.8334659288903E+00
 0.7559791150580E+00
 0.6818574943518E+00
 0.6136654020786E+00
 0.5655997819470E+00
 0.5435521216724E+00
 0.5427571225988E+00
 0.5593816893958E+00
 0.5916424544240E+00
 0.6449280705169E+00
 0.7355137962413E+00
 0.1237697185868E+01
 0.1435809418554E+01
 0.1526743038318E+01
 0.1519958589212E+01
 0.1455033702150E+01
 0.1365337975391E+01
 0.1269956375470E+01
 0.1178310157310E+01
 0.1093329580946E+01
 0.1014271169277E+01
 0.9400312397827E+00
 0.8679401913827E+00
 0.8002895583203E+00
 0.7513745455363E+00
 0.7288176021847E+00
 0.7287945533127E+00
 0.7482133339146E+00
 0.7855243220655E+00
 0.8461098847137E+00
 0.9455631450425E+00
 0.1183695075595E+01
 0.1388380501221E+01
 0.1510694290004E+01
 0.1547411642342E+01
 0.1525878609028E+01
 0.1472918366269E+01
 0.1405820391048E+01
 0.1334610857830E+01
 0.1263933867172E+01
 0.1194930166286E+01
 0.1127973243348E+01
 0.1061625643965E+01
 0.9980893798035E+00
 0.9515800760488E+00
 0.9311809893883E+00
 0.9338990872520E+00
 0.9571075902231E+00
 0.9991372007734E+00
 0.1064707767891E+01
 0.1167748250394E+01
 0.1135244918899E+01
 0.1346195048268E+01
 0.1493385590037E+01
 0.1566558513625E+01
 0.1583905950015E+01
 0.1566341503183E+01
 0.1528767955062E+01
 0.1480878903566E+01
 0.1428153711931E+01
 0.1373019589199E+01
 0.1317028993984E+01
 0.1259918629787E+01
 0.1203886281734E+01
 0.1162824694810E+01
 0.1146891872894E+01
 0.1153787654060E+01
 0.1181138849067E+01
 0.1226932293146E+01
 0.1294757548295E+01
 0.1396165282600E+01
 0.1091105430988E+01
 0.1308823684037E+01
 0.1476424212718E+01
 0.1580381829674E+01
 0.1632282423502E+01
 0.1648017207444E+01
 0.1639974604341E+01
 0.1616991992569E+01
 0.1584765187236E+01
 0.1546491100276E+01
 0.1504563806122E+01
 0.1459733518457E+01
 0.1414198835800E+01
 0.1381237298714E+01
 0.1371618048343E+01
 0.1383607124079E+01
 0.1414978072478E+01
 0.1463300893430E+01
 0.1530739490172E+01
 0.1625902543981E+01
 0.1050299709884E+01
 0.1275670933527E+01
 0.1460665968532E+01
 0.1590912467095E+01
 0.1673416880869E+01
 0.1719990065154E+01
 0.1740643548219E+01
 0.1743117150873E+01
 0.1732922772444E+01
 0.1713623346084E+01
 0.1688137417085E+01
 0.1658018506331E+01
 0.1625417687281E+01
 0.1602683697575E+01
 0.1600699833662E+01
 0.1618210158403E+01
 0.1653155747038E+01
 0.1702782833469E+01
 0.1767700932535E+01
 0.1853023650094E+01
 0.1012065600574E+01
 0.1246077337407E+01
 0.1446458916698E+01
 0.1599459700424E+01
 0.1709062675772E+01
 0.1783888582629E+01
 0.1831847841110E+01
 0.1859525018013E+01
 0.1872015296427E+01
 0.1872956251623E+01
 0.1865523362340E+01
 0.1851852156833E+01
 0.1833971831609E+01
 0.1822995554601E+01
 0.1829423948402E+01
 0.1852430758167E+01
 0.1890274675872E+01
 0.1940168511898E+01
 0.2001255985865E+01
 0.2074503469849E+01
 0.9758136509115E+00
 0.1219376621698E+01
 0.1433808850256E+01
 0.1606788945180E+01
 0.1740426216832E+01
 0.1840933975038E+01
 0.1914454854213E+01
 0.1966474358073E+01
 0.2001559915004E+01
 0.2023229991272E+01
 0.2034710294682E+01
 0.2038512224053E+01
 0.2036470233530E+01
 0.2038193989482E+01
 0.2053317648382E+01
 0.2081386057162E+01
 0.2121214818752E+01
 0.2170510897050E+01
 0.2227448647506E+01
 0.2288114664803E+01
 0.9410904326506E+00
 0.1194924645588E+01
 0.1422494461098E+01
 0.1613261423406E+01
 0.1768271968783E+01
 0.1891980501091E+01
 0.1989103062574E+01
 0.2064149510299E+01
 0.2121133330610E+01
 0.2163338896349E+01
 0.2193895643097E+01
 0.2215515618440E+01
 0.2229798032619E+01
 0.2244664906305E+01
 0.2268446897531E+01
 0.2300867950017E+01
 0.2341429833506E+01
 0.2389130010564E+01
 0.2442423888234E+01
 0.2492236050708E+01
 0.9075425349647E+00
 0.1172110548614E+01
 0.1412149234993E+01
 0.1618950464004E+01
 0.1793022946302E+01
 0.1937573498402E+01
 0.2056211491200E+01
 0.2152633690696E+01
 0.2230334334696E+01
 0.2292303503830E+01
 0.2341481183906E+01
 0.2380634265947E+01
 0.2411145376442E+01
 0.2439220240984E+01
 0.2471566931467E+01
 0.2507819286779E+01
 0.2547655903488E+01
 0.2591785434892E+01
 0.2641929785433E+01
 0.2685377453793E+01
 0.8748814267296E+00
 0.1150343276371E+01
 0.1402335490272E+01
 0.1623744689548E+01
 0.1814861721198E+01
 0.1978019371770E+01
 0.2116008633648E+01
 0.2231904111275E+01
 0.2328762607000E+01
 0.2409267012479E+01
 0.2476083131138E+01
 0.2531908206426E+01
 0.2577989962497E+01
 0.2618993140272E+01
 0.2659945851534E+01
 0.2700205501934E+01
 0.2739087135249E+01
 0.2776668658053E+01
 0.2820221175631E+01
 0.2865153411302E+01
 0.8427837285981E+00
 0.1129112220980E+01
 0.1392592291511E+01
 0.1627457052119E+01
 0.1833852288669E+01
 0.2013457248533E+01
 0.2168564855481E+01
 0.2301845410855E+01
 0.2416000256713E+01
 0.2513466565271E+01
 0.2596626474932E+01
 0.2667707759398E+01
 0.2728063706848E+01
 0.2781346133289E+01
 0.2830889196571E+01
 0.2876007912602E+01
 0.2915553508219E+01
 0.2948308444860E+01
 0.2976980903807E+01
 0.3022310666023E+01
 0.9722856809403E+00
 0.1118723606829E+01
 0.1271758871887E+01
 0.1414948624964E+01
 0.1540612272689E+01
 0.1645356186709E+01
 0.1727954630994E+01
 0.1788429788018E+01
 0.1827459657521E+01
 0.1845983313530E+01
 0.1845197509225E+01
 0.1826394469121E+01
 0.1790601423288E+01
 0.1740503877609E+01
 0.1678527584263E+01
 0.1603975215717E+01
 0.1515864885562E+01
 0.1413372740650E+01
 0.1299831612965E+01
 0.1193175239733E+01
 0.1005569108149E+01
 0.1143011970813E+01
 0.1286655323684E+01
 0.1417678575252E+01
 0.1528298724383E+01
 0.1615863027351E+01
 0.1679963054134E+01
 0.1721366711770E+01
 0.1741424606016E+01
 0.1741646965370E+01
 0.1723800958091E+01
 0.1689883676021E+01
 0.1641232327746E+01
 0.1581214533775E+01
 0.1513352675875E+01
 0.1437007371512E+01
 0.1351524657188E+01
 0.1256723325573E+01
 0.1159176012775E+01
 0.1051953617932E+01
 0.1039790392267E+01
 0.1169507327168E+01
 0.1304489916239E+01
 0.1423267517185E+01
 0.1517988295044E+01
 0.1587090142377E+01
 0.1631375041415E+01
 0.1652646763766E+01
 0.1653085961780E+01
 0.1634873933701E+01
 0.1600354385843E+01
 0.1551833007911E+01
 0.1490947879955E+01
 0.1422075593475E+01
 0.1349677255739E+01
 0.1273201405495E+01
 0.1192022632461E+01
 0.1106113567481E+01
 0.1015735918716E+01
 0.9055587297141E+00
 0.1075185208680E+01
 0.1198936308781E+01
 0.1325940208571E+01
 0.1431969234195E+01
 0.1509513121978E+01
 0.1558601397907E+01
 0.1581655929149E+01
 0.1581789869044E+01
 0.1562154871266E+01
 0.1525622675170E+01
 0.1475020940509E+01
 0.1412809034051E+01
 0.1340909944525E+01
 0.1264708615177E+01
 0.1189347400839E+01
 0.1114022780795E+01
 0.1037562634923E+01
 0.9578753493283E+00
 0.8714213233532E+00
 0.7663244304556E+00
 0.1112153974899E+01
 0.1232008312002E+01
 0.1351550210846E+01
 0.1443839840743E+01
 0.1502420059752E+01
 0.1529610910150E+01
 0.1529912784331E+01
 0.1507998599928E+01
 0.1468075520693E+01
 0.1413659511481E+01
 0.1347948129447E+01
 0.1273404559319E+01
 0.1192163265268E+01
 0.1110470391425E+01
 0.1033722076240E+01
 0.9604812937691E+00
 0.8884844126442E+00
 0.8140495692771E+00
 0.7328153882464E+00
 0.6372733248932E+00
 0.1151214385437E+01
 0.1269504455012E+01
 0.1381724880603E+01
 0.1458625388994E+01
 0.1495854961946E+01
 0.1498912243611E+01
 0.1474872337540E+01
 0.1430173936736E+01
 0.1370086820502E+01
 0.1298649884137E+01
 0.1219255858793E+01
 0.1134188664983E+01
 0.1045667022022E+01
 0.9605647313928E+00
 0.8840945323981E+00
 0.8139200792958E+00
 0.7467666281791E+00
 0.6781185970784E+00
 0.6038389612922E+00
 0.5198473305098E+00
 0.1193030116670E+01
 0.1312264935943E+01
 0.1416675495062E+01
 0.1475658872334E+01
 0.1488457688044E+01
 0.1464814115701E+01
 0.1414870941513E+01
 0.1346955354908E+01
 0.1267295423326E+01
 0.1180226566769E+01
 0.1089084340511E+01
 0.9957454748292E+00
 0.9023561200015E+00
 0.8161688806129E+00
 0.7418360765124E+00
 0.6760425846806E+00
 0.6146980284315E+00
 0.5528876349740E+00
 0.4869574591037E+00
 0.4149514869316E+00
 0.1238445238140E+01
 0.1361170317671E+01
 0.1456320788304E+01
 0.1493730507009E+01
 0.1478253154386E+01
 0.1425087947861E+01
 0.1347869427095E+01
 0.1256790472261E+01
 0.1158771830105E+01
 0.1058084921200E+01
 0.9576698711694E+00
 0.8587313249237E+00
 0.7631873415087E+00
 0.6784416225979E+00
 0.6082962801149E+00
 0.5484602943353E+00
 0.4941777497915E+00
 0.4403464451675E+00
 0.3836974615434E+00
 0.3233283353267E+00
 0.1288527367827E+01
 0.1417101797411E+01
 0.1500144093051E+01
 0.1510918660737E+01
 0.1462531099088E+01
 0.1376934177904E+01
 0.1271507141108E+01
 0.1158049503296E+01
 0.1043685935610E+01
 0.9321052187288E+00
 0.8254343860068E+00
 0.7239277373443E+00
 0.6291505360704E+00
 0.5484719457900E+00
 0.4846392720495E+00
 0.4324346328192E+00
 0.3865392322204E+00
 0.3417463601371E+00
 0.2949727632055E+00
 0.2455953977412E+00
 0.1344620241301E+01
 0.1480869252962E+01
 0.1546985469456E+01
 0.1524368803775E+01
 0.1437716153151E+01
 0.1316984174102E+01
 0.1183218922052E+01
 0.1049204625139E+01
 0.9214897512929E+00
 0.8024974245803E+00
 0.6930757131334E+00
 0.5922794918235E+00
 0.5012598597350E+00
 0.4272230965007E+00
 0.3717502734615E+00
 0.3287913837498E+00
 0.2925429040634E+00
 0.2577207449317E+00
 0.2212300817992E+00
 0.1821989198350E+00
 0.1408407789608E+01
 0.1553084624501E+01
 0.1594735016569E+01
 0.1530003430534E+01
 0.1399241382094E+01
 0.1241372824785E+01
 0.1080452295130E+01
 0.9290958144002E+00
 0.7921476787959E+00
 0.6699537140002E+00
 0.5616403670871E+00
 0.4649087428748E+00
 0.3805323059894E+00
 0.3154968537626E+00
 0.2702065564861E+00
 0.2379230690685E+00
 0.2124318933152E+00
 0.1883817311651E+00
 0.1625094813009E+00
 0.1333435739630E+00
 0.1481990092500E+01
 0.1633939100870E+01
 0.1639870763847E+01
 0.1522144966132E+01
 0.1341462174086E+01
 0.1145947463125E+01
 0.9610386482218E+00
 0.7973002237909E+00
 0.6563976661901E+00
 0.5357774322699E+00
 0.4325520137172E+00
 0.3430918117608E+00
 0.2679529727742E+00
 0.2139151365852E+00
 0.1802892384498E+00
 0.1598356272347E+00
 0.1460070128351E+00
 0.1333980068403E+00
 0.1184726119849E+00
 0.9893971901671E-01
 0.1567966736034E+01
 0.1722804133746E+01
 0.1676747420911E+01
 0.1493044706647E+01
 0.1257700299911E+01
 0.1026729366515E+01
 0.8237841725980E+00
 0.6545978892192E+00
 0.5159911011989E+00
 0.4019337738413E+00
 0.3075615378044E+00
 0.2281869557726E+00
 0.1644276608215E+00
 0.1229188667659E+00
 0.1020265365257E+00
 0.9422060961961E-01
 0.9270949523368E-01
 0.9206731552754E-01
 0.8844044055089E-01
 0.7861008017296E-01
 0.1669508148208E+01
 0.1817496157033E+01
 0.1696480122368E+01
 0.1432356569423E+01
 0.1140621252235E+01
 0.8808147462067E+00
 0.6693297728144E+00
 0.5034556972282E+00
 0.3738022171457E+00
 0.2709474362216E+00
 0.1885932470484E+00
 0.1215195691624E+00
 0.7075625245695E-01
 0.4286010711133E-01
 0.3533947976985E-01
 0.4056392280917E-01
 0.5170807593615E-01
 0.6340048967273E-01
 0.7146774606480E-01
 0.7176537864271E-01
 0.1790353462424E+01
 0.1912864220487E+01
 0.1685167409256E+01
 0.1326751816710E+01
 0.9833772117234E+00
 0.7079782396568E+00
 0.5012044986754E+00
 0.3483104150473E+00
 0.2336318869181E+00
 0.1455928825073E+00
 0.7750827688792E-01
 0.2441741270188E-01
 0.1358691417202E-01
 0.2718890195022E-01
 0.2116981831615E-01
 0.3711489499407E-02
 0.2199141383155E-01
 0.4623585237838E-01
 0.6641037381249E-01
 0.7758695058648E-01
 0.1934526823290E+01
 0.1997923390477E+01
 0.1621068702144E+01
 0.1160333734790E+01
 0.7824305804139E+00
 0.5131143674938E+00
 0.3266587354839E+00
 0.1951785594029E+00
 0.9958261241576E-01
 0.2844767989278E-01
 0.2450075387838E-01
 0.6322614183179E-01
 0.8561252124009E-01
 0.8539245918374E-01
 0.6585316900042E-01
 0.3415621203740E-01
 0.2633856241277E-02
 0.3933545409954E-01
 0.7185531124964E-01
 0.9486866164696E-01
 0.2105207030466E+01
 0.2049517168171E+01
 0.1470336478094E+01
 0.9181304704727E+00
 0.5434040571385E+00
 0.3090592291529E+00
 0.1557584160267E+00
 0.5031137265247E-01
 0.2483096304949E-01
 0.7880274998614E-01
 0.1159137921163E+00
 0.1398107143638E+00
 0.1473796193801E+00
 0.1330015471838E+00
 0.1002718903199E+00
 0.5609711280549E-01
 0.8305881982640E-02
 0.4126634705155E-01
 0.8601595551276E-01
 0.1220569859718E+00
 0.2299583530864E+01
 0.2016734017237E+01
 0.1182562342559E+01
 0.5987303900247E+00
 0.2923689744235E+00
 0.1138299134191E+00
 0.3375718591918E-02
 0.8150821682468E-01
 0.1373760885923E+00
 0.1751270465209E+00
 0.1970706960794E+00
 0.2059057999748E+00
 0.1982270268033E+00
 0.1696684312816E+00
 0.1241121711868E+00
 0.6833332858839E-01
 0.1124439274288E-01
 0.5028660294405E-01
 0.1067530987020E+00
 0.1573751400521E+00
 0.2493625920892E+01
 0.1772718335719E+01
 0.6991048481018E+00
 0.2659803300274E+00
 0.6434159142856E-01
 0.5864847783140E-01
 0.1403083568534E+00
 0.1977399116399E+00
 0.2372516061512E+00
 0.2608630739995E+00
 0.2685613735056E+00
 0.2620136462212E+00
 0.2379842234566E+00
 0.1947688251163E+00
 0.1367424302231E+00
 0.7066257792432E-01
 0.9760839067459E-02
 0.6472097441615E-01
 0.1313943360632E+00
 0.1987036515008E+00
 0.2419127459206E+01
 0.9354581154015E+00
 0.1923971882330E+00
 0.9442688551166E-02
 0.1238612232157E+00
 0.2010325141344E+00
 0.2573218336005E+00
 0.2981513923254E+00
 0.3246505308556E+00
 0.3367845600781E+00
 0.3328607334677E+00
 0.3096384922709E+00
 0.2655393421176E+00
 0.2063775824685E+00
 0.1369739273769E+00
 0.6270723451880E-01
 0.1694218291371E-01
 0.8448204008618E-01
 0.1562287521955E+00
 0.2421452812988E+00
 0.3122658737676E+01
 0.2974156139367E+01
 0.2814934026947E+01
 0.2645688102974E+01
 0.2464119821968E+01
 0.2270437827755E+01
 0.2065621454568E+01
 0.1851240767809E+01
 0.1629406188268E+01
 0.1402861809116E+01
 0.1175140962757E+01
 0.9507723387225E+00
 0.7355268162227E+00
 0.5366865354970E+00
 0.3632830539234E+00
 0.2261728497897E+00
 0.1376816237041E+00
 0.1105501695971E+00
 0.1538004091245E+00
 0.2692332897176E+00
 0.3304162740976E+01
 0.3189851342310E+01
 0.3048109436197E+01
 0.2890208207399E+01
 0.2719089482976E+01
 0.2535063195115E+01
 0.2338368358631E+01
 0.2129551008300E+01
 0.1909661097590E+01
 0.1680387662160E+01
 0.1444236907579E+01
 0.1204778400931E+01
 0.9669810274507E+00
 0.7376574102546E+00
 0.5260303994548E+00
 0.3444096897485E+00
 0.2089052987384E+00
 0.1400668280385E+00
 0.1627046580975E+00
 0.2946415820970E+00
 0.3482321556371E+01
 0.3386136433269E+01
 0.3268931909513E+01
 0.3131669680871E+01
 0.2978152921848E+01
 0.2809936094570E+01
 0.2627546219189E+01
 0.2431278169268E+01
 0.2221569121375E+01
 0.1999239955353E+01
 0.1765700043592E+01
 0.1523186308374E+01
 0.1275086672559E+01
 0.1026404623897E+01
 0.7844455105755E+00
 0.5598568276494E+00
 0.3682450440364E+00
 0.2328389587731E+00
 0.1891202398185E+00
 0.2861243260150E+00
 0.3656485006471E+01
 0.3576275558169E+01
 0.3479370213513E+01
 0.3364359187187E+01
 0.3232262083640E+01
 0.3084403022030E+01
 0.2921464208374E+01
 0.2743752700561E+01
 0.2551491131399E+01
 0.2345039210213E+01
 0.2125078288313E+01
 0.1892799063673E+01
 0.1650139137652E+01
 0.1400129700617E+01
 0.1147446652940E+01
 0.8993403826150E+00
 0.6673031436312E+00
 0.4702601641810E+00
 0.3414626009560E+00
 0.3481836496448E+00
 0.3822198667131E+01
 0.3757807418409E+01
 0.3679572231398E+01
 0.3585515855430E+01
 0.3475399320397E+01
 0.3349661273660E+01
 0.3208767874519E+01
 0.3053002818945E+01
 0.2882558177969E+01
 0.2697671441706E+01
 0.2498761040304E+01
 0.2286562397228E+01
 0.2062285544187E+01
 0.1827830331887E+01
 0.1586119086737E+01
 0.1341657589024E+01
 0.1101542269923E+01
 0.8774256511608E+00
 0.6897970069802E+00
 0.5804993911679E+00
 0.3976407507143E+01
 0.3927654618046E+01
 0.3866832386257E+01
 0.3792158064130E+01
 0.3702807753611E+01
 0.3598615649998E+01
 0.3479656732523E+01
 0.3346036003624E+01
 0.3197841720496E+01
 0.3035192664635E+01
 0.2858310289154E+01
 0.2667593365709E+01
 0.2463690468356E+01
 0.2247572506654E+01
 0.2020608072813E+01
 0.1784635556233E+01
 0.1541997942054E+01
 0.1295379132096E+01
 0.1046895825490E+01
 0.7909935885997E+00
 0.4116703152776E+01
 0.4082972362802E+01
 0.4038309928093E+01
 0.3981214792960E+01
 0.3910653375721E+01
 0.3826040650756E+01
 0.3727051741848E+01
 0.3613458103894E+01
 0.3485047191585E+01
 0.3341598841760E+01
 0.3182884343158E+01
 0.3008657400507E+01
 0.2818613671830E+01
 0.2612291432065E+01
 0.2388866654059E+01
 0.2146748889802E+01
 0.1882769180494E+01
 0.1590473681122E+01
 0.1256085319806E+01
 0.8489862033875E+00
 0.4241274177778E+01
 0.4221542581663E+01
 0.4191623174490E+01
 0.4150209819305E+01
 0.4096162374239E+01
 0.4028586143944E+01
 0.3946759539071E+01
 0.3850029688997E+01
 0.3737726470413E+01
 0.3609099354133E+01
 0.3463257559634E+01
 0.3299088515235E+01
 0.3115125274836E+01
 0.2909324401798E+01
 0.2678694295881E+01
 0.2418670610229E+01
 0.2122056455516E+01
 0.1777207792438E+01
 0.1365144905647E+01
 0.8579041572859E+00
 0.4348701549603E+01
 0.4341595443488E+01
 0.4324825919527E+01
 0.4297140149275E+01
 0.4257284624126E+01
 0.4204087173236E+01
 0.4136434508584E+01
 0.4053203700112E+01
 0.3953182977879E+01
 0.3834990082744E+01
 0.3696979555905E+01
 0.3537120822416E+01
 0.3352823114070E+01
 0.3140676199208E+01
 0.2896065689622E+01
 0.2612610293700E+01
 0.2281372013507E+01
 0.1889890575289E+01
 0.1421744055976E+01
 0.8600268491159E+00
 0.4437846983115E+01
 0.4441689528209E+01
 0.4436281619077E+01
 0.4420298696509E+01
 0.4392333974576E+01
 0.4350943343018E+01
 0.4294633626444E+01
 0.4221812345972E+01
 0.4130717425530E+01
 0.4019333809679E+01
 0.3885293457889E+01
 0.3725748637350E+01
 0.3537204860252E+01
 0.3315298923760E+01
 0.3054511306606E+01
 0.2747819768820E+01
 0.2386359621890E+01
 0.1959349620160E+01
 0.1455088166660E+01
 0.8670163705118E+00
 0.4507869400951E+01
 0.4520825264488E+01
 0.4524862726103E+01
 0.4518522360117E+01
 0.4500215433267E+01
 0.4468232862321E+01
 0.4420728588319E+01
 0.4355677490297E+01
 0.4270815244057E+01
 0.4163564538671E+01
 0.4030947440800E+01
 0.3869480717574E+01
 0.3675050882939E+01
 0.3442769933539E+01
 0.3166824792224E+01
 0.2840361897969E+01
 0.2455514919372E+01
 0.2003833965712E+01
 0.1477887469491E+01
 0.8786811760895E+00
 0.4558171449155E+01
 0.4578346741370E+01
 0.4589864604570E+01
 0.4591121701495E+01
 0.4580346788238E+01
 0.4555588590139E+01
 0.4514692667029E+01
 0.4455264101021E+01
 0.4374618519145E+01
 0.4269724552019E+01
 0.4137139774523E+01
 0.3972941989503E+01
 0.3772659906969E+01
 0.3531213473281E+01
 0.3242887022281E+01
 0.2901383574992E+01
 0.2500057402835E+01
 0.2032546130185E+01
 0.1494574305949E+01
 0.8922111356731E+00
 0.4588375166726E+01
 0.4613864146163E+01
 0.4630902962062E+01
 0.4637765759001E+01
 0.4632524664402E+01
 0.4613027710497E+01
 0.4576872440119E+01
 0.4521373211367E+01
 0.4443523785478E+01
 0.4339958197091E+01
 0.4206913535120E+01
 0.4040199411497E+01
 0.3835181658035E+01
 0.3586793246692E+01
 0.3289595156467E+01
 0.2937927063838E+01
 0.2526224578567E+01
 0.2049700860688E+01
 0.1506207467407E+01
 0.9050926199538E+00
 0.4598305735375E+01
 0.4627211044674E+01
 0.4647841863316E+01
 0.4658387384727E+01
 0.4656807225141E+01
 0.4640805431300E+01
 0.4607803602357E+01
 0.4554912999244E+01
 0.4478907688043E+01
 0.4376202194012E+01
 0.4242838254110E+01
 0.4074486644283E+01
 0.3866472251363E+01
 0.3613834116407E+01
 0.3311438082589E+01
 0.2954171388870E+01
 0.2537281491307E+01
 0.2057051391040E+01
 0.1512681799424E+01
 0.9155729708631E+00
 0.4587977023130E+01
 0.4618418227732E+01
 0.4640748674919E+01
 0.4653118889175E+01
 0.4653431093915E+01
 0.4639311918137E+01
 0.4608086176723E+01
 0.4556752928906E+01
 0.4481966510306E+01
 0.4380026479881E+01
 0.4246881523104E+01
 0.4078153480277E+01
 0.3869188990415E+01
 0.3615148044785E+01
 0.3311142114068E+01
 0.2952443892950E+01
 0.2534824295853E+01
 0.2055212427820E+01
 0.1513592406718E+01
 0.9225350736228E+00
 0.4557580389824E+01
 0.4587697597056E+01
 0.4609868187509E+01
 0.4622254606635E+01
 0.4622762345494E+01
 0.4609012222534E+01
 0.4578314612973E+01
 0.4527647518421E+01
 0.4453641523600E+01
 0.4352575787049E+01
 0.4220390213226E+01
 0.4052719839963E+01
 0.3844958234343E+01
 0.3592357550715E+01
 0.3290175182815E+01
 0.2933885864043E+01
 0.2519513424293E+01
 0.2044282941315E+01
 0.1508529048013E+01
 0.9253028814670E+00
 0.4507478114626E+01
 0.4535433856266E+01
 0.4555610626267E+01
 0.4566234166002E+01
 0.4565275198804E+01
 0.4550421427259E+01
 0.4519051362107E+01
 0.4468211949273E+01
 0.4394602963030E+01
 0.4294572160276E+01
 0.4164126209861E+01
 0.3998963346664E+01
 0.3794534503561E+01
 0.3546140559253E+01
 0.3249075668166E+01
 0.2898835809366E+01
 0.2491447857367E+01
 0.2024122927085E+01
 0.1497170414872E+01
 0.9235149197149E+00
 0.4438202773984E+01
 0.4462185527383E+01
 0.4478553920795E+01
 0.4485646009096E+01
 0.4481557370394E+01
 0.4464112933774E+01
 0.4430839639983E+01
 0.4378941458983E+01
 0.4305279139430E+01
 0.4206358118662E+01
 0.4078329184813E+01
 0.3917007774922E+01
 0.3717919261034E+01
 0.3476379438535E+01
 0.3187622831417E+01
 0.2847001224659E+01
 0.2450310181616E+01
 0.1994445527238E+01
 0.1479306651846E+01
 0.9170701208190E+00
 0.4350462176853E+01
 0.4368694236133E+01
 0.4379458246272E+01
 0.4381248275444E+01
 0.4372338577681E+01
 0.4350755770408E+01
 0.4314250425082E+01
 0.4260268375095E+01
 0.4185923079438E+01
 0.4087971450896E+01
 0.3962796814988E+01
 0.3806404414626E+01
 0.3614437379045E+01
 0.3382224720634E+01
 0.3104878642366E+01
 0.2777469915551E+01
 0.2395343952191E+01
 0.1954773364082E+01
 0.1454813237951E+01
 0.9061466953966E+00
 0.4245150266478E+01
 0.4255902590332E+01
 0.4259292855421E+01
 0.4254007150707E+01
 0.4238542519142E+01
 0.4211181760027E+01
 0.4169965432390E+01
 0.4112659953147E+01
 0.4036721988832E+01
 0.3939260029682E+01
 0.3816995124752E+01
 0.3666224669060E+01
 0.3482796492039E+01
 0.3262106171650E+01
 0.2999139808543E+01
 0.2688600323507E+01
 0.2325189915012E+01
 0.1904241112829E+01
 0.1423484303330E+01
 0.8912053389431E+00
 0.4123358418013E+01
 0.4124972072942E+01
 0.4119265515313E+01
 0.4105140828103E+01
 0.4081347501147E+01
 0.4046464244672E+01
 0.3998873918508E+01
 0.3936730802097E+01
 0.3857919151611E+01
 0.3760002040777E+01
 0.3640159895139E+01
 0.3495119490634E+01
 0.3321077414077E+01
 0.3113628654481E+01
 0.2867723777128E+01
 0.2577701464460E+01
 0.2237486725075E+01
 0.1841156871641E+01
 0.1384593643784E+01
 0.8727697446489E+00
 0.3986376907609E+01
 0.3977290995771E+01
 0.3960842029868E+01
 0.3936152416266E+01
 0.3902234919993E+01
 0.3857983683291E+01
 0.3802155394610E+01
 0.3733339760307E+01
 0.3649917237694E+01
 0.3550001039646E+01
 0.3431359690207E+01
 0.3291316274686E+01
 0.3126621923977E+01
 0.2933306013353E+01
 0.2706518165557E+01
 0.2440406103354E+01
 0.2128135456064E+01
 0.1762289677549E+01
 0.1336330828088E+01
 0.8509962842092E+00
 0.3835714994817E+01
 0.3814514064432E+01
 0.3785805273784E+01
 0.3748915601709E+01
 0.3703110175421E+01
 0.3647593641549E+01
 0.3581500722873E+01
 0.3503874854143E+01
 0.3413632256537E+01
 0.3309506995069E+01
 0.3189970467371E+01
 0.3053116458060E+01
 0.2896500793346E+01
 0.2716924129545E+01
 0.2510151601349E+01
 0.2270584469336E+01
 0.1990966912162E+01
 0.1662396804926E+01
 0.1275377959968E+01
 0.8251067863661E+00
 0.3673108232789E+01
 0.3638586584845E+01
 0.3596302579937E+01
 0.3545755395075E+01
 0.3486430686053E+01
 0.3417813080693E+01
 0.3339388407867E+01
 0.3250634986316E+01
 0.3151001573951E+01
 0.3039867271020E+01
 0.2916475529460E+01
 0.2779830080499E+01
 0.2628534555327E+01
 0.2460549481165E+01
 0.2272830817873E+01
 0.2060809569619E+01
 0.1817694812050E+01
 0.1533746010119E+01
 0.1196302396443E+01
 0.7934308575039E+00
 0.3500516420187E+01
 0.3451753700957E+01
 0.3394873988177E+01
 0.3329504345054E+01
 0.3255302591896E+01
 0.3171980306693E+01
 0.3079317200940E+01
 0.2977167341482E+01
 0.2865456230012E+01
 0.2744165529711E+01
 0.2613298902778E+01
 0.2472817322659E+01
 0.2322524042122E+01
 0.2161865691171E+01
 0.1989592635585E+01
 0.1803181557208E+01
 0.1597864061705E+01
 0.1365036197892E+01
 0.1090193832028E+01
 0.7531553344762E+00
 0.3320110770070E+01
 0.3256554269391E+01
 0.3184458805101E+01
 0.3103530678308E+01
 0.3013543483894E+01
 0.2914369247616E+01
 0.2806002747022E+01
 0.2688581121041E+01
 0.2562400264101E+01
 0.2427928007926E+01
 0.2285811658631E+01
 0.2136873586560E+01
 0.1982081897184E+01
 0.1822470698258E+01
 0.1658959220196E+01
 0.1491965727880E+01
 0.1320589347905E+01
 0.1140858354895E+01
 0.9417346069546E+00
 0.6980998254034E+00
 0.3134244416082E+01
 0.3055790634795E+01
 0.2968368811308E+01
 0.2871722213518E+01
 0.2765689094880E+01
 0.2650238557547E+01
 0.2525500034111E+01
 0.2391790367504E+01
 0.2249643146261E+01
 0.2099844457463E+01
 0.1943478295660E+01
 0.1781983804474E+01
 0.1617224947245E+01
 0.1451569653616E+01
 0.1287966182875E+01
 0.1129978593606E+01
 0.9816693171059E+00
 0.8469752351129E+00
 0.7273575122813E+00
 0.6109235915050E+00
 0.2945401425547E+01
 0.2852466070030E+01
 0.2750214576079E+01
 0.2638403608134E+01
 0.2516907529275E+01
 0.2385756642558E+01
 0.2245166238604E+01
 0.2095562807646E+01
 0.1937615725829E+01
 0.1772282581427E+01
 0.1600876395748E+01
 0.1425164741988E+01
 0.1247515201984E+01
 0.1071110048626E+01
 0.9002680108503E+00
 0.7409378696822E+00
 0.6014834807526E+00
 0.4940087681063E+00
 0.4369643356093E+00
 0.4594904271302E+00
 0.2756118251517E+01
 0.2649679274193E+01
 0.2533765731431E+01
 0.2408152817642E+01
 0.2272762124666E+01
 0.2127704278825E+01
 0.1973304436693E+01
 0.1810122109039E+01
 0.1638978736839E+01
 0.1461004809688E+01
 0.1277717859266E+01
 0.1091145862762E+01
 0.9040192724501E+00
 0.7200722070528E+00
 0.5445257087175E+00
 0.3848837244680E+00
 0.2522493937274E+00
 0.1634515151046E+00
 0.1468516979621E+00
 0.2691965400239E+00
 0.2568872879023E+01
 0.2450464832210E+01
 0.2322721390189E+01
 0.2185467422673E+01
 0.2038726212949E+01
 0.1882772862926E+01
 0.1718155399308E+01
 0.1545707897465E+01
 0.1366577651879E+01
 0.1182281783716E+01
 0.9948060309986E+00
 0.8067620761326E+00
 0.6216317390163E+00
 0.4441545630708E+00
 0.2809958611249E+00
 0.1422136422999E+00
 0.4799095352521E-01
 0.3490689378713E-01
 0.1844808823251E-01
 0.1936962652727E+00
 0.2385949608925E+01
 0.2257588870504E+01
 0.2120396278316E+01
 0.1974276283938E+01
 0.1819425894481E+01
 0.1656397383211E+01
 0.1486103638957E+01
 0.1309817682271E+01
 0.1129198636137E+01
 0.9463601036653E+00
 0.7639905703659E+00
 0.5855390486605E+00
 0.4154962991393E+00
 0.2598668356889E+00
 0.1273660725342E+00
 0.3954782780495E-01
 0.5177952827667E-01
 0.4426466788613E-01
 0.4567336758668E-01
 0.2386017026262E+00
 0.2209313780738E+01
 0.2073366802800E+01
 0.1929441928296E+01
 0.1777517955104E+01
 0.1618029316070E+01
 0.1451902429875E+01
 0.1280511816986E+01
 0.1105644828654E+01
 0.9295125249120E+00
 0.7548144476416E+00
 0.5848554508406E+00
 0.4237177493069E+00
 0.2765193262645E+00
 0.1499523875480E+00
 0.5523649055597E-01
 0.3498369268029E-01
 0.4436981533507E-01
 0.7455230497466E-02
 0.1055540166184E+00
 0.2781314613470E+00
 0.2040540823008E+01
 0.1899572679152E+01
 0.1751697715454E+01
 0.1596941804591E+01
 0.1436045288660E+01
 0.1270388303005E+01
 0.1101846049869E+01
 0.9326958178889E+00
 0.7656029528166E+00
 0.6036709142621E+00
 0.4505335654223E+00
 0.3104793709227E+00
 0.1886373863111E+00
 0.9151394817167E-01
 0.3124726467571E-01
 0.2643128938457E-01
 0.1361106637774E-01
 0.5060325063893E-01
 0.1572734226349E+00
 0.3056429640160E+00
 0.1880824830158E+01
 0.1737416885545E+01
 0.1588119893204E+01
 0.1433035106442E+01
 0.1273329145803E+01
 0.1110919837125E+01
 0.9481750094029E+00
 0.7877587721076E+00
 0.6326053264165E+00
 0.4859605217488E+00
 0.3514452742112E+00
 0.2331171981989E+00
 0.1355438130506E+00
 0.6403907234903E-01
 0.2523937739295E-01
 0.1459770719799E-01
 0.3198081158120E-01
 0.9634962298199E-01
 0.1968066492682E+00
 0.3262668606172E+00
 0.1731020717114E+01
 0.1587559207062E+01
 0.1438856404174E+01
 0.1285266876277E+01
 0.1128617506724E+01
 0.9714592402021E+00
 0.8165874777623E+00
 0.6668794517435E+00
 0.5253009509833E+00
 0.3949634545368E+00
 0.2791645033047E+00
 0.1813851519760E+00
 0.1052221875502E+00
 0.5410777331053E-01
 0.2974183514658E-01
 0.3213448620582E-01
 0.6701133426781E-01
 0.1328634383304E+00
 0.2253869683839E+00
 0.3398997577498E+00
 0.1591830581042E+01
 0.1450367796201E+01
 0.1303590746657E+01
 0.1152625260292E+01
 0.1000334708342E+01
 0.8499364923306E+00
 0.7044688241114E+00
 0.5667553617752E+00
 0.4395269043147E+00
 0.3255104567418E+00
 0.2274494338818E+00
 0.1480433491546E+00
 0.8976708430494E-01
 0.5442620220527E-01
 0.4282224466831E-01
 0.5661044078265E-01
 0.9648695364032E-01
 0.1601199015486E+00
 0.2443659397729E+00
 0.3458306205749E+00
 0.1463847385020E+01
 0.1325730668549E+01
 0.1181263348040E+01
 0.1033465472517E+01
 0.8866123639841E+00
 0.7443612601577E+00
 0.6095685728952E+00
 0.4846699986773E+00
 0.3719237002701E+00
 0.2735070712600E+00
 0.1915028754754E+00
 0.1277943850682E+00
 0.8386455238166E-01
 0.6058521615560E-01
 0.5856536467851E-01
 0.7836973609291E-01
 0.1190934498202E+00
 0.1786648652207E+00
 0.2546414743145E+00
 0.3443808714887E+00
 0.1347410163462E+01
 0.1212379969986E+01
 0.1069485733886E+01
 0.9254247976989E+00
 0.7856601671648E+00
 0.6532625009795E+00
 0.5303458622114E+00
 0.4187060423535E+00
 0.3200339099230E+00
 0.2359405641469E+00
 0.1678850227490E+00
 0.1170474607380E+00
 0.8419003619694E-01
 0.6966277332798E-01
 0.7362113422434E-01
 0.9570247125408E-01
 0.1346215963487E+00
 0.1886810108301E+00
 0.2561535420305E+00
 0.3351115035827E+00
 0.1241867949364E+01
 0.1106075843510E+01
 0.9641257193769E+00
 0.8268389423630E+00
 0.6972699903899E+00
 0.5767820556025E+00
 0.4666142005607E+00
 0.3680486792388E+00
 0.2823750209280E+00
 0.2107852656234E+00
 0.1542589782628E+00
 0.1134548295084E+00
 0.8865312035468E-01
 0.7981586307515E-01
 0.8661187878591E-01
 0.1081837990712E+00
 0.1431689434787E+00
 0.1900881475821E+00
 0.2479005606614E+00
 0.3162896504429E+00
 0.1140176379540E+01
 0.9956764101598E+00
 0.8640487023095E+00
 0.7408771475130E+00
 0.6250253828907E+00
 0.5174511109302E+00
 0.4195279499557E+00
 0.3326419978669E+00
 0.2580028720177E+00
 0.1965567234473E+00
 0.1489279513120E+00
 0.1153847968313E+00
 0.9584961615822E-01
 0.8994628676573E-01
 0.9697063569743E-01
 0.1157978464869E+00
 0.1449680104199E+00
 0.1829377949976E+00
 0.2283203562800E+00
 0.2821753225671E+00
</DataArray>
<CellData Tensors="'E_Centroid','S_Centroid'">
<DataArray type="Float64" Name="E_Centroid" NumberOfComponents="4" ComponentName0="E11" ComponentName1="E22" ComponentName2="E33" ComponentName3="E12" format="ascii">
 0.1700166529604E-03 -0.1403117964515E-02  0.0000000000000E+00 -0.6038180910390E-03
 0.2886451337023E-03 -0.1072273189207E-02  0.0000000000000E+00 -0.2833999987467E-04
 0.2460285161825E-03 -0.1003014483946E-02  0.0000000000000E+00  0.4883367290086E-05
 0.2596347082439E-03 -0.1035961110745E-02  0.0000000000000E+00  0.3534642724647E-04
 0.2781843761966E-03 -0.1113596713890E-02  0.0000000000000E+00  0.5093785363694E-04
 0.3052060566606E-03 -0.1220494437943E-02  0.0000000000000E+00  0.6177610960316E-04
 0.3370484789234E-03 -0.1347990747799E-02  0.0000000000000E+00  0.7000890351604E-04
 0.3730496205728E-03 -0.1491936038258E-02  0.0000000000000E+00  0.7695226788406E-04
 0.4125888343909E-03 -0.1650148126394E-02  0.0000000000000E+00  0.8328283287489E-04
 0.4554541594310E-03 -0.1821684384144E-02  0.0000000000000E+00  0.8944832916789E-04
 0.5016126165606E-03 -0.2006427714571E-02  0.0000000000000E+00  0.9577819703070E-04
 0.5511992678839E-03 -0.2204913178674E-02  0.0000000000000E+00  0.1025560714854E-03
 0.6044951989546E-03 -0.2418269801247E-02  0.0000000000000E+00  0.1100624442754E-03
 0.6619342474005E-03 -0.2648245737790E-02  0.0000000000000E+00  0.1186142129422E-03
 0.7241315690107E-03 -0.2897307554016E-02  0.0000000000000E+00  0.1286011837254E-03
 0.7919416401409E-03 -0.3168905377812E-02  0.0000000000000E+00  0.1405867329408E-03
 0.8665760867463E-03 -0.3467952249715E-02  0.0000000000000E+00  0.1554753936061E-03
 0.9499165983909E-03 -0.3801995701243E-02  0.0000000000000E+00  0.1749654160128E-03
 0.1044462830031E-02 -0.4184481461242E-02  0.0000000000000E+00  0.2053214696801E-03
 0.1152428910593E-02 -0.4636612646897E-02  0.0000000000000E+00  0.2725107110219E-03
 0.1272993084986E-02 -0.5159998438710E-02  0.0000000000000E+00  0.4207927634092E-03
 0.1399558557393E-02 -0.5723741955561E-02  0.0000000000000E+00  0.6788466678625E-03
 0.1522967908342E-02 -0.6295088337640E-02  0.0000000000000E+00  0.1043207925463E-02
 0.1636559794233E-02 -0.6856309062552E-02  0.0000000000000E+00  0.1494626012672E-02
 0.1737060366442E-02 -0.7402362444626E-02  0.0000000000000E+00  0.2014833168227E-02
 0.1823057756990E-02 -0.7934262372489E-02  0.0000000000000E+00  0.2593051969053E-02
 0.1893353971421E-02 -0.8453979181393E-02  0.0000000000000E+00  0.3226123206996E-02
 0.1945810712484E-02 -0.8961614850681E-02  0.0000000000000E+00  0.3916515939606E-02
 0.1976606357848E-02 -0.9453249611250E-02  0.0000000000000E+00  0.4669751535267E-02
 0.1981261282287E-02 -0.9917623019172E-02  0.0000000000000E+00  0.5485531726711E-02
 0.1958888759272E-02 -0.1034301057218E-01  0.0000000000000E+00  0.6347166040822E-02
 0.1912527307941E-02 -0.1073886807003E-01  0.0000000000000E+00  0.7241107869228E-02
 0.1843473716350E-02 -0.1112800294415E-01  0.0000000000000E+00  0.8180888623681E-02
 0.1748281911301E-02 -0.1152930462495E-01  0.0000000000000E+00  0.9200397540180E-02
 0.1620480118656E-02 -0.1196473528053E-01  0.0000000000000E+00  0.1035337884726E-01
 0.1438073598393E-02 -0.1246445209661E-01  0.0000000000000E+00  0.1172384049356E-01
 0.1196771834116E-02 -0.1308165884804E-01  0.0000000000000E+00  0.1347652224303E-01
 0.6848597526685E-03 -0.1385867252892E-01  0.0000000000000E+00  0.1586418654707E-01
 0.3954625692831E-03 -0.1506711061973E-01  0.0000000000000E+00  0.1969221036009E-01
-0.4643273123930E-02 -0.1533262192573E-01  0.0000000000000E+00  0.2679041090587E-01
 0.1366320125064E-01 -0.1786299167163E-01  0.0000000000000E+00  0.3045792208461E-01
 0.1252864449004E-03 -0.1367239588068E-02  0.0000000000000E+00 -0.6845826443122E-03
 0.2787019743223E-03 -0.1312250233719E-02  0.0000000000000E+00 -0.2423603360654E-03
 0.3029599021047E-03 -0.1242745724564E-02  0.0000000000000E+00  0.5256535049643E-05
 0.3078588326390E-03 -0.1261016541124E-02  0.0000000000000E+00  0.8486750402598E-04
 0.3278841849741E-03 -0.1326566929156E-02  0.0000000000000E+00  0.1378159229548E-03
 0.3526914827249E-03 -0.1422194947383E-02  0.0000000000000E+00  0.1726217767308E-03
 0.3827652594692E-03 -0.1539933420049E-02  0.0000000000000E+00  0.1992982682677E-03
 0.4168720881995E-03 -0.1675258244324E-02  0.0000000000000E+00  0.2215311966414E-03
 0.4546150228080E-03 -0.1825779406410E-02  0.0000000000000E+00  0.2416056021071E-03
 0.4957437474440E-03 -0.1990349782945E-02  0.0000000000000E+00  0.2609437121012E-03
 0.5402171429992E-03 -0.2168689958608E-02  0.0000000000000E+00  0.2806020545184E-03
 0.5881412640808E-03 -0.2361198119179E-02  0.0000000000000E+00  0.3014752784226E-03
 0.6397628497579E-03 -0.2568881857813E-02  0.0000000000000E+00  0.3244374073368E-03
 0.6954713063696E-03 -0.2793373124169E-02  0.0000000000000E+00  0.3504566642486E-03
 0.7558165919607E-03 -0.3037020077227E-02  0.0000000000000E+00  0.3807429862464E-03
 0.8215418589979E-03 -0.3303111794867E-02  0.0000000000000E+00  0.4170078597347E-03
 0.8936524979397E-03 -0.3596309564447E-02  0.0000000000000E+00  0.4619743271821E-03
 0.9733379623272E-03 -0.3923498515756E-02  0.0000000000000E+00  0.5211019335968E-03
 0.1060090278177E-02 -0.4294128914572E-02  0.0000000000000E+00  0.6073802944807E-03
 0.1150792134269E-02 -0.4715693256085E-02  0.0000000000000E+00  0.7419363319358E-03
 0.1242896728628E-02 -0.5183682647538E-02  0.0000000000000E+00  0.9452000786093E-03
 0.1334977924436E-02 -0.5679947304820E-02  0.0000000000000E+00  0.1228809308233E-02
 0.1424131310936E-02 -0.6183947443012E-02  0.0000000000000E+00  0.1592787177480E-02
 0.1506243904923E-02 -0.6681747859849E-02  0.0000000000000E+00  0.2028420181646E-02
 0.1577621940810E-02 -0.7166720774643E-02  0.0000000000000E+00  0.2525035056228E-02
 0.1635334840763E-02 -0.7636438799854E-02  0.0000000000000E+00  0.3074487857112E-02
 0.1676715755445E-02 -0.8089480788813E-02  0.0000000000000E+00  0.3672316822400E-02
 0.1698686929769E-02 -0.8523127564762E-02  0.0000000000000E+00  0.4316787538440E-02
 0.1698085028219E-02 -0.8931948775526E-02  0.0000000000000E+00  0.5005723307269E-02
 0.1673883923347E-02 -0.9308557802209E-02  0.0000000000000E+00  0.5733119757075E-02
 0.1626623407996E-02 -0.9647688494132E-02  0.0000000000000E+00  0.6492507726702E-02
 0.1554100163939E-02 -0.9949719865051E-02  0.0000000000000E+00  0.7282959426867E-02
 0.1450470053689E-02 -0.1021908401413E-01  0.0000000000000E+00  0.8111646788721E-02
 0.1307095136018E-02 -0.1045891446363E-01  0.0000000000000E+00  0.8996815966134E-02
 0.1107226622162E-02 -0.1066628780782E-01  0.0000000000000E+00  0.9969078424375E-02
 0.8278666968520E-03 -0.1082882085413E-01  0.0000000000000E+00  0.1107062740254E-01
 0.3921833317721E-03 -0.1090277730237E-01  0.0000000000000E+00  0.1235654475200E-01
-0.1907465269446E-03 -0.1080661221593E-01  0.0000000000000E+00  0.1381238135634E-01
-0.1607528527591E-02 -0.1008546238192E-01  0.0000000000000E+00  0.1555464595833E-01
-0.2096204046098E-02 -0.8045597747241E-02  0.0000000000000E+00  0.1230269609497E-01
 0.1602228837338E-01 -0.1103650897859E-01  0.0000000000000E+00  0.9235277655250E-02
 0.1019988917409E-03 -0.1436333451943E-02  0.0000000000000E+00 -0.6664717574808E-03
 0.2609771668846E-03 -0.1468596104507E-02  0.0000000000000E+00 -0.3158990363000E-03
 0.3289876560199E-03 -0.1455127615566E-02  0.0000000000000E+00 -0.2071320552249E-04
 0.3487866566400E-03 -0.1470472797585E-02  0.0000000000000E+00  0.1280671775832E-03
 0.3699484837070E-03 -0.1528884892726E-02  0.0000000000000E+00  0.2137644597063E-03
 0.3952829299272E-03 -0.1616078471962E-02  0.0000000000000E+00  0.2741236103333E-03
 0.4243603488790E-03 -0.1725491975013E-02  0.0000000000000E+00  0.3200053654520E-03
 0.4571458125844E-03 -0.1852976191764E-02  0.0000000000000E+00  0.3583647402799E-03
 0.4933228118672E-03 -0.1996155755603E-02  0.0000000000000E+00  0.3928511910859E-03
 0.5327630433109E-03 -0.2153814950165E-02  0.0000000000000E+00  0.4259093328010E-03
 0.5754401249903E-03 -0.2325570198418E-02  0.0000000000000E+00  0.4593295590343E-03
 0.6214491578488E-03 -0.2511703154672E-02  0.0000000000000E+00  0.4946320452137E-03
 0.6709967072526E-03 -0.2713091466251E-02  0.0000000000000E+00  0.5332895958132E-03
 0.7244021038185E-03 -0.2931213767416E-02  0.0000000000000E+00  0.5769230112577E-03
 0.7820945774219E-03 -0.3168214188706E-02  0.0000000000000E+00  0.6275418420059E-03
 0.8446005910861E-03 -0.3427064213970E-02  0.0000000000000E+00  0.6879392947270E-03
 0.9124735530383E-03 -0.3711832079132E-02  0.0000000000000E+00  0.7625213414473E-03
 0.9855723910170E-03 -0.4027763748255E-02  0.0000000000000E+00  0.8593972565568E-03
 0.1061112689958E-02 -0.4379698039988E-02  0.0000000000000E+00  0.9920530870226E-03
 0.1134174318594E-02 -0.4768432575992E-02  0.0000000000000E+00  0.1174882033294E-02
 0.1202225516982E-02 -0.5187850159885E-02  0.0000000000000E+00  0.1416213093764E-02
 0.1266111067902E-02 -0.5626062736959E-02  0.0000000000000E+00  0.1718850910993E-02
 0.1326123277825E-02 -0.6069853989991E-02  0.0000000000000E+00  0.2082704015170E-02
 0.1380156729147E-02 -0.6508550422927E-02  0.0000000000000E+00  0.2504140743144E-02
 0.1424843782208E-02 -0.6935152977962E-02  0.0000000000000E+00  0.2977063987246E-02
 0.1456680542757E-02 -0.7345207192157E-02  0.0000000000000E+00  0.3495092298987E-02
 0.1472306846111E-02 -0.7734999205928E-02  0.0000000000000E+00  0.4052683706906E-02
 0.1468512803687E-02 -0.8100033853921E-02  0.0000000000000E+00  0.4644601894350E-02
 0.1443138604058E-02 -0.8434610299384E-02  0.0000000000000E+00  0.5264177542702E-02
 0.1396301969398E-02 -0.8733080072926E-02  0.0000000000000E+00  0.5904002568746E-02
 0.1328046245879E-02 -0.8990662623182E-02  0.0000000000000E+00  0.6560359876433E-02
 0.1233957366697E-02 -0.9202152143781E-02  0.0000000000000E+00  0.7233282857287E-02
 0.1105443315805E-02 -0.9361184447960E-02  0.0000000000000E+00  0.7922919718187E-02
 0.9307782128091E-03 -0.9457790125424E-02  0.0000000000000E+00  0.8630065209967E-02
 0.6940547730060E-03 -0.9472203273542E-02  0.0000000000000E+00  0.9352990009381E-02
 0.3666395826960E-03 -0.9364354029449E-02  0.0000000000000E+00  0.1007556469656E-01
-0.7406521171152E-04 -0.9058303889132E-02  0.0000000000000E+00  0.1070854763112E-01
-0.6797339974590E-03 -0.8401958637790E-02  0.0000000000000E+00  0.1104683371483E-01
-0.1299637662320E-02 -0.7052853031769E-02  0.0000000000000E+00  0.9819179121531E-02
 0.1535867933392E-02 -0.6074258887076E-02  0.0000000000000E+00  0.4209839992653E-02
 0.1597816403185E-01 -0.8980795227103E-02  0.0000000000000E+00  0.3936748714957E-02
 0.9070546399987E-04 -0.1544925586028E-02  0.0000000000000E+00 -0.6220183354849E-03
 0.2477992556968E-03 -0.1611318394873E-02  0.0000000000000E+00 -0.3215735237612E-03
 0.3401873535762E-03 -0.1638226173677E-02  0.0000000000000E+00 -0.2790704274885E-04
 0.3789440902875E-03 -0.1665269993963E-02  0.0000000000000E+00  0.1640098747300E-03
 0.4056062075535E-03 -0.1720500954897E-02  0.0000000000000E+00  0.2832968920534E-03
 0.4326147488117E-03 -0.1801912639235E-02  0.0000000000000E+00  0.3677073221228E-03
 0.4617851173738E-03 -0.1904452191428E-02  0.0000000000000E+00  0.4331479619432E-03
 0.4937431260451E-03 -0.2024899011305E-02  0.0000000000000E+00  0.4879514944650E-03
 0.5286222712126E-03 -0.2161123489484E-02  0.0000000000000E+00  0.5372293731461E-03
 0.5664367945263E-03 -0.2311959506136E-02  0.0000000000000E+00  0.5843211305595E-03
 0.6072267414210E-03 -0.2476978126829E-02  0.0000000000000E+00  0.6317376145575E-03
 0.6510868804643E-03 -0.2656365263505E-02  0.0000000000000E+00  0.6816066709002E-03
 0.6981802684145E-03 -0.2850861821358E-02  0.0000000000000E+00  0.7359832508524E-03
 0.7487327653275E-03 -0.3061756963459E-02  0.0000000000000E+00  0.7971093556516E-03
 0.8030045811542E-03 -0.3290914523362E-02  0.0000000000000E+00  0.8677249781371E-03
 0.8612164573997E-03 -0.3540847207320E-02  0.0000000000000E+00  0.9515564218526E-03
 0.9232660315238E-03 -0.3814726411215E-02  0.0000000000000E+00  0.1054268557516E-02
 0.9877325895061E-03 -0.4115775625460E-02  0.0000000000000E+00  0.1184813934374E-02
 0.1050572706099E-02 -0.4445371664002E-02  0.0000000000000E+00  0.1354643842616E-02
 0.1106598192256E-02 -0.4801067832058E-02  0.0000000000000E+00  0.1572526875852E-02
 0.1153770914158E-02 -0.5176596383085E-02  0.0000000000000E+00  0.1840194256900E-02
 0.1193963320797E-02 -0.5563567376440E-02  0.0000000000000E+00  0.2155689742272E-02
 0.1229053550175E-02 -0.5953104266677E-02  0.0000000000000E+00  0.2517858405195E-02
 0.1258352446003E-02 -0.6337013284170E-02  0.0000000000000E+00  0.2925053960009E-02
 0.1279135265228E-02 -0.6708529791460E-02  0.0000000000000E+00  0.3373550503440E-02
 0.1287935195877E-02 -0.7062134525019E-02  0.0000000000000E+00  0.3857882360204E-02
 0.1281318503269E-02 -0.7392723821685E-02  0.0000000000000E+00  0.4371495520163E-02
 0.1256418890535E-02 -0.7694848319847E-02  0.0000000000000E+00  0.4906608294415E-02
 0.1211852464249E-02 -0.7962770244264E-02  0.0000000000000E+00  0.5454017840907E-02
 0.1148002491135E-02 -0.8191147290024E-02  0.0000000000000E+00  0.6005223804520E-02
 0.1064359311879E-02 -0.8374218513176E-02  0.0000000000000E+00  0.6555376147653E-02
 0.9560792381714E-03 -0.8503186218735E-02  0.0000000000000E+00  0.7100625013088E-02
 0.8145460870312E-03 -0.8565400573331E-02  0.0000000000000E+00  0.7632091690891E-02
 0.6296961488409E-03 -0.8543060927197E-02  0.0000000000000E+00  0.8132197457923E-02
 0.3901075364622E-03 -0.8407865014484E-02  0.0000000000000E+00  0.8566958647955E-02
 0.8809463115347E-04 -0.8113247449656E-02  0.0000000000000E+00  0.8857779547953E-02
-0.2621034480565E-03 -0.7588633859283E-02  0.0000000000000E+00  0.8828998595108E-02
-0.5588060377144E-03 -0.6729160326089E-02  0.0000000000000E+00  0.8022931157254E-02
-0.4096444900423E-04 -0.5643968929018E-02  0.0000000000000E+00  0.5269970606209E-02
 0.4194023693689E-02 -0.5676222046878E-02  0.0000000000000E+00  0.4447356666054E-03
 0.1515193804266E-01 -0.8004930284368E-02  0.0000000000000E+00  0.2233672041879E-02
 0.8535492384717E-04 -0.1670748554082E-02  0.0000000000000E+00 -0.5677801131535E-03
 0.2395756871010E-03 -0.1752459048821E-02  0.0000000000000E+00 -0.2943965550540E-03
 0.3451623427608E-03 -0.1804364740905E-02  0.0000000000000E+00 -0.1349751769414E-04
 0.4003038065847E-03 -0.1845599806270E-02  0.0000000000000E+00  0.2007918315029E-03
 0.4349251205812E-03 -0.1902020118330E-02  0.0000000000000E+00  0.3480993637109E-03
 0.4649353224827E-03 -0.1979696736246E-02  0.0000000000000E+00  0.4552279341618E-03
 0.4949965125344E-03 -0.2076744843517E-02  0.0000000000000E+00  0.5396012733804E-03
 0.5266386823982E-03 -0.2190932444917E-02  0.0000000000000E+00  0.6108200058064E-03
 0.5604715485690E-03 -0.2320598957312E-02  0.0000000000000E+00  0.6749587351038E-03
 0.5967366183252E-03 -0.2464721195112E-02  0.0000000000000E+00  0.7361737891932E-03
 0.6355640175675E-03 -0.2622877793082E-02  0.0000000000000E+00  0.7976214858721E-03
 0.6770627837231E-03 -0.2795178641155E-02  0.0000000000000E+00  0.8619996904996E-03
 0.7213490900072E-03 -0.2982222759569E-02  0.0000000000000E+00  0.9319046178139E-03
 0.7685372822505E-03 -0.3185079230746E-02  0.0000000000000E+00  0.1010139760792E-02
 0.8186835142819E-03 -0.3405269826613E-02  0.0000000000000E+00  0.1100065372954E-02
 0.8716371759488E-03 -0.3644737083147E-02  0.0000000000000E+00  0.1206116275772E-02
 0.9266052202095E-03 -0.3905592824977E-02  0.0000000000000E+00  0.1334577766366E-02
 0.9812134035405E-03 -0.4189201225123E-02  0.0000000000000E+00  0.1493960672062E-02
 0.1030917865278E-02 -0.4494642769104E-02  0.0000000000000E+00  0.1692988498245E-02
 0.1070901924735E-02 -0.4817956230853E-02  0.0000000000000E+00  0.1936216906576E-02
 0.1099695197226E-02 -0.5153207512067E-02  0.0000000000000E+00  0.2221613303516E-02
 0.1119625874432E-02 -0.5494111272362E-02  0.0000000000000E+00  0.2544550073872E-02
 0.1133329027983E-02 -0.5834415968189E-02  0.0000000000000E+00  0.2902647545509E-02
 0.1141086379640E-02 -0.6167720758253E-02  0.0000000000000E+00  0.3294610530549E-02
 0.1140913376579E-02 -0.6487757314652E-02  0.0000000000000E+00  0.3717598724174E-02
 0.1129761869023E-02 -0.6788586532219E-02  0.0000000000000E+00  0.4166367474034E-02
 0.1104552988242E-02 -0.7064406302066E-02  0.0000000000000E+00  0.4633416804462E-02
 0.1062989434778E-02 -0.7309338121325E-02  0.0000000000000E+00  0.5109182908213E-02
 0.1004292056530E-02 -0.7517599410042E-02  0.0000000000000E+00  0.5582765156563E-02
 0.9289568752228E-03 -0.7683619950873E-02  0.0000000000000E+00  0.6044100195799E-02
 0.8364267953737E-03 -0.7800613574386E-02  0.0000000000000E+00  0.6485291838846E-02
 0.7226965512932E-03 -0.7857800030713E-02  0.0000000000000E+00  0.6896652158155E-02
 0.5814680052731E-03 -0.7839671499483E-02  0.0000000000000E+00  0.7259451973208E-02
 0.4073927691838E-03 -0.7725676158277E-02  0.0000000000000E+00  0.7539447495329E-02
 0.2005217309136E-03 -0.7487483918706E-02  0.0000000000000E+00  0.7674304334017E-02
-0.2117845336072E-04 -0.7087889267221E-02  0.0000000000000E+00  0.7545409420947E-02
-0.1864293229915E-03 -0.6487475356894E-02  0.0000000000000E+00  0.6919719343907E-02
-0.2928292249604E-04 -0.5703162620642E-02  0.0000000000000E+00  0.5327134932978E-02
 0.1359805742018E-02 -0.5092544139716E-02  0.0000000000000E+00  0.2207864343376E-02
 0.5898694084369E-02 -0.5670713165876E-02  0.0000000000000E+00 -0.1205132639634E-02
 0.1425466530410E-01 -0.7440564432476E-02  0.0000000000000E+00  0.1493894522257E-02
 0.8290885395374E-04 -0.1804265055384E-02  0.0000000000000E+00 -0.5089183928317E-03
 0.2348702132388E-03 -0.1893594532996E-02  0.0000000000000E+00 -0.2506122115600E-03
 0.3476806461935E-03 -0.1960625448025E-02  0.0000000000000E+00  0.1739226786531E-04
 0.4154475503965E-03 -0.2014079489746E-02  0.0000000000000E+00  0.2421116973787E-03
 0.4584988184982E-03 -0.2073975042577E-02  0.0000000000000E+00  0.4104673162698E-03
 0.4925016523710E-03 -0.2149712518724E-02  0.0000000000000E+00  0.5379778909312E-03
 0.5241017145053E-03 -0.2242417231158E-02  0.0000000000000E+00  0.6402607379175E-03
 0.5558608508134E-03 -0.2351073709237E-02  0.0000000000000E+00  0.7274551664811E-03
 0.5888849219972E-03 -0.2474565372094E-02  0.0000000000000E+00  0.8062648809594E-03
 0.6236766662939E-03 -0.2612094237201E-02  0.0000000000000E+00  0.8814730493815E-03
 0.6604803126445E-03 -0.2763286372657E-02  0.0000000000000E+00  0.9567958166644E-03
 0.6994283110975E-03 -0.2928193368050E-02  0.0000000000000E+00  0.1035437054580E-02
 0.7405891228243E-03 -0.3107269360582E-02  0.0000000000000E+00  0.1120474321186E-02
 0.7839546011723E-03 -0.3301341024923E-02  0.0000000000000E+00  0.1215189243192E-02
 0.8293567543033E-03 -0.3511545049103E-02  0.0000000000000E+00  0.1323422599340E-02
 0.8762569014509E-03 -0.3739190952160E-02  0.0000000000000E+00  0.1450032967549E-02
 0.9232615951397E-03 -0.3985336479854E-02  0.0000000000000E+00  0.1601335834540E-02
 0.9674060465061E-03 -0.4249853924253E-02  0.0000000000000E+00  0.1784706548634E-02
 0.1004126049652E-02 -0.4530400477075E-02  0.0000000000000E+00  0.2006215577315E-02
 0.1029211638250E-02 -0.4822385866643E-02  0.0000000000000E+00  0.2267367469924E-02
 0.1041713570714E-02 -0.5120344954469E-02  0.0000000000000E+00  0.2563904404256E-02
 0.1044150042752E-02 -0.5419330789444E-02  0.0000000000000E+00  0.2889635855343E-02
 0.1039498641236E-02 -0.5714726808490E-02  0.0000000000000E+00  0.3241026218599E-02
 0.1028719067760E-02 -0.6001420893963E-02  0.0000000000000E+00  0.3616307585777E-02
 0.1010571642367E-02 -0.6273733954707E-02  0.0000000000000E+00  0.4012596736251E-02
 0.9826495166699E-03 -0.6525730505254E-02  0.0000000000000E+00  0.4424374619607E-02
 0.9424917452305E-03 -0.6751401270892E-02  0.0000000000000E+00  0.4843258173007E-02
 0.8884865322258E-03 -0.6944774288763E-02  0.0000000000000E+00  0.5258369602457E-02
 0.8204301256038E-03 -0.7100064764458E-02  0.0000000000000E+00  0.5657403116843E-02
 0.7391092835874E-03 -0.7211460765795E-02  0.0000000000000E+00  0.6028320044409E-02
 0.6445337678775E-03 -0.7271618004844E-02  0.0000000000000E+00  0.6359440483999E-02
 0.5345863348392E-03 -0.7269209341372E-02  0.0000000000000E+00  0.6634854768445E-02
 0.4068757957600E-03 -0.7188595642376E-02  0.0000000000000E+00  0.6826802729082E-02
 0.2633605041704E-03 -0.7010734107341E-02  0.0000000000000E+00  0.6887670938190E-02
 0.1185041909590E-03 -0.6713921877675E-02  0.0000000000000E+00  0.6736936984438E-02
 0.1809534370373E-04 -0.6279155878136E-02  0.0000000000000E+00  0.6237453880180E-02
 0.8995004064061E-04 -0.5712806791808E-02  0.0000000000000E+00  0.5157724680306E-02
 0.6831327942489E-03 -0.5130289126716E-02  0.0000000000000E+00  0.3176550738972E-02
 0.2600577047648E-02 -0.4932949604820E-02  0.0000000000000E+00  0.2805656894798E-03
 0.6951132951023E-02 -0.5735260212025E-02  0.0000000000000E+00 -0.1888431296030E-02
 0.1345860434799E-01 -0.7081132397667E-02  0.0000000000000E+00  0.1048770561336E-02
 0.8186263886573E-04 -0.1940822280261E-02  0.0000000000000E+00 -0.4475044561570E-03
 0.2323469017977E-03 -0.2034257665795E-02  0.0000000000000E+00 -0.1980742037980E-03
 0.3492408914631E-03 -0.2110476991263E-02  0.0000000000000E+00  0.5957383133504E-04
 0.4263411889984E-03 -0.2173294661959E-02  0.0000000000000E+00  0.2886074321118E-03
 0.4772041199376E-03 -0.2237279010662E-02  0.0000000000000E+00  0.4720854164305E-03
 0.5156641252795E-03 -0.2312335108944E-02  0.0000000000000E+00  0.6170608782427E-03
 0.5492817098282E-03 -0.2401640261306E-02  0.0000000000000E+00  0.7358781897476E-03
 0.5815021355347E-03 -0.2505396300309E-02  0.0000000000000E+00  0.8383132717551E-03
 0.6139226046097E-03 -0.2623069034232E-02  0.0000000000000E+00  0.9313612223315E-03
 0.6473125693522E-03 -0.2754126267846E-02  0.0000000000000E+00  0.1020233772627E-02
 0.6820427775485E-03 -0.2898271945948E-02  0.0000000000000E+00  0.1109094834596E-02
 0.7182758267821E-03 -0.3055513008737E-02  0.0000000000000E+00  0.1201575721825E-02
 0.7560334911540E-03 -0.3226158559469E-02  0.0000000000000E+00  0.1301158879106E-02
 0.7951821419540E-03 -0.3410780324311E-02  0.0000000000000E+00  0.1411504705558E-02
 0.8353284932461E-03 -0.3610109015972E-02  0.0000000000000E+00  0.1536775234496E-02
 0.8755769055835E-03 -0.3824816344878E-02  0.0000000000000E+00  0.1681965714998E-02
 0.9140820603994E-03 -0.4055020815941E-02  0.0000000000000E+00  0.1852989468520E-02
 0.9475968859856E-03 -0.4299490252974E-02  0.0000000000000E+00  0.2055806217597E-02
 0.9718142567745E-03 -0.4555056122589E-02  0.0000000000000E+00  0.2294176393147E-02
 0.9831869758596E-03 -0.4816958433895E-02  0.0000000000000E+00  0.2567410525664E-02
 0.9812171511028E-03 -0.5080211436684E-02  0.0000000000000E+00  0.2869890848329E-02
 0.9684973969168E-03 -0.5340764938645E-02  0.0000000000000E+00  0.3194470193821E-02
 0.9481535621581E-03 -0.5595060376636E-02  0.0000000000000E+00  0.3536583730302E-02
 0.9216460447397E-03 -0.5838932282837E-02  0.0000000000000E+00  0.3893607127789E-02
 0.8884524339809E-03 -0.6067311931658E-02  0.0000000000000E+00  0.4262078631635E-02
 0.8469237115658E-03 -0.6274538392989E-02  0.0000000000000E+00  0.4635892822033E-02
 0.7953663303291E-03 -0.6454731011625E-02  0.0000000000000E+00  0.5005830937055E-02
 0.7329326741257E-03 -0.6602065919385E-02  0.0000000000000E+00  0.5359958793092E-02
 0.6600680364801E-03 -0.6710888343379E-02  0.0000000000000E+00  0.5684670193286E-02
 0.5781420928301E-03 -0.6775385700445E-02  0.0000000000000E+00  0.5965796755995E-02
 0.4883053225277E-03 -0.6788281744792E-02  0.0000000000000E+00  0.6187880392753E-02
 0.3910932485533E-03 -0.6738941622430E-02  0.0000000000000E+00  0.6329439126194E-02
 0.2890635779897E-03 -0.6613680003177E-02  0.0000000000000E+00  0.6355607062429E-02
 0.1927248249021E-03 -0.6398068331078E-02  0.0000000000000E+00  0.6210386096038E-02
 0.1313292545073E-03 -0.6080812773120E-02  0.0000000000000E+00  0.5806126251756E-02
 0.1758157954255E-03 -0.5664648605715E-02  0.0000000000000E+00  0.5009657979354E-02
 0.4907079991346E-03 -0.5197178042845E-02  0.0000000000000E+00  0.3640060503502E-02
 0.1431445943136E-02 -0.4840777328239E-02  0.0000000000000E+00  0.1564194905712E-02
 0.3611025834283E-02 -0.4937190990195E-02  0.0000000000000E+00 -0.8895636005395E-03
 0.7592244051180E-02 -0.5793437521080E-02  0.0000000000000E+00 -0.2137721413200E-02
 0.1278892116621E-01 -0.6838569230990E-02  0.0000000000000E+00  0.7166882718771E-03
 0.8145817127024E-04 -0.2077966659043E-02  0.0000000000000E+00 -0.3845707351187E-03
 0.2310509023979E-03 -0.2173735788108E-02  0.0000000000000E+00 -0.1407850056636E-03
 0.3503629121954E-03 -0.2255579592978E-02  0.0000000000000E+00  0.1091554485870E-03
 0.4342802917171E-03 -0.2325186622052E-02  0.0000000000000E+00  0.3396108240247E-03
 0.4919113698661E-03 -0.2392971734447E-02  0.0000000000000E+00  0.5338247237586E-03
 0.5348529155007E-03 -0.2468041750715E-02  0.0000000000000E+00  0.6933404311822E-03
 0.5707706052957E-03 -0.2554664117490E-02  0.0000000000000E+00  0.8270745596628E-03
 0.6037054272794E-03 -0.2654043297520E-02  0.0000000000000E+00  0.9437948543660E-03
 0.6356868036333E-03 -0.2766211663333E-02  0.0000000000000E+00  0.1050445524352E-02
 0.6677372216803E-03 -0.2890914418872E-02  0.0000000000000E+00  0.1152475410142E-02
 0.7003545727357E-03 -0.3027949949165E-02  0.0000000000000E+00  0.1254373356356E-02
 0.7337352825330E-03 -0.3177290800111E-02  0.0000000000000E+00  0.1360108203225E-02
 0.7678576814989E-03 -0.3339103736848E-02  0.0000000000000E+00  0.1473480420412E-02
 0.8024679093539E-03 -0.3513703414715E-02  0.0000000000000E+00  0.1598420554175E-02
 0.8369653281036E-03 -0.3701417407365E-02  0.0000000000000E+00  0.1739249810921E-02
 0.8701610575527E-03 -0.3902322986031E-02  0.0000000000000E+00  0.1900854383256E-02
 0.8999176887271E-03 -0.4115763109382E-02  0.0000000000000E+00  0.2088477833466E-02
 0.9229386000798E-03 -0.4339737495821E-02  0.0000000000000E+00  0.2306627522763E-02
 0.9353208399109E-03 -0.4570646521986E-02  0.0000000000000E+00  0.2557150356969E-02
 0.9341615464711E-03 -0.4803800373416E-02  0.0000000000000E+00  0.2837771206072E-02
 0.9193527879376E-03 -0.5034664076217E-02  0.0000000000000E+00  0.3142012926645E-02
 0.8935224762737E-03 -0.5259823762278E-02  0.0000000000000E+00  0.3462114403595E-02
 0.8598673242793E-03 -0.5476441628073E-02  0.0000000000000E+00  0.3792614156782E-02
 0.8202490653497E-03 -0.5681077382838E-02  0.0000000000000E+00  0.4129887474236E-02
 0.7748276033167E-03 -0.5869267815791E-02  0.0000000000000E+00  0.4469620592048E-02
 0.7227622328988E-03 -0.6035796500479E-02  0.0000000000000E+00  0.4804952854130E-02
 0.6632063477577E-03 -0.6175140293610E-02  0.0000000000000E+00  0.5125869913557E-02
 0.5961421668340E-03 -0.6281818847741E-02  0.0000000000000E+00  0.5419531944702E-02
 0.5227849649158E-03 -0.6350498510743E-02  0.0000000000000E+00  0.5671123235754E-02
 0.4453845872044E-03 -0.6375703730585E-02  0.0000000000000E+00  0.5864453524339E-02
 0.3666805852365E-03 -0.6350843441698E-02  0.0000000000000E+00  0.5980786341188E-02
 0.2903394158567E-03 -0.6266958870752E-02  0.0000000000000E+00  0.5994336903806E-02
 0.2243061857075E-03 -0.6113765802419E-02  0.0000000000000E+00  0.5865789984132E-02
 0.1876491523070E-03 -0.5883219097951E-02  0.0000000000000E+00  0.5536220288893E-02
 0.2227211453620E-03 -0.5575719039044E-02  0.0000000000000E+00  0.4921180120806E-02
 0.4183927708201E-03 -0.5213974382386E-02  0.0000000000000E+00  0.3909851826505E-02
 0.9519176122963E-03 -0.4872212873458E-02  0.0000000000000E+00  0.2394242523289E-02
 0.2139040500785E-02 -0.4717979719045E-02  0.0000000000000E+00  0.4011616133578E-03
 0.4405414107005E-02 -0.5002706637753E-02  0.0000000000000E+00 -0.1577995035452E-02
 0.7979488945726E-02 -0.5834545596915E-02  0.0000000000000E+00 -0.2193289012651E-02
 0.1223064936288E-01 -0.6669420162431E-02  0.0000000000000E+00  0.4473501074226E-03
 0.8130673033445E-04 -0.2214343704693E-02  0.0000000000000E+00 -0.3207330399030E-03
 0.2303548715112E-03 -0.2311454215838E-02  0.0000000000000E+00 -0.8089928596480E-04
 0.3511713930534E-03 -0.2396740902102E-02  0.0000000000000E+00  0.1634451793196E-03
 0.4400745823915E-03 -0.2471100119793E-02  0.0000000000000E+00  0.3940729620335E-03
 0.5033607960417E-03 -0.2542021113182E-02  0.0000000000000E+00  0.5959614706590E-03
 0.5505233192633E-03 -0.2617369262780E-02  0.0000000000000E+00  0.7674017736872E-03
 0.5888409631863E-03 -0.2701796819028E-02  0.0000000000000E+00  0.9143432913544E-03
 0.6226516680909E-03 -0.2797212833129E-02  0.0000000000000E+00  0.1044237568919E-02
 0.6543155721660E-03 -0.2904143785753E-02  0.0000000000000E+00  0.1163694153864E-02
 0.6850766308639E-03 -0.3022600240039E-02  0.0000000000000E+00  0.1278220363827E-02
 0.7155512235631E-03 -0.3152479035064E-02  0.0000000000000E+00  0.1392507537781E-02
 0.7459701704136E-03 -0.3293724959005E-02  0.0000000000000E+00  0.1510766637542E-02
 0.7762737805483E-03 -0.3446368095048E-02  0.0000000000000E+00  0.1637024180789E-02
 0.8061010069116E-03 -0.3610474120203E-02  0.0000000000000E+00  0.1775370604618E-02
 0.8346769809525E-03 -0.3785991491339E-02  0.0000000000000E+00  0.1930137154792E-02
 0.8605992141299E-03 -0.3972477291804E-02  0.0000000000000E+00  0.2105915073253E-02
 0.8815842250748E-03 -0.4168671592651E-02  0.0000000000000E+00  0.2307142799157E-02
 0.8944497582763E-03 -0.4372074430346E-02  0.0000000000000E+00  0.2536964979730E-02
 0.8957656067945E-03 -0.4578911886544E-02  0.0000000000000E+00  0.2795681576107E-02
 0.8832286315002E-03 -0.4784689976340E-02  0.0000000000000E+00  0.3079858829515E-02
 0.8570754591703E-03 -0.4985289663548E-02  0.0000000000000E+00  0.3382458243970E-02
 0.8199692701453E-03 -0.5177779167875E-02  0.0000000000000E+00  0.3695307030770E-02
 0.7751612536593E-03 -0.5359845884463E-02  0.0000000000000E+00  0.4012171920551E-02
 0.7248641052612E-03 -0.5528636575827E-02  0.0000000000000E+00  0.4328415045119E-02
 0.6698868304604E-03 -0.5680282172965E-02  0.0000000000000E+00  0.4638765494203E-02
 0.6102090672356E-03 -0.5810116572922E-02  0.0000000000000E+00  0.4935542491487E-02
 0.5458692900776E-03 -0.5913133189186E-02  0.0000000000000E+00  0.5207984248022E-02
 0.4777353363939E-03 -0.5984362216693E-02  0.0000000000000E+00  0.5442463779199E-02
 0.4079177196869E-03 -0.6019001504959E-02  0.0000000000000E+00  0.5623102244642E-02
 0.3397897507847E-03 -0.6012254527685E-02  0.0000000000000E+00  0.5732008146165E-02
 0.2779706550449E-03 -0.5958735089342E-02  0.0000000000000E+00  0.5747970401994E-02
 0.2294423428240E-03 -0.5851854188276E-02  0.0000000000000E+00  0.5642502969525E-02
 0.2074170477232E-03 -0.5685541696911E-02  0.0000000000000E+00  0.5374736330559E-02
 0.2385666199853E-03 -0.5458713664807E-02  0.0000000000000E+00  0.4887897519693E-02
 0.3751206803333E-03 -0.5182695279086E-02  0.0000000000000E+00  0.4108998925576E-02
 0.7149226223524E-03 -0.4895020335397E-02  0.0000000000000E+00  0.2960193028738E-02
 0.1428792290929E-02 -0.4681092651950E-02  0.0000000000000E+00  0.1406680707877E-02
 0.2773562528397E-02 -0.4689522439993E-02  0.0000000000000E+00 -0.4136514645184E-03
 0.5021515596643E-02 -0.5086003963228E-02  0.0000000000000E+00 -0.1964408164704E-02
 0.8209874296633E-02 -0.5862885959465E-02  0.0000000000000E+00 -0.2162202495768E-02
 0.1176277702654E-01 -0.6549766055266E-02  0.0000000000000E+00  0.2252651823040E-03
 0.8120747994965E-04 -0.2349190399106E-02  0.0000000000000E+00 -0.2564114585849E-03
 0.2298636426431E-03 -0.2447022629625E-02  0.0000000000000E+00 -0.1964454411236E-04
 0.3516496363937E-03 -0.2534376090266E-02  0.0000000000000E+00  0.2206244458059E-03
 0.4442238527344E-03 -0.2611952937637E-02  0.0000000000000E+00  0.4509561574892E-03
 0.5121406099483E-03 -0.2685250762647E-02  0.0000000000000E+00  0.6584254373327E-03
 0.5631127107750E-03 -0.2760862545307E-02  0.0000000000000E+00  0.8395833641139E-03
 0.6037862193208E-03 -0.2843384767200E-02  0.0000000000000E+00  0.9980523227405E-03
 0.6385497080477E-03 -0.2935145225294E-02  0.0000000000000E+00  0.1139916511915E-02
 0.6699761210841E-03 -0.3037057106408E-02  0.0000000000000E+00  0.1271259539619E-02
 0.6994853835692E-03 -0.3149364414059E-02  0.0000000000000E+00  0.1397493152418E-02
 0.7277965539429E-03 -0.3272056360772E-02  0.0000000000000E+00  0.1523395917980E-02
 0.7551729159827E-03 -0.3405053375262E-02  0.0000000000000E+00  0.1653325923488E-02
 0.7815240921566E-03 -0.3548257281536E-02  0.0000000000000E+00  0.1791443772491E-02
 0.8064012594360E-03 -0.3701501913079E-02  0.0000000000000E+00  0.1941895056418E-02
 0.8288980073303E-03 -0.3864396436930E-02  0.0000000000000E+00  0.2108895113690E-02
 0.8474809203092E-03 -0.4036066817191E-02  0.0000000000000E+00  0.2296614736244E-02
 0.8598426056588E-03 -0.4214810671143E-02  0.0000000000000E+00  0.2508644967432E-02
 0.8630247731910E-03 -0.4397833529801E-02  0.0000000000000E+00  0.2746913003464E-02
 0.8540935385904E-03 -0.4581353550923E-02  0.0000000000000E+00  0.3010483010364E-02
 0.8312962110047E-03 -0.4761138541118E-02  0.0000000000000E+00  0.3295063570021E-02
 0.7951837394202E-03 -0.4933455775599E-02  0.0000000000000E+00  0.3593238856487E-02
 0.7484737058049E-03 -0.5095765450440E-02  0.0000000000000E+00  0.3896551492214E-02
 0.6944857379162E-03 -0.5246169336158E-02  0.0000000000000E+00  0.4198111758542E-02
 0.6357621345485E-03 -0.5382318403529E-02  0.0000000000000E+00  0.4492327185507E-02
 0.5737319748520E-03 -0.5500927157468E-02  0.0000000000000E+00  0.4772969585760E-02
 0.5091859760861E-03 -0.5597945926466E-02  0.0000000000000E+00  0.5031546775198E-02
 0.4430604383406E-03 -0.5668997662361E-02  0.0000000000000E+00  0.5256617779311E-02
 0.3771506339608E-03 -0.5709765181126E-02  0.0000000000000E+00  0.5433896191499E-02
 0.3145635203678E-03 -0.5716175801844E-02  0.0000000000000E+00  0.5546657873036E-02
 0.2599576539021E-03 -0.5684405681061E-02  0.0000000000000E+00  0.5575777437652E-02
 0.2199580751591E-03 -0.5610653625027E-02  0.0000000000000E+00  0.5498529193925E-02
 0.2047738650862E-03 -0.5491096249538E-02  0.0000000000000E+00  0.5285417883851E-02
 0.2323155433197E-03 -0.5324125773595E-02  0.0000000000000E+00  0.4896749781314E-02
 0.3352381542357E-03 -0.5115254901049E-02  0.0000000000000E+00  0.4282041471446E-02
 0.5717110213695E-03 -0.4884596498841E-02  0.0000000000000E+00  0.3385090303641E-02
 0.1040322513698E-02 -0.4678330960164E-02  0.0000000000000E+00  0.2164039044782E-02
 0.1893479269766E-02 -0.4581154691776E-02  0.0000000000000E+00  0.6454013750153E-03
 0.3326720414279E-02 -0.4712750127325E-02  0.0000000000000E+00 -0.9680754928590E-03
 0.5498012071903E-02 -0.5170019999401E-02  0.0000000000000E+00 -0.2161152996301E-02
 0.8342475906251E-02 -0.5884208375140E-02  0.0000000000000E+00 -0.2091864698437E-02
 0.1136698461351E-01 -0.6465347210061E-02  0.0000000000000E+00  0.4377736143774E-04
 0.8105785101145E-04 -0.2482080332366E-02  0.0000000000000E+00 -0.1919196920456E-03
 0.2293367166692E-03 -0.2580205123991E-02  0.0000000000000E+00  0.4223764128481E-04
 0.3517456010226E-03 -0.2668724934538E-02  0.0000000000000E+00  0.2794657771872E-03
 0.4470418807269E-03 -0.2748383521734E-02  0.0000000000000E+00  0.5093686505886E-03
 0.5187064159200E-03 -0.2823336744083E-02  0.0000000000000E+00  0.7209776606484E-03
 0.5730185793984E-03 -0.2899040418438E-02  0.0000000000000E+00  0.9100384715753E-03
 0.6159047452125E-03 -0.2979793698081E-02  0.0000000000000E+00  0.1078456115992E-02
 0.6516271161768E-03 -0.3068111651287E-02  0.0000000000000E+00  0.1231047644076E-02
 0.6828584498210E-03 -0.3165176797526E-02  0.0000000000000E+00  0.1373270457662E-02
 0.7111418748080E-03 -0.3271421102350E-02  0.0000000000000E+00  0.1510320359255E-02
 0.7372783458372E-03 -0.3386912428388E-02  0.0000000000000E+00  0.1646960296318E-02
 0.7615599431760E-03 -0.3511547763952E-02  0.0000000000000E+00  0.1787605653296E-02
 0.7838744474231E-03 -0.3645111467641E-02  0.0000000000000E+00  0.1936463838773E-02
 0.8037089843155E-03 -0.3787229698054E-02  0.0000000000000E+00  0.2097641906642E-02
 0.8200724337137E-03 -0.3937221858125E-02  0.0000000000000E+00  0.2275140829943E-02
 0.8313780269237E-03 -0.4093874882857E-02  0.0000000000000E+00  0.2472637458083E-02
 0.8353910053444E-03 -0.4255183221396E-02  0.0000000000000E+00  0.2692892940507E-02
 0.8294467695367E-03 -0.4418211117451E-02  0.0000000000000E+00  0.2936778537668E-02
 0.8111069038648E-03 -0.4579276786248E-02  0.0000000000000E+00  0.3202376884934E-02
 0.7791239720756E-03 -0.4734444663029E-02  0.0000000000000E+00  0.3484754274165E-02
 0.7343448921639E-03 -0.4880346694090E-02  0.0000000000000E+00  0.3776237134007E-02
 0.6795689633802E-03 -0.5014784222974E-02  0.0000000000000E+00  0.4068170509096E-02
 0.6182115914354E-03 -0.5136213419329E-02  0.0000000000000E+00  0.4353115265394E-02
 0.5531392741701E-03 -0.5242742158881E-02  0.0000000000000E+00  0.4624620590032E-02
 0.4863760675691E-03 -0.5331660717407E-02  0.0000000000000E+00  0.4875564689667E-02
 0.4195028146925E-03 -0.5399577193477E-02  0.0000000000000E+00  0.5096704247601E-02
 0.3543489675657E-03 -0.5442824706536E-02  0.0000000000000E+00  0.5276012957692E-02
 0.2936599951865E-03 -0.5457854146769E-02  0.0000000000000E+00  0.5398698834856E-02
 0.2416006952303E-03 -0.5441486668309E-02  0.0000000000000E+00  0.5447471054676E-02
 0.2041866891375E-03 -0.5391089608362E-02  0.0000000000000E+00  0.5402518917575E-02
 0.1900218637320E-03 -0.5304674083506E-02  0.0000000000000E+00  0.5240599193602E-02
 0.2122284460992E-03 -0.5181303648786E-02  0.0000000000000E+00  0.4932800814810E-02
 0.2925337003192E-03 -0.5023628512196E-02  0.0000000000000E+00  0.4442897171995E-02
 0.4676194988954E-03 -0.4842750836803E-02  0.0000000000000E+00  0.3729577098042E-02
 0.7977269138778E-03 -0.4664828211025E-02  0.0000000000000E+00  0.2755764785177E-02
 0.1375935273124E-02 -0.4539099727602E-02  0.0000000000000E+00  0.1513174670950E-02
 0.2330539282929E-02 -0.4542118955312E-02  0.0000000000000E+00  0.7356728960664E-04
 0.3801901204439E-02 -0.4763270896319E-02  0.0000000000000E+00 -0.1330946843149E-02
 0.5867625413665E-02 -0.5249047466880E-02  0.0000000000000E+00 -0.2237549886521E-02
 0.8413549704596E-02 -0.5902809237402E-02  0.0000000000000E+00 -0.2003109984673E-02
 0.1102901532498E-01 -0.6407080490103E-02  0.0000000000000E+00 -0.1016260818825E-03
 0.8080798074069E-04 -0.2612787272249E-02  0.0000000000000E+00 -0.1275055849755E-03
 0.2286342474430E-03 -0.2710880830562E-02  0.0000000000000E+00  0.1042717672204E-03
 0.3514129736902E-03 -0.2799953400926E-02  0.0000000000000E+00  0.3391322637878E-03
 0.4487350291816E-03 -0.2880854694658E-02  0.0000000000000E+00  0.5685897795599E-03
 0.5234110653685E-03 -0.2956830451441E-02  0.0000000000000E+00  0.7833178526612E-03
 0.5805921674564E-03 -0.3032380000320E-02  0.0000000000000E+00  0.9787966878489E-03
 0.6254885153099E-03 -0.3111393409029E-02  0.0000000000000E+00  0.1155715801490E-02
 0.6621221286783E-03 -0.3196404100789E-02  0.0000000000000E+00  0.1317794177471E-02
 0.6931694957348E-03 -0.3288754283247E-02  0.0000000000000E+00  0.1469834184578E-02
 0.7202435887567E-03 -0.3389012247681E-02  0.0000000000000E+00  0.1616731386835E-02
 0.7442039062317E-03 -0.3497305762300E-02  0.0000000000000E+00  0.1763146425398E-02
 0.7653666534205E-03 -0.3613507634631E-02  0.0000000000000E+00  0.1913470939833E-02
 0.7836076112302E-03 -0.3737297385113E-02  0.0000000000000E+00  0.2071880266594E-02
 0.7983757278718E-03 -0.3868122321255E-02  0.0000000000000E+00  0.2242363722441E-02
 0.8086418445438E-03 -0.4005065873065E-02  0.0000000000000E+00  0.2428636852200E-02
 0.8128340123894E-03 -0.4146663623165E-02  0.0000000000000E+00  0.2633849826157E-02
 0.8088632462307E-03 -0.4290722956459E-02  0.0000000000000E+00  0.2859986535050E-02
 0.7944003445968E-03 -0.4434279810485E-02  0.0000000000000E+00  0.3107019953946E-02
 0.7674891946278E-03 -0.4573822943295E-02  0.0000000000000E+00  0.3372255863127E-02
 0.7273492534503E-03 -0.4705732091273E-02  0.0000000000000E+00  0.3650276238237E-02
 0.6751134122235E-03 -0.4826989644815E-02  0.0000000000000E+00  0.3933233054013E-02
 0.6136920467406E-03 -0.4935711319031E-02  0.0000000000000E+00  0.4212339714879E-02
 0.5466276922342E-03 -0.5030677965750E-02  0.0000000000000E+00  0.4479707896977E-02
 0.4771133276255E-03 -0.5110429160865E-02  0.0000000000000E+00  0.4728143242768E-02
 0.4077455585742E-03 -0.5172825560895E-02  0.0000000000000E+00  0.4949731519418E-02
 0.3408674793274E-03 -0.5215158050574E-02  0.0000000000000E+00  0.5134574095075E-02
 0.2791831591549E-03 -0.5234525539463E-02  0.0000000000000E+00  0.5270178195360E-02
 0.2263884304315E-03 -0.5228233354761E-02  0.0000000000000E+00  0.5341427300381E-02
 0.1877212802301E-03 -0.5194115523049E-02  0.0000000000000E+00  0.5330781220907E-02
 0.1705400249182E-03 -0.5130864234139E-02  0.0000000000000E+00  0.5218315561919E-02
 0.1852713857307E-03 -0.5038384160573E-02  0.0000000000000E+00  0.4981211075872E-02
 0.2474723268711E-03 -0.4918518401694E-02  0.0000000000000E+00  0.4592505019997E-02
 0.3816340372528E-03 -0.4777649401900E-02  0.0000000000000E+00  0.4021139778797E-02
 0.6264730521241E-03 -0.4631121971067E-02  0.0000000000000E+00  0.3236552714819E-02
 0.1041020049100E-02 -0.4508401404700E-02  0.0000000000000E+00  0.2220700252029E-02
 0.1708815277096E-02 -0.4457520427143E-02  0.0000000000000E+00  0.9934477738943E-03
 0.2732760524696E-02 -0.4543184176733E-02  0.0000000000000E+00 -0.3437951288115E-03
 0.4207352034446E-02 -0.4827437967770E-02  0.0000000000000E+00 -0.1553689159854E-02
 0.6156112425300E-02 -0.5322013528085E-02  0.0000000000000E+00 -0.2236420515008E-02
 0.8445715875209E-02 -0.5921410976662E-02  0.0000000000000E+00 -0.1904992237329E-02
 0.1073808989984E-01 -0.6368847517816E-02  0.0000000000000E+00 -0.2148275819631E-03
 0.8043687511955E-04 -0.2741208296476E-02  0.0000000000000E+00 -0.6337153308124E-04
 0.2276813496644E-03 -0.2839010927521E-02  0.0000000000000E+00  0.1661349434862E-03
 0.3506243300520E-03 -0.2928200429921E-02  0.0000000000000E+00  0.3990441971923E-03
 0.4494496018114E-03 -0.3009720962267E-02  0.0000000000000E+00  0.6280542888543E-03
 0.5265325258835E-03 -0.3086186600499E-02  0.0000000000000E+00  0.8451427190513E-03
 0.5861407386561E-03 -0.3161313379833E-02  0.0000000000000E+00  0.1045813367737E-02
 0.6328165484775E-03 -0.3238547487646E-02  0.0000000000000E+00  0.1229921949118E-02
 0.6702771670311E-03 -0.3320326868048E-02  0.0000000000000E+00  0.1400275272560E-02
 0.7011279052911E-03 -0.3408060638024E-02  0.0000000000000E+00  0.1561039875444E-02
 0.7270026082968E-03 -0.3502402014681E-02  0.0000000000000E+00  0.1716759719788E-02
 0.7487957070964E-03 -0.3603517555936E-02  0.0000000000000E+00  0.1871924414128E-02
 0.7668425232056E-03 -0.3711254261733E-02  0.0000000000000E+00  0.2030832111114E-02
 0.7810171246050E-03 -0.3825200655621E-02  0.0000000000000E+00  0.2197558163512E-02
 0.7907563952056E-03 -0.3944656371917E-02  0.0000000000000E+00  0.2375910945747E-02
 0.7950366901741E-03 -0.4068522749875E-02  0.0000000000000E+00  0.2569274243735E-02
 0.7923580200207E-03 -0.4195163256910E-02  0.0000000000000E+00  0.2780268687095E-02
 0.7808305839305E-03 -0.4322292497504E-02  0.0000000000000E+00  0.3010171893046E-02
 0.7584831734455E-03 -0.4447000856342E-02  0.0000000000000E+00  0.3258203294033E-02
 0.7238233682014E-03 -0.4565993992693E-02  0.0000000000000E+00  0.3521056304574E-02
 0.6765060616381E-03 -0.4675977200819E-02  0.0000000000000E+00  0.3792948318052E-02
 0.6179454550694E-03 -0.4774274838387E-02  0.0000000000000E+00  0.4065919906440E-02
 0.5511909946218E-03 -0.4859304679940E-02  0.0000000000000E+00  0.4331107893315E-02
 0.4799426396107E-03 -0.4930160096190E-02  0.0000000000000E+00  0.4580269276593E-02
 0.4077247017161E-03 -0.4985800228425E-02  0.0000000000000E+00  0.4805588439890E-02
 0.3376850704760E-03 -0.5024651880291E-02  0.0000000000000E+00  0.4998480608468E-02
 0.2728963047496E-03 -0.5044701814338E-02  0.0000000000000E+00  0.5148511107451E-02
 0.2169062345573E-03 -0.5043849183887E-02  0.0000000000000E+00  0.5242859705797E-02
 0.1743373513115E-03 -0.5020309641444E-02  0.0000000000000E+00  0.5266285976793E-02
 0.1514706358458E-03 -0.4972999546834E-02  0.0000000000000E+00  0.5201331339468E-02
 0.1569180649643E-03 -0.4901986682782E-02  0.0000000000000E+00  0.5028504713360E-02
 0.2026753207880E-03 -0.4809024322145E-02  0.0000000000000E+00  0.4726231146000E-02
 0.3061565422899E-03 -0.4698456451415E-02  0.0000000000000E+00  0.4270556233120E-02
 0.4935216094223E-03 -0.4579681770707E-02  0.0000000000000E+00  0.3636662147833E-02
 0.8037160923286E-03 -0.4470857155635E-02  0.0000000000000E+00  0.2805157528034E-02
 0.1292091927528E-02 -0.4402397850576E-02  0.0000000000000E+00  0.1775276054682E-02
 0.2030557995882E-02 -0.4418304332012E-02  0.0000000000000E+00  0.5885239390176E-03
 0.3098007413621E-02 -0.4570329292162E-02  0.0000000000000E+00 -0.6370833478885E-03
 0.4552696562655E-02 -0.4897776884973E-02  0.0000000000000E+00 -0.1673836565434E-02
 0.6383148948230E-02 -0.5389569205405E-02  0.0000000000000E+00 -0.2184459699196E-02
 0.8453365133036E-02 -0.5941595320623E-02  0.0000000000000E+00 -0.1801389194647E-02
 0.1048603236674E-01 -0.6346324817117E-02  0.0000000000000E+00 -0.2993411447090E-03
 0.7993961881236E-04 -0.2867318614890E-02  0.0000000000000E+00  0.3142029820231E-06
 0.2264449846719E-03 -0.2964614057937E-02  0.0000000000000E+00  0.2275964054158E-03
 0.3493728788772E-03 -0.3053598718637E-02  0.0000000000000E+00  0.4587926127037E-03
 0.4492994759452E-03 -0.3135270647522E-02  0.0000000000000E+00  0.6873253473519E-03
 0.5282960828469E-03 -0.3211788204903E-02  0.0000000000000E+00  0.9061743292230E-03
 0.5899335544693E-03 -0.3286230771473E-02  0.0000000000000E+00  0.1111005192468E-02
 0.6381520337860E-03 -0.3361607529914E-02  0.0000000000000E+00  0.1301115926532E-02
 0.6763340639074E-03 -0.3440189895927E-02  0.0000000000000E+00  0.1478575858710E-02
 0.7069595364480E-03 -0.3523380792588E-02  0.0000000000000E+00  0.1646962758610E-02
 0.7316414767633E-03 -0.3611871610923E-02  0.0000000000000E+00  0.1810444519731E-02
 0.7512872443895E-03 -0.3705846544208E-02  0.0000000000000E+00  0.1973288887875E-02
 0.7662464957613E-03 -0.3805124951649E-02  0.0000000000000E+00  0.2139643497704E-02
 0.7764018085180E-03 -0.3909218797210E-02  0.0000000000000E+00  0.2313428186735E-02
 0.7812028805536E-03 -0.4017311628963E-02  0.0000000000000E+00  0.2498223167799E-02
 0.7796702677863E-03 -0.4128173814068E-02  0.0000000000000E+00  0.2697055065869E-02
 0.7704220369436E-03 -0.4240065802714E-02  0.0000000000000E+00  0.2912032821936E-02
 0.7518051194591E-03 -0.4350684623263E-02  0.0000000000000E+00  0.3143806368780E-02
 0.7222161395562E-03 -0.4457235482821E-02  0.0000000000000E+00  0.3390970412905E-02
 0.6806060149700E-03 -0.4556671626768E-02  0.0000000000000E+00  0.3649739142508E-02
 0.6270395251365E-03 -0.4646029660403E-02  0.0000000000000E+00  0.3914059656031E-02
 0.5632104988980E-03 -0.4722971366059E-02  0.0000000000000E+00  0.4175913027133E-02
 0.4923322588780E-03 -0.4786212584550E-02  0.0000000000000E+00  0.4426409003432E-02
 0.4182888069686E-03 -0.4835156666563E-02  0.0000000000000E+00  0.4657039337503E-02
 0.3449401197844E-03 -0.4869177227339E-02  0.0000000000000E+00  0.4859490463609E-02
 0.2759638776009E-03 -0.4887262664079E-02  0.0000000000000E+00  0.5024638848095E-02
 0.2151250659852E-03 -0.4888098905204E-02  0.0000000000000E+00  0.5141646962336E-02
 0.1667730238342E-03 -0.4870400844176E-02  0.0000000000000E+00  0.5197519040318E-02
 0.1364102163217E-03 -0.4833320158117E-02  0.0000000000000E+00  0.5177099550886E-02
 0.1312898783150E-03 -0.4776876679324E-02  0.0000000000000E+00  0.5063332786473E-02
 0.1611298267254E-03 -0.4702490961532E-02  0.0000000000000E+00  0.4837647793711E-02
 0.2391763768060E-03 -0.4613620742703E-02  0.0000000000000E+00  0.4480373094935E-02
 0.3840850387480E-03 -0.4516720739814E-02  0.0000000000000E+00  0.3971292126196E-02
 0.6226486600493E-03 -0.4423414673887E-02  0.0000000000000E+00  0.3292309679650E-02
 0.9925519856116E-03 -0.4353337905790E-02  0.0000000000000E+00  0.2434738925026E-02
 0.1543829213843E-02 -0.4336036876400E-02  0.0000000000000E+00  0.1412415424374E-02
 0.2336126123943E-02 -0.4409895917007E-02  0.0000000000000E+00  0.2821115857413E-03
 0.3427069496935E-02 -0.4614199321414E-02  0.0000000000000E+00 -0.8314896590603E-03
 0.4847292755854E-02 -0.4970302931871E-02  0.0000000000000E+00 -0.1718491391298E-02
 0.6563609360362E-02 -0.5452877937199E-02  0.0000000000000E+00 -0.2098522936855E-02
 0.8445836191049E-02 -0.5964225793090E-02  0.0000000000000E+00 -0.1693963246204E-02
 0.1026652618137E-01 -0.6336330960482E-02  0.0000000000000E+00 -0.3583517353350E-03
 0.7932032962608E-04 -0.2991144043648E-02  0.0000000000000E+00  0.6341069925788E-04
 0.2249190676451E-03 -0.3087748778960E-02  0.0000000000000E+00  0.2884842885809E-03
 0.3476700076745E-03 -0.3176283211672E-02  0.0000000000000E+00  0.5180837117416E-03
 0.4483817946061E-03 -0.3257751752773E-02  0.0000000000000E+00  0.7460679215986E-03
 0.5288907077577E-03 -0.3333966328373E-02  0.0000000000000E+00  0.9661716449653E-03
 0.5922087334412E-03 -0.3407486276796E-02  0.0000000000000E+00  0.1174273996947E-02
 0.6417418372667E-03 -0.3480910594889E-02  0.0000000000000E+00  0.1369307877523E-02
 0.6805308182896E-03 -0.3556303900467E-02  0.0000000000000E+00  0.1552756387548E-02
 0.7108937320774E-03 -0.3635008603319E-02  0.0000000000000E+00  0.1727668690034E-02
 0.7343894854185E-03 -0.3717714577099E-02  0.0000000000000E+00  0.1897832338147E-02
 0.7519192195318E-03 -0.3804604219361E-02  0.0000000000000E+00  0.2067258863635E-02
 0.7638427942367E-03 -0.3895467753606E-02  0.0000000000000E+00  0.2239901455525E-02
 0.7700610464307E-03 -0.3989755073095E-02  0.0000000000000E+00  0.2419481698647E-02
 0.7700591280706E-03 -0.4086564159396E-02  0.0000000000000E+00  0.2609319389325E-02
 0.7629348055880E-03 -0.4184581037310E-02  0.0000000000000E+00  0.2812075493408E-02
 0.7474601221635E-03 -0.4282021838466E-02  0.0000000000000E+00  0.3029378703636E-02
 0.7222439062740E-03 -0.4376625197243E-02  0.0000000000000E+00  0.3261330971874E-02
 0.6860520843413E-03 -0.4465755024979E-02  0.0000000000000E+00  0.3506015208432E-02
 0.6382586574242E-03 -0.4546632466438E-02  0.0000000000000E+00  0.3759275547579E-02
 0.5793173475587E-03 -0.4616628571052E-02  0.0000000000000E+00  0.4014866064406E-02
 0.5112011867009E-03 -0.4673740329424E-02  0.0000000000000E+00  0.4264754134967E-02
 0.4373081114005E-03 -0.4716982000272E-02  0.0000000000000E+00  0.4500068998007E-02
 0.3617278937394E-03 -0.4746069021671E-02  0.0000000000000E+00  0.4712121790660E-02
 0.2886581996095E-03 -0.4760787434481E-02  0.0000000000000E+00  0.4892221462915E-02
 0.2222836865575E-03 -0.4760681004851E-02  0.0000000000000E+00  0.5030840165048E-02
 0.1670206562312E-03 -0.4745129323553E-02  0.0000000000000E+00  0.5116876851012E-02
 0.1279673354308E-03 -0.4713661249050E-02  0.0000000000000E+00  0.5137316996014E-02
 0.1114391223450E-03 -0.4666361916565E-02  0.0000000000000E+00  0.5077294914579E-02
 0.1255579178555E-03 -0.4604332461416E-02  0.0000000000000E+00  0.4920450148968E-02
 0.1809583322903E-03 -0.4530263459931E-02  0.0000000000000E+00  0.4649535071197E-02
 0.2917863581407E-03 -0.4449103186852E-02  0.0000000000000E+00  0.4247262494519E-02
 0.4773356154908E-03 -0.4368970324800E-02  0.0000000000000E+00  0.3697564385977E-02
 0.7641242807420E-03 -0.4302935874651E-02  0.0000000000000E+00  0.2989059501711E-02
 0.1187450350378E-02 -0.4270981236629E-02  0.0000000000000E+00  0.2122699659721E-02
 0.1791115665691E-02 -0.4300517909929E-02  0.0000000000000E+00  0.1123905526068E-02
 0.2622855145815E-02 -0.4423668351180E-02  0.0000000000000E+00  0.5912649354650E-04
 0.3722274974665E-02 -0.4668572560047E-02  0.0000000000000E+00 -0.9473278444595E-03
 0.5099548817999E-02 -0.5042969189818E-02  0.0000000000000E+00 -0.1707128030043E-02
 0.6708740644366E-02 -0.5513144242074E-02  0.0000000000000E+00 -0.1989375024646E-02
 0.8429314681632E-02 -0.5989765924172E-02  0.0000000000000E+00 -0.1583492885859E-02
 0.1007455970560E-01 -0.6336450610240E-02  0.0000000000000E+00 -0.3947741292474E-03
 0.7858820359060E-04 -0.3112743699228E-02  0.0000000000000E+00  0.1257999600821E-03
 0.2231148639167E-03 -0.3208501210416E-02  0.0000000000000E+00  0.3486668290934E-03
 0.3455417142395E-03 -0.3296393858982E-02  0.0000000000000E+00  0.5767030997130E-03
 0.4467856202785E-03 -0.3377387597705E-02  0.0000000000000E+00  0.8040262829633E-03
 0.5284805946332E-03 -0.3453014730989E-02  0.0000000000000E+00  0.1024933173174E-02
 0.5931796235329E-03 -0.3525404055504E-02  0.0000000000000E+00  0.1235521813989E-02
 0.6438173313668E-03 -0.3596778625116E-02  0.0000000000000E+00  0.1434490763824E-02
 0.6830995570642E-03 -0.3668976925738E-02  0.0000000000000E+00  0.1622861620230E-02
 0.7131603316202E-03 -0.3743242697704E-02  0.0000000000000E+00  0.1803218572142E-02
 0.7354794238831E-03 -0.3820232513983E-02  0.0000000000000E+00  0.1978978684406E-02
 0.7509361099090E-03 -0.3900110385300E-02  0.0000000000000E+00  0.2153877229858E-02
 0.7598972321731E-03 -0.3982636622677E-02  0.0000000000000E+00  0.2331641691225E-02
 0.7622908733476E-03 -0.4067213156918E-02  0.0000000000000E+00  0.2515765084136E-02
 0.7576574608775E-03 -0.4152880847315E-02  0.0000000000000E+00  0.2709287893719E-02
 0.7451991470398E-03 -0.4238282652393E-02  0.0000000000000E+00  0.2914510090576E-02
 0.7238689501080E-03 -0.4321639232075E-02  0.0000000000000E+00  0.3132619894415E-02
 0.6925532768455E-03 -0.4400776858211E-02  0.0000000000000E+00  0.3363248440031E-02
 0.6503834041465E-03 -0.4473249833496E-02  0.0000000000000E+00  0.3604065308494E-02
 0.5971370521866E-03 -0.4536560450163E-02  0.0000000000000E+00  0.3850635592948E-02
 0.5336392926737E-03 -0.4588415546451E-02  0.0000000000000E+00  0.4096586084629E-02
 0.4621419955109E-03 -0.4627146138877E-02  0.0000000000000E+00  0.4333912835501E-02
 0.3862440621139E-03 -0.4652067028201E-02  0.0000000000000E+00  0.4553809327078E-02
 0.3102574624771E-03 -0.4663209372704E-02  0.0000000000000E+00  0.4747485937965E-02
 0.2387163238861E-03 -0.4660770012709E-02  0.0000000000000E+00  0.4905989357398E-02
 0.1762874197886E-03 -0.4644839129961E-02  0.0000000000000E+00  0.5019519531792E-02
 0.1279933550139E-03 -0.4615476291959E-02  0.0000000000000E+00  0.5076850988755E-02
 0.9961965676941E-04 -0.4573006994415E-02  0.0000000000000E+00  0.5065104325765E-02
 0.9821108066346E-04 -0.4518422241997E-02  0.0000000000000E+00  0.4969894061143E-02
 0.1326307161088E-03 -0.4453846281639E-02  0.0000000000000E+00  0.4775804543717E-02
 0.2142169172801E-03 -0.4383112429202E-02  0.0000000000000E+00  0.4467218820303E-02
 0.3576593546271E-03 -0.4312403942565E-02  0.0000000000000E+00  0.4029537579813E-02
 0.5823366762822E-03 -0.4251045470452E-02  0.0000000000000E+00  0.3450970960773E-02
 0.9137493479937E-03 -0.4212850766699E-02  0.0000000000000E+00  0.2726471136616E-02
 0.1384037325690E-02 -0.4217257788425E-02  0.0000000000000E+00  0.1865225050060E-02
 0.2030426225427E-02 -0.4288763123916E-02  0.0000000000000E+00  0.9012728112850E-03
 0.2889681371699E-02 -0.4453220725731E-02  0.0000000000000E+00 -0.9381040802894E-04
 0.3986632289372E-02 -0.4729293797071E-02  0.0000000000000E+00 -0.1000724885541E-02
 0.5316705918923E-02 -0.5114762421056E-02  0.0000000000000E+00 -0.1653697960148E-02
 0.6827102695026E-02 -0.5571445899103E-02  0.0000000000000E+00 -0.1863886343684E-02
 0.8408010724246E-02 -0.6018515280240E-02  0.0000000000000E+00 -0.1470450120269E-02
 0.9906026165612E-02 -0.6344825526937E-02  0.0000000000000E+00 -0.4113854945435E-03
 0.7775524553566E-04 -0.3232198809219E-02  0.0000000000000E+00  0.1873838913347E-03
 0.2210547643485E-03 -0.3326976380862E-02  0.0000000000000E+00  0.4080414340484E-03
 0.3430251442698E-03 -0.3414075832478E-02  0.0000000000000E+00  0.6344926585485E-03
 0.4445965137770E-03 -0.3494386176507E-02  0.0000000000000E+00  0.8610062962386E-03
 0.5272130483176E-03 -0.3569200366505E-02  0.0000000000000E+00  0.1082295367302E-02
 0.5930401606056E-03 -0.3640283949960E-02  0.0000000000000E+00  0.1294659862725E-02
 0.6445958264347E-03 -0.3709518985328E-02  0.0000000000000E+00  0.1496650804190E-02
 0.6842653731910E-03 -0.3778512059255E-02  0.0000000000000E+00  0.1688928077762E-02
 0.7139873489165E-03 -0.3848383116217E-02  0.0000000000000E+00  0.1873672391401E-02
 0.7351448124506E-03 -0.3919731360350E-02  0.0000000000000E+00  0.2053949401285E-02
 0.7485831757252E-03 -0.3992689200424E-02  0.0000000000000E+00  0.2233209948939E-02
 0.7546740612897E-03 -0.4066987187681E-02  0.0000000000000E+00  0.2414936194184E-02
 0.7533808412994E-03 -0.4141992704754E-02  0.0000000000000E+00  0.2602373757079E-02
 0.7443159774228E-03 -0.4216715253091E-02  0.0000000000000E+00  0.2798276411839E-02
 0.7268076061891E-03 -0.4289790385043E-02  0.0000000000000E+00  0.3004597723733E-02
 0.7000091510346E-03 -0.4359483224616E-02  0.0000000000000E+00  0.3222129827920E-02
 0.6630931033923E-03 -0.4423743049297E-02  0.0000000000000E+00  0.3450105813630E-02
 0.6155486597649E-03 -0.4480337139575E-02  0.0000000000000E+00  0.3685867841277E-02
 0.5575390076407E-03 -0.4527057173713E-02  0.0000000000000E+00  0.3924779219382E-02
 0.4902452512210E-03 -0.4561945643343E-02  0.0000000000000E+00  0.4160397175024E-02
 0.4161970030486E-03 -0.4583666468053E-02  0.0000000000000E+00  0.4384786683101E-02
 0.3392061139486E-03 -0.4591837238923E-02  0.0000000000000E+00  0.4589248717039E-02
 0.2638179330388E-03 -0.4586808062821E-02  0.0000000000000E+00  0.4764967856507E-02
 0.1948981835090E-03 -0.4569183710632E-02  0.0000000000000E+00  0.4902836957698E-02
 0.1375684895188E-03 -0.4539588399607E-02  0.0000000000000E+00  0.4992909987351E-02
 0.9740922296772E-04 -0.4498740397966E-02  0.0000000000000E+00  0.5023970699483E-02
 0.8082446407284E-04 -0.4447730929422E-02  0.0000000000000E+00  0.4983419075722E-02
 0.9549269891140E-04 -0.4388408400196E-02  0.0000000000000E+00  0.4857517149439E-02
 0.1508759703464E-03 -0.4323834308515E-02  0.0000000000000E+00  0.4631992262405E-02
 0.2587948064944E-03 -0.4258828173422E-02  0.0000000000000E+00  0.4293066849171E-02
 0.4341433610965E-03 -0.4200535623978E-02  0.0000000000000E+00  0.3828970361219E-02
 0.6959064883949E-03 -0.4159051867632E-02  0.0000000000000E+00  0.3232091737916E-02
 0.1067999053717E-02 -0.4148335446308E-02  0.0000000000000E+00  0.2503083921250E-02
 0.1578943245879E-02 -0.4186633603925E-02  0.0000000000000E+00  0.1657834190814E-02
 0.2259457993595E-02 -0.4295134947397E-02  0.0000000000000E+00  0.7363194081779E-03
 0.3136576482346E-02 -0.4493812864738E-02  0.0000000000000E+00 -0.1882612968986E-03
 0.4223321159080E-02 -0.4793554157102E-02  0.0000000000000E+00 -0.1004398472919E-02
 0.5504825313752E-02 -0.5185158694202E-02  0.0000000000000E+00 -0.1568180048094E-02
 0.6925264802336E-02 -0.5628653053062E-02  0.0000000000000E+00 -0.1726271681364E-02
 0.8384941931001E-02 -0.6050798431299E-02  0.0000000000000E+00 -0.1355160235491E-02
 0.9757434881009E-02 -0.6360070378964E-02  0.0000000000000E+00 -0.4110757693083E-03
 0.7683493880704E-04 -0.3349605277973E-02  0.0000000000000E+00  0.2480821289414E-03
 0.2187682273747E-03 -0.3443292160132E-02  0.0000000000000E+00  0.4665281663630E-03
 0.3401656501301E-03 -0.3529478707847E-02  0.0000000000000E+00  0.6913354360410E-03
 0.4418987920250E-03 -0.3608945661446E-02  0.0000000000000E+00  0.9168619487462E-03
 0.5252237535347E-03 -0.3682770719068E-02  0.0000000000000E+00  0.1138129274825E-02
 0.5919691170011E-03 -0.3752406175320E-02  0.0000000000000E+00  0.1351613527161E-02
 0.6442821595483E-03 -0.3819425494816E-02  0.0000000000000E+00  0.1555774895426E-02
 0.6842457504941E-03 -0.3885205964113E-02  0.0000000000000E+00  0.1750990015728E-02
 0.7135992101691E-03 -0.3950728631196E-02  0.0000000000000E+00  0.1939092659113E-02
 0.7336175987102E-03 -0.4016518195759E-02  0.0000000000000E+00  0.2122821736872E-02
 0.7451039134484E-03 -0.4082665712378E-02  0.0000000000000E+00  0.2305344991429E-02
 0.7484333539245E-03 -0.4148873117033E-02  0.0000000000000E+00  0.2489889916344E-02
 0.7436115922390E-03 -0.4214485756818E-02  0.0000000000000E+00  0.2679446124444E-02
 0.7303368193606E-03 -0.4278504572151E-02  0.0000000000000E+00  0.2876482864672E-02
 0.7080796693116E-03 -0.4339587880868E-02  0.0000000000000E+00  0.3082629137726E-02
 0.6762071244633E-03 -0.4396077376478E-02  0.0000000000000E+00  0.3298327445064E-02
 0.6341808787330E-03 -0.4446072107928E-02  0.0000000000000E+00  0.3522480449046E-02
 0.5818383942134E-03 -0.4487568029919E-02  0.0000000000000E+00  0.3752178164321E-02
 0.5197111237789E-03 -0.4518650715631E-02  0.0000000000000E+00  0.3982648871070E-02
 0.4493223073483E-03 -0.4537696763488E-02  0.0000000000000E+00  0.4207432138247E-02
 0.3734769945925E-03 -0.4543701237244E-02  0.0000000000000E+00  0.4418700498646E-02
 0.2962078248920E-03 -0.4536585861847E-02  0.0000000000000E+00  0.4607904059184E-02
 0.2222997787677E-03 -0.4517021366049E-02  0.0000000000000E+00  0.4766271454668E-02
 0.1569416640061E-03 -0.4486015350461E-02  0.0000000000000E+00  0.4884642291216E-02
 0.1056802675491E-03 -0.4444709925838E-02  0.0000000000000E+00  0.4953042321462E-02
 0.7460231392256E-04 -0.4394453941557E-02  0.0000000000000E+00  0.4960388663910E-02
 0.7065663773270E-04 -0.4337062100979E-02  0.0000000000000E+00  0.4894490021902E-02
 0.1020524557717E-03 -0.4275175476957E-02  0.0000000000000E+00  0.4742394413766E-02
 0.1787022930956E-03 -0.4212687774536E-02  0.0000000000000E+00  0.4491115348241E-02
 0.3126916560814E-03 -0.4155232814673E-02  0.0000000000000E+00  0.4128829263027E-02
 0.5188124255645E-03 -0.4110648622950E-02  0.0000000000000E+00  0.3646595534422E-02
 0.8152631585245E-03 -0.4089410511564E-02  0.0000000000000E+00  0.3040710109278E-02
 0.1223972526086E-02 -0.4105143013835E-02  0.0000000000000E+00  0.2316747438425E-02
 0.1769639234628E-02 -0.4174471941282E-02  0.0000000000000E+00  0.1495776281279E-02
 0.2476819034058E-02 -0.4315170065970E-02  0.0000000000000E+00  0.6214186555472E-03
 0.3364149950968E-02 -0.4541928006544E-02  0.0000000000000E+00 -0.2340559960286E-03
 0.4435415534049E-02 -0.4859431924925E-02  0.0000000000000E+00 -0.9683893281771E-03
 0.5668851088434E-02 -0.5253788025782E-02  0.0000000000000E+00 -0.1457781613613E-02
 0.7008253270130E-02 -0.5685293942406E-02  0.0000000000000E+00 -0.1578768251244E-02
 0.8362520535680E-02 -0.6087096657276E-02  0.0000000000000E+00 -0.1237546341252E-02
 0.9625694647554E-02 -0.6381329897141E-02  0.0000000000000E+00 -0.3973293003646E-03
 0.7584144396028E-04 -0.3465068571641E-02  0.0000000000000E+00  0.3078304900736E-03
 0.2162891341438E-03 -0.3557575065219E-02  0.0000000000000E+00  0.5240658036479E-03
 0.3370144476608E-03 -0.3642755292153E-02  0.0000000000000E+00  0.7471455686238E-03
 0.4387764784994E-03 -0.3721257548177E-02  0.0000000000000E+00  0.9714853126885E-03
 0.5226402267647E-03 -0.3793958848251E-02  0.0000000000000E+00  0.1192336721097E-02
 0.5901333411083E-03 -0.3862035023021E-02  0.0000000000000E+00  0.1406324772357E-02
 0.6430701993186E-03 -0.3926779590734E-02  0.0000000000000E+00  0.1611855667175E-02
 0.6832503564174E-03 -0.3989347962956E-02  0.0000000000000E+00  0.1809083988315E-02
 0.7122154453950E-03 -0.4050574632264E-02  0.0000000000000E+00  0.1999547166778E-02
 0.7311262845486E-03 -0.4110898541839E-02  0.0000000000000E+00  0.2185685065727E-02
 0.7407379454892E-03 -0.4170362885826E-02  0.0000000000000E+00  0.2370391046187E-02
 0.7414288936082E-03 -0.4228643068338E-02  0.0000000000000E+00  0.2556637344208E-02
 0.7332530531467E-03 -0.4285073888817E-02  0.0000000000000E+00  0.2747157725581E-02
 0.7160051344130E-03 -0.4338667496567E-02  0.0000000000000E+00  0.2944146864336E-02
 0.6893102964670E-03 -0.4388130015651E-02  0.0000000000000E+00  0.3148936140838E-02
 0.6527571140429E-03 -0.4431905060467E-02  0.0000000000000E+00  0.3361665238192E-02
 0.6060955694875E-03 -0.4468261278968E-02  0.0000000000000E+00  0.3580968722696E-02
 0.5495003125018E-03 -0.4495433683867E-02  0.0000000000000E+00  0.3803750838405E-02
 0.4838547257382E-03 -0.4511803327101E-02  0.0000000000000E+00  0.4025163456616E-02
 0.4110110640923E-03 -0.4516077935203E-02  0.0000000000000E+00  0.4238775929555E-02
 0.3340460459917E-03 -0.4507580853878E-02  0.0000000000000E+00  0.4436905452438E-02
 0.2572171309968E-03 -0.4486537774318E-02  0.0000000000000E+00  0.4611191002628E-02
 0.1855507207090E-03 -0.4453939534422E-02  0.0000000000000E+00  0.4752969780197E-02
 0.1245467979224E-03 -0.4411188727031E-02  0.0000000000000E+00  0.4853120163156E-02
 0.8014546147550E-04 -0.4359925444660E-02  0.0000000000000E+00  0.4901747170099E-02
 0.5888637437926E-04 -0.4302095099988E-02  0.0000000000000E+00  0.4888012890889E-02
 0.6818653326066E-04 -0.4240184717701E-02  0.0000000000000E+00  0.4800245422987E-02
 0.1166800123541E-03 -0.4177551734851E-02  0.0000000000000E+00  0.4626385225842E-02
 0.2145825148234E-03 -0.4118805776016E-02  0.0000000000000E+00  0.4354820586947E-02
 0.3740416344587E-03 -0.4070219430672E-02  0.0000000000000E+00  0.3975712120879E-02
 0.6094824262447E-03 -0.4040070255328E-02  0.0000000000000E+00  0.3482837627449E-02
 0.9380134453389E-03 -0.4038880540880E-02  0.0000000000000E+00  0.2876009903381E-02
 0.1379325091087E-02 -0.4079579296693E-02  0.0000000000000E+00  0.2164883886614E-02
 0.1954280594439E-02 -0.4176919851761E-02  0.0000000000000E+00  0.1374300179435E-02
 0.2681780550275E-02 -0.4345346579158E-02  0.0000000000000E+00  0.5496553413615E-03
 0.3573372656634E-02 -0.4594949050723E-02  0.0000000000000E+00 -0.2394816276344E-03
 0.4625763771876E-02 -0.4925584396522E-02  0.0000000000000E+00 -0.9006241879922E-03
 0.5812735683352E-02 -0.5320367928746E-02  0.0000000000000E+00 -0.1328001050154E-02
 0.7079696453545E-02 -0.5741165565082E-02  0.0000000000000E+00 -0.1422216463677E-02
 0.8343034775259E-02 -0.6128063611784E-02  0.0000000000000E+00 -0.1116135852448E-02
 0.9508014635349E-02 -0.6408433950205E-02  0.0000000000000E+00 -0.3751241828676E-03
 0.7478912758397E-04 -0.3578699852851E-02  0.0000000000000E+00  0.3665802734712E-03
 0.2136541509831E-03 -0.3669957839685E-02  0.0000000000000E+00  0.5806094357645E-03
 0.3336267905737E-03 -0.3754060090804E-02  0.0000000000000E+00  0.8018611329444E-03
 0.4353135094818E-03 -0.3831508502460E-02  0.0000000000000E+00  0.1024799358420E-02
 0.5195840627017E-03 -0.3902986768753E-02  0.0000000000000E+00  0.1244846535599E-02
 0.5876901434978E-03 -0.3969421686669E-02  0.0000000000000E+00  0.1458753014260E-02
 0.6411441622447E-03 -0.4031851423948E-02  0.0000000000000E+00  0.1664894740863E-02
 0.6814810474560E-03 -0.4091219477829E-02  0.0000000000000E+00  0.1863252168607E-02
 0.7100497377193E-03 -0.4148211471771E-02  0.0000000000000E+00  0.2055111048054E-02
 0.7278944385363E-03 -0.4203174120475E-02  0.0000000000000E+00  0.2242641249483E-02
 0.7357193191700E-03 -0.4256099103554E-02  0.0000000000000E+00  0.2428476054384E-02
 0.7339065308351E-03 -0.4306638185400E-02  0.0000000000000E+00  0.2615339076761E-02
 0.7225631635185E-03 -0.4354126020751E-02  0.0000000000000E+00  0.2805715691064E-02
 0.7015885832948E-03 -0.4397602804268E-02  0.0000000000000E+00  0.3001542053036E-02
 0.6707706405776E-03 -0.4435842850841E-02  0.0000000000000E+00  0.3203882279404E-02
 0.6299234087324E-03 -0.4467411290295E-02  0.0000000000000E+00  0.3412619316185E-02
 0.5790812313493E-03 -0.4490760583304E-02  0.0000000000000E+00  0.3626176870918E-02
 0.5187439449148E-03 -0.4504371001882E-02  0.0000000000000E+00  0.3841332358012E-02
 0.4501311783904E-03 -0.4506918252129E-02  0.0000000000000E+00  0.4053213416409E-02
 0.3754113968945E-03 -0.4497436747755E-02  0.0000000000000E+00  0.4255462947870E-02
 0.2979276654368E-03 -0.4475573854709E-02  0.0000000000000E+00  0.4440578246256E-02
 0.2221628912635E-03 -0.4441857244341E-02  0.0000000000000E+00  0.4600424638455E-02
 0.1533827706834E-03 -0.4397594883100E-02  0.0000000000000E+00  0.4726506822810E-02
 0.9738356992181E-04 -0.4344573625600E-02  0.0000000000000E+00  0.4809824947188E-02
 0.6046515555239E-04 -0.4284908127481E-02  0.0000000000000E+00  0.4840659271635E-02
 0.4956575297965E-04 -0.4221101563034E-02  0.0000000000000E+00  0.4808513910041E-02
 0.7249338292561E-04 -0.4156255699861E-02  0.0000000000000E+00  0.4702326153022E-02
 0.1382022810933E-03 -0.4094360950237E-02  0.0000000000000E+00  0.4511002503880E-02
 0.2570711999451E-03 -0.4040622289993E-02  0.0000000000000E+00  0.4224343640649E-02
 0.4411282089554E-03 -0.4001781142290E-02  0.0000000000000E+00  0.3834452833338E-02
 0.7042139079744E-03 -0.3986328428760E-02  0.0000000000000E+00  0.3337629824596E-02
 0.1062127672791E-02 -0.4004562095481E-02  0.0000000000000E+00  0.2736743061606E-02
 0.1532193859653E-02 -0.4068460672967E-02  0.0000000000000E+00  0.2044687978706E-02
 0.2131567522026E-02 -0.4190794431997E-02  0.0000000000000E+00  0.1288828144108E-02
 0.2874082282562E-02 -0.4382889644344E-02  0.0000000000000E+00  0.5148641141869E-03
 0.3765404470953E-02 -0.4650921301504E-02  0.0000000000000E+00 -0.2114856708574E-03
 0.4796904413232E-02 -0.4991056493933E-02  0.0000000000000E+00 -0.8074308799082E-03
 0.5939771678181E-02 -0.5384676415312E-02  0.0000000000000E+00 -0.1183012311231E-02
 0.7141649603776E-02 -0.5795685974898E-02  0.0000000000000E+00 -0.1258121233378E-02
 0.8328902124645E-02 -0.6172375171769E-02  0.0000000000000E+00 -0.9853531514166E-03
 0.9401566058526E-02 -0.6443682946391E-02  0.0000000000000E+00 -0.3525270642168E-03
 0.7367728859246E-04 -0.3690605294834E-02  0.0000000000000E+00  0.4243117603671E-03
 0.2108944111305E-03 -0.3780533538853E-02  0.0000000000000E+00  0.6361102156226E-03
 0.3300513269364E-03 -0.3863480569446E-02  0.0000000000000E+00  0.8554141334822E-03
 0.4315874479801E-03 -0.3939787778769E-02  0.0000000000000E+00  0.1076710608628E-02
 0.5161673649986E-03 -0.4009949688066E-02  0.0000000000000E+00  0.1295557021738E-02
 0.5847857885318E-03 -0.4074665105633E-02  0.0000000000000E+00  0.1508808196442E-02
 0.6386780847031E-03 -0.4134738234472E-02  0.0000000000000E+00  0.1714825475050E-02
 0.6791325051155E-03 -0.4190912473300E-02  0.0000000000000E+00  0.1913452815343E-02
 0.7073128823220E-03 -0.4243726837318E-02  0.0000000000000E+00  0.2105763614979E-02
 0.7241478803953E-03 -0.4293433985244E-02  0.0000000000000E+00  0.2293687409320E-02
 0.7302903493565E-03 -0.4339973699246E-02  0.0000000000000E+00  0.2479616379092E-02
 0.7261275424542E-03 -0.4382978478229E-02  0.0000000000000E+00  0.2666038772117E-02
 0.7118239111305E-03 -0.4421792894009E-02  0.0000000000000E+00  0.2855206004152E-02
 0.6873892851254E-03 -0.4455499892556E-02  0.0000000000000E+00  0.3048817788398E-02
 0.6527788048345E-03 -0.4482958630743E-02  0.0000000000000E+00  0.3247705051716E-02
 0.6080319463915E-03 -0.4502870589070E-02  0.0000000000000E+00  0.3451540450484E-02
 0.5534600853059E-03 -0.4513881428819E-02  0.0000000000000E+00  0.3658591094579E-02
 0.4898740444163E-03 -0.4514718845874E-02  0.0000000000000E+00  0.3865561830079E-02
 0.4188125214592E-03 -0.4504349203427E-02  0.0000000000000E+00  0.4067604148692E-02
 0.3427452035074E-03 -0.4482126171797E-02  0.0000000000000E+00  0.4258475741955E-02
 0.2652724488255E-03 -0.4448013671095E-02  0.0000000000000E+00  0.4430887391497E-02
 0.1910980386753E-03 -0.4402835327005E-02  0.0000000000000E+00  0.4576964620229E-02
 0.1257189687490E-03 -0.4348208196115E-02  0.0000000000000E+00  0.4688431817384E-02
 0.7520754238283E-04 -0.4286286757714E-02  0.0000000000000E+00  0.4756483538906E-02
 0.4618552278560E-04 -0.4219629964593E-02  0.0000000000000E+00  0.4771657258050E-02
 0.4593203757483E-04 -0.4151251904940E-02  0.0000000000000E+00  0.4723877290260E-02
 0.8256726894598E-04 -0.4084802538389E-02  0.0000000000000E+00  0.4602752894474E-02
 0.1652629356746E-03 -0.4024813699232E-02  0.0000000000000E+00  0.4398190305888E-02
 0.3044313277188E-03 -0.3976961953737E-02  0.0000000000000E+00  0.4101383289026E-02
 0.5118263769804E-03 -0.3948296492426E-02  0.0000000000000E+00  0.3706263168353E-02
 0.8005397521910E-03 -0.3947326353378E-02  0.0000000000000E+00  0.3211377729125E-02
 0.1184929970636E-02 -0.3983917882414E-02  0.0000000000000E+00  0.2622136352802E-02
 0.1679946183391E-02 -0.4068944161629E-02  0.0000000000000E+00  0.1953857719610E-02
 0.2299283403429E-02 -0.4213201438779E-02  0.0000000000000E+00  0.1235347830586E-02
 0.3052356667038E-02 -0.4425198805291E-02  0.0000000000000E+00  0.5114998553543E-03
 0.3940059797458E-02 -0.4707864469443E-02  0.0000000000000E+00 -0.1564651867010E-03
 0.4949863565163E-02 -0.5054621739287E-02  0.0000000000000E+00 -0.6949559485828E-03
 0.6051602386800E-02 -0.5445964691506E-02  0.0000000000000E+00 -0.1027527581504E-02
 0.7195864365206E-02 -0.5848165038896E-02  0.0000000000000E+00 -0.1089824476344E-02
 0.8316467984106E-02 -0.6215615942387E-02  0.0000000000000E+00 -0.8453753684116E-03
 0.9328260368636E-02 -0.6492058691997E-02  0.0000000000000E+00 -0.3170872357511E-03
 0.7255324784238E-04 -0.3800905422824E-02  0.0000000000000E+00  0.4809557147080E-03
 0.2080620621153E-03 -0.3889440097210E-02  0.0000000000000E+00  0.6905279295147E-03
 0.3263626683047E-03 -0.3971175020277E-02  0.0000000000000E+00  0.9077590199688E-03
 0.4276945888094E-03 -0.4046277729244E-02  0.0000000000000E+00  0.1127169215728E-02
 0.5125141596173E-03 -0.4115057198543E-02  0.0000000000000E+00  0.1344425261579E-02
 0.5815719485685E-03 -0.4178000098896E-02  0.0000000000000E+00  0.1556470986431E-02
 0.6358467608230E-03 -0.4235694789658E-02  0.0000000000000E+00  0.1761664603981E-02
 0.6763964458588E-03 -0.4288696519505E-02  0.0000000000000E+00  0.1959744211004E-02
 0.7042083407291E-03 -0.4337402377121E-02  0.0000000000000E+00  0.2151605790318E-02
 0.7200985264930E-03 -0.4381971899766E-02  0.0000000000000E+00  0.2338967949482E-02
 0.7246695112474E-03 -0.4422294408572E-02  0.0000000000000E+00  0.2524003654612E-02
 0.7183153084648E-03 -0.4457987868536E-02  0.0000000000000E+00  0.2708983450724E-02
 0.7012608740146E-03 -0.4488415628715E-02  0.0000000000000E+00  0.2895943623446E-02
 0.6736301309815E-03 -0.4512715433263E-02  0.0000000000000E+00  0.3086372587879E-02
 0.6355473140668E-03 -0.4529844146269E-02  0.0000000000000E+00  0.3280902742245E-02
 0.5872745798199E-03 -0.4538650172301E-02  0.0000000000000E+00  0.3479040345198E-02
 0.5293914052926E-03 -0.4537977885522E-02  0.0000000000000E+00  0.3678944918000E-02
 0.4630052000492E-03 -0.4526801724678E-02  0.0000000000000E+00  0.3877296687460E-02
 0.3899571408017E-03 -0.4504372855784E-02  0.0000000000000E+00  0.4069313592939E-02
 0.3130033470792E-03 -0.4470355274741E-02  0.0000000000000E+00  0.4248905224204E-02
 0.2359913130817E-03 -0.4425020296252E-02  0.0000000000000E+00  0.4409026201519E-02
 0.1638387648999E-03 -0.4369479607466E-02  0.0000000000000E+00  0.4542092632149E-02
 0.1022635719438E-03 -0.4305649199455E-02  0.0000000000000E+00  0.4640093933293E-02
 0.5759249470466E-04 -0.4236032446115E-02  0.0000000000000E+00  0.4694480780469E-02
 0.3673169793203E-04 -0.4163600511127E-02  0.0000000000000E+00  0.4696115516380E-02
 0.4724586694171E-04 -0.4091830101524E-02  0.0000000000000E+00  0.4635403053720E-02
 0.9749329674602E-04 -0.4024852241191E-02  0.0000000000000E+00  0.4502664655943E-02
 0.1967695915987E-03 -0.3967650582263E-02  0.0000000000000E+00  0.4288810155202E-02
 0.3554079433810E-03 -0.3926257415489E-02  0.0000000000000E+00  0.3986369695212E-02
 0.5847632183560E-03 -0.3907887696750E-02  0.0000000000000E+00  0.3590947388894E-02
 0.8970611173307E-03 -0.3920909649711E-02  0.0000000000000E+00  0.3103034371080E-02
 0.1305153515843E-02 -0.3974608421215E-02  0.0000000000000E+00  0.2530073665328E-02
 0.1821678118061E-02 -0.4078671373802E-02  0.0000000000000E+00  0.1889076170400E-02
 0.2457167329074E-02 -0.4242000010897E-02  0.0000000000000E+00  0.1209411456790E-02
 0.3217237490491E-02 -0.4470610627670E-02  0.0000000000000E+00  0.5343726545577E-03
 0.4098959865866E-02 -0.4764777870390E-02  0.0000000000000E+00 -0.7961534824238E-04
 0.5087006167976E-02 -0.5115922989083E-02  0.0000000000000E+00 -0.5674615842706E-03
 0.6150761481751E-02 -0.5504238267026E-02  0.0000000000000E+00 -0.8643084126578E-03
 0.7243827189176E-02 -0.5898326232612E-02  0.0000000000000E+00 -0.9180152678624E-03
 0.8306420921501E-02 -0.6257439655997E-02  0.0000000000000E+00 -0.7030978666273E-03
 0.9273185147918E-02 -0.6538351264828E-02  0.0000000000000E+00 -0.2389842706868E-03
 0.7141448209597E-04 -0.3909728119417E-02  0.0000000000000E+00  0.5365300947790E-03
 0.2051900171798E-03 -0.3996855887887E-02  0.0000000000000E+00  0.7438922119136E-03
 0.3226141192165E-03 -0.4077366903191E-02  0.0000000000000E+00  0.9589390595548E-03
 0.4237126282859E-03 -0.4151249617953E-02  0.0000000000000E+00  0.1176229674994E-02
 0.5087296261157E-03 -0.4218629862437E-02  0.0000000000000E+00  0.1391524229568E-02
 0.5781815968145E-03 -0.4279794191299E-02  0.0000000000000E+00  0.1601845338444E-02
 0.6328071189899E-03 -0.4335129864420E-02  0.0000000000000E+00  0.1805557512353E-02
 0.6734478308540E-03 -0.4385014811275E-02  0.0000000000000E+00  0.2002318763120E-02
 0.7009230312304E-03 -0.4429709519661E-02  0.0000000000000E+00  0.2192878884368E-02
 0.7159398901500E-03 -0.4469282418341E-02  0.0000000000000E+00  0.2378774044918E-02
 0.7190520567613E-03 -0.4503574255676E-02  0.0000000000000E+00  0.2561981292951E-02
 0.7106616950203E-03 -0.4532192506110E-02  0.0000000000000E+00  0.2744573615934E-02
 0.6910562493927E-03 -0.4554526218398E-02  0.0000000000000E+00  0.2928393232109E-02
 0.6604755455538E-03 -0.4569776951752E-02  0.0000000000000E+00  0.3114743226714E-02
 0.6192127422189E-03 -0.4577008433555E-02  0.0000000000000E+00  0.3304090666960E-02
 0.5677485576504E-03 -0.4575222847838E-02  0.0000000000000E+00  0.3495815267092E-02
 0.5069214854330E-03 -0.4563465829925E-02  0.0000000000000E+00  0.3688012025822E-02
 0.4381223630795E-03 -0.4540956158500E-02  0.0000000000000E+00  0.3877378174536E-02
 0.3634803104780E-03 -0.4507223387157E-02  0.0000000000000E+00  0.4059235471139E-02
 0.2860249173197E-03 -0.4462233033630E-02  0.0000000000000E+00  0.4227678806904E-02
 0.2098416047628E-03 -0.4406555027229E-02  0.0000000000000E+00  0.4375934288419E-02
 0.1400553446498E-03 -0.4341581496665E-02  0.0000000000000E+00  0.4496735854866E-02
 0.8259483406975E-04 -0.4269517471064E-02  0.0000000000000E+00  0.4582377738317E-02
 0.4402142639709E-04 -0.4193197443670E-02  0.0000000000000E+00  0.4624619897554E-02
 0.3149198069946E-04 -0.4115974931824E-02  0.0000000000000E+00  0.4614706301733E-02
 0.5280752406728E-04 -0.4041744773533E-02  0.0000000000000E+00  0.4543570087532E-02
 0.1164992815346E-03 -0.3975057833108E-02  0.0000000000000E+00  0.4402269644785E-02
 0.2319058938617E-03 -0.3921269301432E-02  0.0000000000000E+00  0.4182704866152E-02
 0.4091875849961E-03 -0.3886666514807E-02  0.0000000000000E+00  0.3878667100803E-02
 0.6592024823414E-03 -0.3878512480040E-02  0.0000000000000E+00  0.3487264545068E-02
 0.9932299526734E-03 -0.3904911865585E-02  0.0000000000000E+00  0.3010631985588E-02
 0.1422591863322E-02 -0.3974466876394E-02  0.0000000000000E+00  0.2457782534508E-02
 0.1957712358134E-02 -0.4095649910214E-02  0.0000000000000E+00  0.1846795784841E-02
 0.2606255788023E-02 -0.4275578931341E-02  0.0000000000000E+00  0.1206911469403E-02
 0.3370582592646E-02 -0.4518082035082E-02  0.0000000000000E+00  0.5792678034601E-03
 0.4244704807823E-02 -0.4821271362032E-02  0.0000000000000E+00  0.1539890035410E-04
 0.5211325352243E-02 -0.5175125582704E-02  0.0000000000000E+00 -0.4274165491507E-03
 0.6239966667254E-02 -0.5559924959579E-02  0.0000000000000E+00 -0.6942436142016E-03
 0.7287193748700E-02 -0.5946442288885E-02  0.0000000000000E+00 -0.7430670083303E-03
 0.8299709648601E-02 -0.6298480507369E-02  0.0000000000000E+00 -0.5563667428220E-03
 0.9222980774518E-02 -0.6579660189921E-02  0.0000000000000E+00 -0.1521050859183E-03
 0.7027475417344E-04 -0.4017192513469E-02  0.0000000000000E+00  0.5910359140996E-03
 0.2023164821527E-03 -0.4102916381151E-02  0.0000000000000E+00  0.7962070095485E-03
 0.3188649594357E-03 -0.4182208610032E-02  0.0000000000000E+00  0.1008957827442E-02
 0.4197232301463E-03 -0.4254874938756E-02  0.0000000000000E+00  0.1223894830923E-02
 0.5049201567319E-03 -0.4320860118824E-02  0.0000000000000E+00  0.1436862239116E-02
 0.5747459045313E-03 -0.4380260221001E-02  0.0000000000000E+00  0.1644955177646E-02
 0.6297121934151E-03 -0.4433273896888E-02  0.0000000000000E+00  0.1846552932111E-02
 0.6704570238440E-03 -0.4480112050138E-02  0.0000000000000E+00  0.2041255644987E-02
 0.6976401198208E-03 -0.4520904841405E-02  0.0000000000000E+00  0.2229695245955E-02
 0.7118642280896E-03 -0.4555633055746E-02  0.0000000000000E+00  0.2413253197812E-02
 0.7136363541015E-03 -0.4584091798503E-02  0.0000000000000E+00  0.2593735195792E-02
 0.7033682884954E-03 -0.4605882210946E-02  0.0000000000000E+00  0.2773039172424E-02
 0.6814112085574E-03 -0.4620424989791E-02  0.0000000000000E+00  0.2952836690468E-02
 0.6481212163987E-03 -0.4626992563245E-02  0.0000000000000E+00  0.3134272834017E-02
 0.6039584726856E-03 -0.4624762043243E-02  0.0000000000000E+00  0.3317682202890E-02
 0.5496165950578E-03 -0.4612893435975E-02  0.0000000000000E+00  0.3502355600371E-02
 0.4861831201560E-03 -0.4590633711164E-02  0.0000000000000E+00  0.3686362975036E-02
 0.4153189905266E-03 -0.4557441725497E-02  0.0000000000000E+00  0.3866456270153E-02
 0.3394268463556E-03 -0.4513117636050E-02  0.0000000000000E+00  0.4038095103555E-02
 0.2617965187793E-03 -0.4457918434805E-02  0.0000000000000E+00  0.4195590365774E-02
 0.1867411482633E-03 -0.4392702587514E-02  0.0000000000000E+00  0.4332464848897E-02
 0.1195846469557E-03 -0.4319133506160E-02  0.0000000000000E+00  0.4441794394463E-02
 0.6645492910018E-04 -0.4239693598470E-02  0.0000000000000E+00  0.4516212302804E-02
 0.3412744226777E-04 -0.4157529120069E-02  0.0000000000000E+00  0.4547832491303E-02
 0.2997699373797E-04 -0.4076345121095E-02  0.0000000000000E+00  0.4528326046189E-02
 0.6199479154886E-04 -0.4000410156020E-02  0.0000000000000E+00  0.4449187890911E-02
 0.1388257168690E-03 -0.3934635569539E-02  0.0000000000000E+00  0.4302221347807E-02
 0.2697808075797E-03 -0.3884672964746E-02  0.0000000000000E+00  0.4080282109506E-02
 0.4647701472399E-03 -0.3856974886008E-02  0.0000000000000E+00  0.3778325220224E-02
 0.7340828496744E-03 -0.3858754017173E-02  0.0000000000000E+00  0.3394776165728E-02
 0.1088006456072E-02 -0.3897758710440E-02  0.0000000000000E+00  0.2933111333340E-02
 0.1536350409367E-02 -0.3981846572973E-02  0.0000000000000E+00  0.2403481505345E-02
 0.2087458311045E-02 -0.4118288080338E-02  0.0000000000000E+00  0.1824495550825E-02
 0.2746428516402E-02 -0.4312556215753E-02  0.0000000000000E+00  0.1224715350938E-02
 0.3512859918284E-02 -0.4566584016040E-02  0.0000000000000E+00  0.6427552770829E-03
 0.4378346551463E-02 -0.4876742476932E-02  0.0000000000000E+00  0.1253194528364E-03
 0.5324263544752E-02 -0.5232006985601E-02  0.0000000000000E+00 -0.2774069382983E-03
 0.6320666986996E-02 -0.5613002907545E-02  0.0000000000000E+00 -0.5190068110117E-03
 0.7327078219301E-02 -0.5992595028941E-02  0.0000000000000E+00 -0.5658052636241E-03
 0.8295941493910E-02 -0.6338592226845E-02  0.0000000000000E+00 -0.4060956511469E-03
 0.9180269877109E-02 -0.6619582535758E-02  0.0000000000000E+00 -0.5648327569766E-04
 0.6914744529455E-04 -0.4123416686837E-02  0.0000000000000E+00  0.6444846913884E-03
 0.1994791345331E-03 -0.4207755934221E-02  0.0000000000000E+00  0.8474864940547E-03
 0.3151740517412E-03 -0.4285850507622E-02  0.0000000000000E+00  0.1057830822988E-02
 0.4158068559248E-03 -0.4357321643999E-02  0.0000000000000E+00  0.1270181329988E-02
 0.5011893094793E-03 -0.4421934943938E-02  0.0000000000000E+00  0.1480462095334E-02
 0.5713913915305E-03 -0.4479603871812E-02  0.0000000000000E+00  0.1685837886073E-02
 0.6267089890809E-03 -0.4530349161569E-02  0.0000000000000E+00  0.1884711126701E-02
 0.6675875335231E-03 -0.4574224316170E-02  0.0000000000000E+00  0.2076643967825E-02
 0.6945353554857E-03 -0.4611235941557E-02  0.0000000000000E+00  0.2262176566732E-02
 0.7080556974461E-03 -0.4641281620220E-02  0.0000000000000E+00  0.2442562620887E-02
 0.7086115856982E-03 -0.4664114462473E-02  0.0000000000000E+00  0.2619461758606E-02
 0.6966258966632E-03 -0.4679333422092E-02  0.0000000000000E+00  0.2794620926302E-02
 0.6725141265246E-03 -0.4686395882682E-02  0.0000000000000E+00  0.2969565958382E-02
 0.6367478340828E-03 -0.4684650471360E-02  0.0000000000000E+00  0.3145311910635E-02
 0.5899508529509E-03 -0.4673391952447E-02  0.0000000000000E+00  0.3322093000913E-02
 0.5330228407172E-03 -0.4651939832186E-02  0.0000000000000E+00  0.3499146472365E-02
 0.4672897439923E-03 -0.4619740414123E-02  0.0000000000000E+00  0.3674553388533E-02
 0.3946691741349E-03 -0.4576486777104E-02  0.0000000000000E+00  0.3845154617300E-02
 0.3178229296513E-03 -0.4522240659462E-02  0.0000000000000E+00  0.4006578624298E-02
 0.2402876002746E-03 -0.4457539332661E-02  0.0000000000000E+00  0.4153380328223E-02
 0.1665930265961E-03 -0.4383518536584E-02  0.0000000000000E+00  0.4279401845821E-02
 0.1022525154049E-03 -0.4302102464816E-02  0.0000000000000E+00  0.4378081750452E-02
 0.5358049377510E-04 -0.4216037778324E-02  0.0000000000000E+00  0.4442421307575E-02
 0.2754587592227E-04 -0.4128761982071E-02  0.0000000000000E+00  0.4464925022902E-02
 0.3171019064346E-04 -0.4044300499945E-02  0.0000000000000E+00  0.4437726045402E-02
 0.7421240190963E-04 -0.3967252188525E-02  0.0000000000000E+00  0.4352901795181E-02
 0.1637584851706E-03 -0.3902832645740E-02  0.0000000000000E+00  0.4202993239087E-02
 0.3095721337723E-03 -0.3856921366475E-02  0.0000000000000E+00  0.3981760902551E-02
 0.5212527512012E-03 -0.3836058219390E-02  0.0000000000000E+00  0.3685210237577E-02
 0.8084716700688E-03 -0.3847326327863E-02  0.0000000000000E+00  0.3312888332092E-02
 0.1180508858662E-02 -0.3898052045613E-02  0.0000000000000E+00  0.2869319316496E-02
 0.1645710357889E-02 -0.3995319654600E-02  0.0000000000000E+00  0.2365398239776E-02
 0.2210494099933E-02 -0.4145241464476E-02  0.0000000000000E+00  0.1819806091747E-02
 0.2877688626685E-02 -0.4351797800766E-02  0.0000000000000E+00  0.1260004735446E-02
 0.3644572675667E-02 -0.4615299222783E-02  0.0000000000000E+00  0.7218595003014E-03
 0.4500853922872E-02 -0.4930732397002E-02  0.0000000000000E+00  0.2474103696478E-03
 0.5427070142458E-02 -0.5286410137867E-02  0.0000000000000E+00 -0.1195481937954E-03
 0.6394084166941E-02 -0.5663483870271E-02  0.0000000000000E+00 -0.3398995636073E-03
 0.7364266683141E-02 -0.6036825067135E-02  0.0000000000000E+00 -0.3867513948903E-03
 0.8295000948459E-02 -0.6377727326779E-02  0.0000000000000E+00 -0.2525484483234E-03
 0.9144816008246E-02 -0.6658663717492E-02  0.0000000000000E+00  0.4752725923990E-04
 0.6804552941366E-04 -0.4228517292798E-02  0.0000000000000E+00  0.6968981293537E-03
 0.1967148972408E-03 -0.4311507079813E-02  0.0000000000000E+00  0.8977546650889E-03
 0.3115994701299E-03 -0.4388440508175E-02  0.0000000000000E+00  0.1105584385103E-02
 0.4120425424784E-03 -0.4458753999902E-02  0.0000000000000E+00  0.1315118181287E-02
 0.4976378616324E-03 -0.4522036008797E-02  0.0000000000000E+00  0.1522359613553E-02
 0.5682402101092E-03 -0.4578023981108E-02  0.0000000000000E+00  0.1724543199271E-02
 0.6239387977573E-03 -0.4626569969503E-02  0.0000000000000E+00  0.1920103257200E-02
 0.6649961949884E-03 -0.4667579002622E-02  0.0000000000000E+00  0.2108582366265E-02
 0.6917770691959E-03 -0.4700941094533E-02  0.0000000000000E+00  0.2290453330681E-02
 0.7046902328878E-03 -0.4726475682941E-02  0.0000000000000E+00  0.2466868249020E-02
 0.7041576324375E-03 -0.4743897990784E-02  0.0000000000000E+00  0.2639366270239E-02
 0.6906145980068E-03 -0.4752808821148E-02  0.0000000000000E+00  0.2809568335952E-02
 0.6645409536528E-03 -0.4752706443965E-02  0.0000000000000E+00  0.2978880294385E-02
 0.6265219143896E-03 -0.4743019511575E-02  0.0000000000000E+00  0.3148215200320E-02
 0.5773405393905E-03 -0.4723162787727E-02  0.0000000000000E+00  0.3317737850681E-02
 0.5180947462124E-03 -0.4692614965515E-02  0.0000000000000E+00  0.3486664965789E-02
 0.4503377728066E-03 -0.4651017932830E-02  0.0000000000000E+00  0.3653121816397E-02
 0.3762303889786E-03 -0.4598291756693E-02  0.0000000000000E+00  0.3814069230961E-02
 0.2986792250899E-03 -0.4534749620250E-02  0.0000000000000E+00  0.3965332658183E-02
 0.2214539342577E-03 -0.4461196840220E-02  0.0000000000000E+00  0.4101736434858E-02
 0.1492894153940E-03 -0.4379034124570E-02  0.0000000000000E+00  0.4217462027244E-02
 0.8787791785295E-04 -0.4290434811248E-02  0.0000000000000E+00  0.4306328345083E-02
 0.4370700639322E-04 -0.4198395528892E-02  0.0000000000000E+00  0.4361728414233E-02
 0.2391875799351E-04 -0.4106623781725E-02  0.0000000000000E+00  0.4376586474848E-02
 0.3623219094626E-04 -0.4019434442880E-02  0.0000000000000E+00  0.4343523057878E-02
 0.8889585256974E-04 -0.3941715033925E-02  0.0000000000000E+00  0.4255207410627E-02
 0.1906314615734E-03 -0.3878933272951E-02  0.0000000000000E+00  0.4104898210841E-02
 0.3505267351506E-03 -0.3837135568587E-02  0.0000000000000E+00  0.3887197119301E-02
 0.5778258382431E-03 -0.3822883586594E-02  0.0000000000000E+00  0.3599036816384E-02
 0.8815546706055E-03 -0.3843069826042E-02  0.0000000000000E+00  0.3240888903022E-02
 0.1269994527854E-02 -0.3904556655202E-02  0.0000000000000E+00  0.2818047034536E-02
 0.1750100237975E-02 -0.4013652583318E-02  0.0000000000000E+00  0.2341799892815E-02
 0.2326530416237E-02 -0.4175376692100E-02  0.0000000000000E+00  0.1830520292779E-02
 0.3000125429130E-02 -0.4392372957860E-02  0.0000000000000E+00  0.1310253752153E-02
 0.3766231612810E-02 -0.4663576858106E-02  0.0000000000000E+00  0.8140007195625E-03
 0.4613106075149E-02 -0.4982888907052E-02  0.0000000000000E+00  0.3793682458066E-03
 0.5520821634217E-02 -0.5338222394419E-02  0.0000000000000E+00  0.4442820969558E-04
 0.6461215278298E-02 -0.5711374843237E-02  0.0000000000000E+00 -0.1579307929988E-03
 0.7399324299106E-02 -0.6079104272169E-02  0.0000000000000E+00 -0.2062707736158E-03
 0.8296684953273E-02 -0.6415687470944E-02  0.0000000000000E+00 -0.9594903557480E-04
 0.9116173943505E-02 -0.6696713973001E-02  0.0000000000000E+00  0.1590463214039E-03
 0.6698156496884E-04 -0.4332609202206E-02  0.0000000000000E+00  0.7483076752211E-03
 0.1940598032677E-03 -0.4414300085631E-02  0.0000000000000E+00  0.9470449348812E-03
 0.3081982328526E-03 -0.4490123697877E-02  0.0000000000000E+00  0.1152254888413E-02
 0.4085077088207E-03 -0.4559332437250E-02  0.0000000000000E+00  0.1358745557183E-02
 0.4943638289205E-03 -0.4621339761546E-02  0.0000000000000E+00  0.1562602332635E-02
 0.5654103479913E-03 -0.4675712746657E-02  0.0000000000000E+00  0.1761132128514E-02
 0.6215374518807E-03 -0.4722142820542E-02  0.0000000000000E+00  0.1952810613732E-02
 0.6628333464023E-03 -0.4760394784466E-02  0.0000000000000E+00  0.2137178388623E-02
 0.6895262286767E-03 -0.4790249013939E-02  0.0000000000000E+00  0.2314664103029E-02
 0.7019355237045E-03 -0.4811452213244E-02  0.0000000000000E+00  0.2486343692124E-02
 0.7004450783613E-03 -0.4823686088439E-02  0.0000000000000E+00  0.2653661391505E-02
 0.6855039072954E-03 -0.4826557151492E-02  0.0000000000000E+00  0.2818137496319E-02
 0.6576556741319E-03 -0.4819607991929E-02  0.0000000000000E+00  0.2981083843664E-02
 0.6175966542591E-03 -0.4802349809926E-02  0.0000000000000E+00  0.3143339085476E-02
 0.5662638062014E-03 -0.4774318082353E-02  0.0000000000000E+00  0.3305028161710E-02
 0.5049448272002E-03 -0.4735148696510E-02  0.0000000000000E+00  0.3465377978742E-02
 0.4354087762423E-03 -0.4684673891973E-02  0.0000000000000E+00  0.3622588220698E-02
 0.3600460297643E-03 -0.4623032292597E-02  0.0000000000000E+00  0.3773767776226E-02
 0.2819937537874E-03 -0.4550777393404E-02  0.0000000000000E+00  0.3914964510635E-02
 0.2052408168553E-03 -0.4468969398927E-02  0.0000000000000E+00  0.4041294968375E-02
 0.1347150929747E-03 -0.4379260786145E-02  0.0000000000000E+00  0.4147297377037E-02
 0.7627671365515E-04 -0.4284061474824E-02  0.0000000000000E+00  0.4227185448322E-02
 0.3657270591870E-04 -0.4186602912702E-02  0.0000000000000E+00  0.4274762988225E-02
 0.2289871728395E-04 -0.4090841007259E-02  0.0000000000000E+00  0.4283396290877E-02
 0.4310439757707E-04 -0.4001349890079E-02  0.0000000000000E+00  0.4246210020765E-02
 0.1055143082609E-03 -0.3923266504883E-02  0.0000000000000E+00  0.4156464837495E-02
 0.2188279969359E-03 -0.3862263321820E-02  0.0000000000000E+00  0.4008107074349E-02
 0.3919595135054E-03 -0.3824500722673E-02  0.0000000000000E+00  0.3796506860510E-02
 0.6337681437845E-03 -0.3816508856634E-02  0.0000000000000E+00  0.3519396129142E-02
 0.9526251944136E-03 -0.3844945250751E-02  0.0000000000000E+00  0.3177978351084E-02
 0.1355842057150E-02 -0.3916186496929E-02  0.0000000000000E+00  0.2778058994345E-02
 0.1849070742193E-02 -0.4035783248659E-02  0.0000000000000E+00  0.2331013261971E-02
 0.2435380597899E-02 -0.4207739887822E-02  0.0000000000000E+00  0.1854594860606E-02
 0.3113885641380E-02 -0.4433517603696E-02  0.0000000000000E+00  0.1373203725587E-02
 0.3878335845145E-02 -0.4710897090039E-02  0.0000000000000E+00  0.9169405660234E-03
 0.4715891376225E-02 -0.5032939046539E-02  0.0000000000000E+00  0.5192474812308E-03
 0.5606436191078E-02 -0.5387356999593E-02  0.0000000000000E+00  0.2130986776369E-03
 0.6522864796412E-02 -0.5756660902100E-02  0.0000000000000E+00  0.2609361598516E-04
 0.7432644090061E-02 -0.6119341086755E-02  0.0000000000000E+00 -0.2468413558865E-04
 0.8300804175001E-02 -0.6452203014549E-02  0.0000000000000E+00  0.6333898651981E-04
 0.9093807553643E-02 -0.6733421065358E-02  0.0000000000000E+00  0.2771973006431E-03
 0.6596768392801E-04 -0.4435805217432E-02  0.0000000000000E+00  0.7987540878767E-03
 0.1915489050630E-03 -0.4516262642438E-02  0.0000000000000E+00  0.9953997229830E-03
 0.3050261102524E-03 -0.4591042052779E-02  0.0000000000000E+00  0.1197888089491E-02
 0.4052780002911E-03 -0.4659213411078E-02  0.0000000000000E+00  0.1401113800541E-02
 0.4914624660286E-03 -0.4720017465280E-02  0.0000000000000E+00  0.1601248383462E-02
 0.5630157791920E-03 -0.4772855868120E-02  0.0000000000000E+00  0.1795675923878E-02
 0.6196355341266E-03 -0.4817266521083E-02  0.0000000000000E+00  0.1982923767531E-02
 0.6612430013727E-03 -0.4852881612311E-02  0.0000000000000E+00  0.2162547753399E-02
 0.6879365353675E-03 -0.4879378702074E-02  0.0000000000000E+00  0.2334954708346E-02
 0.6999510683311E-03 -0.4896437343434E-02  0.0000000000000E+00  0.2501169158948E-02
 0.6976353087475E-03 -0.4903710217733E-02  0.0000000000000E+00  0.2662565721254E-02
 0.6814530287613E-03 -0.4900813187253E-02  0.0000000000000E+00  0.2820589342406E-02
 0.6520108245094E-03 -0.4887335904019E-02  0.0000000000000E+00  0.2976483575158E-02
 0.6101128010565E-03 -0.4862873514470E-02  0.0000000000000E+00  0.3131039441346E-02
 0.5568438090291E-03 -0.4827081535913E-02  0.0000000000000E+00  0.3284369973286E-02
 0.4936723199740E-03 -0.4779749638009E-02  0.0000000000000E+00  0.3435740635425E-02
 0.4225714957806E-03 -0.4720893915756E-02  0.0000000000000E+00  0.3583452991548E-02
 0.3461477549917E-03 -0.4650862075654E-02  0.0000000000000E+00  0.3724789337130E-02
 0.2677545420000E-03 -0.4570435907436E-02  0.0000000000000E+00  0.3856042805801E-02
 0.1915860079643E-03 -0.4480916541989E-02  0.0000000000000E+00  0.3972642393585E-02
 0.1227506442208E-03 -0.4384194284619E-02  0.0000000000000E+00  0.4069497939967E-02
 0.6726505552460E-04 -0.4282902351949E-02  0.0000000000000E+00  0.4141229431167E-02
 0.3192207048541E-04 -0.4180491275665E-02  0.0000000000000E+00  0.4182066083032E-02
 0.2415234337846E-04 -0.4081143772601E-02  0.0000000000000E+00  0.4185832463484E-02
 0.5191194964371E-04 -0.3989664188495E-02  0.0000000000000E+00  0.4146166700961E-02
 0.1235726918949E-03 -0.3911402497228E-02  0.0000000000000E+00  0.4056912413717E-02
 0.2477814607121E-03 -0.3852193727023E-02  0.0000000000000E+00  0.3912665895247E-02
 0.4332514265777E-03 -0.3818267463239E-02  0.0000000000000E+00  0.3709487538784E-02
 0.6884409506605E-03 -0.3816080696896E-02  0.0000000000000E+00  0.3445780027976E-02
 0.1021073419431E-02 -0.3852026618382E-02  0.0000000000000E+00  0.3123294871201E-02
 0.1437534660211E-02 -0.3931991069082E-02  0.0000000000000E+00  0.2748114948455E-02
 0.1942272797078E-02 -0.4060800049894E-02  0.0000000000000E+00  0.2331437048602E-02
 0.2536936043245E-02 -0.4241529505208E-02  0.0000000000000E+00  0.1890145771920E-02
 0.3219151293302E-02 -0.4474604217558E-02  0.0000000000000E+00  0.1446836374005E-02
 0.3981360078207E-02 -0.4756843268358E-02  0.0000000000000E+00  0.1028732968509E-02
 0.4809909011568E-02 -0.5080668520519E-02  0.0000000000000E+00  0.6653971362332E-03
 0.5684691277474E-02 -0.5433740776066E-02  0.0000000000000E+00  0.3852797265698E-03
 0.6579676789996E-02 -0.5799303827130E-02  0.0000000000000E+00  0.2115021268140E-03
 0.7464509398951E-02 -0.6157407474065E-02  0.0000000000000E+00  0.1576725014785E-03
 0.8307177050844E-02 -0.6487002049752E-02  0.0000000000000E+00  0.2248863626638E-03
 0.9077173584899E-02 -0.6768446791329E-02  0.0000000000000E+00  0.4011217664370E-03
 0.6501558916238E-04 -0.4538215850871E-02  0.0000000000000E+00  0.8482870122866E-03
 0.1892162176762E-03 -0.4617519630178E-02  0.0000000000000E+00  0.1042870057079E-02
 0.3021374943638E-03 -0.4691334216261E-02  0.0000000000000E+00  0.1242538548520E-02
 0.4024271770074E-03 -0.4758549267585E-02  0.0000000000000E+00  0.1442282563493E-02
 0.4890262692811E-03 -0.4818235192110E-02  0.0000000000000E+00  0.1638365461005E-02
 0.5611665885051E-03 -0.4869632622146E-02  0.0000000000000E+00  0.1828255057074E-02
 0.6183585615726E-03 -0.4912132248982E-02  0.0000000000000E+00  0.2010541654106E-02
 0.6603630216952E-03 -0.4945240691945E-02  0.0000000000000E+00  0.2184813492724E-02
 0.6871545552410E-03 -0.4968539327650E-02  0.0000000000000E+00  0.2351477313284E-02
 0.6988882890272E-03 -0.4981646193811E-02  0.0000000000000E+00  0.2511530354726E-02
 0.6958806794763E-03 -0.4984189468654E-02  0.0000000000000E+00  0.2666302438306E-02
 0.6786111735854E-03 -0.4975797772243E-02  0.0000000000000E+00  0.2817188045283E-02
 0.6477480515628E-03 -0.4956109949326E-02  0.0000000000000E+00  0.2965387525672E-02
 0.6041995213033E-03 -0.4924805527432E-02  0.0000000000000E+00  0.3111669893057E-02
 0.5491917998685E-03 -0.4881658216819E-02  0.0000000000000E+00  0.3256162430604E-02
 0.4843647416882E-03 -0.4826606856198E-02  0.0000000000000E+00  0.3398195188792E-02
 0.4118837263709E-03 -0.4759843819216E-02  0.0000000000000E+00  0.3536196450573E-02
 0.3345576627426E-03 -0.4681915511777E-02  0.0000000000000E+00  0.3667644653800E-02
 0.2559420718331E-03 -0.4593819223075E-02  0.0000000000000E+00  0.3789098572312E-02
 0.1804224381787E-03 -0.4497082361670E-02  0.0000000000000E+00  0.3896317425307E-02
 0.1132753857599E-03 -0.4393818523701E-02  0.0000000000000E+00  0.3984595048545E-02
 0.6066245498804E-04 -0.4286870402836E-02  0.0000000000000E+00  0.4048966377215E-02
 0.2950888794701E-04 -0.4179891539486E-02  0.0000000000000E+00  0.4084096707007E-02
 0.2736305289866E-04 -0.4077270162716E-02  0.0000000000000E+00  0.4084279770326E-02
 0.6226607363358E-04 -0.3984013254511E-02  0.0000000000000E+00  0.4043670255485E-02
 0.1426130654145E-03 -0.3905650580523E-02  0.0000000000000E+00  0.3956679953724E-02
 0.2769750035481E-03 -0.3848142888569E-02  0.0000000000000E+00  0.3818512136628E-02
 0.4738467746552E-03 -0.3817752217388E-02  0.0000000000000E+00  0.3625836757752E-02
 0.7412819072923E-03 -0.3820831618236E-02  0.0000000000000E+00  0.3377601686680E-02
 0.1086375822919E-02 -0.3863493721438E-02  0.0000000000000E+00  0.3075934534516E-02
 0.1514644961027E-02 -0.3951142347670E-02  0.0000000000000E+00  0.2726985721867E-02
 0.2029438554582E-02 -0.4087923109892E-02  0.0000000000000E+00  0.2341548157048E-02
 0.2631146034760E-02 -0.4276073131333E-02  0.0000000000000E+00  0.1935439669680E-02
 0.3316122835979E-02 -0.4515117292494E-02  0.0000000000000E+00  0.1529346967391E-02
 0.4075746209773E-02 -0.4801080246673E-02  0.0000000000000E+00  0.1147680434096E-02
 0.4895773120479E-02 -0.5125906583834E-02  0.0000000000000E+00  0.8164069187835E-03
 0.5756241338132E-02 -0.5477307785886E-02  0.0000000000000E+00  0.5599725849798E-03
 0.6632168217254E-02 -0.5839248588769E-02  0.0000000000000E+00  0.3977091929828E-03
 0.7495127674171E-02 -0.6193163732169E-02  0.0000000000000E+00  0.3404445028453E-03
 0.8315626846621E-02 -0.6519828372110E-02  0.0000000000000E+00  0.3882303391085E-03
 0.9065749070565E-02 -0.6801464684078E-02  0.0000000000000E+00  0.5299794242498E-03
 0.6413655395303E-04 -0.4639949161173E-02  0.0000000000000E+00  0.8969645742842E-03
 0.1870946855886E-03 -0.4718192950290E-02  0.0000000000000E+00  0.1089515189732E-02
 0.2995853153747E-03 -0.4791135338352E-02  0.0000000000000E+00  0.1286269108468E-02
 0.4000270429966E-03 -0.4857488142420E-02  0.0000000000000E+00  0.1482320048278E-02
 0.4871449909211E-03 -0.4916153812527E-02  0.0000000000000E+00  0.1674029887829E-02
 0.5599690840085E-03 -0.4966215915311E-02  0.0000000000000E+00  0.1858958238367E-02
 0.6178271548540E-03 -0.5006923605188E-02  0.0000000000000E+00  0.2035770626455E-02
 0.6603252908340E-03 -0.5037664478905E-02  0.0000000000000E+00  0.2204105033141E-02
 0.6873198732070E-03 -0.5057930151482E-02  0.0000000000000E+00  0.2364389462074E-02
 0.6988906881293E-03 -0.5067282770780E-02  0.0000000000000E+00  0.2517617390454E-02
 0.6953247336381E-03 -0.5065330512603E-02  0.0000000000000E+00  0.2665098042647E-02
 0.6771179148678E-03 -0.5051717934632E-02  0.0000000000000E+00  0.2808199607298E-02
 0.6449986825956E-03 -0.5026134670900E-02  0.0000000000000E+00  0.2948103339610E-02
 0.5999752445358E-03 -0.4988344244664E-02  0.0000000000000E+00  0.3085580446670E-02
 0.5434082734302E-03 -0.4938235717941E-02  0.0000000000000E+00  0.3220796684574E-02
 0.4770993390986E-03 -0.4875891466289E-02  0.0000000000000E+00  0.3353170365026E-02
 0.4033940492990E-03 -0.4801671638468E-02  0.0000000000000E+00  0.3481278789534E-02
 0.3252902860084E-03 -0.4716310164305E-02  0.0000000000000E+00  0.3602816775040E-02
 0.2465315206573E-03 -0.4621006358102E-02  0.0000000000000E+00  0.3714626720132E-02
 0.1716806688960E-03 -0.4517498680547E-02  0.0000000000000E+00  0.3812813457854E-02
 0.1061700010966E-03 -0.4408109017339E-02  0.0000000000000E+00  0.3893064868686E-02
 0.5629450651459E-04 -0.4295875351441E-02  0.0000000000000E+00  0.3950836945539E-02
 0.2909892614247E-04 -0.4184638027442E-02  0.0000000000000E+00  0.3981238234263E-02
 0.3223348948694E-04 -0.4078970022397E-02  0.0000000000000E+00  0.3979037983071E-02
 0.7380590029460E-04 -0.3984055069570E-02  0.0000000000000E+00  0.3938905487908E-02
 0.1622154240185E-03 -0.3905572803319E-02  0.0000000000000E+00  0.3855801246300E-02
 0.3059407377589E-03 -0.3849578198498E-02  0.0000000000000E+00  0.3725489406368E-02
 0.5132500378132E-03 -0.3822336650226E-02  0.0000000000000E+00  0.3545168898301E-02
 0.7917987540978E-03 -0.3830076371292E-02  0.0000000000000E+00  0.3314212874765E-02
 0.1148085228206E-02 -0.3878624519537E-02  0.0000000000000E+00  0.3034967042405E-02
 0.1586821380093E-02 -0.3972922563728E-02  0.0000000000000E+00  0.2713464069372E-02
 0.2110365195985E-02 -0.4116487638832E-02  0.0000000000000E+00  0.2359903483212E-02
 0.2718001440628E-02 -0.4310807860489E-02  0.0000000000000E+00  0.1988882718101E-02
 0.3405006476225E-02 -0.4554633433788E-02  0.0000000000000E+00  0.1619118478309E-02
 0.4161898392212E-02 -0.4843337616795E-02  0.0000000000000E+00  0.1272295500113E-02
 0.4974018513580E-02 -0.5168515431349E-02  0.0000000000000E+00  0.9710620069143E-03
 0.5821635299323E-02 -0.5517997106133E-02  0.0000000000000E+00  0.7363197453079E-03
 0.6680755489821E-02 -0.5876431742469E-02  0.0000000000000E+00  0.5841878410256E-03
 0.7524650845226E-02 -0.6226471826315E-02  0.0000000000000E+00  0.5232638298978E-03
 0.8325980845205E-02 -0.6550447809760E-02  0.0000000000000E+00  0.5528893885682E-03
 0.9059045678089E-02 -0.6832172952353E-02  0.0000000000000E+00  0.6629400903629E-03
 0.6334142618515E-04 -0.4741110639623E-02  0.0000000000000E+00  0.9448529912712E-03
 0.1852161700099E-03 -0.4818401412312E-02  0.0000000000000E+00  0.1135402227866E-02
 0.2974209983688E-03 -0.4890576967476E-02  0.0000000000000E+00  0.1329150411386E-02
 0.3981474150463E-03 -0.4956173891572E-02  0.0000000000000E+00  0.1521302316343E-02
 0.4859056733430E-03 -0.5013928989762E-02  0.0000000000000E+00  0.1708325742152E-02
 0.5595259100008E-03 -0.5062772325210E-02  0.0000000000000E+00  0.1887881458561E-02
 0.6181572017116E-03 -0.5101816655756E-02  0.0000000000000E+00  0.2058723486751E-02
 0.6612558897252E-03 -0.5130336680810E-02  0.0000000000000E+00  0.2220557231154E-02
 0.6885652639317E-03 -0.5147740482187E-02  0.0000000000000E+00  0.2373853081079E-02
 0.7000940317587E-03 -0.5153539911953E-02  0.0000000000000E+00  0.2519623711919E-02
 0.6961024471045E-03 -0.5147327608336E-02  0.0000000000000E+00  0.2659181192125E-02
 0.6771035605885E-03 -0.5128767044244E-02  0.0000000000000E+00  0.2793890639178E-02
 0.6438842903726E-03 -0.5097599785788E-02  0.0000000000000E+00  0.2924937073366E-02
 0.5975484688814E-03 -0.5053672274615E-02  0.0000000000000E+00  0.3053116451657E-02
 0.5395840376784E-03 -0.4996985244538E-02  0.0000000000000E+00  0.3178655165635E-02
 0.4719444247840E-03 -0.4927758110267E-02  0.0000000000000E+00  0.3301081099102E-02
 0.3971434200923E-03 -0.4846509495110E-02  0.0000000000000E+00  0.3419140397409E-02
 0.3183544142627E-03 -0.4754148987232E-02  0.0000000000000E+00  0.3530762085770E-02
 0.2394947977812E-03 -0.4652063863321E-02  0.0000000000000E+00  0.3633087872710E-02
 0.1652911164841E-03 -0.4542187934496E-02  0.0000000000000E+00  0.3722581321778E-02
 0.1013189006409E-03 -0.4427036028605E-02  0.0000000000000E+00  0.3795332227615E-02
 0.5399529200303E-04 -0.4309827004923E-02  0.0000000000000E+00  0.3847221442202E-02
 0.3047223535890E-04 -0.4194571850115E-02  0.0000000000000E+00  0.3873804906867E-02
 0.3848750727811E-04 -0.4086008233530E-02  0.0000000000000E+00  0.3870329983880E-02
 0.8619982364544E-04 -0.3989472584513E-02  0.0000000000000E+00  0.3831974728979E-02
 0.1819980178557E-03 -0.3910767834895E-02  0.0000000000000E+00  0.3754225752176E-02
 0.3342584952156E-03 -0.3856016875364E-02  0.0000000000000E+00  0.3633360804986E-02
 0.5510224641383E-03 -0.3831466494326E-02  0.0000000000000E+00  0.3467029536100E-02
 0.8395631688736E-03 -0.3843207990897E-02  0.0000000000000E+00  0.3254918211491E-02
 0.1205821586003E-02 -0.3896787711809E-02  0.0000000000000E+00  0.2999447742449E-02
 0.1653776101598E-02 -0.3996712998421E-02  0.0000000000000E+00  0.2706371563669E-02
 0.2184901247396E-02 -0.4145929378694E-02  0.0000000000000E+00  0.2385138408412E-02
 0.2797521630970E-02 -0.4345263808005E-02  0.0000000000000E+00  0.2049008043013E-02
 0.3486004803354E-02 -0.4592805299879E-02  0.0000000000000E+00  0.1714697284699E-02
 0.4240180542000E-02 -0.4883396852003E-02  0.0000000000000E+00  0.1401267134903E-02
 0.5045107225048E-02 -0.5208382962167E-02  0.0000000000000E+00  0.1128305772104E-02
 0.5881332220228E-02 -0.5555752854214E-02  0.0000000000000E+00  0.9135725674737E-03
 0.6725774711823E-02 -0.5910788110640E-02  0.0000000000000E+00  0.7704535436845E-03
 0.7553188827014E-02 -0.6257202461675E-02  0.0000000000000E+00  0.7057539512954E-03
 0.8338072064839E-02 -0.6578650488583E-02  0.0000000000000E+00  0.7183687823604E-03
 0.9056617162210E-02 -0.6860300288282E-02  0.0000000000000E+00  0.7991787801523E-03
 0.6264063588677E-04 -0.4841803141684E-02  0.0000000000000E+00  0.9920262008566E-03
 0.1836114536541E-03 -0.4918260671795E-02  0.0000000000000E+00  0.1180605777170E-02
 0.2956944547888E-03 -0.4989786995522E-02  0.0000000000000E+00  0.1371260444758E-02
 0.3968561290742E-03 -0.5054746064857E-02  0.0000000000000E+00  0.1559312648930E-02
 0.4853927077753E-03 -0.5111711198075E-02  0.0000000000000E+00  0.1741344036452E-02
 0.5599361684490E-03 -0.5159462152101E-02  0.0000000000000E+00  0.1915127054440E-02
 0.6194600212089E-03 -0.5196979983995E-02  0.0000000000000E+00  0.2079518507858E-02
 0.6632752754002E-03 -0.5223432280896E-02  0.0000000000000E+00  0.2234309381836E-02
 0.6910168726344E-03 -0.5238149668372E-02  0.0000000000000E+00  0.2380033469513E-02
 0.7026265487173E-03 -0.5240599279205E-02  0.0000000000000E+00  0.2517745057794E-02
 0.6983404871415E-03 -0.5230362657719E-02  0.0000000000000E+00  0.2648781632023E-02
 0.6786895274286E-03 -0.5207125008957E-02  0.0000000000000E+00  0.2774527302276E-02
 0.6445172367377E-03 -0.5170680600385E-02  0.0000000000000E+00  0.2896192233010E-02
 0.5970185155546E-03 -0.5120957137499E-02  0.0000000000000E+00  0.3014617850133E-02
 0.5378012000261E-03 -0.5058062639768E-02  0.0000000000000E+00  0.3130111176780E-02
 0.4689605964920E-03 -0.4982346326845E-02  0.0000000000000E+00  0.3242328600539E-02
 0.3931666101175E-03 -0.4894475308656E-02  0.0000000000000E+00  0.3350202512009E-02
 0.3137547417245E-03 -0.4795522365098E-02  0.0000000000000E+00  0.3451911643008E-02
 0.2348023803881E-03 -0.4687048165697E-02  0.0000000000000E+00  0.3544910484121E-02
 0.1611860452626E-03 -0.4571165783120E-02  0.0000000000000E+00  0.3626032291057E-02
 0.9861231655700E-04 -0.4450567393905E-02  0.0000000000000E+00  0.3691774638254E-02
 0.5360948411620E-04 -0.4328638212100E-02  0.0000000000000E+00  0.3738445003887E-02
 0.3342511474047E-04 -0.4209543878522E-02  0.0000000000000E+00  0.3762048320338E-02
 0.4587178946702E-04 -0.4098167524071E-02  0.0000000000000E+00  0.3758309672447E-02
 0.9914648205359E-04 -0.3999976102468E-02  0.0000000000000E+00  0.3722907224942E-02
 0.2016173179761E-03 -0.3920872552250E-02  0.0000000000000E+00  0.3651829408590E-02
 0.3615543201611E-03 -0.3867026264056E-02  0.0000000000000E+00  0.3541820847515E-02
 0.5867785984955E-03 -0.3844649969358E-02  0.0000000000000E+00  0.3390907793549E-02
 0.8842049216094E-03 -0.3859693722077E-02  0.0000000000000E+00  0.3198986707337E-02
 0.1259263620828E-02 -0.3917435699287E-02  0.0000000000000E+00  0.2968426476082E-02
 0.1715274606792E-02 -0.4021983894743E-02  0.0000000000000E+00  0.2704562338706E-02
 0.2252935161432E-02 -0.4175772018311E-02  0.0000000000000E+00  0.2415962954533E-02
 0.2869744102510E-02 -0.4379050373340E-02  0.0000000000000E+00  0.2114462581145E-02
 0.3559310009344E-02 -0.4629348730172E-02  0.0000000000000E+00  0.1814770802057E-02
 0.4310915594096E-02 -0.4921081536269E-02  0.0000000000000E+00  0.1533431806239E-02
 0.5109435208253E-02 -0.5245417953936E-02  0.0000000000000E+00  0.1287209597527E-02
 0.5935714631576E-02 -0.5590525038715E-02  0.0000000000000E+00  0.1091067395964E-02
 0.6767497097138E-02 -0.5942255543695E-02  0.0000000000000E+00  0.9560541452065E-03
 0.7580819492330E-02 -0.6285238990488E-02  0.0000000000000E+00  0.8875330503459E-03
 0.8351742140462E-02 -0.6604252007998E-02  0.0000000000000E+00  0.8841632005331E-03
 0.9058062983015E-02 -0.6885608663041E-02  0.0000000000000E+00  0.9378736773358E-03
 0.6204420529263E-04 -0.4942126859173E-02  0.0000000000000E+00  0.1038565508892E-02
 0.1823102613004E-03 -0.5017883212249E-02  0.0000000000000E+00  0.1225207600300E-02
 0.2944541050313E-03 -0.5088889648025E-02  0.0000000000000E+00  0.1412684109159E-02
 0.3962190824793E-03 -0.5153339915998E-02  0.0000000000000E+00  0.1596440941140E-02
 0.4856879204038E-03 -0.5209645761656E-02  0.0000000000000E+00  0.1773181927800E-02
 0.5612955545887E-03 -0.5256439476989E-02  0.0000000000000E+00  0.1940802786141E-02
 0.6218425328925E-03 -0.5292574743459E-02  0.0000000000000E+00  0.2098278442628E-02
 0.6664984621573E-03 -0.5317117565490E-02  0.0000000000000E+00  0.2245504204610E-02
 0.6947944000169E-03 -0.5329327101721E-02  0.0000000000000E+00  0.2383098281139E-02
 0.7066091340767E-03 -0.5328631367376E-02  0.0000000000000E+00  0.2512178447510E-02
 0.7021574709318E-03 -0.5314605274760E-02  0.0000000000000E+00  0.2634129211048E-02
 0.6819887020633E-03 -0.5286958472170E-02  0.0000000000000E+00  0.2750374401107E-02
 0.6470011835664E-03 -0.5245538404332E-02  0.0000000000000E+00  0.2862169022494E-02
 0.5984762248027E-03 -0.5190351911698E-02  0.0000000000000E+00  0.2970418684395E-02
 0.5381340665471E-03 -0.5121609320453E-02  0.0000000000000E+00  0.3075528775346E-02
 0.4682018416534E-03 -0.5039781792742E-02  0.0000000000000E+00  0.3177300721004E-02
 0.3914935076321E-03 -0.4945674342371E-02  0.0000000000000E+00  0.3274868173024E-02
 0.3114933507340E-03 -0.4840509950380E-02  0.0000000000000E+00  0.3366672803752E-02
 0.2324249594484E-03 -0.4726007674407E-02  0.0000000000000E+00  0.3450493230481E-02
 0.1593013429295E-03 -0.4604443448412E-02  0.0000000000000E+00  0.3523541334575E-02
 0.9794815036770E-04 -0.4478671039464E-02  0.0000000000000E+00  0.3582726517356E-02
 0.5499417269506E-04 -0.4352227476351E-02  0.0000000000000E+00  0.3624782893536E-02
 0.3777177593284E-04 -0.4229417332566E-02  0.0000000000000E+00  0.3646163895057E-02
 0.5415714811471E-04 -0.4115250854901E-02  0.0000000000000E+00  0.3643069671535E-02
 0.1123754248254E-03 -0.4015305212043E-02  0.0000000000000E+00  0.3611668055504E-02
 0.2207677104344E-03 -0.3935563176953E-02  0.0000000000000E+00  0.3548424595699E-02
 0.3874987990305E-03 -0.3882223741582E-02  0.0000000000000E+00  0.3450506079667E-02
 0.6201828581624E-03 -0.3861455961246E-02  0.0000000000000E+00  0.3316246856437E-02
 0.9254064171089E-03 -0.3879071000302E-02  0.0000000000000E+00  0.3145660978846E-02
 0.1308141339998E-02 -0.3940098064034E-02  0.0000000000000E+00  0.2940953821203E-02
 0.1771126624170E-02 -0.4048285496689E-02  0.0000000000000E+00  0.2706924391300E-02
 0.2314385814625E-02 -0.4205616401616E-02  0.0000000000000E+00  0.2451156313316E-02
 0.2934716254638E-02 -0.4411844846286E-02  0.0000000000000E+00  0.2183993842253E-02
 0.3625099016890E-02 -0.4664032448267E-02  0.0000000000000E+00  0.1918147096375E-02
 0.4374385815109E-02 -0.4956249938804E-02  0.0000000000000E+00  0.1667748683731E-02
 0.5167338621069E-02 -0.5279546798304E-02  0.0000000000000E+00  0.1446948500377E-02
 0.5985099568929E-02 -0.5622270527706E-02  0.0000000000000E+00  0.1268207673503E-02
 0.6806140855449E-02 -0.5970778184180E-02  0.0000000000000E+00  0.1140562978395E-02
 0.7607596514908E-02 -0.6310479764142E-02  0.0000000000000E+00  0.1068215988883E-02
 0.8366844366976E-02 -0.6627094223703E-02  0.0000000000000E+00  0.1049758648613E-02
 0.9063030054437E-02 -0.6907894766684E-02  0.0000000000000E+00  0.1078205754093E-02
 0.6156176368489E-04 -0.5042179330832E-02  0.0000000000000E+00  0.1084559253866E-02
 0.1813412965624E-03 -0.5117378368773E-02  0.0000000000000E+00  0.1269296287498E-02
 0.2937469316084E-03 -0.5188005517684E-02  0.0000000000000E+00  0.1453512800463E-02
 0.3963003128582E-03 -0.5252086449972E-02  0.0000000000000E+00  0.1632783115961E-02
 0.4868706890957E-03 -0.5307872917634E-02  0.0000000000000E+00  0.1803941944754E-02
 0.5636965113849E-03 -0.5353852230055E-02  0.0000000000000E+00  0.1965020915990E-02
 0.6254074341854E-03 -0.5388754712689E-02  0.0000000000000E+00  0.2115129517601E-02
 0.6710352046079E-03 -0.5411550150920E-02  0.0000000000000E+00  0.2254286808050E-02
 0.7000112857558E-03 -0.5421432220573E-02  0.0000000000000E+00  0.2383216499944E-02
 0.7121555476342E-03 -0.5417795513259E-02  0.0000000000000E+00  0.2503121198947E-02
 0.7076642115343E-03 -0.5400212849435E-02  0.0000000000000E+00  0.2615452978006E-02
 0.6871057767766E-03 -0.5368420991861E-02  0.0000000000000E+00  0.2721694613284E-02
 0.6514315590910E-03 -0.5322320824491E-02  0.0000000000000E+00  0.2823163782447E-02
 0.6020045839365E-03 -0.5261995811636E-02  0.0000000000000E+00  0.2920846837366E-02
 0.5406499481089E-03 -0.5187753111105E-02  0.0000000000000E+00  0.3015262915226E-02
 0.4697165240938E-03 -0.5100177427364E-02  0.0000000000000E+00  0.3106372595256E-02
 0.3921502777857E-03 -0.5000200578125E-02  0.0000000000000E+00  0.3193523449643E-02
 0.3115710316994E-03 -0.4889182296821E-02  0.0000000000000E+00  0.3275431119945E-02
 0.2323348992734E-03 -0.4768984650622E-02  0.0000000000000E+00  0.3350207652070E-02
 0.1595780854815E-03 -0.4642029785245E-02  0.0000000000000E+00  0.3415450588615E-02
 0.9923358572733E-04 -0.4511317197818E-02  0.0000000000000E+00  0.3468483573807E-02
 0.5802043462610E-04 -0.4380521237320E-02  0.0000000000000E+00  0.3506465884380E-02
 0.4334573557130E-04 -0.4254070009601E-02  0.0000000000000E+00  0.3526297311524E-02
 0.6313955199616E-04 -0.4137083425109E-02  0.0000000000000E+00  0.3524648815021E-02
 0.1256475302926E-03 -0.4035230333350E-02  0.0000000000000E+00  0.3498166581516E-02
 0.2391810057448E-03 -0.3954556051647E-02  0.0000000000000E+00  0.3443769299519E-02
 0.4118053320931E-03 -0.3901276346681E-02  0.0000000000000E+00  0.3359004486074E-02
 0.6509462636394E-03 -0.3881512097924E-02  0.0000000000000E+00  0.3242452851459E-02
 0.9628977083080E-03 -0.3900943618150E-02  0.0000000000000E+00  0.3094164462129E-02
 0.1352229418967E-02 -0.3964375650472E-02  0.0000000000000E+00  0.2916085189896E-02
 0.1821178391596E-02 -0.4075240200299E-02  0.0000000000000E+00  0.2712378990413E-02
 0.2369194661929E-02 -0.4235131361706E-02  0.0000000000000E+00  0.2489560273674E-02
 0.2992488911955E-02 -0.4443383015684E-02  0.0000000000000E+00  0.2256436908894E-02
 0.3683530030478E-02 -0.4696669853888E-02  0.0000000000000E+00  0.2023736428179E-02
 0.4430833721112E-02 -0.4988789361080E-02  0.0000000000000E+00  0.1803278424546E-02
 0.5219099452308E-02 -0.5310711236290E-02  0.0000000000000E+00  0.1606781372616E-02
 0.6029747580795E-02 -0.5650953886331E-02  0.0000000000000E+00  0.1444450274964E-02
 0.6841880490400E-02 -0.5996308710434E-02  0.0000000000000E+00  0.1323573886117E-02
 0.7633555688651E-02 -0.6332839679006E-02  0.0000000000000E+00  0.1247415705193E-02
 0.8383246479235E-02 -0.6647045821925E-02  0.0000000000000E+00  0.1214634441892E-02
 0.9071213333309E-02 -0.6926990767214E-02  0.0000000000000E+00  0.1219359568150E-02
 0.6120256620342E-04 -0.5142055490851E-02  0.0000000000000E+00  0.1130102490893E-02
 0.1807322946060E-03 -0.5216852395373E-02  0.0000000000000E+00  0.1312966942802E-02
 0.2936185619670E-03 -0.5287251645422E-02  0.0000000000000E+00  0.1493844006395E-02
 0.3971621129900E-03 -0.5351112515131E-02  0.0000000000000E+00  0.1668440552708E-02
 0.4890180925657E-03 -0.5406527914125E-02  0.0000000000000E+00  0.1833731222955E-02
 0.5672284057872E-03 -0.5451842282022E-02  0.0000000000000E+00  0.1987897283184E-02
 0.6302533878569E-03 -0.5485666363298E-02  0.0000000000000E+00  0.2130200409891E-02
 0.6769901813928E-03 -0.5506879018483E-02  0.0000000000000E+00  0.2260803635708E-02
 0.7067748855273E-03 -0.5514614518957E-02  0.0000000000000E+00  0.2380557411767E-02
 0.7193725988666E-03 -0.5508239906812E-02  0.0000000000000E+00  0.2490769974281E-02
 0.7149639408758E-03 -0.5487330606528E-02  0.0000000000000E+00  0.2592980350820E-02
 0.6941375485466E-03 -0.5451653201226E-02  0.0000000000000E+00  0.2688747840075E-02
 0.6578959697818E-03 -0.5401162140193E-02  0.0000000000000E+00  0.2779468593935E-02
 0.6076792797119E-03 -0.5336014700587E-02  0.0000000000000E+00  0.2866223972225E-02
 0.5454098681961E-03 -0.5256608982467E-02  0.0000000000000E+00  0.2949659809355E-02
 0.4735482500235E-03 -0.5163634369683E-02  0.0000000000000E+00  0.3029907510505E-02
 0.3951603804970E-03 -0.5058137930997E-02  0.0000000000000E+00  0.3106538894148E-02
 0.3139884401658E-03 -0.4941602300618E-02  0.0000000000000E+00  0.3178552448356E-02
 0.2345075133933E-03 -0.4816016853880E-02  0.0000000000000E+00  0.3244400990031E-02
 0.1619638978169E-03 -0.4683933097928E-02  0.0000000000000E+00  0.3302072990040E-02
 0.1023864781487E-03 -0.4548480341323E-02  0.0000000000000E+00  0.3349307303298E-02
 0.6257466722825E-04 -0.4413455843633E-02  0.0000000000000E+00  0.3383685666983E-02
 0.5000096816951E-04 -0.4283396184107E-02  0.0000000000000E+00  0.3402550846323E-02
 0.7264092909490E-04 -0.4163514340067E-02  0.0000000000000E+00  0.3403039364391E-02
 0.1387552401484E-03 -0.4059553939607E-02  0.0000000000000E+00  0.3382264389322E-02
 0.2566258473420E-03 -0.3977608140848E-02  0.0000000000000E+00  0.3337575478066E-02
 0.4342284447580E-03 -0.3923900238787E-02  0.0000000000000E+00  0.3266863762427E-02
 0.6788234228072E-03 -0.3904502838333E-02  0.0000000000000E+00  0.3168902249478E-02
 0.9964520532984E-03 -0.3924978184056E-02  0.0000000000000E+00  0.3043706902848E-02
 0.1391341475375E-02 -0.3989935308642E-02  0.0000000000000E+00  0.2892883166997E-02
 0.1865306145391E-02 -0.4102535788509E-02  0.0000000000000E+00  0.2719878639847E-02
 0.2417319344951E-02 -0.4264046030251E-02  0.0000000000000E+00  0.2530071953004E-02
 0.3043111285825E-02 -0.4473451498742E-02  0.0000000000000E+00  0.2330701903074E-02
 0.3734740158754E-02 -0.4727112518228E-02  0.0000000000000E+00  0.2130534646625E-02
 0.4480463308380E-02 -0.5018611830955E-02  0.0000000000000E+00  0.1939165052386E-02
 0.5264950417476E-02 -0.5338866750223E-02  0.0000000000000E+00  0.1766034910896E-02
 0.6069870040350E-02 -0.5676548037344E-02  0.0000000000000E+00  0.1619294948561E-02
 0.6874854142931E-02 -0.6018809907418E-02  0.0000000000000E+00  0.1504697631682E-02
 0.7658720040973E-02 -0.6352251257409E-02  0.0000000000000E+00  0.1424744572101E-02
 0.8400832961545E-02 -0.6664002738546E-02  0.0000000000000E+00  0.1378265559842E-02
 0.9082355732643E-02 -0.6942764628658E-02  0.0000000000000E+00  0.1360524843768E-02
 0.6097551671492E-04 -0.5241847754976E-02  0.0000000000000E+00  0.1175296697493E-02
 0.1805100913967E-03 -0.5316408573946E-02  0.0000000000000E+00  0.1356320886254E-02
 0.2941133812481E-03 -0.5386741645809E-02  0.0000000000000E+00  0.1533780913791E-02
 0.3988651828864E-03 -0.5450540936173E-02  0.0000000000000E+00  0.1703519520286E-02
 0.4922050937424E-03 -0.5505741138653E-02  0.0000000000000E+00  0.1862660736230E-02
 0.5719777287485E-03 -0.5550545551775E-02  0.0000000000000E+00  0.2009550361622E-02
 0.6364752200605E-03 -0.5583448930943E-02  0.0000000000000E+00  0.2143621197879E-02
 0.6844631771135E-03 -0.5603244541950E-02  0.0000000000000E+00  0.2265201387176E-02
 0.7151866356759E-03 -0.5609013540365E-02  0.0000000000000E+00  0.2375289568053E-02
 0.7283603096203E-03 -0.5600101579584E-02  0.0000000000000E+00  0.2475319849800E-02
 0.7241524994104E-03 -0.5576091631754E-02  0.0000000000000E+00  0.2566936351517E-02
 0.7031731711694E-03 -0.5536782922269E-02  0.0000000000000E+00  0.2651790668094E-02
 0.6664745486805E-03 -0.5482183531934E-02  0.0000000000000E+00  0.2731371034803E-02
 0.6155691682777E-03 -0.5412521512754E-02  0.0000000000000E+00  0.2806865657240E-02
 0.5524691683743E-03 -0.5328279671891E-02  0.0000000000000E+00  0.2879057498814E-02
 0.4797366118778E-03 -0.5230242808017E-02  0.0000000000000E+00  0.2948257992902E-02
 0.4005454470262E-03 -0.5119561287634E-02  0.0000000000000E+00  0.3014271213967E-02
 0.3187470938722E-03 -0.4997826436669E-02  0.0000000000000E+00  0.3076385272334E-02
 0.2389221619658E-03 -0.4867138955637E-02  0.0000000000000E+00  0.3133399219324E-02
 0.1664141184548E-03 -0.4730162697578E-02  0.0000000000000E+00  0.3183696076992E-02
 0.1073365346984E-03 -0.4590140832986E-02  0.0000000000000E+00  0.3225429602350E-02
 0.6855970441033E-04 -0.4450979224528E-02  0.0000000000000E+00  0.3256600300423E-02
 0.5761284675682E-04 -0.4317308196681E-02  0.0000000000000E+00  0.3274989641211E-02
 0.8250978095375E-04 -0.4194417974093E-02  0.0000000000000E+00  0.3278194002824E-02
 0.1515226579576E-03 -0.4088111502557E-02  0.0000000000000E+00  0.3263782806387E-02
 0.2729070759422E-03 -0.4004517321704E-02  0.0000000000000E+00  0.3229516743595E-02
 0.4545621976552E-03 -0.3949860065775E-02  0.0000000000000E+00  0.3173598618534E-02
 0.7036098154634E-03 -0.3930167656617E-02  0.0000000000000E+00  0.3094948029861E-02
 0.1025882028176E-02 -0.3950900936668E-02  0.0000000000000E+00  0.2993488429751E-02
 0.1425325180401E-02 -0.4016505314781E-02  0.0000000000000E+00  0.2870418448405E-02
 0.1903410695381E-02 -0.4129919684751E-02  0.0000000000000E+00  0.2728403950462E-02
 0.2458728513431E-02 -0.4292143453509E-02  0.0000000000000E+00  0.2571636094624E-02
 0.3086627055609E-02 -0.4501881518329E-02  0.0000000000000E+00  0.2405761976268E-02
 0.3778843768639E-02 -0.4755245037185E-02  0.0000000000000E+00  0.2237608183936E-02
 0.4523441334548E-02 -0.5045650792070E-02  0.0000000000000E+00  0.2074620319015E-02
 0.5305079064961E-02 -0.5363981365275E-02  0.0000000000000E+00  0.1924090319186E-02
 0.6105634987781E-02 -0.5699034726571E-02  0.0000000000000E+00  0.1792275935225E-02
 0.6905169356309E-02 -0.6038255751442E-02  0.0000000000000E+00  0.1683559247355E-02
 0.7683103890327E-02 -0.6368665392205E-02  0.0000000000000E+00  0.1599815811183E-02
 0.8419506836097E-02 -0.6677888402006E-02  0.0000000000000E+00  0.1540125263461E-02
 0.9096247578096E-02 -0.6955120129957E-02  0.0000000000000E+00  0.1500898374290E-02
 0.6088919723201E-04 -0.5341646145987E-02  0.0000000000000E+00  0.1220249499645E-02
 0.1807007116212E-03 -0.5416147369606E-02  0.0000000000000E+00  0.1399465373486E-02
 0.2952746776802E-03 -0.5486585883805E-02  0.0000000000000E+00  0.1573432024679E-02
 0.4014688218874E-03 -0.5550490697272E-02  0.0000000000000E+00  0.1738130608733E-02
 0.4965047608149E-03 -0.5605638288260E-02  0.0000000000000E+00  0.1890844512988E-02
 0.5780283222470E-03 -0.5650092142534E-02  0.0000000000000E+00  0.2030100289802E-02
 0.6441641306983E-03 -0.5682234500929E-02  0.0000000000000E+00  0.2155522275909E-02
 0.6935492617183E-03 -0.5700778517763E-02  0.0000000000000E+00  0.2267625906092E-02
 0.7253422019637E-03 -0.5704758864607E-02  0.0000000000000E+00  0.2367579733346E-02
 0.7392120486987E-03 -0.5693506377413E-02  0.0000000000000E+00  0.2456963398751E-02
 0.7353184853854E-03 -0.5666616871907E-02  0.0000000000000E+00  0.2537542891272E-02
 0.7142943533399E-03 -0.5623925239872E-02  0.0000000000000E+00  0.2611075919517E-02
 0.6772402341390E-03 -0.5565493272763E-02  0.0000000000000E+00  0.2679154058525E-02
 0.6257366583607E-03 -0.5491616596202E-02  0.0000000000000E+00  0.2743081638466E-02
 0.5618780090290E-03 -0.5402856199681E-02  0.0000000000000E+00  0.2803786584690E-02
 0.4883178094908E-03 -0.5300082679113E-02  0.0000000000000E+00  0.2861767061600E-02
 0.4083260163758E-03 -0.5184537386560E-02  0.0000000000000E+00  0.2917065107555E-02
 0.3258502126486E-03 -0.5057905809518E-02  0.0000000000000E+00  0.2969263176022E-02
 0.2455631759140E-03 -0.4922383741094E-02  0.0000000000000E+00  0.3017510214159E-02
 0.1728927771497E-03 -0.4780730223431E-02  0.0000000000000E+00  0.3060585890125E-02
 0.1140262977673E-03 -0.4636286320989E-02  0.0000000000000E+00  0.3097057433777E-02
 0.7589573715591E-04 -0.4493052291951E-02  0.0000000000000E+00  0.3125339642392E-02
 0.6607890257751E-04 -0.4355737771664E-02  0.0000000000000E+00  0.3143647848387E-02
 0.9262165208515E-04 -0.4229695077593E-02  0.0000000000000E+00  0.3150032566150E-02
 0.1638055680410E-03 -0.4120772224630E-02  0.0000000000000E+00  0.3142509974817E-02
 0.2878651176273E-03 -0.4035122541129E-02  0.0000000000000E+00  0.3119235389191E-02
 0.4726387690581E-03 -0.3978968326821E-02  0.0000000000000E+00  0.3078697197815E-02
 0.7251394454088E-03 -0.3958299407801E-02  0.0000000000000E+00  0.3019924761046E-02
 0.1051036237839E-02 -0.3978494983525E-02  0.0000000000000E+00  0.2942702437691E-02
 0.1454058202257E-02 -0.4043871496920E-02  0.0000000000000E+00  0.2847769656369E-02
 0.1935413014846E-02 -0.4157194188211E-02  0.0000000000000E+00  0.2736959703224E-02
 0.2493397718660E-02 -0.4319255398372E-02  0.0000000000000E+00  0.2613237143451E-02
 0.3123071378304E-02 -0.4528543936668E-02  0.0000000000000E+00  0.2480641881398E-02
 0.3815931380389E-02 -0.4780981006571E-02  0.0000000000000E+00  0.2344080486266E-02
 0.4559898537849E-02 -0.5069858568138E-02  0.0000000000000E+00  0.2208910144083E-02
 0.5339631142512E-02 -0.5386034738790E-02  0.0000000000000E+00  0.2080372227758E-02
 0.6137171738998E-02 -0.5718404829765E-02  0.0000000000000E+00  0.1962955299069E-02
 0.6932907554737E-02 -0.6054632146790E-02  0.0000000000000E+00  0.1859796215201E-02
 0.7706715994884E-02 -0.6382051835281E-02  0.0000000000000E+00  0.1772245155070E-02
 0.8439190928969E-02 -0.6688653809269E-02  0.0000000000000E+00  0.1699687990613E-02
 0.9112725909888E-02 -0.6963996695246E-02  0.0000000000000E+00  0.1639686263510E-02
 0.6095190161871E-04 -0.5441538460342E-02  0.0000000000000E+00  0.1265074426583E-02
 0.1813294757917E-03 -0.5516166634473E-02  0.0000000000000E+00  0.1442513337175E-02
 0.2971448214773E-03 -0.5586891704894E-02  0.0000000000000E+00  0.1612910782455E-02
 0.4050311623189E-03 -0.5651077177136E-02  0.0000000000000E+00  0.1772388154688E-02
 0.5019885276316E-03 -0.5706340582249E-02  0.0000000000000E+00  0.1918398828919E-02
 0.5854616343652E-03 -0.5750606505704E-02  0.0000000000000E+00  0.2049667861994E-02
 0.6534079155267E-03 -0.5782148104878E-02  0.0000000000000E+00  0.2166033223065E-02
 0.7043389644394E-03 -0.5799604191099E-02  0.0000000000000E+00  0.2268221027102E-02
 0.7373316071683E-03 -0.5801970077832E-02  0.0000000000000E+00  0.2357591809900E-02
 0.7520146314338E-03 -0.5788568905203E-02  0.0000000000000E+00  0.2435889780390E-02
 0.7485433561491E-03 -0.5759015095759E-02  0.0000000000000E+00  0.2505018096715E-02
 0.7275754955821E-03 -0.5713182523161E-02  0.0000000000000E+00  0.2566852278838E-02
 0.6902589732271E-03 -0.5651186850326E-02  0.0000000000000E+00  0.2623095980041E-02
 0.6382380038864E-03 -0.5573387966462E-02  0.0000000000000E+00  0.2675176241655E-02
 0.5736817636596E-03 -0.5480418273440E-02  0.0000000000000E+00  0.2724171101902E-02
 0.4993251487945E-03 -0.5373224230812E-02  0.0000000000000E+00  0.2770769628573E-02
 0.4185221333498E-03 -0.5253125536867E-02  0.0000000000000E+00  0.2815255242195E-02
 0.3353034045239E-03 -0.5121887017499E-02  0.0000000000000E+00  0.2857507449833E-02
 0.2544206129739E-03 -0.4981783100055E-02  0.0000000000000E+00  0.2897027026359E-02
 0.1813733930725E-03 -0.4835650731751E-02  0.0000000000000E+00  0.2932990957939E-02
 0.1224119440662E-03 -0.4686912884525E-02  0.0000000000000E+00  0.2964377532715E-02
 0.8452105413084E-04 -0.4539650086212E-02  0.0000000000000E+00  0.2990010756434E-02
 0.7531942546654E-04 -0.4398637083767E-02  0.0000000000000E+00  0.3008534664059E-02
 0.1028794826820E-03 -0.4269273658223E-02  0.0000000000000E+00  0.3018448543196E-02
 0.1754914093250E-03 -0.4157439597748E-02  0.0000000000000E+00  0.3018207544011E-02
 0.3013754340164E-03 -0.4069303888852E-02  0.0000000000000E+00  0.3006348859093E-02
 0.4883272454707E-03 -0.4011084785140E-02  0.0000000000000E+00  0.2981626759186E-02
 0.7432828822311E-03 -0.3988742925410E-02  0.0000000000000E+00  0.2943152792849E-02
 0.1071796617647E-02 -0.4007597995136E-02  0.0000000000000E+00  0.2890537516582E-02
 0.1477444928562E-02 -0.4071874058365E-02  0.0000000000000E+00  0.2824022282284E-02
 0.1961250733740E-02 -0.4184212627856E-02  0.0000000000000E+00  0.2744570319722E-02
 0.2521306209776E-02 -0.4345258221205E-02  0.0000000000000E+00  0.2653891218014E-02
 0.3152468621818E-02 -0.4553345361823E-02  0.0000000000000E+00  0.2554407079911E-02
 0.3846068908702E-02 -0.4804259908997E-02  0.0000000000000E+00  0.2449119625250E-02
 0.4589930672566E-02 -0.5091204416108E-02  0.0000000000000E+00  0.2341342679378E-02
 0.5368713231508E-02 -0.5405017434069E-02  0.0000000000000E+00  0.2234339277668E-02
 0.6164574396288E-02 -0.5734658505065E-02  0.0000000000000E+00  0.2130917510644E-02
 0.6958127405793E-02 -0.6067937372201E-02  0.0000000000000E+00  0.2033057271841E-02
 0.7729561867994E-02 -0.6392399448584E-02  0.0000000000000E+00  0.1941652718256E-02
 0.8459828679660E-02 -0.6696277429993E-02  0.0000000000000E+00  0.1856432412364E-02
 0.9131673532815E-02 -0.6969369019153E-02  0.0000000000000E+00  0.1776106404248E-02
 0.6117167692229E-04 -0.5541610478446E-02  0.0000000000000E+00  0.1309890692480E-02
 0.1824211299757E-03 -0.5616561861147E-02  0.0000000000000E+00  0.1485583149279E-02
 0.2997654818597E-03 -0.5687763718556E-02  0.0000000000000E+00  0.1652335202212E-02
 0.4096094494541E-03 -0.5752412433957E-02  0.0000000000000E+00  0.1806409648655E-02
 0.5087264975103E-03 -0.5807965012776E-02  0.0000000000000E+00  0.1945441358634E-02
 0.5943570047637E-03 -0.5852207624112E-02  0.0000000000000E+00  0.2068373461122E-02
 0.6642911997490E-03 -0.5883307815994E-02  0.0000000000000E+00  0.2175281607489E-02
 0.7169184390500E-03 -0.5899836261142E-02  0.0000000000000E+00  0.2267127366260E-02
 0.7512393315936E-03 -0.5900756705421E-02  0.0000000000000E+00  0.2345485727250E-02
 0.7668483763969E-03 -0.5885392420882E-02  0.0000000000000E+00  0.2412283825524E-02
 0.7639014728164E-03 -0.5853382791394E-02  0.0000000000000E+00  0.2469575669029E-02
 0.7430837575642E-03 -0.5804644369685E-02  0.0000000000000E+00  0.2519363988083E-02
 0.7055898424168E-03 -0.5739346995895E-02  0.0000000000000E+00  0.2563470560693E-02
 0.6531235002446E-03 -0.5657911448725E-02  0.0000000000000E+00  0.2603448896239E-02
 0.5879213027427E-03 -0.5561034560319E-02  0.0000000000000E+00  0.2640529529629E-02
 0.5127894158099E-03 -0.5449728430419E-02  0.0000000000000E+00  0.2675594041736E-02
 0.4311538076725E-03 -0.5325378159633E-02  0.0000000000000E+00  0.2709168375135E-02
 0.3471151991002E-03 -0.5189812816735E-02  0.0000000000000E+00  0.2741429833336E-02
 0.2654908486767E-03 -0.5045368796175E-02  0.0000000000000E+00  0.2772231288604E-02
 0.1918395991867E-03 -0.4894943544991E-02  0.0000000000000E+00  0.2801146385604E-02
 0.1324639079694E-03 -0.4742025927905E-02  0.0000000000000E+00  0.2827561182317E-02
 0.9439261603780E-04 -0.4590762667681E-02  0.0000000000000E+00  0.2850703338359E-02
 0.8527792396260E-04 -0.4445979583197E-02  0.0000000000000E+00  0.2869640309401E-02
 0.1132138696429E-03 -0.4313109653947E-02  0.0000000000000E+00  0.2883315426768E-02
 0.1864992345664E-03 -0.4198051815613E-02  0.0000000000000E+00  0.2890617091617E-02
 0.3133480677416E-03 -0.4106982620945E-02  0.0000000000000E+00  0.2890455805396E-02
 0.5015326507174E-03 -0.4046115968694E-02  0.0000000000000E+00  0.2881838800342E-02
 0.7579457108330E-03 -0.4021393884340E-02  0.0000000000000E+00  0.2863941772337E-02
 0.1088076319211E-02 -0.4038100370518E-02  0.0000000000000E+00  0.2836178655982E-02
 0.1495413923228E-02 -0.4100405083297E-02  0.0000000000000E+00  0.2798266974341E-02
 0.1980875445085E-02 -0.4210876375165E-02  0.0000000000000E+00  0.2750274899222E-02
 0.2542434500128E-02 -0.4370069690468E-02  0.0000000000000E+00  0.2692638024533E-02
 0.3174830665940E-02 -0.4576225178290E-02  0.0000000000000E+00  0.2626153266655E-02
 0.3869297108015E-02 -0.4825044750226E-02  0.0000000000000E+00  0.2551926787205E-02
 0.4613599279980E-02 -0.5109673032571E-02  0.0000000000000E+00  0.2471257538108E-02
 0.5392394663915E-02 -0.5420930308064E-02  0.0000000000000E+00  0.2385475853075E-02
 0.6187904361208E-02 -0.5747805193329E-02  0.0000000000000E+00  0.2295764850380E-02
 0.6980867181808E-02 -0.6078182270279E-02  0.0000000000000E+00  0.2203001581930E-02
 0.7751645333677E-02 -0.6399716230942E-02  0.0000000000000E+00  0.2107664930527E-02
 0.8481384495646E-02 -0.6700764935418E-02  0.0000000000000E+00  0.2009844497031E-02
 0.9153018001181E-02 -0.6971246515060E-02  0.0000000000000E+00  0.1909390890544E-02
 0.6155637224636E-04 -0.5641946222860E-02  0.0000000000000E+00  0.1354823011171E-02
 0.1840000006749E-03 -0.5717426493106E-02  0.0000000000000E+00  0.1528798408888E-02
 0.3031778861743E-03 -0.5789304144232E-02  0.0000000000000E+00  0.1691827506377E-02
 0.4152603723321E-03 -0.5854605550375E-02  0.0000000000000E+00  0.1840315119156E-02
 0.5167877943685E-03 -0.5910624643300E-02  0.0000000000000E+00  0.1972090275747E-02
 0.6047919827315E-03 -0.5955009223585E-02  0.0000000000000E+00  0.2086335919795E-02
 0.6768956828857E-03 -0.5985824850405E-02  0.0000000000000E+00  0.2183391712473E-02
 0.7313696178002E-03 -0.6001580871611E-02  0.0000000000000E+00  0.2264481042521E-02
 0.7671443819437E-03 -0.6001218112946E-02  0.0000000000000E+00  0.2331416285600E-02
 0.7837871136659E-03 -0.5984068683689E-02  0.0000000000000E+00  0.2386325107155E-02
 0.7814600826190E-03 -0.5949804005908E-02  0.0000000000000E+00  0.2431424262154E-02
 0.7608790508305E-03 -0.5898387479683E-02  0.0000000000000E+00  0.2468850592618E-02
 0.7232850818100E-03 -0.5830043629390E-02  0.0000000000000E+00  0.2500547169078E-02
 0.6704375819386E-03 -0.5745250719391E-02  0.0000000000000E+00  0.2528194752507E-02
 0.6046331663393E-03 -0.5644762839585E-02  0.0000000000000E+00  0.2553175903812E-02
 0.5287391263559E-03 -0.5529647232449E-02  0.0000000000000E+00  0.2576563731525E-02
 0.4462413356570E-03 -0.5401341166691E-02  0.0000000000000E+00  0.2599125573419E-02
 0.3612974307488E-03 -0.5261722600355E-02  0.0000000000000E+00  0.2621335346845E-02
 0.2787770061929E-03 -0.5113173030613E-02  0.0000000000000E+00  0.2643396691060E-02
 0.2042855987550E-03 -0.4958632878252E-02  0.0000000000000E+00  0.2665277995209E-02
 0.1441673380564E-03 -0.4801640841640E-02  0.0000000000000E+00  0.2686769009975E-02
 0.1054864765763E-03 -0.4646395775957E-02  0.0000000000000E+00  0.2707495120258E-02
 0.9592146312895E-04 -0.4497760604662E-02  0.0000000000000E+00  0.2726941930987E-02
 0.1235832597957E-03 -0.4361187428472E-02  0.0000000000000E+00  0.2744492908347E-02
 0.1967796847094E-03 -0.4242582075684E-02  0.0000000000000E+00  0.2759466295024E-02
 0.3237273172163E-03 -0.4148121175061E-02  0.0000000000000E+00  0.2771141790078E-02
 0.5121952476969E-03 -0.4084014802027E-02  0.0000000000000E+00  0.2778773722729E-02
 0.7690674161593E-03 -0.4056197967883E-02  0.0000000000000E+00  0.2781593622853E-02
 0.1099818191973E-02 -0.4069943899845E-02  0.0000000000000E+00  0.2778807891542E-02
 0.1507916104664E-02 -0.4129406726508E-02  0.0000000000000E+00  0.2769597337090E-02
 0.1994250781207E-02 -0.4237132685416E-02  0.0000000000000E+00  0.2753121952433E-02
 0.2556762633524E-02 -0.4393646698777E-02  0.0000000000000E+00  0.2728532763599E-02
 0.3190155689456E-02 -0.4597153411549E-02  0.0000000000000E+00  0.2694996249057E-02
 0.3885631156559E-02 -0.4843320349636E-02  0.0000000000000E+00  0.2651725454407E-02
 0.4630932177236E-02 -0.5125263441348E-02  0.0000000000000E+00  0.2598015916834E-02
 0.5410708771157E-02 -0.5433783987479E-02  0.0000000000000E+00  0.2533284684615E-02
 0.6207191951111E-02 -0.5757863486453E-02  0.0000000000000E+00  0.2457113450231E-02
 0.7001146228393E-02 -0.6085390215505E-02  0.0000000000000E+00  0.2369298237748E-02
 0.7772969389546E-02 -0.6404029142114E-02  0.0000000000000E+00  0.2269916577948E-02
 0.8503843718544E-02 -0.6702148765895E-02  0.0000000000000E+00  0.2159420586297E-02
 0.9176730526412E-02 -0.6969672627170E-02  0.0000000000000E+00  0.2038788454097E-02
 0.6211369658510E-04 -0.5742628269182E-02  0.0000000000000E+00  0.1400001448163E-02
 0.1860901786542E-03 -0.5818852297330E-02  0.0000000000000E+00  0.1572287758302E-02
 0.3074231268341E-03 -0.5891613224998E-02  0.0000000000000E+00  0.1731513762846E-02
 0.4220404516047E-03 -0.5957763042233E-02  0.0000000000000E+00  0.1874226483473E-02
 0.5262409660642E-03 -0.6014428955849E-02  0.0000000000000E+00  0.1998463284478E-02
 0.6168426800637E-03 -0.6059120010177E-02  0.0000000000000E+00  0.2103671289242E-02
 0.6913003939585E-03 -0.6089803668095E-02  0.0000000000000E+00  0.2190483164554E-02
 0.7477703501157E-03 -0.6104935576945E-02  0.0000000000000E+00  0.2260412313535E-02
 0.7851203225601E-03 -0.6103443363554E-02  0.0000000000000E+00  0.2315531939844E-02
 0.8028981376742E-03 -0.6084677744265E-02  0.0000000000000E+00  0.2358186985574E-02
 0.8012792320241E-03 -0.6048350115054E-02  0.0000000000000E+00  0.2390766870305E-02
 0.7810139508782E-03 -0.5994475448899E-02  0.0000000000000E+00  0.2415546727214E-02
 0.7433900381671E-03 -0.5923333710158E-02  0.0000000000000E+00  0.2434591006125E-02
 0.6902188183975E-03 -0.5835457238306E-02  0.0000000000000E+00  0.2449705378761E-02
 0.6238496237274E-03 -0.5731650028415E-02  0.0000000000000E+00  0.2462421017491E-02
 0.5472006510953E-03 -0.5613023700211E-02  0.0000000000000E+00  0.2473998946371E-02
 0.4638054851975E-03 -0.5481054172613E-02  0.0000000000000E+00  0.2485444518303E-02
 0.3778654734581E-03 -0.5337652690126E-02  0.0000000000000E+00  0.2497525199071E-02
 0.2942892280021E-03 -0.5185228798807E-02  0.0000000000000E+00  0.2510792521748E-02
 0.2187164583591E-03 -0.5026748243516E-02  0.0000000000000E+00  0.2525606513057E-02
 0.1575223931081E-03 -0.4865783433256E-02  0.0000000000000E+00  0.2542155808101E-02
 0.1177980586809E-03 -0.4706571262177E-02  0.0000000000000E+00  0.2560457268774E-02
 0.1072408916681E-03 -0.4553997769583E-02  0.0000000000000E+00  0.2580409454965E-02
 0.1339740900224E-03 -0.4413520102726E-02  0.0000000000000E+00  0.2601832973981E-02
 0.2063149957164E-03 -0.4291038788971E-02  0.0000000000000E+00  0.2624474939507E-02
 0.3324915589785E-03 -0.4192723198974E-02  0.0000000000000E+00  0.2647984750932E-02
 0.5202901285808E-03 -0.4124780391552E-02  0.0000000000000E+00  0.2671865188816E-02
 0.7766207110298E-03 -0.4093150357137E-02  0.0000000000000E+00  0.2695405161121E-02
 0.1106993853904E-02 -0.4103120931467E-02  0.0000000000000E+00  0.2717604574614E-02
 0.1514923617708E-02 -0.4158870076038E-02  0.0000000000000E+00  0.2737107401254E-02
 0.2001351208241E-02 -0.4262973332146E-02  0.0000000000000E+00  0.2752163929497E-02
 0.2564269078282E-02 -0.4415983804174E-02  0.0000000000000E+00  0.2760638027795E-02
 0.3198427363332E-02 -0.4616129348737E-02  0.0000000000000E+00  0.2760062053977E-02
 0.3895060311768E-02 -0.4859092205105E-02  0.0000000000000E+00  0.2747751028817E-02
 0.4641923631793E-02 -0.5137988200893E-02  0.0000000000000E+00  0.2720991278197E-02
 0.5423653479237E-02 -0.5443598404737E-02  0.0000000000000E+00  0.2677279984945E-02
 0.6222437169870E-02 -0.5764860865373E-02  0.0000000000000E+00  0.2614589706608E-02
 0.7018965596431E-02 -0.6089596873497E-02  0.0000000000000E+00  0.2531625924999E-02
 0.7793536420482E-02 -0.6405383730835E-02  0.0000000000000E+00  0.2428052856911E-02
 0.8527212227416E-02 -0.6700487546868E-02  0.0000000000000E+00  0.2304670413531E-02
 0.9202824843841E-02 -0.6964724005997E-02  0.0000000000000E+00  0.2163566803644E-02
 0.6285128720584E-04 -0.5843738115678E-02  0.0000000000000E+00  0.1445561315192E-02
 0.1887157363669E-03 -0.5920929806802E-02  0.0000000000000E+00  0.1616184730836E-02
 0.3125425231855E-03 -0.5994789717143E-02  0.0000000000000E+00  0.1771523522941E-02
 0.4300064920374E-03 -0.6061989338090E-02  0.0000000000000E+00  0.1908266853752E-02
 0.5371544458563E-03 -0.6119484251188E-02  0.0000000000000E+00  0.2024676564132E-02
 0.6305841613754E-03 -0.6164643933292E-02  0.0000000000000E+00  0.2120491493923E-02
 0.7075819558707E-03 -0.6195342070074E-02  0.0000000000000E+00  0.2196669442068E-02
 0.7661945218487E-03 -0.6209989278158E-02  0.0000000000000E+00  0.2255044107657E-02
 0.8052352629467E-03 -0.6207511024545E-02  0.0000000000000E+00  0.2297973510098E-02
 0.8242420980031E-03 -0.6187287669388E-02  0.0000000000000E+00  0.2328035616544E-02
 0.8234116044647E-03 -0.6149079516687E-02  0.0000000000000E+00  0.2347800214150E-02
 0.8035335235666E-03 -0.6092958475269E-02  0.0000000000000E+00  0.2359681930515E-02
 0.7659430131651E-03 -0.6019260990486E-02  0.0000000000000E+00  0.2365863380184E-02
 0.7124998058694E-03 -0.5928570070243E-02  0.0000000000000E+00  0.2368269521624E-02
 0.6455986193366E-03 -0.5821732080923E-02  0.0000000000000E+00  0.2368573689714E-02
 0.5681982163386E-03 -0.5699891982470E-02  0.0000000000000E+00  0.2368218555878E-02
 0.4838675454238E-03 -0.5564550542231E-02  0.0000000000000E+00  0.2368441871841E-02
 0.3968383294356E-03 -0.5417636443783E-02  0.0000000000000E+00  0.2370299748224E-02
 0.3120447922299E-03 -0.5261570044490E-02  0.0000000000000E+00  0.2374687249431E-02
 0.2351482411360E-03 -0.5099324636726E-02  0.0000000000000E+00  0.2382351786648E-02
 0.1725443824027E-03 -0.4934490134095E-02  0.0000000000000E+00  0.2393875369489E-02
 0.1313422924039E-03 -0.4771327302296E-02  0.0000000000000E+00  0.2409659779494E-02
 0.1192509666100E-03 -0.4614731191383E-02  0.0000000000000E+00  0.2430011414084E-02
 0.1444008847092E-03 -0.4470149734667E-02  0.0000000000000E+00  0.2455185943640E-02
 0.2151190502434E-03 -0.4343465712449E-02  0.0000000000000E+00  0.2485360833987E-02
 0.3396532309470E-03 -0.4240833609158E-02  0.0000000000000E+00  0.2520560334509E-02
 0.5258271056838E-03 -0.4168457981329E-02  0.0000000000000E+00  0.2560544306005E-02
 0.7806113149029E-03 -0.4132295557082E-02  0.0000000000000E+00  0.2604670509587E-02
 0.1109603350605E-02 -0.4137674050620E-02  0.0000000000000E+00  0.2651745426701E-02
 0.1516429386147E-02 -0.4188834684503E-02  0.0000000000000E+00  0.2699888901760E-02
 0.2002161511513E-02 -0.4288434015639E-02  0.0000000000000E+00  0.2746451621768E-02
 0.2564930209846E-02 -0.4437112566386E-02  0.0000000000000E+00  0.2788015678672E-02
 0.3199614406896E-02 -0.4633180871117E-02  0.0000000000000E+00  0.2820477141009E-02
 0.3897547603062E-02 -0.4872385888078E-02  0.0000000000000E+00  0.2839240675822E-02
 0.4646534209800E-02 -0.5147872899736E-02  0.0000000000000E+00  0.2839560312321E-02
 0.5431191266603E-02 -0.5450402382367E-02  0.0000000000000E+00  0.2816980840542E-02
 0.6233609669609E-02 -0.5768833313825E-02  0.0000000000000E+00  0.2767826857334E-02
 0.7034307877700E-02 -0.6090849763381E-02  0.0000000000000E+00  0.2689672638480E-02
 0.7813347794573E-02 -0.6403843577145E-02  0.0000000000000E+00  0.2581731390031E-02
 0.8551515706485E-02 -0.6695865362753E-02  0.0000000000000E+00  0.2445120024712E-02
 0.9231356065412E-02 -0.6956509566387E-02  0.0000000000000E+00  0.2283014812505E-02
 0.6377679029132E-04 -0.5945356619067E-02  0.0000000000000E+00  0.1491643114098E-02
 0.1919009845929E-03 -0.6023748842114E-02  0.0000000000000E+00  0.1660627634555E-02
 0.3185780469390E-03 -0.6098931465371E-02  0.0000000000000E+00  0.1811989455859E-02
 0.4392161088246E-03 -0.6167387337483E-02  0.0000000000000E+00  0.1942559785081E-02
 0.5495970788112E-03 -0.6225894106005E-02  0.0000000000000E+00  0.2050843604623E-02
 0.6460908745067E-03 -0.6271680474091E-02  0.0000000000000E+00  0.2136902846242E-02
 0.7258148572160E-03 -0.6302531286886E-02  0.0000000000000E+00  0.2202056240033E-02
 0.7867121499538E-03 -0.6316822120798E-02  0.0000000000000E+00  0.2248490432738E-02
 0.8275517947430E-03 -0.6313488914735E-02  0.0000000000000E+00  0.2278872804545E-02
 0.8478728211226E-03 -0.6291954193554E-02  0.0000000000000E+00  0.2296028911980E-02
 0.8479022766102E-03 -0.6252037241669E-02  0.0000000000000E+00  0.2302714116270E-02
 0.8284750612436E-03 -0.6193872974978E-02  0.0000000000000E+00  0.2301480477608E-02
 0.7909750138685E-03 -0.6117855669099E-02  0.0000000000000E+00  0.2294622019622E-02
 0.7373069538610E-03 -0.6024615594441E-02  0.0000000000000E+00  0.2284173914310E-02
 0.6699036047164E-03 -0.5915033760521E-02  0.0000000000000E+00  0.2271942085377E-02
 0.5917537813497E-03 -0.5790277146368E-02  0.0000000000000E+00  0.2259541902172E-02
 0.5064492425104E-03 -0.5651857275714E-02  0.0000000000000E+00  0.2248435684960E-02
 0.4182385734575E-03 -0.5501704180713E-02  0.0000000000000E+00  0.2239961495735E-02
 0.3320680759530E-03 -0.5342231614166E-02  0.0000000000000E+00  0.2235352129690E-02
 0.2536079827503E-03 -0.5176402511384E-02  0.0000000000000E+00  0.2235737016091E-02
 0.1892637530599E-03 -0.5007807986211E-02  0.0000000000000E+00  0.2242085329608E-02
 0.1461536175484E-03 -0.4840718395940E-02  0.0000000000000E+00  0.2255176871984E-02
 0.1319903792072E-03 -0.4680023489116E-02  0.0000000000000E+00  0.2275720769639E-02
 0.1549063148271E-03 -0.4531147353479E-02  0.0000000000000E+00  0.2304406499385E-02
 0.2232374791242E-03 -0.4399942010997E-02  0.0000000000000E+00  0.2341845708259E-02
 0.3452589818985E-03 -0.4292538686973E-02  0.0000000000000E+00  0.2388447201399E-02
 0.5288509078651E-03 -0.4215139086897E-02  0.0000000000000E+00  0.2444243772082E-02
 0.7810781866305E-03 -0.4173727565693E-02  0.0000000000000E+00  0.2508683459092E-02
 0.1107675402294E-02 -0.4173696273253E-02  0.0000000000000E+00  0.2580404535039E-02
 0.1512447339972E-02 -0.4219388767570E-02  0.0000000000000E+00  0.2657028493065E-02
 0.1996676959676E-02 -0.4313594537349E-02  0.0000000000000E+00  0.2735028505751E-02
 0.2558720364506E-02 -0.4457101663359E-02  0.0000000000000E+00  0.2809718680788E-02
 0.3193670487816E-02 -0.4648364479292E-02  0.0000000000000E+00  0.2875358594717E-02
 0.3893029546973E-02 -0.4883246950303E-02  0.0000000000000E+00  0.2925423167241E-02
 0.4644690293592E-02 -0.5154955927772E-02  0.0000000000000E+00  0.2953093904736E-02
 0.5433248492513E-02 -0.5454233263391E-02  0.0000000000000E+00  0.2951904596897E-02
 0.6240647919770E-02 -0.5769824813385E-02  0.0000000000000E+00  0.2916461522901E-02
 0.7047136261668E-02 -0.6089207631344E-02  0.0000000000000E+00  0.2843135330885E-02
 0.7832402856917E-02 -0.6399489556770E-02  0.0000000000000E+00  0.2730624148442E-02
 0.8576798596348E-02 -0.6688390900084E-02  0.0000000000000E+00  0.2580314566914E-02
 0.9262419539869E-02 -0.6945169444166E-02  0.0000000000000E+00  0.2396444500513E-02
 0.6489795609722E-04 -0.6047564505427E-02  0.0000000000000E+00  0.1538392537689E-02
 0.1956707752541E-03 -0.6127399122880E-02  0.0000000000000E+00  0.1705759476284E-02
 0.3255728217848E-03 -0.6204136074508E-02  0.0000000000000E+00  0.1853046974693E-02
 0.4497283387413E-03 -0.6274059056093E-02  0.0000000000000E+00  0.1977228448566E-02
 0.5636387209713E-03 -0.6333759890023E-02  0.0000000000000E+00  0.2077073906479E-02
 0.6634371234776E-03 -0.6380324955867E-02  0.0000000000000E+00  0.2153004391320E-02
 0.7460717286031E-03 -0.6411456049990E-02  0.0000000000000E+00  0.2206739664097E-02
 0.8093894458978E-03 -0.6425505343501E-02  0.0000000000000E+00  0.2240854640992E-02
 0.8521268698322E-03 -0.6421433780385E-02  0.0000000000000E+00  0.2258351140837E-02
 0.8738370549702E-03 -0.6398720286228E-02  0.0000000000000E+00  0.2262315444377E-02
 0.8747883863702E-03 -0.6357254472978E-02  0.0000000000000E+00  0.2255690859259E-02
 0.8558677234956E-03 -0.6297241100577E-02  0.0000000000000E+00  0.2241161223705E-02
 0.8185094019664E-03 -0.6219133939048E-02  0.0000000000000E+00  0.2221121414184E-02
 0.7646601640839E-03 -0.6123607097889E-02  0.0000000000000E+00  0.2197704122061E-02
 0.6967832556153E-03 -0.6011568282281E-02  0.0000000000000E+00  0.2172835073470E-02
 0.6178867920654E-03 -0.5884194863963E-02  0.0000000000000E+00  0.2148290685763E-02
 0.5315725221062E-03 -0.5742994729117E-02  0.0000000000000E+00  0.2125747832972E-02
 0.4420921536817E-03 -0.5589882924298E-02  0.0000000000000E+00  0.2106818099247E-02
 0.3543903661254E-03 -0.5427249010462E-02  0.0000000000000E+00  0.2093064823155E-02
 0.2741335103977E-03 -0.5258027536974E-02  0.0000000000000E+00  0.2085992993667E-02
 0.2077259241778E-03 -0.5085794407314E-02  0.0000000000000E+00  0.2086952017800E-02
 0.1622858501457E-03 -0.4914815148266E-02  0.0000000000000E+00  0.2097092400137E-02
 0.1455216805103E-03 -0.4749959606182E-02  0.0000000000000E+00  0.2117520760950E-02
 0.1655612166351E-03 -0.4596612844223E-02  0.0000000000000E+00  0.2149359758512E-02
 0.2307478104401E-03 -0.4460582244327E-02  0.0000000000000E+00  0.2193661176248E-02
 0.3493899851389E-03 -0.4347966207601E-02  0.0000000000000E+00  0.2251232419303E-02
 0.5294416811962E-03 -0.4264961802522E-02  0.0000000000000E+00  0.2322402126213E-02
 0.7780942113356E-03 -0.4217590382345E-02  0.0000000000000E+00  0.2406739944287E-02
 0.1101268240736E-02 -0.4211331752804E-02  0.0000000000000E+00  0.2502753450365E-02
 0.1503013321550E-02 -0.4250670069516E-02  0.0000000000000E+00  0.2607605032544E-02
 0.1984904153573E-02 -0.4338579742405E-02  0.0000000000000E+00  0.2716925095938E-02
 0.2545612471086E-02 -0.4476057792016E-02  0.0000000000000E+00  0.2824782865875E-02
 0.3180534472501E-02 -0.4661766016328E-02  0.0000000000000E+00  0.2923804161803E-02
 0.3881415890029E-02 -0.4891741348170E-02  0.0000000000000E+00  0.3005508495769E-02
 0.4636283271886E-02 -0.5159288530040E-02  0.0000000000000E+00  0.3060947831365E-02
 0.5429714097122E-02 -0.5455136594864E-02  0.0000000000000E+00  0.3081559965183E-02
 0.6243457581958E-02 -0.5767886726787E-02  0.0000000000000E+00  0.3060129999223E-02
 0.7057392809817E-02 -0.6084739641958E-02  0.0000000000000E+00  0.2991719361208E-02
 0.7850697319828E-02 -0.6392418935407E-02  0.0000000000000E+00  0.2874419209593E-02
 0.8603122735799E-02 -0.6678196472937E-02  0.0000000000000E+00  0.2709820899711E-02
 0.9296149742834E-02 -0.6930873871794E-02  0.0000000000000E+00  0.2503192743779E-02
 0.6622275148039E-04 -0.6150442967194E-02  0.0000000000000E+00  0.1585960536518E-02
 0.2000508590283E-03 -0.6231970982541E-02  0.0000000000000E+00  0.1751727930959E-02
 0.3335717102868E-03 -0.6310501691744E-02  0.0000000000000E+00  0.1894833847677E-02
 0.4616043494828E-03 -0.6382106368623E-02  0.0000000000000E+00  0.2012394708646E-02
 0.5793509204076E-03 -0.6443181347506E-02  0.0000000000000E+00  0.2103471513687E-02
 0.6826975864663E-03 -0.6490668873678E-02  0.0000000000000E+00  0.2168886047002E-02
 0.7684236196786E-03 -0.6522194637663E-02  0.0000000000000E+00  0.2210804223098E-02
 0.8342888399689E-03 -0.6536101066152E-02  0.0000000000000E+00  0.2232227527897E-02
 0.8790116104847E-03 -0.6531390888961E-02  0.0000000000000E+00  0.2236517752442E-02
 0.9021741281361E-03 -0.6507615626153E-02  0.0000000000000E+00  0.2227033286889E-02
 0.9040987063555E-03 -0.6464747967207E-02  0.0000000000000E+00  0.2206904520212E-02
 0.8857320783952E-03 -0.6403070158027E-02  0.0000000000000E+00  0.2178937451580E-02
 0.8485614395070E-03 -0.6323097428836E-02  0.0000000000000E+00  0.2145613175038E-02
 0.7945724010376E-03 -0.6225544252559E-02  0.0000000000000E+00  0.2109145411540E-02
 0.7262510743092E-03 -0.6111336826325E-02  0.0000000000000E+00  0.2071563607781E-02
 0.6466138120678E-03 -0.5981650954014E-02  0.0000000000000E+00  0.2034790867929E-02
 0.5592591996184E-03 -0.5837976172360E-02  0.0000000000000E+00  0.2000706459258E-02
 0.4684280501747E-03 -0.5682195962963E-02  0.0000000000000E+00  0.1971185385238E-02
 0.3790495189243E-03 -0.5516657946181E-02  0.0000000000000E+00  0.1948113007422E-02
 0.2967731047033E-03 -0.5344250143356E-02  0.0000000000000E+00  0.1933362336736E-02
 0.2279909662423E-03 -0.5168516733757E-02  0.0000000000000E+00  0.1928655309780E-02
 0.1798119095637E-03 -0.4993703833135E-02  0.0000000000000E+00  0.1935505282038E-02
 0.1599311015672E-03 -0.4824646430294E-02  0.0000000000000E+00  0.1955410803858E-02
 0.1764645632079E-03 -0.4666674676629E-02  0.0000000000000E+00  0.1989927436371E-02
 0.2377596581632E-03 -0.4525536270220E-02  0.0000000000000E+00  0.2040554838806E-02
 0.3521624083011E-03 -0.4407285591393E-02  0.0000000000000E+00  0.2108517049568E-02
 0.5277157877011E-03 -0.4318111271456E-02  0.0000000000000E+00  0.2194468241869E-02
 0.7717673397494E-03 -0.4264078847601E-02  0.0000000000000E+00  0.2298140789836E-02
 0.1090471041903E-02 -0.4250776997725E-02  0.0000000000000E+00  0.2417961547452E-02
 0.1488186686179E-02 -0.4282867402388E-02  0.0000000000000E+00  0.2550687066176E-02
 0.1966862585304E-02 -0.4363561247217E-02  0.0000000000000E+00  0.2691153380043E-02
 0.2525579293460E-02 -0.4494127380119E-02  0.0000000000000E+00  0.2832218609132E-02
 0.3160131061249E-02 -0.4673502121925E-02  0.0000000000000E+00  0.2964882008870E-02
 0.3862589407319E-02 -0.4897956418254E-02  0.0000000000000E+00  0.3078677042622E-02
 0.4621168417058E-02 -0.5160935171064E-02  0.0000000000000E+00  0.3162452910557E-02
 0.5420437671067E-02 -0.5453165883631E-02  0.0000000000000E+00  0.3205439588427E-02
 0.6241909074764E-02 -0.5763077080307E-02  0.0000000000000E+00  0.3198464100517E-02
 0.7064995926635E-02 -0.6077524393885E-02  0.0000000000000E+00  0.3135137623068E-02
 0.7868221034358E-02 -0.6382744301124E-02  0.0000000000000E+00  0.3012822296987E-02
 0.8630565695008E-02 -0.6665436944932E-02  0.0000000000000E+00  0.2833230003906E-02
 0.9332719222722E-02 -0.6913821997650E-02  0.0000000000000E+00  0.2602622668364E-02
 0.6775949309498E-04 -0.6254074359721E-02  0.0000000000000E+00  0.1634503462763E-02
 0.2050683082900E-03 -0.6337556203160E-02  0.0000000000000E+00  0.1798685362273E-02
 0.3426220039512E-03 -0.6418127916364E-02  0.0000000000000E+00  0.1937489786433E-02
 0.4749082630574E-03 -0.6491631862084E-02  0.0000000000000E+00  0.2048178079083E-02
 0.5968076904287E-03 -0.6554257247817E-02  0.0000000000000E+00  0.2130133341480E-02
 0.7039478807932E-03 -0.6602800239181E-02  0.0000000000000E+00  0.2184626498812E-02
 0.7929402714368E-03 -0.6634818885049E-02  0.0000000000000E+00  0.2214320586636E-02
 0.8614689568443E-03 -0.6648662004844E-02  0.0000000000000E+00  0.2222685242655E-02
 0.9082510411433E-03 -0.6643393529051E-02  0.0000000000000E+00  0.2213468067742E-02
 0.9329155149498E-03 -0.6618655974310E-02  0.0000000000000E+00  0.2190308783226E-02
 0.9358531168135E-03 -0.6574519373846E-02  0.0000000000000E+00  0.2156520277502E-02
 0.9180795409164E-03 -0.6511351921221E-02  0.0000000000000E+00  0.2115016716838E-02
 0.8811377298423E-03 -0.6429732537545E-02  0.0000000000000E+00  0.2068346404019E-02
 0.8270491543302E-03 -0.6330412478613E-02  0.0000000000000E+00  0.2018783630916E-02
 0.7583148781709E-03 -0.6214327924967E-02  0.0000000000000E+00  0.1968442113608E-02
 0.6779480323532E-03 -0.6082640782046E-02  0.0000000000000E+00  0.1919374570762E-02
 0.5895304801315E-03 -0.5936807187861E-02  0.0000000000000E+00  0.1873648406605E-02
 0.4972777927265E-03 -0.5778662233099E-02  0.0000000000000E+00  0.1833390340006E-02
 0.4060894682623E-03 -0.5610493701761E-02  0.0000000000000E+00  0.1800797962012E-02
 0.3215850036912E-03 -0.5435124852726E-02  0.0000000000000E+00  0.1778103696284E-02
 0.2501331227004E-03 -0.5256051541233E-02  0.0000000000000E+00  0.1767393470102E-02
 0.1988234002374E-03 -0.5077485734487E-02  0.0000000000000E+00  0.1770534948932E-02
 0.1753282589403E-03 -0.4904212208000E-02  0.0000000000000E+00  0.1789412454372E-02
 0.1877433761812E-03 -0.4741489467144E-02  0.0000000000000E+00  0.1826014137878E-02
 0.2444149351352E-03 -0.4594989048931E-02  0.0000000000000E+00  0.1882296594052E-02
 0.3537280231627E-03 -0.4470708059293E-02  0.0000000000000E+00  0.1959922028533E-02
 0.5238268884341E-03 -0.4374820300287E-02  0.0000000000000E+00  0.2059906196372E-02
 0.7622421733267E-03 -0.4313439799275E-02  0.0000000000000E+00  0.2182194887595E-02
 0.1075405960143E-02 -0.4292282594207E-02  0.0000000000000E+00  0.2325196815874E-02
 0.1468052619801E-02 -0.4316222868629E-02  0.0000000000000E+00  0.2485330661976E-02
 0.1942586948584E-02 -0.4388759981110E-02  0.0000000000000E+00  0.2656701423603E-02
 0.2498595339100E-02 -0.4511499156550E-02  0.0000000000000E+00  0.2831002411597E-02
 0.3132371866962E-02 -0.4683722476877E-02  0.0000000000000E+00  0.2997620082651E-02
 0.3836405804158E-02 -0.4902002463910E-02  0.0000000000000E+00  0.3144068077633E-02
 0.4599163471489E-02 -0.5159974258031E-02  0.0000000000000E+00  0.3256904331400E-02
 0.5405226885043E-02 -0.5448382453832E-02  0.0000000000000E+00  0.3323011790622E-02
 0.6235834294190E-02 -0.5755459757766E-02  0.0000000000000E+00  0.3331086338750E-02
 0.7069836984620E-02 -0.6067648764873E-02  0.0000000000000E+00  0.3273109226913E-02
 0.7884955110348E-02 -0.6370592341042E-02  0.0000000000000E+00  0.3145558047790E-02
 0.8659218791159E-02 -0.6650288562035E-02  0.0000000000000E+00  0.2950159164848E-02
 0.9372337624554E-02 -0.6894240671817E-02  0.0000000000000E+00  0.2694124692869E-02
 0.6951700536382E-04 -0.6358543013602E-02  0.0000000000000E+00  0.1684183304513E-02
 0.2107520183768E-03 -0.6444248989375E-02  0.0000000000000E+00  0.1846788900834E-02
 0.3527742357754E-03 -0.6527116855686E-02  0.0000000000000E+00  0.1981155999569E-02
 0.4897081118498E-03 -0.6602739811661E-02  0.0000000000000E+00  0.2084694524654E-02
 0.6160863858987E-03 -0.6667086106191E-02  0.0000000000000E+00  0.2157147252255E-02
 0.7272651752359E-03 -0.6716803930357E-02  0.0000000000000E+00  0.2200290802212E-02
 0.8196903751662E-03 -0.6749394140125E-02  0.0000000000000E+00  0.2217343070382E-02
 0.8909845290678E-03 -0.6763231092648E-02  0.0000000000000E+00  0.2212286988045E-02
 0.9398837281434E-03 -0.6757462397061E-02  0.0000000000000E+00  0.2189281853205E-02
 0.9660842951815E-03 -0.6731842430072E-02  0.0000000000000E+00  0.2152255246872E-02
 0.9700619700766E-03 -0.6686554441051E-02  0.0000000000000E+00  0.2104693691865E-02
 0.9529117034656E-03 -0.6622061835876E-02  0.0000000000000E+00  0.2049600691675E-02
 0.9162355506914E-03 -0.6539009657567E-02  0.0000000000000E+00  0.1989568069707E-02
 0.8620877907127E-03 -0.6438182187715E-02  0.0000000000000E+00  0.1926906095409E-02
 0.7929761729650E-03 -0.6320516717554E-02  0.0000000000000E+00  0.1863789873423E-02
 0.7118986586124E-03 -0.6187148512262E-02  0.0000000000000E+00  0.1802381967198E-02
 0.6224063466663E-03 -0.6039484902926E-02  0.0000000000000E+00  0.1744921628767E-02
 0.5286748362308E-03 -0.5879295516345E-02  0.0000000000000E+00  0.1693774072583E-02
 0.4355595806329E-03 -0.5708790277535E-02  0.0000000000000E+00  0.1651438122073E-02
 0.3486367440037E-03 -0.5530709388778E-02  0.0000000000000E+00  0.1620495940901E-02
 0.2742401659718E-03 -0.5348483730122E-02  0.0000000000000E+00  0.1603387991587E-02
 0.2194300366009E-03 -0.5166276249051E-02  0.0000000000000E+00  0.1602326831792E-02
 0.1918457298820E-03 -0.4988805731924E-02  0.0000000000000E+00  0.1619575472768E-02
 0.1995525577495E-03 -0.4821241346589E-02  0.0000000000000E+00  0.1657553835978E-02
 0.2508880669867E-03 -0.4669160315225E-02  0.0000000000000E+00  0.1718685242942E-02
 0.3542749311154E-03 -0.4538486754333E-02  0.0000000000000E+00  0.1805094465948E-02
 0.5179672901516E-03 -0.4435370078680E-02  0.0000000000000E+00  0.1918200674891E-02
 0.7497019848847E-03 -0.4365973511847E-02  0.0000000000000E+00  0.2058222991561E-02
 0.1056230772291E-02 -0.4336155415654E-02  0.0000000000000E+00  0.2223627278742E-02
 0.1442725208208E-02 -0.4351034772218E-02  0.0000000000000E+00  0.2410577769071E-02
 0.1912130263334E-02 -0.4414449576957E-02  0.0000000000000E+00  0.2612528261278E-02
 0.2464639519707E-02 -0.4528407644735E-02  0.0000000000000E+00  0.2820068403956E-02
 0.3097157030878E-02 -0.4692612923125E-02  0.0000000000000E+00  0.3020994959116E-02
 0.3802693798404E-02 -0.4904015041469E-02  0.0000000000000E+00  0.3200767353075E-02
 0.4570046981594E-02 -0.5156499295020E-02  0.0000000000000E+00  0.3343549837786E-02
 0.5383844268195E-02 -0.5440855449686E-02  0.0000000000000E+00  0.3433711179687E-02
 0.6225022437914E-02 -0.5745103623572E-02  0.0000000000000E+00  0.3457604173844E-02
 0.7071776037028E-02 -0.6055206591873E-02  0.0000000000000E+00  0.3405357567689E-02
 0.7900868328861E-02 -0.6356102471202E-02  0.0000000000000E+00  0.3272370917377E-02
 0.8689184759187E-02 -0.6632947710668E-02  0.0000000000000E+00  0.3060253885269E-02
 0.9415250803511E-02 -0.6872383231759E-02  0.0000000000000E+00  0.2777117154666E-02
 0.7150480921307E-04 -0.6463936183363E-02  0.0000000000000E+00  0.1735168024480E-02
 0.2171333038993E-03 -0.6552147108591E-02  0.0000000000000E+00  0.1896200587145E-02
 0.3640831400825E-03 -0.6637574355615E-02  0.0000000000000E+00  0.2025974696494E-02
 0.5060769510468E-03 -0.6715537301504E-02  0.0000000000000E+00  0.2122055067979E-02
 0.6372686968952E-03 -0.6781766985564E-02  0.0000000000000E+00  0.2184589823421E-02
 0.7527288514473E-03 -0.6832762045711E-02  0.0000000000000E+00  0.2215927636613E-02
 0.8487418102264E-03 -0.6865979158874E-02  0.0000000000000E+00  0.2219906807020E-02
 0.9228862368586E-03 -0.6879840999838E-02  0.0000000000000E+00  0.2201072485081E-02
 0.9739413173791E-03 -0.6873604869902E-02  0.0000000000000E+00  0.2164021209595E-02
 0.1001694503023E-02 -0.6847160577621E-02  0.0000000000000E+00  0.2112971584333E-02
 0.1006725346468E-02 -0.6800822122591E-02  0.0000000000000E+00  0.2051569954660E-02
 0.9902195628092E-03 -0.6735158133320E-02  0.0000000000000E+00  0.1982884993010E-02
 0.9538420864706E-03 -0.6650882309299E-02  0.0000000000000E+00  0.1909523367142E-02
 0.8996768046046E-03 -0.6548807933051E-02  0.0000000000000E+00  0.1833802446105E-02
 0.8302294205455E-03 -0.6429864100954E-02  0.0000000000000E+00  0.1757932371441E-02
 0.7484701862484E-03 -0.6295146240276E-02  0.0000000000000E+00  0.1684163114164E-02
 0.6579048272595E-03 -0.6145997085833E-02  0.0000000000000E+00  0.1614887529203E-02
 0.5626538037848E-03 -0.5984103481931E-02  0.0000000000000E+00  0.1552694690727E-02
 0.4675138650940E-03 -0.5811579371696E-02  0.0000000000000E+00  0.1500372536954E-02
 0.3780043454729E-03 -0.5631063592987E-02  0.0000000000000E+00  0.1460842249171E-02
 0.3004125898021E-03 -0.5445905402886E-02  0.0000000000000E+00  0.1436888364771E-02
 0.2417589074634E-03 -0.5260203773436E-02  0.0000000000000E+00  0.1431057823323E-02
 0.2096384864851E-03 -0.5078595317447E-02  0.0000000000000E+00  0.1445983937168E-02
 0.2120746245315E-03 -0.4906141141925E-02  0.0000000000000E+00  0.1484516505394E-02
 0.2573861812167E-03 -0.4748304117275E-02  0.0000000000000E+00  0.1549555387043E-02
 0.3540283734077E-03 -0.4610916819921E-02  0.0000000000000E+00  0.1643714395417E-02
 0.5103695248525E-03 -0.4500090990423E-02  0.0000000000000E+00  0.1768862988544E-02
 0.7343711527766E-03 -0.4422035407824E-02  0.0000000000000E+00  0.1925562254553E-02
 0.1033142129496E-02 -0.4382761321102E-02  0.0000000000000E+00  0.2112423195383E-02
 0.1412351285862E-02 -0.4387661246346E-02  0.0000000000000E+00  0.2325455262842E-02
 0.1875567878452E-02 -0.4440960673884E-02  0.0000000000000E+00  0.2557559198140E-02
 0.2423698658663E-02 -0.4545137678564E-02  0.0000000000000E+00  0.2798299810722E-02
 0.3054377482043E-02 -0.4700399583963E-02  0.0000000000000E+00  0.3033920099557E-02
 0.3761255471660E-02 -0.4904158072711E-02  0.0000000000000E+00  0.3247793583597E-02
 0.4533556418035E-02 -0.5150620569326E-02  0.0000000000000E+00  0.3421576476092E-02
 0.5356003308738E-02 -0.5430662040699E-02  0.0000000000000E+00  0.3536927808926E-02
 0.6209214856658E-02 -0.5732081591583E-02  0.0000000000000E+00  0.3577603121631E-02
 0.7070636530013E-02 -0.6040297185431E-02  0.0000000000000E+00  0.3531607683449E-02
 0.7915912788404E-02 -0.6339425321208E-02  0.0000000000000E+00  0.3393025716217E-02
 0.8720575050851E-02 -0.6613629608987E-02  0.0000000000000E+00  0.3163189536288E-02
 0.9461740094663E-02 -0.6848528294306E-02  0.0000000000000E+00  0.2851046566958E-02
 0.7373334629331E-04 -0.6570345156784E-02  0.0000000000000E+00  0.1787632026695E-02
 0.2242466093866E-03 -0.6661353224860E-02  0.0000000000000E+00  0.1947087588380E-02
 0.3766087874768E-03 -0.6749611430424E-02  0.0000000000000E+00  0.2072088521804E-02
 0.5240941522396E-03 -0.6830135502221E-02  0.0000000000000E+00  0.2160364149874E-02
 0.6604417707438E-03 -0.6898400372040E-02  0.0000000000000E+00  0.2212523738679E-02
 0.7804212086489E-03 -0.6950754237246E-02  0.0000000000000E+00  0.2231566147818E-02
 0.8801618423402E-03 -0.6984625902851E-02  0.0000000000000E+00  0.2222024561002E-02
 0.9572204510911E-03 -0.6998513514348E-02  0.0000000000000E+00  0.2189059186671E-02
 0.1010447948456E-02 -0.6991814128279E-02  0.0000000000000E+00  0.2137728426130E-02
 0.1039750348914E-02 -0.6964579493574E-02  0.0000000000000E+00  0.2072540858586E-02
 0.1045832190510E-02 -0.6917273562467E-02  0.0000000000000E+00  0.1997283122223E-02
 0.1029982635975E-02 -0.6850580833850E-02  0.0000000000000E+00  0.1915059011814E-02
 0.9939335542381E-03 -0.6765286168026E-02  0.0000000000000E+00  0.1828456074795E-02
 0.9397949617427E-03 -0.6662227444944E-02  0.0000000000000E+00  0.1739765493929E-02
 0.8700611951625E-03 -0.6542315752417E-02  0.0000000000000E+00  0.1651202609658E-02
 0.7876615568095E-03 -0.6406592981219E-02  0.0000000000000E+00  0.1565079744208E-02
 0.6960411340442E-03 -0.6256321078323E-02  0.0000000000000E+00  0.1483923246322E-02
 0.5992495898988E-03 -0.6093086545143E-02  0.0000000000000E+00  0.1410530113653E-02
 0.5020100291877E-03 -0.5918889153039E-02  0.0000000000000E+00  0.1347964261900E-02
 0.4097713270036E-03 -0.5736248114333E-02  0.0000000000000E+00  0.1299474144214E-02
 0.3287626216593E-03 -0.5548414495740E-02  0.0000000000000E+00  0.1268176818668E-02
 0.2659535578983E-03 -0.5359408332019E-02  0.0000000000000E+00  0.1256941767542E-02
 0.2288831600864E-03 -0.5173767517497E-02  0.0000000000000E+00  0.1268762474055E-02
 0.2255193071904E-03 -0.4996425311357E-02  0.0000000000000E+00  0.1306915000348E-02
 0.2641492286106E-03 -0.4832708151428E-02  0.0000000000000E+00  0.1374784735905E-02
 0.3532515797330E-03 -0.4688335355205E-02  0.0000000000000E+00  0.1475502130949E-02
 0.5013081189578E-03 -0.4569363432673E-02  0.0000000000000E+00  0.1611437903064E-02
 0.7165179797984E-03 -0.4482037964874E-02  0.0000000000000E+00  0.1783571744257E-02
 0.1006379417057E-02 -0.4432528288465E-02  0.0000000000000E+00  0.1990760312603E-02
 0.1377115108424E-02 -0.4426524582948E-02  0.0000000000000E+00  0.2228974935358E-02
 0.1833002449100E-02 -0.4468686171212E-02  0.0000000000000E+00  0.2490681723515E-02
 0.2375771988497E-02 -0.4562030037877E-02  0.0000000000000E+00  0.2764520458622E-02
 0.3003918005758E-02 -0.4707354126780E-02  0.0000000000000E+00  0.3035233424860E-02
 0.3711867033975E-02 -0.4902627940764E-02  0.0000000000000E+00  0.3284083532053E-02
 0.4489386158319E-02 -0.5142467501952E-02  0.0000000000000E+00  0.3490095475535E-02
 0.5321363856334E-02 -0.5417887906335E-02  0.0000000000000E+00  0.3631994417304E-02
 0.6188098829089E-02 -0.5716469662715E-02  0.0000000000000E+00  0.3690638313068E-02
 0.7066198882826E-02 -0.6023023679660E-02  0.0000000000000E+00  0.3651582637805E-02
 0.7930018669688E-02 -0.6320721082458E-02  0.0000000000000E+00  0.3507307613282E-02
 0.8753506705428E-02 -0.6592566948658E-02  0.0000000000000E+00  0.3258672633186E-02
 0.9512121623484E-02 -0.6822978567194E-02  0.0000000000000E+00  0.2915387363109E-02
 0.7621424939457E-04 -0.6677866555488E-02  0.0000000000000E+00  0.1841756768122E-02
 0.2321303609734E-03 -0.6771976463043E-02  0.0000000000000E+00  0.1999622493807E-02
 0.3904179326543E-03 -0.6863345925922E-02  0.0000000000000E+00  0.2119639887467E-02
 0.5438469109131E-03 -0.6946651124216E-02  0.0000000000000E+00  0.2199717671424E-02
 0.6856994770855E-03 -0.7017089120477E-02  0.0000000000000E+00  0.2240994712434E-02
 0.8104282054157E-03 -0.7070857998610E-02  0.0000000000000E+00  0.2247212298344E-02
 0.9140172620759E-03 -0.7105379205324E-02  0.0000000000000E+00  0.2223683135210E-02
 0.9940288550650E-03 -0.7119258749472E-02  0.0000000000000E+00  0.2176239220015E-02
 0.1049419524804E-02 -0.7112068105849E-02  0.0000000000000E+00  0.2110423694944E-02
 0.1080245300998E-02 -0.7084050601418E-02  0.0000000000000E+00  0.2031028804601E-02
 0.1087359321122E-02 -0.7035840951368E-02  0.0000000000000E+00  0.1941955346973E-02
 0.1072167963341E-02 -0.6968250638884E-02  0.0000000000000E+00  0.1846305747226E-02
 0.1036474223344E-02 -0.6882137983880E-02  0.0000000000000E+00  0.1746608904245E-02
 0.9824103360713E-03 -0.6778360552271E-02  0.0000000000000E+00  0.1645092038110E-02
 0.9124492277880E-03 -0.6657801023286E-02  0.0000000000000E+00  0.1543942381653E-02
 0.8294651946197E-03 -0.6521433509997E-02  0.0000000000000E+00  0.1445507001403E-02
 0.7368266727745E-03 -0.6370422560119E-02  0.0000000000000E+00  0.1352423871684E-02
 0.6384963218269E-03 -0.6206236536729E-02  0.0000000000000E+00  0.1267680808702E-02
 0.5391083775745E-03 -0.6030742822267E-02  0.0000000000000E+00  0.1194603670657E-02
 0.4440275479362E-03 -0.5846322864132E-02  0.0000000000000E+00  0.1136755459383E-02
 0.3594130450957E-03 -0.5656113152468E-02  0.0000000000000E+00  0.1097573024927E-02
 0.2921728726664E-03 -0.5464039927497E-02  0.0000000000000E+00  0.1080234975457E-02
 0.2497771125260E-03 -0.5274525548678E-02  0.0000000000000E+00  0.1088082615921E-02
 0.2401229839136E-03 -0.5092354594635E-02  0.0000000000000E+00  0.1124812205665E-02
 0.2714499967751E-03 -0.4922692841492E-02  0.0000000000000E+00  0.1194301882859E-02
 0.3522466095270E-03 -0.4771121183558E-02  0.0000000000000E+00  0.1300226330318E-02
 0.4911015085213E-03 -0.4643618571942E-02  0.0000000000000E+00  0.1445511432761E-02
 0.6964578684395E-03 -0.4546452751223E-02  0.0000000000000E+00  0.1631639153838E-02
 0.9762292275408E-03 -0.4485949937214E-02  0.0000000000000E+00  0.1857824432928E-02
 0.1337243907696E-02 -0.4468116263160E-02  0.0000000000000E+00  0.2120134723686E-02
 0.1784570014234E-02 -0.4498087497339E-02  0.0000000000000E+00  0.2410742299347E-02
 0.2320876828363E-02 -0.4579488340501E-02  0.0000000000000E+00  0.2717486485927E-02
 0.2945661347416E-02 -0.4713800366319E-02  0.0000000000000E+00  0.3023684185106E-02
 0.3654280211132E-02 -0.4899658791436E-02  0.0000000000000E+00  0.3308475458479E-02
 0.4437185458591E-02 -0.5132191854822E-02  0.0000000000000E+00  0.3548124829166E-02
 0.5279526826288E-02 -0.5402628118118E-02  0.0000000000000E+00  0.3718171244003E-02
 0.6161300147996E-02 -0.5698345971213E-02  0.0000000000000E+00  0.3796224088550E-02
 0.7058192786628E-02 -0.6003491226743E-02  0.0000000000000E+00  0.3764998691992E-02
 0.7943088016054E-02 -0.6300157745911E-02  0.0000000000000E+00  0.3615021491951E-02
 0.8788098692705E-02 -0.6570008509857E-02  0.0000000000000E+00  0.3346441633655E-02
 0.9566745768895E-02 -0.6796059726416E-02  0.0000000000000E+00  0.2969641050337E-02
 0.7896066793914E-04 -0.6786603865869E-02  0.0000000000000E+00  0.1897731547541E-02
 0.2408279906164E-03 -0.6884134252617E-02  0.0000000000000E+00  0.2053983700578E-02
 0.4055856193989E-03 -0.6978904463830E-02  0.0000000000000E+00  0.2168770168091E-02
 0.5654320049448E-03 -0.7065208076878E-02  0.0000000000000E+00  0.2240200635564E-02
 0.7131438301039E-03 -0.7137939473780E-02  0.0000000000000E+00  0.2270027845959E-02
 0.8428402280592E-03 -0.7193148890243E-02  0.0000000000000E+00  0.2262844640729E-02
 0.9503744385300E-03 -0.7228276279827E-02  0.0000000000000E+00  0.2224839322306E-02
 0.1033347918874E-02 -0.7242074158749E-02  0.0000000000000E+00  0.2162576048122E-02
 0.1090862821789E-02 -0.7234328258501E-02  0.0000000000000E+00  0.2082102699383E-02
 0.1123161019793E-02 -0.7205506382891E-02  0.0000000000000E+00  0.1988482315798E-02
 0.1131270319551E-02 -0.7156436277876E-02  0.0000000000000E+00  0.1885696115697E-02
 0.1116729009187E-02 -0.7088067742699E-02  0.0000000000000E+00  0.1776801640604E-02
 0.1081415341982E-02 -0.7001334429060E-02  0.0000000000000E+00  0.1664223821471E-02
 0.1027479253544E-02 -0.6897108024319E-02  0.0000000000000E+00  0.1550083624386E-02
 0.9573613516124E-03 -0.6776231737465E-02  0.0000000000000E+00  0.1436503459444E-02
 0.8738659363013E-03 -0.6639597087043E-02  0.0000000000000E+00  0.1325835069644E-02
 0.7802679353460E-03 -0.6488254179005E-02  0.0000000000000E+00  0.1220804543112E-02
 0.6804261911666E-03 -0.6323535217479E-02  0.0000000000000E+00  0.1124572387097E-02
 0.5788705638943E-03 -0.6147156996464E-02  0.0000000000000E+00  0.1040711616359E-02
 0.4808678816599E-03 -0.5961345269630E-02  0.0000000000000E+00  0.9730861545409E-03
 0.3924958324959E-03 -0.5769105870767E-02  0.0000000000000E+00  0.9254386783956E-03
 0.3205897524498E-03 -0.5574256638006E-02  0.0000000000000E+00  0.9012416768702E-03
 0.2725372935121E-03 -0.5381087442241E-02  0.0000000000000E+00  0.9041691986992E-03
 0.2561479123033E-03 -0.5194212377304E-02  0.0000000000000E+00  0.9383283853936E-03
 0.2795939641294E-03 -0.5018610142736E-02  0.0000000000000E+00  0.1008094498105E-02
 0.3513551195332E-03 -0.4859694394443E-02  0.0000000000000E+00  0.1117712756691E-02
 0.4801140260820E-03 -0.4723338980893E-02  0.0000000000000E+00  0.1270719654286E-02
 0.6745567846006E-03 -0.4615812528719E-02  0.0000000000000E+00  0.1469188841789E-02
 0.9430304080481E-03 -0.4543589395940E-02  0.0000000000000E+00  0.1712817518728E-02
 0.1293014344963E-02 -0.4513002687906E-02  0.0000000000000E+00  0.1997921458121E-02
 0.1730447267043E-02 -0.4529701964155E-02  0.0000000000000E+00  0.2316544313506E-02
 0.2259055614462E-02 -0.4597987348500E-02  0.0000000000000E+00  0.2655878465173E-02
 0.2879493577798E-02 -0.4720122443843E-02  0.0000000000000E+00  0.2997919161586E-02
 0.3588224471444E-02 -0.4895529310935E-02  0.0000000000000E+00  0.3319690725720E-02
 0.4376556538406E-02 -0.5119972032256E-02  0.0000000000000E+00  0.3594569138020E-02
 0.5230028170901E-02 -0.5384988556159E-02  0.0000000000000E+00  0.3794627879273E-02
 0.6128374335493E-02 -0.5677789861133E-02  0.0000000000000E+00  0.3893821203803E-02
 0.7046288007252E-02 -0.5981805009487E-02  0.0000000000000E+00  0.3871559100941E-02
 0.7954987393029E-02 -0.6277909233503E-02  0.0000000000000E+00  0.3715990647699E-02
 0.8824467681508E-02 -0.6546217751219E-02  0.0000000000000E+00  0.3426267171424E-02
 0.9625996601433E-02 -0.6768119303428E-02  0.0000000000000E+00  0.3013334870082E-02
 0.8198766260871E-04 -0.6896669248216E-02  0.0000000000000E+00  0.1955754504620E-02
 0.2503891740335E-03 -0.6997954506178E-02  0.0000000000000E+00  0.2110355895912E-02
 0.4221970985187E-03 -0.7096424714483E-02  0.0000000000000E+00  0.2219618702938E-02
 0.5889578472261E-03 -0.7185939351476E-02  0.0000000000000E+00  0.2281884272314E-02
 0.7428865786678E-03 -0.7261062134547E-02  0.0000000000000E+00  0.2299623280661E-02
 0.8777528637801E-03 -0.7317700649137E-02  0.0000000000000E+00  0.2278409407766E-02
 0.9892992482855E-03 -0.7353346006673E-02  0.0000000000000E+00  0.2225415348619E-02
 0.1075208185475E-02 -0.7366943299285E-02  0.0000000000000E+00  0.2148000849329E-02
 0.1134774401968E-02 -0.7358538110238E-02  0.0000000000000E+00  0.2052734106404E-02
 0.1168466128195E-02 -0.7328858918596E-02  0.0000000000000E+00  0.1944927941114E-02
 0.1177514287347E-02 -0.7278949957727E-02  0.0000000000000E+00  0.1828601529001E-02
 0.1163604457352E-02 -0.7209910551764E-02  0.0000000000000E+00  0.1706716431556E-02
 0.1128693969131E-02 -0.7122750859673E-02  0.0000000000000E+00  0.1581542350803E-02
 0.1074945139426E-02 -0.7018350316430E-02  0.0000000000000E+00  0.1455047247936E-02
 0.1004754342613E-02 -0.6897500872842E-02  0.0000000000000E+00  0.1329248698216E-02
 0.9208398450647E-03 -0.6760996043226E-02  0.0000000000000E+00  0.1206470702541E-02
 0.8263652662738E-03 -0.6609754017045E-02  0.0000000000000E+00  0.1089502428214E-02
 0.7250681463239E-03 -0.6444952606807E-02  0.0000000000000E+00  0.9816580800770E-03
 0.6213581854906E-03 -0.6268139884178E-02  0.0000000000000E+00  0.8867424659710E-03
 0.5203907085180E-03 -0.6081368291582E-02  0.0000000000000E+00  0.8089060108430E-03
 0.4281505704977E-03 -0.5887497382199E-02  0.0000000000000E+00  0.7521819845503E-03
 0.3513895580493E-03 -0.5690222414871E-02  0.0000000000000E+00  0.7203194426305E-03
 0.2973988495809E-03 -0.5493683863072E-02  0.0000000000000E+00  0.7173068404570E-03
 0.2738812129776E-03 -0.5302302696658E-02  0.0000000000000E+00  0.7476487839008E-03
 0.2889189338494E-03 -0.5120841978703E-02  0.0000000000000E+00  0.8162180187958E-03
 0.3509589847425E-03 -0.4954515545348E-02  0.0000000000000E+00  0.9278538602604E-03
 0.4687578813829E-03 -0.4809059025178E-02  0.0000000000000E+00  0.1086758725797E-02
 0.6512349437739E-03 -0.4690713288851E-02  0.0000000000000E+00  0.1295691471128E-02
 0.9071796543874E-03 -0.4606083401368E-02  0.0000000000000E+00  0.1554965694564E-02
 0.1244759908110E-02 -0.4561831552216E-02  0.0000000000000E+00  0.1861315564172E-02
 0.1670860166637E-02 -0.4564151246048E-02  0.0000000000000E+00  0.2206847639666E-02
 0.2190384544685E-02 -0.4618082849380E-02  0.0000000000000E+00  0.2578294279864E-02
 0.2805311065274E-02 -0.4726774860782E-02  0.0000000000000E+00  0.2956468307533E-02
 0.3513410444098E-02 -0.4890571329407E-02  0.0000000000000E+00  0.3316313323901E-02
 0.4307053021387E-02 -0.5106018807971E-02  0.0000000000000E+00  0.3628196119258E-02
 0.5172332143856E-02 -0.5365088071369E-02  0.0000000000000E+00  0.3860421336120E-02
 0.6088796284194E-02 -0.5654881041036E-02  0.0000000000000E+00  0.3982820921114E-02
 0.7030083410490E-02 -0.5958068045636E-02  0.0000000000000E+00  0.3970946160852E-02
 0.7965539274761E-02 -0.6254153462678E-02  0.0000000000000E+00  0.3810054679851E-02
 0.8862723103870E-02 -0.6521471421333E-02  0.0000000000000E+00  0.3497951440186E-02
 0.9690291134481E-02 -0.6739525487839E-02  0.0000000000000E+00  0.3046019682323E-02
 0.8531268738376E-04 -0.7008185685891E-02  0.0000000000000E+00  0.2016033869529E-02
 0.2608713354893E-03 -0.7113578208197E-02  0.0000000000000E+00  0.2168930642278E-02
 0.4403501295600E-03 -0.7216058065543E-02  0.0000000000000E+00  0.2272321530902E-02
 0.6145468850887E-03 -0.7308989160197E-02  0.0000000000000E+00  0.2324822501250E-02
 0.7750509754656E-03 -0.7386573375511E-02  0.0000000000000E+00  0.2329750985240E-02
 0.9152676510802E-03 -0.7444585137048E-02  0.0000000000000E+00  0.2293814799410E-02
 0.1030856834531E-02 -0.7480607944546E-02  0.0000000000000E+00  0.2225293760053E-02
 0.1119633327782E-02 -0.7493834306122E-02  0.0000000000000E+00  0.2132408623783E-02
 0.1181139313815E-02 -0.7484621563689E-02  0.0000000000000E+00  0.2022257002145E-02
 0.1216114812032E-02 -0.7453998270068E-02  0.0000000000000E+00  0.1900370432950E-02
 0.1226024483829E-02 -0.7403249370344E-02  0.0000000000000E+00  0.1770753644853E-02
 0.1212716918930E-02 -0.7333634349589E-02  0.0000000000000E+00  0.1636213034712E-02
 0.1178231730605E-02 -0.7246240032132E-02  0.0000000000000E+00  0.1498805837695E-02
 0.1124737286199E-02 -0.7141946257487E-02  0.0000000000000E+00  0.1360295960637E-02
 0.1054572669758E-02 -0.7021481160630E-02  0.0000000000000E+00  0.1222553008920E-02
 0.9703529226717E-03 -0.6885524256707E-02  0.0000000000000E+00  0.1087838600454E-02
 0.8751115158282E-03 -0.6734843925579E-02  0.0000000000000E+00  0.9589785412145E-03
 0.7724464590107E-03 -0.6570445159579E-02  0.0000000000000E+00  0.8394210341694E-03
 0.6666312337503E-03 -0.6393689287569E-02  0.0000000000000E+00  0.7331869399691E-03
 0.5626962380304E-03 -0.6206438243462E-02  0.0000000000000E+00  0.6446981259932E-03
 0.4665226822068E-03 -0.6011390302040E-02  0.0000000000000E+00  0.5782619650570E-03
 0.3847683171442E-03 -0.5812104611938E-02  0.0000000000000E+00  0.5378844788771E-03
 0.3246134655712E-03 -0.5612555616835E-02  0.0000000000000E+00  0.5278463964881E-03
 0.2936335674280E-03 -0.5416947891826E-02  0.0000000000000E+00  0.5530313756993E-03
 0.2997943875867E-03 -0.5229798288186E-02  0.0000000000000E+00  0.6188047478444E-03
 0.3514806881837E-03 -0.5056084470544E-02  0.0000000000000E+00  0.7306191307740E-03
 0.4574950321493E-03 -0.4901364916889E-02  0.0000000000000E+00  0.8933961345246E-03
 0.6269706128993E-03 -0.4771816119195E-02  0.0000000000000E+00  0.1110675379498E-02
 0.8691375728783E-03 -0.4674146533650E-02  0.0000000000000E+00  0.1383529414714E-02
 0.1192879243284E-02 -0.4615338817386E-02  0.0000000000000E+00  0.1709298116883E-02
 0.1606093995579E-02 -0.4602151036865E-02  0.0000000000000E+00  0.2080370277159E-02
 0.2114984079919E-02 -0.4640423305240E-02  0.0000000000000E+00  0.2483243182368E-02
 0.2723029414336E-02 -0.4734294706046E-02  0.0000000000000E+00  0.2897730041401E-02
 0.3429534922412E-02 -0.4885180689475E-02  0.0000000000000E+00  0.3296767154068E-02
 0.4228179017371E-02 -0.5090582911764E-02  0.0000000000000E+00  0.3647609175272E-02
 0.5105823879712E-02 -0.5343061679157E-02  0.0000000000000E+00  0.3914469424748E-02
 0.6041948030384E-02 -0.5629698859696E-02  0.0000000000000E+00  0.4062525147347E-02
 0.7009093809884E-02 -0.5932378688681E-02  0.0000000000000E+00  0.4062811196720E-02
 0.7974512000878E-02 -0.6229070369746E-02  0.0000000000000E+00  0.3897066646195E-02
 0.8902961498616E-02 -0.6496058233273E-02  0.0000000000000E+00  0.3561326402444E-02
 0.9760077996817E-02 -0.6710665673370E-02  0.0000000000000E+00  0.3067266780217E-02
 0.8895618063947E-04 -0.7121289552999E-02  0.0000000000000E+00  0.2078789518552E-02
 0.2723414866599E-03 -0.7231162505947E-02  0.0000000000000E+00  0.2229907070269E-02
 0.4601577527850E-03 -0.7337972762763E-02  0.0000000000000E+00  0.2327009757504E-02
 0.6423384049286E-03 -0.7434515355852E-02  0.0000000000000E+00  0.2369047540400E-02
 0.8097737269983E-03 -0.7514596150504E-02  0.0000000000000E+00  0.2360344474838E-02
 0.9554927607703E-03 -0.7573872047227E-02  0.0000000000000E+00  0.2308924330615E-02
 0.1075111130832E-02 -0.7610070981007E-02  0.0000000000000E+00  0.2224311709002E-02
 0.1166638920466E-02 -0.7622698012550E-02  0.0000000000000E+00  0.2115654060882E-02
 0.1229929540556E-02 -0.7612480941283E-02  0.0000000000000E+00  0.1990578339420E-02
 0.1266045240874E-02 -0.7580790696525E-02  0.0000000000000E+00  0.1854791413897E-02
 0.1276716848483E-02 -0.7529177312824E-02  0.0000000000000E+00  0.1712219933051E-02
 0.1263971564382E-02 -0.7459069923662E-02  0.0000000000000E+00  0.1565447457408E-02
 0.1229933511556E-02 -0.7371630789264E-02  0.0000000000000E+00  0.1416255667926E-02
 0.1176769550484E-02 -0.7267731688477E-02  0.0000000000000E+00  0.1266149366413E-02
 0.1106747158505E-02 -0.7148023604668E-02  0.0000000000000E+00  0.1116804178163E-02
 0.1022359719451E-02 -0.7013055517976E-02  0.0000000000000E+00  0.9703826169277E-03
 0.9264905792835E-03 -0.6863427722289E-02  0.0000000000000E+00  0.8297193809869E-03
 0.8225791648637E-03 -0.6699953784387E-02  0.0000000000000E+00  0.6983764175354E-03
 0.7147464004766E-03 -0.6523790426170E-02  0.0000000000000E+00  0.5805747489359E-03
 0.6078846590488E-03 -0.6336592407765E-02  0.0000000000000E+00  0.4809921971678E-03
 0.5077614398749E-03 -0.6140882543136E-02  0.0000000000000E+00  0.4041925613562E-03
 0.4209306786507E-03 -0.5940071235276E-02  0.0000000000000E+00  0.3544167645859E-03
 0.3544474105916E-03 -0.5737950822892E-02  0.0000000000000E+00  0.3362113543059E-03
 0.3157375835641E-03 -0.5538485856537E-02  0.0000000000000E+00  0.3548147245022E-03
 0.3126204880381E-03 -0.5345914612774E-02  0.0000000000000E+00  0.4160733316047E-03
 0.3533833807417E-03 -0.5164938591229E-02  0.0000000000000E+00  0.5260662251381E-03
 0.4468388215774E-03 -0.5000894291356E-02  0.0000000000000E+00  0.6904832484233E-03
 0.6023038963993E-03 -0.4859848729607E-02  0.0000000000000E+00  0.9137398737000E-03
 0.8294351046495E-03 -0.4748575418848E-02  0.0000000000000E+00  0.1197816148034E-02
 0.1137845394816E-02 -0.4674356164044E-02  0.0000000000000E+00  0.1540860767999E-02
 0.1536504975393E-02 -0.4644521885929E-02  0.0000000000000E+00  0.1935792706083E-02
 0.2033031593757E-02 -0.4665763449541E-02  0.0000000000000E+00  0.2369141642391E-02
 0.2632594829620E-02 -0.4743316457623E-02  0.0000000000000E+00  0.2819956561948E-02
 0.3336287987680E-02 -0.4879830918607E-02  0.0000000000000E+00  0.3259290976396E-02
 0.4139389282803E-02 -0.5073965054968E-02  0.0000000000000E+00  0.3651215321203E-02
 0.5029801397748E-02 -0.5319065208237E-02  0.0000000000000E+00  0.3955518197950E-02
 0.5987104294974E-02 -0.5602321781536E-02  0.0000000000000E+00  0.4132121344443E-02
 0.6982734032587E-02 -0.5904827633303E-02  0.0000000000000E+00  0.4146761965100E-02
 0.7981608127135E-02 -0.6202839901312E-02  0.0000000000000E+00  0.3976889702706E-02
 0.8945260173418E-02 -0.6470277715146E-02  0.0000000000000E+00  0.3616250246477E-02
 0.9835834777291E-02 -0.6681944227250E-02  0.0000000000000E+00  0.3076663213410E-02
 0.9294229668261E-04 -0.7236133701266E-02  0.0000000000000E+00  0.2144254897511E-02
 0.2848784883790E-03 -0.7350884416511E-02  0.0000000000000E+00  0.2293492672790E-02
 0.4817516412217E-03 -0.7462357610002E-02  0.0000000000000E+00  0.2383807406734E-02
 0.6724918090408E-03 -0.7562692146240E-02  0.0000000000000E+00  0.2414564403258E-02
 0.8472071146405E-03 -0.7645261135901E-02  0.0000000000000E+00  0.2391293203420E-02
 0.9985435369324E-03 -0.7705628248481E-02  0.0000000000000E+00  0.2323549080493E-02
 0.1122124059743E-02 -0.7741731497614E-02  0.0000000000000E+00  0.2222254609513E-02
 0.1216230852486E-02 -0.7753465622134E-02  0.0000000000000E+00  0.2097547227299E-02
 0.1281102155444E-02 -0.7741994701877E-02  0.0000000000000E+00  0.1957570494344E-02
 0.1318177792867E-02 -0.7709076682040E-02  0.0000000000000E+00  0.1808148253641E-02
 0.1329488408778E-02 -0.7656550363805E-02  0.0000000000000E+00  0.1653052904575E-02
 0.1317254685996E-02 -0.7586022150515E-02  0.0000000000000E+00  0.1494568791218E-02
 0.1283686088458E-02 -0.7498726706431E-02  0.0000000000000E+00  0.1334133452183E-02
 0.1230938974626E-02 -0.7395518031441E-02  0.0000000000000E+00  0.1172934001493E-02
 0.1161193555157E-02 -0.7276955887608E-02  0.0000000000000E+00  0.1012403532599E-02
 0.1076801824132E-02 -0.7143441739344E-02  0.0000000000000E+00  0.8545668019506E-03
 0.9804758018516E-03 -0.6995389199714E-02  0.0000000000000E+00  0.7022384124599E-03
 0.8754763584133E-03 -0.6833401649735E-02  0.0000000000000E+00  0.5590733729111E-03
 0.7657552218373E-03 -0.6658413528361E-02  0.0000000000000E+00  0.4294770709106E-03
 0.6560540992104E-03 -0.6471856395444E-02  0.0000000000000E+00  0.3183676380458E-03
 0.5520177465536E-03 -0.6276064437956E-02  0.0000000000000E+00  0.2305465809058E-03
 0.4600875871128E-03 -0.6074287851773E-02  0.0000000000000E+00  0.1704650722729E-03
 0.3871792506557E-03 -0.5870121679676E-02  0.0000000000000E+00  0.1429042022839E-03
 0.3405457751042E-03 -0.5667266800700E-02  0.0000000000000E+00  0.1534259818783E-03
 0.3278266535749E-03 -0.5469649099806E-02  0.0000000000000E+00  0.2083386548482E-03
 0.3571705057892E-03 -0.5281650560256E-02  0.0000000000000E+00  0.3143529421509E-03
 0.4373552502800E-03 -0.5108335094101E-02  0.0000000000000E+00  0.4779693210498E-03
 0.5778403630238E-03 -0.4955606386975E-02  0.0000000000000E+00  0.7045707335078E-03
 0.7886801964266E-03 -0.4830252640377E-02  0.0000000000000E+00  0.9971960604294E-03
 0.1080215928537E-02 -0.4739818720995E-02  0.0000000000000E+00  0.1355019251202E-02
 0.1462533586089E-02 -0.4692201145823E-02  0.0000000000000E+00  0.1771765844463E-02
 0.1944776553509E-02 -0.4694979991209E-02  0.0000000000000E+00  0.2234311894961E-02
 0.2533998528206E-02 -0.4754589791716E-02  0.0000000000000E+00  0.2721239841392E-02
 0.3233363017895E-02 -0.4875090375757E-02  0.0000000000000E+00  0.3201911120423E-02
 0.4040091162170E-02 -0.5056529180289E-02  0.0000000000000E+00  0.3637187776004E-02
 0.4943467352297E-02 -0.5293282073146E-02  0.0000000000000E+00  0.3982101920328E-02
 0.5923415424860E-02 -0.5572827254171E-02  0.0000000000000E+00  0.4190650344286E-02
 0.6950299302128E-02 -0.5875494107828E-02  0.0000000000000E+00  0.4222346539780E-02
 0.7986450920334E-02 -0.6175639874002E-02  0.0000000000000E+00  0.4049393868820E-02
 0.8989670647395E-02 -0.6444439564554E-02  0.0000000000000E+00  0.3662601328108E-02
 0.9918061927830E-02 -0.6653778112825E-02  0.0000000000000E+00  0.3073804174469E-02
 0.9729981934859E-04 -0.7352891199544E-02  0.0000000000000E+00  0.2212679391274E-02
 0.2985758518615E-03 -0.7472945304210E-02  0.0000000000000E+00  0.2359904186096E-02
 0.5052861727994E-03 -0.7589426348444E-02  0.0000000000000E+00  0.2442828559525E-02
 0.7051904436615E-03 -0.7693713129275E-02  0.0000000000000E+00  0.2461343950570E-02
 0.8875212656598E-03 -0.7778707625849E-02  0.0000000000000E+00  0.2422433314210E-02
 0.1044542805967E-02 -0.7839916637699E-02  0.0000000000000E+00  0.2337438670636E-02
 0.1171954302042E-02 -0.7875570933517E-02  0.0000000000000E+00  0.2218849150963E-02
 0.1268403307013E-02 -0.7886045867756E-02  0.0000000000000E+00  0.2077849169531E-02
 0.1334597154550E-02 -0.7873014825286E-02  0.0000000000000E+00  0.1923069054320E-02
 0.1372413091580E-02 -0.7838668808414E-02  0.0000000000000E+00  0.1760373253489E-02
 0.1384215603006E-02 -0.7785157216106E-02  0.0000000000000E+00  0.1593289965428E-02
 0.1372432227765E-02 -0.7714268605554E-02  0.0000000000000E+00  0.1423719277568E-02
 0.1339356735288E-02 -0.7627304761620E-02  0.0000000000000E+00  0.1252681136313E-02
 0.1287124360170E-02 -0.7525090844525E-02  0.0000000000000E+00  0.1080983533699E-02
 0.1217811010956E-02 -0.7408080709882E-02  0.0000000000000E+00  0.9097663701527E-03
 0.1133606246688E-02 -0.7276511047239E-02  0.0000000000000E+00  0.7408762040225E-03
 0.1037028261224E-02 -0.7130589980912E-02  0.0000000000000E+00  0.5770773181520E-03
 0.9311383566065E-03 -0.6970691816532E-02  0.0000000000000E+00  0.4220967463627E-03
 0.8197020770499E-03 -0.6797511235201E-02  0.0000000000000E+00  0.2805087937772E-03
 0.7072984114723E-03 -0.6612241300003E-02  0.0000000000000E+00  0.1574564409909E-03
 0.5994417010803E-03 -0.6417015624986E-02  0.0000000000000E+00  0.5795937717459E-04
 0.5024536831068E-03 -0.6214914212392E-02  0.0000000000000E+00 -0.1334826205557E-04
 0.4230972191166E-03 -0.6009320869707E-02  0.0000000000000E+00 -0.5148739021951E-04
 0.3684281219091E-03 -0.5803649547143E-02  0.0000000000000E+00 -0.5061116351118E-04
 0.3458696361323E-03 -0.5601478910394E-02  0.0000000000000E+00 -0.3978050834075E-05
 0.3633848720014E-03 -0.5406825177135E-02  0.0000000000000E+00  0.9574985589367E-04
 0.4296637122662E-03 -0.5224423646216E-02  0.0000000000000E+00  0.2559168315809E-03
 0.5542542992570E-03 -0.5059952059074E-02  0.0000000000000E+00  0.4829579579412E-03
 0.7475644971808E-03 -0.4920150117901E-02  0.0000000000000E+00  0.7811209730100E-03
 0.1020643785942E-02 -0.4812772849654E-02  0.0000000000000E+00  0.1150831062067E-02
 0.1384719607931E-02 -0.4746255937611E-02  0.0000000000000E+00  0.1586923511903E-02
 0.1850558528540E-02 -0.4729089575900E-02  0.0000000000000E+00  0.2076984257283E-02
 0.2427294808968E-02 -0.4769000891559E-02  0.0000000000000E+00  0.2599499183022E-02
 0.3120470411292E-02 -0.4871643660565E-02  0.0000000000000E+00  0.3122412275597E-02
 0.3929649146666E-02 -0.5038719927583E-02  0.0000000000000E+00  0.3603422640046E-02
 0.4845921035092E-02 -0.5265933128865E-02  0.0000000000000E+00  0.3992493863469E-02
 0.5849887287748E-02 -0.5541292395488E-02  0.0000000000000E+00  0.4236964401422E-02
 0.6910940544674E-02 -0.5844440569480E-02  0.0000000000000E+00  0.4289032290466E-02
 0.7988568364801E-02 -0.6147643456047E-02  0.0000000000000E+00  0.4114454049075E-02
 0.9036213554743E-02 -0.6418863650325E-02  0.0000000000000E+00  0.3700269643395E-02
 0.1000726851749E-01 -0.6626587513192E-02  0.0000000000000E+00  0.3058278738513E-02
 0.1020633115377E-03 -0.7471759902260E-02  0.0000000000000E+00  0.2284331241977E-02
 0.3135452312261E-03 -0.7597576319964E-02  0.0000000000000E+00  0.2429368523246E-02
 0.5309433960766E-03 -0.7719422850716E-02  0.0000000000000E+00  0.2504173503588E-02
 0.7406460614097E-03 -0.7827794650804E-02  0.0000000000000E+00  0.2509314054329E-02
 0.9309065212861E-03 -0.7915084143399E-02  0.0000000000000E+00  0.2453536356385E-02
 0.1093620814955E-02 -0.7976794301782E-02  0.0000000000000E+00  0.2350270791137E-02
 0.1224655492882E-02 -0.8011552574165E-02  0.0000000000000E+00  0.2213755702122E-02
 0.1323136211597E-02 -0.8020321553595E-02  0.0000000000000E+00  0.2056267584803E-02
 0.1390334927172E-02 -0.8005363829655E-02  0.0000000000000E+00  0.1886871014744E-02
 0.1428629857744E-02 -0.7969349484784E-02  0.0000000000000E+00  0.1711373278333E-02
 0.1440752542966E-02 -0.7914757009997E-02  0.0000000000000E+00  0.1532953576672E-02
 0.1429348312251E-02 -0.7843558231769E-02  0.0000000000000E+00  0.1353034474746E-02
 0.1396791827074E-02 -0.7757114054377E-02  0.0000000000000E+00  0.1172141024220E-02
 0.1345184804257E-02 -0.7656208372427E-02  0.0000000000000E+00  0.9906387450172E-03
 0.1276480483934E-02 -0.7541174053302E-02  0.0000000000000E+00  0.8093221178265E-03
 0.1192683682677E-02 -0.7412065734110E-02  0.0000000000000E+00  0.6298174017252E-03
 0.1096094912787E-02 -0.7268867190101E-02  0.0000000000000E+00  0.4548070096394E-03
 0.9895537180558E-03 -0.7111704663052E-02  0.0000000000000E+00  0.2880685992130E-03
 0.8766220332631E-03 -0.6941015786589E-02  0.0000000000000E+00  0.1343305387951E-03
 0.7617047819708E-03 -0.6757740622108E-02  0.0000000000000E+00 -0.1054201592299E-05
 0.6501799398849E-03 -0.6563801679868E-02  0.0000000000000E+00 -0.1128677341476E-03
 0.5482444179573E-03 -0.6362100570478E-02  0.0000000000000E+00 -0.1963228371950E-03
 0.4624962217926E-03 -0.6155797576091E-02  0.0000000000000E+00 -0.2462846262029E-03
 0.3997691670400E-03 -0.5947997313640E-02  0.0000000000000E+00 -0.2566686620965E-03
 0.3672310232562E-03 -0.5741895942740E-02  0.0000000000000E+00 -0.2203389851002E-03
 0.3726070447462E-03 -0.5541095422513E-02  0.0000000000000E+00 -0.1293464885858E-03
 0.4244370037766E-03 -0.5349941657333E-02  0.0000000000000E+00  0.2451812472554E-04
 0.5322913411106E-03 -0.5173815449847E-02  0.0000000000000E+00  0.2488158728962E-03
 0.7068698127241E-03 -0.5019331570623E-02  0.0000000000000E+00  0.5491469907456E-03
 0.9598886632536E-03 -0.4894383605109E-02  0.0000000000000E+00  0.9274180936741E-03
 0.1303718879775E-02 -0.4807896883885E-02  0.0000000000000E+00  0.1379900607462E-02
 0.1750828350198E-02 -0.4769269056654E-02  0.0000000000000E+00  0.1895304672283E-02
 0.2312623570916E-02 -0.4787597730168E-02  0.0000000000000E+00  0.2452471758099E-02
 0.2997356089788E-02 -0.4870318288098E-02  0.0000000000000E+00  0.3018306885966E-02
 0.3807393274594E-02 -0.5021085375346E-02  0.0000000000000E+00  0.3547489466622E-02
 0.4736151530464E-02 -0.5237291272984E-02  0.0000000000000E+00  0.3984645850801E-02
 0.5765358128495E-02 -0.5507796149871E-02  0.0000000000000E+00  0.4269672037619E-02
 0.6863632020938E-02 -0.5811705531645E-02  0.0000000000000E+00  0.4346175814177E-02
 0.7987374091595E-02 -0.6119014167649E-02  0.0000000000000E+00  0.4171953532075E-02
 0.9084877232243E-02 -0.6393884276932E-02  0.0000000000000E+00  0.3729141371979E-02
 0.1010394159593E-01 -0.6600765571442E-02  0.0000000000000E+00  0.3029650451004E-02
 0.1072745809575E-03 -0.7592968089237E-02  0.0000000000000E+00  0.2359501123494E-02
 0.3299208115301E-03 -0.7725045052502E-02  0.0000000000000E+00  0.2502123686487E-02
 0.5589391165342E-03 -0.7852627312761E-02  0.0000000000000E+00  0.2567923514225E-02
 0.7791040177851E-03 -0.7965179491357E-02  0.0000000000000E+00  0.2558348280324E-02
 0.9775758206567E-03 -0.8054548594998E-02  0.0000000000000E+00  0.2484295479857E-02
 0.1145914622829E-02 -0.8116309764459E-02  0.0000000000000E+00  0.2361639088210E-02
 0.1280273683451E-02 -0.8149617399660E-02  0.0000000000000E+00  0.2206560185244E-02
 0.1380392070756E-02 -0.8156145419424E-02  0.0000000000000E+00  0.2032452768123E-02
 0.1448213353655E-02 -0.8138831454805E-02  0.0000000000000E+00  0.1848733591567E-02
 0.1486682618805E-02 -0.8100868625588E-02  0.0000000000000E+00  0.1661029974142E-02
 0.1498929284880E-02 -0.8045077785350E-02  0.0000000000000E+00  0.1472051774011E-02
 0.1487823838440E-02 -0.7973610191709E-02  0.0000000000000E+00  0.1282643504997E-02
 0.1455815508570E-02 -0.7887874692849E-02  0.0000000000000E+00  0.1092755635323E-02
 0.1404958254483E-02 -0.7788600200524E-02  0.0000000000000E+00  0.9022471821914E-03
 0.1337063100916E-02 -0.7675983464888E-02  0.0000000000000E+00  0.7115140838934E-03
 0.1253926692446E-02 -0.7549880156113E-02  0.0000000000000E+00  0.5219186336925E-03
 0.1157606629514E-02 -0.7410031023063E-02  0.0000000000000E+00  0.3360282789705E-03
 0.1050697155991E-02 -0.7256295196021E-02  0.0000000000000E+00  0.1576493918779E-03
 0.9365385836377E-03 -0.7088836100552E-02  0.0000000000000E+00 -0.8349649861933E-05
 0.8193512132304E-03 -0.6908327096264E-02  0.0000000000000E+00 -0.1564196516595E-03
 0.7043728118648E-03 -0.6716470642851E-02  0.0000000000000E+00 -0.2811644921213E-03
 0.5976729350712E-03 -0.6515983861511E-02  0.0000000000000E+00 -0.3776761709617E-03
 0.5056745163924E-03 -0.6309793281306E-02  0.0000000000000E+00 -0.4407121470887E-03
 0.4349646636319E-03 -0.6100673138414E-02  0.0000000000000E+00 -0.4640067553174E-03
 0.3924141305529E-03 -0.5891401992215E-02  0.0000000000000E+00 -0.4400798626781E-03
 0.3854529502208E-03 -0.5685117666392E-02  0.0000000000000E+00 -0.3604002800493E-03
 0.4224004030483E-03 -0.5485712141064E-02  0.0000000000000E+00 -0.2158870930521E-03
 0.5127701766729E-03 -0.5298190757845E-02  0.0000000000000E+00  0.2205288115509E-05
 0.6674739286488E-03 -0.5128953777640E-02  0.0000000000000E+00  0.3009607828055E-03
 0.8988285333930E-03 -0.4985941527789E-02  0.0000000000000E+00  0.6839946875409E-03
 0.1220321542438E-02 -0.4878492346899E-02  0.0000000000000E+00  0.1149358036080E-02
 0.1646172602789E-02 -0.4816878102331E-02  0.0000000000000E+00  0.1687349058997E-02
 0.2190237862029E-02 -0.4811619892154E-02  0.0000000000000E+00  0.2277707601723E-02
 0.2863826269584E-02 -0.4872117693268E-02  0.0000000000000E+00  0.2886804576177E-02
 0.3672631949065E-02 -0.5004306977604E-02  0.0000000000000E+00  0.3466573780731E-02
 0.4613034548950E-02 -0.5207700923123E-02  0.0000000000000E+00  0.3956118738719E-02
 0.5668471122776E-02 -0.5472429184534E-02  0.0000000000000E+00  0.4287058283931E-02
 0.6807130903223E-02 -0.5777285903662E-02  0.0000000000000E+00  0.4392986831728E-02
 0.7982135700707E-02 -0.6089908054908E-02  0.0000000000000E+00  0.4221780874537E-02
 0.9135644283622E-02 -0.6369844925343E-02  0.0000000000000E+00  0.3749103241287E-02
 0.1020843093761E-01 -0.6576620856675E-02  0.0000000000000E+00  0.2987366041999E-02
 0.1129845594330E-03 -0.7716781527715E-02  0.0000000000000E+00  0.2438506489832E-02
 0.3478648473467E-03 -0.7855663650297E-02  0.0000000000000E+00  0.2578419526459E-02
 0.5895303786307E-03 -0.7989363657329E-02  0.0000000000000E+00  0.2634133771299E-02
 0.8208492885557E-03 -0.8106140805598E-02  0.0000000000000E+00  0.2608251272377E-02
 0.1027766928833E-02 -0.8197267637508E-02  0.0000000000000E+00  0.2514308519857E-02
 0.1201566666557E-02 -0.8258498941356E-02  0.0000000000000E+00  0.2371039260858E-02
 0.1338843826873E-02 -0.8289678696846E-02  0.0000000000000E+00  0.2196765605359E-02
 0.1440112040328E-02 -0.8293335164464E-02  0.0000000000000E+00  0.2005994167576E-02
 0.1508104483598E-02 -0.8273170950513E-02  0.0000000000000E+00  0.1808373962431E-02
 0.1546399283774E-02 -0.8232941267071E-02  0.0000000000000E+00  0.1609200797166E-02
 0.1558550135464E-02 -0.8175815054294E-02  0.0000000000000E+00  0.1410579182269E-02
 0.1547655174244E-02 -0.8104112893298E-02  0.0000000000000E+00  0.1212669447549E-02
 0.1516228435886E-02 -0.8019276816658E-02  0.0000000000000E+00  0.1014767417192E-02
 0.1466260067480E-02 -0.7921965950223E-02  0.0000000000000E+00  0.8161624745620E-03
 0.1399398440702E-02 -0.7812226264276E-02  0.0000000000000E+00  0.6167988081230E-03
 0.1317207736513E-02 -0.7689698447245E-02  0.0000000000000E+00  0.4177295607726E-03
 0.1221476068212E-02 -0.7553862063570E-02  0.0000000000000E+00  0.2213721719844E-03
 0.1114527278194E-02 -0.7404290082402E-02  0.0000000000000E+00  0.3153897238703E-04
 0.9994612202762E-03 -0.7240854580108E-02  0.0000000000000E+00 -0.1467747783341E-03
 0.8803038334240E-03 -0.7063949259945E-02  0.0000000000000E+00 -0.3078357633552E-03
 0.7621513438815E-03 -0.6875049290734E-02  0.0000000000000E+00 -0.4460889435501E-03
 0.6509466792041E-03 -0.6676683596796E-02  0.0000000000000E+00 -0.5565399854252E-03
 0.5529300257937E-03 -0.6471537195658E-02  0.0000000000000E+00 -0.6338929564710E-03
 0.4744177186023E-03 -0.6262034775530E-02  0.0000000000000E+00 -0.6717669934668E-03
 0.4219402008431E-03 -0.6050503130301E-02  0.0000000000000E+00 -0.6624002438190E-03
 0.4025705526994E-03 -0.5839565757452E-02  0.0000000000000E+00 -0.5967230210524E-03
 0.4243295990097E-03 -0.5632593830776E-02  0.0000000000000E+00 -0.4647933527661E-03
 0.4965829988822E-03 -0.5434132617493E-02  0.0000000000000E+00 -0.2566421121298E-03
 0.6303554035310E-03 -0.5250265952396E-02  0.0000000000000E+00  0.3641002115651E-04
 0.8384709175231E-03 -0.5088868000647E-02  0.0000000000000E+00  0.4199021589499E-03
 0.1135471598100E-02 -0.4959582492037E-02  0.0000000000000E+00  0.8940162024020E-03
 0.1537341667000E-02 -0.4873483829063E-02  0.0000000000000E+00  0.1451146919621E-02
 0.2060537731697E-02 -0.4842533306605E-02  0.0000000000000E+00  0.2072572036784E-02
 0.2719779453402E-02 -0.4878261886502E-02  0.0000000000000E+00  0.2724782700167E-02
 0.3524674148858E-02 -0.4989238357779E-02  0.0000000000000E+00  0.3357415058906E-02
 0.4475326032731E-02 -0.5177606187691E-02  0.0000000000000E+00  0.3903989258471E-02
 0.5557665693328E-02 -0.5435304229326E-02  0.0000000000000E+00  0.4287018452121E-02
 0.6739886708114E-02 -0.5741151086679E-02  0.0000000000000E+00  0.4428370465750E-02
 0.7971982899608E-02 -0.6060366542366E-02  0.0000000000000E+00  0.4264021797707E-02
 0.9188481727726E-02 -0.6347337525461E-02  0.0000000000000E+00  0.3759730961269E-02
 0.1032079842360E-01 -0.6553749624554E-02  0.0000000000000E+00  0.2931046728430E-02
 0.1192557225118E-03 -0.7843512585621E-02  0.0000000000000E+00  0.2521696510364E-02
 0.3675746566843E-03 -0.7989798453721E-02  0.0000000000000E+00  0.2658518150267E-02
 0.6230247402622E-03 -0.8130008681905E-02  0.0000000000000E+00  0.2702823824877E-02
 0.8662134103678E-03 -0.8250986061300E-02  0.0000000000000E+00  0.2658739556149E-02
 0.1081744240656E-02 -0.8343414866319E-02  0.0000000000000E+00  0.2543057331264E-02
 0.1260722161162E-02 -0.8403379341331E-02  0.0000000000000E+00  0.2377853205606E-02
 0.1400385012077E-02 -0.8431615137489E-02  0.0000000000000E+00  0.2183783534370E-02
 0.1502211120646E-02 -0.8431667519524E-02  0.0000000000000E+00  0.1976417962580E-02
 0.1569850787138E-02 -0.8408094988815E-02  0.0000000000000E+00  0.1765470281762E-02
 0.1607578637230E-02 -0.8365245199430E-02  0.0000000000000E+00  0.1555721062885E-02
 0.1619392063824E-02 -0.8306630582542E-02  0.0000000000000E+00  0.1348518609692E-02
 0.1608613007788E-02 -0.8234723266985E-02  0.0000000000000E+00  0.1143229871776E-02
 0.1577806636927E-02 -0.8150979812816E-02  0.0000000000000E+00  0.9384182444303E-03
 0.1528881591929E-02 -0.8055974045500E-02  0.0000000000000E+00  0.7327432106220E-03
 0.1463302731201E-02 -0.7949587672162E-02  0.0000000000000E+00  0.5256448890382E-03
 0.1382377036382E-02 -0.7831232015483E-02  0.0000000000000E+00  0.3178205578506E-03
 0.1287595319671E-02 -0.7700108289068E-02  0.0000000000000E+00  0.1115000233162E-03
 0.1180984114863E-02 -0.7555484338758E-02  0.0000000000000E+00 -0.8952264074674E-04
 0.1065382816207E-02 -0.7396923596858E-02  0.0000000000000E+00 -0.2801375162253E-03
 0.9446140202611E-03 -0.7224527732541E-02  0.0000000000000E+00 -0.4544369705201E-03
 0.8236339980015E-03 -0.7039539145071E-02  0.0000000000000E+00 -0.6067249080979E-03
 0.7082637437366E-03 -0.6844297482492E-02  0.0000000000000E+00 -0.7319568041169E-03
 0.6045562970866E-03 -0.6641241335114E-02  0.0000000000000E+00 -0.8248437696761E-03
 0.5185344334782E-03 -0.6432429068773E-02  0.0000000000000E+00 -0.8789657654759E-03
 0.4563438754278E-03 -0.6219703271004E-02  0.0000000000000E+00 -0.8863543449518E-03
 0.4246355019814E-03 -0.6005123883637E-02  0.0000000000000E+00 -0.8374602911305E-03
 0.4310472568322E-03 -0.5791473858517E-02  0.0000000000000E+00 -0.7215104431193E-03
 0.4846943552370E-03 -0.5582749809055E-02  0.0000000000000E+00 -0.5272973573529E-03
 0.5965968283761E-03 -0.5384606609742E-02  0.0000000000000E+00 -0.2444619088312E-03
 0.7799633428584E-03 -0.5204718364571E-02  0.0000000000000E+00  0.1346505884986E-03
 0.1050287330828E-02 -0.5052892372161E-02  0.0000000000000E+00  0.6126988326750E-03
 0.1425281508161E-02 -0.4940886974346E-02  0.0000000000000E+00  0.1184717145387E-02
 0.1924110940643E-02 -0.4882070193590E-02  0.0000000000000E+00  0.1834258801380E-02
 0.2565249443758E-02 -0.4890237309584E-02  0.0000000000000E+00  0.2528762178672E-02
 0.3362857495282E-02 -0.4976955376878E-02  0.0000000000000E+00  0.3216235984485E-02
 0.4321677937955E-02 -0.5147590509057E-02  0.0000000000000E+00  0.3824751357996E-02
 0.5431108067527E-02 -0.5396572145570E-02  0.0000000000000E+00  0.4266917028543E-02
 0.6660152967425E-02 -0.5703256859887E-02  0.0000000000000E+00  0.4450975084712E-02
 0.7955300023089E-02 -0.6030329852986E-02  0.0000000000000E+00  0.4298261158397E-02
 0.9244759131041E-02 -0.6326858837886E-02  0.0000000000000E+00  0.3762324329166E-02
 0.1043734174214E-01 -0.6531775787912E-02  0.0000000000000E+00  0.2855848832101E-02
 0.1261743965539E-03 -0.7973539009303E-02  0.0000000000000E+00  0.2609443501743E-02
 0.3893017099738E-03 -0.8127932456645E-02  0.0000000000000E+00  0.2742714001139E-02
 0.6598176217141E-03 -0.8275088051919E-02  0.0000000000000E+00  0.2773990541670E-02
 0.9156254089000E-03 -0.8400186248074E-02  0.0000000000000E+00  0.2709448276052E-02
 0.1139863827047E-02 -0.8493330913440E-02  0.0000000000000E+00  0.2569902582447E-02
 0.1323608407804E-02 -0.8551140543037E-02  0.0000000000000E+00  0.2381329633256E-02
 0.1464995159564E-02 -0.8575491435787E-02  0.0000000000000E+00  0.2166895746178E-02
 0.1566688573582E-02 -0.8571128465405E-02  0.0000000000000E+00  0.1943124586265E-02
 0.1633391045672E-02 -0.8543554736490E-02  0.0000000000000E+00  0.1719571324201E-02
 0.1670131474821E-02 -0.8497728898964E-02  0.0000000000000E+00  0.1500283918743E-02
 0.1681361448628E-02 -0.8437490489152E-02  0.0000000000000E+00  0.1285690847371E-02
 0.1670615863965E-02 -0.8365437821742E-02  0.0000000000000E+00  0.1074256126391E-02
 0.1640493623598E-02 -0.8283020485065E-02  0.0000000000000E+00  0.8637370041676E-03
 0.1592803054983E-02 -0.8190712269559E-02  0.0000000000000E+00  0.6521060044302E-03
 0.1528804601645E-02 -0.8088219807526E-02  0.0000000000000E+00  0.4382465549643E-03
 0.1449522656802E-02 -0.7974713372404E-02  0.0000000000000E+00  0.2224493176933E-03
 0.1356120566117E-02 -0.7849099900834E-02  0.0000000000000E+00  0.6713149310222E-05
 0.1250296863052E-02 -0.7710322486182E-02  0.0000000000000E+00 -0.2052144056490E-03
 0.1134607001798E-02 -0.7557616938771E-02  0.0000000000000E+00 -0.4081212417155E-03
 0.1012660193271E-02 -0.7390779327354E-02  0.0000000000000E+00 -0.5959328170770E-03
 0.8892762237834E-03 -0.7210814012700E-02  0.0000000000000E+00 -0.7628280961599E-03
 0.7701620211717E-03 -0.7019871671768E-02  0.0000000000000E+00 -0.9037504266586E-03
 0.6611811393734E-03 -0.6820140794760E-02  0.0000000000000E+00 -0.1013485755102E-02
 0.5680390341412E-03 -0.6613296521845E-02  0.0000000000000E+00 -0.1085662274744E-02
 0.4964479048194E-03 -0.6400663079329E-02  0.0000000000000E+00 -0.1112193187532E-02
 0.4525638722172E-03 -0.6183684590284E-02  0.0000000000000E+00 -0.1083122885069E-02
 0.4435474106546E-03 -0.5964483680432E-02  0.0000000000000E+00 -0.9868933175730E-03
 0.4781465373528E-03 -0.5746411632556E-02  0.0000000000000E+00 -0.8110640593768E-03
 0.5672376620387E-03 -0.5534566945185E-02  0.0000000000000E+00 -0.5435344513084E-03
 0.7242595063031E-03 -0.5336263690988E-02  0.0000000000000E+00 -0.1743602576603E-03
 0.9655100648621E-03 -0.5161289981757E-02  0.0000000000000E+00  0.3019438107413E-03
 0.1310343143225E-02 -0.5021913919990E-02  0.0000000000000E+00  0.8836447303757E-03
 0.1780698237933E-02 -0.4932816434490E-02  0.0000000000000E+00  0.1557435850951E-02
 0.2399147270950E-02 -0.4910151904396E-02  0.0000000000000E+00  0.2292751359926E-02
 0.3185135864587E-02 -0.4968873162646E-02  0.0000000000000E+00  0.3036929858103E-02
 0.4149167104122E-02 -0.5118279919274E-02  0.0000000000000E+00  0.3712977819017E-02
 0.5285448096053E-02 -0.5356194346126E-02  0.0000000000000E+00  0.4222818509420E-02
 0.6564771497467E-02 -0.5663233052341E-02  0.0000000000000E+00  0.4458831595941E-02
 0.7930765717055E-02 -0.5999693504969E-02  0.0000000000000E+00  0.4323855972333E-02
 0.9301966421138E-02 -0.6307871773601E-02  0.0000000000000E+00  0.3757800101539E-02
 0.1057815514989E-01 -0.6515162337279E-02  0.0000000000000E+00  0.2746443254954E-02
 0.1338131962508E-03 -0.8107302210889E-02  0.0000000000000E+00  0.2702234223505E-02
 0.4133292648579E-03 -0.8270588739111E-02  0.0000000000000E+00  0.2831328125287E-02
 0.7003387898657E-03 -0.8425122806167E-02  0.0000000000000E+00  0.2847572664312E-02
 0.9695215427071E-03 -0.8554135109308E-02  0.0000000000000E+00  0.2759874998224E-02
 0.1202437501522E-02 -0.8647196178030E-02  0.0000000000000E+00  0.2594045834478E-02
 0.1390357440825E-02 -0.8701740442027E-02  0.0000000000000E+00  0.2380594166675E-02
 0.1532639752099E-02 -0.8721090119721E-02  0.0000000000000E+00  0.2145328468976E-02
 0.1633389259160E-02 -0.8711389276723E-02  0.0000000000000E+00  0.1905531572642E-02
 0.1698497484362E-02 -0.8679163849794E-02  0.0000000000000E+00  0.1670306782226E-02
 0.1733793532718E-02 -0.8629982539613E-02  0.0000000000000E+00  0.1442715916055E-02
 0.1744180442776E-02 -0.8567978741745E-02  0.0000000000000E+00  0.1222094732009E-02
 0.1733386042417E-02 -0.8495841342376E-02  0.0000000000000E+00  0.1005899695588E-02
 0.1704021322507E-02 -0.8414987582473E-02  0.0000000000000E+00  0.7910174077385E-03
 0.1657774997789E-02 -0.8325777323089E-02  0.0000000000000E+00  0.5746838542300E-03
 0.1595683538667E-02 -0.8227734843136E-02  0.0000000000000E+00  0.3551757895659E-03
 0.1518464415093E-02 -0.8119781750595E-02  0.0000000000000E+00  0.1323237732611E-03
 0.1426922491223E-02 -0.8000517471459E-02  0.0000000000000E+00 -0.9215359457415E-04
 0.1322394822407E-02 -0.7868541236906E-02  0.0000000000000E+00 -0.3145886408335E-03
 0.1207126676554E-02 -0.7722741504667E-02  0.0000000000000E+00 -0.5296803684252E-03
 0.1084503595160E-02 -0.7562595004373E-02  0.0000000000000E+00 -0.7311916167247E-03
 0.9592157997769E-03 -0.7388864263106E-02  0.0000000000000E+00 -0.9131890387927E-03
 0.8368699616852E-03 -0.7203514194340E-02  0.0000000000000E+00 -0.1070642821794E-02
 0.7231429380649E-03 -0.7008482857675E-02  0.0000000000000E+00 -0.1198489154850E-02
 0.6234014478446E-03 -0.6805048301329E-02  0.0000000000000E+00 -0.1290504394971E-02
 0.5428748740743E-03 -0.6593985166490E-02  0.0000000000000E+00 -0.1338586788431E-02
 0.4871494276263E-03 -0.6376072849054E-02  0.0000000000000E+00 -0.1332465592269E-02
 0.4628087399585E-03 -0.6152704947178E-02  0.0000000000000E+00 -0.1259868351945E-02
 0.4781077279739E-03 -0.5926491900382E-02  0.0000000000000E+00 -0.1107161124057E-02
 0.5436219597078E-03 -0.5701842657199E-02  0.0000000000000E+00 -0.8604852967176E-03
 0.6728318447305E-03 -0.5485531748489E-02  0.0000000000000E+00 -0.5074844721243E-03
 0.8826373252956E-03 -0.5287104395244E-02  0.0000000000000E+00 -0.3953822256364E-04
 0.1193867189611E-02 -0.5119097014924E-02  0.0000000000000E+00  0.5454504179446E-03
 0.1631212872931E-02 -0.4997320829417E-02  0.0000000000000E+00  0.1238278224428E-02
 0.2221627680330E-02 -0.4940299246496E-02  0.0000000000000E+00  0.2011661060244E-02
 0.2990601379990E-02 -0.4966727391441E-02  0.0000000000000E+00  0.2813605075659E-02
 0.3955715628159E-02 -0.5090634562503E-02  0.0000000000000E+00  0.3562854387682E-02
 0.5117667784169E-02 -0.5314366602484E-02  0.0000000000000E+00  0.4150127338105E-02
 0.6450636368712E-02 -0.5620845630058E-02  0.0000000000000E+00  0.4449309298178E-02
 0.7895662808179E-02 -0.5968322285846E-02  0.0000000000000E+00  0.4340844350037E-02
 0.9361458056207E-02 -0.6290791427662E-02  0.0000000000000E+00  0.3742256955872E-02
 0.1074005693276E-01 -0.6509853616628E-02  0.0000000000000E+00  0.2627536639670E-02
 0.1423046943679E-03 -0.8245321672377E-02  0.0000000000000E+00  0.2800533910439E-02
 0.4400336445832E-03 -0.8418346400961E-02  0.0000000000000E+00  0.2924618081941E-02
 0.7451275047995E-03 -0.8580640949354E-02  0.0000000000000E+00  0.2923312862909E-02
 0.1028404873168E-02 -0.8713147903685E-02  0.0000000000000E+00  0.2809223112168E-02
 0.1269771145802E-02 -0.8805018977394E-02  0.0000000000000E+00  0.2614381778093E-02
 0.1461025736400E-02 -0.8854890657932E-02  0.0000000000000E+00  0.2374527797930E-02
 0.1603160019709E-02 -0.8867901411962E-02  0.0000000000000E+00  0.2118157005474E-02
 0.1702005547693E-02 -0.8851803897458E-02  0.0000000000000E+00  0.1862994236716E-02
 0.1764773755502E-02 -0.8814202807481E-02  0.0000000000000E+00  0.1617312075032E-02
 0.1798119837469E-02 -0.8761247112329E-02  0.0000000000000E+00  0.1382896160979E-02
 0.1807377003599E-02 -0.8697308625576E-02  0.0000000000000E+00  0.1157813575926E-02
 0.1796434221085E-02 -0.8625118505796E-02  0.0000000000000E+00  0.9384209800456E-03
 0.1767887935974E-02 -0.8546031618331E-02  0.0000000000000E+00  0.7206858627508E-03
 0.1723288024066E-02 -0.8460281091021E-02  0.0000000000000E+00  0.5010714715730E-03
 0.1663430330365E-02 -0.8367206175383E-02  0.0000000000000E+00  0.2772052998977E-03
 0.1588704315624E-02 -0.8265477939857E-02  0.0000000000000E+00  0.4840466574757E-04
 0.1499526754713E-02 -0.8153379575505E-02  0.0000000000000E+00 -0.1839461297032E-03
 0.1396838738338E-02 -0.8029149302320E-02  0.0000000000000E+00 -0.4162976599579E-03
 0.1282547653850E-02 -0.7891308680244E-02  0.0000000000000E+00 -0.6432738799573E-03
 0.1159806513916E-02 -0.7739001975231E-02  0.0000000000000E+00 -0.8584750873283E-03
 0.1033188555142E-02 -0.7572748553290E-02  0.0000000000000E+00 -0.1055863305263E-02
 0.9082222040750E-03 -0.7394335215925E-02  0.0000000000000E+00 -0.1230473542634E-02
 0.7904085150724E-03 -0.7205455034597E-02  0.0000000000000E+00 -0.1377472546951E-02
 0.6847602897279E-03 -0.7006981881933E-02  0.0000000000000E+00 -0.1490894092337E-02
 0.5959795130407E-03 -0.6799118125380E-02  0.0000000000000E+00 -0.1562737127848E-02
 0.5290116851623E-03 -0.6581940782242E-02  0.0000000000000E+00 -0.1582524222386E-02
 0.4897681285855E-03 -0.6356059460769E-02  0.0000000000000E+00 -0.1537366755515E-02
 0.4858853480149E-03 -0.6123261891801E-02  0.0000000000000E+00 -0.1412522290328E-02
 0.5274716015767E-03 -0.5887142124125E-02  0.0000000000000E+00 -0.1192426803307E-02
 0.6278314777911E-03 -0.5653748539381E-02  0.0000000000000E+00 -0.8622801381514E-03
 0.8042029873766E-03 -0.5432125407403E-02  0.0000000000000E+00 -0.4101162139334E-03
 0.1078620311180E-02 -0.5234760890827E-02  0.0000000000000E+00  0.1705182369307E-03
 0.1478362528924E-02 -0.5078294746430E-02  0.0000000000000E+00  0.8755057822004E-03
 0.2034900513587E-02 -0.4983484929174E-02  0.0000000000000E+00  0.1682323388935E-02
 0.2780453521598E-02 -0.4973013187488E-02  0.0000000000000E+00  0.2541403490660E-02
 0.3741100289222E-02 -0.5066448180974E-02  0.0000000000000E+00  0.3368633140132E-02
 0.4926106329914E-02 -0.5272007351110E-02  0.0000000000000E+00  0.4043489345823E-02
 0.6315126342835E-02 -0.5576390778536E-02  0.0000000000000E+00  0.4418932592379E-02
 0.7847747336159E-02 -0.5936361989522E-02  0.0000000000000E+00  0.4347338222269E-02
 0.9422649646879E-02 -0.6277988469544E-02  0.0000000000000E+00  0.3718621120449E-02
 0.1091541885512E-01 -0.6511025096740E-02  0.0000000000000E+00  0.2497247920000E-02
 0.1518008929004E-03 -0.8388240869927E-02  0.0000000000000E+00  0.2904908984447E-02
 0.4698790520665E-03 -0.8571964035577E-02  0.0000000000000E+00  0.3022885511286E-02
 0.7948441923359E-03 -0.8742361103468E-02  0.0000000000000E+00  0.3000875535301E-02
 0.1092880507787E-02 -0.8877700897516E-02  0.0000000000000E+00  0.2856515948319E-02
 0.1342230389091E-02 -0.8966933098967E-02  0.0000000000000E+00  0.2629606394081E-02
 0.1535700738039E-02 -0.9010418061702E-02  0.0000000000000E+00  0.2361856019044E-02
 0.1676425925190E-02 -0.9015551217931E-02  0.0000000000000E+00  0.2084355261268E-02
 0.1772276367452E-02 -0.8991901365380E-02  0.0000000000000E+00  0.1814798329408E-02
 0.1831896552235E-02 -0.8948172452518E-02  0.0000000000000E+00  0.1560155599886E-02
 0.1862765723114E-02 -0.8891027680057E-02  0.0000000000000E+00  0.1320617049762E-02
 0.1870604212700E-02 -0.8824997588656E-02  0.0000000000000E+00  0.1092811566594E-02
 0.1859418208405E-02 -0.8752795388925E-02  0.0000000000000E+00  0.8719231526529E-03
 0.1831758841576E-02 -0.8675680632048E-02  0.0000000000000E+00  0.6529718429786E-03
 0.1789019211962E-02 -0.8593749996641E-02  0.0000000000000E+00  0.4316271708269E-03
 0.1731742000403E-02 -0.8506161721884E-02  0.0000000000000E+00  0.2048321098989E-03
 0.1659971586570E-02 -0.8411342149499E-02  0.0000000000000E+00 -0.2866417337236E-04
 0.1573708108695E-02 -0.8307255235328E-02  0.0000000000000E+00 -0.2678744690458E-03
 0.1473459275213E-02 -0.8191762784594E-02  0.0000000000000E+00 -0.5094154493970E-03
 0.1360762408806E-02 -0.8062998343605E-02  0.0000000000000E+00 -0.7478531281929E-03
 0.1238527678712E-02 -0.7919758689658E-02  0.0000000000000E+00 -0.9766209586177E-03
 0.1111227959590E-02 -0.7762318829096E-02  0.0000000000000E+00 -0.1189577168064E-02
 0.9843430211521E-03 -0.7592297344291E-02  0.0000000000000E+00 -0.1381857182682E-02
 0.8632159504418E-03 -0.7411150981387E-02  0.0000000000000E+00 -0.1548943417154E-02
 0.7524943241771E-03 -0.7219345898195E-02  0.0000000000000E+00 -0.1685245061704E-02
 0.6563097358903E-03 -0.7016494446632E-02  0.0000000000000E+00 -0.1782986906975E-02
 0.5788977055670E-03 -0.6801941652828E-02  0.0000000000000E+00 -0.1831604883306E-02
 0.5254043429744E-03 -0.6575469844422E-02  0.0000000000000E+00 -0.1817712296071E-02
 0.5027241541060E-03 -0.6337975674080E-02  0.0000000000000E+00 -0.1725580042901E-02
 0.5203265397460E-03 -0.6092123181733E-02  0.0000000000000E+00 -0.1538053078035E-02
 0.5911003135593E-03 -0.5843045719741E-02  0.0000000000000E+00 -0.1237945404534E-02
 0.7323035420784E-03 -0.5598999937980E-02  0.0000000000000E+00 -0.8098421208443E-03
 0.9668059955032E-03 -0.5372037517023E-02  0.0000000000000E+00 -0.2424991036079E-03
 0.1324160770442E-02 -0.5179198446290E-02  0.0000000000000E+00  0.4660282296020E-03
 0.1840324079787E-02 -0.5043171736132E-02  0.0000000000000E+00  0.1299641377903E-02
 0.2554827251040E-02 -0.4990719517204E-02  0.0000000000000E+00  0.2213430428748E-02
 0.3503779810567E-02 -0.5047745404120E-02  0.0000000000000E+00  0.3122558050410E-02
 0.4707545697952E-02 -0.5229948046294E-02  0.0000000000000E+00  0.3895961477479E-02
 0.6154173281414E-02 -0.5529768261050E-02  0.0000000000000E+00  0.4363220712788E-02
 0.7783742358811E-02 -0.5903873870387E-02  0.0000000000000E+00  0.4342432713930E-02
 0.9483752514105E-02 -0.6269623188888E-02  0.0000000000000E+00  0.3688888245772E-02
 0.1110610446769E-01 -0.6519676129337E-02  0.0000000000000E+00  0.2352209480358E-02
 0.1624966285557E-03 -0.8536850503468E-02  0.0000000000000E+00  0.3016015141002E-02
 0.5034515995662E-03 -0.8732367955589E-02  0.0000000000000E+00  0.3126424974123E-02
 0.8502952784866E-03 -0.8911132229692E-02  0.0000000000000E+00  0.3079729611477E-02
 0.1163644113127E-02 -0.9048308261436E-02  0.0000000000000E+00  0.2900456301423E-02
 0.1420188126534E-02 -0.9133019398815E-02  0.0000000000000E+00  0.2638104883887E-02
 0.1614418505621E-02 -0.9168048673007E-02  0.0000000000000E+00  0.2341090617392E-02
 0.1752235550301E-02 -0.9163560362981E-02  0.0000000000000E+00  0.2042790157509E-02
 0.1843873883082E-02 -0.9131124821606E-02  0.0000000000000E+00  0.1760196335969E-02
 0.1899490231658E-02 -0.9080511639189E-02  0.0000000000000E+00  0.1498408238016E-02
 0.1927347903764E-02 -0.9018786441507E-02  0.0000000000000E+00  0.1255682761790E-02
 0.1933485691508E-02 -0.8950531915242E-02  0.0000000000000E+00  0.1027060148815E-02
 0.1921970399033E-02 -0.8878371530591E-02  0.0000000000000E+00  0.8065072585599E-03
 0.1895273678666E-02 -0.8803434864579E-02  0.0000000000000E+00  0.5880942948303E-03
 0.1854616559181E-02 -0.8725677013892E-02  0.0000000000000E+00  0.3666953816395E-03
 0.1800282000637E-02 -0.8644087883177E-02  0.0000000000000E+00  0.1385436473723E-03
 0.1731958355291E-02 -0.8556865077659E-02  0.0000000000000E+00 -0.9823616005455E-04
 0.1649203149315E-02 -0.8461658425332E-02  0.0000000000000E+00 -0.3431278917972E-03
 0.1552050325124E-02 -0.8355940881289E-02  0.0000000000000E+00 -0.5929758803062E-03
 0.1441628974934E-02 -0.8237434869960E-02  0.0000000000000E+00 -0.8423118081222E-03
 0.1320593146224E-02 -0.8104571350577E-02  0.0000000000000E+00 -0.1084393863937E-02
 0.1193335814244E-02 -0.7957378513339E-02  0.0000000000000E+00 -0.1312968684214E-02
 0.1065326150836E-02 -0.7797317896694E-02  0.0000000000000E+00 -0.1523303664189E-02
 0.9417748893560E-03 -0.7625621046818E-02  0.0000000000000E+00 -0.1711285784651E-02
 0.8269572179688E-03 -0.7442345947493E-02  0.0000000000000E+00 -0.1871824816588E-02
 0.7243932558049E-03 -0.7246502557289E-02  0.0000000000000E+00 -0.1997502861395E-02
 0.6375421936766E-03 -0.7036684290354E-02  0.0000000000000E+00 -0.2077796551033E-02
 0.5706978814352E-03 -0.6811818555883E-02  0.0000000000000E+00 -0.2098955010147E-02
 0.5298966772796E-03 -0.6571862529736E-02  0.0000000000000E+00 -0.2044419537485E-02
 0.5238005575281E-03 -0.6318454693820E-02  0.0000000000000E+00 -0.1895624823920E-02
 0.5646292126644E-03 -0.6055634029128E-02  0.0000000000000E+00 -0.1633162543789E-02
 0.6692947965656E-03 -0.5790566348328E-02  0.0000000000000E+00 -0.1238207373622E-02
 0.8610278752645E-03 -0.5534412783058E-02  0.0000000000000E+00 -0.6944393978315E-03
 0.1171164183988E-02 -0.5304046321384E-02  0.0000000000000E+00  0.7041030764876E-05
 0.1639878818121E-02 -0.5123568032628E-02  0.0000000000000E+00  0.8583441209805E-03
 0.2314397777053E-02 -0.5023676844200E-02  0.0000000000000E+00  0.1821939428279E-02
 0.3242419785250E-02 -0.5037299798886E-02  0.0000000000000E+00  0.2815328651427E-02
 0.4458432283206E-02 -0.5189450047374E-02  0.0000000000000E+00  0.3698675964619E-02
 0.5962827930260E-02 -0.5480966269738E-02  0.0000000000000E+00  0.4276229060240E-02
 0.7699173183737E-02 -0.5870496369250E-02  0.0000000000000E+00  0.4324669965963E-02
 0.9542653346462E-02 -0.6265709261082E-02  0.0000000000000E+00  0.3654312276893E-02
 0.1131475968804E-01 -0.6536552704098E-02  0.0000000000000E+00  0.2189499358403E-02
 0.1746447403429E-03 -0.8692132799049E-02  0.0000000000000E+00  0.3134618797937E-02
 0.5414983684763E-03 -0.8900699471777E-02  0.0000000000000E+00  0.3235503516109E-02
 0.9124685474719E-03 -0.9087957047943E-02  0.0000000000000E+00  0.3159065164429E-02
 0.1241487480145E-02 -0.9225508616194E-02  0.0000000000000E+00  0.2939327242518E-02
 0.1504004334567E-02 -0.9303269956584E-02  0.0000000000000E+00  0.2637889854269E-02
 0.1697136777459E-02 -0.9327372207300E-02  0.0000000000000E+00  0.2310515983746E-02
 0.1830294803102E-02 -0.9311321635891E-02  0.0000000000000E+00  0.1992237203679E-02
 0.1916392868464E-02 -0.9268821351112E-02  0.0000000000000E+00  0.1698431098972E-02
 0.1967123394643E-02 -0.9210595409500E-02  0.0000000000000E+00  0.1431663450844E-02
 0.1991445020232E-02 -0.9143945072593E-02  0.0000000000000E+00  0.1187922423774E-02
 0.1995617819648E-02 -0.9073370656433E-02  0.0000000000000E+00  0.9605444440315E-03
 0.1983700263875E-02 -0.9001324014142E-02  0.0000000000000E+00  0.7422728848286E-03
 0.1958048153620E-02 -0.8928770021185E-02  0.0000000000000E+00  0.5262575386637E-03
 0.1919699323687E-02 -0.8855523219545E-02  0.0000000000000E+00  0.3065989465827E-03
 0.1868678543978E-02 -0.8780428584718E-02  0.0000000000000E+00  0.7880824254128E-04
 0.1804315960123E-02 -0.8701484085883E-02  0.0000000000000E+00 -0.1596707750036E-03
 0.1725705298244E-02 -0.8616041841097E-02  0.0000000000000E+00 -0.4088807190589E-03
 0.1632363727592E-02 -0.8521178471081E-02  0.0000000000000E+00 -0.6659744018398E-03
 0.1524966171937E-02 -0.8414179936420E-02  0.0000000000000E+00 -0.9254842504704E-03
 0.1405892165961E-02 -0.8293087910981E-02  0.0000000000000E+00 -0.1180481859606E-02
 0.1279478490637E-02 -0.8157677997889E-02  0.0000000000000E+00 -0.1424584057979E-02
 0.1151231053553E-02 -0.8009265478628E-02  0.0000000000000E+00 -0.1653215787243E-02
 0.1026262321974E-02 -0.7848868868043E-02  0.0000000000000E+00 -0.1862759968546E-02
 0.9084720294770E-03 -0.7676139606479E-02  0.0000000000000E+00 -0.2048756934800E-02
 0.8007296716669E-03 -0.7489478430579E-02  0.0000000000000E+00 -0.2204279418380E-02
 0.7056559821770E-03 -0.7286719522305E-02  0.0000000000000E+00 -0.2318973387524E-02
 0.6266148691209E-03 -0.7065927599910E-02  0.0000000000000E+00 -0.2378867378648E-02
 0.5686822948708E-03 -0.6826098914288E-02  0.0000000000000E+00 -0.2366761080733E-02
 0.5395571204535E-03 -0.6567781044496E-02  0.0000000000000E+00 -0.2262927024891E-02
 0.5505358672719E-03 -0.6293763681140E-02  0.0000000000000E+00 -0.2046016233290E-02
 0.6177831050400E-03 -0.6009819974769E-02  0.0000000000000E+00 -0.1694006517237E-02
 0.7643139033895E-03 -0.5725715974411E-02  0.0000000000000E+00 -0.1185432915163E-02
 0.1022555366022E-02 -0.5457449894614E-02  0.0000000000000E+00 -0.5037339199186E-03
 0.1436329708213E-02 -0.5229756752312E-02  0.0000000000000E+00  0.3531993384497E-03
 0.2060607445742E-02 -0.5076784961486E-02  0.0000000000000E+00  0.1358391957719E-02
 0.2956111907676E-02 -0.5038914705318E-02  0.0000000000000E+00  0.2435856819235E-02
 0.4174942752314E-02 -0.5152454061117E-02  0.0000000000000E+00  0.3440322945817E-02
 0.5735066356443E-02 -0.5430075967213E-02  0.0000000000000E+00  0.4149823003408E-02
 0.7588139047348E-02 -0.5835527320957E-02  0.0000000000000E+00  0.4291422329461E-02
 0.9596755935747E-02 -0.6266145820219E-02  0.0000000000000E+00  0.3615617643155E-02
 0.1154447041800E-01 -0.6562880033204E-02  0.0000000000000E+00  0.2006685878417E-02
 0.1885779923045E-03 -0.8855323274148E-02  0.0000000000000E+00  0.3261624966838E-02
 0.5849813719173E-03 -0.9078377669967E-02  0.0000000000000E+00  0.3350324677554E-02
 0.9825766582558E-03 -0.9274017059920E-02  0.0000000000000E+00  0.3237670897653E-02
 0.1327297755609E-02 -0.9409837877204E-02  0.0000000000000E+00  0.2970861691098E-02
 0.1593993333037E-02 -0.9477535705131E-02  0.0000000000000E+00  0.2626533435313E-02
 0.1783698931781E-02 -0.9487796849291E-02  0.0000000000000E+00  0.2268186516482E-02
 0.1910193832985E-02 -0.9458074415405E-02  0.0000000000000E+00  0.1931409933744E-02
 0.1989340408073E-02 -0.9404233181964E-02  0.0000000000000E+00  0.1628768991745E-02
 0.2034306995868E-02 -0.9337735413982E-02  0.0000000000000E+00  0.1359562291994E-02
 0.2054599755842E-02 -0.9265889067525E-02  0.0000000000000E+00  0.1117205346728E-02
 0.2056573290768E-02 -0.9192951177147E-02  0.0000000000000E+00  0.8932703018813E-03
 0.2044197988470E-02 -0.9121112929595E-02  0.0000000000000E+00  0.6793186384642E-03
 0.2019676848400E-02 -0.9051141790504E-02  0.0000000000000E+00  0.4676462328701E-03
 0.1983859137015E-02 -0.8982720420542E-02  0.0000000000000E+00  0.2516295972659E-03
 0.1936523260392E-02 -0.8914584949814E-02  0.0000000000000E+00  0.2606295083218E-04
 0.1876650939779E-02 -0.8844579233090E-02  0.0000000000000E+00 -0.2123453799182E-03
 0.1802858875617E-02 -0.8769789654215E-02  0.0000000000000E+00 -0.4643004525791E-03
 0.1714102861785E-02 -0.8686897123868E-02  0.0000000000000E+00 -0.7273706635847E-03
 0.1610547922135E-02 -0.8592723789891E-02  0.0000000000000E+00 -0.9961431167484E-03
 0.1494272598752E-02 -0.8484891146660E-02  0.0000000000000E+00 -0.1263491361918E-02
 0.1369583240468E-02 -0.8362910130255E-02  0.0000000000000E+00 -0.1522872252879E-02
 0.1242079700070E-02 -0.8227957449790E-02  0.0000000000000E+00 -0.1769885732052E-02
 0.1116819165945E-02 -0.8080849387745E-02  0.0000000000000E+00 -0.2001502758535E-02
 0.9973264434626E-03 -0.7920832858469E-02  0.0000000000000E+00 -0.2214025562871E-02
 0.8857828533403E-03 -0.7745698068630E-02  0.0000000000000E+00 -0.2401146467539E-02
 0.7839139623602E-03 -0.7552526513318E-02  0.0000000000000E+00 -0.2552802841480E-02
 0.6940890312745E-03 -0.7338536709487E-02  0.0000000000000E+00 -0.2654947772916E-02
 0.6203422163642E-03 -0.7101776645700E-02  0.0000000000000E+00 -0.2689950940170E-02
 0.5692778627989E-03 -0.6841679298894E-02  0.0000000000000E+00 -0.2637234503795E-02
 0.5510309131046E-03 -0.6559672091206E-02  0.0000000000000E+00 -0.2473915353966E-02
 0.5806003190477E-03 -0.6259859294284E-02  0.0000000000000E+00 -0.2175191996230E-02
 0.6801228294572E-03 -0.5950084293992E-02  0.0000000000000E+00 -0.1714669849271E-02
 0.8822171186477E-03 -0.5644638107023E-02  0.0000000000000E+00 -0.1067733071384E-02
 0.1233406988790E-02 -0.5367822861119E-02  0.0000000000000E+00 -0.2206565456262E-03
 0.1795959634492E-02 -0.5156284255461E-02  0.0000000000000E+00  0.8136352618132E-03
 0.2644698298138E-02 -0.5057810635184E-02  0.0000000000000E+00  0.1971074287440E-02
 0.3853149152999E-02 -0.5121937685159E-02  0.0000000000000E+00  0.3106467316401E-02
 0.5463624928896E-02 -0.5377469581142E-02  0.0000000000000E+00  0.3972703329818E-02
 0.7442954793138E-02 -0.5797965187724E-02  0.0000000000000E+00  0.4238194192589E-02
 0.9642586399290E-02 -0.6270831635150E-02  0.0000000000000E+00  0.3573385217711E-02
 0.1179895246776E-01 -0.6600338477190E-02  0.0000000000000E+00  0.1801437572030E-02
 0.2047414695430E-03 -0.9027998384852E-02  0.0000000000000E+00  0.3398113266364E-02
 0.6351531533000E-03 -0.9267183991685E-02  0.0000000000000E+00  0.3470965558335E-02
 0.1062109581080E-02 -0.9470696005622E-02  0.0000000000000E+00  0.3313753020776E-02
 0.1422044286307E-02 -0.9601779445365E-02  0.0000000000000E+00  0.2992072298971E-02
 0.1690372797341E-02 -0.9655451168704E-02  0.0000000000000E+00  0.2601098798011E-02
 0.1873787096712E-02 -0.9648493192855E-02  0.0000000000000E+00  0.2211943883389E-02
 0.1991380999793E-02 -0.9602878486754E-02  0.0000000000000E+00  0.1859008349061E-02
 0.2062127196613E-02 -0.9536491892606E-02  0.0000000000000E+00  0.1550544070991E-02
 0.2100494803611E-02 -0.9461183507825E-02  0.0000000000000E+00  0.1281823181678E-02
 0.2116322919944E-02 -0.9383974492911E-02  0.0000000000000E+00  0.1043457933128E-02
 0.2115906198721E-02 -0.9308696503675E-02  0.0000000000000E+00  0.8252717343258E-03
 0.2103039402509E-02 -0.9237188349474E-02  0.0000000000000E+00  0.6177423644664E-03
 0.2079737216555E-02 -0.9169991814984E-02  0.0000000000000E+00  0.4124194044734E-03
 0.2046662138062E-02 -0.9106675157312E-02  0.0000000000000E+00  0.2020364712194E-03
 0.2003370408709E-02 -0.9045915938486E-02  0.0000000000000E+00 -0.1930180809101E-04
 0.1948520761391E-02 -0.8985469343237E-02  0.0000000000000E+00 -0.2556709341377E-03
 0.1880252051051E-02 -0.8922209077569E-02  0.0000000000000E+00 -0.5085592367215E-03
 0.1796914697230E-02 -0.8852434013538E-02  0.0000000000000E+00 -0.7760925848509E-03
 0.1698096237381E-02 -0.8772474337760E-02  0.0000000000000E+00 -0.1052996298016E-02
 0.1585535638654E-02 -0.8679490348400E-02  0.0000000000000E+00 -0.1331939695255E-02
 0.1463534584715E-02 -0.8572705639574E-02  0.0000000000000E+00 -0.1606176786706E-02
 0.1337854161511E-02 -0.8453158640873E-02  0.0000000000000E+00 -0.1871489618966E-02
 0.1213548099450E-02 -0.8321468914609E-02  0.0000000000000E+00 -0.2125527613973E-02
 0.1093769237693E-02 -0.8176478585159E-02  0.0000000000000E+00 -0.2365482407300E-02
 0.9799740579293E-03 -0.8015371408297E-02  0.0000000000000E+00 -0.2585781926411E-02
 0.8729428481283E-03 -0.7834499484767E-02  0.0000000000000E+00 -0.2776760528813E-02
 0.7740021261377E-03 -0.7630280501302E-02  0.0000000000000E+00 -0.2924432627730E-02
 0.6860906754508E-03 -0.7399867875787E-02  0.0000000000000E+00 -0.3010962914169E-02
 0.6146235364140E-03 -0.7141609330459E-02  0.0000000000000E+00 -0.3015289494016E-02
 0.5683708069466E-03 -0.6855518176962E-02  0.0000000000000E+00 -0.2913524686293E-02
 0.5607582090473E-03 -0.6543809239101E-02  0.0000000000000E+00 -0.2678728091406E-02
 0.6123242616243E-03 -0.6211893803388E-02  0.0000000000000E+00 -0.2280139130630E-02
 0.7547843305264E-03 -0.5871439589878E-02  0.0000000000000E+00 -0.1685154212174E-02
 0.1035994150407E-02 -0.5544960592896E-02  0.0000000000000E+00 -0.8672366140841E-03
 0.1524384455820E-02 -0.5270065852422E-02  0.0000000000000E+00  0.1782736843130E-03
 0.2309244848982E-02 -0.5101139514069E-02  0.0000000000000E+00  0.1405851717564E-02
 0.3489348808031E-02 -0.5102472900539E-02  0.0000000000000E+00  0.2678740051438E-02
 0.5139883165837E-02 -0.5324141154775E-02  0.0000000000000E+00  0.3729074243592E-02
 0.7253573168877E-02 -0.5756561684748E-02  0.0000000000000E+00  0.4157695797518E-02
 0.9675228540313E-02 -0.6279583625228E-02  0.0000000000000E+00  0.3528127886259E-02
 0.1208280384621E-01 -0.6651136102432E-02  0.0000000000000E+00  0.1571267905536E-02
 0.2237415962388E-03 -0.9212202742004E-02  0.0000000000000E+00  0.3545384424175E-02
 0.6936640590025E-03 -0.9469377235661E-02  0.0000000000000E+00  0.3597266722904E-02
 0.1152895259871E-02 -0.9679594811696E-02  0.0000000000000E+00  0.3384665465419E-02
 0.1526742770459E-02 -0.9801677293762E-02  0.0000000000000E+00  0.2999033334891E-02
 0.1793186848126E-02 -0.9836328313336E-02  0.0000000000000E+00  0.2558082852506E-02
 0.1966863322384E-02 -0.9808327637965E-02  0.0000000000000E+00  0.2139467157904E-02
 0.2073136393697E-02 -0.9744590124360E-02  0.0000000000000E+00  0.1773792077640E-02
 0.2134062279853E-02 -0.9664617860756E-02  0.0000000000000E+00  0.1463213838089E-02
 0.2165087146005E-02 -0.9580139522376E-02  0.0000000000000E+00  0.1198275652428E-02
 0.2176099869344E-02 -0.9497537513025E-02  0.0000000000000E+00  0.9666815645039E-03
 0.2173158799324E-02 -0.9420024593134E-02  0.0000000000000E+00  0.7566183879485E-03
 0.2159792305876E-02 -0.9348998901181E-02  0.0000000000000E+00  0.5576410561592E-03
 0.2137794947908E-02 -0.9284755291841E-02  0.0000000000000E+00  0.3607036612202E-03
 0.2107652436027E-02 -0.9226774443608E-02  0.0000000000000E+00  0.1580126695538E-03
 0.2068736998006E-02 -0.9173740436591E-02  0.0000000000000E+00 -0.5696128554894E-04
 0.2019429456131E-02 -0.9123408446613E-02  0.0000000000000E+00 -0.2891127541130E-03
 0.1957408452247E-02 -0.9072520607110E-02  0.0000000000000E+00 -0.5408500457735E-03
 0.1880379741332E-02 -0.9017028048711E-02  0.0000000000000E+00 -0.8110427595488E-03
 0.1787272250223E-02 -0.8952743126481E-02  0.0000000000000E+00 -0.1094682874053E-02
 0.1679429428513E-02 -0.8876310924125E-02  0.0000000000000E+00 -0.1384244149181E-02
 0.1561170750216E-02 -0.8786628370589E-02  0.0000000000000E+00 -0.1672723161184E-02
 0.1438495363345E-02 -0.8684581807920E-02  0.0000000000000E+00 -0.1956078816025E-02
 0.1316513253110E-02 -0.8570588068617E-02  0.0000000000000E+00 -0.2232724347204E-02
 0.1198008608091E-02 -0.8443077959838E-02  0.0000000000000E+00 -0.2500856511535E-02
 0.1083676284847E-02 -0.8298638283736E-02  0.0000000000000E+00 -0.2755729921187E-02
 0.9733092104807E-03 -0.8132935315218E-02  0.0000000000000E+00 -0.2988152909583E-02
 0.8671633499231E-03 -0.7941665210390E-02  0.0000000000000E+00 -0.3184318655111E-02
 0.7670629380981E-03 -0.7721187710846E-02  0.0000000000000E+00 -0.3326412971285E-02
 0.6771878000401E-03 -0.7468857851487E-02  0.0000000000000E+00 -0.3393295673041E-02
 0.6047966958727E-03 -0.7183303399290E-02  0.0000000000000E+00 -0.3360714311318E-02
 0.5613785600917E-03 -0.6864719101925E-02  0.0000000000000E+00 -0.3200455714566E-02
 0.5651423584367E-03 -0.6515647907899E-02  0.0000000000000E+00 -0.2878351319828E-02
 0.6456549585300E-03 -0.6144207173672E-02  0.0000000000000E+00 -0.2354479708418E-02
 0.8503005412483E-03 -0.5769530987621E-02  0.0000000000000E+00 -0.1589034545433E-02
 0.1251672188715E-02 -0.5427997989996E-02  0.0000000000000E+00 -0.5566718057202E-03
 0.1952711621333E-02 -0.5178652514802E-02  0.0000000000000E+00  0.7231631234172E-03
 0.3080660055662E-02 -0.5101071271425E-02  0.0000000000000E+00  0.2133960782642E-02
 0.4753850132057E-02 -0.5272310104872E-02  0.0000000000000E+00  0.3396821015661E-02
 0.7006758010914E-02 -0.5709885539575E-02  0.0000000000000E+00  0.4038295089893E-02
 0.9687477960912E-02 -0.6291984456043E-02  0.0000000000000E+00  0.3480084134866E-02
 0.1240187843540E-01 -0.6718171170711E-02  0.0000000000000E+00  0.1313363092985E-02
 0.2464222503024E-03 -0.9410638597751E-02  0.0000000000000E+00  0.3705019937206E-02
 0.7627162940151E-03 -0.9687850826679E-02  0.0000000000000E+00  0.3728638284444E-02
 0.1257164119577E-02 -0.9902523250259E-02  0.0000000000000E+00  0.3446505350626E-02
 0.1642379402797E-02 -0.1000958891696E-01  0.0000000000000E+00  0.2986609752971E-02
 0.1902193521444E-02 -0.1001901043406E-01  0.0000000000000E+00  0.2493393112488E-02
 0.2062099542847E-02 -0.9965788486250E-02  0.0000000000000E+00  0.2048374089653E-02
 0.2154548654305E-02 -0.9881845575962E-02  0.0000000000000E+00  0.1674683457295E-02
 0.2204353650925E-02 -0.9787527659005E-02  0.0000000000000E+00  0.1366425684371E-02
 0.2227438879138E-02 -0.9693764119563E-02  0.0000000000000E+00  0.1108896475387E-02
 0.2233399544267E-02 -0.9605906912497E-02  0.0000000000000E+00  0.8869705012110E-03
 0.2227870008624E-02 -0.9526359535245E-02  0.0000000000000E+00  0.6874226295711E-03
 0.2214024224625E-02 -0.9456001918319E-02  0.0000000000000E+00  0.4991104502363E-03
 0.2193410845685E-02 -0.9394870313283E-02  0.0000000000000E+00  0.3125858635279E-03
 0.2166357256948E-02 -0.9342393623555E-02  0.0000000000000E+00  0.1196800985355E-03
 0.2132104323611E-02 -0.9297341443315E-02  0.0000000000000E+00 -0.8667947582489E-04
 0.2088823500300E-02 -0.9257583168106E-02  0.0000000000000E+00 -0.3122177086431E-03
 0.2033777226370E-02 -0.9219846885956E-02  0.0000000000000E+00 -0.5604096314236E-03
 0.1963999106473E-02 -0.9179802289925E-02  0.0000000000000E+00 -0.8311087031556E-03
 0.1877664319915E-02 -0.9132726777237E-02  0.0000000000000E+00 -0.1119768148873E-02
 0.1775640866727E-02 -0.9074680729125E-02  0.0000000000000E+00 -0.1418706033730E-02
 0.1662280010359E-02 -0.9004169985606E-02  0.0000000000000E+00 -0.1720599651820E-02
 0.1543903455235E-02 -0.8921890398282E-02  0.0000000000000E+00 -0.2021566057150E-02
 0.1425742556444E-02 -0.8828028663817E-02  0.0000000000000E+00 -0.2320857510238E-02
 0.1310213114471E-02 -0.8720585700062E-02  0.0000000000000E+00 -0.2617767237923E-02
 0.1197210386067E-02 -0.8595567009325E-02  0.0000000000000E+00 -0.2908425596413E-02
 0.1085508157840E-02 -0.8448022321140E-02  0.0000000000000E+00 -0.3184148735829E-02
 0.9742882513000E-03 -0.8273045457680E-02  0.0000000000000E+00 -0.3431396013791E-02
 0.8642810209716E-03 -0.8066355467434E-02  0.0000000000000E+00 -0.3632588693934E-02
 0.7584448813670E-03 -0.7824477847638E-02  0.0000000000000E+00 -0.3766932831125E-02
 0.6624595484853E-03 -0.7544780805953E-02  0.0000000000000E+00 -0.3810535373518E-02
 0.5855963031978E-03 -0.7225433978720E-02  0.0000000000000E+00 -0.3734983177912E-02
 0.5430531939666E-03 -0.6865815376543E-02  0.0000000000000E+00 -0.3504066837140E-02
 0.5609363952361E-03 -0.6469661617160E-02  0.0000000000000E+00 -0.3071936362066E-02
 0.6839807785367E-03 -0.6051025382353E-02  0.0000000000000E+00 -0.2386144486865E-02
 0.9859485038828E-03 -0.5642219918444E-02  0.0000000000000E+00 -0.1398695443290E-02
 0.1580866864042E-02 -0.5303527587141E-02  0.0000000000000E+00 -0.9528606999987E-04
 0.2626034606535E-02 -0.5128439355047E-02  0.0000000000000E+00  0.1443345787044E-02
 0.4294406772240E-02 -0.5226470794471E-02  0.0000000000000E+00  0.2945003590410E-02
 0.6684973845926E-02 -0.5656516010008E-02  0.0000000000000E+00  0.3861384758667E-02
 0.9668501732782E-02 -0.6307149702059E-02  0.0000000000000E+00  0.3428589238857E-02
 0.1276381884556E-01 -0.6805323574330E-02  0.0000000000000E+00  0.1024476745988E-02
 0.2739863533295E-03 -0.9626956495068E-02  0.0000000000000E+00  0.3878956981918E-02
 0.8452875288185E-03 -0.9926348000840E-02  0.0000000000000E+00  0.3863714061912E-02
 0.1377604592284E-02 -0.1014143776456E-01  0.0000000000000E+00  0.3493503649308E-02
 0.1769766456782E-02 -0.1022504208804E-01  0.0000000000000E+00  0.2948140514966E-02
 0.2016705862884E-02 -0.1020167829887E-01  0.0000000000000E+00  0.2402400616068E-02
 0.2158301054274E-02 -0.1011891376707E-01  0.0000000000000E+00  0.1936396914496E-02
 0.2234501287213E-02 -0.1001305969945E-01  0.0000000000000E+00  0.1560902868191E-02
 0.2272117533101E-02 -0.9904052292090E-02  0.0000000000000E+00  0.1260090552925E-02
 0.2286872383549E-02 -0.9801197454453E-02  0.0000000000000E+00  0.1013845668394E-02
 0.2287686303840E-02 -0.9708419777136E-02  0.0000000000000E+00  0.8045285121050E-03
 0.2279585650273E-02 -0.9627144684243E-02  0.0000000000000E+00  0.6178456716775E-03
 0.2265311597402E-02 -0.9557675160938E-02  0.0000000000000E+00  0.4422442736184E-03
 0.2246149361084E-02 -0.9499789091386E-02  0.0000000000000E+00  0.2681056741156E-03
 0.2222294239446E-02 -0.9452906878515E-02  0.0000000000000E+00  0.8707316176598E-04
 0.2192921723397E-02 -0.9415973404598E-02  0.0000000000000E+00 -0.1083363050705E-03
 0.2156088689983E-02 -0.9387112250671E-02  0.0000000000000E+00 -0.3246494697320E-03
 0.2108721598739E-02 -0.9363200638181E-02  0.0000000000000E+00 -0.5665511768658E-03
 0.2047177823803E-02 -0.9339741768610E-02  0.0000000000000E+00 -0.8351794982034E-03
 0.1968771925578E-02 -0.9311482102423E-02  0.0000000000000E+00 -0.1126738184617E-02
 0.1873784657933E-02 -0.9273811656822E-02  0.0000000000000E+00 -0.1433487719524E-02
 0.1766596854232E-02 -0.9224744001515E-02  0.0000000000000E+00 -0.1747728177139E-02
 0.1653940666407E-02 -0.9164704962242E-02  0.0000000000000E+00 -0.2065703650087E-02
 0.1541234119630E-02 -0.9093586602996E-02  0.0000000000000E+00 -0.2387562627983E-02
 0.1430516516269E-02 -0.9008921086815E-02  0.0000000000000E+00 -0.2713741444825E-02
 0.1320843757004E-02 -0.8906156881229E-02  0.0000000000000E+00 -0.3041228362585E-02
 0.1209953216464E-02 -0.8779831118730E-02  0.0000000000000E+00 -0.3361820821674E-02
 0.1095977955292E-02 -0.8624602219982E-02  0.0000000000000E+00 -0.3662293511538E-02
 0.9786186028424E-03 -0.8435756692041E-02  0.0000000000000E+00 -0.3925495219753E-02
 0.8596932270152E-03 -0.8209226750061E-02  0.0000000000000E+00 -0.4131396699067E-02
 0.7433334850539E-03 -0.7941356047558E-02  0.0000000000000E+00 -0.4257232557006E-02
 0.6364352560400E-03 -0.7628442357605E-02  0.0000000000000E+00 -0.4275622833155E-02
 0.5506276726168E-03 -0.7266614071510E-02  0.0000000000000E+00 -0.4150062330283E-02
 0.5073003396423E-03 -0.6854632555770E-02  0.0000000000000E+00 -0.3830932500272E-02
 0.5461439638796E-03 -0.6399876819560E-02  0.0000000000000E+00 -0.3255177551386E-02
 0.7381255222132E-03 -0.5927312808443E-02  0.0000000000000E+00 -0.2352204186090E-02
 0.1203465755895E-02 -0.5493315740120E-02  0.0000000000000E+00 -0.1067632971101E-02
 0.2127904715998E-02 -0.5200794565763E-02  0.0000000000000E+00  0.5721434452897E-03
 0.3750111599245E-02 -0.5195228576529E-02  0.0000000000000E+00  0.2330510391005E-02
 0.6264986953789E-02 -0.5595600519727E-02  0.0000000000000E+00  0.3596929074541E-02
 0.9601623767035E-02 -0.6323379309942E-02  0.0000000000000E+00  0.3370586497621E-02
 0.1317881475766E-01 -0.6917944822457E-02  0.0000000000000E+00  0.7008807989897E-03
 0.3081961253267E-03 -0.9866216280175E-02  0.0000000000000E+00  0.4069577230311E-02
 0.9454579237603E-03 -0.1018975317804E-01  0.0000000000000E+00  0.3999723828700E-02
 0.1517378014523E-02 -0.1039826273962E-01  0.0000000000000E+00  0.3517107103771E-02
 0.1909283135046E-02 -0.1044664045124E-01  0.0000000000000E+00  0.2875114447588E-02
 0.2135378100839E-02 -0.1038160810466E-01  0.0000000000000E+00  0.2280141028374E-02
 0.2253835658883E-02 -0.1026523952468E-01  0.0000000000000E+00  0.1801658051644E-02
 0.2311677289842E-02 -0.1013644955304E-01  0.0000000000000E+00  0.1432131784206E-02
 0.2336398869477E-02 -0.1001296830559E-01  0.0000000000000E+00  0.1144457308791E-02
 0.2342695922011E-02 -0.9901583760690E-02  0.0000000000000E+00  0.9134993899173E-03
 0.2338434490389E-02 -0.9804440135261E-02  0.0000000000000E+00  0.7196828677118E-03
 0.2327870256716E-02 -0.9721857397741E-02  0.0000000000000E+00  0.5481021921313E-03
 0.2313250185822E-02 -0.9653529772753E-02  0.0000000000000E+00  0.3871332335351E-03
 0.2295588716670E-02 -0.9598990853978E-02  0.0000000000000E+00  0.2272486905387E-03
 0.2274981214380E-02 -0.9557700604091E-02  0.0000000000000E+00  0.6012246582299E-04
 0.2250613481735E-02 -0.9528873714468E-02  0.0000000000000E+00 -0.1219583015033E-03
 0.2220549100954E-02 -0.9511049737617E-02  0.0000000000000E+00 -0.3262333680044E-03
 0.2181506117981E-02 -0.9501472333410E-02  0.0000000000000E+00 -0.5587107324382E-03
 0.2129203070194E-02 -0.9495665220796E-02  0.0000000000000E+00 -0.8221730067030E-03
 0.2059983101261E-02 -0.9487891648870E-02  0.0000000000000E+00 -0.1113994923529E-02
 0.1973387704869E-02 -0.9472773399311E-02  0.0000000000000E+00 -0.1426579717837E-02
 0.1873797401461E-02 -0.9447678028897E-02  0.0000000000000E+00 -0.1751820056827E-02
 0.1768437522721E-02 -0.9412614246970E-02  0.0000000000000E+00 -0.2086049402495E-02
 0.1662968222688E-02 -0.9367052727059E-02  0.0000000000000E+00 -0.2430338759502E-02
 0.1559027754212E-02 -0.9307986152595E-02  0.0000000000000E+00 -0.2786235937983E-02
 0.1454792053068E-02 -0.9230344829837E-02  0.0000000000000E+00 -0.3151465500826E-02
 0.1346967324769E-02 -0.9128306947982E-02  0.0000000000000E+00 -0.3518199108427E-02
 0.1232698917097E-02 -0.8996321522120E-02  0.0000000000000E+00 -0.3873535217262E-02
 0.1110766487501E-02 -0.8829506749111E-02  0.0000000000000E+00 -0.4200916654823E-02
 0.9819978894513E-03 -0.8623506080818E-02  0.0000000000000E+00 -0.4481465339691E-02
 0.8491208838138E-03 -0.8373984774699E-02  0.0000000000000E+00 -0.4694301058682E-02
 0.7166589769624E-03 -0.8075704276137E-02  0.0000000000000E+00 -0.4814393107664E-02
 0.5923162210324E-03 -0.7721740198088E-02  0.0000000000000E+00 -0.4806973868491E-02
 0.4917216540320E-03 -0.7305678639117E-02  0.0000000000000E+00 -0.4621536318466E-02
 0.4471789379866E-03 -0.6827050904836E-02  0.0000000000000E+00 -0.4188034884539E-02
 0.5222016336711E-03 -0.6300197985802E-02  0.0000000000000E+00 -0.3416287744221E-02
 0.8356432933047E-03 -0.5770860947413E-02  0.0000000000000E+00 -0.2209157455303E-02
 0.1594750821834E-02 -0.5342382617496E-02  0.0000000000000E+00 -0.5195858097735E-03
 0.3111155048441E-02 -0.5194498102404E-02  0.0000000000000E+00  0.1493925353640E-02
 0.5716320874370E-02 -0.5528289857993E-02  0.0000000000000E+00  0.3195983438163E-02
 0.9460569023742E-02 -0.6337668148271E-02  0.0000000000000E+00  0.3297227658458E-02
 0.1366064865579E-01 -0.7063693477166E-02  0.0000000000000E+00  0.3383357736899E-03
 0.3517140491504E-03 -0.1013564720704E-01  0.0000000000000E+00  0.4279795638564E-02
 0.1068889356846E-02 -0.1048447331743E-01  0.0000000000000E+00  0.4131328005832E-02
 0.1680020419293E-02 -0.1067446667996E-01  0.0000000000000E+00  0.3504605902085E-02
 0.2060430193636E-02 -0.1067143986279E-01  0.0000000000000E+00  0.2756950725757E-02
 0.2255939899791E-02 -0.1055490324025E-01  0.0000000000000E+00  0.2121779461981E-02
 0.2346593290873E-02 -0.1040180203113E-01  0.0000000000000E+00  0.1643061548265E-02
 0.2384592613373E-02 -0.1025009258055E-01  0.0000000000000E+00  0.1288686242361E-02
 0.2396204245389E-02 -0.1011304203129E-01  0.0000000000000E+00  0.1020178702626E-02
 0.2394227215115E-02 -0.9994101609479E-02  0.0000000000000E+00  0.8084765603737E-03
 0.2385145506252E-02 -0.9893380220010E-02  0.0000000000000E+00  0.6328940755878E-03
 0.2372320120708E-02 -0.9810024982017E-02  0.0000000000000E+00  0.4784627929486E-03
 0.2357466416951E-02 -0.9743124108173E-02  0.0000000000000E+00  0.3338637689521E-03
 0.2341332426397E-02 -0.9691996098937E-02  0.0000000000000E+00  0.1899409172810E-03
 0.2323948730922E-02 -0.9656189774250E-02  0.0000000000000E+00  0.3864023758476E-04
 0.2304590113385E-02 -0.9635279706742E-02  0.0000000000000E+00 -0.1277510772764E-03
 0.2281470057421E-02 -0.9628394425845E-02  0.0000000000000E+00 -0.3170120159275E-03
 0.2251283548789E-02 -0.9633419546278E-02  0.0000000000000E+00 -0.5365131687319E-03
 0.2209215856202E-02 -0.9646189456276E-02  0.0000000000000E+00 -0.7910808103777E-03
 0.2150542154832E-02 -0.9660615158006E-02  0.0000000000000E+00 -0.1079854775304E-02
 0.2073865884414E-02 -0.9670454814694E-02  0.0000000000000E+00 -0.1395753981742E-02
 0.1983493238254E-02 -0.9672202850786E-02  0.0000000000000E+00 -0.1730308986017E-02
 0.1887203977573E-02 -0.9665193148847E-02  0.0000000000000E+00 -0.2079914092841E-02
 0.1790927460916E-02 -0.9648245085275E-02  0.0000000000000E+00 -0.2446535944845E-02
 0.1695847985651E-02 -0.9617693520457E-02  0.0000000000000E+00 -0.2832667701033E-02
 0.1599224497211E-02 -0.9568016915737E-02  0.0000000000000E+00 -0.3236489755819E-02
 0.1496774564524E-02 -0.9493262833897E-02  0.0000000000000E+00 -0.3650337137908E-02
 0.1384763109684E-02 -0.9387973265165E-02  0.0000000000000E+00 -0.4061607804847E-02
 0.1261200178545E-02 -0.9247417218908E-02  0.0000000000000E+00 -0.4454490729174E-02
 0.1126135494942E-02 -0.9067306861784E-02  0.0000000000000E+00 -0.4811592060059E-02
 0.9811551027086E-03 -0.8843073825264E-02  0.0000000000000E+00 -0.5114595246145E-02
 0.8286030724011E-03 -0.8568469372104E-02  0.0000000000000E+00 -0.5342107338167E-02
 0.6721778517671E-03 -0.8234050704736E-02  0.0000000000000E+00 -0.5463263258517E-02
 0.5210862734086E-03 -0.7828581960949E-02  0.0000000000000E+00 -0.5430086197680E-02
 0.3983162376594E-03 -0.7343355990287E-02  0.0000000000000E+00 -0.5170681996207E-02
 0.3552004303317E-03 -0.6779552824936E-02  0.0000000000000E+00 -0.4581898539626E-02
 0.4993014742052E-03 -0.6164855479186E-02  0.0000000000000E+00 -0.3527741266997E-02
 0.1044874735067E-02 -0.5588701776848E-02  0.0000000000000E+00 -0.1873682539876E-02
 0.2373524693084E-02 -0.5252978964991E-02  0.0000000000000E+00  0.3553064730953E-03
 0.5000156811549E-02 -0.5461198812521E-02  0.0000000000000E+00  0.2578299911716E-02
 0.9203012628531E-02 -0.6345181839798E-02  0.0000000000000E+00  0.3186153200307E-02
 0.1422799460943E-01 -0.7254020697045E-02  0.0000000000000E+00 -0.6818337752396E-04
 0.4087043002135E-03 -0.1044595955188E-01  0.0000000000000E+00  0.4513095015635E-02
 0.1223520673593E-02 -0.1081889099328E-01  0.0000000000000E+00  0.4248394960635E-02
 0.1869069918152E-02 -0.1097012800770E-01  0.0000000000000E+00  0.3437134016600E-02
 0.2221096215240E-02 -0.1089400225936E-01  0.0000000000000E+00  0.2581161367791E-02
 0.2374915011629E-02 -0.1071627638190E-01  0.0000000000000E+00  0.1923502815166E-02
 0.2434018688453E-02 -0.1052524325367E-01  0.0000000000000E+00  0.1460778702639E-02
 0.2451666506973E-02 -0.1035202246402E-01  0.0000000000000E+00  0.1131666336531E-02
 0.2450545936706E-02 -0.1020308497278E-01  0.0000000000000E+00  0.8883604727373E-03
 0.2440821823863E-02 -0.1007799950234E-01  0.0000000000000E+00  0.6996561077028E-03
 0.2427366999986E-02 -0.9974723740389E-02  0.0000000000000E+00  0.5447594625603E-03
 0.2412577178422E-02 -0.9891241386822E-02  0.0000000000000E+00  0.4092536988347E-03
 0.2397629313812E-02 -0.9826078061131E-02  0.0000000000000E+00  0.2825165227350E-03
 0.2383021865208E-02 -0.9778381779317E-02  0.0000000000000E+00  0.1560453134576E-03
 0.2368755361149E-02 -0.9747837112915E-02  0.0000000000000E+00  0.2230976076059E-04
 0.2354265461187E-02 -0.9734452512942E-02  0.0000000000000E+00 -0.1261301149867E-03
 0.2338068245332E-02 -0.9738109625975E-02  0.0000000000000E+00 -0.2973112036072E-03
 0.2317083906024E-02 -0.9757662323945E-02  0.0000000000000E+00 -0.4998649638834E-03
 0.2286174931885E-02 -0.9789685900591E-02  0.0000000000000E+00 -0.7410426831187E-03
 0.2239502899758E-02 -0.9828020465729E-02  0.0000000000000E+00 -0.1022556695538E-02
 0.2174488488148E-02 -0.9865505720962E-02  0.0000000000000E+00 -0.1338497965948E-02
 0.2095222515309E-02 -0.9897436559135E-02  0.0000000000000E+00 -0.1680248933756E-02
 0.2010048248630E-02 -0.9922031619211E-02  0.0000000000000E+00 -0.2044281048246E-02
 0.1925129207492E-02 -0.9937058433229E-02  0.0000000000000E+00 -0.2433336025963E-02
 0.1841097589494E-02 -0.9938007868942E-02  0.0000000000000E+00 -0.2850456191832E-02
 0.1754273592862E-02 -0.9919026005123E-02  0.0000000000000E+00 -0.3293756546029E-02
 0.1659491899761E-02 -0.9874372983531E-02  0.0000000000000E+00 -0.3755395365829E-02
 0.1552308006292E-02 -0.9799089299369E-02  0.0000000000000E+00 -0.4223037629602E-02
 0.1430151221872E-02 -0.9688966618013E-02  0.0000000000000E+00 -0.4681792138599E-02
 0.1292546945376E-02 -0.9540166930591E-02  0.0000000000000E+00 -0.5116021877157E-02
 0.1140309331855E-02 -0.9348397212774E-02  0.0000000000000E+00 -0.5510494119032E-02
 0.9740000248006E-03 -0.9107099968472E-02  0.0000000000000E+00 -0.5848570606746E-02
 0.7935639297252E-03 -0.8805215905606E-02  0.0000000000000E+00 -0.6105358357928E-02
 0.6016701654735E-03 -0.8427730167378E-02  0.0000000000000E+00 -0.6239039918794E-02
 0.4108711411652E-03 -0.7958449375934E-02  0.0000000000000E+00 -0.6182160581393E-02
 0.2564656095370E-03 -0.7384514526140E-02  0.0000000000000E+00 -0.5828758163451E-02
 0.2239440799243E-03 -0.6709387676677E-02  0.0000000000000E+00 -0.5017060636852E-02
 0.5114227824474E-03 -0.5989977976925E-02  0.0000000000000E+00 -0.3525759906920E-02
 0.1547187615920E-02 -0.5421188715890E-02  0.0000000000000E+00 -0.1187718188124E-02
 0.4070464221658E-02 -0.5414435583771E-02  0.0000000000000E+00  0.1612473408031E-02
 0.8759533427016E-02 -0.6339358493270E-02  0.0000000000000E+00  0.2983994674053E-02
 0.1490553135086E-01 -0.7506964949950E-02  0.0000000000000E+00 -0.5262009490897E-03
 0.4859340503225E-03 -0.1081373555519E-01  0.0000000000000E+00  0.4773322672328E-02
 0.1420539286942E-02 -0.1120374226244E-01  0.0000000000000E+00  0.4331622520818E-02
 0.2087065084027E-02 -0.1128193886716E-01  0.0000000000000E+00  0.3286946853424E-02
 0.2386418005850E-02 -0.1110507850919E-01  0.0000000000000E+00  0.2334525262310E-02
 0.2487440297239E-02 -0.1085907260113E-01  0.0000000000000E+00  0.1684007838379E-02
 0.2513274718892E-02 -0.1063206706998E-01  0.0000000000000E+00  0.1256714589773E-02
 0.2511324611823E-02 -0.1044034889648E-01  0.0000000000000E+00  0.9630389477735E-03
 0.2498493511545E-02 -0.1028201843310E-01  0.0000000000000E+00  0.7505913894082E-03
 0.2481906020593E-02 -0.1015263599149E-01  0.0000000000000E+00  0.5881804391985E-03
 0.2464713194434E-02 -0.1004804983135E-01  0.0000000000000E+00  0.4560089407986E-03
 0.2448343109130E-02 -0.9965184000745E-02  0.0000000000000E+00  0.3408533708379E-03
 0.2433462500854E-02 -0.9902087250159E-02  0.0000000000000E+00  0.2331644379207E-03
 0.2420349204982E-02 -0.9857796606255E-02  0.0000000000000E+00  0.1253609636506E-03
 0.2409005129538E-02 -0.9832173997966E-02  0.0000000000000E+00  0.1068136805032E-04
 0.2399080580399E-02 -0.9825708135239E-02  0.0000000000000E+00 -0.1177438787277E-03
 0.2389533326481E-02 -0.9839158262483E-02  0.0000000000000E+00 -0.2678117904255E-03
 0.2377810590162E-02 -0.9872692394192E-02  0.0000000000000E+00 -0.4490821777623E-03
 0.2358812221928E-02 -0.9924230420699E-02  0.0000000000000E+00 -0.6714703404593E-03
 0.2325659712755E-02 -0.9988083377114E-02  0.0000000000000E+00 -0.9402924384959E-03
 0.2274321812873E-02 -0.1005624608570E-01  0.0000000000000E+00 -0.1251921708557E-02
 0.2208435923281E-02 -0.1012236006743E-01  0.0000000000000E+00 -0.1598156708004E-02
 0.2136807651790E-02 -0.1018278065478E-01  0.0000000000000E+00 -0.1975683280965E-02
 0.2065676334088E-02 -0.1023353883490E-01  0.0000000000000E+00 -0.2387725728428E-02
 0.1994956627284E-02 -0.1026900521064E-01  0.0000000000000E+00 -0.2837084532122E-02
 0.1920049590316E-02 -0.1028321592885E-01  0.0000000000000E+00 -0.3320928543703E-02
 0.1835118930953E-02 -0.1027116393852E-01  0.0000000000000E+00 -0.3830745979349E-02
 0.1735273910938E-02 -0.1022893700562E-01  0.0000000000000E+00 -0.4354475455423E-02
 0.1617582888746E-02 -0.1015327432579E-01  0.0000000000000E+00 -0.4878414952366E-02
 0.1481303963758E-02 -0.1004114600551E-01  0.0000000000000E+00 -0.5388921444733E-02
 0.1326922647091E-02 -0.9889039969658E-02  0.0000000000000E+00 -0.5874122976241E-02
 0.1153812692164E-02 -0.9690917797313E-02  0.0000000000000E+00 -0.6322899510441E-02
 0.9587765769697E-03 -0.9435368266032E-02  0.0000000000000E+00 -0.6718014780415E-02
 0.7385095878360E-03 -0.9105416505927E-02  0.0000000000000E+00 -0.7027169041563E-02
 0.4951788719867E-03 -0.8679575476025E-02  0.0000000000000E+00 -0.7194107491606E-02
 0.2460576259715E-03 -0.8132546147726E-02  0.0000000000000E+00 -0.7122714704858E-02
 0.4591569239132E-04 -0.7441507702097E-02  0.0000000000000E+00 -0.6647862741407E-02
 0.4781536397203E-04 -0.6613276777664E-02  0.0000000000000E+00 -0.5488868338894E-02
 0.6709991424688E-03 -0.5785266299916E-02  0.0000000000000E+00 -0.3253065805079E-02
 0.2882144145435E-02 -0.5439693631476E-02  0.0000000000000E+00  0.8660630918533E-04
 0.8015297548422E-02 -0.6315282225899E-02  0.0000000000000E+00  0.2566866459450E-02
 0.1572297791242E-01 -0.7852790896383E-02  0.0000000000000E+00 -0.1053548758572E-02
 0.5948685406069E-03 -0.1126609735585E-01  0.0000000000000E+00  0.5063630038864E-02
 0.1675590568727E-02 -0.1165180148537E-01  0.0000000000000E+00  0.4343582598515E-02
 0.2333138698900E-02 -0.1159900605276E-01  0.0000000000000E+00  0.3014409696439E-02
 0.2547202689352E-02 -0.1129016195119E-01  0.0000000000000E+00  0.2006596482613E-02
 0.2587464289721E-02 -0.1097591159903E-01  0.0000000000000E+00  0.1406537126504E-02
 0.2581573975441E-02 -0.1071901932603E-01  0.0000000000000E+00  0.1034687261874E-02
 0.2562106336838E-02 -0.1051337202219E-01  0.0000000000000E+00  0.7856494975206E-03
 0.2539233013364E-02 -0.1034895221747E-01  0.0000000000000E+00  0.6089550198846E-03
 0.2517013199340E-02 -0.1021752049941E-01  0.0000000000000E+00  0.4754368970068E-03
 0.2496884690979E-02 -0.1011305652339E-01  0.0000000000000E+00  0.3674933178126E-03
 0.2479393201254E-02 -0.1003162995695E-01  0.0000000000000E+00  0.2736853873586E-03
 0.2464755702300E-02 -0.9970936387675E-02  0.0000000000000E+00  0.1858703650922E-03
 0.2453069976225E-02 -0.9929975748211E-02  0.0000000000000E+00  0.9762500398150E-04
 0.2444365684343E-02 -0.9908821412679E-02  0.0000000000000E+00  0.3176734175325E-05
 0.2438534179064E-02 -0.9908454212653E-02  0.0000000000000E+00 -0.1034808097972E-03
 0.2435066727863E-02 -0.9930558879186E-02  0.0000000000000E+00 -0.2296155512415E-03
 0.2432253541477E-02 -0.9976910915635E-02  0.0000000000000E+00 -0.3850598771735E-03
 0.2425581939254E-02 -0.1004755329400E-01  0.0000000000000E+00 -0.5822532522830E-03
 0.2407444659024E-02 -0.1013824078450E-01  0.0000000000000E+00 -0.8312855307787E-03
 0.2372137011007E-02 -0.1024051983139E-01  0.0000000000000E+00 -0.1132626666476E-02
 0.2322473887571E-02 -0.1034577875709E-01  0.0000000000000E+00 -0.1479764346775E-02
 0.2267399461996E-02 -0.1044722728415E-01  0.0000000000000E+00 -0.1870015880232E-02
 0.2212835725503E-02 -0.1053799618360E-01  0.0000000000000E+00 -0.2306463272458E-02
 0.2157723520229E-02 -0.1061095576929E-01  0.0000000000000E+00 -0.2790191058853E-02
 0.2096660190752E-02 -0.1066045287305E-01  0.0000000000000E+00 -0.3316018462923E-02
 0.2023523030718E-02 -0.1068300115695E-01  0.0000000000000E+00 -0.3874106921545E-02
 0.1933374258462E-02 -0.1067648305492E-01  0.0000000000000E+00 -0.4452788133490E-02
 0.1823169166615E-02 -0.1063907450599E-01  0.0000000000000E+00 -0.5040039715632E-02
 0.1692097358968E-02 -0.1056882599530E-01  0.0000000000000E+00 -0.5624503101271E-02
 0.1540758597572E-02 -0.1046338952844E-01  0.0000000000000E+00 -0.6197626636166E-02
 0.1368095914283E-02 -0.1031809782375E-01  0.0000000000000E+00 -0.6753977764513E-02
 0.1168735236203E-02 -0.1012278314480E-01  0.0000000000000E+00 -0.7284932576100E-02
 0.9346961269576E-03 -0.9861114243020E-02  0.0000000000000E+00 -0.7770215624120E-02
 0.6593004130423E-03 -0.9510112524687E-02  0.0000000000000E+00 -0.8170992285467E-02
 0.3422885693934E-03 -0.9036634067606E-02  0.0000000000000E+00 -0.8414531399036E-02
 0.4579563102181E-05 -0.8395911364908E-02  0.0000000000000E+00 -0.8359688712168E-02
-0.2696216427669E-03 -0.7539325818815E-02  0.0000000000000E+00 -0.7726026752885E-02
-0.1629057260899E-03 -0.6484558713735E-02  0.0000000000000E+00 -0.5943462553283E-02
 0.1418130655605E-02 -0.5659591945620E-02  0.0000000000000E+00 -0.2326282508654E-02
 0.6782498928815E-02 -0.6285765902218E-02  0.0000000000000E+00  0.1651970744174E-02
 0.1670572376233E-01 -0.8346357271395E-02  0.0000000000000E+00 -0.1709167355168E-02
 0.7557975047404E-03 -0.1185068041201E-01  0.0000000000000E+00  0.5382333546812E-02
 0.2009689284675E-02 -0.1217447327490E-01  0.0000000000000E+00  0.4209611591226E-02
 0.2597531922348E-02 -0.1189423036318E-01  0.0000000000000E+00  0.2567395831305E-02
 0.2688370467354E-02 -0.1142929592008E-01  0.0000000000000E+00  0.1597944649275E-02
 0.2668851758810E-02 -0.1106040327224E-01  0.0000000000000E+00  0.1100464008643E-02
 0.2636570742415E-02 -0.1078333209102E-01  0.0000000000000E+00  0.8000033873084E-03
 0.2602738832032E-02 -0.1056971456185E-01  0.0000000000000E+00  0.6032851878679E-03
 0.2572147044952E-02 -0.1040327761805E-01  0.0000000000000E+00  0.4659831279267E-03
 0.2545816181901E-02 -0.1027234595370E-01  0.0000000000000E+00  0.3630174729546E-03
 0.2523687189630E-02 -0.1016958487795E-01  0.0000000000000E+00  0.2801670882419E-03
 0.2505589347964E-02 -0.1009047014978E-01  0.0000000000000E+00  0.2082059401018E-03
 0.2491374907180E-02 -0.1003251127498E-01  0.0000000000000E+00  0.1406847869882E-03
 0.2481014593069E-02 -0.9994753991359E-02  0.0000000000000E+00  0.7251705438022E-04
 0.2474585079466E-02 -0.9977508955966E-02  0.0000000000000E+00 -0.8988410062083E-06
 0.2472216366465E-02 -0.9982227173652E-02  0.0000000000000E+00 -0.8445194724888E-04
 0.2473942653387E-02 -0.1001146444334E-01  0.0000000000000E+00 -0.1842794509312E-03
 0.2479137529586E-02 -0.1006871960856E-01  0.0000000000000E+00 -0.3094775849813E-03
 0.2484613029237E-02 -0.1015701041423E-01  0.0000000000000E+00 -0.4741005622722E-03
 0.2482771936003E-02 -0.1027517216650E-01  0.0000000000000E+00 -0.6939765214300E-03
 0.2466254048507E-02 -0.1041544936062E-01  0.0000000000000E+00 -0.9765197393734E-03
 0.2436528687361E-02 -0.1056626173342E-01  0.0000000000000E+00 -0.1319618638538E-02
 0.2401906363102E-02 -0.1071542024096E-01  0.0000000000000E+00 -0.1722250428666E-02
 0.2367158648484E-02 -0.1085117264901E-01  0.0000000000000E+00 -0.2186046920095E-02
 0.2329896544384E-02 -0.1096443491515E-01  0.0000000000000E+00 -0.2707710160766E-02
 0.2284234722108E-02 -0.1105066218510E-01  0.0000000000000E+00 -0.3277583309402E-02
 0.2224415959765E-02 -0.1110906706889E-01  0.0000000000000E+00 -0.3883715840614E-02
 0.2146050105389E-02 -0.1114033711656E-01  0.0000000000000E+00 -0.4515160999817E-02
 0.2046270967614E-02 -0.1114467745732E-01  0.0000000000000E+00 -0.5162462874252E-02
 0.1924254457261E-02 -0.1112134155155E-01  0.0000000000000E+00 -0.5817106294294E-02
 0.1781019409961E-02 -0.1106919960858E-01  0.0000000000000E+00 -0.6473475475842E-02
 0.1615904100134E-02 -0.1098563826518E-01  0.0000000000000E+00 -0.7131072135715E-02
 0.1422688160923E-02 -0.1086361070738E-01  0.0000000000000E+00 -0.7789618588970E-02
 0.1190680787620E-02 -0.1069083126292E-01  0.0000000000000E+00 -0.8442099314432E-02
 0.9075190950673E-03 -0.1044800847003E-01  0.0000000000000E+00 -0.9071330371926E-02
 0.5589775272460E-03 -0.1010218632297E-01  0.0000000000000E+00 -0.9640433294706E-02
 0.1348180698697E-03 -0.9597345038214E-02  0.0000000000000E+00 -0.1005823498986E-01
-0.3498743472239E-03 -0.8847353892159E-02  0.0000000000000E+00 -0.1011586112184E-01
-0.7774857637527E-03 -0.7722331397563E-02  0.0000000000000E+00 -0.9262070180902E-02
-0.2369233472913E-03 -0.6347968577371E-02  0.0000000000000E+00 -0.6076496213549E-02
 0.4771603451629E-02 -0.6342142530694E-02  0.0000000000000E+00 -0.3946058559673E-03
 0.1783566202710E-01 -0.9098332610812E-02  0.0000000000000E+00 -0.2708734479866E-02
 0.1006082175119E-02 -0.1265981407119E-01  0.0000000000000E+00  0.5706704211176E-02
 0.2447146603062E-02 -0.1276535940489E-01  0.0000000000000E+00  0.3775295400836E-02
 0.2849633800484E-02 -0.1210836864485E-01  0.0000000000000E+00  0.1894749999499E-02
 0.2789795119995E-02 -0.1150312819841E-01  0.0000000000000E+00  0.1135364041652E-02
 0.2727881205918E-02 -0.1110910556684E-01  0.0000000000000E+00  0.7787858760277E-03
 0.2676313904984E-02 -0.1082247389463E-01  0.0000000000000E+00  0.5590892034379E-03
 0.2632277861586E-02 -0.1060867676001E-01  0.0000000000000E+00  0.4208448259458E-03
 0.2596906550107E-02 -0.1044468254066E-01  0.0000000000000E+00  0.3244362237409E-03
 0.2568141562791E-02 -0.1031703663224E-01  0.0000000000000E+00  0.2527118344387E-03
 0.2545054472977E-02 -0.1021763507511E-01  0.0000000000000E+00  0.1950453280745E-03
 0.2526888688766E-02 -0.1014172201392E-01  0.0000000000000E+00  0.1448926087346E-03
 0.2513271492321E-02 -0.1008680833904E-01  0.0000000000000E+00  0.9764136816029E-04
 0.2504097946157E-02 -0.1005207650774E-01  0.0000000000000E+00  0.4966695203451E-04
 0.2499505833013E-02 -0.1003809118979E-01  0.0000000000000E+00 -0.2338634769922E-05
 0.2499838043849E-02 -0.1004672184998E-01  0.0000000000000E+00 -0.6194946421570E-04
 0.2505589864541E-02 -0.1008125219957E-01  0.0000000000000E+00 -0.1337757494169E-03
 0.2517236481688E-02 -0.1014670173485E-01  0.0000000000000E+00 -0.2249952215921E-03
 0.2533695699318E-02 -0.1024963630017E-01  0.0000000000000E+00 -0.3491028004883E-03
 0.2548800643062E-02 -0.1039447244714E-01  0.0000000000000E+00 -0.5274447076491E-03
 0.2554266467520E-02 -0.1057700152487E-01  0.0000000000000E+00 -0.7785450645805E-03
 0.2549582940471E-02 -0.1078205038422E-01  0.0000000000000E+00 -0.1110406290820E-02
 0.2540725943712E-02 -0.1098789117740E-01  0.0000000000000E+00 -0.1526005377423E-02
 0.2529664500286E-02 -0.1117449332422E-01  0.0000000000000E+00 -0.2022711109570E-02
 0.2512281910397E-02 -0.1133046545100E-01  0.0000000000000E+00 -0.2588092852056E-02
 0.2482950787896E-02 -0.1145386678421E-01  0.0000000000000E+00 -0.3204984564788E-02
 0.2437319610532E-02 -0.1154832945480E-01  0.0000000000000E+00 -0.3858556407828E-02
 0.2372396963588E-02 -0.1161866598243E-01  0.0000000000000E+00 -0.4539229341894E-02
 0.2285891902808E-02 -0.1166789145331E-01  0.0000000000000E+00 -0.5241565102632E-02
 0.2176798056219E-02 -0.1169644181762E-01  0.0000000000000E+00 -0.5961160100392E-02
 0.2046442873534E-02 -0.1170377589926E-01  0.0000000000000E+00 -0.6694788026298E-02
 0.1895293809389E-02 -0.1168943818299E-01  0.0000000000000E+00 -0.7444617466848E-02
 0.1717925081075E-02 -0.1165168621789E-01  0.0000000000000E+00 -0.8216593843144E-02
 0.1503825422785E-02 -0.1158656637822E-01  0.0000000000000E+00 -0.9016344606356E-02
 0.1238624551343E-02 -0.1148459495080E-01  0.0000000000000E+00 -0.9850758498219E-02
 0.9025793755488E-03 -0.1132321005120E-01  0.0000000000000E+00 -0.1072367133943E-01
 0.4599304339553E-03 -0.1105427197794E-01  0.0000000000000E+00 -0.1162109905949E-01
-0.1185205626731E-03 -0.1058535637927E-01  0.0000000000000E+00 -0.1244017789342E-01
-0.9006510032645E-03 -0.9730318375929E-02  0.0000000000000E+00 -0.1294004044630E-01
-0.1718243434665E-02 -0.8066157912290E-02  0.0000000000000E+00 -0.1158404414061E-01
 0.1617149792637E-02 -0.6871760656275E-02  0.0000000000000E+00 -0.4951086324352E-02
 0.1892515272409E-01 -0.1036663026897E-01  0.0000000000000E+00 -0.4853799067284E-02
 0.1415182302190E-02 -0.1390140533941E-01  0.0000000000000E+00  0.5920782958765E-02
 0.2998245090450E-02 -0.1332245937083E-01  0.0000000000000E+00  0.2710960710919E-02
 0.3014689675215E-02 -0.1213768030459E-01  0.0000000000000E+00  0.1020999590446E-02
 0.2838204565928E-02 -0.1151561367111E-01  0.0000000000000E+00  0.6809833858298E-03
 0.2764864097621E-02 -0.1111636111039E-01  0.0000000000000E+00  0.4465835911112E-03
 0.2698319825456E-02 -0.1083595295215E-01  0.0000000000000E+00  0.3233778451277E-03
 0.2650788503114E-02 -0.1063004795749E-01  0.0000000000000E+00  0.2427731841846E-03
 0.2613326667016E-02 -0.1047327224370E-01  0.0000000000000E+00  0.1875464137950E-03
 0.2584054140461E-02 -0.1035176302519E-01  0.0000000000000E+00  0.1463430470559E-03
 0.2561044432854E-02 -0.1025738341429E-01  0.0000000000000E+00  0.1131894028196E-03
 0.2543356323436E-02 -0.1018553813086E-01  0.0000000000000E+00  0.8422010212952E-04
 0.2530487335267E-02 -0.1013394181860E-01  0.0000000000000E+00  0.5675394391691E-04
 0.2522326516387E-02 -0.1010200643776E-01  0.0000000000000E+00  0.2866336223672E-04
 0.2519077070940E-02 -0.1009056002262E-01  0.0000000000000E+00 -0.2008311495078E-05
 0.2521247420474E-02 -0.1010181376571E-01  0.0000000000000E+00 -0.3740205320729E-04
 0.2529670052857E-02 -0.1013958227674E-01  0.0000000000000E+00 -0.8034246584807E-04
 0.2545595622698E-02 -0.1020991361264E-01  0.0000000000000E+00 -0.1352784692044E-03
 0.2570390444702E-02 -0.1032245031515E-01  0.0000000000000E+00 -0.2116143757356E-03
 0.2601572591148E-02 -0.1049016806129E-01  0.0000000000000E+00 -0.3323876443068E-03
 0.2632528049149E-02 -0.1071915697253E-01  0.0000000000000E+00 -0.5322747975297E-03
 0.2660318400313E-02 -0.1099094970957E-01  0.0000000000000E+00 -0.8417472050312E-03
 0.2684845940880E-02 -0.1126606323701E-01  0.0000000000000E+00 -0.1272926803472E-02
 0.2702117614997E-02 -0.1151042996260E-01  0.0000000000000E+00 -0.1812509593780E-02
 0.2706129519146E-02 -0.1171069288566E-01  0.0000000000000E+00 -0.2430649926121E-02
 0.2693057682363E-02 -0.1187021928647E-01  0.0000000000000E+00 -0.3098729637093E-02
 0.2661524516346E-02 -0.1199950223408E-01  0.0000000000000E+00 -0.3798636391846E-02
 0.2611054958817E-02 -0.1210908538745E-01  0.0000000000000E+00 -0.4523286144968E-02
 0.2540572463026E-02 -0.1220585041194E-01  0.0000000000000E+00 -0.5273219328683E-02
 0.2448549724269E-02 -0.1229155718879E-01  0.0000000000000E+00 -0.6050864594269E-02
 0.2335576078575E-02 -0.1236440129950E-01  0.0000000000000E+00 -0.6855604751923E-02
 0.2203378512665E-02 -0.1242452973965E-01  0.0000000000000E+00 -0.7687351281416E-02
 0.2049707501431E-02 -0.1247837990467E-01  0.0000000000000E+00 -0.8552728621696E-02
 0.1867584581999E-02 -0.1253597720355E-01  0.0000000000000E+00 -0.9468282330373E-02
 0.1646308032719E-02 -0.1260386981650E-01  0.0000000000000E+00 -0.1046434947352E-01
 0.1364868387672E-02 -0.1267975258470E-01  0.0000000000000E+00 -0.1158573375584E-01
 0.9943434466059E-03 -0.1274892701807E-01  0.0000000000000E+00 -0.1289041195736E-01
 0.4394415880366E-03 -0.1275792372851E-01  0.0000000000000E+00 -0.1445177464885E-01
-0.2905923091381E-03 -0.1260726821089E-01  0.0000000000000E+00 -0.1625983308991E-01
-0.2046183340042E-02 -0.1174055581430E-01  0.0000000000000E+00 -0.1847722802119E-01
-0.2712965238032E-02 -0.9299800159413E-02  0.0000000000000E+00 -0.1468773452742E-01
 0.1914802861370E-01 -0.1297714377028E-01  0.0000000000000E+00 -0.1132112431681E-01
 0.2089064007501E-02 -0.1617829235117E-01  0.0000000000000E+00  0.5407167661382E-02
 0.3566634874020E-02 -0.1320446918034E-01  0.0000000000000E+00  0.3444223620784E-03
 0.2952089726860E-02 -0.1202774185476E-01  0.0000000000000E+00  0.3661369470931E-03
 0.2872045884544E-02 -0.1145751179021E-01  0.0000000000000E+00  0.1972885354749E-03
 0.2766850181579E-02 -0.1108207664629E-01  0.0000000000000E+00  0.1374456525688E-03
 0.2705636599918E-02 -0.1082440597870E-01  0.0000000000000E+00  0.9900109854574E-04
 0.2657751052474E-02 -0.1063436593624E-01  0.0000000000000E+00  0.7506254609681E-04
 0.2621854179065E-02 -0.1048958336549E-01  0.0000000000000E+00  0.5832288451717E-04
 0.2593754908801E-02 -0.1037696135131E-01  0.0000000000000E+00  0.4580790545591E-04
 0.2571877277077E-02 -0.1028919093289E-01  0.0000000000000E+00  0.3563444584753E-04
 0.2555162486626E-02 -0.1022221135485E-01  0.0000000000000E+00  0.2664536209387E-04
 0.2543160309093E-02 -0.1017414759497E-01  0.0000000000000E+00  0.1800985816300E-04
 0.2535801715107E-02 -0.1014472895181E-01  0.0000000000000E+00  0.9063421718719E-05
 0.2533360393635E-02 -0.1013505035989E-01  0.0000000000000E+00 -0.8152130700767E-06
 0.2536447682212E-02 -0.1014757570590E-01  0.0000000000000E+00 -0.1231586864778E-04
 0.2546081004127E-02 -0.1018641517009E-01  0.0000000000000E+00 -0.2635677240875E-04
 0.2563862150726E-02 -0.1025808407266E-01  0.0000000000000E+00 -0.4442196512364E-04
 0.2592514559060E-02 -0.1037352142096E-01  0.0000000000000E+00 -0.6939027461220E-04
 0.2635471325309E-02 -0.1055408101713E-01  0.0000000000000E+00 -0.1135954395721E-03
 0.2695108173360E-02 -0.1083206435231E-01  0.0000000000000E+00 -0.2291675026263E-03
 0.2767023477524E-02 -0.1119039769160E-01  0.0000000000000E+00 -0.4978636610595E-03
 0.2836371720717E-02 -0.1155297812671E-01  0.0000000000000E+00 -0.9519452762598E-03
 0.2887420883290E-02 -0.1186300326523E-01  0.0000000000000E+00 -0.1551582778327E-02
 0.2913291874080E-02 -0.1210758522926E-01  0.0000000000000E+00 -0.2236077956658E-02
 0.2914879492391E-02 -0.1230000830958E-01  0.0000000000000E+00 -0.2960918681002E-02
 0.2896040012781E-02 -0.1246098416454E-01  0.0000000000000E+00 -0.3705287150194E-02
 0.2860090355815E-02 -0.1260857014525E-01  0.0000000000000E+00 -0.4466604133010E-02
 0.2808107513835E-02 -0.1275468688099E-01  0.0000000000000E+00 -0.5253333112784E-02
 0.2738251116590E-02 -0.1290364349418E-01  0.0000000000000E+00 -0.6079162505405E-02
 0.2647397514145E-02 -0.1304935052479E-01  0.0000000000000E+00 -0.6950939946828E-02
 0.2536546953877E-02 -0.1318553617014E-01  0.0000000000000E+00 -0.7856245465927E-02
 0.2410842235449E-02 -0.1333216119791E-01  0.0000000000000E+00 -0.8788751713864E-02
 0.2272175242484E-02 -0.1352258806934E-01  0.0000000000000E+00 -0.9776652492412E-02
 0.2115759813679E-02 -0.1378208514459E-01  0.0000000000000E+00 -0.1087210653272E-01
 0.1932708105412E-02 -0.1413814003471E-01  0.0000000000000E+00 -0.1214969957104E-01
 0.1694877067116E-02 -0.1462726594730E-01  0.0000000000000E+00 -0.1371934092301E-01
 0.1395806240210E-02 -0.1531331317676E-01  0.0000000000000E+00 -0.1578821291072E-01
 0.7741871457056E-03 -0.1624597997497E-01  0.0000000000000E+00 -0.1866974856591E-01
 0.4345908661034E-03 -0.1775753046689E-01  0.0000000000000E+00 -0.2335632126997E-01
-0.5739968423679E-02 -0.1816907758252E-01  0.0000000000000E+00 -0.3212022433701E-01
 0.1658970603955E-01 -0.2143355673456E-01  0.0000000000000E+00 -0.3704602195645E-01
 0.8472274054292E-01 -0.1430961452172E+00  0.0000000000000E+00 -0.3407787504359E+00
 0.1289160338703E+00 -0.1845184356663E+00  0.0000000000000E+00 -0.2657138930768E+00
 0.1694609396874E+00 -0.2224193216303E+00  0.0000000000000E+00 -0.2055034441940E+00
 0.2058240531952E+00 -0.2563278918303E+00  0.0000000000000E+00 -0.1575550182025E+00
 0.2380005818843E+00 -0.2862830366108E+00  0.0000000000000E+00 -0.1201065951357E+00
 0.2662211124509E+00 -0.3125321094429E+00  0.0000000000000E+00 -0.9188546871323E-01
 0.2908307334095E+00 -0.3354214620591E+00  0.0000000000000E+00 -0.7190680973375E-01
 0.3122163305108E+00 -0.3553366086503E+00  0.0000000000000E+00 -0.5936314744252E-01
 0.3307492273469E+00 -0.3726515795006E+00  0.0000000000000E+00 -0.5354823448139E-01
 0.3467759108368E+00 -0.3877162565715E+00  0.0000000000000E+00 -0.5390479445348E-01
 0.3606459304271E+00 -0.4008763417043E+00  0.0000000000000E+00 -0.5998857080530E-01
 0.3725444240414E+00 -0.4123566166080E+00  0.0000000000000E+00 -0.7121237402873E-01
 0.3827458360273E+00 -0.4224156727144E+00  0.0000000000000E+00 -0.8772815911879E-01
 0.3917189438708E+00 -0.4315012769037E+00  0.0000000000000E+00 -0.1095741983363E+00
 0.3997319620770E+00 -0.4399068980713E+00  0.0000000000000E+00 -0.1359468349426E+00
 0.4068146929618E+00 -0.4476462452742E+00  0.0000000000000E+00 -0.1662451508926E+00
 0.4128465414312E+00 -0.4546087976410E+00  0.0000000000000E+00 -0.2000260341536E+00
 0.4176376464465E+00 -0.4606450826276E+00  0.0000000000000E+00 -0.2370735830245E+00
 0.4211625390669E+00 -0.4656444654791E+00  0.0000000000000E+00 -0.2768662476362E+00
 0.4230420814931E+00 -0.4701442769210E+00  0.0000000000000E+00 -0.3156333366939E+00
 0.8054522284584E-01 -0.1402349257885E+00  0.0000000000000E+00 -0.3189592512271E+00
 0.1272994533127E+00 -0.1840023196935E+00  0.0000000000000E+00 -0.2460695885847E+00
 0.1697653567093E+00 -0.2237272475753E+00  0.0000000000000E+00 -0.1884411927758E+00
 0.2077706076398E+00 -0.2592182015206E+00  0.0000000000000E+00 -0.1428886179604E+00
 0.2413851584952E+00 -0.2905688242166E+00  0.0000000000000E+00 -0.1074650677667E+00
 0.2708982279526E+00 -0.3180804386896E+00  0.0000000000000E+00 -0.8087886831142E-01
 0.2967084394184E+00 -0.3421540457369E+00  0.0000000000000E+00 -0.6215010604156E-01
 0.3192406447119E+00 -0.3632136487075E+00  0.0000000000000E+00 -0.5048160398967E-01
 0.3388938795996E+00 -0.3816587624816E+00  0.0000000000000E+00 -0.4520764309839E-01
 0.3560429421697E+00 -0.3978655071218E+00  0.0000000000000E+00 -0.4581518371377E-01
 0.3710376267493E+00 -0.4121927814478E+00  0.0000000000000E+00 -0.5186230515474E-01
 0.3841051733360E+00 -0.4248773401819E+00  0.0000000000000E+00 -0.6292465158392E-01
 0.3955707346882E+00 -0.4362481882237E+00  0.0000000000000E+00 -0.7912469929484E-01
 0.4058721836291E+00 -0.4467401083099E+00  0.0000000000000E+00 -0.1003548268394E+00
 0.4152623250729E+00 -0.4566070784663E+00  0.0000000000000E+00 -0.1259701432900E+00
 0.4238204640432E+00 -0.4659388503493E+00  0.0000000000000E+00 -0.1554672465356E+00
 0.4314830809837E+00 -0.4746934390126E+00  0.0000000000000E+00 -0.1883617479439E+00
 0.4381409604315E+00 -0.4827804869205E+00  0.0000000000000E+00 -0.2241448544672E+00
 0.4431942249584E+00 -0.4898276842359E+00  0.0000000000000E+00 -0.2614323859086E+00
 0.4459450087443E+00 -0.4950360393343E+00  0.0000000000000E+00 -0.3003867561960E+00
 0.7652202580727E-01 -0.1374290022350E+00  0.0000000000000E+00 -0.2963160436428E+00
 0.1258470558395E+00 -0.1836266164735E+00  0.0000000000000E+00 -0.2259938212885E+00
 0.1702308021878E+00 -0.2251587735416E+00  0.0000000000000E+00 -0.1708884266394E+00
 0.2097885743465E+00 -0.2621361344892E+00  0.0000000000000E+00 -0.1276882616713E+00
 0.2447471780270E+00 -0.2947865368099E+00  0.0000000000000E+00 -0.9426684362232E-01
 0.2754700526547E+00 -0.3234790197968E+00  0.0000000000000E+00 -0.6926887457367E-01
 0.3024056467704E+00 -0.3486626325317E+00  0.0000000000000E+00 -0.5171211233518E-01
 0.3260150506050E+00 -0.3707970360332E+00  0.0000000000000E+00 -0.4082330684800E-01
 0.3467281630277E+00 -0.3903115695057E+00  0.0000000000000E+00 -0.3597751427693E-01
 0.3649409568620E+00 -0.4076050222623E+00  0.0000000000000E+00 -0.3669351597462E-01
 0.3810168000135E+00 -0.4230458762389E+00  0.0000000000000E+00 -0.4258274792175E-01
 0.3952330547666E+00 -0.4369210935102E+00  0.0000000000000E+00 -0.5330944406006E-01
 0.4079356132955E+00 -0.4495827125444E+00  0.0000000000000E+00 -0.6892292012614E-01
 0.4195374903863E+00 -0.4614452694076E+00  0.0000000000000E+00 -0.8928086128546E-01
 0.4302976982469E+00 -0.4727751578107E+00  0.0000000000000E+00 -0.1138288619721E+00
 0.4403166118866E+00 -0.4836896414761E+00  0.0000000000000E+00 -0.1420843897310E+00
 0.4495587338841E+00 -0.4941807679969E+00  0.0000000000000E+00 -0.1735080434431E+00
 0.4577927368217E+00 -0.5040936465156E+00  0.0000000000000E+00 -0.2073839541371E+00
 0.4644211895951E+00 -0.5128871247928E+00  0.0000000000000E+00 -0.2430127030542E+00
 0.4690373869720E+00 -0.5201887083261E+00  0.0000000000000E+00 -0.2807645564273E+00
 0.7268500398309E-01 -0.1347498023993E+00  0.0000000000000E+00 -0.2727529102537E+00
 0.1245278584405E+00 -0.1833309369316E+00  0.0000000000000E+00 -0.2053557248967E+00
 0.1707883603511E+00 -0.2266403638792E+00  0.0000000000000E+00 -0.1528954304378E+00
 0.2118298139615E+00 -0.2650316987259E+00  0.0000000000000E+00 -0.1120333756408E+00
 0.2480455816651E+00 -0.2988940515618E+00  0.0000000000000E+00 -0.8057407457900E-01
 0.2798937509135E+00 -0.3286832635801E+00  0.0000000000000E+00 -0.5710545513397E-01
 0.3078764398264E+00 -0.3548992083505E+00  0.0000000000000E+00 -0.4064111744883E-01
 0.3324915688891E+00 -0.3780371224285E+00  0.0000000000000E+00 -0.3043392648736E-01
 0.3541984530930E+00 -0.3985553868973E+00  0.0000000000000E+00 -0.2589835627404E-01
 0.3734160349119E+00 -0.4168747458638E+00  0.0000000000000E+00 -0.2659290497699E-01
 0.3905274715844E+00 -0.4333832173712E+00  0.0000000000000E+00 -0.3217390333007E-01
 0.4058502701601E+00 -0.4484072504699E+00  0.0000000000000E+00 -0.4236003306078E-01
 0.4197450285452E+00 -0.4623155022334E+00  0.0000000000000E+00 -0.5714432609668E-01
 0.4326062140807E+00 -0.4755087112210E+00  0.0000000000000E+00 -0.7635732854037E-01
 0.4446939676766E+00 -0.4882598275231E+00  0.0000000000000E+00 -0.9950628419266E-01
 0.4561177544028E+00 -0.5007011181636E+00  0.0000000000000E+00 -0.1261121969189E+00
 0.4668226064801E+00 -0.5128198564722E+00  0.0000000000000E+00 -0.1556073078796E+00
 0.4765536600110E+00 -0.5244144800138E+00  0.0000000000000E+00 -0.1873997927264E+00
 0.4848190214919E+00 -0.5350579485098E+00  0.0000000000000E+00 -0.2210010552899E+00
 0.4912732685144E+00 -0.5444665300883E+00  0.0000000000000E+00 -0.2564800348364E+00
 0.6905265678339E-01 -0.1322133482969E+00  0.0000000000000E+00 -0.2482990665656E+00
 0.1233308644071E+00 -0.1831021083326E+00  0.0000000000000E+00 -0.1841493824454E+00
 0.1713972320431E+00 -0.2281224625636E+00  0.0000000000000E+00 -0.1344796499989E+00
 0.2138471630558E+00 -0.2678550457762E+00  0.0000000000000E+00 -0.9597952615152E-01
 0.2512370190519E+00 -0.3028462392270E+00  0.0000000000000E+00 -0.6644429641848E-01
 0.2841261267404E+00 -0.3336483434143E+00  0.0000000000000E+00 -0.4444113526986E-01
 0.3130758934049E+00 -0.3608171302193E+00  0.0000000000000E+00 -0.2898688559657E-01
 0.3386222628732E+00 -0.3848843748948E+00  0.0000000000000E+00 -0.1936186549714E-01
 0.3612539077534E+00 -0.4063369059498E+00  0.0000000000000E+00 -0.1502031819354E-01
 0.3814136284148E+00 -0.4256187903381E+00  0.0000000000000E+00 -0.1555886880819E-01
 0.3995053966010E+00 -0.4431386615677E+00  0.0000000000000E+00 -0.2067044382481E-01
 0.4158789081925E+00 -0.4592551928759E+00  0.0000000000000E+00 -0.3010964360608E-01
 0.4309053728865E+00 -0.4743494186108E+00  0.0000000000000E+00 -0.4382363346837E-01
 0.4449637570758E+00 -0.4888108013220E+00  0.0000000000000E+00 -0.6162104170552E-01
 0.4583106185568E+00 -0.5029135243853E+00  0.0000000000000E+00 -0.8305173465047E-01
 0.4710515680405E+00 -0.5167926025785E+00  0.0000000000000E+00 -0.1076464639032E+00
 0.4831250321095E+00 -0.5304288491586E+00  0.0000000000000E+00 -0.1348788538737E+00
 0.4942880931192E+00 -0.5436350300068E+00  0.0000000000000E+00 -0.1642322449340E+00
 0.5041128006947E+00 -0.5560530521389E+00  0.0000000000000E+00 -0.1952509034138E+00
 0.5122303701929E+00 -0.5673959682178E+00  0.0000000000000E+00 -0.2277227980521E+00
 0.6563854237498E-01 -0.1298293084212E+00  0.0000000000000E+00 -0.2229961708836E+00
 0.1222450541445E+00 -0.1829246418318E+00  0.0000000000000E+00 -0.1624004647814E+00
 0.1720264192627E+00 -0.2295699660695E+00  0.0000000000000E+00 -0.1156697377552E+00
 0.2157998304272E+00 -0.2705617349838E+00  0.0000000000000E+00 -0.7956897719221E-01
 0.2542788763147E+00 -0.3065984863362E+00  0.0000000000000E+00 -0.5192876437163E-01
 0.2881245316285E+00 -0.3383299515066E+00  0.0000000000000E+00 -0.3132782229664E-01
 0.3179600434575E+00 -0.3663708645350E+00  0.0000000000000E+00 -0.1680093823126E-01
 0.3443608090429E+00 -0.3912907212117E+00  0.0000000000000E+00 -0.7659480340090E-02
 0.3678448033509E+00 -0.4136047113893E+00  0.0000000000000E+00 -0.3396348683145E-02
 0.3888783670025E+00 -0.4337799472426E+00  0.0000000000000E+00 -0.3643102102799E-02
 0.4078854868241E+00 -0.4522450852872E+00  0.0000000000000E+00 -0.8122277036359E-02
 0.4252412279956E+00 -0.4693844479217E+00  0.0000000000000E+00 -0.1661193321668E-01
 0.4413238961779E+00 -0.4855879234732E+00  0.0000000000000E+00 -0.2902230345904E-01
 0.4564987152890E+00 -0.5012348539895E+00  0.0000000000000E+00 -0.4514460491967E-01
 0.4710147859600E+00 -0.5165963692685E+00  0.0000000000000E+00 -0.6456228365999E-01
 0.4849735567434E+00 -0.5318067993421E+00  0.0000000000000E+00 -0.8683078330524E-01
 0.4983141513567E+00 -0.5468508454392E+00  0.0000000000000E+00 -0.1114644837662E+00
 0.5108049356047E+00 -0.5615563307271E+00  0.0000000000000E+00 -0.1379824502806E+00
 0.5220429940606E+00 -0.5755973829118E+00  0.0000000000000E+00 -0.1659103157020E+00
 0.5315962458474E+00 -0.5886357582159E+00  0.0000000000000E+00 -0.1948327831059E+00
 0.6245458662607E-01 -0.1276046988439E+00  0.0000000000000E+00 -0.1968964517242E+00
 0.1212598572819E+00 -0.1827839532866E+00  0.0000000000000E+00 -0.1401471329315E+00
 0.1726490852895E+00 -0.2309524104992E+00  0.0000000000000E+00 -0.9650064824898E-01
 0.2176516673287E+00 -0.2731127532675E+00  0.0000000000000E+00 -0.6284188272365E-01
 0.2571312873780E+00 -0.3101087569669E+00  0.0000000000000E+00 -0.3707409378598E-01
 0.2918478826389E+00 -0.3426853701605E+00  0.0000000000000E+00 -0.1781612117337E-01
 0.3224865963017E+00 -0.3715165838990E+00  0.0000000000000E+00 -0.4136219194904E-02
 0.3496626423132E+00 -0.3972100580713E+00  0.0000000000000E+00  0.4617945298762E-02
 0.3739227819857E+00 -0.4203088110504E+00  0.0000000000000E+00  0.8915736090969E-02
 0.3957557813086E+00 -0.4413019559286E+00  0.0000000000000E+00  0.9094025773471E-02
 0.4156038403060E+00 -0.4606364334218E+00  0.0000000000000E+00  0.5406375097250E-02
 0.4338615684395E+00 -0.4787165482704E+00  0.0000000000000E+00 -0.1940448182178E-02
 0.4509113477242E+00 -0.4959378942964E+00  0.0000000000000E+00 -0.1282739081280E-01
 0.4671057523650E+00 -0.5126702883164E+00  0.0000000000000E+00 -0.2703310634819E-01
 0.4826855702484E+00 -0.5291799210208E+00  0.0000000000000E+00 -0.4417065176183E-01
 0.4977485213993E+00 -0.5456007578100E+00  0.0000000000000E+00 -0.6382163039146E-01
 0.5122343345092E+00 -0.5619215834018E+00  0.0000000000000E+00 -0.8553261785543E-01
 0.5259140515207E+00 -0.5779776504757E+00  0.0000000000000E+00 -0.1088404090535E+00
 0.5383817164111E+00 -0.5934459135460E+00  0.0000000000000E+00 -0.1332496929653E+00
 0.5491270887803E+00 -0.6079176281917E+00  0.0000000000000E+00 -0.1582238645167E+00
 0.5951187674223E-01 -0.1255457330343E+00  0.0000000000000E+00 -0.1700596624456E+00
 0.1203653253225E+00 -0.1826662450121E+00  0.0000000000000E+00 -0.1174341956622E+00
 0.1732411644516E+00 -0.2322425911245E+00  0.0000000000000E+00 -0.7701102279338E-01
 0.2193701195413E+00 -0.2754730055811E+00  0.0000000000000E+00 -0.4583811993192E-01
 0.2597575244322E+00 -0.3133383493422E+00  0.0000000000000E+00 -0.2192490282618E-01
 0.2952576018247E+00 -0.3466744182519E+00  0.0000000000000E+00 -0.3955608294075E-02
 0.3266155309644E+00 -0.3762128364567E+00  0.0000000000000E+00  0.8953263548455E-02
 0.3544854422786E+00 -0.4025986328508E+00  0.0000000000000E+00  0.1741199323140E-01
 0.3794416491013E+00 -0.4264014788564E+00  0.0000000000000E+00  0.2185247110458E-01
 0.4019936205931E+00 -0.4481308075101E+00  0.0000000000000E+00  0.2258286525930E-01
 0.4225994261000E+00 -0.4682495257083E+00  0.0000000000000E+00  0.1983726452403E-01
 0.4416682666803E+00 -0.4871770131411E+00  0.0000000000000E+00  0.1381262631264E-01
 0.4595840563989E+00 -0.5053118587835E+00  0.0000000000000E+00  0.4650679801246E-02
 0.4766877818768E+00 -0.5230148538078E+00  0.0000000000000E+00 -0.7419176627147E-02
 0.4932117259713E+00 -0.5405465867221E+00  0.0000000000000E+00 -0.2203525196153E-01
 0.5092491515118E+00 -0.5580396439347E+00  0.0000000000000E+00 -0.3880313217831E-01
 0.5247373448021E+00 -0.5754839078701E+00  0.0000000000000E+00 -0.5729545487002E-01
 0.5394414789839E+00 -0.5927130769468E+00  0.0000000000000E+00 -0.7706429483944E-01
 0.5529359235178E+00 -0.6093892295156E+00  0.0000000000000E+00 -0.9761187670616E-01
 0.5646290244893E+00 -0.6250275253149E+00  0.0000000000000E+00 -0.1183546319007E+00
 0.5682088910912E-01 -0.1236582818737E+00  0.0000000000000E+00 -0.1425521814987E+00
 0.1195523381469E+00 -0.1825588495389E+00  0.0000000000000E+00 -0.9431072758239E-01
 0.1737809336061E+00 -0.2334159772150E+00  0.0000000000000E+00 -0.5724173533916E-01
 0.2209258278678E+00 -0.2776109011324E+00  0.0000000000000E+00 -0.2859771810254E-01
 0.2621241367367E+00 -0.3162520307809E+00  0.0000000000000E+00 -0.6524885037317E-02
 0.2983181501658E+00 -0.3502600848018E+00  0.0000000000000E+00  0.1020458564787E-01
 0.3303097013685E+00 -0.3804211510133E+00  0.0000000000000E+00  0.2241240448465E-01
 0.3587897631740E+00 -0.4074156835175E+00  0.0000000000000E+00  0.3066104252135E-01
 0.3843582248592E+00 -0.4318381032966E+00  0.0000000000000E+00  0.3534458000734E-01
 0.4075430401772E+00 -0.4542159811375E+00  0.0000000000000E+00  0.3674460962170E-01
 0.4288155222869E+00 -0.4750255554434E+00  0.0000000000000E+00  0.3507899057691E-01
 0.4485952508628E+00 -0.4946970487156E+00  0.0000000000000E+00  0.3053816377229E-01
 0.4672655870784E+00 -0.5136297457025E+00  0.0000000000000E+00  0.2328095648211E-01
 0.4851566962870E+00 -0.5321757473947E+00  0.0000000000000E+00  0.1354147576156E-01
 0.5024920502326E+00 -0.5505893172031E+00  0.0000000000000E+00  0.1660091477340E-02
 0.5193589860018E+00 -0.5689998833026E+00  0.0000000000000E+00 -0.1199054637752E-01
 0.5356888778204E+00 -0.5873945724678E+00  0.0000000000000E+00 -0.2700731520531E-01
 0.5512350677545E+00 -0.6055988573372E+00  0.0000000000000E+00 -0.4296313158639E-01
 0.5655445631182E+00 -0.6232512264831E+00  0.0000000000000E+00 -0.5938045608866E-01
 0.5779475983803E+00 -0.6397935397160E+00  0.0000000000000E+00 -0.7568940013849E-01
 0.5439148763129E-01 -0.1219479956964E+00  0.0000000000000E+00 -0.1144462754421E+00
 0.1188127258262E+00 -0.1824503879085E+00  0.0000000000000E+00 -0.7082893603887E-01
 0.1742489337769E+00 -0.2344506184931E+00  0.0000000000000E+00 -0.3723509696101E-01
 0.2222925314444E+00 -0.2794982165179E+00  0.0000000000000E+00 -0.1116087710065E-01
 0.2642010864230E+00 -0.3188181891989E+00  0.0000000000000E+00  0.9082690811233E-02
 0.3009974158792E+00 -0.3534089385744E+00  0.0000000000000E+00  0.2461536515509E-01
 0.3335353726098E+00 -0.3841065971186E+00  0.0000000000000E+00  0.3618484870747E-01
 0.3625396837978E+00 -0.4116240929786E+00  0.0000000000000E+00  0.4430028951835E-01
 0.3886331688475E+00 -0.4365780291564E+00  0.0000000000000E+00  0.4931714914262E-01
 0.4123596497094E+00 -0.4595115241991E+00  0.0000000000000E+00  0.5149184172700E-01
 0.4342009189873E+00 -0.4809113544808E+00  0.0000000000000E+00  0.5102820403811E-01
 0.4545833277580E+00 -0.5012149119429E+00  0.0000000000000E+00  0.4811202105846E-01
 0.4738878966835E+00 -0.5208201753821E+00  0.0000000000000E+00  0.4291467469801E-01
 0.4924343579194E+00 -0.5400705574057E+00  0.0000000000000E+00  0.3567246840310E-01
 0.5104368756346E+00 -0.5592131005674E+00  0.0000000000000E+00  0.2670739467091E-01
 0.5279752788222E+00 -0.5783720666302E+00  0.0000000000000E+00  0.1637130467386E-01
 0.5449722824802E+00 -0.5975285299987E+00  0.0000000000000E+00  0.5041725828958E-02
 0.5611660760061E+00 -0.6164956314700E+00  0.0000000000000E+00 -0.6883647847234E-02
 0.5760739346456E+00 -0.6348850332474E+00  0.0000000000000E+00 -0.1896729876827E-01
 0.5889560548465E+00 -0.6520727375557E+00  0.0000000000000E+00 -0.3069651998364E-01
 0.5223282486118E-01 -0.1204202774479E+00  0.0000000000000E+00 -0.8581944922750E-01
 0.1181393386248E+00 -0.1823308768477E+00  0.0000000000000E+00 -0.4704347782314E-01
 0.1746280017805E+00 -0.2353271779162E+00  0.0000000000000E+00 -0.1703436823948E-01
 0.2234471045238E+00 -0.2811101288867E+00  0.0000000000000E+00  0.6432128213201E-02
 0.2659619060390E+00 -0.3210089957013E+00  0.0000000000000E+00  0.2485479191597E-01
 0.3032670405023E+00 -0.3560914729752E+00  0.0000000000000E+00  0.3922746914361E-01
 0.3362626957328E+00 -0.3872382768344E+00  0.0000000000000E+00  0.5021296118484E-01
 0.3657034149410E+00 -0.4151910137234E+00  0.0000000000000E+00  0.5826194235041E-01
 0.3922317359700E+00 -0.4405853347415E+00  0.0000000000000E+00  0.6369010668725E-01
 0.4164044229587E+00 -0.4639769985969E+00  0.0000000000000E+00  0.6672944183657E-01
 0.4387109248036E+00 -0.4858604527104E+00  0.0000000000000E+00  0.6757111447860E-01
 0.4595812169210E+00 -0.5066770199085E+00  0.0000000000000E+00  0.6639713097363E-01
 0.4793923741629E+00 -0.5268215487295E+00  0.0000000000000E+00  0.6338769300527E-01
 0.4984537637045E+00 -0.5466284662568E+00  0.0000000000000E+00  0.5877922780244E-01
 0.5169696887996E+00 -0.5663366201519E+00  0.0000000000000E+00  0.5287711845517E-01
 0.5350111824953E+00 -0.5860633258969E+00  0.0000000000000E+00  0.4601211259975E-01
 0.5524906060081E+00 -0.6057812925858E+00  0.0000000000000E+00  0.3853297957808E-01
 0.5691297762610E+00 -0.6252893384876E+00  0.0000000000000E+00  0.3079877185634E-01
 0.5844169655297E+00 -0.6441722021787E+00  0.0000000000000E+00  0.2318904185492E-01
 0.5975542518975E+00 -0.6617502607218E+00  0.0000000000000E+00  0.1612391632211E-01
 0.5035321954465E-01 -0.1190802018918E+00  0.0000000000000E+00 -0.5675377762478E-01
 0.1175260906014E+00 -0.1821917961373E+00  0.0000000000000E+00 -0.2301096063910E-01
 0.1749033434483E+00 -0.2360290116571E+00  0.0000000000000E+00  0.3316575345568E-02
 0.2243696521657E+00 -0.2824253115652E+00  0.0000000000000E+00  0.2414106350077E-01
 0.2673838716195E+00 -0.3228005819919E+00  0.0000000000000E+00  0.4074857489776E-01
 0.3051027099179E+00 -0.3582824066948E+00  0.0000000000000E+00  0.5399141989991E-01
 0.3384661240262E+00 -0.3897897541867E+00  0.0000000000000E+00  0.6443792049861E-01
 0.3682538360358E+00 -0.4180884196521E+00  0.0000000000000E+00  0.7247556164171E-01
 0.3951244319504E+00 -0.4438295087105E+00  0.0000000000000E+00  0.7837889663177E-01
 0.4196444597194E+00 -0.4675782737728E+00  0.0000000000000E+00  0.8235570403013E-01
 0.4423081854764E+00 -0.4898339415365E+00  0.0000000000000E+00  0.8458514278567E-01
 0.4635464066369E+00 -0.5110388542184E+00  0.0000000000000E+00  0.8524560681221E-01
 0.4837307720743E+00 -0.5315830251052E+00  0.0000000000000E+00  0.8452294386077E-01
 0.5031601427202E+00 -0.5517913934122E+00  0.0000000000000E+00  0.8265179649056E-01
 0.5220284868710E+00 -0.5718936984668E+00  0.0000000000000E+00  0.7992165934804E-01
 0.5403972299216E+00 -0.5919989697380E+00  0.0000000000000E+00  0.7664096905382E-01
 0.5581677521915E+00 -0.6120702811256E+00  0.0000000000000E+00  0.7312576972124E-01
 0.5750460148235E+00 -0.6318918833560E+00  0.0000000000000E+00  0.6968733956191E-01
 0.5904947744533E+00 -0.6510241068613E+00  0.0000000000000E+00  0.6663075270352E-01
 0.6036717112241E+00 -0.6687439178677E+00  0.0000000000000E+00  0.6425653067128E-01
 0.4876002836800E-01 -0.1179324185251E+00  0.0000000000000E+00 -0.2733521524084E-01
 0.1169679849789E+00 -0.1820261330452E+00  0.0000000000000E+00  0.1210483770040E-02
 0.1750626125804E+00 -0.2365422570512E+00  0.0000000000000E+00  0.2377350981941E-01
 0.2250436215008E+00 -0.2834260497473E+00  0.0000000000000E+00  0.4192586689651E-01
 0.2684481716422E+00 -0.3241732145675E+00  0.0000000000000E+00  0.5672143757112E-01
 0.3064844103949E+00 -0.3599609483158E+00  0.0000000000000E+00  0.6885760567440E-01
 0.3401247689874E+00 -0.3917394227779E+00  0.0000000000000E+00  0.7879995641712E-01
 0.3701689501252E+00 -0.4202935763039E+00  0.0000000000000E+00  0.8686856090636E-01
 0.3972875601754E+00 -0.4462860174382E+00  0.0000000000000E+00  0.9329533381253E-01
 0.4220536068606E+00 -0.4702881759906E+00  0.0000000000000E+00  0.9826363232718E-01
 0.4449633469523E+00 -0.4928011726392E+00  0.0000000000000E+00  0.1019407083789E+00
 0.4664458630520E+00 -0.5142657105786E+00  0.0000000000000E+00  0.1045009663891E+00
 0.4868660036985E+00 -0.5350653623731E+00  0.0000000000000E+00  0.1061330860589E+00
 0.5065118765878E+00 -0.5555149721696E+00  0.0000000000000E+00  0.1070680463142E+00
 0.5255668028044E+00 -0.5758344080585E+00  0.0000000000000E+00  0.1075793788431E+00
 0.5440823091018E+00 -0.5961235776374E+00  0.0000000000000E+00  0.1079515100677E+00
 0.5619491487619E+00 -0.6163356219275E+00  0.0000000000000E+00  0.1084636717626E+00
 0.5788595050854E+00 -0.6362415215534E+00  0.0000000000000E+00  0.1093710773824E+00
 0.5942562672539E+00 -0.6553819183116E+00  0.0000000000000E+00  0.1108907223387E+00
 0.6072668084584E+00 -0.6730032744572E+00  0.0000000000000E+00  0.1131847098570E+00
 0.4745952651846E-01 -0.1169810545447E+00  0.0000000000000E+00  0.2347108348194E-02
 0.1164611275856E+00 -0.1818284102436E+00  0.0000000000000E+00  0.2556158327264E-01
 0.1750959818291E+00 -0.2368559114749E+00  0.0000000000000E+00  0.4429208319543E-01
 0.2254559061102E+00 -0.2840983496936E+00  0.0000000000000E+00  0.5974677807629E-01
 0.2691400559527E+00 -0.3251114485408E+00  0.0000000000000E+00  0.7273112066858E-01
 0.3073966415163E+00 -0.3611110161138E+00  0.0000000000000E+00  0.8377644740196E-01
 0.3412226882100E+00 -0.3930708033138E+00  0.0000000000000E+00  0.9323868757846E-01
 0.3714322459916E+00 -0.4217894160127E+00  0.0000000000000E+00  0.1013668157468E+00
 0.3987036492000E+00 -0.4479367500252E+00  0.0000000000000E+00  0.1083485707779E+00
 0.4236129351849E+00 -0.4720869879448E+00  0.0000000000000E+00  0.1143423360573E+00
 0.4466555615064E+00 -0.4947402922990E+00  0.0000000000000E+00  0.1195030932537E+00
 0.4682565751384E+00 -0.5163332764388E+00  0.0000000000000E+00  0.1240004471914E+00
 0.4887727532889E+00 -0.5372415660393E+00  0.0000000000000E+00  0.1280233160909E+00
 0.5084811731883E+00 -0.5577692749116E+00  0.0000000000000E+00  0.1317971225470E+00
 0.5275543887361E+00 -0.5781258258299E+00  0.0000000000000E+00  0.1355788308653E+00
 0.5460342227876E+00 -0.5984016494470E+00  0.0000000000000E+00  0.1396270271332E+00
 0.5638020007291E+00 -0.6185404983546E+00  0.0000000000000E+00  0.1441804801070E+00
 0.5805394392393E+00 -0.6383026322100E+00  0.0000000000000E+00  0.1494317442778E+00
 0.5956766001129E+00 -0.6572151961455E+00  0.0000000000000E+00  0.1555000535144E+00
 0.6083243321939E+00 -0.6745070049080E+00  0.0000000000000E+00  0.1623976948881E+00
 0.4645680264832E-01 -0.1162296259088E+00  0.0000000000000E+00  0.3220162379404E-01
 0.1160027304237E+00 -0.1815946998047E+00  0.0000000000000E+00  0.4998230209316E-01
 0.1749961980704E+00 -0.2369618940989E+00  0.0000000000000E+00  0.6482802307191E-01
 0.2255969315358E+00 -0.2844320285019E+00  0.0000000000000E+00  0.7756447719777E-01
 0.2694489551440E+00 -0.3256042512333E+00  0.0000000000000E+00  0.8873585313837E-01
 0.3078285814012E+00 -0.3617214088819E+00  0.0000000000000E+00  0.9869863550897E-01
 0.3417491035803E+00 -0.3937727696187E+00  0.0000000000000E+00  0.1076935434510E+00
 0.3720329673637E+00 -0.4225648177741E+00  0.0000000000000E+00  0.1158953617981E+00
 0.3993617639493E+00 -0.4487703435429E+00  0.0000000000000E+00  0.1234461501857E+00
 0.4243110791261E+00 -0.4729628062670E+00  0.0000000000000E+00  0.1304785004474E+00
 0.4473728422153E+00 -0.4956386177017E+00  0.0000000000000E+00  0.1371343730473E+00
 0.4689659306381E+00 -0.5172280330658E+00  0.0000000000000E+00  0.1435774092277E+00
 0.4894378846311E+00 -0.5380973298633E+00  0.0000000000000E+00  0.1499943047904E+00
 0.5090544889155E+00 -0.5585392769660E+00  0.0000000000000E+00  0.1566030223351E+00
 0.5279775924408E+00 -0.5787524635346E+00  0.0000000000000E+00  0.1636430565314E+00
 0.5462399080830E+00 -0.5988178908549E+00  0.0000000000000E+00  0.1713454886674E+00
 0.5637151639357E+00 -0.6186711098607E+00  0.0000000000000E+00  0.1799058706058E+00
 0.5800787221720E+00 -0.6380650414703E+00  0.0000000000000E+00  0.1894497644351E+00
 0.5947555306413E+00 -0.6565202718209E+00  0.0000000000000E+00  0.1999932016321E+00
 0.6068530576769E+00 -0.6732603293679E+00  0.0000000000000E+00  0.2113937902276E+00
 0.4575567329298E-01 -0.1156809608337E+00  0.0000000000000E+00  0.6213506541519E-01
 0.1155911068827E+00 -0.1813226247098E+00  0.0000000000000E+00  0.7441220777483E-01
 0.1747586182916E+00 -0.2368550855069E+00  0.0000000000000E+00  0.8533733226890E-01
 0.2254607141849E+00 -0.2844207756343E+00  0.0000000000000E+00  0.9534022752269E-01
 0.2693685628768E+00 -0.3256450872461E+00  0.0000000000000E+00  0.1046945247470E+00
 0.3077741990240E+00 -0.3617859221060E+00  0.0000000000000E+00  0.1135754139599E+00
 0.3416985468912E+00 -0.3938396998500E+00  0.0000000000000E+00  0.1221042443574E+00
 0.3719662881656E+00 -0.4226147902586E+00  0.0000000000000E+00  0.1303791524407E+00
 0.3992577014341E+00 -0.4487823889357E+00  0.0000000000000E+00  0.1384951121497E+00
 0.4241444408573E+00 -0.4729117583904E+00  0.0000000000000E+00  0.1465579043696E+00
 0.4471122639886E+00 -0.4954928535832E+00  0.0000000000000E+00  0.1546953922147E+00
 0.4685719156311E+00 -0.5169474739348E+00  0.0000000000000E+00  0.1630637963480E+00
 0.4888606399364E+00 -0.5376312577574E+00  0.0000000000000E+00  0.1718452072374E+00
 0.5082327026415E+00 -0.5578250595250E+00  0.0000000000000E+00  0.1812482307226E+00
 0.5268394530375E+00 -0.5777163994641E+00  0.0000000000000E+00  0.1914938710092E+00
 0.5447053604136E+00 -0.5973771816556E+00  0.0000000000000E+00  0.2027844213111E+00
 0.5616987566248E+00 -0.6167363319959E+00  0.0000000000000E+00  0.2152706394802E+00
 0.5774931187542E+00 -0.6355432049131E+00  0.0000000000000E+00  0.2290092366033E+00
 0.5915160731861E+00 -0.6533188913216E+00  0.0000000000000E+00  0.2439116999774E+00
 0.6028839514119E+00 -0.6692931623034E+00  0.0000000000000E+00  0.2596817505025E+00
 0.4535861308009E-01 -0.1153371369391E+00  0.0000000000000E+00  0.9205323477269E-01
 0.1152256564931E+00 -0.1810113477527E+00  0.0000000000000E+00  0.9879084312977E-01
 0.1743812207087E+00 -0.2365333417128E+00  0.0000000000000E+00  0.1057764863743E+00
 0.2250448866708E+00 -0.2840621805246E+00  0.0000000000000E+00  0.1130360276209E+00
 0.2688968743307E+00 -0.3252319593434E+00  0.0000000000000E+00  0.1205668815939E+00
 0.3072323084880E+00 -0.3613034054271E+00  0.0000000000000E+00  0.1283588984183E+00
 0.3410709298093E+00 -0.3932715508057E+00  0.0000000000000E+00  0.1364113201010E+00
 0.3712333925826E+00 -0.4219405575793E+00  0.0000000000000E+00  0.1447438522283E+00
 0.3983940710115E+00 -0.4479755183918E+00  0.0000000000000E+00  0.1534031293212E+00
 0.4231172587131E+00 -0.4719380794673E+00  0.0000000000000E+00  0.1624669562281E+00
 0.4458800086417E+00 -0.4943091472733E+00  0.0000000000000E+00  0.1720477509382E+00
 0.4670831331757E+00 -0.5155001348625E+00  0.0000000000000E+00  0.1822926117840E+00
 0.4870526269749E+00 -0.5358548641594E+00  0.0000000000000E+00  0.1933766836490E+00
 0.5060310484291E+00 -0.5556417578068E+00  0.0000000000000E+00  0.2054973392821E+00
 0.5241595376686E+00 -0.5750371329806E+00  0.0000000000000E+00  0.2188560689416E+00
 0.5414553127924E+00 -0.5941042736959E+00  0.0000000000000E+00  0.2336255846628E+00
 0.5577836135257E+00 -0.6127671841239E+00  0.0000000000000E+00  0.2499115330177E+00
 0.5728204553493E+00 -0.6307754058722E+00  0.0000000000000E+00  0.2677023200661E+00
 0.5860035315775E+00 -0.6476572181891E+00  0.0000000000000E+00  0.2868072728512E+00
 0.5964690940649E+00 -0.6626590041206E+00  0.0000000000000E+00  0.3067819337485E+00
 0.4526670747930E-01 -0.1151994335806E+00  0.0000000000000E+00  0.1218617726701E+00
 0.1149068410448E+00 -0.1806615475052E+00  0.0000000000000E+00  0.1230580983559E+00
 0.1738645916366E+00 -0.2359974806197E+00  0.0000000000000E+00  0.1261026294190E+00
 0.2243506884220E+00 -0.2833577229528E+00  0.0000000000000E+00  0.1306147652549E+00
 0.2680361793536E+00 -0.3243674018094E+00  0.0000000000000E+00  0.1363137299286E+00
 0.3062065646882E+00 -0.3602777591864E+00  0.0000000000000E+00  0.1430024072292E+00
 0.3398715390497E+00 -0.3920738547592E+00  0.0000000000000E+00  0.1505566404195E+00
 0.3698414621395E+00 -0.4205495487692E+00  0.0000000000000E+00  0.1589166349867E+00
 0.3967802621854E+00 -0.4463593760969E+00  0.0000000000000E+00  0.1680796350978E+00
 0.4212415427424E+00 -0.4700540511628E+00  0.0000000000000E+00  0.1780942096430E+00
 0.4436912556005E+00 -0.4921029826676E+00  0.0000000000000E+00  0.1890557596281E+00
 0.4645186424113E+00 -0.5129054359839E+00  0.0000000000000E+00  0.2011003530569E+00
 0.4840375989205E+00 -0.5327923558436E+00  0.0000000000000E+00  0.2143938650326E+00
 0.5024788182466E+00 -0.5520192643256E+00  0.0000000000000E+00  0.2291205770269E+00
 0.5199735425827E+00 -0.5707511835425E+00  0.0000000000000E+00  0.2454614864719E+00
 0.5365327126072E+00 -0.5890432602138E+00  0.0000000000000E+00  0.2635594205771E+00
 0.5520206394723E+00 -0.6068161655735E+00  0.0000000000000E+00  0.2834757668588E+00
 0.5661199118001E+00 -0.6238230152483E+00  0.0000000000000E+00  0.3051332990695E+00
 0.5782848706111E+00 -0.6396051618765E+00  0.0000000000000E+00  0.3282447583605E+00
 0.5876812564984E+00 -0.6534344707329E+00  0.0000000000000E+00  0.3522273357780E+00
 0.4547962507331E-01 -0.1152683000517E+00  0.0000000000000E+00  0.1514669143370E+00
 0.1146361508508E+00 -0.1802753815140E+00  0.0000000000000E+00  0.1471545695818E+00
 0.1732118858581E+00 -0.2352512401736E+00  0.0000000000000E+00  0.1462737578308E+00
 0.2233829191407E+00 -0.2823127249051E+00  0.0000000000000E+00  0.1480403627885E+00
 0.2667930083057E+00 -0.3230584252690E+00  0.0000000000000E+00  0.1518971346272E+00
 0.3047053995838E+00 -0.3587178701681E+00  0.0000000000000E+00  0.1574607872558E+00
 0.3381109576239E+00 -0.3902576405266E+00  0.0000000000000E+00  0.1644839354183E+00
 0.3678035722604E+00 -0.4184552942463E+00  0.0000000000000E+00  0.1728269616014E+00
 0.3944323036071E+00 -0.4439504768184E+00  0.0000000000000E+00  0.1824369171729E+00
 0.4185368816353E+00 -0.4672798073052E+00  0.0000000000000E+00  0.1933318279271E+00
 0.4405699225612E+00 -0.4888989181094E+00  0.0000000000000E+00  0.2055883254450E+00
 0.4609076234287E+00 -0.5091933414192E+00  0.0000000000000E+00  0.2193293639632E+00
 0.4798510351350E+00 -0.5284802039131E+00  0.0000000000000E+00  0.2347092167004E+00
 0.4976188478788E+00 -0.5470017010106E+00  0.0000000000000E+00  0.2518972105787E+00
 0.5143326783038E+00 -0.5649114550242E+00  0.0000000000000E+00  0.2710528980577E+00
 0.5299980189512E+00 -0.5822568421565E+00  0.0000000000000E+00  0.2922893112940E+00
 0.5444800754221E+00 -0.5989564772260E+00  0.0000000000000E+00  0.3156253770155E+00
 0.5574713825385E+00 -0.6147697956919E+00  0.0000000000000E+00  0.3409226016981E+00
 0.5684483792252E+00 -0.6292559751340E+00  0.0000000000000E+00  0.3678052208401E+00
 0.5766140853342E+00 -0.6417194213193E+00  0.0000000000000E+00  0.3955651036800E+00
 0.4599560990074E-01 -0.1155433391228E+00  0.0000000000000E+00  0.1807762358280E+00
 0.1144160614595E+00 -0.1798564368551E+00  0.0000000000000E+00  0.1710219129079E+00
 0.1724287610604E+00 -0.2343012083252E+00  0.0000000000000E+00  0.1662489003254E+00
 0.2221498556333E+00 -0.2809362640742E+00  0.0000000000000E+00  0.1652779170625E+00
 0.2651780315657E+00 -0.3213164135916E+00  0.0000000000000E+00  0.1672806093765E+00
 0.3027419009844E+00 -0.3566374881588E+00  0.0000000000000E+00  0.1716907256524E+00
 0.3358049153345E+00 -0.3878392817245E+00  0.0000000000000E+00  0.1781392917414E+00
 0.3651385027611E+00 -0.4156772335757E+00  0.0000000000000E+00  0.1864073185805E+00
 0.3913726187668E+00 -0.4407719577288E+00  0.0000000000000E+00  0.1963911529261E+00
 0.4150301271896E+00 -0.4636430125194E+00  0.0000000000000E+00  0.2080769686933E+00
 0.4365482626694E+00 -0.4847301747240E+00  0.0000000000000E+00  0.2215207359473E+00
 0.4562888753241E+00 -0.5044038440700E+00  0.0000000000000E+00  0.2368300614397E+00
 0.4745395319807E+00 -0.5229665151640E+00  0.0000000000000E+00  0.2541452529023E+00
 0.4915067967994E+00 -0.5406466713348E+00  0.0000000000000E+00  0.2736187710185E+00
 0.5073028492225E+00 -0.5575863766452E+00  0.0000000000000E+00  0.2953877255819E+00
 0.5219283223311E+00 -0.5738253955554E+00  0.0000000000000E+00  0.3195356669492E+00
 0.5352506528172E+00 -0.5892811070318E+00  0.0000000000000E+00  0.3460414936787E+00
 0.5469748471147E+00 -0.6037211872760E+00  0.0000000000000E+00  0.3747109614448E+00
 0.5566035342911E+00 -0.6167260299032E+00  0.0000000000000E+00  0.4050895344979E+00
 0.5633828214629E+00 -0.6276375874875E+00  0.0000000000000E+00  0.4363588565428E+00
 0.4681149352269E-01 -0.1160233059725E+00  0.0000000000000E+00  0.2096993783817E+00
 0.1142499812969E+00 -0.1794096686275E+00  0.0000000000000E+00  0.1946031870548E+00
 0.1715232872241E+00 -0.2331567258213E+00  0.0000000000000E+00  0.1859882882219E+00
 0.2206631332572E+00 -0.2792410502887E+00  0.0000000000000E+00  0.1822938267769E+00
 0.2632059145159E+00 -0.3191569747295E+00  0.0000000000000E+00  0.1824292881839E+00
 0.3003336366432E+00 -0.3540550461641E+00  0.0000000000000E+00  0.1856510331454E+00
 0.3329740725896E+00 -0.3848402763802E+00  0.0000000000000E+00  0.1914716060192E+00
 0.3618704677340E+00 -0.4122404401281E+00  0.0000000000000E+00  0.1995938949747E+00
 0.3876296851513E+00 -0.4368532304462E+00  0.0000000000000E+00  0.2098633600011E+00
 0.4107549642388E+00 -0.4591784220316E+00  0.0000000000000E+00  0.2222330570130E+00
 0.4316663270627E+00 -0.4796380844156E+00  0.0000000000000E+00  0.2367363025454E+00
 0.4507101572412E+00 -0.4985862858418E+00  0.0000000000000E+00  0.2534629938411E+00
 0.4681600141277E+00 -0.5163102140096E+00  0.0000000000000E+00  0.2725370559806E+00
 0.4842102314186E+00 -0.5330243029330E+00  0.0000000000000E+00  0.2940920656435E+00
 0.4989636313551E+00 -0.5488588259923E+00  0.0000000000000E+00  0.3182415348335E+00
 0.5124162762169E+00 -0.5638458313199E+00  0.0000000000000E+00  0.3450398494083E+00
 0.5244385943333E+00 -0.5779017411443E+00  0.0000000000000E+00  0.3744285800740E+00
 0.5347496497431E+00 -0.5908034752365E+00  0.0000000000000E+00  0.4061638358393E+00
 0.5428809219683E+00 -0.6021546131175E+00  0.0000000000000E+00  0.4397227610396E+00
 0.5481253040099E+00 -0.6113374940283E+00  0.0000000000000E+00  0.4741925838507E+00
 0.4792272621849E-01 -0.1167061221894E+00  0.0000000000000E+00  0.2381487441894E+00
 0.1141421910961E+00 -0.1789413274393E+00  0.0000000000000E+00  0.2178431828522E+00
 0.1705058326548E+00 -0.2318297636173E+00  0.0000000000000E+00  0.2054535149777E+00
 0.2189375942764E+00 -0.2772432672343E+00  0.0000000000000E+00  0.1990559041026E+00
 0.2608951310084E+00 -0.3165997485468E+00  0.0000000000000E+00  0.1973100715271E+00
 0.2975024276576E+00 -0.3509934283517E+00  0.0000000000000E+00  0.1993028882658E+00
 0.3296437428225E+00 -0.3812869632852E+00  0.0000000000000E+00  0.2044329811775E+00
 0.3580287715725E+00 -0.4081752695521E+00  0.0000000000000E+00  0.2123271793851E+00
 0.3832376051378E+00 -0.4322295418081E+00  0.0000000000000E+00  0.2227802396022E+00
 0.4057513757634E+00 -0.4539273327212E+00  0.0000000000000E+00  0.2357109198134E+00
 0.4259713037195E+00 -0.4736714089689E+00  0.0000000000000E+00  0.2511278308762E+00
 0.4442273841652E+00 -0.4917985257790E+00  0.0000000000000E+00  0.2691006918263E+00
 0.4607787777697E+00 -0.5085800473989E+00  0.0000000000000E+00  0.2897345576171E+00
 0.4758075196669E+00 -0.5242160901386E+00  0.0000000000000E+00  0.3131419341227E+00
 0.4894070472691E+00 -0.5388248348070E+00  0.0000000000000E+00  0.3394112889021E+00
 0.5015688205011E+00 -0.5524302300873E+00  0.0000000000000E+00  0.3685679196009E+00
 0.5121664123621E+00 -0.5649474520515E+00  0.0000000000000E+00  0.4005186502970E+00
 0.5209335634268E+00 -0.5761627298621E+00  0.0000000000000E+00  0.4349760856388E+00
 0.5274318835749E+00 -0.5857034132817E+00  0.0000000000000E+00  0.4713595849713E+00
 0.5310024745242E+00 -0.5929928796201E+00  0.0000000000000E+00  0.5086776332496E+00
 0.4932342669432E-01 -0.1175889044632E+00  0.0000000000000E+00  0.2660401566651E+00
 0.1140977764188E+00 -0.1784588773540E+00  0.0000000000000E+00  0.2406887372370E+00
 0.1693889291375E+00 -0.2303347774783E+00  0.0000000000000E+00  0.2246076832559E+00
 0.2169911063931E+00 -0.2749623827800E+00  0.0000000000000E+00  0.2155334671478E+00
 0.2582677393732E+00 -0.3136681757383E+00  0.0000000000000E+00  0.2118917408522E+00
 0.2942740762574E+00 -0.3474796908571E+00  0.0000000000000E+00  0.2126100329202E+00
 0.3258435599122E+00 -0.3772101815913E+00  0.0000000000000E+00  0.2169790526179E+00
 0.3536473991060E+00 -0.4035169402045E+00  0.0000000000000E+00  0.2245524605762E+00
 0.3782355983363E+00 -0.4269414533694E+00  0.0000000000000E+00  0.2350748921108E+00
 0.4000650146693E+00 -0.4479369373216E+00  0.0000000000000E+00  0.2484297564723E+00
 0.4195167456337E+00 -0.4668855438922E+00  0.0000000000000E+00  0.2645988875599E+00
 0.4369036913514E+00 -0.4841059708833E+00  0.0000000000000E+00  0.2836292750683E+00
 0.4524703787171E+00 -0.4998534269641E+00  0.0000000000000E+00  0.3056045399968E+00
 0.4663865453116E+00 -0.5143135464662E+00  0.0000000000000E+00  0.3306137041043E+00
 0.4787361352460E+00 -0.5275920768169E+00  0.0000000000000E+00  0.3587183139825E+00
 0.4895056747727E+00 -0.5397042312402E+00  0.0000000000000E+00  0.3899141688533E+00
 0.4985714481354E+00 -0.5505631111470E+00  0.0000000000000E+00  0.4240754262378E+00
 0.5056815693320E+00 -0.5599634337099E+00  0.0000000000000E+00  0.4608768282463E+00
 0.5104277222677E+00 -0.5675555911700E+00  0.0000000000000E+00  0.4996898431674E+00
 0.5121988191524E+00 -0.5728027438345E+00  0.0000000000000E+00  0.5394581184824E+00
 0.5100644933287E-01 -0.1186680074255E+00  0.0000000000000E+00  0.2932934757918E+00
 0.1141225549319E+00 -0.1779709062308E+00  0.0000000000000E+00  0.2630890273321E+00
 0.1681871194315E+00 -0.2286885431675E+00  0.0000000000000E+00  0.2434155361731E+00
 0.2148443557142E+00 -0.2724209322950E+00  0.0000000000000E+00  0.2316974087726E+00
 0.2553491261551E+00 -0.3103892331286E+00  0.0000000000000E+00  0.2261450346199E+00
 0.2906780542605E+00 -0.3435447418510E+00  0.0000000000000E+00  0.2255389098385E+00
 0.3216070982906E+00 -0.3726448814985E+00  0.0000000000000E+00  0.2290692320717E+00
 0.3487645492773E+00 -0.3983050552141E+00  0.0000000000000E+00  0.2362202165800E+00
 0.3726674268398E+00 -0.4210342514462E+00  0.0000000000000E+00  0.2466873864737E+00
 0.3937464958369E+00 -0.4412595959006E+00  0.0000000000000E+00  0.2603179227829E+00
 0.4123617038760E+00 -0.4593416233151E+00  0.0000000000000E+00  0.2770648351182E+00
 0.4288083841320E+00 -0.4755804874218E+00  0.0000000000000E+00  0.2969497797585E+00
 0.4433163814034E+00 -0.4902151258900E+00  0.0000000000000E+00  0.3200323142429E+00
 0.4560432533958E+00 -0.5034166804134E+00  0.0000000000000E+00  0.3463752953473E+00
 0.4670633132414E+00 -0.5152781402513E+00  0.0000000000000E+00  0.3760109169259E+00
 0.4763575802628E+00 -0.5258051581110E+00  0.0000000000000E+00  0.4089043618115E+00
 0.4838041071667E+00 -0.5349074784399E+00  0.0000000000000E+00  0.4448983492783E+00
 0.4891642694240E+00 -0.5423867258365E+00  0.0000000000000E+00  0.4836343847021E+00
 0.4920586825165E+00 -0.5479145307833E+00  0.0000000000000E+00  0.5244444170341E+00
 0.4919225123166E+00 -0.5509913316342E+00  0.0000000000000E+00  0.5662181544216E+00
 0.5296346782072E-01 -0.1199390799836E+00  0.0000000000000E+00  0.3198331633370E+00
 0.1142230003606E+00 -0.1774870306970E+00  0.0000000000000E+00  0.2849958435363E+00
 0.1669167908108E+00 -0.2269099761384E+00  0.0000000000000E+00  0.2618435722151E+00
 0.2125206189959E+00 -0.2696442799517E+00  0.0000000000000E+00  0.2475202398536E+00
 0.2521677233533E+00 -0.3067931412588E+00  0.0000000000000E+00  0.2400426817931E+00
 0.2867471590328E+00 -0.3392229878420E+00  0.0000000000000E+00  0.2380587354709E+00
 0.3169714539756E+00 -0.3676296944525E+00  0.0000000000000E+00  0.2406668604921E+00
 0.3434221224423E+00 -0.3925830765221E+00  0.0000000000000E+00  0.2472863813753E+00
 0.3665807657013E+00 -0.4145573004169E+00  0.0000000000000E+00  0.2575651696499E+00
 0.3868506232250E+00 -0.4339520399795E+00  0.0000000000000E+00  0.2713135108364E+00
 0.4045697827004E+00 -0.4511055439118E+00  0.0000000000000E+00  0.2884536125062E+00
 0.4200157919391E+00 -0.4662992126874E+00  0.0000000000000E+00  0.3089791772250E+00
 0.4334039876057E+00 -0.4797558508555E+00  0.0000000000000E+00  0.3329230370274E+00
 0.4448800423060E+00 -0.4916323120838E+00  0.0000000000000E+00  0.3603189201906E+00
 0.4545085434547E+00 -0.5020085936025E+00  0.0000000000000E+00  0.3911665828490E+00
 0.4622642789222E+00 -0.5108798696146E+00  0.0000000000000E+00  0.4253985915539E+00
 0.4680257446552E+00 -0.5181509288830E+00  0.0000000000000E+00  0.4628263198384E+00
 0.4715658660061E+00 -0.5236281832168E+00  0.0000000000000E+00  0.5030612026939E+00
 0.4725323732633E+00 -0.5270020443226E+00  0.0000000000000E+00  0.5454018816735E+00
 0.4704048231362E+00 -0.5278073431695E+00  0.0000000000000E+00  0.5886911753875E+00
 0.5518507401539E-01 -0.1213971344198E+00  0.0000000000000E+00  0.3455887939294E+00
 0.1144061653170E+00 -0.1770177982401E+00  0.0000000000000E+00  0.3063638411542E+00
 0.1655959988646E+00 -0.2250199401253E+00  0.0000000000000E+00  0.2798601438608E+00
 0.2100455205964E+00 -0.2666603635673E+00  0.0000000000000E+00  0.2629761058074E+00
 0.2487547055016E+00 -0.3029130506961E+00  0.0000000000000E+00  0.2535593896581E+00
 0.2825171442656E+00 -0.3345519536332E+00  0.0000000000000E+00  0.2501415034033E+00
 0.3119767952026E+00 -0.3622064716694E+00  0.0000000000000E+00  0.2517392635516E+00
 0.3376651718798E+00 -0.3863977617203E+00  0.0000000000000E+00  0.2577124812360E+00
 0.3600265316953E+00 -0.4075633527171E+00  0.0000000000000E+00  0.2676633061744E+00
 0.3794355679228E+00 -0.4260745257622E+00  0.0000000000000E+00  0.2813647116985E+00
 0.3962081354705E+00 -0.4422469274471E+00  0.0000000000000E+00  0.2987062432892E+00
 0.4106040476788E+00 -0.4563432894631E+00  0.0000000000000E+00  0.3196510583229E+00
 0.4228245672176E+00 -0.4685707128794E+00  0.0000000000000E+00  0.3442026294446E+00
 0.4330040237208E+00 -0.4790722539735E+00  0.0000000000000E+00  0.3723623280755E+00
 0.4411973132773E+00 -0.4879148629590E+00  0.0000000000000E+00  0.4040936728526E+00
 0.4473722294966E+00 -0.4950823422948E+00  0.0000000000000E+00  0.4392936265673E+00
 0.4514061727832E+00 -0.5004727883795E+00  0.0000000000000E+00  0.4777409965076E+00
 0.4530815888475E+00 -0.5038950400760E+00  0.0000000000000E+00  0.5190185952665E+00
 0.4520713410075E+00 -0.5050557156623E+00  0.0000000000000E+00  0.5623955032047E+00
 0.4478982963110E+00 -0.5035218719262E+00  0.0000000000000E+00  0.6066705846314E+00
 0.5766089040226E-01 -0.1230366271846E+00  0.0000000000000E+00  0.3704955031278E+00
 0.1146796053561E+00 -0.1765745891645E+00  0.0000000000000E+00  0.3271507660880E+00
 0.1642442864224E+00 -0.2230410497536E+00  0.0000000000000E+00  0.2974355368637E+00
 0.2074467805588E+00 -0.2634994296166E+00  0.0000000000000E+00  0.2780407728942E+00
 0.2451436740293E+00 -0.2987847146730E+00  0.0000000000000E+00  0.2666717813003E+00
 0.2780263339608E+00 -0.3295718844752E+00  0.0000000000000E+00  0.2617619126791E+00
 0.3066658923795E+00 -0.3564198008938E+00  0.0000000000000E+00  0.2622577037454E+00
 0.3315413312759E+00 -0.3797985757153E+00  0.0000000000000E+00  0.2674656345459E+00
 0.3530581849230E+00 -0.4001078305097E+00  0.0000000000000E+00  0.2769445407790E+00
 0.3715620150523E+00 -0.4176899550185E+00  0.0000000000000E+00  0.2904299514701E+00
 0.3873464228364E+00 -0.4328380442650E+00  0.0000000000000E+00  0.3077770576068E+00
 0.4006538170325E+00 -0.4457965489189E+00  0.0000000000000E+00  0.3289159624246E+00
 0.4116721182159E+00 -0.4567576256918E+00  0.0000000000000E+00  0.3538182664813E+00
 0.4205251796580E+00 -0.4658513870727E+00  0.0000000000000E+00  0.3824495455295E+00
 0.4272584614238E+00 -0.4731319527018E+00  0.0000000000000E+00  0.4147325419829E+00
 0.4318320814092E+00 -0.4785710073837E+00  0.0000000000000E+00  0.4505246146847E+00
 0.4341207774593E+00 -0.4820582746571E+00  0.0000000000000E+00  0.4895694480374E+00
 0.4339144874226E+00 -0.4834027618047E+00  0.0000000000000E+00  0.5314209658395E+00
 0.4309096286515E+00 -0.4823252107873E+00  0.0000000000000E+00  0.5753200386461E+00
 0.4246733208631E+00 -0.4784247265891E+00  0.0000000000000E+00  0.6200208224123E+00
 0.6037969473460E-01 -0.1248515509531E+00  0.0000000000000E+00  0.3944943843821E+00
 0.1150513063931E+00 -0.1761695209654E+00  0.0000000000000E+00  0.3473176677736E+00
 0.1628825016541E+00 -0.2209974716646E+00  0.0000000000000E+00  0.3145420410003E+00
 0.2047539589895E+00 -0.2601937639060E+00  0.0000000000000E+00  0.2926915911422E+00
 0.2413703345947E+00 -0.2944461540339E+00  0.0000000000000E+00  0.2793582860055E+00
 0.2733152258110E+00 -0.3243253368449E+00  0.0000000000000E+00  0.2728972220159E+00
 0.3010836345674E+00 -0.3503165088179E+00  0.0000000000000E+00  0.2721972293443E+00
 0.3251002273834E+00 -0.3728370866965E+00  0.0000000000000E+00  0.2765184154834E+00
 0.3457310156101E+00 -0.3922480917963E+00  0.0000000000000E+00  0.2853791842471E+00
 0.3632922959231E+00 -0.4088629806813E+00  0.0000000000000E+00  0.2984777988730E+00
 0.3780557540086E+00 -0.4229527195013E+00  0.0000000000000E+00  0.3156336212884E+00
 0.3902470025871E+00 -0.4347441680043E+00  0.0000000000000E+00  0.3367413363578E+00
 0.4000416846621E+00 -0.4444156618109E+00  0.0000000000000E+00  0.3617384122376E+00
 0.4075544507902E+00 -0.4520856681466E+00  0.0000000000000E+00  0.3905510721041E+00
 0.4128218905507E+00 -0.4577960533276E+00  0.0000000000000E+00  0.4230560075999E+00
 0.4157959511205E+00 -0.4615058921982E+00  0.0000000000000E+00  0.4590660105399E+00
 0.4163472734073E+00 -0.4630950780967E+00  0.0000000000000E+00  0.4982858996141E+00
 0.4142715631074E+00 -0.4623709532416E+00  0.0000000000000E+00  0.5402390785240E+00
 0.4092881903150E+00 -0.4590674228020E+00  0.0000000000000E+00  0.5841377901406E+00
 0.4010127225792E+00 -0.4528187804849E+00  0.0000000000000E+00  0.6286884622831E+00
 0.6332955683861E-01 -0.1268355360308E+00  0.0000000000000E+00  0.4175328144429E+00
 0.1155296187457E+00 -0.1758153578339E+00  0.0000000000000E+00  0.3668290850116E+00
 0.1615326224572E+00 -0.2189147304698E+00  0.0000000000000E+00  0.3311540029240E+00
 0.2019982057424E+00 -0.2567774262795E+00  0.0000000000000E+00  0.3069074270235E+00
 0.2374721771126E+00 -0.2899373235902E+00  0.0000000000000E+00  0.2915989765638E+00
 0.2684260937869E+00 -0.3188567670753E+00  0.0000000000000E+00  0.2835270253225E+00
 0.2952765426910E+00 -0.3439451588346E+00  0.0000000000000E+00  0.2815364184634E+00
 0.3183928895238E+00 -0.3655663576474E+00  0.0000000000000E+00  0.2848485837752E+00
 0.3381014306965E+00 -0.3840426953451E+00  0.0000000000000E+00  0.2929448282282E+00
 0.3546895242524E+00 -0.3996591160771E+00  0.0000000000000E+00  0.3054866512081E+00
 0.3684076346377E+00 -0.4126652460387E+00  0.0000000000000E+00  0.3222563760360E+00
 0.3794654499525E+00 -0.4232713293026E+00  0.0000000000000E+00  0.3431111199429E+00
 0.3880277627411E+00 -0.4316433971406E+00  0.0000000000000E+00  0.3679523901051E+00
 0.3942017915867E+00 -0.4378901044839E+00  0.0000000000000E+00  0.3966635148900E+00
 0.3980162139378E+00 -0.4420420851785E+00  0.0000000000000E+00  0.4290691332779E+00
 0.3994145669528E+00 -0.4440456345012E+00  0.0000000000000E+00  0.4649316343390E+00
 0.3982621769748E+00 -0.4437696676847E+00  0.0000000000000E+00  0.5039123356654E+00
 0.3943592874485E+00 -0.4410186593795E+00  0.0000000000000E+00  0.5455018617011E+00
 0.3874490368327E+00 -0.4355403377535E+00  0.0000000000000E+00  0.5888830858728E+00
 0.3772038747092E+00 -0.4270118078131E+00  0.0000000000000E+00  0.6327123587937E+00
 0.6649797989425E-01 -0.1289819585565E+00  0.0000000000000E+00  0.4395647073157E+00
 0.1161231979873E+00 -0.1755254278015E+00  0.0000000000000E+00  0.3856532121143E+00
 0.1602175910102E+00 -0.2168195259099E+00  0.0000000000000E+00  0.3472478660049E+00
 0.1992120220861E+00 -0.2532859981467E+00  0.0000000000000E+00  0.3206685652569E+00
 0.2334881660765E+00 -0.2852997893143E+00  0.0000000000000E+00  0.3033753480573E+00
 0.2634025976412E+00 -0.3132121270701E+00  0.0000000000000E+00  0.2936329411300E+00
 0.2892922876527E+00 -0.3373555535812E+00  0.0000000000000E+00  0.2902570121744E+00
 0.3114711660014E+00 -0.3580403445978E+00  0.0000000000000E+00  0.2924386781234E+00
 0.3302262543273E+00 -0.3755506796287E+00  0.0000000000000E+00  0.2996258907401E+00
 0.3458167569126E+00 -0.3901438695369E+00  0.0000000000000E+00  0.3114442018220E+00
 0.3584729494782E+00 -0.4020493341101E+00  0.0000000000000E+00  0.3276379888144E+00
 0.3683896901447E+00 -0.4114619198073E+00  0.0000000000000E+00  0.3480249430026E+00
 0.3757227324620E+00 -0.4185372837986E+00  0.0000000000000E+00  0.3724694592986E+00
 0.3805742360499E+00 -0.4233767410550E+00  0.0000000000000E+00  0.4008086295985E+00
 0.3829663987377E+00 -0.4260012415006E+00  0.0000000000000E+00  0.4328082932646E+00
 0.3828343840088E+00 -0.4263444733691E+00  0.0000000000000E+00  0.4681737895310E+00
 0.3800371561332E+00 -0.4242634864225E+00  0.0000000000000E+00  0.5065177512622E+00
 0.3743787116911E+00 -0.4195592763107E+00  0.0000000000000E+00  0.5472961813189E+00
 0.3656282240974E+00 -0.4119957618141E+00  0.0000000000000E+00  0.5896638309153E+00
 0.3535281058046E+00 -0.4013055509521E+00  0.0000000000000E+00  0.6322301294674E+00
 0.6987204838726E-01 -0.1312840533327E+00  0.0000000000000E+00  0.4605507093719E+00
 0.1168409555804E+00 -0.1753135489405E+00  0.0000000000000E+00  0.4037620589080E+00
 0.1589611661345E+00 -0.2147395673007E+00  0.0000000000000E+00  0.3628022109550E+00
 0.1964290438983E+00 -0.2497563512434E+00  0.0000000000000E+00  0.3339565883473E+00
 0.2294584503366E+00 -0.2805764244519E+00  0.0000000000000E+00  0.3146700415420E+00
 0.2582894069335E+00 -0.3074384736406E+00  0.0000000000000E+00  0.3031982182796E+00
 0.2831792199828E+00 -0.3305982479412E+00  0.0000000000000E+00  0.2983434425255E+00
 0.3043871548530E+00 -0.3503133081817E+00  0.0000000000000E+00  0.2992754862142E+00
 0.3221620531926E+00 -0.3668308659871E+00  0.0000000000000E+00  0.3054130144440E+00
 0.3367361973953E+00 -0.3803819220994E+00  0.0000000000000E+00  0.3163467195020E+00
 0.3483210086298E+00 -0.3911771267429E+00  0.0000000000000E+00  0.3317824411996E+00
 0.3570977558479E+00 -0.3993973077873E+00  0.0000000000000E+00  0.3514969496838E+00
 0.3632153544614E+00 -0.4051900926996E+00  0.0000000000000E+00  0.3753173935949E+00
 0.3667740126734E+00 -0.4086526992520E+00  0.0000000000000E+00  0.4030317655539E+00
 0.3677914610694E+00 -0.4097985834388E+00  0.0000000000000E+00  0.4343395502140E+00
 0.3661947802342E+00 -0.4085493271445E+00  0.0000000000000E+00  0.4688814900090E+00
 0.3618354696036E+00 -0.4047492497141E+00  0.0000000000000E+00  0.5062160205158E+00
 0.3545205385230E+00 -0.3981954442488E+00  0.0000000000000E+00  0.5457642442552E+00
 0.3440482825724E+00 -0.3886715157838E+00  0.0000000000000E+00  0.5866587618434E+00
 0.3302482817177E+00 -0.3759829170693E+00  0.0000000000000E+00  0.6274767178556E+00
 0.7343857538733E-01 -0.1337350256699E+00  0.0000000000000E+00  0.4804583242184E+00
 0.1176920186832E+00 -0.1751939646284E+00  0.0000000000000E+00  0.4211316107342E+00
 0.1577878005804E+00 -0.2127034338213E+00  0.0000000000000E+00  0.3777978038976E+00
 0.1936838577621E+00 -0.2462264503368E+00  0.0000000000000E+00  0.3467542323906E+00
 0.2254241027936E+00 -0.2758111358822E+00  0.0000000000000E+00  0.3254665039956E+00
 0.2531318470267E+00 -0.3015835993605E+00  0.0000000000000E+00  0.3122072494191E+00
 0.2769859162554E+00 -0.3237240779902E+00  0.0000000000000E+00  0.3057822532269E+00
 0.2971926536688E+00 -0.3424392435478E+00  0.0000000000000E+00  0.3053493980442E+00
 0.3139644932028E+00 -0.3579411924599E+00  0.0000000000000E+00  0.3103023367474E+00
 0.3275084548536E+00 -0.3704363609476E+00  0.0000000000000E+00  0.3201981743149E+00
 0.3380186838634E+00 -0.3801183076042E+00  0.0000000000000E+00  0.3347039025271E+00
 0.3456641124408E+00 -0.3871552410919E+00  0.0000000000000E+00  0.3535542748707E+00
 0.3505893740867E+00 -0.3916894720346E+00  0.0000000000000E+00  0.3765405434762E+00
 0.3528967350402E+00 -0.3938182961160E+00  0.0000000000000E+00  0.4033996742574E+00
 0.3526022303798E+00 -0.3935507000630E+00  0.0000000000000E+00  0.4337563684763E+00
 0.3496254139024E+00 -0.3907970254405E+00  0.0000000000000E+00  0.4671779576902E+00
 0.3438087285391E+00 -0.3853875873664E+00  0.0000000000000E+00  0.5031625243438E+00
 0.3349606193766E+00 -0.3771143816965E+00  0.0000000000000E+00  0.5410985487481E+00
 0.3229110680714E+00 -0.3657840337294E+00  0.0000000000000E+00  0.5801099051728E+00
 0.3075966077901E+00 -0.3512953921850E+00  0.0000000000000E+00  0.6187731992278E+00
 0.7718424245528E-01 -0.1363281532050E+00  0.0000000000000E+00  0.4992619848031E+00
 0.1186856975191E+00 -0.1751812858101E+00  0.0000000000000E+00  0.4377420294991E+00
 0.1567225527900E+00 -0.2107404709677E+00  0.0000000000000E+00  0.3922176870825E+00
 0.1910118634806E+00 -0.2427352042872E+00  0.0000000000000E+00  0.3590452319276E+00
 0.2214268990821E+00 -0.2710486300045E+00  0.0000000000000E+00  0.3357485806274E+00
 0.2479755693786E+00 -0.2956956864808E+00  0.0000000000000E+00  0.3206449880017E+00
 0.2707607409193E+00 -0.3167837040079E+00  0.0000000000000E+00  0.3125614172953E+00
 0.2899386261992E+00 -0.3344713260253E+00  0.0000000000000E+00  0.3106536548576E+00
 0.3056877244009E+00 -0.3489380750506E+00  0.0000000000000E+00  0.3142946532871E+00
 0.3181918588147E+00 -0.3603679666678E+00  0.0000000000000E+00  0.3230092547977E+00
 0.3276296517273E+00 -0.3689393163372E+00  0.0000000000000E+00  0.3364254603478E+00
 0.3341587493685E+00 -0.3748089122522E+00  0.0000000000000E+00  0.3542352400766E+00
 0.3379222933316E+00 -0.3781166903761E+00  0.0000000000000E+00  0.3761973673017E+00
 0.3390296989533E+00 -0.3789652812903E+00  0.0000000000000E+00  0.4019975744068E+00
 0.3374991563960E+00 -0.3773634042608E+00  0.0000000000000E+00  0.4311765986500E+00
 0.3332437243923E+00 -0.3732116562666E+00  0.0000000000000E+00  0.4632176206181E+00
 0.3260942233056E+00 -0.3663242283157E+00  0.0000000000000E+00  0.4975501422589E+00
 0.3158564709718E+00 -0.3564843458411E+00  0.0000000000000E+00  0.5335345622871E+00
 0.3023918872113E+00 -0.3435221810348E+00  0.0000000000000E+00  0.5703104424239E+00
 0.2857643527060E+00 -0.3274522708110E+00  0.0000000000000E+00  0.6065086033697E+00
 0.8109571580596E-01 -0.1390568588703E+00  0.0000000000000E+00  0.5169430721350E+00
 0.1198314542793E+00 -0.1752904346487E+00  0.0000000000000E+00  0.4535779330591E+00
 0.1557910503028E+00 -0.2088807435407E+00  0.0000000000000E+00  0.4060473383904E+00
 0.1884492086388E+00 -0.2393223956884E+00  0.0000000000000E+00  0.3708141342219E+00
 0.2175091518246E+00 -0.2663342357238E+00  0.0000000000000E+00  0.3454999931171E+00
 0.2428662526539E+00 -0.2898229909396E+00  0.0000000000000E+00  0.3284962318836E+00
 0.2645514293504E+00 -0.3098271733994E+00  0.0000000000000E+00  0.3186695356114E+00
 0.2826746960769E+00 -0.3264613851241E+00  0.0000000000000E+00  0.3151834868214E+00
 0.2973838056357E+00 -0.3398758097062E+00  0.0000000000000E+00  0.3173944688745E+00
 0.3088418372728E+00 -0.3502345638300E+00  0.0000000000000E+00  0.3247962903068E+00
 0.3172137675009E+00 -0.3577026892889E+00  0.0000000000000E+00  0.3369777961131E+00
 0.3226465079697E+00 -0.3624262687866E+00  0.0000000000000E+00  0.3535873993891E+00
 0.3252844504273E+00 -0.3645457090841E+00  0.0000000000000E+00  0.3743574806338E+00
 0.3252504113378E+00 -0.3641753504638E+00  0.0000000000000E+00  0.3989252605049E+00
 0.3225701419204E+00 -0.3613294499258E+00  0.0000000000000E+00  0.4267384191069E+00
 0.3171524402041E+00 -0.3559018714247E+00  0.0000000000000E+00  0.4571827162397E+00
 0.3088128376221E+00 -0.3476876985291E+00  0.0000000000000E+00  0.4896056877204E+00
 0.2973458000673E+00 -0.3364530681569E+00  0.0000000000000E+00  0.5233429657937E+00
 0.2826361609910E+00 -0.3220442040513E+00  0.0000000000000E+00  0.5575865095015E+00
 0.2648947654313E+00 -0.3046122563176E+00  0.0000000000000E+00  0.5911119508867E+00
 0.8515971340791E-01 -0.1419147142373E+00  0.0000000000000E+00  0.5334898893490E+00
 0.1211388634728E+00 -0.1755365707078E+00  0.0000000000000E+00  0.4686288843485E+00
 0.1550195437380E+00 -0.2071550908247E+00  0.0000000000000E+00  0.4192749956237E+00
 0.1860328407420E+00 -0.2360287336778E+00  0.0000000000000E+00  0.3820460794634E+00
 0.2137136169178E+00 -0.2617138012236E+00  0.0000000000000E+00  0.3547036593100E+00
 0.2378493257636E+00 -0.2840135387039E+00  0.0000000000000E+00  0.3357447666764E+00
 0.2584046828666E+00 -0.3029034924002E+00  0.0000000000000E+00  0.3240949630776E+00
 0.2754486680144E+00 -0.3184594051302E+00  0.0000000000000E+00  0.3189351926498E+00
 0.2891021651144E+00 -0.3308060131827E+00  0.0000000000000E+00  0.3196089696470E+00
 0.2995103345675E+00 -0.3400904080363E+00  0.0000000000000E+00  0.3255801150696E+00
 0.3068265192979E+00 -0.3464664750428E+00  0.0000000000000E+00  0.3363979156376E+00
 0.3111866517962E+00 -0.3500695375438E+00  0.0000000000000E+00  0.3516657832202E+00
 0.3127385519685E+00 -0.3510427566738E+00  0.0000000000000E+00  0.3710985351723E+00
 0.3116255783542E+00 -0.3495191636539E+00  0.0000000000000E+00  0.3942921658391E+00
 0.3078883882512E+00 -0.3455263636229E+00  0.0000000000000E+00  0.4205944262391E+00
 0.3014365996178E+00 -0.3389575606646E+00  0.0000000000000E+00  0.4492790710010E+00
 0.2920669868335E+00 -0.3295868935178E+00  0.0000000000000E+00  0.4795880695704E+00
 0.2795471808815E+00 -0.3171482159279E+00  0.0000000000000E+00  0.5108251723229E+00
 0.2637626936341E+00 -0.3014811018376E+00  0.0000000000000E+00  0.5422769352813E+00
 0.2450854080984E+00 -0.2828868305257E+00  0.0000000000000E+00  0.5729944493802E+00
 0.8936294954877E-01 -0.1448952643750E+00  0.0000000000000E+00  0.5488977131402E+00
 0.1226175391498E+00 -0.1759349950509E+00  0.0000000000000E+00  0.4828903813234E+00
 0.1544351281875E+00 -0.2055953624937E+00  0.0000000000000E+00  0.4318923113315E+00
 0.1838007583819E+00 -0.2328961515753E+00  0.0000000000000E+00  0.3927264371282E+00
 0.2100834733340E+00 -0.2572336479561E+00  0.0000000000000E+00  0.3633406592292E+00
 0.2329696728097E+00 -0.2783148033445E+00  0.0000000000000E+00  0.3423723057396E+00
 0.2523657568601E+00 -0.2960601800977E+00  0.0000000000000E+00  0.3288248788693E+00
 0.2683060917849E+00 -0.3105130806635E+00  0.0000000000000E+00  0.3219051773828E+00
 0.2808891209892E+00 -0.3217771307056E+00  0.0000000000000E+00  0.3209468530931E+00
 0.2902452584606E+00 -0.3299856103053E+00  0.0000000000000E+00  0.3253847626941E+00
 0.2965185155360E+00 -0.3352836680653E+00  0.0000000000000E+00  0.3347278779179E+00
 0.2998325553589E+00 -0.3377948656422E+00  0.0000000000000E+00  0.3485314617781E+00
 0.3003398368991E+00 -0.3376664083024E+00  0.0000000000000E+00  0.3665039149729E+00
 0.2982111414285E+00 -0.3350567236389E+00  0.0000000000000E+00  0.3882114656276E+00
 0.2935107147067E+00 -0.3300147446507E+00  0.0000000000000E+00  0.4129025223358E+00
 0.2861594632171E+00 -0.3224456656376E+00  0.0000000000000E+00  0.4397284250273E+00
 0.2759369461789E+00 -0.3121062699558E+00  0.0000000000000E+00  0.4677888635632E+00
 0.2625620905559E+00 -0.2986791638689E+00  0.0000000000000E+00  0.4963176474241E+00
 0.2458732756379E+00 -0.2819464118961E+00  0.0000000000000E+00  0.5247262057540E+00
 0.2264016728589E+00 -0.2623551642014E+00  0.0000000000000E+00  0.5525284763674E+00
 0.9369178583502E-01 -0.1479914843251E+00  0.0000000000000E+00  0.5631689110920E+00
 0.1242769827733E+00 -0.1765008399518E+00  0.0000000000000E+00  0.4963662340463E+00
 0.1540663971057E+00 -0.2042352857045E+00  0.0000000000000E+00  0.4438957031313E+00
 0.1817926357154E+00 -0.2299684186992E+00  0.0000000000000E+00  0.4028399480038E+00
 0.2066623441531E+00 -0.2529406138441E+00  0.0000000000000E+00  0.3713885816967E+00
 0.2282712175806E+00 -0.2727731677056E+00  0.0000000000000E+00  0.3483572315619E+00
 0.2464780121885E+00 -0.2893428126050E+00  0.0000000000000E+00  0.3328445799989E+00
 0.2612899108156E+00 -0.3026674496278E+00  0.0000000000000E+00  0.3240890725848E+00
 0.2727874962594E+00 -0.3128340560434E+00  0.0000000000000E+00  0.3214170700983E+00
 0.2810899587933E+00 -0.3199655949463E+00  0.0000000000000E+00  0.3242359412113E+00
 0.2863348940686E+00 -0.3242015718008E+00  0.0000000000000E+00  0.3320134275564E+00
 0.2886313440694E+00 -0.3256518382308E+00  0.0000000000000E+00  0.3442505529517E+00
 0.2881363074177E+00 -0.3244677982317E+00  0.0000000000000E+00  0.3606617528835E+00
 0.2850543484871E+00 -0.3208390952291E+00  0.0000000000000E+00  0.3807975479682E+00
 0.2794781681836E+00 -0.3148407642742E+00  0.0000000000000E+00  0.4038108252068E+00
 0.2713569333745E+00 -0.3064032787392E+00  0.0000000000000E+00  0.4287516894423E+00
 0.2604719523852E+00 -0.2952966588785E+00  0.0000000000000E+00  0.4545312465625E+00
 0.2464744478118E+00 -0.2811332650270E+00  0.0000000000000E+00  0.4802139990132E+00
 0.2290678088928E+00 -0.2635538809111E+00  0.0000000000000E+00  0.5052988819931E+00
 0.2088910678146E+00 -0.2430812292250E+00  0.0000000000000E+00  0.5300315538687E+00
 0.9813125792836E-01 -0.1511935285018E+00  0.0000000000000E+00  0.5763157793726E+00
 0.1261265408612E+00 -0.1772495652761E+00  0.0000000000000E+00  0.5090746979112E+00
 0.1539451803356E+00 -0.2031120140253E+00  0.0000000000000E+00  0.4552889071252E+00
 0.1800512100803E+00 -0.2272931883306E+00  0.0000000000000E+00  0.4123683465252E+00
 0.2034940645542E+00 -0.2488812981393E+00  0.0000000000000E+00  0.3788180406371E+00
 0.2237961154375E+00 -0.2674331685567E+00  0.0000000000000E+00  0.3536738335095E+00
 0.2407824866663E+00 -0.2827945151548E+00  0.0000000000000E+00  0.3361370697006E+00
 0.2544402453480E+00 -0.2949647262260E+00  0.0000000000000E+00  0.3254810032400E+00
 0.2648364088950E+00 -0.3040179135133E+00  0.0000000000000E+00  0.3210273630299E+00
 0.2720827901587E+00 -0.3100706873288E+00  0.0000000000000E+00  0.3221590673732E+00
 0.2763146489540E+00 -0.3132610738801E+00  0.0000000000000E+00  0.3283020925099E+00
 0.2776231467871E+00 -0.3136826400358E+00  0.0000000000000E+00  0.3388931471967E+00
 0.2761688352229E+00 -0.3114904213080E+00  0.0000000000000E+00  0.3536653593047E+00
 0.2721953506307E+00 -0.3069102907938E+00  0.0000000000000E+00  0.3721671983627E+00
 0.2658250693630E+00 -0.3000430310367E+00  0.0000000000000E+00  0.3934562740498E+00
 0.2570357216575E+00 -0.2908464212429E+00  0.0000000000000E+00  0.4165147813023E+00
 0.2456663395549E+00 -0.2791384137368E+00  0.0000000000000E+00  0.4401515702919E+00
 0.2313376348070E+00 -0.2645655922523E+00  0.0000000000000E+00  0.4630202782697E+00
 0.2134671203835E+00 -0.2464343454435E+00  0.0000000000000E+00  0.4844445267741E+00
 0.1926181284473E+00 -0.2251625601980E+00  0.0000000000000E+00  0.5057390889263E+00
 0.1026609000463E+00 -0.1544852115584E+00  0.0000000000000E+00  0.5883590821507E+00
 0.1281747431490E+00 -0.1781920651920E+00  0.0000000000000E+00  0.5210697317204E+00
 0.1541132772622E+00 -0.2022787384875E+00  0.0000000000000E+00  0.4660881479617E+00
 0.1786242647371E+00 -0.2249211034151E+00  0.0000000000000E+00  0.4212765489332E+00
 0.2006206229329E+00 -0.2451004249959E+00  0.0000000000000E+00  0.3855914943881E+00
 0.2195840426745E+00 -0.2623365913643E+00  0.0000000000000E+00  0.3582920648683E+00
 0.2353173667374E+00 -0.2764555499974E+00  0.0000000000000E+00  0.3386828197059E+00
 0.2477943665485E+00 -0.2874440150660E+00  0.0000000000000E+00  0.3260737691817E+00
 0.2570715595357E+00 -0.2953667193557E+00  0.0000000000000E+00  0.3197827571850E+00
 0.2632567840075E+00 -0.3003356411836E+00  0.0000000000000E+00  0.3191762096004E+00
 0.2664898854935E+00 -0.3024958481833E+00  0.0000000000000E+00  0.3236411732610E+00
 0.2668401079101E+00 -0.3019211229755E+00  0.0000000000000E+00  0.3325313154928E+00
 0.2644698743556E+00 -0.2987685821223E+00  0.0000000000000E+00  0.3456138861688E+00
 0.2596689700702E+00 -0.2933080972421E+00  0.0000000000000E+00  0.3624452379927E+00
 0.2525826264169E+00 -0.2856584584169E+00  0.0000000000000E+00  0.3819739594331E+00
 0.2432125250063E+00 -0.2757951085155E+00  0.0000000000000E+00  0.4031404536676E+00
 0.2314275097571E+00 -0.2635718323778E+00  0.0000000000000E+00  0.4247546868158E+00
 0.2170730198644E+00 -0.2487965899114E+00  0.0000000000000E+00  0.4454637818207E+00
 0.1992620803929E+00 -0.2308351006971E+00  0.0000000000000E+00  0.4630250112584E+00
 0.1777855599620E+00 -0.2088600660068E+00  0.0000000000000E+00  0.4796933688729E+00
 0.1072447711579E+00 -0.1577785475535E+00  0.0000000000000E+00  0.5994761885488E+00
 0.1304560915246E+00 -0.1794049663800E+00  0.0000000000000E+00  0.5325499975066E+00
 0.1546423411421E+00 -0.2018076051681E+00  0.0000000000000E+00  0.4762605974895E+00
 0.1775572507013E+00 -0.2229014620224E+00  0.0000000000000E+00  0.4295091675720E+00
 0.1980805060020E+00 -0.2416380294562E+00  0.0000000000000E+00  0.3916630150762E+00
 0.2156712349904E+00 -0.2575218553360E+00  0.0000000000000E+00  0.3621794764075E+00
 0.2301180540344E+00 -0.2703634071002E+00  0.0000000000000E+00  0.3404592141693E+00
 0.2413857437710E+00 -0.2801406033452E+00  0.0000000000000E+00  0.3258574489352E+00
 0.2495263086021E+00 -0.2869149415133E+00  0.0000000000000E+00  0.3176898327040E+00
 0.2546412977933E+00 -0.2907942041967E+00  0.0000000000000E+00  0.3152989738124E+00
 0.2568826981925E+00 -0.2919272390827E+00  0.0000000000000E+00  0.3180695192021E+00
 0.2563053265178E+00 -0.2903907479681E+00  0.0000000000000E+00  0.3252462139402E+00
 0.2530633744909E+00 -0.2863305297194E+00  0.0000000000000E+00  0.3366051626586E+00
 0.2474993842022E+00 -0.2800556593029E+00  0.0000000000000E+00  0.3517671368430E+00
 0.2397859481052E+00 -0.2717259182215E+00  0.0000000000000E+00  0.3695224696832E+00
 0.2299133042490E+00 -0.2612878502137E+00  0.0000000000000E+00  0.3887489961240E+00
 0.2177664124885E+00 -0.2485973530561E+00  0.0000000000000E+00  0.4083152736871E+00
 0.2032079610086E+00 -0.2335290811914E+00  0.0000000000000E+00  0.4272313832493E+00
 0.1863110706368E+00 -0.2159972860230E+00  0.0000000000000E+00  0.4436958591557E+00
 0.1654163585830E+00 -0.1958160609197E+00  0.0000000000000E+00  0.4531687347060E+00
 0.2197568337448E+00 -0.3434344428132E+00  0.0000000000000E+00 -0.2468370514937E+00
 0.1019389418855E+00 -0.1102056635684E+00  0.0000000000000E+00  0.1851436500549E+00
 0.2091516723409E-01 -0.2165032379311E-01  0.0000000000000E+00  0.6777333663974E-01
 0.8777159534032E-03  0.2217871012516E-02  0.0000000000000E+00 -0.2215516704875E-02
-0.1192131386432E-01  0.1616373370038E-01  0.0000000000000E+00 -0.3406491744447E-01
-0.2076163502159E-01  0.2549817086504E-01  0.0000000000000E+00 -0.4675398458936E-01
-0.2783570653387E-01  0.3289350041064E-01  0.0000000000000E+00 -0.4872767518423E-01
-0.3370231247180E-01  0.3903195441179E-01  0.0000000000000E+00 -0.4424707946284E-01
-0.3839778884816E-01  0.4390130800517E-01  0.0000000000000E+00 -0.3576546361352E-01
-0.4172175134455E-01  0.4731839736113E-01  0.0000000000000E+00 -0.2370389889814E-01
-0.4312136948498E-01  0.4881858542833E-01  0.0000000000000E+00 -0.8730622765694E-02
-0.4210004095613E-01  0.4753137110537E-01  0.0000000000000E+00  0.8070445993313E-02
-0.3754908894189E-01  0.4267016198398E-01  0.0000000000000E+00  0.3156963576279E-01
-0.2964248216082E-01  0.3475529020114E-01  0.0000000000000E+00  0.5809565995619E-01
-0.1927772060778E-01  0.2477236775668E-01  0.0000000000000E+00  0.8092070636777E-01
-0.7419676780082E-02  0.1353445008846E-01  0.0000000000000E+00  0.9876833793106E-01
 0.4431382842732E-02  0.2406983727525E-02  0.0000000000000E+00  0.1113564395022E+00
 0.1583839370991E-01 -0.8335944160860E-02  0.0000000000000E+00  0.1187074507026E+00
 0.2722750757792E-01 -0.1914642656333E-01  0.0000000000000E+00  0.1201390777383E+00
 0.4341723500258E-01 -0.3650537364666E-01  0.0000000000000E+00  0.1227178454519E+00
 0.2583202501146E+00 -0.3305754347133E+00  0.0000000000000E+00 -0.4044609316273E+00
 0.1876744028383E+00 -0.2245585754659E+00  0.0000000000000E+00  0.2862244060382E-01
 0.7808017978966E-01 -0.8558847162129E-01  0.0000000000000E+00  0.8283135168912E-01
 0.3234424379289E-01 -0.3384649148796E-01  0.0000000000000E+00  0.3422353921534E-01
 0.1131632747623E-01 -0.1028680417696E-01  0.0000000000000E+00 -0.2019395915272E-02
-0.1800960462479E-02  0.3849487919349E-02  0.0000000000000E+00 -0.2200914844927E-01
-0.1103427341414E-01  0.1368213895193E-01  0.0000000000000E+00 -0.3073182798452E-01
-0.1820949882972E-01  0.2126291816546E-01  0.0000000000000E+00 -0.3184455453884E-01
-0.2397609480081E-01  0.2731423796582E-01  0.0000000000000E+00 -0.2791434286030E-01
-0.2839116206914E-01  0.3193699551490E-01  0.0000000000000E+00 -0.1983323496205E-01
-0.3124614825910E-01  0.3486265967866E-01  0.0000000000000E+00 -0.7735872911092E-02
-0.3256543544502E-01  0.3617334469749E-01  0.0000000000000E+00  0.7121124524944E-02
-0.3113861599017E-01  0.3474992193094E-01  0.0000000000000E+00  0.2662934752616E-01
-0.2614269794154E-01  0.2981054591275E-01  0.0000000000000E+00  0.4772057682073E-01
-0.1830626445779E-01  0.2218829983338E-01  0.0000000000000E+00  0.6495381634145E-01
-0.8761598605589E-02  0.1302068962530E-01  0.0000000000000E+00  0.7716933071078E-01
 0.9481198226216E-03  0.3712663572474E-02  0.0000000000000E+00  0.8402168670020E-01
 0.1028564054035E-01 -0.5294320016215E-02  0.0000000000000E+00  0.8552437830582E-01
 0.1959265996734E-01 -0.1470111995265E-01  0.0000000000000E+00  0.8148915214936E-01
 0.2942600672356E-01 -0.2510916256622E-01  0.0000000000000E+00  0.7852228627864E-01
 0.2454190850444E+00 -0.3027809403150E+00  0.0000000000000E+00 -0.4625383430462E+00
 0.2191926241872E+00 -0.2564998111689E+00  0.0000000000000E+00 -0.1070453784261E+00
 0.1317868270382E+00 -0.1500874998948E+00  0.0000000000000E+00  0.3247754452104E-01
 0.7132853690968E-01 -0.7806618482561E-01  0.0000000000000E+00  0.4399599164666E-01
 0.3947292692927E-01 -0.4219685421755E-01  0.0000000000000E+00  0.1955147183901E-01
 0.2092813039305E-01 -0.2181426114301E-01  0.0000000000000E+00 -0.1639335139710E-02
 0.8578861816375E-02 -0.8509123556142E-02  0.0000000000000E+00 -0.1472289940787E-01
-0.4988743022980E-03  0.1171689479347E-02  0.0000000000000E+00 -0.2064018769091E-01
-0.7666192765719E-02  0.8752658482299E-02  0.0000000000000E+00 -0.2117846044969E-01
-0.1344545974281E-01  0.1482052361257E-01  0.0000000000000E+00 -0.1717245655846E-01
-0.1792694355701E-01  0.1947518486137E-01  0.0000000000000E+00 -0.8911298030533E-02
-0.2129631287957E-01  0.2298209562861E-01  0.0000000000000E+00  0.2369740697809E-02
-0.2239990274624E-01  0.2425577628445E-01  0.0000000000000E+00  0.1744460898720E-01
-0.1997759515074E-01  0.2195076514556E-01  0.0000000000000E+00  0.3334808717158E-01
-0.1458913682433E-01  0.1666754213206E-01  0.0000000000000E+00  0.4513403017539E-01
-0.7365954141517E-02  0.9590522892802E-02  0.0000000000000E+00  0.5162966586319E-01
 0.2506394327632E-03  0.2085209541054E-02  0.0000000000000E+00  0.5254178043860E-01
 0.7591925463528E-02 -0.5318580457669E-02  0.0000000000000E+00  0.4795925594945E-01
 0.1421442631985E-01 -0.1228457348426E-01  0.0000000000000E+00  0.3752344406003E-01
 0.1939975872338E-01 -0.1857467554565E-01  0.0000000000000E+00  0.2290656998869E-01
 0.2279947357809E+00 -0.2781738227536E+00  0.0000000000000E+00 -0.4906077229190E+00
 0.2265278359162E+00 -0.2635307164868E+00  0.0000000000000E+00 -0.2017979356497E+00
 0.1663823553293E+00 -0.1896069270426E+00  0.0000000000000E+00 -0.3510016611886E-01
 0.1091640912571E+00 -0.1218516068530E+00  0.0000000000000E+00  0.2332880861646E-01
 0.7066786661655E-01 -0.7750235772120E-01  0.0000000000000E+00  0.2487639682933E-01
 0.4666071360567E-01 -0.5078406805729E-01  0.0000000000000E+00  0.1074627189544E-01
 0.3080462464402E-01 -0.3348870667886E-01  0.0000000000000E+00 -0.2728954691969E-02
 0.1942703095174E-01 -0.2125757609598E-01  0.0000000000000E+00 -0.1171092691412E-01
 0.1058363420470E-01 -0.1184857724536E-01  0.0000000000000E+00 -0.1606475895995E-01
 0.3296467022117E-02 -0.4164847621355E-02  0.0000000000000E+00 -0.1612905189005E-01
-0.2788314729658E-02  0.2192580542028E-02  0.0000000000000E+00 -0.1214556297711E-01
-0.8004272182053E-02  0.7661983053241E-02  0.0000000000000E+00 -0.5124984625603E-02
-0.1131315562908E-01  0.1123656762790E-01  0.0000000000000E+00  0.5063882114437E-02
-0.1119935091054E-01  0.1126714595268E-01  0.0000000000000E+00  0.1556775423439E-01
-0.8054913899185E-02  0.8134828796452E-02  0.0000000000000E+00  0.2181872737226E-01
-0.2990496083450E-02  0.3015401442008E-02  0.0000000000000E+00  0.2251767617322E-01
 0.2677111813500E-02 -0.2825330127850E-02  0.0000000000000E+00  0.1735412206580E-01
 0.8109897328976E-02 -0.8629083458386E-02  0.0000000000000E+00  0.6228662311344E-02
 0.1265551927366E-01 -0.1392242931260E-01  0.0000000000000E+00 -0.1214555211989E-01
 0.1582134567106E-01 -0.1882093092565E-01  0.0000000000000E+00 -0.3931051350029E-01
 0.2111182954793E+00 -0.2576154260912E+00  0.0000000000000E+00 -0.5040235279099E+00
 0.2238381916993E+00 -0.2606597039028E+00  0.0000000000000E+00 -0.2678412557633E+00
 0.1863229873704E+00 -0.2126068783485E+00  0.0000000000000E+00 -0.9828612643848E-01
 0.1393120401276E+00 -0.1565166867963E+00  0.0000000000000E+00 -0.1256406420765E-01
 0.1009495697017E+00 -0.1120427347961E+00  0.0000000000000E+00  0.1381544258887E-01
 0.7380530536745E-01 -0.8136894819845E-01  0.0000000000000E+00  0.1280825233600E-01
 0.5494479600825E-01 -0.6056275002587E-01  0.0000000000000E+00  0.3347833783034E-02
 0.4129299822326E-01 -0.4575474584102E-01  0.0000000000000E+00 -0.6226365353027E-02
 0.3070507732033E-01 -0.3441927089781E-01  0.0000000000000E+00 -0.1321956478148E-01
 0.2190211646202E-01 -0.2509726674757E-01  0.0000000000000E+00 -0.1693262910418E-01
 0.1430983729557E-01 -0.1713417166465E-01  0.0000000000000E+00 -0.1724878177147E-01
 0.7455181100697E-02 -0.9937150748458E-02  0.0000000000000E+00 -0.1477719814427E-01
 0.2218209883642E-02 -0.4377711266943E-02  0.0000000000000E+00 -0.9762709426445E-02
 0.2743280943156E-03 -0.2291119222133E-02  0.0000000000000E+00 -0.4913648077601E-02
 0.1425622089321E-02 -0.3520748142424E-02  0.0000000000000E+00 -0.4365331311641E-02
 0.4594882873169E-02 -0.6928907039096E-02  0.0000000000000E+00 -0.9548663350824E-02
 0.8585519182828E-02 -0.1134613795081E-01  0.0000000000000E+00 -0.2091344698807E-01
 0.1256139654429E-01 -0.1601406081219E-01  0.0000000000000E+00 -0.3891013582233E-01
 0.1607303096467E-01 -0.2071453628537E-01  0.0000000000000E+00 -0.6543724274137E-01
 0.1934944049842E-01 -0.2634022236361E-01  0.0000000000000E+00 -0.1037314747249E+00
 0.1960659589752E+00 -0.2406807268360E+00  0.0000000000000E+00 -0.5094869061138E+00
 0.2168385360681E+00 -0.2538506091556E+00  0.0000000000000E+00 -0.3134548288662E+00
 0.1967292422371E+00 -0.2252446081985E+00  0.0000000000000E+00 -0.1517576141724E+00
 0.1615017839493E+00 -0.1822670398429E+00  0.0000000000000E+00 -0.5259964471588E-01
 0.1274743649155E+00 -0.1424031718771E+00  0.0000000000000E+00 -0.7725378874422E-02
 0.1003133674167E+00 -0.1113727124642E+00  0.0000000000000E+00  0.5052827964028E-02
 0.7990167626149E-01 -0.8857555270065E-01  0.0000000000000E+00  0.2620207390102E-02
 0.6453856670860E-01 -0.7174840107218E-01  0.0000000000000E+00 -0.5084430409845E-02
 0.5244122234754E-01 -0.5870106184310E-01  0.0000000000000E+00 -0.1320246527228E-01
 0.4228291777179E-01 -0.4789003242410E-01  0.0000000000000E+00 -0.1977347709221E-01
 0.3337071477193E-01 -0.3851187809677E-01  0.0000000000000E+00 -0.2406039498689E-01
 0.2512578455639E-01 -0.2985363339516E-01  0.0000000000000E+00 -0.2611797816876E-01
 0.1825558187209E-01 -0.2263166667346E-01  0.0000000000000E+00 -0.2638581779827E-01
 0.1453747634036E-01 -0.1879324825532E-01  0.0000000000000E+00 -0.2734969302463E-01
 0.1399561585598E-01 -0.1842174767720E-01  0.0000000000000E+00 -0.3261414143525E-01
 0.1561412208898E-01 -0.2044753762709E-01  0.0000000000000E+00 -0.4369740006977E-01
 0.1834887020286E-01 -0.2384830502876E-01  0.0000000000000E+00 -0.6121108089052E-01
 0.2148944310534E-01 -0.2799784396814E-01  0.0000000000000E+00 -0.8586534423978E-01
 0.2494641426424E-01 -0.3307227519186E-01  0.0000000000000E+00 -0.1197418987689E+00
 0.2971837265595E-01 -0.4071167967693E-01  0.0000000000000E+00 -0.1664990714825E+00
 0.1829026644375E+00 -0.2267004019862E+00  0.0000000000000E+00 -0.5101820253458E+00
 0.2082180680136E+00 -0.2457348345898E+00  0.0000000000000E+00 -0.3443915616206E+00
 0.2011512541163E+00 -0.2315500097012E+00  0.0000000000000E+00 -0.1947392112302E+00
 0.1771366510331E+00 -0.2008436149568E+00  0.0000000000000E+00 -0.9105953947472E-01
 0.1494694519909E+00 -0.1677955141755E+00  0.0000000000000E+00 -0.3415279338655E-01
 0.1247147822974E+00 -0.1391267788299E+00  0.0000000000000E+00 -0.9737890171430E-02
 0.1045015402309E+00 -0.1162682233159E+00  0.0000000000000E+00 -0.4364708407971E-02
 0.8842230477299E-01 -0.9846027098257E-01  0.0000000000000E+00 -0.8508992241088E-02
 0.7536046251525E-01 -0.8425022548317E-01  0.0000000000000E+00 -0.1629973875839E-01
 0.6420285183354E-01 -0.7230304615824E-01  0.0000000000000E+00 -0.2473973801110E-01
 0.5427328715587E-01 -0.6181587502217E-01  0.0000000000000E+00 -0.3240437659485E-01
 0.4495438471071E-01 -0.5202615679762E-01  0.0000000000000E+00 -0.3871162070226E-01
 0.3679382541797E-01 -0.4350387015247E-01  0.0000000000000E+00 -0.4416445940351E-01
 0.3163716932251E-01 -0.3826443481840E-01  0.0000000000000E+00 -0.5093156747008E-01
 0.2975595705832E-01 -0.3664600508661E-01  0.0000000000000E+00 -0.6196988882468E-01
 0.3023123190003E-01 -0.3768564197481E-01  0.0000000000000E+00 -0.7879250960502E-01
 0.3219298843501E-01 -0.4053622316755E-01  0.0000000000000E+00 -0.1021014609345E+00
 0.3509913707889E-01 -0.4474636677308E-01  0.0000000000000E+00 -0.1327029446570E+00
 0.3920973334349E-01 -0.5084844332323E-01  0.0000000000000E+00 -0.1724863225243E+00
 0.4612083592325E-01 -0.6101926483057E-01  0.0000000000000E+00 -0.2246963450500E+00
 0.1714053918836E+00 -0.2150644047438E+00  0.0000000000000E+00 -0.5077718917592E+00
 0.1992785742440E+00 -0.2375467075051E+00  0.0000000000000E+00 -0.3645852716923E+00
 0.2019216105710E+00 -0.2340524568628E+00  0.0000000000000E+00 -0.2280176942287E+00
 0.1878083513676E+00 -0.2140763412890E+00  0.0000000000000E+00 -0.1252161333209E+00
 0.1671794636415E+00 -0.1885383261385E+00  0.0000000000000E+00 -0.6154701378549E-01
 0.1463681068065E+00 -0.1639294168352E+00  0.0000000000000E+00 -0.2849981492042E-01
 0.1278674479621E+00 -0.1426751068918E+00  0.0000000000000E+00 -0.1603139922860E-01
 0.1122046116172E+00 -0.1251011976695E+00  0.0000000000000E+00 -0.1596479208922E-01
 0.9893767691751E-01 -0.1105167354195E+00  0.0000000000000E+00 -0.2237677897322E-01
 0.8731083814341E-01 -0.9797292454200E-01  0.0000000000000E+00 -0.3172334956865E-01
 0.7678639115240E-01 -0.8680582887140E-01  0.0000000000000E+00 -0.4202945434685E-01
 0.6678907863494E-01 -0.7629128079511E-01  0.0000000000000E+00 -0.5210341886139E-01
 0.5774107473027E-01 -0.6688546601454E-01  0.0000000000000E+00 -0.6243289465037E-01
 0.5153737973551E-01 -0.6064645310408E-01  0.0000000000000E+00 -0.7478240578365E-01
 0.4871415761907E-01 -0.5817684266273E-01  0.0000000000000E+00 -0.9134674247860E-01
 0.4847584668329E-01 -0.5864698047365E-01  0.0000000000000E+00 -0.1135151824202E+00
 0.5012275642334E-01 -0.6138221560125E-01  0.0000000000000E+00 -0.1419752879207E+00
 0.5326140586461E-01 -0.6608024876178E-01  0.0000000000000E+00 -0.1774744340521E+00
 0.5840438180716E-01 -0.7351283603493E-01  0.0000000000000E+00 -0.2214700866039E+00
 0.6750656203994E-01 -0.8614023738556E-01  0.0000000000000E+00 -0.2763422764192E+00
 0.1612911292185E+00 -0.2052673981977E+00  0.0000000000000E+00 -0.5031517796069E+00
 0.1906501393565E+00 -0.2298584873518E+00  0.0000000000000E+00 -0.3767725989522E+00
 0.2005465114050E+00 -0.2343466405755E+00  0.0000000000000E+00 -0.2528043906905E+00
 0.1948844515020E+00 -0.2234754142488E+00  0.0000000000000E+00 -0.1539639271588E+00
 0.1812341778565E+00 -0.2053493065143E+00  0.0000000000000E+00 -0.8743447217178E-01
 0.1651860740789E+00 -0.1856918987253E+00  0.0000000000000E+00 -0.4867564080839E-01
 0.1495112670443E+00 -0.1672608510187E+00  0.0000000000000E+00 -0.3052029905461E-01
 0.1353005388152E+00 -0.1510379251082E+00  0.0000000000000E+00 -0.2638971543397E-01
 0.1226541565317E+00 -0.1369502265271E+00  0.0000000000000E+00 -0.3088375906962E-01
 0.1111956498904E+00 -0.1244686611928E+00  0.0000000000000E+00 -0.4036783832289E-01
 0.1005938871370E+00 -0.1131509236619E+00  0.0000000000000E+00 -0.5256129572300E-01
 0.9038492116711E-01 -0.1023891313283E+00  0.0000000000000E+00 -0.6578703962034E-01
 0.8090804600522E-01 -0.9256832175641E-01  0.0000000000000E+00 -0.8049180975147E-01
 0.7409460131545E-01 -0.8577239193645E-01  0.0000000000000E+00 -0.9797847880095E-01
 0.7074774951178E-01 -0.8286481471036E-01  0.0000000000000E+00 -0.1195946328973E+00
 0.7020611012744E-01 -0.8315855674316E-01  0.0000000000000E+00 -0.1464914791863E+00
 0.7191405688804E-01 -0.8612315606070E-01  0.0000000000000E+00 -0.1792450243724E+00
 0.7557479503351E-01 -0.9154757990666E-01  0.0000000000000E+00 -0.2184390378048E+00
 0.8183061138037E-01 -0.1003084335118E+00  0.0000000000000E+00 -0.2649919522569E+00
 0.9276532539669E-01 -0.1149192372646E+00  0.0000000000000E+00 -0.3202524261742E+00
 0.1522930471166E+00 -0.1969048955796E+00  0.0000000000000E+00 -0.4968085627399E+00
 0.1826162886245E+00 -0.2229098183311E+00  0.0000000000000E+00 -0.3828815484162E+00
 0.1979934381199E+00 -0.2334395613458E+00  0.0000000000000E+00 -0.2703344129416E+00
 0.1994354476927E+00 -0.2301964014284E+00  0.0000000000000E+00 -0.1770411342473E+00
 0.1923387558827E+00 -0.2190046447403E+00  0.0000000000000E+00 -0.1103710457939E+00
 0.1813770922792E+00 -0.2046455587876E+00  0.0000000000000E+00 -0.6836800173192E-01
 0.1692510448058E+00 -0.1898252640468E+00  0.0000000000000E+00 -0.4610949414817E-01
 0.1573237162584E+00 -0.1758504914173E+00  0.0000000000000E+00 -0.3852314790056E-01
 0.1460696492431E+00 -0.1630791344210E+00  0.0000000000000E+00 -0.4098735399235E-01
 0.1354414146262E+00 -0.1513505054069E+00  0.0000000000000E+00 -0.5009244532392E-01
 0.1253282593623E+00 -0.1404644892828E+00  0.0000000000000E+00 -0.6349107625954E-01
 0.1154191405012E+00 -0.1299786285915E+00  0.0000000000000E+00 -0.7919355235870E-01
 0.1060086649501E+00 -0.1202453035075E+00  0.0000000000000E+00 -0.9761829613318E-01
 0.9904817877646E-01 -0.1133563275112E+00  0.0000000000000E+00 -0.1195907704714E+00
 0.9559109917137E-01 -0.1104148845847E+00  0.0000000000000E+00 -0.1455797150352E+00
 0.9510603440081E-01 -0.1108701509522E+00  0.0000000000000E+00 -0.1764128192808E+00
 0.9714356526637E-01 -0.1142954421350E+00  0.0000000000000E+00 -0.2124886184620E+00
 0.1014449073851E+00 -0.1205084776809E+00  0.0000000000000E+00 -0.2541799407390E+00
 0.1086669103803E+00 -0.1303707424899E+00  0.0000000000000E+00 -0.3018618377670E+00
 0.1208324944337E+00 -0.1462655445476E+00  0.0000000000000E+00 -0.3558682456368E+00
 0.1441813920416E+00 -0.1896570160521E+00  0.0000000000000E+00 -0.4890021748664E+00
 0.1752767166481E+00 -0.2167672415651E+00  0.0000000000000E+00 -0.3842849683307E+00
 0.1948775641896E+00 -0.2319636165172E+00  0.0000000000000E+00 -0.2817247902748E+00
 0.2022632579589E+00 -0.2350915263029E+00  0.0000000000000E+00 -0.1946129573015E+00
 0.2011421640215E+00 -0.2302051438134E+00  0.0000000000000E+00 -0.1295914306199E+00
 0.1952731051691E+00 -0.2211499882566E+00  0.0000000000000E+00 -0.8626755051187E-01
 0.1871007821836E+00 -0.2103809159082E+00  0.0000000000000E+00 -0.6138107009801E-01
 0.1780597142947E+00 -0.1993045868571E+00  0.0000000000000E+00 -0.5113521681949E-01
 0.1688472241935E+00 -0.1885409065894E+00  0.0000000000000E+00 -0.5173654965670E-01
 0.1596660073904E+00 -0.1782120641023E+00  0.0000000000000E+00 -0.6017159164151E-01
 0.1506029118181E+00 -0.1683382338861E+00  0.0000000000000E+00 -0.7420485365173E-01
 0.1415127058818E+00 -0.1586597148192E+00  0.0000000000000E+00 -0.9170539409198E-01
 0.1326715766130E+00 -0.1495218931346E+00  0.0000000000000E+00 -0.1130910557735E+00
 0.1260259542919E+00 -0.1429991830036E+00  0.0000000000000E+00 -0.1387350784742E+00
 0.1228428085294E+00 -0.1403948308622E+00  0.0000000000000E+00 -0.1682610125074E+00
 0.1227062957991E+00 -0.1412776201032E+00  0.0000000000000E+00 -0.2021303564241E+00
 0.1252350633942E+00 -0.1452846852525E+00  0.0000000000000E+00 -0.2405371363766E+00
 0.1301589278831E+00 -0.1522117131892E+00  0.0000000000000E+00 -0.2836459906514E+00
 0.1380563439251E+00 -0.1628119286292E+00  0.0000000000000E+00 -0.3313540942679E+00
 0.1507454712226E+00 -0.1792035820695E+00  0.0000000000000E+00 -0.3830988228642E+00
 0.1367663487975E+00 -0.1832719573406E+00  0.0000000000000E+00 -0.4798635135470E+00
 0.1686327372589E+00 -0.2114065122464E+00  0.0000000000000E+00 -0.3819674186390E+00
 0.1915814050122E+00 -0.2303077641691E+00  0.0000000000000E+00 -0.2879354567726E+00
 0.2039515456761E+00 -0.2387741534412E+00  0.0000000000000E+00 -0.2070469325228E+00
 0.2081909094198E+00 -0.2395331400592E+00  0.0000000000000E+00 -0.1447630920201E+00
 0.2072310783276E+00 -0.2355869634960E+00  0.0000000000000E+00 -0.1015262750489E+00
 0.2031797896283E+00 -0.2290531082866E+00  0.0000000000000E+00 -0.7525022633144E-01
 0.1974172577554E+00 -0.2212988463812E+00  0.0000000000000E+00 -0.6314901502279E-01
 0.1907458509994E+00 -0.2130754285500E+00  0.0000000000000E+00 -0.6219400945878E-01
 0.1835376861489E+00 -0.2046995957989E+00  0.0000000000000E+00 -0.6982947274518E-01
 0.1760362869397E+00 -0.1963683989077E+00  0.0000000000000E+00 -0.8403888236746E-01
 0.1682532556563E+00 -0.1879974494070E+00  0.0000000000000E+00 -0.1026908461173E+00
 0.1604594909847E+00 -0.1799362169026E+00  0.0000000000000E+00 -0.1262259467058E+00
 0.1545620979027E+00 -0.1742073177193E+00  0.0000000000000E+00 -0.1546218745513E+00
 0.1519877775015E+00 -0.1722586612874E+00  0.0000000000000E+00 -0.1867536619395E+00
 0.1524175476260E+00 -0.1737582358916E+00  0.0000000000000E+00 -0.2227191429454E+00
 0.1555084707105E+00 -0.1783766932499E+00  0.0000000000000E+00 -0.2625173920952E+00
 0.1609468592277E+00 -0.1858562278055E+00  0.0000000000000E+00 -0.3061460392814E+00
 0.1691651156776E+00 -0.1967768369303E+00  0.0000000000000E+00 -0.3531346382573E+00
 0.1816704114228E+00 -0.2128953948838E+00  0.0000000000000E+00 -0.4021862079505E+00
 0.1298947669131E+00 -0.1775519742723E+00  0.0000000000000E+00 -0.4694494621374E+00
 0.1626340875141E+00 -0.2067569166364E+00  0.0000000000000E+00 -0.3766376897765E+00
 0.1883320469923E+00 -0.2287000213427E+00  0.0000000000000E+00 -0.2897696561958E+00
 0.2049136645838E+00 -0.2416748810520E+00  0.0000000000000E+00 -0.2147918061455E+00
 0.2139209580982E+00 -0.2474485089260E+00  0.0000000000000E+00 -0.1558228809540E+00
 0.2175820567576E+00 -0.2483071068000E+00  0.0000000000000E+00 -0.1136379450278E+00
 0.2176503043100E+00 -0.2460121325321E+00  0.0000000000000E+00 -0.8693502575589E-01
 0.2153812468133E+00 -0.2418137992491E+00  0.0000000000000E+00 -0.7368856339465E-01
 0.2115992464169E+00 -0.2365027984603E+00  0.0000000000000E+00 -0.7151964946505E-01
 0.2067761399954E+00 -0.2305140039336E+00  0.0000000000000E+00 -0.7832075612204E-01
 0.2012663239348E+00 -0.2241717448993E+00  0.0000000000000E+00 -0.9234081185557E-01
 0.1952157628510E+00 -0.2175439732198E+00  0.0000000000000E+00 -0.1115482527184E+00
 0.1888924533725E+00 -0.2109833566694E+00  0.0000000000000E+00 -0.1364153505634E+00
 0.1841228350133E+00 -0.2064193523390E+00  0.0000000000000E+00 -0.1666004943793E+00
 0.1824279538606E+00 -0.2053787213760E+00  0.0000000000000E+00 -0.2003762331204E+00
 0.1835683774924E+00 -0.2076101457815E+00  0.0000000000000E+00 -0.2375169000529E+00
 0.1872242708329E+00 -0.2128028363501E+00  0.0000000000000E+00 -0.2778640103246E+00
 0.1930270635150E+00 -0.2206361424895E+00  0.0000000000000E+00 -0.3213167507988E+00
 0.2012190678280E+00 -0.2314771221257E+00  0.0000000000000E+00 -0.3671786176846E+00
 0.2129113232651E+00 -0.2466466039934E+00  0.0000000000000E+00 -0.4135938706499E+00
 0.1234452158251E+00 -0.1723421395014E+00  0.0000000000000E+00 -0.4577749947500E+00
 0.1572052877057E+00 -0.2027258762558E+00  0.0000000000000E+00 -0.3688062658305E+00
 0.1852518302276E+00 -0.2272605682904E+00  0.0000000000000E+00 -0.2878885424460E+00
 0.2054322646206E+00 -0.2440858457445E+00  0.0000000000000E+00 -0.2183121750437E+00
 0.2186654184139E+00 -0.2542996976986E+00  0.0000000000000E+00 -0.1628707953578E+00
 0.2266081461029E+00 -0.2596067331760E+00  0.0000000000000E+00 -0.1223419103625E+00
 0.2306788286759E+00 -0.2614318716195E+00  0.0000000000000E+00 -0.9590726724089E-01
 0.2319761379919E+00 -0.2608722616187E+00  0.0000000000000E+00 -0.8208459965864E-01
 0.2312927374941E+00 -0.2586985357772E+00  0.0000000000000E+00 -0.7901428045873E-01
 0.2291457474783E+00 -0.2554039910546E+00  0.0000000000000E+00 -0.8498755418211E-01
 0.2259575515189E+00 -0.2513934377016E+00  0.0000000000000E+00 -0.9852223052751E-01
 0.2219795669112E+00 -0.2468566239766E+00  0.0000000000000E+00 -0.1177485303700E+00
 0.2174720385836E+00 -0.2421406586487E+00  0.0000000000000E+00 -0.1431639688035E+00
 0.2141364785245E+00 -0.2390373705130E+00  0.0000000000000E+00 -0.1741935461652E+00
 0.2135176741447E+00 -0.2390823191243E+00  0.0000000000000E+00 -0.2086828297787E+00
 0.2154437571353E+00 -0.2420919326049E+00  0.0000000000000E+00 -0.2461450690187E+00
 0.2196204153410E+00 -0.2477774223504E+00  0.0000000000000E+00 -0.2863153750421E+00
 0.2256360388213E+00 -0.2557697348872E+00  0.0000000000000E+00 -0.3290797560008E+00
 0.2335218988462E+00 -0.2662073993250E+00  0.0000000000000E+00 -0.3736874195739E+00
 0.2439088384824E+00 -0.2799025202697E+00  0.0000000000000E+00 -0.4179133006669E+00
 0.1173229417402E+00 -0.1675214398852E+00  0.0000000000000E+00 -0.4448325626130E+00
 0.1522607026546E+00 -0.1992127986428E+00  0.0000000000000E+00 -0.3588397241916E+00
 0.1823922426361E+00 -0.2260367775316E+00  0.0000000000000E+00 -0.2828294724105E+00
 0.2056904684812E+00 -0.2461946057678E+00  0.0000000000000E+00 -0.2180533380273E+00
 0.2226677690843E+00 -0.2603394052402E+00  0.0000000000000E+00 -0.1661008682410E+00
 0.2345349837359E+00 -0.2697209714215E+00  0.0000000000000E+00 -0.1275502595708E+00
 0.2424143948779E+00 -0.2754668853820E+00  0.0000000000000E+00 -0.1018423522112E+00
 0.2472406349881E+00 -0.2785121163642E+00  0.0000000000000E+00 -0.8785957805593E-01
 0.2497436399508E+00 -0.2795724563125E+00  0.0000000000000E+00 -0.8413570923522E-01
 0.2504465734008E+00 -0.2791564746872E+00  0.0000000000000E+00 -0.8929325954285E-01
 0.2498037159442E+00 -0.2777098987465E+00  0.0000000000000E+00 -0.1020960960333E+00
 0.2481416769898E+00 -0.2755119430761E+00  0.0000000000000E+00 -0.1208677607240E+00
 0.2457044474367E+00 -0.2728916835247E+00  0.0000000000000E+00 -0.1461140441057E+00
 0.2440252869556E+00 -0.2714598390627E+00  0.0000000000000E+00 -0.1771170868251E+00
 0.2446018835370E+00 -0.2726909915421E+00  0.0000000000000E+00 -0.2114798588589E+00
 0.2473234479467E+00 -0.2764621369233E+00  0.0000000000000E+00 -0.2485194466088E+00
 0.2519422186071E+00 -0.2825279335204E+00  0.0000000000000E+00 -0.2879073840140E+00
 0.2580430586654E+00 -0.2905135373297E+00  0.0000000000000E+00 -0.3296034596941E+00
 0.2654560148645E+00 -0.3003441397151E+00  0.0000000000000E+00 -0.3730116808662E+00
 0.2742324422891E+00 -0.3122376407275E+00  0.0000000000000E+00 -0.4157820082175E+00
 0.1114551984646E+00 -0.1629956188861E+00  0.0000000000000E+00 -0.4306042355025E+00
 0.1477130515588E+00 -0.1961167569188E+00  0.0000000000000E+00 -0.3469994876318E+00
 0.1797570526499E+00 -0.2250268811495E+00  0.0000000000000E+00 -0.2750237039764E+00
 0.2057961979198E+00 -0.2481100641490E+00  0.0000000000000E+00 -0.2144225882743E+00
 0.2260963444842E+00 -0.2657407716606E+00  0.0000000000000E+00 -0.1657557756870E+00
 0.2415325567332E+00 -0.2788254103270E+00  0.0000000000000E+00 -0.1292939788618E+00
 0.2529780575892E+00 -0.2882415442175E+00  0.0000000000000E+00 -0.1045748969007E+00
 0.2612119018520E+00 -0.2947694314885E+00  0.0000000000000E+00 -0.9070424471074E-01
 0.2668868265260E+00 -0.2990531157791E+00  0.0000000000000E+00 -0.8649788916862E-01
 0.2705060740569E+00 -0.3015876202713E+00  0.0000000000000E+00 -0.9083801044821E-01
 0.2725280187839E+00 -0.3028289408781E+00  0.0000000000000E+00 -0.1026984647482E+00
 0.2733263599674E+00 -0.3031155585480E+00  0.0000000000000E+00 -0.1206062300845E+00
 0.2731202901389E+00 -0.3027464914961E+00  0.0000000000000E+00 -0.1450549937118E+00
 0.2732369351672E+00 -0.3031134083761E+00  0.0000000000000E+00 -0.1752794498491E+00
 0.2750571809414E+00 -0.3055626695904E+00  0.0000000000000E+00 -0.2088225089596E+00
 0.2785243062313E+00 -0.3100223191756E+00  0.0000000000000E+00 -0.2448514626422E+00
 0.2834704996121E+00 -0.3163247721283E+00  0.0000000000000E+00 -0.2829790541054E+00
 0.2895520762245E+00 -0.3241637523711E+00  0.0000000000000E+00 -0.3232888693059E+00
 0.2964638365992E+00 -0.3333255357308E+00  0.0000000000000E+00 -0.3655913150223E+00
 0.3035664280318E+00 -0.3433375562962E+00  0.0000000000000E+00 -0.4078063336611E+00
 0.1057869232048E+00 -0.1586911751239E+00  0.0000000000000E+00 -0.4150696664647E+00
 0.1434778278749E+00 -0.1933402726896E+00  0.0000000000000E+00 -0.3334693422640E+00
 0.1773184268100E+00 -0.2241964213720E+00  0.0000000000000E+00 -0.2648114882204E+00
 0.2058014408673E+00 -0.2498826911305E+00  0.0000000000000E+00 -0.2077792838358E+00
 0.2290585619355E+00 -0.2706128305671E+00  0.0000000000000E+00 -0.1620964882600E+00
 0.2477205132410E+00 -0.2870421805676E+00  0.0000000000000E+00 -0.1276835107088E+00
 0.2624595891708E+00 -0.2998467595687E+00  0.0000000000000E+00 -0.1040617410507E+00
 0.2739169858057E+00 -0.3096693422491E+00  0.0000000000000E+00 -0.9045217898605E-01
 0.2826653803173E+00 -0.3170777025880E+00  0.0000000000000E+00 -0.8586045406332E-01
 0.2891728488874E+00 -0.3225360529122E+00  0.0000000000000E+00 -0.8936117490009E-01
 0.2938823289933E+00 -0.3264887638782E+00  0.0000000000000E+00 -0.1000974470156E+00
 0.2971907525214E+00 -0.3293078796955E+00  0.0000000000000E+00 -0.1167952843079E+00
 0.2992882101247E+00 -0.3312552408868E+00  0.0000000000000E+00 -0.1399170878490E+00
 0.3012693244335E+00 -0.3334777117579E+00  0.0000000000000E+00 -0.1687531709305E+00
 0.3043348286885E+00 -0.3371330653537E+00  0.0000000000000E+00 -0.2009702480784E+00
 0.3084539270422E+00 -0.3421741644910E+00  0.0000000000000E+00 -0.2356284443169E+00
 0.3135633177244E+00 -0.3485234084536E+00  0.0000000000000E+00 -0.2721932884182E+00
 0.3194999764766E+00 -0.3560591375203E+00  0.0000000000000E+00 -0.3108146588698E+00
 0.3260032110034E+00 -0.3646030116890E+00  0.0000000000000E+00 -0.3519385492349E+00
 0.3316856720263E+00 -0.3729689804729E+00  0.0000000000000E+00 -0.3944781231850E+00
 0.1002764265499E+00 -0.1545495407093E+00  0.0000000000000E+00 -0.3982108965687E+00
 0.1394749928124E+00 -0.1907907727317E+00  0.0000000000000E+00 -0.3183738297788E+00
 0.1750285213380E+00 -0.2234898296491E+00  0.0000000000000E+00 -0.2524533053416E+00
 0.2057182387809E+00 -0.2515214186312E+00  0.0000000000000E+00 -0.1984290515679E+00
 0.2316147430331E+00 -0.2750151051073E+00  0.0000000000000E+00 -0.1553820360938E+00
 0.2531760023871E+00 -0.2944485197581E+00  0.0000000000000E+00 -0.1228801174071E+00
 0.2709186964051E+00 -0.3103414329509E+00  0.0000000000000E+00 -0.1003525464103E+00
 0.2853692063848E+00 -0.3232221103872E+00  0.0000000000000E+00 -0.8705523425174E-01
 0.2970254805320E+00 -0.3335865564605E+00  0.0000000000000E+00 -0.8211299713630E-01
 0.3063129128260E+00 -0.3418586814055E+00  0.0000000000000E+00 -0.8473515724085E-01
 0.3136466038363E+00 -0.3484572803541E+00  0.0000000000000E+00 -0.9419344870948E-01
 0.3194270731250E+00 -0.3537663697086E+00  0.0000000000000E+00 -0.1093980521397E+00
 0.3238189718171E+00 -0.3580122550136E+00  0.0000000000000E+00 -0.1307581055529E+00
 0.3276798496510E+00 -0.3620934401993E+00  0.0000000000000E+00 -0.1577267234727E+00
 0.3319823862724E+00 -0.3669366375216E+00  0.0000000000000E+00 -0.1882876815326E+00
 0.3366836480135E+00 -0.3724814130178E+00  0.0000000000000E+00 -0.2214805541487E+00
 0.3417451796617E+00 -0.3786753820708E+00  0.0000000000000E+00 -0.2565624337963E+00
 0.3472834378872E+00 -0.3856030377575E+00  0.0000000000000E+00 -0.2932810994965E+00
 0.3534716501807E+00 -0.3935758598711E+00  0.0000000000000E+00 -0.3327465521128E+00
 0.3584002690682E+00 -0.4009010119128E+00  0.0000000000000E+00 -0.3761130102523E+00
 0.9489045876377E-01 -0.1505220321543E+00  0.0000000000000E+00 -0.3800181666010E+00
 0.1356280589637E+00 -0.1883777610548E+00  0.0000000000000E+00 -0.3017873309091E+00
 0.1728290668042E+00 -0.2228417330121E+00  0.0000000000000E+00 -0.2381341596299E+00
 0.2055334053955E+00 -0.2530081374382E+00  0.0000000000000E+00 -0.1866215675869E+00
 0.2337918265756E+00 -0.2789724526497E+00  0.0000000000000E+00 -0.1458557855540E+00
 0.2579433252553E+00 -0.3010869176355E+00  0.0000000000000E+00 -0.1150768562963E+00
 0.2783889990009E+00 -0.3197566559229E+00  0.0000000000000E+00 -0.9356768776364E-01
 0.2955673895462E+00 -0.3354225042842E+00  0.0000000000000E+00 -0.8056246178381E-01
 0.3099138685681E+00 -0.3485197187908E+00  0.0000000000000E+00 -0.7525524920047E-01
 0.3218090259732E+00 -0.3594303589663E+00  0.0000000000000E+00 -0.7695182166120E-01
 0.3316304044551E+00 -0.3685334578849E+00  0.0000000000000E+00 -0.8501457658758E-01
 0.3397644130033E+00 -0.3762074574212E+00  0.0000000000000E+00 -0.9851052915696E-01
 0.3463626798495E+00 -0.3826538474004E+00  0.0000000000000E+00 -0.1177626948207E+00
 0.3520706262414E+00 -0.3885474418319E+00  0.0000000000000E+00 -0.1424736934910E+00
 0.3576211139610E+00 -0.3945793210538E+00  0.0000000000000E+00 -0.1711364297349E+00
 0.3629291680419E+00 -0.4006528237523E+00  0.0000000000000E+00 -0.2029138194038E+00
 0.3679079824100E+00 -0.4066611556176E+00  0.0000000000000E+00 -0.2370094865566E+00
 0.3725671717477E+00 -0.4126165339867E+00  0.0000000000000E+00 -0.2726189410510E+00
 0.3780843139978E+00 -0.4194041247820E+00  0.0000000000000E+00 -0.3094071142180E+00
 0.3834195329134E+00 -0.4267508768793E+00  0.0000000000000E+00 -0.3526753346433E+00
 0.8959714275643E-01 -0.1465495037100E+00  0.0000000000000E+00 -0.3604642865365E+00
 0.1318669710321E+00 -0.1860265572550E+00  0.0000000000000E+00 -0.2837184929666E+00
 0.1706615662031E+00 -0.2221806027557E+00  0.0000000000000E+00 -0.2219749224550E+00
 0.2052221792831E+00 -0.2543148065761E+00  0.0000000000000E+00 -0.1725404028144E+00
 0.2356003078866E+00 -0.2824926129414E+00  0.0000000000000E+00 -0.1337420956909E+00
 0.2620439386562E+00 -0.3069753891318E+00  0.0000000000000E+00 -0.1044910935405E+00
 0.2848826265105E+00 -0.3281002844387E+00  0.0000000000000E+00 -0.8388267440782E-01
 0.3044977280273E+00 -0.3462517375301E+00  0.0000000000000E+00 -0.7110197643597E-01
 0.3212745707323E+00 -0.3618149592835E+00  0.0000000000000E+00 -0.6538252261609E-01
 0.3355590359521E+00 -0.3751374994093E+00  0.0000000000000E+00 -0.6609161532355E-01
 0.3476841938080E+00 -0.3865626497933E+00  0.0000000000000E+00 -0.7269717591880E-01
 0.3579767591434E+00 -0.3963960807957E+00  0.0000000000000E+00 -0.8438114438273E-01
 0.3666059813959E+00 -0.4048517454779E+00  0.0000000000000E+00 -0.1012597584786E+00
 0.3740732221144E+00 -0.4124619240263E+00  0.0000000000000E+00 -0.1233851679432E+00
 0.3808767229524E+00 -0.4196731509472E+00  0.0000000000000E+00 -0.1499048967254E+00
 0.3869167762038E+00 -0.4263912967028E+00  0.0000000000000E+00 -0.1802022152972E+00
 0.3920303237888E+00 -0.4324542605588E+00  0.0000000000000E+00 -0.2136503189906E+00
 0.3960573483958E+00 -0.4376777092601E+00  0.0000000000000E+00 -0.2496190302476E+00
 0.3993642720267E+00 -0.4424608475106E+00  0.0000000000000E+00 -0.2866020547472E+00
 0.4058793734570E+00 -0.4487784383253E+00  0.0000000000000E+00 -0.3260181754466E+00
 0.1120715635191E+00 -0.1615049583412E+00  0.0000000000000E+00  0.6083894478428E+00
 0.1337738336388E+00 -0.1815124793647E+00  0.0000000000000E+00  0.5416803078294E+00
 0.1564379844874E+00 -0.2023661812042E+00  0.0000000000000E+00  0.4846872151414E+00
 0.1776959410584E+00 -0.2217851617525E+00  0.0000000000000E+00  0.4365415188073E+00
 0.1964358573029E+00 -0.2387215657434E+00  0.0000000000000E+00  0.3969068964303E+00
 0.2121631609578E+00 -0.2527214203152E+00  0.0000000000000E+00  0.3655255412092E+00
 0.2246953421493E+00 -0.2636287646341E+00  0.0000000000000E+00  0.3419384596135E+00
 0.2340308585369E+00 -0.2714572159151E+00  0.0000000000000E+00  0.3255388816280E+00
 0.2402640902193E+00 -0.2763082317293E+00  0.0000000000000E+00  0.3156188158511E+00
 0.2435278844670E+00 -0.2783174017120E+00  0.0000000000000E+00  0.3114627485479E+00
 0.2439897935627E+00 -0.2776575583290E+00  0.0000000000000E+00  0.3123767218576E+00
 0.2418457014205E+00 -0.2745002018961E+00  0.0000000000000E+00  0.3173686469645E+00
 0.2372321316212E+00 -0.2689997881530E+00  0.0000000000000E+00  0.3261824500792E+00
 0.2305198145653E+00 -0.2615456390495E+00  0.0000000000000E+00  0.3386453878515E+00
 0.2220814337778E+00 -0.2524528934310E+00  0.0000000000000E+00  0.3536846888927E+00
 0.2118315855051E+00 -0.2416098066739E+00  0.0000000000000E+00  0.3702711138847E+00
 0.1996502876389E+00 -0.2288586692838E+00  0.0000000000000E+00  0.3872263491254E+00
 0.1854582277910E+00 -0.2140464146549E+00  0.0000000000000E+00  0.4034189758039E+00
 0.1697129660173E+00 -0.1976574176919E+00  0.0000000000000E+00  0.4171884391226E+00
 0.1560063918618E+00 -0.1812305306107E+00  0.0000000000000E+00  0.4293656256050E+00
 0.1174353412208E+00 -0.1656751512054E+00  0.0000000000000E+00  0.6166075503361E+00
 0.1378676638276E+00 -0.1843755128809E+00  0.0000000000000E+00  0.5499694637093E+00
 0.1592489640851E+00 -0.2038364990168E+00  0.0000000000000E+00  0.4915234948511E+00
 0.1788437459184E+00 -0.2214642534455E+00  0.0000000000000E+00  0.4408338398577E+00
 0.1955125653802E+00 -0.2362067979615E+00  0.0000000000000E+00  0.3981249325624E+00
 0.2088614461359E+00 -0.2477180334355E+00  0.0000000000000E+00  0.3636167615016E+00
 0.2188237142154E+00 -0.2559567854848E+00  0.0000000000000E+00  0.3371168863401E+00
 0.2255027061695E+00 -0.2610422742172E+00  0.0000000000000E+00  0.3181288867549E+00
 0.2290878251714E+00 -0.2631708865302E+00  0.0000000000000E+00  0.3059552820883E+00
 0.2297927269785E+00 -0.2625587452963E+00  0.0000000000000E+00  0.2998423107784E+00
 0.2278693215653E+00 -0.2594556855818E+00  0.0000000000000E+00  0.2990228487837E+00
 0.2236096286011E+00 -0.2541362372357E+00  0.0000000000000E+00  0.3024196455852E+00
 0.2171878070968E+00 -0.2468045297363E+00  0.0000000000000E+00  0.3100492604017E+00
 0.2090717301594E+00 -0.2379457090044E+00  0.0000000000000E+00  0.3217882626629E+00
 0.1997860364039E+00 -0.2280331773410E+00  0.0000000000000E+00  0.3362158575696E+00
 0.1892596968865E+00 -0.2169573962431E+00  0.0000000000000E+00  0.3521146066017E+00
 0.1774303211995E+00 -0.2045963803821E+00  0.0000000000000E+00  0.3682046847025E+00
 0.1642894810129E+00 -0.1909073049500E+00  0.0000000000000E+00  0.3832991621379E+00
 0.1509500752220E+00 -0.1766469366463E+00  0.0000000000000E+00  0.3968218666243E+00
 0.1360581535738E+00 -0.1611873799609E+00  0.0000000000000E+00  0.4139929579477E+00
 0.1228964884101E+00 -0.1700019932968E+00  0.0000000000000E+00  0.6236699988837E+00
 0.1422567716615E+00 -0.1875631197061E+00  0.0000000000000E+00  0.5569960438035E+00
 0.1624651893779E+00 -0.2057307746761E+00  0.0000000000000E+00  0.4965281207706E+00
 0.1803948566138E+00 -0.2215482041764E+00  0.0000000000000E+00  0.4426524057516E+00
 0.1948810189497E+00 -0.2339670284003E+00  0.0000000000000E+00  0.3963573160130E+00
 0.2056789456927E+00 -0.2427996551596E+00  0.0000000000000E+00  0.3583807340908E+00
 0.2128916681488E+00 -0.2481771475888E+00  0.0000000000000E+00  0.3287698231349E+00
 0.2167683291548E+00 -0.2503655795632E+00  0.0000000000000E+00  0.3071100505558E+00
 0.2176159875521E+00 -0.2496782268199E+00  0.0000000000000E+00  0.2926814452325E+00
 0.2157443842138E+00 -0.2464247981642E+00  0.0000000000000E+00  0.2846566810492E+00
 0.2114864103838E+00 -0.2409370529555E+00  0.0000000000000E+00  0.2822046626618E+00
 0.2051806453017E+00 -0.2335302250242E+00  0.0000000000000E+00  0.2841371086638E+00
 0.1970399339803E+00 -0.2244545770229E+00  0.0000000000000E+00  0.2905890333357E+00
 0.1876700191450E+00 -0.2143426499471E+00  0.0000000000000E+00  0.3014949783333E+00
 0.1777292095642E+00 -0.2037998930140E+00  0.0000000000000E+00  0.3152211911918E+00
 0.1671627740605E+00 -0.1927254899221E+00  0.0000000000000E+00  0.3304581703446E+00
 0.1559084346189E+00 -0.1810052779780E+00  0.0000000000000E+00  0.3459986044634E+00
 0.1440049561604E+00 -0.1685941760162E+00  0.0000000000000E+00  0.3611951483573E+00
 0.1314489261810E+00 -0.1555668497407E+00  0.0000000000000E+00  0.3769475185696E+00
 0.1160019530776E+00 -0.1398129708330E+00  0.0000000000000E+00  0.3942395526840E+00
 0.1284893934417E+00 -0.1745191013638E+00  0.0000000000000E+00  0.6296076089715E+00
 0.1470341063622E+00 -0.1911876145005E+00  0.0000000000000E+00  0.5626880468291E+00
 0.1661789213563E+00 -0.2081482833381E+00  0.0000000000000E+00  0.4995531408583E+00
 0.1823840810298E+00 -0.2220737439215E+00  0.0000000000000E+00  0.4417736628447E+00
 0.1945178847086E+00 -0.2319778293566E+00  0.0000000000000E+00  0.3913630689231E+00
 0.2025544121208E+00 -0.2379038847639E+00  0.0000000000000E+00  0.3496296175452E+00
 0.2068238276151E+00 -0.2402137511013E+00  0.0000000000000E+00  0.3168175417987E+00
 0.2077594590867E+00 -0.2393594115738E+00  0.0000000000000E+00  0.2925373676013E+00
 0.2058063608151E+00 -0.2357906117614E+00  0.0000000000000E+00  0.2759903135321E+00
 0.2013728639101E+00 -0.2299136103425E+00  0.0000000000000E+00  0.2662307890281E+00
 0.1948613264815E+00 -0.2221274629827E+00  0.0000000000000E+00  0.2623224364692E+00
 0.1866357284407E+00 -0.2127654433834E+00  0.0000000000000E+00  0.2629219037035E+00
 0.1769462081367E+00 -0.2021208551618E+00  0.0000000000000E+00  0.2682207867540E+00
 0.1665373884269E+00 -0.1909725018374E+00  0.0000000000000E+00  0.2782299048054E+00
 0.1561628620125E+00 -0.1800233313137E+00  0.0000000000000E+00  0.2912363373423E+00
 0.1457325712069E+00 -0.1691364926513E+00  0.0000000000000E+00  0.3059478295743E+00
 0.1351095466966E+00 -0.1581178753657E+00  0.0000000000000E+00  0.3213446994948E+00
 0.1240058731767E+00 -0.1466627210906E+00  0.0000000000000E+00  0.3371535452554E+00
 0.1119173163857E+00 -0.1342711433410E+00  0.0000000000000E+00  0.3536343015208E+00
 0.9711047903405E-01 -0.1193049266341E+00  0.0000000000000E+00  0.3697566681435E+00
 0.1342638665676E+00 -0.1792905098395E+00  0.0000000000000E+00  0.6344845604797E+00
 0.1522950310989E+00 -0.1953543858098E+00  0.0000000000000E+00  0.5669661905900E+00
 0.1704633395188E+00 -0.2111694651539E+00  0.0000000000000E+00  0.5003606382285E+00
 0.1848187874207E+00 -0.2230490625711E+00  0.0000000000000E+00  0.4378899481217E+00
 0.1943600740263E+00 -0.2301737697559E+00  0.0000000000000E+00  0.3828617034289E+00
 0.1993783443593E+00 -0.2329176099943E+00  0.0000000000000E+00  0.3371845441991E+00
 0.2004953042046E+00 -0.2319386329907E+00  0.0000000000000E+00  0.3012269014423E+00
 0.1983638401293E+00 -0.2279102353183E+00  0.0000000000000E+00  0.2745387870459E+00
 0.1935792915072E+00 -0.2214302757247E+00  0.0000000000000E+00  0.2561603513930E+00
 0.1866429095638E+00 -0.2129941859092E+00  0.0000000000000E+00  0.2449604365492E+00
 0.1780113197925E+00 -0.2030512712442E+00  0.0000000000000E+00  0.2398450757451E+00
 0.1680536783084E+00 -0.1919306938620E+00  0.0000000000000E+00  0.2392817403097E+00
 0.1570481792810E+00 -0.1799572990407E+00  0.0000000000000E+00  0.2434795876972E+00
 0.1458579145046E+00 -0.1680349393968E+00  0.0000000000000E+00  0.2525495397902E+00
 0.1352699306536E+00 -0.1569048500274E+00  0.0000000000000E+00  0.2648099975721E+00
 0.1251060155096E+00 -0.1463390352277E+00  0.0000000000000E+00  0.2790351363827E+00
 0.1150697011294E+00 -0.1359935221333E+00  0.0000000000000E+00  0.2943141876759E+00
 0.1046548824504E+00 -0.1253314612027E+00  0.0000000000000E+00  0.3102738364718E+00
 0.9324271645814E-01 -0.1137341090092E+00  0.0000000000000E+00  0.3266215494525E+00
 0.7974504014271E-01 -0.1001551084861E+00  0.0000000000000E+00  0.3416802002188E+00
 0.1402853591568E+00 -0.1843977286360E+00  0.0000000000000E+00  0.6383644002114E+00
 0.1581443660378E+00 -0.2001795925845E+00  0.0000000000000E+00  0.5696979853688E+00
 0.1753732140419E+00 -0.2148538439825E+00  0.0000000000000E+00  0.4986282716339E+00
 0.1876632775981E+00 -0.2244376523672E+00  0.0000000000000E+00  0.4306164771940E+00
 0.1942889732418E+00 -0.2284314792028E+00  0.0000000000000E+00  0.3705416642760E+00
 0.1959830699236E+00 -0.2276669061994E+00  0.0000000000000E+00  0.3208887538978E+00
 0.1937286633043E+00 -0.2231687752005E+00  0.0000000000000E+00  0.2820302428891E+00
 0.1884274325247E+00 -0.2158609700654E+00  0.0000000000000E+00  0.2533337159563E+00
 0.1808268501230E+00 -0.2064896562854E+00  0.0000000000000E+00  0.2335678191420E+00
 0.1715050246793E+00 -0.1956212129800E+00  0.0000000000000E+00  0.2213346387561E+00
 0.1609494068243E+00 -0.1837292363025E+00  0.0000000000000E+00  0.2153284930563E+00
 0.1495094605445E+00 -0.1711118718624E+00  0.0000000000000E+00  0.2138064867630E+00
 0.1374747274493E+00 -0.1581062633024E+00  0.0000000000000E+00  0.2169684661329E+00
 0.1257942205240E+00 -0.1457077884798E+00  0.0000000000000E+00  0.2250384637896E+00
 0.1152264744616E+00 -0.1346341911598E+00  0.0000000000000E+00  0.2364524494594E+00
 0.1054669919257E+00 -0.1245291637328E+00  0.0000000000000E+00  0.2500602770682E+00
 0.9607832044295E-01 -0.1149034141076E+00  0.0000000000000E+00  0.2649578912914E+00
 0.8643948892472E-01 -0.1050986530616E+00  0.0000000000000E+00  0.2806183226251E+00
 0.7596868245786E-01 -0.9452216591869E-01  0.0000000000000E+00  0.2964399339249E+00
 0.6407349539620E-01 -0.8260256151974E-01  0.0000000000000E+00  0.3108174638200E+00
 0.1466383510569E+00 -0.1899444374896E+00  0.0000000000000E+00  0.6413072206828E+00
 0.1646949898532E+00 -0.2057880231516E+00  0.0000000000000E+00  0.5706747970347E+00
 0.1809364844485E+00 -0.2192329572991E+00  0.0000000000000E+00  0.4939316423463E+00
 0.1908247611796E+00 -0.2261432419020E+00  0.0000000000000E+00  0.4194950579126E+00
 0.1941159688051E+00 -0.2265544501215E+00  0.0000000000000E+00  0.3540769104954E+00
 0.1921339950072E+00 -0.2219076263052E+00  0.0000000000000E+00  0.3006323538486E+00
 0.1862926094523E+00 -0.2136645994403E+00  0.0000000000000E+00  0.2593528298497E+00
 0.1777600921517E+00 -0.2030166701735E+00  0.0000000000000E+00  0.2292572838179E+00
 0.1674226729307E+00 -0.1908422077231E+00  0.0000000000000E+00  0.2087060138229E+00
 0.1559049204419E+00 -0.1777449195154E+00  0.0000000000000E+00  0.1959462534684E+00
 0.1436910264350E+00 -0.1641854195823E+00  0.0000000000000E+00  0.1894124691766E+00
 0.1310796777233E+00 -0.1503974650816E+00  0.0000000000000E+00  0.1871500935096E+00
 0.1183510519575E+00 -0.1367068915543E+00  0.0000000000000E+00  0.1893317318745E+00
 0.1065055307931E+00 -0.1241647666004E+00  0.0000000000000E+00  0.1963017557170E+00
 0.9621958982403E-01 -0.1134121748971E+00  0.0000000000000E+00  0.2066935847801E+00
 0.8705289142308E-01 -0.1039516406070E+00  0.0000000000000E+00  0.2194474164246E+00
 0.7845458656853E-01 -0.9517629542934E-01  0.0000000000000E+00  0.2336548103971E+00
 0.6975095405880E-01 -0.8636737681776E-01  0.0000000000000E+00  0.2486720454802E+00
 0.6043045468383E-01 -0.7699812208214E-01  0.0000000000000E+00  0.2638058435875E+00
 0.5020625761988E-01 -0.6679294055056E-01  0.0000000000000E+00  0.2778255762374E+00
 0.1534306411825E+00 -0.1960619122342E+00  0.0000000000000E+00  0.6433631372674E+00
 0.1720648490863E+00 -0.2123107725296E+00  0.0000000000000E+00  0.5695844646846E+00
 0.1871404018749E+00 -0.2242962621345E+00  0.0000000000000E+00  0.4857247854114E+00
 0.1941352829241E+00 -0.2279911980588E+00  0.0000000000000E+00  0.4039976151969E+00
 0.1935675852392E+00 -0.2242571181108E+00  0.0000000000000E+00  0.3331517132009E+00
 0.1875225750084E+00 -0.2153176249740E+00  0.0000000000000E+00  0.2763881646085E+00
 0.1779042107399E+00 -0.2031319698953E+00  0.0000000000000E+00  0.2334498111673E+00
 0.1661451920055E+00 -0.1891546193039E+00  0.0000000000000E+00  0.2027901527533E+00
 0.1532352018471E+00 -0.1743563571159E+00  0.0000000000000E+00  0.1822026208044E+00
 0.1397966147443E+00 -0.1593249252884E+00  0.0000000000000E+00  0.1694949165569E+00
 0.1262645425923E+00 -0.1444581236935E+00  0.0000000000000E+00  0.1628106852627E+00
 0.1128506053282E+00 -0.1298866947422E+00  0.0000000000000E+00  0.1600116021945E+00
 0.9980519672586E-01 -0.1159016489906E+00  0.0000000000000E+00  0.1612388343057E+00
 0.8814827701961E-01 -0.1035771401549E+00  0.0000000000000E+00  0.1669696886237E+00
 0.7843340872260E-01 -0.9343646271094E-01  0.0000000000000E+00  0.1761202753646E+00
 0.7008526081310E-01 -0.8484099657557E-01  0.0000000000000E+00  0.1877570146169E+00
 0.6246090501061E-01 -0.7708750851555E-01  0.0000000000000E+00  0.2009868128131E+00
 0.5486257873009E-01 -0.6942799105520E-01  0.0000000000000E+00  0.2151037892940E+00
 0.4683372446928E-01 -0.6138913276665E-01  0.0000000000000E+00  0.2294556759409E+00
 0.3823713201734E-01 -0.5284342094941E-01  0.0000000000000E+00  0.2432758293791E+00
 0.1607984149042E+00 -0.2029161228593E+00  0.0000000000000E+00  0.6445630461926E+00
 0.1803709843288E+00 -0.2198799614173E+00  0.0000000000000E+00  0.5659749245524E+00
 0.1939114518280E+00 -0.2299708105141E+00  0.0000000000000E+00  0.4733178151679E+00
 0.1973283934887E+00 -0.2297040606465E+00  0.0000000000000E+00  0.3835359974627E+00
 0.1922691907631E+00 -0.2211471821958E+00  0.0000000000000E+00  0.3074976102917E+00
 0.1817620328871E+00 -0.2074915440844E+00  0.0000000000000E+00  0.2482614813203E+00
 0.1682365439316E+00 -0.1912298561569E+00  0.0000000000000E+00  0.2047534312122E+00
 0.1533554258025E+00 -0.1740409162302E+00  0.0000000000000E+00  0.1745911996003E+00
 0.1381463076848E+00 -0.1569152310105E+00  0.0000000000000E+00  0.1548325921290E+00
 0.1231592778138E+00 -0.1403480039805E+00  0.0000000000000E+00  0.1427813158821E+00
 0.1087236524259E+00 -0.1246128216296E+00  0.0000000000000E+00  0.1362921688400E+00
 0.9492561474441E-01 -0.1096970781458E+00  0.0000000000000E+00  0.1331110580128E+00
 0.8196956030383E-01 -0.9583796258974E-01  0.0000000000000E+00  0.1333636406298E+00
 0.7086889396843E-01 -0.8410637837466E-01  0.0000000000000E+00  0.1376851670455E+00
 0.6202526466216E-01 -0.7487898776317E-01  0.0000000000000E+00  0.1453634357229E+00
 0.5473553539676E-01 -0.6738281830455E-01  0.0000000000000E+00  0.1556303891226E+00
 0.4827868727664E-01 -0.6083339462974E-01  0.0000000000000E+00  0.1676321325528E+00
 0.4194359641277E-01 -0.5446629080035E-01  0.0000000000000E+00  0.1806391680718E+00
 0.3529920858736E-01 -0.4783463412764E-01  0.0000000000000E+00  0.1941039679117E+00
 0.2824583381687E-01 -0.4085129103588E-01  0.0000000000000E+00  0.2077100166043E+00
 0.1689121087532E+00 -0.2107166749705E+00  0.0000000000000E+00  0.6449040306755E+00
 0.1897188107257E+00 -0.2286190768192E+00  0.0000000000000E+00  0.5592045080588E+00
 0.2010862723432E+00 -0.2360915393106E+00  0.0000000000000E+00  0.4558523523963E+00
 0.2000088565751E+00 -0.2308693395514E+00  0.0000000000000E+00  0.3574834955068E+00
 0.1897276873560E+00 -0.2167062017403E+00  0.0000000000000E+00  0.2769498115655E+00
 0.1743881502169E+00 -0.1979405943060E+00  0.0000000000000E+00  0.2165585256678E+00
 0.1569350099921E+00 -0.1775871240742E+00  0.0000000000000E+00  0.1739307590906E+00
 0.1391774579994E+00 -0.1574565699273E+00  0.0000000000000E+00  0.1455294351663E+00
 0.1220763582181E+00 -0.1384432793747E+00  0.0000000000000E+00  0.1275213496330E+00
 0.1060171847069E+00 -0.1208490919399E+00  0.0000000000000E+00  0.1166882855719E+00
 0.9115995284306E-01 -0.1047551249294E+00  0.0000000000000E+00  0.1106511217232E+00
 0.7743058374265E-01 -0.8996978167177E-01  0.0000000000000E+00  0.1071569255312E+00
 0.6497979735717E-01 -0.7666681335587E-01  0.0000000000000E+00  0.1063548721992E+00
 0.5479597584638E-01 -0.6589610725912E-01  0.0000000000000E+00  0.1090751003915E+00
 0.4711305891938E-01 -0.5787209358994E-01  0.0000000000000E+00  0.1150576756767E+00
 0.4111348554311E-01 -0.5170105961259E-01  0.0000000000000E+00  0.1237288457996E+00
 0.3600855480078E-01 -0.4652911360285E-01  0.0000000000000E+00  0.1342874473553E+00
 0.3107656747614E-01 -0.4158040541537E-01  0.0000000000000E+00  0.1459981243607E+00
 0.2588326368395E-01 -0.3640744115171E-01  0.0000000000000E+00  0.1584341221580E+00
 0.2029023408513E-01 -0.3088958158979E-01  0.0000000000000E+00  0.1716677100642E+00
 0.1779829937754E+00 -0.2197282476609E+00  0.0000000000000E+00  0.6443257070880E+00
 0.2001834157605E+00 -0.2386258184659E+00  0.0000000000000E+00  0.5483727205415E+00
 0.2083689621171E+00 -0.2423572153515E+00  0.0000000000000E+00  0.4322764965705E+00
 0.2016133117408E+00 -0.2308968363904E+00  0.0000000000000E+00  0.3252174583739E+00
 0.1853151779592E+00 -0.2102702028386E+00  0.0000000000000E+00  0.2415339836967E+00
 0.1648699685409E+00 -0.1861024144732E+00  0.0000000000000E+00  0.1818797227304E+00
 0.1436473224833E+00 -0.1618339923800E+00  0.0000000000000E+00  0.1419500934130E+00
 0.1234482971017E+00 -0.1392363221615E+00  0.0000000000000E+00  0.1167073580477E+00
 0.1050157758033E+00 -0.1189398569454E+00  0.0000000000000E+00  0.1013293272575E+00
 0.8846081452519E-01 -0.1009333377294E+00  0.0000000000000E+00  0.9214251656836E-01
 0.7371322849265E-01 -0.8504108894054E-01  0.0000000000000E+00  0.8666278879451E-01
 0.6051612449205E-01 -0.7087136394573E-01  0.0000000000000E+00  0.8280576673933E-01
 0.4897201629024E-01 -0.5853938842875E-01  0.0000000000000E+00  0.8080191400032E-01
 0.4003549334082E-01 -0.4906664943818E-01  0.0000000000000E+00  0.8171656950082E-01
 0.3377143187936E-01 -0.4250399751450E-01  0.0000000000000E+00  0.8580050457130E-01
 0.2926805630090E-01 -0.3785781928450E-01  0.0000000000000E+00  0.9268350879096E-01
 0.2567866671868E-01 -0.3421617952546E-01  0.0000000000000E+00  0.1016168348340E+00
 0.2227146771391E-01 -0.3079437562381E-01  0.0000000000000E+00  0.1118600240852E+00
 0.1858643053877E-01 -0.2712283299713E-01  0.0000000000000E+00  0.1230935929637E+00
 0.1439634997327E-01 -0.2299841198286E-01  0.0000000000000E+00  0.1356936389077E+00
 0.1882698665020E+00 -0.2302852082840E+00  0.0000000000000E+00  0.6426707233538E+00
 0.2117768822240E+00 -0.2499416825459E+00  0.0000000000000E+00  0.5322219644624E+00
 0.2152672048645E+00 -0.2482636009157E+00  0.0000000000000E+00  0.4013243305518E+00
 0.2013598910371E+00 -0.2289624159785E+00  0.0000000000000E+00  0.2862000187867E+00
 0.1782589342663E+00 -0.2010154069898E+00  0.0000000000000E+00  0.2016003012588E+00
 0.1526393085284E+00 -0.1713706688722E+00  0.0000000000000E+00  0.1452435788462E+00
 0.1280743104353E+00 -0.1436562126341E+00  0.0000000000000E+00  0.1101479649882E+00
 0.1061056342827E+00 -0.1193227806700E+00  0.0000000000000E+00  0.8946045814975E-01
 0.8706085859645E-01 -0.9851727519427E-01  0.0000000000000E+00  0.7740460697980E-01
 0.7066490815621E-01 -0.8079453197905E-01  0.0000000000000E+00  0.7005090686872E-01
 0.5657581160830E-01 -0.6568089403280E-01  0.0000000000000E+00  0.6502635165922E-01
 0.4435471675932E-01 -0.5258999139324E-01  0.0000000000000E+00  0.6061947187685E-01
 0.3407809944316E-01 -0.4160167890426E-01  0.0000000000000E+00  0.5720352251231E-01
 0.2666821674301E-01 -0.3371193066596E-01  0.0000000000000E+00  0.5610831271359E-01
 0.2203343680341E-01 -0.2881995966128E-01  0.0000000000000E+00  0.5812023616550E-01
 0.1919411966425E-01 -0.2585958517205E-01  0.0000000000000E+00  0.6305953888477E-01
 0.1725566146809E-01 -0.2387289891030E-01  0.0000000000000E+00  0.7021806753710E-01
 0.1547692642555E-01 -0.2206917220208E-01  0.0000000000000E+00  0.7884074935031E-01
 0.1335723095509E-01 -0.1994251834445E-01  0.0000000000000E+00  0.8868516638130E-01
 0.1055016343596E-01 -0.1717729776169E-01  0.0000000000000E+00  0.1003307961666E+00
 0.2000839253883E+00 -0.2428099892796E+00  0.0000000000000E+00  0.6396167134394E+00
 0.2243901958114E+00 -0.2624970771874E+00  0.0000000000000E+00  0.5089949639306E+00
 0.2209949234306E+00 -0.2529996282998E+00  0.0000000000000E+00  0.3615126522557E+00
 0.1981867303108E+00 -0.2239363456372E+00  0.0000000000000E+00  0.2401285860327E+00
 0.1676502846101E+00 -0.1879618778291E+00  0.0000000000000E+00  0.1580298802417E+00
 0.1371546295854E+00 -0.1531617242566E+00  0.0000000000000E+00  0.1082415846682E+00
 0.1100501629747E+00 -0.1228819404267E+00  0.0000000000000E+00  0.8027480055835E-01
 0.8725110889821E-01 -0.9783486124885E-01  0.0000000000000E+00  0.6530615001498E-01
 0.6844693757421E-01 -0.7743551064587E-01  0.0000000000000E+00  0.5688768752332E-01
 0.5289609671318E-01 -0.6072182304904E-01  0.0000000000000E+00  0.5121002686061E-01
 0.3998628162762E-01 -0.4693094884510E-01  0.0000000000000E+00  0.4630200670919E-01
 0.2913090745289E-01 -0.3532444111624E-01  0.0000000000000E+00  0.4102939686751E-01
 0.2041872732734E-01 -0.2598690586928E-01  0.0000000000000E+00  0.3594744919739E-01
 0.1474855148063E-01 -0.1989806858617E-01  0.0000000000000E+00  0.3265336755692E-01
 0.1189555822462E-01 -0.1682713811169E-01  0.0000000000000E+00  0.3245566333517E-01
 0.1084236458158E-01 -0.1566686364887E-01  0.0000000000000E+00  0.3533290022861E-01
 0.1065665158414E-01 -0.1542606503435E-01  0.0000000000000E+00  0.4060016873607E-01
 0.1059031933364E-01 -0.1531258636604E-01  0.0000000000000E+00  0.4747510692516E-01
 0.1009549261071E-01 -0.1477796945038E-01  0.0000000000000E+00  0.5575411638883E-01
 0.8693035388112E-02 -0.1338059493349E-01  0.0000000000000E+00  0.6610498573082E-01
 0.2137864011658E+00 -0.2578349990240E+00  0.0000000000000E+00  0.6345548813821E+00
 0.2376871074667E+00 -0.2760092644701E+00  0.0000000000000E+00  0.4762235638130E+00
 0.2243215363660E+00 -0.2552824592919E+00  0.0000000000000E+00  0.3111858933235E+00
 0.1906864874307E+00 -0.2143001141749E+00  0.0000000000000E+00  0.1872154582289E+00
 0.1525001516219E+00 -0.1700247982095E+00  0.0000000000000E+00  0.1125458752797E+00
 0.1180238499901E+00 -0.1310466210983E+00  0.0000000000000E+00  0.7320476738635E-01
 0.8965817260907E-01 -0.9960913496965E-01  0.0000000000000E+00  0.5446926730296E-01
 0.6721619995462E-01 -0.7513877059071E-01  0.0000000000000E+00  0.4580176798696E-01
 0.4956424756948E-01 -0.5611730800295E-01  0.0000000000000E+00  0.4075746793861E-01
 0.3549993080181E-01 -0.4108371782721E-01  0.0000000000000E+00  0.3619943911048E-01
 0.2420863323483E-01 -0.2907080341240E-01  0.0000000000000E+00  0.3085849442686E-01
 0.1502452431396E-01 -0.1926622299294E-01  0.0000000000000E+00  0.2431929507746E-01
 0.8095045849164E-02 -0.1180696132828E-01  0.0000000000000E+00  0.1730722994666E-01
 0.4305057208441E-02 -0.7664044792867E-02  0.0000000000000E+00  0.1165552312392E-01
 0.3325445886714E-02 -0.6502447533388E-02  0.0000000000000E+00  0.9147405846812E-02
 0.4131340965031E-02 -0.7206118019641E-02  0.0000000000000E+00  0.9877129616461E-02
 0.5761921891487E-02 -0.8763374242494E-02  0.0000000000000E+00  0.1316837706038E-01
 0.7467693365563E-02 -0.1038893570788E-01  0.0000000000000E+00  0.1820250121924E-01
 0.8656912007504E-02 -0.1149492606193E-01  0.0000000000000E+00  0.2477392788388E-01
 0.8721295148430E-02 -0.1151698413654E-01  0.0000000000000E+00  0.3350616756826E-01
 0.2297644140534E+00 -0.2760248159042E+00  0.0000000000000E+00  0.6263647241454E+00
 0.2509020345813E+00 -0.2897845474499E+00  0.0000000000000E+00  0.4304084114576E+00
 0.2233372078428E+00 -0.2530898298144E+00  0.0000000000000E+00  0.2486873147563E+00
 0.1770663214419E+00 -0.1980778438394E+00  0.0000000000000E+00  0.1287066474522E+00
 0.1318995623833E+00 -0.1461773014472E+00  0.0000000000000E+00  0.6815768424815E-01
 0.9521897657357E-01 -0.1049897644170E+00  0.0000000000000E+00  0.4330648617847E-01
 0.6737200338702E-01 -0.7436212167540E-01  0.0000000000000E+00  0.3506477938920E-01
 0.4660144247528E-01 -0.5188884502698E-01  0.0000000000000E+00  0.3226962542943E-01
 0.3093335694313E-01 -0.3511732767086E-01  0.0000000000000E+00  0.2963315003217E-01
 0.1885910246940E-01 -0.2228192723708E-01  0.0000000000000E+00  0.2529305806942E-01
 0.9497942172599E-02 -0.1236663546948E-01  0.0000000000000E+00  0.1885384191220E-01
 0.2190153393020E-02 -0.4578540215351E-02  0.0000000000000E+00  0.1063691414231E-01
-0.2818373572024E-02  0.8543164937314E-03  0.0000000000000E+00  0.1458723551836E-02
-0.4656046899362E-02  0.2974201050139E-02  0.0000000000000E+00 -0.6670451959052E-02
-0.3727221102449E-02  0.2196160819059E-02  0.0000000000000E+00 -0.1156054992617E-01
-0.1038311141486E-02 -0.3839294051234E-03  0.0000000000000E+00 -0.1304272884638E-01
 0.2428279166087E-02 -0.3746407026684E-02  0.0000000000000E+00 -0.1178643073046E-01
 0.5933507845485E-02 -0.7128482569682E-02  0.0000000000000E+00 -0.8645039592321E-02
 0.8858638876552E-02 -0.9918987463600E-02  0.0000000000000E+00 -0.3866362901611E-02
 0.1048959429642E-01 -0.1145283428524E-01  0.0000000000000E+00  0.2971819774178E-02
 0.2483395426628E+00 -0.2981841145873E+00  0.0000000000000E+00  0.6129681478094E+00
 0.2624366450968E+00 -0.3023101309512E+00  0.0000000000000E+00  0.3665286418643E+00
 0.2150906449534E+00 -0.2432245898618E+00  0.0000000000000E+00  0.1728487392290E+00
 0.1552307566074E+00 -0.1728715094691E+00  0.0000000000000E+00  0.6785053680620E-01
 0.1054002386015E+00 -0.1158681278509E+00  0.0000000000000E+00  0.2969378286248E-01
 0.6939984024494E-01 -0.7571525098828E-01  0.0000000000000E+00  0.2239253521941E-01
 0.4416538993071E-01 -0.4821728480085E-01  0.0000000000000E+00  0.2408062570519E-01
 0.2622929452073E-01 -0.2896445263240E-01  0.0000000000000E+00  0.2539585029764E-01
 0.1312107632391E-01 -0.1502945339111E-01  0.0000000000000E+00  0.2361438207845E-01
 0.3327995624243E-02 -0.4681850831219E-02  0.0000000000000E+00  0.1843726824909E-01
-0.3939240081227E-02  0.2969409645312E-02  0.0000000000000E+00  0.1026596078179E-01
-0.9261164104666E-02  0.8621805221736E-02  0.0000000000000E+00  0.3571264032853E-04
-0.1227616991502E-01  0.1194298811987E-01  0.0000000000000E+00 -0.1148546156894E-01
-0.1214289033429E-01  0.1201466226276E-01  0.0000000000000E+00 -0.2217625561122E-01
-0.9315830454280E-02  0.9314138481197E-02  0.0000000000000E+00 -0.2951097061479E-01
-0.4766713779097E-02  0.4895846714739E-02  0.0000000000000E+00 -0.3327174517161E-01
 0.5033095772786E-03 -0.2241760146297E-03  0.0000000000000E+00 -0.3409738153135E-01
 0.5789327437790E-02 -0.5335653687782E-02  0.0000000000000E+00 -0.3285428250124E-01
 0.1048409657174E-01 -0.9840491743384E-02  0.0000000000000E+00 -0.2987163319948E-01
 0.1381637401820E-01 -0.1301816828234E-01  0.0000000000000E+00 -0.2512240664154E-01
 0.2694907793925E+00 -0.3252063852964E+00  0.0000000000000E+00  0.5903956374056E+00
 0.2689742010228E+00 -0.3103453503646E+00  0.0000000000000E+00  0.2772596452735E+00
 0.1950943754515E+00 -0.2206053653878E+00  0.0000000000000E+00  0.8438554894676E-01
 0.1232795084585E+00 -0.1363514318151E+00  0.0000000000000E+00  0.1160290304076E-01
 0.7379524181016E-01 -0.7989431821742E-01  0.0000000000000E+00  0.4113484958088E-02
 0.4226338181167E-01 -0.4515404871238E-01  0.0000000000000E+00  0.1403344239974E-01
 0.2141050008603E-01 -0.2264801709952E-01  0.0000000000000E+00  0.2230889236458E-01
 0.6961688516808E-02 -0.7270365136160E-02  0.0000000000000E+00  0.2493757321224E-01
-0.3380918553629E-02  0.3642181740199E-02  0.0000000000000E+00  0.2227335234220E-01
-0.1083481860489E-01  0.1145572555455E-01  0.0000000000000E+00  0.1532247576626E-01
-0.1597722264729E-01  0.1681144106335E-01  0.0000000000000E+00  0.4966620743152E-02
-0.1927316682989E-01  0.2027528054081E-01  0.0000000000000E+00 -0.7461397613393E-02
-0.2025852896579E-01  0.2142992042918E-01  0.0000000000000E+00 -0.2142710923071E-01
-0.1816456554697E-01  0.1945441895658E-01  0.0000000000000E+00 -0.3474631395700E-01
-0.1347666979544E-01  0.1487885752032E-01  0.0000000000000E+00 -0.4461563773166E-01
-0.7133091497582E-02  0.8710713310840E-02  0.0000000000000E+00 -0.5076481925278E-01
-0.1582596489289E-03  0.1951190502081E-02  0.0000000000000E+00 -0.5373373696867E-01
 0.6820926781476E-02 -0.4794624965839E-02  0.0000000000000E+00 -0.5434726152393E-01
 0.1328334789861E-01 -0.1101545337975E-01  0.0000000000000E+00 -0.5304760869506E-01
 0.1848836515655E-01 -0.1601214694710E-01  0.0000000000000E+00 -0.5046047447127E-01
 0.2917303193760E+00 -0.3577093949594E+00  0.0000000000000E+00  0.5503259422696E+00
 0.2634562510646E+00 -0.3065386295548E+00  0.0000000000000E+00  0.1520727462210E+00
 0.1568680418228E+00 -0.1774692732047E+00  0.0000000000000E+00 -0.1043570725882E-01
 0.8131903483769E-01 -0.8801859899280E-01  0.0000000000000E+00 -0.2641618048381E-01
 0.4042761172161E-01 -0.4227715486393E-01  0.0000000000000E+00 -0.1103824714857E-02
 0.1626286208009E-01 -0.1593926419362E-01  0.0000000000000E+00  0.1908905153314E-01
 0.4294547076498E-03  0.9534356433805E-03  0.0000000000000E+00  0.2878888246129E-01
-0.1052518099283E-01  0.1250527030577E-01  0.0000000000000E+00  0.2981352538240E-01
-0.1825807556170E-01  0.2058266350851E-01  0.0000000000000E+00  0.2483627188269E-01
-0.2350849902221E-01  0.2601410410347E-01  0.0000000000000E+00  0.1550853073684E-01
-0.2659120528981E-01  0.2914097737541E-01  0.0000000000000E+00  0.2808228228389E-02
-0.2784902480632E-01  0.3038367754669E-01  0.0000000000000E+00 -0.1178307034350E-01
-0.2676086976559E-01  0.2929873429126E-01  0.0000000000000E+00 -0.2821811239195E-01
-0.2271070413456E-01  0.2526609266541E-01  0.0000000000000E+00 -0.4425348577291E-01
-0.1620347972036E-01  0.1887418255580E-01  0.0000000000000E+00 -0.5683171205951E-01
-0.8168067158607E-02  0.1108980484635E-01  0.0000000000000E+00 -0.6557986208137E-01
 0.3284599427174E-03  0.2904381159848E-02  0.0000000000000E+00 -0.7082151204475E-01
 0.8804539385158E-02 -0.5274911152856E-02  0.0000000000000E+00 -0.7320895089112E-01
 0.1696522603523E-01 -0.1315518212470E-01  0.0000000000000E+00 -0.7331816972422E-01
 0.2425614967768E-01 -0.2020402462057E-01  0.0000000000000E+00 -0.7276030970540E-01
 0.3089417972721E+00 -0.3947666565937E+00  0.0000000000000E+00  0.4737633564970E+00
 0.2284427701086E+00 -0.2724190246393E+00  0.0000000000000E+00 -0.2450889982017E-01
 0.9460578732025E-01 -0.1031111439648E+00  0.0000000000000E+00 -0.8544827513876E-01
 0.3708411362573E-01 -0.3815959375080E-01  0.0000000000000E+00 -0.2726311013357E-01
 0.1009030855811E-01 -0.8074798989230E-02  0.0000000000000E+00  0.1432395189039E-01
-0.6642171518463E-02  0.9846138550388E-02  0.0000000000000E+00  0.3492774122275E-01
-0.1790876246936E-01  0.2172354941986E-01  0.0000000000000E+00  0.4128374406757E-01
-0.2587608250669E-01  0.3001382887954E-01  0.0000000000000E+00  0.3858691712648E-01
-0.3139565875944E-01  0.3567766223067E-01  0.0000000000000E+00  0.3042165248658E-01
-0.3472235340913E-01  0.3903423503120E-01  0.0000000000000E+00  0.1851615432397E-01
-0.3587451288266E-01  0.4006343577600E-01  0.0000000000000E+00  0.3690182009893E-02
-0.3506157118626E-01  0.3902714921638E-01  0.0000000000000E+00 -0.1270535261672E-01
-0.3177381483866E-01  0.3551760465456E-01  0.0000000000000E+00 -0.3154780347298E-01
-0.2570956885968E-01  0.2935073220848E-01  0.0000000000000E+00 -0.5051179099065E-01
-0.1741398532353E-01  0.2120858572556E-01  0.0000000000000E+00 -0.6616217711630E-01
-0.7839653248106E-02  0.1200567815158E-01  0.0000000000000E+00 -0.7786113332211E-01
 0.1918846263488E-02  0.2679115651086E-02  0.0000000000000E+00 -0.8561960733026E-01
 0.1154009905304E-01 -0.6540619701936E-02  0.0000000000000E+00 -0.8978225068341E-01
 0.2115459764404E-01 -0.1589272482675E-01  0.0000000000000E+00 -0.9076396994132E-01
 0.3081276454488E-01 -0.2531100587681E-01  0.0000000000000E+00 -0.9172984442305E-01
 0.2642812125331E+00 -0.4145709668974E+00  0.0000000000000E+00  0.2757742887049E+00
 0.1268581902461E+00 -0.1377102590018E+00  0.0000000000000E+00 -0.2292789316239E+00
 0.2673556153082E-01 -0.2769112092434E-01  0.0000000000000E+00 -0.8159986132486E-01
 0.1169295712032E-02  0.2664708378771E-02  0.0000000000000E+00  0.5438431344563E-02
-0.1482406461332E-01  0.2008460433887E-01  0.0000000000000E+00  0.4369892646217E-01
-0.2547677397793E-01  0.3129631685889E-01  0.0000000000000E+00  0.5726727294736E-01
-0.3332175441514E-01  0.3939063866470E-01  0.0000000000000E+00  0.5737052013653E-01
-0.3904383832728E-01  0.4522807333754E-01  0.0000000000000E+00  0.4991208175783E-01
-0.4281274441223E-01  0.4896275921474E-01  0.0000000000000E+00  0.3830223315071E-01
-0.4460940079918E-01  0.5060460627402E-01  0.0000000000000E+00  0.2372529083948E-01
-0.4413677231984E-01  0.4996983262621E-01  0.0000000000000E+00  0.7446127753027E-02
-0.4111397615917E-01  0.4642948344714E-01  0.0000000000000E+00 -0.9485002830798E-02
-0.3517916314375E-01  0.3989303462473E-01  0.0000000000000E+00 -0.3069690351219E-01
-0.2690790126775E-01  0.3141854448589E-01  0.0000000000000E+00 -0.5336032662731E-01
-0.1693224506237E-01  0.2171921760797E-01  0.0000000000000E+00 -0.7275832834035E-01
-0.6084137039151E-02  0.1138941087704E-01  0.0000000000000E+00 -0.8781352453601E-01
 0.4636216237843E-02  0.1265229269785E-02  0.0000000000000E+00 -0.9841760519967E-01
 0.1500995926623E-01 -0.8602074027614E-02  0.0000000000000E+00 -0.1045578642297E+00
 0.2540724798157E-01 -0.1861584880898E-01  0.0000000000000E+00 -0.1061823843923E+00
 0.3751140996952E-01 -0.3088497067153E-01  0.0000000000000E+00 -0.1066783177015E+00
 0.4169554709553E+00 -0.4659959340898E+00  0.0000000000000E+00 -0.3547671054032E+00
 0.3971744762783E+00 -0.4437886255747E+00  0.0000000000000E+00 -0.3769863198535E+00
 0.3752779437888E+00 -0.4206406996475E+00  0.0000000000000E+00 -0.3979052495890E+00
 0.3519720237787E+00 -0.3960644178001E+00  0.0000000000000E+00 -0.4165440744223E+00
 0.3269725030396E+00 -0.3696945087145E+00  0.0000000000000E+00 -0.4319180982134E+00
 0.3003484779825E+00 -0.3415220507127E+00  0.0000000000000E+00 -0.4432832936103E+00
 0.2722571104590E+00 -0.3116674232608E+00  0.0000000000000E+00 -0.4498664501248E+00
 0.2429340769689E+00 -0.2803395013891E+00  0.0000000000000E+00 -0.4508508509531E+00
 0.2126883308048E+00 -0.2478266985762E+00  0.0000000000000E+00 -0.4453772880752E+00
 0.1819171621481E+00 -0.2145084142877E+00  0.0000000000000E+00 -0.4325679191317E+00
 0.1511289687389E+00 -0.1808763993045E+00  0.0000000000000E+00 -0.4115659768635E+00
 0.1209727977307E+00 -0.1475637589685E+00  0.0000000000000E+00 -0.3815973537183E+00
 0.9227325451562E-01 -0.1153803738862E+00  0.0000000000000E+00 -0.3420632347901E+00
 0.6606811729497E-01 -0.8535259572599E-01  0.0000000000000E+00 -0.2926778031533E+00
 0.4364097191105E-01 -0.5876098316520E-01  0.0000000000000E+00 -0.2336715144575E+00
 0.2653000785178E-01 -0.3715966603265E-01  0.0000000000000E+00 -0.1660878525173E+00
 0.1646548805090E-01 -0.2233706872625E-01  0.0000000000000E+00 -0.9220978653469E-01
 0.1514449563607E-01 -0.1612520185769E-01  0.0000000000000E+00 -0.1612032350246E-01
 0.2360025814949E-01 -0.1985640538676E-01  0.0000000000000E+00  0.5569966795131E-01
 0.4215595616058E-01 -0.3385982798003E-01  0.0000000000000E+00  0.1147810270704E+00
 0.4419399586720E+00 -0.4923596962351E+00  0.0000000000000E+00 -0.3426653203920E+00
 0.4260673657613E+00 -0.4758882450881E+00  0.0000000000000E+00 -0.3671618028117E+00
 0.4065861044418E+00 -0.4552707990737E+00  0.0000000000000E+00 -0.3893567099672E+00
 0.3847660938014E+00 -0.4324155850571E+00  0.0000000000000E+00 -0.4111006660540E+00
 0.3611293583213E+00 -0.4076367169405E+00  0.0000000000000E+00 -0.4308635698219E+00
 0.3357432565764E+00 -0.3809550624354E+00  0.0000000000000E+00 -0.4475836426893E+00
 0.3086671771553E+00 -0.3523794700474E+00  0.0000000000000E+00 -0.4603089310267E+00
 0.2799974043763E+00 -0.3219685198307E+00  0.0000000000000E+00 -0.4681309284562E+00
 0.2498998452388E+00 -0.2898537065279E+00  0.0000000000000E+00 -0.4701211681856E+00
 0.2186302789152E+00 -0.2562575001873E+00  0.0000000000000E+00 -0.4653056618727E+00
 0.1865607203527E+00 -0.2215174848481E+00  0.0000000000000E+00 -0.4526593950181E+00
 0.1542149780127E+00 -0.1861206483043E+00  0.0000000000000E+00 -0.4311200339952E+00
 0.1223166643018E+00 -0.1507508226518E+00  0.0000000000000E+00 -0.3996253506321E+00
 0.9185221741991E-01 -0.1163523196744E+00  0.0000000000000E+00 -0.3571877334525E+00
 0.6415076165779E-01 -0.8421265112482E-01  0.0000000000000E+00 -0.3030327431902E+00
 0.4097863124280E-01 -0.5606531414696E-01  0.0000000000000E+00 -0.2368548104242E+00
 0.2463606231188E-01 -0.3420481040743E-01  0.0000000000000E+00 -0.1592909209485E+00
 0.1799502714315E-01 -0.2157613020197E-01  0.0000000000000E+00 -0.7281447338759E-01
 0.2432450335816E-01 -0.2167957253074E-01  0.0000000000000E+00  0.1666715243667E-01
 0.4591136937106E-01 -0.3729462377002E-01  0.0000000000000E+00  0.9883070027517E-01
 0.4659862929440E+00 -0.5186979797989E+00  0.0000000000000E+00 -0.3211340605771E+00
 0.4525450468168E+00 -0.5049210754533E+00  0.0000000000000E+00 -0.3496704470745E+00
 0.4362231647315E+00 -0.4880782713641E+00  0.0000000000000E+00 -0.3752545751502E+00
 0.4171568306453E+00 -0.4683053385890E+00  0.0000000000000E+00 -0.3996616139380E+00
 0.3958404115933E+00 -0.4461824257567E+00  0.0000000000000E+00 -0.4227976632494E+00
 0.3725214795268E+00 -0.4219026055273E+00  0.0000000000000E+00 -0.4438021221708E+00
 0.3472932723043E+00 -0.3955221302115E+00  0.0000000000000E+00 -0.4617719545486E+00
 0.3202182663728E+00 -0.3670623624916E+00  0.0000000000000E+00 -0.4757884510455E+00
 0.2913789211078E+00 -0.3365649211440E+00  0.0000000000000E+00 -0.4849033785489E+00
 0.2609132662420E+00 -0.3041244849570E+00  0.0000000000000E+00 -0.4881029460420E+00
 0.2290447801800E+00 -0.2699169513583E+00  0.0000000000000E+00 -0.4842750450208E+00
 0.1961173045538E+00 -0.2342323288366E+00  0.0000000000000E+00 -0.4721815164742E+00
 0.1626419645782E+00 -0.1975196547478E+00  0.0000000000000E+00 -0.4504383688877E+00
 0.1293642605331E+00 -0.1604520313985E+00  0.0000000000000E+00 -0.4175108695470E+00
 0.9736287094188E-01 -0.1240235814633E+00  0.0000000000000E+00 -0.3717409564230E+00
 0.6819941604941E-01 -0.8969789189953E-01  0.0000000000000E+00 -0.3114464534739E+00
 0.4414991309967E-01 -0.5964250623825E-01  0.0000000000000E+00 -0.2351838300291E+00
 0.2857611066039E-01 -0.3710988832747E-01  0.0000000000000E+00 -0.1423872912597E+00
 0.2645393318145E-01 -0.2704739410077E-01  0.0000000000000E+00 -0.3495487819679E-01
 0.4426648058343E-01 -0.3655605591380E-01  0.0000000000000E+00  0.7789640431820E-01
 0.4894764877533E+00 -0.5444618434705E+00  0.0000000000000E+00 -0.2940001067993E+00
 0.4781180408635E+00 -0.5331177137130E+00  0.0000000000000E+00 -0.3246771557324E+00
 0.4644790523522E+00 -0.5193308841341E+00  0.0000000000000E+00 -0.3532057451370E+00
 0.4483441614395E+00 -0.5029168896398E+00  0.0000000000000E+00 -0.3803164805141E+00
 0.4298599403540E+00 -0.4840175252307E+00  0.0000000000000E+00 -0.4062295507750E+00
 0.4092158198742E+00 -0.4628178667122E+00  0.0000000000000E+00 -0.4305603169829E+00
 0.3865252093324E+00 -0.4393978549475E+00  0.0000000000000E+00 -0.4526212252189E+00
 0.3618498169842E+00 -0.4137829770370E+00  0.0000000000000E+00 -0.4716153028332E+00
 0.3352420932917E+00 -0.3859841608996E+00  0.0000000000000E+00 -0.4866675926165E+00
 0.3067764193836E+00 -0.3560292859989E+00  0.0000000000000E+00 -0.4968142629791E+00
 0.2765762018236E+00 -0.3239884027413E+00  0.0000000000000E+00 -0.5009688661995E+00
 0.2448416654460E+00 -0.2899992004123E+00  0.0000000000000E+00 -0.4978769330348E+00
 0.2118851853377E+00 -0.2542991668575E+00  0.0000000000000E+00 -0.4860600854761E+00
 0.1781827706506E+00 -0.2172727359161E+00  0.0000000000000E+00 -0.4637485372806E+00
 0.1444558097165E+00 -0.1795266070720E+00  0.0000000000000E+00 -0.4288006252042E+00
 0.1118088151248E+00 -0.1420175450421E+00  0.0000000000000E+00 -0.3786110972910E+00
 0.8197710378439E-01 -0.1062818024400E+00  0.0000000000000E+00 -0.3100189368574E+00
 0.5779608967769E-01 -0.7487533772351E-01  0.0000000000000E+00 -0.2192652327703E+00
 0.4419328158758E-01 -0.5229376701752E-01  0.0000000000000E+00 -0.1022108484752E+00
 0.5089360316168E-01 -0.4758964743786E-01  0.0000000000000E+00  0.4337524798328E-01
 0.5117924909680E+00 -0.5690090353492E+00  0.0000000000000E+00 -0.2618471728696E+00
 0.5025132291397E+00 -0.5600573586094E+00  0.0000000000000E+00 -0.2934100804213E+00
 0.4913248798087E+00 -0.5490975774608E+00  0.0000000000000E+00 -0.3235957144383E+00
 0.4779512801469E+00 -0.5358461227688E+00  0.0000000000000E+00 -0.3525872541757E+00
 0.4623586244352E+00 -0.5202688641829E+00  0.0000000000000E+00 -0.3804873610202E+00
 0.4446162073835E+00 -0.5024205797948E+00  0.0000000000000E+00 -0.4070848385032E+00
 0.4248006148818E+00 -0.4823566344670E+00  0.0000000000000E+00 -0.4318990675037E+00
 0.4029676969432E+00 -0.4601016478268E+00  0.0000000000000E+00 -0.4542769659936E+00
 0.3791631529040E+00 -0.4356645385339E+00  0.0000000000000E+00 -0.4734485448769E+00
 0.3534423289160E+00 -0.4090575459893E+00  0.0000000000000E+00 -0.4885317688319E+00
 0.3258899573049E+00 -0.3803149044136E+00  0.0000000000000E+00 -0.4985096062370E+00
 0.2966405591105E+00 -0.3495110658661E+00  0.0000000000000E+00 -0.5021852215875E+00
 0.2659024366372E+00 -0.3167815308960E+00  0.0000000000000E+00 -0.4981152311404E+00
 0.2339906892372E+00 -0.2823511404171E+00  0.0000000000000E+00 -0.4845135551336E+00
 0.2013783461161E+00 -0.2465778579488E+00  0.0000000000000E+00 -0.4591096137125E+00
 0.1687828216288E+00 -0.2100266176167E+00  0.0000000000000E+00 -0.4189286807632E+00
 0.1373212188927E+00 -0.1736020976365E+00  0.0000000000000E+00 -0.3599289110482E+00
 0.1088166724823E+00 -0.1388039616611E+00  0.0000000000000E+00 -0.2763450160321E+00
 0.8646120561018E-01 -0.1082766083933E+00  0.0000000000000E+00 -0.1593725385092E+00
 0.7689324655795E-01 -0.8722265904525E-01  0.0000000000000E+00  0.6897906508698E-02
 0.5325310091699E+00 -0.5918792016583E+00  0.0000000000000E+00 -0.2251901297467E+00
 0.5253053177168E+00 -0.5852946570591E+00  0.0000000000000E+00 -0.2566050721058E+00
 0.5163985683845E+00 -0.5769754038187E+00  0.0000000000000E+00 -0.2872544142045E+00
 0.5055630893353E+00 -0.5666644567238E+00  0.0000000000000E+00 -0.3170264147208E+00
 0.4926865621158E+00 -0.5542407854470E+00  0.0000000000000E+00 -0.3458659113079E+00
 0.4777510532626E+00 -0.5396752255479E+00  0.0000000000000E+00 -0.3735682783308E+00
 0.4607762139829E+00 -0.5229692571710E+00  0.0000000000000E+00 -0.3997362984264E+00
 0.4417887259197E+00 -0.5041258818085E+00  0.0000000000000E+00 -0.4238046258238E+00
 0.4208158779806E+00 -0.4831428173256E+00  0.0000000000000E+00 -0.4450668612503E+00
 0.3978920261732E+00 -0.4600194118669E+00  0.0000000000000E+00 -0.4626818282899E+00
 0.3730692148977E+00 -0.4347664716296E+00  0.0000000000000E+00 -0.4756550439619E+00
 0.3464284303405E+00 -0.4074161918372E+00  0.0000000000000E+00 -0.4827974700624E+00
 0.3180909579958E+00 -0.3780314186064E+00  0.0000000000000E+00 -0.4826584022581E+00
 0.2882302832093E+00 -0.3467144594826E+00  0.0000000000000E+00 -0.4734228834286E+00
 0.2570852772305E+00 -0.3136155460150E+00  0.0000000000000E+00 -0.4527530828211E+00
 0.2249743842883E+00 -0.2789396359048E+00  0.0000000000000E+00 -0.4175329301495E+00
 0.1923075959378E+00 -0.2429453679343E+00  0.0000000000000E+00 -0.3634324815423E+00
 0.1595747571376E+00 -0.2059122861659E+00  0.0000000000000E+00 -0.2841069426344E+00
 0.1272477604918E+00 -0.1679853972413E+00  0.0000000000000E+00 -0.1695282803270E+00
 0.9472659148059E-01 -0.1282101868609E+00  0.0000000000000E+00 -0.1906133386406E-02
 0.5513665527009E+00 -0.6127167257758E+00  0.0000000000000E+00 -0.1845384270924E+00
 0.5461103875627E+00 -0.6084090127133E+00  0.0000000000000E+00 -0.2149824495000E+00
 0.5393117715518E+00 -0.6025491539988E+00  0.0000000000000E+00 -0.2450774119325E+00
 0.5307631230662E+00 -0.5949197835161E+00  0.0000000000000E+00 -0.2745800217169E+00
 0.5203221157839E+00 -0.5853704850611E+00  0.0000000000000E+00 -0.3033062945483E+00
 0.5079107709041E+00 -0.5738134068597E+00  0.0000000000000E+00 -0.3309982920538E+00
 0.4934894524225E+00 -0.5601959611756E+00  0.0000000000000E+00 -0.3572613562420E+00
 0.4770341888754E+00 -0.5444771461634E+00  0.0000000000000E+00 -0.3815508600723E+00
 0.4585251828565E+00 -0.5266162783881E+00  0.0000000000000E+00 -0.4031738310785E+00
 0.4379435073418E+00 -0.5065695879640E+00  0.0000000000000E+00 -0.4212843336275E+00
 0.4152710048738E+00 -0.4842900186496E+00  0.0000000000000E+00 -0.4348638680299E+00
 0.3904891968883E+00 -0.4597257071081E+00  0.0000000000000E+00 -0.4426828331314E+00
 0.3635738163000E+00 -0.4328139019210E+00  0.0000000000000E+00 -0.4432392087818E+00
 0.3344810312538E+00 -0.4034664340064E+00  0.0000000000000E+00 -0.4346668062837E+00
 0.3031185776024E+00 -0.3715401720362E+00  0.0000000000000E+00 -0.4145990794084E+00
 0.2692881358613E+00 -0.3367792932708E+00  0.0000000000000E+00 -0.3799640788053E+00
 0.2325677566523E+00 -0.2987004422149E+00  0.0000000000000E+00 -0.3266692015134E+00
 0.1920609584752E+00 -0.2563529382350E+00  0.0000000000000E+00 -0.2491114124855E+00
 0.1457799281560E+00 -0.2077621744363E+00  0.0000000000000E+00 -0.1394467909053E+00
 0.8907529241614E-01 -0.1486303324852E+00  0.0000000000000E+00  0.1258600754073E-01
 0.5680553544464E+00 -0.6312531229654E+00  0.0000000000000E+00 -0.1404447195418E+00
 0.5646278419116E+00 -0.6290736969329E+00  0.0000000000000E+00 -0.1692526598437E+00
 0.5597420533866E+00 -0.6254676703579E+00  0.0000000000000E+00 -0.1979736167439E+00
 0.5532165093205E+00 -0.6202466485312E+00  0.0000000000000E+00 -0.2263167343076E+00
 0.5448925888276E+00 -0.6132462503046E+00  0.0000000000000E+00 -0.2540176862669E+00
 0.5346465646833E+00 -0.6043365729821E+00  0.0000000000000E+00 -0.2807601096336E+00
 0.5223799829116E+00 -0.5934113412718E+00  0.0000000000000E+00 -0.3061221306204E+00
 0.5080050874774E+00 -0.5803729151912E+00  0.0000000000000E+00 -0.3295500324510E+00
 0.4914327016759E+00 -0.5651200312203E+00  0.0000000000000E+00 -0.3503455764148E+00
 0.4725631507593E+00 -0.5475389263771E+00  0.0000000000000E+00 -0.3676540427263E+00
 0.4512776058155E+00 -0.5274949302260E+00  0.0000000000000E+00 -0.3804451181664E+00
 0.4274262413586E+00 -0.5048210167118E+00  0.0000000000000E+00 -0.3874826505199E+00
 0.4008089679451E+00 -0.4792991693049E+00  0.0000000000000E+00 -0.3872808069883E+00
 0.3711430419715E+00 -0.4506291892299E+00  0.0000000000000E+00 -0.3780444787635E+00
 0.3380085440985E+00 -0.4183765586852E+00  0.0000000000000E+00 -0.3575921243656E+00
 0.3007558603330E+00 -0.3818849130060E+00  0.0000000000000E+00 -0.3232623901383E+00
 0.2583462544918E+00 -0.3401273130563E+00  0.0000000000000E+00 -0.2718196212102E+00
 0.2090706450127E+00 -0.2914496679624E+00  0.0000000000000E+00 -0.1994206028099E+00
 0.1500658356970E+00 -0.2331456194578E+00  0.0000000000000E+00 -0.1019160483674E+00
 0.7682211256313E-01 -0.1609683427752E+00  0.0000000000000E+00  0.2385001586058E-01
 0.5824083345119E+00 -0.6472762466352E+00  0.0000000000000E+00 -0.9344583724459E-01
 0.5806211772447E+00 -0.6470247732072E+00  0.0000000000000E+00 -0.1200661349979E+00
 0.5774301728333E+00 -0.6454399070608E+00  0.0000000000000E+00 -0.1467538353575E+00
 0.5726591693884E+00 -0.6423428807509E+00  0.0000000000000E+00 -0.1732184633201E+00
 0.5661314410275E+00 -0.6375551818689E+00  0.0000000000000E+00 -0.1991580227159E+00
 0.5576816673808E+00 -0.6309097711534E+00  0.0000000000000E+00 -0.2242186532818E+00
 0.5471530009453E+00 -0.6222476298070E+00  0.0000000000000E+00 -0.2479562925209E+00
 0.5343874804448E+00 -0.6114078984856E+00  0.0000000000000E+00 -0.2698108013652E+00
 0.5192147392333E+00 -0.5982166625646E+00  0.0000000000000E+00 -0.2890894683894E+00
 0.5014402217263E+00 -0.5824754792612E+00  0.0000000000000E+00 -0.3049539676964E+00
 0.4808316549082E+00 -0.5639484246425E+00  0.0000000000000E+00 -0.3164063205281E+00
 0.4571011564562E+00 -0.5423450708008E+00  0.0000000000000E+00 -0.3222718637594E+00
 0.4298794234597E+00 -0.5172960190942E+00  0.0000000000000E+00 -0.3211796274977E+00
 0.3986772908246E+00 -0.4883165936764E+00  0.0000000000000E+00 -0.3115432639615E+00
 0.3628281578433E+00 -0.4547527731847E+00  0.0000000000000E+00 -0.2915504173341E+00
 0.3214023743778E+00 -0.4157014331748E+00  0.0000000000000E+00 -0.2591786211601E+00
 0.2730830807189E+00 -0.3698958546457E+00  0.0000000000000E+00 -0.2122782798063E+00
 0.2159999347158E+00 -0.3155546290734E+00  0.0000000000000E+00 -0.1488163748038E+00
 0.1475831826003E+00 -0.2502397443908E+00  0.0000000000000E+00 -0.6744498281202E-01
 0.6457586457047E-01 -0.1708615945189E+00  0.0000000000000E+00  0.3154600753189E-01
 0.5942766026730E+00 -0.6606132325166E+00  0.0000000000000E+00 -0.4406072325460E-01
 0.5939026323612E+00 -0.6620425902556E+00  0.0000000000000E+00 -0.6801006666033E-01
 0.5921648899617E+00 -0.6622146104760E+00  0.0000000000000E+00 -0.9212465996981E-01
 0.5888745350239E+00 -0.6609427587570E+00  0.0000000000000E+00 -0.1161368751814E+00
 0.5838308212720E+00 -0.6580289860620E+00  0.0000000000000E+00 -0.1397417995687E+00
 0.5768273967495E+00 -0.6532700914797E+00  0.0000000000000E+00 -0.1625782640197E+00
 0.5676506954804E+00 -0.6464559485447E+00  0.0000000000000E+00 -0.1842041814192E+00
 0.5560727866308E+00 -0.6373623459259E+00  0.0000000000000E+00 -0.2040764812079E+00
 0.5418412616513E+00 -0.6257410619849E+00  0.0000000000000E+00 -0.2215371658771E+00
 0.5246671058371E+00 -0.6113081654027E+00  0.0000000000000E+00 -0.2358039763919E+00
 0.5042100173446E+00 -0.5937300196895E+00  0.0000000000000E+00 -0.2459643092877E+00
 0.4800596550335E+00 -0.5726055451756E+00  0.0000000000000E+00 -0.2509726222804E+00
 0.4517107128681E+00 -0.5474427500884E+00  0.0000000000000E+00 -0.2496538988804E+00
 0.4185294285208E+00 -0.5176273234132E+00  0.0000000000000E+00 -0.2407190329437E+00
 0.3797093317465E+00 -0.4823813246421E+00  0.0000000000000E+00 -0.2228031721358E+00
 0.3342157090894E+00 -0.4407115807035E+00  0.0000000000000E+00 -0.1945465910954E+00
 0.2807240588883E+00 -0.3913527475009E+00  0.0000000000000E+00 -0.1547511644169E+00
 0.2175766653387E+00 -0.3327253454495E+00  0.0000000000000E+00 -0.1026569815238E+00
 0.1428052731391E+00 -0.2629546822844E+00  0.0000000000000E+00 -0.3835335103958E-01
 0.5428521399725E-01 -0.1800087210724E+00  0.0000000000000E+00  0.3674179312135E-01
 0.6035502781413E+00 -0.6711362179725E+00  0.0000000000000E+00  0.7146967957631E-02
 0.6043439714140E+00 -0.6739729226035E+00  0.0000000000000E+00 -0.1371824956252E-01
 0.6038038214007E+00 -0.6756156226079E+00  0.0000000000000E+00 -0.3482754314762E-01
 0.6017197085300E+00 -0.6758607442317E+00  0.0000000000000E+00 -0.5594599173381E-01
 0.5978628251728E+00 -0.6744866193804E+00  0.0000000000000E+00 -0.7679216673455E-01
 0.5919868422893E+00 -0.6712547912144E+00  0.0000000000000E+00 -0.9702788363077E-01
 0.5838254709585E+00 -0.6659076593853E+00  0.0000000000000E+00 -0.1162431661203E+00
 0.5730863814276E+00 -0.6581625199964E+00  0.0000000000000E+00 -0.1339428924567E+00
 0.5594424640470E+00 -0.6477030844538E+00  0.0000000000000E+00 -0.1495378494189E+00
 0.5425210172965E+00 -0.6341690962676E+00  0.0000000000000E+00 -0.1623409204766E+00
 0.5218907755199E+00 -0.6171439937381E+00  0.0000000000000E+00 -0.1715689947075E+00
 0.4970462331499E+00 -0.5961401083687E+00  0.0000000000000E+00 -0.1763521803548E+00
 0.4673886374419E+00 -0.5705808110599E+00  0.0000000000000E+00 -0.1757536316231E+00
 0.4322034592811E+00 -0.5397794327934E+00  0.0000000000000E+00 -0.1688056650534E+00
 0.3906354932279E+00 -0.5029160308251E+00  0.0000000000000E+00 -0.1545708698859E+00
 0.3416657566353E+00 -0.4590158466556E+00  0.0000000000000E+00 -0.1322401560657E+00
 0.2841006449800E+00 -0.4069388095045E+00  0.0000000000000E+00 -0.1012802584318E+00
 0.2165916364811E+00 -0.3453973207382E+00  0.0000000000000E+00 -0.6163175259929E-01
 0.1377089731216E+00 -0.2730239493806E+00  0.0000000000000E+00 -0.1393006968598E-01
 0.4608259957487E-01 -0.1885040476094E+00  0.0000000000000E+00  0.4032560460775E-01
 0.6101521739028E+00 -0.6787535640839E+00  0.0000000000000E+00  0.5960336062427E-01
 0.6118625823423E+00 -0.6827130825706E+00  0.0000000000000E+00  0.4215329211102E-01
 0.6122608253583E+00 -0.6855301169236E+00  0.0000000000000E+00  0.2438213474877E-01
 0.6111145263286E+00 -0.6869824808102E+00  0.0000000000000E+00  0.6483203676636E-02
 0.6081669883327E+00 -0.6868245616760E+00  0.0000000000000E+00 -0.1130584074187E-01
 0.6031353657074E+00 -0.6847856386269E+00  0.0000000000000E+00 -0.2869606944665E-01
 0.5957072675838E+00 -0.6805666186748E+00  0.0000000000000E+00 -0.4533812545541E-01
 0.5855353105032E+00 -0.6738347579614E+00  0.0000000000000E+00 -0.6081438827392E-01
 0.5722299408757E+00 -0.6642167256943E+00  0.0000000000000E+00 -0.7463484181464E-01
 0.5553509225031E+00 -0.6512904377900E+00  0.0000000000000E+00 -0.8623814527452E-01
 0.5343977225844E+00 -0.6345759070843E+00  0.0000000000000E+00 -0.9499930269221E-01
 0.5087989661401E+00 -0.6135252817128E+00  0.0000000000000E+00 -0.1002458619545E+00
 0.4779013613743E+00 -0.5875124495856E+00  0.0000000000000E+00 -0.1012854701562E+00
 0.4409591999701E+00 -0.5558232333892E+00  0.0000000000000E+00 -0.9744858019663E-01
 0.3971269187443E+00 -0.5176484778680E+00  0.0000000000000E+00 -0.8815064615102E-01
 0.3454595160644E+00 -0.4720844329339E+00  0.0000000000000E+00 -0.7297709177598E-01
 0.2849282973377E+00 -0.4181474607788E+00  0.0000000000000E+00 -0.5178916223545E-01
 0.2144609153027E+00 -0.3548115251031E+00  0.0000000000000E+00 -0.2483767685397E-01
 0.1330113548507E+00 -0.2810744853606E+00  0.0000000000000E+00  0.7145100368824E-02
 0.3965528093431E-01 -0.1960494949547E+00  0.0000000000000E+00  0.4291743219616E-01
 0.6140345257051E+00 -0.6834062469585E+00  0.0000000000000E+00  0.1127476104429E+00
 0.6164111225907E+00 -0.6882003444486E+00  0.0000000000000E+00  0.9895747060048E-01
 0.6174919135079E+00 -0.6918936720210E+00  0.0000000000000E+00  0.8476595000365E-01
 0.6170255995403E+00 -0.6942481642401E+00  0.0000000000000E+00  0.7031483326213E-01
 0.6147315723446E+00 -0.6949976267073E+00  0.0000000000000E+00  0.5578169508396E-01
 0.6102966853929E+00 -0.6938446226753E+00  0.0000000000000E+00  0.4138513341476E-01
 0.6033713892390E+00 -0.6904567331433E+00  0.0000000000000E+00  0.2739041286412E-01
 0.5935649349525E+00 -0.6844619018768E+00  0.0000000000000E+00  0.1411356995560E-01
 0.5804398436575E+00 -0.6754430781438E+00  0.0000000000000E+00  0.1922221099500E-02
 0.5635060308486E+00 -0.6629325529756E+00  0.0000000000000E+00 -0.8768399920481E-02
 0.5422150430696E+00 -0.6464064435550E+00  0.0000000000000E+00 -0.1750561138203E-01
 0.5159549866138E+00 -0.6252798840265E+00  0.0000000000000E+00 -0.2381727545459E-01
 0.4840470286092E+00 -0.5989037540162E+00  0.0000000000000E+00 -0.2723942022888E-01
 0.4457449106975E+00 -0.5665642929116E+00  0.0000000000000E+00 -0.2735517382000E-01
 0.4002397518844E+00 -0.5274877231244E+00  0.0000000000000E+00 -0.2384572869428E-01
 0.3466733037241E+00 -0.4808528664392E+00  0.0000000000000E+00 -0.1655146304951E-01
 0.2841631712788E+00 -0.4258151047827E+00  0.0000000000000E+00 -0.5536562598433E-02
 0.2118422100956E+00 -0.3615439813984E+00  0.0000000000000E+00  0.8856163829051E-02
 0.1289105397962E+00 -0.2872732147913E+00  0.0000000000000E+00  0.2597894639447E-01
 0.3469278630348E-01 -0.2023564668935E+00  0.0000000000000E+00  0.4489916791799E-01
 0.6151767327490E+00 -0.6850655194814E+00  0.0000000000000E+00  0.1660393627703E+00
 0.6179716991476E+00 -0.6904056814956E+00  0.0000000000000E+00  0.1560708830619E+00
 0.6194854088895E+00 -0.6946797510290E+00  0.0000000000000E+00  0.1456180422708E+00
 0.6194532721085E+00 -0.6976388023740E+00  0.0000000000000E+00  0.1347618051569E+00
 0.6175773639566E+00 -0.6990019737637E+00  0.0000000000000E+00  0.1236069273664E+00
 0.6135226472968E+00 -0.6984527822966E+00  0.0000000000000E+00  0.1122858966589E+00
 0.6069130468240E+00 -0.6956352900634E+00  0.0000000000000E+00  0.1009624607766E+00
 0.5973273453141E+00 -0.6901500896544E+00  0.0000000000000E+00  0.8983363211149E-01
 0.5842951724089E+00 -0.6815503760531E+00  0.0000000000000E+00  0.7912898505758E-01
 0.5672935455267E+00 -0.6693385577911E+00  0.0000000000000E+00  0.6910611930965E-01
 0.5457445561341E+00 -0.6529639854150E+00  0.0000000000000E+00  0.6004119305899E-01
 0.5190149421034E+00 -0.6318225108801E+00  0.0000000000000E+00  0.5221346686276E-01
 0.4864184903645E+00 -0.6052587790494E+00  0.0000000000000E+00  0.4588300108859E-01
 0.4472224685058E+00 -0.5725723894523E+00  0.0000000000000E+00  0.4126126437276E-01
 0.4006594930061E+00 -0.5330292706054E+00  0.0000000000000E+00  0.3847573750313E-01
 0.3459461799941E+00 -0.4858795668731E+00  0.0000000000000E+00  0.3753182400540E-01
 0.2823092195601E+00 -0.4303827159377E+00  0.0000000000000E+00  0.3827832621857E-01
 0.2090178804983E+00 -0.3658388628131E+00  0.0000000000000E+00  0.4038537246926E-01
 0.1254195295675E+00 -0.2916234607451E+00  0.0000000000000E+00  0.4334421109842E-01
 0.3097251688348E-01 -0.2072196374433E+00  0.0000000000000E+00  0.4649480159360E-01
 0.6135833029075E+00 -0.6837308742674E+00  0.0000000000000E+00  0.2189587591752E+00
 0.6165522618351E+00 -0.6893299734596E+00  0.0000000000000E+00  0.2128963372375E+00
 0.6182557484894E+00 -0.6938931522202E+00  0.0000000000000E+00  0.2062671707907E+00
 0.6184227685811E+00 -0.6971668592443E+00  0.0000000000000E+00  0.1990844893101E+00
 0.6167462515755E+00 -0.6988630238019E+00  0.0000000000000E+00  0.1913714400576E+00
 0.6128790932230E+00 -0.6986551730667E+00  0.0000000000000E+00  0.1831638764566E+00
 0.6064303314483E+00 -0.6961746690946E+00  0.0000000000000E+00  0.1745126132114E+00
 0.5969616169951E+00 -0.6910072177520E+00  0.0000000000000E+00  0.1654845573961E+00
 0.5839843438063E+00 -0.6826900025782E+00  0.0000000000000E+00  0.1561620314715E+00
 0.5669579662108E+00 -0.6707099553189E+00  0.0000000000000E+00  0.1466396083625E+00
 0.5452901579231E+00 -0.6545037986963E+00  0.0000000000000E+00  0.1370178158466E+00
 0.5183395707333E+00 -0.6334605957860E+00  0.0000000000000E+00  0.1273931723274E+00
 0.4854220159019E+00 -0.6069276038128E+00  0.0000000000000E+00  0.1178442908784E+00
 0.4458208688307E+00 -0.5742202129327E+00  0.0000000000000E+00  0.1084143687681E+00
 0.3988022951333E+00 -0.5346365650244E+00  0.0000000000000E+00  0.9909136053653E-01
 0.3436353859942E+00 -0.4874769754595E+00  0.0000000000000E+00  0.8978844902894E-01
 0.2796163702707E+00 -0.4320674127774E+00  0.0000000000000E+00  0.8032869925519E-01
 0.2060947813414E+00 -0.3677850532812E+00  0.0000000000000E+00  0.7043837788068E-01
 0.1224981832181E+00 -0.2940826387190E+00  0.0000000000000E+00  0.5975273467845E-01
 0.2835151160620E-01 -0.2105077510622E+00  0.0000000000000E+00  0.4783588908955E-01
 0.6092822727093E+00 -0.6794284552685E+00  0.0000000000000E+00  0.2710034232114E+00
 0.6121843626503E+00 -0.6850016872358E+00  0.0000000000000E+00  0.2688591086325E+00
 0.6138399177511E+00 -0.6895662522446E+00  0.0000000000000E+00  0.2660708722264E+00
 0.6139790542228E+00 -0.6928708023878E+00  0.0000000000000E+00  0.2625806636444E+00
 0.6122945247724E+00 -0.6946282916655E+00  0.0000000000000E+00  0.2583255537132E+00
 0.6084377024099E+00 -0.6945120257264E+00  0.0000000000000E+00  0.2532394304426E+00
 0.6020148241768E+00 -0.6921519494453E+00  0.0000000000000E+00  0.2472544344333E+00
 0.5925837555100E+00 -0.6871314188974E+00  0.0000000000000E+00  0.2403019427343E+00
 0.5796516912759E+00 -0.6789848572262E+00  0.0000000000000E+00  0.2323128705454E+00
 0.5626743501443E+00 -0.6671968315626E+00  0.0000000000000E+00  0.2232170716559E+00
 0.5410573302842E+00 -0.6512031981065E+00  0.0000000000000E+00  0.2129416485061E+00
 0.5141603578144E+00 -0.6303950279388E+00  0.0000000000000E+00  0.2014080412104E+00
 0.4813051354366E+00 -0.6041260100987E+00  0.0000000000000E+00  0.1885278915940E+00
 0.4417873269674E+00 -0.5717238730318E+00  0.0000000000000E+00  0.1741979217520E+00
 0.3948928278653E+00 -0.5325060058568E+00  0.0000000000000E+00  0.1582944435160E+00
 0.3399178393568E+00 -0.4857988587564E+00  0.0000000000000E+00  0.1406685459764E+00
 0.2761914295455E+00 -0.4309598997986E+00  0.0000000000000E+00  0.1211432545764E+00
 0.2030983425399E+00 -0.3674000146810E+00  0.0000000000000E+00  0.9951367255193E-01
 0.1200989771335E+00 -0.2946033858983E+00  0.0000000000000E+00  0.7555040941996E-01
 0.2674316343764E-01 -0.2121414607117E+00  0.0000000000000E+00  0.4900639014115E-01
 0.6023242872707E+00 -0.6722101176031E+00  0.0000000000000E+00  0.3216856719014E+00
 0.6049220084941E+00 -0.6774756725884E+00  0.0000000000000E+00  0.3234023512688E+00
 0.6062958150252E+00 -0.6817572487768E+00  0.0000000000000E+00  0.3244080589776E+00
 0.6061845720146E+00 -0.6848126316573E+00  0.0000000000000E+00  0.3245737248889E+00
 0.6042900202748E+00 -0.6863642100563E+00  0.0000000000000E+00  0.3237503811966E+00
 0.6002727157854E+00 -0.6860949873380E+00  0.0000000000000E+00  0.3217697360856E+00
 0.5937482140157E+00 -0.6836448118349E+00  0.0000000000000E+00  0.3184448963860E+00
 0.5842837697571E+00 -0.6786070835593E+00  0.0000000000000E+00  0.3135713963918E+00
 0.5713959582049E+00 -0.6705263240141E+00  0.0000000000000E+00  0.3069287202036E+00
 0.5545497531096E+00 -0.6588971230475E+00  0.0000000000000E+00  0.2982825514504E+00
 0.5331597109835E+00 -0.6431650892187E+00  0.0000000000000E+00  0.2873880084554E+00
 0.5065939794795E+00 -0.6227305023992E+00  0.0000000000000E+00  0.2739940952796E+00
 0.4741818276195E+00 -0.5969553574427E+00  0.0000000000000E+00  0.2578494977906E+00
 0.4352252224809E+00 -0.5651743347694E+00  0.0000000000000E+00  0.2387096633175E+00
 0.3890145917401E+00 -0.5267098757904E+00  0.0000000000000E+00  0.2163448291538E+00
 0.3348483021560E+00 -0.4808909608047E+00  0.0000000000000E+00  0.1905483417456E+00
 0.2720546520501E+00 -0.4270744653842E+00  0.0000000000000E+00  0.1611442791258E+00
 0.2000145318158E+00 -0.3646673344047E+00  0.0000000000000E+00  0.1279929037296E+00
 0.1181822730045E+00 -0.2931472850162E+00  0.0000000000000E+00  0.9099138475186E-01
 0.2610109548946E-01 -0.2120786594653E+00  0.0000000000000E+00  0.5006687166690E-01
 0.5927825284321E+00 -0.6621533233999E+00  0.0000000000000E+00  0.3705296061054E+00
 0.5948418372861E+00 -0.6668332739126E+00  0.0000000000000E+00  0.3759816504512E+00
 0.5957026238536E+00 -0.6705504308515E+00  0.0000000000000E+00  0.3806701384086E+00
 0.5951198179253E+00 -0.6730782998533E+00  0.0000000000000E+00  0.3843990899635E+00
 0.5928129914960E+00 -0.6741567750590E+00  0.0000000000000E+00  0.3869380274272E+00
 0.5884622678755E+00 -0.6734881343738E+00  0.0000000000000E+00  0.3880212924702E+00
 0.5817043297249E+00 -0.6707331179315E+00  0.0000000000000E+00  0.3873478611545E+00
 0.5721287353966E+00 -0.6655072833152E+00  0.0000000000000E+00  0.3845821008458E+00
 0.5592748661063E+00 -0.6573779404163E+00  0.0000000000000E+00  0.3793560342821E+00
 0.5426299596366E+00 -0.6458621006942E+00  0.0000000000000E+00  0.3712737896558E+00
 0.5216288222933E+00 -0.6304260069228E+00  0.0000000000000E+00  0.3599189653877E+00
 0.4956559331864E+00 -0.6104869311599E+00  0.0000000000000E+00  0.3448655765822E+00
 0.4640507330050E+00 -0.5854180122934E+00  0.0000000000000E+00  0.3256929881492E+00
 0.4261168614352E+00 -0.5545568925492E+00  0.0000000000000E+00  0.3020046834411E+00
 0.3811358854199E+00 -0.5172187193924E+00  0.0000000000000E+00  0.2734498322772E+00
 0.3283855745700E+00 -0.4727136256310E+00  0.0000000000000E+00  0.2397455413117E+00
 0.2671620474908E+00 -0.4203680978970E+00  0.0000000000000E+00  0.2006967300425E+00
 0.1968044363501E+00 -0.3595489069232E+00  0.0000000000000E+00  0.1562102991545E+00
 0.1167207104305E+00 -0.2896882125456E+00  0.0000000000000E+00  0.1062998832684E+00
 0.2641262780691E-01 -0.2103084765859E+00  0.0000000000000E+00  0.5107339285363E-01
 0.5807534531390E+00 -0.6493618010648E+00  0.0000000000000E+00  0.4170690792618E+00
 0.5820444752186E+00 -0.6531836015779E+00  0.0000000000000E+00  0.4260604891365E+00
 0.5821629249389E+00 -0.6560581829718E+00  0.0000000000000E+00  0.4342531270299E+00
 0.5808863592385E+00 -0.6577806055947E+00  0.0000000000000E+00  0.4413918226896E+00
 0.5779602131461E+00 -0.6581155084745E+00  0.0000000000000E+00  0.4471733676001E+00
 0.5730937462699E+00 -0.6567931715815E+00  0.0000000000000E+00  0.4512444375047E+00
 0.5659558798480E+00 -0.6535054702199E+00  0.0000000000000E+00  0.4532000917086E+00
 0.5561709658785E+00 -0.6479017392210E+00  0.0000000000000E+00  0.4525835110038E+00
 0.5433146581156E+00 -0.6395847109188E+00  0.0000000000000E+00  0.4488878964591E+00
 0.5269101972303E+00 -0.6281068196940E+00  0.0000000000000E+00  0.4415616133961E+00
 0.5064255741769E+00 -0.6129673105895E+00  0.0000000000000E+00  0.4300178052817E+00
 0.4812722294846E+00 -0.5936107739903E+00  0.0000000000000E+00  0.4136497345928E+00
 0.4508061825948E+00 -0.5694279574106E+00  0.0000000000000E+00  0.3918528909417E+00
 0.4143327293192E+00 -0.5397599507833E+00  0.0000000000000E+00  0.3640542388708E+00
 0.3711159867115E+00 -0.5039070037112E+00  0.0000000000000E+00  0.3297476592337E+00
 0.3203943930127E+00 -0.4611431130901E+00  0.0000000000000E+00  0.2885326756125E+00
 0.2614025942657E+00 -0.4107368923209E+00  0.0000000000000E+00  0.2401514940555E+00
 0.1933988956189E+00 -0.3519780675354E+00  0.0000000000000E+00  0.1845183279543E+00
 0.1156968151862E+00 -0.2842078604224E+00  0.0000000000000E+00  0.1217373389499E+00
 0.2770282356822E-01 -0.2068543938834E+00  0.0000000000000E+00  0.5210661511374E-01
 0.5663583765827E+00 -0.6339670485868E+00  0.0000000000000E+00  0.4608468642205E+00
 0.5666571290995E+00 -0.6366660011637E+00  0.0000000000000E+00  0.4731072578817E+00
 0.5658065562280E+00 -0.6384247204925E+00  0.0000000000000E+00  0.4845518635751E+00
 0.5636123155130E+00 -0.6390645667789E+00  0.0000000000000E+00  0.4948769563147E+00
 0.5598523775758E+00 -0.6383807735099E+00  0.0000000000000E+00  0.5037190781190E+00
 0.5542733104628E+00 -0.6361389228443E+00  0.0000000000000E+00  0.5106515865114E+00
 0.5465861639815E+00 -0.6320709829287E+00  0.0000000000000E+00  0.5151812376297E+00
 0.5364617586495E+00 -0.6258707632158E+00  0.0000000000000E+00  0.5167458967957E+00
 0.5235253908576E+00 -0.6171887908756E+00  0.0000000000000E+00  0.5147145373388E+00
 0.5073510490937E+00 -0.6056266937405E+00  0.0000000000000E+00  0.5083909072600E+00
 0.4874553687839E+00 -0.5907312956674E+00  0.0000000000000E+00  0.4970225336898E+00
 0.4632917778785E+00 -0.5719888381780E+00  0.0000000000000E+00  0.4798170173068E+00
 0.4342456597021E+00 -0.5488200924180E+00  0.0000000000000E+00  0.4559676952446E+00
 0.3996319259175E+00 -0.5205776625880E+00  0.0000000000000E+00  0.4246904463080E+00
 0.3586971078180E+00 -0.4865474846868E+00  0.0000000000000E+00  0.3852722087356E+00
 0.3106286594753E+00 -0.4459571501256E+00  0.0000000000000E+00  0.3371291359997E+00
 0.2545739690289E+00 -0.3979936274915E+00  0.0000000000000E+00  0.2798682633312E+00
 0.1896700398173E+00 -0.3418315152717E+00  0.0000000000000E+00  0.2133427246054E+00
 0.1150808827564E+00 -0.2766696781863E+00  0.0000000000000E+00  0.1376901471698E+00
 0.3003883778886E-01 -0.2017706284658E+00  0.0000000000000E+00  0.5336202120072E-01
 0.5497451021198E+00 -0.6161299018471E+00  0.0000000000000E+00  0.5014161692894E+00
 0.5488361080415E+00 -0.6174525948091E+00  0.0000000000000E+00  0.5165964338365E+00
 0.5467946833652E+00 -0.6178303457685E+00  0.0000000000000E+00  0.5309604419861E+00
 0.5434584085834E+00 -0.6171138046859E+00  0.0000000000000E+00  0.5441679451660E+00
 0.5386423996660E+00 -0.6151326162494E+00  0.0000000000000E+00  0.5558107424169E+00
 0.5321366228442E+00 -0.6116928629320E+00  0.0000000000000E+00  0.5654073833221E+00
 0.5237021832810E+00 -0.6065735439187E+00  0.0000000000000E+00  0.5723972194749E+00
 0.5130664790181E+00 -0.5995219574837E+00  0.0000000000000E+00  0.5761350665014E+00
 0.4999170467782E+00 -0.5902478248570E+00  0.0000000000000E+00  0.5758876602340E+00
 0.4838939248581E+00 -0.5784159828093E+00  0.0000000000000E+00  0.5708333535430E+00
 0.4645803953226E+00 -0.5636375024180E+00  0.0000000000000E+00  0.5600669533696E+00
 0.4414921206265E+00 -0.5454592262218E+00  0.0000000000000E+00  0.5426122209901E+00
 0.4140650630278E+00 -0.5233520534196E+00  0.0000000000000E+00  0.5174452938148E+00
 0.3816433244648E+00 -0.4966989917772E+00  0.0000000000000E+00  0.4835329314764E+00
 0.3434693577956E+00 -0.4647852148188E+00  0.0000000000000E+00  0.4398894970713E+00
 0.2986808774497E+00 -0.4267941839556E+00  0.0000000000000E+00  0.3856546526691E+00
 0.2463204474025E+00 -0.3818156636147E+00  0.0000000000000E+00  0.3201879549667E+00
 0.1853630072593E+00 -0.3288711981171E+00  0.0000000000000E+00  0.2431668525235E+00
 0.1147622880792E+00 -0.2669583597723E+00  0.0000000000000E+00  0.1546652208243E+00
 0.3349866907378E-01 -0.1951021325567E+00  0.0000000000000E+00  0.5518704559768E-01
 0.5310881439747E+00 -0.5960407276364E+00  0.0000000000000E+00  0.5383484333027E+00
 0.5287676282874E+00 -0.5957497138104E+00  0.0000000000000E+00  0.5560209605889E+00
 0.5253220692931E+00 -0.5944946822344E+00  0.0000000000000E+00  0.5728870807335E+00
 0.5206218865006E+00 -0.5921559006827E+00  0.0000000000000E+00  0.5885826149945E+00
 0.5145212629355E+00 -0.5885985939304E+00  0.0000000000000E+00  0.6026719659257E+00
 0.5068567730031E+00 -0.5836716937047E+00  0.0000000000000E+00  0.6146403585997E+00
 0.4974445655391E+00 -0.5772052110706E+00  0.0000000000000E+00  0.6238849839840E+00
 0.4860759681002E+00 -0.5690061066047E+00  0.0000000000000E+00  0.6297059128565E+00
 0.4725112017102E+00 -0.5588523602507E+00  0.0000000000000E+00  0.6312977016783E+00
 0.4564707449972E+00 -0.5464848018663E+00  0.0000000000000E+00  0.6277428565233E+00
 0.4376237616832E+00 -0.5315961391109E+00  0.0000000000000E+00  0.6180088491335E+00
 0.4155729475877E+00 -0.5138165549843E+00  0.0000000000000E+00  0.6009512613196E+00
 0.3898352766053E+00 -0.4926953453807E+00  0.0000000000000E+00  0.5753269914904E+00
 0.3598186664876E+00 -0.4676785386163E+00  0.0000000000000E+00  0.5398233941661E+00
 0.3247959765607E+00 -0.4380836894902E+00  0.0000000000000E+00  0.4931115891018E+00
 0.2838807711681E+00 -0.4030757488074E+00  0.0000000000000E+00  0.4339339623484E+00
 0.2360144307847E+00 -0.3616528163796E+00  0.0000000000000E+00  0.3612329658108E+00
 0.1799789547155E+00 -0.3126557978794E+00  0.0000000000000E+00  0.2743130592445E+00
 0.1144471011860E+00 -0.2548146602510E+00  0.0000000000000E+00  0.1730009144790E+00
 0.3807351407914E-01 -0.1868335686145E+00  0.0000000000000E+00  0.5773484406048E-01
 0.5105917574044E+00 -0.5739220845299E+00  0.0000000000000E+00  0.5712368046542E+00
 0.5066739742315E+00 -0.5718029569329E+00  0.0000000000000E+00  0.5908958725236E+00
 0.5016261428362E+00 -0.5686843419530E+00  0.0000000000000E+00  0.6097557740986E+00
 0.4953495469975E+00 -0.5644736543627E+00  0.0000000000000E+00  0.6274408210538E+00
 0.4877362120667E+00 -0.5590698511880E+00  0.0000000000000E+00  0.6435052262394E+00
 0.4786690211030E+00 -0.5523636395021E+00  0.0000000000000E+00  0.6574230634229E+00
 0.4680202516555E+00 -0.5442361758941E+00  0.0000000000000E+00  0.6685766182413E+00
 0.4556483596559E+00 -0.5345561033291E+00  0.0000000000000E+00  0.6762435440486E+00
 0.4413926113436E+00 -0.5231745527140E+00  0.0000000000000E+00  0.6795832004627E+00
 0.4250648922409E+00 -0.5099174766494E+00  0.0000000000000E+00  0.6776226859653E+00
 0.4064377006493E+00 -0.4945743771999E+00  0.0000000000000E+00  0.6692434774499E+00
 0.3852269636480E+00 -0.4768821367895E+00  0.0000000000000E+00  0.6531704272229E+00
 0.3610679407595E+00 -0.4565022997592E+00  0.0000000000000E+00  0.6279664370289E+00
 0.3334822589279E+00 -0.4329899202383E+00  0.0000000000000E+00  0.5920389387008E+00
 0.3018345398228E+00 -0.4057523965388E+00  0.0000000000000E+00  0.5436691449995E+00
 0.2652792613201E+00 -0.3739986065688E+00  0.0000000000000E+00  0.4810826034697E+00
 0.2227057352561E+00 -0.3366847085613E+00  0.0000000000000E+00  0.4025891977380E+00
 0.1727052081176E+00 -0.2924779125945E+00  0.0000000000000E+00  0.3068181087191E+00
 0.1135989113352E+00 -0.2397767849841E+00  0.0000000000000E+00  0.1930254857250E+00
 0.4355820511955E-01 -0.1768212614214E+00  0.0000000000000E+00  0.6138270240950E-01
 0.4884911575940E+00 -0.5500295806347E+00  0.0000000000000E+00  0.5997043296964E+00
 0.4828172720351E+00 -0.5459002823955E+00  0.0000000000000E+00  0.6207683302820E+00
 0.4759943128644E+00 -0.5407190492073E+00  0.0000000000000E+00  0.6410203423827E+00
 0.4679500285633E+00 -0.5344156843132E+00  0.0000000000000E+00  0.6600837047406E+00
 0.4586100161262E+00 -0.5269181430905E+00  0.0000000000000E+00  0.6775174618171E+00
 0.4478994549236E+00 -0.5181542874860E+00  0.0000000000000E+00  0.6928047172211E+00
 0.4357433439547E+00 -0.5080522129809E+00  0.0000000000000E+00  0.7053389644382E+00
 0.4220651330684E+00 -0.4965390560654E+00  0.0000000000000E+00  0.7144083607982E+00
 0.4067833853341E+00 -0.4835379489345E+00  0.0000000000000E+00  0.7191776696278E+00
 0.3898057659864E+00 -0.4689624640869E+00  0.0000000000000E+00  0.7186674576022E+00
 0.3710191832052E+00 -0.4527074482955E+00  0.0000000000000E+00  0.7117301671068E+00
 0.3502742468089E+00 -0.4346345274889E+00  0.0000000000000E+00  0.6970230323139E+00
 0.3273612733722E+00 -0.4145496904414E+00  0.0000000000000E+00  0.6729787928199E+00
 0.3019737629388E+00 -0.3921691429218E+00  0.0000000000000E+00  0.6377774777689E+00
 0.2736535867758E+00 -0.3670680616456E+00  0.0000000000000E+00  0.5893276887287E+00
 0.2417107709895E+00 -0.3386054564857E+00  0.0000000000000E+00  0.5252769820085E+00
 0.2051118722945E+00 -0.3058192659734E+00  0.0000000000000E+00  0.4430940008659E+00
 0.1623489100979E+00 -0.2672987033829E+00  0.0000000000000E+00  0.3403098116495E+00
 0.1113597663443E+00 -0.2210933012231E+00  0.0000000000000E+00  0.2150170090780E+00
 0.4961125798826E-01 -0.1647774190372E+00  0.0000000000000E+00  0.6654801162523E-01
 0.4650523795002E+00 -0.5246514412641E+00  0.0000000000000E+00  0.6234167769382E+00
 0.4575009841615E+00 -0.5183731374299E+00  0.0000000000000E+00  0.6452340991521E+00
 0.4487682208431E+00 -0.5109753967720E+00  0.0000000000000E+00  0.6661864228814E+00
 0.4388021047896E+00 -0.5024040629573E+00  0.0000000000000E+00  0.6859029189525E+00
 0.4275550746908E+00 -0.4926091239883E+00  0.0000000000000E+00  0.7039579196285E+00
 0.4149872733425E+00 -0.4815479090158E+00  0.0000000000000E+00  0.7198585429267E+00
 0.4010685761613E+00 -0.4691870847974E+00  0.0000000000000E+00  0.7330302224002E+00
 0.3857794267484E+00 -0.4555035202781E+00  0.0000000000000E+00  0.7427997648998E+00
 0.3691103243874E+00 -0.4404838852870E+00  0.0000000000000E+00  0.7483750852331E+00
 0.3510594817140E+00 -0.4241225399437E+00  0.0000000000000E+00  0.7488202724001E+00
 0.3316276790436E+00 -0.4064168078563E+00  0.0000000000000E+00  0.7430241400777E+00
 0.3108085807580E+00 -0.3873580151584E+00  0.0000000000000E+00  0.7296599176843E+00
 0.2885715448850E+00 -0.3669155339029E+00  0.0000000000000E+00  0.7071333468168E+00
 0.2648318576848E+00 -0.3450091464237E+00  0.0000000000000E+00  0.6735165325629E+00
 0.2393996905028E+00 -0.3214617283934E+00  0.0000000000000E+00  0.6264665792125E+00
 0.2118925557715E+00 -0.2959184612721E+00  0.0000000000000E+00  0.5631346785491E+00
 0.1815859450863E+00 -0.2677093440214E+00  0.0000000000000E+00  0.4800926108158E+00
 0.1471601596741E+00 -0.2356187684160E+00  0.0000000000000E+00  0.3733698305528E+00
 0.1063444647390E+00 -0.1975451574284E+00  0.0000000000000E+00  0.2389064103559E+00
 0.5571348044759E-01 -0.1502465010775E+00  0.0000000000000E+00  0.7383044436629E-01
 0.4405706375075E+00 -0.4981065268790E+00  0.0000000000000E+00  0.6420988664352E+00
 0.4310692767662E+00 -0.4895953703038E+00  0.0000000000000E+00  0.6639597086380E+00
 0.4203449640180E+00 -0.4798874970954E+00  0.0000000000000E+00  0.6848417946274E+00
 0.4083590353638E+00 -0.4689379539220E+00  0.0000000000000E+00  0.7043817580837E+00
 0.3950827481653E+00 -0.4567108032618E+00  0.0000000000000E+00  0.7221728658345E+00
 0.3805017821677E+00 -0.4431834148140E+00  0.0000000000000E+00  0.7377526745458E+00
 0.3646197641361E+00 -0.4283497990945E+00  0.0000000000000E+00  0.7505889510479E+00
 0.3474611151286E+00 -0.4122232783117E+00  0.0000000000000E+00  0.7600634297279E+00
 0.3290734298965E+00 -0.3948387062572E+00  0.0000000000000E+00  0.7654522754528E+00
 0.3095293820237E+00 -0.3762542410751E+00  0.0000000000000E+00  0.7659012968540E+00
 0.2889277950591E+00 -0.3565523358607E+00  0.0000000000000E+00  0.7603929649629E+00
 0.2673929539401E+00 -0.3358390753657E+00  0.0000000000000E+00  0.7477009570193E+00
 0.2450702454579E+00 -0.3142400663052E+00  0.0000000000000E+00  0.7263259806540E+00
 0.2221143506871E+00 -0.2918893630923E+00  0.0000000000000E+00  0.6944036351175E+00
 0.1986623894859E+00 -0.2689044448733E+00  0.0000000000000E+00  0.6495705707697E+00
 0.1747762840027E+00 -0.2453328984054E+00  0.0000000000000E+00  0.5887689339678E+00
 0.1503191861140E+00 -0.2210397975541E+00  0.0000000000000E+00  0.5079640835643E+00
 0.1246875560699E+00 -0.1954657756959E+00  0.0000000000000E+00  0.4017606947556E+00
 0.9617414923586E-01 -0.1670801056760E+00  0.0000000000000E+00  0.2630568257896E+00
 0.6081957218540E-01 -0.1323124319348E+00  0.0000000000000E+00  0.8394239194341E-01
 0.4153663531479E+00 -0.4707399689143E+00  0.0000000000000E+00  0.6555527214532E+00
 0.4039030146543E+00 -0.4599786972927E+00  0.0000000000000E+00  0.6767088413986E+00
 0.3911736623612E+00 -0.4479428556870E+00  0.0000000000000E+00  0.6966942022028E+00
 0.3771467574882E+00 -0.4345909011153E+00  0.0000000000000E+00  0.7151487429628E+00
 0.3618049102704E+00 -0.4198939334275E+00  0.0000000000000E+00  0.7316802688993E+00
 0.3451501169738E+00 -0.4038405951049E+00  0.0000000000000E+00  0.7458522498282E+00
 0.3272081056451E+00 -0.3864410545798E+00  0.0000000000000E+00  0.7571705324343E+00
 0.3080323633953E+00 -0.3677306276105E+00  0.0000000000000E+00  0.7650689570283E+00
 0.2877085167956E+00 -0.3477736863103E+00  0.0000000000000E+00  0.7688928959276E+00
 0.2663596729169E+00 -0.3266684335767E+00  0.0000000000000E+00  0.7678786860466E+00
 0.2441532081448E+00 -0.3045529878291E+00  0.0000000000000E+00  0.7611257409967E+00
 0.2213093574211E+00 -0.2816130734062E+00  0.0000000000000E+00  0.7475564577095E+00
 0.1981117582900E+00 -0.2580913949290E+00  0.0000000000000E+00  0.7258562698993E+00
 0.1749196374194E+00 -0.2342982954818E+00  0.0000000000000E+00  0.6943812616988E+00
 0.1521800572301E+00 -0.2106220345955E+00  0.0000000000000E+00  0.6510114577992E+00
 0.1304349211842E+00 -0.1875335374048E+00  0.0000000000000E+00  0.5929096994284E+00
 0.1103066391862E+00 -0.1655702737874E+00  0.0000000000000E+00  0.5161070636517E+00
 0.9240854368290E-01 -0.1452518662969E+00  0.0000000000000E+00  0.4147539056530E+00
 0.7699453068096E-01 -0.1267602455221E+00  0.0000000000000E+00  0.2796338165266E+00
 0.6217669134828E-01 -0.1085667044448E+00  0.0000000000000E+00  0.9557475163419E-01
 0.3897781644993E+00 -0.4429157422937E+00  0.0000000000000E+00  0.6636787388932E+00
 0.3764112095430E+00 -0.4299635671491E+00  0.0000000000000E+00  0.6833733579132E+00
 0.3617454398463E+00 -0.4156715631779E+00  0.0000000000000E+00  0.7016171511481E+00
 0.3457527336223E+00 -0.3999986021146E+00  0.0000000000000E+00  0.7180444773407E+00
 0.3284225734006E+00 -0.3829191735988E+00  0.0000000000000E+00  0.7322663607075E+00
 0.3097676691381E+00 -0.3644285705715E+00  0.0000000000000E+00  0.7438572022326E+00
 0.2898283136692E+00 -0.3445467369864E+00  0.0000000000000E+00  0.7523409495028E+00
 0.2686763823879E+00 -0.3233216652136E+00  0.0000000000000E+00  0.7571776433531E+00
 0.2464201732787E+00 -0.3008335009925E+00  0.0000000000000E+00  0.7577497378925E+00
 0.2232112805727E+00 -0.2772004815887E+00  0.0000000000000E+00  0.7533463583385E+00
 0.1992547339871E+00 -0.2525878331142E+00  0.0000000000000E+00  0.7431426301028E+00
 0.1748239305023E+00 -0.2272209870393E+00  0.0000000000000E+00  0.7261699312580E+00
 0.1502826087073E+00 -0.2014050951780E+00  0.0000000000000E+00  0.7012707121426E+00
 0.1261175225401E+00 -0.1755540293848E+00  0.0000000000000E+00  0.6670272567520E+00
 0.1029880715355E+00 -0.1502342575033E+00  0.0000000000000E+00  0.6216451419948E+00
 0.8180408339577E-01 -0.1262330211355E+00  0.0000000000000E+00  0.5627535843171E+00
 0.6385294296292E-01 -0.1046681420197E+00  0.0000000000000E+00  0.4870420932747E+00
 0.5101733359321E-01 -0.8717098809082E-01  0.0000000000000E+00  0.3895346237601E+00
 0.4618468587341E-01 -0.7621160641037E-01  0.0000000000000E+00  0.2619603495303E+00
 0.5388624998573E-01 -0.7550378550265E-01  0.0000000000000E+00  0.8747496806836E-01
 0.3641520521612E+00 -0.4150053210712E+00  0.0000000000000E+00  0.6664980108939E+00
 0.3490164193601E+00 -0.4000039215678E+00  0.0000000000000E+00  0.6840077441640E+00
 0.3325741147362E+00 -0.3836260895528E+00  0.0000000000000E+00  0.6997024599881E+00
 0.3148006444675E+00 -0.3658323169473E+00  0.0000000000000E+00  0.7132018693287E+00
 0.2956932945359E+00 -0.3466026452614E+00  0.0000000000000E+00  0.7241086711813E+00
 0.2752773930201E+00 -0.3259424455282E+00  0.0000000000000E+00  0.7319914626006E+00
 0.2536101950117E+00 -0.3038857122555E+00  0.0000000000000E+00  0.7363675432287E+00
 0.2307840048727E+00 -0.2804974941803E+00  0.0000000000000E+00  0.7366879451633E+00
 0.2069304500935E+00 -0.2558773352321E+00  0.0000000000000E+00  0.7323242041911E+00
 0.1822276067284E+00 -0.2301653445959E+00  0.0000000000000E+00  0.7225548736836E+00
 0.1569116327452E+00 -0.2035524179388E+00  0.0000000000000E+00  0.7065491852663E+00
 0.1312950459487E+00 -0.1762965422097E+00  0.0000000000000E+00  0.6833449440323E+00
 0.1057950717326E+00 -0.1487482773485E+00  0.0000000000000E+00  0.6518171781493E+00
 0.8097810328022E-01 -0.1213908780706E+00  0.0000000000000E+00  0.6106328079784E+00
 0.5763149513021E-01 -0.9490517063942E-01  0.0000000000000E+00  0.5581840778308E+00
 0.3688474540900E-01 -0.7027892643678E-01  0.0000000000000E+00  0.4924886254421E+00
 0.2042655835521E-01 -0.4900194623946E-01  0.0000000000000E+00  0.4110341988795E+00
 0.1093167287933E-01 -0.3344464634824E-01  0.0000000000000E+00  0.3105247613613E+00
 0.1299310090109E-01 -0.2767725387122E-01  0.0000000000000E+00  0.1864320180554E+00
 0.3620162984935E-01 -0.3992417787337E-01  0.0000000000000E+00  0.3208427766968E-01
 0.3388259313034E+00 -0.3873717237717E+00  0.0000000000000E+00  0.6641714179418E+00
 0.3221325482184E+00 -0.3705442586405E+00  0.0000000000000E+00  0.6788581144467E+00
 0.3041642600082E+00 -0.3523482734492E+00  0.0000000000000E+00  0.6913038563229E+00
 0.2849040071586E+00 -0.3327508558333E+00  0.0000000000000E+00  0.7011130535764E+00
 0.2643637900301E+00 -0.3117460539612E+00  0.0000000000000E+00  0.7078816187363E+00
 0.2425924639082E+00 -0.2893621565390E+00  0.0000000000000E+00  0.7111724799865E+00
 0.2196789937711E+00 -0.2656643439790E+00  0.0000000000000E+00  0.7104932522099E+00
 0.1957545726140E+00 -0.2407561657066E+00  0.0000000000000E+00  0.7052801208875E+00
 0.1709967054782E+00 -0.2147829352788E+00  0.0000000000000E+00  0.6948869015425E+00
 0.1456374395250E+00 -0.1879391367674E+00  0.0000000000000E+00  0.6785766613022E+00
 0.1199775056671E+00 -0.1604814987623E+00  0.0000000000000E+00  0.6555137296223E+00
 0.9440852859668E-01 -0.1327497484608E+00  0.0000000000000E+00  0.6247551871962E+00
 0.6944677131785E-01 -0.1051983110687E+00  0.0000000000000E+00  0.5852427141342E+00
 0.4578444576985E-01 -0.7844467444596E-01  0.0000000000000E+00  0.5357985156730E+00
 0.2436935266784E-01 -0.5334467117722E-01  0.0000000000000E+00  0.4751346344379E+00
 0.6532661952333E-02 -0.3111363506900E-01  0.0000000000000E+00  0.4018978656523E+00
-0.5796459778399E-02 -0.1353055163987E-01  0.0000000000000E+00  0.3148052548869E+00
-0.9711160821463E-02 -0.3303178137179E-02  0.0000000000000E+00  0.2130250890549E+00
-0.5831834162606E-03 -0.4783066817621E-02  0.0000000000000E+00  0.9726877033955E-01
 0.2924764138182E-01 -0.2550676799732E-01  0.0000000000000E+00 -0.2571122287845E-01
 0.3141108524821E+00 -0.3603500528356E+00  0.0000000000000E+00  0.6570050102368E+00
 0.2961363813318E+00 -0.3419902756660E+00  0.0000000000000E+00  0.6683640683384E+00
 0.2769675108907E+00 -0.3223242008997E+00  0.0000000000000E+00  0.6770280190742E+00
 0.2565982274974E+00 -0.3013303390879E+00  0.0000000000000E+00  0.6826007092974E+00
 0.2350645891238E+00 -0.2790277535744E+00  0.0000000000000E+00  0.6846942212172E+00
 0.2124538938634E+00 -0.2554845897151E+00  0.0000000000000E+00  0.6828910072539E+00
 0.1889057167226E+00 -0.2308184538861E+00  0.0000000000000E+00  0.6767163930646E+00
 0.1646119763351E+00 -0.2051960204770E+00  0.0000000000000E+00  0.6656255040613E+00
 0.1398206109513E+00 -0.1788363493180E+00  0.0000000000000E+00  0.6490009492377E+00
 0.1148450716239E+00 -0.1520200428112E+00  0.0000000000000E+00  0.6261572170153E+00
 0.9008080417432E-01 -0.1251053413769E+00  0.0000000000000E+00  0.5963500602501E+00
 0.6602995218857E-01 -0.9855236056993E-01  0.0000000000000E+00  0.5587923501257E+00
 0.4333631150327E-01 -0.7295752505138E-01  0.0000000000000E+00  0.5126817746993E+00
 0.2283384081652E-01 -0.4910164191245E-01  0.0000000000000E+00  0.4572514604392E+00
 0.5613581712760E-02 -0.2801687395759E-01  0.0000000000000E+00  0.3918647973771E+00
-0.6885003263013E-02 -0.1107981066097E-01  0.0000000000000E+00  0.3161963256081E+00
-0.1275446873951E-01 -0.1380961263209E-03  0.0000000000000E+00  0.2305864672221E+00
-0.9487759267628E-02  0.2334075669353E-02  0.0000000000000E+00  0.1367619781082E+00
 0.6038271784902E-02 -0.6873790722095E-02  0.0000000000000E+00  0.3942888439312E-01
 0.3644640667096E-01 -0.3098059930334E-01  0.0000000000000E+00 -0.5057532252537E-01
 0.2902736054272E+00 -0.3342294399540E+00  0.0000000000000E+00  0.6454376946000E+00
 0.2713422765197E+00 -0.3146826021443E+00  0.0000000000000E+00  0.6531271442542E+00
 0.2513439237551E+00 -0.2939439476934E+00  0.0000000000000E+00  0.6576672232616E+00
 0.2302822211289E+00 -0.2720032652974E+00  0.0000000000000E+00  0.6586965436722E+00
 0.2082253884399E+00 -0.2489145327516E+00  0.0000000000000E+00  0.6558861951442E+00
 0.1853120073192E+00 -0.2248003480196E+00  0.0000000000000E+00  0.6488787679414E+00
 0.1617450682703E+00 -0.1998453368266E+00  0.0000000000000E+00  0.6372576248696E+00
 0.1377869585352E+00 -0.1742909279507E+00  0.0000000000000E+00  0.6205428046356E+00
 0.1137607071414E+00 -0.1484366888913E+00  0.0000000000000E+00  0.5982034541428E+00
 0.9005851924616E-01 -0.1226490989128E+00  0.0000000000000E+00  0.5696796225591E+00
 0.6715696514019E-01 -0.9737708925372E-01  0.0000000000000E+00  0.5344114992334E+00
 0.4563798617467E-01 -0.7317357396293E-01  0.0000000000000E+00  0.4918790613633E+00
 0.2621501293907E-01 -0.5072248378834E-01  0.0000000000000E+00  0.4416596212484E+00
 0.9763072567450E-02 -0.3087062537381E-01  0.0000000000000E+00  0.3835161329857E+00
-0.2650361072774E-02 -0.1466205271185E-01  0.0000000000000E+00  0.3175371447406E+00
-0.9743318298156E-02 -0.3367354336794E-02  0.0000000000000E+00  0.2443622523217E+00
-0.1003357472081E-01  0.1515102208058E-02  0.0000000000000E+00  0.1655459069635E+00
-0.1963649281938E-02 -0.1648366714294E-02  0.0000000000000E+00  0.8412988485519E-01
 0.1562428196977E-01 -0.1422621025401E-01  0.0000000000000E+00  0.5393638082524E-02
 0.4243074757243E-01 -0.3617002725803E-01  0.0000000000000E+00 -0.6335506645733E-01
 0.2675267961364E+00 -0.3092428838278E+00  0.0000000000000E+00  0.6300198406075E+00
 0.2479896277494E+00 -0.2888836782476E+00  0.0000000000000E+00  0.6338572542583E+00
 0.2275417437418E+00 -0.2674796627442E+00  0.0000000000000E+00  0.6341030717428E+00
 0.2061914012530E+00 -0.2450292374372E+00  0.0000000000000E+00  0.6304953057537E+00
 0.1840478165740E+00 -0.2216318275553E+00  0.0000000000000E+00  0.6228196822048E+00
 0.1613114380598E+00 -0.1974764409083E+00  0.0000000000000E+00  0.6108198728973E+00
 0.1382537285869E+00 -0.1728207838772E+00  0.0000000000000E+00  0.5941704686501E+00
 0.1152037439171E+00 -0.1479780646004E+00  0.0000000000000E+00  0.5724906317800E+00
 0.9254553508707E-01 -0.1233150252755E+00  0.0000000000000E+00  0.5453764150726E+00
 0.7072419166135E-01 -0.9925882129511E-01  0.0000000000000E+00  0.5124402637233E+00
 0.5025696141332E-01 -0.7630909851835E-01  0.0000000000000E+00  0.4733556762692E+00
 0.3174618364420E-01 -0.5505215883480E-01  0.0000000000000E+00  0.4279107985623E+00
 0.1589081224113E-01 -0.3617426039811E-01  0.0000000000000E+00  0.3760779878103E+00
 0.3492016370074E-02 -0.2047001977011E-01  0.0000000000000E+00  0.3181085618345E+00
-0.4555284413173E-02 -0.8838506525626E-02  0.0000000000000E+00  0.2546632850113E+00
-0.7301027393339E-02 -0.2252122470443E-02  0.0000000000000E+00  0.1869873241696E+00
-0.3839617702382E-02 -0.1668211730424E-02  0.0000000000000E+00  0.1171233196170E+00
 0.6470127219697E-02 -0.7824251278939E-02  0.0000000000000E+00  0.4809538063604E-01
 0.2362635671524E-01 -0.2083740494713E-01  0.0000000000000E+00 -0.1624639309686E-01
 0.4659899490177E-01 -0.3977817668347E-01  0.0000000000000E+00 -0.7212571288605E-01
 0.2460293981100E+00 -0.2855690881419E+00  0.0000000000000E+00  0.6113793467074E+00
 0.2262406902296E+00 -0.2647736529269E+00  0.0000000000000E+00  0.6112902616766E+00
 0.2056886030461E+00 -0.2430743153776E+00  0.0000000000000E+00  0.6071882880257E+00
 0.1843887654055E+00 -0.2204832530699E+00  0.0000000000000E+00  0.5990055214871E+00
 0.1625074836088E+00 -0.1971632999898E+00  0.0000000000000E+00  0.5866990171785E+00
 0.1403185975882E+00 -0.1733821656451E+00  0.0000000000000E+00  0.5701373884122E+00
 0.1181608978178E+00 -0.1494696131535E+00  0.0000000000000E+00  0.5490963843929E+00
 0.9641575141200E-01 -0.1257960012001E+00  0.0000000000000E+00  0.5233041059479E+00
 0.7550237471237E-01 -0.1027689827218E+00  0.0000000000000E+00  0.4924970279912E+00
 0.5588242738560E-01 -0.8083942507967E-01  0.0000000000000E+00  0.4564733352755E+00
 0.3806687822317E-01 -0.6050962636349E-01  0.0000000000000E+00  0.4151439532885E+00
 0.2262018230980E-01 -0.4233897021042E-01  0.0000000000000E+00  0.3685864715128E+00
 0.1015759333969E-01 -0.2694313784199E-01  0.0000000000000E+00  0.3171073674966E+00
 0.1330461692794E-02 -0.1498197643391E-01  0.0000000000000E+00  0.2613156920501E+00
-0.3208283316545E-02 -0.7128423012791E-02  0.0000000000000E+00  0.2022064415879E+00
-0.2869992125332E-02 -0.4006623860840E-02  0.0000000000000E+00  0.1412403394482E+00
 0.2758033794068E-02 -0.6083344992127E-02  0.0000000000000E+00  0.8038082209461E-01
 0.1375428822354E-01 -0.1350279057573E-01  0.0000000000000E+00  0.2199065017914E-01
 0.2971354038703E-01 -0.2592029306123E-01  0.0000000000000E+00 -0.3152843076108E-01
 0.4974111463251E-01 -0.4246465811966E-01  0.0000000000000E+00 -0.7834735843919E-01
 0.2258962771908E+00 -0.2633350365195E+00  0.0000000000000E+00  0.5901325209089E+00
 0.2061851348105E+00 -0.2424496588909E+00  0.0000000000000E+00  0.5860765423779E+00
 0.1858045530467E+00 -0.2207499570932E+00  0.0000000000000E+00  0.5776396630793E+00
 0.1648007592332E+00 -0.1982889264234E+00  0.0000000000000E+00  0.5650701065452E+00
 0.1434294195545E+00 -0.1753267727852E+00  0.0000000000000E+00  0.5485332544652E+00
 0.1220513314910E+00 -0.1522234395701E+00  0.0000000000000E+00  0.5280091477154E+00
 0.1010640980971E+00 -0.1293710162393E+00  0.0000000000000E+00  0.5033517572842E+00
 0.8087755898746E-01 -0.1071719440002E+00  0.0000000000000E+00  0.4743829042113E+00
 0.6191343010949E-01 -0.8604076024133E-01  0.0000000000000E+00  0.4409708728558E+00
 0.4461198974733E-01 -0.6641263615354E-01  0.0000000000000E+00  0.4030879226429E+00
 0.2943622015990E-01 -0.4874880424755E-01  0.0000000000000E+00  0.3608553685057E+00
 0.1686895357574E-01 -0.3353498492559E-01  0.0000000000000E+00  0.3145847335953E+00
 0.7400153128655E-02 -0.2127005793805E-01  0.0000000000000E+00  0.2648184411712E+00
 0.1501207762053E-02 -0.1244189551795E-01  0.0000000000000E+00  0.2123681354631E+00
-0.4173515112516E-03 -0.7486455849381E-02  0.0000000000000E+00  0.1583413799912E+00
 0.1932618071957E-02 -0.6726679219129E-02  0.0000000000000E+00  0.1041367788038E+00
 0.8640450054647E-02 -0.1029313751854E-01  0.0000000000000E+00  0.5137303611440E-01
 0.1952864530352E-01 -0.1804892814292E-01  0.0000000000000E+00  0.1717494224767E-02
 0.3414098250727E-01 -0.2956664087634E-01  0.0000000000000E+00 -0.4337679238783E-01
 0.5183799853697E-01 -0.4421954530401E-01  0.0000000000000E+00 -0.8291112853562E-01
 0.2072214768652E+00 -0.2426453350693E+00  0.0000000000000E+00  0.5668748384922E+00
 0.1878735700002E+00 -0.2219654702797E+00  0.0000000000000E+00  0.5587887739249E+00
 0.1678469880006E+00 -0.2004599708950E+00  0.0000000000000E+00  0.5460883653959E+00
 0.1472886131488E+00 -0.1782990625836E+00  0.0000000000000E+00  0.5294747986476E+00
 0.1265960127106E+00 -0.1558943190987E+00  0.0000000000000E+00  0.5092929259417E+00
 0.1062231347238E+00 -0.1337013508946E+00  0.0000000000000E+00  0.4855596987762E+00
 0.8660152262879E-01 -0.1121473603123E+00  0.0000000000000E+00  0.4581510773555E+00
 0.6813322077007E-01 -0.9162796720847E-01  0.0000000000000E+00  0.4269543099674E+00
 0.5120579573447E-01 -0.7252629461935E-01  0.0000000000000E+00  0.3919528929155E+00
 0.3620417547689E-01 -0.5522604889099E-01  0.0000000000000E+00  0.3532700312860E+00
 0.2351303763813E-01 -0.4011486847920E-01  0.0000000000000E+00  0.3111954339455E+00
 0.1350919356503E-01 -0.2757737343984E-01  0.0000000000000E+00  0.2662048815599E+00
 0.6544027111073E-02 -0.1797818643893E-01  0.0000000000000E+00  0.2189742642360E+00
 0.2916205034208E-02 -0.1163497028255E-01  0.0000000000000E+00  0.1703833664832E+00
 0.2835688920533E-02 -0.8782139510449E-02  0.0000000000000E+00  0.1214993133532E+00
 0.6383235464480E-02 -0.9528656137778E-02  0.0000000000000E+00  0.7352525648509E-01
 0.1347559452129E-01 -0.1381999785435E-01  0.0000000000000E+00  0.2770207712735E-01
 0.2385410511231E-01 -0.2142231297543E-01  0.0000000000000E+00 -0.1482899359818E-01
 0.3711616956911E-01 -0.3195100430497E-01  0.0000000000000E+00 -0.5315643598829E-01
 0.5278629737053E-01 -0.4494494880741E-01  0.0000000000000E+00 -0.8664586381294E-01
 0.1900825135210E+00 -0.2235901910888E+00  0.0000000000000E+00  0.5421657603442E+00
 0.1712913877457E+00 -0.2033042889425E+00  0.0000000000000E+00  0.5298970809954E+00
 0.1516723724910E+00 -0.1820484562870E+00  0.0000000000000E+00  0.5131174856562E+00
 0.1316266719427E+00 -0.1602741881562E+00  0.0000000000000E+00  0.4930335065452E+00
 0.1117496211475E+00 -0.1385951295938E+00  0.0000000000000E+00  0.4699953179351E+00
 0.9255820214381E-01 -0.1175287355463E+00  0.0000000000000E+00  0.4439052250685E+00
 0.7446165181541E-01 -0.9747372791410E-01  0.0000000000000E+00  0.4146032912442E+00
 0.5780786910615E-01 -0.7877085711818E-01  0.0000000000000E+00  0.3820337306973E+00
 0.4291770587214E-01 -0.6173757360297E-01  0.0000000000000E+00  0.3462894681928E+00
 0.3009846432830E-01 -0.4668243767581E-01  0.0000000000000E+00  0.3076241695153E+00
 0.1964299334082E-01 -0.3390415390901E-01  0.0000000000000E+00  0.2664531529287E+00
 0.1181843679704E-01 -0.2368023899065E-01  0.0000000000000E+00  0.2233506029570E+00
 0.6847873930264E-02 -0.1624841893448E-01  0.0000000000000E+00  0.1790412840333E+00
 0.4887554082655E-02 -0.1178330031726E-01  0.0000000000000E+00  0.1343812689168E+00
 0.6003452429076E-02 -0.1037170949993E-01  0.0000000000000E+00  0.9032061126360E-01
 0.1015300788398E-01 -0.1199246791011E-01  0.0000000000000E+00  0.4784257481950E-01
 0.1718053417651E-01 -0.1650896599418E-01  0.0000000000000E+00  0.7880940800002E-02
 0.2683054292462E-01 -0.2368132600810E-01  0.0000000000000E+00 -0.2877186322720E-01
 0.3877299501720E-01 -0.3319343231456E-01  0.0000000000000E+00 -0.6152719399134E-01
 0.5263393089956E-01 -0.4468379518315E-01  0.0000000000000E+00 -0.8999201507420E-01
 0.1745230339997E+00 -0.2062219059489E+00  0.0000000000000E+00  0.5164064073683E+00
 0.1562691046208E+00 -0.1862773104905E+00  0.0000000000000E+00  0.4997234896927E+00
 0.1369574926858E+00 -0.1651632081068E+00  0.0000000000000E+00  0.4793626239721E+00
 0.1174953392607E+00 -0.1438657739113E+00  0.0000000000000E+00  0.4567556441192E+00
 0.9864384591852E-01 -0.1231692047266E+00  0.0000000000000E+00  0.4317946555813E+00
 0.8085365008917E-01 -0.1034925896201E+00  0.0000000000000E+00  0.4041418703672E+00
 0.6443200360667E-01 -0.8512718435703E-01  0.0000000000000E+00  0.3736438405904E+00
 0.4963810942046E-01 -0.6832229709311E-01  0.0000000000000E+00  0.3403416968042E+00
 0.3671287707132E-01 -0.5331633339004E-01  0.0000000000000E+00  0.3044522271710E+00
 0.2588400880369E-01 -0.4034009623346E-01  0.0000000000000E+00  0.2663432873556E+00
 0.1735780322276E-01 -0.2960761669524E-01  0.0000000000000E+00  0.2265150592316E+00
 0.1130498719112E-01 -0.2130111346800E-01  0.0000000000000E+00  0.1855833070348E+00
 0.7844206599783E-02 -0.1555368287603E-01  0.0000000000000E+00  0.1442595937882E+00
 0.7026339534240E-02 -0.1243262453433E-01  0.0000000000000E+00  0.1033235558184E+00
 0.8823333934333E-02 -0.1192697952630E-01  0.0000000000000E+00  0.6358432138460E-01
 0.1312634863560E-01 -0.1394392157739E-01  0.0000000000000E+00  0.2583182499317E-01
 0.1975701392928E-01 -0.1831859971757E-01  0.0000000000000E+00 -0.9216140603231E-02
 0.2849662643159E-01 -0.2483976875322E-01  0.0000000000000E+00 -0.4096537657137E-01
 0.3911035062807E-01 -0.3327761697008E-01  0.0000000000000E+00 -0.6901850581021E-01
 0.5132153251261E-01 -0.4337086343246E-01  0.0000000000000E+00 -0.9322338732027E-01
 0.1604406306050E+00 -0.1904581267791E+00  0.0000000000000E+00  0.4894731170326E+00
 0.1422364260047E+00 -0.1702557926590E+00  0.0000000000000E+00  0.4685418288202E+00
 0.1231646770652E+00 -0.1491743678328E+00  0.0000000000000E+00  0.4460757493604E+00
 0.1046687310297E+00 -0.1288290752074E+00  0.0000000000000E+00  0.4221905543490E+00
 0.8725296115270E-01 -0.1095840658495E+00  0.0000000000000E+00  0.3959995863434E+00
 0.7112983525133E-01 -0.9161361511018E-01  0.0000000000000E+00  0.3672305846510E+00
 0.5648768155458E-01 -0.7508102701089E-01  0.0000000000000E+00  0.3358974240819E+00
 0.4351292542243E-01 -0.6016389672904E-01  0.0000000000000E+00  0.3022091184257E+00
 0.3238926373402E-01 -0.4704565771383E-01  0.0000000000000E+00  0.2665096856165E+00
 0.2328492681591E-01 -0.3590010263554E-01  0.0000000000000E+00  0.2292486568832E+00
 0.1633867452366E-01 -0.2687535737346E-01  0.0000000000000E+00  0.1909617014333E+00
 0.1164614087794E-01 -0.2007899996129E-01  0.0000000000000E+00  0.1522531969581E+00
 0.9248109579227E-02 -0.1556538255900E-01  0.0000000000000E+00  0.1137756604601E+00
 0.9122483146487E-02 -0.1332670994495E-01  0.0000000000000E+00  0.7620406411257E-01
 0.1118230638101E-01 -0.1329009704667E-01  0.0000000000000E+00  0.4020597785675E-01
 0.1528220298501E-01 -0.1532316115737E-01  0.0000000000000E+00  0.6412039271660E-02
 0.2123618579983E-01 -0.1925031053547E-01  0.0000000000000E+00 -0.2460712607791E-01
 0.2884566237049E-01 -0.2488186811340E-01  0.0000000000000E+00 -0.5234922833808E-01
 0.3797753102035E-01 -0.3207098373508E-01  0.0000000000000E+00 -0.7639728478564E-01
 0.4860074486882E-01 -0.4076363640396E-01  0.0000000000000E+00 -0.9669685624295E-01
 0.1468895803516E+00 -0.1752522522344E+00  0.0000000000000E+00  0.4585326035468E+00
 0.1278251165746E+00 -0.1534641416963E+00  0.0000000000000E+00  0.4387524936546E+00
 0.1101377954553E+00 -0.1339171428634E+00  0.0000000000000E+00  0.4163095490066E+00
 0.9359297148055E-01 -0.1156163402611E+00  0.0000000000000E+00  0.3912596715623E+00
 0.7807127514128E-01 -0.9836096767861E-01  0.0000000000000E+00  0.3636053905496E+00
 0.6373485026592E-01 -0.8226160116445E-01  0.0000000000000E+00  0.3335594402889E+00
 0.5078609130965E-01 -0.6750583388710E-01  0.0000000000000E+00  0.3013970420214E+00
 0.3942302390710E-01 -0.5428968446181E-01  0.0000000000000E+00  0.2674549599670E+00
 0.2981560788457E-01 -0.4278851477553E-01  0.0000000000000E+00  0.2321296194380E+00
 0.2209582921059E-01 -0.3314336666646E-01  0.0000000000000E+00  0.1958757660308E+00
 0.1635072318711E-01 -0.2545226032016E-01  0.0000000000000E+00  0.1591988247735E+00
 0.1261693288813E-01 -0.1976377307900E-01  0.0000000000000E+00  0.1226410539267E+00
 0.1087691148427E-01 -0.1607266255310E-01  0.0000000000000E+00  0.8676224229036E-01
 0.1105784806605E-01 -0.1431837615775E-01  0.0000000000000E+00  0.5211708152546E-01
 0.1303445513239E-01 -0.1438757014855E-01  0.0000000000000E+00  0.1923312075817E-01
 0.1663656358761E-01 -0.1612148633690E-01  0.0000000000000E+00 -0.1140505460115E-01
 0.2166095763163E-01 -0.1932861632350E-01  0.0000000000000E+00 -0.3935623898246E-01
 0.2789443581721E-01 -0.2380508269423E-01  0.0000000000000E+00 -0.6420107433408E-01
 0.3513192152963E-01 -0.2937469775516E-01  0.0000000000000E+00 -0.8542907146956E-01
 0.4357350607961E-01 -0.3613886737951E-01  0.0000000000000E+00 -0.1022646874349E+00
</DataArray>
<DataArray type="Float64" Name="S_Centroid" NumberOfComponents="4" ComponentName0="S11" ComponentName1="S22" ComponentName2="S33" ComponentName3="S12" format="ascii">
-0.1004238029864E+00 -0.7558965586398E+00 -0.1712640748773E+00 -0.1257954353207E+00
 0.1143157304671E-01 -0.5556177267572E+00 -0.1088372323639E+00 -0.5904166625892E-02
-0.2625060829052E-02 -0.5230596429235E+00 -0.1051369423172E+00  0.1017368182908E-02
 0.3580142977513E-03 -0.5394735756071E+00 -0.1078231138686E+00  0.7363838991393E-02
-0.1193374790310E-03 -0.5800281235749E+00 -0.1160294939398E+00  0.1061205281467E-01
 0.4580082871211E-04 -0.6356627370107E+00 -0.1271233891307E+00  0.1287002280203E-01
 0.2821427605113E-04 -0.7020714617812E+00 -0.1404086515933E+00  0.1458518819628E-01
 0.3644670069633E-04 -0.7770409092154E+00 -0.1554008948186E+00  0.1603172243603E-01
 0.2877506033780E-04 -0.8594449564654E+00 -0.1718832388423E+00  0.1735059013918E-01
 0.1836384018161E-04 -0.9487893602929E+00 -0.1897542021181E+00  0.1863506853036E-01
 0.3154763787205E-05 -0.1045013647279E+01 -0.2090021016174E+00  0.1995379099851E-01
-0.1613169560810E-04 -0.1148396314909E+01 -0.2296824927435E+00  0.2136584817307E-01
-0.4014589907836E-04 -0.1259525559522E+01 -0.2519131448380E+00  0.2292967583375E-01
-0.7066632191877E-04 -0.1379312323393E+01 -0.2758766020538E+00  0.2471129430159E-01
-0.1085183253139E-03 -0.1509041482506E+01 -0.3018300046638E+00  0.2679191320959E-01
-0.1581772608723E-03 -0.1650511097309E+01 -0.3301338598334E+00  0.2928890262326E-01
-0.2288843515755E-03 -0.1806282353392E+01 -0.3613022529325E+00  0.3239070692082E-01
-0.3235247924702E-03 -0.1980286978056E+01 -0.3961221064724E+00  0.3645112824547E-01
-0.9208637614977E-03 -0.2179647646381E+01 -0.4361137085271E+00  0.4277530607713E-01
-0.3735707081733E-02 -0.2415836350045E+01 -0.4839144186363E+00  0.5677306465523E-01
-0.9448082657109E-02 -0.2689861210874E+01 -0.5398618667508E+00  0.8766515882587E-01
-0.1743164348180E-01 -0.2985473516508E+01 -0.6005810409474E+00  0.1414263887868E+00
-0.2822455865082E-01 -0.3285747986386E+01 -0.6627945188838E+00  0.2173349839317E+00
-0.4306527978965E-01 -0.3581760627995E+01 -0.7249651923597E+00  0.3113804185334E+00
-0.6307237755951E-01 -0.3871165206047E+01 -0.7868475284462E+00  0.4197569090048E+00
-0.8917104093133E-01 -0.4154721084784E+01 -0.8487784377909E+00  0.5402191588777E+00
-0.1223004800635E+00 -0.4433689283029E+01 -0.9111979661964E+00  0.6721089997883E+00
-0.1636628016745E+00 -0.4708423441707E+01 -0.9744172631962E+00  0.8159408187249E+00
-0.2148367169027E+00 -0.4977276692199E+01 -0.1038422697294E+01  0.9728649007644E+00
-0.2767469558581E+00 -0.5234615402486E+01 -0.1102272488094E+01  0.1142819106893E+01
-0.3482577412620E+00 -0.5474049116636E+01 -0.1164461388931E+01  0.1322326255220E+01
-0.4289943124725E+00 -0.5700409040202E+01 -0.1225880688802E+01  0.1508564135676E+01
-0.5214039305566E+00 -0.5926185859006E+01 -0.1289517977128E+01  0.1704351792367E+01
-0.6300246126939E+00 -0.6162352322393E+01 -0.1358475407260E+01  0.1916749482777E+01
-0.7615020901658E+00 -0.6422008492437E+01 -0.1436702137929E+01  0.2156953921155E+01
-0.9322441611396E+00 -0.6724963186336E+01 -0.1531441492315E+01  0.2442466763426E+01
-0.1152023859187E+01 -0.7101369961977E+01 -0.1650678788830E+01  0.2807608793659E+01
-0.1544338030251E+01 -0.7604143132531E+01 -0.1829696259821E+01  0.3305038855764E+01
-0.1872952871317E+01 -0.8315691684072E+01 -0.2037728941442E+01  0.4102543814830E+01
-0.4709127060188E+01 -0.9163022383210E+01 -0.2774429930022E+01  0.5581335591529E+01
 0.5109696268787E+01 -0.8026217416205E+01 -0.5833042381755E+00  0.6345400418535E+01
-0.1202908107167E+00 -0.7421766562425E+00 -0.1724934959622E+00 -0.1426213838775E+00
-0.2742255022331E-01 -0.6903193019275E+00 -0.1435483725692E+00 -0.5049173655490E-01
-0.4292519362239E-02 -0.6483365288747E+00 -0.1305258115924E+00  0.1095111465956E-02
-0.4108504745409E-02 -0.6578065755233E+00 -0.1323830180264E+00  0.1768072996150E-01
-0.2087529725701E-02 -0.6914421589014E+00 -0.1387059397923E+00  0.2871165054428E-01
-0.1587367085540E-02 -0.7411233777937E+00 -0.1485421511893E+00  0.3596287006294E-01
-0.1232279290066E-02 -0.8023567270995E+00 -0.1607178036728E+00  0.4152047245265E-01
-0.1079155938789E-02 -0.8728001256587E+00 -0.1747758589239E+00  0.4615233251900E-01
-0.1016576279551E-02 -0.9511809194272E+00 -0.1904395019791E+00  0.5033450031398E-01
-0.1024281981931E-02 -0.1036896583738E+01 -0.2075841762373E+00  0.5436327321940E-01
-0.1086309310524E-02 -0.1129797598844E+01 -0.2261767850012E+00  0.5845876121282E-01
-0.1199042620637E-02 -0.1230090449260E+01 -0.2462579020457E+00  0.6280734951538E-01
-0.1365348148199E-02 -0.1338300639649E+01 -0.2679332015520E+00  0.6759112636063E-01
-0.1595548717160E-02 -0.1455280724498E+01 -0.2913752589848E+00  0.7301180487045E-01
-0.1910245278406E-02 -0.1582258853515E+01 -0.3168338244799E+00  0.7932145527101E-01
-0.2353391731165E-02 -0.1720959076574E+01 -0.3446624987968E+00  0.8687663722897E-01
-0.3013838854992E-02 -0.1873831360203E+01 -0.3753690454051E+00  0.9624465125725E-01
-0.4187047172312E-02 -0.2044535574640E+01 -0.4097445304681E+00  0.1085629025630E+00
-0.7467761395864E-02 -0.2238392419501E+01 -0.4491720428725E+00  0.1265375610359E+00
-0.1562844545333E-01 -0.2459997352030E+01 -0.4951251668746E+00  0.1545700687694E+00
-0.2945775421810E-01 -0.2707199154303E+01 -0.5473313898602E+00  0.1969166825545E+00
-0.4722718251920E-01 -0.2970112687450E+01 -0.6034679829862E+00  0.2560019385794E+00
-0.6769754392601E-01 -0.3237730350198E+01 -0.6610855886758E+00  0.3318306611509E+00
-0.9121838431382E-01 -0.3502881611163E+01 -0.7188200098066E+00  0.4225875367934E+00
-0.1189212705674E+00 -0.3762397392957E+01 -0.7762637442722E+00  0.5260489687411E+00
-0.1520971643224E+00 -0.4015336171652E+01 -0.8334866796147E+00  0.6405183019742E+00
-0.1920302670643E+00 -0.4261278817066E+01 -0.8906618300979E+00  0.7650660027666E+00
-0.2400527792889E+00 -0.4499142141433E+01 -0.9478389982683E+00  0.8993307349416E+00
-0.2971678940266E+00 -0.4726348634587E+01 -0.1004703320694E+01  0.1042859019758E+01
-0.3629197627697E+00 -0.4938937137053E+01 -0.1060371395765E+01  0.1194399946424E+01
-0.4362770907711E+00 -0.5133907038324E+01 -0.1114036842420E+01  0.1352605773037E+01
-0.5185165845180E+00 -0.5311774918027E+01 -0.1166058317885E+01  0.1517283210162E+01
-0.6135005564135E+00 -0.5475814739264E+01 -0.1217863077283E+01  0.1689926410120E+01
-0.7264630741465E+00 -0.5628967061824E+01 -0.1271086046135E+01  0.1874336654956E+01
-0.8663029918168E+00 -0.5771933992125E+01 -0.1327647416572E+01  0.2076891333253E+01
-0.1044076985614E+01 -0.5901030119793E+01 -0.1389021441779E+01  0.2306380703135E+01
-0.1296395029603E+01 -0.6002628615476E+01 -0.1459804750768E+01  0.2574280150273E+01
-0.1606888690014E+01 -0.6030166049441E+01 -0.1527410970651E+01  0.2877579442092E+01
-0.2293830103010E+01 -0.5826302533542E+01 -0.1624026551510E+01  0.3240551233272E+01
-0.2282001964264E+01 -0.4760916000251E+01 -0.1408583613893E+01  0.2563061680086E+01
 0.7368422848195E+01 -0.3906076020458E+01  0.6924693758660E+00  0.1924016173399E+01
-0.1428247104949E+00 -0.7837965187711E+00 -0.1853242486148E+00 -0.1388482824637E+00
-0.5898437026461E-01 -0.7796398982212E+00 -0.1677248561964E+00 -0.6581229906572E-01
-0.1933014154288E-01 -0.7627115028576E+00 -0.1564083312108E+00 -0.4315251139801E-02
-0.1046197204100E-01 -0.7684867427522E+00 -0.1557897452801E+00  0.2668066193025E-01
-0.6818192577545E-02 -0.7979987641264E+00 -0.1609633937393E+00  0.4453426232821E-01
-0.4853719789533E-02 -0.8429209684952E+00 -0.1695549401835E+00  0.5710908534427E-01
-0.3895918297419E-02 -0.8996677176946E+00 -0.1807127298912E+00  0.6666778430359E-01
-0.3387913337726E-02 -0.9659387460924E+00 -0.1938653347749E+00  0.7465932070624E-01
-0.3175631305613E-02 -0.1040458365175E+01 -0.2087268024064E+00  0.8184399793964E-01
-0.3161502378390E-02 -0.1122568996880E+01 -0.2251461032066E+00  0.8873111077984E-01
-0.3306908592068E-02 -0.1212061207010E+01 -0.2430736267426E+00  0.9569365789448E-01
-0.3598134744056E-02 -0.1309078261719E+01 -0.2625352832046E+00  0.1030483424969E+00
-0.4042317761674E-02 -0.1414079053220E+01 -0.2836242784226E+00  0.1111019988518E+00
-0.4667417620212E-02 -0.1527840693518E+01 -0.3065016267950E+00  0.1201922937135E+00
-0.5532769191609E-02 -0.1651494750991E+01 -0.3314055089748E+00  0.1307378834265E+00
-0.6758599116742E-02 -0.1786618930136E+01 -0.3586755111953E+00  0.1433206860455E+00
-0.8602491159414E-02 -0.1935396499778E+01 -0.3887998039811E+00  0.1588586124070E+00
-0.1187142493454E-01 -0.2100761477777E+01 -0.4225265868384E+00  0.1790410946713E+00
-0.1878435586635E-01 -0.2285788821047E+01 -0.4609146422508E+00  0.2066777259498E+00
-0.3218547101372E-01 -0.2491605004316E+01 -0.5047581025875E+00  0.2447670896617E+00
-0.5263169305560E-01 -0.2715163218471E+01 -0.5535589905539E+00  0.2950443938013E+00
-0.7800257947712E-01 -0.2949741657704E+01 -0.6055488564596E+00  0.3580939389009E+00
-0.1063001381392E+00 -0.3187957325409E+01 -0.6588515025273E+00  0.4338966687495E+00
-0.1372116154515E+00 -0.3424172920652E+01 -0.7122769178345E+00  0.5216959868594E+00
-0.1716358309597E+00 -0.3654967805713E+01 -0.7653207387387E+00  0.6202216624693E+00
-0.2109007171669E+00 -0.3878353930939E+01 -0.8178509418081E+00  0.7281442271472E+00
-0.2563572183941E+00 -0.4092734730549E+01 -0.8698184027499E+00  0.8443091035085E+00
-0.3091642775472E+00 -0.4296058708316E+01 -0.9210446108972E+00  0.9676253922532E+00
-0.3697300069688E+00 -0.4485458706515E+01 -0.9710377571663E+00  0.1096703652006E+01
-0.4372044957953E+00 -0.4657780336282E+01 -0.1018996981600E+01  0.1230000532101E+01
-0.5108996973380E+00 -0.4810361715436E+01 -0.1064252298413E+01  0.1366741637529E+01
-0.5925448422626E+00 -0.4940923794163E+01 -0.1106693743776E+01  0.1506933924859E+01
-0.6860293579869E+00 -0.5047124248725E+01 -0.1146630738428E+01  0.1650608270523E+01
-0.7964829821827E+00 -0.5125053112363E+01 -0.1184307236557E+01  0.1797930247611E+01
-0.9299978309578E+00 -0.5165938673166E+01 -0.1219187318992E+01  0.1948539580449E+01
-0.1096916097571E+01 -0.5151496759228E+01 -0.1249682589982E+01  0.2099075973237E+01
-0.1299245130493E+01 -0.5042677903455E+01 -0.1268384625690E+01  0.2230947417609E+01
-0.1544568725771E+01 -0.4762162317918E+01 -0.1261346227533E+01  0.2301423684874E+01
-0.1701583869175E+01 -0.4098756933825E+01 -0.1160068177886E+01  0.2045662311905E+01
 0.9612879668020E-02 -0.3161273287652E+01 -0.6303320909895E+00  0.8770499962912E+00
 0.7629425130232E+01 -0.2770141201839E+01  0.9718568001603E+00  0.8201559802457E+00
-0.1641810782234E+00 -0.8456940140425E+00 -0.2019750214628E+00 -0.1295871529042E+00
-0.8612797283457E-01 -0.8607603253147E+00 -0.1893776624518E+00 -0.6699448395053E-01
-0.3853844318334E-01 -0.8628774108248E+00 -0.1802831734880E+00 -0.5813967224905E-02
-0.2076300894281E-01 -0.8725188752653E+00 -0.1786563795038E+00  0.3416872381723E-01
-0.1362168848546E-01 -0.8994996706398E+00 -0.1826242745464E+00  0.5902018569789E-01
-0.9924121919118E-02 -0.9409771979597E+00 -0.1901802668097E+00  0.7660569191866E-01
-0.7959966336085E-02 -0.9938921758883E+00 -0.2003704314306E+00  0.9023915851405E-01
-0.6934242364849E-02 -0.1056368463654E+01 -0.2126605443727E+00  0.1016565610944E+00
-0.6477006258488E-02 -0.1127204403765E+01 -0.2267362853834E+00  0.1119227857941E+00
-0.6418384898119E-02 -0.1205750173862E+01 -0.2424337153646E+00  0.1217335685642E+00
-0.6676556591921E-02 -0.1291761915171E+01 -0.2596876982223E+00  0.1316120027060E+00
-0.7224693238955E-02 -0.1385329749804E+01 -0.2785108927587E+00  0.1420013894182E+00
-0.8075111252473E-02 -0.1486842644985E+01 -0.2989835557027E+00  0.1533298435468E+00
-0.9281383253756E-02 -0.1596985432972E+01 -0.3212533680321E+00  0.1660644486817E+00
-0.1095781393565E-01 -0.1716757436581E+01 -0.3455430552523E+00  0.1807760366629E+00
-0.1333075611563E-01 -0.1847523945194E+01 -0.3721709458076E+00  0.1982409207270E+00
-0.1689754953172E-01 -0.1991061062437E+01 -0.4015917283779E+00  0.2196392822704E+00
-0.2289518676549E-01 -0.2149356937720E+01 -0.4344504313709E+00  0.2468362357149E+00
-0.3376123934899E-01 -0.2323738054537E+01 -0.4714998658031E+00  0.2822174665107E+00
-0.5203821581339E-01 -0.2513565719831E+01 -0.5131207947750E+00  0.3276097649888E+00
-0.7798789235630E-01 -0.2715640926324E+01 -0.5587257720617E+00  0.3833738025687E+00
-0.1094047499745E+00 -0.2925042533497E+01 -0.6068894657377E+00  0.4491020285247E+00
-0.1440125251008E+00 -0.3136578274690E+01 -0.6561181697351E+00  0.5245538331130E+00
-0.1810560587568E+00 -0.3345791771803E+01 -0.7053695766227E+00  0.6093862401552E+00
-0.2211095640882E+00 -0.3549303329442E+01 -0.7540825899428E+00  0.7028230198046E+00
-0.2653324833573E+00 -0.3744528191756E+01 -0.8019721469731E+00  0.8037254897131E+00
-0.3149236048274E+00 -0.3929107897915E+01 -0.8488063131968E+00  0.9107282311055E+00
-0.3707184598581E+00 -0.4100413121588E+01 -0.8942263296142E+00  0.1022210058798E+01
-0.4326889648876E+00 -0.4255448417274E+01 -0.9376274904041E+00  0.1136253714034E+01
-0.4998802071477E+00 -0.4391192606300E+01 -0.9782145772660E+00  0.1251088289501E+01
-0.5717751995805E+00 -0.4504515950253E+01 -0.1015258245095E+01  0.1365703360703E+01
-0.6498429780366E+00 -0.4591203575292E+01 -0.1048209326285E+01  0.1479296874053E+01
-0.7371133895167E+00 -0.4645424488295E+01 -0.1076507591603E+01  0.1590019098320E+01
-0.8367050713059E+00 -0.4658687176830E+01 -0.1099078466005E+01  0.1694207799526E+01
-0.9510326459379E+00 -0.4616854533062E+01 -0.1113577452393E+01  0.1784783047225E+01
-0.1077898486816E+01 -0.4495124345333E+01 -0.1114604583039E+01  0.1845370734574E+01
-0.1199589975699E+01 -0.4252310972795E+01 -0.1090380205947E+01  0.1839374702746E+01
-0.1245053421623E+01 -0.3816034368727E+01 -0.1012217573153E+01  0.1671443986944E+01
-0.8066426183053E+00 -0.3141227812513E+01 -0.7895740979292E+00  0.1097910540234E+01
 0.1541648981042E+01 -0.2570953400647E+01 -0.2058608869887E+00  0.9265326364601E-01
 0.7305947490711E+01 -0.2342747621587E+01  0.9926399886162E+00  0.4653483409024E+00
-0.1846290131618E+00 -0.9163387938150E+00 -0.2201935646765E+00 -0.1182875232799E+00
-0.1102994911136E+00 -0.9403139623533E+00 -0.2101226938245E+00 -0.6133261548392E-01
-0.5884936181241E-01 -0.9544856444489E+00 -0.2026670042722E+00 -0.2811982845963E-02
-0.3394230766929E-01 -0.9697354773681E+00 -0.2007355599987E+00  0.4183163145922E-01
-0.2254439889412E-01 -0.9962715793555E+00 -0.2037631986862E+00  0.7252070059299E-01
-0.1666048383847E-01 -0.1035257172446E+01 -0.2103835343918E+00  0.9483915271484E-01
-0.1343872672534E-01 -0.1084997622419E+01 -0.2196872731025E+00  0.1124169316751E+00
-0.1171913284000E-01 -0.1144040433076E+01 -0.2311519166276E+00  0.1272541675603E+00
-0.1093233424353E-01 -0.1211378375379E+01 -0.2444621455673E+00  0.1406164027974E+00
-0.1080205111252E-01 -0.1286409470210E+01 -0.2594423081305E+00  0.1533695390344E+00
-0.1119746832878E-01 -0.1368881552728E+01 -0.2760158083242E+00  0.1661711424773E+00
-0.1207327203485E-01 -0.1458840528808E+01 -0.2941827645522E+00  0.1795832684081E+00
-0.1344811881239E-01 -0.1556603052303E+01 -0.3140102389022E+00  0.1941467948957E+00
-0.1540696687281E-01 -0.1662747176530E+01 -0.3356308336819E+00  0.2104457829758E+00
-0.1812997686110E-01 -0.1778110531196E+01 -0.3592481069647E+00  0.2291802854629E+00
-0.2197061775402E-01 -0.1903793221037E+01 -0.3851527734974E+00  0.2512742234952E+00
-0.2766278022622E-01 -0.2041078627387E+01 -0.4137482876880E+00  0.2780370339690E+00
-0.3671495694102E-01 -0.2191054380200E+01 -0.4455538740675E+00  0.3112418059066E+00
-0.5152380459616E-01 -0.2353840729871E+01 -0.4810729140619E+00  0.3527059362583E+00
-0.7421508661740E-01 -0.2527905978685E+01 -0.5204242208155E+00  0.4033785212016E+00
-0.1047815030500E+00 -0.2710157625451E+01 -0.5629878340894E+00  0.4628361037497E+00
-0.1410566501045E+00 -0.2896780454425E+01 -0.6075674299593E+00  0.5301145974068E+00
-0.1807083291357E+00 -0.3083935403664E+01 -0.6529287562893E+00  0.6047182371459E+00
-0.2226910222986E+00 -0.3268027322191E+01 -0.6981436793010E+00  0.6863771921598E+00
-0.2672366578262E+00 -0.3445849437945E+01 -0.7426172302201E+00  0.7744997322794E+00
-0.3152137765321E+00 -0.3614525602189E+01 -0.7859478874558E+00  0.8679932216014E+00
-0.3675270125751E+00 -0.3771260041750E+01 -0.8277574231995E+00  0.9652951651990E+00
-0.4246361846876E+00 -0.3913105991067E+01 -0.8675484480784E+00  0.1064413103234E+01
-0.4861710190263E+00 -0.4036959121279E+01 -0.9046260415411E+00  0.1163076071395E+01
-0.5510823066503E+00 -0.4139655975278E+01 -0.9381476703651E+00  0.1259187537664E+01
-0.6187370214979E+00 -0.4217503833293E+01 -0.9672481853714E+00  0.1351102463071E+01
-0.6898630542232E+00 -0.4265069954513E+01 -0.9909866165141E+00  0.1436802529381E+01
-0.7658055062439E+00 -0.4274613624511E+01 -0.1008083841173E+01  0.1512385823996E+01
-0.8466812844658E+00 -0.4235459995825E+01 -0.1016428271204E+01  0.1570718224293E+01
-0.9285273832529E+00 -0.4131863062639E+01 -0.1012078104259E+01  0.1598813398949E+01
-0.9961948943620E+00 -0.3940657726158E+01 -0.9873705388169E+00  0.1571960292127E+01
-0.1004610110645E+01 -0.3630045951584E+01 -0.9269312262583E+00  0.1441608193067E+01
-0.8083742275747E+00 -0.3172490762597E+01 -0.7961730098983E+00  0.1109819774947E+01
 0.4814982427661E-01 -0.2640329286436E+01 -0.5184359001571E+00  0.4599717370611E+00
 0.2489453212881E+01 -0.2331133129415E+01  0.3166401716504E-01 -0.2510692993003E+00
 0.6885846781948E+01 -0.2153832252508E+01  0.9464029199904E+00  0.3112280246972E+00
-0.2045318998141E+00 -0.9908543600853E+00 -0.2390772555424E+00 -0.1060246649100E+00
-0.1325157942870E+00 -0.1019376103015E+01 -0.2303783828934E+00 -0.5221087727866E-01
-0.7915318081858E-01 -0.1040947384354E+01 -0.2240201163727E+00  0.3623389129608E-02
-0.4892907319270E-01 -0.1061232004071E+01 -0.2220322187613E+00  0.5043993682862E-01
-0.3333052890408E-01 -0.1088527968398E+01 -0.2243717028039E+00  0.8551402401051E-01
-0.2495915971537E-01 -0.1125881728271E+01 -0.2301681810270E+00  0.1120787269990E+00
-0.2027922436796E-01 -0.1172995448865E+01 -0.2386549382028E+00  0.1333876534015E+00
-0.1772643753483E-01 -0.1228949167881E+01 -0.2493351247985E+00  0.1515531593072E+00
-0.1653135147792E-01 -0.1292968970846E+01 -0.2619000683674E+00  0.1679718497827E+00
-0.1630383626620E-01 -0.1364541709374E+01 -0.2761691132433E+00  0.1836402181651E+00
-0.1685627416686E-01 -0.1443425722833E+01 -0.2920564037519E+00  0.1993324613100E+00
-0.1812224703995E-01 -0.1529631276264E+01 -0.3095507092735E+00  0.2157160525017E+00
-0.2012679551415E-01 -0.1623401159618E+01 -0.3287055959246E+00  0.2334321496672E+00
-0.2298926143654E-01 -0.1725195768082E+01 -0.3496370111138E+00  0.2531644250363E+00
-0.2696084694729E-01 -0.1835669927208E+01 -0.3725261603821E+00  0.2757130408443E+00
-0.3252269678848E-01 -0.1955625964350E+01 -0.3976297381529E+00  0.3020902008224E+00
-0.4059585758564E-01 -0.2085845050420E+01 -0.4252881879385E+00  0.3336116313674E+00
-0.5280969705620E-01 -0.2226668012807E+01 -0.4558955487660E+00  0.3718138633753E+00
-0.7137449510629E-01 -0.2377427208849E+01 -0.4897603480890E+00  0.4179615775693E+00
-0.9799158418016E-01 -0.2536157205164E+01 -0.5268297657191E+00  0.4723682217276E+00
-0.1324292736857E+00 -0.2699953652802E+01 -0.5664765937387E+00  0.5341467495602E+00
-0.1726014894458E+00 -0.2865718496172E+01 -0.6076640061785E+00  0.6020074683680E+00
-0.2162128271932E+00 -0.3030473424256E+01 -0.6493372599657E+00  0.6752137938646E+00
-0.2620201030188E+00 -0.3191245079795E+01 -0.6906530468544E+00  0.7533974118324E+00
-0.3099232653347E+00 -0.3345050589911E+01 -0.7309947819419E+00  0.8359576513096E+00
-0.3604350791379E+00 -0.3488926747170E+01 -0.7698723767335E+00  0.9217447101289E+00
-0.4140881148376E+00 -0.3619876863594E+01 -0.8067930077084E+00  0.1009012116871E+01
-0.4709483752567E+00 -0.3734807042563E+01 -0.8411510960980E+00  0.1095493664458E+01
-0.5303256122940E+00 -0.3830531808290E+01 -0.8721714971133E+00  0.1178625646415E+01
-0.5909755252250E+00 -0.3903713037574E+01 -0.8989377259549E+00  0.1255900006133E+01
-0.6518726508699E+00 -0.3950269214646E+01 -0.9204283868186E+00  0.1324883430876E+01
-0.7126200217401E+00 -0.3964201545419E+01 -0.9353643273699E+00  0.1382261406660E+01
-0.7723739741599E+00 -0.3937153732190E+01 -0.9419055553055E+00  0.1422250565027E+01
-0.8274017004774E+00 -0.3858274447746E+01 -0.9371352436092E+00  0.1434931441893E+01
-0.8666535086307E+00 -0.3713497696825E+01 -0.9160302547410E+00  0.1403528534939E+01
-0.8620520338058E+00 -0.3485906703056E+01 -0.8695917603303E+00  0.1299469555144E+01
-0.7434731604995E+00 -0.3161288501348E+01 -0.7809523440067E+00  0.1074525972395E+01
-0.3330219519738E+00 -0.2755281079693E+01 -0.6176606155373E+00  0.6617814023090E+00
 0.7596331269812E+00 -0.2379336303751E+01 -0.3239406401812E+00  0.5845118516312E-01
 0.3065176606591E+01 -0.2220820531551E+01  0.1688712175243E+00 -0.3934231856959E+00
 0.6493511810632E+01 -0.2064711812135E+01  0.8857600128982E+00  0.2184938664024E+00
-0.2240794120776E+00 -0.1066864792954E+01 -0.2581888448536E+00 -0.9323009480117E-01
-0.1534541806405E+00 -0.1097872748125E+01 -0.2502653894824E+00 -0.4126545902209E-01
-0.9909909269162E-01 -0.1123981541282E+01 -0.2446161304399E+00  0.1241121483064E-01
-0.6499027058180E-01 -0.1148171872457E+01 -0.2426324322233E+00  0.6012654820730E-01
-0.4561980191772E-01 -0.1176654436859E+01 -0.2444548513979E+00  0.9835112817877E-01
-0.3467759053147E-01 -0.1213010601865E+01 -0.2495376421977E+00  0.1285543493146E+00
-0.2840464826234E-01 -0.1257955466515E+01 -0.2572720267890E+00  0.1533079558167E+00
-0.2491497298681E-01 -0.1311122651394E+01 -0.2672075288579E+00  0.1746485978486E+00
-0.2324703684370E-01 -0.1371993549678E+01 -0.2790481214625E+00  0.1940335875038E+00
-0.2289945032655E-01 -0.1440165628973E+01 -0.2926130202201E+00  0.2125487021028E+00
-0.2362512366279E-01 -0.1515422921415E+01 -0.3078096136022E+00  0.2310614233003E+00
-0.2533468877796E-01 -0.1597746699672E+01 -0.3246162825272E+00  0.2503282747584E+00
-0.2805897995800E-01 -0.1687305663597E+01 -0.3430729338232E+00  0.2710747658071E+00
-0.3195164178927E-01 -0.1784435998381E+01 -0.3632775334472E+00  0.2940634795944E+00
-0.3733265433777E-01 -0.1889598278578E+01 -0.3853861923259E+00  0.3201615063916E+00
-0.4479288819275E-01 -0.2003290071021E+01 -0.4096165979465E+00  0.3504095230876E+00
-0.5537397935539E-01 -0.2125833506022E+01 -0.4362415035759E+00  0.3860394716497E+00
-0.7070872097398E-01 -0.2256995023444E+01 -0.4655407558207E+00  0.4282929609357E+00
-0.9274988650331E-01 -0.2395612538852E+01 -0.4976724924870E+00  0.4779534140520E+00
-0.1228070310380E+00 -0.2539534279100E+01 -0.5324682699620E+00  0.5348771915183E+00
-0.1604642960004E+00 -0.2686059534639E+01 -0.5693047746112E+00  0.5978939252504E+00
-0.2037188133224E+00 -0.2832578113278E+01 -0.6072593943689E+00  0.6655146220598E+00
-0.2503397554076E+00 -0.2976678889801E+01 -0.6454037386590E+00  0.7367882753165E+00
-0.2989372528687E+00 -0.3115844882363E+01 -0.6829564372232E+00  0.8111681496082E+00
-0.3490975441820E+00 -0.3247332689334E+01 -0.7192860574213E+00  0.8879330460520E+00
-0.4009505103268E+00 -0.3368226379855E+01 -0.7538353892695E+00  0.9658110021915E+00
-0.4546202531571E+00 -0.3475494138135E+01 -0.7860228899712E+00  0.1042881442630E+01
-0.5097687999345E+00 -0.3566018206307E+01 -0.8151574133951E+00  0.1116658079121E+01
-0.5653633802254E+00 -0.3636595197539E+01 -0.8403917280758E+00  0.1184306287327E+01
-0.6198357599933E+00 -0.3683805666249E+01 -0.8607282980742E+00  0.1242874321079E+01
-0.6715361943242E+00 -0.3703447464844E+01 -0.8749967448721E+00  0.1289141745289E+01
-0.7186901073634E+00 -0.3689537962895E+01 -0.8816456271892E+00  0.1318633148016E+01
-0.7579758103803E+00 -0.3634118962057E+01 -0.8784189675769E+00  0.1324084801384E+01
-0.7815512738342E+00 -0.3527715082006E+01 -0.8618532840106E+00  0.1293830433461E+01
-0.7715966512570E+00 -0.3359989156340E+01 -0.8263171738325E+00  0.1209609632778E+01
-0.6890813261122E+00 -0.3122608153877E+01 -0.7623379073575E+00  0.1043678743107E+01
-0.4492147437722E+00 -0.2819167255378E+01 -0.6536764095705E+00  0.7583459363462E+00
 0.1229175496440E+00 -0.2490508806938E+01 -0.4735182585148E+00  0.3258739378807E+00
 0.1320404484776E+01 -0.2241352516577E+01 -0.1841896091048E+00 -0.1853257496521E+00
 0.3413269259344E+01 -0.2164098048579E+01  0.2498342458758E+00 -0.4453586266439E+00
 0.6155154926605E+01 -0.2022966051917E+01  0.8264377872525E+00  0.1493100562703E+00
-0.2433519471104E+00 -0.1143112290840E+01 -0.2772928517220E+00 -0.8011890295075E-01
-0.1735461421750E+00 -0.1175540594064E+01 -0.2698173512684E+00 -0.2933020944041E-01
-0.1186288874155E+00 -0.1204438261874E+01 -0.2646134338010E+00  0.2274071839914E-01
-0.8167576398397E-01 -0.1231453641866E+01 -0.2626258850834E+00  0.7075225482944E-01
-0.5907309738053E-01 -0.1261107721192E+01 -0.2640361676490E+00  0.1112134838402E+00
-0.4564307443158E-01 -0.1296849182247E+01 -0.2684984553367E+00  0.1444459228042E+00
-0.3771968679215E-01 -0.1339984151385E+01 -0.2755407717414E+00  0.1723071995018E+00
-0.3322522760120E-01 -0.1390620526230E+01 -0.2847691550096E+00  0.1966239275046E+00
-0.3103673627185E-01 -0.1448494427321E+01 -0.2959062371279E+00  0.2188428170298E+00
-0.3055077594693E-01 -0.1513322289161E+01 -0.3087746176227E+00  0.2400990431833E+00
-0.3146273825917E-01 -0.1584922951860E+01 -0.3232771428410E+00  0.2613277819252E+00
-0.3365968473104E-01 -0.1663253881786E+01 -0.3393827183605E+00  0.2833558749682E+00
-0.3717681583959E-01 -0.1748410735901E+01 -0.3571175156696E+00  0.3069750868234E+00
-0.4219886720538E-01 -0.1840603581101E+01 -0.3765604952725E+00  0.3330042812928E+00
-0.4910502294614E-01 -0.1940097824695E+01 -0.3978405754565E+00  0.3623437097085E+00
-0.5856650417742E-01 -0.2047101517399E+01 -0.4211336105906E+00  0.3960113288614E+00
-0.7167950459148E-01 -0.2161546498613E+01 -0.4466452072965E+00  0.4350995475581E+00
-0.8999766371518E-01 -0.2282779364895E+01 -0.4745554127934E+00  0.4805473993821E+00
-0.1151893403565E+00 -0.2409342402116E+01 -0.5049063560182E+00  0.5327396563788E+00
-0.1482158723590E+00 -0.2539033333041E+01 -0.5374498490887E+00  0.5912023331300E+00
-0.1885073643473E+00 -0.2669347718251E+01 -0.5715710250366E+00  0.6545860247587E+00
-0.2341297168660E+00 -0.2798023976562E+01 -0.6064307477221E+00  0.7212738322909E+00
-0.2829128389654E+00 -0.2923041562555E+01 -0.6411908898586E+00  0.7901279473674E+00
-0.3333446161387E+00 -0.3042230629489E+01 -0.6751150591856E+00  0.8603932216623E+00
-0.3847163225231E+00 -0.3153089406943E+01 -0.7075611564366E+00  0.9311709543641E+00
-0.4367705129200E+00 -0.3252836644833E+01 -0.7379214425466E+00  0.1001031842124E+01
-0.4892104209336E+00 -0.3338521514427E+01 -0.7655463984797E+00  0.1067889562672E+01
-0.5412847655460E+00 -0.3407101847835E+01 -0.7896773344433E+00  0.1129069152342E+01
-0.5915776090603E+00 -0.3455445716805E+01 -0.8094046772342E+00  0.1181484004514E+01
-0.6380785441164E+00 -0.3480198669470E+01 -0.8236554549907E+00  0.1221761147870E+01
-0.6783501718389E+00 -0.3477318509444E+01 -0.8311337486413E+00  0.1245997151320E+01
-0.7091112976495E+00 -0.3441318910284E+01 -0.8300860539560E+00  0.1248820185191E+01
-0.7245196101250E+00 -0.3365382931952E+01 -0.8179805206043E+00  0.1222039576993E+01
-0.7128642524204E+00 -0.3242392683746E+01 -0.7910513990208E+00  0.1153379223988E+01
-0.6506714692923E+00 -0.3066688206795E+01 -0.7434719462960E+00  0.1025245855955E+01
-0.4917226957517E+00 -0.2838542337092E+01 -0.6660530164938E+00  0.8145524618322E+00
-0.1478531276376E+00 -0.2574574157342E+01 -0.5444854651094E+00  0.4988005244464E+00
 0.5330808625715E+00 -0.2324010888596E+01 -0.3581860105422E+00  0.8357533590865E-01
 0.1752631908902E+01 -0.2167418391679E+01 -0.8295729779159E-01 -0.3287489649027E+00
 0.3622695857567E+01 -0.2133151854239E+01  0.2979088051048E+00 -0.4569352098341E+00
 0.5868496850314E+01 -0.2006532099007E+01  0.7723929617709E+00  0.9319793881491E-01
-0.2623773377275E+00 -0.1218898349947E+01 -0.2962551419494E+00 -0.6681938314718E-01
-0.1930603858369E+00 -0.1252147502935E+01 -0.2890415820615E+00 -0.1685401786748E-01
-0.1377854691982E+00 -0.1282748922670E+01 -0.2841068826071E+00  0.3405107894035E-01
-0.9872247762538E-01 -0.1311711933856E+01 -0.2820868864998E+00  0.8209853355309E-01
-0.7341360810189E-01 -0.1342322733794E+01 -0.2831472725984E+00  0.1241586394123E+00
-0.5767722722592E-01 -0.1377632466466E+01 -0.2870619430159E+00  0.1598753691211E+00
-0.4811569693028E-01 -0.1419214769448E+01 -0.2934660976486E+00  0.1904881852258E+00
-0.4258419639026E-01 -0.1467527735026E+01 -0.3020223907838E+00  0.2175494929846E+00
-0.3984466003490E-01 -0.1522536055485E+01 -0.3124761477603E+00  0.2424362814529E+00
-0.3920746860215E-01 -0.1584072827642E+01 -0.3246560640865E+00  0.2662959084692E+00
-0.4031586119610E-01 -0.1651995131621E+01 -0.3384622036070E+00  0.2901057363172E+00
-0.4303393609101E-01 -0.1726240235835E+01 -0.3538548396581E+00  0.3147430487063E+00
-0.4739903310000E-01 -0.1806833143562E+01 -0.3708464408585E+00  0.3410467034841E+00
-0.5362085572844E-01 -0.1893860487456E+01 -0.3894962744408E+00  0.3698688750436E+00
-0.6212272773825E-01 -0.1987401253078E+01 -0.4099048022714E+00  0.4021119062498E+00
-0.7362229322955E-01 -0.2087404165701E+01 -0.4322052982265E+00  0.4387323058381E+00
-0.8921316283227E-01 -0.2193486414992E+01 -0.4565399223678E+00  0.4806547486307E+00
-0.1103160391161E+00 -0.2304701112259E+01 -0.4830034374723E+00  0.5285343694644E+00
-0.1383124372729E+00 -0.2419428053832E+01 -0.5115481058437E+00  0.5824336602425E+00
-0.1738577144616E+00 -0.2535490461863E+01 -0.5418696433394E+00  0.6416372545555E+00
-0.2162483229896E+00 -0.2650567118076E+01 -0.5733630967570E+00  0.7046787990770E+00
-0.2635975265011E+00 -0.2762659369470E+01 -0.6052513882132E+00  0.7698556294985E+00
-0.3137779136218E+00 -0.2870030881491E+01 -0.6367617685110E+00  0.8358691480389E+00
-0.3651639260493E+00 -0.2970789203365E+01 -0.6671906358247E+00  0.9017531321602E+00
-0.4167687455702E+00 -0.3062672490426E+01 -0.6958882575688E+00  0.9664094755589E+00
-0.4679556145491E+00 -0.3143091291304E+01 -0.7222093919324E+00  0.1028238016506E+01
-0.5180077990153E+00 -0.3209258825358E+01 -0.7454533359828E+00  0.1084996715643E+01
-0.5657529163555E+00 -0.3258293556788E+01 -0.7648093060252E+00  0.1133846617851E+01
-0.6093514937039E+00 -0.3287234497322E+01 -0.7793172098180E+00  0.1171479631391E+01
-0.6462632852593E+00 -0.3292948394715E+01 -0.7878423477346E+00  0.1194168360819E+01
-0.6731739719734E+00 -0.3271801359014E+01 -0.7889950779545E+00  0.1197493830775E+01
-0.6852895756056E+00 -0.3219163123938E+01 -0.7808905515448E+00  0.1175521449065E+01
-0.6744268930568E+00 -0.3129826363890E+01 -0.7608506627268E+00  0.1119736732752E+01
-0.6256176810171E+00 -0.2999484460452E+01 -0.7250204390974E+00  0.1018311980740E+01
-0.5114184261118E+00 -0.2827175070119E+01 -0.6677187091959E+00  0.8560414407023E+00
-0.2826847145482E+00 -0.2620160941139E+01 -0.5805691397885E+00  0.6167068794555E+00
 0.1436217261704E+00 -0.2402163660373E+01 -0.4517083935715E+00  0.2930584800799E+00
 0.8895455014033E+00 -0.2220073227703E+01 -0.2661055492252E+00 -0.8617738822732E-01
 0.2083341442290E+01 -0.2128125030530E+01 -0.8956717781400E-02 -0.4092516999635E+00
 0.3746751558105E+01 -0.2116898534040E+01  0.3259706096705E+00 -0.4504588521662E+00
 0.5625186399970E+01 -0.2005039865167E+01  0.7240293177496E+00  0.4693024619679E-01
-0.2811611848064E+00 -0.1293826965231E+01 -0.3149976347014E+00 -0.5341905373918E-01
-0.2121622375449E+00 -0.1327531514887E+01 -0.3079387550750E+00 -0.4092613346577E-02
-0.1566357772360E+00 -0.1359146493691E+01 -0.3031564587028E+00  0.4596342609542E-01
-0.1159802192308E+00 -0.1389387212056E+01 -0.3010734907437E+00  0.9394919924360E-01
-0.8842894100583E-01 -0.1420675342945E+01 -0.3018208612877E+00  0.1371719657703E+00
-0.7061274382303E-01 -0.1455602430417E+01 -0.3052430393965E+00  0.1749132004227E+00
-0.5947777006585E-01 -0.1495799010882E+01 -0.3110553608247E+00  0.2079275667212E+00
-0.5290922905471E-01 -0.1541948780916E+01 -0.3189716067472E+00  0.2374826060591E+00
-0.4960453888499E-01 -0.1594201713171E+01 -0.3287612553101E+00  0.2648457367629E+00
-0.4880874163230E-01 -0.1652496153328E+01 -0.3402609840623E+00  0.2911444060308E+00
-0.5012086212384E-01 -0.1716726239116E+01 -0.3533694255136E+00  0.3173741487909E+00
-0.5338358002603E-01 -0.1786811197073E+01 -0.3680389609040E+00  0.3444428998712E+00
-0.5863346952407E-01 -0.1862709037415E+01 -0.3842685071139E+00  0.3732174516753E+00
-0.6609679806306E-01 -0.1944389781946E+01 -0.4020973219936E+00  0.4045614690824E+00
-0.7622284467123E-01 -0.2031762191590E+01 -0.4215970135344E+00  0.4393531475943E+00
-0.8974211299152E-01 -0.2124553665230E+01 -0.4428591622434E+00  0.4784614021959E+00
-0.1077000458199E+00 -0.2222138905903E+01 -0.4659677972880E+00  0.5226343669171E+00
-0.1313520170105E+00 -0.2323376304480E+01 -0.4909456716137E+00  0.5722735409670E+00
-0.1618027064217E+00 -0.2426572321428E+01 -0.5176750132838E+00  0.6271839589348E+00
-0.1994380265460E+00 -0.2529619167477E+01 -0.5458114469378E+00  0.6864715753828E+00
-0.2434334606028E+00 -0.2630366585933E+01 -0.5747600178717E+00  0.7485914265757E+00
-0.2919264902731E+00 -0.2727026132661E+01 -0.6037905335840E+00  0.8117815588618E+00
-0.3428092349175E+00 -0.2818082176301E+01 -0.6321782916639E+00  0.8746066141908E+00
-0.3943430522453E+00 -0.2901876603550E+01 -0.6592439409826E+00  0.9359014946562E+00
-0.4452776906203E+00 -0.2976385656134E+01 -0.6843326795483E+00  0.9943686612304E+00
-0.4946114082859E+00 -0.3039249694696E+01 -0.7067722311282E+00  0.1048238908896E+01
-0.5412161151539E+00 -0.3087906984121E+01 -0.7258246306707E+00  0.1095128701303E+01
-0.5834948287897E+00 -0.3119709745444E+01 -0.7406409258831E+00  0.1132061703751E+01
-0.6191558115905E+00 -0.3131963856271E+01 -0.7502239447516E+00  0.1155553720679E+01
-0.6450798873105E+00 -0.3121897937394E+01 -0.7533955761674E+00  0.1161620296626E+01
-0.6570585342391E+00 -0.3086480069950E+01 -0.7487077319944E+00  0.1145526912556E+01
-0.6488890151219E+00 -0.3022168223655E+01 -0.7342114586959E+00  0.1101128723068E+01
-0.6103977383136E+00 -0.2925581614612E+01 -0.7071958811231E+00  0.1020156201907E+01
-0.5242086657564E+00 -0.2795247433151E+01 -0.6638912296743E+00  0.8920919710024E+00
-0.3607989602810E+00 -0.2634260421389E+01 -0.5990118852600E+00  0.7052271448404E+00
-0.7181124922735E-01 -0.2454583524086E+01 -0.5052789621919E+00  0.4508414665433E+00
 0.4156614323760E+00 -0.2282102711566E+01 -0.3732882614005E+00  0.1344586194609E+00
 0.1193629371392E+01 -0.2156150012624E+01 -0.1925041311148E+00 -0.2016823938447E+00
 0.2336392813136E+01 -0.2108620538868E+01  0.4555445553235E-01 -0.4502402064446E+00
 0.3817457672591E+01 -0.2110327429933E+01  0.3414260536192E+00 -0.4358051444254E+00
 0.5417026565121E+01 -0.2013111676250E+01  0.6807829879186E+00  0.9120283610211E-02
-0.2997012475821E+00 -0.1367675488004E+01 -0.3334753520863E+00 -0.3998326907687E-01
-0.2309525432734E+00 -0.1401594973974E+01 -0.3265095083149E+00  0.8799508579149E-02
-0.1752420256746E+00 -0.1433771412366E+01 -0.3218026924034E+00  0.5822203676941E-01
-0.1333633407772E+00 -0.1464790588496E+01 -0.3196307906175E+00  0.1061184686091E+00
-0.1039598799695E+00 -0.1496477859846E+01 -0.3200875527327E+00  0.1502036789287E+00
-0.8430085515334E-01 -0.1530992100659E+01 -0.3230585959764E+00  0.1895913477740E+00
-0.7169094092461E-01 -0.1569898621909E+01 -0.3283179174591E+00  0.2246783569404E+00
-0.6411156186776E-01 -0.1614002711129E+01 -0.3356228596004E+00  0.2564682585456E+00
-0.6024209150193E-01 -0.1663590107248E+01 -0.3447664448874E+00  0.2860980113025E+00
-0.5928523133930E-01 -0.1718686467700E+01 -0.3555943451067E+00  0.3146500740634E+00
-0.6080543191063E-01 -0.1779218250237E+01 -0.3680047419132E+00  0.3431167275474E+00
-0.6462611922069E-01 -0.1845087659435E+01 -0.3819427614226E+00  0.3724178435117E+00
-0.7077968718650E-01 -0.1916190480547E+01 -0.3973940394683E+00  0.4034299654090E+00
-0.7949914353713E-01 -0.1992390256441E+01 -0.4143778861702E+00  0.4370087294651E+00
-0.9124058320189E-01 -0.2073446533212E+01 -0.4329374297340E+00  0.4739876717277E+00
-0.1067170630943E+00 -0.2158905770406E+01 -0.4531245734522E+00  0.5151328024880E+00
-0.1268915670390E+00 -0.2247964156246E+01 -0.4749711517347E+00  0.5610193612123E+00
-0.1528366841249E+00 -0.2339360798273E+01 -0.4984395039069E+00  0.6118288604946E+00
-0.1853957307024E+00 -0.2431388929338E+01 -0.5233569398067E+00  0.6671618493711E+00
-0.2247151206861E+00 -0.2522035379608E+01 -0.5493501082447E+00  0.7259904719813E+00
-0.2698565588301E+00 -0.2609311380626E+01 -0.5758335964718E+00  0.7867160676309E+00
-0.3189595099189E+00 -0.2691606665007E+01 -0.6021132439574E+00  0.8475355206235E+00
-0.3699121054415E+00 -0.2767589187305E+01 -0.6275002678998E+00  0.9068990113715E+00
-0.4208590515476E+00 -0.2835809642655E+01 -0.6513337485461E+00  0.9634626205305E+00
-0.4702995220909E+00 -0.2894481509810E+01 -0.6729562164081E+00  0.1015742641158E+01
-0.5168841734925E+00 -0.2941500837542E+01 -0.6916770125136E+00  0.1061813382280E+01
-0.5590873545346E+00 -0.2974576379411E+01 -0.7067327573203E+00  0.1099169363456E+01
-0.5948908727278E+00 -0.2991355092591E+01 -0.7172492037516E+00  0.1124728921135E+01
-0.6215394451964E+00 -0.2989492507457E+01 -0.7222064012924E+00  0.1134889800239E+01
-0.6353254123986E+00 -0.2966690530567E+01 -0.7204031993279E+00  0.1125524771700E+01
-0.6311926033770E+00 -0.2920649242373E+01 -0.7103683797354E+00  0.1091791495956E+01
-0.6017208301441E+00 -0.2849025864098E+01 -0.6901493491325E+00  0.1027666833866E+01
-0.5352074748399E+00 -0.2750275057887E+01 -0.6570965163368E+00  0.9256035752002E+00
-0.4128156864579E+00 -0.2625469987504E+01 -0.6076571438471E+00  0.7769952268291E+00
-0.2047112010964E+00 -0.2480775830820E+01 -0.5370974143866E+00  0.5741176621527E+00
 0.1339779561029E+00 -0.2330619954745E+01 -0.4393284062750E+00  0.3152447223317E+00
 0.6638941818897E+00 -0.2199713410265E+01 -0.3071638502522E+00  0.1532651862999E-01
 0.1450601926614E+01 -0.2118219773172E+01 -0.1335235713013E+00 -0.2772805916341E+00
 0.2530757521929E+01 -0.2101189500128E+01  0.8591360564054E-01 -0.4661562252008E+00
 0.3854359663113E+01 -0.2110789881238E+01  0.3487139615713E+00 -0.4173145791038E+00
 0.5237358448743E+01 -0.2027681456165E+01  0.6419354080812E+00 -0.2117210033960E-01
-0.3179938064558E+00 -0.1440325159081E+01 -0.3516637983475E+00 -0.2656366347059E-01
-0.2494922080522E+00 -0.1474290154179E+01 -0.3447564775835E+00  0.2172328478363E-01
-0.1936529949324E+00 -0.1506722314428E+01 -0.3400750669396E+00  0.7065255478032E-01
-0.1508214771717E+00 -0.1538150525326E+01 -0.3377944055331E+00  0.1184562037808E+00
-0.1198869789247E+00 -0.1569987607327E+01 -0.3379749222866E+00  0.1631912188991E+00
-0.9861269300301E-01 -0.1604017759171E+01 -0.3405260955090E+00  0.2039159761288E+00
-0.8464436222421E-01 -0.1641678493499E+01 -0.3452645762894E+00  0.2407741247125E+00
-0.7609939550761E-01 -0.1683818653793E+01 -0.3519836151051E+00  0.2745404529579E+00
-0.7167727270673E-01 -0.1730812176495E+01 -0.3604978952123E+00  0.3062154543598E+00
-0.7056082745448E-01 -0.1782750755051E+01 -0.3706623220245E+00  0.3368190380874E+00
-0.7229030617433E-01 -0.1839585997007E+01 -0.3823752663341E+00  0.3673221710458E+00
-0.7667237365450E-01 -0.1901203322478E+01 -0.3955751451210E+00  0.3986397781419E+00
-0.8373152945153E-01 -0.1967441939916E+01 -0.4102346999866E+00  0.4316417211350E+00
-0.9369715060145E-01 -0.2038071332909E+01 -0.4263537030552E+00  0.4671591076816E+00
-0.1070136906056E+00 -0.2112725234628E+01 -0.4439477916620E+00  0.5059660096185E+00
-0.1243510630806E+00 -0.2190808406096E+01 -0.4630319007350E+00  0.5487187124200E+00
-0.1465652854706E+00 -0.2271392864647E+01 -0.4835916372297E+00  0.5958305266557E+00
-0.1745386832464E+00 -0.2353155409120E+01 -0.5055388260064E+00  0.6472958221313E+00
-0.2088703132750E+00 -0.2434417031882E+01 -0.5286574769090E+00  0.7025533030733E+00
-0.2494909960853E+00 -0.2513274884098E+01 -0.5525531842703E+00  0.7604742144108E+00
-0.2953522352435E+00 -0.2587895169983E+01 -0.5766494896380E+00  0.8194235508844E+00
-0.3445754490618E+00 -0.2656826845724E+01 -0.6002804679020E+00  0.8775707717536E+00
-0.3950232362656E+00 -0.2718900587988E+01 -0.6227847741308E+00  0.9332724762191E+00
-0.4447188829834E+00 -0.2772861580739E+01 -0.6435161023336E+00  0.9850298397969E+00
-0.4919226994645E+00 -0.2817160660135E+01 -0.6618166817818E+00  0.1031194063984E+01
-0.5349567006601E+00 -0.2849967332369E+01 -0.6769848166938E+00  0.1069702933817E+01
-0.5719156966228E+00 -0.2869294315341E+01 -0.6882420126485E+00  0.1097953787973E+01
-0.6003721870169E+00 -0.2873131258536E+01 -0.6947006994624E+00  0.1112797351482E+01
-0.6171153493651E+00 -0.2859547345162E+01 -0.6953325492667E+00  0.1110579418264E+01
-0.6178755898068E+00 -0.2826794025595E+01 -0.6889339333463E+00  0.1087149072700E+01
-0.5968470454870E+00 -0.2773370184375E+01 -0.6740434560164E+00  0.1037752304896E+01
-0.5456429445083E+00 -0.2698139076065E+01 -0.6487564137818E+00  0.9567718767899E+00
-0.4515435213876E+00 -0.2601244949029E+01 -0.6105577031813E+00  0.8377374518356E+00
-0.2951708134374E+00 -0.2485835400993E+01 -0.5562012511742E+00  0.6742818139127E+00
-0.4782240188277E-01 -0.2360081335224E+01 -0.4815807545974E+00  0.4626458846905E+00
 0.3302417509821E+00 -0.2239064786070E+01 -0.3817646127063E+00  0.2069682857140E+00
 0.8872024807255E+00 -0.2144441137341E+01 -0.2514477350699E+00 -0.7162398499119E-01
 0.1666940295112E+01 -0.2097555529795E+01 -0.8612304821990E-01 -0.3236852408323E+00
 0.2680893909151E+01 -0.2101658559548E+01  0.1158470716469E+00 -0.4659209394696E+00
 0.3869646183010E+01 -0.2116656657069E+01  0.3505979104124E+00 -0.3968733817913E+00
 0.5081043347110E+01 -0.2046847225877E+01  0.6068392332893E+00 -0.4475574613116E-01
-0.3360362300097E+00 -0.1511721715255E+01 -0.3695515945596E+00 -0.1320240269247E-01
-0.2678174429066E+00 -0.1545605888561E+01 -0.3626846716979E+00  0.3461144647366E-01
-0.2119032180471E+00 -0.1578080197976E+01 -0.3579966885393E+00  0.8313420754194E-01
-0.1683225854995E+00 -0.1609643650286E+01 -0.3555932524558E+00  0.1308446431864E+00
-0.1361189664029E+00 -0.1641418598657E+01 -0.3555075183095E+00  0.1760713993651E+00
-0.1134375676577E+00 -0.1674876779817E+01 -0.3576628748246E+00  0.2178777844040E+00
-0.9823352176305E-01 -0.1711301866142E+01 -0.3619070829738E+00  0.2562337387633E+00
-0.8878031446538E-01 -0.1751531991619E+01 -0.3680624667014E+00  0.2917240143922E+00
-0.8382626147061E-01 -0.1795988150266E+01 -0.3759628879497E+00  0.3252166399098E+00
-0.8255439568685E-01 -0.1844806317551E+01 -0.3854721483916E+00  0.3576582740677E+00
-0.8449094401912E-01 -0.1897954799112E+01 -0.3964891545344E+00  0.3899842519747E+00
-0.8942836672737E-01 -0.1955302022485E+01 -0.4089460839362E+00  0.4230900220980E+00
-0.9737947653644E-01 -0.2016636880197E+01 -0.4228032776470E+00  0.4578246162613E+00
-0.1085598427058E+00 -0.2081648490773E+01 -0.4380416732231E+00  0.4949814458014E+00
-0.1233855650376E+00 -0.2149868660025E+01 -0.4546508517874E+00  0.5352654661154E+00
-0.1424626748318E+00 -0.2220596535058E+01 -0.4726118490205E+00  0.5792226417062E+00
-0.1665236453830E+00 -0.2292824924033E+01 -0.4918697212127E+00  0.6271191428272E+00
-0.1962594792578E+00 -0.2365211152949E+01 -0.5122941340752E+00  0.6787923512378E+00
-0.2320417515500E+00 -0.2436132313116E+01 -0.5336348208849E+00  0.7335533949645E+00
-0.2736045900975E+00 -0.2503805943916E+01 -0.5554821150800E+00  0.7901975642984E+00
-0.3197907105021E+00 -0.2566549160529E+01 -0.5772679828082E+00  0.8470666450713E+00
-0.3686862224796E+00 -0.2623059414615E+01 -0.5983491363350E+00  0.9023141421998E+00
-0.4181096723324E+00 -0.2672319139984E+01 -0.6180857716735E+00  0.9542227635870E+00
-0.4659585454064E+00 -0.2713260594051E+01 -0.6358438373662E+00  0.1001164255824E+01
-0.5102655146757E+00 -0.2744572571947E+01 -0.6509676270246E+00  0.1041350124178E+01
-0.5490439866710E+00 -0.2764709864122E+01 -0.6627507800343E+00  0.1072606478055E+01
-0.5800311604396E+00 -0.2772012579348E+01 -0.6704087579473E+00  0.1092262435995E+01
-0.6004111591407E+00 -0.2764847400747E+01 -0.6730517220068E+00  0.1097142909107E+01
-0.6065440433819E+00 -0.2741739947529E+01 -0.6696568081609E+00  0.1083610693031E+01
-0.5936547958549E+00 -0.2701531768848E+01 -0.6590373227609E+00  0.1047605146015E+01
-0.5553226588143E+00 -0.2643530838184E+01 -0.6397707089329E+00  0.9846314863047E+00
-0.4824764420434E+00 -0.2567731850909E+01 -0.6100416676807E+00  0.8896992130237E+00
-0.3618882538928E+00 -0.2475722990364E+01 -0.5675222573080E+00  0.7576379455836E+00
-0.1744434547605E+00 -0.2372182302621E+01 -0.5093251590657E+00  0.5844078168891E+00
 0.1063846917207E+00 -0.2266319376597E+01 -0.4319869434123E+00  0.3698491771402E+00
 0.5144343865299E+00 -0.2172591576752E+01 -0.3316314429862E+00  0.1226091536575E+00
 0.1086347264768E+01 -0.2108793021373E+01 -0.2044891543680E+00 -0.1327256971471E+00
 0.1849029072780E+01 -0.2088668187286E+01 -0.4792782361539E-01 -0.3487159502661E+00
 0.2797642578078E+01 -0.2107656640420E+01  0.1379971895879E+00 -0.4550957695357E+00
 0.3871092389539E+01 -0.2126807784590E+01  0.3488569261882E+00 -0.3752894146194E+00
 0.4944139536699E+01 -0.2069342605822E+01  0.5749593947429E+00 -0.6236273832616E-01
-0.3538278059082E+00 -0.1581852066901E+01 -0.3871359803306E+00  0.6545895442557E-04
-0.2859491919637E+00 -0.1615557123082E+01 -0.3803012686760E+00  0.4741591767720E-01
-0.2300148980799E+00 -0.1647919726856E+01 -0.3755869305839E+00  0.9558179407590E-01
-0.1858434454339E+00 -0.1679414326502E+01 -0.3730515599462E+00  0.1431927803427E+00
-0.1525838801989E+00 -0.1710952329558E+01 -0.3727072475051E+00  0.1887863181193E+00
-0.1286800858692E+00 -0.1743748551001E+01 -0.3744857329543E+00  0.2314594145227E+00
-0.1123610361664E+00 -0.1778927516902E+01 -0.3782577162502E+00  0.2710658173543E+00
-0.1020630148769E+00 -0.1817281327215E+01 -0.3838688741384E+00  0.3080366364663E+00
-0.9660315486321E-01 -0.1859244954250E+01 -0.3911696276516E+00  0.3431172405249E+00
-0.9518135745822E-01 -0.1904978472833E+01 -0.4000319720192E+00  0.3771759406738E+00
-0.9731911642878E-01 -0.1954458190399E+01 -0.4103554674803E+00  0.4111018506197E+00
-0.1027970891995E+00 -0.2007535187556E+01 -0.4220664616405E+00  0.4457590609146E+00
-0.1116127276315E+00 -0.2063954641836E+01 -0.4351134803772E+00  0.4819642043728E+00
-0.1239583590141E+00 -0.2123339399681E+01 -0.4494595584364E+00  0.5204631586656E+00
-0.1402073366079E+00 -0.2185142365635E+01 -0.4650699473787E+00  0.5618864706605E+00
-0.1608857969767E+00 -0.2248589058316E+01 -0.4818949782393E+00  0.6066735030633E+00
-0.1865922543707E+00 -0.2312629641891E+01 -0.4998443867007E+00  0.6549596585360E+00
-0.2178293074252E+00 -0.2375934144723E+01 -0.5187526981596E+00  0.7064521676007E+00
-0.2547566192495E+00 -0.2436955631221E+01 -0.5383424581160E+00  0.7603623194676E+00
-0.2969266186611E+00 -0.2494038773846E+01 -0.5581930868191E+00  0.8154290929812E+00
-0.3430735371724E+00 -0.2545649308768E+01 -0.5777445777971E+00  0.8699818784921E+00
-0.3912338400948E+00 -0.2590627519394E+01 -0.5963722807845E+00  0.9221685400914E+00
-0.4391668806291E+00 -0.2628102489164E+01 -0.6134538830998E+00  0.9702165262369E+00
-0.4846412294301E+00 -0.2657190118669E+01 -0.6283662789833E+00  0.1012393844071E+01
-0.5254732303891E+00 -0.2676817617413E+01 -0.6404581791040E+00  0.1046799757420E+01
-0.5593887149049E+00 -0.2685732030953E+01 -0.6490241588427E+00  0.1071176447826E+01
-0.5837928965578E+00 -0.2682615336350E+01 -0.6532816563162E+00  0.1082816464044E+01
-0.5955110276154E+00 -0.2666232011822E+01 -0.6523486176083E+00  0.1078562403756E+01
-0.5905162876221E+00 -0.2635585681559E+01 -0.6452204034509E+00  0.1054860994562E+01
-0.5636071885192E+00 -0.2590115845260E+01 -0.6307446161547E+00  0.1007843287854E+01
-0.5079049076441E+00 -0.2529903702418E+01 -0.6075617310658E+00  0.9334110591267E+00
-0.4139417611188E+00 -0.2455944163782E+01 -0.5739771935330E+00  0.8273525242360E+00
-0.2684472393448E+00 -0.2370973623263E+01 -0.5278841803877E+00  0.6858978482236E+00
-0.5321250636914E-01 -0.2280666622254E+01 -0.4667758326802E+00  0.5072372747874E+00
 0.2554555423690E+00 -0.2194488655814E+01 -0.3878066284678E+00  0.2942532126806E+00
 0.6853622937510E+00 -0.2125480216331E+01 -0.2880235888079E+00  0.5877324688348E-01
 0.1263066474202E+01 -0.2087462191788E+01 -0.1648791459741E+00 -0.1732270118740E+00
 0.2002620562872E+01 -0.2088044296854E+01 -0.1708474705085E-01 -0.3580190389645E+00
 0.2889105483357E+01 -0.2117764211525E+01  0.1542682566653E+00 -0.4371922774257E+00
 0.3863766522729E+01 -0.2140425955751E+01  0.3446681185315E+00 -0.3529090087494E+00
 0.4823579691158E+01 -0.2094277434098E+01  0.5458604595459E+00 -0.7465661134272E-01
-0.3713698320582E+00 -0.1650729984412E+01 -0.4044199693203E+00  0.1321056231258E-01
-0.3038989686173E+00 -0.1684177234608E+01 -0.3976152465701E+00  0.6010089330509E-01
-0.2480004509429E+00 -0.1716314288691E+01 -0.3928629537808E+00  0.1079341063448E+00
-0.2033645334005E+00 -0.1747586840973E+01 -0.3901902806891E+00  0.1554308166137E+00
-0.1692227172196E+00 -0.1778746478277E+01 -0.3895938449047E+00  0.2012857588679E+00
-0.1442571403292E+00 -0.1810796723789E+01 -0.3910107786502E+00  0.2446404154230E+00
-0.1269365713979E+00 -0.1844708413863E+01 -0.3943290029282E+00  0.2852724737754E+00
-0.1158584300913E+00 -0.1881206225189E+01 -0.3994129370078E+00  0.3234909132692E+00
-0.1099213535646E+00 -0.1920713988816E+01 -0.4061270745279E+00  0.3599309761965E+00
-0.1083550982750E+00 -0.1963398453050E+01 -0.4143507164394E+00  0.3953817361320E+00
-0.1106843632039E+00 -0.2009235791361E+01 -0.4239840372308E+00  0.4306789288544E+00
-0.1166800906039E+00 -0.2058059480717E+01 -0.4349479207454E+00  0.4666461354087E+00
-0.1263209673716E+00 -0.2109577678915E+01 -0.4471797359208E+00  0.5040586859664E+00
-0.1397677398585E+00 -0.2163360771277E+01 -0.4606257090910E+00  0.5436082047594E+00
-0.1573391523780E+00 -0.2218804081799E+01 -0.4752286539169E+00  0.5858490596716E+00
-0.1794696436645E+00 -0.2275087122055E+01 -0.4909113604591E+00  0.6311205616902E+00
-0.2066180082236E+00 -0.2331146796080E+01 -0.5075529684238E+00  0.6794439507864E+00
-0.2391037190568E+00 -0.2385690009276E+01 -0.5249587534890E+00  0.7304198332759E+00
-0.2768886012300E+00 -0.2437259897474E+01 -0.5428297078296E+00  0.7831824038007E+00
-0.3193554549131E+00 -0.2484332915624E+01 -0.5607376824631E+00  0.8364304280074E+00
-0.3651299554818E+00 -0.2525522248502E+01 -0.5781304494115E+00  0.8884904425781E+00
-0.4121874518870E+00 -0.2559808326417E+01 -0.5943991645180E+00  0.9375143722565E+00
-0.4582163260287E+00 -0.2586465035498E+01 -0.6089362813791E+00  0.9816920372827E+00
-0.5008548247435E+00 -0.2604790500389E+01 -0.6211290742821E+00  0.1019212802243E+01
-0.5377147724608E+00 -0.2613950055391E+01 -0.6303329749631E+00  0.1048091698449E+01
-0.5662565003057E+00 -0.2612985653466E+01 -0.6358484402292E+00  0.1066016007980E+01
-0.5835822237193E+00 -0.2600927462243E+01 -0.6369019466830E+00  0.1070274371511E+01
-0.5861952124757E+00 -0.2576945640411E+01 -0.6326281800042E+00  0.1057769771244E+01
-0.5697362348665E+00 -0.2540523888002E+01 -0.6220520338430E+00  0.1025093778489E+01
-0.5286708651851E+00 -0.2491679940402E+01 -0.6040701701188E+00  0.9686531374271E+00
-0.4558274790815E+00 -0.2431198117923E+01 -0.5774051280048E+00  0.8848463508273E+00
-0.3416149935248E+00 -0.2360909130298E+01 -0.5405048328186E+00  0.7703259118320E+00
-0.1731165050660E+00 -0.2284391564570E+01 -0.4915016212511E+00  0.6227207279766E+00
 0.6650278987675E-01 -0.2207843699061E+01 -0.4282681882185E+00  0.4422290946770E+00
 0.3977700949166E+00 -0.2140410555288E+01 -0.3485280972678E+00  0.2341469840160E+00
 0.8427433572623E+00 -0.2093308092527E+01 -0.2501129507800E+00  0.1231801945826E-01
 0.1419517679129E+01 -0.2076668784985E+01 -0.1314302231297E+00 -0.1973599671056E+00
 0.2132670284090E+01 -0.2093378875338E+01  0.7858281867407E-02 -0.3556516720423E+00
 0.2961363654463E+01 -0.2131088368907E+01  0.1660550595855E+00 -0.4144531291053E+00
 0.3851040665845E+01 -0.2156909571653E+01  0.3388262238873E+00 -0.3298943504013E+00
 0.4716915030648E+01 -0.2121005917305E+01  0.5191818304051E+00 -0.8224461005562E-01
-0.3886654101764E+00 -0.1718387033049E+01 -0.4214104949245E+00  0.2620832495201E-01
-0.3216724754362E+00 -0.1751512502857E+01 -0.4146370018373E+00  0.7263892254740E-01
-0.2658648709105E+00 -0.1783338022651E+01 -0.4098405848194E+00  0.1201464788085E+00
-0.2208673868643E+00 -0.1814272890400E+01 -0.4070280615181E+00  0.1675054752013E+00
-0.1859850585781E+00 -0.1844941440134E+01 -0.4061853057951E+00  0.2135277438810E+00
-0.1600952265739E+00 -0.1876171755244E+01 -0.4072534024321E+00  0.2574003772752E+00
-0.1418763014514E+00 -0.1908791278931E+01 -0.4101335221880E+00  0.2988522417212E+00
-0.1300803846264E+00 -0.1943445581291E+01 -0.4147051993630E+00  0.3380961700416E+00
-0.1236946450367E+00 -0.1980529235977E+01 -0.4208447824738E+00  0.3756705349299E+00
-0.1219881795666E+00 -0.2020201482296E+01 -0.4284379387568E+00  0.4122872248940E+00
-0.1244952807845E+00 -0.2062431315642E+01 -0.4373853258029E+00  0.4487244217726E+00
-0.1309788571777E+00 -0.2107034625124E+01 -0.4476027031302E+00  0.4857586844654E+00
-0.1413957976497E+00 -0.2153689138596E+01 -0.4590169940890E+00  0.5241177245599E+00
-0.1558682062971E+00 -0.2201925829629E+01 -0.4715588142121E+00  0.5644349764563E+00
-0.1746508538698E+00 -0.2251101598477E+01 -0.4851504976986E+00  0.6071896006954E+00
-0.1980782663129E+00 -0.2300373337001E+01 -0.4996903281088E+00  0.6526291430490E+00
-0.2264671998437E+00 -0.2348688084180E+01 -0.5150310644793E+00  0.7006767565996E+00
-0.2599605982227E+00 -0.2394807775272E+01 -0.5309536826107E+00  0.7508469374048E+00
-0.2983350463776E+00 -0.2437375667044E+01 -0.5471421508375E+00  0.8022157465385E+00
-0.3408136764394E+00 -0.2475003187441E+01 -0.5631633811678E+00  0.8534554321782E+00
-0.3859136463016E+00 -0.2506450363697E+01 -0.5784728106195E+00  0.9028985051537E+00
-0.4315403997183E+00 -0.2530836682136E+01 -0.5924754251994E+00  0.9487102741184E+00
-0.4753027253338E+00 -0.2547580568179E+01 -0.6045766677116E+00  0.9890595679531E+00
-0.5147090024700E+00 -0.2556161637648E+01 -0.6141741371755E+00  0.1022081113586E+01
-0.5471791044445E+00 -0.2555981828518E+01 -0.6206321958406E+00  0.1045733233193E+01
-0.5699309684945E+00 -0.2546376649825E+01 -0.6232615329512E+00  0.1057677286697E+01
-0.5797956205649E+00 -0.2526723387057E+01 -0.6213038107824E+00  0.1055230065247E+01
-0.5729969470659E+00 -0.2496594160064E+01 -0.6139182305740E+00  0.1035394593500E+01
-0.5449060437193E+00 -0.2455938121368E+01 -0.6001688419607E+00  0.9949592774701E+00
-0.4897562298416E+00 -0.2405310119452E+01 -0.5790132784867E+00  0.9306705852518E+00
-0.4002453632106E+00 -0.2346105065541E+01 -0.5492700939351E+00  0.8394869937094E+00
-0.2669026182867E+00 -0.2280811841091E+01 -0.5095428994683E+00  0.7189522817089E+00
-0.7747964656573E-01 -0.2213563022383E+01 -0.4582085406175E+00  0.5680148187177E+00
 0.1831793667633E+00 -0.2150693591655E+01 -0.3935028508420E+00  0.3885885511307E+00
 0.5323530155816E+00 -0.2100642540106E+01 -0.3136579095787E+00  0.1877651685514E+00
 0.9868756534148E+00 -0.2072666879582E+01 -0.2171582484694E+00 -0.1954383495749E-01
 0.1557949349183E+01 -0.2073686511149E+01 -0.1031474339304E+00 -0.2084843506367E+00
 0.2243341836047E+01 -0.2103103294817E+01  0.2804770866390E-01 -0.3445204075086E+00
 0.3019022896972E+01 -0.2147039004418E+01  0.1743967811096E+00 -0.3883096539698E+00
 0.3835212167710E+01 -0.2175840319231E+01  0.3318743746410E+00 -0.3063437742953E+00
 0.4622122102959E+01 -0.2149066085454E+01  0.4946112108714E+00 -0.8570531115038E-01
-0.4057191525227E+00 -0.1784866671912E+01 -0.4381171714154E+00  0.3903831059777E-01
-0.3392718603525E+00 -0.1817618167185E+01 -0.4313780119356E+00  0.8500863188231E-01
-0.2836076842497E+00 -0.1849066420673E+01 -0.4265348273405E+00  0.1321859702026E+00
-0.2383333601222E+00 -0.1879576143665E+01 -0.4235819070692E+00  0.1793763112709E+00
-0.2028261451607E+00 -0.1909665063765E+01 -0.4224982480808E+00  0.2254782009612E+00
-0.1761282472315E+00 -0.1940013288920E+01 -0.4232283135368E+00  0.2697208040644E+00
-0.1571021879025E+00 -0.1971316688298E+01 -0.4256837815832E+00  0.3118022500985E+00
-0.1446459223266E+00 -0.2004136514561E+01 -0.4297564937814E+00  0.3518600153265E+00
-0.1378380272124E+00 -0.2038825716297E+01 -0.4353327551888E+00  0.3903484139057E+00
-0.1359933593341E+00 -0.2075525093184E+01 -0.4423036970945E+00  0.4279061242051E+00
-0.1386606355017E+00 -0.2114190787324E+01 -0.4505702912792E+00  0.4652520715401E+00
-0.1455959753029E+00 -0.2154621490718E+01 -0.4600435000594E+00  0.5031117058721E+00
-0.1567318640154E+00 -0.2196470836472E+01 -0.4706405471105E+00  0.5421611980449E+00
-0.1721460314665E+00 -0.2239242372380E+01 -0.4822776879558E+00  0.5829742510187E+00
-0.1920222285196E+00 -0.2282271386342E+01 -0.4948587303463E+00  0.6259578575565E+00
-0.2165898204845E+00 -0.2324711638437E+01 -0.5082602993579E+00  0.6712770458162E+00
-0.2460237117674E+00 -0.2365538770124E+01 -0.5223125041614E+00  0.7187720427211E+00
-0.2802975821508E+00 -0.2403583326602E+01 -0.5367761897492E+00  0.7678891316924E+00
-0.3190140605597E+00 -0.2437595797529E+01 -0.5513219798330E+00  0.8176623353406E+00
-0.3612451018224E+00 -0.2466324635996E+01 -0.5655139559905E+00  0.8667494093106E+00
-0.4053997989042E+00 -0.2488676240023E+01 -0.5788152164104E+00  0.9134972233773E+00
-0.4493073445430E+00 -0.2503908736470E+01 -0.5906432250039E+00  0.9560934803420E+00
-0.4904911707303E+00 -0.2511585330652E+01 -0.6004153092234E+00  0.9927016343068E+00
-0.5263320938640E+00 -0.2511366211493E+01 -0.6075396701244E+00  0.1021424363650E+01
-0.5540714640208E+00 -0.2502886829650E+01 -0.6113916678446E+00  0.1040189578115E+01
-0.5707088340553E+00 -0.2485771171355E+01 -0.6112960101911E+00  0.1046660559793E+01
-0.5728379404640E+00 -0.2459736016401E+01 -0.6065148004107E+00  0.1038212304864E+01
-0.5564496807244E+00 -0.2424741800712E+01 -0.5962383051720E+00  0.1011982736953E+01
-0.5167125724342E+00 -0.2381175183996E+01 -0.5795775599225E+00  0.9649983856045E+00
-0.4477290331639E+00 -0.2330071936788E+01 -0.5555602022688E+00  0.8943889246893E+00
-0.3422169815295E+00 -0.2273333220515E+01 -0.5231100482037E+00  0.7977021566062E+00
-0.1910313884228E+00 -0.2213930698410E+01 -0.4809924245339E+00  0.6733524437268E+00
 0.1717509607665E-01 -0.2156297606869E+01 -0.4278245085336E+00  0.5214758156321E+00
 0.2957137929916E+00 -0.2106609888461E+01 -0.3621792244907E+00  0.3453821222284E+00
 0.6587079117565E+00 -0.2072372473541E+01 -0.2827329165699E+00  0.1533998763228E+00
 0.1118401807075E+01 -0.2060927079647E+01 -0.1885050573233E+00 -0.3922110342313E-01
 0.1680518115973E+01 -0.2076513256439E+01 -0.7919902927327E-01 -0.2092496813384E+00
 0.2338075350963E+01 -0.2116084641289E+01  0.4439814259653E-01 -0.3267041758748E+00
 0.3065611963009E+01 -0.2165187130416E+01  0.1800849692022E+00 -0.3596399327242E+00
 0.3817912400334E+01 -0.2196979402353E+01  0.3241866044269E+00 -0.2823250483595E+00
 0.4537454048376E+01 -0.2178173126601E+01  0.4718561913864E+00 -0.8564078505988E-01
-0.4225368883985E+00 -0.1850220308511E+01 -0.4545514461552E+00  0.5168377673443E-01
-0.3566971283802E+00 -0.1882555619385E+01 -0.4478505562266E+00  0.9719336775092E-01
-0.3012244696039E+00 -0.1913576281423E+01 -0.4429601568061E+00  0.1440282154842E+00
-0.2557431343649E+00 -0.1943594985786E+01 -0.4398676305847E+00  0.1910129055144E+00
-0.2197049693637E+00 -0.1973035995260E+01 -0.4385481994597E+00  0.2371102649997E+00
-0.1922958031065E+00 -0.2002452170411E+01 -0.4389496012444E+00  0.2815861507925E+00
-0.1725412406102E+00 -0.2032419425310E+01 -0.4409921397552E+00  0.3241197690755E+00
-0.1594754220530E+00 -0.2063413631744E+01 -0.4445778173841E+00  0.3647895857040E+00
-0.1522683150267E+00 -0.2095738244102E+01 -0.4496013185254E+00  0.4039776363119E+00
-0.1502844277448E+00 -0.2129507670525E+01 -0.4559584264483E+00  0.4422545274166E+00
-0.1530902970467E+00 -0.2164660969478E+01 -0.4635502602124E+00  0.4802802053548E+00
-0.1604360809607E+00 -0.2200980438792E+01 -0.4722833109881E+00  0.5187270646168E+00
-0.1722277043031E+00 -0.2238101594613E+01 -0.4820658669665E+00  0.5582179412062E+00
-0.1884940804803E+00 -0.2275511321760E+01 -0.4928010877914E+00  0.5992672619850E+00
-0.2093429569539E+00 -0.2312537764305E+01 -0.5043761517677E+00  0.6422144020980E+00
-0.2348956898344E+00 -0.2348347559978E+01 -0.5166486576611E+00  0.6871515493485E+00
-0.2651873170727E+00 -0.2381959389591E+01 -0.5294293492218E+00  0.7338500917287E+00
-0.3000297978751E+00 -0.2412282469351E+01 -0.5424624615286E+00  0.7817037822922E+00
-0.3388619880238E+00 -0.2438179415898E+01 -0.5554082890605E+00  0.8297185127457E+00
-0.3806121706701E+00 -0.2458536778358E+01 -0.5678297982670E+00  0.8765483599578E+00
-0.4235824103984E+00 -0.2472406668575E+01 -0.5791978244255E+00  0.9205626015983E+00
-0.4655214804536E+00 -0.2479185511594E+01 -0.5889414071854E+00  0.9599800099458E+00
-0.5038642150873E+00 -0.2478581353856E+01 -0.5964891226771E+00  0.9929732172565E+00
-0.5358678878289E+00 -0.2470433305719E+01 -0.6012602476691E+00  0.1017633808143E+01
-0.5586095768630E+00 -0.2454605486065E+01 -0.6026430215657E+00  0.1031883814409E+01
-0.5688951087470E+00 -0.2431001877239E+01 -0.5999794061375E+00  0.1033414302415E+01
-0.5631160619356E+00 -0.2399665531838E+01 -0.5925563275844E+00  0.1019685418697E+01
-0.5370785760982E+00 -0.2360923543539E+01 -0.5796004325642E+00  0.9879988337476E+00
-0.4858164852294E+00 -0.2315562342198E+01 -0.5602757738343E+00  0.9356490285598E+00
-0.4033980942451E+00 -0.2265033285769E+01 -0.5336862839555E+00  0.8601727609944E+00
-0.2826943062279E+00 -0.2211636404985E+01 -0.4988661496763E+00  0.7597074011179E+00
-0.1150497162116E+00 -0.2158663740340E+01 -0.4547426980865E+00  0.6334812711930E+00
 0.1098259745819E+00 -0.2110638828204E+01 -0.4001625766873E+00  0.4826557151399E+00
 0.4033451292072E+00 -0.2073367854604E+01 -0.3340045500564E+00  0.3116200578259E+00
 0.7766813903776E+00 -0.2053314060939E+01 -0.2553265379169E+00  0.1294622195841E+00
 0.1238148853603E+01 -0.2056050287179E+01 -0.1635802891529E+00 -0.4876166571819E-01
 0.1789198634548E+01 -0.2083654463739E+01 -0.5889116671579E-01 -0.2017477762025E+00
 0.2419668929860E+01 -0.2131430689760E+01  0.5764764887906E-01 -0.3037045020818E+00
 0.3103849877148E+01 -0.2185128114940E+01  0.1837443551798E+00 -0.3289100515257E+00
 0.3800414649167E+01 -0.2220259166279E+01  0.3160311012867E+00 -0.2578221537871E+00
 0.4461312318594E+01 -0.2208281225132E+01  0.4506062254069E+00 -0.8277693737038E-01
-0.4391253989056E+00 -0.1914504568409E+01 -0.4707260004772E+00  0.6413135193939E-01
-0.3739470284637E+00 -0.1946390440960E+01 -0.4640675007998E+00  0.1091803754888E+00
-0.3187079969320E+00 -0.1976945384403E+01 -0.4591306831085E+00  0.1556553264101E+00
-0.2730766265025E+00 -0.2006424133313E+01 -0.4559001587565E+00  0.2023927729741E+00
-0.2365830580841E+00 -0.2035166001541E+01 -0.4543498186953E+00  0.2484034829451E+00
-0.2085419077941E+00 -0.2063612054907E+01 -0.4544307993119E+00  0.2929843268467E+00
-0.1881248432844E+00 -0.2092228917744E+01 -0.4560707590017E+00  0.3358032631607E+00
-0.1744925855936E+00 -0.2121408547164E+01 -0.4591802333938E+00  0.3768924966297E+00
-0.1669045736957E+00 -0.2151400434458E+01 -0.4636610085399E+00  0.4165723253774E+00
-0.1647768728660E+00 -0.2182287212183E+01 -0.4694128240047E+00  0.4553510542290E+00
-0.1676959980619E+00 -0.2213988006028E+01 -0.4763368079159E+00  0.4938314667291E+00
-0.1754066079686E+00 -0.2246269920303E+01 -0.4843353128715E+00  0.5326327787205E+00
-0.1877863557059E+00 -0.2278755909664E+01 -0.4933084604249E+00  0.5723245247413E+00
-0.2048120896143E+00 -0.2310925680626E+01 -0.5031475615455E+00  0.6133639285466E+00
-0.2265123496658E+00 -0.2342112474461E+01 -0.5137249724804E+00  0.6560283610454E+00
-0.2528995407818E+00 -0.2371508774899E+01 -0.5248816709576E+00  0.7003469228841E+00
-0.2838720960916E+00 -0.2398187444364E+01 -0.5364119160842E+00  0.7460351487088E+00
-0.3190878508545E+00 -0.2421143677454E+01 -0.5480463138283E+00  0.7924480893663E+00
-0.3578311830256E+00 -0.2439355366539E+01 -0.5594373182492E+00  0.8385757180458E+00
-0.3988935796738E+00 -0.2451847324281E+01 -0.5701481892869E+00  0.8830783164641E+00
-0.4404717730119E+00 -0.2457816309614E+01 -0.5796576251628E+00  0.9243553002955E+00
-0.4802318537195E+00 -0.2456796392692E+01 -0.5874056580353E+00  0.9606647898283E+00
-0.5155189928297E+00 -0.2448639927667E+01 -0.5928317929331E+00  0.9902020350819E+00
-0.5434724489004E+00 -0.2433362246271E+01 -0.5953669479058E+00  0.1011066698147E+01
-0.5610199576411E+00 -0.2411049497270E+01 -0.5944138998396E+00  0.1021197324568E+01
-0.5647985691323E+00 -0.2381874178939E+01 -0.5893345583960E+00  0.1018336016406E+01
-0.5510331497803E+00 -0.2346187833223E+01 -0.5794442052350E+00  0.1000051127305E+01
-0.5153933023711E+00 -0.2304656525930E+01 -0.5640099740645E+00  0.9638302529900E+00
-0.4528438618871E+00 -0.2258422311919E+01 -0.5422532428415E+00  0.9072542866942E+00
-0.3575073580889E+00 -0.2209282797294E+01 -0.5133580387262E+00  0.8282733564595E+00
-0.2225195321626E+00 -0.2159833144673E+01 -0.4764705424671E+00  0.7255911705833E+00
-0.3983706053100E-01 -0.2113542882972E+01 -0.4306759951182E+00  0.5991687283830E+00
 0.1996834718087E+00 -0.2074860017451E+01 -0.3750353147168E+00  0.4510174752579E+00
 0.5055836752439E+00 -0.2049083170995E+01 -0.3086999037502E+00  0.2863125366713E+00
 0.8863577173302E+00 -0.2041611912662E+01 -0.2310508425093E+00  0.1145115291659E+00
 0.1347019656438E+01 -0.2056447713175E+01 -0.1418856134615E+00 -0.4989200563326E-01
 0.1885759812474E+01 -0.2093968581141E+01 -0.4164175435386E-01 -0.1876300386991E+00
 0.2490357607272E+01 -0.2148435552915E+01  0.6838441189040E-01 -0.2766668847617E+00
 0.3135780586982E+01 -0.2206245240846E+01  0.1859070719975E+00 -0.2962950958634E+00
 0.3783899371750E+01 -0.2245724941210E+01  0.3076348906921E+00 -0.2325283020158E+00
 0.4392170081893E+01 -0.2239683478950E+01  0.4304973270035E+00 -0.7815087123666E-01
-0.4554921418598E+00 -0.1977779213260E+01 -0.4866542782757E+00  0.7637089011683E-01
-0.3910196270276E+00 -0.2009191285787E+01 -0.4800421897162E+00  0.1209602988172E+00
-0.3360490288122E+00 -0.2039251891823E+01 -0.4750601912060E+00  0.1670544022819E+00
-0.2903131310677E+00 -0.2068155631628E+01 -0.4716937595679E+00  0.2134998658073E+00
-0.2534236940892E+00 -0.2096161535952E+01 -0.4699170530106E+00  0.2593430276058E+00
-0.2248140545339E+00 -0.2123610645721E+01 -0.4696849470499E+00  0.3039068772161E+00
-0.2037881743797E+00 -0.2150869663791E+01 -0.4709315746516E+00  0.3468530701517E+00
-0.1896243568467E+00 -0.2178249570777E+01 -0.4735747925815E+00  0.3881775341624E+00
-0.1816684170879E+00 -0.2205943916015E+01 -0.4775224737362E+00  0.4281481339480E+00
-0.1793883957544E+00 -0.2234000290240E+01 -0.4826777443913E+00  0.4672169258153E+00
-0.1823919320892E+00 -0.2262316269725E+01 -0.4889416476487E+00  0.5059325100734E+00
-0.1904183538034E+00 -0.2290645313685E+01 -0.4962127408919E+00  0.5448623063053E+00
-0.2033157573934E+00 -0.2318602912252E+01 -0.5043837414451E+00  0.5845241008533E+00
-0.2210067442956E+00 -0.2345669817170E+01 -0.5133353199424E+00  0.6253212594962E+00
-0.2434389413450E+00 -0.2371194557485E+01 -0.5229267075582E+00  0.6674754732181E+00
-0.2705163535879E+00 -0.2394405806241E+01 -0.5329844399079E+00  0.7109623557728E+00
-0.3020049652298E+00 -0.2414439049423E+01 -0.5432888110261E+00  0.7554535128984E+00
-0.3374160159963E+00 -0.2430380571964E+01 -0.5535593258407E+00  0.8002775725984E+00
-0.3758880045274E+00 -0.2441325262114E+01 -0.5634426617243E+00  0.8444194596547E+00
-0.4160821187650E+00 -0.2446435507326E+01 -0.5725035337493E+00  0.8865547786045E+00
-0.4560921234109E+00 -0.2445051085199E+01 -0.5802286503680E+00  0.9251204656725E+00
-0.4935008021195E+00 -0.2436842520462E+01 -0.5860686732494E+00  0.9584217972979E+00
-0.5255644300521E+00 -0.2421805114419E+01 -0.5894739176781E+00  0.9846889189733E+00
-0.5493110335515E+00 -0.2400126527089E+01 -0.5898875209182E+00  0.1002046861509E+01
-0.5615343889091E+00 -0.2372106585676E+01 -0.5867282036600E+00  0.1008470679086E+01
-0.5587275895452E+00 -0.2338172300131E+01 -0.5793799865688E+00  0.1001773728771E+01
-0.5369836472192E+00 -0.2298962427338E+01 -0.5671892233631E+00  0.9796512794466E+00
-0.4918822104612E+00 -0.2255450219136E+01 -0.5494664941071E+00  0.9397921859743E+00
-0.4183802189856E+00 -0.2209085835346E+01 -0.5254932186967E+00  0.8800715896162E+00
-0.3107317207420E+00 -0.2161943945830E+01 -0.4945351406836E+00  0.7988443382949E+00
-0.1624267882597E+00 -0.2116819423712E+01 -0.4558492491870E+00  0.6953395450640E+00
 0.3388173916675E-01 -0.2077238992370E+01 -0.4086714567304E+00  0.5701548030853E+00
 0.2861548191026E+00 -0.2047451230360E+01 -0.3522592875005E+00  0.4259766611724E+00
 0.6021493880831E+00 -0.2032168086217E+01 -0.2860037438886E+00  0.2685058626890E+00
 0.9879776987174E+00 -0.2035760596650E+01 -0.2095565827092E+00  0.1072633568559E+00
 0.1445930074231E+01 -0.2060872322251E+01 -0.1229884514367E+00 -0.4405951465254E-01
 0.1971744599849E+01 -0.2106572434674E+01 -0.2696556736680E-01 -0.1682147662298E+00
 0.2552001425773E+01 -0.2166518601464E+01  0.7709656601061E-01 -0.2464608975609E+00
 0.3162626724595E+01 -0.2227929753132E+01  0.1869393970782E+00 -0.2621085896362E+00
 0.3769893515689E+01 -0.2272305342811E+01  0.2995176390387E+00 -0.2052819060353E+00
 0.4328136289414E+01 -0.2274050779571E+01  0.4108171080901E+00 -0.7344313819611E-01
-0.4716522530358E+00 -0.2040103325568E+01 -0.5023511232064E+00  0.8839828319027E-01
-0.4079105521792E+00 -0.2071005527209E+01 -0.4957832232653E+00  0.1325229612589E+00
-0.3532326865469E+00 -0.2100537639033E+01 -0.4907540724288E+00  0.1782112773662E+00
-0.3074219539553E+00 -0.2128828293910E+01 -0.4872500568338E+00  0.2243147095737E+00
-0.2701778208347E+00 -0.2156059921595E+01 -0.4852475557166E+00  0.2699077121918E+00
-0.2410447269261E+00 -0.2182482594673E+01 -0.4847054715426E+00  0.3143350401448E+00
-0.2194480525779E+00 -0.2208371513961E+01 -0.4855639205433E+00  0.3572553064148E+00
-0.2047753522767E+00 -0.2233960754910E+01 -0.4877472287054E+00  0.3986360022065E+00
-0.1964549156035E+00 -0.2259388126997E+01 -0.4911686158390E+00  0.4387007520311E+00
-0.1940059095608E+00 -0.2284665015051E+01 -0.4957341923095E+00  0.4778515424216E+00
-0.1970572761033E+00 -0.2309667291107E+01 -0.5013449209128E+00  0.5165867443612E+00
-0.2053428327165E+00 -0.2334137002714E+01 -0.5078959746544E+00  0.5554247428116E+00
-0.2186801857938E+00 -0.2357687182623E+01 -0.5152734813616E+00  0.5948345827210E+00
-0.2369365057500E+00 -0.2379806991129E+01 -0.5233487071742E+00  0.6351703710055E+00
-0.2599782641500E+00 -0.2399868856993E+01 -0.5319694321556E+00  0.6766052174272E+00
-0.2876031798737E+00 -0.2417145897694E+01 -0.5409498235743E+00  0.7190709253984E+00
-0.3194501639224E+00 -0.2430842456231E+01 -0.5500585322271E+00  0.7622064761442E+00
-0.3548920502529E+00 -0.2440139082695E+01 -0.5590062349194E+00  0.8053253792664E+00
-0.3929304461152E+00 -0.2444247826390E+01 -0.5674356629565E+00  0.8474175288730E+00
-0.4321035351172E+00 -0.2442466603168E+01 -0.5749140362239E+00  0.8871824440372E+00
-0.4704061071196E+00 -0.2434275318876E+01 -0.5809362938557E+00  0.9231015376026E+00
-0.5053393427594E+00 -0.2419478240373E+01 -0.5849635253430E+00  0.9535342935128E+00
-0.5340739467272E+00 -0.2398210260791E+01 -0.5864568502426E+00  0.9767566261959E+00
-0.5535356503984E+00 -0.2370824937592E+01 -0.5848721263134E+00  0.9909340681443E+00
-0.5604011065387E+00 -0.2337824221866E+01 -0.5796450743182E+00  0.9940952596248E+00
-0.5510449787145E+00 -0.2299871617086E+01 -0.5701833276565E+00  0.9841410996933E+00
-0.5214629934274E+00 -0.2257867075505E+01 -0.5558660220695E+00  0.9589068506339E+00
-0.4671891727823E+00 -0.2213054432991E+01 -0.5360487291424E+00  0.9162896447843E+00
-0.3832273232247E+00 -0.2167141186068E+01 -0.5100737094591E+00  0.8544548497584E+00
-0.2640265368235E+00 -0.2122411061128E+01 -0.4772875267023E+00  0.7721381581559E+00
-0.1034954751271E+00 -0.2081773014201E+01 -0.4370537043783E+00  0.6690370252395E+00
 0.1049724901028E+00 -0.2048714109986E+01 -0.3887483297695E+00  0.5462784054771E+00
 0.3681722925026E+00 -0.2027198678640E+01 -0.3318052821718E+00  0.4070536905745E+00
 0.6922127937538E+00 -0.2021322550427E+01 -0.2658219552957E+00  0.2573641307330E+00
 0.1081142751310E+01 -0.2034505354422E+01 -0.1906725234637E+00  0.1065624696008E+00
 0.1535052038038E+01 -0.2068249730889E+01 -0.1066395401593E+00 -0.3259691381508E-01
 0.2047893400298E+01 -0.2120642132870E+01 -0.1454974673134E-01 -0.1447824889285E+00
 0.2605617336686E+01 -0.2185035600710E+01  0.8411634844877E-01 -0.2140682456149E+00
 0.3185457277561E+01 -0.2249554960650E+01  0.1871804661713E+00 -0.2270467653411E+00
 0.3756979997088E+01 -0.2298054957247E+01  0.2917850123162E+00 -0.1761198679817E+00
 0.4280692052284E+01 -0.2311107539943E+01  0.3939169083380E+00 -0.6605984061741E-01
-0.4875961826848E+00 -0.2101537291454E+01 -0.5178267025440E+00  0.1001991069820E+00
-0.4246099906367E+00 -0.2131902552782E+01 -0.5113025163028E+00  0.1438599849583E+00
-0.3702395042996E+00 -0.2160880203428E+01 -0.5062239490889E+00  0.1891164620238E+00
-0.3243749247326E+00 -0.2188530052625E+01 -0.5025810029606E+00  0.2348269193600E+00
-0.2868056450577E+00 -0.2214960372836E+01 -0.5003532110345E+00  0.2800885954667E+00
-0.2571822762975E+00 -0.2240337291149E+01 -0.4995039209326E+00  0.3242647880344E+00
-0.2350427543842E+00 -0.2264851728710E+01 -0.4999789040691E+00  0.3670134582512E+00
-0.2198765030348E+00 -0.2288665233465E+01 -0.5017083547761E+00  0.4082800429451E+00
-0.2111901528695E+00 -0.2311861280090E+01 -0.5046102941112E+00  0.4482512052030E+00
-0.2085524834734E+00 -0.2334415155802E+01 -0.5085935354337E+00  0.4872849882653E+00
-0.2116133960598E+00 -0.2356181690659E+01 -0.5135590249963E+00  0.5258340934050E+00
-0.2201009338357E+00 -0.2376893918896E+01 -0.5193989782860E+00  0.5643715508325E+00
-0.2338016975737E+00 -0.2396166901674E+01 -0.5259937276874E+00  0.6033215867195E+00
-0.2525270833564E+00 -0.2413504396425E+01 -0.5332063039016E+00  0.6429942875446E+00
-0.2760631919140E+00 -0.2428309628375E+01 -0.5408745721175E+00  0.6835214029368E+00
-0.3041044369051E+00 -0.2439906411651E+01 -0.5488021778890E+00  0.7248000701163E+00
-0.3361683830410E+00 -0.2447572248970E+01 -0.5567481346984E+00  0.7664468560132E+00
-0.3714973637172E+00 -0.2450583577190E+01 -0.5644161965920E+00  0.8077701412147E+00
-0.4089644982565E+00 -0.2448268658436E+01 -0.5714466398537E+00  0.8477736630901E+00
-0.4469919419000E+00 -0.2440058029375E+01 -0.5774100028591E+00  0.8851885861775E+00
-0.4834798804604E+00 -0.2425568046193E+01 -0.5818095940003E+00  0.9185471230353E+00
-0.5158506448737E+00 -0.2404733295335E+01 -0.5841167967458E+00  0.9462692960143E+00
-0.5411937508881E+00 -0.2377824067743E+01 -0.5838035724256E+00  0.9666862337019E+00
-0.5563420223780E+00 -0.2345352409943E+01 -0.5803388951120E+00  0.9780168268354E+00
-0.5578713627661E+00 -0.2308009778861E+01 -0.5731762368664E+00  0.9783573968160E+00
-0.5420620450713E+00 -0.2266677027649E+01 -0.5617478229148E+00  0.9657089671266E+00
-0.5048443253774E+00 -0.2222488295252E+01 -0.5454665322540E+00  0.9380551343250E+00
-0.4417461530028E+00 -0.2176921221136E+01 -0.5237334826320E+00  0.8935021134481E+00
-0.3478646839483E+00 -0.2131891912380E+01 -0.4959513266559E+00  0.8304936844399E+00
-0.2178937363833E+00 -0.2089831613028E+01 -0.4615450767599E+00  0.7481140374949E+00
-0.4620350759171E-01 -0.2053691322207E+01 -0.4199789722179E+00  0.6464654923695E+00
 0.1730563295510E+00 -0.2026844472093E+01 -0.3707576340332E+00  0.5270986789676E+00
 0.4455612547810E+00 -0.2012917694056E+01 -0.3134712925262E+00  0.3935575345226E+00
 0.7759262843332E+00 -0.2015393433723E+01 -0.2478934335718E+00  0.2519607195389E+00
 0.1166436011432E+01 -0.2036834029846E+01 -0.1740796062769E+00  0.1113276360897E+00
 0.1615425214951E+01 -0.2077798832649E+01 -0.9247472491758E-01 -0.1658653084264E-01
 0.2115569672816E+01 -0.2135650798734E+01 -0.4016225243479E-02 -0.1182211630961E+00
 0.2652612170639E+01 -0.2203637712624E+01  0.8979489294098E-01 -0.1800642521898E+00
 0.3205136458361E+01 -0.2270760787118E+01  0.1868751370332E+00 -0.1912531803297E+00
 0.3745589446377E+01 -0.2322685779176E+01  0.2845807376808E+00 -0.1464787218502E+00
 0.4243665183178E+01 -0.2344474972438E+01  0.3798380478081E+00 -0.4978838960277E-01
-0.5033430940776E+00 -0.2162152507255E+01 -0.5330991282103E+00  0.1117771028014E+00
-0.4411244313121E+00 -0.2191976887408E+01 -0.5266202715914E+00  0.1549775437638E+00
-0.3870709045353E+00 -0.2220396325985E+01 -0.5214934538750E+00  0.1997789702444E+00
-0.3411665543449E+00 -0.2247400818877E+01 -0.5177134823589E+00  0.2450478483485E+00
-0.3032932562066E+00 -0.2273026371545E+01 -0.5152639332284E+00  0.2899008804399E+00
-0.2732038737620E+00 -0.2297360447116E+01 -0.5141128718364E+00  0.3337177780137E+00
-0.2505418716568E+00 -0.2320515609604E+01 -0.5142115039144E+00  0.3761578141394E+00
-0.2348921633107E+00 -0.2342584925630E+01 -0.5154954254696E+00  0.4171497412807E+00
-0.2258357615704E+00 -0.2363599319133E+01 -0.5178870238578E+00  0.4568497664421E+00
-0.2229892981902E+00 -0.2383498588029E+01 -0.5212975850118E+00  0.4955779247938E+00
-0.2260230720249E+00 -0.2402117363469E+01 -0.5256280949313E+00  0.5337461013726E+00
-0.2346591412141E+00 -0.2419181719593E+01 -0.5307681800705E+00  0.5717861685663E+00
-0.2486529600460E+00 -0.2434312316197E+01 -0.5365930632445E+00  0.6100819218408E+00
-0.2677603974774E+00 -0.2447032265943E+01 -0.5429585407747E+00  0.6489048372872E+00
-0.2916885496884E+00 -0.2456780700884E+01 -0.5496938583055E+00  0.6883522205737E+00
-0.3200317654223E+00 -0.2462936512387E+01 -0.5565936638558E+00  0.7282948455020E+00
-0.3521916642557E+00 -0.2464853040408E+01 -0.5634089493282E+00  0.7683358368047E+00
-0.3872870557155E+00 -0.2461903101221E+01 -0.5698380398786E+00  0.8077871176889E+00
-0.4240697556352E+00 -0.2453529624610E+01 -0.5755198846249E+00  0.8456740543870E+00
-0.4608518694206E+00 -0.2439292677403E+01 -0.5800289180078E+00  0.8807664159176E+00
-0.4954428754924E+00 -0.2418941467379E+01 -0.5828768772598E+00  0.9116529744898E+00
-0.5251889184751E+00 -0.2392537597719E+01 -0.5835453119342E+00  0.9368199674371E+00
-0.5471025318035E+00 -0.2360482654439E+01 -0.5815170459138E+00  0.9546620264450E+00
-0.5579321987710E+00 -0.2323440056914E+01 -0.5762744597242E+00  0.9634624762643E+00
-0.5541676528551E+00 -0.2282278862115E+01 -0.5672893114472E+00  0.9613971438068E+00
-0.5320159398357E+00 -0.2238079392932E+01 -0.5540190748091E+00  0.9465770992184E+00
-0.4873695547337E+00 -0.2192185014934E+01 -0.5359109219192E+00  0.9171395070524E+00
-0.4157841403023E+00 -0.2146273800710E+01 -0.5124115958380E+00  0.8713968449509E+00
-0.3124883688332E+00 -0.2102427572639E+01 -0.4829831954915E+00  0.8080556439939E+00
-0.1724586982699E+00 -0.2063173261233E+01 -0.4471263985634E+00  0.7265134450848E+00
 0.9445537864954E-02 -0.2031446881341E+01 -0.4044002747212E+00  0.6272149954399E+00
 0.2383195151743E+00 -0.2010454954122E+01 -0.3544270930710E+00  0.5120380267509E+00
 0.5187777027710E+00 -0.2003456569443E+01 -0.2969357777591E+00  0.3847491208864E+00
 0.8540894672253E+00 -0.2013341658722E+01 -0.2318504417541E+00  0.2514398888345E+00
 0.1245034483992E+01 -0.2041909102732E+01 -0.1593749261228E+00  0.1206807920878E+00
 0.1688548308992E+01 -0.2088941752399E+01 -0.8007868987459E-01  0.3208104232469E-02
 0.2176413303924E+01 -0.2151274574890E+01  0.5027745881682E-02 -0.8904511418525E-01
 0.2694436344187E+01 -0.2222185154783E+01  0.9445023928818E-01 -0.1446340859328E+00
 0.3222546205776E+01 -0.2291468796190E+01  0.1862154846920E+00 -0.1548056263510E+00
 0.3736160843046E+01 -0.2346418373502E+01  0.2779484980505E+00 -0.1159097378000E+00
 0.4210036513683E+01 -0.2374397205147E+01  0.3671278671778E+00 -0.3168855948762E-01
-0.5189018868777E+00 -0.2222013244166E+01 -0.5481830343772E+00  0.1231324817983E+00
-0.4574514640601E+00 -0.2251298485982E+01 -0.5417499980811E+00  0.1658764599106E+00
-0.4037151195858E+00 -0.2279162435540E+01 -0.5365755190207E+00  0.2101995468617E+00
-0.3577752926416E+00 -0.2305524524847E+01 -0.5326599714350E+00  0.2549780891423E+00
-0.3196082751321E+00 -0.2330350051620E+01 -0.5299916732479E+00  0.2993462990724E+00
-0.2890662072525E+00 -0.2353652087764E+01 -0.5285436668791E+00  0.3426989944918E+00
-0.2658923906856E+00 -0.2375469923073E+01 -0.5282724706235E+00  0.3846985265677E+00
-0.2497616729042E+00 -0.2395832115067E+01 -0.5291187654787E+00  0.4252615916494E+00
-0.2403256184412E+00 -0.2414719346885E+01 -0.5310090009779E+00  0.4645198417537E+00
-0.2372466992509E+00 -0.2432037228732E+01 -0.5338567935516E+00  0.5027610816290E+00
-0.2402147880452E+00 -0.2447601512815E+01 -0.5375632681823E+00  0.5403614977814E+00
-0.2489457151991E+00 -0.2461133417806E+01 -0.5420158346776E+00  0.5777164928203E+00
-0.2631639234281E+00 -0.2472262333920E+01 -0.5470852596219E+00  0.6151743089865E+00
-0.2825705265852E+00 -0.2480534595978E+01 -0.5526210327473E+00  0.6529735054653E+00
-0.3067955898434E+00 -0.2485429132737E+01 -0.5584449528375E+00  0.6911837905522E+00
-0.3353371042583E+00 -0.2486382945180E+01 -0.5643440182970E+00  0.7296574149319E+00
-0.3674862952644E+00 -0.2482826636394E+01 -0.5700625948263E+00  0.7679922845585E+00
-0.4022452582040E+00 -0.2474228884735E+01 -0.5752948371603E+00  0.8055117209480E+00
-0.4382514370063E+00 -0.2460144966321E+01 -0.5796792893033E+00  0.8412698111513E+00
-0.4737128410318E+00 -0.2440260733475E+01 -0.5827947235856E+00  0.8740813240321E+00
-0.5063525124809E+00 -0.2414454064316E+01 -0.5841613240640E+00  0.9025968412786E+00
-0.5334437518188E+00 -0.2382909644357E+01 -0.5832706879266E+00  0.9253738298817E+00
-0.5519269410894E+00 -0.2346155489788E+01 -0.5796164948124E+00  0.9408775607474E+00
-0.5584749226968E+00 -0.2304998486000E+01 -0.5726946902731E+00  0.9474651000017E+00
-0.5495051717791E+00 -0.2260472715377E+01 -0.5619955858056E+00  0.9434012572797E+00
-0.5211709830995E+00 -0.2213839707049E+01 -0.5470021461808E+00  0.9269141416378E+00
-0.4693517761029E+00 -0.2166627307891E+01 -0.5271958246546E+00  0.8962961119004E+00
-0.3896596968384E+00 -0.2120682097675E+01 -0.5020683663841E+00  0.8500587707027E+00
-0.2774853300462E+00 -0.2078212422760E+01 -0.4711395575818E+00  0.7871510855918E+00
-0.1281142630259E+00 -0.2041796286126E+01 -0.4339821162973E+00  0.7072450327702E+00
 0.6309264485276E-01 -0.2014309502701E+01 -0.3902433773848E+00  0.6110648595949E+00
 0.3004937497760E+00 -0.1998754987155E+01 -0.3396522525371E+00  0.5007253123700E+00
 0.5877145976247E+00 -0.1998013059030E+01 -0.2820596964841E+00  0.3801032388111E+00
 0.9268274714425E+00 -0.2014416159651E+01 -0.2175177408829E+00  0.2551490308117E+00
 0.1317341056579E+01 -0.2049093907695E+01 -0.1463505724040E+00  0.1339073490597E+00
 0.1755089400717E+01 -0.2101197684871E+01 -0.6922165786235E-01  0.2610821927607E-01
 0.2231256549417E+01 -0.2167189493974E+01  0.1281341127956E-01 -0.5779311200194E-01
 0.2731897917940E+01 -0.2240464525770E+01  0.9828667989843E-01 -0.1081264186922E+00
 0.3238294142153E+01 -0.2311569697498E+01  0.1853448916928E+00 -0.1178760962956E+00
 0.3728496351491E+01 -0.2369226017013E+01  0.2718540709465E+00 -0.8460326044550E-01
 0.4180763466877E+01 -0.2402508355468E+01  0.3556510275815E+00 -0.1176734907445E-01
-0.5342815273325E+00 -0.2281183244716E+01 -0.5630929628004E+00  0.1342676437058E+00
-0.4735888176621E+00 -0.2309936758416E+01 -0.5567051235111E+00  0.1765596858229E+00
-0.4201603321884E+00 -0.2337253893828E+01 -0.5514828534211E+00  0.2203814209085E+00
-0.3741797654857E+00 -0.2362983302181E+01 -0.5474326216908E+00  0.2646211097570E+00
-0.3357191385264E+00 -0.2387020905689E+01 -0.5445480169575E+00  0.3084296024286E+00
-0.3047275551809E+00 -0.2409308909680E+01 -0.5428073010607E+00  0.3512162253929E+00
-0.2810435134955E+00 -0.2429817737596E+01 -0.5421722582974E+00  0.3926481504208E+00
-0.2644269825517E+00 -0.2448515247833E+01 -0.5425884541622E+00  0.4326341588890E+00
-0.2545964739352E+00 -0.2465334508879E+01 -0.5439862046689E+00  0.4712867835653E+00
-0.2512581838369E+00 -0.2480148727329E+01 -0.5462813903734E+00  0.5088672114210E+00
-0.2541205851905E+00 -0.2492756433035E+01 -0.5493754118315E+00  0.5457211983543E+00
-0.2628930457847E+00 -0.2502876089703E+01 -0.5531538353402E+00  0.5822126915336E+00
-0.2772693710155E+00 -0.2510148535973E+01 -0.5574835897048E+00  0.6186595731264E+00
-0.2968971153126E+00 -0.2514146403740E+01 -0.5622087121882E+00  0.6552733130881E+00
-0.3213317550431E+00 -0.2514391251846E+01 -0.5671446098289E+00  0.6921027068048E+00
-0.3499789674102E+00 -0.2510380075754E+01 -0.5720718171575E+00  0.7289888465989E+00
-0.3820252131181E+00 -0.2501621107069E+01 -0.5767292726313E+00  0.7655319540432E+00
-0.4163625245800E+00 -0.2487677499119E+01 -0.5808080133945E+00  0.8010738766147E+00
-0.4515206996113E+00 -0.2468213856734E+01 -0.5839469199705E+00  0.8347038779891E+00
-0.4856095871689E+00 -0.2443037471031E+01 -0.5857294203680E+00  0.8652875662308E+00
-0.5162703507912E+00 -0.2412150164074E+01 -0.5856841117005E+00  0.8915420489985E+00
-0.5407072913657E+00 -0.2375855195234E+01 -0.5833125060119E+00  0.9121003624122E+00
-0.5557938745363E+00 -0.2334801483493E+01 -0.5781190802205E+00  0.9255044367796E+00
-0.5581359125356E+00 -0.2289930849065E+01 -0.5696133608081E+00  0.9301927107944E+00
-0.5440916426800E+00 -0.2242429426207E+01 -0.5573042220819E+00  0.9245262571627E+00
-0.5097781483966E+00 -0.2193721723562E+01 -0.5406999824488E+00  0.9068545384106E+00
-0.4510831652572E+00 -0.2145496132262E+01 -0.5193158672422E+00  0.8756235893019E+00
-0.3636990156919E+00 -0.2099737969817E+01 -0.4926874044434E+00  0.8295335193046E+00
-0.2432010128556E+00 -0.2058747246093E+01 -0.4603896586500E+00  0.7677521309218E+00
-0.8519996132430E-01 -0.2025115788978E+01 -0.4220631563497E+00  0.6901850674717E+00
 0.1144421277080E+00 -0.2001624910484E+01 -0.3774365621795E+00  0.5977748561187E+00
 0.3593780155802E+00 -0.1991051150453E+01 -0.3263346318373E+00  0.4927912987296E+00
 0.6523242882696E+00 -0.1995898856990E+01 -0.2687149177483E+00  0.3791262681724E+00
 0.9942995349423E+00 -0.2017986469014E+01 -0.2047373898653E+00  0.2625009858993E+00
 0.1383748809866E+01 -0.2057864472608E+01 -0.1348231345574E+00  0.1503873955226E+00
 0.1815650451575E+01 -0.2114177171946E+01 -0.5970534496373E-01  0.5154382688194E-01
 0.2280815332594E+01 -0.2183134773122E+01  0.1953611218543E-01 -0.2490587364551E-01
 0.2765673995303E+01 -0.2258312674391E+01  0.1014722656944E+00 -0.7081240890898E-01
 0.3252811338921E+01 -0.2330976876493E+01  0.1843668952329E+00 -0.8057320706871E-01
 0.3722538395571E+01 -0.2391098370595E+01  0.2662880089631E+00 -0.5261425993670E-01
 0.4155638930962E+01 -0.2429144271742E+01  0.3452989369895E+00  0.9901512317055E-02
-0.5494910095339E+00 -0.2339725514343E+01 -0.5778433133858E+00  0.1451871099215E+00
-0.4895343867067E+00 -0.2367960205814E+01 -0.5714989270201E+00  0.1870322214290E+00
-0.4363948223752E+00 -0.2394744808472E+01 -0.5662279346069E+00  0.2303300796578E+00
-0.3903588782652E+00 -0.2419857432550E+01 -0.5620432705382E+00  0.2739829537543E+00
-0.3515950911011E+00 -0.2443125865252E+01 -0.5589441995996E+00  0.3171582520359E+00
-0.3201476714626E+00 -0.2464424412478E+01 -0.5569144250867E+00  0.3592798322892E+00
-0.2959465100818E+00 -0.2483658491007E+01 -0.5559210085017E+00  0.4000215109231E+00
-0.2788325440399E+00 -0.2500738870859E+01 -0.5559142912636E+00  0.4392879918808E+00
-0.2685879045161E+00 -0.2515553800490E+01 -0.5568283492985E+00  0.4771777760402E+00
-0.2649603953520E+00 -0.2527946187994E+01 -0.5585813249927E+00  0.5139308839362E+00
-0.2676760495243E+00 -0.2537699220229E+01 -0.5610750623113E+00  0.5498679716008E+00
-0.2764375729255E+00 -0.2544530658607E+01 -0.5641936547137E+00  0.5853267352029E+00
-0.2909087119003E+00 -0.2548095121968E+01 -0.5678007752346E+00  0.6206000597889E+00
-0.3106849931521E+00 -0.2547993915081E+01 -0.5717357901661E+00  0.6558781651045E+00
-0.3352501009907E+00 -0.2543793148471E+01 -0.5758086584726E+00  0.6911953838420E+00
-0.3639216774769E+00 -0.2535050718638E+01 -0.5797944878626E+00  0.7263885327353E+00
-0.3957870748404E+00 -0.2521351946910E+01 -0.5834278130438E+00  0.7610670431925E+00
-0.4296347636044E+00 -0.2502352319153E+01 -0.5863974252895E+00  0.7945977544767E+00
-0.4638934467776E+00 -0.2477822127334E+01 -0.5883431235893E+00  0.8261109684031E+00
-0.4965807221673E+00 -0.2447685206687E+01 -0.5888531945455E+00  0.8545284218065E+00
-0.5252606331457E+00 -0.2412062103445E+01 -0.5874645560720E+00  0.8786379201603E+00
-0.5470726714479E+00 -0.2371369637376E+01 -0.5836884704624E+00  0.8971517363309E+00
-0.5588288328485E+00 -0.2326371551494E+01 -0.5770400854671E+00  0.9086934173751E+00
-0.5570762279423E+00 -0.2278135615217E+01 -0.5670423770815E+00  0.9117888466622E+00
-0.5381258011662E+00 -0.2227986894397E+01 -0.5532225473563E+00  0.9049006348106E+00
-0.4980738486702E+00 -0.2177495047206E+01 -0.5351137871490E+00  0.8865015416789E+00
-0.4328343764608E+00 -0.2128486344968E+01 -0.5122641519192E+00  0.8551871251346E+00
-0.3381984317400E+00 -0.2083057720631E+01 -0.4842512376900E+00  0.8098327311764E+00
-0.2099417097861E+00 -0.2043570632248E+01 -0.4507024751228E+00  0.7497993348846E+00
-0.4400711338646E-01 -0.2012600648767E+01 -0.4113215585599E+00  0.6751851864527E+00
 0.1632529705366E+00 -0.1992810017049E+01 -0.3659114147549E+00  0.5870931307369E+00
 0.4148261534652E+00 -0.1986737516109E+01 -0.3143822772134E+00  0.4878749764582E+00
 0.7126034603042E+00 -0.1996524494775E+01 -0.2567842107205E+00  0.3813583933818E+00
 0.1056684542387E+01 -0.2023523111209E+01 -0.1933677166458E+00  0.2729695310206E+00
 0.1444631881252E+01 -0.2067788306239E+01 -0.1246312868546E+00  0.1695834828210E+00
 0.1870768798737E+01 -0.2127562433917E+01 -0.5135872780117E-01  0.7903505101343E-01
 0.2325703347972E+01 -0.2198898319390E+01  0.2536100609432E-01  0.9255876996925E-02
 0.2796317533136E+01 -0.2275595004908E+01  0.1041445071975E+00 -0.3290224845971E-01
 0.3266415680366E+01 -0.2349596210384E+01  0.1833638967286E+00 -0.4297307772991E-01
 0.3718201711441E+01 -0.2411953450091E+01  0.2612496561629E+00 -0.1998938236177E-01
 0.4134441914886E+01 -0.2454261367295E+01  0.3360361145254E+00  0.3313465021018E-01
-0.5645393108574E+00 -0.2397702125961E+01 -0.5924482961918E+00  0.1558974319506E+00
-0.5052862456022E+00 -0.2425436194541E+01 -0.5861444967629E+00  0.1973010276102E+00
-0.4524070641994E+00 -0.2451707863705E+01 -0.5808229942358E+00  0.2400531011565E+00
-0.4062919024706E+00 -0.2476225291526E+01 -0.5765034473899E+00  0.2830719903769E+00
-0.3672061863600E+00 -0.2498749343760E+01 -0.5731911145653E+00  0.3255421518238E+00
-0.3352877014968E+00 -0.2519088985510E+01 -0.5708753459081E+00  0.3669025258625E+00
-0.3105545985146E+00 -0.2537088039828E+01 -0.5695285361551E+00  0.4068355435171E+00
-0.2929252076920E+00 -0.2552603589942E+01 -0.5691057680071E+00  0.4452454965240E+00
-0.2822422494483E+00 -0.2565481928201E+01 -0.5695448440167E+00  0.4822216869335E+00
-0.2782930854877E+00 -0.2575537970178E+01 -0.5707662196382E+00  0.5179882679060E+00
-0.2808202600520E+00 -0.2582541573836E+01 -0.5726723753110E+00  0.5528461218571E+00
-0.2895196694413E+00 -0.2586211771565E+01 -0.5751462967717E+00  0.5871119769417E+00
-0.3040257490733E+00 -0.2586218937597E+01 -0.5780489459478E+00  0.6210591325542E+00
-0.3238837904205E+00 -0.2582194811555E+01 -0.5812157290560E+00  0.6548623078479E+00
-0.3485087438644E+00 -0.2573751191902E+01 -0.5844519958623E+00  0.6885475319795E+00
-0.3771346508367E+00 -0.2560506946960E+01 -0.5875283283143E+00  0.7219537437783E+00
-0.4087554007259E+00 -0.2542123173851E+01 -0.5901757237096E+00  0.7547058774377E+00
-0.4420622599316E+00 -0.2518344889092E+01 -0.5920814386275E+00  0.7862016180946E+00
-0.4753892327458E+00 -0.2489043872408E+01 -0.5928866298654E+00  0.8156176043566E+00
-0.5066675317135E+00 -0.2454255116786E+01 -0.5921845385241E+00  0.8419364496539E+00
-0.5333889597393E+00 -0.2414212238035E+01 -0.5895202483394E+00  0.8640202847370E+00
-0.5526325992810E+00 -0.2369440173302E+01 -0.5844145632251E+00  0.8806636328799E+00
-0.5611544697306E+00 -0.2320810973119E+01 -0.5763930971589E+00  0.8905756203350E+00
-0.5554508651694E+00 -0.2269509079472E+01 -0.5649919973474E+00  0.8923742250498E+00
-0.5317961650785E+00 -0.2216985447417E+01 -0.5497563306910E+00  0.8846270854623E+00
-0.4862790774943E+00 -0.2164937745469E+01 -0.5302433724938E+00  0.8659301723275E+00
-0.4148543634922E+00 -0.2115309075417E+01 -0.5060326953224E+00  0.8350223050822E+00
-0.3134253817076E+00 -0.2070283809085E+01 -0.4767418452626E+00  0.7909389273085E+00
-0.1779772718552E+00 -0.2032259350758E+01 -0.4420473311096E+00  0.7332075250837E+00
-0.4783964561437E-02 -0.2003771645082E+01 -0.4017111279146E+00  0.6620788214983E+00
 0.2093307867142E+00 -0.1987347772030E+01 -0.3556034023621E+00  0.5787622890511E+00
 0.4667360635358E+00 -0.1985286426563E+01 -0.3037100771310E+00  0.4856277617046E+00
 0.7685808952798E+00 -0.1999385966897E+01 -0.2461610179914E+00  0.3863739283334E+00
 0.1114170126268E+01 -0.2030581218037E+01 -0.1832822210850E+00  0.2860841087868E+00
 0.1500339755977E+01 -0.2078507291461E+01 -0.1156335088198E+00  0.1910292841138E+00
 0.1920920335575E+01 -0.2141092330489E+01 -0.4403439963890E-01  0.1081765583211E+00
 0.2366442739979E+01 -0.2214304411425E+01  0.3042766616416E-01  0.4439555773075E-01
 0.2824277535011E+01 -0.2292191493329E+01  0.1064172099220E+00  0.5436169983407E-02
 0.3279338228814E+01 -0.2367322247502E+01  0.1824031989805E+00 -0.5142528234863E-02
 0.3715418564574E+01 -0.2431667749139E+01  0.2567501669128E+00  0.1319562215885E-01
 0.4116917935308E+01 -0.2477760639564E+01  0.3278314640338E+00  0.5774943749056E-01
-0.5794353583174E+00 -0.2455174062559E+01 -0.6069218932191E+00  0.1664071012277E+00
-0.5208426555941E+00 -0.2482430795514E+01 -0.6006546991722E+00  0.2073749417731E+00
-0.4681857930336E+00 -0.2508214189230E+01 -0.5952800053231E+00  0.2495600180241E+00
-0.4219585427801E+00 -0.2532163292277E+01 -0.5908243758153E+00  0.2918987077211E+00
-0.3825232915753E+00 -0.2553973257561E+01 -0.5872993185787E+00  0.3335934123928E+00
-0.3501101180060E+00 -0.2573389965531E+01 -0.5847000254201E+00  0.3740991498788E+00
-0.3248228448636E+00 -0.2590198695575E+01 -0.5830043167752E+00  0.4131091172096E+00
-0.3066541257552E+00 -0.2604206042417E+01 -0.5821720423095E+00  0.4505307808392E+00
-0.2955045360299E+00 -0.2615219212536E+01 -0.5821447583878E+00  0.4864488963640E+00
-0.2911990512671E+00 -0.2623027550378E+01 -0.5828453290141E+00  0.5210769068201E+00
-0.2934957058270E+00 -0.2627389669398E+01 -0.5841770837499E+00  0.5547011905504E+00
-0.3020834960549E+00 -0.2628027746951E+01 -0.5860222573336E+00  0.5876227782086E+00
-0.3165684313203E+00 -0.2624629562475E+01 -0.5882396075245E+00  0.6201007432845E+00
-0.3364475569231E+00 -0.2616858516063E+01 -0.5906612233987E+00  0.6522998819937E+00
-0.3610703332490E+00 -0.2604372554737E+01 -0.5930885864349E+00  0.6842437427352E+00
-0.3895917302211E+00 -0.2586850873924E+01 -0.5952885296994E+00  0.7157792972693E+00
-0.4209177822024E+00 -0.2564028365020E+01 -0.5969892383404E+00  0.7465527047184E+00
-0.4536487714561E+00 -0.2535736195721E+01 -0.5978770023444E+00  0.7759977766415E+00
-0.4860302552227E+00 -0.2501942937481E+01 -0.5975946474456E+00  0.8033422492135E+00
-0.5159128621435E+00 -0.2462788919789E+01 -0.5957403652637E+00  0.8276338299414E+00
-0.5407210838752E+00 -0.2418614799561E+01 -0.5918671855068E+00  0.8478120687209E+00
-0.5574780867470E+00 -0.2370047835359E+01 -0.5855051931460E+00  0.8627561293504E+00
-0.5628893175957E+00 -0.2318061540799E+01 -0.5761901802649E+00  0.8712637651346E+00
-0.5534075680483E+00 -0.2263947612125E+01 -0.5634710444310E+00  0.8720484277267E+00
-0.5252800664337E+00 -0.2209270119809E+01 -0.5469100453982E+00  0.8637847272216E+00
-0.4745988632270E+00 -0.2155838521186E+01 -0.5260874847220E+00  0.8451900840920E+00
-0.3973705509147E+00 -0.2105693541562E+01 -0.5006128259550E+00  0.8151387261521E+00
-0.2896196994190E+00 -0.2061085899110E+01 -0.4701411267114E+00  0.7728099019940E+00
-0.1475440235127E+00 -0.2024428038667E+01 -0.4343944189089E+00  0.7178708373787E+00
 0.3225930395228E-01 -0.1998199040093E+01 -0.3931879530872E+00  0.6506864298841E+00
 0.2525204868468E+00 -0.1984781894802E+01 -0.3464522867536E+00  0.5725239461729E+00
 0.5150404273048E+00 -0.1986239919388E+01 -0.2942399028012E+00  0.4857160505857E+00
 0.8203075848289E+00 -0.2004053053345E+01 -0.2367490972311E+00  0.3937803681721E+00
 0.1166944569945E+01 -0.2038786884952E+01 -0.1743684655998E+00  0.3014242438358E+00
 0.1551194027427E+01 -0.2089724024600E+01 -0.1077060010396E+00  0.2143193679071E+00
 0.1966523261648E+01 -0.2154550699820E+01 -0.3760548819482E-01  0.1386244030376E+00
 0.2403475596817E+01 -0.2229204413986E+01  0.3485423708573E-01  0.8026660950270E-01
 0.2849917125177E+01 -0.2307991452482E+01  0.1083851361541E+00  0.4406294297682E-01
 0.3291754179908E+01 -0.2384044503085E+01  0.1815419380697E+00  0.3284843772643E-01
 0.3714125851724E+01 -0.2450115424882E+01  0.2528020891355E+00  0.4685132543860E-01
 0.4102812157256E+01 -0.2499529649776E+01  0.3206565062741E+00  0.8356703446683E-01
-0.5941879992624E+00 -0.2512201094513E+01 -0.6212778280128E+00  0.1767264604541E+00
-0.5362020638700E+00 -0.2539008662169E+01 -0.6150421543726E+00  0.2172645946852E+00
-0.4837200471060E+00 -0.2564333254699E+01 -0.6096106694450E+00  0.2588621969653E+00
-0.4373389805446E+00 -0.2587745827118E+01 -0.6050169705479E+00  0.3004755333149E+00
-0.3975180854714E+00 -0.2608877022226E+01 -0.6012790304992E+00  0.3413261368616E+00
-0.3645786623067E+00 -0.2627411661125E+01 -0.5983980736032E+00  0.3808864692778E+00
-0.3387080698989E+00 -0.2643079235240E+01 -0.5963574699143E+00  0.4188628435651E+00
-0.3199706535915E+00 -0.2655638861807E+01 -0.5951219119478E+00  0.4551694765204E+00
-0.3083223899309E+00 -0.2664861501950E+01 -0.5946367872369E+00  0.4898911057175E+00
-0.3036240470329E+00 -0.2670513409004E+01 -0.5948275000710E+00  0.5232354892684E+00
-0.3056481738590E+00 -0.2672344063036E+01 -0.5955984562540E+00  0.5554796732675E+00
-0.3140768304177E+00 -0.2670080551995E+01 -0.5968314853760E+00  0.5869141746430E+00
-0.3284885894723E+00 -0.2663429417377E+01 -0.5983836102865E+00  0.6177890663141E+00
-0.3483343810130E+00 -0.2652086478931E+01 -0.6000841809308E+00  0.6482645594435E+00
-0.3729015442048E+00 -0.2635755712205E+01 -0.6017314602484E+00  0.6783671713578E+00
-0.4012705541820E+00 -0.2614175381139E+01 -0.6030891960508E+00  0.7079573292401E+00
-0.4322651408313E+00 -0.2587151612808E+01 -0.6038833597263E+00  0.7367075920398E+00
-0.4644006889542E+00 -0.2554597839813E+01 -0.6037997147508E+00  0.7640926343107E+00
-0.4958404214734E+00 -0.2516574289333E+01 -0.6024829511390E+00  0.7893955339378E+00
-0.5243600981644E+00 -0.2473320426594E+01 -0.5995361138855E+00  0.8117327949230E+00
-0.5473218162754E+00 -0.2425277607220E+01 -0.5945198935582E+00  0.8301239663853E+00
-0.5616973163610E+00 -0.2373169335956E+01 -0.5869733392099E+00  0.8435346598248E+00
-0.5641466778730E+00 -0.2318063518281E+01 -0.5764420478204E+00  0.8508534785133E+00
-0.5510858391455E+00 -0.2261349674738E+01 -0.5624871111583E+00  0.8508916167048E+00
-0.5187429233471E+00 -0.2204692639220E+01 -0.5446871206300E+00  0.8424313011339E+00
-0.4632220005609E+00 -0.2149998515512E+01 -0.5226441110027E+00  0.8243083216452E+00
-0.3805892994808E+00 -0.2099388416928E+01 -0.4959955506726E+00  0.7955233598217E+00
-0.2669951662556E+00 -0.2055161408499E+01 -0.4644313218715E+00  0.7553826559890E+00
-0.1188477865866E+00 -0.2019728417503E+01 -0.4277152471913E+00  0.7036670163107E+00
 0.6694576389874E-01 -0.1995499874461E+01 -0.3857108278600E+00  0.6408196930994E+00
 0.2926996431517E+00 -0.1984711729816E+01 -0.3384024223755E+00  0.5681220239781E+00
 0.5596987565700E+00 -0.1989201930630E+01 -0.2859006390723E+00  0.4878225315068E+00
 0.8678487432413E+00 -0.2010159235483E+01 -0.2284621018527E+00  0.4032165968485E+00
 0.1215190833322E+01 -0.2047825878772E+01 -0.1665270115714E+00  0.3186139507486E+00
 0.1597486742478E+01 -0.2101190938523E+01 -0.1007408407101E+00  0.2391000898428E+00
 0.2007942480064E+01 -0.2167757386363E+01 -0.3196298173592E-01  0.1700847743242E+00
 0.2437174656943E+01 -0.2243470799774E+01  0.3874077201119E-01  0.1166609549144E+00
 0.2873531145633E+01 -0.2322892510638E+01  0.1101277286401E+00  0.8285608166565E-01
 0.3303798185802E+01 -0.2399656552675E+01  0.1808283293199E+00  0.7092593791663E-01
 0.3714260971188E+01 -0.2467178687931E+01  0.2494164603681E+00  0.8088132044673E-01
 0.4091879386285E+01 -0.2519459661730E+01  0.3144839495970E+00  0.1104123797778E+00
-0.6088059789050E+00 -0.2568841688673E+01 -0.6355295429857E+00  0.1868676191785E+00
-0.5513630986954E+00 -0.2595232941902E+01 -0.6293192174971E+00  0.2269823306305E+00
-0.4989991915944E+00 -0.2620132792046E+01 -0.6238264060238E+00  0.2679727302653E+00
-0.4524138990341E+00 -0.2643045220850E+01 -0.6190918332021E+00  0.3088166759576E+00
-0.4121630488150E+00 -0.2663537544660E+01 -0.6151401278613E+00  0.3487562257649E+00
-0.3786582891578E+00 -0.2681235366489E+01 -0.6119787402486E+00  0.3872829653646E+00
-0.3521687622887E+00 -0.2695814906486E+01 -0.6095967428386E+00  0.4241188794582E+00
-0.3328282525458E+00 -0.2706990650707E+01 -0.6079637897100E+00  0.4591885474306E+00
-0.3206459390924E+00 -0.2714500110101E+01 -0.6070292188841E+00  0.4925811367088E+00
-0.3155166834876E+00 -0.2718088952066E+01 -0.6067211361516E+00  0.5245036217086E+00
-0.3172266223483E+00 -0.2717499635654E+01 -0.6069452606447E+00  0.5552287575059E+00
-0.3254508858313E+00 -0.2712465817194E+01 -0.6075833496589E+00  0.5850415834008E+00
-0.3397416726735E+00 -0.2702713897428E+01 -0.6084911230875E+00  0.6141881942268E+00
-0.3595060234832E+00 -0.2687972471534E+01 -0.6094957080856E+00  0.6428292581264E+00
-0.3839726009029E+00 -0.2667990924968E+01 -0.6103927142698E+00  0.6709993076198E+00
-0.4121519738569E+00 -0.2642564803896E+01 -0.6109433646543E+00  0.6985771576455E+00
-0.4427910475814E+00 -0.2611568412098E+01 -0.6108719010386E+00  0.7252664126851E+00
-0.4743262667836E+00 -0.2574993115864E+01 -0.6098638856172E+00  0.7505868262693E+00
-0.5048444965398E+00 -0.2532985274319E+01 -0.6075659632253E+00  0.7738805647722E+00
-0.5320522365804E+00 -0.2485876960663E+01 -0.6035858484428E+00  0.7943361350801E+00
-0.5532540430416E+00 -0.2434203629385E+01 -0.5974915433887E+00  0.8110551789619E+00
-0.5653746417449E+00 -0.2378778744723E+01 -0.5888306860678E+00  0.8230910282765E+00
-0.5650336688850E+00 -0.2320757395185E+01 -0.5771582214143E+00  0.8294246300782E+00
-0.5486161326585E+00 -0.2261617591689E+01 -0.5620467532447E+00  0.8289662444143E+00
-0.5123377161587E+00 -0.2203113116070E+01 -0.5430901745384E+00  0.8206053079429E+00
-0.4523209989062E+00 -0.2147232756088E+01 -0.5199107587460E+00  0.8032919243174E+00
-0.3646965734650E+00 -0.2096162792605E+01 -0.4921718805480E+00  0.7761436243990E+00
-0.2457411912168E+00 -0.2052235640080E+01 -0.4595953731079E+00  0.7385768519784E+00
-0.9206686509874E-01 -0.2017848162562E+01 -0.4219830118201E+00  0.6904610138613E+00
 0.9912726718062E-01 -0.1995335122511E+01 -0.3792415767172E+00  0.6322847989307E+00
 0.3297726238176E+00 -0.1986787347021E+01 -0.3314029495790E+00  0.5653050130486E+00
 0.6006907061866E+00 -0.1993831301877E+01 -0.2786281232899E+00  0.4916465577814E+00
 0.9112774786345E+00 -0.2017393056224E+01 -0.2212231188144E+00  0.4143505652419E+00
 0.1259082280562E+01 -0.2057434340374E+01 -0.1596704143416E+00  0.3373163488100E+00
 0.1639479986918E+01 -0.2112701674182E+01 -0.9464433886312E-01  0.2650615618653E+00
 0.2045494247440E+01 -0.2180561552452E+01 -0.2701346140496E-01  0.2023045842714E+00
 0.2467853340913E+01 -0.2256993482960E+01  0.4217197221906E-01  0.1533999465582E+00
 0.2895359747919E+01 -0.2336801585874E+01  0.1117116340737E+00  0.1217057999114E+00
 0.3315573823270E+01 -0.2414060608976E+01  0.1803026455455E+00  0.1090132976246E+00
 0.3715760492877E+01 -0.2482751431298E+01  0.2466018159905E+00  0.1151852889990E+00
 0.4083890241984E+01 -0.2537450837590E+01  0.3092878854876E+00  0.1381125184826E+00
-0.6232979222098E+00 -0.2625152944658E+01 -0.6496901830547E+00  0.1968443726926E+00
-0.5663245607238E+00 -0.2651165214847E+01 -0.6434979647030E+00  0.2365421302180E+00
-0.5140129276224E+00 -0.2675678741356E+01 -0.6379383433017E+00  0.2769063350177E+00
-0.4671644911434E+00 -0.2698131696694E+01 -0.6330592470007E+00  0.3169379817843E+00
-0.4264314446138E+00 -0.2718029215216E+01 -0.6288921413372E+00  0.3559011953978E+00
-0.3923151097265E+00 -0.2734939368580E+01 -0.6254509049812E+00  0.3933086362234E+00
-0.3651649935740E+00 -0.2748487428267E+01 -0.6227304936475E+00  0.4289007253413E+00
-0.3451823926010E+00 -0.2758345957664E+01 -0.6207056793023E+00  0.4626160886749E+00
-0.3324277126751E+00 -0.2764221767519E+01 -0.6193299052675E+00  0.4945527239966E+00
-0.3268283180106E+00 -0.2765842455166E+01 -0.6185341638523E+00  0.5249216053460E+00
-0.3281830450829E+00 -0.2762945562136E+01 -0.6182257306561E+00  0.5539960803169E+00
-0.3361601258941E+00 -0.2755272871900E+01 -0.6182866087720E+00  0.5820605483833E+00
-0.3502864900893E+00 -0.2742571515882E+01 -0.6185716104116E+00  0.6093618887712E+00
-0.3699275698811E+00 -0.2724602873823E+01 -0.6189060979633E+00  0.6360659258489E+00
-0.3942568329827E+00 -0.2701160694843E+01 -0.6190835147903E+00  0.6622198245292E+00
-0.4222195158670E+00 -0.2672095566551E+01 -0.6188630257053E+00  0.6877252272717E+00
-0.4524910996042E+00 -0.2637346475512E+01 -0.6179675242317E+00  0.7123209143578E+00
-0.4834349210696E+00 -0.2596977999777E+01 -0.6160825933496E+00  0.7355754327086E+00
-0.5130673295291E+00 -0.2551216766593E+01 -0.6128568283567E+00  0.7568933049347E+00
-0.5390310510587E+00 -0.2500480650763E+01 -0.6079023494227E+00  0.7755377734443E+00
-0.5585778504839E+00 -0.2445392399651E+01 -0.6007940589794E+00  0.7906942121228E+00
-0.5685897128386E+00 -0.2386848998709E+01 -0.5910877511174E+00  0.8015044651349E+00
-0.5656504169419E+00 -0.2326085448184E+01 -0.5783471816432E+00  0.8070426869264E+00
-0.5461192076630E+00 -0.2264659095399E+01 -0.5621556689891E+00  0.8063187446392E+00
-0.5062046358082E+00 -0.2204401468324E+01 -0.5421212289046E+00  0.7983280665546E+00
-0.4420522011352E+00 -0.2147371302213E+01 -0.5178847083867E+00  0.7821303630942E+00
-0.3498587466263E+00 -0.2095806813365E+01 -0.4891331192869E+00  0.7569501658255E+00
-0.2260245437781E+00 -0.2052061605270E+01 -0.4556172365988E+00  0.7222978182270E+00
-0.6735491511028E-01 -0.2018509560169E+01 -0.4171729012722E+00  0.6781079590431E+00
 0.1286803559818E+00 -0.1997406846160E+01 -0.3737453036048E+00  0.6248849447917E+00
 0.3636654643445E+00 -0.1990704988150E+01 -0.3254079096100E+00  0.5638274076974E+00
 0.6380104931637E+00 -0.1999835594489E+01 -0.2723650243237E+00  0.4969038338517E+00
 0.9506698139495E+00 -0.2025490778232E+01 -0.2149641960597E+00  0.4268766745676E+00
 0.1298779703170E+01 -0.2067391164817E+01 -0.1537222946200E+00  0.3572286000918E+00
 0.1677406287504E+01 -0.2124084283890E+01 -0.8933560060835E-01  0.2919306523797E+00
 0.2079450818998E+01 -0.2192836748398E+01 -0.2267718621789E-01  0.2350637019379E+00
 0.2495774443077E+01 -0.2269677659439E+01  0.4521935740147E-01  0.1903276177510E+00
 0.2915598708994E+01 -0.2349635787289E+01  0.1131925860278E+00  0.1605111545356E+00
 0.3327160113760E+01 -0.2427169575569E+01  0.1799981103203E+00  0.1470320728214E+00
 0.3718560798330E+01 -0.2496740250160E+01  0.2443641132753E+00  0.1496601626201E+00
 0.4078634491969E+01 -0.2553414429265E+01  0.3050440170861E+00  0.1664955787849E+00
-0.6376723201981E+00 -0.2681190555777E+01 -0.6637725850861E+00  0.2066721246652E+00
-0.5810854117186E+00 -0.2706865458710E+01 -0.6575901838845E+00  0.2459595362996E+00
-0.5287512893737E+00 -0.2731035221534E+01 -0.6519573118964E+00  0.2856792586152E+00
-0.4815724521706E+00 -0.2753073360667E+01 -0.6469291722076E+00  0.3248568010536E+00
-0.4402972880551E+00 -0.2772423909701E+01 -0.6425442491258E+00  0.3627800066932E+00
-0.4055163312894E+00 -0.2788598958933E+01 -0.6388230675637E+00  0.3989848020175E+00
-0.3776583341792E+00 -0.2801174996995E+01 -0.6357666757085E+00  0.4332330213945E+00
-0.3569904564118E+00 -0.2809785265444E+01 -0.6333551538088E+00  0.4654811200598E+00
-0.3436225395304E+00 -0.2814108592148E+01 -0.6315462357464E+00  0.4958403049171E+00
-0.3375129431948E+00 -0.2813857032012E+01 -0.6302740044332E+00  0.5245302190712E+00
-0.3384723355076E+00 -0.2808765306398E+01 -0.6294475377606E+00  0.5518295053010E+00
-0.3461620840997E+00 -0.2798584801503E+01 -0.6289493864927E+00  0.5780265198719E+00
-0.3600849665839E+00 -0.2783084059367E+01 -0.6286338145576E+00  0.6033733803786E+00
-0.3795671084509E+00 -0.2762056957973E+01 -0.6283248226476E+00  0.6280453838845E+00
-0.4037302700981E+00 -0.2735340197555E+01 -0.6278141028858E+00  0.6521064935430E+00
-0.4314588951740E+00 -0.2702836774257E+01 -0.6268591432271E+00  0.6754851234347E+00
-0.4613623571844E+00 -0.2664546484535E+01 -0.6251817776598E+00  0.6979588549351E+00
-0.4917365973212E+00 -0.2620602053210E+01 -0.6224677393818E+00  0.7191482571739E+00
-0.5205331590847E+00 -0.2571304214860E+01 -0.6183674840034E+00  0.7385230156911E+00
-0.5453363474779E+00 -0.2517149604407E+01 -0.6124971995039E+00  0.7554233920940E+00
-0.5633497535675E+00 -0.2458841294886E+01 -0.6044382186975E+00  0.7691197143928E+00
-0.5714167182762E+00 -0.2397353253831E+01 -0.5937540032691E+00  0.7788427072088E+00
-0.5660893768268E+00 -0.2333993119629E+01 -0.5800165079340E+00  0.7837600647906E+00
-0.5437056190445E+00 -0.2270388662063E+01 -0.5628188646082E+00  0.7829811798152E+00
-0.5004708697477E+00 -0.2208438609057E+01 -0.5417819038340E+00  0.7756056699368E+00
-0.4325560229138E+00 -0.2150260131242E+01 -0.5165632385285E+00  0.7607977915669E+00
-0.3362234811748E+00 -0.2098132053556E+01 -0.4868711142011E+00  0.7378793413997E+00
-0.2079910628565E+00 -0.2054419628210E+01 -0.4524821449558E+00  0.7064391219016E+00
-0.4484362621322E-01 -0.2021468056174E+01 -0.4132623426355E+00  0.6664555623733E+00
 0.1555025993369E+00 -0.2001455445354E+01 -0.3691905747048E+00  0.6184221809813E+00
 0.3943214539009E+00 -0.1996202915802E+01 -0.3203762971541E+00  0.5634504858310E+00
 0.6716623010629E+00 -0.2006965683844E+01 -0.2670606805358E+00  0.5033256142777E+00
 0.9861008307753E+00 -0.2034230193328E+01 -0.2096258756341E+00  0.4405130366444E+00
 0.1334429341218E+01 -0.2077511791774E+01 -0.1486164923257E+00  0.3780772494895E+00
 0.1711469554772E+01 -0.2135195906660E+01 -0.8474527164042E-01  0.3194649588396E+00
 0.2110044838607E+01 -0.2204477301590E+01 -0.1888649287805E-01  0.2681686654854E+00
 0.2521157423761E+01 -0.2281442426933E+01  0.4794300008015E-01  0.2273057069279E+00
 0.2934407335123E+01 -0.2361322918739E+01  0.1146168849847E+00  0.1991779464234E+00
 0.3338616521015E+01 -0.2438907832477E+01  0.1799417403889E+00  0.1849027183628E+00
 0.3722599518151E+01 -0.2509064694898E+01  0.2427069682672E+00  0.1842006663203E+00
 0.4075922673623E+01 -0.2567273829068E+01  0.3017297734072E+00  0.1953903489597E+00
-0.6519375204921E+00 -0.2737008792174E+01 -0.6777892726331E+00  0.2163678138152E+00
-0.5956447606236E+00 -0.2762392035888E+01 -0.6716073693101E+00  0.2552515827618E+00
-0.5432046301747E+00 -0.2786264521711E+01 -0.6658938402997E+00  0.2943091886772E+00
-0.4956199576893E+00 -0.2807936201312E+01 -0.6607112416457E+00  0.3325918619115E+00
-0.4537353040623E+00 -0.2826790999027E+01 -0.6561052703946E+00  0.3694129007075E+00
-0.4182301899667E+00 -0.2842286447104E+01 -0.6521033371312E+00  0.4043339127752E+00
-0.3896117667945E+00 -0.2853952292487E+01 -0.6487128215229E+00  0.4371413411284E+00
-0.3682116424690E+00 -0.2861384981130E+01 -0.6459193343448E+00  0.4678133747987E+00
-0.3541874458917E+00 -0.2864238065382E+01 -0.6436851118464E+00  0.4964788073377E+00
-0.3475270749506E+00 -0.2862210610977E+01 -0.6419475467513E+00  0.5233705085981E+00
-0.3480521526889E+00 -0.2855036623834E+01 -0.6406177648506E+00  0.5487769176055E+00
-0.3554171905454E+00 -0.2842478506966E+01 -0.6395791490328E+00  0.5729946654743E+00
-0.3691019135657E+00 -0.2824326735759E+01 -0.6386857393821E+00  0.5962852115387E+00
-0.3883954332754E+00 -0.2800407150827E+01 -0.6377605263239E+00  0.6188372243787E+00
-0.4123712723226E+00 -0.2770597677716E+01 -0.6365937994937E+00  0.6407351599391E+00
-0.4398575738610E+00 -0.2734850749159E+01 -0.6349416740654E+00  0.6619376485652E+00
-0.4694028356324E+00 -0.2693222767611E+01 -0.6325251300740E+00  0.6822642010189E+00
-0.4992412015272E+00 -0.2645909238327E+01 -0.6290300973440E+00  0.7013901657064E+00
-0.5272649914979E+00 -0.2593278583807E+01 -0.6241087243609E+00  0.7188527545650E+00
-0.5510053023941E+00 -0.2535898960523E+01 -0.6173808617832E+00  0.7340711095467E+00
-0.5676220189778E+00 -0.2474546676672E+01 -0.6084337481963E+00  0.7464013559287E+00
-0.5739237336154E+00 -0.2410266082824E+01 -0.5968379721815E+00  0.7551631009446E+00
-0.5664347670565E+00 -0.2344430224515E+01 -0.5821730069894E+00  0.7596174762503E+00
-0.5414753268914E+00 -0.2278728657167E+01 -0.5640408052165E+00  0.7589728463515E+00
-0.4952505001134E+00 -0.2215117427871E+01 -0.5420735936743E+00  0.7524308430281E+00
-0.4239572805406E+00 -0.2155761812651E+01 -0.5159438263265E+00  0.7392551222680E+00
-0.3239206425640E+00 -0.2102971696734E+01 -0.4853784750924E+00  0.7188554314786E+00
-0.1917673063423E+00 -0.2059116809791E+01 -0.4501768299349E+00  0.6908847600418E+00
-0.2464519510850E-01 -0.2026510780725E+01 -0.4102312012796E+00  0.6553460356320E+00
 0.1795093371364E+00 -0.2007257075779E+01 -0.3655495531757E+00  0.6126987112290E+00
 0.4216973522076E+00 -0.2003057692128E+01 -0.3162720726969E+00  0.5639425801203E+00
 0.7016564996344E+00 -0.2015011083719E+01 -0.2626709207310E+00  0.5106575640060E+00
 0.1017641682970E+01 -0.2043425434813E+01 -0.2051567534256E+00  0.4549987160060E+00
 0.1366161606814E+01 -0.2087643161757E+01 -0.1442963131388E+00  0.3996139774190E+00
 0.1741846288338E+01 -0.2145918599470E+01 -0.8081446343066E-01  0.3474476415810E+00
 0.2137473284023E+01 -0.2215395629906E+01 -0.1558446940882E-01  0.3014476034965E+00
 0.2544184404379E+01 -0.2292219790541E+01  0.5039292351850E-01  0.2642099313236E+00
 0.2951914611886E+01 -0.2371801641405E+01  0.1160225958251E+00  0.2376172865756E+00
 0.3349986981639E+01 -0.2449211453563E+01  0.1801551082998E+00  0.2225449971312E+00
 0.3727817113993E+01 -0.2519657283274E+01  0.2416319697444E+00  0.2186997179178E+00
 0.4075586865515E+01 -0.2578965126759E+01  0.2993243522116E+00  0.2246261982115E+00
-0.6661017205384E+00 -0.2792660504639E+01 -0.6917524553434E+00  0.2259498439942E+00
-0.6100018464172E+00 -0.2817801701490E+01 -0.6855607197972E+00  0.2644367259053E+00
-0.5573635976158E+00 -0.2841427112482E+01 -0.6797581521487E+00  0.3028151660110E+00
-0.5092896263927E+00 -0.2862784105060E+01 -0.6744147563402E+00  0.3401631483137E+00
-0.4667208711995E+00 -0.2881197368007E+01 -0.6695836578189E+00  0.3758212375571E+00
-0.4304258744145E+00 -0.2896071177224E+01 -0.6652994202415E+00  0.4093793564812E+00
-0.4009895954272E+00 -0.2906890483735E+01 -0.6615760256906E+00  0.4406519817391E+00
-0.3788068671453E+00 -0.2913217425654E+01 -0.6584048683709E+00  0.4696430838441E+00
-0.3640815539302E+00 -0.2914683008566E+01 -0.6557529222707E+00  0.4965034362553E+00
-0.3568296435010E+00 -0.2910975912530E+01 -0.6535611209450E+00  0.5214835818188E+00
-0.3568827935357E+00 -0.2901831562619E+01 -0.6517428809426E+00  0.5448860357314E+00
-0.3638886103485E+00 -0.2887024757681E+01 -0.6501826832944E+00  0.5670197096927E+00
-0.3773048190810E+00 -0.2866368306058E+01 -0.6487346346948E+00  0.5881591198823E+00
-0.3963857756297E+00 -0.2839719267717E+01 -0.6472210183136E+00  0.6085097562734E+00
-0.4201601981346E+00 -0.2806994800213E+01 -0.6454310092871E+00  0.6281797724454E+00
-0.4474043663872E+00 -0.2768193507064E+01 -0.6431195842735E+00  0.6471609557377E+00
-0.4766110517919E+00 -0.2723423902841E+01 -0.6400070004635E+00  0.6653173836899E+00
-0.5059580937031E+00 -0.2672938641872E+01 -0.6357793565888E+00  0.6823814816272E+00
-0.5332840495364E+00 -0.2617167190151E+01 -0.6300902573265E+00  0.6979599257812E+00
-0.5560718812082E+00 -0.2556741822376E+01 -0.6225627499937E+00  0.7115522041943E+00
-0.5714420769813E+00 -0.2492504898687E+01 -0.6127894042650E+00  0.7226007427486E+00
-0.5761721660921E+00 -0.2425564524810E+01 -0.6003473471262E+00  0.7305137240983E+00
-0.5667621057995E+00 -0.2357351995174E+01 -0.5848228289093E+00  0.7346452714097E+00
-0.5395174039797E+00 -0.2289610306760E+01 -0.5658255505795E+00  0.7343018346391E+00
-0.4906444861808E+00 -0.2224343591726E+01 -0.5429976236727E+00  0.7287847026726E+00
-0.4163655713187E+00 -0.2163756007559E+01 -0.5160243234648E+00  0.7174519356180E+00
-0.3130632082463E+00 -0.2110180569939E+01 -0.4846487628589E+00  0.6997925995274E+00
-0.1774621000590E+00 -0.2065986412687E+01 -0.4486897092352E+00  0.6755110090430E+00
-0.6854563578202E-02 -0.2033455111236E+01 -0.4080619410434E+00  0.6446175946759E+00
 0.2006308273522E+00 -0.2014621279412E+01 -0.3627980958181E+00  0.6075177463862E+00
 0.4457601808520E+00 -0.2011080893002E+01 -0.3130641470951E+00  0.5650789549327E+00
 0.7280065592571E+00 -0.2023795943757E+01 -0.2591578807616E+00  0.5186583890607E+00
 0.1045357302418E+01 -0.2052922659737E+01 -0.2015130744665E+00  0.4700910215188E+00
 0.1394090308046E+01 -0.2097659635101E+01 -0.1407138675078E+00  0.4216117548235E+00
 0.1768686871928E+01 -0.2156156069237E+01 -0.7749384061654E-01  0.3756830041808E+00
 0.2161900907224E+01 -0.2225520202129E+01 -0.1272385917071E-01  0.3347461184636E+00
 0.2565005055610E+01 -0.2301953876939E+01  0.5261023651819E-01  0.3009271398701E+00
 0.2968224058207E+01 -0.2381021428855E+01  0.1174405276204E+00  0.2757445589230E+00
 0.3361303201083E+01 -0.2458028187655E+01  0.1806550053775E+00  0.2598782712698E+00
 0.3734158343245E+01 -0.2528463433352E+01  0.2411389855718E+00  0.2530488414323E+00
 0.4077480909217E+01 -0.2588437449446E+01  0.2978086963919E+00  0.2540332427336E+00
-0.6801729638971E+00 -0.2848197148952E+01 -0.7056740330852E+00  0.2354380183514E+00
-0.6241560181752E+00 -0.2873149633414E+01 -0.6994611407407E+00  0.2735347790710E+00
-0.5712190987997E+00 -0.2896581679437E+01 -0.6935601659821E+00  0.3112175005593E+00
-0.5225644690082E+00 -0.2917678891444E+01 -0.6880486823431E+00  0.3475917809509E+00
-0.4792299524196E+00 -0.2935707449107E+01 -0.6829874904826E+00  0.3820273371668E+00
-0.4420734405943E+00 -0.2950019554286E+01 -0.6784186090853E+00  0.4141452663015E+00
-0.4117573507074E+00 -0.2960057240693E+01 -0.6743629283289E+00  0.4437917509585E+00
-0.3887386674878E+00 -0.2965350827704E+01 -0.6708179090343E+00  0.4710007562694E+00
-0.3732659846635E+00 -0.2965511563427E+01 -0.6677555195685E+00  0.4959494595531E+00
-0.3653818921867E+00 -0.2960220429775E+01 -0.6651204743034E+00  0.5189104100199E+00
-0.3649270770865E+00 -0.2949216465420E+01 -0.6628287183782E+00  0.5402042384126E+00
-0.3715420997987E+00 -0.2932288239178E+01 -0.6607660776414E+00  0.5601557986244E+00
-0.3846636627762E+00 -0.2909271202329E+01 -0.6587869828378E+00  0.5790559556318E+00
-0.4035135683269E+00 -0.2880052720634E+01 -0.6567132675780E+00  0.5971299927306E+00
-0.4270791137569E+00 -0.2844586962196E+01 -0.6543332249409E+00  0.6145124587562E+00
-0.4540890941595E+00 -0.2802915179870E+01 -0.6514008645126E+00  0.6312307297875E+00
-0.4829856272470E+00 -0.2755193251393E+01 -0.6476357853785E+00  0.6471956013401E+00
-0.5118956452402E+00 -0.2701725115128E+01 -0.6427241616510E+00  0.6621984250963E+00
-0.5386092922860E+00 -0.2642994440090E+01 -0.6363207559572E+00  0.6759168712445E+00
-0.5605663345752E+00 -0.2579690077788E+01 -0.6280512918313E+00  0.6879318712165E+00
-0.5748520178985E+00 -0.2512713187866E+01 -0.6175130503545E+00  0.6977723531208E+00
-0.5782162878383E+00 -0.2443228996065E+01 -0.6042890657854E+00  0.7049345122042E+00
-0.5671378342258E+00 -0.2372719976524E+01 -0.5879715709113E+00  0.7088647578902E+00
-0.5379098216204E+00 -0.2302974512721E+01 -0.5681768753347E+00  0.7089665324873E+00
-0.4867407038450E+00 -0.2236036191065E+01 -0.5445553870966E+00  0.7046384126920E+00
-0.4098756717448E+00 -0.2174139829109E+01 -0.5168031078718E+00  0.6953282228703E+00
-0.3037481306931E+00 -0.2119635077660E+01 -0.4846766488929E+00  0.6805966154821E+00
-0.1651679478140E+00 -0.2074887218546E+01 -0.4480110399479E+00  0.6601879670017E+00
 0.8448605035478E-02 -0.2042147322103E+01 -0.4067397494744E+00  0.6341056031851E+00
 0.2188097950568E+00 -0.2023388859382E+01 -0.3609158182431E+00  0.6026839916275E+00
 0.4664845457156E+00 -0.2020116253901E+01 -0.3107263462672E+00  0.5666413818942E+00
 0.7507265680923E+00 -0.2033175664661E+01 -0.2564898231358E+00  0.5270983222333E+00
 0.1069304665266E+01 -0.2062596487192E+01 -0.1986583673455E+00  0.4855628952679E+00
 0.1418312231497E+01 -0.2107459708489E+01 -0.1378294974522E+00  0.4438613836113E+00
 0.1792116855160E+01 -0.2165831109733E+01 -0.7474285202826E-01  0.4039927182438E+00
 0.2183463177612E+01 -0.2234793964624E+01 -0.1026615755544E-01  0.3679239388563E+00
 0.2583740567726E+01 -0.2310600285825E+01  0.5462805719407E-01  0.3373531134456E+00
 0.2983417587808E+01 -0.2388942419828E+01  0.1188950353677E+00  0.3134786724886E+00
 0.3372587344253E+01 -0.2465317348907E+01  0.1814540017731E+00  0.2968217851172E+00
 0.3741573483870E+01 -0.2535441375579E+01  0.2412264252528E+00  0.2871386575874E+00
 0.4081480316954E+01 -0.2595653150339E+01  0.2971654377512E+00  0.2834426750811E+00
-0.6941591394962E+00 -0.2903668830547E+01 -0.7195656047310E+00  0.2448534780363E+00
-0.6381067117363E+00 -0.2928489483274E+01 -0.7133192496314E+00  0.2825668506013E+00
-0.5847622551163E+00 -0.2951785177178E+01 -0.7073094969987E+00  0.3195376895795E+00
-0.5354278222934E+00 -0.2972680365848E+01 -0.7016216480833E+00  0.3548998991782E+00
-0.4912390110294E+00 -0.2990383268321E+01 -0.6963244662461E+00  0.3880543190841E+00
-0.4531437156003E+00 -0.3004195076150E+01 -0.6914677686536E+00  0.4186563242983E+00
-0.4218816897245E+00 -0.3013516746206E+01 -0.6870796974244E+00  0.4465877484490E+00
-0.3979711039638E+00 -0.3017849313734E+01 -0.6831640937194E+00  0.4719169544896E+00
-0.3817037656077E+00 -0.3016787165747E+01 -0.6796981963992E+00  0.4948519921154E+00
-0.3731472854752E+00 -0.3010006399428E+01 -0.6766307470633E+00  0.5156916340943E+00
-0.3721502427718E+00 -0.2997251957571E+01 -0.6738804501101E+00  0.5347784052379E+00
-0.3783458820653E+00 -0.2978327581208E+01 -0.6713347026583E+00  0.5524563878141E+00
-0.3911507569191E+00 -0.2953091617479E+01 -0.6688484848463E+00  0.5690356308374E+00
-0.4097562432570E+00 -0.2921460687449E+01 -0.6662433960690E+00  0.5847636771393E+00
-0.4331115429524E+00 -0.2883423553644E+01 -0.6633070292033E+00  0.5998036440966E+00
-0.4599022875364E+00 -0.2839060373251E+01 -0.6597925419891E+00  0.6142204136625E+00
-0.4885249455544E+00 -0.2788569412617E+01 -0.6554188814009E+00  0.6279731680169E+00
-0.5170608566861E+00 -0.2732299822243E+01 -0.6498721454697E+00  0.6409135968113E+00
-0.5432570018059E+00 -0.2670782462190E+01 -0.6428079023778E+00  0.6527915024045E+00
-0.5645147676398E+00 -0.2604755102586E+01 -0.6338539834904E+00  0.6632700143928E+00
-0.5778881659988E+00 -0.2535170397673E+01 -0.6226117220120E+00  0.6719644988207E+00
-0.5801028479655E+00 -0.2463244063680E+01 -0.6086693913989E+00  0.6784583942365E+00
-0.5676190146242E+00 -0.2390502778196E+01 -0.5916243673799E+00  0.6822895068911E+00
-0.5367192976112E+00 -0.2318772524455E+01 -0.5710983729232E+00  0.6829570822255E+00
-0.4836140222008E+00 -0.2250128251361E+01 -0.5467484628596E+00  0.6799547496418E+00
-0.4045679310245E+00 -0.2186828092284E+01 -0.5182792123846E+00  0.6728159865780E+00
-0.2960571328704E+00 -0.2131233071408E+01 -0.4854580480897E+00  0.6611663772192E+00
-0.1549622877952E+00 -0.2085702896367E+01 -0.4481330435102E+00  0.6447808379531E+00
 0.2119820875198E-01 -0.2052461354783E+01 -0.4062526352599E+00  0.6236434213159E+00
 0.2339993525396E+00 -0.2033430014821E+01 -0.3598861378191E+00  0.5980038419326E+00
 0.4838504212255E+00 -0.2030037230919E+01 -0.3092373665468E+00  0.5684174882680E+00
 0.7698292417939E+00 -0.2043034070779E+01 -0.2546409695914E+00  0.5357575183827E+00
 0.1089531479094E+01 -0.2072347085528E+01 -0.1965631242158E+00  0.5012004104777E+00
 0.1438906942693E+01 -0.2116963384235E+01 -0.1356112903292E+00  0.4661683704955E+00
 0.1812238125104E+01 -0.2174883584418E+01 -0.7252909294364E-01  0.4322125653881E+00
 0.2202268729684E+01 -0.2243173105207E+01 -0.8180875226462E-02  0.4008521488350E+00
 0.2600486831688E+01 -0.2318125537077E+01  0.5647225976368E-01  0.3733908189113E+00
 0.2997558561350E+01 -0.2395535220152E+01  0.1204046700339E+00  0.3507415089945E+00
 0.3383854186283E+01 -0.2471049666897E+01  0.1825609065975E+00  0.3332949598353E+00
 0.3750019294247E+01 -0.2540562039340E+01  0.2418914545859E+00  0.3208594290908E+00
 0.4087481967016E+01 -0.2600587894730E+01  0.2973788188885E+00  0.3126871605339E+00
-0.7080679827149E+00 -0.2959124370132E+01 -0.7334384814985E+00  0.2542186451279E+00
-0.6518534224290E+00 -0.2983873450482E+01 -0.7271453854175E+00  0.2915552854189E+00
-0.5979843460165E+00 -0.3007092907319E+01 -0.7210154614111E+00  0.3277983376606E+00
-0.5478632677504E+00 -0.3027846394574E+01 -0.7151419431214E+00  0.3621105425866E+00
-0.5027249115135E+00 -0.3045284508980E+01 -0.7096018946726E+00  0.3939259392275E+00
-0.4636081904476E+00 -0.3058658377662E+01 -0.7044533241190E+00  0.4229375593251E+00
-0.4313302910479E+00 -0.3067329714346E+01 -0.6997320115056E+00  0.4490671396990E+00
-0.4064696649969E+00 -0.3070772899831E+01 -0.6954485233285E+00  0.4724220625960E+00
-0.3893597463132E+00 -0.3068568517397E+01 -0.6915856630475E+00  0.4932457765554E+00
-0.3800914303977E+00 -0.3060390767954E+01 -0.6880964499239E+00  0.5118673734685E+00
-0.3785198675093E+00 -0.3045992926423E+01 -0.6849025689923E+00  0.5286547677022E+00
-0.3842705474407E+00 -0.3025195371387E+01 -0.6818931939265E+00  0.5439741485483E+00
-0.3967406181270E+00 -0.2997879572876E+01 -0.6789240483174E+00  0.5581570941398E+00
-0.4150930661364E+00 -0.2963990249207E+01 -0.6758166731392E+00  0.5714753399278E+00
-0.4382422605494E+00 -0.2923548174673E+01 -0.6723580970634E+00  0.5841222036931E+00
-0.4648349378248E+00 -0.2876668468753E+01 -0.6683006912740E+00  0.5962014696859E+00
-0.4932268653966E+00 -0.2823586610832E+01 -0.6633627051307E+00  0.6077218958980E+00
-0.5214590371002E+00 -0.2764690707432E+01 -0.6572299586999E+00  0.6185964934684E+00
-0.5472404366393E+00 -0.2700551646711E+01 -0.6495584263493E+00  0.6286479597218E+00
-0.5679387804324E+00 -0.2631948358882E+01 -0.6399774373992E+00  0.6376220588591E+00
-0.5805807266458E+00 -0.2559877646212E+01 -0.6280916839308E+00  0.6452202971012E+00
-0.5818707559200E+00 -0.2485599096653E+01 -0.6134939796564E+00  0.6511124238812E+00
-0.5682530913511E+00 -0.2410676701043E+01 -0.5957859673567E+00  0.6549266334541E+00
-0.5360011892241E+00 -0.2336966488784E+01 -0.5745935441638E+00  0.6562567829847E+00
-0.4813263947405E+00 -0.2266567137253E+01 -0.5495787145880E+00  0.6546895764609E+00
-0.4005086328503E+00 -0.2201753486192E+01 -0.5204524315638E+00  0.6498407044675E+00
-0.2900574072893E+00 -0.2144893692633E+01 -0.4869902272411E+00  0.6413952479519E+00
-0.1469085699771E+00 -0.2098341420635E+01 -0.4490500048138E+00  0.6291509903221E+00
 0.3134026313436E-01 -0.2064297740563E+01 -0.4065915015443E+00  0.6130630063297E+00
 0.2461612838038E+00 -0.2044642751831E+01 -0.3596962989653E+00  0.5932853436034E+00
 0.4978413620960E+00 -0.2040744966206E+01 -0.3085807254202E+00  0.5701999367555E+00
 0.7853243634553E+00 -0.2053281094925E+01 -0.2535913500727E+00  0.5444244035336E+00
 0.1106075211370E+01 -0.2082097828617E+01 -0.1952045263582E+00  0.5168003906744E+00
 0.1455936731248E+01 -0.2126110087756E+01 -0.1340346732989E+00  0.4883501000926E+00
 0.1829129935817E+01 -0.2183268848379E+01 -0.7082778356774E-01  0.4601896122077E+00
 0.2218401359783E+01 -0.2250626079661E+01 -0.6444944071546E-02  0.4334108797066E+00
 0.2615316956925E+01 -0.2324506601125E+01  0.5816207202674E-01  0.4089490196237E+00
 0.3010694172241E+01 -0.2400780689956E+01  0.1219826982747E+00  0.3874575438714E+00
 0.3395112793950E+01 -0.2475207120706E+01  0.1839811373905E+00  0.3692177397226E+00
 0.3759459705952E+01 -0.2543808919326E+01  0.2431301609482E+00  0.3541016638316E+00
 0.4095403739505E+01 -0.2603230662664E+01  0.2984346198153E+00  0.3416013040496E+00
-0.7219070798038E+00 -0.3014611391594E+01 -0.7473037054151E+00  0.2635571715503E+00
-0.6653956738750E+00 -0.3039352380589E+01 -0.7409496219339E+00  0.3005236111651E+00
-0.6108767415881E+00 -0.3062558621487E+01 -0.7346870835628E+00  0.3360230788437E+00
-0.5598545344635E+00 -0.3083233002970E+01 -0.7286175183439E+00  0.3692475313096E+00
-0.5136648044152E+00 -0.3100468593774E+01 -0.7228266904089E+00  0.3996664216989E+00
-0.4734389011188E+00 -0.3113467286258E+01 -0.7173812481652E+00  0.4270141368549E+00
-0.4400717447605E+00 -0.3121553413270E+01 -0.7123250422205E+00  0.4512569203511E+00
-0.4142011739552E+00 -0.3124177482032E+01 -0.7076757417427E+00  0.4725460461393E+00
-0.3962005233133E+00 -0.3120909551963E+01 -0.7034220255371E+00  0.4911649591761E+00
-0.3861820135621E+00 -0.3111425147059E+01 -0.6995214425480E+00  0.5074770363210E+00
-0.3840058039906E+00 -0.3095488485551E+01 -0.6958988682781E+00  0.5218787688528E+00
-0.3892889802348E+00 -0.3072938148046E+01 -0.6924454359744E+00  0.5347608900965E+00
-0.4014098713119E+00 -0.3043678957897E+01 -0.6890177761089E+00  0.5464783278181E+00
-0.4195050091640E+00 -0.3007682490381E+01 -0.6854375101229E+00  0.5573283822939E+00
-0.4424571295486E+00 -0.2964998805409E+01 -0.6814911971465E+00  0.5675356448202E+00
-0.4688782983742E+00 -0.2915773867133E+01 -0.6769304431886E+00  0.5772436711857E+00
-0.4970884881456E+00 -0.2860275011534E+01 -0.6714727099416E+00  0.5865115073339E+00
-0.5250935429014E+00 -0.2798922879764E+01 -0.6648032944394E+00  0.5953140505701E+00
-0.5505695494056E+00 -0.2732321091083E+01 -0.6565781378814E+00  0.6035472956593E+00
-0.5708551756727E+00 -0.2661281889157E+01 -0.6464274225985E+00  0.6110397813864E+00
-0.5829535015551E+00 -0.2586838841825E+01 -0.6339584781227E+00  0.6175786511152E+00
-0.5835508291526E+00 -0.2510288799510E+01 -0.6187679349530E+00  0.6229189060434E+00
-0.5690777054299E+00 -0.2433226246314E+01 -0.6004607992964E+00  0.6267780534557E+00
-0.5357994196372E+00 -0.2357529890490E+01 -0.5786658706482E+00  0.6288434449374E+00
-0.4799269514943E+00 -0.2285314866624E+01 -0.5530483718647E+00  0.6287932367739E+00
-0.3977503110072E+00 -0.2218866691013E+01 -0.5233234082022E+00  0.6263226774222E+00
-0.2858022063382E+00 -0.2160557214437E+01 -0.4892718914457E+00  0.6211722399544E+00
-0.1410571492452E+00 -0.2112734564199E+01 -0.4507583494057E+00  0.6131568303207E+00
 0.3883172247889E-01 -0.2077582694258E+01 -0.4077502004318E+00  0.6021953144589E+00
 0.2552646648453E+00 -0.2056951573965E+01 -0.3603373871934E+00  0.5883379740147E+00
 0.5084430892787E+00 -0.2052166638360E+01 -0.3087447144170E+00  0.5717854818553E+00
 0.7972175775480E+00 -0.2063850928255E+01 -0.2533266739163E+00  0.5528940023798E+00
 0.1118962370923E+01 -0.2091793447620E+01 -0.1945662182385E+00  0.5321681403265E+00
 0.1469446621630E+01 -0.2134857043459E+01 -0.1330820863489E+00  0.5102332539933E+00
 0.1842849753993E+01 -0.2190956522936E+01 -0.6962135482599E-01  0.4877797236590E+00
 0.2231921590438E+01 -0.2257132842404E+01 -0.5042250468378E-02  0.4654873483582E+00
 0.2628283200523E+01 -0.2329730496061E+01  0.5971054178218E-01  0.4439411469482E+00
 0.3022857252642E+01 -0.2404669724709E+01  0.1236375074290E+00  0.4235535972483E+00
 0.3406367777179E+01 -0.2477782756781E+01  0.1857170068470E+00  0.4045109819654E+00
 0.3769866286811E+01 -0.2545177909861E+01  0.2449376790398E+00  0.3867567516153E+00
 0.4105184040611E+01 -0.2603583672714E+01  0.3003200780546E+00  0.3700221666327E+00
-0.7356838741264E+00 -0.3070176433065E+01 -0.7611720727807E+00  0.2728938935888E+00
-0.6787329811203E+00 -0.3094975888087E+01 -0.7547417850880E+00  0.3094964886644E+00
-0.6234308213586E+00 -0.3118234648669E+01 -0.7483331051566E+00  0.3442364996060E+00
-0.5713853831407E+00 -0.3138894494852E+01 -0.7420559866561E+00  0.3763353425352E+00
-0.5240359923573E+00 -0.3155990781774E+01 -0.7360053657935E+00  0.4053002820422E+00
-0.4826082954177E+00 -0.3168676884111E+01 -0.7302570467875E+00  0.4309111366637E+00
-0.4480754359169E+00 -0.3176241685701E+01 -0.7248634351249E+00  0.4531836671015E+00
-0.4211336980737E+00 -0.3178114816307E+01 -0.7198497136027E+00  0.4723182001311E+00
-0.4021943749644E+00 -0.3173859383504E+01 -0.7152107623511E+00  0.4886428586301E+00
-0.3913887549189E+00 -0.3163155746901E+01 -0.7109089109574E+00  0.5025591290694E+00
-0.3885801416081E+00 -0.3145781911515E+01 -0.7068724211578E+00  0.5144949297700E+00
-0.3933763136250E+00 -0.3121596359870E+01 -0.7029945451744E+00  0.5248674962138E+00
-0.4051371866664E+00 -0.3090527529294E+01 -0.6991329536099E+00  0.5340563654846E+00
-0.4229746617331E+00 -0.3052572550606E+01 -0.6951094528258E+00  0.5423851853695E+00
-0.4457429812342E+00 -0.3007807917814E+01 -0.6907101901019E+00  0.5501103173066E+00
-0.4720237335207E+00 -0.2956406163279E+01 -0.6856859895775E+00  0.5574154239774E+00
-0.5001059779930E+00 -0.2898660958413E+01 -0.6797533974104E+00  0.5644100767514E+00
-0.5279655737727E+00 -0.2835018907975E+01 -0.6725969063719E+00  0.5711312138599E+00
-0.5532507653174E+00 -0.2766108945177E+01 -0.6638719519913E+00  0.5775481836915E+00
-0.5732757298328E+00 -0.2692768701310E+01 -0.6532088959621E+00  0.5835721622181E+00
-0.5850236666731E+00 -0.2616061093243E+01 -0.6402169615232E+00  0.5890752448530E+00
-0.5851655978798E+00 -0.2537313627914E+01 -0.6244958544646E+00  0.5938965273498E+00
-0.5701205535349E+00 -0.2458144510163E+01 -0.6056530217644E+00  0.5978417296404E+00
-0.5361464264020E+00 -0.2380447889984E+01 -0.5833188719694E+00  0.6006907124182E+00
-0.4794520789447E+00 -0.2306348345315E+01 -0.5571600931543E+00  0.6022118925913E+00
-0.3963320051539E+00 -0.2238136454199E+01 -0.5268936997219E+00  0.6021782912953E+00
-0.2833313123318E+00 -0.2178184899047E+01 -0.4923032496117E+00  0.6003830819135E+00
-0.1374459888333E+00 -0.2128837481876E+01 -0.4532567008960E+00  0.5966545344218E+00
 0.4363956003917E-01 -0.2092267388710E+01 -0.4097255718396E+00  0.5908705518621E+00
 0.2612847972565E+00 -0.2070306449672E+01 -0.3618043358743E+00  0.5829722848733E+00
 0.5156424084125E+00 -0.2064254176951E+01 -0.3097223583229E+00  0.5729739359149E+00
 0.8055094792015E+00 -0.2074700593060E+01 -0.2538382265543E+00  0.5609662537178E+00
 0.1128207976457E+01 -0.2101398617284E+01 -0.1946381310658E+00  0.5471152625277E+00
 0.1479464393284E+01 -0.2143178038653E+01 -0.1327427310518E+00  0.5316514126807E+00
 0.1853433894706E+01 -0.2197929558795E+01 -0.6889913384446E-01  0.5148453191605E+00
 0.2242867820386E+01 -0.2262684240082E+01 -0.3963283998198E-02  0.4969741348231E+00
 0.2639418363227E+01 -0.2333793938812E+01  0.6112488579385E-01  0.4782843426413E+00
 0.3034067559044E+01 -0.2407203032479E+01  0.1253729071813E+00  0.4589586617622E+00
 0.3417620149476E+01 -0.2478780487804E+01  0.1877679351324E+00  0.4390968594360E+00
 0.3781218475524E+01 -0.2544677105042E+01  0.2473082777817E+00  0.4187176025082E+00
 0.4116781315310E+01 -0.2601662216438E+01  0.3030238242899E+00  0.3977897678753E+00
-0.7494056748701E+00 -0.3125865083596E+01 -0.7750541632424E+00  0.2822547932929E+00
-0.6918648077027E+00 -0.3150792507338E+01 -0.7685314744601E+00  0.3184996677274E+00
-0.6356378783914E+00 -0.3174172051423E+01 -0.7619619973170E+00  0.3524640629531E+00
-0.5824394702388E+00 -0.3194883598212E+01 -0.7554646249475E+00  0.3833989822054E+00
-0.5338157764220E+00 -0.3211904285466E+01 -0.7491440235407E+00  0.4108521397604E+00
-0.4910890856600E+00 -0.3224339581504E+01 -0.7430857445056E+00  0.4346533155444E+00
-0.4553114225791E+00 -0.3231444971222E+01 -0.7373512897477E+00  0.4548732723021E+00
-0.4272364616192E+00 -0.3232632491907E+01 -0.7319738016125E+00  0.4717668826868E+00
-0.4073112094275E+00 -0.3227462241961E+01 -0.7269547011102E+00  0.4857117249604E+00
-0.3956833820973E+00 -0.3215623290659E+01 -0.7222613453137E+00  0.4971510627559E+00
-0.3922171939966E+00 -0.3196910557251E+01 -0.7178255609459E+00  0.5065467200241E+00
-0.3965099162309E+00 -0.3171204297054E+01 -0.7135428532896E+00  0.5143438721848E+00
-0.4079032530116E+00 -0.3138456875897E+01 -0.7092720363506E+00  0.5209473255975E+00
-0.4254861819532E+00 -0.3098689634202E+01 -0.7048351737338E+00  0.5267072387976E+00
-0.4480875404706E+00 -0.3052002536472E+01 -0.7000180258196E+00  0.5319116453064E+00
-0.4742626170478E+00 -0.2998590260281E+01 -0.6945705858156E+00  0.5367841094013E+00
-0.5022744358532E+00 -0.2938767139114E+01 -0.6882083252485E+00  0.5414844931175E+00
-0.5300740263311E+00 -0.2872999033472E+01 -0.6806146221026E+00  0.5461115292364E+00
-0.5552868216632E+00 -0.2801932664753E+01 -0.6714439072885E+00  0.5507076426031E+00
-0.5752070265308E+00 -0.2726423053275E+01 -0.6603260258007E+00  0.5552662476228E+00
-0.5868016103599E+00 -0.2647555013449E+01 -0.6468713344008E+00  0.5597435423546E+00
-0.5867291627687E+00 -0.2566680096407E+01 -0.6306818612330E+00  0.5640614819862E+00
-0.5713992848958E+00 -0.2485433475055E+01 -0.6113665611003E+00  0.5681129008780E+00
-0.5370631229067E+00 -0.2405717571711E+01 -0.5885561476937E+00  0.5717693544856E+00
-0.4799254762143E+00 -0.2329659538451E+01 -0.5619170113062E+00  0.5748888100355E+00
-0.3962794436236E+00 -0.2259549644112E+01 -0.5311658254621E+00  0.5773212048325E+00
-0.2826713742906E+00 -0.2197758890253E+01 -0.4960860603009E+00  0.5789111907974E+00
-0.1361011642289E+00 -0.2146628402587E+01 -0.4565459201662E+00  0.5794986699885E+00
 0.4574011020350E-01 -0.2108327422704E+01 -0.4125174686471E+00  0.5789183093002E+00
 0.2642024475442E+00 -0.2084682059610E+01 -0.3640959278387E+00  0.5769994437941E+00
 0.5194264408918E+00 -0.2076983330419E+01 -0.3115113825474E+00  0.5735670719991E+00
 0.8101949687796E+00 -0.2085808912487E+01 -0.2551227925431E+00  0.5684443243380E+00
 0.1133815179314E+01 -0.2110896938047E+01 -0.1954163546585E+00  0.5614575504925E+00
 0.1486000586978E+01 -0.2151062531570E+01 -0.1330123909004E+00  0.5524428016294E+00
 0.1860897947506E+01 -0.2204183550142E+01 -0.6865712155021E-01  0.5412533146628E+00
 0.2251257091156E+01 -0.2267281547054E+01 -0.3204891227397E-02  0.5277676413174E+00
 0.2648736705804E+01 -0.2336703047467E+01  0.6240673259732E-01  0.5118986341935E+00
 0.3044332592552E+01 -0.2408390912197E+01  0.1271883379663E+00  0.4936037983050E+00
 0.3428867831772E+01 -0.2478214875083E+01  0.1901305941708E+00  0.4728992858981E+00
 0.3793503622944E+01 -0.2542326563171E+01  0.2502354156834E+00  0.4498792876946E+00
 0.4130173536033E+01 -0.2597494427918E+01  0.3065358261908E+00  0.4247475935487E+00
-0.7630796680936E+00 -0.3181722147823E+01 -0.7889603749398E+00  0.2916669676429E+00
-0.7047905152780E+00 -0.3206849874057E+01 -0.7823280895247E+00  0.3275599488327E+00
-0.6474890062179E+00 -0.3230420813066E+01 -0.7755819754139E+00  0.3607320330303E+00
-0.5930001892627E+00 -0.3251251638426E+01 -0.7688503769946E+00  0.3904638497539E+00
-0.5429812803033E+00 -0.3268260407666E+01 -0.7622483489521E+00  0.4163465165656E+00
-0.4988540855781E+00 -0.3280505199603E+01 -0.7558718682996E+00  0.4382648508370E+00
-0.4617503080664E+00 -0.3287210326905E+01 -0.7497921381670E+00  0.4563506581486E+00
-0.4324797641383E+00 -0.3287773893322E+01 -0.7440507425794E+00  0.4709192308170E+00
-0.4115225275051E+00 -0.3281757389591E+01 -0.7386559944260E+00  0.4824024862694E+00
-0.3990396274454E+00 -0.3268862904459E+01 -0.7335805173122E+00  0.4912889541078E+00
-0.3948935153068E+00 -0.3248905736168E+01 -0.7287598611544E+00  0.4980764300767E+00
-0.3986694121853E+00 -0.3221789988414E+01 -0.7240918909098E+00  0.5032389002532E+00
-0.4096907887234E+00 -0.3187492343627E+01 -0.7194366371905E+00  0.5072064583497E+00
-0.4270252895644E+00 -0.3146056973105E+01 -0.7146164631824E+00  0.5103552859745E+00
-0.4494793961558E+00 -0.3097604244638E+01 -0.7094167387300E+00  0.5130043773699E+00
-0.4755862796023E+00 -0.3042346419605E+01 -0.7035865503258E+00  0.5154164458806E+00
-0.5035878260309E+00 -0.2980612677300E+01 -0.6968401110499E+00  0.5178009400271E+00
-0.5314154041624E+00 -0.2912881299741E+01 -0.6888593510456E+00  0.5203177485142E+00
-0.5566766664322E+00 -0.2839809171932E+01 -0.6792971777952E+00  0.5230817740651E+00
-0.5766503498857E+00 -0.2762260636906E+01 -0.6677822073090E+00  0.5261680222468E+00
-0.5882908287826E+00 -0.2681334917903E+01 -0.6539251590813E+00  0.5296157920390E+00
-0.5882471015137E+00 -0.2598400980212E+01 -0.6373296258421E+00  0.5334285963364E+00
-0.5729214309864E+00 -0.2515104201684E+01 -0.6176051357371E+00  0.5375853017825E+00
-0.5385588665681E+00 -0.2433348108841E+01 -0.5943814039388E+00  0.5420485348999E+00
-0.4813581804088E+00 -0.2355255586041E+01 -0.5673227617438E+00  0.5467656110394E+00
-0.3976051460862E+00 -0.2283111290550E+01 -0.5361432953165E+00  0.5516634884075E+00
-0.2838361057878E+00 -0.2219282151037E+01 -0.5006236588247E+00  0.5566385796210E+00
-0.1370371656853E+00 -0.2166108439049E+01 -0.4606291278108E+00  0.5615427405056E+00
 0.4511866790709E-01 -0.2125762487273E+01 -0.4161287700739E+00  0.5661676183051E+00
 0.2640033783904E+00 -0.2100077321466E+01 -0.3672147940870E+00  0.5702307071783E+00
 0.5197821437995E+00 -0.2090353074880E+01 -0.3141141908967E+00  0.5733674838880E+00
 0.8112628400637E+00 -0.2097175853737E+01 -0.2571826065669E+00  0.5751329210289E+00
 0.1135775006816E+01 -0.2120290281793E+01 -0.1969030579296E+00  0.5750129264839E+00
 0.1489048471028E+01 -0.2158515068610E+01 -0.1338933215117E+00  0.5724481295818E+00
 0.1865236983417E+01 -0.2209726270082E+01 -0.6889785835951E-01  0.5668731815499E+00
 0.2257085482132E+01 -0.2270936124945E+01 -0.2770128603714E-02  0.5577666621450E+00
 0.2656234413607E+01 -0.2338473088672E+01  0.6355226593398E-01  0.5447061875238E+00
 0.3053647983431E+01 -0.2408253032141E+01  0.1290789921815E+00  0.5274220663982E+00
 0.3440105822785E+01 -0.2476110892237E+01  0.1927989889826E+00  0.5058443439335E+00
 0.3806716852791E+01 -0.2538158037403E+01  0.2537117668581E+00  0.4801396682931E+00
 0.4145357687615E+01 -0.2591120983088E+01  0.3108473455374E+00  0.4507430829731E+00
-0.7767129300744E+00 -0.3237791841830E+01 -0.8029009663451E+00  0.3011586065837E+00
-0.7175093042869E+00 -0.3263194940952E+01 -0.7961408609111E+00  0.3367051514213E+00
-0.6589749657970E+00 -0.3287030059407E+01 -0.7892010168009E+00  0.3690673996961E+00
-0.6030504859762E+00 -0.3308048741811E+01 -0.7822198572135E+00  0.3975555935443E+00
-0.5515092495195E+00 -0.3325108699733E+01 -0.7753236014037E+00  0.4218076164798E+00
-0.5058760300257E+00 -0.3337221062439E+01 -0.7686194299462E+00  0.4417690601368E+00
-0.4673631075727E+00 -0.3343581444573E+01 -0.7621889217866E+00  0.4576394659609E+00
-0.4368349052986E+00 -0.3343578148082E+01 -0.7560826219427E+00  0.4698008545950E+00
-0.4148014027095E+00 -0.3336779015241E+01 -0.7503160947707E+00  0.4787444800815E+00
-0.4014332504709E+00 -0.3322903979628E+01 -0.7448674571192E+00  0.4850074189089E+00
-0.3965879477779E+00 -0.3301792574376E+01 -0.7396761154528E+00  0.4891250433998E+00
-0.3998367368358E+00 -0.3273375062548E+01 -0.7346423708237E+00  0.4916004009697E+00
-0.4104845917990E+00 -0.3237652919632E+01 -0.7296275131586E+00  0.4928882029809E+00
-0.4275793012031E+00 -0.3194691742711E+01 -0.7244542195781E+00  0.4933894824463E+00
-0.4499080172336E+00 -0.3144629135649E+01 -0.7189074412891E+00  0.4934528507983E+00
-0.4759860050072E+00 -0.3087690248025E+01 -0.7127352612270E+00  0.4933788645826E+00
-0.5040389552365E+00 -0.3024213152167E+01 -0.7056504319957E+00  0.4934253887415E+00
-0.5319837835029E+00 -0.2954681599660E+01 -0.6973330870237E+00  0.4938124463203E+00
-0.5574154150730E+00 -0.2879754924605E+01 -0.6874340781792E+00  0.4947265090694E+00
-0.5776016364801E+00 -0.2800298663402E+01 -0.6755800700434E+00  0.4963232876524E+00
-0.5894878766955E+00 -0.2717418919951E+01 -0.6613813691847E+00  0.4987240340717E+00
-0.5897164218571E+00 -0.2632495414576E+01 -0.6444423768895E+00  0.5020124528146E+00
-0.5746843647657E+00 -0.2547176925697E+01 -0.6243722673965E+00  0.5062523766769E+00
-0.5406314296659E+00 -0.2463360849631E+01 -0.6007984648119E+00  0.5114970703213E+00
-0.4837485562991E+00 -0.2383158869370E+01 -0.5733814936779E+00  0.5177835057947E+00
-0.4003084409860E+00 -0.2308844619623E+01 -0.5418306201958E+00  0.5251167350519E+00
-0.2868263394348E+00 -0.2242778454166E+01 -0.5059209662589E+00  0.5334467290930E+00
-0.1402569969725E+00 -0.2187301521882E+01 -0.4655117107076E+00  0.5426396881497E+00
 0.4176934386786E-01 -0.2144596234546E+01 -0.4205653844025E+00  0.5524469625241E+00
 0.2606781651466E+00 -0.2116515191720E+01 -0.3711674108456E+00  0.5624768531364E+00
 0.5166961061660E+00 -0.2104385356971E+01 -0.3175378548927E+00  0.5721774197806E+00
 0.8086955850058E+00 -0.2108822231179E+01 -0.2600253331093E+00  0.5808365982809E+00
 0.1134066208415E+01 -0.2129598482652E+01 -0.1991064578144E+00  0.5875994029177E+00
 0.1488583954631E+01 -0.2165554990936E+01 -0.1353942092785E+00  0.5915084726606E+00
 0.1866425540783E+01 -0.2214577411388E+01 -0.6963037515860E-01  0.5915750635978E+00
 0.2260328144882E+01 -0.2273669197595E+01 -0.2668210582500E-02  0.5868710069888E+00
 0.2661889628966E+01 -0.2339128268378E+01  0.6455227307942E-01  0.5766305938459E+00
 0.3061997460569E+01 -0.2406818209633E+01  0.1310358521399E+00  0.5603484649583E+00
 0.3451326052005E+01 -0.2472503671498E+01  0.1957644790185E+00  0.5378607049207E+00
 0.3820860755688E+01 -0.2532214674050E+01  0.2577292201679E+00  0.5094000038833E+00
 0.4162349260740E+01 -0.2582594735758E+01  0.3159509097044E+00  0.4756280847574E+00
-0.7903124430335E+00 -0.3294118024048E+01 -0.8168861055888E+00  0.3107589813319E+00
-0.7300201438228E+00 -0.3319874231852E+01 -0.8099788872046E+00  0.3459640896730E+00
-0.6700860290541E+00 -0.3344048319209E+01 -0.8028268816157E+00  0.3774978023664E+00
-0.6125726435404E+00 -0.3365324072665E+01 -0.7955793550962E+00  0.4046999542201E+00
-0.5593758224625E+00 -0.3382497142458E+01 -0.7883746047318E+00  0.4272590832353E+00
-0.5121273759195E+00 -0.3394532097344E+01 -0.7813319062953E+00  0.4451880918615E+00
-0.4721211094554E+00 -0.3400598662225E+01 -0.7745439658777E+00  0.4587617155342E+00
-0.4402741181183E+00 -0.3400080056914E+01 -0.7680708464516E+00  0.4684355056571E+00
-0.4171224811874E+00 -0.3392556102747E+01 -0.7619357281406E+00  0.4747651664345E+00
-0.4028420884814E+00 -0.3377770003875E+01 -0.7561224297384E+00  0.4783393554746E+00
-0.3972817031024E+00 -0.3355589828372E+01 -0.7505743174793E+00  0.4797321063649E+00
-0.3999962300142E+00 -0.3325974571173E+01 -0.7451941713418E+00  0.4794750983109E+00
-0.4102716303588E+00 -0.3288951074446E+01 -0.7398445519855E+00  0.4780462529006E+00
-0.4271372087043E+00 -0.3244604930166E+01 -0.7343484387168E+00  0.4758695642995E+00
-0.4493638144284E+00 -0.3193087709797E+01 -0.7284903157004E+00  0.4733212666114E+00
-0.4754530752186E+00 -0.3134632621830E+01 -0.7220171501686E+00  0.4707378951167E+00
-0.5036195033964E+00 -0.3069580546284E+01 -0.7146400205850E+00  0.4684240998699E+00
-0.5317708338366E+00 -0.2998413641948E+01 -0.7060369056777E+00  0.4666586437858E+00
-0.5574943645575E+00 -0.2921785896235E+01 -0.6958560625277E+00  0.4656983591954E+00
-0.5780514850425E+00 -0.2840555851979E+01 -0.6837214775926E+00  0.4657785438622E+00
-0.5903823726506E+00 -0.2755828925302E+01 -0.6692422695630E+00  0.4671011091750E+00
-0.5911255599676E+00 -0.2668988893761E+01 -0.6520229004615E+00  0.4698285138299E+00
-0.5766752881843E+00 -0.2581681061673E+01 -0.6316712793840E+00  0.4741084924974E+00
-0.5432669712697E+00 -0.2495789328215E+01 -0.6078112689540E+00  0.4800846861796E+00
-0.4870822485444E+00 -0.2413407031311E+01 -0.5800978646152E+00  0.4878845213424E+00
-0.4043753958584E+00 -0.2336791086423E+01 -0.5482333046255E+00  0.4975931657223E+00
-0.2916299363572E+00 -0.2268292429266E+01 -0.5119844807538E+00  0.5092174512525E+00
-0.1457520695586E+00 -0.2210254461233E+01 -0.4712013131797E+00  0.5226423860127E+00
 0.3569517488034E-01 -0.2164876351132E+01 -0.4258362415959E+00  0.5375842767981E+00
 0.2542222945201E+00 -0.2134042744358E+01 -0.3759640955699E+00  0.5535476013472E+00
 0.5101546159292E+00 -0.2119125167968E+01 -0.3217941152028E+00  0.5697976039496E+00
 0.8024694073843E+00 -0.2120789763633E+01 -0.2636640751786E+00  0.5853580570438E+00
 0.1128655196620E+01 -0.2138859364894E+01 -0.2020408366655E+00  0.5990330390784E+00
 0.1484565442562E+01 -0.2172216422221E+01 -0.1375301979810E+00  0.6094631583282E+00
 0.1864417388970E+01 -0.2218768526457E+01 -0.7087022855351E-01  0.6152278952921E+00
 0.2260938981349E+01 -0.2275511739012E+01 -0.2914551575950E-02  0.6149801228263E+00
 0.2665662059684E+01 -0.2338701566702E+01  0.6539209957066E-01  0.6075961490955E+00
 0.3069352414477E+01 -0.2404124194018E+01  0.1330456460743E+00  0.5923198591299E+00
 0.3462516922857E+01 -0.2467438234785E+01  0.1990157405800E+00  0.5688800295126E+00
 0.3835944925502E+01 -0.2524550682215E+01  0.2622788525657E+00  0.5375655334388E+00
 0.4181181763624E+01 -0.2571980296285E+01  0.3218402982636E+00  0.4992592697002E+00
-0.8038851132284E+00 -0.3350744465871E+01 -0.8309259282017E+00  0.3204984445559E+00
-0.7423216883203E+00 -0.3376934139333E+01 -0.8238511778070E+00  0.3553665566765E+00
-0.6808117946099E+00 -0.3401523827975E+01 -0.8164671366833E+00  0.3860514521024E+00
-0.6215480325919E+00 -0.3423126106815E+01 -0.8089348399354E+00  0.4119225924283E+00
-0.5665562693486E+00 -0.3440472350126E+01 -0.8014057358367E+00  0.4327237294418E+00
-0.5175800825947E+00 -0.3452480941700E+01 -0.7940122166906E+00  0.4485425804110E+00
-0.4759957316344E+00 -0.3458298965308E+01 -0.7868589511136E+00  0.4597374288785E+00
-0.4427705127042E+00 -0.3457310000800E+01 -0.7800161143240E+00  0.4668447157139E+00
-0.4184620044290E+00 -0.3449112267826E+01 -0.7735148659773E+00  0.4704898198393E+00
-0.4032461383817E+00 -0.3433478356355E+01 -0.7673449103817E+00  0.4713157164081E+00
-0.3969584800774E+00 -0.3410309663989E+01 -0.7614536401598E+00  0.4699355945118E+00
-0.3991347686939E+00 -0.3379596771322E+01 -0.7557463192647E+00  0.4669085871124E+00
-0.4090411747214E+00 -0.3341392559528E+01 -0.7500867580271E+00  0.4627336268059E+00
-0.4256898009767E+00 -0.3295801153004E+01 -0.7442982018871E+00  0.4578550242924E+00
-0.4478382477509E+00 -0.3242984714933E+01 -0.7381646035362E+00  0.4526739725153E+00
-0.4739788636133E+00 -0.3183179546897E+01 -0.7314316930012E+00  0.4475605584224E+00
-0.5023201057135E+00 -0.3116723120564E+01 -0.7238086560410E+00  0.4428641307694E+00
-0.5307658927677E+00 -0.3044088835684E+01 -0.7149709563443E+00  0.4389204362530E+00
-0.5569010641650E+00 -0.2965917465093E+01 -0.7045637163505E+00  0.4360551704077E+00
-0.5779852234478E+00 -0.2883052320795E+01 -0.6922075191632E+00  0.4345818726014E+00
-0.5909570584978E+00 -0.2796590524475E+01 -0.6775095266902E+00  0.4347816692951E+00
-0.5924544243222E+00 -0.2707913168407E+01 -0.6600735283817E+00  0.4368942489435E+00
-0.5788712483530E+00 -0.2618655112742E+01 -0.6395052817484E+00  0.4411501574357E+00
-0.5464400108276E+00 -0.2530679197924E+01 -0.6154238509209E+00  0.4477832819112E+00
-0.4913320970597E+00 -0.2446052948358E+01 -0.5874770178376E+00  0.4570127439167E+00
-0.4097786609755E+00 -0.2367010403090E+01 -0.5553578210885E+00  0.4690067528567E+00
-0.2982215507191E+00 -0.2295889663974E+01 -0.5188222506696E+00  0.4838337750928E+00
-0.1535018916221E+00 -0.2235037133820E+01 -0.4777078122067E+00  0.5014041538146E+00
 0.2690849061378E-01 -0.2186674834531E+01 -0.4319532752200E+00  0.5214069675311E+00
 0.2446365477876E+00 -0.2152731525869E+01 -0.3816190013029E+00  0.5432510470975E+00
 0.5001440006233E+00 -0.2134640949490E+01 -0.3268993946446E+00  0.5660260602480E+00
 0.7925544486407E+00 -0.2133141487052E+01 -0.2681174116776E+00  0.5884964289291E+00
 0.1119496085676E+01 -0.2148129109887E+01 -0.2057266079077E+00  0.6091258655296E+00
 0.1476933633395E+01 -0.2178548540109E+01 -0.1403229834338E+00  0.6261476017301E+00
 0.1859145071010E+01 -0.2222343169656E+01 -0.7263962081175E-01  0.6376974632840E+00
 0.2258849965639E+01 -0.2276504478091E+01 -0.3530902543017E-02  0.6419916578187E+00
 0.2667492161828E+01 -0.2337234621053E+01  0.6605150913907E-01  0.6375270815882E+00
 0.3075671050898E+01 -0.2400217457075E+01  0.1350907207777E+00  0.6232748653703E+00
 0.3473662544168E+01 -0.2460969214108E+01  0.2025386690300E+00  0.5988373338447E+00
 0.3851985340165E+01 -0.2515230980996E+01  0.2673508758176E+00  0.5645460193711E+00
 0.4201906261549E+01 -0.2559353561088E+01  0.3285105449872E+00  0.5214984869922E+00
-0.8174377913554E+00 -0.3407715167703E+01 -0.8450306044037E+00  0.3304084442874E+00
-0.7544121781586E+00 -0.3434421272157E+01 -0.8377667025468E+00  0.3649433180434E+00
-0.6911409703718E+00 -0.3459504881009E+01 -0.8301291826461E+00  0.3947570506189E+00
-0.6299568203423E+00 -0.3481502945804E+01 -0.8222919654824E+00  0.4192488965934E+00
-0.5730246946193E+00 -0.3499079798983E+01 -0.8144209108563E+00  0.4382232309298E+00
-0.5222053698219E+00 -0.3511108054126E+01 -0.8066626968098E+00  0.4518512586698E+00
-0.4789583740668E+00 -0.3516715973748E+01 -0.7991348814711E+00  0.4605842120016E+00
-0.4442980333247E+00 -0.3515293819915E+01 -0.7919183824484E+00  0.4650474004902E+00
-0.4187978583212E+00 -0.3506465558755E+01 -0.7850526951135E+00  0.4659411972682E+00
-0.4026276730030E+00 -0.3490040062956E+01 -0.7785335587928E+00  0.4639652669496E+00
-0.3956046212239E+00 -0.3465957394250E+01 -0.7723124146031E+00  0.4597717739024E+00
-0.3972419408844E+00 -0.3434242865185E+01 -0.7662969726325E+00  0.4539453012852E+00
-0.4067849721522E+00 -0.3394976159874E+01 -0.7603522377353E+00  0.4470027436895E+00
-0.4232298299612E+00 -0.3348278428362E+01 -0.7543016629047E+00  0.4394052929796E+00
-0.4453239798424E+00 -0.3294318931365E+01 -0.7479285933864E+00  0.4315757505493E+00
-0.4715549763622E+00 -0.3233331955371E+01 -0.7409773973880E+00  0.4239147630990E+00
-0.5001304855613E+00 -0.3165645217266E+01 -0.7331551514902E+00  0.4168138446436E+00
-0.5289560947626E+00 -0.3091716093872E+01 -0.7241344485173E+00  0.4106636209046E+00
-0.5556194427976E+00 -0.3012164213824E+01 -0.7135567419571E+00  0.4058568755382E+00
-0.5773830332742E+00 -0.2927809380795E+01 -0.7010384932601E+00  0.4027838191530E+00
-0.5911879140161E+00 -0.2839732783431E+01 -0.6861841497144E+00  0.4018031885397E+00
-0.5936744866415E+00 -0.2749306040746E+01 -0.6685961154403E+00  0.4032302660898E+00
-0.5812391846501E+00 -0.2658146484434E+01 -0.6478771434709E+00  0.4073772497919E+00
-0.5501134063162E+00 -0.2568088084570E+01 -0.6236403074702E+00  0.4145682148811E+00
-0.4964580187747E+00 -0.2481164650672E+01 -0.5955245427633E+00  0.4251155903622E+00
-0.4164772293683E+00 -0.2399580557649E+01 -0.5632115657960E+00  0.4392743842356E+00
-0.3065622512925E+00 -0.2325656854260E+01 -0.5264438289552E+00  0.4571808825872E+00
-0.1634735517240E+00 -0.2261742791242E+01 -0.4850432758209E+00  0.4787793300268E+00
 0.1543154043384E-01 -0.2210088470551E+01 -0.4389313925639E+00  0.5037419878014E+00
 0.2319276762186E+00 -0.2172678188046E+01 -0.3881501081493E+00  0.5313931374669E+00
 0.4866512535799E+00 -0.2151025336753E+01 -0.3328748215948E+00  0.5606569527833E+00
 0.7789152404033E+00 -0.2145962532990E+01 -0.2734094625915E+00  0.5900455421038E+00
 0.1106530842458E+01 -0.2157482975758E+01 -0.2101904297919E+00  0.6176837503138E+00
 0.1465611272098E+01 -0.2184616146159E+01 -0.1438009769552E+00  0.6413910489534E+00
 0.1850519229260E+01 -0.2225357255668E+01 -0.7496760639863E-01  0.6588443547298E+00
 0.2253970105489E+01 -0.2276698031050E+01 -0.4545585179943E-02  0.6677999125972E+00
 0.2667299886521E+01 -0.2334777665670E+01  0.6650444516118E-01  0.6663466859529E+00
 0.3080897122513E+01 -0.2395152997438E+01  0.1371488270586E+00  0.6531536698504E+00
 0.3484741640401E+01 -0.2453160567969E+01  0.2063162175608E+00  0.6276713103135E+00
 0.3869003585378E+01 -0.2504330832102E+01  0.2729345547222E+00  0.5902562493479E+00
 0.4224590955246E+01 -0.2544801203097E+01  0.3359579554360E+00  0.5422130545626E+00
-0.8309772952945E+00 -0.3465074727426E+01 -0.8592104173473E+00  0.3405215538965E+00
-0.7662893206388E+00 -0.3492382860306E+01 -0.8517344488808E+00  0.3747261162095E+00
-0.7010611165154E+00 -0.3518040242984E+01 -0.8438202844738E+00  0.4036437045044E+00
-0.6377776316495E+00 -0.3540502676583E+01 -0.8356560740987E+00  0.4267037654159E+00
-0.5787536977373E+00 -0.3558364081273E+01 -0.8274235681317E+00  0.4437777783728E+00
-0.5259734518198E+00 -0.3570451827581E+01 -0.8192850680885E+00  0.4551305194554E+00
-0.4809802688591E+00 -0.3575879909708E+01 -0.8113720478039E+00  0.4613167877368E+00
-0.4448314323943E+00 -0.3574052658659E+01 -0.8037768301880E+00  0.4630594244030E+00
-0.4181096526993E+00 -0.3564628215799E+01 -0.7965475855691E+00  0.4611391796343E+00
-0.4009713956316E+00 -0.3547459508342E+01 -0.7896861925619E+00  0.4563143287055E+00
-0.3932093110554E+00 -0.3522531174392E+01 -0.7831481087592E+00  0.4492750566972E+00
-0.3943102624188E+00 -0.3489906697288E+01 -0.7768434035173E+00  0.4406284815803E+00
-0.4034974651057E+00 -0.3449693402285E+01 -0.7706381849615E+00  0.4309054997671E+00
-0.4197522208977E+00 -0.3402027893884E+01 -0.7643560343461E+00  0.4205799220631E+00
-0.4418150749840E+00 -0.3347082902409E+01 -0.7577796067705E+00  0.4100921059833E+00
-0.4681734414568E+00 -0.3285085440461E+01 -0.7506517875691E+00  0.3998697012489E+00
-0.4970396376733E+00 -0.3216346992583E+01 -0.7426773371181E+00  0.3903434170732E+00
-0.5263265533259E+00 -0.3141301557592E+01 -0.7335256331140E+00  0.3819563198860E+00
-0.5536299927868E+00 -0.3060539640737E+01 -0.7228339374758E+00  0.3751662411541E+00
-0.5762201325908E+00 -0.2974849233474E+01 -0.7102138837961E+00  0.3704382691391E+00
-0.5910443283591E+00 -0.2885287932634E+01 -0.6952664625588E+00  0.3682069720235E+00
-0.5947489227869E+00 -0.2793211056796E+01 -0.6775920060134E+00  0.3688614467781E+00
-0.5837360110060E+00 -0.2700211200308E+01 -0.6567894520497E+00  0.3727942604017E+00
-0.5542383424448E+00 -0.2608085355396E+01 -0.6324647489927E+00  0.3804196111132E+00
-0.5024068621465E+00 -0.2518825183833E+01 -0.6042464181999E+00  0.3921451227869E+00
-0.4244161196249E+00 -0.2434597815656E+01 -0.5718027955767E+00  0.4083170882637E+00
-0.3165990050736E+00 -0.2357701995305E+01 -0.5348602080458E+00  0.4291471231784E+00
-0.1756209987531E+00 -0.2290488482085E+01 -0.4932219035171E+00  0.4546239337865E+00
 0.1297384228919E-02 -0.2235239507862E+01 -0.4467884313843E+00  0.4844160021039E+00
 0.2161093799967E+00 -0.2194005400864E+01 -0.3955792100680E+00  0.5177772199591E+00
 0.4696649644553E+00 -0.2168396249699E+01 -0.3397462621114E+00  0.5534794618761E+00
 0.7615114078114E+00 -0.2159361291455E+01 -0.2795699808947E+00  0.5897921676179E+00
 0.1089689574022E+01 -0.2167016394490E+01 -0.2154653673042E+00  0.6245041823346E+00
 0.1450502875045E+01 -0.2190500560941E+01 -0.1479995393846E+00  0.6550141812134E+00
 0.1838427719600E+01 -0.2227879657601E+01 -0.7789038876073E-01  0.6785217340232E+00
 0.2246184034042E+01 -0.2276153179258E+01 -0.5993829132492E-02  0.6922941213269E+00
 0.2664982969899E+01 -0.2331389539341E+01  0.6671868710583E-01  0.6939763188495E+00
 0.3084958214352E+01 -0.2388994167675E+01  0.1391928114094E+00  0.6818977539133E+00
 0.3495726121591E+01 -0.2444085301737E+01  0.2103281671048E+00  0.6553245916621E+00
 0.3887025914304E+01 -0.2491935467018E+01  0.2790180936148E+00  0.6146164911503E+00
 0.4249320807216E+01 -0.2528420132772E+01  0.3441801400175E+00  0.5612759762871E+00
-0.8445104351715E+00 -0.3522868769755E+01 -0.8734758540012E+00  0.3508715209021E+00
-0.7779501467733E+00 -0.3550867226450E+01 -0.8657634875456E+00  0.3847476867182E+00
-0.7105583407250E+00 -0.3577179621714E+01 -0.8575476052663E+00  0.4127408322185E+00
-0.6449871534094E+00 -0.3600173780866E+01 -0.8490321995067E+00  0.4343113582243E+00
-0.5837139864495E+00 -0.3618369183950E+01 -0.8404166466031E+00  0.4494056764370E+00
-0.5288532456540E+00 -0.3630548698615E+01 -0.8318804012497E+00  0.4583939159891E+00
-0.4820323302926E+00 -0.3635817537165E+01 -0.8235699857636E+00  0.4619464718490E+00
-0.4443462658708E+00 -0.3633602766998E+01 -0.8155898187270E+00  0.4608931213648E+00
-0.4163788363227E+00 -0.3623606380526E+01 -0.8079970554099E+00  0.4561003849517E+00
-0.3982646368638E+00 -0.3605734097754E+01 -0.8007997588563E+00  0.4483865086513E+00
-0.3897648188536E+00 -0.3580021648900E+01 -0.7939573053817E+00  0.4384778513830E+00
-0.3903354383095E+00 -0.3546574405196E+01 -0.7873819804341E+00  0.4270001430386E+00
-0.3991760537925E+00 -0.3505528216185E+01 -0.7809408656325E+00  0.4144933468262E+00
-0.4152543272115E+00 -0.3457033477335E+01 -0.7744575724496E+00  0.4014387688800E+00
-0.4373072437712E+00 -0.3401262607460E+01 -0.7677139816860E+00  0.3882895559988E+00
-0.4638269452080E+00 -0.3338429925933E+01 -0.7604513855598E+00  0.3754962422338E+00
-0.4930360613860E+00 -0.3268824075156E+01 -0.7523720385195E+00  0.3635253384236E+00
-0.5228605965218E+00 -0.3192848236797E+01 -0.7431417777375E+00  0.3528695975784E+00
-0.5509100105714E+00 -0.3111055778450E+01 -0.7323931687178E+00  0.3440496079108E+00
-0.5744670182207E+00 -0.3024194567462E+01 -0.7197323278615E+00  0.3376033201826E+00
-0.5904893307911E+00 -0.2933290948345E+01 -0.7047560663289E+00  0.3340391640845E+00
-0.5956328076185E+00 -0.2839677087734E+01 -0.6870619893085E+00  0.3338180891275E+00
-0.5863087390342E+00 -0.2744913509426E+01 -0.6662444596198E+00  0.3374115559886E+00
-0.5587543361640E+00 -0.2650751791110E+01 -0.6419012350198E+00  0.3453237149712E+00
-0.5091122427644E+00 -0.2559132396928E+01 -0.6136489370825E+00  0.3580594247236E+00
-0.4335259897272E+00 -0.2472176686934E+01 -0.5811405439920E+00  0.3760613461386E+00
-0.3282640290963E+00 -0.2392154594317E+01 -0.5440837327902E+00  0.3996251396098E+00
-0.1898841192671E+00 -0.2321415570945E+01 -0.5022599455267E+00  0.4287964555103E+00
-0.1544894550998E-01 -0.2262276518240E+01 -0.4555450995382E+00  0.4632556819207E+00
 0.1972036090080E+00 -0.2216863043507E+01 -0.4039318929189E+00  0.5022037006426E+00
 0.4491765841944E+00 -0.2186898342713E+01 -0.3475443568826E+00  0.5442767197478E+00
 0.7402986624445E+00 -0.2173470982170E+01 -0.2866344682162E+00  0.5875142493650E+00
 0.1068890991896E+01 -0.2176846480878E+01 -0.2215911010983E+00  0.6293739482528E+00
 0.1431494458222E+01 -0.2196300882715E+01 -0.1529612871780E+00  0.6668265302345E+00
 0.1822734525583E+01 -0.2229993079608E+01 -0.8145171201867E-01  0.6965728811421E+00
 0.2235350219682E+01 -0.2274941318234E+01 -0.7918219828388E-02  0.7153564939915E+00
 0.2660414735060E+01 -0.2327137778172E+01  0.6665539237079E-01  0.7203342010952E+00
 0.3087763545316E+01 -0.2381812536476E+01  0.1411902038718E+00  0.7094494915065E+00
 0.3506579280542E+01 -0.2433825204731E+01  0.2145508183592E+00  0.6817439394271E+00
 0.3906082126014E+01 -0.2478139720570E+01  0.2855884853445E+00  0.6375528911809E+00
 0.4276197217913E+01 -0.2510316946595E+01  0.3531760595263E+00  0.5785660724519E+00
-0.8580440402674E+00 -0.3581144447078E+01 -0.8878377106988E+00  0.3614933375356E+00
-0.7893908383625E+00 -0.3609924336562E+01 -0.8798630480959E+00  0.3950417880075E+00
-0.7196169358641E+00 -0.3636974218493E+01 -0.8713182438550E+00  0.4220780607213E+00
-0.6515596722055E+00 -0.3660565603295E+01 -0.8624250679513E+00  0.4420948047309E+00
-0.5878739361211E+00 -0.3679138796135E+01 -0.8534025591679E+00  0.4551228787490E+00
-0.5308120529763E+00 -0.3691433252276E+01 -0.8444490736337E+00  0.4616515898145E+00
-0.4820850081650E+00 -0.3696552070640E+01 -0.8357274282144E+00  0.4624805836472E+00
-0.4428189156151E+00 -0.3693955256165E+01 -0.8273548466845E+00  0.4585567665864E+00
-0.4135888527097E+00 -0.3683399755956E+01 -0.8193977339431E+00  0.4508377508793E+00
-0.3944975977292E+00 -0.3664853873209E+01 -0.8118703062853E+00  0.4402024123094E+00
-0.3852667880177E+00 -0.3638411558713E+01 -0.8047356813377E+00  0.4274104061593E+00
-0.3853166691486E+00 -0.3604224034542E+01 -0.7979081526278E+00  0.4131010391844E+00
-0.3938214024809E+00 -0.3562456559516E+01 -0.7912556041899E+00  0.3978173671666E+00
-0.4097362288339E+00 -0.3513271528483E+01 -0.7846015631548E+00  0.3820421753230E+00
-0.4317981319610E+00 -0.3456837091740E+01 -0.7777270563292E+00  0.3662359098073E+00
-0.4585091145607E+00 -0.3393349284991E+01 -0.7703716913897E+00  0.3508673145795E+00
-0.4881080422729E+00 -0.3323067165688E+01 -0.7622350529503E+00  0.3364349010818E+00
-0.5185400544671E+00 -0.3246355583408E+01 -0.7529791387952E+00  0.3234780597647E+00
-0.5474338936461E+00 -0.3163722735811E+01 -0.7422313369515E+00  0.3125776110892E+00
-0.5720897682398E+00 -0.3075868069713E+01 -0.7295915784624E+00  0.3043421344881E+00
-0.5894798834621E+00 -0.2983779041136E+01 -0.7146517955688E+00  0.2993517419173E+00
-0.5962733691048E+00 -0.2888757813786E+01 -0.6970062469644E+00  0.2981370457852E+00
-0.5888946502637E+00 -0.2792325396430E+01 -0.6762440194155E+00  0.3012466528285E+00
-0.5635892708749E+00 -0.2696179168269E+01 -0.6519536975436E+00  0.3092742711890E+00
-0.5164943742647E+00 -0.2602198660123E+01 -0.6237386161719E+00  0.3228240381656E+00
-0.4437226977885E+00 -0.2512449856538E+01 -0.5912345196753E+00  0.3424404981947E+00
-0.3414740255546E+00 -0.2429165901735E+01 -0.5541279937150E+00  0.3685131216980E+00
-0.2061876228631E+00 -0.2354690351111E+01 -0.5121756024268E+00  0.4011588020355E+00
-0.3474901190103E-01 -0.2291375444046E+01 -0.4652248981218E+00  0.4400881646117E+00
 0.1752421972327E+00 -0.2241429685185E+01 -0.4132375037482E+00  0.4844698452221E+00
 0.4251820511958E+00 -0.2206704839075E+01 -0.3563045628851E+00  0.5328248316226E+00
 0.7152301236959E+00 -0.2188451676270E+01 -0.2946443149055E+00  0.5829791257860E+00
 0.1044043095091E+01 -0.2187114007720E+01 -0.2286141859322E+00  0.6320666858381E+00
 0.1408453300050E+01 -0.2202135667804E+01 -0.1587364759162E+00  0.6766236615690E+00
 0.1803278479895E+01 -0.2231795254818E+01 -0.8570335626167E-01  0.7128284307488E+00
 0.2221298771206E+01 -0.2273145113231E+01 -0.1036926855963E-01  0.7368599583628E+00
 0.2653441361035E+01 -0.2322098813375E+01  0.6626851051942E-01  0.7453339818220E+00
 0.3089201236802E+01 -0.2373687797733E+01  0.1431026899461E+00  0.7357515988913E+00
 0.3517253584537E+01 -0.2422470613050E+01  0.2189565975601E+00  0.7068803557897E+00
 0.3926204246741E+01 -0.2463047678990E+01  0.2926313179109E+00  0.6589978184234E+00
 0.4305337787814E+01 -0.2490607357379E+01  0.3629460914953E+00  0.5939680333079E+00
-0.8715849885237E+00 -0.3639951024597E+01 -0.9023072160696E+00  0.3724233379699E+00
-0.8006065184534E+00 -0.3669606442264E+01 -0.8940426054658E+00  0.4056432465717E+00
-0.7282189480236E+00 -0.3697477364775E+01 -0.8851392757492E+00  0.4316851076371E+00
-0.6574665330720E+00 -0.3721728881487E+01 -0.8758390959628E+00  0.4500758634394E+00
-0.5911990879742E+00 -0.3740716639645E+01 -0.8663831584340E+00  0.4609424444133E+00
-0.5318152147753E+00 -0.3753138309231E+01 -0.8569907175715E+00  0.4649096129742E+00
-0.4811081495130E+00 -0.3758103035204E+01 -0.8478422495773E+00  0.4629217823924E+00
-0.4402266461318E+00 -0.3755115790165E+01 -0.8390684997625E+00  0.4560539960904E+00
-0.4097253438439E+00 -0.3744001200870E+01 -0.8307453213218E+00  0.4453600876711E+00
-0.3896636441797E+00 -0.3724801070267E+01 -0.8228929551514E+00  0.4317793444664E+00
-0.3797145749243E+00 -0.3697675297091E+01 -0.8154779865547E+00  0.4161006494297E+00
-0.3792570038504E+00 -0.3662825108123E+01 -0.8084164344410E+00  0.3989706264703E+00
-0.3874377899276E+00 -0.3620445999509E+01 -0.8015767698317E+00  0.3809283479697E+00
-0.4032010740113E+00 -0.3570710402264E+01 -0.7947823070983E+00  0.3624511436684E+00
-0.4252876534769E+00 -0.3513778040631E+01 -0.7878131505610E+00  0.3440005428245E+00
-0.4522148452004E+00 -0.3449820895268E+01 -0.7804071597226E+00  0.3260582792335E+00
-0.4822439821686E+00 -0.3379061563460E+01 -0.7722611206334E+00  0.3091506755492E+00
-0.5133455990014E+00 -0.3301818981677E+01 -0.7630329275057E+00  0.2938604396145E+00
-0.5431734945979E+00 -0.3218548147215E+01 -0.7523443395733E+00  0.2808258871984E+00
-0.5690504067260E+00 -0.3129891834256E+01 -0.7397884592202E+00  0.2707237793722E+00
-0.5879672400306E+00 -0.3036791032865E+01 -0.7249516653818E+00  0.2642035032331E+00
-0.5966103078132E+00 -0.2940511089458E+01 -0.7074242899956E+00  0.2618628675876E+00
-0.5914215263032E+00 -0.2842525969705E+01 -0.6867895094357E+00  0.2643255147717E+00
-0.5686594709602E+00 -0.2744469723285E+01 -0.6626258487229E+00  0.2722739577295E+00
-0.5244599084819E+00 -0.2648150478224E+01 -0.6345220867963E+00  0.2864134859356E+00
-0.4549068244169E+00 -0.2555568042091E+01 -0.6020949822735E+00  0.3073962765177E+00
-0.3561293127089E+00 -0.2468909120641E+01 -0.5650076950893E+00  0.3357162289712E+00
-0.2244397409980E+00 -0.2390504712565E+01 -0.5229888985058E+00  0.3715774457975E+00
-0.5652926448860E-01 -0.2322740802828E+01 -0.4758540205541E+00  0.4147417307622E+00
 0.1502688572677E+00 -0.2267914341465E+01 -0.4235291031505E+00  0.4643697770464E+00
 0.3976838267528E+00 -0.2228019758523E+01 -0.3660671918089E+00  0.5188920244437E+00
 0.6862580346586E+00 -0.2204492802484E+01 -0.3036469580898E+00  0.5759417607826E+00
 0.1015044143861E+01 -0.2197985903384E+01 -0.2365883554301E+00  0.6323402952754E+00
 0.1381227797343E+01 -0.2208145099885E+01 -0.1653834629728E+00  0.6841840674785E+00
 0.1779871817122E+01 -0.2233400531357E+01 -0.9070574419879E-01  0.7271032222640E+00
 0.2203828816277E+01 -0.2270859407055E+01 -0.1340611835530E-01  0.7566655017257E+00
 0.2643878558066E+01 -0.2316358301200E+01  0.6550405234942E-01  0.7688829799796E+00
 0.3089134975322E+01 -0.2364707745503E+01  0.1448854481226E+00  0.7607463809868E+00
 0.3527687996275E+01 -0.2410120219039E+01  0.2235135587779E+00  0.7306890842857E+00
 0.3947424980019E+01 -0.2446772359970E+01  0.3001305284821E+00  0.6788901302277E+00
 0.4336876099441E+01 -0.2469415629771E+01  0.3734920994995E+00  0.6073723658060E+00
-0.8851402369495E+00 -0.3699340565328E+01 -0.9168961741183E+00  0.3836993257391E+00
-0.8115909954244E+00 -0.3729968831517E+01 -0.9083119789231E+00  0.4165880185086E+00
-0.7363436587353E+00 -0.3758745258969E+01 -0.8990177969373E+00  0.4415916421255E+00
-0.6626755038514E+00 -0.3783716344071E+01 -0.8892783828357E+00  0.4582745137419E+00
-0.5936515776057E+00 -0.3803146818619E+01 -0.8793596923485E+00  0.4668738972643E+00
-0.5318257392940E+00 -0.3815694982816E+01 -0.8695041573786E+00  0.4681692276589E+00
-0.4790708753080E+00 -0.3820486061759E+01 -0.8599114002272E+00  0.4632673186849E+00
-0.4365477046566E+00 -0.3817084198151E+01 -0.8507263932383E+00  0.4533831697105E+00
-0.4047764097171E+00 -0.3805396247377E+01 -0.8420345439661E+00  0.4396716020215E+00
-0.3837596582877E+00 -0.3785549609179E+01 -0.8338618659189E+00  0.4231309999078E+00
-0.3731116399917E+00 -0.3757778411790E+01 -0.8261780226673E+00  0.4045740296146E+00
-0.3721637396243E+00 -0.3722338148898E+01 -0.8189003899071E+00  0.3846470297168E+00
-0.3800335040120E+00 -0.3679455248828E+01 -0.8118977626662E+00  0.3638768541473E+00
-0.3956554645631E+00 -0.3629309993342E+01 -0.8049931035763E+00  0.3427275070883E+00
-0.4177783676876E+00 -0.3572049297801E+01 -0.7979655449884E+00  0.3216546620455E+00
-0.4449406756839E+00 -0.3507815128334E+01 -0.7905511725837E+00  0.3011472912110E+00
-0.4754327778377E+00 -0.3436786617522E+01 -0.7824438907313E+00  0.2817549725677E+00
-0.5072571359204E+00 -0.3359229153236E+01 -0.7732972693543E+00  0.2641001678236E+00
-0.5380985331574E+00 -0.3275536526293E+01 -0.7627270232555E+00  0.2488757641021E+00
-0.5653073328397E+00 -0.3186286664692E+01 -0.7503188106870E+00  0.2368240534500E+00
-0.5858973740490E+00 -0.3092366616809E+01 -0.7356528091337E+00  0.2286610462918E+00
-0.5965761881400E+00 -0.2994998182252E+01 -0.7183148847820E+00  0.2250489526613E+00
-0.5938079462148E+00 -0.2895600716000E+01 -0.6978817428422E+00  0.2266838777538E+00
-0.5738698290591E+00 -0.2795735481270E+01 -0.6739210721079E+00  0.2343358755982E+00
-0.5329018000524E+00 -0.2697127977289E+01 -0.6460059650945E+00  0.2488128916444E+00
-0.4669631731727E+00 -0.2601699748323E+01 -0.6137325934445E+00  0.2708804848101E+00
-0.3721128658795E+00 -0.2511579560759E+01 -0.5767384939218E+00  0.3011482144106E+00
-0.2445307456538E+00 -0.2429076831754E+01 -0.5347215234496E+00  0.3399248228720E+00
-0.8069904344063E-01 -0.2356607023103E+01 -0.4874612205724E+00  0.3870467558988E+00
 0.1223415677331E+00 -0.2296558497449E+01 -0.4348433924229E+00  0.4416947330044E+00
 0.3666934007845E+00 -0.2251080555870E+01 -0.3768774366329E+00  0.5022379777833E+00
 0.6533359590520E+00 -0.2221816187501E+01 -0.3136960503642E+00  0.5661430164954E+00
 0.9817840224829E+00 -0.2209658350314E+01 -0.2455748692256E+00  0.6299342036661E+00
 0.1349647499726E+01 -0.2214493742492E+01 -0.1729692511307E+00  0.6892657188047E+00
 0.1752298601520E+01 -0.2234941935833E+01 -0.9652866830083E-01  0.7391926709071E+00
 0.2182705436798E+01 -0.2268192445651E+01 -0.1709740202533E-01  0.7746190072435E+00
 0.2631507581280E+01 -0.2310011622785E+01  0.6429919265705E-01  0.7908800164836E+00
 0.3087399984827E+01 -0.2354968340561E+01  0.1464863310360E+00  0.7843747255504E+00
 0.3537804763312E+01 -0.2396880956101E+01  0.2281847648424E+00  0.7531294756193E+00
 0.3969775867370E+01 -0.2429435451138E+01  0.3080680878370E+00  0.6971753386134E+00
 0.4370961574974E+01 -0.2446874031139E+01  0.3848175145012E+00  0.6186752172837E+00
-0.8987168534205E+00 -0.3759368735403E+01 -0.9316171316468E+00  0.3953607380892E+00
-0.8223364500605E+00 -0.3791070710702E+01 -0.9226814459015E+00  0.4279132698911E+00
-0.7439669633585E+00 -0.3820837823729E+01 -0.9129609710217E+00  0.4518271172301E+00
-0.6671500286935E+00 -0.3846583388224E+01 -0.9027466968354E+00  0.4667084645833E+00
-0.5951894864282E+00 -0.3866474188256E+01 -0.8923327482335E+00  0.4729224667337E+00
-0.5308039064203E+00 -0.3879132697397E+01 -0.8819873339061E+00  0.4714259656476E+00
-0.4759414823764E+00 -0.3883712606562E+01 -0.8719308307804E+00  0.4635081909959E+00
-0.4317614763509E+00 -0.3879854000130E+01 -0.8623231081459E+00  0.4505366755731E+00
-0.3987329328873E+00 -0.3867562541060E+01 -0.8532591075040E+00  0.4337713946275E+00
-0.3767864511166E+00 -0.3847064526950E+01 -0.8447702082013E+00  0.4142671480957E+00
-0.3654659920521E+00 -0.3818677065737E+01 -0.8368286240276E+00  0.3928533564612E+00
-0.3640488677417E+00 -0.3782714172537E+01 -0.8293526204141E+00  0.3701670075398E+00
-0.3716212779875E+00 -0.3739433674224E+01 -0.8222110026943E+00  0.3467132952787E+00
-0.3871098818048E+00 -0.3689021239381E+01 -0.8152262363850E+00  0.3229340876118E+00
-0.4092758983625E+00 -0.3631606344142E+01 -0.8081764605437E+00  0.2992715533076E+00
-0.4366852051698E+00 -0.3567294790455E+01 -0.8007960110578E+00  0.2762156388232E+00
-0.4676642459747E+00 -0.3496215119433E+01 -0.7927758848947E+00  0.2543342791833E+00
-0.5002542477800E+00 -0.3418571494135E+01 -0.7837651600619E+00  0.2342859133967E+00
-0.5321770652306E+00 -0.3334688541753E+01 -0.7733731329209E+00  0.2168149195363E+00
-0.5608158151488E+00 -0.3245071288186E+01 -0.7611774320094E+00  0.2027262816925E+00
-0.5832114810950E+00 -0.3150545517745E+01 -0.7467514108955E+00  0.1927997241869E+00
-0.5960969094477E+00 -0.3052282899371E+01 -0.7296759726367E+00  0.1877586822150E+00
-0.5959636645011E+00 -0.2951640631881E+01 -0.7095208698492E+00  0.1883685825945E+00
-0.5791140056075E+00 -0.2850097453971E+01 -0.6858423021355E+00  0.1954850798048E+00
-0.5416992214203E+00 -0.2749284260465E+01 -0.6581967061849E+00  0.2100196865835E+00
-0.4797602805135E+00 -0.2651030905945E+01 -0.6261582466221E+00  0.2328568237324E+00
-0.3892893020813E+00 -0.2557394716270E+01 -0.5893368124520E+00  0.2647332606522E+00
-0.2663313171439E+00 -0.2470651858886E+01 -0.5473966433628E+00  0.3060810079459E+00
-0.1071483126740E+00 -0.2393239891992E+01 -0.5000776483849E+00  0.3568369821821E+00
 0.9153536254723E-01 -0.2327638395140E+01 -0.4472206131826E+00  0.4162336360747E+00
 0.3322343095216E+00 -0.2276161197000E+01 -0.3887853832890E+00  0.4826133974486E+00
 0.6164215333665E+00 -0.2240679694105E+01 -0.3248516369884E+00  0.5533080122036E+00
 0.9441460839934E+00 -0.2222360583826E+01 -0.2556429037759E+00  0.6245664904459E+00
 0.1313523405401E+01 -0.2221373995145E+01 -0.1815701206544E+00  0.6916022328074E+00
 0.1720313065575E+01 -0.2236573829040E+01 -0.1032521542315E+00  0.7488685685611E+00
 0.2157656122919E+01 -0.2265267502372E+01 -0.2152227621128E-01  0.7905474728853E+00
 0.2616070478507E+01 -0.2303164591203E+01  0.6258117839320E-01  0.8112127487776E+00
 0.3083798193169E+01 -0.2344573883658E+01  0.1478448641053E+00  0.8065748106929E+00
 0.3547505599560E+01 -0.2382867980101E+01  0.2329275273627E+00  0.7741647163479E+00
 0.3993285133332E+01 -0.2411167114399E+01  0.3164236085016E+00  0.7138056589407E+00
 0.4407759318675E+01 -0.2423122291386E+01  0.3969274113726E+00  0.6277780963746E+00
-0.9123220487100E+00 -0.3820095754332E+01 -0.9464835747121E+00  0.4074488541173E+00
-0.8328330503791E+00 -0.3852976242967E+01 -0.9371618726340E+00  0.4396574772231E+00
-0.7510606212131E+00 -0.3883819702183E+01 -0.9269760784923E+00  0.4624205619637E+00
-0.6708483492240E+00 -0.3910388840638E+01 -0.9162474516255E+00  0.4753925555513E+00
-0.5957661070976E+00 -0.3930744729321E+01 -0.9053021807738E+00  0.4790881822811E+00
-0.5287068534028E+00 -0.3943479141971E+01 -0.8944372124029E+00  0.4746686254391E+00
-0.4716873837707E+00 -0.3947789564704E+01 -0.8838954028659E+00  0.4636281964776E+00
-0.4258487091706E+00 -0.3943411819084E+01 -0.8738521186724E+00  0.4475001758321E+00
-0.3915889791573E+00 -0.3930469183787E+01 -0.8644116454697E+00  0.4276529377721E+00
-0.3687492433635E+00 -0.3909301337400E+01 -0.8556101289023E+00  0.4051933200592E+00
-0.3567906879849E+00 -0.3880317448015E+01 -0.8474216398275E+00  0.3809586509291E+00
-0.3549295647457E+00 -0.3843894143213E+01 -0.8397647541052E+00  0.3555659223578E+00
-0.3622187674354E+00 -0.3800320770899E+01 -0.8325079200721E+00  0.3294879889323E+00
-0.3775791527192E+00 -0.3749785584284E+01 -0.8254729597012E+00  0.3031348425671E+00
-0.3997893946653E+00 -0.3692395726261E+01 -0.8184370363808E+00  0.2769268114405E+00
-0.4274495556063E+00 -0.3628214501111E+01 -0.8111328234304E+00  0.2513480624052E+00
-0.4589295954687E+00 -0.3557312622490E+01 -0.8032484555610E+00  0.2269796719808E+00
-0.4923166881615E+00 -0.3479825327880E+01 -0.7944284150462E+00  0.2045120995081E+00
-0.5253760101473E+00 -0.3396000198713E+01 -0.7842752534587E+00  0.1847380132852E+00
-0.5555285535673E+00 -0.3306261463444E+01 -0.7723580149113E+00  0.1685220851738E+00
-0.5798465590867E+00 -0.3211366532842E+01 -0.7582426296843E+00  0.1567045797255E+00
-0.5950922645312E+00 -0.3112430580329E+01 -0.7415045800214E+00  0.1500665501753E+00
-0.5977900809875E+00 -0.3010741205267E+01 -0.7217062680051E+00  0.1494389247241E+00
-0.5842747165530E+00 -0.2907684673131E+01 -0.6983918883436E+00  0.1557601629258E+00
-0.5507175490917E+00 -0.2804784590391E+01 -0.6711004378967E+00  0.1700454201601E+00
-0.4931499599848E+00 -0.2703764342032E+01 -0.6393828699310E+00  0.1933028870742E+00
-0.4075038333545E+00 -0.2606594205627E+01 -0.6028196167790E+00  0.2264080673120E+00
-0.2896907790134E+00 -0.2515502537079E+01 -0.5610386715787E+00  0.2699357224813E+00
-0.1357451212854E+00 -0.2432938055478E+01 -0.5137366430081E+00  0.3239511855629E+00
 0.5794555511215E-01 -0.2361467547348E+01 -0.4607044053123E+00  0.3877740749062E+00
 0.2943457421362E+00 -0.2303575673364E+01 -0.4018459922335E+00  0.4597599237886E+00
 0.5754798970521E+00 -0.2261381510096E+01 -0.3371803276332E+00  0.5371446403043E+00
 0.9020096300644E+00 -0.2236359497998E+01 -0.2668699775634E+00  0.6159308958729E+00
 0.1272648665282E+01 -0.2229010398316E+01 -0.1912723494570E+00  0.6908986074302E+00
 0.1683637948282E+01 -0.2238475304210E+01 -0.1109674728392E+00  0.7558741896348E+00
 0.2128366730723E+01 -0.2262225014716E+01 -0.2677165719749E-01  0.8042544430275E+00
 0.2597264452788E+01 -0.2295934420572E+01  0.6026600734131E-01  0.8297543565046E+00
 0.3078092439987E+01 -0.2333637319958E+01  0.1488910262244E+00  0.8272804481229E+00
 0.3556667168788E+01 -0.2368204790431E+01  0.2376924792133E+00  0.7937613896643E+00
 0.4017975136173E+01 -0.2392105900075E+01  0.3251738520650E+00  0.7287398815623E+00
 0.4447449867200E+01 -0.2398307041765E+01  0.4098285711941E+00  0.6345874322413E+00
-0.9259632071847E+00 -0.3881587522042E+01 -0.9615101601730E+00  0.4200070551088E+00
-0.8430684751880E+00 -0.3915755777426E+01 -0.9517648647052E+00  0.4518605493524E+00
-0.7575913475046E+00 -0.3947761420875E+01 -0.9410705676989E+00  0.4734003177622E+00
-0.6737224686185E+00 -0.3975195812621E+01 -0.9297836701028E+00  0.4843380198908E+00
-0.5953291148892E+00 -0.3996005919351E+01 -0.9182670205312E+00  0.4853647873863E+00
-0.5254881507622E+00 -0.4008760137165E+01 -0.9068496710985E+00  0.4778780820236E+00
-0.4662751053149E+00 -0.4012718754456E+01 -0.8957987853026E+00  0.4636028655263E+00
-0.4187918258067E+00 -0.4007736664354E+01 -0.8853057112241E+00  0.4442517955182E+00
-0.3833422858505E+00 -0.3994075975843E+01 -0.8754836653844E+00  0.4213035410671E+00
-0.3596582181149E+00 -0.3972205326685E+01 -0.8663727218699E+00  0.3959105058814E+00
-0.3471043864216E+00 -0.3942635150064E+01 -0.8579479200815E+00  0.3689070084282E+00
-0.3448287249609E+00 -0.3905808411333E+01 -0.8501274399268E+00  0.3408777147184E+00
-0.3518490630725E+00 -0.3862045622162E+01 -0.8427789496052E+00  0.3122512154110E+00
-0.3670829521618E+00 -0.3811534420144E+01 -0.8357234869143E+00  0.2833949910956E+00
-0.3893320309481E+00 -0.3754354451919E+01 -0.8287373089226E+00  0.2546985428925E+00
-0.4172378757589E+00 -0.3690520025704E+01 -0.8215515925346E+00  0.2266330411985E+00
-0.4492219444113E+00 -0.3620036703790E+01 -0.8138517417675E+00  0.1997871955902E+00
-0.4834249248454E+00 -0.3542963091659E+01 -0.8052776153005E+00  0.1748793816843E+00
-0.5176617341033E+00 -0.3459461944014E+01 -0.7954247474761E+00  0.1527472787809E+00
-0.5493963085667E+00 -0.3369869002184E+01 -0.7838530738304E+00  0.1343121092484E+00
-0.5757360695314E+00 -0.3274866472931E+01 -0.7701205199681E+00  0.1204712424210E+00
-0.5934765927137E+00 -0.3175506973419E+01 -0.7537967244590E+00  0.1120592661544E+00
-0.5991808159950E+00 -0.3073001260854E+01 -0.7344364263137E+00  0.1099679989952E+00
-0.5892241303912E+00 -0.2968633065838E+01 -0.7115714498490E+00  0.1152148696512E+00
-0.5598084514261E+00 -0.2863805393943E+01 -0.6847227792769E+00  0.1289176554808E+00
-0.5069669202200E+00 -0.2760119064094E+01 -0.6534172065995E+00  0.1522123185332E+00
-0.4265812348651E+00 -0.2659439541419E+01 -0.6172041644539E+00  0.1861241942304E+00
-0.3144352451269E+00 -0.2563929711246E+01 -0.5756729998528E+00  0.2313907034875E+00
-0.1663328241195E+00 -0.2476034529437E+01 -0.5284734785861E+00  0.2882352940163E+00
 0.2169139866191E-01 -0.2398399453940E+01 -0.4753416181388E+00  0.3561037734662E+00
 0.2530867870163E+00 -0.2333681970078E+01 -0.4161190428129E+00  0.4334104733317E+00
 0.5304879086429E+00 -0.2284265161516E+01 -0.3507554558013E+00  0.5173423283752E+00
 0.8552531786185E+00 -0.2251965197157E+01 -0.2793424078702E+00  0.6036937571258E+00
 0.1226799853067E+01 -0.2237664976615E+01 -0.2021730277222E+00  0.6868264887250E+00
 0.1641962931520E+01 -0.2240854529310E+01 -0.1197783213429E+00  0.7599185762945E+00
 0.2094476916159E+01 -0.2259225389224E+01 -0.3294969510387E-01  0.8155144614638E+00
 0.2574735170283E+01 -0.2288451021839E+01  0.5725683054197E-01  0.8463594035953E+00
 0.3069999517041E+01 -0.2322280677302E+01  0.1495437701763E+00  0.8464189972146E+00
 0.3565135779634E+01 -0.2353023526761E+01  0.2424224541869E+00  0.8118888826075E+00
 0.4043859409536E+01 -0.2372398796150E+01  0.3342921276585E+00  0.7419429986665E+00
 0.4490228654075E+01 -0.2372581191459E+01  0.4235294988342E+00  0.6390139109581E+00
-0.9396479150401E+00 -0.3943916963261E+01 -0.9767129902145E+00  0.4330811486227E+00
-0.8530273217886E+00 -0.3979487310943E+01 -0.9665029409484E+00  0.4645639718190E+00
-0.7635197095532E+00 -0.4012740749629E+01 -0.9552521060708E+00  0.4847936982761E+00
-0.6757169295473E+00 -0.4041072654848E+01 -0.9433579309361E+00  0.4935515696909E+00
-0.5938196386679E+00 -0.4062307079013E+01 -0.9312253574126E+00  0.4917384310366E+00
-0.5210973832217E+00 -0.4074999377728E+01 -0.9192193658873E+00  0.4810259010167E+00
-0.4596703627441E+00 -0.4078496233690E+01 -0.9076333328115E+00  0.4633982715580E+00
-0.4105753449559E+00 -0.4072799057951E+01 -0.8966748939428E+00  0.4407612615892E+00
-0.3739948515117E+00 -0.4058332543128E+01 -0.8864654921372E+00  0.4147038196826E+00
-0.3495291505012E+00 -0.4035710781929E+01 -0.8770479995552E+00  0.3864148769355E+00
-0.3364319539109E+00 -0.4005554512010E+01 -0.8683973061243E+00  0.3567124851665E+00
-0.3337755297255E+00 -0.3968376140717E+01 -0.8604303469100E+00  0.3261348861500E+00
-0.3405412346504E+00 -0.3924526351091E+01 -0.8530135298592E+00  0.2950532634184E+00
-0.3556463377016E+00 -0.3874188511864E+01 -0.8459669825189E+00  0.2637811173475E+00
-0.3779215436010E+00 -0.3817409353048E+01 -0.8390661918328E+00  0.2326675365394E+00
-0.4060578863460E+00 -0.3754147560292E+01 -0.8320411017260E+00  0.2021630446912E+00
-0.4385368812165E+00 -0.3684336165477E+01 -0.8245746216259E+00  0.1728582039430E+00
-0.4735607308931E+00 -0.3607949451963E+01 -0.8163020487351E+00  0.1454950866252E+00
-0.5090006888099E+00 -0.3525057692422E+01 -0.8068116882688E+00  0.1209530723946E+00
-0.5423685977980E+00 -0.3435900701784E+01 -0.7956538717726E+00  0.1002067074944E+00
-0.5708106824068E+00 -0.3341079001781E+01 -0.7823779484959E+00  0.8420678340675E-01
-0.5911595343294E+00 -0.3241576991883E+01 -0.7665473166650E+00  0.7383682577202E-01
-0.6000224032634E+00 -0.3138521660910E+01 -0.7477088239765E+00  0.7004403197310E-01
-0.5938243946348E+00 -0.3033084155286E+01 -0.7253817207931E+00  0.7391973408771E-01
-0.5688101077019E+00 -0.2926533060518E+01 -0.6990686440609E+00  0.8668194386903E-01
-0.5210284970058E+00 -0.2820329312950E+01 -0.6682715719491E+00  0.1095971299649E+00
-0.4463248764120E+00 -0.2716213667830E+01 -0.6325077182736E+00  0.1438506763976E+00
-0.3403657282862E+00 -0.2616262650137E+01 -0.5913256844960E+00  0.1903624732147E+00
-0.1987270963929E+00 -0.2522898142078E+01 -0.5443250558053E+00  0.2495450302206E+00
-0.1707981559785E-01 -0.2438830459108E+01 -0.4911820622604E+00  0.3210126592026E+00
 0.2085413798230E+00 -0.2366886472665E+01 -0.4316690250007E+00  0.4032901460991E+00
 0.4814392849297E+00 -0.2309725309513E+01 -0.3656572103653E+00  0.4935711742724E+00
 0.8037587213976E+00 -0.2269537640654E+01 -0.2931557882196E+00  0.5874909489468E+00
 0.1175739023994E+01 -0.2247643845124E+01 -0.2143809674205E+00  0.6790189517294E+00
 0.1594943336738E+01 -0.2243954294466E+01 -0.1298021934798E+00  0.7606698566947E+00
 0.2055575047057E+01 -0.2256452694727E+01 -0.4017553013264E-01  0.8240662891930E+00
 0.2548068800327E+01 -0.2280858719560E+01  0.5344201694978E-01  0.8608586112876E+00
 0.3059181731821E+01 -0.2310635615631E+01  0.1497092254689E+00  0.8639087405835E+00
 0.3572721192711E+01 -0.2337465471131E+01  0.2470511479975E+00  0.8285186860062E+00
 0.4070939301000E+01 -0.2352201469950E+01  0.3437475713323E+00  0.7533854661449E+00
 0.4536304844323E+01 -0.2346103057143E+01  0.4380403639634E+00  0.6409715012019E+00
-0.9533839826237E+00 -0.4007165640851E+01 -0.9921099394786E+00  0.4467197692053E+00
-0.8626903643132E+00 -0.4044258233449E+01 -0.9813897341763E+00  0.4778109723112E+00
-0.7687987784351E+00 -0.4078844291558E+01 -0.9695286284456E+00  0.4966265418362E+00
-0.6767673707077E+00 -0.4108094010220E+01 -0.9569722904454E+00  0.5030342494295E+00
-0.5911712271666E+00 -0.4129699656104E+01 -0.9441741907235E+00  0.4981860828086E+00
-0.5154797580703E+00 -0.4142217992986E+01 -0.9315395640922E+00  0.4840727239005E+00
-0.4518382520783E+00 -0.4145111391805E+01 -0.9193899424766E+00  0.4629697091654E+00
-0.4011864399125E+00 -0.4138559961722E+01 -0.9079492938565E+00  0.4369890046021E+00
-0.3635536436192E+00 -0.4123177324833E+01 -0.8973462070619E+00  0.4078271853088E+00
-0.3383841198945E+00 -0.4099740141764E+01 -0.8876248655584E+00  0.3766975519064E+00
-0.3248051222250E+00 -0.4068987934836E+01 -0.8787586245067E+00  0.3443860209312E+00
-0.3218060495088E+00 -0.4031504722175E+01 -0.8706621673106E+00  0.3113684973971E+00
-0.3283309029278E+00 -0.3987669558377E+01 -0.8632001051237E+00  0.2779444685145E+00
-0.3433003166526E+00 -0.3937657393587E+01 -0.8561915548062E+00  0.2443612497042E+00
-0.3655808072682E+00 -0.3881476399689E+01 -0.8494114540486E+00  0.2109174021011E+00
-0.3939214703386E+00 -0.3819022946614E+01 -0.8425888959461E+00  0.1780347499642E+00
-0.4268730741745E+00 -0.3750150149907E+01 -0.8354046572647E+00  0.1462996688991E+00
-0.4627078271909E+00 -0.3674740322609E+01 -0.8274896422905E+00  0.1164736190672E+00
-0.4993601081151E+00 -0.3592763746349E+01 -0.8184247830882E+00  0.8947438955083E-01
-0.5343944629838E+00 -0.3504357161714E+01 -0.8077503369759E+00  0.6632659109482E-01
-0.5649991088606E+00 -0.3410033345341E+01 -0.7950065026868E+00  0.4803053756942E-01
-0.5880468933662E+00 -0.3310703319473E+01 -0.7797500541871E+00  0.3551355663531E-01
-0.6001951114571E+00 -0.3207403825953E+01 -0.7615197988296E+00  0.2977170873521E-01
-0.5979283085946E+00 -0.3101183542296E+01 -0.7398223812023E+00  0.3196374614527E-01
-0.5775475837330E+00 -0.2993162474976E+01 -0.7141420223833E+00  0.4340388631891E-01
-0.5351345346987E+00 -0.2884643306382E+01 -0.6839555784080E+00  0.6549019611880E-01
-0.4665158612006E+00 -0.2777220165621E+01 -0.6487472150314E+00  0.9957694163807E-01
-0.3672562551439E+00 -0.2672859061917E+01 -0.6080230724725E+00  0.1467855691162E+00
-0.2327127709560E+00 -0.2573934780476E+01 -0.5613295186509E+00  0.2077491787402E+00
-0.5818820787386E-01 -0.2483202639156E+01 -0.5082781769800E+00  0.2822956766326E+00
 0.1608240438121E+00 -0.2403648754782E+01 -0.4485649488781E+00  0.3691178833465E+00
 0.4283508537313E+00 -0.2338214366364E+01 -0.3819727082184E+00  0.4654816436275E+00
 0.7474172573048E+00 -0.2289494535121E+01 -0.3084154601589E+00  0.5669249655487E+00
 0.1119216893755E+01 -0.2259305345209E+01 -0.2280176936885E+00  0.6670648150981E+00
 0.1542199363274E+01 -0.2248059103338E+01 -0.1411719501164E+00  0.7577474514523E+00
 0.2011192679360E+01 -0.2254119570648E+01 -0.4858537898170E-01  0.8296045646747E+00
 0.2516782556801E+01 -0.2273318547565E+01  0.4869280257288E-01  0.8730521528914E+00
 0.3045236537906E+01 -0.2298844036304E+01  0.1492785025449E+00  0.8796555269362E+00
 0.3579189415042E+01 -0.2321681734609E+01  0.2515015398343E+00  0.8436237205757E+00
 0.4099200418741E+01 -0.2331678820266E+01  0.3535043249626E+00  0.7630419414608E+00
 0.4585898555217E+01 -0.2319034777908E+01  0.4533727622176E+00  0.6403758680906E+00
-0.9671794562569E+00 -0.4071425706419E+01 -0.1007721047551E+01  0.4609748720372E+00
-0.8720336193539E+00 -0.4110167426342E+01 -0.9964402239872E+00  0.4916467042156E+00
-0.7733724749103E+00 -0.4146169350385E+01 -0.9839083797205E+00  0.5089226153037E+00
-0.6767988216789E+00 -0.4176341968378E+01 -0.9706281724748E+00  0.5127799884286E+00
-0.5873087116461E+00 -0.4198237407473E+01 -0.9571092380859E+00  0.5046736058738E+00
-0.5085757740973E+00 -0.4210433866431E+01 -0.9438019421694E+00  0.4869663885064E+00
-0.4427435949888E+00 -0.4212545767109E+01 -0.9310578862934E+00  0.4622602386359E+00
-0.3906156662597E+00 -0.4204969479607E+01 -0.9191170428693E+00  0.4328852425773E+00
-0.3520314393297E+00 -0.4188536421400E+01 -0.9081135856779E+00  0.4006393853218E+00
-0.3262523051183E+00 -0.4164203087251E+01 -0.8980910918564E+00  0.3667444268994E+00
-0.3122631885370E+00 -0.4132835187012E+01 -0.8890196883572E+00  0.3319354086397E+00
-0.3089638675652E+00 -0.4095089205379E+01 -0.8808106277139E+00  0.2966081820900E+00
-0.3152608293045E+00 -0.4051369777071E+01 -0.8733261342887E+00  0.2609752360838E+00
-0.3300824378980E+00 -0.4001838764069E+01 -0.8663842533035E+00  0.2252049022946E+00
-0.3523384463190E+00 -0.3946459987742E+01 -0.8597596996236E+00  0.1895346599778E+00
-0.3808453064217E+00 -0.3885060836855E+01 -0.8531812413688E+00  0.1543492087880E+00
-0.4142329277701E+00 -0.3817407186875E+01 -0.8463280355403E+00  0.1202244409831E+00
-0.4508525738942E+00 -0.3743281804525E+01 -0.8388268881834E+00  0.8793682194050E-01
-0.4887087592671E+00 -0.3662547631489E+01 -0.8302512905230E+00  0.5843933189178E-01
-0.5254233043568E+00 -0.3575231509897E+01 -0.8201309750717E+00  0.3280342512497E-01
-0.5582290215506E+00 -0.3481752900151E+01 -0.8079963963804E+00  0.1207487021472E-01
-0.5840416126934E+00 -0.3382944895534E+01 -0.7933973134679E+00 -0.2780887921337E-02
-0.5995739057298E+00 -0.3279748102750E+01 -0.7758644132573E+00 -0.1072653960243E-01
-0.6013801644080E+00 -0.3173079186793E+01 -0.7548918814889E+00 -0.1054399237198E-01
-0.5858334008213E+00 -0.3063895289053E+01 -0.7299457488519E+00 -0.8287605883740E-03
-0.5490674728565E+00 -0.2953321654026E+01 -0.7004778358144E+00  0.1994788659497E-01
-0.4869123482672E+00 -0.2842782075117E+01 -0.6659388946001E+00  0.5331600644693E-01
-0.3948520787341E+00 -0.2734104722229E+01 -0.6257913695177E+00  0.1006162409879E+00
-0.2680405872239E+00 -0.2629588337643E+01 -0.5795257936090E+00  0.1627335356396E+00
-0.1014163608682E+00 -0.2532006619663E+01 -0.5266846039545E+00  0.2397564706684E+00
 0.1100864456472E+00 -0.2444486691984E+01 -0.4668800562245E+00  0.3306090641587E+00
 0.3712700639073E+00 -0.2370249972801E+01 -0.3997959877361E+00  0.4327050525261E+00
 0.6861358713731E+00 -0.2312320663066E+01 -0.3252369631850E+00  0.5415623284512E+00
 0.1056977489196E+01 -0.2273070032474E+01 -0.2432185122798E+00  0.6505025558006E+00
 0.1483316195141E+01 -0.2253504243182E+01 -0.1540376119036E+00  0.7507130481452E+00
 0.1960798745279E+01 -0.2252473812572E+01 -0.5833501432785E-01  0.8317695528235E+00
 0.2480313433169E+01 -0.2266011423058E+01  0.4286040266081E-01  0.8827009147707E+00
 0.3027683552995E+01 -0.2287058564703E+01  0.1481249998656E+00  0.8935483916279E+00
 0.3584254164554E+01 -0.2305834079505E+01  0.2556840208198E+00  0.8571779247618E+00
 0.4128609799976E+01 -0.2311005686143E+01  0.3635208281834E+00  0.7708895071261E+00
 0.4639234244133E+01 -0.2291539084770E+01  0.4695390388693E+00  0.6371414022746E+00
-0.9810426141105E+00 -0.4136802278689E+01 -0.1023568993812E+01  0.4759023408967E+00
-0.8810271611398E+00 -0.4177327799282E+01 -0.1011671007160E+01  0.5061184410859E+00
-0.7771735320890E+00 -0.4214826126382E+01 -0.9983999465715E+00  0.5217028119518E+00
-0.6757236901519E+00 -0.4245907311374E+01 -0.9843262149729E+00  0.5227737600202E+00
-0.5821469751805E+00 -0.4267976409646E+01 -0.9700246914197E+00  0.5111534063108E+00
-0.5003210005504E+00 -0.4279660623138E+01 -0.9559963389831E+00  0.4896397469375E+00
-0.4323514949250E+00 -0.4280771513304E+01 -0.9426246156920E+00  0.4611991034634E+00
-0.3788578981610E+00 -0.4271965290656E+01 -0.9301646516239E+00  0.4283890791034E+00
-0.3394478165531E+00 -0.4254322288842E+01 -0.9187540347694E+00  0.3930981270954E+00
-0.3131708625898E+00 -0.4228995578918E+01 -0.9084333018383E+00  0.3565360987672E+00
-0.2988537491073E+00 -0.4196982719827E+01 -0.8991673071856E+00  0.3193653276802E+00
-0.2953007134423E+00 -0.4159011763855E+01 -0.8908625087343E+00  0.2818821815386E+00
-0.3013815137015E+00 -0.4115508954834E+01 -0.8833781068705E+00  0.2441960461060E+00
-0.3160374036782E+00 -0.4066617884649E+01 -0.8765310707267E+00  0.2063830713660E+00
-0.3382294815423E+00 -0.4012252196266E+01 -0.8700963485271E+00  0.1686087741284E+00
-0.3668515487918E+00 -0.3952163796883E+01 -0.8638030820065E+00  0.1312119583669E+00
-0.4006232895963E+00 -0.3886024157143E+01 -0.8573295021231E+00  0.9475146010623E-01
-0.4379847132003E+00 -0.3813509030278E+01 -0.8502987613662E+00  0.6001429135365E-01
-0.4770177493913E+00 -0.3734366832907E+01 -0.8422769290105E+00  0.2798552884613E-01
-0.5154057824892E+00 -0.3648508026408E+01 -0.8327827741888E+00 -0.2196253311835E-03
-0.5504280635211E+00 -0.3556253730953E+01 -0.8213363711337E+00 -0.2351411122234E-01
-0.5790448656505E+00 -0.3458355270348E+01 -0.8074800392320E+00 -0.4090059098070E-01
-0.5980295582807E+00 -0.3355651967217E+01 -0.7907363168824E+00 -0.5130929699817E-01
-0.6040167739543E+00 -0.3248919467669E+01 -0.7705872598073E+00 -0.5347263780398E-01
-0.5934683295257E+00 -0.3138937892369E+01 -0.7464812555024E+00 -0.4590395511521E-01
-0.5625926891429E+00 -0.3026635377715E+01 -0.7178456240683E+00 -0.2694718505511E-01
-0.5072491327060E+00 -0.2913240235526E+01 -0.6840978838403E+00  0.5107942638468E-02
-0.4228680823774E+00 -0.2800412572705E+01 -0.6446561406226E+00  0.5183664005797E-01
-0.3044239474145E+00 -0.2690341184550E+01 -0.5989530353181E+00  0.1144056227879E+00
-0.1465040343318E+00 -0.2585784140091E+01 -0.5464576430275E+00  0.1932121023689E+00
 0.5652479821890E-01 -0.2489981763648E+01 -0.4866914003381E+00  0.2874792925073E+00
 0.3102839255038E+00 -0.2406423320604E+01 -0.4192278852671E+00  0.3948551390784E+00
 0.6198467334648E+00 -0.2338578801306E+01 -0.3437464186905E+00  0.5109316150017E+00
 0.9887647231749E+00 -0.2289432926136E+01 -0.2601336444686E+00  0.6288139330145E+00
 0.1417845509380E+01 -0.2260687252293E+01 -0.1685683510945E+00  0.7390603037107E+00
 0.1903793722554E+01 -0.2251807435229E+01 -0.6960274357230E-01  0.8301345501885E+00
 0.2438005045404E+01 -0.2259142558916E+01  0.3577249783074E-01  0.8895150056282E+00
 0.3005947572845E+01 -0.2275443060948E+01  0.1461009045564E+00  0.9054532923716E+00
 0.3587566969581E+01 -0.2290094790507E+01  0.2594944396815E+00  0.8691569836904E+00
 0.4159114533958E+01 -0.2290369412180E+01  0.3737490299249E+00  0.7769044505661E+00
 0.4696527891015E+01 -0.2263766744771E+01  0.4865522364990E+00  0.6311771757250E+00
-0.9949819352117E+00 -0.4203416373158E+01 -0.1039679677166E+01  0.4915627328405E+00
-0.8896336075185E+00 -0.4245869375863E+01 -0.1027100611981E+01  0.5212757667235E+00
-0.7801209741410E+00 -0.4284940310976E+01 -0.1013012272119E+01  0.5349840641350E+00
-0.6734393870337E+00 -0.4316890840128E+01 -0.9980660603046E+00  0.5329892237438E+00
-0.5755896496997E+00 -0.4338974813543E+01 -0.9829129072951E+00  0.5175615570182E+00
-0.4906460329834E+00 -0.4349906184769E+01 -0.9681104579764E+00  0.4920081421551E+00
-0.4206281706856E+00 -0.4349749445557E+01 -0.9540755374654E+00  0.4597000374508E+00
-0.3659135136299E+00 -0.4339470791336E+01 -0.9410768750164E+00  0.4234276589741E+00
-0.3258303056279E+00 -0.4320432299233E+01 -0.9292525348190E+00  0.3851528306199E+00
-0.2991858762895E+00 -0.4293998884865E+01 -0.9186369659197E+00  0.3460479104202E+00
-0.2846334449053E+00 -0.4261303047625E+01 -0.9091873120540E+00  0.3066774521573E+00
-0.2808770825005E+00 -0.4223141251938E+01 -0.9008036803108E+00  0.2672173962108E+00
-0.2867517796086E+00 -0.4179956020531E+01 -0.8933415733398E+00  0.2276574234603E+00
-0.3012176855202E+00 -0.4131867032260E+01 -0.8866169567676E+00  0.1879681624897E+00
-0.3232960017880E+00 -0.4078732061546E+01 -0.8804056257859E+00  0.1482321004430E+00
-0.3519685467217E+00 -0.4020221391178E+01 -0.8744380006100E+00  0.1087330484159E+00
-0.3860562018591E+00 -0.3955905214900E+01 -0.8683922962919E+00  0.7000589127833E-01
-0.4240981553599E+00 -0.3885344960102E+01 -0.8618886359355E+00  0.3284362322633E-01
-0.4642613764574E+00 -0.3808167486565E+01 -0.8544857853373E+00 -0.1739510383583E-02
-0.5042947757704E+00 -0.3724160730063E+01 -0.8456911137685E+00 -0.3258742734812E-01
-0.5415249354196E+00 -0.3633543033872E+01 -0.8350136063010E+00 -0.5857593571313E-01
-0.5729572580506E+00 -0.3536980915932E+01 -0.8219876470451E+00 -0.7868253542160E-01
-0.5954299096161E+00 -0.3435208151605E+01 -0.8061276242564E+00 -0.9181503041545E-01
-0.6056686963564E+00 -0.3328851107112E+01 -0.7869039724196E+00 -0.9666807378437E-01
-0.6002424438665E+00 -0.3218499155184E+01 -0.7637483311908E+00 -0.9168330449691E-01
-0.5754591648385E+00 -0.3104863582145E+01 -0.7360645603650E+00 -0.7508339149047E-01
-0.5272375896100E+00 -0.2988951143543E+01 -0.7032377571096E+00 -0.4497647760750E-01
-0.4509875224911E+00 -0.2872221239194E+01 -0.6646417622409E+00  0.4594350229233E-03
-0.3415358566305E+00 -0.2756714061586E+01 -0.6196499928768E+00  0.6270016292876E-01
-0.1931427072595E+00 -0.2645130226663E+01 -0.5676545952431E+00  0.1424988928838E+00
 0.3880183324458E-03 -0.2540784429247E+01 -0.5080792897539E+00  0.2394495902553E+00
 0.2455294757901E+00 -0.2447408311322E+01 -0.4403757736685E+00  0.3515310530846E+00
 0.5485182612571E+00 -0.2368922462407E+01 -0.3640808456552E+00  0.4745224158472E+00
 0.9143315720612E+00 -0.2308978404455E+01 -0.2789293706352E+00  0.6014176185432E+00
 0.1345308439101E+01 -0.2270082771365E+01 -0.1849548692089E+00  0.7222028691920E+00
 0.1839505170141E+01 -0.2252467933060E+01 -0.8259255381455E-01  0.8241914018528E+00
 0.2389091009544E+01 -0.2252950773640E+01  0.2722804758657E-01  0.8931371402676E+00
 0.2979338566880E+01 -0.2264168422967E+01  0.1430340309139E+00  0.9152055876704E+00
 0.3588699268159E+01 -0.2274652282119E+01  0.2628094011241E+00  0.8795376800108E+00
 0.4190657250403E+01 -0.2269963237288E+01  0.3841388083471E+00  0.7810631733284E+00
 0.4757930958180E+01 -0.2235840605404E+01  0.5044180780715E+00  0.6223679238708E+00
-0.1009006036220E+01 -0.4271408564429E+01 -0.1056082935867E+01  0.5080221841199E+00
-0.8978061710159E+00 -0.4315943036545E+01 -0.1042749857050E+01  0.5371707333449E+00
-0.7821169878609E+00 -0.4356656160633E+01 -0.1027754645014E+01  0.5487778676577E+00
-0.6698255306015E+00 -0.4389404727261E+01 -0.1011846066650E+01  0.5433856803958E+00
-0.5675277902893E+00 -0.4411292183385E+01 -0.9957640095730E+00  0.5238142736693E+00
-0.4794767280298E+00 -0.4421170721537E+01 -0.9801295045185E+00  0.4939665114520E+00
-0.4075421603741E+00 -0.4419426535293E+01 -0.9653937535190E+00  0.4576594999799E+00
-0.3517898843142E+00 -0.4407392876239E+01 -0.9518365662940E+00  0.4179154505405E+00
-0.3112157192457E+00 -0.4386747140003E+01 -0.9395925858509E+00  0.3767445745708E+00
-0.2843533740214E+00 -0.4359078593420E+01 -0.9286864073269E+00  0.3352501652436E+00
-0.2696687044383E+00 -0.4325654190098E+01 -0.9190645926024E+00  0.2938706622429E+00
-0.2657628270000E+00 -0.4287332845155E+01 -0.9106191480002E+00  0.2526394676119E+00
-0.2714393374676E+00 -0.4244566516160E+01 -0.9032011841843E+00  0.2114098780566E+00
-0.2856841438229E+00 -0.4197444974817E+01 -0.8966258370888E+00  0.1700338484448E+00
-0.3075878687824E+00 -0.4145764819657E+01 -0.8906705509600E+00  0.1284997513732E+00
-0.3362316185335E+00 -0.4089109185779E+01 -0.8850681740510E+00  0.8702699161149E-01
-0.3705497140779E+00 -0.4026940593240E+01 -0.8794980745691E+00  0.4611920238222E-01
-0.4091918220163E+00 -0.3958699046783E+01 -0.8735781867772E+00  0.6570619230980E-02
-0.4504180341605E+00 -0.3883882942460E+01 -0.8668602082413E+00 -0.3057807874365E-01
-0.4920463987533E+00 -0.3802151846103E+01 -0.8588396617690E+00 -0.6413245053972E-01
-0.5314505635445E+00 -0.3713617486731E+01 -0.8490136227064E+00 -0.9293519634213E-01
-0.5656801415993E+00 -0.3618859415683E+01 -0.8369079239274E+00 -0.1159458300090E+00
-0.5916412817908E+00 -0.3518502616793E+01 -0.8220287919660E+00 -0.1320610322702E+00
-0.6061616713914E+00 -0.3413016870309E+01 -0.8038357203181E+00 -0.1399514566247E+00
-0.6059364522057E+00 -0.3302787833485E+01 -0.7817448687870E+00 -0.1380000504529E+00
-0.5874005098861E+00 -0.3188290632656E+01 -0.7551382397609E+00 -0.1243172957438E+00
-0.5465660492100E+00 -0.3070284138686E+01 -0.7233700483583E+00 -0.9683194825244E-01
-0.4788612133371E+00 -0.2949992714023E+01 -0.6857707956908E+00 -0.5346710656092E-01
-0.3790061730877E+00 -0.2829265065305E+01 -0.6416542572399E+00  0.7585421055434E-02
-0.2409700599731E+00 -0.2710694603077E+01 -0.5903329414067E+00  0.8747961623065E-01
-0.5801336021810E-01 -0.2597619224801E+01 -0.5311265249183E+00  0.1862533750378E+00
 0.1772059379045E+00 -0.2493971345488E+01 -0.4633530884211E+00  0.3023222741701E+00
 0.4721691031456E+00 -0.2404110489004E+01 -0.3863882829292E+00  0.4317858399242E+00
 0.8334522025830E+00 -0.2332398347848E+01 -0.2997892335202E+00  0.5676630611249E+00
 0.1265202524813E+01 -0.2282261010809E+01 -0.2034117002301E+00  0.6994614688683E+00
 0.1767180263082E+01 -0.2254874818772E+01 -0.9753891259133E-01  0.8133310934948E+00
 0.2332688681294E+01 -0.2247715441770E+01  0.1699464815795E-01  0.8931288419739E+00
 0.2946999405261E+01 -0.2253432996320E+01  0.1387132838553E+00  0.9225771780734E+00
 0.3587161811028E+01 -0.2259650441941E+01  0.2655022777736E+00  0.8883378723160E+00
 0.4223137413957E+01 -0.2250120592128E+01  0.3946033702458E+00  0.7832772816523E+00
 0.4823533899606E+01 -0.2207527769664E+01  0.5232012337848E+00  0.6106347335731E+00
-0.1023123592932E+01 -0.4340943713081E+01 -0.1072813477189E+01  0.5253534383544E+00
-0.9054861111239E+00 -0.4387724898478E+01 -0.1058642217695E+01  0.5538579465968E+00
-0.7830430407350E+00 -0.4430140290914E+01 -0.1042636681866E+01  0.5630882954510E+00
-0.6647406376868E+00 -0.4463573741447E+01 -0.1025662891110E+01  0.5539040728221E+00
-0.5578386213982E+00 -0.4484988239551E+01 -0.1008565387219E+01  0.5298036093641E+00
-0.4667348424621E+00 -0.4493443791834E+01 -0.9920357416417E+00  0.4953860832710E+00
-0.3930660078852E+00 -0.4489732726697E+01 -0.9765597614683E+00  0.4549549018638E+00
-0.3365032226412E+00 -0.4475619312432E+01 -0.9624245213560E+00  0.4117537411815E+00
-0.2956516673339E+00 -0.4453129063656E+01 -0.9497561603505E+00  0.3678063077869E+00
-0.2687403907687E+00 -0.4424083645724E+01 -0.9385648212842E+00  0.3241085539627E+00
-0.2540364567754E+00 -0.4389879215823E+01 -0.9287831483597E+00  0.2809413763214E+00
-0.2500376938785E+00 -0.4351427798181E+01 -0.9202931121253E+00  0.2381728893617E+00
-0.2555213088588E+00 -0.4309182319518E+01 -0.9129407392792E+00  0.1955038004374E+00
-0.2695066437591E+00 -0.4263196482770E+01 -0.9065406388142E+00  0.1526548351671E+00
-0.2911634587836E+00 -0.4213201117111E+01 -0.9008729286029E+00  0.1095093516110E+00
-0.3196838922773E+00 -0.4158687654354E+01 -0.8956743226728E+00  0.6621261605443E-01
-0.3541287726818E+00 -0.4099005267022E+01 -0.8906268212122E+00  0.2322917146651E-01
-0.3932705598039E+00 -0.4033465739772E+01 -0.8853472731078E+00 -0.1865055010925E-01
-0.4354711779844E+00 -0.3961432174672E+01 -0.8793806836350E+00 -0.5836198240200E-01
-0.4786210831808E+00 -0.3882430138395E+01 -0.8722102573121E+00 -0.9467436862322E-01
-0.5201393469636E+00 -0.3796461481774E+01 -0.8633201786119E+00 -0.1264010222065E+00
-0.5571170347185E+00 -0.3704017537831E+01 -0.8522269272092E+00 -0.1524910004790E+00
-0.5865300397503E+00 -0.3605612379002E+01 -0.8384284962441E+00 -0.1718424515891E+00
-0.6053182598486E+00 -0.3501553045260E+01 -0.8213742732612E+00 -0.1831178673527E+00
-0.6103233196546E+00 -0.3392009623759E+01 -0.8004666006107E+00 -0.1846571547397E+00
-0.5981363893901E+00 -0.3277202793411E+01 -0.7750678481096E+00 -0.1744708935522E+00
-0.5649006880854E+00 -0.3157617813042E+01 -0.7445037113194E+00 -0.1503146752765E+00
-0.5061072924540E+00 -0.3034209021297E+01 -0.7080632733012E+00 -0.1098536158424E+00
-0.4164193621809E+00 -0.2908587455207E+01 -0.6650013733869E+00 -0.5092956421335E-01
-0.2895645969236E+00 -0.2783181968826E+01 -0.6145493223075E+00  0.2805220586754E-01
-0.1182976591859E+00 -0.2661289195783E+01 -0.5559173792775E+00  0.1276455898236E+00
 0.1055887457081E+00 -0.2546981448748E+01 -0.4882785478840E+00  0.2468160713427E+00
 0.3908852067403E+00 -0.2445023592147E+01 -0.4108276832032E+00  0.3821372493386E+00
 0.7459389436622E+00 -0.2360513862515E+01 -0.3229149885824E+00  0.5268254525816E+00
 0.1177010353211E+01 -0.2297911668226E+01 -0.2241802663436E+00  0.6700491617703E+00
 0.1685989054459E+01 -0.2259539455331E+01 -0.1147100818837E+00  0.7968231976036E+00
 0.2267758345118E+01 -0.2243775065802E+01  0.4796655934661E-02  0.8889410454055E+00
 0.2907965969664E+01 -0.2243454778923E+01  0.1329022401286E+00  0.9272864736788E+00
 0.3582065308768E+01 -0.2245280458458E+01  0.2673569740458E+00  0.8954710724422E+00
 0.4257246900364E+01 -0.2230927237242E+01  0.4052639386633E+00  0.7838175666297E+00
 0.4891332109746E+01 -0.2179133510215E+01  0.5424397279891E+00  0.5949685052101E+00
-0.1037339111032E+01 -0.4412219688424E+01 -0.1089911776132E+01  0.5436340615129E+00
-0.9126008045308E+00 -0.4461448365142E+01 -0.1074809849950E+01  0.5713987488183E+00
-0.7827524639158E+00 -0.4505629818684E+01 -0.1057676472281E+01  0.5779146947460E+00
-0.6580117759151E+00 -0.4539599956681E+01 -0.1039522362009E+01  0.5644683894422E+00
-0.5463716358482E+00 -0.4560202767750E+01 -0.1021314895938E+01  0.5353963700134E+00
-0.4523204282266E+00 -0.4566799147525E+01 -0.1003823930108E+01  0.4961103390296E+00
-0.3771543010246E+00 -0.4560690372031E+01 -0.9875689493270E+00  0.4514366126659E+00
-0.3200519915711E+00 -0.4544142413992E+01 -0.9728388956090E+00  0.4048176211332E+00
-0.2791653778369E+00 -0.4519559443206E+01 -0.9597449785100E+00  0.3582440249855E+00
-0.2523893284350E+00 -0.4488997806990E+01 -0.9482774412155E+00  0.3125591489619E+00
-0.2377840080803E+00 -0.4453972305018E+01 -0.9383512766022E+00  0.2678522592037E+00
-0.2337464622183E+00 -0.4415435487544E+01 -0.9298364038082E+00  0.2238033591090E+00
-0.2390341876900E+00 -0.4373831722697E+01 -0.9225731958249E+00  0.1799452087547E+00
-0.2527083623570E+00 -0.4329173070792E+01 -0.9163763002848E+00  0.1358554172522E+00
-0.2740279942985E+00 -0.4281121488168E+01 -0.9110299100688E+00  0.9130136539081E-01
-0.3023087363675E+00 -0.4229073738784E+01 -0.9062765085349E+00  0.4634360773768E-01
-0.3367524710558E+00 -0.4172260989426E+01 -0.9018027055343E+00  0.1398572769490E-02
-0.3762687760671E+00 -0.4109860162309E+01 -0.8972258010449E+00 -0.4275300107069E-01
-0.4193318171663E+00 -0.4041091783409E+01 -0.8920847334081E+00 -0.8502525847957E-01
-0.4639081533855E+00 -0.3965341278283E+01 -0.8858498995340E+00 -0.1241526699160E+00
-0.5074596202068E+00 -0.3882497210359E+01 -0.8779913791963E+00 -0.1589225196386E+00
-0.5471144072932E+00 -0.3792961771290E+01 -0.8680152486511E+00 -0.1882813384196E+00
-0.5799189416467E+00 -0.3697136406461E+01 -0.8554110823681E+00 -0.2111428651219E+00
-0.6029361839769E+00 -0.3595159324873E+01 -0.8396191142813E+00 -0.2261796400100E+00
-0.6131766105166E+00 -0.3486972846775E+01 -0.8200299036777E+00 -0.2317069134937E+00
-0.6074207267899E+00 -0.3372524245965E+01 -0.7959890064121E+00 -0.2256506004956E+00
-0.5819853006279E+00 -0.3251998248616E+01 -0.7667967212750E+00 -0.2056027739837E+00
-0.5324757783975E+00 -0.3126041676085E+01 -0.7317035017997E+00 -0.1689716786172E+00
-0.4535578350395E+00 -0.2995976415068E+01 -0.6899068603020E+00 -0.1132363437414E+00
-0.3387813575358E+00 -0.2863999350135E+01 -0.6405561510793E+00 -0.3632505358902E-01
-0.1804513643452E+00 -0.2733284710763E+01 -0.5827472237053E+00  0.6290496041489E-01
 0.3048035558124E-01 -0.2607960080872E+01 -0.5154959527397E+00  0.1840926517044E+00
 0.3041633935442E+00 -0.2493134379685E+01 -0.4377942037517E+00  0.3244658014756E+00
 0.6508940424172E+00 -0.2394647273080E+01 -0.3487506513294E+00  0.4776565321317E+00
 0.1079398643347E+01 -0.2318105109562E+01 -0.2477412969345E+00  0.6326937188668E+00
 0.1594220617311E+01 -0.2267215632848E+01 -0.1345990051131E+00  0.7735370437074E+00
 0.2192444166268E+01 -0.2241573506962E+01 -0.9825868285262E-02  0.8797538539443E+00
 0.2860535126218E+01 -0.2234466756882E+01  0.1252136757330E+00  0.9289232468473E+00
 0.3572690187129E+01 -0.2231667807633E+01  0.2682044798957E+00  0.9008033253322E+00
 0.4291665820635E+01 -0.2212433411020E+01  0.4158464881195E+00  0.7828750192097E+00
 0.4971869204761E+01 -0.2150346397204E+01  0.5643045699201E+00  0.5721756766943E+00
-0.1051673556264E+01 -0.4485471634045E+01 -0.1107429054564E+01  0.5629654618320E+00
-0.9190655358865E+00 -0.4537364695221E+01 -0.1091286062483E+01  0.5898600246366E+00
-0.7810788645256E+00 -0.4583354520096E+01 -0.1072886692912E+01  0.5932443035916E+00
-0.6494512660045E+00 -0.4617641527822E+01 -0.1053418574463E+01  0.5749739565354E+00
-0.5329786593476E+00 -0.4636992682302E+01 -0.1033994283738E+01  0.5404262141741E+00
-0.4361542850708E+00 -0.4641195059149E+01 -0.1015469883976E+01  0.4959571168255E+00
-0.3597960115862E+00 -0.4632183447567E+01 -0.9983959067079E+00  0.4469434299266E+00
-0.3024767236748E+00 -0.4612801102921E+01 -0.9830555799679E+00  0.3969857433144E+00
-0.2618297334767E+00 -0.4585855278636E+01 -0.9695370168698E+00  0.3479805787662E+00
-0.2353900799722E+00 -0.4553630099386E+01 -0.9578040501440E+00  0.3005658150984E+00
-0.2210079355777E+00 -0.4517740918457E+01 -0.9477497849296E+00  0.2546030685362E+00
-0.2169857412187E+00 -0.4479163807630E+01 -0.9392299237654E+00  0.2095624360603E+00
-0.2220697854366E+00 -0.4438323485374E+01 -0.9320786680511E+00  0.1647952928696E+00
-0.2353718740728E+00 -0.4395185330774E+01 -0.9261114547696E+00  0.1197258026672E+00
-0.2562501178606E+00 -0.4349341100113E+01 -0.9211182573205E+00  0.7399495597580E-01
-0.2841561457067E+00 -0.4300092038103E+01 -0.9168496504241E+00  0.2756745269427E-01
-0.3184482866846E+00 -0.4246548261380E+01 -0.9129993232177E+00 -0.1919866548860E-01
-0.3581891810346E+00 -0.4187745862904E+01 -0.9091870223357E+00 -0.6553930001087E-01
-0.4019770768167E+00 -0.4122755476418E+01 -0.9049465241317E+00 -0.1103500764812E+00
-0.4478584411957E+00 -0.4050816182053E+01 -0.8997349380568E+00 -0.1523315864393E+00
-0.4933335020637E+00 -0.3971700186293E+01 -0.8930067509782E+00 -0.1902477159427E+00
-0.5355603466861E+00 -0.3885720403376E+01 -0.8842561631890E+00 -0.2230505873197E+00
-0.5716543404572E+00 -0.3793165080682E+01 -0.8729638972359E+00 -0.2496852399737E+00
-0.5988114795508E+00 -0.3693998867353E+01 -0.8585620821743E+00 -0.2688550816179E+00
-0.6142341402070E+00 -0.3587925816390E+01 -0.8404320038429E+00 -0.2788722468972E+00
-0.6149271213620E+00 -0.3474603062877E+01 -0.8179060490355E+00 -0.2775969977000E+00
-0.5974264052739E+00 -0.3353890434735E+01 -0.7902633797777E+00 -0.2624725726699E+00
-0.5575084880319E+00 -0.3226091659886E+01 -0.7567200408596E+00 -0.2306585669390E+00
-0.4899104080157E+00 -0.3092187325264E+01 -0.7164195573314E+00 -0.1792677697043E+00
-0.3880839558545E+00 -0.2954068779990E+01 -0.6684305571293E+00 -0.1057259314300E+00
-0.2439659998729E+00 -0.2814691710380E+01 -0.6117315511661E+00 -0.8237129680301E-02
-0.4772616015422E-01 -0.2678127905511E+01 -0.5451708212567E+00  0.1136355034562E+00
 0.2121570242939E+00 -0.2549732011492E+01 -0.4675150044062E+00  0.2579746294485E+00
 0.5480849163201E+00 -0.2436051295780E+01 -0.3775932815185E+00  0.4190960531767E+00
 0.9716219530651E+00 -0.2343931693463E+01 -0.2744619521695E+00  0.5861677226399E+00
 0.1490587207680E+01 -0.2278725362402E+01 -0.1576276332932E+00  0.7422613289237E+00
 0.2105042290509E+01 -0.2241638693135E+01 -0.2731928093218E-01  0.8646098599580E+00
 0.2803013863233E+01 -0.2226770290430E+01  0.1152487162779E+00  0.9269394348182E+00
 0.3557545684878E+01 -0.2219114756619E+01  0.2676861896405E+00  0.9043425706784E+00
 0.4327088999452E+01 -0.2194681602630E+01  0.4264814857195E+00  0.7796368638703E+00
 0.5062551962352E+01 -0.2124910748708E+01  0.5875282514837E+00  0.5474034652385E+00
-0.1066125427373E+01 -0.4560969738170E+01 -0.1125419049879E+01  0.5834445632258E+00
-0.9247516672549E+00 -0.4615743343731E+01 -0.1108099018709E+01  0.6092954322245E+00
-0.7777959876174E+00 -0.4663532833864E+01 -0.1088265780513E+01  0.6090235115934E+00
-0.6388234153391E+00 -0.4697803728947E+01 -0.1067325444762E+01  0.5852548135814E+00
-0.5174909127879E+00 -0.4715320120361E+01 -0.1046562222225E+01  0.5446628690834E+00
-0.4181649845114E+00 -0.4716463471475E+01 -0.1026925706500E+01  0.4946932900068E+00
-0.3410085427016E+00 -0.4703950795062E+01 -0.1008991882588E+01  0.4412827083778E+00
-0.2838585943301E+00 -0.4681279185555E+01 -0.9930275707743E+00  0.3881237983519E+00
-0.2437649939153E+00 -0.4651671884211E+01 -0.9790873902148E+00  0.3369400147949E+00
-0.2178844349289E+00 -0.4617620653084E+01 -0.9671010320136E+00  0.2881033661552E+00
-0.2038612192568E+00 -0.4580813553876E+01 -0.9569349688860E+00  0.2412111610522E+00
-0.1999141371488E+00 -0.4542227762565E+01 -0.9484283940754E+00  0.1955043703573E+00
-0.2047888943208E+00 -0.4502255364608E+01 -0.9414088658139E+00  0.1501428877002E+00
-0.2176568275250E+00 -0.4460810614940E+01 -0.9356935024359E+00  0.1043898896518E+00
-0.2379840300221E+00 -0.4417415897037E+01 -0.9310799992860E+00  0.5775110400193E-01
-0.2653695608936E+00 -0.4371278823814E+01 -0.9273296907598E+00  0.1008430533903E-01
-0.2993434328544E+00 -0.4321387727123E+01 -0.9241462457663E+00 -0.3832211025966E-01
-0.3391381260585E+00 -0.4266633133245E+01 -0.9211542655870E+00 -0.8672867894250E-01
-0.3834886419607E+00 -0.4205928771673E+01 -0.9178834964043E+00 -0.1340153913249E+00
-0.4305244548976E+00 -0.4138361316167E+01 -0.9137771678292E+00 -0.1788489760826E+00
-0.4777770120262E+00 -0.4063584131634E+01 -0.9082722422664E+00 -0.2199715213835E+00
-0.5224231321345E+00 -0.3981822048543E+01 -0.9008490495592E+00 -0.2563486540788E+00
-0.5616418227199E+00 -0.3893251626808E+01 -0.8909787031822E+00 -0.2869734465687E+00
-0.5927695651995E+00 -0.3797662128766E+01 -0.8780863518775E+00 -0.3106029351321E+00
-0.6132222522651E+00 -0.3694512927288E+01 -0.8615470487487E+00 -0.3255702341597E+00
-0.6202630806705E+00 -0.3583159934730E+01 -0.8406846156073E+00 -0.3296925455116E+00
-0.6106926501664E+00 -0.3463120805314E+01 -0.8147627032369E+00 -0.3202847399369E+00
-0.5805167540786E+00 -0.3334328097163E+01 -0.7829689819154E+00 -0.2942754764208E+00
-0.5246188668814E+00 -0.3197374579286E+01 -0.7443987003259E+00 -0.2484222500720E+00
-0.4364476035045E+00 -0.3053772604159E+01 -0.6980440519344E+00 -0.1796416950021E+00
-0.3076824399070E+00 -0.2906152597945E+01 -0.6427670171484E+00 -0.8544087769061E-01
-0.1278166315335E+00 -0.2758392125837E+01 -0.5772417600756E+00  0.3552463260566E-01
 0.1159937885815E+00 -0.2615946736031E+01 -0.4999905969404E+00  0.1823970375054E+00
 0.4383495894591E+00 -0.2485977671095E+01 -0.4095256224297E+00  0.3504840384910E+00
 0.8540001151638E+00 -0.2376611005599E+01 -0.3045221826247E+00  0.5294590592392E+00
 0.1374715683113E+01 -0.2295096170354E+01 -0.1840761001912E+00  0.7017985691179E+00
 0.2004502489460E+01 -0.2244711533747E+01 -0.4804180957323E-01  0.8423936116211E+00
 0.2733904800314E+01 -0.2220893987951E+01  0.1026021640016E+00  0.9206109544592E+00
 0.3535364908246E+01 -0.2208013963191E+01  0.2654701929667E+00  0.9056954607234E+00
 0.4362862516397E+01 -0.2179070015866E+01  0.4367585066144E+00  0.7747127315029E+00
 0.5159812547342E+01 -0.2101205747900E+01  0.6117213690037E+00  0.5202599820413E+00
-0.1080699650494E+01 -0.4639050376168E+01 -0.1143950022379E+01  0.6051893702567E+00
-0.9295066683206E+00 -0.4696941278816E+01 -0.1125289606195E+01  0.6297678132872E+00
-0.7726367385676E+00 -0.4746472268617E+01 -0.1103821817885E+01  0.6251824016351E+00
-0.6258582011828E+00 -0.4780267109741E+01 -0.1081225078296E+01  0.5951074877551E+00
-0.4997238504206E+00 -0.4795208626443E+01 -0.1058986511153E+01  0.5478346640730E+00
-0.3982799011193E+00 -0.4792496056765E+01 -0.1038155207047E+01  0.4920533360788E+00
-0.3208121796811E+00 -0.4775802644918E+01 -0.1019322980109E+01  0.4342406783523E+00
-0.2642772319648E+00 -0.4749351276173E+01 -0.1002725716569E+01  0.3780829843544E+00
-0.2250814467066E+00 -0.4716776854199E+01 -0.9883716749089E+00  0.3250324158357E+00
-0.1999951331355E+00 -0.4680742373329E+01 -0.9761475158386E+00  0.2751285513504E+00
-0.1864695704492E+00 -0.4642970309947E+01 -0.9658879904720E+00  0.2276690758083E+00
-0.1826559337831E+00 -0.4604411588356E+01 -0.9574135186944E+00  0.1816506563516E+00
-0.1873118656061E+00 -0.4565411635410E+01 -0.9505447143674E+00  0.1360358002827E+00
-0.1996768491974E+00 -0.4525830675371E+01 -0.9451015189968E+00  0.8992232703229E-01
-0.2193324839717E+00 -0.4485125690997E+01 -0.9408916490141E+00  0.4267335612297E-01
-0.2460355509017E+00 -0.4442416263842E+01 -0.9376903769214E+00 -0.5971702771077E-02
-0.2795031892747E+00 -0.4396571239059E+01 -0.9352148996026E+00 -0.5580718091262E-01
-0.3191563673451E+00 -0.4346332215596E+01 -0.9330977304925E+00 -0.1061282183608E+00
-0.3638817872674E+00 -0.4290448757687E+01 -0.9308661228618E+00 -0.1558027346533E+00
-0.4118955740799E+00 -0.4227848218090E+01 -0.9279487722615E+00 -0.2034626992067E+00
-0.4607509927332E+00 -0.4158062145503E+01 -0.9237626414124E+00 -0.2478285760645E+00
-0.5076285298216E+00 -0.4081228673214E+01 -0.9177714542831E+00 -0.2878869123438E+00
-0.5497621295013E+00 -0.3997415009201E+01 -0.9094354412921E+00 -0.3226965444390E+00
-0.5846345488386E+00 -0.3906234633244E+01 -0.8981738498004E+00 -0.3510927203163E+00
-0.6098966180724E+00 -0.3806898352850E+01 -0.8833590073476E+00 -0.3714556046972E+00
-0.6231043019401E+00 -0.3698454026967E+01 -0.8643116786606E+00 -0.3815843497410E+00
-0.6213684182873E+00 -0.3580065989021E+01 -0.8402868939830E+00 -0.3786900607410E+00
-0.6009832210874E+00 -0.3451274809086E+01 -0.8104516181113E+00 -0.3594958413783E+00
-0.5570579376618E+00 -0.3312245314769E+01 -0.7738606620175E+00 -0.3204277237948E+00
-0.4831450815692E+00 -0.3164039255453E+01 -0.7294368782739E+00 -0.2579052919707E+00
-0.3708035949863E+00 -0.3008846705126E+01 -0.6759300700946E+00 -0.1687171080902E+00
-0.2090018945387E+00 -0.2850186684865E+01 -0.6118377249979E+00 -0.5052064645951E-01
 0.1631174158978E-01 -0.2693421258652E+01 -0.5354219113909E+00  0.9708921425930E-01
 0.3219617357935E+00 -0.2546161513716E+01 -0.4448399622132E+00  0.2707586197240E+00
 0.7261929740937E+00 -0.2417784838200E+01 -0.3383183778625E+00  0.4611313381773E+00
 0.1245468580213E+01 -0.2317666917057E+01 -0.2144396705643E+00  0.6505329255532E+00
 0.1888921485939E+01 -0.2251700897213E+01 -0.7255588333598E-01  0.8116586391257E+00
 0.2650961782321E+01 -0.2217347181615E+01  0.8672292143346E-01  0.9090043129066E+00
 0.3504318826234E+01 -0.2198854588435E+01  0.2610928514504E+00  0.9046734798221E+00
 0.4397970398433E+01 -0.2165936128180E+01  0.4464068607026E+00  0.7685183826272E+00
 0.5264547466830E+01 -0.2079527763690E+01  0.6370039501200E+00  0.4900436405242E+00
-0.1095397802450E+01 -0.4720125765124E+01 -0.1163104730846E+01  0.6283364861482E+00
-0.9331335756953E+00 -0.4781391714120E+01 -0.1142905074994E+01  0.6513385346581E+00
-0.7652710142021E+00 -0.4832532465842E+01 -0.1119560712692E+01  0.6416103341310E+00
-0.6102405546990E+00 -0.4865220700199E+01 -0.1095092267298E+01  0.6042617279624E+00
-0.4794815382853E+00 -0.4876651329594E+01 -0.1071226589538E+01  0.5496051827781E+00
-0.3764409488038E+00 -0.4869135595408E+01 -0.1049115324475E+01  0.4877272107453E+00
-0.2992525472903E+00 -0.4847500833195E+01 -0.1029350691436E+01  0.4255812817574E+00
-0.2438374258192E+00 -0.4816753541416E+01 -0.1012118208529E+01  0.3667075690828E+00
-0.2059098454470E+00 -0.4780910613605E+01 -0.9973641066722E+00  0.3121683821447E+00
-0.1818604165718E+00 -0.4742749715774E+01 -0.9849220411457E+00  0.2616005747233E+00
-0.1689707389526E+00 -0.4703978063836E+01 -0.9745897750802E+00  0.2139708638050E+00
-0.1653458478148E+00 -0.4665488307315E+01 -0.9661668454230E+00  0.1680223451160E+00
-0.1697694886729E+00 -0.4627564703954E+01 -0.9594668528226E+00  0.1225196444520E+00
-0.1815570756340E+00 -0.4590012720133E+01 -0.9543139733738E+00  0.7639487098516E-01
-0.2004111176406E+00 -0.4552231891755E+01 -0.9505286160431E+00  0.2886325979756E-01
-0.2262544197148E+00 -0.4513264172797E+01 -0.9479037326273E+00 -0.2046586662720E-01
-0.2590063878652E+00 -0.4471865366839E+01 -0.9461743650399E+00 -0.7148497728022E-01
-0.2982971867275E+00 -0.4426626845813E+01 -0.9449848205895E+00 -0.1235366414236E+00
-0.3431832128974E+00 -0.4376126471588E+01 -0.9438619509616E+00 -0.1754816262563E+00
-0.3919720732158E+00 -0.4319123937130E+01 -0.9422192161092E+00 -0.2259153877592E+00
-0.4422271411726E+00 -0.4255024768196E+01 -0.9394503958727E+00 -0.2735351418653E+00
-0.4911129794112E+00 -0.4183881323378E+01 -0.9349988744903E+00 -0.3173549292511E+00
-0.5359057841398E+00 -0.4105654082013E+01 -0.9283119870636E+00 -0.3565178709169E+00
-0.5742385041173E+00 -0.4019781481169E+01 -0.9188040107485E+00 -0.3899635024874E+00
-0.6040180118399E+00 -0.3925224592381E+01 -0.9058485343423E+00 -0.4161464284238E+00
-0.6231271754763E+00 -0.3820721535881E+01 -0.8887697555151E+00 -0.4328742803901E+00
-0.6290315519297E+00 -0.3705080059839E+01 -0.8668223352705E+00 -0.4372822926946E+00
-0.6183716610575E+00 -0.3577437989965E+01 -0.8391619427090E+00 -0.4259207359183E+00
-0.5865628607126E+00 -0.3437502541694E+01 -0.8048130924739E+00 -0.3949218373360E+00
-0.5273774035294E+00 -0.3285820414092E+01 -0.7626395748886E+00 -0.3402421957777E+00
-0.4324149002113E+00 -0.3124023703899E+01 -0.7112877314210E+00 -0.2579598688639E+00
-0.2903196378991E+00 -0.2955086572249E+01 -0.6490812517017E+00 -0.1446748741889E+00
-0.8602634535232E-01 -0.2784030715890E+01 -0.5740114208019E+00  0.1466881405706E-02
 0.1994371041351E+00 -0.2618665743345E+01 -0.4838457350519E+00  0.1788216914268E+00
 0.5880436369736E+00 -0.2469487447622E+01 -0.3762887677367E+00  0.3795707132821E+00
 0.1101719344144E+01 -0.2348163807345E+01 -0.2492888963548E+00  0.5865268009239E+00
 0.1756149866096E+01 -0.2263801094995E+01 -0.1015302472927E+00  0.7705574907152E+00
 0.2551436863562E+01 -0.2216810707928E+01  0.6692523212399E-01  0.8908810520042E+00
 0.3461971715168E+01 -0.2192057251201E+01  0.2539828965780E+00  0.9009729073381E+00
 0.4431236684293E+01 -0.2155581052492E+01  0.4551311331423E+00  0.7613150557953E+00
 0.5378123065356E+01 -0.2059923746229E+01  0.6636398737143E+00  0.4561456985345E+00
-0.1110215837411E+01 -0.4804706469649E+01 -0.1182984479040E+01  0.6530455812817E+00
-0.9353758595485E+00 -0.4869624949883E+01 -0.1161000179187E+01  0.6740632308487E+00
-0.7552893121653E+00 -0.4922133299906E+01 -0.1135484539334E+01  0.6581385742882E+00
-0.5916054004612E+00 -0.4952853763104E+01 -0.1108891849237E+01  0.6123598406704E+00
-0.4565628894234E+00 -0.4959593832886E+01 -0.1083231360603E+01  0.5495603849413E+00
-0.3526146223137E+00 -0.4946160021222E+01 -0.1059754944499E+01  0.4813574954183E+00
-0.2764086950466E+00 -0.4918748866431E+01 -0.1039031527778E+01  0.4150494164023E+00
-0.2226736188716E+00 -0.4883179532120E+01 -0.1021170645415E+01  0.3538398114071E+00
-0.1864030565958E+00 -0.4843785880089E+01 -0.1006037802328E+01  0.2982632181851E+00
-0.1636340508853E+00 -0.4803379911373E+01 -0.9934028072545E+00  0.2474838376716E+00
-0.1515138265152E+00 -0.4763592346761E+01 -0.9830212493035E+00  0.2001134253429E+00
-0.1481282125385E+00 -0.4725221650345E+01 -0.9746699871005E+00  0.1546401839552E+00
-0.1523024412639E+00 -0.4688476669500E+01 -0.9681558365795E+00  0.1096369869493E+00
-0.1634341797400E+00 -0.4653110228270E+01 -0.9633088959564E+00  0.6387478037943E-01
-0.1813492468359E+00 -0.4618477206106E+01 -0.9599653048930E+00  0.1641838382199E-01
-0.2061417240277E+00 -0.4583558398992E+01 -0.9579400388783E+00 -0.3326474470981E-01
-0.2379473354152E+00 -0.4547008632772E+01 -0.9569912078977E+00 -0.8518348292571E-01
-0.2766282953963E+00 -0.4507270867670E+01 -0.9567798468703E+00 -0.1387446667054E+00
-0.3214326963915E+00 -0.4462743564589E+01 -0.9568352664540E+00 -0.1928092183692E+00
-0.3707665849376E+00 -0.4412008273627E+01 -0.9565549859667E+00 -0.2459337201405E+00
-0.4221894720299E+00 -0.4354337999150E+01 -0.9553055084711E+00 -0.2967883446751E+00
-0.4728251980951E+00 -0.4289698743691E+01 -0.9525048025507E+00 -0.3444199548203E+00
-0.5199749639292E+00 -0.4217946283919E+01 -0.9475842636897E+00 -0.3880749924833E+00
-0.5614238398067E+00 -0.4138345345905E+01 -0.9399538511487E+00 -0.4268243603567E+00
-0.5953555415809E+00 -0.4049608908938E+01 -0.9289929039469E+00 -0.4592248776887E+00
-0.6200132980490E+00 -0.3950169749979E+01 -0.9140366232259E+00 -0.4831194545343E+00
-0.6332594822257E+00 -0.3838485503028E+01 -0.8943490103776E+00 -0.4955973693209E+00
-0.6321347054036E+00 -0.3713293534901E+01 -0.8690856610113E+00 -0.4930752239282E+00
-0.6124378752005E+00 -0.3573828769908E+01 -0.8372533414978E+00 -0.4714431290147E+00
-0.5682806034063E+00 -0.3420072074829E+01 -0.7976705475332E+00 -0.4262533808767E+00
-0.4914843999630E+00 -0.3252985676359E+01 -0.7488940264237E+00 -0.3529180235479E+00
-0.3706195107560E+00 -0.3074798619790E+01 -0.6890836363774E+00 -0.2469651900455E+00
-0.1898928523987E+00 -0.2889895037625E+01 -0.6159575871832E+00 -0.1049445663891E+00
 0.7160583125693E-01 -0.2705930187064E+01 -0.5268648790123E+00  0.7358319532760E-01
 0.4396728803770E+00 -0.2534240615249E+01 -0.4189135532167E+00  0.2829983238219E+00
 0.9424351190008E+00 -0.2388825961473E+01 -0.2892781728051E+00  0.5074701694136E+00
 0.1603794013220E+01 -0.2282621316057E+01 -0.1357654625906E+00  0.7167339452653E+00
 0.2431970753145E+01 -0.2220171870157E+01  0.4235977722878E-01  0.8645464568963E+00
 0.3405142895983E+01 -0.2188051410254E+01  0.2434183007730E+00  0.8940463164172E+00
 0.4461233045238E+01 -0.2148309336667E+01  0.4625847486073E+00  0.7532536737866E+00
 0.5502083564462E+01 -0.2042645771469E+01  0.6918875689087E+00  0.4180595569653E+00
-0.1125140486118E+01 -0.4893432671115E+01 -0.1203714649383E+01  0.6795051997370E+00
-0.9358961634025E+00 -0.4962295754188E+01 -0.1179638401096E+01  0.6979843060902E+00
-0.7421820304924E+00 -0.5015762735785E+01 -0.1151588970416E+01  0.6745147686692E+00
-0.5695343118495E+00 -0.5043340814411E+01 -0.1122575041980E+01  0.6189295174415E+00
-0.4307725779263E+00 -0.5043909665706E+01 -0.1094936465042E+01  0.5471944643312E+00
-0.3268057371748E+00 -0.5023262300957E+01 -0.1070013623571E+01  0.4725388564268E+00
-0.2524026758893E+00 -0.4989181100955E+01 -0.1048316770990E+01  0.4023770685307E+00
-0.2009544069762E+00 -0.4948276724368E+01 -0.1029846241615E+01  0.3393268724375E+00
-0.1667371679041E+00 -0.4905088160240E+01 -0.1014365080744E+01  0.2832421434621E+00
-0.1454847528679E+00 -0.4862355084223E+01 -0.1001567982343E+01  0.2327511133237E+00
-0.1342580817930E+00 -0.4821559931783E+01 -0.9911636174847E+00  0.1860979790964E+00
-0.1311557151562E+00 -0.4783368586129E+01 -0.9829048749036E+00  0.1415247159952E+00
-0.1350603568217E+00 -0.4747901444909E+01 -0.9765923748985E+00  0.9742629827265E-01
-0.1454561171803E+00 -0.4714864254814E+01 -0.9720640888838E+00  0.5242283263353E-01
-0.1622905664787E+00 -0.4683585642836E+01 -0.9691752563047E+00  0.5429781409887E-02
-0.1858299505141E+00 -0.4653009178115E+01 -0.9677678401468E+00 -0.4423862070643E-01
-0.2164381001251E+00 -0.4621708309948E+01 -0.9676292964334E+00 -0.9672926071374E-01
-0.2542341451881E+00 -0.4587984128447E+01 -0.9684436691580E+00 -0.1515355545371E+00
-0.2986850374187E+00 -0.4550048240205E+01 -0.9697466699750E+00 -0.2075298154738E+00
-0.3483056831994E+00 -0.4506290566795E+01 -0.9709192644666E+00 -0.2632273664125E+00
-0.4006357409583E+00 -0.4455841302022E+01 -0.9712954230694E+00 -0.3172650518952E+00
-0.4527276131818E+00 -0.4398576415824E+01 -0.9702608202592E+00 -0.3687261932617E+00
-0.5018851233257E+00 -0.4334247011179E+01 -0.9672264413137E+00 -0.4169797403260E+00
-0.5460454509447E+00 -0.4261945150854E+01 -0.9615981346888E+00 -0.4612553244526E+00
-0.5836898354443E+00 -0.4180140210667E+01 -0.9527660234195E+00 -0.5002388461617E+00
-0.6134542806956E+00 -0.4086971136935E+01 -0.9400850975345E+00 -0.5318339239875E+00
-0.6336362136215E+00 -0.3980563597293E+01 -0.9228399759344E+00 -0.5531141179839E+00
-0.6417233235744E+00 -0.3859272841443E+01 -0.9001992464176E+00 -0.5604064444770E+00
-0.6339677766860E+00 -0.3721866586389E+01 -0.8711668855964E+00 -0.5494238535927E+00
-0.6049373023885E+00 -0.3567730213493E+01 -0.8345335156119E+00 -0.5153990307962E+00
-0.5468691874112E+00 -0.3397060685888E+01 -0.7887859864136E+00 -0.4531649980891E+00
-0.4485545970866E+00 -0.3211140891663E+01 -0.7319391086567E+00 -0.3572228843777E+00
-0.2938569090907E+00 -0.3013379913033E+01 -0.6614473742810E+00 -0.2224443893192E+00
-0.6030486216097E-01 -0.2810817292792E+01 -0.5742244395472E+00 -0.4597011355796E-01
 0.2816047491691E+00 -0.2615163531117E+01 -0.4667117633442E+00  0.1695073457901E+00
 0.7668031227395E+00 -0.2442575591507E+01 -0.3351544987478E+00  0.4106404755301E+00
 0.1429258176357E+01 -0.2310361330255E+01 -0.1762206334055E+00  0.6471806893096E+00
 0.2288476402175E+01 -0.2228646299123E+01  0.1196602078884E-01  0.8276465249899E+00
 0.3329701939742E+01 -0.2187348038582E+01  0.2284707836365E+00  0.8829571212631E+00
 0.4486043606324E+01 -0.2144547224892E+01  0.4682992832645E+00  0.7444552518409E+00
 0.5638259919740E+01 -0.2028111288282E+01  0.7220297370507E+00  0.3752994932409E+00
-0.1140143431308E+01 -0.4987118361086E+01 -0.1225452376739E+01  0.7079402620676E+00
-0.9342460522442E+00 -0.5060219852408E+01 -0.1198893198795E+01  0.7231178228573E+00
-0.7253135940503E+00 -0.5113982577610E+01 -0.1167859251735E+01  0.6903652109472E+00
-0.5435559018840E+00 -0.5136815778673E+01 -0.1136074353040E+01  0.6233483940708E+00
-0.4019389124955E+00 -0.5129365553274E+01 -0.1106260909638E+01  0.5418955815732E+00
-0.2990756935758E+00 -0.5100025802305E+01 -0.1079820315267E+01  0.4608216412283E+00
-0.2274103711876E+00 -0.5058351811917E+01 -0.1057152452374E+01  0.3872934050925E+00
-0.1788865678587E+00 -0.5011644509698E+01 -0.1038106230980E+01  0.3230300139876E+00
-0.1471117324385E+00 -0.4964477683573E+01 -0.1022317898436E+01  0.2670464955196E+00
-0.1275948599093E+00 -0.4919385436698E+01 -0.1009396074363E+01  0.2173870688618E+00
-0.1173710951845E+00 -0.4877622209361E+01 -0.9989986757953E+00  0.1719316108909E+00
-0.1145876270234E+00 -0.4839682511948E+01 -0.9908540425592E+00  0.1286963256109E+00
-0.1182004337135E+00 -0.4805587518547E+01 -0.9847576051261E+00  0.8592070905190E-01
-0.1277814969603E+00 -0.4775005358491E+01 -0.9805573857018E+00  0.4209093139950E-01
-0.1433936772207E+00 -0.4747262977118E+01 -0.9781313454431E+00 -0.4021210008974E-02
-0.1654703429832E+00 -0.4721299541930E+01 -0.9773539915464E+00 -0.5326477781307E-01
-0.1946112562185E+00 -0.4695636715298E+01 -0.9780496088774E+00 -0.1059498407205E+00
-0.2312188049595E+00 -0.4668447423427E+01 -0.9799332602793E+00 -0.1616859547757E+00
-0.2750124387518E+00 -0.4637750167559E+01 -0.9825525359033E+00 -0.2193742282086E+00
-0.3246316616887E+00 -0.4601725812339E+01 -0.9852715094872E+00 -0.2774874358223E+00
-0.3775788153503E+00 -0.4559345565085E+01 -0.9873848908003E+00 -0.3346201630661E+00
-0.4307975227552E+00 -0.4510386180283E+01 -0.9882367553336E+00 -0.3898936696497E+00
-0.4815662062116E+00 -0.4454489952203E+01 -0.9872112463934E+00 -0.4428182518112E+00
-0.5279724723400E+00 -0.4390575722269E+01 -0.9837096535802E+00 -0.4928088336302E+00
-0.5688160196021E+00 -0.4316876621221E+01 -0.9771385427252E+00 -0.5387045666643E+00
-0.6031567019946E+00 -0.4231257665024E+01 -0.9668828878114E+00 -0.5784917753993E+00
-0.6297600216344E+00 -0.4131544441037E+01 -0.9522609067242E+00 -0.6092567959307E+00
-0.6465979623833E+00 -0.4015747350365E+01 -0.9324690764445E+00 -0.6272839388940E+00
-0.6504326854544E+00 -0.3882196371959E+01 -0.9065258249909E+00 -0.6281853096932E+00
-0.6363937630470E+00 -0.3729680831993E+01 -0.8732149320200E+00 -0.6069843081368E+00
-0.5973300751140E+00 -0.3557566504491E+01 -0.8309793283035E+00 -0.5580683509903E+00
-0.5225829009185E+00 -0.3366007087612E+01 -0.7777180092950E+00 -0.4750289843682E+00
-0.3961531094113E+00 -0.3157079736056E+01 -0.7106465796830E+00 -0.3510737933309E+00
-0.1945811249683E+00 -0.2936645594534E+01 -0.6262453532323E+00 -0.1806742941521E+00
 0.1149266494133E+00 -0.2716094305323E+01 -0.5202335389341E+00  0.3714035080630E-01
 0.5744221947569E+00 -0.2513237948846E+01 -0.3877631565960E+00  0.2928857737652E+00
 0.1229850315213E+01 -0.2350075387801E+01 -0.2240450178561E+00  0.5580708426637E+00
 0.2116026592522E+01 -0.2243983530238E+01 -0.2559138792446E-01  0.7768904654856E+00
 0.3230240412524E+01 -0.2190649096356E+01  0.2079182663318E+00  0.8661866223317E+00
 0.4502962574977E+01 -0.2144875810822E+01  0.4716173598588E+00  0.7350266411452E+00
 0.5788899904692E+01 -0.2016908387855E+01  0.7543983146087E+00  0.3273474795070E+00
-0.1155171744392E+01 -0.5086815208896E+01 -0.1248397409260E+01  0.7386217532021E+00
-0.9298223890239E+00 -0.5164422917950E+01 -0.1218849079557E+01  0.7494305654105E+00
-0.7038908293595E+00 -0.5217428347969E+01 -0.1184263853113E+01  0.7051386368777E+00
-0.5131536678139E+00 -0.5233328682850E+01 -0.1149296487259E+01  0.6247986098839E+00
-0.3699418213850E+00 -0.5215573126626E+01 -0.1117103006248E+01  0.5329339262819E+00
-0.2695659081048E+00 -0.5175895462732E+01 -0.1089092290396E+01  0.4457223234564E+00
-0.2016728800681E+00 -0.5125725583696E+01 -0.1065479708630E+01  0.3695400152573E+00
-0.1567179063286E+00 -0.5072834619373E+01 -0.1045910520726E+01  0.3048362155114E+00
-0.1277487666982E+00 -0.5021593199703E+01 -0.1029868408626E+01  0.2496407603024E+00
-0.1101580854876E+00 -0.4974173649395E+01 -0.1016866362129E+01  0.2013919921048E+00
-0.1010263297237E+00 -0.4931519397918E+01 -0.1006509160526E+01  0.1576288304311E+00
-0.9858747978589E-01 -0.4893917137484E+01 -0.9985009383328E+00  0.1161752197447E+00
-0.1018855105394E+00 -0.4861281431948E+01 -0.9926334032889E+00  0.7514659590091E-01
-0.1105784547680E+00 -0.4833256309553E+01 -0.9887669675981E+00  0.3291930607528E-01
-0.1248323081650E+00 -0.4809197894280E+01 -0.9868060551935E+00 -0.1186693445989E-01
-0.1452348327668E+00 -0.4788083947380E+01 -0.9866637707317E+00 -0.6023182362395E-01
-0.1726231905198E+00 -0.4768426953838E+01 -0.9882100435970E+00 -0.1126770925896E+00
-0.2077096190152E+00 -0.4748296186923E+01 -0.9912011759577E+00 -0.1689672411530E+00
-0.2505075415367E+00 -0.4725513937383E+01 -0.9952043106136E+00 -0.2280589315281E+00
-0.2998046365902E+00 -0.4698029772599E+01 -0.9995668967326E+00 -0.2883841970298E+00
-0.3530479920638E+00 -0.4664630948358E+01 -0.1003535803038E+01 -0.3484839910479E+00
-0.4070278510026E+00 -0.4624976661888E+01 -0.1006400917575E+01 -0.4075164189931E+00
-0.4589632261286E+00 -0.4578588766617E+01 -0.1007510413562E+01 -0.4651509045124E+00
-0.5070894025470E+00 -0.4524208795874E+01 -0.1006259654679E+01 -0.5210117719426E+00
-0.5505462935677E+00 -0.4459844020768E+01 -0.1002078077799E+01 -0.5741103988215E+00
-0.5888470334135E+00 -0.4383115576365E+01 -0.9943925367733E+00 -0.6225318546171E+00
-0.6212516632341E+00 -0.4291596887583E+01 -0.9825697248048E+00 -0.6633997181673E+00
-0.6462411277230E+00 -0.4183012222666E+01 -0.9658506844702E+00 -0.6930027006301E+00
-0.6611259455802E+00 -0.4055311625287E+01 -0.9432875282295E+00 -0.7069365967945E+00
-0.6616828843536E+00 -0.3906724582612E+01 -0.9136815070081E+00 -0.7001488131191E+00
-0.6415562509210E+00 -0.3735763602410E+01 -0.8754639837116E+00 -0.6667616055452E+00
-0.5909831404677E+00 -0.3541312410780E+01 -0.8264591225648E+00 -0.5996565234750E+00
-0.4946649260090E+00 -0.3323774140734E+01 -0.7636878247283E+00 -0.4905166047022E+00
-0.3289345748494E+00 -0.3087197705028E+01 -0.6832264661563E+00 -0.3310488628097E+00
-0.5851518580681E-01 -0.2841711086691E+01 -0.5800452631429E+00 -0.1159732925704E+00
 0.3655824838715E+00 -0.2605819232138E+01 -0.4480473563298E+00  0.1506589836711E+00
 0.1002995678210E+01 -0.2406059032943E+01 -0.2806126751281E+00  0.4445751619464E+00
 0.1908762552270E+01 -0.2268804202741E+01 -0.7200833116721E-01  0.7076710431719E+00
 0.3099603677898E+01 -0.2198997788313E+01  0.1801211806009E+00  0.8413114749715E+00
 0.4508045471017E+01 -0.2150063852845E+01  0.4715963306617E+00  0.7250175262964E+00
 0.5956853139657E+01 -0.2009834176437E+01  0.7894038044069E+00  0.2736173103589E+00
-0.1170131917113E+01 -0.5193907260475E+01 -0.1272807854484E+01  0.7718791516676E+00
-0.9218035910824E+00 -0.5276206547224E+01 -0.1239602046133E+01  0.7767996406634E+00
-0.6769259686881E+00 -0.5326795694572E+01 -0.1200744350544E+01  0.7180219462639E+00
-0.4777877090322E+00 -0.5332774496875E+01 -0.1162112458498E+01  0.6222103636570E+00
-0.3347550755394E+00 -0.5301923377998E+01 -0.1127335707506E+01  0.5194568971450E+00
-0.2385264592900E+00 -0.5250146458967E+01 -0.1097734600009E+01  0.4267446009513E+00
-0.1755071038213E+00 -0.5190671353977E+01 -0.1073235707552E+01  0.3488923860699E+00
-0.1347379501702E+00 -0.5131355150232E+01 -0.1053218635775E+01  0.2846720168704E+00
-0.1088901092347E+00 -0.5076058013024E+01 -0.1036989639904E+01  0.2310200984653E+00
-0.9337623845267E-01 -0.5026420583186E+01 -0.1023959379586E+01  0.1847855206267E+00
-0.8539995562228E-01 -0.4982995586738E+01 -0.1013679123577E+01  0.1432130474716E+00
-0.8332016641451E-01 -0.4945831047232E+01 -0.1005830257717E+01  0.1039813435410E+00
-0.8628154275712E-01 -0.4914732013669E+01 -0.1000202726189E+01  0.6512205473991E-01
-0.9402288504192E-01 -0.4889335740009E+01 -0.9966717398617E+00  0.2493335379964E-01
-0.1067950451267E+00 -0.4869064102852E+01 -0.9951718444250E+00 -0.1805822408534E-01
-0.1253179642641E+00 -0.4852987397692E+01 -0.9956610872277E+00 -0.6504535580578E-01
-0.1506580772571E+00 -0.4839668112414E+01 -0.9980652528066E+00 -0.1167520062566E+00
-0.1838619499931E+00 -0.4827112520294E+01 -0.1002194908991E+01 -0.1731476460607E+00
-0.2252874546845E+00 -0.4812950400438E+01 -0.1007647586040E+01 -0.2332850304358E+00
-0.2739051998045E+00 -0.4794872520182E+01 -0.1013755559103E+01 -0.2955637562930E+00
-0.3270902945359E+00 -0.4771444448484E+01 -0.1019706963799E+01 -0.3584582599057E+00
-0.3814273269105E+00 -0.4742174755046E+01 -0.1024720431661E+01 -0.4211595941936E+00
-0.4340359186273E+00 -0.4706440583126E+01 -0.1028095315670E+01 -0.4835119800988E+00
-0.4832963079965E+00 -0.4662795803672E+01 -0.1029218437670E+01 -0.5453681732128E+00
-0.5287118943534E+00 -0.4609035798966E+01 -0.1027549553976E+01 -0.6059219977478E+00
-0.5702763697820E+00 -0.4542580726158E+01 -0.1022571434426E+01 -0.6633643183169E+00
-0.6077628642888E+00 -0.4460818566795E+01 -0.1013716301322E+01 -0.7148741677643E+00
-0.6401710487453E+00 -0.4361269576340E+01 -0.1000288139922E+01 -0.7567893093567E+00
-0.6653747896888E+00 -0.4241592584559E+01 -0.9813934894735E+00 -0.7847776712021E+00
-0.6798531626082E+00 -0.4099536635131E+01 -0.9558779737916E+00 -0.7938615341779E+00
-0.6782012387088E+00 -0.3932797181425E+01 -0.9221996977686E+00 -0.7781214934659E+00
-0.6518892702843E+00 -0.3738917833663E+01 -0.8781614338751E+00 -0.7300139225912E+00
-0.5869328017313E+00 -0.3516348632955E+01 -0.8206562991659E+00 -0.6399867405077E+00
-0.4604308879535E+00 -0.3266683448021E+01 -0.7454228783027E+00 -0.4971134335290E+00
-0.2358925019908E+00 -0.2997629337768E+01 -0.6467043775884E+00 -0.2913948832950E+00
 0.1416583019503E+00 -0.2726839378919E+01 -0.5170362230982E+00 -0.1985126453400E-01
 0.7466248604993E+00 -0.2484405948802E+01 -0.3475562228396E+00  0.3006970382206E+00
 0.1659882811342E+01 -0.2307149498269E+01 -0.1294533393145E+00  0.6135424131451E+00
 0.2928247131510E+01 -0.2214040295691E+01  0.1428413692924E+00  0.8044551560578E+00
 0.4495396837801E+01 -0.2161124576851E+01  0.4668544591466E+00  0.7142894229879E+00
 0.6145826645275E+01 -0.2007982676094E+01  0.8275688061678E+00  0.2134326548841E+00
-0.1184862679562E+01 -0.5310255522815E+01 -0.1299023659832E+01  0.8081160358926E+00
-0.9090552909502E+00 -0.5397236750495E+01 -0.1261258427083E+01  0.8049404275659E+00
-0.6431971668852E+00 -0.5442798136983E+01 -0.1217199078911E+01  0.7278132584649E+00
-0.4369411754298E+00 -0.5434778056695E+01 -0.1174343863924E+01  0.6141959390925E+00
-0.2965076451818E+00 -0.5387501033269E+01 -0.1136801752630E+01  0.5005001271046E+00
-0.2063485755538E+00 -0.5321854738409E+01 -0.1105640679268E+01  0.4034160228515E+00
-0.1493131584867E+00 -0.5252463556921E+01 -0.1080355359180E+01  0.3251880967322E+00
-0.1132753260001E+00 -0.5186679407230E+01 -0.1059990962441E+01  0.2625188645407E+00
-0.9079279239630E-01 -0.5127488545722E+01 -0.1043656283175E+01  0.2112178470576E+00
-0.7745482565094E-01 -0.5075832346977E+01 -0.1030657449884E+01  0.1676101062723E+00
-0.7066698116174E-01 -0.5031804608223E+01 -0.1020494333083E+01  0.1287178479465E+00
-0.6894846544530E-01 -0.4995192935852E+01 -0.1012828295352E+01  0.9213422344169E-01
-0.7155442026590E-01 -0.4965695429974E+01 -0.1007449985060E+01  0.5585534863537E-01
-0.7829584706988E-01 -0.4942962967472E+01 -0.1004251777873E+01  0.1814024198953E-01
-0.8948426233277E-01 -0.4926523886985E+01 -0.1003201644812E+01 -0.2257006350029E-01
-0.1059385650598E+00 -0.4915605611721E+01 -0.1004308850321E+01 -0.6763530602620E-01
-0.1289325584840E+00 -0.4908900145329E+01 -0.1007566555777E+01 -0.1180314948872E+00
-0.1598653682849E+00 -0.4904415186674E+01 -0.1012856126084E+01 -0.1739957283602E+00
-0.1994992470695E+00 -0.4899605080397E+01 -0.1019820880690E+01 -0.2347371212123E+00
-0.2470379450633E+00 -0.4891869731342E+01 -0.1027781550596E+01 -0.2986432741592E+00
-0.2997717728406E+00 -0.4879497118028E+01 -0.1035853793609E+01 -0.3641100359997E+00
-0.3540197884466E+00 -0.4861788789188E+01 -0.1043161731071E+01 -0.4303549260327E+00
-0.4067569867732E+00 -0.4837932276862E+01 -0.1048937868357E+01 -0.4974088795945E+00
-0.4565076669151E+00 -0.4806273324064E+01 -0.1052556213880E+01 -0.5653627996012E+00
-0.5031641711943E+00 -0.4764414426542E+01 -0.1053515735246E+01 -0.6335892406317E+00
-0.5472247820954E+00 -0.4709634911422E+01 -0.1051371954370E+01 -0.7003793361094E+00
-0.5889848021189E+00 -0.4639226531758E+01 -0.1045642282357E+01 -0.7629778130088E+00
-0.6279558964781E+00 -0.4550612259604E+01 -0.1035713646650E+01 -0.8178115020841E+00
-0.6625630573167E+00 -0.4441279705047E+01 -0.1020768567683E+01 -0.8607076435013E+00
-0.6900030935790E+00 -0.4308623723181E+01 -0.9997253782490E+00 -0.8869234471735E+00
-0.7059307631209E+00 -0.4149629760254E+01 -0.9711121191456E+00 -0.8907547546950E+00
-0.7033477132305E+00 -0.3960531765194E+01 -0.9327759095844E+00 -0.8645963166618E+00
-0.6701987976187E+00 -0.3737670829756E+01 -0.8815739386113E+00 -0.7981109355745E+00
-0.5854584859656E+00 -0.3479633805211E+01 -0.8130184703502E+00 -0.6781619881879E+00
-0.4131681723718E+00 -0.3190434136581E+01 -0.7207204725301E+00 -0.4900425375516E+00
-0.9436844741585E-01 -0.2884694063825E+01 -0.5958125111266E+00 -0.2224235350935E+00
 0.4598366963459E+00 -0.2593787996804E+01 -0.4267902664513E+00  0.1191965508060E+00
 0.1361835800029E+01 -0.2365389263953E+01 -0.2007106957756E+00  0.4855229969202E+00
 0.2703381564405E+01 -0.2238529870620E+01  0.9297034014220E-01  0.7493602220016E+00
 0.4455988299991E+01 -0.2179429632270E+01  0.4553117403288E+00  0.7022055185938E+00
 0.6360738090270E+01 -0.2012911713983E+01  0.8695652882149E+00  0.1460168327602E+00
-0.1199087777056E+01 -0.5438426268820E+01 -0.1327502828956E+01  0.8478285875425E+00
-0.8899891245368E+00 -0.5529660405429E+01 -0.1283929925125E+01  0.8332757955764E+00
-0.6012154015740E+00 -0.5566065703469E+01 -0.1233456239388E+01  0.7327306447992E+00
-0.3902094605697E+00 -0.5538510942068E+01 -0.1185744098197E+01  0.5989821750932E+00
-0.2555688752121E+00 -0.5470979781216E+01 -0.1145309748352E+01  0.4750293797315E+00
-0.1735968173623E+00 -0.5389878130892E+01 -0.1112695006231E+01  0.3753454264937E+00
-0.1235750813593E+00 -0.5310294586344E+01 -0.1086773949735E+01  0.2983607876353E+00
-0.9269069676066E-01 -0.5238260340261E+01 -0.1066190223292E+01  0.2384286054060E+00
-0.7372225820229E-01 -0.5175505446657E+01 -0.1049845556616E+01  0.1903123724268E+00
-0.6259754972313E-01 -0.5122128631179E+01 -0.1036945251632E+01  0.1499339304009E+00
-0.5699674354045E-01 -0.5077716587095E+01 -0.1026942681430E+01  0.1141879564104E+00
-0.5562905705129E-01 -0.5041787360741E+01 -0.1019483298750E+01  0.8065275678617E-01
-0.5786613439492E-01 -0.5013940943190E+01 -0.1014361430632E+01  0.4734347707798E-01
-0.6357998976390E-01 -0.4993864068549E+01 -0.1011488826735E+01  0.1252551368201E-01
-0.7311388430258E-01 -0.4981233537198E+01 -0.1010869499363E+01 -0.2540797941675E-01
-0.8734076573597E-01 -0.4975506936334E+01 -0.1012569555502E+01 -0.6796528483213E-01
-0.1077011168546E+00 -0.4975608792845E+01 -0.1016661997089E+01 -0.1163980689689E+00
-0.1359518222970E+00 -0.4979646931513E+01 -0.1023119766008E+01 -0.1712860426377E+00
-0.1733276979447E+00 -0.4984942165216E+01 -0.1031653988005E+01 -0.2320822751588E+00
-0.2193364947448E+00 -0.4988570276309E+01 -0.1041581369731E+01 -0.2972041071445E+00
-0.2711789730978E+00 -0.4988460390698E+01 -0.1051927888434E+01 -0.3649625109326E+00
-0.3248422694617E+00 -0.4983613828596E+01 -0.1061691235432E+01 -0.4345936244404E+00
-0.3771083362358E+00 -0.4972950387216E+01 -0.1070011760635E+01 -0.5063205736387E+00
-0.4266493500784E+00 -0.4954571800003E+01 -0.1076244246054E+01 -0.5804658189716E+00
-0.4737745558615E+00 -0.4925914912681E+01 -0.1079937909801E+01 -0.6565553110416E+00
-0.5195052545651E+00 -0.4884202857371E+01 -0.1080741638492E+01 -0.7329581457685E+00
-0.5646563939508E+00 -0.4826748233040E+01 -0.1078280941466E+01 -0.8069865015920E+00
-0.6092279138764E+00 -0.4751008418845E+01 -0.1072047282519E+01 -0.8751909675813E+00
-0.6521548196014E+00 -0.4654448130607E+01 -0.1061320605857E+01 -0.9336386101170E+00
-0.6913196408283E+00 -0.4534280322331E+01 -0.1045120008205E+01 -0.9779793847965E+00
-0.7234817414048E+00 -0.4386966421098E+01 -0.1022089647731E+01 -0.1002998561606E+01
-0.7433993719065E+00 -0.4207589537937E+01 -0.9901977967237E+00 -0.1001452886782E+01
-0.7414989137439E+00 -0.3990415694487E+01 -0.9463829357484E+00 -0.9628200639558E+00
-0.6997687915031E+00 -0.3730697885152E+01 -0.8860933485348E+00 -0.8725072654453E+00
-0.5849154977995E+00 -0.3427581998854E+01 -0.8024995112888E+00 -0.7117266116117E+00
-0.3372622070460E+00 -0.3089972300509E+01 -0.6854469117249E+00 -0.4602411353784E+00
 0.1439750797491E+00 -0.2746497179460E+01 -0.5205044276983E+00 -0.1082470434340E+00
 0.1006961391891E+01 -0.2453727412367E+01 -0.2893532084069E+00  0.3112344479020E+00
 0.2407915777931E+01 -0.2277338682252E+01  0.2611541952499E-01  0.6658298812971E+00
 0.4375639992502E+01 -0.2206958812822E+01  0.4337362423990E+00  0.6869224271395E+00
 0.6608180721064E+01 -0.2026961812888E+01  0.9162437952882E+00  0.7048661934366E-01
-0.1212332115520E+01 -0.5582065961412E+01 -0.1358879635635E+01  0.8916240891532E+00
-0.8623494595091E+00 -0.5676250561835E+01 -0.1307720023755E+01  0.8606933324109E+00
-0.5492201689371E+00 -0.5696923114176E+01 -0.1249228675237E+01  0.7301262277878E+00
-0.3374610133422E+00 -0.5642406857010E+01 -0.1195973591892E+01  0.5743647331063E+00
-0.2126588671384E+00 -0.5550510162234E+01 -0.1152633823050E+01  0.4420373868150E+00
-0.1410318146069E+00 -0.5452863185583E+01 -0.1118779016709E+01  0.3423044883717E+00
-0.9885032231007E-01 -0.5363302473370E+01 -0.1092430575415E+01  0.2684762998250E+00
-0.7336461667696E-01 -0.5285550552350E+01 -0.1071783049776E+01  0.2125372291859E+00
-0.5794346343466E-01 -0.5219747127529E+01 -0.1055538133921E+01  0.1684326163262E+00
-0.4899977508263E-01 -0.5165052148319E+01 -0.1042810400220E+01  0.1318529320867E+00
-0.4454787265355E-01 -0.5120524986183E+01 -0.1033014587160E+01  0.9967974828340E-01
-0.4350814208584E-01 -0.5085420848366E+01 -0.1025785813376E+01  0.6955495169227E-01
-0.4537035765201E-01 -0.5059257230755E+01 -0.1020925532894E+01  0.3957102433527E-01
-0.5005486552264E-01 -0.5041779230281E+01 -0.1018366834335E+01  0.8050049476833E-02
-0.5790547697608E-01 -0.5032851223007E+01 -0.1018151355168E+01 -0.2661480769982E-01
-0.6979366352413E-01 -0.5032237185894E+01 -0.1020406185089E+01 -0.6604416982086E-01
-0.8726187956946E-01 -0.5039221490216E+01 -0.1025296689235E+01 -0.1117735765416E+00
-0.1124064186328E+00 -0.5052158619898E+01 -0.1032913023098E+01 -0.1648085017527E+00
-0.1470064892449E+00 -0.5068322024038E+01 -0.1043065718200E+01 -0.2249697442963E+00
-0.1909710364285E+00 -0.5084437982237E+01 -0.1055081819455E+01 -0.2907820788075E+00
-0.2414208450561E+00 -0.5097960870095E+01 -0.1067876358943E+01 -0.3604810378582E+00
-0.2939413092314E+00 -0.5107440099952E+01 -0.1080276297934E+01 -0.4333154349324E+00
-0.3450743653581E+00 -0.5111396247767E+01 -0.1091294138887E+01 -0.5096949872435E+00
-0.3936530232718E+00 -0.5107628639109E+01 -0.1100256348871E+01 -0.5901391029162E+00
-0.4404332106842E+00 -0.5093450454523E+01 -0.1106776749534E+01 -0.6742686974544E+00
-0.4869673285677E+00 -0.5066149566537E+01 -0.1110623395571E+01 -0.7604869018421E+00
-0.5345723632823E+00 -0.5023212508322E+01 -0.1111556990884E+01 -0.8461682905750E+00
-0.5836967628655E+00 -0.4962287334263E+01 -0.1109196835954E+01 -0.9280188996065E+00
-0.6337173705423E+00 -0.4880985008630E+01 -0.1102940492270E+01 -0.1002415010023E+01
-0.6831185552038E+00 -0.4776547265026E+01 -0.1091933180317E+01 -0.1065540673634E+01
-0.7297301752324E+00 -0.4645177017386E+01 -0.1074981454542E+01 -0.1112939026021E+01
-0.7701860377356E+00 -0.4481114593729E+01 -0.1050260141943E+01 -0.1138179842698E+01
-0.7978106992406E+00 -0.4276839121583E+01 -0.1014929979288E+01 -0.1131267955040E+01
-0.7986237774793E+00 -0.4024320531113E+01 -0.9645888760919E+00 -0.1077225413201E+01
-0.7442710069238E+00 -0.3717084855902E+01 -0.8922711858611E+00 -0.9545621933848E+00
-0.5788402378778E+00 -0.3355572294895E+01 -0.7868825182800E+00 -0.7349460954657E+00
-0.1957226313791E+00 -0.2959712837813E+01 -0.6310871032423E+00 -0.3903505281713E+00
 0.5890444062918E+00 -0.2588665443348E+01 -0.3999242133705E+00  0.7402218171101E-01
 0.2019365053627E+01 -0.2339533112243E+01 -0.6403361267741E-01  0.5371458136069E+00
 0.4231509537450E+01 -0.2246904808265E+01  0.3969209517515E+00  0.6637819150822E+00
 0.6896938582020E+01 -0.2053901106781E+01  0.9686075094811E+00 -0.1420487028221E-01
-0.1223769802559E+01 -0.5746546396367E+01 -0.1394063260558E+01  0.9402281259222E+00
-0.8228900725691E+00 -0.5840561587971E+01 -0.1332690351967E+01  0.8850822812674E+00
-0.4852567433949E+00 -0.5834922532547E+01 -0.1264035874024E+01  0.7160695850132E+00
-0.2791135567777E+00 -0.5743737907622E+01 -0.1204570310829E+01  0.5377419502875E+00
-0.1689745193785E+00 -0.5623637586471E+01 -0.1158522438433E+01  0.4007297521644E+00
-0.1096067637292E+00 -0.5509299226205E+01 -0.1123781214732E+01  0.3043288956273E+00
-0.7574397652517E-01 -0.5410614367857E+01 -0.1097271685227E+01  0.2357638195252E+00
-0.5568075243062E-01 -0.5328026951623E+01 -0.1076741556855E+01  0.1850750980273E+00
-0.4371005496945E-01 -0.5259885594601E+01 -0.1060719145720E+01  0.1457616887427E+00
-0.3684110100388E-01 -0.5204378896659E+01 -0.1048244015153E+01  0.1134915544182E+00
-0.3346289698211E-01 -0.5160053953102E+01 -0.1038703385495E+01  0.8526118704547E-01
-0.3271680413691E-01 -0.5125928197714E+01 -0.1031729015744E+01  0.5885760875695E-01
-0.3420756965834E-01 -0.5101459075626E+01 -0.1027133344362E+01  0.3250944022294E-01
-0.3789109040300E-01 -0.5086471275392E+01 -0.1024872488431E+01  0.4647866813580E-02
-0.4408206259653E-01 -0.5081047872641E+01 -0.1025026002322E+01 -0.2627710722363E-01
-0.5358844825977E-01 -0.5085329215475E+01 -0.1027783548062E+01 -0.6193983393101E-01
-0.6796206714220E-01 -0.5099106317134E+01 -0.1033413692254E+01 -0.1041385338837E+00
-0.8958143858337E-01 -0.5121190106286E+01 -0.1042154324503E+01 -0.1543838919330E+00
-0.1208345906943E+00 -0.5148969313826E+01 -0.1053960796609E+01 -0.2130326443747E+00
-0.1621599939555E+00 -0.5178824235292E+01 -0.1068196861767E+01 -0.2788537422134E+00
-0.2106314844307E+00 -0.5207572753039E+01 -0.1083640863641E+01 -0.3500518603298E+00
-0.2613665022938E+00 -0.5233066434880E+01 -0.1098886603809E+01 -0.4258918839936E+00
-0.3106308050952E+00 -0.5253208976454E+01 -0.1112767972891E+01 -0.5069450041500E+00
-0.3574469035646E+00 -0.5265407499057E+01 -0.1124570897282E+01 -0.5938450384901E+00
-0.4030460873948E+00 -0.5266920907809E+01 -0.1133993415939E+01 -0.6861992787186E+00
-0.4495007750653E+00 -0.5255277797835E+01 -0.1140955731582E+01 -0.7823740326048E+00
-0.4985913152913E+00 -0.5228340180904E+01 -0.1145386316307E+01 -0.8797995039820E+00
-0.5511613785807E+00 -0.5184127133693E+01 -0.1147057719547E+01 -0.9753733597858E+00
-0.6069415754255E+00 -0.5120572345869E+01 -0.1145502801328E+01 -0.1065837888427E+01
-0.6648833440716E+00 -0.5035177726813E+01 -0.1140012231164E+01 -0.1148019605281E+01
-0.7237638969882E+00 -0.4924222217087E+01 -0.1129597239647E+01 -0.1218452206713E+01
-0.7820778294016E+00 -0.4781569417523E+01 -0.1112729465966E+01 -0.1271949654743E+01
-0.8362569006796E+00 -0.4598507030024E+01 -0.1086952802338E+01 -0.1299799979854E+01
-0.8770784698661E+00 -0.4364295343330E+01 -0.1048274778260E+01 -0.1287950117925E+01
-0.8831461457260E+00 -0.4066887861018E+01 -0.9900068161010E+00 -0.1214324614370E+01
-0.8074460421680E+00 -0.3696334266911E+01 -0.9007560752380E+00 -0.1045220963415E+01
-0.5478176351946E+00 -0.3256734611539E+01 -0.7609104606851E+00 -0.7345333121175E+00
 0.1066057846764E+00 -0.2796884346367E+01 -0.5380557203557E+00 -0.2474412885781E+00
 0.1509364061458E+01 -0.2442677514323E+01 -0.1866626933545E+00  0.3359319591721E+00
 0.3985941000504E+01 -0.2305263950658E+01  0.3361354149780E+00  0.6216655555504E+00
 0.7238216737194E+01 -0.2100323364950E+01  0.1027578689761E+01 -0.1096251974548E+00
-0.1231944387272E+01 -0.5940140044541E+01 -0.1434416907737E+01  0.9944422209320E+00
-0.7668868533228E+00 -0.6027004152500E+01 -0.1358778221412E+01  0.9024213562626E+00
-0.4074553822390E+00 -0.5977873681399E+01 -0.1277065831757E+01  0.6847805927628E+00
-0.2165842636738E+00 -0.5838041130981E+01 -0.1210925096975E+01  0.4863594284399E+00
-0.1262932802541E+00 -0.5687340307430E+01 -0.1162726734863E+01  0.3508349654576E+00
-0.8041227702878E-01 -0.5557638008790E+01 -0.1127610073966E+01  0.2618155388857E+00
-0.5486814515588E-01 -0.5451398760211E+01 -0.1101253397483E+01  0.2006331136212E+00
-0.4000619159895E-01 -0.5365219488642E+01 -0.1081045152157E+01  0.1563732057384E+00
-0.3125168042595E-01 -0.5295644172387E+01 -0.1065379186438E+01  0.1225375911954E+00
-0.2627739464895E-01 -0.5239928642442E+01 -0.1053241223113E+01  0.9500186243043E-01
-0.2386274312256E-01 -0.5196165692725E+01 -0.1044005702726E+01  0.7101111874820E-01
-0.2336630997373E-01 -0.5163178693464E+01 -0.1037309016145E+01  0.4857592444617E-01
-0.2449999591677E-01 -0.5140394071227E+01 -0.1032978828821E+01  0.2611686736235E-01
-0.2724356440047E-01 -0.5127734854860E+01 -0.1030995699215E+01  0.2225285004958E-02
-0.3185916632145E-01 -0.5125521118521E+01 -0.1031476072339E+01 -0.2452997467402E-01
-0.3903126956571E-01 -0.5134319418980E+01 -0.1034670153127E+01 -0.5579412286675E-01
-0.5020141927562E-01 -0.5154577650080E+01 -0.1040955829383E+01 -0.9355878680146E-01
-0.6791412773107E-01 -0.5185848549448E+01 -0.1050752551093E+01 -0.1398896539149E+00
-0.9520065481797E-01 -0.5225926929521E+01 -0.1064225532726E+01 -0.1958942575335E+00
-0.1331887534849E+00 -0.5270925365130E+01 -0.1080822839829E+01 -0.2608170219682E+00
-0.1789745232857E+00 -0.5316806173324E+01 -0.1099156155701E+01 -0.3329493133405E+00
-0.2271597560245E+00 -0.5360321537679E+01 -0.1117496275393E+01 -0.4116006825122E+00
-0.2737269022917E+00 -0.5398399876642E+01 -0.1134425372691E+01 -0.4974428588538E+00
-0.3179415140709E+00 -0.5427925600516E+01 -0.1149173440041E+01 -0.5910592760574E+00
-0.3615302456695E+00 -0.5446224199360E+01 -0.1161550906314E+01 -0.6918601115531E+00
-0.4070400579086E+00 -0.5451324574327E+01 -0.1171672943906E+01 -0.7980720770490E+00
-0.4566446617558E+00 -0.5441732531273E+01 -0.1179675456184E+01 -0.9071823842935E+00
-0.5115198574502E+00 -0.5416043684658E+01 -0.1185512726087E+01 -0.1016336445885E+01
-0.5716569934508E+00 -0.5372677802058E+01 -0.1188866976817E+01 -0.1122691964864E+01
-0.6362985531333E+00 -0.5309616298505E+01 -0.1189182988048E+01 -0.1223775617011E+01
-0.7049537816768E+00 -0.5223591474403E+01 -0.1185709068884E+01 -0.1317270728070E+01
-0.7778141881616E+00 -0.5108707861990E+01 -0.1177304427574E+01 -0.1399586409111E+01
-0.8543581037639E+00 -0.4955993965979E+01 -0.1162070431265E+01 -0.1463993546690E+01
-0.9303972464866E+00 -0.4753211548664E+01 -0.1136721775969E+01 -0.1498772390362E+01
-0.9928216419376E+00 -0.4483906538975E+01 -0.1095345652504E+01 -0.1483898893160E+01
-0.1008034041414E+01 -0.4127793781369E+01 -0.1027165579863E+01 -0.1384971401020E+01
-0.8919465929003E+00 -0.3667401645022E+01 -0.9118696611725E+00 -0.1143514234430E+01
-0.4307319235212E+00 -0.3120842517834E+01 -0.7103148988555E+00 -0.6777220410416E+00
 0.8456781766148E+00 -0.2621754221820E+01 -0.3552152143342E+00  0.1804298103547E-01
 0.3575820548065E+01 -0.2395254343073E+01  0.2361132445168E+00  0.5347638443907E+00
 0.7644322335012E+01 -0.2178914644262E+01  0.1093081554438E+01 -0.2194893241575E+00
-0.1234253255052E+01 -0.6176322366303E+01 -0.1482115146356E+01  0.1054922922143E+01
-0.6874221452688E+00 -0.6240502154019E+01 -0.1385584880504E+01  0.9049130391099E+00
-0.3147849280066E+00 -0.6119845226780E+01 -0.1286926050134E+01  0.6280020185317E+00
-0.1529654733585E+00 -0.5918534059265E+01 -0.1214299924619E+01  0.4180409328395E+00
-0.8695203429459E-01 -0.5738358640573E+01 -0.1165062152334E+01  0.2930285672939E+00
-0.5454494796947E-01 -0.5596458809817E+01 -0.1130200768399E+01  0.2155598456885E+00
-0.3679817661892E-01 -0.5484914146018E+01 -0.1104342480983E+01  0.1636769782436E+00
-0.2666949409684E-01 -0.5396746660276E+01 -0.1084683247038E+01  0.1268656288275E+00
-0.2075942957315E-01 -0.5326815124210E+01 -0.1069514926694E+01  0.9904935329708E-01
-0.1743304837608E-01 -0.5271575207979E+01 -0.1057801667033E+01  0.7656110768748E-01
-0.1584129711269E-01 -0.5228767600085E+01 -0.1048921795070E+01  0.5701778889144E-01
-0.1554357841868E-01 -0.5197081936373E+01 -0.1042525118493E+01  0.3872299263136E-01
-0.1634667065393E-01 -0.5175949043022E+01 -0.1038459158209E+01  0.2033854244563E-01
-0.1824428616145E-01 -0.5165405563804E+01 -0.1036729985442E+01  0.6618196182158E-03
-0.2143301132375E-01 -0.5166011495096E+01 -0.1037488916744E+01 -0.2155850198754E-01
-0.2642946575181E-01 -0.5178773455893E+01 -0.1041040599842E+01 -0.4783657305651E-01
-0.3443013006751E-01 -0.5204915307690E+01 -0.1047869103166E+01 -0.8022080754525E-01
-0.4794801741991E-01 -0.5245087685037E+01 -0.1058607156266E+01 -0.1213027605910E+00
-0.7061976932487E-01 -0.5297988691144E+01 -0.1073721708093E+01 -0.1731844851488E+00
-0.1044405529040E+00 -0.5359714224184E+01 -0.1092830971702E+01 -0.2359638882632E+00
-0.1466504727006E+00 -0.5425089061533E+01 -0.1114347923452E+01 -0.3082842381459E+00
-0.1913374494304E+00 -0.5489098580503E+01 -0.1136087222916E+01 -0.3895866407475E+00
-0.2342574283546E+00 -0.5547104043951E+01 -0.1156272311691E+01 -0.4805131805687E+00
-0.2750085963050E+00 -0.5595291620391E+01 -0.1174060060834E+01 -0.5812898024840E+00
-0.3158072662609E+00 -0.5631271029644E+01 -0.1189415676905E+01 -0.6908371780598E+00
-0.3595707281540E+00 -0.5653955793200E+01 -0.1202705322193E+01 -0.8071056066507E+00
-0.4087480876248E+00 -0.5662855288484E+01 -0.1214320693317E+01 -0.9276641921732E+00
-0.4647775069677E+00 -0.5657379024326E+01 -0.1224431324504E+01 -0.1050008271482E+01
-0.5278384403390E+00 -0.5636556491928E+01 -0.1232879004825E+01 -0.1171771476521E+01
-0.5972715762594E+00 -0.5598999949675E+01 -0.1239254323653E+01 -0.1291172212661E+01
-0.6730158856742E+00 -0.5542263264426E+01 -0.1243055848543E+01 -0.1407078697446E+01
-0.7566447790054E+00 -0.5461444092741E+01 -0.1243617792881E+01 -0.1517694282918E+01
-0.8503236030103E+00 -0.5348577912663E+01 -0.1239780321609E+01 -0.1618794917671E+01
-0.9545709826752E+00 -0.5191826362872E+01 -0.1229279487427E+01 -0.1702290055245E+01
-0.1064927775961E+01 -0.4972812198338E+01 -0.1207548012854E+01 -0.1753027370446E+01
-0.1163554625013E+01 -0.4663759169658E+01 -0.1165462776301E+01 -0.1741601810710E+01
-0.1196918411447E+01 -0.4225961810611E+01 -0.1084576060573E+01 -0.1609588902854E+01
-0.9911363563144E+00 -0.3625158427958E+01 -0.9232589706121E+00 -0.1238221362192E+01
 0.1795912698384E-02 -0.2947255163821E+01 -0.5890918590027E+00 -0.4846421880992E+00
 0.2895031913001E+01 -0.2550078419739E+01  0.6899069968051E-01  0.3441605708481E+00
 0.8121741366709E+01 -0.2316625704752E+01  0.1161023149692E+01 -0.3560765314423E+00
-0.1226040367593E+01 -0.6478739486528E+01 -0.1540955993786E+01  0.1121319486134E+01
-0.5744050525516E+00 -0.6484472771029E+01 -0.1411775585753E+01  0.8770024126606E+00
-0.2089031806854E+00 -0.6247137451325E+01 -0.1291208145643E+01  0.5348741301935E+00
-0.9386309250866E-01 -0.5976224072662E+01 -0.1214017451124E+01  0.3329051344389E+00
-0.5347172839620E-01 -0.5773994643794E+01 -0.1165493291805E+01  0.2292633345645E+00
-0.3292351709769E-01 -0.5624549683810E+01 -0.1131494657042E+01  0.1666673719420E+00
-0.2204992099825E-01 -0.5510572154817E+01 -0.1106524431652E+01  0.1256844138270E+00
-0.1592911561726E-01 -0.5422356045107E+01 -0.1087657048352E+01  0.9707981807696E-01
-0.1237241913411E-01 -0.5353273295705E+01 -0.1073129158959E+01  0.7562864001104E-01
-0.1039393182467E-01 -0.5299257280183E+01 -0.1061930258226E+01  0.5836814323878E-01
-0.9460131406934E-02 -0.5257818242434E+01 -0.1053455690466E+01  0.4337623741348E-01
-0.9307199080218E-02 -0.5227593095354E+01 -0.1047380074494E+01  0.2930933054975E-01
-0.9818861876927E-02 -0.5208055759145E+01 -0.1043574939755E+01  0.1510771962502E-01
-0.1099567003357E-01 -0.5199368171912E+01 -0.1042072783917E+01 -0.1872585424950E-03
-0.1296692973242E-01 -0.5202318391893E+01 -0.1043057079868E+01 -0.1759415563315E-01
-0.1606861343102E-01 -0.5218321557481E+01 -0.1046878049782E+01 -0.3839155218198E-01
-0.2113467754553E-01 -0.5249408472123E+01 -0.1054108645641E+01 -0.6447449671098E-01
-0.3035534545597E-01 -0.5297698433818E+01 -0.1065610771734E+01 -0.9877095022808E-01
-0.4778952988322E-01 -0.5363599559390E+01 -0.1082277833982E+01 -0.1445784416055E+00
-0.7644907814467E-01 -0.5443825485283E+01 -0.1104054929137E+01 -0.2034416118642E+00
-0.1139093310897E+00 -0.5531738659627E+01 -0.1129129614969E+01 -0.2749205490126E+00
-0.1538604155928E+00 -0.5619413153711E+01 -0.1154654731066E+01 -0.3588021717477E+00
-0.1920192031030E+00 -0.5699657230046E+01 -0.1178335304188E+01 -0.4554264405555E+00
-0.2284512427738E+00 -0.5767756003824E+01 -0.1199241467190E+01 -0.5641062820919E+00
-0.2657949318929E+00 -0.5822001962763E+01 -0.1217559397074E+01 -0.6828298544296E+00
-0.3071393673591E+00 -0.5862757282166E+01 -0.1233979348293E+01 -0.8091074647851E+00
-0.3550190155600E+00 -0.5891013677624E+01 -0.1249206557251E+01 -0.9406585392924E+00
-0.4110546952045E+00 -0.5907283191943E+01 -0.1263667596260E+01 -0.1075513096131E+01
-0.4756005475572E+00 -0.5911265537728E+01 -0.1277373236091E+01 -0.1211897141635E+01
-0.5479336374458E+00 -0.5902191548539E+01 -0.1290025056420E+01 -0.1348640720784E+01
-0.6280586230705E+00 -0.5878701262243E+01 -0.1301351996454E+01 -0.1485640024584E+01
-0.7184525396264E+00 -0.5837743722039E+01 -0.1311239271872E+01 -0.1622837202005E+01
-0.8233483796739E+00 -0.5773978388435E+01 -0.1319465373283E+01 -0.1758770686139E+01
-0.9469350430240E+00 -0.5678404850065E+01 -0.1325067998363E+01 -0.1889860489458E+01
-0.1092538393258E+01 -0.5534689986481E+01 -0.1325445695698E+01 -0.2008423598076E+01
-0.1258065690450E+01 -0.5313133642081E+01 -0.1314239886090E+01 -0.2095465617684E+01
-0.1423173817225E+01 -0.4963790285488E+01 -0.1277392839577E+01 -0.2107471061816E+01
-0.1504482588440E+01 -0.4398168262007E+01 -0.1180530187681E+01 -0.1929597949562E+01
-0.1013286404438E+01 -0.3559555243981E+01 -0.9145683433120E+00 -0.1265936708012E+01
 0.1770037667384E+01 -0.2860689813750E+01 -0.2181304325236E+00 -0.8220955312236E-01
 0.8645043827775E+01 -0.2577453910149E+01  0.1213518001608E+01 -0.5643196819040E+00
-0.1199373005373E+01 -0.6893496427193E+01 -0.1618573910632E+01  0.1188896707709E+01
-0.4134407279869E+00 -0.6751984882225E+01 -0.1433085143397E+01  0.7865198732209E+00
-0.9858800987433E-01 -0.6331089013285E+01 -0.1285935423794E+01  0.3947395822486E+00
-0.4777054638491E-01 -0.6003155247595E+01 -0.1210185176829E+01  0.2365341747566E+00
-0.2744179872559E-01 -0.5792852939721E+01 -0.1164058965035E+01  0.1622470571028E+00
-0.1628034398868E-01 -0.5640775246528E+01 -0.1131411134963E+01  0.1164769170936E+00
-0.1105076549460E-01 -0.5528115177456E+01 -0.1107833205098E+01  0.8767600518762E-01
-0.7924518749411E-02 -0.5441919959742E+01 -0.1089968911940E+01  0.6759087977816E-01
-0.6176468529486E-02 -0.5375000703126E+01 -0.1076235450368E+01  0.5264829871064E-01
-0.5196857452765E-02 -0.5322984155948E+01 -0.1065636218559E+01  0.4063444324793E-01
-0.4745478874146E-02 -0.5283333258552E+01 -0.1057615763245E+01  0.3018596007808E-01
-0.4683688578001E-02 -0.5254716938606E+01 -0.1051880141111E+01  0.2034195164954E-01
-0.4956237566731E-02 -0.5236695580365E+01 -0.1048330379208E+01  0.1034728164816E-01
-0.5565006230506E-02 -0.5229563752758E+01 -0.1047025767400E+01 -0.4872155758570E-03
-0.6579147485288E-02 -0.5234312423597E+01 -0.1048178329836E+01 -0.1290613834622E-01
-0.8179573528138E-02 -0.5252697087216E+01 -0.1052175347827E+01 -0.2786994772598E-01
-0.1079944408086E-01 -0.5287440354533E+01 -0.1059647975513E+01 -0.4687400438194E-01
-0.1595190197815E-01 -0.5342340221872E+01 -0.1071658440739E+01 -0.7272974992110E-01
-0.2767639850703E-01 -0.5420706839365E+01 -0.1089676663812E+01 -0.1098843138207E+00
-0.4999109071460E-01 -0.5521352740623E+01 -0.1114268782871E+01 -0.1621968880514E+00
-0.8107205907598E-01 -0.5635919263903E+01 -0.1143398281634E+01 -0.2313346433464E+00
-0.1145816125407E+00 -0.5751505399005E+01 -0.1173217419791E+01 -0.3179177861736E+00
-0.1466438243261E+00 -0.5856709570355E+01 -0.1200670696828E+01 -0.4213981467806E+00
-0.1779636146159E+00 -0.5945775000875E+01 -0.1224747741348E+01 -0.5391860095059E+00
-0.2113977571717E+00 -0.6018405064460E+01 -0.1245960582893E+01 -0.6677051160059E+00
-0.2498682270108E+00 -0.6077221989759E+01 -0.1265418062210E+01 -0.8038659163010E+00
-0.2957053267254E+00 -0.6125314873088E+01 -0.1284204059099E+01 -0.9456727772126E+00
-0.3506005651132E+00 -0.6164676949056E+01 -0.1303055522251E+01 -0.1091992727003E+01
-0.4151735863530E+00 -0.6195690186097E+01 -0.1322172774192E+01 -0.1241908351164E+01
-0.4886117550315E+00 -0.6217869562799E+01 -0.1341296283553E+01 -0.1394747502015E+01
-0.5705921081216E+00 -0.6230897090890E+01 -0.1360297860072E+01 -0.1550961968408E+01
-0.6638869622810E+00 -0.6234558323013E+01 -0.1379689077618E+01 -0.1711790379737E+01
-0.7737867949516E+00 -0.6228116698491E+01 -0.1400380719556E+01 -0.1878405121659E+01
-0.9069579143990E+00 -0.6208299360459E+01 -0.1423051476177E+01 -0.2052241348699E+01
-0.1071235109534E+01 -0.6165314024694E+01 -0.1447309848412E+01 -0.2234098190166E+01
-0.1279798678104E+01 -0.6077383004479E+01 -0.1471436358443E+01 -0.2421062298048E+01
-0.1536033176157E+01 -0.5897214755575E+01 -0.1486649608499E+01 -0.2591703721360E+01
-0.1851794808319E+01 -0.5530822871126E+01 -0.1476523557891E+01 -0.2695841752951E+01
-0.2074879424562E+01 -0.4719843783670E+01 -0.1358944661896E+01 -0.2413342523299E+01
-0.5599466878114E-01 -0.3593040680377E+01 -0.7298070807066E+00 -0.1031476315012E+01
 0.9074163983010E+01 -0.3130745567118E+01  0.1188683700891E+01 -0.1011208136506E+01
-0.1144538391706E+01 -0.7526449893191E+01 -0.1734197682821E+01  0.1233496446679E+01
-0.1846498975181E+00 -0.6984943406161E+01 -0.1433918682103E+01  0.5647834800388E+00
-0.1096136529179E-01 -0.6324448841195E+01 -0.1267082060178E+01  0.2127082474814E+00
-0.2261050312509E-01 -0.6003368087038E+01 -0.1205195735992E+01  0.1418715383622E+00
-0.7903462107644E-02 -0.5791747284415E+01 -0.1159930166589E+01  0.9303824791710E-01
-0.5926923933716E-02 -0.5645207233932E+01 -0.1130226848415E+01  0.6737038423429E-01
-0.3735297657371E-02 -0.5537417142498E+01 -0.1108230504545E+01  0.5057774657951E-01
-0.2773023720757E-02 -0.5455522556309E+01 -0.1091659132273E+01  0.3907216944360E-01
-0.2159257808251E-02 -0.5392083063443E+01 -0.1078848480326E+01  0.3048813472759E-01
-0.1834149163623E-02 -0.5342845738875E+01 -0.1068935993536E+01  0.2358112552885E-01
-0.1682364844030E-02 -0.5305388374293E+01 -0.1061414163644E+01  0.1754585456674E-01
-0.1665648102668E-02 -0.5278511115776E+01 -0.1056035368512E+01  0.1182373828666E-01
-0.1763966725970E-02 -0.5261902684558E+01 -0.1052733345944E+01  0.5971533784487E-02
-0.1979434287352E-02 -0.5255994876890E+01 -0.1051594877906E+01 -0.4183982271020E-03
-0.2336704449204E-02 -0.5261945518961E+01 -0.1052856460371E+01 -0.7792094398834E-02
-0.2903090868267E-02 -0.5281758215089E+01 -0.1056932276941E+01 -0.1673801367678E-01
-0.3823793351463E-02 -0.5318619294878E+01 -0.1064488633508E+01 -0.2818301434759E-01
-0.5678990107096E-02 -0.5377695960039E+01 -0.1076675006073E+01 -0.4408632816876E-01
-0.1164970727890E-01 -0.5466541632250E+01 -0.1095638284232E+01 -0.6924742572528E-01
-0.2625624670862E-01 -0.5589458325260E+01 -0.1123142931130E+01 -0.1108905825433E+00
-0.4856615476947E-01 -0.5736594519760E+01 -0.1157032152147E+01 -0.1753640006126E+00
-0.7314995629175E-01 -0.5886028765976E+01 -0.1191835762213E+01 -0.2651930833980E+00
-0.9749440550298E-01 -0.6019389214793E+01 -0.1223376742289E+01 -0.3776061644330E+00
-0.1230798653482E+00 -0.6130089185766E+01 -0.1250633828859E+01 -0.5063854000177E+00
-0.1524984419741E+00 -0.6220530497252E+01 -0.1274605806838E+01 -0.6455686727911E+00
-0.1879728329512E+00 -0.6296733963792E+01 -0.1296941378675E+01 -0.7913825796691E+00
-0.2312313588796E+00 -0.6364623154592E+01 -0.1319170922352E+01 -0.9423512778613E+00
-0.2838278881659E+00 -0.6428170737473E+01 -0.1342399745131E+01 -0.1098587357414E+01
-0.3468553513842E+00 -0.6488566549907E+01 -0.1367084400629E+01 -0.1260596787342E+01
-0.4197357259387E+00 -0.6544726284923E+01 -0.1392892422928E+01 -0.1428250986437E+01
-0.5015299908153E+00 -0.6596491747477E+01 -0.1419604368812E+01 -0.1601531512984E+01
-0.5943819649046E+00 -0.6647751702411E+01 -0.1448426755046E+01 -0.1781818458428E+01
-0.7035609899903E+00 -0.6705045052398E+01 -0.1481721230557E+01 -0.1972558813929E+01
-0.8359219365015E+00 -0.6773496025596E+01 -0.1521883615097E+01 -0.2180072801569E+01
-0.1002816569040E+01 -0.6854741959661E+01 -0.1571511729158E+01 -0.2413694526473E+01
-0.1218271319693E+01 -0.6944633999085E+01 -0.1632581088083E+01 -0.2685502484446E+01
-0.1527799674302E+01 -0.7026701875873E+01 -0.1710900335529E+01 -0.3010786377700E+01
-0.1912449685218E+01 -0.7044397964869E+01 -0.1791369556711E+01 -0.3387465218652E+01
-0.2767401314915E+01 -0.6806723169158E+01 -0.1914824925348E+01 -0.3849422494855E+01
-0.2798841855532E+01 -0.5543356399292E+01 -0.1668439675827E+01 -0.3059944685614E+01
 0.8835412594415E+01 -0.4550075865668E+01  0.8570673585208E+00 -0.2358567560145E+01
-0.1086393979396E+01 -0.8697792443274E+01 -0.1956837313693E+01  0.1126493259990E+01
 0.1475097324637E+00 -0.6840450272833E+01 -0.1338588128020E+01  0.7175465858812E-01
-0.3046988502425E-01 -0.6272066361866E+01 -0.1260507268161E+01  0.7627853045495E-01
 0.4259935370428E-02 -0.5966389080950E+01 -0.1192425846884E+01  0.4110177812186E-01
-0.2038350896188E-02 -0.5772424514846E+01 -0.1154892590358E+01  0.2863451088073E-01
-0.2583028690710E-03 -0.5637776029960E+01 -0.1127606883368E+01  0.2062522881247E-01
-0.4669339492767E-03 -0.5538848998825E+01 -0.1107863203063E+01  0.1563803039800E-01
-0.3009506422036E-03 -0.5463399913973E+01 -0.1092740189206E+01  0.1215060091090E-01
-0.2697096389070E-03 -0.5404734804597E+01 -0.1081000918955E+01  0.9543313612948E-02
-0.2336133662064E-03 -0.5359012020877E+01 -0.1071849142820E+01  0.7423842866465E-02
-0.2168887159744E-03 -0.5324122642775E+01 -0.1064867922166E+01  0.5551117089104E-02
-0.2092427930831E-03 -0.5299087522992E+01 -0.1059859368950E+01  0.3752053774640E-02
-0.2114278258187E-03 -0.5283765859252E+01 -0.1056795473163E+01  0.1888212853377E-02
-0.2234686303719E-03 -0.5278727936157E+01 -0.1055790296690E+01 -0.1698360558442E-03
-0.2479397327586E-03 -0.5285257671656E+01 -0.1057101138030E+01 -0.2565805961915E-02
-0.2904643504817E-03 -0.5305497190431E+01 -0.1061157546769E+01 -0.5490994238187E-02
-0.3660640049283E-03 -0.5342843643813E+01 -0.1068641957488E+01 -0.9254576044440E-02
-0.4810247152036E-03 -0.5402996002971E+01 -0.1080695421641E+01 -0.1445630717497E-01
-0.1693876739088E-02 -0.5497340672439E+01 -0.1099806926224E+01 -0.2366571651875E-01
-0.7171091781304E-02 -0.5643492963480E+01 -0.1130132827893E+01 -0.4774322959524E-01
-0.1698666533284E-01 -0.5832578804691E+01 -0.1169913111438E+01 -0.1037215957965E+00
-0.2881825830671E-01 -0.6024380679845E+01 -0.1210639805670E+01 -0.1983219320616E+00
-0.4351666030579E-01 -0.6189526706926E+01 -0.1246608692022E+01 -0.3232464113486E+00
-0.6311360557753E-01 -0.6321812383093E+01 -0.1276985216763E+01 -0.4658495731469E+00
-0.8895702382085E-01 -0.6428493592232E+01 -0.1303490142634E+01 -0.6168580570101E+00
-0.1217811595539E+00 -0.6520541217547E+01 -0.1328464495216E+01 -0.7719348210400E+00
-0.1622512446097E+00 -0.6607526437378E+01 -0.1353955556573E+01 -0.9305425253993E+00
-0.2114245929023E+00 -0.6695922241309E+01 -0.1381469387428E+01 -0.1094444395779E+01
-0.2709221215886E+00 -0.6788378193224E+01 -0.1411860084001E+01 -0.1266492185481E+01
-0.3416334333945E+00 -0.6881945100043E+01 -0.1444715728215E+01 -0.1448112485326E+01
-0.4221317516043E+00 -0.6972999703673E+01 -0.1479026313095E+01 -0.1636717801337E+01
-0.5123322941934E+00 -0.7071917041803E+01 -0.1516849889802E+01 -0.1830989935841E+01
-0.6158176899725E+00 -0.7196969053555E+01 -0.1562557371989E+01 -0.2036802597527E+01
-0.7387564120009E+00 -0.7362858461497E+01 -0.1620322998844E+01 -0.2265022188691E+01
-0.8899038750387E+00 -0.7586090583460E+01 -0.1695198916960E+01 -0.2531187404347E+01
-0.1089966386185E+01 -0.7890859291969E+01 -0.1796165162396E+01 -0.2858196018529E+01
-0.1351401185750E+01 -0.8313534258863E+01 -0.1932987117726E+01 -0.3289211014897E+01
-0.1826282186630E+01 -0.8918018469299E+01 -0.2148860163206E+01 -0.3889530941572E+01
-0.2224884360127E+01 -0.9804934896718E+01 -0.2405963887221E+01 -0.4865900252493E+01
-0.5712354412344E+01 -0.1089114988233E+02 -0.3320700908417E+01 -0.6691713386924E+01
 0.6239620443301E+01 -0.9603405673233E+01 -0.6727570560112E+00 -0.7717921221759E+01
-0.1520553375691E+01 -0.2450426379548E+01 -0.1866360480229E+01 -0.6954668381882E+00
-0.1251575899463E+01 -0.2530900265956E+01 -0.1777763793238E+01 -0.5422732516168E+00
-0.1001549802155E+01 -0.2601061074136E+01 -0.1693227107562E+01 -0.4193947844095E+00
-0.7746503382712E+00 -0.2660984809293E+01 -0.1614748515259E+01 -0.3215408537352E+00
-0.5722937316938E+00 -0.2712226870144E+01 -0.1543724678948E+01 -0.2451155004757E+00
-0.3940748927731E+00 -0.2756332943235E+01 -0.1480691679168E+01 -0.1875213648729E+00
-0.2386256855570E+00 -0.2794757097706E+01 -0.1425689904517E+01 -0.1467485914124E+00
-0.1043231319352E+00 -0.2829029008271E+01 -0.1378675502400E+01 -0.1211492805932E+00
 0.1026183409439E-01 -0.2860761869652E+01 -0.1339735013314E+01 -0.1092821112751E+00
 0.1064348958882E+00 -0.2891492320454E+01 -0.1308976986226E+01 -0.1100097846882E+00
 0.1857458045482E+00 -0.2922508369937E+01 -0.1286278402470E+01 -0.1224256548040E+00
 0.2476827027296E+00 -0.2955995016805E+01 -0.1272906784387E+01 -0.1453313756867E+00
 0.2938726333568E+00 -0.2992500874376E+01 -0.1268355270062E+01 -0.1790370595713E+00
 0.3269007415729E+00 -0.3033181794925E+01 -0.1271952091849E+01 -0.2236208131126E+00
 0.3470543271836E+00 -0.3080043063956E+01 -0.1284504703025E+01 -0.2774425205161E+00
 0.3549695786649E+00 -0.3132626090433E+01 -0.1305498557220E+01 -0.3392758184234E+00
 0.3498321701494E+00 -0.3190801869751E+01 -0.1335255755426E+01 -0.4082163965630E+00
 0.3295758258547E+00 -0.3255251642661E+01 -0.1375067630411E+01 -0.4838236392178E+00
 0.2968195794298E+00 -0.3322800850224E+01 -0.1422211193666E+01 -0.5650331588994E+00
 0.2207138759827E+00 -0.3424944732745E+01 -0.1505988498859E+01 -0.6441496672446E+00
-0.1579690193553E+01 -0.2480833658097E+01 -0.1908446205435E+01 -0.6509372479301E+00
-0.1293359108101E+01 -0.2563978590789E+01 -0.1812948713880E+01 -0.5021828342536E+00
-0.1032392261539E+01 -0.2638484525228E+01 -0.1725312085404E+01 -0.3845738631196E+00
-0.7968797042783E+00 -0.2702956477907E+01 -0.1644923001455E+01 -0.2916094246454E+00
-0.5872933611677E+00 -0.2758534108691E+01 -0.1572538906845E+01 -0.2193164650079E+00
-0.4028397575923E+00 -0.2806834317265E+01 -0.1508546811357E+01 -0.1650589150551E+00
-0.2419678710577E+00 -0.2849569853398E+01 -0.1453022726809E+01 -0.1268369512081E+00
-0.1029164845434E+00 -0.2888444215044E+01 -0.1405939525240E+01 -0.1030236816951E+00
 0.1592780076676E-01 -0.2925103393786E+01 -0.1367312525251E+01 -0.9226049619399E-01
 0.1160525057840E+00 -0.2961124840759E+01 -0.1337183994047E+01 -0.9350037500189E-01
 0.1985942664436E+00 -0.2998264545117E+01 -0.1315845027639E+01 -0.1058414391771E+00
 0.2641763806698E+00 -0.3037793064938E+01 -0.1303599838300E+01 -0.1284176563978E+00
 0.3140028388783E+00 -0.3081176441066E+01 -0.1300571589730E+01 -0.1614789782837E+00
 0.3499596757740E+00 -0.3130090498228E+01 -0.1306661483239E+01 -0.2048057692260E+00
 0.3730412405010E+00 -0.3185609389075E+01 -0.1321907026477E+01 -0.2570819252901E+00
 0.3832372190535E+00 -0.3248433454882E+01 -0.1346642227424E+01 -0.3172800952280E+00
 0.3795998264290E+00 -0.3319079850025E+01 -0.1381555607586E+01 -0.3844117308096E+00
 0.3610803447121E+00 -0.3397782708752E+01 -0.1427250107479E+01 -0.4574384788754E+00
 0.3179543243125E+00 -0.3490298369365E+01 -0.1491001697393E+01 -0.5335354818788E+00
 0.2506066071912E+00 -0.3590132367673E+01 -0.1569577103445E+01 -0.6130341968156E+00
-0.1635031032788E+01 -0.2508300535710E+01 -0.1947365832255E+01 -0.6047266201695E+00
-0.1333712177927E+01 -0.2596870025127E+01 -0.1847373630750E+01 -0.4612118805546E+00
-0.1061380770500E+01 -0.2675215774786E+01 -0.1756200371830E+01 -0.3487518913837E+00
-0.8174175357805E+00 -0.2743640838713E+01 -0.1673697431767E+01 -0.2605882893363E+00
-0.6009297251233E+00 -0.2803108154815E+01 -0.1599897799513E+01 -0.1923813136710E+00
-0.4106129556834E+00 -0.2855303049305E+01 -0.1534980518451E+01 -0.1413650502650E+00
-0.2446560262220E+00 -0.2902077576549E+01 -0.1478964789551E+01 -0.1055349232186E+00
-0.1011312398950E+00 -0.2945262208072E+01 -0.1431804916913E+01 -0.8331287118593E-01
 0.2173398661157E-01 -0.2986591454740E+01 -0.1393483006486E+01 -0.7342349858389E-01
 0.1254658178748E+00 -0.3027783079067E+01 -0.1364089109301E+01 -0.7488472653954E-01
 0.2113838783962E+00 -0.3070504598765E+01 -0.1343786735165E+01 -0.8690356725771E-01
 0.2803133270817E+00 -0.3116234219659E+01 -0.1332882816131E+01 -0.1087947838843E+00
 0.3334694545675E+00 -0.3166605347617E+01 -0.1331573866356E+01 -0.1406590207797E+00
 0.3724893959323E+00 -0.3223358606143E+01 -0.1339908525400E+01 -0.1822058395058E+00
 0.3981943366352E+00 -0.3287817323732E+01 -0.1358122800491E+01 -0.2323038001314E+00
 0.4104539913439E+00 -0.3361000107073E+01 -0.1386756670875E+01 -0.2899681425433E+00
 0.4082427817329E+00 -0.3443755188252E+01 -0.1426690827445E+01 -0.3540980481302E+00
 0.3881726243369E+00 -0.3537894249611E+01 -0.1480369160124E+01 -0.4232325598067E+00
 0.3460056326418E+00 -0.3643007898707E+01 -0.1549591061120E+01 -0.4959442923495E+00
 0.2789879728906E+00 -0.3758669562212E+01 -0.1635450342833E+01 -0.5729888911326E+00
-0.1687711143103E+01 -0.2534383822901E+01 -0.1984384628989E+01 -0.5566385928060E+00
-0.1371821376356E+01 -0.2628387889098E+01 -0.1880098349995E+01 -0.4190933164556E+00
-0.1088648907512E+01 -0.2710806966910E+01 -0.1785744256449E+01 -0.3120314909425E+00
-0.8364010853422E+00 -0.2782774608094E+01 -0.1701012571601E+01 -0.2286395423095E+00
-0.6133363910597E+00 -0.2845743059102E+01 -0.1625767337453E+01 -0.1644368870293E+00
-0.4175132608244E+00 -0.2901501077098E+01 -0.1559936734867E+01 -0.1165417452659E+00
-0.2468104683963E+00 -0.2952017197842E+01 -0.1503448999319E+01 -0.8294105608527E-01
-0.9910987254625E-01 -0.2999226982317E+01 -0.1456218318092E+01 -0.6211005410620E-01
 0.2749314144192E-01 -0.3044971514071E+01 -0.1418214831539E+01 -0.5285378835723E-01
 0.1346509396187E+00 -0.3091025719224E+01 -0.1389496142890E+01 -0.5427123469093E-01
 0.2237720156050E+00 -0.3139128758370E+01 -0.1370217665624E+01 -0.6566102725747E-01
 0.2958664158557E+00 -0.3190898977298E+01 -0.1360665300427E+01 -0.8644904713292E-01
 0.3521482945094E+00 -0.3248098772813E+01 -0.1361096721350E+01 -0.1166210737613E+00
 0.3940272140137E+00 -0.3312564320836E+01 -0.1371712436727E+01 -0.1558312828618E+00
 0.4221554287997E+00 -0.3385819248573E+01 -0.1392921991761E+01 -0.2030740495374E+00
 0.4362506930309E+00 -0.3469132463468E+01 -0.1425454428490E+01 -0.2573718306555E+00
 0.4347380824207E+00 -0.3563802585933E+01 -0.1470660312921E+01 -0.3175659347058E+00
 0.4148731398083E+00 -0.3670711108504E+01 -0.1530243841406E+01 -0.3824485568946E+00
 0.3725745982096E+00 -0.3790188548030E+01 -0.1606278552342E+01 -0.4510225621818E+00
 0.3044601518122E+00 -0.3923049233668E+01 -0.1700736864159E+01 -0.5234286429478E+00
-0.1737575807495E+01 -0.2559069706448E+01 -0.2019423386431E+01 -0.5067327893202E+00
-0.1407662014271E+01 -0.2658408842795E+01 -0.1911053297974E+01 -0.3758150665199E+00
-0.1114083218251E+01 -0.2744775850621E+01 -0.1813663757769E+01 -0.2744482655265E+00
-0.8539370090037E+00 -0.2820068475219E+01 -0.1726782573205E+01 -0.1958765841415E+00
-0.6246334232168E+00 -0.2886197744557E+01 -0.1650090644668E+01 -0.1356006050456E+00
-0.4236648471715E+00 -0.2945193298827E+01 -0.1583363324603E+01 -0.9069619450183E-01
-0.2485596430538E+00 -0.2999143415179E+01 -0.1526420433498E+01 -0.5915690942873E-01
-0.9699700406779E-01 -0.3050085323883E+01 -0.1479128690385E+01 -0.3951401125070E-01
 0.3307661285753E-01 -0.3099947119084E+01 -0.1441429134270E+01 -0.3065371062392E-01
 0.1434280599267E+00 -0.3150581815205E+01 -0.1413362261396E+01 -0.3175279351186E-01
 0.2355571517996E+00 -0.3203806353719E+01 -0.1395077121364E+01 -0.4218457926852E-01
 0.3106041874737E+00 -0.3261371738151E+01 -0.1386860745301E+01 -0.6144825230714E-01
 0.3697701870955E+00 -0.3325147332216E+01 -0.1389027254684E+01 -0.8943598674267E-01
 0.4142663608819E+00 -0.3397058370363E+01 -0.1401912240900E+01 -0.1257572280724E+00
 0.4445763445906E+00 -0.3478787507334E+01 -0.1426079242872E+01 -0.1694933361588E+00
 0.4601910723705E+00 -0.3571825953834E+01 -0.1462468390579E+01 -0.2196866612051E+00
 0.4595040040016E+00 -0.3677450616774E+01 -0.1512434904167E+01 -0.2752629673123E+00
 0.4397432813362E+00 -0.3796677632818E+01 -0.1577759141195E+01 -0.3351678470759E+00
 0.3969286326257E+00 -0.3930278933470E+01 -0.1660674637185E+01 -0.3984712317800E+00
 0.3269382476056E+00 -0.4079699871930E+01 -0.1763797958959E+01 -0.4647404045648E+00
-0.1784445322799E+01 -0.2582273285879E+01 -0.2052357740873E+01 -0.4550942266620E+00
-0.1441136175235E+01 -0.2686726772067E+01 -0.1940095580311E+01 -0.3314295202307E+00
-0.1137678960113E+01 -0.2776847881166E+01 -0.1839827610735E+01 -0.2360606894878E+00
-0.8700751182539E+00 -0.2855224366439E+01 -0.1750890753365E+01 -0.1623856678709E+00
-0.6349308230818E+00 -0.2924226182697E+01 -0.1672803788473E+01 -0.1059770702321E+00
-0.4291887382747E+00 -0.2986145814369E+01 -0.1605207235671E+01 -0.6393433126949E-01
-0.2500328122535E+00 -0.3043220194080E+01 -0.1547828909051E+01 -0.3428762907119E-01
-0.9492579901481E-01 -0.3097585108611E+01 -0.1500480122779E+01 -0.1563159254347E-01
 0.3833553283292E-01 -0.3151254325836E+01 -0.1463071829001E+01 -0.6931323848774E-02
 0.1516299456609E+00 -0.3206159094797E+01 -0.1435628696453E+01 -0.7434902256640E-02
 0.2465386949693E+00 -0.3264198336903E+01 -0.1418300028112E+01 -0.1657607559785E-01
 0.3242966799595E+00 -0.3327236694093E+01 -0.1411381803063E+01 -0.3390190455133E-01
 0.3860776752341E+00 -0.3397235877430E+01 -0.1415244351442E+01 -0.5922919078076E-01
 0.4329209947006E+00 -0.3476195617770E+01 -0.1430339069215E+01 -0.9213184684955E-01
 0.4651390417530E+00 -0.3565926901224E+01 -0.1457370290255E+01 -0.1317597626783E+00
 0.4820945795543E+00 -0.3668029326201E+01 -0.1497389327126E+01 -0.1772056803585E+00
 0.4820818933836E+00 -0.3783897688835E+01 -0.1551853419926E+01 -0.2274785384829E+00
 0.4622545199035E+00 -0.3914730244184E+01 -0.1622663586296E+01 -0.2815968375358E+00
 0.4185046226246E+00 -0.4061660184977E+01 -0.1712283109963E+01 -0.3385924812991E+00
 0.3460683724512E+00 -0.4226307158046E+01 -0.1823712224604E+01 -0.3976179250283E+00
-0.1828114032121E+01 -0.2603866218341E+01 -0.2083030712434E+01 -0.4018294936405E+00
-0.1472158672139E+01 -0.2713153818324E+01 -0.1967096865528E+01 -0.2860145572349E+00
-0.1159429699773E+01 -0.2806782745145E+01 -0.1864119844384E+01 -0.1969400986270E+00
-0.8848713782392E+00 -0.2887991463930E+01 -0.1773245531322E+01 -0.1282487403563E+00
-0.6443219332800E+00 -0.2959587422279E+01 -0.1693837392817E+01 -0.7566141595110E-01
-0.4342003518312E+00 -0.3024131998010E+01 -0.1625416200303E+01 -0.3635943099555E-01
-0.2513535660882E+00 -0.3084019610021E+01 -0.1567625388795E+01 -0.8441263669915E-02
-0.9302897441603E-01 -0.3141488978458E+01 -0.1520223433995E+01  0.9424378168382E-02
 0.4312477420918E-01 -0.3198636832649E+01 -0.1483090663705E+01  0.1819537979224E-01
 0.1590915451661E+00 -0.3257470650410E+01 -0.1456238175771E+01  0.1855923628744E-01
 0.2565246633806E+00 -0.3319966252695E+01 -0.1439817543326E+01  0.1103341857476E-01
 0.3367247946294E+00 -0.3388083848024E+01 -0.1434138751458E+01 -0.3960098334187E-02
 0.4008302635309E+00 -0.3463860523361E+01 -0.1439624218469E+01 -0.2617834861878E-01
 0.4497288541099E+00 -0.3549357029465E+01 -0.1456825238722E+01 -0.5516960483696E-01
 0.4835911756079E+00 -0.3646472057412E+01 -0.1486554010677E+01 -0.9014418734213E-01
 0.5016572195671E+00 -0.3756911270455E+01 -0.1529969400037E+01 -0.1302482253943E+00
 0.5021125227339E+00 -0.3882197349846E+01 -0.1588639864713E+01 -0.1745563631118E+00
 0.4819695661580E+00 -0.4023710853808E+01 -0.1664618400973E+01 -0.2221232839628E+00
 0.4369205054750E+00 -0.4182784110341E+01 -0.1760555889822E+01 -0.2719381491293E+00
 0.3616376174054E+00 -0.4360993884269E+01 -0.1879697440658E+01 -0.3229058462143E+00
-0.1868380854629E+01 -0.2623718038003E+01 -0.2111286474182E+01 -0.3470605358846E+00
-0.1500647041826E+01 -0.2737510595215E+01 -0.1991934084357E+01 -0.2396616239948E+00
-0.1179333300067E+01 -0.2834369038454E+01 -0.1886440094320E+01 -0.1571653527670E+00
-0.8983774260081E+00 -0.2918145285288E+01 -0.1793765669760E+01 -0.9354718361039E-01
-0.6528935499998E+00 -0.2992060383629E+01 -0.1713128344460E+01 -0.4474469968156E-01
-0.4388058908175E+00 -0.3058936587133E+01 -0.1643938960467E+01 -0.8072669994455E-02
-0.2526395061993E+00 -0.3121326722489E+01 -0.1585764123462E+01  0.1827196644024E-01
-0.9143347465462E-01 -0.3181572559321E+01 -0.1538312832067E+01  0.3553468009290E-01
 0.4730475474612E-01 -0.3241850872238E+01 -0.1501436671413E+01  0.4459687984143E-01
 0.1656558029403E+00 -0.3304239824785E+01 -0.1475134486525E+01  0.4608748015840E-01
 0.2653346707621E+00 -0.3370783502833E+01 -0.1459560947371E+01  0.4048421334717E-01
 0.3476861273879E+00 -0.3443519099447E+01 -0.1455041493177E+01  0.2818903331396E-01
 0.4138079711990E+00 -0.3524542706208E+01 -0.1462045321746E+01  0.9491183275546E-02
 0.4644587776182E+00 -0.3615960146852E+01 -0.1481205639783E+01 -0.1514117680238E-01
 0.4996816293753E+00 -0.3719740058509E+01 -0.1513427457854E+01 -0.4496990199878E-01
 0.5185999066324E+00 -0.3837680894641E+01 -0.1559968060407E+01 -0.7919006573423E-01
 0.5192759905187E+00 -0.3971423003622E+01 -0.1622509092043E+01 -0.1169294998296E+00
 0.4985604599186E+00 -0.4122478547627E+01 -0.1703241496903E+01 -0.1572740712284E+00
 0.4519117496008E+00 -0.4292272552342E+01 -0.1804969572710E+01 -0.1992079118068E+00
 0.3734998153595E+00 -0.4482241208187E+01 -0.1931108449731E+01 -0.2415400652993E+00
-0.1905055778748E+01 -0.2641705456826E+01 -0.2136977775299E+01 -0.2909228196210E+00
-0.1526525090599E+01 -0.2759631980112E+01 -0.2014493818125E+01 -0.1924708727732E+00
-0.1197388660496E+01 -0.2859416869277E+01 -0.1906698594157E+01 -0.1168198681338E+00
-0.9106417446876E+00 -0.2945485538175E+01 -0.1812379818349E+01 -0.5836269005250E-01
-0.6607252332638E+00 -0.3021444286271E+01 -0.1730619669792E+01 -0.1331609192369E-01
-0.4431033498106E+00 -0.3090361453866E+01 -0.1660728453516E+01  0.2082568501253E-01
-0.2539998815198E+00 -0.3154942138492E+01 -0.1602202745342E+01  0.4573960102617E-01
-0.9025821809454E-01 -0.3217627390800E+01 -0.1554706232237E+01  0.6257355621676E-01
 0.5074500475559E-01 -0.3280668582255E+01 -0.1518064077574E+01  0.7213179599184E-01
 0.1711769448045E+00 -0.3346206818516E+01 -0.1492264036859E+01  0.7498899928878E-01
 0.2728038554442E+00 -0.3416343403590E+01 -0.1477463583881E+01  0.7158977674562E-01
 0.3569980259300E+00 -0.3493174628533E+01 -0.1474002999485E+01  0.6232278325930E-01
 0.4248150746677E+00 -0.3578839348093E+01 -0.1482391404750E+01  0.4751215612447E-01
 0.4769012718696E+00 -0.3675476052648E+01 -0.1503330143153E+01  0.2763566484192E-01
 0.5131842516719E+00 -0.3785107047470E+01 -0.1537803710125E+01  0.3387941793237E-02
 0.5326747225399E+00 -0.3909606380264E+01 -0.1587157875105E+01 -0.2447050283111E-01
 0.5333100148732E+00 -0.4050704071653E+01 -0.1653175202494E+01 -0.5511696985146E-01
 0.5117771460950E+00 -0.4209993980557E+01 -0.1738161907789E+01 -0.8767986045148E-01
 0.4633022556196E+00 -0.4388925460974E+01 -0.1845042901837E+01 -0.1211846043609E+00
 0.3815826332209E+00 -0.4588789363040E+01 -0.1977387157999E+01 -0.1544681636732E+00
-0.1937963824055E+01 -0.2657716817813E+01 -0.2159969896199E+01 -0.2335638276222E+00
-0.1549723563483E+01 -0.2779368926663E+01 -0.2034673465208E+01 -0.1445488491761E+00
-0.1213595551589E+01 -0.2881756990778E+01 -0.1924815690030E+01 -0.7598999385959E-01
-0.9217087736250E+00 -0.2969834277173E+01 -0.1829025229236E+01 -0.2277730022388E-01
-0.6678892545654E+00 -0.3047559769238E+01 -0.1746261036758E+01  0.1853610371143E-01
-0.4471816107497E+00 -0.3118227957624E+01 -0.1675742492885E+01  0.5023543913276E-01
-0.2555341606016E+00 -0.3184685059827E+01 -0.1616903029501E+01  0.7384663007512E-01
-0.8961158591485E-01 -0.3249463738585E+01 -0.1569365398535E+01  0.9040875419239E-01
 0.5332698903954E-01 -0.3314881985136E+01 -0.1532930844277E+01  0.1006472432298E+00
 0.1755237354660E+00 -0.3383134120108E+01 -0.1507576876958E+01  0.1050853913648E+00
 0.2787858087527E+00 -0.3456366330881E+01 -0.1493462841612E+01  0.1041391919990E+00
 0.3645004101625E+00 -0.3536716897903E+01 -0.1490941745456E+01  0.9818779815812E-01
 0.4336805272316E+00 -0.3626352423268E+01 -0.1500555787331E+01  0.8758096884248E-01
 0.4868740591059E+00 -0.3727431721149E+01 -0.1523062097297E+01  0.7280095598374E-01
 0.5239039316323E+00 -0.3842014342120E+01 -0.1559511888974E+01  0.5450488712769E-01
 0.5436753379162E+00 -0.3972028116572E+01 -0.1611325801881E+01  0.3341082589211E-01
 0.5440069160387E+00 -0.4119261710106E+01 -0.1680369748949E+01  0.1028923639397E-01
 0.5214336461129E+00 -0.4285348837279E+01 -0.1769040135361E+01 -0.1404826092411E-01
 0.4709674088436E+00 -0.4471722260034E+01 -0.1880354775290E+01 -0.3870877302785E-01
 0.3858859643611E+00 -0.4679537682205E+01 -0.2018016302268E+01 -0.6264595920109E-01
-0.1966947747808E+01 -0.2671654288416E+01 -0.2180142951496E+01 -0.1751417332594E+00
-0.1570181046980E+01 -0.2796590090720E+01 -0.2052382429514E+01 -0.9600709767610E-01
-0.1227954522829E+01 -0.2901240971927E+01 -0.1940721877613E+01 -0.3476401684346E-01
-0.9316186424888E+00 -0.2991035923385E+01 -0.1843647641285E+01  0.1312679228248E-01
-0.6744501151926E+00 -0.3070249716075E+01 -0.1760008916232E+01  0.5072406517577E-01
-0.4511197134693E+00 -0.3142378954336E+01 -0.1688944369584E+01  0.8005605954168E-01
-0.2573306370097E+00 -0.3210395833556E+01 -0.1629831437032E+01  0.1024754310726E+00
-0.8958949313752E-01 -0.3276913694353E+01 -0.1582256494107E+01  0.1189019232605E+00
 0.5494650999725E-01 -0.3344306842602E+01 -0.1545999352403E+01  0.1299798096712E+00
 0.1785820254995E+00 -0.3414811534784E+01 -0.1521027865506E+01  0.1361825344708E+00
 0.2831549872204E+00 -0.3490605740387E+01 -0.1507501850165E+01  0.1379002337416E+00
 0.3700575885237E+00 -0.3573853585407E+01 -0.1505784114716E+01  0.1355043490357E+00
 0.4402606361259E+00 -0.3666734970847E+01 -0.1516442933473E+01  0.1293626388912E+00
 0.4942256180789E+00 -0.3771416140324E+01 -0.1540279541549E+01  0.1199576078574E+00
 0.5316819441872E+00 -0.3889976463282E+01 -0.1578398419971E+01  0.1079124867307E+00
 0.5514397667937E+00 -0.4024374556885E+01 -0.1632279347203E+01  0.9390227068788E-01
 0.5512118866892E+00 -0.4176428519569E+01 -0.1703851813132E+01  0.7863873389659E-01
 0.5274009150475E+00 -0.4347779149104E+01 -0.1795577765453E+01  0.6285463649248E-01
 0.4748338707218E+00 -0.4539815797461E+01 -0.1910541500721E+01  0.4732457525249E-01
 0.3864715813926E+00 -0.4753546841630E+01 -0.2052525367106E+01  0.3290595170446E-01
-0.1991869876787E+01 -0.2683434862803E+01 -0.2197393222034E+01 -0.1158240360629E+00
-0.1587844551016E+01 -0.2811182865227E+01 -0.2067542880390E+01 -0.4696114419952E-01
-0.1240466819834E+01 -0.2917741739991E+01 -0.1954358018161E+01  0.6768521118892E-02
-0.9404067786095E+00 -0.3008957652658E+01 -0.1856201277988E+01  0.4926747657215E-01
-0.6804639785655E+00 -0.3089380117708E+01 -0.1771826720755E+01  0.8316035700163E-01
-0.4549859754358E+00 -0.3162680331153E+01 -0.1700303159784E+01  0.1101865713137E+00
-0.2594651508328E+00 -0.3231938125541E+01 -0.1640959535734E+01  0.1315059603079E+00
-0.9027368356651E-01 -0.3299833913467E+01 -0.1593350566564E+01  0.1479093095928E+00
 0.5551570123279E-01 -0.3368786100160E+01 -0.1557237083546E+01  0.1599569320313E+00
 0.1802568661610E+00 -0.3441060416336E+01 -0.1532577664695E+01  0.1680728655039E+00
 0.2858086209503E+00 -0.3518853125045E+01 -0.1519530913070E+01  0.1726227405189E+00
 0.3735602029189E+00 -0.3604338824206E+01 -0.1518465948154E+01  0.1739706262884E+00
 0.4444413847589E+00 -0.3699696566273E+01 -0.1529969931431E+01  0.1724958039374E+00
 0.4988382115728E+00 -0.3807086429194E+01 -0.1554876658338E+01  0.1686771358318E+00
 0.5363986911122E+00 -0.3928589824092E+01 -0.1594329828457E+01  0.1631054273732E+00
 0.5558515043192E+00 -0.4066173804162E+01 -0.1649851476742E+01  0.1564101410530E+00
 0.5548216061213E+00 -0.4221660166393E+01 -0.1723414118957E+01  0.1492362648582E+00
 0.5296057016942E+00 -0.4396671437727E+01 -0.1817520891326E+01  0.1422190604458E+00
 0.4748912546735E+00 -0.4592532754802E+01 -0.1935291500152E+01  0.1359811280766E+00
 0.3834263162182E+00 -0.4810106867960E+01 -0.2080539854042E+01  0.1311357769865E+00
-0.2012613627309E+01 -0.2692990962118E+01 -0.2211634151421E+01 -0.5578615359797E-01
-0.1602670014897E+01 -0.2823054171087E+01 -0.2080090362137E+01  0.2470375042901E-02
-0.1251134349652E+01 -0.2931154227062E+01 -0.1965675626070E+01  0.4851736701773E-01
-0.9481035943638E+00 -0.3023490009305E+01 -0.1866648988990E+01  0.8556299373573E-01
-0.6859781481230E+00 -0.3104840950941E+01 -0.1781684972041E+01  0.1157580359533E+00
-0.4588372205512E+00 -0.3179022360352E+01 -0.1709793998688E+01  0.1405257259801E+00
-0.2620000081565E+00 -0.3249200793295E+01 -0.1650264372496E+01  0.1608162377164E+00
-0.9173036065744E-01 -0.3318108022168E+01 -0.1602624035863E+01  0.1772827775037E+00
 0.5496460348105E-01 -0.3388192858958E+01 -0.1566617276101E+01  0.1903986405881E+00
 0.1804741415647E+00 -0.3461737219965E+01 -0.1542193642937E+01  0.2005380253201E+00
 0.2866682787885E+00 -0.3540942008362E+01 -0.1529508649020E+01  0.2080422621665E+00
 0.3749268299450E+00 -0.3627977555467E+01 -0.1528933837117E+01  0.2132672785181E+00
 0.4461403134555E+00 -0.3725008122872E+01 -0.1541067866517E+01  0.2165981349898E+00
 0.5006298402299E+00 -0.3834173627601E+01 -0.1566765576091E+01  0.2185062171450E+00
 0.5379751499278E+00 -0.3957540000097E+01 -0.1607195475503E+01  0.2195497529191E+00
 0.5568396853738E+00 -0.4097061896928E+01 -0.1663904435210E+01  0.2203092043984E+00
 0.5547828316369E+00 -0.4254542766914E+01 -0.1738887165170E+01  0.2213544323480E+00
 0.5280288239131E+00 -0.4431567207206E+01 -0.1834663035494E+01  0.2232062805533E+00
 0.4711783168827E+00 -0.4629385709970E+01 -0.1954357469794E+01  0.2263075967931E+00
 0.3768619590916E+00 -0.4848730220312E+01 -0.2101778077443E+01  0.2309892039771E+00
-0.2029084709127E+01 -0.2700270754827E+01 -0.2222797062421E+01  0.4790017041015E-02
-0.1614622715280E+01 -0.2832131033937E+01 -0.2089974256831E+01  0.5216649651709E-01
-0.1259959647057E+01 -0.2941395947621E+01 -0.1974637124490E+01  0.9039200659459E-01
-0.9547342152275E+00 -0.3034547505909E+01 -0.1874962404179E+01  0.1219322002546E+00
-0.6910306160153E+00 -0.3116546962854E+01 -0.1789561457529E+01  0.1484308586277E+00
-0.4627181298066E+00 -0.3191320816224E+01 -0.1717398300278E+01  0.1709723417753E+00
-0.2649831142311E+00 -0.3262099408596E+01 -0.1657728781524E+01  0.1902830360287E+00
-0.9400912591991E-01 -0.3331648565298E+01 -0.1610059110789E+01  0.2068710527122E+00
 0.5324234986340E-01 -0.3402432751817E+01 -0.1574119484926E+01  0.2211195323791E+00
 0.1791817876984E+00 -0.3476736268857E+01 -0.1549850602213E+01  0.2333517064287E+00
 0.2856810324242E+00 -0.3556751027040E+01 -0.1537402893570E+01  0.2438838639808E+00
 0.3741051603256E+00 -0.3644628931003E+01 -0.1537146168320E+01  0.2530621373305E+00
 0.4453077668663E+00 -0.3742505784808E+01 -0.1549683064502E+01  0.2612720738668E+00
 0.4995553446632E+00 -0.3852487304172E+01 -0.1575878016972E+01  0.2689737197019E+00
 0.5363733946418E+00 -0.3976607076634E+01 -0.1616909826435E+01  0.2766914917861E+00
 0.5543784955360E+00 -0.4116788333699E+01 -0.1674332619690E+01  0.2849531168294E+00
 0.5510902893808E+00 -0.4274797465895E+01 -0.1750142368522E+01  0.2942458780079E+00
 0.5226984225841E+00 -0.4452167179203E+01 -0.1846850310926E+01  0.3049627436713E+00
 0.4637725918130E+00 -0.4650071478695E+01 -0.1967560471844E+01  0.3173470482459E+00
 0.3669119098855E+00 -0.4869134368246E+01 -0.2116044550062E+01  0.3314238673872E+00
-0.2041212068817E+01 -0.2705238308364E+01 -0.2230831671617E+01  0.6571759963296E-01
-0.1623677585020E+01 -0.2838360974692E+01 -0.2097158117745E+01  0.1020046982320E+00
-0.1266945852592E+01 -0.2948407454647E+01 -0.1981216049377E+01  0.1323020880092E+00
-0.9603182669650E+00 -0.3042069125950E+01 -0.1881122069899E+01  0.1582948515524E+00
-0.6956497106061E+00 -0.3124438310034E+01 -0.1795441365147E+01  0.1810935779803E+00
-0.4666607460306E+00 -0.3199517851443E+01 -0.1723103936442E+01  0.2014257869163E+00
-0.2684473328445E+00 -0.3270577429969E+01 -0.1663341634304E+01  0.2197827419149E+00
-0.9714222097174E-01 -0.3340398489470E+01 -0.1615644129810E+01  0.2365211467185E+00
 0.5031798709098E-01 -0.3411445719766E+01 -0.1579730030351E+01  0.2519309189505E+00
 0.1763506095270E+00 -0.3485991782802E+01 -0.1555531347494E+01  0.2662826541901E+00
 0.2828202052154E+00 -0.3566206164914E+01 -0.1543191397144E+01  0.2798660676704E+00
 0.3710726979980E+00 -0.3654208789772E+01 -0.1543073959220E+01  0.2930151211104E+00
 0.4419275367895E+00 -0.3752093750262E+01 -0.1555778116386E+01  0.3061108263510E+00
 0.4956067986568E+00 -0.3861918779903E+01 -0.1582166627173E+01  0.3195980050246E+00
 0.5315964045935E+00 -0.3985669133663E+01 -0.1623414178545E+01  0.3339654217634E+00
 0.5484859614536E+00 -0.4125219344124E+01 -0.1681064685591E+01  0.3496846710333E+00
 0.5437834251514E+00 -0.4282283002421E+01 -0.1757094796860E+01  0.3671548382687E+00
 0.5136839740351E+00 -0.4458331391802E+01 -0.1853984281648E+01  0.3866321726300E+00
 0.4527826337830E+00 -0.4654465543674E+01 -0.1974790962640E+01  0.4081493914168E+00
 0.3537256523418E+00 -0.4871226952078E+01 -0.2123225605491E+01  0.4314158987735E+00
-0.2048948529365E+01 -0.2707873567151E+01 -0.2235706379692E+01  0.1268062560522E+00
-0.1629819433960E+01 -0.2841712216953E+01 -0.2101619870599E+01  0.1518616486432E+00
-0.1272096685381E+01 -0.2952152620615E+01 -0.1985397168782E+01  0.1741578210982E+00
-0.9648697190582E+00 -0.3046018658783E+01 -0.1885117532804E+01  0.1945718930612E+00
-0.6998538483794E+00 -0.3128480993707E+01 -0.1799317371217E+01  0.2136622955752E+00
-0.4706841387465E+00 -0.3203582594555E+01 -0.1726905360272E+01  0.2317865592898E+00
-0.2724100710502E+00 -0.3274606998959E+01 -0.1667098018676E+01  0.2491923356254E+00
-0.1011440604560E+00 -0.3344332138287E+01 -0.1619373809302E+01  0.2660799031561E+00
 0.4618094862776E-01 -0.3415207178137E+01 -0.1583442323853E+01  0.2826430862490E+00
 0.1719747062502E+00 -0.3489479171200E+01 -0.1559227094571E+01  0.2990977642621E+00
 0.2780856934954E+00 -0.3569282136448E+01 -0.1546862324265E+01  0.3157048823269E+00
 0.3658369728312E+00 -0.3656691151108E+01 -0.1546701459867E+01  0.3327832581230E+00
 0.4360169383990E+00 -0.3753745912728E+01 -0.1559332613980E+01  0.3507045048506E+00
 0.4888132934946E+00 -0.3862442882142E+01 -0.1585605902643E+01  0.3698943487134E+00
 0.5236873046826E+00 -0.3984703933674E+01 -0.1626677811500E+01  0.3908038187030E+00
 0.5392222240809E+00 -0.4122339175900E+01 -0.1684064963084E+01  0.4138457581133E+00
 0.5329432702689E+00 -0.4276995870859E+01 -0.1759704717814E+01  0.4393278360301E+00
 0.5010916863843E+00 -0.4450076985661E+01 -0.1856023085952E+01  0.4673657893654E+00
 0.4383429320156E+00 -0.4642616110912E+01 -0.1976008389069E+01  0.4977789799494E+00
 0.3374632169474E+00 -0.4855096435081E+01 -0.2123287607137E+01  0.5299627565574E+00
-0.2052271296806E+01 -0.2708172317824E+01 -0.2237408493201E+01  0.1878637445864E+00
-0.1633043143870E+01 -0.2842173774425E+01 -0.2103351946264E+01  0.2016139657345E+00
-0.1275416490462E+01 -0.2952618787420E+01 -0.1987176575564E+01  0.2158703805308E+00
-0.9683968537409E+00 -0.3046384884795E+01 -0.1886947412326E+01  0.2306857708420E+00
-0.7036514547795E+00 -0.3128667104395E+01 -0.1801189718244E+01  0.2460548605952E+00
-0.4747942845905E+00 -0.3203511486457E+01 -0.1728803708007E+01  0.2619569357601E+00
-0.2768731323755E+00 -0.3274189382215E+01 -0.1668999377624E+01  0.2783904494115E+00
-0.1060110875716E+00 -0.3343455784735E+01 -0.1621249425872E+01  0.2953956170320E+00
 0.4084115493630E-01 -0.3413728600532E+01 -0.1585257095409E+01  0.3130676111134E+00
 0.1660714789312E+00 -0.3487215618645E+01 -0.1560937741706E+01  0.3315652170608E+00
 0.2715038317776E+00 -0.3566002930171E+01 -0.1548414572318E+01  0.3511178593422E+00
 0.3584352492527E+00 -0.3652108705176E+01 -0.1548026520358E+01  0.3720257386364E+00
 0.4276263344536E+00 -0.3747506285807E+01 -0.1560343573179E+01  0.3946462934813E+00
 0.4792401693627E+00 -0.3854118226951E+01 -0.1586192683043E+01  0.4193823254056E+00
 0.5127281279212E+00 -0.3973788898775E+01 -0.1626698558175E+01  0.4466450390186E+00
 0.5266876323284E+00 -0.4108249459138E+01 -0.1683334054331E+01  0.4767869078617E+00
 0.5186897774816E+00 -0.4259068584146E+01 -0.1757978034674E+01  0.5100235371845E+00
 0.4850613423417E+00 -0.4427574829893E+01 -0.1852981334449E+01  0.5463312658841E+00
 0.4206109127324E+00 -0.4614739090398E+01 -0.1971240238503E+01  0.5853209654772E+00
 0.3182917848011E+00 -0.4821006579307E+01 -0.2116275948050E+01  0.6260855795863E+00
-0.2051182139719E+01 -0.2706145981311E+01 -0.2235944211213E+01  0.2486974954467E+00
-0.1633353761005E+01 -0.2839755347902E+01 -0.2102361275854E+01  0.2511389764402E+00
-0.1276910279226E+01 -0.2949816697955E+01 -0.1986561674236E+01  0.2573523051455E+00
-0.9709022968276E+00 -0.3043181528610E+01 -0.1886619393170E+01  0.2665607456344E+00
-0.7070409987885E+00 -0.3125014801415E+01 -0.1801066221527E+01  0.2781912857941E+00
-0.4789841132139E+00 -0.3199328294500E+01 -0.1728806827241E+01  0.2918416476431E+00
-0.2818227895707E+00 -0.3269355011622E+01 -0.1669053562327E+01  0.3072584500849E+00
-0.1117219035003E+00 -0.3337807664927E+01 -0.1621278893049E+01  0.3243196635011E+00
 0.3432878763109E-01 -0.3407057493863E+01 -0.1585182487908E+01  0.3430196637431E+00
 0.1586812638552E+00 -0.3479259938708E+01 -0.1560671973222E+01  0.3634575709947E+00
 0.2631268421394E+00 -0.3556441480420E+01 -0.1547857876066E+01  0.3858280811865E+00
 0.3489337776262E+00 -0.3640552259875E+01 -0.1547060682733E+01  0.4104088841224E+00
 0.4168381738100E+00 -0.3733488175532E+01 -0.1558825496855E+01  0.4375385004213E+00
 0.4669877841853E+00 -0.3837086025722E+01 -0.1583946169505E+01  0.4675930147198E+00
 0.4988382529689E+00 -0.3953099408295E+01 -0.1623502738886E+01  0.5009418095325E+00
 0.5110208456260E+00 -0.4083166802267E+01 -0.1678908595363E+01  0.5378763689609E+00
 0.5011797411866E+00 -0.4228766405693E+01 -0.1751965727875E+01  0.5785219736503E+00
 0.4657644380525E+00 -0.4391145472207E+01 -0.1844929081373E+01  0.6227210190142E+00
 0.3997657527216E+00 -0.4571213975749E+01 -0.1960580659850E+01  0.6698872625034E+00
 0.2963854428302E+00 -0.4769393039773E+01 -0.2102313565231E+01  0.7188312980890E+00
-0.2045707372330E+01 -0.2701821352964E+01 -0.2231338495228E+01  0.3091161519588E+00
-0.1630766535782E+01 -0.2834487077022E+01 -0.2098669192695E+01  0.3003154483696E+00
-0.1276583820368E+01 -0.2943780254503E+01 -0.1983571110158E+01  0.2985178733661E+00
-0.9723831565717E+00 -0.3036447011494E+01 -0.1884150174212E+01  0.3021231896094E+00
-0.7100111812928E+00 -0.3117568054978E+01 -0.1798962236485E+01  0.3099941525518E+00
-0.4832337504891E+00 -0.3191083833305E+01 -0.1726929260003E+01  0.3213485456805E+00
-0.2872301002842E+00 -0.3260163156370E+01 -0.1667274826399E+01  0.3356815011258E+00
-0.1182376865874E+00 -0.3327457552482E+01 -0.1619476758255E+01  0.3527080851869E+00
 0.2669372729853E-01 -0.3395276807826E+01 -0.1583234043832E+01  0.3723202394302E+00
 0.1498665852720E+00 -0.3465711739866E+01 -0.1558447218707E+01  0.3945547511917E+00
 0.2530318645737E+00 -0.3540718508587E+01 -0.1545212718767E+01  0.4195680114525E+00
 0.3374265927586E+00 -0.3622169185341E+01 -0.1543829014598E+01  0.4476109472267E+00
 0.4037655614524E+00 -0.3711872152285E+01 -0.1554810093748E+01  0.4789984018179E+00
 0.4521898562797E+00 -0.3811567489584E+01 -0.1578907483648E+01  0.5140759403735E+00
 0.4821725612457E+00 -0.3922905537543E+01 -0.1617144494758E+01  0.5531691801581E+00
 0.4923969574655E+00 -0.4047418805839E+01 -0.1670860264498E+01  0.5965087990430E+00
 0.4806052221465E+00 -0.4186482751630E+01 -0.1741762434440E+01  0.6441334230029E+00
 0.4434033955034E+00 -0.4341254478705E+01 -0.1831990004458E+01  0.6957604121930E+00
 0.3760091080960E+00 -0.4512580097335E+01 -0.1944188360011E+01  0.7506229002824E+00
 0.2719277893766E+00 -0.4700862037732E+01 -0.2081599091447E+01  0.8072757224505E+00
-0.2035897604273E+01 -0.2695240253884E+01 -0.2223634787694E+01  0.3689310938258E+00
-0.1625306902554E+01 -0.2826419141547E+01 -0.2092311235421E+01  0.3490243123401E+00
-0.1274443764403E+01 -0.2934566089773E+01 -0.1978234626445E+01  0.3392834703269E+00
-0.9728312566570E+00 -0.3026243991822E+01 -0.1879565362018E+01  0.3373018718296E+00
-0.7125412619993E+00 -0.3106396142134E+01 -0.1794900575390E+01  0.3413889990044E+00
-0.4875109420329E+00 -0.3178855389698E+01 -0.1723192171543E+01  0.3503892363094E+00
-0.2930514457740E+00 -0.3246701232084E+01 -0.1663683754373E+01  0.3635495752773E+00
-0.1255028785412E+00 -0.3312505886582E+01 -0.1615864115509E+01  0.3804230994524E+00
 0.1800467996983E-01 -0.3378503798276E+01 -0.1579434581598E+01  0.4007982716027E+00
 0.1397110540069E+00 -0.3446709927305E+01 -0.1554289466508E+01  0.4246468752287E+00
 0.2413195955564E+00 -0.3519000560119E+01 -0.1540510049437E+01  0.4520831349529E+00
 0.3240338890266E+00 -0.3597160887191E+01 -0.1538369685235E+01  0.4833266563913E+00
 0.3885503938429E+00 -0.3682902863111E+01 -0.1548345656629E+01  0.5186637818540E+00
 0.4350114120974E+00 -0.3777859889826E+01 -0.1571138780547E+01  0.5584056555926E+00
 0.4629193244377E+00 -0.3883567315282E+01 -0.1607704551619E+01  0.6028320935132E+00
 0.4710255755887E+00 -0.4001438582677E+01 -0.1659294109123E+01  0.6521136065476E+00
 0.4571922970825E+00 -0.4132733257044E+01 -0.1727504246800E+01  0.7062071305293E+00
 0.4182117063616E+00 -0.4278506805165E+01 -0.1814338691836E+01  0.7647162484666E+00
 0.3495673686020E+00 -0.4439532897299E+01 -0.1922283793612E+01  0.8267133363804E+00
 0.2451177235210E+00 -0.4616190072056E+01 -0.2054403998601E+01  0.8905282793809E+00
-0.2021827271362E+01 -0.2686459106575E+01 -0.2212894592018E+01  0.4279579154117E+00
-0.1617010400834E+01 -0.2815621217824E+01 -0.2083336855485E+01  0.3971493616583E+00
-0.1270497802575E+01 -0.2922252959202E+01 -0.1970592853037E+01  0.3795679354546E+00
-0.9722334596692E+00 -0.3012658700287E+01 -0.1872899310429E+01  0.3720282182136E+00
-0.7146015187948E+00 -0.3091592905397E+01 -0.1788911374833E+01  0.3723046700649E+00
-0.4917716472621E+00 -0.3162745864968E+01 -0.1717623226392E+01  0.3788796597876E+00
-0.2992292788629E+00 -0.3229083766830E+01 -0.1658307127270E+01  0.3907583799479E+00
-0.1334461198646E+00 -0.3293082481048E+01 -0.1610468438344E+01  0.4073344798705E+00
 0.8348013504509E-02 -0.3356888379418E+01 -0.1573813967988E+01  0.4282925717782E+00
 0.1283179357368E+00 -0.3422430582532E+01 -0.1548232940067E+01  0.4535368514148E+00
 0.2281125594371E+00 -0.3491497286348E+01 -0.1533790817758E+01  0.4831353117089E+00
 0.3088999964018E+00 -0.3565779366263E+01 -0.1530733299952E+01  0.5172714164216E+00
 0.3713610792001E+00 -0.3646884753190E+01 -0.1539496122871E+01  0.5561980738809E+00
 0.4156463434114E+00 -0.3736331351186E+01 -0.1560721949696E+01  0.6001878895550E+00
 0.4412977822049E+00 -0.3835528577783E+01 -0.1595288469876E+01  0.6494725205951E+00
 0.4471487552208E+00 -0.3945757809716E+01 -0.1644346251442E+01  0.7041629585473E+00
 0.4311998453201E+00 -0.4068148466401E+01 -0.1709365847572E+01  0.7641399599544E+00
 0.3904545660569E+00 -0.4203639825341E+01 -0.1792197067318E+01  0.8289057880994E+00
 0.3206953509837E+00 -0.4352919081728E+01 -0.1895145148643E+01  0.8973933906044E+00
 0.2161762034303E+00 -0.4516325016890E+01 -0.2021069937200E+01  0.9677399678271E+00
-0.2003593958538E+01 -0.2675548442381E+01 -0.2199196922854E+01  0.4860178456787E+00
-0.1605922540630E+01 -0.2802181800928E+01 -0.2071809035277E+01  0.4445779245486E+00
-0.1264754856445E+01 -0.2906940965010E+01 -0.1960697031111E+01  0.4192928880496E+00
-0.9705720739287E+00 -0.2995800081737E+01 -0.1864194908435E+01  0.4062365393144E+00
-0.7161538288669E+00 -0.3073275788146E+01 -0.1781031915479E+01  0.4026736156880E+00
-0.4959607897917E+00 -0.3142882653201E+01 -0.1710256413869E+01  0.4067405886275E+00
-0.3056930629726E+00 -0.3207451049439E+01 -0.1651177728645E+01  0.4172101660066E+00
-0.1419814123442E+00 -0.3269344848042E+01 -0.1603323338315E+01  0.4333207746067E+00
-0.2173670301017E-02 -0.3330611007473E+01 -0.1566408794581E+01  0.4546535505772E+00
 0.1158084172929E+00 -0.3393084273245E+01 -0.1540319648391E+01  0.4810426938868E+00
 0.2135530412383E+00 -0.3458458033937E+01 -0.1525105342700E+01  0.5125057777140E+00
 0.2921909823158E+00 -0.3528322938922E+01 -0.1520982015747E+01  0.5491850858053E+00
 0.3523898567623E+00 -0.3604176779787E+01 -0.1528339849945E+01  0.5912950160247E+00
 0.3943145595111E+00 -0.3687414463413E+01 -0.1547756950908E+01  0.6390651721973E+00
 0.4175553523926E+00 -0.3779309475811E+01 -0.1580024433999E+01  0.6926761003619E+00
 0.4210386217769E+00 -0.3880998322889E+01 -0.1626181055398E+01  0.7521794283670E+00
 0.4029181728697E+00 -0.3993464950751E+01 -0.1687556981324E+01  0.8173850012689E+00
 0.3604290260287E+00 -0.4117515031843E+01 -0.1765830418254E+01  0.8877062979419E+00
 0.2896799464954E+00 -0.4253729432114E+01 -0.1863103253515E+01  0.9619583374562E+00
 0.1853509734835E+00 -0.4402385169601E+01 -0.1982006067148E+01  0.1038117619719E+01
-0.1981317524969E+01 -0.2662592346573E+01 -0.2182637634089E+01  0.5429390956751E+00
-0.1592098611884E+01 -0.2786207403761E+01 -0.2057803822134E+01  0.4912015049636E+00
-0.1257225290885E+01 -0.2888750625334E+01 -0.1948608675681E+01  0.4583830274245E+00
-0.9678253318382E+00 -0.2975798758663E+01 -0.1853503317834E+01  0.4398642190258E+00
-0.7171523562626E+00 -0.3051584664733E+01 -0.1771306395375E+01  0.4324321245388E+00
-0.5000131452584E+00 -0.3119416278462E+01 -0.1701131824834E+01  0.4338980267197E+00
-0.3123603794286E+00 -0.3181967489934E+01 -0.1642334094435E+01  0.4428143934568E+00
-0.1510094816961E+00 -0.3241476175265E+01 -0.1594468254728E+01  0.4582703280782E+00
-0.1344319713214E-01 -0.3299880145535E+01 -0.1557261967104E+01  0.4797446781662E+00
 0.1023196044865E+00 -0.3358912855426E+01 -0.1530598824059E+01  0.5069995034158E+00
 0.1978007142854E+00 -0.3420167817326E+01 -0.1514512534588E+01  0.5399977301519E+00
 0.2740919076300E+00 -0.3485131206580E+01 -0.1509188466679E+01  0.5788352557109E+00
 0.3318497273696E+00 -0.3555186217339E+01 -0.1514968146443E+01  0.6236827351931E+00
 0.3712587165097E+00 -0.3631598804197E+01 -0.1532359837326E+01  0.6747218456580E+00
 0.3919643912786E+00 -0.3715497702105E+01 -0.1562060652126E+01  0.7320781923947E+00
 0.3929945543319E+00 -0.3807862208311E+01 -0.1604987793299E+01  0.7957432023867E+00
 0.3726670959265E+00 -0.3909514782168E+01 -0.1662318408317E+01  0.8654600542484E+00
 0.3284638765111E+00 -0.4021107568003E+01 -0.1735542530599E+01  0.9405649563675E+00
 0.2568412306159E+00 -0.4143090664535E+01 -0.1826537229309E+01  0.1019775190965E+01
 0.1529310037072E+00 -0.4275646807994E+01 -0.1937676423100E+01  0.1100934936571E+01
-0.1955139049155E+01 -0.2647687852812E+01 -0.2163328638438E+01  0.5985581143463E+00
-0.1575603439784E+01 -0.2767821649578E+01 -0.2041409786822E+01  0.5369163827458E+00
-0.1247921143050E+01 -0.2867821808033E+01 -0.1934399182103E+01  0.4967664007561E+00
-0.9639679263727E+00 -0.2952805838227E+01 -0.1840883664693E+01  0.4728518550214E+00
-0.7175443281144E+00 -0.3026680490329E+01 -0.1759785660205E+01  0.4615204791905E+00
-0.5038543447298E+00 -0.3092518820754E+01 -0.1690295383490E+01  0.4602834898397E+00
-0.3191381768749E+00 -0.3152819729332E+01 -0.1631820211779E+01  0.4674882290968E+00
-0.1604193096107E+00 -0.3209683003885E+01 -0.1583948083326E+01  0.4820820750439E+00
-0.2533067986335E-01 -0.3264929369372E+01 -0.1546422219218E+01  0.5034436462729E+00
 0.8800229015751E-01 -0.3320185842147E+01 -0.1519126265582E+01  0.5312610673346E+00
 0.1810300021612E+00 -0.3376942764770E+01 -0.1502078994616E+01  0.5654384394752E+00
 0.2548037710198E+00 -0.3436579381173E+01 -0.1495434532979E+01  0.6060199591823E+00
 0.3099710143529E+00 -0.3500361671567E+01 -0.1499483605087E+01  0.6531271724539E+00
 0.3467405068611E+00 -0.3569422491454E+01 -0.1514660528917E+01  0.7068883584248E+00
 0.3648184395996E+00 -0.3644738516683E+01 -0.1541562432319E+01  0.7673692188384E+00
 0.3633397424400E+00 -0.3727120417505E+01 -0.1580976913270E+01  0.8344986982512E+00
 0.3407933980271E+00 -0.3817213077208E+01 -0.1633917245071E+01  0.9079558155900E+00
 0.2949185518712E+00 -0.3915493677096E+01 -0.1701670304540E+01  0.9870089491721E+00
 0.2225356039460E+00 -0.4022253025210E+01 -0.1785867183464E+01  0.1070294729509E+01
 0.1192521656300E+00 -0.4137539037621E+01 -0.1888594825046E+01  0.1155547254859E+01
-0.1925219614937E+01 -0.2630944300425E+01 -0.2141397034788E+01  0.6527207420335E+00
-0.1556511088304E+01 -0.2747164277260E+01 -0.2022727416684E+01  0.5816241709539E+00
-0.1236856359055E+01 -0.2844312551988E+01 -0.1918149383325E+01  0.5343746376070E+00
-0.9589715908798E+00 -0.2926991588180E+01 -0.1826402689526E+01  0.5051433470497E+00
-0.7172708801118E+00 -0.2998743798746E+01 -0.1746526894633E+01  0.4898830244647E+00
-0.5074019701920E+00 -0.3062382163590E+01 -0.1677798538622E+01  0.4858341544162E+00
-0.3259241348982E+00 -0.3120214538912E+01 -0.1619685172583E+01  0.4911568585455E+00
-0.1700898024653E+00 -0.3174192657818E+01 -0.1571812752346E+01  0.5046660848486E+00
-0.3769553887537E-01 -0.3226014178678E+01 -0.1533943563359E+01  0.5256432037934E+00
 0.7301853439303E-01 -0.3277196420179E+01 -0.1505963602500E+01  0.5537010429722E+00
 0.1634272189933E+00 -0.3329125137358E+01 -0.1487878017858E+01  0.5886808423269E+00
 0.2345401827871E+00 -0.3383072083928E+01 -0.1479809989783E+01  0.6305697499501E+00
 0.2869975818557E+00 -0.3440185435294E+01 -0.1481998287357E+01  0.6794347699946E+00
 0.3210365085380E+00 -0.3501462900234E+01 -0.1494800400306E+01  0.7353447356793E+00
 0.3364278901764E+00 -0.3567723692815E+01 -0.1518709023388E+01  0.7982991493188E+00
 0.3324170122317E+00 -0.3639599923793E+01 -0.1554375964491E+01  0.8681603916303E+00
 0.3076672851591E+00 -0.3717543630506E+01 -0.1602641878248E+01  0.9445435106402E+00
 0.2601812182871E+00 -0.3801835312448E+01 -0.1664577420033E+01  0.1026655516534E+01
 0.1871563321348E+00 -0.3892575987851E+01 -0.1741547233769E+01  0.1113065065542E+01
 0.8470109619349E-01 -0.3989634279787E+01 -0.1835318591634E+01  0.1201410562989E+01
-0.1891738956202E+01 -0.2612482664685E+01 -0.2116984156447E+01  0.7052832534890E+00
-0.1534904512187E+01 -0.2724390078691E+01 -0.2001868452635E+01  0.6252323293932E+00
-0.1224047026843E+01 -0.2818397799524E+01 -0.1899949063574E+01  0.5711431511995E+00
-0.9528057038836E+00 -0.2898544008170E+01 -0.1810134360074E+01  0.5366859306543E+00
-0.7162679485595E+00 -0.2967973077723E+01 -0.1731593277961E+01  0.5174681425790E+00
-0.5105667155841E+00 -0.3029216096805E+01 -0.1663697917603E+01  0.5104928645024E+00
-0.3326081111068E+00 -0.3084376549551E+01 -0.1605982786436E+01  0.5137535995015E+00
-0.1798915609640E+00 -0.3135250476014E+01 -0.1558116753428E+01  0.5259438396837E+00
-0.5038864181182E-01 -0.3183408580730E+01 -0.1519884690739E+01  0.5462516456969E+00
 0.5753910327764E-01 -0.3230257200144E+01 -0.1491177501745E+01  0.5742136978096E+00
 0.1451875384820E+00 -0.3277078027222E+01 -0.1471988525974E+01  0.6096045786356E+00
 0.2135238185997E+00 -0.3325036744033E+01 -0.1462411071244E+01  0.6523490991472E+00
 0.2631827540160E+00 -0.3375165330963E+01 -0.1462631807455E+01  0.7024543463749E+00
 0.2944336138298E+00 -0.3428326706309E+01 -0.1472929749729E+01  0.7599231191376E+00
 0.3071150597355E+00 -0.3485179540223E+01 -0.1493690302040E+01  0.8246809656741E+00
 0.3005837895342E+00 -0.3546169567836E+01 -0.1525425311933E+01  0.8965176059665E+00
 0.2736776880856E+00 -0.3611542564708E+01 -0.1568796488034E+01  0.9749816263164E+00
 0.2246649160350E+00 -0.3681362143963E+01 -0.1624647693006E+01  0.1059221623852E+01
 0.1511309814411E+00 -0.3755510069359E+01 -0.1694058167025E+01  0.1147745925838E+01
 0.4971553369113E-01 -0.3833632094916E+01 -0.1778440779265E+01  0.1238103234946E+01
-0.1854893985496E+01 -0.2592434874204E+01 -0.2090244558757E+01  0.7561132723026E+00
-0.1510875160329E+01 -0.2699667791990E+01 -0.1978955182571E+01  0.6676546252109E+00
-0.1209511593641E+01 -0.2790268069110E+01 -0.1879896436725E+01  0.6070113002141E+00
-0.9454378994037E+00 -0.2867667330250E+01 -0.1792159453392E+01  0.5674301492239E+00
-0.7144671839140E+00 -0.2934583057969E+01 -0.1715053609335E+01  0.5442281255440E+00
-0.5132535840908E+00 -0.2993246314412E+01 -0.1648054948116E+01  0.5342079854926E+00
-0.3390736377197E+00 -0.3045545857356E+01 -0.1590771158651E+01  0.5352198039962E+00
-0.1896887111174E+00 -0.3093116905273E+01 -0.1542918635790E+01  0.5458482342099E+00
-0.6325451675658E-01 -0.3137401521015E+01 -0.1504308333937E+01  0.5651929408237E+00
 0.4174081877496E-01 -0.3179695796371E+01 -0.1474838835729E+01  0.5927141871543E+00
 0.1265118506155E+00 -0.3221179854554E+01 -0.1454493958162E+01  0.6281164446048E+00
 0.1919827166357E+00 -0.3262916739029E+01 -0.1443338986864E+01  0.6712570667169E+00
 0.2387849984960E+00 -0.3305826204002E+01 -0.1441509362931E+01  0.7220780954454E+00
 0.2672240951210E+00 -0.3350639445489E+01 -0.1449205210997E+01  0.7805092772238E+00
 0.2772086870394E+00 -0.3397854230739E+01 -0.1466703401819E+01  0.8463929435087E+00
 0.2682061638324E+00 -0.3447724813846E+01 -0.1494373761716E+01  0.9194379898980E+00
 0.2392261170001E+00 -0.3500280221201E+01 -0.1532695425087E+01  0.9991213233356E+00
 0.1888014470265E+00 -0.3555350593672E+01 -0.1582278094910E+01  0.1084532584225E+01
 0.1149153155233E+00 -0.3612573828066E+01 -0.1643899496726E+01  0.1174122528801E+01
 0.1477820603290E-01 -0.3671336276353E+01 -0.1718582288691E+01  0.1265348618194E+01
-0.1814897243491E+01 -0.2570943144870E+01 -0.2061344977301E+01  0.8050905810246E+00
-0.1484522535289E+01 -0.2673178974451E+01 -0.1954119704621E+01  0.7088115674596E+00
-0.1193271065667E+01 -0.2760128100891E+01 -0.1858097603570E+01  0.6419225331743E+00
-0.9368346721821E+00 -0.2834580481458E+01 -0.1772565117715E+01  0.5973297783257E+00
-0.7117968717459E+00 -0.2898802949554E+01 -0.1696981911707E+01  0.5701189514940E+00
-0.5153631040757E+00 -0.2954712341384E+01 -0.1630935455229E+01  0.5569331066066E+00
-0.3451994455520E+00 -0.3003975543159E+01 -0.1574112240701E+01  0.5555045501328E+00
-0.1993407678970E+00 -0.3048064501145E+01 -0.1526280472579E+01  0.5643232973626E+00
-0.7613360187757E-01 -0.3088293226388E+01 -0.1487280605512E+01  0.5824064989357E+00
 0.2580386562980E-01 -0.3125850327148E+01 -0.1457021833218E+01  0.6091383655409E+00
 0.1076035613790E+00 -0.3161818782129E+01 -0.1435481150112E+01  0.6441502480497E+00
 0.1701464826693E+00 -0.3197164420435E+01 -0.1422698427141E+01  0.6872272176140E+00
 0.2140634492518E+00 -0.3232701233025E+01 -0.1418759754775E+01  0.7382416582265E+00
 0.2397003930297E+00 -0.3269034789149E+01 -0.1423787162565E+01  0.7970430049404E+00
 0.2470379472369E+00 -0.3306504683719E+01 -0.1437949362500E+01  0.8633796080468E+00
 0.2356520865114E+00 -0.3345171766673E+01 -0.1461474245969E+01  0.9368694100249E+00
 0.2047189885488E+00 -0.3384841632746E+01 -0.1494657638982E+01  0.1016910000037E+01
 0.1530327469965E+00 -0.3425099975697E+01 -0.1537871593589E+01  0.1102528732576E+01
 0.7898320680019E-01 -0.3465325421042E+01 -0.1591580836657E+01  0.1192117940029E+01
-0.1959747155635E-01 -0.3504624017501E+01 -0.1656384095656E+01  0.1283037679169E+01
-0.1771975208803E+01 -0.2548159261961E+01 -0.2030463196109E+01  0.8521077852684E+00
-0.1455953677979E+01 -0.2645116848656E+01 -0.1927503142629E+01  0.7486307863450E+00
-0.1175349135537E+01 -0.2728195475274E+01 -0.1834665962428E+01  0.6758244963113E+00
-0.9269619204458E+00 -0.2799515522054E+01 -0.1751444393532E+01  0.6263416883110E+00
-0.7081828016188E+00 -0.2860874642968E+01 -0.1677456994701E+01  0.5950999526537E+00
-0.5167925049331E+00 -0.2913865408356E+01 -0.1612409215156E+01  0.5786265827600E+00
-0.3508609566834E+00 -0.2959929128291E+01 -0.1556071335991E+01  0.5745641197791E+00
-0.2087044701947E+00 -0.3000374869076E+01 -0.1508267285632E+01  0.5813236408290E+00
-0.8886446471813E-01 -0.3036391512176E+01 -0.1468870305415E+01  0.5978465887056E+00
 0.9909128646472E-02 -0.3069064916012E+01 -0.1437803216415E+01  0.6234421458283E+00
 0.8866541497672E-01 -0.3099387161798E+01 -0.1415039217417E+01  0.6576660740762E+00
 0.1482424880761E+00 -0.3128234164602E+01 -0.1400596084415E+01  0.7002267759614E+00
 0.1892733650013E+00 -0.3156323208658E+01 -0.1394513422982E+01  0.7509232457215E+00
 0.2121497485775E+00 -0.3184143707526E+01 -0.1396837157163E+01  0.8095173779831E+00
 0.2169261381268E+00 -0.3211883248802E+01 -0.1407629838447E+01  0.8756512931140E+00
 0.2032838883392E+00 -0.3239410814265E+01 -0.1426979651566E+01  0.9488400708491E+00
 0.1705585640159E+00 -0.3266306110851E+01 -0.1455001343322E+01  0.1028392522600E+01
 0.1177995488280E+00 -0.3291906359357E+01 -0.1491830197165E+01  0.1113269106415E+01
 0.4381168252953E-01 -0.3315328624628E+01 -0.1537612958886E+01  0.1201802217042E+01
-0.5289082226492E-01 -0.3335403814814E+01 -0.1592498475388E+01  0.1291249712871E+01
-0.1726366663724E+01 -0.2524243964170E+01 -0.1997786990043E+01  0.8970708319839E+00
-0.1425282651035E+01 -0.2615685206240E+01 -0.1899254888102E+01  0.7870473723001E+00
-0.1155772301461E+01 -0.2694699310546E+01 -0.1809721653053E+01  0.7086691148704E+00
-0.9157854666588E+00 -0.2762716162985E+01 -0.1728895761547E+01  0.6544256439122E+00
-0.7035491113032E+00 -0.2821050971758E+01 -0.1656562034837E+01  0.6191333638843E+00
-0.5174368700435E+00 -0.2870966360570E+01 -0.1592549514349E+01  0.5992509007512E+00
-0.3559317535074E+00 -0.2913678046332E+01 -0.1536716602027E+01  0.5923612498160E+00
-0.2176355821489E+00 -0.2950335627627E+01 -0.1488946464818E+01  0.5968136293073E+00
-0.1012859682139E+00 -0.2982008149962E+01 -0.1449148231867E+01  0.6114814101696E+00
-0.5764397145640E-02 -0.3009685323865E+01 -0.1417261365280E+01  0.6356004123971E+00
 0.6989639852668E-01 -0.3034276190065E+01 -0.1393258498489E+01  0.6686489573064E+00
 0.1264921309205E+00 -0.3056575667383E+01 -0.1377139258645E+01  0.7102549862956E+00
 0.1646616103517E+00 -0.3077216009667E+01 -0.1368900564206E+01  0.7601417542870E+00
 0.1848488206254E+00 -0.3096583741648E+01 -0.1368515409409E+01  0.8179767957623E+00
 0.1871842641494E+00 -0.3114724474195E+01 -0.1375943895231E+01  0.8832822318685E+00
 0.1714504699136E+00 -0.3131320379205E+01 -0.1391138853839E+01  0.9554567141035E+00
 0.1371329940368E+00 -0.3145726774159E+01 -0.1414039073071E+01  0.1033709697292E+01
 0.8352777067467E-01 -0.3157035448287E+01 -0.1444548604814E+01  0.1116930983189E+01
 0.9860655805491E-02 -0.3164114799469E+01 -0.1482499443762E+01  0.1203395574272E+01
-0.8460625325403E-01 -0.3165559956800E+01 -0.1527578114851E+01  0.1290265571388E+01
-0.1678320967414E+01 -0.2499366281223E+01 -0.1963513001879E+01  0.9398994076436E+00
-0.1392629959134E+01 -0.2585097325493E+01 -0.1869531819033E+01  0.8240042025212E+00
-0.1134569896962E+01 -0.2659879014261E+01 -0.1783390983752E+01  0.7404126760187E+00
-0.9032714809240E+00 -0.2724436360530E+01 -0.1705022681159E+01  0.6815440584043E+00
-0.6978190344687E+00 -0.2779594035293E+01 -0.1634384138643E+01  0.6421837587698E+00
-0.5171902017684E+00 -0.2826283593739E+01 -0.1571432679903E+01  0.6187718745418E+00
-0.3602849662351E+00 -0.2865499123058E+01 -0.1516118518122E+01  0.6088641689132E+00
-0.2259906029595E+00 -0.2898237393023E+01 -0.1468387154387E+01  0.6107662988916E+00
-0.1132393153574E+00 -0.2925455314290E+01 -0.1428186472312E+01  0.6232918667177E+00
-0.2104203403199E-01 -0.2948054769037E+01 -0.1395475493903E+01  0.6456055505276E+00
 0.5148883379138E-01 -0.2966870904872E+01 -0.1370229569932E+01  0.6771070234053E+00
 0.1051072640161E+00 -0.2982627692101E+01 -0.1352434597770E+01  0.7173407142221E+00
 0.1404622538334E+00 -0.2995886512632E+01 -0.1342049398232E+01  0.7659538651005E+00
 0.1580584287338E+00 -0.3006948561284E+01 -0.1338978358902E+01  0.8225138079199E+00
 0.1581048290506E+00 -0.3015732089883E+01 -0.1343084809185E+01  0.8864072460534E+00
 0.1404796332949E+00 -0.3021741215713E+01 -0.1354192940302E+01  0.9569010007944E+00
 0.1048062842300E+00 -0.3024110940012E+01 -0.1372073184738E+01  0.1033093920258E+01
 0.5061411486848E-01 -0.3021696021385E+01 -0.1396408492521E+01  0.1113804581016E+01
-0.2245046045575E-01 -0.3013143517396E+01 -0.1426729165972E+01  0.1197262780243E+01
-0.1143116193785E+00 -0.2996887943296E+01 -0.1462263790748E+01  0.1280564731356E+01
-0.1628096321837E+01 -0.2473702857451E+01 -0.1927845609376E+01  0.9805271930776E+00
-0.1358121928367E+01 -0.2553574922445E+01 -0.1838497515218E+01  0.8594522675015E+00
-0.1111774048340E+01 -0.2623983169574E+01 -0.1755805887966E+01  0.7710159269470E+00
-0.8893868034748E+00 -0.2684939082885E+01 -0.1679933162328E+01  0.7076616993302E+00
-0.6909155368148E+00 -0.2736773655518E+01 -0.1611013916310E+01  0.6642173556318E+00
-0.5159463822315E+00 -0.2780091063199E+01 -0.1549137595423E+01  0.6371576523925E+00
-0.3637945657010E+00 -0.2815672095222E+01 -0.1494349326844E+01  0.6240454152549E+00
-0.2336283759742E+00 -0.2844370815710E+01 -0.1446659616422E+01  0.6231620373303E+00
-0.1245699446521E+00 -0.2867042133255E+01 -0.1406057673050E+01  0.6332700755082E+00
-0.3575562724415E-01 -0.2884509979763E+01 -0.1372524831812E+01  0.6534656623971E+00
 0.3362576261704E-01 -0.2897545633505E+01 -0.1346042335903E+01  0.6830691893847E+00
 0.8428687794507E-01 -0.2906812526655E+01 -0.1326587051529E+01  0.7215393370560E+00
 0.1168923284139E+00 -0.2912817250048E+01 -0.1314084709835E+01  0.7684500893502E+00
 0.1320184497551E+00 -0.2915798006415E+01 -0.1308376388312E+01  0.8232646420092E+00
 0.1299560467216E+00 -0.2915566120821E+01 -0.1309236731506E+01  0.8852170792409E+00
 0.1106713081994E+00 -0.2911461099733E+01 -0.1316371198682E+01  0.9534244042225E+00
 0.7390890411569E-01 -0.2902402591790E+01 -0.1329392029835E+01  0.1026862295412E+01
 0.1941290544060E-01 -0.2887015672725E+01 -0.1347773297205E+01  0.1104282753443E+01
-0.5276387236671E-01 -0.2863764290160E+01 -0.1370768232911E+01  0.1183897766619E+01
-0.1416756007949E+00 -0.2831030704915E+01 -0.1397171960140E+01  0.1262802448428E+01
-0.1575957982908E+01 -0.2447437149575E+01 -0.1890995707471E+01  0.1018902010629E+01
-0.1321890036660E+01 -0.2521347112446E+01 -0.1806321455498E+01  0.8933510813348E+00
-0.1087419545296E+01 -0.2587268623074E+01 -0.1727103434754E+01  0.8004442600013E+00
-0.8740991396607E+00 -0.2644495336067E+01 -0.1653739399397E+01  0.7327453718751E+00
-0.6827618102593E+00 -0.2692866012243E+01 -0.1586545072552E+01  0.6852011855095E+00
-0.5135999954662E+00 -0.2732666347712E+01 -0.1525745177424E+01  0.6543775270648E+00
-0.3663365501006E+00 -0.2764477143585E+01 -0.1471482432300E+01  0.6378804439772E+00
-0.2404115962171E+00 -0.2789023648180E+01 -0.1423834561255E+01  0.6339870512439E+00
-0.1351292846018E+00 -0.2807071325346E+01 -0.1382834283168E+01  0.6414176602897E+00
-0.4974546426692E-01 -0.2819377407258E+01 -0.1348487746196E+01  0.6592025613461E+00
 0.1647874543705E-01 -0.2826659902030E+01 -0.1320785140249E+01  0.6865825726952E+00
 0.6421423232492E-01 -0.2829531327657E+01 -0.1299699031510E+01  0.7229290619672E+00
 0.9414774072944E-01 -0.2828460358407E+01 -0.1285126927049E+01  0.7677497298097E+00
 0.1069427913982E+00 -0.2823648967075E+01 -0.1276851899329E+01  0.8204032137404E+00
 0.1029764408559E+00 -0.2814829931538E+01 -0.1274571137388E+01  0.8799522428565E+00
 0.8229226379012E-01 -0.2801199088176E+01 -0.1277886204220E+01  0.9453420836606E+00
 0.4473141791846E-01 -0.2781466346093E+01 -0.1286265412980E+01  0.1015408454413E+01
-0.9776334907997E-02 -0.2754024569023E+01 -0.1298986421553E+01  0.1088846046367E+01
-0.8079755429413E-01 -0.2717181508457E+01 -0.1315050156158E+01  0.1163898863033E+01
-0.1664938449471E+00 -0.2669418840924E+01 -0.1332878958979E+01  0.1237772660942E+01
-0.1522176405338E+01 -0.2420758343521E+01 -0.1853179327263E+01  0.1054985862355E+01
-0.1284070233355E+01 -0.2488649372813E+01 -0.1773178210401E+01  0.9256692518917E+00
-0.1061543657247E+01 -0.2549999959856E+01 -0.1697425495733E+01  0.8286680382033E+00
-0.8573771696925E+00 -0.2603383719383E+01 -0.1626557613740E+01  0.7567635398421E+00
-0.6732815891899E+00 -0.2648152560377E+01 -0.1561074046337E+01  0.7051020273414E+00
-0.5100470005565E+00 -0.2684288812905E+01 -0.1501337828519E+01  0.6704004737756E+00
-0.3677900031874E+00 -0.2712192465292E+01 -0.1447591756514E+01  0.6503459915712E+00
-0.2462082462938E+00 -0.2732477967498E+01 -0.1399982516931E+01  0.6432316062795E+00
-0.1447763763609E+00 -0.2745836032927E+01 -0.1358587828919E+01  0.6477438145548E+00
-0.6286193359503E-01 -0.2752969695380E+01 -0.1323440862262E+01  0.6628495725921E+00
 0.2063683096551E-03 -0.2754554682046E+01 -0.1294543704173E+01  0.6877097885437E+00
 0.4505467245670E-01 -0.2751160745143E+01 -0.1271869850936E+01  0.7216069381139E+00
 0.7239974407095E-01 -0.2743233562341E+01 -0.1255291891403E+01  0.7639948590558E+00
 0.8301388199916E-01 -0.2730968821514E+01 -0.1244538818415E+01  0.8141331853642E+00
 0.7736969548920E-01 -0.2714057212269E+01 -0.1239243129744E+01  0.8708947335774E+00
 0.5557241558651E-01 -0.2691588042269E+01 -0.1238927341398E+01  0.9330259522662E+00
 0.1752288459722E-01 -0.2662071142683E+01 -0.1242937678148E+01  0.9991952818723E+00
-0.3671205588400E-01 -0.2623646213999E+01 -0.1250368383674E+01  0.1068046869833E+01
-0.1063680134159E+00 -0.2574451138039E+01 -0.1259984997988E+01  0.1137931652967E+01
-0.1886757825733E+00 -0.2513194240577E+01 -0.1269878907660E+01  0.1206350921155E+01
-0.1467024930285E+01 -0.2393859329588E+01 -0.1814615597538E+01  0.1088754877105E+01
-0.1244802008581E+01 -0.2455722149076E+01 -0.1739246349687E+01  0.9563854790377E+00
-0.1034185951219E+01 -0.2512449766960E+01 -0.1666918783316E+01  0.8556632570688E+00
-0.8391903572785E+00 -0.2561890662430E+01 -0.1598508075208E+01  0.7796858770883E+00
-0.6623992287701E+00 -0.2602919304390E+01 -0.1534699706693E+01  0.7238850195870E+00
-0.5051850085001E+00 -0.2635237518258E+01 -0.1475998583833E+01  0.6851934019360E+00
-0.3680380019768E+00 -0.2659091780434E+01 -0.1422750994124E+01  0.6614182925315E+00
-0.2508928919725E+00 -0.2675007478202E+01 -0.1375173170494E+01  0.6508881487927E+00
-0.1533794461542E+00 -0.2683616910643E+01 -0.1333388284313E+01  0.6522632038901E+00
-0.7496691502789E-01 -0.2685582193079E+01 -0.1297458077519E+01  0.6644492149666E+00
-0.1504675202905E-01 -0.2681548771908E+01 -0.1267399893036E+01  0.6865263590008E+00
 0.2695534552950E-01 -0.2672049511108E+01 -0.1243194254669E+01  0.7176852724600E+00
 0.5179167811392E-01 -0.2657519787930E+01 -0.1224692208507E+01  0.7573439499454E+00
 0.6037757578160E-01 -0.2638172393787E+01 -0.1211563561390E+01  0.8046778901200E+00
 0.5329630059850E-01 -0.2613702688805E+01 -0.1203390999405E+01  0.8583559726127E+00
 0.3070374359999E-01 -0.2583149973958E+01 -0.1199649725226E+01  0.9168960640109E+00
-0.7505863008253E-02 -0.2544868642010E+01 -0.1199616014316E+01  0.9787511631822E+00
-0.6120101173980E-01 -0.2496692429264E+01 -0.1202209914222E+01  0.1042500352525E+01
-0.1293802373951E+00 -0.2436497771804E+01 -0.1205962661265E+01  0.1106687623920E+01
-0.2082682521321E+00 -0.2363256982958E+01 -0.1208616857427E+01  0.1169376428255E+01
-0.1410776184277E+01 -0.2366932160251E+01 -0.1775522917425E+01  0.1120199415480E+01
-0.1204227950991E+01 -0.2422809724227E+01 -0.1704707703028E+01  0.9854905749285E+00
-0.1005387852258E+01 -0.2474900060311E+01 -0.1635735314758E+01  0.8814128809831E+00
-0.8195094103631E+00 -0.2520313125854E+01 -0.1569716588040E+01  0.8014825254015E+00
-0.6500389621307E+00 -0.2557455785270E+01 -0.1507522527455E+01  0.7415115500488E+00
-0.4989136114165E+00 -0.2585789025983E+01 -0.1449810235900E+01  0.6987189918720E+00
-0.3669682072326E+00 -0.2605441421120E+01 -0.1397032521783E+01  0.6710711819101E+00
-0.2543481925383E+00 -0.2616875428937E+01 -0.1349475098671E+01  0.6569493421303E+00
-0.1608174487700E+00 -0.2620679702580E+01 -0.1307303657819E+01  0.6549935782722E+00
-0.8593531094146E-01 -0.2617489879386E+01 -0.1270609836231E+01  0.6640505366489E+00
-0.2915033923681E-01 -0.2607934764191E+01 -0.1239429995467E+01  0.6831181187537E+00
 0.1004545869283E-01 -0.2592515445463E+01 -0.1213760890703E+01  0.7112886980831E+00
 0.3244233989131E-01 -0.2571664785492E+01 -0.1193434546405E+01  0.7479671740207E+00
 0.3913235233850E-01 -0.2545634445951E+01 -0.1178055981010E+01  0.7922682978416E+00
 0.3086731526292E-01 -0.2514134561729E+01 -0.1167135602879E+01  0.8426582095319E+00
 0.7826760300919E-02 -0.2476275808467E+01 -0.1160171049696E+01  0.8974049497631E+00
-0.3016086300470E-01 -0.2430337257337E+01 -0.1156434113628E+01  0.9546711509032E+00
-0.8308151749235E-01 -0.2373862149655E+01 -0.1154763520631E+01  0.1012893158830E+01
-0.1497943393301E+00 -0.2304160412645E+01 -0.1153358730503E+01  0.1070869808530E+01
-0.2254448876057E+00 -0.2220370754776E+01 -0.1149533349004E+01  0.1127609136358E+01
-0.1353697284185E+01 -0.2340159612169E+01 -0.1736112736883E+01  0.1149324309283E+01
-0.1162489311819E+01 -0.2390153895366E+01 -0.1669742303142E+01  0.1012992315202E+01
-0.9751967911561E+00 -0.2437652640547E+01 -0.1604039228832E+01  0.9059095989617E+00
-0.7983033273364E+00 -0.2478960693657E+01 -0.1540314085960E+01  0.8221223435315E+00
-0.6361255233804E+00 -0.2512055965706E+01 -0.1479645296118E+01  0.7579358816284E+00
-0.4911321514035E+00 -0.2536211276679E+01 -0.1422851407590E+01  0.7109331262131E+00
-0.3644744637522E+00 -0.2551498240193E+01 -0.1370507167378E+01  0.6792746536098E+00
-0.2564658349494E+00 -0.2558332614136E+01 -0.1322955267715E+01  0.6614062711175E+00
-0.1669818047107E+00 -0.2557273856864E+01 -0.1280400157693E+01  0.6559532048142E+00
-0.9565650973011E-01 -0.2548944486167E+01 -0.1242962464919E+01  0.6617060030087E+00
-0.4198939715349E-01 -0.2533974974152E+01 -0.1210703251443E+01  0.6775784241341E+00
-0.5561284095593E-02 -0.2512839581232E+01 -0.1183648403702E+01  0.7025521494508E+00
 0.1444751595158E-01 -0.2485977407094E+01 -0.1161619045891E+01  0.7360443942367E+00
 0.1934902392598E-01 -0.2453685442227E+01 -0.1144138113700E+01  0.7771378536266E+00
 0.1008643749344E-01 -0.2415705125526E+01 -0.1130640780508E+01  0.8241037255801E+00
-0.1295004236624E-01 -0.2371154991681E+01 -0.1120529363160E+01  0.8750034485510E+00
-0.5029212363625E-01 -0.2318735436756E+01 -0.1113442950560E+01  0.9276147896553E+00
-0.1021208527251E+00 -0.2255621723201E+01 -0.1108139007875E+01  0.9800285702094E+00
-0.1676452130511E+00 -0.2178345989391E+01 -0.1102615862351E+01  0.1031222208986E+01
-0.2405381712666E+00 -0.2085323058639E+01 -0.1093154775283E+01  0.1081697049589E+01
-0.1296012969730E+01 -0.2313665160066E+01 -0.1696548716701E+01  0.1176154652735E+01
-0.1119743402785E+01 -0.2358013224758E+01 -0.1634545610799E+01  0.1038927955763E+01
-0.9436530645160E+00 -0.2401029369212E+01 -0.1572000739865E+01  0.9291610357029E+00
-0.7755548464944E+00 -0.2438185045438E+01 -0.1510457745377E+01  0.8415680548156E+00
-0.6205683685294E+00 -0.2466998421837E+01 -0.1451156387791E+01  0.7730980427434E+00
-0.4817447060199E+00 -0.2486762193337E+01 -0.1395198239159E+01  0.7217833342781E+00
-0.3604560108301E+00 -0.2497504999588E+01 -0.1343241671490E+01  0.6859940203535E+00
-0.2571490129042E+00 -0.2499618286453E+01 -0.1295680627412E+01  0.6642469459265E+00
-0.1717769973113E+00 -0.2493631376371E+01 -0.1252741932453E+01  0.6551578842658E+00
-0.1040369732611E+00 -0.2480173617994E+01 -0.1214578974809E+01  0.6574674849683E+00
-0.5346530915548E-01 -0.2459896832879E+01 -0.1181280203760E+01  0.6700042709717E+00
-0.1976682336521E-01 -0.2433259832763E+01 -0.1152922525456E+01  0.6916186683092E+00
-0.2109839787757E-02 -0.2400719052063E+01 -0.1129329576306E+01  0.7217660399826E+00
 0.1068017069258E-02 -0.2362628480458E+01 -0.1109933414977E+01  0.7595248952337E+00
-0.9043343203720E-02 -0.2318709060994E+01 -0.1094043627198E+01  0.8029719885078E+00
-0.3189692750711E-01 -0.2268150573812E+01 -0.1081022322878E+01  0.8500301666124E+00
-0.6747577060966E-01 -0.2209535989864E+01 -0.1070195524708E+01  0.8982685115283E+00
-0.1181551872166E+00 -0.2142249993182E+01 -0.1062390432093E+01  0.9449393441739E+00
-0.1827597212502E+00 -0.2059908562883E+01 -0.1054054090869E+01  0.9886623003407E+00
-0.2543397668296E+00 -0.1959567068806E+01 -0.1040536210109E+01  0.1032120590482E+01
-0.1237943632176E+01 -0.2287519598760E+01 -0.1656967714337E+01  0.1200732821689E+01
-0.1076031006144E+01 -0.2326507775897E+01 -0.1599193223503E+01  0.1063407616618E+01
-0.9109502853111E+00 -0.2365611575265E+01 -0.1539984070565E+01  0.9512003027340E+00
-0.7511603662265E+00 -0.2398284319204E+01 -0.1480238998398E+01  0.8597480597445E+00
-0.6032835861979E+00 -0.2422553171056E+01 -0.1422143272302E+01  0.7869214177568E+00
-0.4706567673425E+00 -0.2437679765014E+01 -0.1366918166741E+01  0.7312082962427E+00
-0.3548233547515E+00 -0.2443692404342E+01 -0.1315302403438E+01  0.6911894285317E+00
-0.2563042194296E+00 -0.2440950676770E+01 -0.1267709797999E+01  0.6654566723390E+00
-0.1751313458833E+00 -0.2429981465636E+01 -0.1224403018308E+01  0.6526178723353E+00
-0.1109969453701E+00 -0.2411374192914E+01 -0.1185514431987E+01  0.6513800201210E+00
-0.6349718503389E-01 -0.2385887936619E+01 -0.1151211004257E+01  0.6604921908642E+00
-0.3249455166861E-01 -0.2353968965329E+01 -0.1121637850144E+01  0.6786353382907E+00
-0.1715642909913E-01 -0.2316088906383E+01 -0.1096625304895E+01  0.7053344621410E+00
-0.1566332642387E-01 -0.2272712582590E+01 -0.1075536674509E+01  0.7396841597687E+00
-0.2657706109994E-01 -0.2223479449958E+01 -0.1057526557515E+01  0.7795386933527E+00
-0.4905184368380E-01 -0.2167450349572E+01 -0.1041756028188E+01  0.8227356203970E+00
-0.8314152439845E-01 -0.2103547004139E+01 -0.1027743605806E+01  0.8668463003271E+00
-0.1282786463574E+00 -0.2029787259229E+01 -0.1014290973053E+01  0.9091097595550E+00
-0.1961628635671E+00 -0.1951661563317E+01 -0.1009477478075E+01  0.9449490033345E+00
-0.2678832400797E+00 -0.1846028653477E+01 -0.9935385874517E+00  0.9789660597181E+00
-0.1177971948744E+01 -0.2259699781096E+01 -0.1615705708927E+01  0.1223420793949E+01
-0.1032558144923E+01 -0.2297297157804E+01 -0.1565031988312E+01  0.1086836730487E+01
-0.8768117481008E+00 -0.2331709489322E+01 -0.1508004977764E+01  0.9719604038280E+00
-0.7250573732362E+00 -0.2359582732618E+01 -0.1449780846074E+01  0.8765493222863E+00
-0.5841635921697E+00 -0.2378933126108E+01 -0.1392655454058E+01  0.7993122763140E+00
-0.4577902474109E+00 -0.2389190617656E+01 -0.1338081003188E+01  0.7391417891862E+00
-0.3474987689396E+00 -0.2390280244615E+01 -0.1286756133107E+01  0.6948147233580E+00
-0.2538529664404E+00 -0.2382531935988E+01 -0.1239100900998E+01  0.6650152024479E+00
-0.1769440960125E+00 -0.2366500220708E+01 -0.1195418825827E+01  0.6483465978810E+00
-0.1165569676958E+00 -0.2342824324562E+01 -0.1155909204429E+01  0.6434672940165E+00
-0.7197085928078E-01 -0.2312011421404E+01 -0.1120471669080E+01  0.6491214682859E+00
-0.4366175604551E-01 -0.2275074306777E+01 -0.1089805946762E+01  0.6637677840898E+00
-0.3073196104445E-01 -0.2232339735116E+01 -0.1063643694498E+01  0.6869493121053E+00
-0.3071330603545E-01 -0.2183999199639E+01 -0.1040914875027E+01  0.7178921165883E+00
-0.4249173022151E-01 -0.2130295267942E+01 -0.1021209886547E+01  0.7541274897609E+00
-0.6471004937847E-01 -0.2069612722281E+01 -0.1003131700136E+01  0.7933652988557E+00
-0.9690861945769E-01 -0.2000434194653E+01 -0.9857511201317E+00  0.8332964775881E+00
-0.1400304914709E+00 -0.1922630665161E+01 -0.9694507411582E+00  0.8719007828485E+00
-0.1886977146769E+00 -0.1830772641150E+01 -0.9491510648315E+00  0.9055017541134E+00
-0.2967944205987E+00 -0.1771212460581E+01 -0.9719632316891E+00  0.9248341532112E+00
-0.3057351280044E+01 -0.5356091186226E+01 -0.3954317949117E+01 -0.5037490850895E+00
 0.1517671760706E+00 -0.7141291734230E+00 -0.2643101380852E+00  0.3778441840920E+00
 0.6186302494208E-01 -0.1118736732690E+00 -0.2350500465403E-01  0.1383129320300E+00
 0.1025570592452E+00  0.1080270798991E+00  0.9897454514680E-01 -0.4521462666676E-02
 0.8698356515916E-01  0.2016164124550E+00  0.1356419891346E+00 -0.6952023973897E-01
 0.6669888787866E-01  0.2555144222629E+00  0.1514402553824E+00 -0.9541629515770E-01
 0.4809664150584E-01  0.2959709557661E+00  0.1617117703076E+00 -0.9944423515049E-01
 0.3284305156389E-01  0.3297176105131E+00  0.1704035107440E+00 -0.9030016224228E-01
 0.1923718121013E-01  0.3551518625166E+00  0.1759628501052E+00 -0.7299074212759E-01
 0.8647512654689E-02  0.3720766913399E+00  0.1789403754236E+00 -0.4837530391299E-01
 0.6150286473380E-02  0.3814154088728E+00  0.1821558763507E+00 -0.1781759749546E-01
 0.1817864277869E-02  0.3676603627847E+00  0.1736547662790E+00  0.1647029795889E-01
 0.1047339398966E-01  0.3378989082383E+00  0.1637349816319E+00  0.6442782813957E-01
 0.4248100328042E-01  0.3053290539505E+00  0.1634707264839E+00  0.1185625714353E+00
 0.9699461329974E-01  0.2767908924841E+00  0.1756791872728E+00  0.1651442988437E+00
 0.1652219543274E+00  0.2507490028398E+00  0.1955063493727E+00  0.2015680367575E+00
 0.2367289201048E+00  0.2284660665667E+00  0.2186416431810E+00  0.2272580399848E+00
 0.3045207323277E+00  0.2058499654282E+00  0.2398742273368E+00  0.2422601036712E+00
 0.3695073724749E+00  0.1802260084795E+00  0.2583746883932E+00  0.2451817915014E+00
 0.3982046806024E+00  0.7198995115727E-01  0.2209914763665E+00  0.2504445827580E+00
-0.1255831315230E+01 -0.3659487173620E+01 -0.2310199683900E+01 -0.8254304733781E+00
-0.4132718528442E+00 -0.2095855439124E+01 -0.1179289824234E+01  0.5841314413681E-01
 0.7863359024642E-01 -0.5894017221767E+00 -0.2400610213984E+00  0.1690435750128E+00
 0.8398627494800E-01 -0.1861799917235E+00 -0.4803104676268E-01  0.6984395763896E-01
 0.7910582174978E-01 -0.9070225885761E-02  0.3291672997260E-01 -0.4121216156958E-02
 0.5814627462400E-01  0.8120932926241E-01  0.6549713366048E-01 -0.4491662952472E-01
 0.3962179222966E-01  0.1405051080914E+00  0.8465964293615E-01 -0.6271801634581E-01
 0.2330184337600E-01  0.1844137496094E+00  0.9762632845553E-01 -0.6498888686665E-01
 0.8868131516211E-02  0.2182164286926E+00  0.1067297430275E+00 -0.5696804669988E-01
-0.2512113953819E-02  0.2437252641399E+00  0.1133701802999E+00 -0.4047598975128E-01
-0.1190534696264E-01  0.2579265223899E+00  0.1156299521575E+00 -0.1578749574973E-01
-0.1756522788657E-01  0.2630012219022E+00  0.1153549168948E+00  0.1453290720555E-01
-0.1163287341059E-01  0.2572999346488E+00  0.1154635184891E+00  0.5434560724032E-01
 0.1056643518551E-01  0.2389470225311E+00  0.1172713248294E+00  0.9738893236618E-01
 0.4940004643018E-01  0.2146839824465E+00  0.1241194932572E+00  0.1325588089676E+00
 0.1004133863609E+00  0.1893206853346E+00  0.1361750133515E+00  0.1574884301497E+00
 0.1528881152567E+00  0.1641719673061E+00  0.1490182384265E+00  0.1714728301395E+00
 0.2015686382312E+00  0.1379769624386E+00  0.1595864319100E+00  0.1745395477044E+00
 0.2363662116037E+00  0.9639159957189E-01  0.1563961708559E+00  0.1663043922764E+00
 0.2581276921544E+00  0.3553516426048E-01  0.1380215421649E+00  0.1602495639639E+00
-0.8323078737933E+00 -0.3069858999524E+01 -0.1834018425807E+01 -0.9439558029005E+00
-0.2981509994918E+00 -0.2239752778030E+01 -0.1192814772410E+01 -0.2184599561487E+00
-0.4721811273893E-01 -0.1197725570541E+01 -0.5851235296576E+00  0.6628070315791E-01
 0.7571549856196E-01 -0.5340588763623E+00 -0.2154213870198E+00  0.8978773812723E-01
 0.7402243845328E-01 -0.2593236073143E+00 -0.8709154914376E-01  0.3990096296912E-01
 0.5708887002612E-01 -0.1173698710789E+00 -0.2833207042293E-01 -0.3345581920489E-02
 0.3724548913949E-01 -0.3250138998857E-01  0.2229726595273E-02 -0.3004673350982E-01
 0.1947555523399E-01  0.2629418291970E-01  0.2151177687768E-01 -0.4212283205642E-01
 0.3446755054696E-02  0.7046247448871E-01  0.3473733779729E-01 -0.4322134789157E-01
-0.1091480226062E-01  0.1044565584672E+00  0.4396462530556E-01 -0.3504582973955E-01
-0.2366960757899E-01  0.1289921411913E+00  0.4950159067221E-01 -0.1818632252604E-01
-0.3302455201433E-01  0.1477036461248E+00  0.5389917409520E-01  0.4836205509655E-02
-0.3209072374647E-01  0.1583406193904E+00  0.5933745080213E-01  0.3560124285989E-01
-0.1845345924484E-01  0.1526827053686E+00  0.6308774551817E-01  0.6805732081353E-01
 0.6904914555069E-02  0.1344831961132E+00  0.6645241184552E-01  0.9211026573876E-01
 0.4106054563974E-01  0.1102706560400E+00  0.7112566460909E-01  0.1053666651124E+00
 0.7570662164307E-01  0.8319466290748E-01  0.7468360354933E-01  0.1072281234310E+00
 0.1036726283424E+00  0.5097668576420E-01  0.7268517744576E-01  0.9787603262928E-01
 0.1197208418369E+00  0.1156165887528E-01  0.6170277517824E-01  0.7657845732746E-01
 0.1055628980817E+00 -0.4943479293802E-01  0.2638020935061E-01  0.4674810205565E-01
-0.6737745402268E+00 -0.2739768658370E+01 -0.1604365299271E+01 -0.1001240251667E+01
-0.2584818354484E+00 -0.2258720826471E+01 -0.1183085248101E+01 -0.4118325220680E+00
-0.6344264794757E-01 -0.1516460128195E+01 -0.7425543029034E+00 -0.7163299213740E-01
 0.3991247604657E-01 -0.9030087414938E+00 -0.4056552437313E+00  0.4760981354159E-01
 0.6992253839654E-01 -0.5348538879623E+00 -0.2185177337417E+00  0.5076815683572E-01
 0.5861675555790E-01 -0.3391170474706E+00 -0.1318351368646E+00  0.2193116715134E-01
 0.3991557660347E-01 -0.2225061841109E+00 -0.8581758531083E-01 -0.5569295294248E-02
 0.2076637251227E-01 -0.1452932482253E+00 -0.5852763143670E-01 -0.2389985086452E-01
 0.2754751587623E-02 -0.8880529522159E-01 -0.4044375540538E-01 -0.3278522239384E-01
-0.1430958117227E-01 -0.4476392668053E-01 -0.2776454862040E-01 -0.3291643245536E-01
-0.3042815921715E-01 -0.1009797441828E-01 -0.1904728276034E-01 -0.2478686323870E-01
-0.4361443640706E-01  0.2032946256436E-01 -0.1094393767831E-01 -0.1045915230563E-01
-0.4862487737126E-01  0.4341480946657E-01 -0.2448731908993E-02  0.1033445330315E-01
-0.4354403991088E-01  0.4815594736030E-01  0.2167596495732E-02  0.3177092703472E-01
-0.3032209756360E-01  0.3575848492116E-01  0.2555102051570E-02  0.4452801508154E-01
-0.1140981272897E-01  0.1310405474176E-01  0.7962937439885E-03  0.4595444120710E-01
 0.6188034291422E-02 -0.1627091242618E-01 -0.4738952711317E-02  0.3541657567320E-01
 0.1650179383864E-01 -0.5182057677742E-01 -0.1659982793912E-01  0.1271155574774E-01
 0.1114853492665E-01 -0.9733288796235E-01 -0.4050664582404E-01 -0.2478684108109E-01
-0.3132818164436E-01 -0.1727252290925E+00 -0.9590510280309E-01 -0.8022553782075E-01
-0.6249355607122E+00 -0.2538134425817E+01 -0.1486642889898E+01 -0.1028619445548E+01
-0.2636611228073E+00 -0.2241203555440E+01 -0.1177286395790E+01 -0.5466148081235E+00
-0.7986727865241E-01 -0.1708152446173E+01 -0.8403692685362E+00 -0.2005839316698E+00
 0.1854005547155E-01 -0.1188924137034E+01 -0.5500805169389E+00 -0.2564094738334E-01
 0.5735964685825E-01 -0.8119966987359E+00 -0.3546794134829E+00  0.2819478081648E-01
 0.5941539744607E-01 -0.5739489033365E+00 -0.2418307471551E+00  0.2613929050283E-01
 0.4464282206589E-01 -0.4268165498843E+00 -0.1796216516191E+00  0.6832313848467E-02
 0.2588834027238E-01 -0.3294085745638E+00 -0.1426545097551E+00 -0.1270686807771E-01
 0.6573723243375E-02 -0.2592399431687E+00 -0.1187531230637E+00 -0.2697870365756E-01
-0.1276146824189E-01 -0.2045956855794E+00 -0.1021578620369E+00 -0.3455638595491E-01
-0.3189434421775E-01 -0.1602372380370E+00 -0.9030184343069E-01 -0.3520159548053E-01
-0.4892617820930E-01 -0.1199152878553E+00 -0.7935548884907E-01 -0.3015754725765E-01
-0.5999136156072E-01 -0.8691348872780E-01 -0.6904527946048E-01 -0.1992389680482E-01
-0.6336272823812E-01 -0.7383394178314E-01 -0.6448243474644E-01 -0.1002785322773E-01
-0.6116815501373E-01 -0.8135742128212E-01 -0.6698702068915E-01 -0.8908839418736E-02
-0.5587063536655E-01 -0.1029065125976E+00 -0.7462525935388E-01 -0.1948706807871E-01
-0.5322174256922E-01 -0.1345754452215E+00 -0.8826467803775E-01 -0.4268050409190E-01
-0.5912029560283E-01 -0.1757548155198E+00 -0.1103913019476E+00 -0.7940844051814E-01
-0.8279765657282E-01 -0.2329509924090E+00 -0.1484018646451E+00 -0.1335453934580E+00
-0.1445374768411E+00 -0.3310258968374E+00 -0.2235147850620E+00 -0.2116968873654E+00
-0.6261892841557E+00 -0.2408828819525E+01 -0.1426458505112E+01 -0.1039769196994E+01
-0.2983239085196E+00 -0.2219504094664E+01 -0.1183379158495E+01 -0.6397037328988E+00
-0.1087392450598E+00 -0.1831081493132E+01 -0.9117157446378E+00 -0.3097094169296E+00
-0.4732164660427E-02 -0.1407870222093E+01 -0.6639231200903E+00 -0.1073462137929E+00
 0.4298795375040E-01 -0.1058553013643E+01 -0.4773155769391E+00 -0.1576607934834E-01
 0.5584422402097E-01 -0.8081805925201E+00 -0.3535980922978E+00  0.1031189381250E-01
 0.4880128042175E-01 -0.6388608791651E+00 -0.2773280107060E+00  0.5347362024953E-02
 0.3290421736550E-01 -0.5233691209663E+00 -0.2305185041077E+00 -0.1037638859993E-01
 0.1390128588277E-01 -0.4397406907734E+00 -0.2001445197910E+00 -0.2694380669997E-01
-0.6691748908428E-02 -0.3747446071493E+00 -0.1792750868924E+00 -0.4035403491479E-01
-0.2817032479946E-01 -0.3215686632770E+00 -0.1643773239790E+00 -0.4910284695185E-01
-0.4860828486280E-01 -0.2730140726021E+00 -0.1511625076251E+00 -0.5330199630600E-01
-0.6540305157505E-01 -0.2322897804677E+00 -0.1399156307052E+00 -0.5384860779524E-01
-0.7673225414761E-01 -0.2127760281178E+00 -0.1360688923196E+00 -0.5581570009554E-01
-0.8439081072657E-01 -0.2167065803570E+00 -0.1415157734504E+00 -0.6655947237081E-01
-0.9080665868192E-01 -0.2379971066220E+00 -0.1545377693009E+00 -0.8917836756165E-01
-0.1009389148260E+00 -0.2731722832580E+00 -0.1758322626535E+00 -0.1249205733473E+00
-0.1203797068927E+00 -0.3223686338871E+00 -0.2080917196387E+00 -0.1752353965498E+00
-0.1579843279296E+00 -0.3947953054934E+00 -0.2598064270499E+00 -0.2443712221756E+00
-0.2301871921652E+00 -0.5176567937571E+00 -0.3514866724920E+00 -0.3397940237091E+00
-0.6537942802225E+00 -0.2325643532287E+01 -0.1400335768328E+01 -0.1041187807672E+01
-0.3496459502598E+00 -0.2202514941980E+01 -0.1199515616310E+01 -0.7028399222446E+00
-0.1509074337244E+00 -0.1917035042575E+01 -0.9719329613956E+00 -0.3974269620165E+00
-0.3497098718211E-01 -0.1577747584310E+01 -0.7579777266789E+00 -0.1858357949971E+00
 0.2414409912237E-01 -0.1270814947505E+01 -0.5859352972538E+00 -0.6969957839642E-01
 0.4824822139444E-01 -0.1028656110611E+01 -0.4607917067630E+00 -0.1987324526393E-01
 0.5032323797878E-01 -0.8507778384534E+00 -0.3762136612689E+00 -0.8907568186755E-02
 0.3996560325104E-01 -0.7228204208596E+00 -0.3209417634620E+00 -0.1736529030202E-01
 0.2336321992509E-01 -0.6281089765151E+00 -0.2842305048764E+00 -0.3326477300328E-01
 0.3066662474509E-02 -0.5541002685560E+00 -0.2589857942014E+00 -0.5048926128810E-01
-0.1963394001243E-01 -0.4934672554091E+00 -0.2411575612365E+00 -0.6613138085946E-01
-0.4261698355156E-01 -0.4384559288045E+00 -0.2261042682339E+00 -0.7900330761971E-01
-0.6435995697863E-01 -0.3921056534503E+00 -0.2145388363574E+00 -0.9013154987617E-01
-0.8276084986602E-01 -0.3680735200603E+00 -0.2118921533279E+00 -0.1039419745130E+00
-0.9884115742042E-01 -0.3698695745583E+00 -0.2202940434712E+00 -0.1264691609693E+00
-0.1149454880550E+00 -0.3921572183812E+00 -0.2383382714205E+00 -0.1608010401406E+00
-0.1353565206830E+00 -0.4322104458321E+00 -0.2667564735855E+00 -0.2083703286067E+00
-0.1651870436620E+00 -0.4910870596486E+00 -0.3084488277736E+00 -0.2708223362544E+00
-0.2120822762692E+00 -0.5796666711253E+00 -0.3721220043316E+00 -0.3520129033963E+00
-0.2880959958145E+00 -0.7254025298582E+00 -0.4763443058580E+00 -0.4585639698618E+00
-0.6962865083098E+00 -0.2273714250925E+01 -0.1395900353300E+01 -0.1036269167696E+01
-0.4101569675286E+00 -0.2193117302644E+01 -0.1223538903878E+01 -0.7440515754857E+00
-0.2031428902676E+00 -0.1982628881236E+01 -0.1027312730001E+01 -0.4653422334973E+00
-0.7329616734363E-01 -0.1713641852987E+01 -0.8398608674250E+00 -0.2555431294335E+00
-0.5372197779279E-03 -0.1452446566996E+01 -0.6829023780518E+00 -0.1256061506845E+00
 0.3593680572955E-01 -0.1230583699957E+01 -0.5614840388630E+00 -0.5816288763986E-01
 0.4846581466386E-01 -0.1055789512166E+01 -0.4734421366250E+00 -0.3271714130939E-01
 0.4563819790706E-01 -0.9229569428243E+00 -0.4123398090653E+00 -0.3258120837178E-01
 0.3361247275976E-01 -0.8213034966560E+00 -0.3702147802922E+00 -0.4566689590076E-01
 0.1547414240087E-01 -0.7407861140712E+00 -0.3408966258204E+00 -0.6474152978444E-01
-0.6935514272124E-02 -0.6746588618495E+00 -0.3203493559647E+00 -0.8577439669578E-01
-0.3120340875961E-01 -0.6152048762946E+00 -0.3038118932049E+00 -0.1063335079666E+00
-0.5669382576761E-01 -0.5653735843222E+00 -0.2923716820007E+00 -0.1274140708184E+00
-0.8088581762448E-01 -0.5387790132595E+00 -0.2912424697768E+00 -0.1526171547843E+00
-0.1037151242588E+00 -0.5400049216812E+00 -0.3025484208244E+00 -0.1864219235769E+00
-0.1273389033950E+00 -0.5645749329616E+00 -0.3251995022628E+00 -0.2316636377801E+00
-0.1554136194805E+00 -0.6105359546439E+00 -0.3599962989254E+00 -0.2897454857874E+00
-0.1924606501630E+00 -0.6795694449514E+00 -0.4098541436642E+00 -0.3621927228490E+00
-0.2446741687999E+00 -0.7831117930819E+00 -0.4830594008592E+00 -0.4519797689459E+00
-0.3202335594317E+00 -0.9473633535137E+00 -0.5957705475732E+00 -0.5639638298844E+00
-0.7477127756672E+00 -0.2243870031640E+01 -0.1406043915868E+01 -0.1026840367378E+01
-0.4754363553084E+00 -0.2191798098367E+01 -0.1253600190048E+01 -0.7689236719546E+00
-0.2621271671688E+00 -0.2037201258324E+01 -0.1080684357241E+01 -0.5159273283581E+00
-0.1186860431481E+00 -0.1826277333312E+01 -0.9141327846175E+00 -0.3142120964972E+00
-0.3129655231363E-01 -0.1609188326535E+01 -0.7710278911032E+00 -0.1784376984545E+00
 0.1860049446094E-01 -0.1413554497738E+01 -0.6556283798773E+00 -0.9933804254666E-01
 0.4274638829132E-01 -0.1250201033423E+01 -0.5675036817723E+00 -0.6228632465176E-01
 0.4907898533816E-01 -0.1119649439787E+01 -0.5031681123146E+00 -0.5385656215381E-01
 0.4354399854391E-01 -0.1016065729086E+01 -0.4570852121955E+00 -0.6302807978504E-01
 0.2948462213423E-01 -0.9324105259242E+00 -0.4243751737049E+00 -0.8238334358291E-01
 0.9103830689576E-02 -0.8633239691970E+00 -0.4014834640802E+00 -0.1072679505421E+00
-0.1489001819056E-01 -0.8017228861568E+00 -0.3838080640698E+00 -0.1342592646402E+00
-0.4257459942739E-01 -0.7506414071919E+00 -0.3728115221655E+00 -0.1642689996260E+00
-0.7094457699129E-01 -0.7234629173242E+00 -0.3733715213813E+00 -0.1999560793478E+00
-0.9865002945962E-01 -0.7256400880176E+00 -0.3874163542317E+00 -0.2440706795801E+00
-0.1275702752326E+00 -0.7535485078651E+00 -0.4141258270056E+00 -0.2989622026635E+00
-0.1607777494878E+00 -0.8058275987813E+00 -0.4543045125342E+00 -0.3658061724853E+00
-0.2022259097571E+00 -0.8843580529232E+00 -0.5106944611645E+00 -0.4457939550652E+00
-0.2567849901279E+00 -0.1000209663760E+01 -0.5907874858289E+00 -0.5407999030037E+00
-0.3296883413532E+00 -0.1177380434536E+01 -0.7083223228713E+00 -0.6535763804774E+00
-0.8047608893779E+00 -0.2230058615824E+01 -0.1426365163827E+01 -0.1013895026822E+01
-0.5429238673844E+00 -0.2198132468546E+01 -0.1288296474620E+01 -0.7813909157687E+00
-0.3251748930997E+00 -0.2086125912755E+01 -0.1133311375877E+01 -0.5517028840016E+00
-0.1694912098670E+00 -0.1923090595457E+01 -0.9835134460077E+00 -0.3613084375323E+00
-0.6752665857633E-01 -0.1746479315542E+01 -0.8525828056732E+00 -0.2252470324152E+00
-0.3643078904713E-02 -0.1579245737598E+01 -0.7439577418694E+00 -0.1395265342599E+00
 0.3300544586394E-01 -0.1432612142478E+01 -0.6578151457402E+00 -0.9410100854197E-01
 0.4978496731307E-01 -0.1310109758997E+01 -0.5923526505890E+00 -0.7861866924857E-01
 0.5236199044688E-01 -0.1209469780634E+01 -0.5438406600086E+00 -0.8364766127672E-01
 0.4416411749847E-01 -0.1126415148892E+01 -0.5086579834648E+00 -0.1022294803358E+00
 0.2759644899110E-01 -0.1057271913706E+01 -0.4839474671884E+00 -0.1295736251245E+00
 0.5591109996947E-02 -0.9960324381322E+00 -0.4655074230429E+00 -0.1616194947407E+00
-0.2249659472279E-01 -0.9459821810129E+00 -0.4551850234413E+00 -0.1992210126783E+00
-0.5319312211405E-01 -0.9201502913380E+00 -0.4574714031621E+00 -0.2440627970784E+00
-0.8378999322873E-01 -0.9246307439354E+00 -0.4739577452650E+00 -0.2971014594964E+00
-0.1158348573677E+00 -0.9565539819394E+00 -0.5040227531959E+00 -0.3600261620895E+00
-0.1518889709726E+00 -0.1014905328413E+01 -0.5483933193201E+00 -0.4336502421109E+00
-0.1954546407820E+00 -0.1101386825460E+01 -0.6095154875877E+00 -0.5187345733575E+00
-0.2503936081953E+00 -0.1226057498253E+01 -0.6939320182705E+00 -0.6160445673711E+00
-0.3199716589147E+00 -0.1410167737273E+01 -0.8131655141459E+00 -0.7262617263783E+00
-0.8654869979052E+00 -0.2228092746332E+01 -0.1453982476103E+01 -0.9979636229856E+00
-0.6111525778929E+00 -0.2211332000469E+01 -0.1326567748465E+01 -0.7842550380455E+00
-0.3903258510487E+00 -0.2132534753306E+01 -0.1185744481039E+01 -0.5749485520474E+00
-0.2240469384066E+00 -0.2009168508269E+01 -0.1049611257276E+01 -0.3971693009373E+00
-0.1082360601864E+00 -0.1868837318083E+01 -0.9292244854298E+00 -0.2644723076021E+00
-0.3032300865363E-01 -0.1730009105647E+01 -0.8273560916229E+00 -0.1760562256772E+00
 0.1934588729427E-01 -0.1603028391947E+01 -0.7443307752989E+00 -0.1252674900975E+00
 0.4751654258587E-01 -0.1492745912344E+01 -0.6792578020635E+00 -0.1043575854305E+00
 0.5951041615936E-01 -0.1399216649444E+01 -0.6296619280467E+00 -0.1055847953034E+00
 0.5872885428696E-01 -0.1320365316189E+01 -0.5929691355900E+00 -0.1227991667149E+00
 0.4765807415516E-01 -0.1254142521612E+01 -0.5670476888664E+00 -0.1514384769631E+00
 0.2936520363197E-01 -0.1195828351243E+01 -0.5482376779867E+00 -0.1871538656456E+00
 0.2765045338019E-02 -0.1149045036198E+01 -0.5387515943379E+00 -0.2307980731943E+00
-0.2828978912063E-01 -0.1126351574891E+01 -0.5426814397088E+00 -0.2831328134422E+00
-0.5978786643946E-01 -0.1134227211766E+01 -0.5611870853334E+00 -0.3433898217221E+00
-0.9293498687940E-01 -0.1170420358783E+01 -0.5937770109552E+00 -0.4125109318123E+00
-0.1298787804735E+00 -0.1234041020743E+01 -0.6410423049458E+00 -0.4908921154524E+00
-0.1738280942063E+00 -0.1326361324007E+01 -0.7050890247721E+00 -0.5788693691458E+00
-0.2280097745783E+00 -0.1456043541102E+01 -0.7915050563621E+00 -0.6762328459931E+00
-0.2945975008704E+00 -0.1641328331726E+01 -0.9098851390127E+00 -0.7818343330100E+00
-0.9286839574483E+00 -0.2234962759071E+01 -0.1486913952993E+01 -0.9793132937472E+00
-0.6792999433225E+00 -0.2230480554806E+01 -0.1367596830652E+01 -0.7795253447934E+00
-0.4562247441505E+00 -0.2178221354450E+01 -0.1238189663202E+01 -0.5876233816450E+00
-0.2809205592167E+00 -0.2087964230549E+01 -0.1113375848366E+01 -0.4225447605933E+00
-0.1523396744525E+00 -0.1979784775849E+01 -0.1002098489100E+01 -0.2954348819133E+00
-0.6077556237108E-01 -0.1868196142709E+01 -0.9066166990880E+00 -0.2071964798597E+00
 0.2063137574576E-02 -0.1762152773713E+01 -0.8272421268868E+00 -0.1535718905969E+00
 0.4222376096259E-01 -0.1666821563430E+01 -0.7635609652230E+00 -0.1288755409673E+00
 0.6461565004009E-01 -0.1583634471907E+01 -0.7139388444665E+00 -0.1269265500188E+00
 0.7252816699153E-01 -0.1512113801427E+01 -0.6766052464688E+00 -0.1425091281670E+00
 0.6844115620478E-01 -0.1451577970936E+01 -0.6500743012748E+00 -0.1715079233380E+00
 0.5547106595114E-01 -0.1398613445691E+01 -0.6312769168764E+00 -0.2095731555114E+00
 0.3221147381366E-01 -0.1357158763588E+01 -0.6227252246144E+00 -0.2576039730779E+00
 0.2753261952440E-02 -0.1339162721266E+01 -0.6281124442843E+00 -0.3155548462790E+00
-0.2775838958271E-01 -0.1351213242855E+01 -0.6481166656020E+00 -0.3811299226346E+00
-0.6020885741612E-01 -0.1391538587139E+01 -0.6823212972103E+00 -0.4545288635225E+00
-0.9643237398992E-01 -0.1459228962689E+01 -0.7311608263844E+00 -0.5357497802205E+00
-0.1394959989545E+00 -0.1555018804320E+01 -0.7964219555189E+00 -0.6247878357748E+00
-0.1923538436630E+00 -0.1685994467764E+01 -0.8828237041314E+00 -0.7206829358034E+00
-0.2568378859861E+00 -0.1867310566095E+01 -0.9983497699459E+00 -0.8207881801565E+00
-0.9935510550354E+00 -0.2248435713953E+01 -0.1523733777560E+01 -0.9580601275880E+00
-0.7469172495849E+00 -0.2254635635096E+01 -0.1410729852222E+01 -0.7686483471059E+00
-0.5219744441692E+00 -0.2224146153039E+01 -0.1290676677414E+01 -0.5913666457770E+00
-0.3389762679378E+00 -0.2161786659766E+01 -0.1175358573040E+01 -0.4383506251423E+00
-0.1988224992787E+00 -0.2081963182537E+01 -0.1071969267735E+01 -0.3180058797559E+00
-0.9427547653735E-01 -0.1995863900764E+01 -0.9823655048398E+00 -0.2319141737141E+00
-0.1843812534249E-01 -0.1910937869090E+01 -0.9068067150832E+00 -0.1774184200538E+00
 0.3398474078375E-01 -0.1832117489556E+01 -0.8451223897793E+00 -0.1503848233763E+00
 0.6743440953744E-01 -0.1761553530220E+01 -0.7962359847014E+00 -0.1459584684144E+00
 0.8501855927863E-01 -0.1699839172491E+01 -0.7589656862850E+00 -0.1598382779297E+00
 0.8914503666194E-01 -0.1647336878355E+01 -0.7323501637383E+00 -0.1884506365928E+00
 0.8290390083723E-01 -0.1601829717145E+01 -0.7138951318538E+00 -0.2276494955283E+00
 0.6468184302540E-01 -0.1567464321734E+01 -0.7063077632017E+00 -0.2783986748449E+00
 0.3863995926243E-01 -0.1555409786326E+01 -0.7128818169115E+00 -0.3400010092131E+00
 0.1080387452271E-01 -0.1572080515482E+01 -0.7338000193896E+00 -0.4089310883324E+00
-0.1942367135442E-01 -0.1616070706420E+01 -0.7686823556044E+00 -0.4847283678481E+00
-0.5363734935423E-01 -0.1686401053466E+01 -0.8178180472513E+00 -0.5670694092855E+00
-0.9487365712339E-01 -0.1783294907491E+01 -0.8827392231297E+00 -0.6557484715497E+00
-0.1461320306668E+00 -0.1912238929870E+01 -0.9674343489983E+00 -0.7493441183313E+00
-0.2095851618100E+00 -0.2085331805203E+01 -0.1078610971760E+01 -0.8440691244598E+00
-0.1059512940103E+01 -0.2266808268946E+01 -0.1563370964288E+01 -0.9342346839208E+00
-0.8137658817345E+00 -0.2282872674606E+01 -0.1455420117788E+01 -0.7526658492440E+00
-0.5870065474994E+00 -0.2270730624448E+01 -0.1343136467409E+01 -0.5875276381213E+00
-0.3973637066509E+00 -0.2232131505548E+01 -0.1235862746599E+01 -0.4455350514708E+00
-0.2468153370025E+00 -0.2177285200251E+01 -0.1139327249620E+01 -0.3323893785508E+00
-0.1301256125244E+00 -0.2114676141803E+01 -0.1055056821858E+01 -0.2496773682892E+00
-0.4171427567673E-01 -0.2050329380552E+01 -0.9832605159336E+00 -0.1957291169769E+00
 0.2295175165435E-01 -0.1988674370836E+01 -0.9238896286723E+00 -0.1675195912759E+00
 0.6781221781390E-01 -0.1932152164507E+01 -0.8762397727234E+00 -0.1612536337200E+00
 0.9573951637418E-01 -0.1882014520058E+01 -0.8395492496019E+00 -0.1734439882674E+00
 0.1090195300642E+00 -0.1839351856089E+01 -0.8132561911691E+00 -0.2010657767498E+00
 0.1106501829626E+00 -0.1802966924254E+01 -0.7953888663894E+00 -0.2403031233989E+00
 0.9891642011415E-01 -0.1777053774192E+01 -0.7887245544161E+00 -0.2921713651421E+00
 0.7787550833316E-01 -0.1771813672912E+01 -0.7961509353326E+00 -0.3554970332785E+00
 0.5412774264175E-01 -0.1793219170158E+01 -0.8173729688597E+00 -0.4258833264243E+00
 0.2734581545383E-01 -0.1840146797245E+01 -0.8520164592809E+00 -0.5023368759557E+00
-0.3848150649831E-02 -0.1911594428488E+01 -0.9002580099116E+00 -0.5843170923965E+00
-0.4249484513562E-01 -0.2007416372070E+01 -0.9634582696431E+00 -0.6715913393217E+00
-0.9189596230997E-01 -0.2131607385071E+01 -0.1045046570619E+01 -0.7626273875039E+00
-0.1552720692369E+00 -0.2293277616898E+01 -0.1150818349564E+01 -0.8528842877669E+00
-0.1126116778218E+01 -0.2288746908244E+01 -0.1604985928566E+01 -0.9078215570893E+00
-0.8797171450905E+00 -0.2314302865835E+01 -0.1501189401327E+01 -0.7323259683318E+00
-0.6509793185954E+00 -0.2318036545122E+01 -0.1395437452408E+01 -0.5772030053875E+00
-0.4554772528258E+00 -0.2299906128807E+01 -0.1295030186083E+01 -0.4450068126615E+00
-0.2956191906993E+00 -0.2267077046684E+01 -0.1204467228515E+01 -0.3389813640321E+00
-0.1677084687735E+00 -0.2225896042514E+01 -0.1124994117452E+01 -0.2603066523963E+00
-0.6733375431216E-01 -0.2181134899944E+01 -0.1056780264820E+01 -0.2078415352935E+00
 0.9309011829981E-02 -0.2136620587267E+01 -0.9998364379193E+00 -0.1793052614840E+00
 0.6565138098632E-01 -0.2094822483065E+01 -0.9537104155580E+00 -0.1717055291907E+00
 0.1042953313672E+00 -0.2057349764623E+01 -0.9179355813018E+00 -0.1822311420720E+00
 0.1273685439145E+00 -0.2025748252488E+01 -0.8922384607663E+00 -0.2083593798289E+00
 0.1377194628760E+00 -0.1999642253412E+01 -0.8751037093323E+00 -0.2466688996367E+00
 0.1336235664363E+00 -0.1983095337164E+01 -0.8692517300371E+00 -0.2981919269881E+00
 0.1188624675861E+00 -0.1985158456644E+01 -0.8771591126324E+00 -0.3614634427934E+00
 0.1002879461966E+00 -0.2011111545635E+01 -0.8980870894579E+00 -0.4315915490417E+00
 0.7783834270028E-01 -0.2060062005442E+01 -0.9316451191255E+00 -0.5071825445109E+00
 0.5042501465832E-01 -0.2131085812121E+01 -0.9779105723271E+00 -0.5875660903010E+00
 0.1506525122717E-01 -0.2223941264854E+01 -0.1038171723772E+01 -0.6726601223701E+00
-0.3197667313808E-01 -0.2341365061050E+01 -0.1115470612239E+01 -0.7612483289157E+00
-0.9581605270176E-01 -0.2489571495527E+01 -0.1215132144585E+01 -0.8485347113360E+00
-0.1192971746967E+01 -0.2313179165633E+01 -0.1647890924742E+01 -0.8787841547994E+00
-0.9446909847121E+00 -0.2348077959228E+01 -0.1547601399727E+01 -0.7081622202310E+00
-0.7137003635967E+00 -0.2365879686567E+01 -0.1447402619906E+01 -0.5612728657132E+00
-0.5129077835343E+00 -0.2365586405726E+01 -0.1352892265521E+01 -0.4375971192820E+00
-0.3447006340357E+00 -0.2352199068908E+01 -0.1267542857168E+01 -0.3382770935131E+00
-0.2065093228982E+00 -0.2330419394254E+01 -0.1192356494037E+01 -0.2638652631973E+00
-0.9490847349973E-01 -0.2303968074502E+01 -0.1127471974701E+01 -0.2134181571133E+00
-0.6756744989863E-02 -0.2276068311485E+01 -0.1072927773822E+01 -0.1851107036414E+00
 0.6088804642326E-01 -0.2249070903634E+01 -0.1028445940281E+01 -0.1765263045689E+00
 0.1103427443208E+00 -0.2224733560953E+01 -0.9937636812968E+00 -0.1853836949426E+00
 0.1435543092877E+00 -0.2204841446339E+01 -0.9688049519570E+00 -0.2095887037376E+00
 0.1631740720375E+00 -0.2189650087076E+01 -0.9524437246525E+00 -0.2461351636374E+00
 0.1675444463306E+00 -0.2182932215311E+01 -0.9472322490180E+00 -0.2960305996520E+00
 0.1600186596846E+00 -0.2192431724032E+01 -0.9552341378207E+00 -0.3577131632475E+00
 0.1473368570983E+00 -0.2222540085770E+01 -0.9753455150017E+00 -0.4261683859775E+00
 0.1297546202312E+00 -0.2272476505826E+01 -0.1007079283675E+01 -0.4996968629403E+00
 0.1065797651785E+00 -0.2341564203094E+01 -0.1050442683156E+01 -0.5775082741528E+00
 0.7521343354497E-01 -0.2429749134183E+01 -0.1106631776493E+01 -0.6597732032001E+00
 0.3148519298321E-01 -0.2539083675755E+01 -0.1178571283913E+01 -0.7461047251403E+00
-0.3254719813199E-01 -0.2672971626102E+01 -0.1271593844165E+01 -0.8322578244731E+00
-0.1259713059429E+01 -0.2339215502462E+01 -0.1691496419798E+01 -0.8470809526556E+00
-0.1008617579033E+01 -0.2383385337554E+01 -0.1594241366752E+01 -0.6805496786416E+00
-0.7750714907081E+00 -0.2413907607066E+01 -0.1498820172152E+01 -0.5404316090513E+00
-0.5693945784102E+00 -0.2429329812563E+01 -0.1409400460182E+01 -0.4240393551107E+00
-0.3936729061084E+00 -0.2433147979202E+01 -0.1328605812726E+01 -0.3308091599825E+00
-0.2461191884838E+00 -0.2428824062942E+01 -0.1257223324981E+01 -0.2605785934946E+00
-0.1241084350604E+00 -0.2419236390960E+01 -0.1195372065198E+01 -0.2123709002757E+00
-0.2507399115711E-01 -0.2407059005557E+01 -0.1143102505556E+01 -0.1845962837947E+00
 0.5347836980663E-01 -0.2394452582812E+01 -0.1100257877322E+01 -0.1752254165979E+00
 0.1135827010751E+00 -0.2383188328703E+01 -0.1066714642280E+01 -0.1823697448419E+00
 0.1570010879858E+00 -0.2375125823747E+01 -0.1042518623164E+01 -0.2042805042792E+00
 0.1861493891027E+00 -0.2370987887326E+01 -0.1026874091560E+01 -0.2383577232706E+00
 0.1995094412800E+00 -0.2374137299629E+01 -0.1022075090832E+01 -0.2855450774744E+00
 0.1998787799884E+00 -0.2390925451465E+01 -0.1029791932982E+01 -0.3443942266680E+00
 0.1935319144637E+00 -0.2424704389872E+01 -0.1048651060782E+01 -0.4101433637580E+00
 0.1808656254217E+00 -0.2474759240133E+01 -0.1078129996180E+01 -0.4808743765469E+00
 0.1620787154613E+00 -0.2540316087457E+01 -0.1117771562003E+01 -0.5554965074265E+00
 0.1351832398636E+00 -0.2622200901135E+01 -0.1168898297833E+01 -0.6343156308609E+00
 0.9648211605660E-01 -0.2722318795178E+01 -0.1234143236057E+01 -0.7182419377966E+00
 0.3387661036198E-01 -0.2842264830743E+01 -0.1319942460231E+01 -0.8050573949080E+00
-0.1325971224451E+01 -0.2366077214107E+01 -0.1735262761721E+01 -0.8126752997789E+00
-0.1071422856226E+01 -0.2419446390152E+01 -0.1640708541636E+01 -0.6497425102796E+00
-0.8350409981670E+00 -0.2461646513719E+01 -0.1549443126656E+01 -0.5152108276456E+00
-0.6247890680427E+00 -0.2491073385524E+01 -0.1464455349462E+01 -0.4049572484261E+00
-0.4422642677454E+00 -0.2510141200608E+01 -0.1387630566606E+01 -0.3171061963670E+00
-0.2862260003106E+00 -0.2521428133328E+01 -0.1319597439463E+01 -0.2507757500137E+00
-0.1546641912105E+00 -0.2527154517037E+01 -0.1260454789679E+01 -0.2048011152891E+00
-0.4549059499909E-01 -0.2529536787920E+01 -0.1210262866902E+01 -0.1776637435150E+00
 0.4338937907614E-01 -0.2530537304613E+01 -0.1168959522038E+01 -0.1675775453120E+00
 0.1137594724328E+00 -0.2531838873515E+01 -0.1136497315626E+01 -0.1729288924685E+00
 0.1671958476472E+00 -0.2535268987974E+01 -0.1112994373131E+01 -0.1922315281344E+00
 0.2058609304711E+00 -0.2541867409853E+01 -0.1097923042525E+01 -0.2232613310784E+00
 0.2284555026353E+00 -0.2554529098930E+01 -0.1093254587486E+01 -0.2668532768549E+00
 0.2371703474765E+00 -0.2578230837869E+01 -0.1100298427694E+01 -0.3218912726542E+00
 0.2374452916013E+00 -0.2615285420076E+01 -0.1117584857548E+01 -0.3842605748679E+00
 0.2296646287599E+00 -0.2664886643103E+01 -0.1144554343838E+01 -0.4520011312824E+00
 0.2141167607989E+00 -0.2726375330290E+01 -0.1180761524666E+01 -0.5235968040904E+00
 0.1922989862462E+00 -0.2799074386158E+01 -0.1225184434851E+01 -0.5985328566006E+00
 0.1604980445644E+00 -0.2888675468324E+01 -0.1282243385915E+01 -0.6790745966992E+00
 0.1039910103932E+00 -0.2995197894083E+01 -0.1358867231888E+01 -0.7675775725659E+00
-0.1391388495171E+01 -0.2393072132384E+01 -0.1778696490439E+01 -0.7755472794066E+00
-0.1132971116359E+01 -0.2455443852201E+01 -0.1686555030946E+01 -0.6158925125588E+00
-0.8936196004406E+00 -0.2508602458143E+01 -0.1599044363479E+01 -0.4859880812715E+00
-0.6789876735511E+00 -0.2550585809084E+01 -0.1517899532988E+01 -0.3808603423229E+00
-0.4902982155430E+00 -0.2583213642650E+01 -0.1444550569687E+01 -0.2976648687189E+00
-0.3265910238145E+00 -0.2608347119096E+01 -0.1379420923669E+01 -0.2348507273259E+00
-0.1863576866371E+00 -0.2627768525041E+01 -0.1322639316134E+01 -0.1909544649786E+00
-0.6788161653439E-01 -0.2643350573033E+01 -0.1274279125865E+01 -0.1644131874472E+00
 0.3061790998732E-01 -0.2656866122228E+01 -0.1234336656623E+01 -0.1535821413500E+00
 0.1106473333616E+00 -0.2669921587013E+01 -0.1202858896165E+01 -0.1570445341298E+00
 0.1736999925587E+00 -0.2684111692779E+01 -0.1179893496111E+01 -0.1734991360337E+00
 0.2216077979946E+00 -0.2700726369373E+01 -0.1165185725593E+01 -0.2010418964017E+00
 0.2533954262638E+00 -0.2722182238394E+01 -0.1160329798758E+01 -0.2403320304413E+00
 0.2707574812871E+00 -0.2752173411260E+01 -0.1166265484129E+01 -0.2907626400133E+00
 0.2780211048725E+00 -0.2792184754820E+01 -0.1181656912478E+01 -0.3492580201505E+00
 0.2752131055377E+00 -0.2841448087987E+01 -0.1206130438692E+01 -0.4141098358537E+00
 0.2626182523871E+00 -0.2898888436004E+01 -0.1239046983157E+01 -0.4836928300996E+00
 0.2401925749073E+00 -0.2964638879669E+01 -0.1280489759990E+01 -0.5563651862696E+00
 0.2220917411515E+00 -0.3032963113651E+01 -0.1321109541724E+01 -0.6314430907529E+00
 0.1795538213557E+00 -0.3127264180480E+01 -0.1385423865274E+01 -0.7197455814884E+00
-0.1455223127116E+01 -0.2419086991026E+01 -0.1820925750908E+01 -0.7356414016915E+00
-0.1193400421838E+01 -0.2490925028143E+01 -0.1731632957099E+01 -0.5790173330545E+00
-0.9506294010393E+00 -0.2554066826662E+01 -0.1647207222841E+01 -0.4530100461940E+00
-0.7319866057199E+00 -0.2607647774013E+01 -0.1569628154493E+01 -0.3521232713354E+00
-0.5376438079793E+00 -0.2652308792665E+01 -0.1499277718500E+01 -0.2729430526517E+00
-0.3670166337318E+00 -0.2689544504138E+01 -0.1436583731155E+01 -0.2132471298474E+00
-0.2190027741221E+00 -0.2720973841250E+01 -0.1381789005720E+01 -0.1711891315834E+00
-0.9214421470720E-01 -0.2748264484443E+01 -0.1334992085214E+01 -0.1451060744768E+00
 0.1513553949079E-01 -0.2772984993447E+01 -0.1296189240072E+01 -0.1334337197329E+00
 0.1041949061115E+00 -0.2796607281389E+01 -0.1265433813171E+01 -0.1348808477085E+00
 0.1760665367305E+00 -0.2820859357950E+01 -0.1243052622820E+01 -0.1483615836281E+00
 0.2327568121163E+00 -0.2846316006459E+01 -0.1228372818225E+01 -0.1722064172473E+00
 0.2735272468264E+00 -0.2875279804192E+01 -0.1222823698860E+01 -0.2066525684912E+00
 0.2994356594928E+00 -0.2910911878379E+01 -0.1227393819763E+01 -0.2518064653945E+00
 0.3141689111695E+00 -0.2953381597193E+01 -0.1240429959285E+01 -0.3059283609122E+00
 0.3171416820237E+00 -0.3002483108042E+01 -0.1262110467027E+01 -0.3677596233538E+00
 0.3076578198807E+00 -0.3057585384267E+01 -0.1292465951983E+01 -0.4360210595180E+00
 0.2858416413504E+00 -0.3117158596740E+01 -0.1330718965658E+01 -0.5094265927552E+00
 0.2521405920692E+00 -0.3183880306788E+01 -0.1377917662423E+01 -0.5849021530197E+00
 0.2850478078280E+00 -0.3203351426765E+01 -0.1371602697422E+01 -0.6653432157366E+00
-0.1123088488874E+01 -0.2239727354516E+01 -0.1580523442385E+01  0.1241611119053E+01
-0.9803219412279E+00 -0.2267204852490E+01 -0.1526337589176E+01  0.1105470016875E+01
-0.8299301010211E+00 -0.2294436900950E+01 -0.1468452487202E+01  0.9891575827234E+00
-0.6843657411526E+00 -0.2314900855989E+01 -0.1409655297081E+01  0.8909010595128E+00
-0.5502129724677E+00 -0.2326365721036E+01 -0.1351991982518E+01  0.8100140750044E+00
-0.4307885333224E+00 -0.2328276621689E+01 -0.1296760619566E+01  0.7459704928686E+00
-0.3276862087942E+00 -0.2320845829935E+01 -0.1244810055045E+01  0.6978335916139E+00
-0.2413969874041E+00 -0.2304613619493E+01 -0.1196624982207E+01  0.6643650650858E+00
-0.1717619307794E+00 -0.2280220389422E+01 -0.1152431687572E+01  0.6441200328715E+00
-0.1183264862140E+00 -0.2248307247856E+01 -0.1112317852191E+01  0.6356382628581E+00
-0.8057558900790E-01 -0.2209748455599E+01 -0.1076452298235E+01  0.6375035145122E+00
-0.5693010137276E-01 -0.2164464402333E+01 -0.1044055414094E+01  0.6476911167794E+00
-0.4740612531348E-01 -0.2113658860761E+01 -0.1015700540879E+01  0.6656784700893E+00
-0.5108489917201E-01 -0.2059515323718E+01 -0.9919821022425E+00  0.6911130369921E+00
-0.6460540188269E-01 -0.2001480208387E+01 -0.9710602343639E+00  0.7218054881214E+00
-0.8747402914599E-01 -0.1938255223214E+01 -0.9520927461944E+00  0.7556553350713E+00
-0.1189742541410E+00 -0.1867990406264E+01 -0.9338733880217E+00  0.7902578559989E+00
-0.1570716729567E+00 -0.1787702867936E+01 -0.9140440319011E+00  0.8233040329206E+00
-0.2007560389960E+00 -0.1700226994127E+01 -0.8934620233017E+00  0.8514049784916E+00
-0.1697252517772E+00 -0.1546202487475E+01 -0.8064860354031E+00  0.8762563794964E+00
-0.1063033283930E+01 -0.2218586315178E+01 -0.1542361207669E+01  0.1258382756809E+01
-0.9242604294130E+00 -0.2239538702759E+01 -0.1486985588349E+01  0.1122386661541E+01
-0.7755920201466E+00 -0.2257573503397E+01 -0.1425587792450E+01  0.1003109173979E+01
-0.6327219689371E+00 -0.2266632171748E+01 -0.1362696442666E+01  0.8996608983983E+00
-0.5030975910108E+00 -0.2265217442814E+01 -0.1301108062598E+01  0.8124998630312E+00
-0.3898577207667E+00 -0.2253447434814E+01 -0.1242353419972E+01  0.7420750240744E+00
-0.2940897897599E+00 -0.2231969381944E+01 -0.1187247807690E+01  0.6879936461499E+00
-0.2158798577344E+00 -0.2201777738474E+01 -0.1136299067336E+01  0.6492426265570E+00
-0.1546781396599E+00 -0.2163897372724E+01 -0.1089730488057E+01  0.6243985353804E+00
-0.1096914517652E+00 -0.2119289299415E+01 -0.1047620950397E+01  0.6119230837174E+00
-0.7982524947294E-01 -0.2068906912911E+01 -0.1009904113759E+01  0.6102507122983E+00
-0.6332841744523E-01 -0.2013311544891E+01 -0.9760207798226E+00  0.6171829506744E+00
-0.6044834197437E-01 -0.1954294616298E+01 -0.9469291879865E+00  0.6327535931697E+00
-0.6982759692303E-01 -0.1894388574581E+01 -0.9231815982655E+00  0.6567107406609E+00
-0.8768663238442E-01 -0.1833887506229E+01 -0.9031398428574E+00  0.6861548119229E+00
-0.1130841044534E+00 -0.1771113057348E+01 -0.8855726638003E+00  0.7186012385454E+00
-0.1443692520961E+00 -0.1703661912877E+01 -0.8685746453345E+00  0.7514381326552E+00
-0.1804767253720E+00 -0.1630259526396E+01 -0.8510460361724E+00  0.7822431886709E+00
-0.2054775406787E+00 -0.1542608202450E+01 -0.8216002971866E+00  0.8098405447879E+00
-0.2481120198084E+00 -0.1461359096444E+01 -0.8034514226008E+00  0.8448835883336E+00
-0.1004475991038E+01 -0.2199979998974E+01 -0.1506094311486E+01  0.1272795917121E+01
-0.8679303667634E+00 -0.2214134006090E+01 -0.1448570251567E+01  0.1136726620929E+01
-0.7201981548587E+00 -0.2223038825686E+01 -0.1383321377347E+01  0.1013322696272E+01
-0.5794817106724E+00 -0.2220065633595E+01 -0.1315787248469E+01  0.9033722573685E+00
-0.4542559546701E+00 -0.2204656149355E+01 -0.1249688685722E+01  0.8088924823151E+00
-0.3473466649315E+00 -0.2177871567854E+01 -0.1186852566399E+01  0.7313892538396E+00
-0.2592295612194E+00 -0.2141143096368E+01 -0.1128175146205E+01  0.6709588232685E+00
-0.1894290664899E+00 -0.2096098083212E+01 -0.1074197757635E+01  0.6267552057243E+00
-0.1368906508394E+00 -0.2044213976354E+01 -0.1025119172181E+01  0.5973090723875E+00
-0.1003490405096E+00 -0.1986753868072E+01 -0.9809383645453E+00  0.5809320026123E+00
-0.7840930622201E-01 -0.1925035688696E+01 -0.9416191452234E+00  0.5759278834503E+00
-0.6894307408340E-01 -0.1859599689110E+01 -0.9064150964021E+00  0.5798716508044E+00
-0.7227793519545E-01 -0.1792663695787E+01 -0.8765225643387E+00  0.5930388440233E+00
-0.8679828567330E-01 -0.1727666324114E+01 -0.8527983644372E+00  0.6152958746486E+00
-0.1081270837325E+00 -0.1665388728172E+01 -0.8335524294808E+00  0.6433085539743E+00
-0.1350142520430E+00 -0.1603945942959E+01 -0.8173112895780E+00  0.6744044298216E+00
-0.1660550887743E+00 -0.1541213100489E+01 -0.8024160469186E+00  0.7061196015183E+00
-0.1984105766245E+00 -0.1474325402870E+01 -0.7861859083683E+00  0.7371329564291E+00
-0.2345910221660E+00 -0.1406083986062E+01 -0.7711172519113E+00  0.7692806507659E+00
-0.2878272578740E+00 -0.1331969805295E+01 -0.7613046177583E+00  0.8045705163342E+00
-0.9472515791604E+00 -0.2184020946716E+01 -0.1471698083429E+01  0.1284913488739E+01
-0.8115715357609E+00 -0.2192068356728E+01 -0.1411710745889E+01  0.1148342953644E+01
-0.6635961921157E+00 -0.2191462334965E+01 -0.1341877504324E+01  0.1019496206660E+01
-0.5245643479609E+00 -0.2175412614407E+01 -0.1268989169094E+01  0.9015789044959E+00
-0.4037483103784E+00 -0.2144547144709E+01 -0.1197698860853E+01  0.7987001413072E+00
-0.3034684840993E+00 -0.2101257452434E+01 -0.1130221187304E+01  0.7135298323034E+00
-0.2233900490360E+00 -0.2048033228950E+01 -0.1067568937946E+01  0.6465664123584E+00
-0.1623407821669E+00 -0.1987315765934E+01 -0.1010338575045E+01  0.5970150364051E+00
-0.1186541293540E+00 -0.1921090753577E+01 -0.9586800925459E+00  0.5632455382774E+00
-0.9059717161078E-01 -0.1850950129172E+01 -0.9125272290532E+00  0.5433281413143E+00
-0.7642204257437E-01 -0.1778417102992E+01 -0.8717743962051E+00  0.5353519115959E+00
-0.7366134682499E-01 -0.1703870212735E+01 -0.8354398308743E+00  0.5365753141158E+00
-0.8267422546889E-01 -0.1629886729983E+01 -0.8049036470209E+00  0.5473893611665E+00
-0.1015142525871E+00 -0.1560738295665E+01 -0.7812586956971E+00  0.5678161327165E+00
-0.1254862842366E+00 -0.1497674829538E+01 -0.7628857215391E+00  0.5943598726092E+00
-0.1534617920609E+00 -0.1438641645585E+01 -0.7482886137957E+00  0.6243833261682E+00
-0.1841728719552E+00 -0.1381019493589E+01 -0.7356404099397E+00  0.6558055097049E+00
-0.2182561688026E+00 -0.1323025942218E+01 -0.7244025903425E+00  0.6880684602629E+00
-0.2579087921636E+00 -0.1262759649006E+01 -0.7147141655367E+00  0.7217026567503E+00
-0.3132490607298E+00 -0.1196577247847E+01 -0.7096183632311E+00  0.7546054458027E+00
-0.8916115278755E+00 -0.2171425310167E+01 -0.1439627310229E+01  0.1294866451009E+01
-0.7551152382091E+00 -0.2174092451232E+01 -0.1376727610546E+01  0.1157073859285E+01
-0.6057195833883E+00 -0.2163404501683E+01 -0.1301488316682E+01  0.1021144160478E+01
-0.4679660762912E+00 -0.2132732812302E+01 -0.1222328474538E+01  0.8936529560750E+00
-0.3517572682986E+00 -0.2084548468815E+01 -0.1145063693539E+01  0.7813504157946E+00
-0.2585546614699E+00 -0.2023027945976E+01 -0.1072343822780E+01  0.6881317234132E+00
-0.1869826975992E+00 -0.1952019177378E+01 -0.1005330878690E+01  0.6147487789521E+00
-0.1350322956216E+00 -0.1874926482533E+01 -0.9446806233366E+00  0.5602832393236E+00
-0.1003540503170E+00 -0.1794270652637E+01 -0.8904736081300E+00  0.5227762277565E+00
-0.8071597183155E-01 -0.1711887791412E+01 -0.8425237665874E+00  0.4999192586692E+00
-0.7402023797016E-01 -0.1629377753667E+01 -0.8005970540388E+00  0.4894797468154E+00
-0.7748136994938E-01 -0.1546805339183E+01 -0.7634147513561E+00  0.4883300826608E+00
-0.9145544735620E-01 -0.1466988013050E+01 -0.7324684245331E+00  0.4968971181524E+00
-0.1137228836575E+00 -0.1394918206743E+01 -0.7090613106897E+00  0.5154072244796E+00
-0.1396065196093E+00 -0.1332156645805E+01 -0.6917286859903E+00  0.5404285669119E+00
-0.1682420351757E+00 -0.1276181018675E+01 -0.6788788335880E+00  0.5694594624674E+00
-0.1993206388224E+00 -0.1224068489705E+01 -0.6689928887112E+00  0.6006411998257E+00
-0.2339250788116E+00 -0.1172644849586E+01 -0.6610878646699E+00  0.6332119116805E+00
-0.2745844290938E+00 -0.1119387799034E+01 -0.6551669455581E+00  0.6665745912600E+00
-0.3270768238935E+00 -0.1061363145423E+01 -0.6525667839236E+00  0.6973065316242E+00
-0.8378021251280E+00 -0.2163039219235E+01 -0.1410395428273E+01  0.1302784491284E+01
-0.6984961692385E+00 -0.2161042940312E+01 -0.1343983378080E+01  0.1162648950675E+01
-0.5464967654185E+00 -0.2139260268850E+01 -0.1262305802905E+01  0.1017608718445E+01
-0.4098067183546E+00 -0.2091851331822E+01 -0.1175779280601E+01  0.8788091378433E+00
-0.2986148797548E+00 -0.2024004482969E+01 -0.1091631097711E+01  0.7562074787275E+00
-0.2130896753228E+00 -0.1942273252737E+01 -0.1013020573619E+01  0.6548750084858E+00
-0.1505532115509E+00 -0.1852175410910E+01 -0.9412824501691E+00  0.5755719247302E+00
-0.1080351121700E+00 -0.1758191858774E+01 -0.8771266741190E+00  0.5170075840035E+00
-0.8244267891598E-01 -0.1663326379824E+01 -0.8205114555269E+00  0.4766690190438E+00
-0.7104126137882E-01 -0.1569515702020E+01 -0.7710617708416E+00  0.4517033447665E+00
-0.7139829888132E-01 -0.1478249904622E+01 -0.7283346537990E+00  0.4394459045529E+00
-0.8044661622358E-01 -0.1389105116905E+01 -0.6906893128186E+00  0.4363397692579E+00
-0.9852638062808E-01 -0.1304979405083E+01 -0.6596477176110E+00  0.4427927883853E+00
-0.1232464839185E+00 -0.1231417950139E+01 -0.6366922823920E+00  0.4592621713716E+00
-0.1502066664386E+00 -0.1170046118782E+01 -0.6205188074796E+00  0.4825560196961E+00
-0.1789932555916E+00 -0.1117753075367E+01 -0.6094707740047E+00  0.5103270964715E+00
-0.2097343145786E+00 -0.1070884252218E+01 -0.6018907248678E+00  0.5407303908292E+00
-0.2437712544907E+00 -0.1025559589763E+01 -0.5965854952859E+00  0.5726904548014E+00
-0.2831303342769E+00 -0.9790113486230E+00 -0.5932065894584E+00  0.6049794574802E+00
-0.3309014278976E+00 -0.9295792117134E+00 -0.5924258991146E+00  0.6343213552490E+00
-0.7860924291769E+00 -0.2159899730481E+01 -0.1384616311527E+01  0.1308790247353E+01
-0.6416343843717E+00 -0.2153809948883E+01 -0.1313858833297E+01  0.1164642443872E+01
-0.4859287359032E+00 -0.2119273397422E+01 -0.1224444999557E+01  0.1008023760708E+01
-0.3503537123279E+00 -0.2052263930367E+01 -0.1129230289203E+01  0.8561123637813E+00
-0.2448386019612E+00 -0.1961860721421E+01 -0.1037148679359E+01  0.7226059403726E+00
-0.1677256068106E+00 -0.1857691409456E+01 -0.9519459952308E+00  0.6135354165150E+00
-0.1147808288935E+00 -0.1747259233861E+01 -0.8751588272747E+00  0.5292914899184E+00
-0.8197181226543E-01 -0.1636162680159E+01 -0.8075232093913E+00  0.4678720081710E+00
-0.6542996680671E-01 -0.1527735603314E+01 -0.7487878160576E+00  0.4259306408003E+00
-0.6193904114455E-01 -0.1423775123707E+01 -0.6982856557092E+00  0.3998903135250E+00
-0.6876889705999E-01 -0.1325407453252E+01 -0.6552628829844E+00  0.3865560598576E+00
-0.8262442259845E-01 -0.1231510720693E+01 -0.6176435157804E+00  0.3819389666558E+00
-0.1038218455508E+00 -0.1144874677055E+01 -0.5868873641364E+00  0.3863912898532E+00
-0.1298985464300E+00 -0.1071409965126E+01 -0.5646149989994E+00  0.4006158283188E+00
-0.1569618540951E+00 -0.1012601710794E+01 -0.5496948741035E+00  0.4218236427503E+00
-0.1849821971090E+00 -0.9645925325578E+00 -0.5403001215730E+00  0.4478518706175E+00
-0.2144168463124E+00 -0.9231143244295E+00 -0.5346396488927E+00  0.4768465522175E+00
-0.2465755868019E+00 -0.8837932643658E+00 -0.5312733587013E+00  0.5074939707792E+00
-0.2830595966245E+00 -0.8439925634711E+00 -0.5297145139013E+00  0.5383792730642E+00
-0.3253989928271E+00 -0.8029467408488E+00 -0.5303224934826E+00  0.5669909723729E+00
-0.7367930670165E+00 -0.2163293286200E+01 -0.1363040582555E+01  0.1312985995488E+01
-0.5844688626201E+00 -0.2153348952121E+01 -0.1286774369664E+01  0.1162417275809E+01
-0.4241380596175E+00 -0.2103471383467E+01 -0.1187976435237E+01  0.9912750730720E+00
-0.2900790795026E+00 -0.2013044309402E+01 -0.1082467990039E+01  0.8244849296418E+00
-0.1911581447492E+00 -0.1896565098581E+01 -0.9812299218766E+00  0.6799014560634E+00
-0.1232869682013E+00 -0.1767532683749E+01 -0.8886852341624E+00  0.5640574792503E+00
-0.8046215363061E-01 -0.1635711871770E+01 -0.8066017898926E+00  0.4764281864421E+00
-0.5753189479403E-01 -0.1507735207437E+01 -0.7356755361827E+00  0.4138574549341E+00
-0.4985241132317E-01 -0.1386960816338E+01 -0.6753022152881E+00  0.3718420835757E+00
-0.5377610093516E-01 -0.1274680346957E+01 -0.6243745289255E+00  0.3459079932537E+00
-0.6633402730409E-01 -0.1171324502836E+01 -0.5816995076905E+00  0.3322667048872E+00
-0.8407655560785E-01 -0.1074841046495E+01 -0.5446912716066E+00  0.3265542904577E+00
-0.1072803022010E+00 -0.9877164078802E+00 -0.5146484524328E+00  0.3290588457886E+00
-0.1335148807792E+00 -0.9160676045750E+00 -0.4933037668653E+00  0.3407544668553E+00
-0.1595530989786E+00 -0.8610627788680E+00 -0.4796894613712E+00  0.3594291336886E+00
-0.1857197189536E+00 -0.8180717904406E+00 -0.4717820082186E+00  0.3831775811616E+00
-0.2127108203142E+00 -0.7822961821074E+00 -0.4676532899520E+00  0.4101771693390E+00
-0.2417679443869E+00 -0.7490763929015E+00 -0.4656968373444E+00  0.4389873254458E+00
-0.2742189214752E+00 -0.7159448697352E+00 -0.4653769806885E+00  0.4682768900551E+00
-0.3109338496964E+00 -0.6826912090459E+00 -0.4670037764244E+00  0.4964812848497E+00
-0.6903004772821E+00 -0.2174849612214E+01 -0.1346620538648E+01  0.1315434789215E+01
-0.5270040403505E+00 -0.2160681371251E+01 -0.1263212140249E+01  0.1155050867370E+01
-0.3614429088889E+00 -0.2091574593321E+01 -0.1152918223114E+01  0.9659547256159E+00
-0.2297183207044E+00 -0.1972707930833E+01 -0.1035140335597E+01  0.7827265260688E+00
-0.1385376840484E+00 -0.1825951452596E+01 -0.9233098918810E+00  0.6275461439614E+00
-0.8075835233218E-01 -0.1669548463708E+01 -0.8226442014525E+00  0.5066560847380E+00
-0.4848052066467E-01 -0.1515690318134E+01 -0.7351602923708E+00  0.4178641456699E+00
-0.3543228179044E-01 -0.1371743883007E+01 -0.6613727957774E+00  0.3563085709017E+00
-0.3623232173915E-01 -0.1240565133717E+01 -0.6000948025423E+00  0.3159848821522E+00
-0.4688056384621E-01 -0.1122420490409E+01 -0.5495714941062E+00  0.2913904408120E+00
-0.6425102484840E-01 -0.1016644797276E+01 -0.5080210351097E+00  0.2781472835726E+00
-0.8483337561318E-01 -0.9200280411485E+00 -0.4722848646801E+00  0.2716552206546E+00
-0.1088418491091E+00 -0.8345868411000E+00 -0.4434114832736E+00  0.2721706953836E+00
-0.1339784878513E+00 -0.7665306203769E+00 -0.4232392797937E+00  0.2809901370554E+00
-0.1578050152549E+00 -0.7165978827502E+00 -0.4109693610200E+00  0.2966600731444E+00
-0.1809585437911E+00 -0.6794008042007E+00 -0.4043688925305E+00  0.3176130392833E+00
-0.2043531273710E+00 -0.6497085640847E+00 -0.4014089939660E+00  0.3421063932423E+00
-0.2291870973691E+00 -0.6226968414152E+00 -0.4003854502131E+00  0.3686513637108E+00
-0.2567140981423E+00 -0.5960359054175E+00 -0.4007925006565E+00  0.3961305470797E+00
-0.2877424909461E+00 -0.5697715722064E+00 -0.4030316086594E+00  0.4238979934139E+00
-0.6471713451750E+00 -0.2196676586120E+01 -0.1336608524319E+01  0.1316130675915E+01
-0.4693874593961E+00 -0.2176889042596E+01 -0.1243749952782E+01  0.1141233690841E+01
-0.2984556763375E+00 -0.2082854909024E+01 -0.1119215972281E+01  0.9303109240122E+00
-0.1703329927398E+00 -0.1929019508968E+01 -0.9866956733001E+00  0.7295581546872E+00
-0.8817959076862E-01 -0.1747093425160E+01 -0.8625783152987E+00  0.5652036975308E+00
-0.4124892798408E-01 -0.1560958090534E+01 -0.7530372967937E+00  0.4419561751907E+00
-0.1975459925073E-01 -0.1385151065935E+01 -0.6603056609623E+00  0.3549607331258E+00
-0.1636290905927E-01 -0.1227114044436E+01 -0.5844341666605E+00  0.2969988475191E+00
-0.2502524664011E-01 -0.1088370707065E+01 -0.5232960969141E+00  0.2602476525233E+00
-0.4149421924568E-01 -0.9674790226362E+00 -0.4742174224817E+00  0.2381393585031E+00
-0.6259411160815E-01 -0.8622474909198E+00 -0.4346755520857E+00  0.2258186159448E+00
-0.8486991523852E-01 -0.7681367134025E+00 -0.4009131144444E+00  0.2186876033022E+00
-0.1084428195271E+00 -0.6865922514777E+00 -0.3736664824245E+00  0.2170507597661E+00
-0.1312451016482E+00 -0.6238658494171E+00 -0.3549021461005E+00  0.2226022458775E+00
-0.1516981325203E+00 -0.5802089594364E+00 -0.3439963323472E+00  0.2348115832041E+00
-0.1707041137243E+00 -0.5495389922180E+00 -0.3385142589343E+00  0.2525078487753E+00
-0.1893979008274E+00 -0.5262863435644E+00 -0.3363715940110E+00  0.2740560152332E+00
-0.2089938487531E+00 -0.5055529220201E+00 -0.3358369814116E+00  0.2979553560797E+00
-0.2308413185350E+00 -0.4850890935807E+00 -0.3364872928409E+00  0.3233349434417E+00
-0.2560734064314E+00 -0.4649706134372E+00 -0.3388906884787E+00  0.3503422657212E+00
-0.6082509440479E+00 -0.2231562134900E+01 -0.1334712143720E+01  0.1314950423695E+01
-0.4120356168069E+00 -0.2203093717142E+01 -0.1229110783839E+01  0.1119128002013E+01
-0.2362136476667E+00 -0.2075912332704E+01 -0.1086699208018E+01  0.8821969324919E+00
-0.1133644422032E+00 -0.1878711987027E+01 -0.9362759193636E+00  0.6637090992604E+00
-0.4149323268233E-01 -0.1656127441330E+01 -0.7978817147619E+00  0.4929264977399E+00
-0.5921840404399E-02 -0.1438462180399E+01 -0.6788604880559E+00  0.3711831079140E+00
 0.4837065233563E-02 -0.1242025445424E+01 -0.5814785372147E+00  0.2896940684248E+00
-0.9165740355010E-03 -0.1073098694347E+01 -0.5047871748594E+00  0.2381782819231E+00
-0.1655587157308E-01 -0.9306604957787E+00 -0.4451916915262E+00  0.2067945455913E+00
-0.3771678823776E-01 -0.8107541450057E+00 -0.3987813376130E+00  0.1880459523328E+00
-0.6131295759297E-01 -0.7092897639682E+00 -0.3621832782151E+00  0.1768628344179E+00
-0.8408128360331E-01 -0.6203567470495E+00 -0.3310858735671E+00  0.1689913608296E+00
-0.1060097781541E+00 -0.5448318385874E+00 -0.3058955590926E+00  0.1649018654405E+00
-0.1253410603654E+00 -0.4890232760848E+00 -0.2887512373992E+00  0.1667685093206E+00
-0.1413618887034E+00 -0.4526901721961E+00 -0.2792044679146E+00  0.1751030706957E+00
-0.1551772146548E+00 -0.4291603805316E+00 -0.2746386690410E+00  0.1891500180941E+00
-0.1681572005744E+00 -0.4126259609528E+00 -0.2729680852255E+00  0.2073812957477E+00
-0.1815971760302E+00 -0.3981924551353E+00 -0.2725011259566E+00  0.2282857636242E+00
-0.1970696024390E+00 -0.3836380251858E+00 -0.2729325842914E+00  0.2512114144153E+00
-0.2162712910057E+00 -0.3689029725830E+00 -0.2750319031891E+00  0.2769257939138E+00
-0.5748991713945E+00 -0.2283287233131E+01 -0.1343347606720E+01  0.1311572905867E+01
-0.3558396233913E+00 -0.2240405195409E+01 -0.1220235061741E+01  0.1086167275294E+01
-0.1763451155594E+00 -0.2068307589666E+01 -0.1054986768780E+01  0.8190292466883E+00
-0.6065256547809E-01 -0.1817070146558E+01 -0.8825296724185E+00  0.5840816714669E+00
-0.3858446060434E-06 -0.1548058922839E+01 -0.7275878732359E+00  0.4114291865760E+00
 0.2412377704495E-01 -0.1298365927703E+01 -0.5988938092903E+00  0.2964154672735E+00
 0.2455543554700E-01 -0.1084548741146E+01 -0.4981968523680E+00  0.2247917654644E+00
 0.1049520528262E-01 -0.9096207748621E+00 -0.4225890166305E+00  0.1825723637190E+00
-0.1094313317712E-01 -0.7684049043658E+00 -0.3662935767161E+00  0.1579685858012E+00
-0.3544411609009E-01 -0.6536459130619E+00 -0.3238723128800E+00  0.1429610345419E+00
-0.6019318794785E-01 -0.5592001501529E+00 -0.2911148681690E+00  0.1327068402285E+00
-0.8226502787382E-01 -0.4779577145317E+00 -0.2633046882627E+00  0.1237132080123E+00
-0.1014555259766E+00 -0.4103525807063E+00 -0.2405498095309E+00  0.1167418827729E+00
-0.1163573061667E+00 -0.3628068876276E+00 -0.2252071705121E+00  0.1145067607328E+00
-0.1270516599777E+00 -0.3346165436754E+00 -0.2169840551666E+00  0.1186127269646E+00
-0.1347701685705E+00 -0.3186628415209E+00 -0.2131135142024E+00  0.1286929366039E+00
-0.1411402571405E+00 -0.3090119322904E+00 -0.2115715284959E+00  0.1433021787633E+00
-0.1476013469537E+00 -0.3008507292316E+00 -0.2107724752725E+00  0.1608994886005E+00
-0.1560306861711E+00 -0.2919480303611E+00 -0.2105499962361E+00  0.1809901356188E+00
-0.1688260678420E+00 -0.2819993789446E+00 -0.2118879594523E+00  0.2047567270367E+00
-0.5494022900190E+00 -0.2357132555436E+01 -0.1366071373899E+01  0.1305340232568E+01
-0.3025048805795E+00 -0.2289799874023E+01 -0.1218383231573E+01  0.1038765233354E+01
-0.1212595406952E+00 -0.2055931181980E+01 -0.1023279637062E+01  0.7377809235690E+00
-0.1436155600855E-01 -0.1737312887806E+01 -0.8232869865047E+00  0.4900583392396E+00
 0.3486861684648E-01 -0.1416609598368E+01 -0.6494182596682E+00  0.3225099599384E+00
 0.4802337403129E-01 -0.1136941336489E+01 -0.5117914410569E+00  0.2209011933795E+00
 0.3891664159501E-01 -0.9118266383653E+00 -0.4102676974414E+00  0.1638261237213E+00
 0.1773490745466E-01 -0.7377180325337E+00 -0.3383920679289E+00  0.1332778572815E+00
-0.8014483723479E-02 -0.6034530483699E+00 -0.2873897393550E+00  0.1160973215703E+00
-0.3430785169999E-01 -0.4980544633505E+00 -0.2502102874391E+00  0.1045102589840E+00
-0.5883105831850E-01 -0.4135952646173E+00 -0.2220403712167E+00  0.9449389131988E-01
-0.7912287431889E-01 -0.3422059299165E+00 -0.1980245374883E+00  0.8373346306283E-01
-0.9468844663761E-01 -0.2840991945325E+00 -0.1780301908984E+00  0.7336214127866E-01
-0.1044462482788E+00 -0.2458610241763E+00 -0.1646444176363E+00  0.6663952568041E-01
-0.1091230582835E+00 -0.2263585536288E+00 -0.1576763571988E+00  0.6623604767652E-01
-0.1099981355229E+00 -0.2181990671635E+00 -0.1542526848714E+00  0.7210795970870E-01
-0.1089949070129E+00 -0.2154549749298E+00 -0.1524914441263E+00  0.8285748728366E-01
-0.1077582484811E+00 -0.2134843942799E+00 -0.1509840417147E+00  0.9688797339523E-01
-0.1085057460043E+00 -0.2100300810299E+00 -0.1497118383264E+00  0.1137839110899E+00
-0.1143925694743E+00 -0.2044890198396E+00 -0.1498743465974E+00  0.1349081342539E+00
-0.5357589152798E+00 -0.2460744223738E+01 -0.1408356471766E+01  0.1295009963054E+01
-0.2551147336900E+00 -0.2351834620847E+01 -0.1225266193525E+01  0.9718848248963E+00
-0.7430891013541E-01 -0.2031876240939E+01 -0.9899070184941E+00  0.6350732521955E+00
 0.2331871738042E-01 -0.1629687821126E+01 -0.7549934768453E+00  0.3820723640424E+00
 0.6213779252420E-01 -0.1254290575202E+01 -0.5603118064375E+00  0.2296854599407E+00
 0.6535570327110E-01 -0.9512584652614E+00 -0.4163742970794E+00  0.1493974845831E+00
 0.4779171737082E-01 -0.7247279060259E+00 -0.3181600078609E+00  0.1111617700962E+00
 0.2104516707299E-01 -0.5599955295016E+00 -0.2533066696990E+00  0.9347299596755E-01
-0.7216559146506E-02 -0.4385698475470E+00 -0.2095196106145E+00  0.8317850606462E-01
-0.3363156076835E-01 -0.3462178819566E+00 -0.1785292376279E+00  0.7387640640782E-01
-0.5664638730885E-01 -0.2741134758412E+00 -0.1554571352862E+00  0.6297651928956E-01
-0.7429434264601E-01 -0.2142565766652E+00 -0.1356189317323E+00  0.4963121448404E-01
-0.8563928241530E-01 -0.1668719648381E+00 -0.1186802859081E+00  0.3532087747081E-01
-0.8982453513657E-01 -0.1386780127326E+00 -0.1073961972261E+00  0.2378678190484E-01
-0.8800435092935E-01 -0.1281182016562E+00 -0.1015775994576E+00  0.1866817521271E-01
-0.8144657807112E-01 -0.1277219209032E+00 -0.9830919426859E-01  0.2015740739688E-01
-0.7244675052477E-01 -0.1317336735687E+00 -0.9596479908053E-01  0.2687423892053E-01
-0.6291988038533E-01 -0.1358040807442E+00 -0.9340026149398E-01  0.3714796170203E-01
-0.5540488635418E-01 -0.1376572867043E+00 -0.9073922110734E-01  0.5055903653871E-01
-0.5378884765990E-01 -0.1363940692982E+00 -0.8938597074358E-01  0.6837993386823E-01
-0.5412600757861E+00 -0.2605705914022E+01 -0.1479074011458E+01  0.1278295356435E+01
-0.2190923947931E+00 -0.2425976404873E+01 -0.1243182332690E+01  0.8783845138912E+00
-0.3969382758062E-01 -0.1984293982860E+01 -0.9512742684944E+00  0.5075251325673E+00
 0.5092273317826E-01 -0.1480277942681E+01 -0.6717969467624E+00  0.2626666276665E+00
 0.8186643997408E-01 -0.1053141168418E+01 -0.4564991212108E+00  0.1390973149049E+00
 0.7624955802947E-01 -0.7409289772887E+00 -0.3123993262595E+00  0.8838058410937E-01
 0.5149420048833E-01 -0.5270124328886E+00 -0.2234935686613E+00  0.7156077432172E-01
 0.2115696969549E-01 -0.3808442041091E+00 -0.1690529997456E+00  0.6585637848082E-01
-0.7514608326840E-02 -0.2771092396230E+00 -0.1337732081971E+00  0.6047581644122E-01
-0.3246132143036E-01 -0.2003838917971E+00 -0.1094372499393E+00  0.5161848589782E-01
-0.5295301107581E-01 -0.1421961851975E+00 -0.9172012201581E-01  0.3847722842346E-01
-0.6742398341942E-01 -0.9505130429231E-01 -0.7636338503083E-01  0.2170798806314E-01
-0.7429994578110E-01 -0.5930937407198E-01 -0.6279638017167E-01  0.2976986842895E-02
-0.7277757350673E-01 -0.4163370429983E-01 -0.5377330043270E-01 -0.1361316727441E-01
-0.6416541290379E-01 -0.3998834381681E-01 -0.4895226553452E-01 -0.2359295905214E-01
-0.4971099984564E-01 -0.4704005398077E-01 -0.4547299518308E-01 -0.2661781399379E-01
-0.3223287882387E-01 -0.5743567963113E-01 -0.4214422236695E-01 -0.2405394028575E-01
-0.1398827388219E-01 -0.6730252051795E-01 -0.3820667327116E-01 -0.1764293795782E-01
 0.2255409372406E-02 -0.7438796350669E-01 -0.3390230035713E-01 -0.7890536540300E-02
 0.1201720287904E-01 -0.7754373017996E-01 -0.3079746775332E-01  0.6064938319568E-02
-0.5800391334265E+00 -0.2810747940338E+01 -0.1593669920627E+01  0.1250955404707E+01
-0.2036965208155E+00 -0.2508785404514E+01 -0.1274866501671E+01  0.7480176370644E+00
-0.2159964972996E-01 -0.1892274079064E+01 -0.8995206502516E+00  0.3527525293248E+00
 0.6957087773840E-01 -0.1269622046109E+01 -0.5640240477035E+00  0.1384704833902E+00
 0.9551745428569E-01 -0.8076187360485E+00 -0.3346876015796E+00  0.6059955691135E-01
 0.8134336678736E-01 -0.5109631285224E+00 -0.2019212875033E+00  0.4569905150525E-01
 0.5071652299209E-01 -0.3263556190751E+00 -0.1295503748304E+00  0.4914413413208E-01
 0.1960771519293E-01 -0.2056728856148E+00 -0.8745062987648E-01  0.5182826595558E-01
-0.7460721382603E-02 -0.1223608427616E+00 -0.6101613499300E-01  0.4819261652572E-01
-0.2970286961085E-01 -0.6239612047599E-01 -0.4328652523103E-01  0.3762707808989E-01
-0.4708671367662E-01 -0.1888814334135E-01 -0.3100818271979E-01  0.2095094038800E-01
-0.5824275573119E-01  0.1474895586434E-01 -0.2044208588557E-01  0.7288293950509E-04
-0.6075956685235E-01  0.3809413949267E-01 -0.1065275083203E-01 -0.2343971750664E-01
-0.5366262665091E-01  0.4493962892722E-01 -0.4099808919737E-02 -0.4525766454939E-01
-0.3807789489974E-01  0.3796279469449E-01 -0.5409709633084E-04 -0.6022647069126E-01
-0.1532723467636E-01  0.2411178777944E-01  0.4128739947975E-02 -0.6790152081345E-01
 0.1097900297053E-01  0.8009674021553E-02  0.8924678163641E-02 -0.6958649297755E-01
 0.3813512246341E-01 -0.7272963800239E-02  0.1450521453490E-01 -0.6704955617934E-01
 0.6337007153732E-01 -0.1958743185698E-01  0.2057784059757E-01 -0.6096251678308E-01
 0.8191422599088E-01 -0.2761451818180E-01  0.2552086260554E-01 -0.5127021767738E-01
-0.6814208783988E+00 -0.3108756246444E+01 -0.1781383244158E+01  0.1204889056907E+01
-0.2248970959152E+00 -0.2589466695332E+01 -0.1322750978531E+01  0.5658360112211E+00
-0.1935389362834E-01 -0.1716087531083E+01 -0.8156574675455E+00  0.1722154061535E+00
 0.8523583610056E-01 -0.9744822883246E+00 -0.4179458314852E+00  0.2367939397994E-01
 0.1062005931731E+00 -0.5211037339788E+00 -0.1950044756841E+00  0.8394867268211E-02
 0.8008091998301E-01 -0.2767249191800E+00 -0.9242267938818E-01  0.2863967839005E-01
 0.4782292748149E-01 -0.1320077550543E+00 -0.3956686885887E-01  0.4552835180136E-01
 0.1854580314739E-01 -0.3954421180979E-01 -0.9869252046298E-02  0.5089300659686E-01
-0.5446355155455E-02  0.2321936035280E-01  0.8353312421567E-02  0.4545582114339E-01
-0.2437162330473E-01  0.6661018966476E-01  0.1985212613887E-01  0.3127035873202E-01
-0.3854086532787E-01  0.9529041523226E-01  0.2667228838742E-01  0.1013596070853E-01
-0.4662561810383E-01  0.1147966161932E+00  0.3204036902075E-01 -0.1522734208050E-01
-0.4523522271878E-01  0.1249217137252E+00  0.3745265067804E-01 -0.4372879438385E-01
-0.3290087457937E-01  0.1206460010698E+00  0.4124020934592E-01 -0.7091084486771E-01
-0.1017496496690E-01  0.1055618813138E+00  0.4483185056931E-01 -0.9105232197520E-01
 0.2132630825073E-01  0.8599489935795E-01  0.5044096744814E-01 -0.1036016720285E+00
 0.5667903993872E-01  0.6528904056207E-01  0.5732499768998E-01 -0.1096606877801E+00
 0.9262703544783E-01  0.4521662011422E-01  0.6478651794984E-01 -0.1109127787102E+00
 0.1267286567504E+00  0.2754987594198E-01  0.7251091018151E-01 -0.1082604259961E+00
 0.1546343143185E+00  0.1381589745473E-01  0.7917159933262E-01 -0.1029805602290E+00
-0.9187989837900E+00 -0.3569573330166E+01 -0.2109534982209E+01  0.1123114168808E+01
-0.3021321070866E+00 -0.2628641825787E+01 -0.1377463744957E+01  0.3103525435597E+00
-0.1840107694154E-01 -0.1383043180201E+01 -0.6586787991866E+00 -0.2129736176996E-01
 0.1177106851612E+00 -0.5734633310340E+00 -0.2142037430169E+00 -0.5391057245965E-01
 0.1058756098240E+00 -0.2316948663091E+00 -0.5913505039804E-01 -0.2252703501535E-02
 0.7672535550555E-01 -0.5471189469778E-01  0.1034632655341E-01  0.3895724805841E-01
 0.4596773608950E-01  0.4810643378809E-01  0.4421485973032E-01  0.5875282139722E-01
 0.2034905295345E-01  0.1143508950648E+00  0.6330897540800E-01  0.6084392940117E-01
-0.1992003326241E-03  0.1583344286540E+00  0.7432355712251E-01  0.5068626918945E-01
-0.1584187776250E-01  0.1862911963838E+00  0.8011117954880E-01  0.3165006275391E-01
-0.2701221007737E-01  0.2004660866998E+00  0.8152332180579E-01  0.5731078021769E-02
-0.3262957490842E-01  0.2050549246844E+00  0.8103991418915E-01 -0.2404708235318E-01
-0.2808543602930E-01  0.2007292745924E+00  0.8114260391884E-01 -0.5758798452006E-01
-0.1099385642674E-01  0.1848298041401E+00  0.8170289521805E-01 -0.9031323634448E-01
 0.1925316303412E-01  0.1624272948897E+00  0.8538981500760E-01 -0.1159830859298E+00
 0.6007704941422E-01  0.1386806086819E+00  0.9341609906822E-01 -0.1338364533358E+00
 0.1047035953596E+00  0.1152175595197E+00  0.1033629425311E+00 -0.1445336981677E+00
 0.1487889499277E+00  0.9132180482802E-01  0.1128520544490E+00 -0.1494060223479E+00
 0.1910635460301E+00  0.6812310446131E-01  0.1218177254220E+00 -0.1496289179259E+00
 0.2285624271918E+00  0.4709232786816E-01  0.1295577345496E+00 -0.1484904280906E+00
-0.1483073085530E+01 -0.4355352491393E+01 -0.2744060014194E+01  0.9668639936350E+00
-0.4736239833236E+00 -0.2517957841095E+01 -0.1406043453911E+01 -0.5001816293886E-01
 0.1142061079332E+00 -0.6928017755175E+00 -0.2719399630749E+00 -0.1743842351185E+00
 0.1169776313962E+00 -0.1901395418183E+00 -0.3438609781119E-01 -0.5563900031771E-01
 0.1056263926580E+00  0.3148309648626E-01  0.6444145973434E-01  0.2923255490206E-01
 0.7532885381891E-01  0.1426280786443E+00  0.1024397579979E+00  0.7128110459402E-01
 0.4887238390233E-01  0.2106369223568E+00  0.1219693736325E+00  0.8425253898174E-01
 0.2667862332943E-01  0.2548007108052E+00  0.1322952867077E+00  0.7874881052607E-01
 0.8762042241117E-02  0.2825306995656E+00  0.1369075883019E+00  0.6208500512499E-01
-0.3861015502608E-02  0.2971862844980E+00  0.1378628760782E+00  0.3778807007956E-01
-0.1249504057577E-01  0.2974557705272E+00  0.1339315427375E+00  0.7530983699767E-02
-0.1631786911570E-01  0.2860850715485E+00  0.1267905848218E+00 -0.2592929107557E-01
-0.9989642948749E-02  0.2646692123484E+00  0.1196993973142E+00 -0.6438327244604E-01
 0.1148112722093E-01  0.2362170501303E+00  0.1164181430598E+00 -0.1030852878196E+00
 0.5024646222783E-01  0.2078896094948E+00  0.1213239534019E+00 -0.1350248513673E+00
 0.1012008454544E+00  0.1822021981719E+00  0.1331994301665E+00 -0.1589002722148E+00
 0.1548416861328E+00  0.1579448264928E+00  0.1470096605611E+00 -0.1747338926524E+00
 0.2069497375060E+00  0.1331508853851E+00  0.1598472923534E+00 -0.1832290831760E+00
 0.2545820395413E+00  0.1033684783134E+00  0.1682367429650E+00 -0.1852325918672E+00
 0.3016729483655E+00  0.7259633421372E-01  0.1759065623661E+00 -0.1872037642805E+00
-0.3726483595761E+01 -0.6497308820173E+01 -0.4805182423301E+01  0.5628046712828E+00
 0.1708176406290E+00 -0.9090535816671E+00 -0.3469708914079E+00 -0.4679161873670E+00
 0.7857284332082E-01 -0.1435768811661E+00 -0.3055189770979E-01 -0.1665303293695E+00
 0.1273564347444E+00  0.1334601599197E+00  0.1225837991812E+00  0.1109883948770E-01
 0.1076877340800E+00  0.2501720972657E+00  0.1681941203059E+00  0.8918148264817E-01
 0.8208017692059E-01  0.3138070784833E+00  0.1860670095679E+00  0.1168719857016E+00
 0.5803198724479E-01  0.3548172653624E+00  0.1940391482332E+00  0.1170826942511E+00
 0.3836462807969E-01  0.3823316147457E+00  0.1977272336264E+00  0.1018613914251E+00
 0.2188722248406E-01  0.3964811151428E+00  0.1966331181859E+00  0.7816782281994E-01
 0.9604245321481E-02  0.3982328459354E+00  0.1916834324046E+00  0.4841896093617E-01
 0.6349108094279E-02  0.3904577000223E+00  0.1864991993418E+00  0.1519617910013E-01
 0.2139438789902E-02  0.3594596823707E+00  0.1699515865144E+00 -0.1935714864998E-01
 0.7127191419563E-02  0.3135443254169E+00  0.1507156125309E+00 -0.6264674191241E-01
 0.3438966988107E-01  0.2724567955992E+00  0.1442178384099E+00 -0.1088986258583E+00
 0.8394165296491E-01  0.2417027252167E+00  0.1530528573571E+00 -0.1484863844885E+00
 0.1447911821619E+00  0.2161117859594E+00  0.1696243945868E+00 -0.1792112747086E+00
 0.2076089964680E+00  0.1938498659750E+00  0.1886856648696E+00 -0.2008522556724E+00
 0.2661430948287E+00  0.1697674486532E+00  0.2048779549169E+00 -0.2133833965602E+00
 0.3208430176124E+00  0.1411569081175E+00  0.2171399645423E+00 -0.2166987438335E+00
 0.3649735333958E+00  0.8580463259372E-01  0.2118657374777E+00 -0.2177108526285E+00
 0.1338987455792E+00 -0.3469984543242E+01 -0.1567960320924E+01 -0.7240145014099E+00
 0.1307360091894E+00 -0.3301766450137E+01 -0.1490384303465E+01 -0.7693598370597E+00
 0.8137294394264E-01 -0.3167274582921E+01 -0.1450373766641E+01 -0.8120515304320E+00
 0.2686374918686E-01 -0.3026346218917E+01 -0.1409756757197E+01 -0.8500899484900E+00
-0.3135997526483E-01 -0.2874898801057E+01 -0.1365941621407E+01 -0.8814655072727E+00
-0.9052174743312E-01 -0.2710401458518E+01 -0.1316433903458E+01 -0.9046597836118E+00
-0.1488040549706E+00 -0.2532169500658E+01 -0.1260057567949E+01 -0.9180947969177E+00
-0.2043880352776E+00 -0.2340198560920E+01 -0.1195955697179E+01 -0.9201037782014E+00
-0.2553559393987E+00 -0.2135009122070E+01 -0.1123471576041E+01 -0.9089332417069E+00
-0.2995141586919E+00 -0.1917577737293E+01 -0.1042033188470E+01 -0.8827916724132E+00
-0.3342553506405E+00 -0.1689379302937E+01 -0.9511082847690E+00 -0.8399305657086E+00
-0.3564206390386E+00 -0.1452488218292E+01 -0.8501871607888E+00 -0.7787701102608E+00
-0.3621734951329E+00 -0.1209739326032E+01 -0.7387990240735E+00 -0.6980882348316E+00
-0.3469127514195E+00 -0.9649564785368E+00 -0.6165785365156E+00 -0.5973016395728E+00
-0.3053024951033E+00 -0.7232696590187E+00 -0.4834289112112E+00 -0.4768806421367E+00
-0.2315740588755E+00 -0.4915319116758E+00 -0.3398598052971E+00 -0.3389548013307E+00
-0.1205247291933E+00 -0.2789025120857E+00 -0.1877308029250E+00 -0.1881832379785E+00
 0.3045835604443E-01 -0.9717306240095E-01 -0.3135591190803E-01 -0.3289861941945E-01
 0.2160289942616E+00  0.3865485723514E-01  0.1197014098999E+00  0.1136727918296E+00
 0.4373154731209E+00  0.1270469661729E+00  0.2652503457953E+00  0.2342469942112E+00
 0.1917769979394E+00 -0.3621690984366E+01 -0.1612059569532E+01 -0.6993169809589E+00
 0.1461380716778E+00 -0.3535313404162E+01 -0.1592912402227E+01 -0.7493098022641E+00
 0.1029497114270E+00 -0.3414833571081E+01 -0.1556585410089E+01 -0.7946055311896E+00
 0.4698678130545E-01 -0.3288448645312E+01 -0.1523487072219E+01 -0.8389809518110E+00
-0.1297252570789E-01 -0.3150793243607E+01 -0.1486969907806E+01 -0.8793134085129E+00
-0.7516683413502E-01 -0.3000466097780E+01 -0.1445547474334E+01 -0.9134360062292E+00
-0.1377378342278E+00 -0.2835887416835E+01 -0.1397603864455E+01 -0.9394059824489E+00
-0.1990870183316E+00 -0.2656090792598E+01 -0.1341933567733E+01 -0.9553692425222E+00
-0.2574369592373E+00 -0.2460512682520E+01 -0.1277436328386E+01 -0.9594309562589E+00
-0.3106786747669E+00 -0.2248996142063E+01 -0.1203047160859E+01 -0.9496033923470E+00
-0.3561928844505E+00 -0.2021818213152E+01 -0.1117665213038E+01 -0.9237946844596E+00
-0.3906643351726E+00 -0.1779789341674E+01 -0.1020113225531E+01 -0.8798368047853E+00
-0.4098676194810E+00 -0.1524428791624E+01 -0.9091193109135E+00 -0.8155619407268E+00
-0.4084295600351E+00 -0.1258243997844E+01 -0.7833365702163E+00 -0.7289545586574E+00
-0.3795946908821E+00 -0.9851596415063E+00 -0.6414345345956E+00 -0.6184341702774E+00
-0.3151035914554E+00 -0.7112013280613E+00 -0.4823633109494E+00 -0.4833771645231E+00
-0.2053841958182E+00 -0.4455510234388E+00 -0.3059395522748E+00 -0.3250835124034E+00
-0.4104875771402E-01 -0.2025636857843E+00 -0.1144978481538E+00 -0.1486009662176E+00
 0.1838494993211E+00 -0.3922239153196E-02  0.8456581206444E-01  0.3401459683710E-01
 0.4628947230662E+00  0.1232784242557E+00  0.2755013785425E+00  0.2016953068476E+00
 0.2166452928377E+00 -0.3802474191005E+01 -0.1685339577864E+01 -0.6553756343622E+00
 0.1725149926876E+00 -0.3735509999339E+01 -0.1674607648879E+01 -0.7136131578737E+00
 0.1225503944434E+00 -0.3650108531455E+01 -0.1657952320190E+01 -0.7658256641929E+00
 0.6732055253092E-01 -0.3546810753397E+01 -0.1635360390259E+01 -0.8156359474737E+00
 0.6100614901303E-02 -0.3430727295437E+01 -0.1609574535769E+01 -0.8628523746780E+00
-0.5835642640850E-01 -0.3300903714973E+01 -0.1578852262445E+01 -0.9057186174095E+00
-0.1244874776436E+00 -0.3156387082208E+01 -0.1542011039219E+01 -0.9423917447410E+00
-0.1907230112291E+00 -0.2995950070093E+01 -0.1497736344423E+01 -0.9709968396558E+00
-0.2554206704635E+00 -0.2818456763366E+01 -0.1444722390235E+01 -0.9895987325351E+00
-0.3166310181489E+00 -0.2622907555525E+01 -0.1381583126123E+01 -0.9961284621180E+00
-0.3719206010461E+00 -0.2408499098773E+01 -0.1306797255600E+01 -0.9883164192113E+00
-0.4181647882580E+00 -0.2174693905562E+01 -0.1218643583004E+01 -0.9636357486879E+00
-0.4512922324811E+00 -0.1921339659493E+01 -0.1115136986400E+01 -0.9192619780673E+00
-0.4659453103848E+00 -0.1648868951882E+01 -0.9939627007441E+00 -0.8520629997665E+00
-0.4550177662777E+00 -0.1358635940093E+01 -0.8524172398322E+00 -0.7586550137234E+00
-0.4090012424713E+00 -0.1053480050949E+01 -0.6873662061641E+00 -0.6356050076050E+00
-0.3151376656528E+00 -0.7387801939063E+00 -0.4953413927364E+00 -0.4799670004486E+00
-0.1562114759329E+00 -0.4243175944681E+00 -0.2728486623964E+00 -0.2905863089289E+00
 0.8900063752754E-01 -0.1293721270668E+00 -0.1897460003531E-01 -0.7133648617374E-01
 0.4272032844645E+00  0.9731538012663E-01  0.2465237717326E+00  0.1589722538395E+00
 0.2398281070384E+00 -0.3980328350358E+01 -0.1758035109901E+01 -0.6000002184443E+00
 0.1930093406504E+00 -0.3934483538519E+01 -0.1758492868538E+01 -0.6626064408075E+00
 0.1420668908271E+00 -0.3873483873598E+01 -0.1753765977454E+01 -0.7208280518846E+00
 0.8513391275424E-01 -0.3797564258065E+01 -0.1744842257871E+01 -0.7761560833113E+00
 0.2296140173073E-01 -0.3707150705721E+01 -0.1731568968484E+01 -0.8290399002132E+00
-0.4353821475752E-01 -0.3602859387384E+01 -0.1713806868660E+01 -0.8786945251674E+00
-0.1128319612269E+00 -0.3483946512042E+01 -0.1690485878149E+01 -0.9237167869101E+00
-0.1835098759257E+00 -0.3349358017355E+01 -0.1660447905631E+01 -0.9624802106443E+00
-0.2540302838825E+00 -0.3197810915622E+01 -0.1622365359652E+01 -0.9931991694104E+00
-0.3226028007794E+00 -0.3027932212698E+01 -0.1574751452340E+01 -0.1013906659963E+01
-0.3870177812623E+00 -0.2838301883515E+01 -0.1515900238601E+01 -0.1022385442052E+01
-0.4444585452721E+00 -0.2627482489321E+01 -0.1443812282597E+01 -0.1016075374364E+01
-0.4912557385879E+00 -0.2394049014397E+01 -0.1356093230463E+01 -0.9919593589189E+00
-0.5225385486600E+00 -0.2136642658404E+01 -0.1249815164150E+01 -0.9464255870544E+00
-0.5316956111327E+00 -0.1854072823587E+01 -0.1121311161474E+01 -0.8751033174529E+00
-0.5094947999706E+00 -0.1545520760676E+01 -0.9658573110540E+00 -0.7726757093837E+00
-0.4424885485345E+00 -0.1210892248033E+01 -0.7770889724156E+00 -0.6326917083854E+00
-0.3101687663427E+00 -0.8516847969908E+00 -0.5460711733817E+00 -0.4474800672409E+00
-0.7861436032760E-01 -0.4724390488311E+00 -0.2589951016477E+00 -0.2085935684859E+00
 0.3133656678906E+00 -0.8860678386207E-01  0.1056366752255E+00  0.8852091432339E-01
 0.2595765128414E+00 -0.4151858292031E+01 -0.1829372431579E+01 -0.5343819858815E+00
 0.2112281662186E+00 -0.4125794644438E+01 -0.1839846240096E+01 -0.5987960829780E+00
 0.1582534722288E+00 -0.4088368805785E+01 -0.1847154202086E+01 -0.6603994177566E+00
 0.9976203591786E-01 -0.4038186550767E+01 -0.1851059517284E+01 -0.7195658254320E+00
 0.3562625412655E-01 -0.3975098192465E+01 -0.1851551806323E+01 -0.7765048190383E+00
-0.3340690083327E-01 -0.3898863178165E+01 -0.1848166932442E+01 -0.8307853853741E+00
-0.1063463380845E+00 -0.3809028991490E+01 -0.1840226400233E+01 -0.8814266690897E+00
-0.1819655759003E+00 -0.3704697598226E+01 -0.1826731687206E+01 -0.9270958497183E+00
-0.2589021056004E+00 -0.3584729420289E+01 -0.1806506812586E+01 -0.9662215209405E+00
-0.3355517815314E+00 -0.3447796171424E+01 -0.1778173533379E+01 -0.9970036106695E+00
-0.4099541922708E+00 -0.3292423017949E+01 -0.1740117284390E+01 -0.1017366544166E+01
-0.4796396995788E+00 -0.3116993273051E+01 -0.1690417492848E+01 -0.1024867799989E+01
-0.5414304148977E+00 -0.2919732325125E+01 -0.1626746483685E+01 -0.1016561697029E+01
-0.5911544045254E+00 -0.2698672078293E+01 -0.1546218443003E+01 -0.9888031745438E+00
-0.6232019662420E+00 -0.2451594637377E+01 -0.1445154400036E+01 -0.9369583960915E+00
-0.6297696601826E+00 -0.2175930637949E+01 -0.1318679136777E+01 -0.8549564920467E+00
-0.5995060654634E+00 -0.1868580827836E+01 -0.1160000836909E+01 -0.7345487986532E+00
-0.5146275493483E+00 -0.1525324016060E+01 -0.9587772333099E+00 -0.5639694209310E+00
-0.3445963634095E+00 -0.1139444584476E+01 -0.6974992437373E+00 -0.3252500788541E+00
-0.1641012724668E-01 -0.6862709669866E+00 -0.3302601134520E+00  0.1407736023325E-01
 0.2760687934090E+00 -0.4313360642265E+01 -0.1897527164149E+01 -0.4595716937332E+00
 0.2260769229035E+00 -0.4306984202307E+01 -0.1918026416455E+01 -0.5236838210487E+00
 0.1709389560971E+00 -0.4291811954474E+01 -0.1936810304325E+01 -0.5862334988520E+00
 0.1099417620935E+00 -0.4266497204962E+01 -0.1953581053193E+01 -0.6469926836283E+00
 0.4290544114028E-01 -0.4230267409520E+01 -0.1968060120147E+01 -0.7058487991600E+00
-0.2988411893767E-01 -0.4182644443981E+01 -0.1979888419550E+01 -0.7623842421097E+00
-0.1077657295957E+00 -0.4123053370215E+01 -0.1988484971867E+01 -0.8157883647971E+00
-0.1898733657325E+00 -0.4050749318774E+01 -0.1993092656663E+01 -0.8649074003418E+00
-0.2751501753931E+00 -0.3964777506165E+01 -0.1992766005278E+01 -0.9082997175740E+00
-0.3623366309960E+00 -0.3864015972775E+01 -0.1986385718734E+01 -0.9442486299288E+00
-0.4499018061022E+00 -0.3747190325214E+01 -0.1972633296715E+01 -0.9707245803013E+00
-0.5359551617451E+00 -0.3612871989455E+01 -0.1949948756118E+01 -0.9853009601101E+00
-0.6181331852860E+00 -0.3459449010456E+01 -0.1916463627138E+01 -0.9850171482643E+00
-0.6934520205559E+00 -0.3285063217318E+01 -0.1869902157058E+01 -0.9661691506377E+00
-0.7581026245400E+00 -0.3087493741717E+01 -0.1807430287556E+01 -0.9239858840576E+00
-0.8071567442103E+00 -0.2863948665034E+01 -0.1725419537968E+01 -0.8521080214043E+00
-0.8341017745559E+00 -0.2610644485678E+01 -0.1619030738204E+01 -0.7416989425246E+00
-0.8302144424691E+00 -0.2321998293897E+01 -0.1481539982334E+01 -0.5798100874793E+00
-0.7831172001835E+00 -0.1988150498030E+01 -0.1302495814857E+01 -0.3459760825807E+00
-0.6839247403275E+00 -0.1593870775112E+01 -0.1070563889541E+01 -0.3890068138677E-02
 0.2889396625312E+00 -0.4462420661635E+01 -0.1961536064604E+01 -0.3766090351878E+00
 0.2371612703104E+00 -0.4475162816270E+01 -0.1991860721549E+01 -0.4387396932130E+00
 0.1793971293580E+00 -0.4481259713403E+01 -0.2021875409373E+01 -0.5001579839414E+00
 0.1151128060237E+00 -0.4479511306201E+01 -0.2051267289881E+01 -0.5603673917134E+00
 0.4398603262941E-01 -0.4469044994887E+01 -0.2079777706986E+01 -0.6189924383557E+00
-0.3398580516670E-01 -0.4449186534314E+01 -0.2107090994211E+01 -0.6755067190250E+00
-0.1185503839905E+00 -0.4419307177675E+01 -0.2132793048573E+01 -0.7291048092484E+00
-0.2092610377814E+00 -0.4378695061729E+01 -0.2156339361301E+01 -0.7786752252689E+00
-0.3055307877054E+00 -0.4326516347067E+01 -0.2177062147821E+01 -0.8228037375622E+00
-0.4066425913792E+00 -0.4261798085550E+01 -0.2194167112591E+01 -0.8597639468758E+00
-0.5117465861918E+00 -0.4183424236204E+01 -0.2206730280929E+01 -0.8874772824134E+00
-0.6198507905975E+00 -0.4090115707683E+01 -0.2213684248577E+01 -0.9034343540620E+00
-0.7298238025118E+00 -0.3980385920336E+01 -0.2213798564123E+01 -0.9045698145740E+00
-0.8404269427147E+00 -0.3852457415607E+01 -0.2205655642817E+01 -0.8870751155840E+00
-0.9504104339905E+00 -0.3704119618422E+01 -0.2187629119085E+01 -0.8461205709074E+00
-0.1058745204250E+01 -0.3532489814958E+01 -0.2157880453555E+01 -0.7754368961499E+00
-0.1165190171107E+01 -0.3333631800895E+01 -0.2114446321478E+01 -0.6666718403639E+00
-0.1271671545330E+01 -0.3101932349713E+01 -0.2055593825457E+01 -0.5083906381379E+00
-0.1386725091662E+01 -0.2829754083005E+01 -0.1981745207067E+01 -0.2845852877927E+00
-0.1540568035551E+01 -0.2510795076751E+01 -0.1904140657953E+01  0.2568572969578E-01
 0.2979844436745E+00 -0.4597152202792E+01 -0.2020608841660E+01 -0.2866218768484E+00
 0.2440897917020E+00 -0.4628161391206E+01 -0.2060513646541E+01 -0.3454135917978E+00
 0.1832302404561E+00 -0.4654360472628E+01 -0.2101431203791E+01 -0.4040277896010E+00
 0.1148861539702E+00 -0.4674759392166E+01 -0.2143140416516E+01 -0.4618708867166E+00
 0.3859427169949E-01 -0.4688503034714E+01 -0.2185457113074E+01 -0.5184034417813E+00
-0.4595296839267E-01 -0.4694863738144E+01 -0.2228183846421E+01 -0.5729798160434E+00
-0.1389073499971E+00 -0.4693157656480E+01 -0.2271070547284E+01 -0.6247390425892E+00
-0.2403110436636E+00 -0.4682670241832E+01 -0.2313801198314E+01 -0.6725510871800E+00
-0.3501415867678E+00 -0.4662601724535E+01 -0.2355989350337E+01 -0.7149909728550E+00
-0.4683553748818E+00 -0.4632037325754E+01 -0.2397184563219E+01 -0.7503143735193E+00
-0.5949309263122E+00 -0.4589920872579E+01 -0.2436880339298E+01 -0.7764186091324E+00
-0.7299298235035E+00 -0.4535020675856E+01 -0.2474526728423E+01 -0.7907809200697E+00
-0.8735955791388E+00 -0.4465873693276E+01 -0.2509550551670E+01 -0.7903689944946E+00
-0.1026524158243E+01 -0.4380696533213E+01 -0.2541393718539E+01 -0.7715193450409E+00
-0.1189962763759E+01 -0.4277248900074E+01 -0.2569589475484E+01 -0.7297798462359E+00
-0.1366347043587E+01 -0.4152635916618E+01 -0.2593921984717E+01 -0.6597191640825E+00
-0.1560293921739E+01 -0.4003043179019E+01 -0.2614768430724E+01 -0.5547339212870E+00
-0.1780537446944E+01 -0.3823477501560E+01 -0.2633887019116E+01 -0.4069808223911E+00
-0.2043778680237E+01 -0.3607907069892E+01 -0.2656292295823E+01 -0.2079919356123E+00
-0.2376829918529E+01 -0.3347403206411E+01 -0.2690389561898E+01  0.4867350179576E-01
 0.3031688887874E+00 -0.4715951854659E+01 -0.2074007988699E+01 -0.1907057904497E+00
 0.2467742758211E+00 -0.4764025526005E+01 -0.2123108082202E+01 -0.2450329287658E+00
 0.1823970500987E+00 -0.4808909402496E+01 -0.2174460800112E+01 -0.2994976234214E+00
 0.1094018509331E+00 -0.4849790194474E+01 -0.2227982515813E+01 -0.3535070682868E+00
 0.2712446840453E-01 -0.4885882159647E+01 -0.2283616109092E+01 -0.4064449446478E+00
-0.6505491674430E-01 -0.4916448547349E+01 -0.2341306622185E+01 -0.4575890887012E+00
-0.1677070760714E+00 -0.4940770878931E+01 -0.2400984632761E+01 -0.5060332504530E+00
-0.2813840901738E+00 -0.4958099926335E+01 -0.2462557481513E+01 -0.5506342889469E+00
-0.4066678943494E+00 -0.4967612395183E+01 -0.2525911729673E+01 -0.5899785073955E+00
-0.5442283084538E+00 -0.4968374030358E+01 -0.2590923092670E+01 -0.6223550366198E+00
-0.6948966556166E+00 -0.4959305147037E+01 -0.2657474840507E+01 -0.6457271852750E+00
-0.8597665762725E+00 -0.4939138935732E+01 -0.2725485583729E+01 -0.6576976816749E+00
-0.1040342368450E+01 -0.4906364586091E+01 -0.2794952261545E+01 -0.6554686280779E+00
-0.1238764158138E+01 -0.4859147363118E+01 -0.2866018407721E+01 -0.6358025800288E+00
-0.1458154961283E+01 -0.4795219988593E+01 -0.2939086218987E+01 -0.5950008521847E+00
-0.1703157368615E+01 -0.4711744340657E+01 -0.3015003795710E+01 -0.5289359619801E+00
-0.1980749455956E+01 -0.4605153275899E+01 -0.3095374276120E+01 -0.4332209795478E+00
-0.2301408728885E+01 -0.4471019195090E+01 -0.3183041116195E+01 -0.3037068876011E+00
-0.2679836127744E+01 -0.4303603178004E+01 -0.3282216465377E+01 -0.1376428221770E+00
-0.3134676131103E+01 -0.4095645352656E+01 -0.3398251088747E+01  0.6437960726014E-01
 0.3046517996959E+00 -0.4817347531762E+01 -0.2120966988692E+01 -0.8991984344965E-01
 0.2454679651761E+00 -0.4880839070070E+01 -0.2178624413774E+01 -0.1387960545214E+00
 0.1773147040722E+00 -0.4942601628397E+01 -0.2239684848752E+01 -0.1880095102949E+00
 0.9934750883753E-01 -0.5001947571956E+01 -0.2304222023821E+01 -0.2370140311747E+00
 0.1066076866355E-01 -0.5058154775586E+01 -0.2372322177236E+01 -0.2851873462899E+00
-0.8968851704313E-01 -0.5110494595520E+01 -0.2444086056705E+01 -0.3317923758195E+00
-0.2026820168791E+00 -0.5158219343449E+01 -0.2519623632964E+01 -0.3759269011604E+00
-0.3293689836516E+00 -0.5200532793956E+01 -0.2599053828883E+01 -0.4164826150478E+00
-0.4709135235613E+00 -0.5236555664717E+01 -0.2682510511687E+01 -0.4521166654219E+00
-0.6286578184836E+00 -0.5265291582406E+01 -0.2770156211392E+01 -0.4812326052718E+00
-0.8042039654720E+00 -0.5285591875368E+01 -0.2862204037935E+01 -0.5019679785452E+00
-0.9995229413579E+00 -0.5296115598757E+01 -0.2958950106349E+01 -0.5121890254774E+00
-0.1217102913872E+01 -0.5295280317002E+01 -0.3060820110748E+01 -0.5094977532303E+00
-0.1460152580728E+01 -0.5281200550904E+01 -0.3168435963831E+01 -0.4912633329366E+00
-0.1732875832439E+01 -0.5251613208307E+01 -0.3282709840824E+01 -0.4547003516663E+00
-0.2040824151136E+01 -0.5203792683468E+01 -0.3404969903628E+01 -0.3970338597004E+00
-0.2391295098308E+01 -0.5134465738856E+01 -0.3537107584496E+01 -0.3158187031476E+00
-0.2793556290971E+01 -0.5039686949071E+01 -0.3681624313482E+01 -0.2095040440960E+00
-0.3258632895351E+01 -0.4914795980056E+01 -0.3841511561698E+01 -0.7827214504222E-01
-0.3798158709717E+01 -0.4754460486287E+01 -0.4019731011926E+01  0.7498325132888E-01
 0.3025596132149E+00 -0.4900242415959E+01 -0.2160910911809E+01  0.1458564890495E-01
 0.2404784089845E+00 -0.4977141570828E+01 -0.2226231680420E+01 -0.2799642770131E-01
 0.1684819146557E+00 -0.5053638269206E+01 -0.2296023480815E+01 -0.7107661872625E-01
 0.8550321129756E-01 -0.5129110885836E+01 -0.2370495601021E+01 -0.1141754934269E+00
-0.9619880607683E-02 -0.5202882923812E+01 -0.2449876311863E+01 -0.1567187077486E+00
-0.1181444819013E+00 -0.5274232786098E+01 -0.2534417309531E+01 -0.1980160892030E+00
-0.2414352840226E+00 -0.5342386840583E+01 -0.2624396391908E+01 -0.2372309514584E+00
-0.3809932350953E+00 -0.5406498959269E+01 -0.2720121324452E+01 -0.2733528419699E+00
-0.5384994558675E+00 -0.5465624147622E+01 -0.2821938086482E+01 -0.3051792847758E+00
-0.7158730793382E+00 -0.5518689873291E+01 -0.2930244580303E+01 -0.3313080012413E+00
-0.9153444999811E+00 -0.5564466010927E+01 -0.3045510932402E+01 -0.3501408058095E+00
-0.1139547306709E+01 -0.5601532377750E+01 -0.3168307443660E+01 -0.3599024091792E+00
-0.1391632742878E+01 -0.5628242740198E+01 -0.3299341468677E+01 -0.3586808811543E+00
-0.1675408018814E+01 -0.5642685132540E+01 -0.3439503772412E+01 -0.3445013575312E+00
-0.1995491215648E+01 -0.5642640296373E+01 -0.3589921801544E+01 -0.3154507551249E+00
-0.2357455415509E+01 -0.5625543594857E+01 -0.3752009525356E+01 -0.2698778697406E+00
-0.2767884096608E+01 -0.5588453300873E+01 -0.3927478566854E+01 -0.2066944051306E+00
-0.3234229312341E+01 -0.5528061792647E+01 -0.4118276808899E+01 -0.1257790870393E+00
-0.3764319578969E+01 -0.5440780488500E+01 -0.4326397020737E+01 -0.2842871366792E-01
-0.4365518491435E+01 -0.5323015011331E+01 -0.4553610734750E+01  0.8229715232745E-01
 0.2970393479980E+00 -0.4963800403153E+01 -0.2193377690359E+01  0.1216395115767E+00
 0.2321102886863E+00 -0.5051872021366E+01 -0.2265288008614E+01  0.8602712682694E-01
 0.1564002682616E+00 -0.5140705622899E+01 -0.2342623510738E+01  0.4975945871132E-01
 0.6863499874475E-01 -0.5229720136731E+01 -0.2425710008701E+01  0.1323102792223E-01
-0.3258766047293E-01 -0.5318267460713E+01 -0.2514901900579E+01 -0.2307314438987E-01
-0.1488098441661E+00 -0.5405630274283E+01 -0.2610586849050E+01 -0.5856340708146E-01
-0.2817317874220E+00 -0.5491012960049E+01 -0.2713190024430E+01 -0.9252678671873E-01
-0.4332394507493E+00 -0.5573525448651E+01 -0.2823179495557E+01 -0.1241109965780E+00
-0.6054415368591E+00 -0.5652162628992E+01 -0.2941073950491E+01 -0.1523160038269E+00
-0.8007153019058E+00 -0.5725782082606E+01 -0.3067453762940E+01 -0.1759962149887E+00
-0.1021760638209E+01 -0.5793081579502E+01 -0.3202975834200E+01 -0.1938761281005E+00
-0.1271661788108E+01 -0.5852577089182E+01 -0.3348392263834E+01 -0.2045833919098E+00
-0.1553954259704E+01 -0.5902582063067E+01 -0.3504572062813E+01 -0.2067050413027E+00
-0.1872689894484E+01 -0.5941189625780E+01 -0.3672523365209E+01 -0.1988746536238E+00
-0.2232484033710E+01 -0.5966261165767E+01 -0.3853410233980E+01 -0.1798992780051E+00
-0.2638512753769E+01 -0.5975426834019E+01 -0.4048551595991E+01 -0.1489328404799E+00
-0.3096415399127E+01 -0.5966112373358E+01 -0.4259388042264E+01 -0.1056921679132E+00
-0.3612049587931E+01 -0.5935610571063E+01 -0.4487400263346E+01 -0.5068913647778E-01
-0.4191087561690E+01 -0.5881233849637E+01 -0.4733991051316E+01  0.1458183749922E-01
-0.4838500726797E+01 -0.5800561037328E+01 -0.5000359016456E+01  0.8758659638972E-01
 0.2882560499967E+00 -0.5007420577414E+01 -0.2218007322261E+01  0.2300971643559E+00
 0.2206622116439E+00 -0.5104282556100E+01 -0.2295301556073E+01  0.2019540217974E+00
 0.1415435230791E+00 -0.5202887442597E+01 -0.2378831636140E+01  0.1729917348416E+00
 0.4945116315268E-01 -0.5302686652536E+01 -0.2469020673748E+01  0.1434996598350E+00
-0.5722106229512E-01 -0.5403054532148E+01 -0.2566329522879E+01  0.1138401941412E+00
-0.1802535878480E+00 -0.5503279339382E+01 -0.2671260469023E+01  0.8445945601699E-01
-0.3216208540336E+00 -0.5602551970080E+01 -0.2784361220271E+01  0.5589880180884E-01
-0.4835154120459E+00 -0.5699951484967E+01 -0.2906229434225E+01  0.2880320401438E-01
-0.6683760346632E+00 -0.5794428780866E+01 -0.3037518255595E+01  0.3922900206243E-02
-0.8789184750915E+00 -0.5884790249862E+01 -0.3178943092665E+01 -0.1789469372978E-01
-0.1118166910695E+01 -0.5969683186567E+01 -0.3331289537264E+01 -0.3572573754332E-01
-0.1389483022558E+01 -0.6047584539153E+01 -0.3495421745139E+01 -0.4860668464062E-01
-0.1696587548500E+01 -0.6116794828107E+01 -0.3672289707691E+01 -0.5559065357341E-01
-0.2043565484534E+01 -0.6175439788330E+01 -0.3862932468448E+01 -0.5582688539221E-01
-0.2434840739496E+01 -0.6221483497705E+01 -0.4068472381166E+01 -0.4866475247676E-01
-0.2875101606872E+01 -0.6252759447012E+01 -0.4290094684444E+01 -0.3377849604680E-01
-0.3369157530334E+01 -0.6267028047221E+01 -0.4529007209964E+01 -0.1129910735290E-01
-0.3921720882925E+01 -0.6262072686839E+01 -0.4786382965649E+01  0.1807380374741E-01
-0.4537130732491E+01 -0.6235839936267E+01 -0.5063296201474E+01  0.5301825799088E-01
-0.5219072070079E+01 -0.6186620043096E+01 -0.5360675279596E+01  0.9163095500899E-01
 0.2763860947328E+00 -0.5030725143164E+01 -0.2234539347095E+01  0.3388558426631E+00
 0.2064171215573E+00 -0.5133898722134E+01 -0.2315916346397E+01  0.3185120065071E+00
 0.1243391308344E+00 -0.5239600301754E+01 -0.2404172744234E+01  0.2971796783447E+00
 0.2857133710800E-01 -0.5347314685547E+01 -0.2499809367426E+01  0.2750240923800E+00
-0.8264783368679E-01 -0.5456441053230E+01 -0.2603371770248E+01  0.2522590356462E+00
-0.2112791106952E+00 -0.5566280868481E+01 -0.2715453183325E+01  0.2291548913264E+00
-0.3595013438500E+00 -0.5676025172192E+01 -0.2836697455345E+01  0.2060458384867E+00
-0.5297311077009E+00 -0.5784741050610E+01 -0.2967801906878E+01  0.1833339432333E+00
-0.7246417309238E+00 -0.5891358259448E+01 -0.3109519987588E+01  0.1614877247383E+00
-0.9471796609865E+00 -0.5994657637805E+01 -0.3262663522157E+01  0.1410328966647E+00
-0.1200575257009E+01 -0.6093263185667E+01 -0.3428104059363E+01  0.1225330471585E+00
-0.1488344120771E+01 -0.6185639851044E+01 -0.3606772457605E+01  0.1065580957247E+00
-0.1814273736089E+01 -0.6270099329147E+01 -0.3799655331024E+01  0.9363877780775E-01
-0.2182388589802E+01 -0.6344816584843E+01 -0.4007786421918E+01  0.8420666205352E-01
-0.2596885938253E+01 -0.6407860486696E+01 -0.4232230808992E+01  0.7852191333536E-01
-0.3062035257804E+01 -0.6457242390627E+01 -0.4474060483415E+01  0.7659555925681E-01
-0.3582039947250E+01 -0.6490986625110E+01 -0.4734322477001E+01  0.7811903316247E-01
-0.4160869781763E+01 -0.6507223837997E+01 -0.5014003988570E+01  0.8241912755512E-01
-0.4802086573774E+01 -0.6504302862145E+01 -0.5314003021404E+01  0.8845757374198E-01
-0.5508693347894E+01 -0.6480906223485E+01 -0.5635111784256E+01  0.9488735026798E-01
 0.2616082334782E+00 -0.5033551677652E+01 -0.2242813413073E+01  0.4468546109239E+00
 0.1896335166537E+00 -0.5140498060301E+01 -0.2326906329612E+01  0.4344823212453E+00
 0.1051541945520E+00 -0.5250555608606E+01 -0.2418338658472E+01  0.4209534101184E+00
 0.6506467193425E-02 -0.5363247120122E+01 -0.2517668100491E+01  0.4062948764726E+00
-0.1081704912694E+00 -0.5478004272675E+01 -0.2625502132395E+01  0.3905539596178E+00
-0.2409530769943E+00 -0.5594154168233E+01 -0.2742500398301E+01  0.3738038298064E+00
-0.3941508182678E+00 -0.5710905926836E+01 -0.2869376662921E+01  0.3561481905161E+00
-0.5703220050558E+00 -0.5827337661348E+01 -0.3006900035583E+01  0.3377235867965E+00
-0.7722855130979E+00 -0.5942384890288E+01 -0.3155895081587E+01  0.3186980236696E+00
-0.1003126180870E+01 -0.6054831987129E+01 -0.3317240330546E+01  0.2992645071049E+00
-0.1266190444439E+01 -0.6163308638693E+01 -0.3491864560216E+01  0.2796281958320E+00
-0.1565068385181E+01 -0.6266293558460E+01 -0.3680740104175E+01  0.2599860661852E+00
-0.1903558025345E+01 -0.6362127905347E+01 -0.3884872377571E+01  0.2404985530081E+00
-0.2285607964234E+01 -0.6449040954400E+01 -0.4105284981345E+01  0.2212538139919E+00
-0.2715235814587E+01 -0.6525190348933E+01 -0.4343000285839E+01  0.2022272665651E+00
-0.3196423201990E+01 -0.6588718557614E+01 -0.4599016615349E+01  0.1832417328607E+00
-0.3732993522279E+01 -0.6637825292178E+01 -0.4874284830432E+01  0.1639361210619E+00
-0.4328485562608E+01 -0.6670852236436E+01 -0.5169688752438E+01  0.1437517917098E+00
-0.4986040798823E+01 -0.6686370685659E+01 -0.5486033383792E+01  0.1219443565855E+00
-0.5708322333121E+01 -0.6683258099905E+01 -0.5824042788750E+01  0.9762426352724E-01
 0.2440974119930E+00 -0.5015946379937E+01 -0.2242769009245E+01  0.5530682110840E+00
 0.1705388199050E+00 -0.5124098122699E+01 -0.2328172866408E+01  0.5486920588787E+00
 0.8428703120105E-01 -0.5235738156769E+01 -0.2421182022876E+01  0.5430017804943E+00
-0.1635216441871E-01 -0.5350433216135E+01 -0.2522389122462E+01  0.5358789058312E+00
-0.1332787291934E+00 -0.5467657576123E+01 -0.2632440056822E+01  0.5271950080056E+00
-0.2686168780442E+00 -0.5586779038015E+01 -0.2752036073568E+01  0.5168151645876E+00
-0.4247318122275E+00 -0.5707045178234E+01 -0.2881935178207E+01  0.5046008870079E+00
-0.6042431694012E+00 -0.5827570416116E+01 -0.3022952377526E+01  0.4904121284269E+00
-0.8100329630046E+00 -0.5947325001873E+01 -0.3175958235437E+01  0.4741078994567E+00
-0.1045245115219E+01 -0.6065127493604E+01 -0.3341875117671E+01  0.4555450445651E+00
-0.1313273189573E+01 -0.6179642697155E+01 -0.3521670457830E+01  0.4345747932220E+00
-0.1617732734660E+01 -0.6289387374176E+01 -0.3716346441727E+01  0.4110368191301E+00
-0.1962415003275E+01 -0.6392746213135E+01 -0.3926925761752E+01  0.3847507994834E+00
-0.2351220032558E+01 -0.6488000444073E+01 -0.4154433613479E+01  0.3555059630474E+00
-0.2788069475048E+01 -0.6573370840249E+01 -0.4399876937030E+01  0.3230498849884E+00
-0.3276803122249E+01 -0.6647075362179E+01 -0.4664222875851E+01  0.2870786654908E+00
-0.3821067497741E+01 -0.6707399456589E+01 -0.4948379455984E+01  0.2472311319891E+00
-0.4424209669544E+01 -0.6752774394783E+01 -0.5253182496909E+01  0.2030891278217E+00
-0.5089192522789E+01 -0.6781855230414E+01 -0.5579392429854E+01  0.1541845091454E+00
-0.5818544646150E+01 -0.6793583929183E+01 -0.5927700415371E+01  0.1000130411855E+00
 0.2240216579064E+00 -0.4978159590695E+01 -0.2234444822743E+01  0.6565013717598E+00
 0.1493265189512E+00 -0.5084949734610E+01 -0.2319742905476E+01  0.6600047990431E+00
 0.6196439036061E-01 -0.5195395057993E+01 -0.2412712407668E+01  0.6620572637564E+00
-0.3973552037203E-01 -0.5309111866163E+01 -0.2513958265295E+01  0.6623953574533E+00
-0.1576507722473E+00 -0.5425627226850E+01 -0.2624140652920E+01  0.6607150642023E+00
-0.2938845565271E+00 -0.5544364981697E+01 -0.2743977276006E+01  0.6566729313194E+00
-0.4507827451275E+00 -0.5664631834461E+01 -0.2874244845116E+01  0.6498875441720E+00
-0.6309475806198E+00 -0.5785604128949E+01 -0.3015779295848E+01  0.6399416258084E+00
-0.8372457468363E+00 -0.5906316290616E+01 -0.3169474149564E+01  0.6263851437805E+00
-0.1072807933592E+01 -0.6025652330087E+01 -0.3336276315467E+01  0.6087399014129E+00
-0.1341016526662E+01 -0.6142342245667E+01 -0.3517178614074E+01  0.5865061401804E+00
-0.1645477871813E+01 -0.6254965556688E+01 -0.3713208401977E+01  0.5591716234731E+00
-0.1989975982596E+01 -0.6361964496599E+01 -0.3925412015265E+01  0.5262234653056E+00
-0.2378405909744E+01 -0.6461669412036E+01 -0.4154835390699E+01  0.4871625785941E+00
-0.2814687435173E+01 -0.6552338326084E+01 -0.4402502096624E+01  0.4415200598556E+00
-0.3302663168252E+01 -0.6632211183037E+01 -0.4669390933263E+01  0.3888741671432E+00
-0.3845988442852E+01 -0.6699576679592E+01 -0.4956415594978E+01  0.3288658760336E+00
-0.4448023271394E+01 -0.6752847217020E+01 -0.5264409116202E+01  0.2612100078233E+00
-0.5111742574825E+01 -0.6790638731373E+01 -0.5594119199724E+01  0.1856967037258E+00
-0.5839686102982E+01 -0.6811848368891E+01 -0.5946221186698E+01  0.1021772891990E+00
 0.2015428198435E+00 -0.4920644334645E+01 -0.2217977706331E+01  0.7561828702161E+00
 0.1261589424850E+00 -0.5023535393114E+01 -0.2301766925958E+01  0.7673094913390E+00
 0.3834623331609E-01 -0.5130033585998E+01 -0.2393093049691E+01  0.7768778341169E+00
-0.6348951581699E-01 -0.5239808368091E+01 -0.2492549999115E+01  0.7844879393373E+00
-0.1811426646836E+00 -0.5352447838490E+01 -0.2600787529895E+01  0.7896694443694E+00
-0.3166271766051E+00 -0.5467445149147E+01 -0.2718513986208E+01  0.7918801893570E+00
-0.4721951639740E+00 -0.5584184750391E+01 -0.2846498552532E+01  0.7905058397318E+00
-0.6503531666970E+00 -0.5701928757373E+01 -0.2985572496740E+01  0.7848614309340E+00
-0.8538742190723E+00 -0.5819804045640E+01 -0.3136628776459E+01  0.7741959889587E+00
-0.1085803175561E+01 -0.5936791180845E+01 -0.3300619339139E+01  0.7577016121570E+00
-0.1349452060734E+01 -0.6051716673593E+01 -0.3478549296311E+01  0.7345285013870E+00
-0.1648381686701E+01 -0.6163250524429E+01 -0.3671467129919E+01  0.7038072997180E+00
-0.1986365639291E+01 -0.6269911541942E+01 -0.3880450265337E+01  0.6646795681905E+00
-0.2367333361486E+01 -0.6370083380995E+01 -0.4106585858550E+01  0.6163360891551E+00
-0.2795290896018E+01 -0.6462044388021E+01 -0.4350947572463E+01  0.5580608826510E+00
-0.3274220863671E+01 -0.6544013520204E+01 -0.4614570148717E+01  0.4892766153186E+00
-0.3807967200201E+01 -0.6614212693855E+01 -0.4898424537782E+01  0.4095851636842E+00
-0.4400111007302E+01 -0.6670940981688E+01 -0.5203394421628E+01  0.3187965291453E+00
-0.5053842176323E+01 -0.6712654108182E+01 -0.5530253239691E+01  0.2169385374584E+00
-0.5771856304273E+01 -0.6738064894415E+01 -0.5879662948470E+01  0.1042314140715E+00
 0.1768221107776E+00 -0.4844056481881E+01 -0.2193600148855E+01  0.8511613869389E+00
 0.1011755468605E+00 -0.4940571709458E+01 -0.2274516190652E+01  0.8695112030246E+00
 0.1353780198722E-01 -0.5040425907869E+01 -0.2362637403772E+01  0.8862308722082E+00
-0.8755868751021E-01 -0.5143342221541E+01 -0.2458523421019E+01  0.9007996388725E+00
-0.2037669677214E+00 -0.5248973998836E+01 -0.2562788247782E+01  0.9125987101280E+00
-0.3369458136952E+00 -0.5356892421241E+01 -0.2676103963632E+01  0.9209070160626E+00
-0.4891804728058E+00 -0.5466573742425E+01 -0.2799204474059E+01  0.9248981470941E+00
-0.6628029730350E+00 -0.5577385446814E+01 -0.2932888549890E+01  0.9236398191242E+00
-0.8604111175598E+00 -0.5688571811411E+01 -0.3078021968809E+01  0.9160977486185E+00
-0.1084884267104E+01 -0.5799239442047E+01 -0.3235538135094E+01  0.9011461505187E+00
-0.1339393167514E+01 -0.5908343721286E+01 -0.3406436329096E+01  0.8775873584295E+00
-0.1627399995647E+01 -0.6014677564408E+01 -0.3591776444116E+01  0.8441831325065E+00
-0.1952643596884E+01 -0.6116864579875E+01 -0.3792668833457E+01  0.7996997780805E+00
-0.2319103936368E+01 -0.6213359776679E+01 -0.4010257934961E+01  0.7429678350327E+00
-0.2730939876283E+01 -0.6302462289068E+01 -0.4245699006946E+01  0.6729544071451E+00
-0.3192396741309E+01 -0.6382345748397E+01 -0.4500128958748E+01  0.5888421956052E+00
-0.3707684456272E+01 -0.6451110934360E+01 -0.4774633821487E+01  0.4901050903067E+00
-0.4280834963536E+01 -0.6506863386379E+01 -0.5070218211600E+01  0.3765680165386E+00
-0.4915535990504E+01 -0.6547799973903E+01 -0.5387767889606E+01  0.2484435490788E+00
-0.5614902390583E+01 -0.6572278789121E+01 -0.5727975139933E+01  0.1063400309306E+00
 0.1500291223166E+00 -0.4749258331328E+01 -0.2161637722753E+01  0.9405038052943E+00
 0.7450743316999E-01 -0.4837015551479E+01 -0.2238378809928E+01  0.9655250168680E+00
-0.1239063863985E-01 -0.4927620343526E+01 -0.2321805155729E+01  0.9888813550369E+00
-0.1119603854707E+00 -0.5020845623296E+01 -0.2412418818002E+01  0.1009952972890E+01
-0.2256599916308E+00 -0.5116407551049E+01 -0.2510771738691E+01  0.1027998119444E+01
-0.3551318074304E+00 -0.5213957253441E+01 -0.2617471851971E+01  0.1042146095766E+01
-0.5022240390372E+00 -0.5313069540531E+01 -0.2733187975465E+01  0.1051390281730E+01
-0.6690152965161E+00 -0.5413229675323E+01 -0.2858655129514E+01  0.1054583463704E+01
-0.8578416807012E+00 -0.5513817936449E+01 -0.2994680012465E+01  0.1050437832156E+01
-0.1071325720993E+01 -0.5614092021959E+01 -0.3142146331218E+01  0.1037532464637E+01
-0.1312405542310E+01 -0.5713167441598E+01 -0.3302019294062E+01  0.1014331702230E+01
-0.1584361192333E+01 -0.5809996363338E+01 -0.3475348042350E+01  0.9792184034610E+00
-0.1890832757857E+01 -0.5903346035071E+01 -0.3663264023385E+01  0.9305463175803E+00
-0.2235821653318E+01 -0.5991779160468E+01 -0.3866972372671E+01  0.8667151972499E+00
-0.2623663139479E+01 -0.6073641070868E+01 -0.4087732968495E+01  0.7862698143838E+00
-0.3058957032982E+01 -0.6147062380796E+01 -0.4326829113502E+01  0.6880186454554E+00
-0.3546448879488E+01 -0.6209990091935E+01 -0.4585526304938E+01  0.5711597215472E+00
-0.4090863136062E+01 -0.6260257240225E+01 -0.4865026564516E+01  0.4353933158743E+00
-0.4696726376336E+01 -0.6295708259031E+01 -0.5166444265518E+01  0.2810003005744E+00
-0.5368136598831E+01 -0.6314297686352E+01 -0.5490744100110E+01  0.1089020841714E+00
 0.1213504473301E+00 -0.4637323042108E+01 -0.2122507114162E+01  0.1023298305502E+01
 0.4628701126255E-01 -0.4714075045049E+01 -0.2193860370315E+01  0.1054278437256E+01
-0.3939312358812E-01 -0.4792964674927E+01 -0.2271208159542E+01  0.1083592739626E+01
-0.1367707613202E+00 -0.4873800207078E+01 -0.2354968349174E+01  0.1110546827770E+01
-0.2470650542508E+00 -0.4956350837316E+01 -0.2445605462834E+01  0.1134307638505E+01
-0.3716485642444E+00 -0.5040340346709E+01 -0.2543634781697E+01  0.1153892619961E+01
-0.5120684940455E+00 -0.5125438812888E+01 -0.2649628427538E+01  0.1168157591712E+01
-0.6700737706129E+00 -0.5211251066140E+01 -0.2764222666263E+01  0.1175785850956E+01
-0.8476490548125E+00 -0.5297301595707E+01 -0.2888126798419E+01  0.1175280940206E+01
-0.1047056454424E+01 -0.5383015264746E+01 -0.3022133700345E+01  0.1164966028584E+01
-0.1270885351192E+01 -0.5467693100475E+01 -0.3167131864250E+01  0.1142993783314E+01
-0.1522109547260E+01 -0.5550482394806E+01 -0.3324118204340E+01  0.1107371880470E+01
-0.1804148268886E+01 -0.5630340584019E+01 -0.3494209752003E+01  0.1056010804560E+01
-0.2120922578795E+01 -0.5705993260242E+01 -0.3678650435017E+01  0.9868019017725E+00
-0.2476890404924E+01 -0.5775888663168E+01 -0.3878806152165E+01  0.8977336682204E+00
-0.2877033938757E+01 -0.5838156640772E+01 -0.4096139561989E+01  0.7870503122078E+00
-0.3326770212462E+01 -0.5890591075836E+01 -0.4332159794512E+01  0.6534448065845E+00
-0.3831773228711E+01 -0.5930688354399E+01 -0.4588356932424E+01  0.4962588831034E+00
-0.4397715199970E+01 -0.5955758661851E+01 -0.4866132702713E+01  0.3156433080607E+00
-0.5030183982431E+01 -0.5963248479639E+01 -0.5166913244068E+01  0.1126266237601E+00
 0.9099153803012E-01 -0.4509534472276E+01 -0.2076715173828E+01  0.1098670272937E+01
 0.1663121309196E-01 -0.4573235493070E+01 -0.2141604006158E+01  0.1134736655183E+01
-0.6746956131225E-01 -0.4638150183498E+01 -0.2211641274451E+01  0.1169157308568E+01
-0.1621545616473E+00 -0.4704104717099E+01 -0.2287141855210E+01  0.1201189011167E+01
-0.2683719947519E+00 -0.4770902026427E+01 -0.2368458783947E+01  0.1229942788601E+01
-0.3871840019062E+00 -0.4838320604323E+01 -0.2455987158699E+01  0.1254368079792E+01
-0.5197842101339E+00 -0.4906109832506E+01 -0.2550170193573E+01  0.1273234662224E+01
-0.6675241749247E+00 -0.4973981626192E+01 -0.2651507719800E+01  0.1285114108913E+01
-0.8319503881547E+00 -0.5041597583246E+01 -0.2760567539556E+01  0.1288362657531E+01
-0.1014854438936E+01 -0.5108550551903E+01 -0.2878000338395E+01  0.1281107871495E+01
-0.1218339444727E+01 -0.5174339043013E+01 -0.3004558881617E+01  0.1261242550275E+01
-0.1444905897034E+01 -0.5238332441220E+01 -0.3141122011013E+01  0.1226431146545E+01
-0.1697558755424E+01 -0.5299724562369E+01 -0.3288723151021E+01  0.1174136718280E+01
-0.1979933183118E+01 -0.5357472798526E+01 -0.3448580802626E+01  0.1101680397151E+01
-0.2296426140118E+01 -0.5410220697953E+01 -0.3622124004706E+01  0.1006350182657E+01
-0.2652298699580E+01 -0.5456202865020E+01 -0.3810995725696E+01  0.8855795157149E+00
-0.3053685232837E+01 -0.5493143386507E+01 -0.4017009440903E+01  0.7372101349055E+00
-0.3507440572099E+01 -0.5518194665954E+01 -0.4242048551126E+01  0.5598225703407E+00
-0.4020811152956E+01 -0.5528002017187E+01 -0.4487942178584E+01  0.3530630910597E+00
-0.4600871556878E+01 -0.5518859650250E+01 -0.4756273655287E+01  0.1178262124639E+00
 0.5920088123971E-01 -0.4367386232286E+01 -0.2024847109856E+01  0.1165789398199E+01
-0.1429810353165E-01 -0.4416244764915E+01 -0.2082355142889E+01  0.1205909944904E+01
-0.9658392405153E-01 -0.4465198151224E+01 -0.2144037569941E+01  0.1244399539986E+01
-0.1882555286186E+00 -0.4514064517270E+01 -0.2210090415962E+01  0.1280491472577E+01
-0.2899752550479E+00 -0.4562653067715E+01 -0.2280735305914E+01  0.1313275972982E+01
-0.4024712872128E+00 -0.4610767864524E+01 -0.2356222395340E+01  0.1341679722359E+01
-0.5265488289008E+00 -0.4658207720209E+01 -0.2436835571901E+01  0.1364442079150E+01
-0.6631113188590E+00 -0.4704762191463E+01 -0.2522900543452E+01  0.1380088866524E+01
-0.8131941597490E+00 -0.4750202995830E+01 -0.2614796656490E+01  0.1386904491865E+01
-0.9780149294776E+00 -0.4794269499471E+01 -0.2712973674725E+01  0.1382903441867E+01
-0.1159045864116E+01 -0.4836646184850E+01 -0.2817975255867E+01  0.1365803016311E+01
-0.1358116445767E+01 -0.4876929103468E+01 -0.2930471400707E+01  0.1333000872964E+01
-0.1577555809996E+01 -0.4914577202575E+01 -0.3051302508169E+01  0.1281564158241E+01
-0.1820385260198E+01 -0.4948843136883E+01 -0.3181537338559E+01  0.1208242733022E+01
-0.2090565865810E+01 -0.4978675812486E+01 -0.3322543580372E+01  0.1109528868246E+01
-0.2393288058242E+01 -0.5002585480313E+01 -0.3476060554304E+01  0.9818012323670E+00
-0.2735222524229E+01 -0.5018448827376E+01 -0.3644225526011E+01  0.8216106082949E+00
-0.3124548045897E+01 -0.5023254662588E+01 -0.3829467263275E+01  0.6261594060570E+00
-0.3570589351735E+01 -0.5012939133800E+01 -0.4034258377969E+01  0.3939295630236E+00
-0.4083002826917E+01 -0.4982510854344E+01 -0.4260791419386E+01  0.1252708213455E+00
 0.2628652037166E-01 -0.4212573639101E+01 -0.1967554940812E+01  0.1223886388128E+01
-0.4625695880773E-01 -0.4245104123154E+01 -0.2016939703406E+01  0.1266874144460E+01
-0.1265963282220E+00 -0.4276446789023E+01 -0.2069430259856E+01  0.1308204781434E+01
-0.2150921884810E+00 -0.4306380815785E+01 -0.2125092306615E+01  0.1347109602604E+01
-0.3121236294017E+00 -0.4334687547834E+01 -0.2184001247761E+01  0.1382688698707E+01
-0.4180818107505E+00 -0.4361158313579E+01 -0.2246242852738E+01  0.1413887179149E+01
-0.5333718622288E+00 -0.4385598628355E+01 -0.2311916124711E+01  0.1439467275531E+01
-0.6584241056230E+00 -0.4407828962271E+01 -0.2381138935871E+01  0.1457976247709E+01
-0.7937170242615E+00 -0.4427681656876E+01 -0.2454057373910E+01  0.1467709531043E+01
-0.9398163664317E+00 -0.4444992818553E+01 -0.2530860310524E+01  0.1466668282010E+01
-0.1097437550355E+01 -0.4459587069411E+01 -0.2611801564666E+01  0.1452510546294E+01
-0.1267542547627E+01 -0.4471251833073E+01 -0.2697233352088E+01  0.1422495985468E+01
-0.1451488292871E+01 -0.4479696310892E+01 -0.2787656756698E+01  0.1373426108909E+01
-0.1651251771655E+01 -0.4484488124404E+01 -0.2883797743834E+01  0.1301586690380E+01
-0.1869767765211E+01 -0.4484958169052E+01 -0.2986721181528E+01  0.1202709569809E+01
-0.2111418641082E+01 -0.4480056306167E+01 -0.3097993217350E+01  0.1071993841703E+01
-0.2382704810815E+01 -0.4468138029926E+01 -0.3219896126981E+01  0.9042734718883E+00
-0.2692888856124E+01 -0.4446552586039E+01 -0.3355537469306E+01  0.6945098202561E+00
-0.3053957365210E+01 -0.4410908662504E+01 -0.3508487024127E+01  0.4388102229640E+00
-0.3479688297077E+01 -0.4354744122380E+01 -0.3682183227805E+01  0.1358122687331E+00
-0.7375175171696E-02 -0.4046982610139E+01 -0.1905548154263E+01  0.1272279137640E+01
-0.7890148149490E-01 -0.4062061164690E+01 -0.1946252438770E+01  0.1316804285052E+01
-0.1572298096535E+00 -0.4074550701055E+01 -0.1988936834988E+01  0.1359564129432E+01
-0.2425029109301E+00 -0.4084160741584E+01 -0.2033531911524E+01  0.1399801876549E+01
-0.3348365578135E+00 -0.4090608800366E+01 -0.2079959313069E+01  0.1436648816733E+01
-0.4343034726973E+00 -0.4093630750596E+01 -0.2128129079550E+01  0.1469099068389E+01
-0.5409240232876E+00 -0.4092987948449E+01 -0.2177938621192E+01  0.1495980046928E+01
-0.6546637399028E+00 -0.4088471689734E+01 -0.2229273646275E+01  0.1515917888780E+01
-0.7754389626376E+00 -0.4079905127254E+01 -0.2282011716461E+01  0.1527296093551E+01
-0.9031338111767E+00 -0.4067142065407E+01 -0.2336029656069E+01  0.1528204638790E+01
-0.1037634579986E+01 -0.4050061059571E+01 -0.2391216944527E+01  0.1516375797307E+01
-0.1178892368428E+01 -0.4028551945908E+01 -0.2447498821530E+01  0.1489101874033E+01
-0.1327032694187E+01 -0.4002490160797E+01 -0.2504875735489E+01  0.1443129280388E+01
-0.1482545079654E+01 -0.3971692037218E+01 -0.2563491438428E+01  0.1374523536957E+01
-0.1646610528411E+01 -0.3935840811477E+01 -0.2623752123092E+01  0.1278503223919E+01
-0.1821674870153E+01 -0.3894372900584E+01 -0.2686542445432E+01  0.1149254446951E+01
-0.2012438034501E+01 -0.3846296358876E+01 -0.2753605157903E+01  0.9797808391942E+00
-0.2227614612061E+01 -0.3789977585124E+01 -0.2828268325503E+01  0.7619792466440E+00
-0.2481881353557E+01 -0.3722247159328E+01 -0.2915940393660E+01  0.4875641031625E+00
-0.2795082246553E+01 -0.3635735233052E+01 -0.3022484207748E+01  0.1506743763799E+00
-0.4133527969299E-01 -0.3872670647643E+01 -0.1839582781182E+01  0.1310405850930E+01
-0.1117759316474E+00 -0.3869590820695E+01 -0.1871242368855E+01  0.1355019814646E+01
-0.1880470424876E+00 -0.3862465254094E+01 -0.1903740774565E+01  0.1397636316699E+01
-0.2701053333421E+00 -0.3850909374147E+01 -0.1936876907607E+01  0.1437513793173E+01
-0.3578380806296E+00 -0.3834546456621E+01 -0.1970420727510E+01  0.1473822176368E+01
-0.4510380390266E+00 -0.3813018437596E+01 -0.2004106538930E+01  0.1505617704376E+01
-0.5493829471159E+00 -0.3785993411906E+01 -0.2037626883572E+01  0.1531814187054E+01
-0.6524182659451E+00 -0.3753170894747E+01 -0.2070626900273E+01  0.1551149857845E+01
-0.7595423672225E+00 -0.3714285782491E+01 -0.2102699225032E+01  0.1562147502191E+01
-0.8699945249903E+00 -0.3669111356235E+01 -0.2133379758765E+01  0.1563063872398E+01
-0.9828479687988E+00 -0.3617460750200E+01 -0.2162145092446E+01  0.1551822378734E+01
-0.1097013502505E+01 -0.3559185052688E+01 -0.2188413315390E+01  0.1525920321685E+01
-0.1211265286457E+01 -0.3494164519995E+01 -0.2211552003423E+01  0.1482297920904E+01
-0.1324312477461E+01 -0.3422286821119E+01 -0.2230901664675E+01  0.1417150276899E+01
-0.1434967434316E+01 -0.3343403494473E+01 -0.2245834330834E+01  0.1325654227136E+01
-0.1542519071135E+01 -0.3257250429293E+01 -0.2255891659479E+01  0.1201569253970E+01
-0.1647587403028E+01 -0.3163338358005E+01 -0.2261135101951E+01  0.1036661395870E+01
-0.1754048195556E+01 -0.3060796489537E+01 -0.2262976996254E+01  0.8199197858805E+00
-0.1874513550087E+01 -0.2949020713864E+01 -0.2267061098307E+01  0.5368506653122E+00
-0.2037582881290E+01 -0.2825876776298E+01 -0.2285826033268E+01  0.1713110041051E+00
-0.7507599469975E-01 -0.3691836495846E+01 -0.1770448866066E+01  0.1337862697928E+01
-0.1443121665556E+00 -0.3670359973280E+01 -0.1792895901175E+01  0.1381038452954E+01
-0.2184421766084E+00 -0.3643407559175E+01 -0.1815069371214E+01  0.1421824903608E+01
-0.2972748923564E+00 -0.3610489828119E+01 -0.1836649413965E+01  0.1459487231720E+01
-0.3805132733368E+00 -0.3571120801222E+01 -0.1857268010332E+01  0.1493225039781E+01
-0.4677222137893E+00 -0.3524827163528E+01 -0.1876498202580E+01  0.1522147449863E+01
-0.5582992170367E+00 -0.3471152934603E+01 -0.1893842506467E+01  0.1545245985813E+01
-0.6514449795303E+00 -0.3409661271586E+01 -0.1908719933184E+01  0.1561365219691E+01
-0.7461304407939E+00 -0.3339935353534E+01 -0.1920450918463E+01  0.1569169176635E+01
-0.8410568671340E+00 -0.3261579752744E+01 -0.1928239206452E+01  0.1567099360550E+01
-0.9346056308866E+00 -0.3174222759127E+01 -0.1931149338408E+01  0.1553317840028E+01
-0.1024774413727E+01 -0.3077519031013E+01 -0.1928077914137E+01  0.1525625425134E+01
-0.1109096771731E+01 -0.2971150459849E+01 -0.1917716193978E+01  0.1481339327526E+01
-0.1184543529152E+01 -0.2854820807655E+01 -0.1898501233484E+01  0.1417104616861E+01
-0.1247409849093E+01 -0.2728234714888E+01 -0.1868552940332E+01  0.1328594812912E+01
-0.1293214505688E+01 -0.2591044949961E+01 -0.1825601939525E+01  0.1210019795733E+01
-0.1316701280893E+01 -0.2442729498024E+01 -0.1766932461609E+01  0.1053279722592E+01
-0.1312370610433E+01 -0.2282413100933E+01 -0.1689548340056E+01  0.8464365428354E+00
-0.1276885249044E+01 -0.2108537397486E+01 -0.1591148639833E+01  0.5706812586803E+00
-0.1229435630437E+01 -0.1926347450565E+01 -0.1483218044309E+01  0.1950505136973E+00
-0.1080252135361E+00 -0.3506775856264E+01 -0.1698956498497E+01  0.1354446407003E+01
-0.1758458802977E+00 -0.3467171502118E+01 -0.1712218165393E+01  0.1394639507076E+01
-0.2476564970481E+00 -0.3420787124210E+01 -0.1724168497618E+01  0.1431871738198E+01
-0.3231559932059E+00 -0.3367038998682E+01 -0.1734391641788E+01  0.1465396893720E+01
-0.4019079327340E+00 -0.3305343637127E+01 -0.1742408233415E+01  0.1494421145513E+01
-0.4833035676953E+00 -0.3235124956497E+01 -0.1747661401938E+01  0.1518075924155E+01
-0.5665278271087E+00 -0.3155813750252E+01 -0.1749500536922E+01  0.1535389694108E+01
-0.6505237351593E+00 -0.3066842298758E+01 -0.1747162031510E+01  0.1545260497892E+01
-0.7339491534975E+00 -0.2967637621722E+01 -0.1739745779941E+01  0.1546428037769E+01
-0.8151188149789E+00 -0.2857615805049E+01 -0.1726185267035E+01  0.1537441548876E+01
-0.8919232313936E+00 -0.2736178608813E+01 -0.1705207860572E+01  0.1516617613685E+01
-0.9617129056224E+00 -0.2602712570388E+01 -0.1675279969476E+01  0.1481979452749E+01
-0.1021130007840E+01 -0.2456590024863E+01 -0.1634528411225E+01  0.1431164719819E+01
-0.1065857543884E+01 -0.2297170001719E+01 -0.1580622942424E+01  0.1361280116924E+01
-0.1090232801839E+01 -0.2123793329366E+01 -0.1510592277835E+01  0.1268663556120E+01
-0.1086622779873E+01 -0.1935753819465E+01 -0.1420516998086E+01  0.1148476703619E+01
-0.1044351440847E+01 -0.1732192604600E+01 -0.1304975698050E+01  0.9939634564688E+00
-0.9476991082498E+00 -0.1511733074764E+01 -0.1155933123085E+01  0.7949686205633E+00
-0.7715354362304E+00 -0.1271112139835E+01 -0.9600443583155E+00  0.5346129586587E+00
-0.4712289979543E+00 -0.9993515922127E+00 -0.6911728756254E+00  0.1785203431414E+00
-0.1395858673026E+00 -0.3319820046340E+01 -0.1625920775288E+01  0.1360200023335E+01
-0.2056557731583E+00 -0.3262881656976E+01 -0.1630212588028E+01  0.1395934172895E+01
-0.2748285897010E+00 -0.3198094732027E+01 -0.1632273957072E+01  0.1427964205215E+01
-0.3467242440631E+00 -0.3124817966376E+01 -0.1631624834768E+01  0.1455514020218E+01
-0.4208024600262E+00 -0.3042418542957E+01 -0.1627713867274E+01  0.1477772799528E+01
-0.4963217752989E+00 -0.2950280301976E+01 -0.1619902972211E+01  0.1493860128968E+01
-0.5723047899194E+00 -0.2847798290815E+01 -0.1607448443868E+01  0.1502790905767E+01
-0.6475033130766E+00 -0.2734366576210E+01 -0.1589478843933E+01  0.1503444787267E+01
-0.7203542888164E+00 -0.2609365659024E+01 -0.1564968371516E+01  0.1494539193439E+01
-0.7889169694556E+00 -0.2472153506838E+01 -0.1532703119970E+01  0.1474601784224E+01
-0.8507802829762E+00 -0.2322062123696E+01 -0.1491235927354E+01  0.1441937113958E+01
-0.9029251430218E+00 -0.2158401014074E+01 -0.1438823290186E+01  0.1394581519564E+01
-0.9415171083914E+00 -0.1980469554463E+01 -0.1373333728058E+01  0.1330239140159E+01
-0.9615862015789E+00 -0.1787582044497E+01 -0.1292109072378E+01  0.1246189405048E+01
-0.9565127246502E+00 -0.1579111360949E+01 -0.1191743317209E+01  0.1139151180170E+01
-0.9171550820384E+00 -0.1354557824621E+01 -0.1067705063422E+01  0.1005078828248E+01
-0.8302611051999E+00 -0.1113642756837E+01 -0.9136348128398E+00  0.8388453045161E+00
-0.6751834502301E+00 -0.8563112839589E+00 -0.7198025232431E+00  0.6337240032922E+00
-0.4164602418441E+00 -0.5824616900290E+00 -0.4694933067896E+00  0.3804735065440E+00
 0.2874151659694E-01 -0.2819760661968E+00 -0.1190202380100E+00  0.6547811774633E-01
-0.1691813346513E+00 -0.3133253398586E+01 -0.1552144320685E+01  0.1355451874450E+01
-0.2330306153891E+00 -0.3060282890575E+01 -0.1547857343877E+01  0.1385424724484E+01
-0.2990904600701E+00 -0.2978733455947E+01 -0.1540577236620E+01  0.1410824197721E+01
-0.3669236395450E+00 -0.2887963898699E+01 -0.1529797139095E+01  0.1430842967643E+01
-0.4359071911299E+00 -0.2787375944022E+01 -0.1514943069679E+01  0.1444656365940E+01
-0.5051841346109E+00 -0.2676427485136E+01 -0.1495357457488E+01  0.1451372409313E+01
-0.5736308887506E+00 -0.2554624105664E+01 -0.1470279843646E+01  0.1449986230176E+01
-0.6398281299456E+00 -0.2421504614331E+01 -0.1438826386161E+01  0.1439347186652E+01
-0.7020220963265E+00 -0.2276632876204E+01 -0.1399967833538E+01  0.1418136534910E+01
-0.7580646599330E+00 -0.2119601707129E+01 -0.1352503189089E+01  0.1384850330311E+01
-0.8053214707168E+00 -0.1950052101969E+01 -0.1295025575878E+01  0.1337783122763E+01
-0.8405347529654E+00 -0.1767711394768E+01 -0.1225875686326E+01  0.1275010587149E+01
-0.8596201839300E+00 -0.1572457255474E+01 -0.1143076393620E+01  0.1194372886957E+01
-0.8573632716259E+00 -0.1364420905571E+01 -0.1044238560634E+01  0.1093466359403E+01
-0.8269549641841E+00 -0.1144155061768E+01 -0.9264217098478E+00  0.9696625200473E+00
-0.7592583107731E+00 -0.9129166660869E+00 -0.7859222371308E+00  0.8201997264862E+00
-0.6415974542141E+00 -0.6731651761233E+00 -0.6179384346913E+00  0.6424597043719E+00
-0.4557420888919E+00 -0.4295870575062E+00 -0.4161046977517E+00  0.4347450800565E+00
-0.1739543204324E+00 -0.1910967016763E+00 -0.1715739799559E+00  0.1985076947315E+00
 0.2389842790578E+00  0.1549689365559E-01  0.1196061508719E+00 -0.5247188346796E-01
-0.1963110272718E+00 -0.2949212683862E+01 -0.1478396140483E+01  0.1340826552591E+01
-0.2573569081069E+00 -0.2861955510210E+01 -0.1466076832891E+01  0.1364008303838E+01
-0.3197001873101E+00 -0.2765788808846E+01 -0.1450179824515E+01  0.1381689835966E+01
-0.3828706063633E+00 -0.2660130063660E+01 -0.1430210311283E+01  0.1393062673165E+01
-0.4461776242339E+00 -0.2544513718581E+01 -0.1405624927558E+01  0.1397335146474E+01
-0.5086525557575E+00 -0.2418605551504E+01 -0.1375811306923E+01  0.1393655117975E+01
-0.5690233086766E+00 -0.2282183190101E+01 -0.1340067051027E+01  0.1381053864517E+01
-0.6256994127669E+00 -0.2135119809142E+01 -0.1297585031006E+01  0.1358419397145E+01
-0.6767455515760E+00 -0.1977386206791E+01 -0.1247441923269E+01  0.1324491734212E+01
-0.7198320701074E+00 -0.1809077436032E+01 -0.1188587464871E+01  0.1277871872496E+01
-0.7521553433899E+00 -0.1630466142270E+01 -0.1119832095420E+01  0.1217040940273E+01
-0.7703220524453E+00 -0.1442086594861E+01 -0.1039832061597E+01  0.1140392552202E+01
-0.7701898706173E+00 -0.1244858591633E+01 -0.9470727748557E+00  0.1046289336969E+01
-0.7466554798028E+00 -0.1040269695261E+01 -0.8398548301499E+00  0.9331662465511E+00
-0.6933831303033E+00 -0.8306502964160E+00 -0.7162957087413E+00  0.7997240769283E+00
-0.6024872374357E+00 -0.6196089002984E+00 -0.5743851832781E+00  0.6452986242133E+00
-0.4642702966457E+00 -0.4127748981828E+00 -0.4122112405239E+00  0.4705846273656E+00
-0.2674487556670E+00 -0.2191963681299E+00 -0.2287232076044E+00  0.2791060779982E+00
-0.2067862368092E-02 -0.5477015835775E-01 -0.2671386967339E-01  0.8046711107163E-01
 0.3235179427413E+00  0.4830567323525E-01  0.1747570990657E+00 -0.1032149440130E+00
-0.2206003422637E+00 -0.2769592366295E+01 -0.1405390569458E+01  0.1317219785966E+01
-0.2781915370483E+00 -0.2670129819249E+01 -0.1385711033945E+01  0.1332912540375E+01
-0.3361479580461E+00 -0.2561812741273E+01 -0.1362041525226E+01  0.1342178007745E+01
-0.3940106576357E+00 -0.2444155501854E+01 -0.1333938091577E+01  0.1344278661646E+01
-0.4510458310934E+00 -0.2316923061960E+01 -0.1300945376435E+01  0.1338543256482E+01
-0.5061767967034E+00 -0.2180104779036E+01 -0.1262552337395E+01  0.1324242384628E+01
-0.5579878486328E+00 -0.2033867054307E+01 -0.1218171801292E+01  0.1300525766095E+01
-0.6047379180338E+00 -0.1878525210846E+01 -0.1167133667613E+01  0.1266413888038E+01
-0.6443583886193E+00 -0.1714551842682E+01 -0.1108687805900E+01  0.1220823376792E+01
-0.6744258944959E+00 -0.1542620255033E+01 -0.1042011687635E+01  0.1162611475553E+01
-0.6921115532501E+00 -0.1363679122749E+01 -0.9662216152691E+00  0.1090635713606E+01
-0.6941120102854E+00 -0.1179057154097E+01 -0.8803895050269E+00  0.1003834819923E+01
-0.6765721118340E+00 -0.9906027109761E+00 -0.7835721647333E+00  0.9013461665439E+00
-0.6350180308259E+00 -0.8008698592921E+00 -0.6748673066438E+00  0.7826859863197E+00
-0.5643439323741E+00 -0.6133712452264E+00 -0.5535261320683E+00  0.6480349897920E+00
-0.4589534000885E+00 -0.4329290573680E+00 -0.4191847539413E+00  0.4986984745304E+00
-0.3133126801859E+00 -0.2661752232951E+00 -0.2723593139453E+00  0.3378487899954E+00
-0.1235011159764E+00 -0.1222142483523E+00 -0.1154862209416E+00  0.1716936427009E+00
 0.1084728298034E+00 -0.1336591406597E-01  0.4470025028321E-01  0.1100742466714E-01
 0.3733594069508E+00  0.5253991758665E-01  0.2001726820249E+00 -0.1292960540994E+00
-0.2418335116212E+00 -0.2595995472568E+01 -0.1333779619186E+01  0.1285754777793E+01
-0.2952942353888E+00 -0.2486613853480E+01 -0.1307496798452E+01  0.1293586234229E+01
-0.3481847970938E+00 -0.2368680335410E+01 -0.1276926609038E+01  0.1294087902565E+01
-0.4001563377217E+00 -0.2241873231829E+01 -0.1241753894539E+01  0.1286725114827E+01
-0.4504500289400E+00 -0.2106285312443E+01 -0.1201665607402E+01  0.1271060576959E+01
-0.4978819280658E+00 -0.1962322251572E+01 -0.1156295961497E+01  0.1246571170189E+01
-0.5409041898572E+00 -0.1810596078496E+01 -0.1105205123323E+01  0.1212592794147E+01
-0.5776670368608E+00 -0.1651878501069E+01 -0.1047886400169E+01  0.1168348229070E+01
-0.6060495019896E+00 -0.1487113014388E+01 -0.9837863802024E+00  0.1113013092888E+01
-0.6236614876658E+00 -0.1317469704377E+01 -0.9123316579463E+00  0.1045796457426E+01
-0.6278289962203E+00 -0.1144425159626E+01 -0.8329594511349E+00  0.9660319931695E+00
-0.6155807391308E+00 -0.9698596883120E+00 -0.7451569990081E+00  0.8732873447129E+00
-0.5836579253928E+00 -0.7961684261334E+00 -0.6485183835724E+00  0.7675060981944E+00
-0.5285809717544E+00 -0.6263852009774E+00 -0.5428340998071E+00  0.6492011471275E+00
-0.4468298330096E+00 -0.4643123722583E+00 -0.4282368353898E+00  0.5197209902404E+00
-0.3352409451545E+00 -0.3146331699422E+00 -0.3054408333207E+00  0.3816067843291E+00
-0.1917725706406E+00 -0.1829096891152E+00 -0.1761006616386E+00  0.2390271830856E+00
-0.1688643863670E-01 -0.7523084071926E-01 -0.4329512118749E-01  0.9815383811233E-01
 0.1856046721583E+00  0.4119930532043E-02  0.8917056303828E-01 -0.3315590430620E-01
 0.4082805527931E+00  0.5572066848575E-01  0.2180805734479E+00 -0.1471953325399E+00
-0.2599924929183E+00 -0.2429782234482E+01 -0.1264194118672E+01  0.1247712953476E+01
-0.3085748498012E+00 -0.2312715027575E+01 -0.1232006239242E+01  0.1247531147291E+01
-0.3557801275174E+00 -0.2187465510324E+01 -0.1195325446754E+01  0.1239159772486E+01
-0.4014341881357E+00 -0.2053973040396E+01 -0.1154041394483E+01  0.1222460248924E+01
-0.4447472108374E+00 -0.1912791226716E+01 -0.1108043062840E+01  0.1197344933988E+01
-0.4844054748506E+00 -0.1764816754392E+01 -0.1057134445063E+01  0.1163545691581E+01
-0.5187375321657E+00 -0.1611106965587E+01 -0.1001026911405E+01  0.1120604867017E+01
-0.5458348121402E+00 -0.1452821558231E+01 -0.9393684916920E+00  0.1067967564025E+01
-0.5636165133779E+00 -0.1291254707577E+01 -0.8717894716375E+00  0.1005095976307E+01
-0.5698532506137E+00 -0.1127901628475E+01 -0.7979447911480E+00  0.9315782360116E+00
-0.5621822104329E+00 -0.9645352907048E+00 -0.7175572237147E+00  0.8472325584187E+00
-0.5381373462136E+00 -0.8032767444704E+00 -0.6304646210224E+00  0.7522172894116E+00
-0.4952210876260E+00 -0.6466526435924E+00 -0.5366806523115E+00  0.6471578933751E+00
-0.4310465279363E+00 -0.4976279080993E+00 -0.4364769838297E+00  0.5332973311470E+00
-0.3435883518711E+00 -0.3595889220728E+00 -0.3304933179154E+00  0.4126662076569E+00
-0.2315788372215E+00 -0.2362181504314E+00 -0.2198645836392E+00  0.2882455909444E+00
-0.9506218846998E-01 -0.1311494488511E+00 -0.1063194692712E+00  0.1640424942037E+00
 0.6418103290135E-01 -0.4707235004302E-01  0.8041080923022E-02  0.4487887795300E-01
 0.2425604485627E+00  0.1548357716121E-01  0.1212806917826E+00 -0.6434373629929E-01
 0.4356735577969E+00  0.5932346462574E-01  0.2326485999486E+00 -0.1598925683729E+00
-0.2749958852020E+00 -0.2271858391761E+01 -0.1197021507137E+01  0.1204352084464E+01
-0.3179059532271E+00 -0.2149068377983E+01 -0.1159477932728E+01  0.1196074577251E+01
-0.3589160563963E+00 -0.2018322221578E+01 -0.1117301987814E+01  0.1178856456220E+01
-0.3980539023679E+00 -0.1880052620535E+01 -0.1070710063049E+01  0.1153204300007E+01
-0.4344211031684E+00 -0.1735466787243E+01 -0.1019847305907E+01  0.1119455622265E+01
-0.4665177084228E+00 -0.1586006570805E+01 -0.9646864087900E+00  0.1077569690089E+01
-0.4925445635671E+00 -0.1433096051417E+01 -0.9050510867471E+00  0.1027248485087E+01
-0.5105923061514E+00 -0.1278141298560E+01 -0.8407047920822E+00  0.9681283767266E+00
-0.5187101280416E+00 -0.1122604783024E+01 -0.7714180062445E+00  0.8999405575784E+00
-0.5149376870123E+00 -0.9680994257507E+00 -0.6970274412307E+00  0.8226284142240E+00
-0.4973293152261E+00 -0.8164518640868E+00 -0.6174771527109E+00  0.7364395281599E+00
-0.4640066118567E+00 -0.6697369732535E+00 -0.5328594836503E+00  0.6420096609193E+00
-0.4132548164660E+00 -0.5302760862210E+00 -0.4434595231381E+00  0.5404457987469E+00
-0.3436769092704E+00 -0.4005875349493E+00 -0.3498042878960E+00  0.4334043584395E+00
-0.2544102310320E+00 -0.2832637181498E+00 -0.2527067554745E+00  0.3231456737136E+00
-0.1453912626760E+00 -0.1807353332805E+00 -0.1532794997108E+00  0.2125240385475E+00
-0.1757388245744E-01 -0.9485383179842E-01 -0.5284102556623E-01  0.1048429309307E+00
 0.1270194391705E+00 -0.2635841175570E-01  0.4731068276494E-01  0.3505090257469E-02
 0.2856054033667E+00  0.2557428730434E-01  0.1462544542444E+00 -0.8852406616941E-01
 0.4551668561746E+00  0.6309524834245E-01  0.2435831885052E+00 -0.1692063849038E+00
-0.2867975539884E+00 -0.2122988624598E+01 -0.1132599501063E+01  0.1156887426433E+01
-0.3231821944117E+00 -0.1995994605074E+01 -0.1090013092994E+01  0.1140385253833E+01
-0.3576382337843E+00 -0.1860931944782E+01 -0.1042727981281E+01  0.1114466052732E+01
-0.3903125057134E+00 -0.1719241795495E+01 -0.9914905190531E+00  0.1080560814443E+01
-0.4200301131048E+00 -0.1573051876527E+01 -0.9367485327510E+00  0.1039373319091E+01
-0.4449913589282E+00 -0.1424274974491E+01 -0.8785551744788E+00  0.9909381615713E+00
-0.4632960443188E+00 -0.1274515975348E+01 -0.8167716471720E+00  0.9350021994429E+00
-0.4730977631756E+00 -0.1125184245249E+01 -0.7511925420545E+00  0.8713353271706E+00
-0.4726725383578E+00 -0.9777014789870E+00 -0.6816757864231E+00  0.7999038637416E+00
-0.4604101771136E+00 -0.8335947666730E+00 -0.6081823220371E+00  0.7209592481070E+00
-0.4348352321323E+00 -0.6945409715973E+00 -0.5308068144066E+00  0.6350927228529E+00
-0.3946593641124E+00 -0.5623596377377E+00 -0.4497989297287E+00  0.5432752689303E+00
-0.3388716349859E+00 -0.4389623026181E+00 -0.3655819497466E+00  0.4468862539052E+00
-0.2668603533756E+00 -0.3262529057371E+00 -0.2787632310759E+00  0.3477211563701E+00
-0.1785503623137E+00 -0.2259700702338E+00 -0.1901246028151E+00  0.2479577825546E+00
-0.7451384537251E-01 -0.1394603417609E+00 -0.1005678676976E+00  0.1500515439688E+00
 0.4399089198010E-01 -0.6741968923529E-01 -0.1101153468201E-01  0.5653485132616E-01
 0.1751148683566E+00 -0.9686838273873E-02  0.7775117394166E-01 -0.3026325226573E-01
 0.3166393026833E+00  0.3473247031562E-01  0.1651447328906E+00 -0.1084825225131E+00
 0.4661640487524E+00  0.6726100280467E-01  0.2507097735959E+00 -0.1768282936392E+00
-0.2954868696190E+00 -0.1983946889804E+01 -0.1071333864211E+01  0.1106460736294E+01
-0.3243931745289E+00 -0.1853355121435E+01 -0.1023541696507E+01  0.1081422615153E+01
-0.3521371724724E+00 -0.1714263005324E+01 -0.9712080811010E+00  0.1047178543005E+01
-0.3786892339556E+00 -0.1570121316958E+01 -0.9159409566064E+00  0.1006190830500E+01
-0.4022048416534E+00 -0.1424020151630E+01 -0.8583257446664E+00  0.9591741190127E+00
-0.4205889849963E+00 -0.1278086690549E+01 -0.7983775654815E+00  0.9059290314866E+00
-0.4318351160134E+00 -0.1133612176703E+01 -0.7357602257105E+00  0.8461291664907E+00
-0.4342946808140E+00 -0.9917588699368E+00 -0.6702451671529E+00  0.7796606755248E+00
-0.4265493273694E+00 -0.8537137337367E+00 -0.6017236371937E+00  0.7067132009666E+00
-0.4073849856457E+00 -0.7207764226513E+00 -0.5302358605547E+00  0.6278044280913E+00
-0.3757935773970E+00 -0.5943533622674E+00 -0.4559690604857E+00  0.5437819451934E+00
-0.3310163667651E+00 -0.4759089211181E+00 -0.3792548843432E+00  0.4558175574248E+00
-0.2726111246695E+00 -0.3668817078673E+00 -0.3005616305300E+00  0.3653903758744E+00
-0.2005270306591E+00 -0.2685713343874E+00 -0.2204762310126E+00  0.2742474878077E+00
-0.1151614688531E+00 -0.1819988645359E+00 -0.1396653563386E+00  0.1843277782385E+00
-0.1737181652376E-01 -0.1077615137158E+00 -0.5881266506341E-01  0.9763790787407E-01
 0.9159653632878E-01 -0.4591162774473E-01  0.2147190698004E-01  0.1608355266611E-01
 0.2102016643657E+00  0.4030770595609E-02  0.1006892441765E+00 -0.5871808826639E-01
 0.3366512969002E+00  0.4291077694055E-01  0.1783941742527E+00 -0.1255657021250E+00
 0.4690203733555E+00  0.7180516453248E-01  0.2541880021626E+00 -0.1836571737697E+00
-0.3011623911505E+00 -0.1855223371793E+01 -0.1013501306013E+01  0.1053890628137E+01
-0.3216129176289E+00 -0.1719761551870E+01 -0.9594459982309E+00  0.1019843857343E+01
-0.3428051789417E+00 -0.1575950897462E+01 -0.9018153536226E+00  0.9782910701242E+00
-0.3635634973153E+00 -0.1430343551944E+01 -0.8431363110132E+00  0.9321543765094E+00
-0.3815161497918E+00 -0.1286875540914E+01 -0.7841440926429E+00  0.8812135835336E+00
-0.3938151108235E+00 -0.1146248742900E+01 -0.7238300094142E+00  0.8247793279489E+00
-0.3986948523705E+00 -0.1009140518023E+01 -0.6616826224069E+00  0.7625384508028E+00
-0.3947810390751E+00 -0.8762520864597E+00 -0.5973855674862E+00  0.6945748920004E+00
-0.3810103074953E+00 -0.7484764729418E+00 -0.5308587854590E+00  0.6213310763631E+00
-0.3565524000548E+00 -0.6268548698134E+00 -0.4622014156658E+00  0.5435577297379E+00
-0.3208125101456E+00 -0.5125081018031E+00 -0.3916606866225E+00  0.4622756314598E+00
-0.2734612192734E+00 -0.4065473445206E+00 -0.3196040241726E+00  0.3787414432354E+00
-0.2144762791315E+00 -0.3099778689062E+00 -0.2464934489525E+00  0.2944073345005E+00
-0.1441750661424E+00 -0.2235994093438E+00 -0.1728540030401E+00  0.2108643998003E+00
-0.6321859396299E-01 -0.1479137510139E+00 -0.9923220188743E-01  0.1297639212983E+00
 0.2743684707932E-01 -0.8305405183878E-01 -0.2614008617065E-01  0.5271801023289E-01
 0.1266309855913E+00 -0.2877968248110E-01  0.4599011234513E-01 -0.1880845022593E-01
 0.2332326955681E+00  0.1553312320867E-01  0.1169199345285E+00 -0.8360280939712E-01
 0.3461228398081E+00  0.5066174733115E-01  0.1864887554825E+00 -0.1408540936045E+00
 0.4636806983669E+00  0.7718112276743E-01  0.2542050552884E+00 -0.1902518110120E+00
-0.3048833178762E+00 -0.1737123145095E+01 -0.9597430351623E+00  0.9989247294480E+00
-0.3153004227421E+00 -0.1590778867301E+01 -0.8958572640482E+00  0.9562078146942E+00
-0.3288893553749E+00 -0.1440477294635E+01 -0.8316023233956E+00  0.9103586729023E+00
-0.3452542466534E+00 -0.1298306517782E+01 -0.7724735573252E+00  0.8616133769212E+00
-0.3578531359825E+00 -0.1161269573378E+01 -0.7139876715885E+00  0.8081624217643E+00
-0.3645976881600E+00 -0.1028856669766E+01 -0.6549235465641E+00  0.7494501733648E+00
-0.3639191228647E+00 -0.9009342603021E+00 -0.5944810885806E+00  0.6855049476618E+00
-0.3547741947049E+00 -0.7779448977071E+00 -0.5323779720833E+00  0.6167533034097E+00
-0.3364046979104E+00 -0.6606288673482E+00 -0.4686057744830E+00  0.5438973180259E+00
-0.3083018217215E+00 -0.5498733706988E+00 -0.4033423394145E+00  0.4678544021818E+00
-0.2701986572695E+00 -0.4465824610742E+00 -0.3368871247671E+00  0.3897177583432E+00
-0.2220867450066E+00 -0.3515771158840E+00 -0.2696220139347E+00  0.3107208103705E+00
-0.1642334423256E+00 -0.2655130021556E+00 -0.2019808283939E+00  0.2321952256171E+00
-0.9718622613026E-01 -0.1888155857614E+00 -0.1344208512482E+00  0.1555184983150E+00
-0.2174987676067E-01 -0.1216372377710E+00 -0.6739194365894E-01  0.8205301610073E-01
 0.6106679181198E-01 -0.6385306193170E-01 -0.1309546952946E-02  0.1308579444257E-01
 0.1501722778622E+00 -0.1507872772197E-01  0.6349396840489E-01 -0.5021862468953E-01
 0.2444709501511E+00  0.2517490718190E-01  0.1267335526251E+00 -0.1068351599603E+00
 0.3438591137443E+00  0.5794680838819E-01  0.1888487829233E+00 -0.1559128262196E+00
 0.4489445932148E+00  0.8419201629545E-01  0.2505742058343E+00 -0.1973405231048E+00
-0.3072843812214E+00 -0.1622149005088E+01 -0.9068336892652E+00  0.9357808243238E+00
-0.2980159392435E+00 -0.1446135361688E+01 -0.8197511093588E+00  0.8954132530824E+00
-0.3107500058343E+00 -0.1306892612024E+01 -0.7602920284652E+00  0.8496113251923E+00
-0.3221363676396E+00 -0.1176051926461E+01 -0.7041484964415E+00  0.7984891262849E+00
-0.3300597676792E+00 -0.1050191371610E+01 -0.6487180338203E+00  0.7420518180498E+00
-0.3322096287223E+00 -0.9281135125948E+00 -0.5923518749166E+00  0.6807335521621E+00
-0.3272866125532E+00 -0.8101107974213E+00 -0.5345767813321E+00  0.6150960046241E+00
-0.3144182812694E+00 -0.6969191320650E+00 -0.4753285830616E+00  0.5458264493549E+00
-0.2930836402326E+00 -0.5894269982693E+00 -0.4147799990439E+00  0.4737339176047E+00
-0.2630335126027E+00 -0.4884996184061E+00 -0.3532205706783E+00  0.3997464616115E+00
-0.2242638696021E+00 -0.3948882922191E+00 -0.2910015153179E+00  0.3248955610257E+00
-0.1770067194920E+00 -0.3091728664038E+00 -0.2285044047915E+00  0.2502878653596E+00
-0.1217270892185E+00 -0.2317253506847E+00 -0.1661226463332E+00  0.1770658007362E+00
-0.5911409898383E-01 -0.1626905244711E+00 -0.1042481727594E+00  0.1063613909545E+00
 0.9938998459289E-02 -0.1019876354312E+00 -0.4326285926708E-01  0.3925126688525E-01
 0.8437279686171E-01 -0.4933352946921E-01  0.1646845563271E-01 -0.2327562165387E-01
 0.1629835257361E+00 -0.4320857889939E-02  0.7457145369855E-01 -0.8031885513137E-01
 0.2446028597618E+00  0.3358441668685E-01  0.1307480195992E+00 -0.1310226007880E+00
 0.3274700921969E+00  0.6417776837198E-01  0.1840744940005E+00 -0.1743450439568E+00
 0.4155571708207E+00  0.9020054419316E-01  0.2377061254536E+00 -0.2087034439140E+00
</DataArray>
<DataArray type="Float64" Name="S_Mises" NumberOfComponents="1" ComponentName0="S_Mises" format="ascii">
 0.6230802591143E+00
 0.5175047362746E+00
 0.4775040438405E+00
 0.4946935531567E+00
 0.5315186228465E+00
 0.5826275037703E+00
 0.6434794405274E+00
 0.7121960024163E+00
 0.7877150345295E+00
 0.8695930357100E+00
 0.9577730989713E+00
 0.1052510990354E+01
 0.1154345332417E+01
 0.1264109736912E+01
 0.1382981217866E+01
 0.1512604502348E+01
 0.1655320301521E+01
 0.1814730025910E+01
 0.1997017000164E+01
 0.2211461446179E+01
 0.2458500610128E+01
 0.2723696743379E+01
 0.2991155530005E+01
 0.3251817370274E+01
 0.3502744423718E+01
 0.3743992343852E+01
 0.3976077069872E+01
 0.4198510105574E+01
 0.4408724258705E+01
 0.4600989562071E+01
 0.4770349672776E+01
 0.4921597560548E+01
 0.5064600474346E+01
 0.5206463476456E+01
 0.5354927977244E+01
 0.5517576403314E+01
 0.5716354172664E+01
 0.5922284351606E+01
 0.6361951381475E+01
 0.5674255460712E+01
 0.1140963276551E+02
 0.5974972921776E+00
 0.6131377329878E+00
 0.5911241279074E+00
 0.5999355937386E+00
 0.6322150435770E+00
 0.6781082988097E+00
 0.7344850309645E+00
 0.7991576410909E+00
 0.8710398463878E+00
 0.9495939881589E+00
 0.1034694513510E+01
 0.1126533269561E+01
 0.1225589826709E+01
 0.1332638136070E+01
 0.1448788992297E+01
 0.1575590888326E+01
 0.1715225336056E+01
 0.1870834138012E+01
 0.2046147240371E+01
 0.2243387969266E+01
 0.2460032608331E+01
 0.2688277390840E+01
 0.2918930933713E+01
 0.3145181137383E+01
 0.3363332540054E+01
 0.3571629424316E+01
 0.3768814713898E+01
 0.3953008825006E+01
 0.4121219009890E+01
 0.4270225169684E+01
 0.4398092870610E+01
 0.4504531156341E+01
 0.4590071111930E+01
 0.4654153332117E+01
 0.4692000498459E+01
 0.4693996311029E+01
 0.4626693526025E+01
 0.4463546941943E+01
 0.3910634328292E+01
 0.3012142662724E+01
 0.9819096171898E+01
 0.6208140333028E+00
 0.6729074609154E+00
 0.6852042813576E+00
 0.6968211124089E+00
 0.7264783214115E+00
 0.7690594949146E+00
 0.8217565259688E+00
 0.8828598717174E+00
 0.9513107132874E+00
 0.1026576385819E+01
 0.1108492662085E+01
 0.1197200696345E+01
 0.1293115939491E+01
 0.1396930534090E+01
 0.1509638946064E+01
 0.1632600796068E+01
 0.1767632100831E+01
 0.1916842672734E+01
 0.2081460329159E+01
 0.2260489984916E+01
 0.2450768769117E+01
 0.2647681088913E+01
 0.2845900586236E+01
 0.3040492941448E+01
 0.3227702246780E+01
 0.3404796630996E+01
 0.3569405881689E+01
 0.3718900704658E+01
 0.3850451164989E+01
 0.3961848509481E+01
 0.4051228734007E+01
 0.4115462834332E+01
 0.4150009150686E+01
 0.4148277056915E+01
 0.4099004246787E+01
 0.3980396698473E+01
 0.3758958036679E+01
 0.3368147621945E+01
 0.2708834578751E+01
 0.2904282354777E+01
 0.9123506590442E+01
 0.6634238483963E+00
 0.7285157719321E+00
 0.7634006795211E+00
 0.7848132055803E+00
 0.8146324345634E+00
 0.8552918040060E+00
 0.9051963510304E+00
 0.9631922313873E+00
 0.1028442239940E+01
 0.1100472302116E+01
 0.1179117510241E+01
 0.1264479681784E+01
 0.1356906473908E+01
 0.1456987125937E+01
 0.1565555574850E+01
 0.1683700895260E+01
 0.1812694672420E+01
 0.1953474036576E+01
 0.2105515996970E+01
 0.2266439354565E+01
 0.2433167217771E+01
 0.2602800493313E+01
 0.2772217910731E+01
 0.2937880712967E+01
 0.3096303680888E+01
 0.3244335138561E+01
 0.3379024763413E+01
 0.3497450250144E+01
 0.3596970145007E+01
 0.3675563561149E+01
 0.3730820711094E+01
 0.3758046524028E+01
 0.3750150122644E+01
 0.3697783199930E+01
 0.3587312449882E+01
 0.3399021459838E+01
 0.3108764902197E+01
 0.2694953078056E+01
 0.2343166079978E+01
 0.3574979138883E+01
 0.8487637465643E+01
 0.7145915688280E+00
 0.7848783290748E+00
 0.8330903710806E+00
 0.8645489339510E+00
 0.8969544048608E+00
 0.9368789551255E+00
 0.9847687369269E+00
 0.1040112425902E+01
 0.1102391460854E+01
 0.1171251001506E+01
 0.1246553320464E+01
 0.1328372871012E+01
 0.1416986527231E+01
 0.1512863324739E+01
 0.1616642154161E+01
 0.1729078713850E+01
 0.1850825414129E+01
 0.1981804686098E+01
 0.2120428606883E+01
 0.2263811453439E+01
 0.2409177857063E+01
 0.2554617609820E+01
 0.2698287688301E+01
 0.2837642537960E+01
 0.2969598479881E+01
 0.3090946539039E+01
 0.3198547969796E+01
 0.3289453876461E+01
 0.3361153914610E+01
 0.3411549208013E+01
 0.3437785942571E+01
 0.3434559759548E+01
 0.3394160428430E+01
 0.3307174053341E+01
 0.3162388210225E+01
 0.2948884911962E+01
 0.2665124441958E+01
 0.2370240696920E+01
 0.2454727159442E+01
 0.4175020405340E+01
 0.7956263210834E+01
 0.7696314728635E+00
 0.8422041604637E+00
 0.8981660982646E+00
 0.9378108024903E+00
 0.9738337686192E+00
 0.1014012821195E+01
 0.1060526953094E+01
 0.1113630719747E+01
 0.1173158532557E+01
 0.1238916912603E+01
 0.1310817838624E+01
 0.1388918047254E+01
 0.1473422235020E+01
 0.1564667318875E+01
 0.1663074503032E+01
 0.1769036682803E+01
 0.1882615407267E+01
 0.2002969458106E+01
 0.2127934681533E+01
 0.2254545468625E+01
 0.2380367920611E+01
 0.2504093517140E+01
 0.2624639871995E+01
 0.2740168396314E+01
 0.2848033256975E+01
 0.2945195722443E+01
 0.3028592033832E+01
 0.3095405320081E+01
 0.3143255897617E+01
 0.3169995679501E+01
 0.3172654843913E+01
 0.3146128758035E+01
 0.3083511270855E+01
 0.2977522905922E+01
 0.2822479759398E+01
 0.2620092942278E+01
 0.2399295306292E+01
 0.2293226951197E+01
 0.2761513401179E+01
 0.4584810645315E+01
 0.7529786045852E+01
 0.8262588700458E+00
 0.8999269623678E+00
 0.9604277087555E+00
 0.1006191035056E+01
 0.1045889762229E+01
 0.1086948405263E+01
 0.1132594993402E+01
 0.1183806288563E+01
 0.1240782225016E+01
 0.1303507924942E+01
 0.1371960530574E+01
 0.1446186375164E+01
 0.1526318279405E+01
 0.1612555370992E+01
 0.1705092843290E+01
 0.1803968222160E+01
 0.1908740927588E+01
 0.2018049618455E+01
 0.2129473541984E+01
 0.2240168173067E+01
 0.2348023909640E+01
 0.2452120472187E+01
 0.2551846826998E+01
 0.2645882226550E+01
 0.2732016312639E+01
 0.2807516168727E+01
 0.2869561145135E+01
 0.2915575221218E+01
 0.2943370458373E+01
 0.2950907201865E+01
 0.2935474035249E+01
 0.2892814447132E+01
 0.2817852767856E+01
 0.2706906278407E+01
 0.2561470652858E+01
 0.2397737994939E+01
 0.2274624153934E+01
 0.2372128144406E+01
 0.3096920692552E+01
 0.4844657691424E+01
 0.7190131825260E+01
 0.8832791071649E+00
 0.9574955926417E+00
 0.1020677273409E+01
 0.1070831297895E+01
 0.1113788305717E+01
 0.1156003127715E+01
 0.1201143478660E+01
 0.1250740500540E+01
 0.1305335530538E+01
 0.1365092480289E+01
 0.1430060213658E+01
 0.1500279753532E+01
 0.1575814139618E+01
 0.1656725591407E+01
 0.1742989914584E+01
 0.1834325221904E+01
 0.1929900226679E+01
 0.2028034776866E+01
 0.2126251899088E+01
 0.2221918952412E+01
 0.2313220015940E+01
 0.2399504398118E+01
 0.2480472266662E+01
 0.2555201224194E+01
 0.2621900717547E+01
 0.2678219447359E+01
 0.2721684793219E+01
 0.2750047045118E+01
 0.2761405652316E+01
 0.2754025004170E+01
 0.2725789827239E+01
 0.2673773584297E+01
 0.2595395256189E+01
 0.2491355194364E+01
 0.2370978974756E+01
 0.2264692400507E+01
 0.2254723072294E+01
 0.2531975253125E+01
 0.3397142928016E+01
 0.5004700178588E+01
 0.6917686762527E+01
 0.9400400634281E+00
 0.1014507497867E+01
 0.1079267619728E+01
 0.1132495842269E+01
 0.1178128014455E+01
 0.1221524303494E+01
 0.1266376633914E+01
 0.1314567414108E+01
 0.1366921117425E+01
 0.1423766213700E+01
 0.1485222216570E+01
 0.1551327618080E+01
 0.1622079594993E+01
 0.1697410658102E+01
 0.1777096624246E+01
 0.1860588951415E+01
 0.1946776564769E+01
 0.2033814662703E+01
 0.2119292242276E+01
 0.2200825524825E+01
 0.2276863577813E+01
 0.2346960444255E+01
 0.2411041137895E+01
 0.2468508616511E+01
 0.2517973583452E+01
 0.2557505136170E+01
 0.2585043621349E+01
 0.2598736448301E+01
 0.2597074782008E+01
 0.2578812033298E+01
 0.2542695995842E+01
 0.2487451290259E+01
 0.2413348452050E+01
 0.2325759121153E+01
 0.2241696945116E+01
 0.2203686111588E+01
 0.2306481837519E+01
 0.2722429767667E+01
 0.3647261697499E+01
 0.5101555858441E+01
 0.6696622738625E+01
 0.9961786352083E+00
 0.1070698641544E+01
 0.1136357181365E+01
 0.1191690321462E+01
 0.1239405490194E+01
 0.1283856404759E+01
 0.1328519384003E+01
 0.1375445590412E+01
 0.1425666239961E+01
 0.1479648414912E+01
 0.1537575197350E+01
 0.1599483349457E+01
 0.1665309766081E+01
 0.1734869867946E+01
 0.1807767871504E+01
 0.1883248006101E+01
 0.1960018423064E+01
 0.2036182714978E+01
 0.2109468587214E+01
 0.2177752484555E+01
 0.2239726031796E+01
 0.2295114251955E+01
 0.2344022864460E+01
 0.2386136862272E+01
 0.2420450543628E+01
 0.2445470030635E+01
 0.2459588149525E+01
 0.2461407061773E+01
 0.2449904909488E+01
 0.2424475549145E+01
 0.2384918036090E+01
 0.2331789042704E+01
 0.2268334358518E+01
 0.2204518946139E+01
 0.2164209903936E+01
 0.2198327346761E+01
 0.2402493038576E+01
 0.2915329583110E+01
 0.3850100906903E+01
 0.5159095229879E+01
 0.6515213963106E+01
 0.1051494077366E+01
 0.1125909319749E+01
 0.1192025729666E+01
 0.1248756389676E+01
 0.1298019963229E+01
 0.1343321288888E+01
 0.1387805156733E+01
 0.1433550836934E+01
 0.1481717722724E+01
 0.1532878287539E+01
 0.1587267714711E+01
 0.1644920384119E+01
 0.1705719871609E+01
 0.1769381137971E+01
 0.1835370164541E+01
 0.1902782980996E+01
 0.1970230001804E+01
 0.2035843832768E+01
 0.2097532991427E+01
 0.2153433935259E+01
 0.2202464836205E+01
 0.2244505882846E+01
 0.2279823198550E+01
 0.2308358710793E+01
 0.2329474476632E+01
 0.2342117177664E+01
 0.2345154695166E+01
 0.2337687950937E+01
 0.2319258699275E+01
 0.2290011825136E+01
 0.2250913369851E+01
 0.2204421389558E+01
 0.2156707878076E+01
 0.2121953218320E+01
 0.2129417359276E+01
 0.2233820356320E+01
 0.2522394297165E+01
 0.3097172979648E+01
 0.4013453312636E+01
 0.5192384809700E+01
 0.6364965512256E+01
 0.1105880846157E+01
 0.1180053307366E+01
 0.1246325852465E+01
 0.1303935500344E+01
 0.1354291224153E+01
 0.1400210286296E+01
 0.1444466549745E+01
 0.1489069824817E+01
 0.1535237312347E+01
 0.1583611220896E+01
 0.1634464722002E+01
 0.1687828245011E+01
 0.1743540022333E+01
 0.1801233613540E+01
 0.1860271692580E+01
 0.1919656520419E+01
 0.1977967673114E+01
 0.2033423095541E+01
 0.2084135493208E+01
 0.2128496390143E+01
 0.2165639679132E+01
 0.2195594974279E+01
 0.2218781508968E+01
 0.2235383739086E+01
 0.2245117280233E+01
 0.2247365037561E+01
 0.2241480479128E+01
 0.2227093550588E+01
 0.2204364406003E+01
 0.2174260301595E+01
 0.2138969959152E+01
 0.2102836332240E+01
 0.2074769559348E+01
 0.2072514918733E+01
 0.2128785113014E+01
 0.2297591464692E+01
 0.2652433916418E+01
 0.3262707505234E+01
 0.4145455621451E+01
 0.5210895678229E+01
 0.6239686622587E+01
 0.1159291211147E+01
 0.1233094827710E+01
 0.1299304931994E+01
 0.1357409134122E+01
 0.1408478900469E+01
 0.1454783641205E+01
 0.1498729380402E+01
 0.1542194797490E+01
 0.1586397473459E+01
 0.1632015198810E+01
 0.1679344086086E+01
 0.1728408626388E+01
 0.1779010284464E+01
 0.1830721232257E+01
 0.1882834809781E+01
 0.1934307276632E+01
 0.1983739756018E+01
 0.2029474161537E+01
 0.2069839400895E+01
 0.2103475547715E+01
 0.2129725062368E+01
 0.2148766536224E+01
 0.2161171614639E+01
 0.2167358748710E+01
 0.2167383996433E+01
 0.2161057207310E+01
 0.2148218945207E+01
 0.2129045567496E+01
 0.2104349460833E+01
 0.2075958064412E+01
 0.2047290835364E+01
 0.2024489301095E+01
 0.2018887400786E+01
 0.2050906937987E+01
 0.2154570037010E+01
 0.2379608174610E+01
 0.2784021670801E+01
 0.3410903576079E+01
 0.4253153838021E+01
 0.5220625676980E+01
 0.6134777907411E+01
 0.1211713569203E+01
 0.1285032410236E+01
 0.1351013705442E+01
 0.1409323336350E+01
 0.1460798826059E+01
 0.1507273569742E+01
 0.1550809590126E+01
 0.1593119528147E+01
 0.1635377736856E+01
 0.1678267479624E+01
 0.1722093277972E+01
 0.1766871703940E+01
 0.1812376232498E+01
 0.1858137414123E+01
 0.1903410637890E+01
 0.1947146601368E+01
 0.1988008080087E+01
 0.2024486885771E+01
 0.2055133260514E+01
 0.2078829059089E+01
 0.2095120468744E+01
 0.2104336985028E+01
 0.2107204791123E+01
 0.2104370658710E+01
 0.2096218496722E+01
 0.2082972559448E+01
 0.2064955145569E+01
 0.2042895277732E+01
 0.2018273433731E+01
 0.1993787900390E+01
 0.1974057909908E+01
 0.1966873766821E+01
 0.1985560804394E+01
 0.2052167909766E+01
 0.2200012811619E+01
 0.2472302828425E+01
 0.2912163852178E+01
 0.3542712378281E+01
 0.4342246557632E+01
 0.5225422157830E+01
 0.6046732883443E+01
 0.1263159404968E+01
 0.1335887828634E+01
 0.1401508848835E+01
 0.1459803380070E+01
 0.1511435610625E+01
 0.1557888582550E+01
 0.1600912122959E+01
 0.1642036440666E+01
 0.1682361631449E+01
 0.1722551603978E+01
 0.1762906312751E+01
 0.1803432766167E+01
 0.1843885090523E+01
 0.1883770857247E+01
 0.1922335384778E+01
 0.1958557084561E+01
 0.1991190456607E+01
 0.2018894079481E+01
 0.2040440461426E+01
 0.2054946642398E+01
 0.2062158928080E+01
 0.2062560266103E+01
 0.2057034157186E+01
 0.2046451059247E+01
 0.2031510251425E+01
 0.2012835664487E+01
 0.1991220860430E+01
 0.1967944825654E+01
 0.1945157470717E+01
 0.1926416404809E+01
 0.1917474737119E+01
 0.1927560347338E+01
 0.1971459587202E+01
 0.2071755206497E+01
 0.2259442934452E+01
 0.2570223857605E+01
 0.3034197772880E+01
 0.3659884911682E+01
 0.4417221167317E+01
 0.5227801330563E+01
 0.5972801614570E+01
 0.1313655201214E+01
 0.1385698562533E+01
 0.1450853022221E+01
 0.1508962375923E+01
 0.1560551767625E+01
 0.1606817809114E+01
 0.1649230964111E+01
 0.1689134656706E+01
 0.1727534152599E+01
 0.1765054726646E+01
 0.1801980955027E+01
 0.1838309190750E+01
 0.1873782456932E+01
 0.1907902299119E+01
 0.1939927964376E+01
 0.1968892289915E+01
 0.1993663543804E+01
 0.2013077469929E+01
 0.2026127155176E+01
 0.2032158422086E+01
 0.2031114527390E+01
 0.2023634024001E+01
 0.2010759976646E+01
 0.1993581905351E+01
 0.1973101865285E+01
 0.1950327335744E+01
 0.1926509073355E+01
 0.1903466501515E+01
 0.1884008651395E+01
 0.1872521518709E+01
 0.1875792401455E+01
 0.1904218780407E+01
 0.1973458390220E+01
 0.2105616853293E+01
 0.2328273410867E+01
 0.2669588959769E+01
 0.3148892329039E+01
 0.3764367008280E+01
 0.4481582165618E+01
 0.5229472281166E+01
 0.5910768363517E+01
 0.1363237273727E+01
 0.1434512654896E+01
 0.1499113964598E+01
 0.1556906245680E+01
 0.1608294137360E+01
 0.1654234799629E+01
 0.1695949794102E+01
 0.1734598764901E+01
 0.1771079753081E+01
 0.1805965323349E+01
 0.1839516263721E+01
 0.1871717838489E+01
 0.1902309638933E+01
 0.1930802142801E+01
 0.1956488626523E+01
 0.1978477285037E+01
 0.1995765848858E+01
 0.2007372974182E+01
 0.2012508939222E+01
 0.2010742008713E+01
 0.2002209125774E+01
 0.1987705665860E+01
 0.1968435390139E+01
 0.1945701752352E+01
 0.1920796824525E+01
 0.1895094747556E+01
 0.1870287057548E+01
 0.1848718963695E+01
 0.1833838438308E+01
 0.1830810512286E+01
 0.1847324197716E+01
 0.1894633748495E+01
 0.1988671351710E+01
 0.2150234944642E+01
 0.2402906640724E+01
 0.2767860360625E+01
 0.3255852675307E+01
 0.3857990554176E+01
 0.4538051696985E+01
 0.5231697686639E+01
 0.5858813432524E+01
 0.1411948379602E+01
 0.1482385189523E+01
 0.1546363339595E+01
 0.1603736521570E+01
 0.1654798302089E+01
 0.1700300628421E+01
 0.1741242882596E+01
 0.1778608090052E+01
 0.1813180776693E+01
 0.1845471255614E+01
 0.1875710479271E+01
 0.1903872859572E+01
 0.1929701543565E+01
 0.1952728795608E+01
 0.1972298329458E+01
 0.1987609671319E+01
 0.1997800716916E+01
 0.2002075398957E+01
 0.1999856629801E+01
 0.1990928677764E+01
 0.1975618476015E+01
 0.1954878267677E+01
 0.1930072319671E+01
 0.1902712200750E+01
 0.1874367146783E+01
 0.1846760831901E+01
 0.1822007733345E+01
 0.1802960149203E+01
 0.1793675698647E+01
 0.1800030977427E+01
 0.1830454838794E+01
 0.1896720395813E+01
 0.2014482721425E+01
 0.2202632113960E+01
 0.2480592041376E+01
 0.2863392678468E+01
 0.3355152265056E+01
 0.3942316340188E+01
 0.4588674167987E+01
 0.5235561585068E+01
 0.5815450278313E+01
 0.1459835409394E+01
 0.1529375899503E+01
 0.1592675615351E+01
 0.1649551851108E+01
 0.1700191573098E+01
 0.1745166311708E+01
 0.1785276009549E+01
 0.1821336293127E+01
 0.1854016258398E+01
 0.1883758172067E+01
 0.1910759249313E+01
 0.1934983897084E+01
 0.1956185066149E+01
 0.1973927587309E+01
 0.1987618655091E+01
 0.1996560921564E+01
 0.2000039233405E+01
 0.1997442666202E+01
 0.1988401346383E+01
 0.1972908874410E+01
 0.1951477866231E+01
 0.1925216263160E+01
 0.1895647336757E+01
 0.1864484272130E+01
 0.1833560654400E+01
 0.1804932696493E+01
 0.1781119110643E+01
 0.1765457006339E+01
 0.1762575367223E+01
 0.1778977585388E+01
 0.1823648101932E+01
 0.1908540263271E+01
 0.2048567034312E+01
 0.2260344482507E+01
 0.2559271325252E+01
 0.2955163030394E+01
 0.3447111855649E+01
 0.4018622083408E+01
 0.4634726873691E+01
 0.5242157500919E+01
 0.5779541426696E+01
 0.1506947672985E+01
 0.1575547760605E+01
 0.1638126944427E+01
 0.1694448789155E+01
 0.1744594973997E+01
 0.1788974631658E+01
 0.1828207305813E+01
 0.1862951179023E+01
 0.1893761019838E+01
 0.1921008215177E+01
 0.1944854175591E+01
 0.1965254658879E+01
 0.1981977910858E+01
 0.1994630151069E+01
 0.2002692115448E+01
 0.2005577897573E+01
 0.2002723004930E+01
 0.1993699645486E+01
 0.1978339060337E+01
 0.1956837190865E+01
 0.1929887346770E+01
 0.1898750862876E+01
 0.1865107338762E+01
 0.1830864509174E+01
 0.1798107668492E+01
 0.1769208919515E+01
 0.1747071840026E+01
 0.1735492515254E+01
 0.1739624082669E+01
 0.1766496889748E+01
 0.1825454633064E+01
 0.1928315546703E+01
 0.2088895101331E+01
 0.2321371841353E+01
 0.2637432722801E+01
 0.3042578042131E+01
 0.3532157760433E+01
 0.4087994271769E+01
 0.4676772777425E+01
 0.5251949600904E+01
 0.5750772958326E+01
 0.1553329170431E+01
 0.1620945990638E+01
 0.1682764074353E+01
 0.1738481853552E+01
 0.1788074418306E+01
 0.1831802215390E+01
 0.1870120342968E+01
 0.1903539881407E+01
 0.1932504830449E+01
 0.1957315628678E+01
 0.1978097803551E+01
 0.1994800656016E+01
 0.2007212838996E+01
 0.2014989234003E+01
 0.2017691652126E+01
 0.2014850914762E+01
 0.2006054062126E+01
 0.1991052306906E+01
 0.1969870422405E+01
 0.1942898233942E+01
 0.1911002975498E+01
 0.1875594834908E+01
 0.1838504635108E+01
 0.1801825431637E+01
 0.1767879687092E+01
 0.1739336434688E+01
 0.1719460713498E+01
 0.1712474127695E+01
 0.1723994097695E+01
 0.1761463132384E+01
 0.1834386099218E+01
 0.1954176631074E+01
 0.2133322463111E+01
 0.2383577876220E+01
 0.2713346339893E+01
 0.3124647933467E+01
 0.3610123638116E+01
 0.4150745316725E+01
 0.4715225413888E+01
 0.5262047873625E+01
 0.5739163708654E+01
 0.1599040183412E+01
 0.1665639211384E+01
 0.1726669221742E+01
 0.1781748571661E+01
 0.1830745877571E+01
 0.1873782860319E+01
 0.1911163483695E+01
 0.1943261548288E+01
 0.1970415018511E+01
 0.1992854902378E+01
 0.2010671855506E+01
 0.2023811102130E+01
 0.2032086016765E+01
 0.2035205725374E+01
 0.2032818349230E+01
 0.2024574311148E+01
 0.2010211126102E+01
 0.1989653807420E+01
 0.1963112680604E+01
 0.1931162728818E+01
 0.1894837777499E+01
 0.1855691565110E+01
 0.1815700423432E+01
 0.1777133467730E+01
 0.1742536388873E+01
 0.1714856839672E+01
 0.1697697405975E+01
 0.1695668620048E+01
 0.1714786343186E+01
 0.1762786775801E+01
 0.1849152706822E+01
 0.1984681432782E+01
 0.2180409046649E+01
 0.2445785030794E+01
 0.2786375344529E+01
 0.3201432326563E+01
 0.3681669854283E+01
 0.4207792083969E+01
 0.4750543462728E+01
 0.5272588746748E+01
 0.5733874443792E+01
 0.1644133358732E+01
 0.1709708530652E+01
 0.1769946678797E+01
 0.1824378821843E+01
 0.1872766523507E+01
 0.1915100375117E+01
 0.1951543936604E+01
 0.1982342429131E+01
 0.2007732657100E+01
 0.2027878300232E+01
 0.2042836448415E+01
 0.2052550261820E+01
 0.2056861041392E+01
 0.2055536018370E+01
 0.2048312840801E+01
 0.2034962572445E+01
 0.2015370991071E+01
 0.1989631472716E+01
 0.1958132411869E+01
 0.1921625994646E+01
 0.1881306024646E+01
 0.1838865091375E+01
 0.1796420115712E+01
 0.1756408560060E+01
 0.1721587884540E+01
 0.1695168988481E+01
 0.1681070475747E+01
 0.1684256072343E+01
 0.1711074359856E+01
 0.1769442195514E+01
 0.1868661403716E+01
 0.2018757468336E+01
 0.2229267527541E+01
 0.2507502512870E+01
 0.2856597526746E+01
 0.3273606835664E+01
 0.3747895230437E+01
 0.4260275475768E+01
 0.4783439405148E+01
 0.5284141558719E+01
 0.5728816369253E+01
 0.1688661193390E+01
 0.1753218385339E+01
 0.1812672568651E+01
 0.1866461953426E+01
 0.1914240574809E+01
 0.1955873853251E+01
 0.1991393871116E+01
 0.2020925216012E+01
 0.2044608713478E+01
 0.2062543572975E+01
 0.2074755210535E+01
 0.2081186779745E+01
 0.2081710099869E+01
 0.2076153177575E+01
 0.2064344877400E+01
 0.2046176435803E+01
 0.2021678534618E+01
 0.1991106830688E+01
 0.1955020005489E+01
 0.1914339239564E+01
 0.1870411352924E+01
 0.1825062626970E+01
 0.1780545255970E+01
 0.1739457271630E+01
 0.1704756654975E+01
 0.1679902097199E+01
 0.1669105412038E+01
 0.1677644877844E+01
 0.1712133642020E+01
 0.1780561770047E+01
 0.1891917547242E+01
 0.2055353198671E+01
 0.2278924173762E+01
 0.2568003503676E+01
 0.2923671472091E+01
 0.3341256313070E+01
 0.3809214500437E+01
 0.4308715216092E+01
 0.4814357186077E+01
 0.5296503467856E+01
 0.5726185302732E+01
 0.1732675665816E+01
 0.1796232619323E+01
 0.1854922038446E+01
 0.1908085471511E+01
 0.1955269135713E+01
 0.1996218036448E+01
 0.2030840262433E+01
 0.2059146946876E+01
 0.2081188168030E+01
 0.2097001981903E+01
 0.2106584399625E+01
 0.2109880592848E+01
 0.2106794931411E+01
 0.2097217847789E+01
 0.2081069845168E+01
 0.2058360644808E+01
 0.2029261565044E+01
 0.1994183953166E+01
 0.1953848750902E+01
 0.1909337725047E+01
 0.1862143493006E+01
 0.1814220538698E+01
 0.1767950728032E+01
 0.1726084831984E+01
 0.1691770190184E+01
 0.1668697546105E+01
 0.1661347835150E+01
 0.1675273227617E+01
 0.1717283612310E+01
 0.1795345088489E+01
 0.1918029215948E+01
 0.2093561580981E+01
 0.2328579331490E+01
 0.2626730737982E+01
 0.2987377673172E+01
 0.3404508701859E+01
 0.3866005256589E+01
 0.4353561638289E+01
 0.4843603845721E+01
 0.5309610325334E+01
 0.5726063037321E+01
 0.1776228071700E+01
 0.1838814138237E+01
 0.1896768997939E+01
 0.1949334934403E+01
 0.1995950297628E+01
 0.2036243549981E+01
 0.2070005102985E+01
 0.2097139082799E+01
 0.2117609936322E+01
 0.2131398122319E+01
 0.2138472730467E+01
 0.2138782884834E+01
 0.2132267033493E+01
 0.2118878819925E+01
 0.2098629763087E+01
 0.2071645398183E+01
 0.2038232692878E+01
 0.1998951694326E+01
 0.1954677384892E+01
 0.1906643565016E+01
 0.1856481258487E+01
 0.1806267434680E+01
 0.1758507817724E+01
 0.1716098017051E+01
 0.1682363522590E+01
 0.1661210962298E+01
 0.1657365207918E+01
 0.1676610797121E+01
 0.1725889587632E+01
 0.1813060276702E+01
 0.1946204205016E+01
 0.2132606977323E+01
 0.2377581017514E+01
 0.2683260945923E+01
 0.3047584425923E+01
 0.3463513296032E+01
 0.3918604642288E+01
 0.4395182165771E+01
 0.4871379925743E+01
 0.5323313566954E+01
 0.5728204675197E+01
 0.1819368875192E+01
 0.1881024698497E+01
 0.1938285909354E+01
 0.1990293858986E+01
 0.2036379202964E+01
 0.2076057076743E+01
 0.2109005579195E+01
 0.2135027599672E+01
 0.2154006854155E+01
 0.2165869844450E+01
 0.2170561316651E+01
 0.2168036153539E+01
 0.2158267960372E+01
 0.2141273649423E+01
 0.2117154276627E+01
 0.2086147731183E+01
 0.2048691074456E+01
 0.2005485750477E+01
 0.1957552417511E+01
 0.1906268265278E+01
 0.1853395233483E+01
 0.1801126908755E+01
 0.1752086891632E+01
 0.1709307619839E+01
 0.1676281362498E+01
 0.1657113978554E+01
 0.1656748348880E+01
 0.1681160282599E+01
 0.1737364281285E+01
 0.1833044028460E+01
 0.1975745051414E+01
 0.2171831089954E+01
 0.2425400938208E+01
 0.2737275762076E+01
 0.3104222065839E+01
 0.3518426208977E+01
 0.3967305949277E+01
 0.4433866471600E+01
 0.4897799555221E+01
 0.5337445462230E+01
 0.5732290503998E+01
 0.1862147587822E+01
 0.1922924760585E+01
 0.1979543632766E+01
 0.2031043640955E+01
 0.2076648087458E+01
 0.2115761492107E+01
 0.2147954223408E+01
 0.2172933090283E+01
 0.2190505710285E+01
 0.2200548249523E+01
 0.2202983700214E+01
 0.2197774362629E+01
 0.2184929685568E+01
 0.2164529302133E+01
 0.2136761630118E+01
 0.2101972821997E+01
 0.2060724029770E+01
 0.2013850550341E+01
 0.1962510250402E+01
 0.1908215019205E+01
 0.1852850179667E+01
 0.1798719969055E+01
 0.1748559733424E+01
 0.1705530573344E+01
 0.1673279918731E+01
 0.1656095756062E+01
 0.1659112791727E+01
 0.1688458727831E+01
 0.1751168705128E+01
 0.1854700386159E+01
 0.2006042650974E+01
 0.2210678864238E+01
 0.2471613351320E+01
 0.2788538224828E+01
 0.3157263768814E+01
 0.3569400486836E+01
 0.4012359206487E+01
 0.4469837489241E+01
 0.4922923149217E+01
 0.5351840608298E+01
 0.5737990443522E+01
 0.1904612676132E+01
 0.1964573382847E+01
 0.2020611312661E+01
 0.2071663490144E+01
 0.2116846305978E+01
 0.2155455965218E+01
 0.2186959037756E+01
 0.2210970860788E+01
 0.2227227299804E+01
 0.2235557726320E+01
 0.2235865929947E+01
 0.2228123136546E+01
 0.2212374988272E+01
 0.2188762792244E+01
 0.2157559590563E+01
 0.2119215206300E+01
 0.2074408528213E+01
 0.2024100978533E+01
 0.1969579097777E+01
 0.1912480777117E+01
 0.1854807189087E+01
 0.1798967188958E+01
 0.1747801591365E+01
 0.1704591796629E+01
 0.1673128486933E+01
 0.1657864342532E+01
 0.1664100010893E+01
 0.1698078583863E+01
 0.1766812414443E+01
 0.1877498438855E+01
 0.2036569016091E+01
 0.2248684986936E+01
 0.2515876792557E+01
 0.2836873956843E+01
 0.3206711251896E+01
 0.3616579973289E+01
 0.4053974386344E+01
 0.4503265745281E+01
 0.4946778694492E+01
 0.5366341069260E+01
 0.5744987236065E+01
 0.1946811493841E+01
 0.2006028148386E+01
 0.2061556301839E+01
 0.2112230389569E+01
 0.2157060359877E+01
 0.2195236048263E+01
 0.2226123608508E+01
 0.2249251033105E+01
 0.2264286502668E+01
 0.2271016027362E+01
 0.2269326684025E+01
 0.2259199992457E+01
 0.2240717857142E+01
 0.2214081807240E+01
 0.2179646320974E+01
 0.2137959901617E+01
 0.2089812546558E+01
 0.2036283937533E+01
 0.1978780715206E+01
 0.1919058094640E+01
 0.1859225590084E+01
 0.1801790592632E+01
 0.1749692956870E+01
 0.1706325791738E+01
 0.1675610833853E+01
 0.1662147875987E+01
 0.1671378483154E+01
 0.1709628442801E+01
 0.1783853111789E+01
 0.1900969200355E+01
 0.2066869703276E+01
 0.2285461441157E+01
 0.2557918602011E+01
 0.2882156278308E+01
 0.3252584342012E+01
 0.3660095982858E+01
 0.4092326318964E+01
 0.4534281973632E+01
 0.4969374044156E+01
 0.5380798321254E+01
 0.5752986267982E+01
 0.1988790235899E+01
 0.2047345119254E+01
 0.2102444116829E+01
 0.2152819077947E+01
 0.2197373931470E+01
 0.2235193760645E+01
 0.2265547214209E+01
 0.2287878649856E+01
 0.2301792377044E+01
 0.2307034369021E+01
 0.2303477417889E+01
 0.2291114588909E+01
 0.2270063892146E+01
 0.2240585303700E+01
 0.2203111191976E+01
 0.2158283435996E+01
 0.2106996299192E+01
 0.2050439753043E+01
 0.1990131945631E+01
 0.1927936774718E+01
 0.1866064627714E+01
 0.1807115304945E+01
 0.1754121112607E+01
 0.1710578035456E+01
 0.1680526417226E+01
 0.1668695653065E+01
 0.1680644573054E+01
 0.1722753432271E+01
 0.1801895691696E+01
 0.1924701943067E+01
 0.2096556307623E+01
 0.2320686335524E+01
 0.2597521994180E+01
 0.2924294522687E+01
 0.3294913478964E+01
 0.3700065927396E+01
 0.4127559943107E+01
 0.4562986849384E+01
 0.4990704468897E+01
 0.5395074738178E+01
 0.5761720344449E+01
 0.2030593912066E+01
 0.2088578815889E+01
 0.2143338423602E+01
 0.2193502058894E+01
 0.2237867934126E+01
 0.2275417678854E+01
 0.2305324936838E+01
 0.2326953786822E+01
 0.2339848267580E+01
 0.2343717551619E+01
 0.2338422531008E+01
 0.2323968984012E+01
 0.2300510698164E+01
 0.2268364070070E+01
 0.2228035531320E+01
 0.2180254784545E+01
 0.2126013347698E+01
 0.2066603432795E+01
 0.2003646095630E+01
 0.1939105319954E+01
 0.1875284940236E+01
 0.1814870993047E+01
 0.1760981482465E+01
 0.1717206199090E+01
 0.1687691466637E+01
 0.1677279069401E+01
 0.1691623235454E+01
 0.1737135290706E+01
 0.1820590852551E+01
 0.1948340260504E+01
 0.2125299331067E+01
 0.2354094107958E+01
 0.2634515398297E+01
 0.2963224959029E+01
 0.3333734443642E+01
 0.3736593173972E+01
 0.4159795149943E+01
 0.4589458302241E+01
 0.5010757782525E+01
 0.5409045124101E+01
 0.5770951979199E+01
 0.2072266337943E+01
 0.2129782218301E+01
 0.2184301049064E+01
 0.2234349633560E+01
 0.2278620576924E+01
 0.2315993031287E+01
 0.2345547772636E+01
 0.2366571664964E+01
 0.2378551915605E+01
 0.2381164082434E+01
 0.2374259532887E+01
 0.2357857882854E+01
 0.2332148251259E+01
 0.2297501240230E+01
 0.2254493299286E+01
 0.2203936206481E+01
 0.2146911587159E+01
 0.2084805780765E+01
 0.2019334148618E+01
 0.1952552207261E+01
 0.1886849849509E+01
 0.1824993123041E+01
 0.1770178810129E+01
 0.1726081221147E+01
 0.1696939940367E+01
 0.1687692432038E+01
 0.1704068530860E+01
 0.1752492155289E+01
 0.1839633396898E+01
 0.1971578064437E+01
 0.2152821593055E+01
 0.2385467058977E+01
 0.2668763726952E+01
 0.2998903756491E+01
 0.3369084677742E+01
 0.3769767540135E+01
 0.4189130925068E+01
 0.4613757021542E+01
 0.5029518123674E+01
 0.5422598156941E+01
 0.5780474509589E+01
 0.2113850142989E+01
 0.2171006788039E+01
 0.2225392017262E+01
 0.2275429956742E+01
 0.2319707445662E+01
 0.2357001800334E+01
 0.2386302743279E+01
 0.2406822759350E+01
 0.2417995564747E+01
 0.2419466291826E+01
 0.2411079196523E+01
 0.2392868861840E+01
 0.2365059226254E+01
 0.2328072748666E+01
 0.2282551683782E+01
 0.2229383979861E+01
 0.2169734109608E+01
 0.2105074370426E+01
 0.2037205822023E+01
 0.1968266995756E+01
 0.1900726480374E+01
 0.1837424050345E+01
 0.1781628186086E+01
 0.1737088249425E+01
 0.1708124366646E+01
 0.1699753644842E+01
 0.1717763963715E+01
 0.1768578118484E+01
 0.1858760352656E+01
 0.1994155695758E+01
 0.2178892297963E+01
 0.2414628143276E+01
 0.2700161283431E+01
 0.3031301557093E+01
 0.3401000734849E+01
 0.3799666072224E+01
 0.4215648772282E+01
 0.4635930659915E+01
 0.5046968879931E+01
 0.5435637649287E+01
 0.5790112538419E+01
 0.2155386795164E+01
 0.2212302511644E+01
 0.2266669611665E+01
 0.2316809119323E+01
 0.2361201604907E+01
 0.2398522837299E+01
 0.2427673012194E+01
 0.2447792907656E+01
 0.2458266062073E+01
 0.2458710440390E+01
 0.2448965695999E+01
 0.2429082566531E+01
 0.2399319283208E+01
 0.2360147726746E+01
 0.2312271617033E+01
 0.2256649038378E+01
 0.2194519951419E+01
 0.2127434386099E+01
 0.2057270479911E+01
 0.1986241282009E+01
 0.1916886725785E+01
 0.1852113962311E+01
 0.1795255941155E+01
 0.1750127466928E+01
 0.1721116577894E+01
 0.1713304774569E+01
 0.1732522668923E+01
 0.1785182624868E+01
 0.1877749045364E+01
 0.2015856295126E+01
 0.2203321828920E+01
 0.2441434934600E+01
 0.2728626064107E+01
 0.3060399322115E+01
 0.3429516537402E+01
 0.3826353913016E+01
 0.4239415501946E+01
 0.4656017085814E+01
 0.5063094992131E+01
 0.5448083569141E+01
 0.5799721968707E+01
 0.2196916642062E+01
 0.2253717964834E+01
 0.2308190462135E+01
 0.2358551255361E+01
 0.2403173719279E+01
 0.2440631987546E+01
 0.2469738001410E+01
 0.2489563410719E+01
 0.2499444944095E+01
 0.2498976803949E+01
 0.2487996713497E+01
 0.2466572868024E+01
 0.2434997298775E+01
 0.2393788827975E+01
 0.2343708204291E+01
 0.2285777503500E+01
 0.2221304720780E+01
 0.2151909331494E+01
 0.2079537903193E+01
 0.2006469507923E+01
 0.1935308065753E+01
 0.1869021682698E+01
 0.1811000415427E+01
 0.1765114807039E+01
 0.1735808339550E+01
 0.1728212501768E+01
 0.1748187469846E+01
 0.1802129769548E+01
 0.1896415217947E+01
 0.2036502519012E+01
 0.2225957270473E+01
 0.2465774636256E+01
 0.2754095210372E+01
 0.3086185150641E+01
 0.3454662168765E+01
 0.3849885117203E+01
 0.4260485446113E+01
 0.4674046885806E+01
 0.5077884740141E+01
 0.5459872796125E+01
 0.5809189763739E+01
 0.2238478969792E+01
 0.2295300399793E+01
 0.2350009660000E+01
 0.2400718678264E+01
 0.2445692199318E+01
 0.2483402231486E+01
 0.2512573513916E+01
 0.2532211128768E+01
 0.2541608509750E+01
 0.2540339737350E+01
 0.2528243516332E+01
 0.2505406978948E+01
 0.2472155544770E+01
 0.2429052486396E+01
 0.2376911070824E+01
 0.2316811120306E+01
 0.2250121115615E+01
 0.2178521617678E+01
 0.2104018931523E+01
 0.2028949637135E+01
 0.1955974257363E+01
 0.1888115355676E+01
 0.1828812619164E+01
 0.1781982572307E+01
 0.1752111887331E+01
 0.1744368477821E+01
 0.1764630851135E+01
 0.1819277575244E+01
 0.1914611298402E+01
 0.2055953682516E+01
 0.2246678669340E+01
 0.2487560048108E+01
 0.2776521440835E+01
 0.3108651873216E+01
 0.3476463043898E+01
 0.3870303366637E+01
 0.4278902189583E+01
 0.4690045270411E+01
 0.5091331093544E+01
 0.5470959617318E+01
 0.5818433584795E+01
 0.2280112079887E+01
 0.2337095856551E+01
 0.2392180902240E+01
 0.2443372047037E+01
 0.2488823372584E+01
 0.2526903841163E+01
 0.2556251859696E+01
 0.2575808569469E+01
 0.2584827874604E+01
 0.2582867709956E+01
 0.2569770996342E+01
 0.2545645521747E+01
 0.2510849807719E+01
 0.2465989103553E+01
 0.2411924624539E+01
 0.2349787596392E+01
 0.2280999333252E+01
 0.2207293033595E+01
 0.2130725981703E+01
 0.2053683706218E+01
 0.1978875903072E+01
 0.1909373016466E+01
 0.1848656791409E+01
 0.1800679960757E+01
 0.1769960377393E+01
 0.1761689600377E+01
 0.1781754877079E+01
 0.1836517301928E+01
 0.1932224877529E+01
 0.2074103362932E+01
 0.2265396001660E+01
 0.2506726380634E+01
 0.2795870297489E+01
 0.3127795241779E+01
 0.3494939321170E+01
 0.3887642535061E+01
 0.4294699860995E+01
 0.4704033465070E+01
 0.5103432662513E+01
 0.5481315986842E+01
 0.5827401264657E+01
 0.2321853385964E+01
 0.2379149299707E+01
 0.2434756665789E+01
 0.2486570562843E+01
 0.2532631678942E+01
 0.2571204549455E+01
 0.2600841980048E+01
 0.2620423959916E+01
 0.2629168996150E+01
 0.2626623301156E+01
 0.2612637659277E+01
 0.2587342537053E+01
 0.2551129438099E+01
 0.2504643154133E+01
 0.2448788226086E+01
 0.2384740837514E+01
 0.2313967367281E+01
 0.2238245096302E+01
 0.2159673441360E+01
 0.2080678250809E+01
 0.2004010898271E+01
 0.1932783049734E+01
 0.1870510856917E+01
 0.1821173500189E+01
 0.1789308252517E+01
 0.1780118219299E+01
 0.1799491083829E+01
 0.1853772833711E+01
 0.1949177442158E+01
 0.2090877481277E+01
 0.2282046810641E+01
 0.2523228822343E+01
 0.2812118074186E+01
 0.3143612581687E+01
 0.3510105458201E+01
 0.3901927071248E+01
 0.4307904016653E+01
 0.4716029639330E+01
 0.5114194281296E+01
 0.5490931549375E+01
 0.5836070196836E+01
 0.2363739531921E+01
 0.2421504784075E+01
 0.2477788416693E+01
 0.2530372201186E+01
 0.2577179895157E+01
 0.2616369736173E+01
 0.2646409573228E+01
 0.2666121304300E+01
 0.2674692671124E+01
 0.2671663156580E+01
 0.2656895565261E+01
 0.2630545434156E+01
 0.2593037332522E+01
 0.2545053214986E+01
 0.2487536272519E+01
 0.2421701087233E+01
 0.2349051199839E+01
 0.2271399289786E+01
 0.2190877947136E+01
 0.2109944615943E+01
 0.2031384767061E+01
 0.1958344543985E+01
 0.1894366788962E+01
 0.1843447398432E+01
 0.1810131535980E+01
 0.1799622293789E+01
 0.1817800379882E+01
 0.1871000189093E+01
 0.1965423407968E+01
 0.2106232882815E+01
 0.2296594496826E+01
 0.2537040804033E+01
 0.2825250348269E+01
 0.3156101829877E+01
 0.3521969866016E+01
 0.3913172201582E+01
 0.4318532158071E+01
 0.4726049426062E+01
 0.5123627257282E+01
 0.5499813457819E+01
 0.5844446649858E+01
 0.2405806533942E+01
 0.2464205652330E+01
 0.2521326857672E+01
 0.2574833982829E+01
 0.2622529390479E+01
 0.2662462630566E+01
 0.2693017218519E+01
 0.2712960422342E+01
 0.2721454498499E+01
 0.2718037898086E+01
 0.2702590213579E+01
 0.2675294877566E+01
 0.2636609844017E+01
 0.2587251913955E+01
 0.2528198192250E+01
 0.2460694969507E+01
 0.2386274889218E+01
 0.2306777193023E+01
 0.2224358548468E+01
 0.2141499151787E+01
 0.2061010887220E+01
 0.1986067542554E+01
 0.1920230878506E+01
 0.1867503811248E+01
 0.1832428058653E+01
 0.1820195513671E+01
 0.1836672977162E+01
 0.1888187182379E+01
 0.1980949473856E+01
 0.2120156418226E+01
 0.2309027233467E+01
 0.2548152905307E+01
 0.2835261046258E+01
 0.3165260894183E+01
 0.3530534619005E+01
 0.3921383942085E+01
 0.4326593900308E+01
 0.4734106055537E+01
 0.5131749304382E+01
 0.5507985998386E+01
 0.5852565019915E+01
 0.2448089949191E+01
 0.2507294768896E+01
 0.2565422219197E+01
 0.2620012288323E+01
 0.2668740416563E+01
 0.2709544531210E+01
 0.2740724497238E+01
 0.2760996965033E+01
 0.2769504803723E+01
 0.2765791983050E+01
 0.2749760367949E+01
 0.2721624606913E+01
 0.2681876618869E+01
 0.2631265798224E+01
 0.2570798352134E+01
 0.2501745435954E+01
 0.2425660555169E+01
 0.2344400499925E+01
 0.2260136759575E+01
 0.2175363297003E+01
 0.2092910605983E+01
 0.2015973192270E+01
 0.1948123910918E+01
 0.1893363030676E+01
 0.1856217626039E+01
 0.1841857397649E+01
 0.1856128371628E+01
 0.1905353257225E+01
 0.1995774312852E+01
 0.2132664526366E+01
 0.2319357490111E+01
 0.2556572371250E+01
 0.2842152004350E+01
 0.3171087298525E+01
 0.3535795200059E+01
 0.3926558919044E+01
 0.4332090805559E+01
 0.4740210123169E+01
 0.5138584176193E+01
 0.5515490036626E+01
 0.5860487038190E+01
 0.2490625074644E+01
 0.2550814795218E+01
 0.2610124600282E+01
 0.2665963221849E+01
 0.2715872435373E+01
 0.2757675043923E+01
 0.2789588108428E+01
 0.2810282403460E+01
 0.2818888519158E+01
 0.2814963508137E+01
 0.2798437818444E+01
 0.2769561187606E+01
 0.2728860358770E+01
 0.2677115122122E+01
 0.2615355877573E+01
 0.2544871619382E+01
 0.2467228263849E+01
 0.2384290933129E+01
 0.2298236501192E+01
 0.2211563550553E+01
 0.2127113246590E+01
 0.2048093789127E+01
 0.1978081249822E+01
 0.1921063595119E+01
 0.1881542130039E+01
 0.1864653377692E+01
 0.1876215385572E+01
 0.1922549503544E+01
 0.2009948605322E+01
 0.2143803316247E+01
 0.2327622154311E+01
 0.2562323223785E+01
 0.2845933006414E+01
 0.3173578099306E+01
 0.3537740273156E+01
 0.3928683999327E+01
 0.4335015889635E+01
 0.4744369000161E+01
 0.5144161007449E+01
 0.5522382295376E+01
 0.5868300946061E+01
 0.2533447180287E+01
 0.2594808512504E+01
 0.2655484366130E+01
 0.2712743030713E+01
 0.2763984488552E+01
 0.2806912337372E+01
 0.2839661975328E+01
 0.2860863984504E+01
 0.2869645013787E+01
 0.2865583951166E+01
 0.2848647074865E+01
 0.2819123688478E+01
 0.2777576505766E+01
 0.2724813552863E+01
 0.2661884384822E+01
 0.2590088593151E+01
 0.2510995812074E+01
 0.2426470050990E+01
 0.2338683930734E+01
 0.2250131329606E+01
 0.2163656002136E+01
 0.2082472716798E+01
 0.2010152824159E+01
 0.1950662319063E+01
 0.1908465606423E+01
 0.1888654873457E+01
 0.1897012276049E+01
 0.1939858859306E+01
 0.2023555411672E+01
 0.2153649143666E+01
 0.2333883249021E+01
 0.2565446969353E+01
 0.2846622304238E+01
 0.3172730078763E+01
 0.3536351488623E+01
 0.3927735734372E+01
 0.4335352803655E+01
 0.4746585888106E+01
 0.5148513365836E+01
 0.5528734471527E+01
 0.5876120653179E+01
 0.2576591781863E+01
 0.2639319199578E+01
 0.2701552611741E+01
 0.2760408588557E+01
 0.2813135612851E+01
 0.2857313416290E+01
 0.2890997338586E+01
 0.2912784647187E+01
 0.2921807865704E+01
 0.2917677845712E+01
 0.2900404987997E+01
 0.2870323284601E+01
 0.2828032849595E+01
 0.2774367794770E+01
 0.2710391626618E+01
 0.2637407037739E+01
 0.2556978412107E+01
 0.2470958948488E+01
 0.2381507160628E+01
 0.2291102711957E+01
 0.2202583713773E+01
 0.2119164274045E+01
 0.2044403014656E+01
 0.1982234240086E+01
 0.1937074238049E+01
 0.1913959358289E+01
 0.1918626909323E+01
 0.1957396492418E+01
 0.2036710876521E+01
 0.2162309678221E+01
 0.2338229252966E+01
 0.2566003923544E+01
 0.2844247648665E+01
 0.3168540243334E+01
 0.3531603341145E+01
 0.3923679626684E+01
 0.4333074690201E+01
 0.4746858512403E+01
 0.5151678011196E+01
 0.5534632196412E+01
 0.5884084896147E+01
 0.2620094959508E+01
 0.2684391075246E+01
 0.2748381702520E+01
 0.2809017951833E+01
 0.2863385306629E+01
 0.2908934411709E+01
 0.2943642831005E+01
 0.2966082892244E+01
 0.2975404570174E+01
 0.2971262383063E+01
 0.2953720295710E+01
 0.2923162784350E+01
 0.2880229058021E+01
 0.2825777133509E+01
 0.2760879053058E+01
 0.2686832816446E+01
 0.2605188278630E+01
 0.2517777852999E+01
 0.2426735864587E+01
 0.2334518061183E+01
 0.2243948529757E+01
 0.2158233386261E+01
 0.2080910434574E+01
 0.2015872479069E+01
 0.1967476301385E+01
 0.1940690414535E+01
 0.1941196995520E+01
 0.1975310350451E+01
 0.2049565249119E+01
 0.2169925454005E+01
 0.2340777037697E+01
 0.2564075189468E+01
 0.2838847882321E+01
 0.3161006676113E+01
 0.3523463114213E+01
 0.3916469230898E+01
 0.4328142707910E+01
 0.4745177440891E+01
 0.5153693351743E+01
 0.5540173840852E+01
 0.5892356413500E+01
 0.2663993729907E+01
 0.2730069816164E+01
 0.2796025904512E+01
 0.2858630999677E+01
 0.2914794051318E+01
 0.2961830884657E+01
 0.2997644524585E+01
 0.3020792593190E+01
 0.3030456172056E+01
 0.3026346932566E+01
 0.3008593087645E+01
 0.2977636076620E+01
 0.2934156127335E+01
 0.2879032897953E+01
 0.2813341285261E+01
 0.2738366457401E+01
 0.2655634114398E+01
 0.2566945610408E+01
 0.2474400765884E+01
 0.2380421526689E+01
 0.2287809435511E+01
 0.2199755189601E+01
 0.2119767592545E+01
 0.2051688001987E+01
 0.1999802045887E+01
 0.1968997767364E+01
 0.1964890368307E+01
 0.1993781855647E+01
 0.2062304195033E+01
 0.2176671892045E+01
 0.2341674439735E+01
 0.2559765343456E+01
 0.2830475169884E+01
 0.3150129818559E+01
 0.3511890963398E+01
 0.3906045108380E+01
 0.4320504214983E+01
 0.4741524005993E+01
 0.5154597579062E+01
 0.5545469158903E+01
 0.5901121152388E+01
 0.2708326481851E+01
 0.2776403165427E+01
 0.2844542122329E+01
 0.2909310172875E+01
 0.2967423896693E+01
 0.3016058144303E+01
 0.3053045945585E+01
 0.3076942743598E+01
 0.3086976819898E+01
 0.3082932482195E+01
 0.3065014194876E+01
 0.3033727508223E+01
 0.2989795765423E+01
 0.2934117853352E+01
 0.2867765516106E+01
 0.2792002556350E+01
 0.2708320509009E+01
 0.2618479075603E+01
 0.2524533020610E+01
 0.2428860429970E+01
 0.2334231663802E+01
 0.2243814494611E+01
 0.2161080442694E+01
 0.2089809287654E+01
 0.2034203510097E+01
 0.1999057298521E+01
 0.1989905303846E+01
 0.2013026728094E+01
 0.2075150375184E+01
 0.2182761782468E+01
 0.2341103491229E+01
 0.2553205896433E+01
 0.2819197964841E+01
 0.3135914280245E+01
 0.3496840206454E+01
 0.3892333656901E+01
 0.4310090594144E+01
 0.4735867798529E+01
 0.5154426460172E+01
 0.5550637762165E+01
 0.5910587533792E+01
 0.2753133486350E+01
 0.2823441647823E+01
 0.2893990762052E+01
 0.2961121323712E+01
 0.3021339110571E+01
 0.3071671569290E+01
 0.3109888038287E+01
 0.3134557118741E+01
 0.3144973221818E+01
 0.3141010983374E+01
 0.3122964492403E+01
 0.3091411181698E+01
 0.3047119698331E+01
 0.2991005516227E+01
 0.2924130827227E+01
 0.2847729088083E+01
 0.2763247237274E+01
 0.2672392392292E+01
 0.2577163479009E+01
 0.2479884517763E+01
 0.2383285962929E+01
 0.2290505104423E+01
 0.2204967794940E+01
 0.2130381873318E+01
 0.2070854246183E+01
 0.2031071010660E+01
 0.2016470844526E+01
 0.2033295892912E+01
 0.2088365242730E+01
 0.2188448193278E+01
 0.2339284323974E+01
 0.2544559610351E+01
 0.2805104841080E+01
 0.3118371312971E+01
 0.3478257919340E+01
 0.3875245850398E+01
 0.4296814695970E+01
 0.4728163686855E+01
 0.5153210746269E+01
 0.5555807408358E+01
 0.5920985736821E+01
 0.2798457496369E+01
 0.2871239413270E+01
 0.2944436742862E+01
 0.3014134693616E+01
 0.3076606896295E+01
 0.3128726921807E+01
 0.3168209058772E+01
 0.3193653831953E+01
 0.3204443987769E+01
 0.3200564590897E+01
 0.3182414110760E+01
 0.3150650173186E+01
 0.3106088901216E+01
 0.3049659391474E+01
 0.2982407421695E+01
 0.2905526624683E+01
 0.2820408454331E+01
 0.2728696158262E+01
 0.2632321819552E+01
 0.2533545074661E+01
 0.2435047712728E+01
 0.2339928974251E+01
 0.2251560569378E+01
 0.2173567760001E+01
 0.2109948933895E+01
 0.2065266921839E+01
 0.2044847101872E+01
 0.2054876434718E+01
 0.2102251011625E+01
 0.2194027773006E+01
 0.2336479767787E+01
 0.2534025772443E+01
 0.2788309361300E+01
 0.3097522139816E+01
 0.3456085985555E+01
 0.3854675951693E+01
 0.4280567883066E+01
 0.4718348311767E+01
 0.5150973168332E+01
 0.5561112073476E+01
 0.5932567059566E+01
 0.2844344454416E+01
 0.2919855236387E+01
 0.2995950688557E+01
 0.3068426041417E+01
 0.3133298184318E+01
 0.3187280645168E+01
 0.3228044381960E+01
 0.3254244770711E+01
 0.3265378851182E+01
 0.3261564800590E+01
 0.3243321567434E+01
 0.3211395686148E+01
 0.3166652771583E+01
 0.3110032149801E+01
 0.3042555789785E+01
 0.2965367477300E+01
 0.2879791803735E+01
 0.2787396491874E+01
 0.2690035570641E+01
 0.2589893908136E+01
 0.2489595898184E+01
 0.2392195217716E+01
 0.2301000895353E+01
 0.2219544673381E+01
 0.2151702875426E+01
 0.2101898877184E+01
 0.2075325517385E+01
 0.2078092561989E+01
 0.2117152740417E+01
 0.2199844392902E+01
 0.2333000640596E+01
 0.2521846520874E+01
 0.2768956168445E+01
 0.3073402359798E+01
 0.3430262772433E+01
 0.3830500263040E+01
 0.4261216629275E+01
 0.4706335972341E+01
 0.5147724969726E+01
 0.5566689789179E+01
 0.5945603269868E+01
 0.2890844330972E+01
 0.2969353704860E+01
 0.3048610332797E+01
 0.3124077941758E+01
 0.3191488493333E+01
 0.3247390118736E+01
 0.3289426185388E+01
 0.3316334877658E+01
 0.3327757743945E+01
 0.3323971468688E+01
 0.3305632809529E+01
 0.3273586135810E+01
 0.3228748239708E+01
 0.3172064738125E+01
 0.3104525797438E+01
 0.3027214748338E+01
 0.2941377423513E+01
 0.2848493983438E+01
 0.2750329002122E+01
 0.2648982185979E+01
 0.2547011917377E+01
 0.2447418932391E+01
 0.2353441022585E+01
 0.2268505142614E+01
 0.2196351329955E+01
 0.2141246234372E+01
 0.2108229034473E+01
 0.2103306523393E+01
 0.2133460455344E+01
 0.2206293052150E+01
 0.2329211711310E+01
 0.2508314326363E+01
 0.2747228539110E+01
 0.3046067734870E+01
 0.3400725698688E+01
 0.3802576038678E+01
 0.4238598635336E+01
 0.4692013795092E+01
 0.5143461932546E+01
 0.5572680210930E+01
 0.5960385851913E+01
 0.2938012123507E+01
 0.3019806640592E+01
 0.3102502184354E+01
 0.3181181281998E+01
 0.3251258859935E+01
 0.3309113845121E+01
 0.3352382976504E+01
 0.3379921250302E+01
 0.3391549713357E+01
 0.3387731716730E+01
 0.3369280182398E+01
 0.3337146184775E+01
 0.3292298837966E+01
 0.3235685443335E+01
 0.3168255715638E+01
 0.3091021310606E+01
 0.3005136866142E+01
 0.2911982547682E+01
 0.2813221903011E+01
 0.2710859141667E+01
 0.2607378236659E+01
 0.2505719852801E+01
 0.2409042046008E+01
 0.2320655390943E+01
 0.2244148673993E+01
 0.2183613402848E+01
 0.2143912154609E+01
 0.2130919433953E+01
 0.2151611241367E+01
 0.2213823953533E+01
 0.2325538284503E+01
 0.2493780713639E+01
 0.2723357656318E+01
 0.3015601724710E+01
 0.3367415029082E+01
 0.3770740724078E+01
 0.4212518395155E+01
 0.4675236013447E+01
 0.5138159848574E+01
 0.5579221923254E+01
 0.5977224940872E+01
 0.2985909053501E+01
 0.3071294807875E+01
 0.3157723506312E+01
 0.3239836984647E+01
 0.3312696823603E+01
 0.3372511525760E+01
 0.3416938910995E+01
 0.3444992017461E+01
 0.3456711657958E+01
 0.3452778716392E+01
 0.3434181330153E+01
 0.3401985740353E+01
 0.3357213739041E+01
 0.3300808915772E+01
 0.3233671192614E+01
 0.3156728711797E+01
 0.3071031929044E+01
 0.2977848173571E+01
 0.2878728241736E+01
 0.2775570643147E+01
 0.2670776885991E+01
 0.2567220818970E+01
 0.2467972425006E+01
 0.2376214009318E+01
 0.2295367349153E+01
 0.2229329191250E+01
 0.2182760827510E+01
 0.2161371950096E+01
 0.2172091210893E+01
 0.2222946625245E+01
 0.2322473310456E+01
 0.2478666278438E+01
 0.2697633888896E+01
 0.2982125231185E+01
 0.3330279363130E+01
 0.3734811788967E+01
 0.4182742145359E+01
 0.4655817079060E+01
 0.5131769373340E+01
 0.5586449533753E+01
 0.5996447484237E+01
 0.3034604010266E+01
 0.3123909977109E+01
 0.3214384673970E+01
 0.3300157980832E+01
 0.3375897438110E+01
 0.3437643957752E+01
 0.3483112827377E+01
 0.3511524933629E+01
 0.3523186847550E+01
 0.3519030339994E+01
 0.3500238025437E+01
 0.3467998914120E+01
 0.3423386760435E+01
 0.3367335143274E+01
 0.3300684152274E+01
 0.3224265981550E+01
 0.3139013369145E+01
 0.3046067543639E+01
 0.2946854680750E+01
 0.2843157596135E+01
 0.2737287763075E+01
 0.2632046024251E+01
 0.2530406252941E+01
 0.2435410358237E+01
 0.2350296530951E+01
 0.2278745888348E+01
 0.2225192098469E+01
 0.2195144713480E+01
 0.2195437246274E+01
 0.2234233940696E+01
 0.2320584879642E+01
 0.2463472023096E+01
 0.2670420403559E+01
 0.2945809148265E+01
 0.3289283485721E+01
 0.3694587616386E+01
 0.4148992186974E+01
 0.4633523178502E+01
 0.5124210138327E+01
 0.5594490840866E+01
 0.6018393362569E+01
 0.3084175306224E+01
 0.3177757436142E+01
 0.3272611997856E+01
 0.3362271469129E+01
 0.3440964275178E+01
 0.3504572675931E+01
 0.3550916922145E+01
 0.3579485644230E+01
 0.3590903215910E+01
 0.3586387693107E+01
 0.3567334960789E+01
 0.3535062981445E+01
 0.3490695371243E+01
 0.3435148406187E+01
 0.3369191642775E+01
 0.3293548360105E+01
 0.3209019518754E+01
 0.3116606541442E+01
 0.3017598966938E+01
 0.2913654205526E+01
 0.2806986769806E+01
 0.2700319062252E+01
 0.2596521288178E+01
 0.2498482694812E+01
 0.2409240497228E+01
 0.2332238038337E+01
 0.2271653462430E+01
 0.2232758504557E+01
 0.2222238426200E+01
 0.2248325874002E+01
 0.2320523891882E+01
 0.2448791934294E+01
 0.2642169395567E+01
 0.2906890377437E+01
 0.3244419409815E+01
 0.3649850123765E+01
 0.4110940648098E+01
 0.4608061427091E+01
 0.5115363804405E+01
 0.5603464760771E+01
 0.6043406715019E+01
 0.3134712828922E+01
 0.3232959065395E+01
 0.3332551114063E+01
 0.3426321486374E+01
 0.3508010353354E+01
 0.3573359222824E+01
 0.3620354955365E+01
 0.3648825551938E+01
 0.3659771400362E+01
 0.3654733534511E+01
 0.3635338521805E+01
 0.3603037363589E+01
 0.3558999718321E+01
 0.3504116220632E+01
 0.3439074631640E+01
 0.3364475936001E+01
 0.3280974785442E+01
 0.3189418629413E+01
 0.3090948182386E+01
 0.2987086081927E+01
 0.2879943768476E+01
 0.2772160757069E+01
 0.2666496722144E+01
 0.2565675984853E+01
 0.2472516633935E+01
 0.2390200825396E+01
 0.2322621825837E+01
 0.2274774004240E+01
 0.2253137017231E+01
 0.2265932797447E+01
 0.2323031617062E+01
 0.2435326614783E+01
 0.2613441183803E+01
 0.2865692109703E+01
 0.3195721648717E+01
 0.3600370252583E+01
 0.4068203039862E+01
 0.4579065689074E+01
 0.5105065120689E+01
 0.5613482085310E+01
 0.6071814017545E+01
 0.3186320708301E+01
 0.3289657129958E+01
 0.3394371078123E+01
 0.3492471824311E+01
 0.3577158903808E+01
 0.3644063908197E+01
 0.3691419874240E+01
 0.3719479233843E+01
 0.3729682538002E+01
 0.3723930632396E+01
 0.3704095609378E+01
 0.3671762703944E+01
 0.3628141739505E+01
 0.3574088329696E+01
 0.3510196798028E+01
 0.3436932236856E+01
 0.3354788078737E+01
 0.3264443144884E+01
 0.3166876912249E+01
 0.3063468259599E+01
 0.2956220431402E+01
 0.2847686853327E+01
 0.2740510756219E+01
 0.2637239456621E+01
 0.2540453108152E+01
 0.2453048063629E+01
 0.2378602043796E+01
 0.2321791118094E+01
 0.2288828965676E+01
 0.2287838166118E+01
 0.2328946821618E+01
 0.2423897640546E+01
 0.2584926247912E+01
 0.2822649284076E+01
 0.3143287909644E+01
 0.3545917561028E+01
 0.4020333569784E+01
 0.4546075924755E+01
 0.5093090741569E+01
 0.5624653651751E+01
 0.6103860669986E+01
 0.3239120666804E+01
 0.3348018958571E+01
 0.3458269325616E+01
 0.3560909290699E+01
 0.3648543796862E+01
 0.3716743830175E+01
 0.3764090666766E+01
 0.3791361303006E+01
 0.3800505780043E+01
 0.3793820055157E+01
 0.3773432519949E+01
 0.3741060042168E+01
 0.3697944354014E+01
 0.3644895713972E+01
 0.3582403272846E+01
 0.3510782705056E+01
 0.3430351082849E+01
 0.3341603429141E+01
 0.3245345246632E+01
 0.3142803047028E+01
 0.3035867908964E+01
 0.2927005491290E+01
 0.2818737906152E+01
 0.2713423797601E+01
 0.2613386079581E+01
 0.2521209624744E+01
 0.2440124832528E+01
 0.2374447658342E+01
 0.2330063701121E+01
 0.2314900356173E+01
 0.2339212056731E+01
 0.2415462114322E+01
 0.2557470232308E+01
 0.2778339942467E+01
 0.3087307867274E+01
 0.3486273289466E+01
 0.3966828240364E+01
 0.4508510393071E+01
 0.5079125507122E+01
 0.5637167150899E+01
 0.6139445012544E+01
 0.3293256342362E+01
 0.3408242601446E+01
 0.3524477827430E+01
 0.3631847246107E+01
 0.3722309403382E+01
 0.3791449876471E+01
 0.3838328246067E+01
 0.3864362632893E+01
 0.3872085529035E+01
 0.3864219443157E+01
 0.3843153940033E+01
 0.3810730136550E+01
 0.3768210766941E+01
 0.3716349640160E+01
 0.3655519324207E+01
 0.3585873036226E+01
 0.3507536340901E+01
 0.3420804753285E+01
 0.3326296588758E+01
 0.3225077693236E+01
 0.3118924311247E+01
 0.3010214470098E+01
 0.2901346036288E+01
 0.2794477981935E+01
 0.2691656404760E+01
 0.2595128207116E+01
 0.2507743906775E+01
 0.2433417207396E+01
 0.2377643089988E+01
 0.2348053473064E+01
 0.2354878708166E+01
 0.2411126773206E+01
 0.2532101426629E+01
 0.2733524001773E+01
 0.3028100075505E+01
 0.3421257491215E+01
 0.3907109168704E+01
 0.4465713107329E+01
 0.5062538735768E+01
 0.5651711258241E+01
 0.6177026385004E+01
 0.3348903750547E+01
 0.3470587213675E+01
 0.3593311932465E+01
 0.3705591740943E+01
 0.3798693119020E+01
 0.3868325454513E+01
 0.3914190644415E+01
 0.3938481906730E+01
 0.3944389017677E+01
 0.3935086553984E+01
 0.3913223062157E+01
 0.3880751556326E+01
 0.3838942670219E+01
 0.3788482641357E+01
 0.3729617068419E+01
 0.3662324527358E+01
 0.3586523717240E+01
 0.3502293562829E+01
 0.3410050290967E+01
 0.3310689952039E+01
 0.3205871785401E+01
 0.3097887556114E+01
 0.2989008486114E+01
 0.2881182047928E+01
 0.2776155412991E+01
 0.2675807290192E+01
 0.2582571493214E+01
 0.2499913102916E+01
 0.2432869693309E+01
 0.2388670508421E+01
 0.2377352680639E+01
 0.2412246276138E+01
 0.2509960074095E+01
 0.2688894234163E+01
 0.2965698778430E+01
 0.3350191105131E+01
 0.3840000231402E+01
 0.4416396685667E+01
 0.5042794809162E+01
 0.5667148204421E+01
 0.6225829702316E+01
 0.3406262584075E+01
 0.3535336381395E+01
 0.3665094564629E+01
 0.3782420442094E+01
 0.3877856702906E+01
 0.3947395186745E+01
 0.3991585907962E+01
 0.4013548080898E+01
 0.4017200784411E+01
 0.4006185454143E+01
 0.3983397088870E+01
 0.3950881574482E+01
 0.3909901571308E+01
 0.3861064796146E+01
 0.3804481258444E+01
 0.3739944599625E+01
 0.3667152087749E+01
 0.3585948345406E+01
 0.3496531468276E+01
 0.3399618350424E+01
 0.3296750427656E+01
 0.3190137047449E+01
 0.3081922602061E+01
 0.2973832300577E+01
 0.2867292268718E+01
 0.2763782368324E+01
 0.2665282698079E+01
 0.2574763831960E+01
 0.2496740278434E+01
 0.2437930928097E+01
 0.2407998717033E+01
 0.2420327504296E+01
 0.2492550177749E+01
 0.2645675571078E+01
 0.2900717677750E+01
 0.3272872208734E+01
 0.3764559197581E+01
 0.4359349902531E+01
 0.5018822586080E+01
 0.5684132594252E+01
 0.6286604121682E+01
 0.3465577947630E+01
 0.3602818654746E+01
 0.3740178928431E+01
 0.3862596778556E+01
 0.3959890845816E+01
 0.4028563541689E+01
 0.4070269536817E+01
 0.4089219269446E+01
 0.4090123411681E+01
 0.4077088287155E+01
 0.4053228824694E+01
 0.4020656359057E+01
 0.3980606413200E+01
 0.3933597678147E+01
 0.3879598609752E+01
 0.3818210819214E+01
 0.3748897740852E+01
 0.3671252420639E+01
 0.3585238355947E+01
 0.3491384417681E+01
 0.3391115742752E+01
 0.3286566723672E+01
 0.3179758589537E+01
 0.3072186902660E+01
 0.2964937865917E+01
 0.2859065782459E+01
 0.2756065275322E+01
 0.2658373295157E+01
 0.2569923825344E+01
 0.2496825972375E+01
 0.2448187403313E+01
 0.2437142516909E+01
 0.2481955496759E+01
 0.2605977303447E+01
 0.2834834582331E+01
 0.3190121988277E+01
 0.3680632811869E+01
 0.4293740732986E+01
 0.4989826458938E+01
 0.5703232978378E+01
 0.6354820752466E+01
 0.3527150902606E+01
 0.3673458191789E+01
 0.3819028324251E+01
 0.3946478450637E+01
 0.4044954874873E+01
 0.4111791048044E+01
 0.4150060051119E+01
 0.4165236993877E+01
 0.4162868289239E+01
 0.4147501139832E+01
 0.4122428064794E+01
 0.4089790172138E+01
 0.4050774298368E+01
 0.4005801178127E+01
 0.3954695579821E+01
 0.3896864189880E+01
 0.3831526776777E+01
 0.3758007381607E+01
 0.3676016518612E+01
 0.3585884956135E+01
 0.3488924105607E+01
 0.3387203623887E+01
 0.3282627993083E+01
 0.3176457436427E+01
 0.3069420472599E+01
 0.2962120843270E+01
 0.2855539012488E+01
 0.2751543773226E+01
 0.2653437162397E+01
 0.2566626380646E+01
 0.2499487311707E+01
 0.2464583115772E+01
 0.2480324992739E+01
 0.2571931966563E+01
 0.2769653557966E+01
 0.3102485416806E+01
 0.3587535378330E+01
 0.4218085593240E+01
 0.4954596004130E+01
 0.5723812504546E+01
 0.6431529543690E+01
 0.3591353203866E+01
 0.3747777995357E+01
 0.3902197851605E+01
 0.4034464377237E+01
 0.4133190162060E+01
 0.4196984088226E+01
 0.4230713667654E+01
 0.4241289142326E+01
 0.4235106612966E+01
 0.4217101374442E+01
 0.4190683146960E+01
 0.4157978818153E+01
 0.4120103272602E+01
 0.4077372914617E+01
 0.4029471851105E+01
 0.3975614758888E+01
 0.3914771873669E+01
 0.3845981140209E+01
 0.3768679212518E+01
 0.3682986503868E+01
 0.3590103767864E+01
 0.3492048818154E+01
 0.3390618551725E+01
 0.3286833815933E+01
 0.3181049087549E+01
 0.3073395265534E+01
 0.2964314911639E+01
 0.2855081224617E+01
 0.2748321666426E+01
 0.2648659819524E+01
 0.2563573958458E+01
 0.2504730848648E+01
 0.2490134765627E+01
 0.2546177091751E+01
 0.2707389336013E+01
 0.3010995924674E+01
 0.3484709195333E+01
 0.4130643581432E+01
 0.4911331195169E+01
 0.5745058805954E+01
 0.6518001646497E+01
 0.3658649100704E+01
 0.3826429140089E+01
 0.3990353747782E+01
 0.4126991382715E+01
 0.4224700407548E+01
 0.4283973108428E+01
 0.4311909233721E+01
 0.4317002751320E+01
 0.4306467588949E+01
 0.4285538669343E+01
 0.4257663132166E+01
 0.4224901976506E+01
 0.4188274136887E+01
 0.4147988937686E+01
 0.4103599445860E+01
 0.4054138992786E+01
 0.3998328304794E+01
 0.3934903378489E+01
 0.3863003049961E+01
 0.3782521636447E+01
 0.3694551841586E+01
 0.3601074810858E+01
 0.3503791470683E+01
 0.3403480614313E+01
 0.3300107912332E+01
 0.3193313018908E+01
 0.3082984047437E+01
 0.2969781466527E+01
 0.2855628048304E+01
 0.2744296277127E+01
 0.2642217251344E+01
 0.2559847655147E+01
 0.2514193159542E+01
 0.2531916185508E+01
 0.2651031942733E+01
 0.2917406291245E+01
 0.3371889777046E+01
 0.4029374707023E+01
 0.4857590447892E+01
 0.5765934730070E+01
 0.6615837016498E+01
 0.3729625917604E+01
 0.3910230210231E+01
 0.4084295837478E+01
 0.4224523814219E+01
 0.4319521779038E+01
 0.4372484266590E+01
 0.4393231200502E+01
 0.4391937403180E+01
 0.4376537974617E+01
 0.4352437320896E+01
 0.4323021030172E+01
 0.4290226430407E+01
 0.4254953063368E+01
 0.4217305096222E+01
 0.4176722195079E+01
 0.4132077010042E+01
 0.4081849291190E+01
 0.4024460044401E+01
 0.3958722782065E+01
 0.3884284761002E+01
 0.3802131283753E+01
 0.3714223419272E+01
 0.3622179433683E+01
 0.3526534066181E+01
 0.3426851082151E+01
 0.3322265701751E+01
 0.3212104876271E+01
 0.3096413348005E+01
 0.2976396416838E+01
 0.2854927358492E+01
 0.2737262521530E+01
 0.2632359331212E+01
 0.2555632483937E+01
 0.2532960674217E+01
 0.2604523859655E+01
 0.2824504026659E+01
 0.3249374768842E+01
 0.3911984188572E+01
 0.4790180358228E+01
 0.5785065733925E+01
 0.6727029149914E+01
 0.3805037759621E+01
 0.4000221333733E+01
 0.4184982163009E+01
 0.4327530841338E+01
 0.4417578697275E+01
 0.4462103554873E+01
 0.4474151508379E+01
 0.4465580265001E+01
 0.4444863569993E+01
 0.4417400090958E+01
 0.4386398202172E+01
 0.4353610288560E+01
 0.4319795148018E+01
 0.4284959261989E+01
 0.4248455764286E+01
 0.4209029759518E+01
 0.4164940559571E+01
 0.4114286565122E+01
 0.4055524824600E+01
 0.3988027150524E+01
 0.3912667865887E+01
 0.3831404356390E+01
 0.3745785740127E+01
 0.3656100152807E+01
 0.3561497998684E+01
 0.3460603706168E+01
 0.3352189190098E+01
 0.3235698904937E+01
 0.3111631037384E+01
 0.2981937842636E+01
 0.2850602508302E+01
 0.2724829846241E+01
 0.2617886281828E+01
 0.2553742433785E+01
 0.2572927575388E+01
 0.2736520501042E+01
 0.3118467958192E+01
 0.3776074651130E+01
 0.4704976068813E+01
 0.5800497218315E+01
 0.6854086014914E+01
 0.3885869436891E+01
 0.4097739070612E+01
 0.4293553016816E+01
 0.4436442766109E+01
 0.4518619806431E+01
 0.4552233153041E+01
 0.4554012177804E+01
 0.4537344197768E+01
 0.4510953335521E+01
 0.4480013854371E+01
 0.4447430033310E+01
 0.4414708264624E+01
 0.4382449025078E+01
 0.4350574645064E+01
 0.4318388533728E+01
 0.4284556331648E+01
 0.4247153990281E+01
 0.4203959343398E+01
 0.4153038973589E+01
 0.4093450818802E+01
 0.4025947071455E+01
 0.3952494823622E+01
 0.3874585088390E+01
 0.3792254297967E+01
 0.3704229676223E+01
 0.3608627493271E+01
 0.3503687027370E+01
 0.3388290749747E+01
 0.3262269575596E+01
 0.3126668017369E+01
 0.2984136882768E+01
 0.2839922544537E+01
 0.2704651013927E+01
 0.2599289898883E+01
 0.2562548081663E+01
 0.2659624141002E+01
 0.2982182644335E+01
 0.3619490943946E+01
 0.4596670676588E+01
 0.5809321972010E+01
 0.7000227592664E+01
 0.3973432452781E+01
 0.4204521189191E+01
 0.4411347518526E+01
 0.4551572196023E+01
 0.4622127606511E+01
 0.4642041463444E+01
 0.4632011733818E+01
 0.4606570722584E+01
 0.4574286777521E+01
 0.4539857221103E+01
 0.4505752898479E+01
 0.4473178017696E+01
 0.4442562628828E+01
 0.4413764456230E+01
 0.4386083739830E+01
 0.4358171731865E+01
 0.4327980277331E+01
 0.4292984941951E+01
 0.4250827459933E+01
 0.4200200563034E+01
 0.4141710748606E+01
 0.4077340481065E+01
 0.4008526667683E+01
 0.3935043295870E+01
 0.3855186500046E+01
 0.3766579226505E+01
 0.3666970852644E+01
 0.3554747163116E+01
 0.3429147100560E+01
 0.3290365825228E+01
 0.3139715529070E+01
 0.2980341559458E+01
 0.2819828092626E+01
 0.2675166230898E+01
 0.2580969286491E+01
 0.2602439952233E+01
 0.2846306298094E+01
 0.3441033984594E+01
 0.4458502911678E+01
 0.5807095007574E+01
 0.7169687060849E+01
 0.4069513478242E+01
 0.4322854181824E+01
 0.4539897304276E+01
 0.4672977408873E+01
 0.4727195375642E+01
 0.4730411746482E+01
 0.4707200355953E+01
 0.4672539833328E+01
 0.4634325133838E+01
 0.4596510254346E+01
 0.4561012424700E+01
 0.4528687549690E+01
 0.4499790202514E+01
 0.4474138264135E+01
 0.4451083531087E+01
 0.4429345810891E+01
 0.4406840796391E+01
 0.4380786352592E+01
 0.4348370261567E+01
 0.4307853315109E+01
 0.4259653447406E+01
 0.4205758587349E+01
 0.4147540799308E+01
 0.4084490622204E+01
 0.4014468188927E+01
 0.3934635327383E+01
 0.3842319734243E+01
 0.3735506095922E+01
 0.3612956347115E+01
 0.3474129488929E+01
 0.3319062994979E+01
 0.3148745048970E+01
 0.2967436062477E+01
 0.2787370774506E+01
 0.2636975562618E+01
 0.2576464821893E+01
 0.2720901532684E+01
 0.3241881516393E+01
 0.4282092282061E+01
 0.5786883711087E+01
 0.7368163389017E+01
 0.4176611832677E+01
 0.4455780866497E+01
 0.4680863796644E+01
 0.4800232426725E+01
 0.4832368517250E+01
 0.4815900312097E+01
 0.4778490234964E+01
 0.4734488216543E+01
 0.4690526512237E+01
 0.4649566186912E+01
 0.4612872863233E+01
 0.4580923465623E+01
 0.4553800447943E+01
 0.4531310231453E+01
 0.4512915615965E+01
 0.4497504280664E+01
 0.4483079006407E+01
 0.4466685375241E+01
 0.4445044724969E+01
 0.4415903017860E+01
 0.4379417825637E+01
 0.4337543986268E+01
 0.4291550374630E+01
 0.4240606080334E+01
 0.4182136228961E+01
 0.4112899748724E+01
 0.4029903476303E+01
 0.3930858847754E+01
 0.3814205932896E+01
 0.3678842290531E+01
 0.3523682901455E+01
 0.3347620989997E+01
 0.3151473714545E+01
 0.2942195012318E+01
 0.2740360715824E+01
 0.2596188339906E+01
 0.2622156233710E+01
 0.3028309283876E+01
 0.4057738477462E+01
 0.5737703485786E+01
 0.7603495636899E+01
 0.4298334142538E+01
 0.4607388513280E+01
 0.4835847564981E+01
 0.4932051451117E+01
 0.4935459738517E+01
 0.4896724807858E+01
 0.4844688067302E+01
 0.4791636367742E+01
 0.4742364849718E+01
 0.4698644936262E+01
 0.4661027320499E+01
 0.4629599862762E+01
 0.4604285632874E+01
 0.4584909350822E+01
 0.4571103387113E+01
 0.4562033420411E+01
 0.4555952457914E+01
 0.4549880184475E+01
 0.4540096753511E+01
 0.4523738347960E+01
 0.4500588344776E+01
 0.4472479268315E+01
 0.4440489229970E+01
 0.4403401357986E+01
 0.4358219270142E+01
 0.4301397688406E+01
 0.4229766571529E+01
 0.4140924540903E+01
 0.4033179458883E+01
 0.3905103644805E+01
 0.3754744916538E+01
 0.3579119620862E+01
 0.3375709614127E+01
 0.3145999186355E+01
 0.2901645955669E+01
 0.2678776742786E+01
 0.2574070890275E+01
 0.2816601408699E+01
 0.3776138318158E+01
 0.5641973799374E+01
 0.7886640564132E+01
 0.4440079809352E+01
 0.4783190715503E+01
 0.5005917789726E+01
 0.5065699950216E+01
 0.5033378961734E+01
 0.4970814658350E+01
 0.4904553295140E+01
 0.4843223467807E+01
 0.4789352441423E+01
 0.4743408051051E+01
 0.4705208539350E+01
 0.4674467597505E+01
 0.4650971381509E+01
 0.4634591614725E+01
 0.4625180482800E+01
 0.4622290994954E+01
 0.4624627867443E+01
 0.4629417554993E+01
 0.4632599597753E+01
 0.4630609048501E+01
 0.4622682210930E+01
 0.4610351560117E+01
 0.4594331002438E+01
 0.4572913961100E+01
 0.4542722307098E+01
 0.4500069378039E+01
 0.4441811587941E+01
 0.4365626735754E+01
 0.4269899812049E+01
 0.4153163534564E+01
 0.4012962093037E+01
 0.3844843953814E+01
 0.3643376700593E+01
 0.3404848167433E+01
 0.3131679060594E+01
 0.2843381733349E+01
 0.2608905702492E+01
 0.2640847416912E+01
 0.3434002201671E+01
 0.5471623669371E+01
 0.8232986319054E+01
 0.4610295134490E+01
 0.4990566237233E+01
 0.5190538353619E+01
 0.5196137690435E+01
 0.5122087773816E+01
 0.5035959315061E+01
 0.4956875500372E+01
 0.4888548277444E+01
 0.4831065610165E+01
 0.4783574269610E+01
 0.4745199787313E+01
 0.4715323517168E+01
 0.4693626621268E+01
 0.4680053496574E+01
 0.4674710198624E+01
 0.4677626653284E+01
 0.4688183842943E+01
 0.4704160022100E+01
 0.4721393853304E+01
 0.4735573197871E+01
 0.4745135402279E+01
 0.4750979646381E+01
 0.4753133362390E+01
 0.4749242251625E+01
 0.4735639919182E+01
 0.4708762460068E+01
 0.4665779951295E+01
 0.4604672222322E+01
 0.4524103336002E+01
 0.4422869578312E+01
 0.4298471040097E+01
 0.4145610053390E+01
 0.3956763791911E+01
 0.3723941277492E+01
 0.3440968600001E+01
 0.3110238101399E+01
 0.2765547340855E+01
 0.2561786979004E+01
 0.3049789455569E+01
 0.5183216935937E+01
 0.8663737635695E+01
 0.4822917376513E+01
 0.5239005178520E+01
 0.5385206179977E+01
 0.5314980278881E+01
 0.5196910564241E+01
 0.5090054301709E+01
 0.5000551298122E+01
 0.4927018000369E+01
 0.4867171668387E+01
 0.4818934744857E+01
 0.4780845474871E+01
 0.4752019212482E+01
 0.4732073178063E+01
 0.4721045666432E+01
 0.4719309062702E+01
 0.4727415654150E+01
 0.4745630025126E+01
 0.4772751399216E+01
 0.4804999005642E+01
 0.4837411997666E+01
 0.4867280629459E+01
 0.4894258524827E+01
 0.4917105546303E+01
 0.4932595335900E+01
 0.4936974055515E+01
 0.4927221322221E+01
 0.4901226874241E+01
 0.4857530738447E+01
 0.4795229803597E+01
 0.4713640339111E+01
 0.4610732045974E+01
 0.4481201735838E+01
 0.4316722484375E+01
 0.4106797758576E+01
 0.3838561942781E+01
 0.3499250859196E+01
 0.3086748220082E+01
 0.2668608278767E+01
 0.2702497435971E+01
 0.4716739261789E+01
 0.9206116085790E+01
 0.5102534943872E+01
 0.5539058881271E+01
 0.5576418762396E+01
 0.5409968964522E+01
 0.5253534957263E+01
 0.5131310028217E+01
 0.5034659751329E+01
 0.4958208764170E+01
 0.4897451422207E+01
 0.4849368229696E+01
 0.4812060580318E+01
 0.4784468825778E+01
 0.4766194444405E+01
 0.4757385530733E+01
 0.4758671504577E+01
 0.4771108085439E+01
 0.4795957814864E+01
 0.4833591986697E+01
 0.4881481232042E+01
 0.4934486384665E+01
 0.4988312001973E+01
 0.5040234308423E+01
 0.5086710530605E+01
 0.5123361004607E+01
 0.5146755458918E+01
 0.5155070704010E+01
 0.5147483929109E+01
 0.5123409131032E+01
 0.5082433039039E+01
 0.5024482918851E+01
 0.4948469379109E+01
 0.4850143341059E+01
 0.4722158180173E+01
 0.4554192179259E+01
 0.4330398023750E+01
 0.4027274692910E+01
 0.3615711769348E+01
 0.3068514030661E+01
 0.2597035421739E+01
 0.4023653158594E+01
 0.9887959840595E+01
 0.5496525197686E+01
 0.5895231596841E+01
 0.5731816351752E+01
 0.5467649257758E+01
 0.5289498930313E+01
 0.5158140376160E+01
 0.5058647257949E+01
 0.4981897451976E+01
 0.4921822964356E+01
 0.4874854092720E+01
 0.4838838348903E+01
 0.4812655539459E+01
 0.4795942514704E+01
 0.4788967916980E+01
 0.4792590255477E+01
 0.4808288365479E+01
 0.4838246115063E+01
 0.4884856789404E+01
 0.4948254453900E+01
 0.5024483770537E+01
 0.5107230621787E+01
 0.5189235992292E+01
 0.5262818705965E+01
 0.5322194264616E+01
 0.5365066655546E+01
 0.5391792391272E+01
 0.5403602091210E+01
 0.5401204381491E+01
 0.5384616590380E+01
 0.5354084089781E+01
 0.5309680995119E+01
 0.5249500331817E+01
 0.5169592311068E+01
 0.5063060882818E+01
 0.4916840225720E+01
 0.4704693660343E+01
 0.4386081874636E+01
 0.3880297599387E+01
 0.3066271510490E+01
 0.3252908260380E+01
 0.1071909710768E+02
 0.6108464543603E+01
 0.6269710511137E+01
 0.5788562950606E+01
 0.5485910454103E+01
 0.5302534521418E+01
 0.5169650888432E+01
 0.5072437219709E+01
 0.4998072348725E+01
 0.4940370982094E+01
 0.4895478304466E+01
 0.4861257348707E+01
 0.4836635971068E+01
 0.4821343302858E+01
 0.4815773572442E+01
 0.4820970200199E+01
 0.4838721068384E+01
 0.4871841993035E+01
 0.4924651258613E+01
 0.5001783343258E+01
 0.5103937252999E+01
 0.5222774886358E+01
 0.5342118771846E+01
 0.5446934220504E+01
 0.5530127643024E+01
 0.5592061739887E+01
 0.5636696713647E+01
 0.5668275559697E+01
 0.5689401990225E+01
 0.5700485205855E+01
 0.5701049703614E+01
 0.5691730066951E+01
 0.5674753633014E+01
 0.5652718640581E+01
 0.5626044898421E+01
 0.5589318680799E+01
 0.5530858353339E+01
 0.5409676390085E+01
 0.5193547005634E+01
 0.4526238834287E+01
 0.3451459747888E+01
 0.1166324337106E+02
 0.7215661239040E+01
 0.6376149266881E+01
 0.5726527878800E+01
 0.5471354105600E+01
 0.5289046721869E+01
 0.5166921069461E+01
 0.5076102713481E+01
 0.5007072008809E+01
 0.4953327044687E+01
 0.4911447414294E+01
 0.4879482814610E+01
 0.4856543254221E+01
 0.4842499144015E+01
 0.4837873140597E+01
 0.4843840120303E+01
 0.4862359323608E+01
 0.4896533474344E+01
 0.4951581239815E+01
 0.5037176243772E+01
 0.5167184292033E+01
 0.5333423041938E+01
 0.5500707778280E+01
 0.5641511695990E+01
 0.5748698801219E+01
 0.5827970270914E+01
 0.5888882561357E+01
 0.5939770133486E+01
 0.5985863501180E+01
 0.6028512256708E+01
 0.6064483922309E+01
 0.6091577819249E+01
 0.6119476232661E+01
 0.6162567009504E+01
 0.6230272913324E+01
 0.6332062111391E+01
 0.6476733650558E+01
 0.6690325886841E+01
 0.6936075411457E+01
 0.7491152379033E+01
 0.6702672104073E+01
 0.1375752383146E+02
 0.8140575322411E+00
 0.1113723278197E+01
 0.1389427276772E+01
 0.1636861794180E+01
 0.1855854155524E+01
 0.2047957491262E+01
 0.2215544429206E+01
 0.2361304868991E+01
 0.2487849602889E+01
 0.2597625182122E+01
 0.2693078887231E+01
 0.2775655716860E+01
 0.2847234177182E+01
 0.2911049218239E+01
 0.2969085667591E+01
 0.3021495739201E+01
 0.3067463292674E+01
 0.3105792106044E+01
 0.3135997440706E+01
 0.3158695997579E+01
 0.7898631068120E+00
 0.1106456755646E+01
 0.1395269534290E+01
 0.1654046694950E+01
 0.1883026790540E+01
 0.2084145913760E+01
 0.2260153295545E+01
 0.2414006414373E+01
 0.2548502567877E+01
 0.2666280238472E+01
 0.2769834658360E+01
 0.2860799769279E+01
 0.2941483177334E+01
 0.3014965692239E+01
 0.3083036687056E+01
 0.3146293426883E+01
 0.3204364211650E+01
 0.3256545408375E+01
 0.3299416437033E+01
 0.3327685997003E+01
 0.7664203785231E+00
 0.1100263759342E+01
 0.1402110375527E+01
 0.1671575658936E+01
 0.1909874630565E+01
 0.2119429599625E+01
 0.2303329918172E+01
 0.2464784612396E+01
 0.2606804137879E+01
 0.2732181373205E+01
 0.2843492763687E+01
 0.2942726564108E+01
 0.3032345084144E+01
 0.3115269948308E+01
 0.3193356603916E+01
 0.3267374276558E+01
 0.3337170833693E+01
 0.3401386407986E+01
 0.3456002736875E+01
 0.3498271879731E+01
 0.7440997571726E+00
 0.1094815536337E+01
 0.1409446649126E+01
 0.1689102130695E+01
 0.1936103911745E+01
 0.2153499680728E+01
 0.2344742381608E+01
 0.2513294483465E+01
 0.2662371866089E+01
 0.2794925503092E+01
 0.2913670466396E+01
 0.3020876159817E+01
 0.3119115593590E+01
 0.3211196300171E+01
 0.3299001111121E+01
 0.3383384656614E+01
 0.3464109921504E+01
 0.3539567688446E+01
 0.3606516301946E+01
 0.3662739612971E+01
 0.7230174390972E+00
 0.1090025395104E+01
 0.1416958207216E+01
 0.1706283444350E+01
 0.1961402107547E+01
 0.2186045192781E+01
 0.2384067141253E+01
 0.2559191607450E+01
 0.2714837638715E+01
 0.2854122364245E+01
 0.2979906952565E+01
 0.3094688245491E+01
 0.3201120496822E+01
 0.3301916791689E+01
 0.3398951857594E+01
 0.3493076726879E+01
 0.3584008205051E+01
 0.3670230064946E+01
 0.3748970538543E+01
 0.3817920839441E+01
 0.7032485361771E+00
 0.1085797992108E+01
 0.1424411188266E+01
 0.1722818395768E+01
 0.1985461098160E+01
 0.2216758935173E+01
 0.2420987975414E+01
 0.2602142407933E+01
 0.2763844032803E+01
 0.2909374084631E+01
 0.3041734952887E+01
 0.3163603621009E+01
 0.3277690718375E+01
 0.3386625147026E+01
 0.3492244675703E+01
 0.3595383357551E+01
 0.3695774362228E+01
 0.3791994771806E+01
 0.3881475602476E+01
 0.3961504022808E+01
 0.6848516600483E+00
 0.1082042916187E+01
 0.1431602877979E+01
 0.1738441429532E+01
 0.2007991548967E+01
 0.2245344852388E+01
 0.2455200588737E+01
 0.2641826488185E+01
 0.2809043479229E+01
 0.2960289324650E+01
 0.3098695154768E+01
 0.3227077514070E+01
 0.3348181610714E+01
 0.3464558103740E+01
 0.3577998066824E+01
 0.3689321238379E+01
 0.3798277540019E+01
 0.3903480059416E+01
 0.4002359478955E+01
 0.4091678334388E+01
 0.6678785474163E+00
 0.1078674821576E+01
 0.1438351938321E+01
 0.1752913550670E+01
 0.2028726996881E+01
 0.2271524693329E+01
 0.2486417109577E+01
 0.2677939690201E+01
 0.2850104062491E+01
 0.3006492539468E+01
 0.3150348545979E+01
 0.3284593364221E+01
 0.3411988210399E+01
 0.3535010992187E+01
 0.3655403046798E+01
 0.3773963630481E+01
 0.3890438108997E+01
 0.4003413623017E+01
 0.4110199150058E+01
 0.4207001217883E+01
 0.6523766524013E+00
 0.1075615396054E+01
 0.1444494801050E+01
 0.1766019449169E+01
 0.2047424814621E+01
 0.2295042143224E+01
 0.2514370354914E+01
 0.2710198582033E+01
 0.2886715526723E+01
 0.3047632546388E+01
 0.3196286795899E+01
 0.3335674466416E+01
 0.3468557284461E+01
 0.3597344281157E+01
 0.3723723405528E+01
 0.3848461945861E+01
 0.3971274822377E+01
 0.4090678557076E+01
 0.4203802424848E+01
 0.4306318481812E+01
 0.6383897970944E+00
 0.1072794355103E+01
 0.1449885051582E+01
 0.1777566667211E+01
 0.2063867225645E+01
 0.2315665643422E+01
 0.2538817705376E+01
 0.2738345066362E+01
 0.2918595165134E+01
 0.3083390048057E+01
 0.3236140980637E+01
 0.3379893345356E+01
 0.3517395984039E+01
 0.3650990413632E+01
 0.3782306260951E+01
 0.3912066143356E+01
 0.4039933156967E+01
 0.4164326924583E+01
 0.4282177169234E+01
 0.4388676274377E+01
 0.6259580247802E+00
 0.1070150073327E+01
 0.1454393649141E+01
 0.1787385842705E+01
 0.2077862434291E+01
 0.2333190762988E+01
 0.2559544521265E+01
 0.2762150735005E+01
 0.2945493238729E+01
 0.3113484193530E+01
 0.3269588886842E+01
 0.3416879334940E+01
 0.3558079371021E+01
 0.3695462175289E+01
 0.3830593639756E+01
 0.3964140851799E+01
 0.4095700896694E+01
 0.4223585118751E+01
 0.4344525882348E+01
 0.4453314075475E+01
 0.6151172456882E+00
 0.1067629979270E+01
 0.1457909461580E+01
 0.1795331382080E+01
 0.2089245863258E+01
 0.2347442289488E+01
 0.2576367131652E+01
 0.2781420716002E+01
 0.2967197685648E+01
 0.3137678074940E+01
 0.3296360958833E+01
 0.3446324801974E+01
 0.3590257168548E+01
 0.3730360614659E+01
 0.3868132378308E+01
 0.4004176393648E+01
 0.4138017004298E+01
 0.4267858200494E+01
 0.4390256147930E+01
 0.4499691784268E+01
 0.6058988636500E+00
 0.1065190804046E+01
 0.1460339849687E+01
 0.1801282259890E+01
 0.2097881365489E+01
 0.2358276068898E+01
 0.2589135391765E+01
 0.2795996943823E+01
 0.2983538059704E+01
 0.3155783218310E+01
 0.3316245113263E+01
 0.3467990303467E+01
 0.3613659548972E+01
 0.3755381750515E+01
 0.3894581675906E+01
 0.4031796102258E+01
 0.4166476801430E+01
 0.4296732298588E+01
 0.4418979142868E+01
 0.4527483635054E+01
 0.5983294705685E+00
 0.1062798728796E+01
 0.1461611191751E+01
 0.1805142771638E+01
 0.2103662293463E+01
 0.2365580534828E+01
 0.2597734752118E+01
 0.2805760765453E+01
 0.2994388614692E+01
 0.3167663035577E+01
 0.3329090417589E+01
 0.3481708555657E+01
 0.3628101586472E+01
 0.3770321518281E+01
 0.3909718178903E+01
 0.4046760599330E+01
 0.4180834111335E+01
 0.4309972444253E+01
 0.4430499235175E+01
 0.4536560203266E+01
 0.5924306278220E+00
 0.1060429447715E+01
 0.1461669293586E+01
 0.1806843151651E+01
 0.2106512357384E+01
 0.2369277896084E+01
 0.2602087828569E+01
 0.2810634881256E+01
 0.2999670554255E+01
 0.3173235289417E+01
 0.3334809673768E+01
 0.3487387184834E+01
 0.3633486259543E+01
 0.3775078903465E+01
 0.3913438834934E+01
 0.4048969582866E+01
 0.4181000671453E+01
 0.4307517477461E+01
 0.4424802446010E+01
 0.4526970767133E+01
 0.5882187318476E+00
 0.1058068157213E+01
 0.1460479652166E+01
 0.1806339997388E+01
 0.2106386216299E+01
 0.2369324944095E+01
 0.2602155451437E+01
 0.2810584611358E+01
 0.2999353451639E+01
 0.3172473581544E+01
 0.3333380895062E+01
 0.3485010205263E+01
 0.3629805939068E+01
 0.3769657274776E+01
 0.3905761698045E+01
 0.4038461448330E+01
 0.4167043561556E+01
 0.4289474146303E+01
 0.4402046901143E+01
 0.4498930419029E+01
 0.5857049212000E+00
 0.1055709464087E+01
 0.1458027542281E+01
 0.1803616455687E+01
 0.2103269758185E+01
 0.2365713447736E+01
 0.2597937175443E+01
 0.2805618481864E+01
 0.2993455842351E+01
 0.3165407866663E+01
 0.3324847660218E+01
 0.3474638191946E+01
 0.3617142344581E+01
 0.3754163963615E+01
 0.3886824838024E+01
 0.4015411088408E+01
 0.4139181394048E+01
 0.4256111452138E+01
 0.4362555888677E+01
 0.4452812342151E+01
 0.5848950168445E+00
 0.1053357217506E+01
 0.1454317920708E+01
 0.1798682154821E+01
 0.2097180051922E+01
 0.2358470125614E+01
 0.2589471251365E+01
 0.2795788141961E+01
 0.2982045006986E+01
 0.3152124008384E+01
 0.3309318352467E+01
 0.3456407153440E+01
 0.3595664994939E+01
 0.3728808164495E+01
 0.3856883513124E+01
 0.3980126167977E+01
 0.4097779682632E+01
 0.4207855530198E+01
 0.4306813262627E+01
 0.4389144648425E+01
 0.5857894625183E+00
 0.1051024261529E+01
 0.1449375137568E+01
 0.1791572869417E+01
 0.2088164960581E+01
 0.2347656193517E+01
 0.2576834068562E+01
 0.2781187632236E+01
 0.2965235972908E+01
 0.3132762409739E+01
 0.3286964316248E+01
 0.3430526144157E+01
 0.3565628213391E+01
 0.3693897251601E+01
 0.3816305749313E+01
 0.3933042046149E+01
 0.4043345495088E+01
 0.4145284929865E+01
 0.4235460826570E+01
 0.4308611483131E+01
 0.5883832489858E+00
 0.1048732109600E+01
 0.1443242457183E+01
 0.1782349920584E+01
 0.2076302421616E+01
 0.2333366499463E+01
 0.2560139089999E+01
 0.2761952035180E+01
 0.2943189773324E+01
 0.3107515761758E+01
 0.3258016977996E+01
 0.3397273668672E+01
 0.3527366751674E+01
 0.3649831589002E+01
 0.3765566402574E+01
 0.3874715366388E+01
 0.3976521229227E+01
 0.4069125861149E+01
 0.4149297055534E+01
 0.4212057782129E+01
 0.5926658193490E+00
 0.1046510544677E+01
 0.1435981395212E+01
 0.1771099320203E+01
 0.2061699406902E+01
 0.2315728266251E+01
 0.2539535308879E+01
 0.2738255546959E+01
 0.2916111012344E+01
 0.3076625967043E+01
 0.3222763994818E+01
 0.3356992949093E+01
 0.3481290109674E+01
 0.3597097904860E+01
 0.3705239736962E+01
 0.3805816246991E+01
 0.3898077228497E+01
 0.3980246701209E+01
 0.4049276089105E+01
 0.4100496067967E+01
 0.5986209644510E+00
 0.1044397151602E+01
 0.1427670884357E+01
 0.1757930675853E+01
 0.2044490584071E+01
 0.2294899470049E+01
 0.2515205264645E+01
 0.2710309018766E+01
 0.2884244795392E+01
 0.3040380308347E+01
 0.3181544510215E+01
 0.3310086141260E+01
 0.3427875635029E+01
 0.3536261291179E+01
 0.3635990517339E+01
 0.3727118940258E+01
 0.3808902893448E+01
 0.3879650933501E+01
 0.3936504656017E+01
 0.3975109712935E+01
 0.6062267294185E+00
 0.1042436791230E+01
 0.1418406286509E+01
 0.1742975879669E+01
 0.2024836707984E+01
 0.2271066891140E+01
 0.2487362663928E+01
 0.2678357024728E+01
 0.2847873094622E+01
 0.2999106944836E+01
 0.3134743611097E+01
 0.3257007601095E+01
 0.3367660498870E+01
 0.3467955894300E+01
 0.3558563603974E+01
 0.3639490808479E+01
 0.3709995901764E+01
 0.3768467973841E+01
 0.3812235978235E+01
 0.3837254641534E+01
 0.6154553595031E+00
 0.1040681028716E+01
 0.1408298274712E+01
 0.1726387611711E+01
 0.2002922779410E+01
 0.2244443881666E+01
 0.2456249661363E+01
 0.2642674523919E+01
 0.2807310631663E+01
 0.2953169834110E+01
 0.3082786098798E+01
 0.3198256323276E+01
 0.3301232666302E+01
 0.3392874383768E+01
 0.3473772060479E+01
 0.3543879478660E+01
 0.3602449212875E+01
 0.3647941345764E+01
 0.3677861735835E+01
 0.3688459770509E+01
 0.6262733164731E+00
 0.1039187530280E+01
 0.1397471611895E+01
 0.1708337692688E+01
 0.1978956012249E+01
 0.2215267899214E+01
 0.2422133859204E+01
 0.2603563188710E+01
 0.2762900366183E+01
 0.2902963186546E+01
 0.3026129698326E+01
 0.3134367689462E+01
 0.3229221000100E+01
 0.3311756316383E+01
 0.3382483826020E+01
 0.3441298100828E+01
 0.3487435550450E+01
 0.3519413687707E+01
 0.3534900136408E+01
 0.3530422102372E+01
 0.6386413959403E+00
 0.1038019444596E+01
 0.1386063856785E+01
 0.1689015324910E+01
 0.1953163654496E+01
 0.2183797858357E+01
 0.2385305087552E+01
 0.2561347475141E+01
 0.2715008683968E+01
 0.2848905566428E+01
 0.2965257841501E+01
 0.3065904679482E+01
 0.3152284660892E+01
 0.3225375553160E+01
 0.3285607072496E+01
 0.3332808723798E+01
 0.3366189168493E+01
 0.3384307820823E+01
 0.3384977934865E+01
 0.3364992990568E+01
 0.6525149683259E+00
 0.1037244786366E+01
 0.1374224032250E+01
 0.1668625267696E+01
 0.1925790716180E+01
 0.2150311360036E+01
 0.2346072034653E+01
 0.2516370519454E+01
 0.2664020388950E+01
 0.2791433768703E+01
 0.2900672178716E+01
 0.2993448723368E+01
 0.3071102001059E+01
 0.3134526942736E+01
 0.3184074461075E+01
 0.3219503949188E+01
 0.3239984840602E+01
 0.3244103291597E+01
 0.3229805217211E+01
 0.3194152995573E+01
 0.6678443616900E+00
 0.1036935838259E+01
 0.1362111286282E+01
 0.1647385984983E+01
 0.1897097645661E+01
 0.2115101843474E+01
 0.2304758779026E+01
 0.2468989926856E+01
 0.2610333588030E+01
 0.2730996589724E+01
 0.2832884970025E+01
 0.2917590374455E+01
 0.2986359161011E+01
 0.3040012518864E+01
 0.3078826598922E+01
 0.3102487196222E+01
 0.3110114299059E+01
 0.3100308229552E+01
 0.3071142022131E+01
 0.3019972788576E+01
 0.6845753941519E+00
 0.1037168591692E+01
 0.1349893592729E+01
 0.1625527826548E+01
 0.1867358020763E+01
 0.2078475727890E+01
 0.2261701293660E+01
 0.2419573533479E+01
 0.2554354571071E+01
 0.2668048625334E+01
 0.2762411523606E+01
 0.2838919998458E+01
 0.2898738582933E+01
 0.2942627466040E+01
 0.2970795036829E+01
 0.2982852053355E+01
 0.2977860705823E+01
 0.2954426889364E+01
 0.2910755957468E+01
 0.2844556406015E+01
 0.7026500287174E+00
 0.1038022236201E+01
 0.1337746528308E+01
 0.1603291297786E+01
 0.1836856315239E+01
 0.2040749604119E+01
 0.2217243984777E+01
 0.2368495216812E+01
 0.2496492789765E+01
 0.2603044245582E+01
 0.2689762886993E+01
 0.2758018728660E+01
 0.2808907715431E+01
 0.2843146166906E+01
 0.2860885252923E+01
 0.2861661442040E+01
 0.2844472300227E+01
 0.2807924373490E+01
 0.2750371707789E+01
 0.2669965171244E+01
 0.7220071470673E+00
 0.1039578712229E+01
 0.1325852173812E+01
 0.1580925481400E+01
 0.1805885801456E+01
 0.2002247526094E+01
 0.2171736308601E+01
 0.2316130804049E+01
 0.2437156010126E+01
 0.2536431872934E+01
 0.2615438996030E+01
 0.2675449958688E+01
 0.2717508195424E+01
 0.2742308606487E+01
 0.2749960003669E+01
 0.2739927375953E+01
 0.2711136727175E+01
 0.2662191160596E+01
 0.2591616690215E+01
 0.2498128560452E+01
 0.7425833905117E+00
 0.1041922325276E+01
 0.1314398194820E+01
 0.1558686696220E+01
 0.1774746666462E+01
 0.1963298456577E+01
 0.2125529504141E+01
 0.2262854113012E+01
 0.2376745684360E+01
 0.2468648654113E+01
 0.2539922469091E+01
 0.2591751670715E+01
 0.2625145819660E+01
 0.2640807329055E+01
 0.2638823149898E+01
 0.2618591835315E+01
 0.2578957721630E+01
 0.2518510699131E+01
 0.2435969629348E+01
 0.2330756624398E+01
 0.7643140010242E+00
 0.1045139408477E+01
 0.1303577171813E+01
 0.1536837491880E+01
 0.1743744406390E+01
 0.1924233880837E+01
 0.2078973430623E+01
 0.2209033108471E+01
 0.2315652519794E+01
 0.2400115519046E+01
 0.2463673158807E+01
 0.2507429920408E+01
 0.2532381763346E+01
 0.2539275188878E+01
 0.2528203760584E+01
 0.2498508553531E+01
 0.2448935707154E+01
 0.2378034590638E+01
 0.2284717944088E+01
 0.2169265616026E+01
 0.7871335254097E+00
 0.1049317992953E+01
 0.1293586312190E+01
 0.1515646177004E+01
 0.1713188620014E+01
 0.1885385636366E+01
 0.2032413550861E+01
 0.2155026255054E+01
 0.2254252332693E+01
 0.2331232687885E+01
 0.2387123609102E+01
 0.2422954024700E+01
 0.2439726051342E+01
 0.2438274900638E+01
 0.2418740384058E+01
 0.2380424679956E+01
 0.2321952278949E+01
 0.2241771846070E+01
 0.2138935212960E+01
 0.2014723216271E+01
 0.8109761330683E+00
 0.1054547382581E+01
 0.1284627843004E+01
 0.1495387198603E+01
 0.1683392318590E+01
 0.1847083863752E+01
 0.1986187988520E+01
 0.2101179061781E+01
 0.2192902167015E+01
 0.2262375447683E+01
 0.2310675059742E+01
 0.2338753360970E+01
 0.2347634405651E+01
 0.2338292000089E+01
 0.2310965776546E+01
 0.2264958482322E+01
 0.2198754319772E+01
 0.2110592895625E+01
 0.1999504650061E+01
 0.1867868783077E+01
 0.8357748866273E+00
 0.1060917535229E+01
 0.1276910631814E+01
 0.1476343094570E+01
 0.1654671696721E+01
 0.1809654828675E+01
 0.1940624498635E+01
 0.2047820973672E+01
 0.2131936862364E+01
 0.2193890165269E+01
 0.2234693632099E+01
 0.2255214996728E+01
 0.2256509101772E+01
 0.2239736334722E+01
 0.2205294962235E+01
 0.2152570114117E+01
 0.2079923962376E+01
 0.1985243018856E+01
 0.1867187614663E+01
 0.1729213903714E+01
 0.8614586845974E+00
 0.1068517381495E+01
 0.1270655587292E+01
 0.1458808863940E+01
 0.1627346370956E+01
 0.1773417547997E+01
 0.1896037277264E+01
 0.1995262835741E+01
 0.2071666354289E+01
 0.2126090530759E+01
 0.2159505989954E+01
 0.2172680706765E+01
 0.2166700535672E+01
 0.2142955435357E+01
 0.2102036353628E+01
 0.2043517432950E+01
 0.1965814681361E+01
 0.1866327290376E+01
 0.1742739658304E+01
 0.1599153566206E+01
 0.8879407552786E+00
 0.1077436507139E+01
 0.1266107215618E+01
 0.1443104187594E+01
 0.1601735845518E+01
 0.1738678283598E+01
 0.1852723652592E+01
 0.1943795545319E+01
 0.2012374165083E+01
 0.2059254560819E+01
 0.2085394399043E+01
 0.2091441365671E+01
 0.2078506878348E+01
 0.2048246840777E+01
 0.2001447822070E+01
 0.1937881310864E+01
 0.1856335851040E+01
 0.1754228698442E+01
 0.1627050225261E+01
 0.1478262953278E+01
 0.9150919543994E+00
 0.1087744757626E+01
 0.1263602735831E+01
 0.1429576891849E+01
 0.1578146535250E+01
 0.1705724826834E+01
 0.1810960781387E+01
 0.1893688932686E+01
 0.1954320789656E+01
 0.1993621762462E+01
 0.2012591275307E+01
 0.2011730170195E+01
 0.1992164032438E+01
 0.1955867200711E+01
 0.1903770353499E+01
 0.1835791591232E+01
 0.1750951790688E+01
 0.1648026934719E+01
 0.1521671317578E+01
 0.1368184552915E+01
 0.9424633449315E+00
 0.1099842134819E+01
 0.1263649764164E+01
 0.1418562077475E+01
 0.1556855872757E+01
 0.1674820979466E+01
 0.1771006213736E+01
 0.1845185922844E+01
 0.1897745824906E+01
 0.1929415315407E+01
 0.1941249938760E+01
 0.1933711550954E+01
 0.1907856634461E+01
 0.1865983537274E+01
 0.1809265489759E+01
 0.1737476862150E+01
 0.1649701843993E+01
 0.1545016714692E+01
 0.1423368533751E+01
 0.1278389770371E+01
 0.2006704085058E+01
 0.7500779906029E+00
 0.1504678742709E+00
 0.7896325685434E-02
 0.9965178481939E-01
 0.1638045139840E+00
 0.2149134733359E+00
 0.2573308823931E+00
 0.2911273867028E+00
 0.3149460775717E+00
 0.3251970487708E+00
 0.3170227326854E+00
 0.2837513479779E+00
 0.2278721087952E+00
 0.1561114043250E+00
 0.7511248688662E-01
 0.1568348861017E-01
 0.8681227230780E-01
 0.1647499990886E+00
 0.2828621784343E+00
 0.2086843414387E+01
 0.1459103077871E+01
 0.5787384380513E+00
 0.2339909355859E+00
 0.7639159652108E-01
 0.2040603720056E-01
 0.8753447147814E-01
 0.1396660872994E+00
 0.1814288918817E+00
 0.2133705701062E+00
 0.2337977802930E+00
 0.2430892110092E+00
 0.2330192234920E+00
 0.1979249877623E+00
 0.1433591677245E+00
 0.7748504444841E-01
 0.1363702245189E-01
 0.5600614273698E-01
 0.1216319201642E+00
 0.1929719907078E+00
 0.1941308964838E+01
 0.1683199322809E+01
 0.9970684300749E+00
 0.5282590860908E+00
 0.2887396622305E+00
 0.1510965243822E+00
 0.6040273683294E-01
 0.6062643385909E-02
 0.5807965483390E-01
 0.9995393044747E-01
 0.1322467039531E+00
 0.1565530177546E+00
 0.1649618667158E+00
 0.1482629619012E+00
 0.1105674227947E+00
 0.6010940489802E-01
 0.8048461324854E-02
 0.4587124964709E-01
 0.9375136388834E-01
 0.1342424988373E+00
 0.1792131642050E+01
 0.1733903023434E+01
 0.1259242364325E+01
 0.8170041361990E+00
 0.5239374385065E+00
 0.3445503532601E+00
 0.2273299161388E+00
 0.1438603645180E+00
 0.7933533800118E-01
 0.2643371108829E-01
 0.1764838353339E-01
 0.5538144664773E-01
 0.7970886020534E-01
 0.7941463902754E-01
 0.5722769552431E-01
 0.2122969281902E-01
 0.1945237038882E-01
 0.5917839487367E-01
 0.9398323947909E-01
 0.1226063529686E+00
 0.1659593906460E+01
 0.1714249826439E+01
 0.1411156176114E+01
 0.1046283972563E+01
 0.7532249804218E+00
 0.5487267292598E+00
 0.4084567365616E+00
 0.3078308551056E+00
 0.2303261494923E+00
 0.1662612249702E+00
 0.1112975601191E+00
 0.6168668385381E-01
 0.2372811900422E-01
 0.9958683136526E-02
 0.1799964004372E-01
 0.4101182117901E-01
 0.7067927354829E-01
 0.1012539288975E+00
 0.1303811554351E+00
 0.1621326388512E+00
 0.1546493772006E+01
 0.1665504576171E+01
 0.1492726943864E+01
 0.1215891938972E+01
 0.9544488526687E+00
 0.7486077556036E+00
 0.5957959278291E+00
 0.4819714934110E+00
 0.3930731325469E+00
 0.3189484663378E+00
 0.2543069491748E+00
 0.1945804847160E+00
 0.1448038125767E+00
 0.1181370596976E+00
 0.1149442945569E+00
 0.1278517567568E+00
 0.1495801229467E+00
 0.1754310932224E+00
 0.2057537074605E+00
 0.2499648424961E+00
 0.1450620310959E+01
 0.1606457219637E+01
 0.1530769021061E+01
 0.1336959422250E+01
 0.1122090891518E+01
 0.9330901805045E+00
 0.7807458083890E+00
 0.6609096387548E+00
 0.5644830934264E+00
 0.4828038069742E+00
 0.4106402971662E+00
 0.3431102461062E+00
 0.2841662470277E+00
 0.2474579081597E+00
 0.2351383060310E+00
 0.2405539345565E+00
 0.2576462860507E+00
 0.2829235611869E+00
 0.3192223289610E+00
 0.3799371197275E+00
 0.1368995079271E+01
 0.1546062741665E+01
 0.1542474516093E+01
 0.1421592174034E+01
 0.1258145703109E+01
 0.1097424305671E+01
 0.9567905210257E+00
 0.8392408053733E+00
 0.7407559635603E+00
 0.6553019543597E+00
 0.5786267929438E+00
 0.5061317465800E+00
 0.4409247029556E+00
 0.3969826445028E+00
 0.3783312417427E+00
 0.3792260269007E+00
 0.3948167497592E+00
 0.4226589953647E+00
 0.4673189661167E+00
 0.5444400387777E+00
 0.1298814656721E+01
 0.1488565064400E+01
 0.1538806109386E+01
 0.1479968109533E+01
 0.1367380309253E+01
 0.1240988415902E+01
 0.1120311085654E+01
 0.1012657942171E+01
 0.9181126292011E+00
 0.8334659288903E+00
 0.7559791150580E+00
 0.6818574943518E+00
 0.6136654020786E+00
 0.5655997819470E+00
 0.5435521216724E+00
 0.5427571225988E+00
 0.5593816893958E+00
 0.5916424544240E+00
 0.6449280705169E+00
 0.7355137962413E+00
 0.1237697185868E+01
 0.1435809418554E+01
 0.1526743038318E+01
 0.1519958589212E+01
 0.1455033702150E+01
 0.1365337975391E+01
 0.1269956375470E+01
 0.1178310157310E+01
 0.1093329580946E+01
 0.1014271169277E+01
 0.9400312397827E+00
 0.8679401913827E+00
 0.8002895583203E+00
 0.7513745455363E+00
 0.7288176021847E+00
 0.7287945533127E+00
 0.7482133339146E+00
 0.7855243220655E+00
 0.8461098847137E+00
 0.9455631450425E+00
 0.1183695075595E+01
 0.1388380501221E+01
 0.1510694290004E+01
 0.1547411642342E+01
 0.1525878609028E+01
 0.1472918366269E+01
 0.1405820391048E+01
 0.1334610857830E+01
 0.1263933867172E+01
 0.1194930166286E+01
 0.1127973243348E+01
 0.1061625643965E+01
 0.9980893798035E+00
 0.9515800760488E+00
 0.9311809893883E+00
 0.9338990872520E+00
 0.9571075902231E+00
 0.9991372007734E+00
 0.1064707767891E+01
 0.1167748250394E+01
 0.1135244918899E+01
 0.1346195048268E+01
 0.1493385590037E+01
 0.1566558513625E+01
 0.1583905950015E+01
 0.1566341503183E+01
 0.1528767955062E+01
 0.1480878903566E+01
 0.1428153711931E+01
 0.1373019589199E+01
 0.1317028993984E+01
 0.1259918629787E+01
 0.1203886281734E+01
 0.1162824694810E+01
 0.1146891872894E+01
 0.1153787654060E+01
 0.1181138849067E+01
 0.1226932293146E+01
 0.1294757548295E+01
 0.1396165282600E+01
 0.1091105430988E+01
 0.1308823684037E+01
 0.1476424212718E+01
 0.1580381829674E+01
 0.1632282423502E+01
 0.1648017207444E+01
 0.1639974604341E+01
 0.1616991992569E+01
 0.1584765187236E+01
 0.1546491100276E+01
 0.1504563806122E+01
 0.1459733518457E+01
 0.1414198835800E+01
 0.1381237298714E+01
 0.1371618048343E+01
 0.1383607124079E+01
 0.1414978072478E+01
 0.1463300893430E+01
 0.1530739490172E+01
 0.1625902543981E+01
 0.1050299709884E+01
 0.1275670933527E+01
 0.1460665968532E+01
 0.1590912467095E+01
 0.1673416880869E+01
 0.1719990065154E+01
 0.1740643548219E+01
 0.1743117150873E+01
 0.1732922772444E+01
 0.1713623346084E+01
 0.1688137417085E+01
 0.1658018506331E+01
 0.1625417687281E+01
 0.1602683697575E+01
 0.1600699833662E+01
 0.1618210158403E+01
 0.1653155747038E+01
 0.1702782833469E+01
 0.1767700932535E+01
 0.1853023650094E+01
 0.1012065600574E+01
 0.1246077337407E+01
 0.1446458916698E+01
 0.1599459700424E+01
 0.1709062675772E+01
 0.1783888582629E+01
 0.1831847841110E+01
 0.1859525018013E+01
 0.1872015296427E+01
 0.1872956251623E+01
 0.1865523362340E+01
 0.1851852156833E+01
 0.1833971831609E+01
 0.1822995554601E+01
 0.1829423948402E+01
 0.1852430758167E+01
 0.1890274675872E+01
 0.1940168511898E+01
 0.2001255985865E+01
 0.2074503469849E+01
 0.9758136509115E+00
 0.1219376621698E+01
 0.1433808850256E+01
 0.1606788945180E+01
 0.1740426216832E+01
 0.1840933975038E+01
 0.1914454854213E+01
 0.1966474358073E+01
 0.2001559915004E+01
 0.2023229991272E+01
 0.2034710294682E+01
 0.2038512224053E+01
 0.2036470233530E+01
 0.2038193989482E+01
 0.2053317648382E+01
 0.2081386057162E+01
 0.2121214818752E+01
 0.2170510897050E+01
 0.2227448647506E+01
 0.2288114664803E+01
 0.9410904326506E+00
 0.1194924645588E+01
 0.1422494461098E+01
 0.1613261423406E+01
 0.1768271968783E+01
 0.1891980501091E+01
 0.1989103062574E+01
 0.2064149510299E+01
 0.2121133330610E+01
 0.2163338896349E+01
 0.2193895643097E+01
 0.2215515618440E+01
 0.2229798032619E+01
 0.2244664906305E+01
 0.2268446897531E+01
 0.2300867950017E+01
 0.2341429833506E+01
 0.2389130010564E+01
 0.2442423888234E+01
 0.2492236050708E+01
 0.9075425349647E+00
 0.1172110548614E+01
 0.1412149234993E+01
 0.1618950464004E+01
 0.1793022946302E+01
 0.1937573498402E+01
 0.2056211491200E+01
 0.2152633690696E+01
 0.2230334334696E+01
 0.2292303503830E+01
 0.2341481183906E+01
 0.2380634265947E+01
 0.2411145376442E+01
 0.2439220240984E+01
 0.2471566931467E+01
 0.2507819286779E+01
 0.2547655903488E+01
 0.2591785434892E+01
 0.2641929785433E+01
 0.2685377453793E+01
 0.8748814267296E+00
 0.1150343276371E+01
 0.1402335490272E+01
 0.1623744689548E+01
 0.1814861721198E+01
 0.1978019371770E+01
 0.2116008633648E+01
 0.2231904111275E+01
 0.2328762607000E+01
 0.2409267012479E+01
 0.2476083131138E+01
 0.2531908206426E+01
 0.2577989962497E+01
 0.2618993140272E+01
 0.2659945851534E+01
 0.2700205501934E+01
 0.2739087135249E+01
 0.2776668658053E+01
 0.2820221175631E+01
 0.2865153411302E+01
 0.8427837285981E+00
 0.1129112220980E+01
 0.1392592291511E+01
 0.1627457052119E+01
 0.1833852288669E+01
 0.2013457248533E+01
 0.2168564855481E+01
 0.2301845410855E+01
 0.2416000256713E+01
 0.2513466565271E+01
 0.2596626474932E+01
 0.2667707759398E+01
 0.2728063706848E+01
 0.2781346133289E+01
 0.2830889196571E+01
 0.2876007912602E+01
 0.2915553508219E+01
 0.2948308444860E+01
 0.2976980903807E+01
 0.3022310666023E+01
 0.9722856809403E+00
 0.1118723606829E+01
 0.1271758871887E+01
 0.1414948624964E+01
 0.1540612272689E+01
 0.1645356186709E+01
 0.1727954630994E+01
 0.1788429788018E+01
 0.1827459657521E+01
 0.1845983313530E+01
 0.1845197509225E+01
 0.1826394469121E+01
 0.1790601423288E+01
 0.1740503877609E+01
 0.1678527584263E+01
 0.1603975215717E+01
 0.1515864885562E+01
 0.1413372740650E+01
 0.1299831612965E+01
 0.1193175239733E+01
 0.1005569108149E+01
 0.1143011970813E+01
 0.1286655323684E+01
 0.1417678575252E+01
 0.1528298724383E+01
 0.1615863027351E+01
 0.1679963054134E+01
 0.1721366711770E+01
 0.1741424606016E+01
 0.1741646965370E+01
 0.1723800958091E+01
 0.1689883676021E+01
 0.1641232327746E+01
 0.1581214533775E+01
 0.1513352675875E+01
 0.1437007371512E+01
 0.1351524657188E+01
 0.1256723325573E+01
 0.1159176012775E+01
 0.1051953617932E+01
 0.1039790392267E+01
 0.1169507327168E+01
 0.1304489916239E+01
 0.1423267517185E+01
 0.1517988295044E+01
 0.1587090142377E+01
 0.1631375041415E+01
 0.1652646763766E+01
 0.1653085961780E+01
 0.1634873933701E+01
 0.1600354385843E+01
 0.1551833007911E+01
 0.1490947879955E+01
 0.1422075593475E+01
 0.1349677255739E+01
 0.1273201405495E+01
 0.1192022632461E+01
 0.1106113567481E+01
 0.1015735918716E+01
 0.9055587297141E+00
 0.1075185208680E+01
 0.1198936308781E+01
 0.1325940208571E+01
 0.1431969234195E+01
 0.1509513121978E+01
 0.1558601397907E+01
 0.1581655929149E+01
 0.1581789869044E+01
 0.1562154871266E+01
 0.1525622675170E+01
 0.1475020940509E+01
 0.1412809034051E+01
 0.1340909944525E+01
 0.1264708615177E+01
 0.1189347400839E+01
 0.1114022780795E+01
 0.1037562634923E+01
 0.9578753493283E+00
 0.8714213233532E+00
 0.7663244304556E+00
 0.1112153974899E+01
 0.1232008312002E+01
 0.1351550210846E+01
 0.1443839840743E+01
 0.1502420059752E+01
 0.1529610910150E+01
 0.1529912784331E+01
 0.1507998599928E+01
 0.1468075520693E+01
 0.1413659511481E+01
 0.1347948129447E+01
 0.1273404559319E+01
 0.1192163265268E+01
 0.1110470391425E+01
 0.1033722076240E+01
 0.9604812937691E+00
 0.8884844126442E+00
 0.8140495692771E+00
 0.7328153882464E+00
 0.6372733248932E+00
 0.1151214385437E+01
 0.1269504455012E+01
 0.1381724880603E+01
 0.1458625388994E+01
 0.1495854961946E+01
 0.1498912243611E+01
 0.1474872337540E+01
 0.1430173936736E+01
 0.1370086820502E+01
 0.1298649884137E+01
 0.1219255858793E+01
 0.1134188664983E+01
 0.1045667022022E+01
 0.9605647313928E+00
 0.8840945323981E+00
 0.8139200792958E+00
 0.7467666281791E+00
 0.6781185970784E+00
 0.6038389612922E+00
 0.5198473305098E+00
 0.1193030116670E+01
 0.1312264935943E+01
 0.1416675495062E+01
 0.1475658872334E+01
 0.1488457688044E+01
 0.1464814115701E+01
 0.1414870941513E+01
 0.1346955354908E+01
 0.1267295423326E+01
 0.1180226566769E+01
 0.1089084340511E+01
 0.9957454748292E+00
 0.9023561200015E+00
 0.8161688806129E+00
 0.7418360765124E+00
 0.6760425846806E+00
 0.6146980284315E+00
 0.5528876349740E+00
 0.4869574591037E+00
 0.4149514869316E+00
 0.1238445238140E+01
 0.1361170317671E+01
 0.1456320788304E+01
 0.1493730507009E+01
 0.1478253154386E+01
 0.1425087947861E+01
 0.1347869427095E+01
 0.1256790472261E+01
 0.1158771830105E+01
 0.1058084921200E+01
 0.9576698711694E+00
 0.8587313249237E+00
 0.7631873415087E+00
 0.6784416225979E+00
 0.6082962801149E+00
 0.5484602943353E+00
 0.4941777497915E+00
 0.4403464451675E+00
 0.3836974615434E+00
 0.3233283353267E+00
 0.1288527367827E+01
 0.1417101797411E+01
 0.1500144093051E+01
 0.1510918660737E+01
 0.1462531099088E+01
 0.1376934177904E+01
 0.1271507141108E+01
 0.1158049503296E+01
 0.1043685935610E+01
 0.9321052187288E+00
 0.8254343860068E+00
 0.7239277373443E+00
 0.6291505360704E+00
 0.5484719457900E+00
 0.4846392720495E+00
 0.4324346328192E+00
 0.3865392322204E+00
 0.3417463601371E+00
 0.2949727632055E+00
 0.2455953977412E+00
 0.1344620241301E+01
 0.1480869252962E+01
 0.1546985469456E+01
 0.1524368803775E+01
 0.1437716153151E+01
 0.1316984174102E+01
 0.1183218922052E+01
 0.1049204625139E+01
 0.9214897512929E+00
 0.8024974245803E+00
 0.6930757131334E+00
 0.5922794918235E+00
 0.5012598597350E+00
 0.4272230965007E+00
 0.3717502734615E+00
 0.3287913837498E+00
 0.2925429040634E+00
 0.2577207449317E+00
 0.2212300817992E+00
 0.1821989198350E+00
 0.1408407789608E+01
 0.1553084624501E+01
 0.1594735016569E+01
 0.1530003430534E+01
 0.1399241382094E+01
 0.1241372824785E+01
 0.1080452295130E+01
 0.9290958144002E+00
 0.7921476787959E+00
 0.6699537140002E+00
 0.5616403670871E+00
 0.4649087428748E+00
 0.3805323059894E+00
 0.3154968537626E+00
 0.2702065564861E+00
 0.2379230690685E+00
 0.2124318933152E+00
 0.1883817311651E+00
 0.1625094813009E+00
 0.1333435739630E+00
 0.1481990092500E+01
 0.1633939100870E+01
 0.1639870763847E+01
 0.1522144966132E+01
 0.1341462174086E+01
 0.1145947463125E+01
 0.9610386482218E+00
 0.7973002237909E+00
 0.6563976661901E+00
 0.5357774322699E+00
 0.4325520137172E+00
 0.3430918117608E+00
 0.2679529727742E+00
 0.2139151365852E+00
 0.1802892384498E+00
 0.1598356272347E+00
 0.1460070128351E+00
 0.1333980068403E+00
 0.1184726119849E+00
 0.9893971901671E-01
 0.1567966736034E+01
 0.1722804133746E+01
 0.1676747420911E+01
 0.1493044706647E+01
 0.1257700299911E+01
 0.1026729366515E+01
 0.8237841725980E+00
 0.6545978892192E+00
 0.5159911011989E+00
 0.4019337738413E+00
 0.3075615378044E+00
 0.2281869557726E+00
 0.1644276608215E+00
 0.1229188667659E+00
 0.1020265365257E+00
 0.9422060961961E-01
 0.9270949523368E-01
 0.9206731552754E-01
 0.8844044055089E-01
 0.7861008017296E-01
 0.1669508148208E+01
 0.1817496157033E+01
 0.1696480122368E+01
 0.1432356569423E+01
 0.1140621252235E+01
 0.8808147462067E+00
 0.6693297728144E+00
 0.5034556972282E+00
 0.3738022171457E+00
 0.2709474362216E+00
 0.1885932470484E+00
 0.1215195691624E+00
 0.7075625245695E-01
 0.4286010711133E-01
 0.3533947976985E-01
 0.4056392280917E-01
 0.5170807593615E-01
 0.6340048967273E-01
 0.7146774606480E-01
 0.7176537864271E-01
 0.1790353462424E+01
 0.1912864220487E+01
 0.1685167409256E+01
 0.1326751816710E+01
 0.9833772117234E+00
 0.7079782396568E+00
 0.5012044986754E+00
 0.3483104150473E+00
 0.2336318869181E+00
 0.1455928825073E+00
 0.7750827688792E-01
 0.2441741270188E-01
 0.1358691417202E-01
 0.2718890195022E-01
 0.2116981831615E-01
 0.3711489499407E-02
 0.2199141383155E-01
 0.4623585237838E-01
 0.6641037381249E-01
 0.7758695058648E-01
 0.1934526823290E+01
 0.1997923390477E+01
 0.1621068702144E+01
 0.1160333734790E+01
 0.7824305804139E+00
 0.5131143674938E+00
 0.3266587354839E+00
 0.1951785594029E+00
 0.9958261241576E-01
 0.2844767989278E-01
 0.2450075387838E-01
 0.6322614183179E-01
 0.8561252124009E-01
 0.8539245918374E-01
 0.6585316900042E-01
 0.3415621203740E-01
 0.2633856241277E-02
 0.3933545409954E-01
 0.7185531124964E-01
 0.9486866164696E-01
 0.2105207030466E+01
 0.2049517168171E+01
 0.1470336478094E+01
 0.9181304704727E+00
 0.5434040571385E+00
 0.3090592291529E+00
 0.1557584160267E+00
 0.5031137265247E-01
 0.2483096304949E-01
 0.7880274998614E-01
 0.1159137921163E+00
 0.1398107143638E+00
 0.1473796193801E+00
 0.1330015471838E+00
 0.1002718903199E+00
 0.5609711280549E-01
 0.8305881982640E-02
 0.4126634705155E-01
 0.8601595551276E-01
 0.1220569859718E+00
 0.2299583530864E+01
 0.2016734017237E+01
 0.1182562342559E+01
 0.5987303900247E+00
 0.2923689744235E+00
 0.1138299134191E+00
 0.3375718591918E-02
 0.8150821682468E-01
 0.1373760885923E+00
 0.1751270465209E+00
 0.1970706960794E+00
 0.2059057999748E+00
 0.1982270268033E+00
 0.1696684312816E+00
 0.1241121711868E+00
 0.6833332858839E-01
 0.1124439274288E-01
 0.5028660294405E-01
 0.1067530987020E+00
 0.1573751400521E+00
 0.2493625920892E+01
 0.1772718335719E+01
 0.6991048481018E+00
 0.2659803300274E+00
 0.6434159142856E-01
 0.5864847783140E-01
 0.1403083568534E+00
 0.1977399116399E+00
 0.2372516061512E+00
 0.2608630739995E+00
 0.2685613735056E+00
 0.2620136462212E+00
 0.2379842234566E+00
 0.1947688251163E+00
 0.1367424302231E+00
 0.7066257792432E-01
 0.9760839067459E-02
 0.6472097441615E-01
 0.1313943360632E+00
 0.1987036515008E+00
 0.2419127459206E+01
 0.9354581154015E+00
 0.1923971882330E+00
 0.9442688551166E-02
 0.1238612232157E+00
 0.2010325141344E+00
 0.2573218336005E+00
 0.2981513923254E+00
 0.3246505308556E+00
 0.3367845600781E+00
 0.3328607334677E+00
 0.3096384922709E+00
 0.2655393421176E+00
 0.2063775824685E+00
 0.1369739273769E+00
 0.6270723451880E-01
 0.1694218291371E-01
 0.8448204008618E-01
 0.1562287521955E+00
 0.2421452812988E+00
 0.3122658737676E+01
 0.2974156139367E+01
 0.2814934026947E+01
 0.2645688102974E+01
 0.2464119821968E+01
 0.2270437827755E+01
 0.2065621454568E+01
 0.1851240767809E+01
 0.1629406188268E+01
 0.1402861809116E+01
 0.1175140962757E+01
 0.9507723387225E+00
 0.7355268162227E+00
 0.5366865354970E+00
 0.3632830539234E+00
 0.2261728497897E+00
 0.1376816237041E+00
 0.1105501695971E+00
 0.1538004091245E+00
 0.2692332897176E+00
 0.3304162740976E+01
 0.3189851342310E+01
 0.3048109436197E+01
 0.2890208207399E+01
 0.2719089482976E+01
 0.2535063195115E+01
 0.2338368358631E+01
 0.2129551008300E+01
 0.1909661097590E+01
 0.1680387662160E+01
 0.1444236907579E+01
 0.1204778400931E+01
 0.9669810274507E+00
 0.7376574102546E+00
 0.5260303994548E+00
 0.3444096897485E+00
 0.2089052987384E+00
 0.1400668280385E+00
 0.1627046580975E+00
 0.2946415820970E+00
 0.3482321556371E+01
 0.3386136433269E+01
 0.3268931909513E+01
 0.3131669680871E+01
 0.2978152921848E+01
 0.2809936094570E+01
 0.2627546219189E+01
 0.2431278169268E+01
 0.2221569121375E+01
 0.1999239955353E+01
 0.1765700043592E+01
 0.1523186308374E+01
 0.1275086672559E+01
 0.1026404623897E+01
 0.7844455105755E+00
 0.5598568276494E+00
 0.3682450440364E+00
 0.2328389587731E+00
 0.1891202398185E+00
 0.2861243260150E+00
 0.3656485006471E+01
 0.3576275558169E+01
 0.3479370213513E+01
 0.3364359187187E+01
 0.3232262083640E+01
 0.3084403022030E+01
 0.2921464208374E+01
 0.2743752700561E+01
 0.2551491131399E+01
 0.2345039210213E+01
 0.2125078288313E+01
 0.1892799063673E+01
 0.1650139137652E+01
 0.1400129700617E+01
 0.1147446652940E+01
 0.8993403826150E+00
 0.6673031436312E+00
 0.4702601641810E+00
 0.3414626009560E+00
 0.3481836496448E+00
 0.3822198667131E+01
 0.3757807418409E+01
 0.3679572231398E+01
 0.3585515855430E+01
 0.3475399320397E+01
 0.3349661273660E+01
 0.3208767874519E+01
 0.3053002818945E+01
 0.2882558177969E+01
 0.2697671441706E+01
 0.2498761040304E+01
 0.2286562397228E+01
 0.2062285544187E+01
 0.1827830331887E+01
 0.1586119086737E+01
 0.1341657589024E+01
 0.1101542269923E+01
 0.8774256511608E+00
 0.6897970069802E+00
 0.5804993911679E+00
 0.3976407507143E+01
 0.3927654618046E+01
 0.3866832386257E+01
 0.3792158064130E+01
 0.3702807753611E+01
 0.3598615649998E+01
 0.3479656732523E+01
 0.3346036003624E+01
 0.3197841720496E+01
 0.3035192664635E+01
 0.2858310289154E+01
 0.2667593365709E+01
 0.2463690468356E+01
 0.2247572506654E+01
 0.2020608072813E+01
 0.1784635556233E+01
 0.1541997942054E+01
 0.1295379132096E+01
 0.1046895825490E+01
 0.7909935885997E+00
 0.4116703152776E+01
 0.4082972362802E+01
 0.4038309928093E+01
 0.3981214792960E+01
 0.3910653375721E+01
 0.3826040650756E+01
 0.3727051741848E+01
 0.3613458103894E+01
 0.3485047191585E+01
 0.3341598841760E+01
 0.3182884343158E+01
 0.3008657400507E+01
 0.2818613671830E+01
 0.2612291432065E+01
 0.2388866654059E+01
 0.2146748889802E+01
 0.1882769180494E+01
 0.1590473681122E+01
 0.1256085319806E+01
 0.8489862033875E+00
 0.4241274177778E+01
 0.4221542581663E+01
 0.4191623174490E+01
 0.4150209819305E+01
 0.4096162374239E+01
 0.4028586143944E+01
 0.3946759539071E+01
 0.3850029688997E+01
 0.3737726470413E+01
 0.3609099354133E+01
 0.3463257559634E+01
 0.3299088515235E+01
 0.3115125274836E+01
 0.2909324401798E+01
 0.2678694295881E+01
 0.2418670610229E+01
 0.2122056455516E+01
 0.1777207792438E+01
 0.1365144905647E+01
 0.8579041572859E+00
 0.4348701549603E+01
 0.4341595443488E+01
 0.4324825919527E+01
 0.4297140149275E+01
 0.4257284624126E+01
 0.4204087173236E+01
 0.4136434508584E+01
 0.4053203700112E+01
 0.3953182977879E+01
 0.3834990082744E+01
 0.3696979555905E+01
 0.3537120822416E+01
 0.3352823114070E+01
 0.3140676199208E+01
 0.2896065689622E+01
 0.2612610293700E+01
 0.2281372013507E+01
 0.1889890575289E+01
 0.1421744055976E+01
 0.8600268491159E+00
 0.4437846983115E+01
 0.4441689528209E+01
 0.4436281619077E+01
 0.4420298696509E+01
 0.4392333974576E+01
 0.4350943343018E+01
 0.4294633626444E+01
 0.4221812345972E+01
 0.4130717425530E+01
 0.4019333809679E+01
 0.3885293457889E+01
 0.3725748637350E+01
 0.3537204860252E+01
 0.3315298923760E+01
 0.3054511306606E+01
 0.2747819768820E+01
 0.2386359621890E+01
 0.1959349620160E+01
 0.1455088166660E+01
 0.8670163705118E+00
 0.4507869400951E+01
 0.4520825264488E+01
 0.4524862726103E+01
 0.4518522360117E+01
 0.4500215433267E+01
 0.4468232862321E+01
 0.4420728588319E+01
 0.4355677490297E+01
 0.4270815244057E+01
 0.4163564538671E+01
 0.4030947440800E+01
 0.3869480717574E+01
 0.3675050882939E+01
 0.3442769933539E+01
 0.3166824792224E+01
 0.2840361897969E+01
 0.2455514919372E+01
 0.2003833965712E+01
 0.1477887469491E+01
 0.8786811760895E+00
 0.4558171449155E+01
 0.4578346741370E+01
 0.4589864604570E+01
 0.4591121701495E+01
 0.4580346788238E+01
 0.4555588590139E+01
 0.4514692667029E+01
 0.4455264101021E+01
 0.4374618519145E+01
 0.4269724552019E+01
 0.4137139774523E+01
 0.3972941989503E+01
 0.3772659906969E+01
 0.3531213473281E+01
 0.3242887022281E+01
 0.2901383574992E+01
 0.2500057402835E+01
 0.2032546130185E+01
 0.1494574305949E+01
 0.8922111356731E+00
 0.4588375166726E+01
 0.4613864146163E+01
 0.4630902962062E+01
 0.4637765759001E+01
 0.4632524664402E+01
 0.4613027710497E+01
 0.4576872440119E+01
 0.4521373211367E+01
 0.4443523785478E+01
 0.4339958197091E+01
 0.4206913535120E+01
 0.4040199411497E+01
 0.3835181658035E+01
 0.3586793246692E+01
 0.3289595156467E+01
 0.2937927063838E+01
 0.2526224578567E+01
 0.2049700860688E+01
 0.1506207467407E+01
 0.9050926199538E+00
 0.4598305735375E+01
 0.4627211044674E+01
 0.4647841863316E+01
 0.4658387384727E+01
 0.4656807225141E+01
 0.4640805431300E+01
 0.4607803602357E+01
 0.4554912999244E+01
 0.4478907688043E+01
 0.4376202194012E+01
 0.4242838254110E+01
 0.4074486644283E+01
 0.3866472251363E+01
 0.3613834116407E+01
 0.3311438082589E+01
 0.2954171388870E+01
 0.2537281491307E+01
 0.2057051391040E+01
 0.1512681799424E+01
 0.9155729708631E+00
 0.4587977023130E+01
 0.4618418227732E+01
 0.4640748674919E+01
 0.4653118889175E+01
 0.4653431093915E+01
 0.4639311918137E+01
 0.4608086176723E+01
 0.4556752928906E+01
 0.4481966510306E+01
 0.4380026479881E+01
 0.4246881523104E+01
 0.4078153480277E+01
 0.3869188990415E+01
 0.3615148044785E+01
 0.3311142114068E+01
 0.2952443892950E+01
 0.2534824295853E+01
 0.2055212427820E+01
 0.1513592406718E+01
 0.9225350736228E+00
 0.4557580389824E+01
 0.4587697597056E+01
 0.4609868187509E+01
 0.4622254606635E+01
 0.4622762345494E+01
 0.4609012222534E+01
 0.4578314612973E+01
 0.4527647518421E+01
 0.4453641523600E+01
 0.4352575787049E+01
 0.4220390213226E+01
 0.4052719839963E+01
 0.3844958234343E+01
 0.3592357550715E+01
 0.3290175182815E+01
 0.2933885864043E+01
 0.2519513424293E+01
 0.2044282941315E+01
 0.1508529048013E+01
 0.9253028814670E+00
 0.4507478114626E+01
 0.4535433856266E+01
 0.4555610626267E+01
 0.4566234166002E+01
 0.4565275198804E+01
 0.4550421427259E+01
 0.4519051362107E+01
 0.4468211949273E+01
 0.4394602963030E+01
 0.4294572160276E+01
 0.4164126209861E+01
 0.3998963346664E+01
 0.3794534503561E+01
 0.3546140559253E+01
 0.3249075668166E+01
 0.2898835809366E+01
 0.2491447857367E+01
 0.2024122927085E+01
 0.1497170414872E+01
 0.9235149197149E+00
 0.4438202773984E+01
 0.4462185527383E+01
 0.4478553920795E+01
 0.4485646009096E+01
 0.4481557370394E+01
 0.4464112933774E+01
 0.4430839639983E+01
 0.4378941458983E+01
 0.4305279139430E+01
 0.4206358118662E+01
 0.4078329184813E+01
 0.3917007774922E+01
 0.3717919261034E+01
 0.3476379438535E+01
 0.3187622831417E+01
 0.2847001224659E+01
 0.2450310181616E+01
 0.1994445527238E+01
 0.1479306651846E+01
 0.9170701208190E+00
 0.4350462176853E+01
 0.4368694236133E+01
 0.4379458246272E+01
 0.4381248275444E+01
 0.4372338577681E+01
 0.4350755770408E+01
 0.4314250425082E+01
 0.4260268375095E+01
 0.4185923079438E+01
 0.4087971450896E+01
 0.3962796814988E+01
 0.3806404414626E+01
 0.3614437379045E+01
 0.3382224720634E+01
 0.3104878642366E+01
 0.2777469915551E+01
 0.2395343952191E+01
 0.1954773364082E+01
 0.1454813237951E+01
 0.9061466953966E+00
 0.4245150266478E+01
 0.4255902590332E+01
 0.4259292855421E+01
 0.4254007150707E+01
 0.4238542519142E+01
 0.4211181760027E+01
 0.4169965432390E+01
 0.4112659953147E+01
 0.4036721988832E+01
 0.3939260029682E+01
 0.3816995124752E+01
 0.3666224669060E+01
 0.3482796492039E+01
 0.3262106171650E+01
 0.2999139808543E+01
 0.2688600323507E+01
 0.2325189915012E+01
 0.1904241112829E+01
 0.1423484303330E+01
 0.8912053389431E+00
 0.4123358418013E+01
 0.4124972072942E+01
 0.4119265515313E+01
 0.4105140828103E+01
 0.4081347501147E+01
 0.4046464244672E+01
 0.3998873918508E+01
 0.3936730802097E+01
 0.3857919151611E+01
 0.3760002040777E+01
 0.3640159895139E+01
 0.3495119490634E+01
 0.3321077414077E+01
 0.3113628654481E+01
 0.2867723777128E+01
 0.2577701464460E+01
 0.2237486725075E+01
 0.1841156871641E+01
 0.1384593643784E+01
 0.8727697446489E+00
 0.3986376907609E+01
 0.3977290995771E+01
 0.3960842029868E+01
 0.3936152416266E+01
 0.3902234919993E+01
 0.3857983683291E+01
 0.3802155394610E+01
 0.3733339760307E+01
 0.3649917237694E+01
 0.3550001039646E+01
 0.3431359690207E+01
 0.3291316274686E+01
 0.3126621923977E+01
 0.2933306013353E+01
 0.2706518165557E+01
 0.2440406103354E+01
 0.2128135456064E+01
 0.1762289677549E+01
 0.1336330828088E+01
 0.8509962842092E+00
 0.3835714994817E+01
 0.3814514064432E+01
 0.3785805273784E+01
 0.3748915601709E+01
 0.3703110175421E+01
 0.3647593641549E+01
 0.3581500722873E+01
 0.3503874854143E+01
 0.3413632256537E+01
 0.3309506995069E+01
 0.3189970467371E+01
 0.3053116458060E+01
 0.2896500793346E+01
 0.2716924129545E+01
 0.2510151601349E+01
 0.2270584469336E+01
 0.1990966912162E+01
 0.1662396804926E+01
 0.1275377959968E+01
 0.8251067863661E+00
 0.3673108232789E+01
 0.3638586584845E+01
 0.3596302579937E+01
 0.3545755395075E+01
 0.3486430686053E+01
 0.3417813080693E+01
 0.3339388407867E+01
 0.3250634986316E+01
 0.3151001573951E+01
 0.3039867271020E+01
 0.2916475529460E+01
 0.2779830080499E+01
 0.2628534555327E+01
 0.2460549481165E+01
 0.2272830817873E+01
 0.2060809569619E+01
 0.1817694812050E+01
 0.1533746010119E+01
 0.1196302396443E+01
 0.7934308575039E+00
 0.3500516420187E+01
 0.3451753700957E+01
 0.3394873988177E+01
 0.3329504345054E+01
 0.3255302591896E+01
 0.3171980306693E+01
 0.3079317200940E+01
 0.2977167341482E+01
 0.2865456230012E+01
 0.2744165529711E+01
 0.2613298902778E+01
 0.2472817322659E+01
 0.2322524042122E+01
 0.2161865691171E+01
 0.1989592635585E+01
 0.1803181557208E+01
 0.1597864061705E+01
 0.1365036197892E+01
 0.1090193832028E+01
 0.7531553344762E+00
 0.3320110770070E+01
 0.3256554269391E+01
 0.3184458805101E+01
 0.3103530678308E+01
 0.3013543483894E+01
 0.2914369247616E+01
 0.2806002747022E+01
 0.2688581121041E+01
 0.2562400264101E+01
 0.2427928007926E+01
 0.2285811658631E+01
 0.2136873586560E+01
 0.1982081897184E+01
 0.1822470698258E+01
 0.1658959220196E+01
 0.1491965727880E+01
 0.1320589347905E+01
 0.1140858354895E+01
 0.9417346069546E+00
 0.6980998254034E+00
 0.3134244416082E+01
 0.3055790634795E+01
 0.2968368811308E+01
 0.2871722213518E+01
 0.2765689094880E+01
 0.2650238557547E+01
 0.2525500034111E+01
 0.2391790367504E+01
 0.2249643146261E+01
 0.2099844457463E+01
 0.1943478295660E+01
 0.1781983804474E+01
 0.1617224947245E+01
 0.1451569653616E+01
 0.1287966182875E+01
 0.1129978593606E+01
 0.9816693171059E+00
 0.8469752351129E+00
 0.7273575122813E+00
 0.6109235915050E+00
 0.2945401425547E+01
 0.2852466070030E+01
 0.2750214576079E+01
 0.2638403608134E+01
 0.2516907529275E+01
 0.2385756642558E+01
 0.2245166238604E+01
 0.2095562807646E+01
 0.1937615725829E+01
 0.1772282581427E+01
 0.1600876395748E+01
 0.1425164741988E+01
 0.1247515201984E+01
 0.1071110048626E+01
 0.9002680108503E+00
 0.7409378696822E+00
 0.6014834807526E+00
 0.4940087681063E+00
 0.4369643356093E+00
 0.4594904271302E+00
 0.2756118251517E+01
 0.2649679274193E+01
 0.2533765731431E+01
 0.2408152817642E+01
 0.2272762124666E+01
 0.2127704278825E+01
 0.1973304436693E+01
 0.1810122109039E+01
 0.1638978736839E+01
 0.1461004809688E+01
 0.1277717859266E+01
 0.1091145862762E+01
 0.9040192724501E+00
 0.7200722070528E+00
 0.5445257087175E+00
 0.3848837244680E+00
 0.2522493937274E+00
 0.1634515151046E+00
 0.1468516979621E+00
 0.2691965400239E+00
 0.2568872879023E+01
 0.2450464832210E+01
 0.2322721390189E+01
 0.2185467422673E+01
 0.2038726212949E+01
 0.1882772862926E+01
 0.1718155399308E+01
 0.1545707897465E+01
 0.1366577651879E+01
 0.1182281783716E+01
 0.9948060309986E+00
 0.8067620761326E+00
 0.6216317390163E+00
 0.4441545630708E+00
 0.2809958611249E+00
 0.1422136422999E+00
 0.4799095352521E-01
 0.3490689378713E-01
 0.1844808823251E-01
 0.1936962652727E+00
 0.2385949608925E+01
 0.2257588870504E+01
 0.2120396278316E+01
 0.1974276283938E+01
 0.1819425894481E+01
 0.1656397383211E+01
 0.1486103638957E+01
 0.1309817682271E+01
 0.1129198636137E+01
 0.9463601036653E+00
 0.7639905703659E+00
 0.5855390486605E+00
 0.4154962991393E+00
 0.2598668356889E+00
 0.1273660725342E+00
 0.3954782780495E-01
 0.5177952827667E-01
 0.4426466788613E-01
 0.4567336758668E-01
 0.2386017026262E+00
 0.2209313780738E+01
 0.2073366802800E+01
 0.1929441928296E+01
 0.1777517955104E+01
 0.1618029316070E+01
 0.1451902429875E+01
 0.1280511816986E+01
 0.1105644828654E+01
 0.9295125249120E+00
 0.7548144476416E+00
 0.5848554508406E+00
 0.4237177493069E+00
 0.2765193262645E+00
 0.1499523875480E+00
 0.5523649055597E-01
 0.3498369268029E-01
 0.4436981533507E-01
 0.7455230497466E-02
 0.1055540166184E+00
 0.2781314613470E+00
 0.2040540823008E+01
 0.1899572679152E+01
 0.1751697715454E+01
 0.1596941804591E+01
 0.1436045288660E+01
 0.1270388303005E+01
 0.1101846049869E+01
 0.9326958178889E+00
 0.7656029528166E+00
 0.6036709142621E+00
 0.4505335654223E+00
 0.3104793709227E+00
 0.1886373863111E+00
 0.9151394817167E-01
 0.3124726467571E-01
 0.2643128938457E-01
 0.1361106637774E-01
 0.5060325063893E-01
 0.1572734226349E+00
 0.3056429640160E+00
 0.1880824830158E+01
 0.1737416885545E+01
 0.1588119893204E+01
 0.1433035106442E+01
 0.1273329145803E+01
 0.1110919837125E+01
 0.9481750094029E+00
 0.7877587721076E+00
 0.6326053264165E+00
 0.4859605217488E+00
 0.3514452742112E+00
 0.2331171981989E+00
 0.1355438130506E+00
 0.6403907234903E-01
 0.2523937739295E-01
 0.1459770719799E-01
 0.3198081158120E-01
 0.9634962298199E-01
 0.1968066492682E+00
 0.3262668606172E+00
 0.1731020717114E+01
 0.1587559207062E+01
 0.1438856404174E+01
 0.1285266876277E+01
 0.1128617506724E+01
 0.9714592402021E+00
 0.8165874777623E+00
 0.6668794517435E+00
 0.5253009509833E+00
 0.3949634545368E+00
 0.2791645033047E+00
 0.1813851519760E+00
 0.1052221875502E+00
 0.5410777331053E-01
 0.2974183514658E-01
 0.3213448620582E-01
 0.6701133426781E-01
 0.1328634383304E+00
 0.2253869683839E+00
 0.3398997577498E+00
 0.1591830581042E+01
 0.1450367796201E+01
 0.1303590746657E+01
 0.1152625260292E+01
 0.1000334708342E+01
 0.8499364923306E+00
 0.7044688241114E+00
 0.5667553617752E+00
 0.4395269043147E+00
 0.3255104567418E+00
 0.2274494338818E+00
 0.1480433491546E+00
 0.8976708430494E-01
 0.5442620220527E-01
 0.4282224466831E-01
 0.5661044078265E-01
 0.9648695364032E-01
 0.1601199015486E+00
 0.2443659397729E+00
 0.3458306205749E+00
 0.1463847385020E+01
 0.1325730668549E+01
 0.1181263348040E+01
 0.1033465472517E+01
 0.8866123639841E+00
 0.7443612601577E+00
 0.6095685728952E+00
 0.4846699986773E+00
 0.3719237002701E+00
 0.2735070712600E+00
 0.1915028754754E+00
 0.1277943850682E+00
 0.8386455238166E-01
 0.6058521615560E-01
 0.5856536467851E-01
 0.7836973609291E-01
 0.1190934498202E+00
 0.1786648652207E+00
 0.2546414743145E+00
 0.3443808714887E+00
 0.1347410163462E+01
 0.1212379969986E+01
 0.1069485733886E+01
 0.9254247976989E+00
 0.7856601671648E+00
 0.6532625009795E+00
 0.5303458622114E+00
 0.4187060423535E+00
 0.3200339099230E+00
 0.2359405641469E+00
 0.1678850227490E+00
 0.1170474607380E+00
 0.8419003619694E-01
 0.6966277332798E-01
 0.7362113422434E-01
 0.9570247125408E-01
 0.1346215963487E+00
 0.1886810108301E+00
 0.2561535420305E+00
 0.3351115035827E+00
 0.1241867949364E+01
 0.1106075843510E+01
 0.9641257193769E+00
 0.8268389423630E+00
 0.6972699903899E+00
 0.5767820556025E+00
 0.4666142005607E+00
 0.3680486792388E+00
 0.2823750209280E+00
 0.2107852656234E+00
 0.1542589782628E+00
 0.1134548295084E+00
 0.8865312035468E-01
 0.7981586307515E-01
 0.8661187878591E-01
 0.1081837990712E+00
 0.1431689434787E+00
 0.1900881475821E+00
 0.2479005606614E+00
 0.3162896504429E+00
 0.1140176379540E+01
 0.9956764101598E+00
 0.8640487023095E+00
 0.7408771475130E+00
 0.6250253828907E+00
 0.5174511109302E+00
 0.4195279499557E+00
 0.3326419978669E+00
 0.2580028720177E+00
 0.1965567234473E+00
 0.1489279513120E+00
 0.1153847968313E+00
 0.9584961615822E-01
 0.8994628676573E-01
 0.9697063569743E-01
 0.1157978464869E+00
 0.1449680104199E+00
 0.1829377949976E+00
 0.2283203562800E+00
 0.2821753225671E+00
</DataArray>
<DataArray type="Float64" Name="S_Hyd" NumberOfComponents="1" ComponentName0="S_Hyd" format="ascii">
 0.3425281455011E+00
 0.2176744620248E+00
 0.2102738820232E+00
 0.2156462250593E+00
 0.2320589849979E+00
 0.2542467751042E+00
 0.2808172996995E+00
 0.3108017857778E+00
 0.3437664734158E+00
 0.3795083995236E+00
 0.4180041980442E+00
 0.4593649797828E+00
 0.5038262834196E+00
 0.5517531972562E+00
 0.6036600018316E+00
 0.6602677114678E+00
 0.7226044968919E+00
 0.7922442031069E+00
 0.8722274062233E+00
 0.9678288252545E+00
 0.1079723720094E+01
 0.1201162066979E+01
 0.1325589021307E+01
 0.1449930366715E+01
 0.1573695037351E+01
 0.1697556854502E+01
 0.1822395909763E+01
 0.1948834502192E+01
 0.2076845368799E+01
 0.2204544948813E+01
 0.2328922748943E+01
 0.2451761347159E+01
 0.2579035922230E+01
 0.2716950780782E+01
 0.2873404240177E+01
 0.3062882946597E+01
 0.3301357536664E+01
 0.3659392474201E+01
 0.4075457832277E+01
 0.5548859791140E+01
 0.1166608461864E+01
 0.3449869876404E+00
 0.2870967415733E+00
 0.2610516199431E+00
 0.2647660327650E+00
 0.2774118761398E+00
 0.2970842986895E+00
 0.3214356033541E+00
 0.3495517135071E+00
 0.3808789992286E+00
 0.4151683473191E+00
 0.4523535643851E+00
 0.4925157979755E+00
 0.5358663964498E+00
 0.5827505107333E+00
 0.6336676410912E+00
 0.6893249890338E+00
 0.7507380814878E+00
 0.8194890507601E+00
 0.8983440745897E+00
 0.9902503214527E+00
 0.1094662766127E+01
 0.1206935950985E+01
 0.1322171160933E+01
 0.1437640001761E+01
 0.1552527469266E+01
 0.1666973338530E+01
 0.1781323638076E+01
 0.1895677972997E+01
 0.2009406616436E+01
 0.2120742765196E+01
 0.2228073657172E+01
 0.2332116606810E+01
 0.2435726124320E+01
 0.2542172060702E+01
 0.2655294800171E+01
 0.2778042849062E+01
 0.2919609465282E+01
 0.3054821903369E+01
 0.3248053062687E+01
 0.2817167192803E+01
-0.1384938734534E+01
 0.3706484926269E+00
 0.3354497082274E+00
 0.3128166585371E+00
 0.3115794866911E+00
 0.3219267834811E+00
 0.3391098761561E+00
 0.3614254552944E+00
 0.3877306647350E+00
 0.4174535996291E+00
 0.4502922008217E+00
 0.4861472474483E+00
 0.5250705598891E+00
 0.5672485498013E+00
 0.6130032459779E+00
 0.6628110097190E+00
 0.7173510134828E+00
 0.7775995983063E+00
 0.8450531631833E+00
 0.9218292730547E+00
 0.1009516192639E+01
 0.1107117967360E+01
 0.1211097697880E+01
 0.1317702988692E+01
 0.1424553817979E+01
 0.1530641458470E+01
 0.1635701863305E+01
 0.1739636783898E+01
 0.1842089198920E+01
 0.1942075490217E+01
 0.2037993937892E+01
 0.2128504570396E+01
 0.2213387460067E+01
 0.2293261448380E+01
 0.2368614443701E+01
 0.2438374607705E+01
 0.2499365148927E+01
 0.2536769219879E+01
 0.2522692423741E+01
 0.2320136326962E+01
 0.1260664166325E+01
-0.1943713576184E+01
 0.4039500379096E+00
 0.3787553202003E+00
 0.3605663424987E+00
 0.3573127545707E+00
 0.3652485445572E+00
 0.3803605288962E+00
 0.4007408578850E+00
 0.4253210834640E+00
 0.4534725651357E+00
 0.4848674247083E+00
 0.5193753899952E+00
 0.5570217786004E+00
 0.5979671039801E+00
 0.6425067280858E+00
 0.6910861019229E+00
 0.7443418823723E+00
 0.8031834467822E+00
 0.8689008519522E+00
 0.9429997198964E+00
 0.1026241576806E+01
 0.1117451530247E+01
 0.1213778916403E+01
 0.1312236323175E+01
 0.1410739135727E+01
 0.1508165161158E+01
 0.1603944274029E+01
 0.1697612605313E+01
 0.1788452637020E+01
 0.1875254957522E+01
 0.1956429130238E+01
 0.2030516464976E+01
 0.2096418626538E+01
 0.2153015156472E+01
 0.2198156904713E+01
 0.2227154877131E+01
 0.2229209138396E+01
 0.2180760384814E+01
 0.2024435121168E+01
 0.1579148176249E+01
 0.4117217688648E+00
-0.1985279952580E+01
 0.4403871238844E+00
 0.4202453824304E+00
 0.4053340035112E+00
 0.4014711150120E+00
 0.4075263923119E+00
 0.4207670635587E+00
 0.4393745407489E+00
 0.4623038275145E+00
 0.4889242850634E+00
 0.5188846098177E+00
 0.5520316097935E+00
 0.5883655217982E+00
 0.6280204700060E+00
 0.6712616590283E+00
 0.7184962050074E+00
 0.7703055374294E+00
 0.8274965651004E+00
 0.8911077370696E+00
 0.9621458161763E+00
 0.1040848428706E+01
 0.1125975654197E+01
 0.1215134844830E+01
 0.1305857496363E+01
 0.1396287341263E+01
 0.1485234441997E+01
 0.1571895755392E+01
 0.1655514825842E+01
 0.1735096874611E+01
 0.1809252060616E+01
 0.1876295317431E+01
 0.1934496346721E+01
 0.1981973208417E+01
 0.2016167657309E+01
 0.2032856517165E+01
 0.2024156183384E+01
 0.1974741053112E+01
 0.1853862429496E+01
 0.1592346000023E+01
 0.1036871787439E+01
-0.6332803354369E-01
-0.1892805816477E+01
 0.4781545051473E+00
 0.4607567600653E+00
 0.4480402271819E+00
 0.4440644320084E+00
 0.4487434000354E+00
 0.4603363563376E+00
 0.4773098704786E+00
 0.4986702434047E+00
 0.5238001302304E+00
 0.5523382196279E+00
 0.5841128002505E+00
 0.6191014108592E+00
 0.6574111836857E+00
 0.6992740135442E+00
 0.7450523115125E+00
 0.7952594664306E+00
 0.8505763653148E+00
 0.9117910862097E+00
 0.9795206840147E+00
 0.1053659518354E+01
 0.1132953173409E+01
 0.1215327997265E+01
 0.1298674503805E+01
 0.1381306076556E+01
 0.1461989545729E+01
 0.1539744734347E+01
 0.1613585995380E+01
 0.1682302171306E+01
 0.1744342972566E+01
 0.1797875429585E+01
 0.1840856750778E+01
 0.1870728631510E+01
 0.1883811087219E+01
 0.1874270463944E+01
 0.1832060486732E+01
 0.1739183499064E+01
 0.1561904668618E+01
 0.1235321215735E+01
 0.6478812723172E+00
-0.3377424308546E+00
-0.1771520003798E+01
 0.5163776832950E+00
 0.5005307727494E+00
 0.4892322548046E+00
 0.4852648584208E+00
 0.4889096967247E+00
 0.4990752781980E+00
 0.5145440471886E+00
 0.5344150510796E+00
 0.5580962359947E+00
 0.5852260331731E+00
 0.6156192195599E+00
 0.6492325569925E+00
 0.6861458591260E+00
 0.7265550578724E+00
 0.7707723750807E+00
 0.8192331857201E+00
 0.8724829963177E+00
 0.9310815000796E+00
 0.9953449726142E+00
 0.1064936526700E+01
 0.1138609535084E+01
 0.1214518773656E+01
 0.1290807461289E+01
 0.1365912857485E+01
 0.1438572096979E+01
 0.1507670759817E+01
 0.1572045760421E+01
 0.1630314806545E+01
 0.1680783435280E+01
 0.1721456574772E+01
 0.1749993468013E+01
 0.1763291232483E+01
 0.1756837913338E+01
 0.1723706546617E+01
 0.1652634327143E+01
 0.1524675795782E+01
 0.1307352802907E+01
 0.9470365052697E+00
 0.3683792136352E+00
-0.4996684855470E+00
-0.1652875553980E+01
 0.5545856965574E+00
 0.5396346958357E+00
 0.5292268610303E+00
 0.5252517636443E+00
 0.5280723287407E+00
 0.5369969040052E+00
 0.5510815366396E+00
 0.5695383029468E+00
 0.5918124669069E+00
 0.6175492275770E+00
 0.6465542776533E+00
 0.6787654282924E+00
 0.7142350224700E+00
 0.7531209811929E+00
 0.7956811410326E+00
 0.8422672107222E+00
 0.8932904035005E+00
 0.9491108138010E+00
 0.1009812699497E+01
 0.1074899684830E+01
 0.1143142035878E+01
 0.1212861480383E+01
 0.1282381763793E+01
 0.1350230101605E+01
 0.1415122295301E+01
 0.1475842866767E+01
 0.1531092777947E+01
 0.1579354649275E+01
 0.1618809334367E+01
 0.1647310889526E+01
 0.1662267476641E+01
 0.1660172087297E+01
 0.1635961020894E+01
 0.1582102778396E+01
 0.1486943874128E+01
 0.1332106016446E+01
 0.1088970916696E+01
 0.7163720121888E+00
 0.1659145935229E+00
-0.5958176028110E+00
-0.1544785904359E+01
 0.5925102765413E+00
 0.5780831569446E+00
 0.5682137581583E+00
 0.5641737659939E+00
 0.5662945381647E+00
 0.5741238789026E+00
 0.5869321880088E+00
 0.6040447740669E+00
 0.6249522877602E+00
 0.6493121201102E+00
 0.6769243988081E+00
 0.7077096705281E+00
 0.7416928725070E+00
 0.7789925392083E+00
 0.8198095943627E+00
 0.8644105857190E+00
 0.9130798333974E+00
 0.9660068629491E+00
 0.1023096198983E+01
 0.1083739273221E+01
 0.1146726179274E+01
 0.1210502761395E+01
 0.1273523521208E+01
 0.1334381255080E+01
 0.1391776497855E+01
 0.1444418765929E+01
 0.1490906653452E+01
 0.1529618593056E+01
 0.1558634400281E+01
 0.1575684675903E+01
 0.1577990136314E+01
 0.1561781083696E+01
 0.1521701306558E+01
 0.1450040860189E+01
 0.1335437401809E+01
 0.1161138265158E+01
 0.9034167759248E+00
 0.5322110918416E+00
 0.1791343534036E-01
-0.6519412112453E+00
-0.1448058617518E+01
 0.6299952615797E+00
 0.6158775025022E+00
 0.6063129098767E+00
 0.6021469740103E+00
 0.6036417150795E+00
 0.6104860712123E+00
 0.6221107139243E+00
 0.6379432055726E+00
 0.6575225024553E+00
 0.6805219596741E+00
 0.7067388422512E+00
 0.7360779126677E+00
 0.7685370046845E+00
 0.8041946340010E+00
 0.8431940165984E+00
 0.8857183134882E+00
 0.9319355830035E+00
 0.9818913310346E+00
 0.1035350013711E+01
 0.1091622880320E+01
 0.1149520021469E+01
 0.1207581052173E+01
 0.1264356567627E+01
 0.1318487865593E+01
 0.1368665342101E+01
 0.1413544444703E+01
 0.1451649243315E+01
 0.1481281833372E+01
 0.1500447870871E+01
 0.1506791133624E+01
 0.1497415445394E+01
 0.1468422899157E+01
 0.1414391744683E+01
 0.1327782442861E+01
 0.1198023755643E+01
 0.1010557911835E+01
 0.7465765135303E+00
 0.3850082574486E+00
-0.9110890993334E-01
-0.6828520987590E+00
-0.1361565958930E+01
 0.6669506958907E+00
 0.6530190085209E+00
 0.6436053768147E+00
 0.6392615732968E+00
 0.6401750975159E+00
 0.6461171839295E+00
 0.6566358267644E+00
 0.6712457108656E+00
 0.6895328812124E+00
 0.7111886813822E+00
 0.7360094746869E+00
 0.7638855133596E+00
 0.7947880690672E+00
 0.8287557620493E+00
 0.8658748487159E+00
 0.9062491356509E+00
 0.9499422916733E+00
 0.9968789954349E+00
 0.1046713866616E+01
 0.1098700202846E+01
 0.1151667178643E+01
 0.1204226472961E+01
 0.1255000520216E+01
 0.1302667480916E+01
 0.1345912416103E+01
 0.1383354007849E+01
 0.1413465497089E+01
 0.1434498389690E+01
 0.1444412784649E+01
 0.1440806380764E+01
 0.1420736741829E+01
 0.1380298681125E+01
 0.1314193016354E+01
 0.1215314272603E+01
 0.1074194815434E+01
 0.8786568016391E+00
 0.6143276928759E+00
 0.2670471392864E+00
-0.1718272091474E+00
-0.6974279144823E+00
-0.1283870800220E+01
 0.7033275879614E+00
 0.6895129466050E+00
 0.6801501254334E+00
 0.6755888026769E+00
 0.6759498361795E+00
 0.6810521825610E+00
 0.6905291440041E+00
 0.7039672214685E+00
 0.7209957814714E+00
 0.7413246348434E+00
 0.7647505231718E+00
 0.7911502804178E+00
 0.8204693897849E+00
 0.8527073955218E+00
 0.8878955722985E+00
 0.9260637899706E+00
 0.9671832624492E+00
 0.1011077639458E+01
 0.1057314940689E+01
 0.1105106354818E+01
 0.1153298964955E+01
 0.1200560920896E+01
 0.1245569532795E+01
 0.1287032188685E+01
 0.1323633347127E+01
 0.1353969616574E+01
 0.1376484008204E+01
 0.1389401381672E+01
 0.1390665081265E+01
 0.1377867849583E+01
 0.1348086895293E+01
 0.1297512811452E+01
 0.1221115391199E+01
 0.1112402488535E+01
 0.9631614972346E+00
 0.7635292159313E+00
 0.5028954638951E+00
 0.1722460943009E+00
-0.2316941404168E+00
-0.7011958121177E+00
-0.1213678451507E+01
 0.7391031799413E+00
 0.7253693343883E+00
 0.7159933681876E+00
 0.7111864960803E+00
 0.7110150277899E+00
 0.7153257407665E+00
 0.7238141569596E+00
 0.7361249242619E+00
 0.7519257665623E+00
 0.7709442872098E+00
 0.7929782992219E+00
 0.8178921577161E+00
 0.8456065447936E+00
 0.8760833355674E+00
 0.9093016922835E+00
 0.9452236863036E+00
 0.9837394302097E+00
 0.1024588255427E+01
 0.1067269628517E+01
 0.1110964216364E+01
 0.1154535951280E+01
 0.1196698257810E+01
 0.1236171527997E+01
 0.1271687658941E+01
 0.1301935237882E+01
 0.1325501543609E+01
 0.1340817499245E+01
 0.1346103427298E+01
 0.1339313599691E+01
 0.1318074629154E+01
 0.1279541401977E+01
 0.1220083320211E+01
 0.1135044500521E+01
 0.1018650305482E+01
 0.8639738760961E+00
 0.6632628777363E+00
 0.4089783036575E+00
 0.9585564604047E-01
-0.2759943757486E+00
-0.6977138437124E+00
-0.1149918775207E+01
 0.7742719510467E+00
 0.7606025279072E+00
 0.7511738518399E+00
 0.7461031106275E+00
 0.7454144857540E+00
 0.7489714566081E+00
 0.7565154231063E+00
 0.7677377387433E+00
 0.7823392455884E+00
 0.8000639341035E+00
 0.8207109247693E+00
 0.8441329127988E+00
 0.8702269499483E+00
 0.8989191057104E+00
 0.9301398832073E+00
 0.9637899445106E+00
 0.9996887609876E+00
 0.1037505383436E+01
 0.1076684902862E+01
 0.1116386159775E+01
 0.1155489141246E+01
 0.1192744546758E+01
 0.1226907750964E+01
 0.1256732542361E+01
 0.1280916342302E+01
 0.1298048301567E+01
 0.1306563296408E+01
 0.1304697219015E+01
 0.1290440790877E+01
 0.1261489216645E+01
 0.1215123447043E+01
 0.1147954372811E+01
 0.1055768347665E+01
 0.9335516537679E+00
 0.7756132473043E+00
 0.5760471704626E+00
 0.3297582878533E+00
 0.3416949367740E-01
-0.3085365094993E+00
-0.6893362285032E+00
-0.1091720905535E+01
 0.8088399285967E+00
 0.7952304832653E+00
 0.7857258978048E+00
 0.7803805516877E+00
 0.7791876801337E+00
 0.7820215475895E+00
 0.7886579960632E+00
 0.7988258640961E+00
 0.8122541389694E+00
 0.8287014225882E+00
 0.8479680639318E+00
 0.8698958306888E+00
 0.8943594607358E+00
 0.9212514067423E+00
 0.9504572960313E+00
 0.9818227087264E+00
 0.1015105924242E+01
 0.1049917493941E+01
 0.1085659402178E+01
 0.1121475351000E+01
 0.1156260884465E+01
 0.1188798314274E+01
 0.1217872547635E+01
 0.1242258133138E+01
 0.1260665934272E+01
 0.1271696864667E+01
 0.1273803877548E+01
 0.1265256344297E+01
 0.1244104052237E+01
 0.1208140325235E+01
 0.1154810241670E+01
 0.1081009652214E+01
 0.9830032302957E+00
 0.8565363658009E+00
 0.6970561858798E+00
 0.5002258953483E+00
 0.2628604429954E+00
-0.1571656353965E-01
-0.3321101150471E+00
-0.6776524393597E+00
-0.1038363647916E+01
 0.8428209793831E+00
 0.8292739933769E+00
 0.8196811594603E+00
 0.8140561129275E+00
 0.8123706015024E+00
 0.8145067947500E+00
 0.8202670341902E+00
 0.8294103884266E+00
 0.8416895544958E+00
 0.8568758668733E+00
 0.8747706407431E+00
 0.8952053951441E+00
 0.9180339767782E+00
 0.9431176167128E+00
 0.9703009833483E+00
 0.9993806438077E+00
 0.1030062116168E+01
 0.1061907352035E+01
 0.1094284288086E+01
 0.1126326748349E+01
 0.1156945606873E+01
 0.1184950835684E+01
 0.1209153320408E+01
 0.1228348259098E+01
 0.1241264376268E+01
 0.1246523050423E+01
 0.1242607606135E+01
 0.1227836445901E+01
 0.1200337669016E+01
 0.1158026542593E+01
 0.1098540174229E+01
 0.1019085786282E+01
 0.9164170698554E+00
 0.7870056919113E+00
 0.6273158113676E+00
 0.4343164915456E+00
 0.2062948652990E+00
-0.5609541663124E-01
-0.3487935578880E+00
-0.6637487410398E+00
-0.9892224094589E+00
 0.8762343319501E+00
 0.8627560131579E+00
 0.8530696440878E+00
 0.8471638036187E+00
 0.8449964856687E+00
 0.8464566165627E+00
 0.8513675525945E+00
 0.8595129768897E+00
 0.8706654995661E+00
 0.8846073832043E+00
 0.9011405713684E+00
 0.9200869886934E+00
 0.9412810825326E+00
 0.9645553639342E+00
 0.9897174484026E+00
 0.1016520586093E+01
 0.1044624995351E+01
 0.1073552366167E+01
 0.1102643945974E+01
 0.1131027897936E+01
 0.1157630418446E+01
 0.1181286435339E+01
 0.1200830603535E+01
 0.1215079325160E+01
 0.1222783320505E+01
 0.1222592005200E+01
 0.1213029585758E+01
 0.1192476595536E+01
 0.1159155105451E+01
 0.1111120390740E+01
 0.1046220083416E+01
 0.9619848371222E+00
 0.8556490064421E+00
 0.7243584399865E+00
 0.5654658261181E+00
 0.3770101099651E+00
 0.1583980565796E+00
-0.8879628409041E-01
-0.3601699339319E+00
-0.6483732008026E+00
-0.9437123710541E+00
 0.9091028810216E+00
 0.8957011013307E+00
 0.8859203026112E+00
 0.8797352502452E+00
 0.8770963880279E+00
 0.8778991915874E+00
 0.8819842685583E+00
 0.8891556237270E+00
 0.8992026258848E+00
 0.9119168415727E+00
 0.9271005089125E+00
 0.9445666102469E+00
 0.9641317219608E+00
 0.9856021633440E+00
 0.1008752291009E+01
 0.1033297302491E+01
 0.1058858685295E+01
 0.1084924909585E+01
 0.1110816564327E+01
 0.1135659582432E+01
 0.1158395634466E+01
 0.1177882799744E+01
 0.1192978230540E+01
 0.1202520480406E+01
 0.1205286028165E+01
 0.1199958797374E+01
 0.1185112640453E+01
 0.1159200850734E+01
 0.1120551533754E+01
 0.1067372554657E+01
 0.9977322869630E+00
 0.9094853848793E+00
 0.8003251434365E+00
 0.6680090918178E+00
 0.5106530694927E+00
 0.3271605742432E+00
 0.1177823319690E+00
-0.1152952963264E+00
-0.3674887057962E+00
-0.6320621947247E+00
-0.9012124396229E+00
 0.9414519892638E+00
 0.9281349900743E+00
 0.9182613548144E+00
 0.9118003061906E+00
 0.9086996261066E+00
 0.9088615873378E+00
 0.9121415066768E+00
 0.9183604553838E+00
 0.9273220055647E+00
 0.9388256363514E+00
 0.9526736040019E+00
 0.9686706137144E+00
 0.9866169085984E+00
 0.1006295110595E+01
 0.1027449932202E+01
 0.1049763328880E+01
 0.1072823818846E+01
 0.1096092614046E+01
 0.1118874622605E+01
 0.1140296364414E+01
 0.1159315235930E+01
 0.1174811301482E+01
 0.1185663571143E+01
 0.1190733881026E+01
 0.1188827784917E+01
 0.1178669102156E+01
 0.1158888396079E+01
 0.1128019934122E+01
 0.1084506472216E+01
 0.1026716064703E+01
 0.9529410731010E+00
 0.8613519795405E+00
 0.7500706201196E+00
 0.6173997998338E+00
 0.4621016792804E+00
 0.2837712233993E+00
 0.8328350767354E-01
-0.1367688220825E+00
-0.3718141393779E+00
-0.6152697737440E+00
-0.8609946433155E+00
 0.9733085444652E+00
 0.9600843675103E+00
 0.9501203706137E+00
 0.9433875074212E+00
 0.9398340943506E+00
 0.9393698824350E+00
 0.9418631376074E+00
 0.9471495734016E+00
 0.9550449356129E+00
 0.9653554767951E+00
 0.9778832831545E+00
 0.9924254694602E+00
 0.1008767470364E+01
 0.1026670627136E+01
 0.1045853402129E+01
 0.1065968866579E+01
 0.1086577608559E+01
 0.1107118637934E+01
 0.1126885309455E+01
 0.1145007053280E+01
 0.1160457286326E+01
 0.1172137331944E+01
 0.1178947820716E+01
 0.1179775027186E+01
 0.1173456392748E+01
 0.1158759958748E+01
 0.1134378432640E+01
 0.1098932974568E+01
 0.1050986424343E+01
 0.9890702690852E+00
 0.9116984870529E+00
 0.8173429033114E+00
 0.7045185662526E+00
 0.5720074806742E+00
 0.4191131602140E+00
 0.2459768998189E+00
 0.5393113406389E-01
-0.1541931301065E+00
-0.3738787895136E+00
-0.5990352706387E+00
-0.8216342059775E+00
 0.1004702233937E+01
 0.9915664342177E+00
 0.9815081326697E+00
 0.9745001015665E+00
 0.9704950993820E+00
 0.9694109310473E+00
 0.9711278290275E+00
 0.9754944452974E+00
 0.9823372194798E+00
 0.9914683723072E+00
 0.1002689829375E+01
 0.1015791936695E+01
 0.1030546949926E+01
 0.1046697401351E+01
 0.1063938851100E+01
 0.1081899633714E+01
 0.1100117050793E+01
 0.1118012455956E+01
 0.1134871311821E+01
 0.1149828058170E+01
 0.1161872573284E+01
 0.1169927036158E+01
 0.1172913685920E+01
 0.1169744238101E+01
 0.1159290134241E+01
 0.1140366641152E+01
 0.1111732030334E+01
 0.1072097444972E+01
 0.1020147406250E+01
 0.9545750415511E+00
 0.8741073979022E+00
 0.7774966498843E+00
 0.6636105561031E+00
 0.5316439039897E+00
 0.3813450421920E+00
 0.2132790776701E+00
 0.2909949310134E-01
-0.1682326948085E+00
-0.3743609276939E+00
-0.5835700173857E+00
-0.7878338068929E+00
 0.1035653392228E+01
 0.1022605019907E+01
 0.1012447885606E+01
 0.1005161993439E+01
 0.1000706409643E+01
 0.9990078294598E+00
 0.9999577957212E+00
 0.1003416697092E+01
 0.1009220575690E+01
 0.1017187058236E+01
 0.1027118037238E+01
 0.1038797943673E+01
 0.1051987442312E+01
 0.1066412594561E+01
 0.1081749130802E+01
 0.1097604342148E+01
 0.1113496255570E+01
 0.1128832379167E+01
 0.1142893265515E+01
 0.1154819991378E+01
 0.1163619173551E+01
 0.1168233578985E+01
 0.1167607130352E+01
 0.1160677775811E+01
 0.1146352459498E+01
 0.1123495631878E+01
 0.1090933050961E+01
 0.1047466952257E+01
 0.9919026409947E+00
 0.9230901420572E+00
 0.8399579340055E+00
 0.7415152588585E+00
 0.6269425772672E+00
 0.4957868609871E+00
 0.3481592082305E+00
 0.1849494475385E+00
 0.8032450387214E-02
-0.1795897836519E+00
-0.3737502694252E+00
-0.5691614682940E+00
-0.7596760861828E+00
 0.1066198243181E+01
 0.1053240530104E+01
 0.1042986894799E+01
 0.1035426951860E+01
 0.1030527853660E+01
 0.1028225730905E+01
 0.1028422995058E+01
 0.1030990838137E+01
 0.1035774034854E+01
 0.1042595157077E+01
 0.1051256176809E+01
 0.1061536346959E+01
 0.1073186113163E+01
 0.1085917068065E+01
 0.1099387702959E+01
 0.1113187313888E+01
 0.1126817884664E+01
 0.1139676065605E+01
 0.1151039754957E+01
 0.1160057821610E+01
 0.1165753740044E+01
 0.1167090609376E+01
 0.1163034077385E+01
 0.1152548905136E+01
 0.1134578608806E+01
 0.1108038135859E+01
 0.1071821830529E+01
 0.1024823178950E+01
 0.9659663789879E+00
 0.8942527860222E+00
 0.8088005393989E+00
 0.7088541773397E+00
 0.5938715481438E+00
 0.4637008777502E+00
 0.3187498482875E+00
 0.1601573777604E+00
-0.1005549163850E-01
-0.1889004762307E+00
-0.3724309647593E+00
-0.5558969891980E+00
-0.7342557252379E+00
 0.1096366055140E+01
 0.1083499982708E+01
 0.1073151024715E+01
 0.1065319929641E+01
 0.1059983333333E+01
 0.1057087320632E+01
 0.1056544928127E+01
 0.1058237517817E+01
 0.1062017988768E+01
 0.1067713573845E+01
 0.1075126523014E+01
 0.1084031655894E+01
 0.1094170505657E+01
 0.1105242051770E+01
 0.1116889891806E+01
 0.1128688022578E+01
 0.1140125175495E+01
 0.1150589660033E+01
 0.1159358564210E+01
 0.1165589432697E+01
 0.1168322633620E+01
 0.1166541361368E+01
 0.1159232975230E+01
 0.1145389366323E+01
 0.1123991157654E+01
 0.1094004278777E+01
 0.1054391636216E+01
 0.1004136720299E+01
 0.9422791034628E+00
 0.8679642218165E+00
 0.7804867450778E+00
 0.6793044966388E+00
 0.5641193859632E+00
 0.4350354763637E+00
 0.2927011411733E+00
 0.1384433140056E+00
-0.2562682224090E-01
-0.1965733573559E+00
-0.3706897787825E+00
-0.5437081351415E+00
-0.7113020463303E+00
 0.1126185911616E+01
 0.1113410233196E+01
 0.1102965693146E+01
 0.1094865229786E+01
 0.1089096020391E+01
 0.1085614588641E+01
 0.1084344503130E+01
 0.1085176894849E+01
 0.1087972395828E+01
 0.1092562767180E+01
 0.1098750810019E+01
 0.1106307656943E+01
 0.1114967165564E+01
 0.1124417410414E+01
 0.1134289205573E+01
 0.1144143620107E+01
 0.1153458530939E+01
 0.1161616012364E+01
 0.1167893825438E+01
 0.1171458826189E+01
 0.1171368208855E+01
 0.1166624997537E+01
 0.1156238146083E+01
 0.1139226707470E+01
 0.1114608430323E+01
 0.1081399951469E+01
 0.1038631721587E+01
 0.9853747966508E+00
 0.9207793058662E+00
 0.8441263022173E+00
 0.7548731149853E+00
 0.6526692555699E+00
 0.5374298288231E+00
 0.4094747746458E+00
 0.2696462657664E+00
 0.1194106884447E+00
-0.3907222388568E-01
-0.2029445288688E+00
-0.3687337858869E+00
-0.5325760113129E+00
-0.6905978654033E+00
 0.1155686612421E+01
 0.1142997839847E+01
 0.1132455855151E+01
 0.1124086527118E+01
 0.1117888385318E+01
 0.1113828836342E+01
 0.1111842003197E+01
 0.1111828568721E+01
 0.1113656684768E+01
 0.1117162636113E+01
 0.1122150110688E+01
 0.1128387295416E+01
 0.1135601536368E+01
 0.1143471566133E+01
 0.1151617302645E+01
 0.1159588961326E+01
 0.1166855611598E+01
 0.1172794836016E+01
 0.1176686232567E+01
 0.1177706374467E+01
 0.1174929097554E+01
 0.1167376926429E+01
 0.1154080156603E+01
 0.1134084740080E+01
 0.1106445080973E+01
 0.1070227561008E+01
 0.1024528291116E+01
 0.9685024633535E+00
 0.9014049390522E+00
 0.8226431069045E+00
 0.7318228204223E+00
 0.6287645466191E+00
 0.5135684150638E+00
 0.3867354284892E+00
 0.2492625706139E+00
 0.1027174543268E+00
-0.5072201155880E-01
-0.2082890118085E+00
-0.3667277889033E+00
-0.5224993058375E+00
-0.6720722207053E+00
 0.1184896577670E+01
 0.1172288978969E+01
 0.1161645974047E+01
 0.1153006880462E+01
 0.1146382214895E+01
 0.1141750677638E+01
 0.1139057058166E+01
 0.1138211521880E+01
 0.1139089673889E+01
 0.1141532425101E+01
 0.1145344736400E+01
 0.1150292579259E+01
 0.1156097877540E+01
 0.1162431443677E+01
 0.1168903977210E+01
 0.1175056642037E+01
 0.1180351432762E+01
 0.1184162862551E+01
 0.1185773245006E+01
 0.1184369062341E+01
 0.1179040482038E+01
 0.1168829111936E+01
 0.1152786180003E+01
 0.1129983980663E+01
 0.1099512647729E+01
 0.1060486731819E+01
 0.1012065378077E+01
 0.9534836786851E+00
 0.8840946512408E+00
 0.8034222458527E+00
 0.7112067958927E+00
 0.6074201467193E+00
 0.4923220298694E+00
 0.3665644376180E+00
 0.2312670147679E+00
 0.8806879818420E-01
-0.6085533157264E-01
-0.2128344172012E+00
-0.3648063934310E+00
-0.5135003274492E+00
-0.6556629199259E+00
 0.1213843771365E+01
 0.1201309383427E+01
 0.1190559995862E+01
 0.1181648736957E+01
 0.1174598622572E+01
 0.1169400036319E+01
 0.1166008619071E+01
 0.1164344070161E+01
 0.1164289502318E+01
 0.1165690643553E+01
 0.1168354152992E+01
 0.1172044500113E+01
 0.1176479200440E+01
 0.1181322432128E+01
 0.1186177158140E+01
 0.1190577044615E+01
 0.1193978461854E+01
 0.1195753989840E+01
 0.1195189280050E+01
 0.1191480715732E+01
 0.1183734356315E+01
 0.1171010371751E+01
 0.1152380346220E+01
 0.1126942074868E+01
 0.1093820077214E+01
 0.1052174956378E+01
 0.1001225639477E+01
 0.9402822417467E+00
 0.8687888270294E+00
 0.7863758964094E+00
 0.6929045649030E+00
 0.5884797982949E+00
 0.4734981885824E+00
 0.3487369268690E+00
 0.2154119994042E+00
 0.7521097545570E-01
-0.6970847330586E-01
-0.2167702696164E+00
-0.3630838716308E+00
-0.5056041719927E+00
-0.6413130045847E+00
 0.1242555640596E+01
 0.1230084293470E+01
 0.1219221323750E+01
 0.1210033926070E+01
 0.1202558046065E+01
 0.1196796132345E+01
 0.1192714925018E+01
 0.1190243809116E+01
 0.1189273559706E+01
 0.1189654985369E+01
 0.1191196897716E+01
 0.1193662955930E+01
 0.1196767205712E+01
 0.1200168346958E+01
 0.1203462905553E+01
 0.1206178377124E+01
 0.1207766704455E+01
 0.1207599414506E+01
 0.1204965887315E+01
 0.1199072212881E+01
 0.1189039772351E+01
 0.1173946663842E+01
 0.1152884081325E+01
 0.1124974208347E+01
 0.1089374227732E+01
 0.1045288209025E+01
 0.9919910890270E+00
 0.9288626322088E+00
 0.8554304837602E+00
 0.7714216461408E+00
 0.6768048363466E+00
 0.5718012710442E+00
 0.4569241980315E+00
 0.3330540190071E+00
 0.2014816789184E+00
 0.6392596267803E-01
-0.7748154306024E-01
-0.2202554545452E+00
-0.3616566541489E+00
-0.4988329145418E+00
-0.6289678913837E+00
 0.1271059070188E+01
 0.1258638419365E+01
 0.1247652796555E+01
 0.1238183651029E+01
 0.1230280240445E+01
 0.1223957465299E+01
 0.1219193470538E+01
 0.1215927564321E+01
 0.1214058422692E+01
 0.1213442257235E+01
 0.1213890506216E+01
 0.1215166684228E+01
 0.1216982231063E+01
 0.1218991401034E+01
 0.1220785413380E+01
 0.1221886714136E+01
 0.1221743786906E+01
 0.1219727756088E+01
 0.1215131911361E+01
 0.1207171681895E+01
 0.1194983071938E+01
 0.1177661357512E+01
 0.1154316428495E+01
 0.1124093492531E+01
 0.1086180335589E+01
 0.1039821504580E+01
 0.9843437488727E+00
 0.9191907348017E+00
 0.8439660131602E+00
 0.7584831440158E+00
 0.6628058909275E+00
 0.5572562396601E+00
 0.4424462321346E+00
 0.3193408247178E+00
 0.1892886753757E+00
 0.5402692213904E-01
-0.8434394339077E-01
-0.2234232653729E+00
-0.3606052866132E+00
-0.4932036258565E+00
-0.6185757632939E+00
 0.1299380349974E+01
 0.1286995913424E+01
 0.1275876670760E+01
 0.1266118478279E+01
 0.1257784267056E+01
 0.1250901794429E+01
 0.1245460971829E+01
 0.1241411343189E+01
 0.1238659795154E+01
 0.1237068312343E+01
 0.1236451445958E+01
 0.1236573202189E+01
 0.1237143205461E+01
 0.1237812180556E+01
 0.1238167014205E+01
 0.1237726036041E+01
 0.1235935033116E+01
 0.1232165171399E+01
 0.1225713641493E+01
 0.1215804683748E+01
 0.1201588103038E+01
 0.1182175487555E+01
 0.1156694348923E+01
 0.1124311324017E+01
 0.1084242444345E+01
 0.1035769403912E+01
 0.9782662264260E+00
 0.9112344618823E+00
 0.8343457921837E+00
 0.7474905979276E+00
 0.6508158111385E+00
 0.5447300418831E+00
 0.4299283867807E+00
 0.3074445854222E+00
 0.1786711989980E+00
 0.4535437187258E-01
-0.9043871367990E-01
-0.2263851692444E+00
-0.3599962161704E+00
-0.4887282204817E+00
-0.6100880265964E+00
 0.1327545153687E+01
 0.1315180351438E+01
 0.1303914607601E+01
 0.1293858328349E+01
 0.1285088482294E+01
 0.1277646119262E+01
 0.1271533335628E+01
 0.1266710291888E+01
 0.1263092455808E+01
 0.1260547993213E+01
 0.1258895059889E+01
 0.1257898757365E+01
 0.1257267613503E+01
 0.1256649629691E+01
 0.1255628190180E+01
 0.1253718270886E+01
 0.1250363539793E+01
 0.1244935463304E+01
 0.1236734952650E+01
 0.1224994383796E+01
 0.1208876422384E+01
 0.1187507991792E+01
 0.1160033001463E+01
 0.1125637715239E+01
 0.1083563794213E+01
 0.1033126464228E+01
 0.9737422163107E+00
 0.9049642786740E+00
 0.8265246750075E+00
 0.7383811402407E+00
 0.6407525863516E+00
 0.5341213544391E+00
 0.4192517460622E+00
 0.2972329809605E+00
 0.1694905411762E+00
 0.3777298528704E-01
-0.9588599896962E-01
-0.2292337671228E+00
-0.3598834763089E+00
-0.4854139305066E+00
-0.6034595393208E+00
 0.1355578528433E+01
 0.1343214721941E+01
 0.1331787664062E+01
 0.1321422466882E+01
 0.1312210524495E+01
 0.1304206658067E+01
 0.1297425626935E+01
 0.1291838652648E+01
 0.1287370207707E+01
 0.1283895077560E+01
 0.1281235513791E+01
 0.1279158282181E+01
 0.1277371462902E+01
 0.1275521036809E+01
 0.1273187583177E+01
 0.1269883332362E+01
 0.1265050244439E+01
 0.1258060179066E+01
 0.1248217433222E+01
 0.1234761708234E+01
 0.1216867481282E+01
 0.1193675929540E+01
 0.1164345999520E+01
 0.1128081596425E+01
 0.1084147173886E+01
 0.1031887639839E+01
 0.9707569381303E+00
 0.9003536486896E+00
 0.8204623923710E+00
 0.7310990972729E+00
 0.6325441375392E+00
 0.5253418349385E+00
 0.4103135017561E+00
 0.2885926226939E+00
 0.1616289248543E+00
 0.3116893843060E-01
-0.1007858457855E+00
-0.2320451887688E+00
-0.3603102121254E+00
-0.4832639334879E+00
-0.5986486969894E+00
 0.1383504893507E+01
 0.1371121422568E+01
 0.1359516287415E+01
 0.1348829495931E+01
 0.1339167299008E+01
 0.1330598823960E+01
 0.1323152034951E+01
 0.1316809720390E+01
 0.1311505828256E+01
 0.1307122225659E+01
 0.1303485745699E+01
 0.1300365350441E+01
 0.1297469253278E+01
 0.1294442020553E+01
 0.1290862002545E+01
 0.1286239152575E+01
 0.1280013985032E+01
 0.1271558697388E+01
 0.1260180499005E+01
 0.1245125484526E+01
 0.1225578793311E+01
 0.1200694679343E+01
 0.1169645643294E+01
 0.1131651087107E+01
 0.1085995233860E+01
 0.1032048634114E+01
 0.9692975136814E+00
 0.8973794073270E+00
 0.8161238719526E+00
 0.7255961826261E+00
 0.6261282864152E+00
 0.5183157550870E+00
 0.4030261439285E+00
 0.2814277315209E+00
 0.1549876793085E+00
 0.2544771802542E-01
-0.1052204717298E+00
-0.2348810523240E+00
-0.3613100062684E+00
-0.4822779651549E+00
-0.5956173853876E+00
 0.1411348048645E+01
 0.1398922264110E+01
 0.1387120314740E+01
 0.1376097347598E+01
 0.1365974964003E+01
 0.1356837201322E+01
 0.1348725839910E+01
 0.1341635801409E+01
 0.1335511022553E+01
 0.1330240932088E+01
 0.1325657420295E+01
 0.1321532138873E+01
 0.1317573949314E+01
 0.1313426518846E+01
 0.1308666433631E+01
 0.1302801712848E+01
 0.1295271554673E+01
 0.1285448307340E+01
 0.1272641496111E+01
 0.1256102568065E+01
 0.1235026085373E+01
 0.1208578116563E+01
 0.1175943127220E+01
 0.1136353736559E+01
 0.1089110760669E+01
 0.1033606202909E+01
 0.9693532857488E+00
 0.8960220687693E+00
 0.8134794888473E+00
 0.7218316275227E+00
 0.6214526848174E+00
 0.5129796399017E+00
 0.3973167297574E+00
 0.2756589914814E+00
 0.1494857022003E+00
 0.2053231485591E-01
-0.1092561130314E+00
-0.2377900677826E+00
-0.3629079990397E+00
-0.4824528445146E+00
-0.5943308681221E+00
 0.1439131191591E+01
 0.1426638481547E+01
 0.1414618976431E+01
 0.1403243278742E+01
 0.1392648915199E+01
 0.1382935520135E+01
 0.1374159377785E+01
 0.1366328170472E+01
 0.1359396375918E+01
 0.1353261477322E+01
 0.1347760883484E+01
 0.1342669388644E+01
 0.1337696953082E+01
 0.1332486775592E+01
 0.1326614041933E+01
 0.1319585067592E+01
 0.1310837746524E+01
 0.1299744274800E+01
 0.1285615788791E+01
 0.1267707951239E+01
 0.1245223428561E+01
 0.1217338767681E+01
 0.1183248720067E+01
 0.1142196731663E+01
 0.1093496912141E+01
 0.1036558411898E+01
 0.9709160841228E+00
 0.8962660758908E+00
 0.8125052604303E+00
 0.7197722667003E+00
 0.6184747254136E+00
 0.5092819328587E+00
 0.3931262435498E+00
 0.2712225772904E+00
 0.1450581840860E+00
 0.1636175024975E-01
-0.1129445181248E+00
-0.2408093370776E+00
-0.3651218086610E+00
-0.4837829031644E+00
-0.5947576303916E+00
 0.1466876944782E+01
 0.1454290752776E+01
 0.1442030904916E+01
 0.1430283868482E+01
 0.1419203771722E+01
 0.1408906630743E+01
 0.1399464005633E+01
 0.1390897029385E+01
 0.1383171308919E+01
 0.1376192882759E+01
 0.1369805120975E+01
 0.1363786370918E+01
 0.1357848079774E+01
 0.1351633329494E+01
 0.1344716177429E+01
 0.1336601365951E+01
 0.1326725393787E+01
 0.1314459901077E+01
 0.1299116836567E+01
 0.1279954858904E+01
 0.1256183352263E+01
 0.1226987944077E+01
 0.1191571919917E+01
 0.1149187074057E+01
 0.1099157415527E+01
 0.1040904850202E+01
 0.9739804423876E+00
 0.8980999984752E+00
 0.8131829929909E+00
 0.7193925889974E+00
 0.6171614431768E+00
 0.5071826938474E+00
 0.3904090478684E+00
 0.2680693432690E+00
 0.1416555653765E+00
 0.1288988798303E-01
-0.1163241426090E+00
-0.2439653935198E+00
-0.3679622702117E+00
-0.4862603158582E+00
-0.5968692322188E+00
 0.1494607392271E+01
 0.1481899225466E+01
 0.1469374148879E+01
 0.1457235018592E+01
 0.1445653362866E+01
 0.1434762478514E+01
 0.1424650066750E+01
 0.1415351465910E+01
 0.1406844033605E+01
 0.1399042867723E+01
 0.1391797719273E+01
 0.1384890854752E+01
 0.1378035535106E+01
 0.1370875003223E+01
 0.1362982377368E+01
 0.1353860869565E+01
 0.1342945403207E+01
 0.1329606572368E+01
 0.1313156259457E+01
 0.1292854829143E+01
 0.1267916940501E+01
 0.1237535854539E+01
 0.1200921583680E+01
 0.1157331726925E+01
 0.1106096729994E+01
 0.1046646803407E+01
 0.9785437707402E+00
 0.9015166876167E+00
 0.8155003907370E+00
 0.7206747654378E+00
 0.6174894211662E+00
 0.5066533415412E+00
 0.3891324316449E+00
 0.2661641693926E+00
 0.1392427079229E+00
 0.1008450081153E-01
-0.1194210820814E+00
-0.2472750117875E+00
-0.3714340090816E+00
-0.4898753519964E+00
-0.6006401486506E+00
 0.1522344126657E+01
 0.1509483551432E+01
 0.1496666191728E+01
 0.1484111954883E+01
 0.1472010713308E+01
 0.1460514075439E+01
 0.1449726852248E+01
 0.1439699409328E+01
 0.1430421506940E+01
 0.1421817804259E+01
 0.1413744824760E+01
 0.1405989072890E+01
 0.1398265889857E+01
 0.1390218888388E+01
 0.1381420363050E+01
 0.1371371962126E+01
 0.1359506777939E+01
 0.1345193796040E+01
 0.1327743887495E+01
 0.1306417775701E+01
 0.1280433907147E+01
 0.1248991693420E+01
 0.1211306028487E+01
 0.1166637729452E+01
 0.1114320172471E+01
 0.1053787386358E+01
 0.9846064869970E+00
 0.9065133905352E+00
 0.8194511335035E+00
 0.7236086627631E+00
 0.6194447089537E+00
 0.5076764468044E+00
 0.3892762572977E+00
 0.2654854588070E+00
 0.1377982659778E+00
 0.7926567897966E-02
-0.1222497700696E+00
-0.2507458112489E+00
-0.3755358656015E+00
-0.4946165494214E+00
-0.6060476410541E+00
 0.1550108307236E+01
 0.1537062929834E+01
 0.1523923975710E+01
 0.1510929231133E+01
 0.1498288028476E+01
 0.1486171470557E+01
 0.1474702561183E+01
 0.1463947585046E+01
 0.1453909384166E+01
 0.1444522672690E+01
 0.1435651104064E+01
 0.1427085688858E+01
 0.1418544055086E+01
 0.1409670329963E+01
 0.1400036034254E+01
 0.1389141154381E+01
 0.1376416633405E+01
 0.1361229227302E+01
 0.1342887797901E+01
 0.1320652035202E+01
 0.1293742652736E+01
 0.1261363706803E+01
 0.1222733107017E+01
 0.1177112280770E+01
 0.1123834008657E+01
 0.1062331637733E+01
 0.9921721082814E+00
 0.9130918289939E+00
 0.8250349270493E+00
 0.7281918466350E+00
 0.6230227573583E+00
 0.5102455787501E+00
 0.3908327044638E+00
 0.2660247784974E+00
 0.1373142413953E+00
 0.6409782375199E-02
-0.1248134636447E+00
-0.2543766727739E+00
-0.3802611836197E+00
-0.5004708251522E+00
-0.6130716447687E+00
 0.1577920730286E+01
 0.1564656159620E+01
 0.1551163931566E+01
 0.1537700734895E+01
 0.1524496678974E+01
 0.1511743717827E+01
 0.1499584257713E+01
 0.1488101466680E+01
 0.1477311970507E+01
 0.1467161016406E+01
 0.1457519704210E+01
 0.1448183763836E+01
 0.1438873256514E+01
 0.1429232908617E+01
 0.1418833459841E+01
 0.1407173083178E+01
 0.1393680204794E+01
 0.1377718684983E+01
 0.1358594338720E+01
 0.1335564398034E+01
 0.1307850301922E+01
 0.1274659235856E+01
 0.1235210256136E+01
 0.1188762793116E+01
 0.1134645509398E+01
 0.1072286577318E+01
 0.1001247305216E+01
 0.9212582441817E+00
 0.8322575298132E+00
 0.7344295790542E+00
 0.6282283739923E+00
 0.5143652067466E+00
 0.3938061109690E+00
 0.2677866396982E+00
 0.1377957150079E+00
 0.5540257138630E-02
-0.1271045302896E+00
-0.2581579811573E+00
-0.3855979731770E+00
-0.5074235274151E+00
-0.6216946833548E+00
 0.1605801912750E+01
 0.1592281702050E+01
 0.1578402014002E+01
 0.1564439695000E+01
 0.1550647183552E+01
 0.1537238840804E+01
 0.1524377824644E+01
 0.1512165225108E+01
 0.1500632170907E+01
 0.1489734895740E+01
 0.1479352212536E+01
 0.1469284723402E+01
 0.1459255008197E+01
 0.1448908421164E+01
 0.1437814864724E+01
 0.1425470504753E+01
 0.1411300846466E+01
 0.1394666156729E+01
 0.1374868139286E+01
 0.1351160123309E+01
 0.1322762721944E+01
 0.1288884737774E+01
 0.1248744519287E+01
 0.1201596914703E+01
 0.1146762973116E+01
 0.1083661226935E+01
 0.1011841919953E+01
 0.9310234098541E+00
 0.8411307583602E+00
 0.7423348124731E+00
 0.6350757018993E+00
 0.5200506597607E+00
 0.3982129106839E+00
 0.2707884151944E+00
 0.1392607485879E+00
 0.5336421098734E-02
-0.1291045445557E+00
-0.2620717010256E+00
-0.3915289531751E+00
-0.5154584339351E+00
-0.6319018115620E+00
 0.1633772190890E+01
 0.1619957754293E+01
 0.1605653743293E+01
 0.1591158690434E+01
 0.1576749189884E+01
 0.1562663793186E+01
 0.1549087912519E+01
 0.1536141673828E+01
 0.1523871437358E+01
 0.1512244840698E+01
 0.1501148616318E+01
 0.1490388324176E+01
 0.1479689085597E+01
 0.1468696859196E+01
 0.1456980613309E+01
 0.1444034282406E+01
 0.1429280023422E+01
 0.1412073793821E+01
 0.1391712107774E+01
 0.1367442938205E+01
 0.1338484522505E+01
 0.1304045784730E+01
 0.1263342543080E+01
 0.1215622522813E+01
 0.1160195714823E+01
 0.1096466595635E+01
 0.1023968948792E+01
 0.9424026146571E+00
 0.8516724726159E+00
 0.7519281818026E+00
 0.6435882224138E+00
 0.5273281438090E+00
 0.4040816683132E+00
 0.2750603925464E+00
 0.1417404553469E+00
 0.5829103079516E-02
-0.1307841975173E+00
-0.2660912888444E+00
-0.3980314762173E+00
-0.5245576986176E+00
-0.6436805885342E+00
 0.1661851835767E+01
 0.1647702335153E+01
 0.1632934253089E+01
 0.1617869659781E+01
 0.1602811451770E+01
 0.1588024413662E+01
 0.1573717882685E+01
 0.1560032209276E+01
 0.1547029712744E+01
 0.1534689801706E+01
 0.1522907261409E+01
 0.1511492619760E+01
 0.1500173497426E+01
 0.1488596385289E+01
 0.1476329188740E+01
 0.1462863367837E+01
 0.1447617294106E+01
 0.1429941894932E+01
 0.1409127415203E+01
 0.1384415021135E+01
 0.1355019036554E+01
 0.1320147040370E+01
 0.1279010547615E+01
 0.1230847686557E+01
 0.1174954021085E+01
 0.1110715628385E+01
 0.1037644488454E+01
 0.9554156125495E+00
 0.8639065397122E+00
 0.7632379931281E+00
 0.6537987811705E+00
 0.5362348166964E+00
 0.4114532107061E+00
 0.2806459633826E+00
 0.1452792398195E+00
 0.7061804998343E-02
-0.1321030166377E+00
-0.2701814382004E+00
-0.4050773330299E+00
-0.5347017449955E+00
-0.6570210818158E+00
 0.1690061187821E+01
 0.1675533384287E+01
 0.1660258344676E+01
 0.1644583910543E+01
 0.1628841801486E+01
 0.1613325373586E+01
 0.1598269743095E+01
 0.1583836745229E+01
 0.1570105370730E+01
 0.1557067098250E+01
 0.1544624810026E+01
 0.1532593926234E+01
 0.1520704456587E+01
 0.1508603307076E+01
 0.1495857168198E+01
 0.1481954776374E+01
 0.1466310284772E+01
 0.1448268879051E+01
 0.1427113466193E+01
 0.1402076969110E+01
 0.1372368282387E+01
 0.1337192214276E+01
 0.1295754270852E+01
 0.1247280599452E+01
 0.1191049070737E+01
 0.1126423117605E+01
 0.1052887644836E+01
 0.9700865395957E+00
 0.8778627742269E+00
 0.7763002066588E+00
 0.6657496349227E+00
 0.5468189183929E+00
 0.4203808543638E+00
 0.2876019503390E+00
 0.1499352109354E+00
 0.9091170246996E-02
-0.1330088886707E+00
-0.2742976507111E+00
-0.4126324299976E+00
-0.5458691026661E+00
-0.6719159025285E+00
 0.1718420813356E+01
 0.1703468876609E+01
 0.1687640547991E+01
 0.1671312127444E+01
 0.1654847115714E+01
 0.1638570115830E+01
 0.1622744075457E+01
 0.1607553640414E+01
 0.1593095151356E+01
 0.1579372365512E+01
 0.1566296198069E+01
 0.1553686787741E+01
 0.1541276350784E+01
 0.1528712049709E+01
 0.1515559194721E+01
 0.1501303556495E+01
 0.1485354655792E+01
 0.1467051248011E+01
 0.1445667857000E+01
 0.1420427749954E+01
 0.1390532907850E+01
 0.1355183995199E+01
 0.1313578887788E+01
 0.1264929482278E+01
 0.1208492821393E+01
 0.1143605576953E+01
 0.1069720402808E+01
 0.9864437947850E+00
 0.8935768516725E+00
 0.7911584103116E+00
 0.6794925157851E+00
 0.5591399548462E+00
 0.4309307292573E+00
 0.2959990750937E+00
 0.1557807755870E+00
 0.1198765811612E-01
-0.1334373725547E+00
-0.2783856193619E+00
-0.4206563289861E+00
-0.5580361803002E+00
-0.6883602714872E+00
 0.1746951686309E+01
 0.1731526953590E+01
 0.1715095189235E+01
 0.1698064377927E+01
 0.1680833272334E+01
 0.1663760781839E+01
 0.1647139951074E+01
 0.1631179617199E+01
 0.1615994090753E+01
 0.1601599497825E+01
 0.1587914591045E+01
 0.1574763941313E+01
 0.1561881711870E+01
 0.1548915125665E+01
 0.1535427944306E+01
 0.1520902752234E+01
 0.1504744058354E+01
 0.1486283537019E+01
 0.1464786319246E+01
 0.1439464637848E+01
 0.1409512115155E+01
 0.1374123961554E+01
 0.1332488902693E+01
 0.1283802454098E+01
 0.1227297858925E+01
 0.1162281073551E+01
 0.1088167452068E+01
 0.1004519878580E+01
 0.9110901877629E+00
 0.8078637758060E+00
 0.6950887051339E+00
 0.5732689293138E+00
 0.4431821966933E+00
 0.3059225705571E+00
 0.1629034220145E+00
 0.1583643946013E-01
-0.1333107830862E+00
-0.2823804042372E+00
-0.4291016313901E+00
-0.5711769635962E+00
-0.7063521102813E+00
 0.1775675399348E+01
 0.1759726074340E+01
 0.1742636466071E+01
 0.1724850114484E+01
 0.1706805097141E+01
 0.1688898126295E+01
 0.1671454835673E+01
 0.1654709672821E+01
 0.1638795447536E+01
 0.1623740592408E+01
 0.1609471342690E+01
 0.1595816285439E+01
 0.1582511188729E+01
 0.1569203106824E+01
 0.1555454093343E+01
 0.1540743363647E+01
 0.1524470086970E+01
 0.1505958258890E+01
 0.1484462655469E+01
 0.1459183138805E+01
 0.1429303573389E+01
 0.1394012476619E+01
 0.1352488022036E+01
 0.1303907378896E+01
 0.1247477216853E+01
 0.1182469024667E+01
 0.1108255973668E+01
 0.1024351192134E+01
 0.9304497846895E+00
 0.8264749972336E+00
 0.7126091169214E+00
 0.5892886224934E+00
 0.4572283661868E+00
 0.3174729478901E+00
 0.1714067103949E+00
 0.2073853686173E-01
-0.1325370193930E+00
-0.2862053763382E+00
-0.4379131896824E+00
-0.5852626285542E+00
-0.7258921739767E+00
 0.1804614409730E+01
 0.1788085188728E+01
 0.1770278529516E+01
 0.1751678170174E+01
 0.1732766295351E+01
 0.1713981413859E+01
 0.1695684478098E+01
 0.1678136978687E+01
 0.1661490622012E+01
 0.1645785889866E+01
 0.1630955952857E+01
 0.1616832848805E+01
 0.1603153519756E+01
 0.1589564594458E+01
 0.1575626281556E+01
 0.1560814300064E+01
 0.1544522222087E+01
 0.1526065836061E+01
 0.1504688660462E+01
 0.1479576900067E+01
 0.1449903312759E+01
 0.1414848562422E+01
 0.1373579001815E+01
 0.1325251680989E+01
 0.1269044157834E+01
 0.1204189949594E+01
 0.1130015376146E+01
 0.1045977784023E+01
 0.9517080292902E+00
 0.8470581957826E+00
 0.7321343745264E+00
 0.6072939086385E+00
 0.4731767049845E+00
 0.3307669218383E+00
 0.1814114861449E+00
 0.2681223637765E-01
-0.1310081030720E+00
-0.2897708926470E+00
-0.4470271120047E+00
-0.6002610495104E+00
-0.7469841897232E+00
 0.1833792325465E+01
 0.1816623935288E+01
 0.1798035571547E+01
 0.1778556743586E+01
 0.1758719362858E+01
 0.1739008293163E+01
 0.1719822779098E+01
 0.1701452765349E+01
 0.1684069067020E+01
 0.1667723711129E+01
 0.1652356024816E+01
 0.1637800759477E+01
 0.1623795505169E+01
 0.1609986187160E+01
 0.1595931070159E+01
 0.1581102325534E+01
 0.1564887762030E+01
 0.1546594519503E+01
 0.1525454027569E+01
 0.1500637602740E+01
 0.1471305599997E+01
 0.1436629751725E+01
 0.1395763468352E+01
 0.1347842127479E+01
 0.1292011914145E+01
 0.1227465171647E+01
 0.1153476973520E+01
 0.1069443033619E+01
 0.9749224290387E+00
 0.8696867740464E+00
 0.7537548639060E+00
 0.6273920929377E+00
 0.4911497323522E+00
 0.3459384979656E+00
 0.1930573342043E+00
 0.3419480362603E-01
-0.1285983837172E+00
-0.2929726584339E+00
-0.4563695240177E+00
-0.6161361680230E+00
-0.7696350194454E+00
 0.1863234240157E+01
 0.1845362868888E+01
 0.1825921919370E+01
 0.1805493371251E+01
 0.1784665474306E+01
 0.1763974645908E+01
 0.1743861639906E+01
 0.1724646194876E+01
 0.1706518193817E+01
 0.1689540395423E+01
 0.1673657227272E+01
 0.1658705220231E+01
 0.1644421984969E+01
 0.1630452452524E+01
 0.1616352901016E+01
 0.1601592002228E+01
 0.1585551750101E+01
 0.1567530300659E+01
 0.1546746246635E+01
 0.1522354845115E+01
 0.1493502803245E+01
 0.1459351927152E+01
 0.1419041722077E+01
 0.1371684587238E+01
 0.1316393396023E+01
 0.1252316477693E+01
 0.1178673610268E+01
 0.1094793273131E+01
 0.1000155284350E+01
 0.8944412152584E+00
 0.7775707569223E+00
 0.6497032659091E+00
 0.5112858012028E+00
 0.3631402367995E+00
 0.2065043058988E+00
 0.4304455188805E-01
-0.1251623552322E+00
-0.2956897245389E+00
-0.4658550489406E+00
-0.6328472091448E+00
-0.7938548128874E+00
 0.1892967125918E+01
 0.1874323721993E+01
 0.1853952133963E+01
 0.1832494880496E+01
 0.1810604339064E+01
 0.1788874402592E+01
 0.1767790783780E+01
 0.1747704215642E+01
 0.1728823269471E+01
 0.1711220236555E+01
 0.1694843258609E+01
 0.1679529487355E+01
 0.1665015819469E+01
 0.1650945898902E+01
 0.1636874052436E+01
 0.1622265626716E+01
 0.1606496891173E+01
 0.1588856810362E+01
 0.1568550487440E+01
 0.1544716010641E+01
 0.1516485240538E+01
 0.1483009141627E+01
 0.1443412518086E+01
 0.1396783759342E+01
 0.1342200859126E+01
 0.1278765723983E+01
 0.1205639218587E+01
 0.1122077329224E+01
 0.1027473273257E+01
 0.9214087991828E+00
 0.8036919744870E+00
 0.6743606468924E+00
 0.5337399484990E+00
 0.3825446941637E+00
 0.2219349429226E+00
 0.5354331373009E-01
-0.1205320131859E+00
-0.2977820487511E+00
-0.4753849525235E+00
-0.6503476960542E+00
-0.8196571322099E+00
 0.1923020296467E+01
 0.1903529705773E+01
 0.1882141112026E+01
 0.1859567317114E+01
 0.1836534018257E+01
 0.1813699319675E+01
 0.1791597548358E+01
 0.1770611400461E+01
 0.1750967309026E+01
 0.1732745422223E+01
 0.1715895818856E+01
 0.1700254858740E+01
 0.1685557878280E+01
 0.1671446953073E+01
 0.1657474597263E+01
 0.1643103164666E+01
 0.1627703463323E+01
 0.1610555210602E+01
 0.1590849475198E+01
 0.1567706128194E+01
 0.1540241020810E+01
 0.1507593430197E+01
 0.1468872834387E+01
 0.1423142882026E+01
 0.1369445541549E+01
 0.1306834396971E+01
 0.1234408313579E+01
 0.1151345985409E+01
 0.1056946944047E+01
 0.9506832244723E+00
 0.8322380752914E+00
 0.7015109028915E+00
 0.5586848088029E+00
 0.4043460504235E+00
 0.2395566397110E+00
 0.6589938938942E-01
-0.1145136596620E+00
-0.2990875366387E+00
-0.4848449023532E+00
-0.6685842470148E+00
-0.8470589871500E+00
 0.1953425956172E+01
 0.1933005857893E+01
 0.1910504188418E+01
 0.1886715838444E+01
 0.1862450691698E+01
 0.1838438708946E+01
 0.1815266643082E+01
 0.1793349765616E+01
 0.1772930962259E+01
 0.1754095977329E+01
 0.1736794590682E+01
 0.1720860672451E+01
 0.1706027038534E+01
 0.1691933944028E+01
 0.1678132362827E+01
 0.1664082182788E+01
 0.1649149222773E+01
 0.1632604077197E+01
 0.1613623356500E+01
 0.1591307723785E+01
 0.1564755877561E+01
 0.1533094614293E+01
 0.1495417629383E+01
 0.1450763423571E+01
 0.1398137270760E+01
 0.1336543127302E+01
 0.1265015420839E+01
 0.1182651354306E+01
 0.1088650098092E+01
 0.9823641123223E+00
 0.8633380392809E+00
 0.7313144116495E+00
 0.5863115691587E+00
 0.4287619295168E+00
 0.2596043837360E+00
 0.8035105926752E-01
-0.1068840325723E+00
-0.2994184472198E+00
-0.4941022898594E+00
-0.6874951341275E+00
-0.8760807170479E+00
 0.1984219854318E+01
 0.1962779443980E+01
 0.1939057232813E+01
 0.1913944557124E+01
 0.1888348357998E+01
 0.1863079105049E+01
 0.1838779862120E+01
 0.1815898565164E+01
 0.1794692391838E+01
 0.1775249709072E+01
 0.1757517227189E+01
 0.1741324312998E+01
 0.1726400188810E+01
 0.1712383088349E+01
 0.1698822887002E+01
 0.1685177770966E+01
 0.1670809293782E+01
 0.1654979264030E+01
 0.1636849545851E+01
 0.1615500653891E+01
 0.1590012985629E+01
 0.1559500089009E+01
 0.1523039578747E+01
 0.1479644744031E+01
 0.1428284027031E+01
 0.1367911139830E+01
 0.1297494413951E+01
 0.1216046129845E+01
 0.1122659023361E+01
 0.1016556341337E+01
 0.8971298866161E+00
 0.7639454069503E+00
 0.6168309126583E+00
 0.4560353817141E+00
 0.2823438967268E+00
 0.9717075675676E-01
-0.9738560393645E-01
-0.2985570013824E+00
-0.5030030734225E+00
-0.7070086411459E+00
-0.9067455131757E+00
 0.2015442070076E+01
 0.1992880423228E+01
 0.1967816735005E+01
 0.1941256320844E+01
 0.1914218452402E+01
 0.1887603860899E+01
 0.1862115749464E+01
 0.1838234062912E+01
 0.1816227148803E+01
 0.1796182161408E+01
 0.1778039354635E+01
 0.1761621233553E+01
 0.1746652246888E+01
 0.1732768485090E+01
 0.1719519377895E+01
 0.1706362461549E+01
 0.1692656050062E+01
 0.1677653755534E+01
 0.1660502560426E+01
 0.1640261929775E+01
 0.1615992772694E+01
 0.1586794607232E+01
 0.1551728807246E+01
 0.1509783744230E+01
 0.1459891479575E+01
 0.1400955654232E+01
 0.1331877772662E+01
 0.1251582723494E+01
 0.1159051572825E+01
 0.1053369194829E+01
 0.9337601008538E+00
 0.7995919655431E+00
 0.6504739182927E+00
 0.4864370185192E+00
 0.3080752199817E+00
 0.1166700272069E+00
-0.8572080425718E-01
-0.2962499960525E+00
-0.5113680352896E+00
-0.7270416473386E+00
-0.9390780660775E+00
 0.2047137962204E+01
 0.2023341989194E+01
 0.1996799868347E+01
 0.1968652405500E+01
 0.1940049358749E+01
 0.1911992654224E+01
 0.1885249207974E+01
 0.1860329280147E+01
 0.1837508046721E+01
 0.1816866581116E+01
 0.1798334592040E+01
 0.1781724995344E+01
 0.1766756191802E+01
 0.1753062119685E+01
 0.1740192675445E+01
 0.1727606142560E+01
 0.1714658982954E+01
 0.1700597501615E+01
 0.1684553837103E+01
 0.1665565527695E+01
 0.1642672721869E+01
 0.1614960058410E+01
 0.1581472614127E+01
 0.1541174500477E+01
 0.1492962492466E+01
 0.1435691230309E+01
 0.1368195750691E+01
 0.1289312265235E+01
 0.1197906055761E+01
 0.1092915272484E+01
 0.9733827885891E+00
 0.8384557601226E+00
 0.6874928288439E+00
 0.5202672824767E+00
 0.3371366980025E+00
 0.1392054854160E+00
-0.7154499477307E-01
-0.2922018054843E+00
-0.5189888729184E+00
-0.7474980505677E+00
-0.9731044609143E+00
 0.2079359328512E+01
 0.2054201198454E+01
 0.2026024519079E+01
 0.1996132095822E+01
 0.1965825790179E+01
 0.1936220891910E+01
 0.1908151051236E+01
 0.1882153726661E+01
 0.1858505046560E+01
 0.1837273909025E+01
 0.1818374601528E+01
 0.1801607338250E+01
 0.1786683124493E+01
 0.1773233891516E+01
 0.1760811229707E+01
 0.1748875979503E+01
 0.1736784571017E+01
 0.1723777250466E+01
 0.1708971549453E+01
 0.1691382206534E+01
 0.1670027191864E+01
 0.1643975273676E+01
 0.1612255228492E+01
 0.1573807925296E+01
 0.1527496643414E+01
 0.1472129102450E+01
 0.1406475496754E+01
 0.1329283507975E+01
 0.1239299970364E+01
 0.1135309176388E+01
 0.1016158566889E+01
 0.8807515364001E+00
 0.7281616822683E+00
 0.5578587343431E+00
 0.3699097338244E+00
 0.1651851055779E+00
-0.5445609449692E-01
-0.2860680582755E+00
-0.5256187957213E+00
-0.7682776071540E+00
-0.1008836143616E+01
 0.2112165845505E+01
 0.2085499688204E+01
 0.2055509264503E+01
 0.2023692108171E+01
 0.1991527994416E+01
 0.1960258984695E+01
 0.1930787483062E+01
 0.1903673108949E+01
 0.1879185148367E+01
 0.1857372791590E+01
 0.1838129162379E+01
 0.1821238273385E+01
 0.1806402345937E+01
 0.1793251651910E+01
 0.1781341079800E+01
 0.1770136326121E+01
 0.1758996127296E+01
 0.1747156351859E+01
 0.1733720394954E+01
 0.1717679302208E+01
 0.1698027224327E+01
 0.1673815827070E+01
 0.1644057563517E+01
 0.1607671420673E+01
 0.1563489718159E+01
 0.1510276460768E+01
 0.1446740078751E+01
 0.1371541574350E+01
 0.1283308498544E+01
 0.1180665868152E+01
 0.1062253036646E+01
 0.9267061653348E+00
 0.7727765562624E+00
 0.5995784595951E+00
 0.4068233954084E+00
 0.1950778227603E+00
-0.3398929589383E-01
-0.2774265642655E+00
-0.5310045489534E+00
-0.7892067306915E+00
-0.1046402454576E+01
 0.2145626927734E+01
 0.2117284409099E+01
 0.2085273337838E+01
 0.2051325756748E+01
 0.2017130749389E+01
 0.1984071458646E+01
 0.1953119498684E+01
 0.1924849018810E+01
 0.1899512297114E+01
 0.1877129619259E+01
 0.1857566273653E+01
 0.1840586201395E+01
 0.1825881455885E+01
 0.1813081255114E+01
 0.1801745834832E+01
 0.1791348623101E+01
 0.1781253620305E+01
 0.1770694524228E+01
 0.1758761345430E+01
 0.1744420492963E+01
 0.1726640335783E+01
 0.1704453833253E+01
 0.1676856971666E+01
 0.1642748526123E+01
 0.1600933181342E+01
 0.1550135676970E+01
 0.1489007404149E+01
 0.1416126529017E+01
 0.1330002730258E+01
 0.1229098629353E+01
 0.1111834744749E+01
 0.9765570836414E+00
 0.8216553562033E+00
 0.6458299691451E+00
 0.4483605271196E+00
 0.2294201609185E+00
-0.9593311750196E-02
-0.2658044769565E+00
-0.5347139414518E+00
-0.8105278672618E+00
-0.1084879442507E+01
 0.2179823525196E+01
 0.2149619673208E+01
 0.2115352918293E+01
 0.2079044698202E+01
 0.2042629766512E+01
 0.2007647835287E+01
 0.1975137874127E+01
 0.1945677767057E+01
 0.1919489933184E+01
 0.1896554858880E+01
 0.1876702529900E+01
 0.1859672784524E+01
 0.1845146368737E+01
 0.1832752577811E+01
 0.1822059797512E+01
 0.1812552994562E+01
 0.1803605388672E+01
 0.1794451579807E+01
 0.1784169444661E+01
 0.1771699777068E+01
 0.1755982736588E+01
 0.1736030475745E+01
 0.1710822143492E+01
 0.1679238207710E+01
 0.1640059786990E+01
 0.1591977993056E+01
 0.1533593423506E+01
 0.1463406985427E+01
 0.1379813703470E+01
 0.1281112286250E+01
 0.1165494432938E+01
 0.1030991892677E+01
 0.8755883966307E+00
 0.6975012939974E+00
 0.4954825877163E+00
 0.2691980068833E+00
 0.1965173632650E-01
-0.2504273483562E+00
-0.5364089531304E+00
-0.8316929659114E+00
-0.1128609125825E+01
 0.2214858081624E+01
 0.2182572097863E+01
 0.2145773359178E+01
 0.2106837122763E+01
 0.2067988541796E+01
 0.2030939742732E+01
 0.1996791788620E+01
 0.1966111135521E+01
 0.1939074009661E+01
 0.1915608076501E+01
 0.1895499546322E+01
 0.1878459824205E+01
 0.1864157312954E+01
 0.1852222886539E+01
 0.1842236491765E+01
 0.1833699278078E+01
 0.1825998623761E+01
 0.1818374022092E+01
 0.1809893025789E+01
 0.1799469853769E+01
 0.1786013479778E+01
 0.1768512304417E+01
 0.1745927772792E+01
 0.1717124143026E+01
 0.1680863986813E+01
 0.1635812077758E+01
 0.1580526739929E+01
 0.1513440062926E+01
 0.1432839096870E+01
 0.1336861097658E+01
 0.1223463087140E+01
 0.1090341628974E+01
 0.9350299972014E+00
 0.7551865536593E+00
 0.5489238975226E+00
 0.3152552626718E+00
 0.5463856118589E-01
-0.2304974296936E+00
-0.5353723726330E+00
-0.8529629608471E+00
-0.1175056488376E+01
 0.2250838071807E+01
 0.2216198009899E+01
 0.2176531533998E+01
 0.2134650863016E+01
 0.2093124418458E+01
 0.2053851387495E+01
 0.2017983740117E+01
 0.1986055116887E+01
 0.1958174756114E+01
 0.1934202040009E+01
 0.1913869914006E+01
 0.1896856764596E+01
 0.1882817708248E+01
 0.1871386981634E+01
 0.1862159975448E+01
 0.1854659358489E+01
 0.1848292468581E+01
 0.1842308508297E+01
 0.1835766970013E+01
 0.1827554312965E+01
 0.1816544461976E+01
 0.1801698076746E+01
 0.1781957384237E+01
 0.1756172681947E+01
 0.1723094076101E+01
 0.1681369210336E+01
 0.1629525386239E+01
 0.1565937944386E+01
 0.1488797382164E+01
 0.1396088086533E+01
 0.1285534018333E+01
 0.1154483505815E+01
 0.9999811814633E+00
 0.8190512346887E+00
 0.6090443576865E+00
 0.3681521958108E+00
 0.9608361795333E-01
-0.2052043254550E+00
-0.5309403793404E+00
-0.8735170023818E+00
-0.1223442722815E+01
 0.2287900016347E+01
 0.2250579184444E+01
 0.2207643608356E+01
 0.2162450129740E+01
 0.2117972996006E+01
 0.2076310388310E+01
 0.2038645934903E+01
 0.2005451408236E+01
 0.1976743325271E+01
 0.1952295007434E+01
 0.1931775956956E+01
 0.1914827013611E+01
 0.1901089405128E+01
 0.1890203014522E+01
 0.1881783274661E+01
 0.1875380730555E+01
 0.1870429775979E+01
 0.1866195437811E+01
 0.1861732222605E+01
 0.1855897521477E+01
 0.1847525259883E+01
 0.1835542885773E+01
 0.1818870859998E+01
 0.1796347677294E+01
 0.1766717992757E+01
 0.1728623335856E+01
 0.1680573767097E+01
 0.1620903216095E+01
 0.1547721304816E+01
 0.1458873738432E+01
 0.1351860123402E+01
 0.1223675434801E+01
 0.1070843809485E+01
 0.8896799133787E+00
 0.6766367473229E+00
 0.4288793358028E+00
 0.1451117648700E+00
-0.1734458407131E+00
-0.5221856964164E+00
-0.8928137103185E+00
-0.1274007884420E+01
 0.2326209432807E+01
 0.2285810121603E+01
 0.2239121397579E+01
 0.2190184507399E+01
 0.2142453152472E+01
 0.2098230622896E+01
 0.2058701357307E+01
 0.2024236391921E+01
 0.1994728188575E+01
 0.1969844057831E+01
 0.1949179525956E+01
 0.1932333666851E+01
 0.1918933681817E+01
 0.1908627923047E+01
 0.1901057208480E+01
 0.1895807441713E+01
 0.1892348706581E+01
 0.1889969617710E+01
 0.1887723878482E+01
 0.1884438408818E+01
 0.1878900768414E+01
 0.1869997725760E+01
 0.1856623951072E+01
 0.1837607998678E+01
 0.1811697046188E+01
 0.1777539488957E+01
 0.1733644649013E+01
 0.1678323864577E+01
 0.1609626164960E+01
 0.1525279130837E+01
 0.1422575445177E+01
 0.1298162487283E+01
 0.1148022827348E+01
 0.9676914580873E+00
 0.7525775261282E+00
 0.4985777865185E+00
 0.2030604920639E+00
-0.1338504625859E+00
-0.5079657868483E+00
-0.9102622549813E+00
-0.1327279730947E+01
 0.2365968928700E+01
 0.2322000329539E+01
 0.2270969050469E+01
 0.2217783670934E+01
 0.2166462694304E+01
 0.2119509862678E+01
 0.2078063029752E+01
 0.2042341265469E+01
 0.2012075579671E+01
 0.1986805589837E+01
 0.1966042474193E+01
 0.1949339949995E+01
 0.1936311649115E+01
 0.1926617767989E+01
 0.1919930585945E+01
 0.1915880053966E+01
 0.1913982392028E+01
 0.1913559669979E+01
 0.1913670509145E+01
 0.1913109948177E+01
 0.1910610993217E+01
 0.1905009581446E+01
 0.1895168503846E+01
 0.1879907678953E+01
 0.1857985784822E+01
 0.1828073223751E+01
 0.1788697998544E+01
 0.1738171300439E+01
 0.1674506662202E+01
 0.1595341075256E+01
 0.1497788034248E+01
 0.1378167255641E+01
 0.1231915159069E+01
 0.1053729744940E+01
 0.8378270960295E+00
 0.5785563384259E+00
 0.2715309218094E+00
-0.8471955340554E-01
-0.4868365955006E+00
-0.9251694857261E+00
-0.1383775120634E+01
 0.2407429268872E+01
 0.2359276772895E+01
 0.2303177912231E+01
 0.2245150056080E+01
 0.2189872902892E+01
 0.2140027220568E+01
 0.2096633515945E+01
 0.2059692457653E+01
 0.2028730136296E+01
 0.2003135939811E+01
 0.1982327210354E+01
 0.1965809725396E+01
 0.1953184725543E+01
 0.1944128153626E+01
 0.1938350488540E+01
 0.1935535656259E+01
 0.1935258568835E+01
 0.1936887314264E+01
 0.1939493315866E+01
 0.1941838504820E+01
 0.1942590822016E+01
 0.1940521616422E+01
 0.1934452858606E+01
 0.1923196245496E+01
 0.1905532023177E+01
 0.1880170171722E+01
 0.1845679928950E+01
 0.1800398470479E+01
 0.1742333749557E+01
 0.1669067010498E+01
 0.1577571953237E+01
 0.1463878199135E+01
 0.1322894732135E+01
 0.1148448864833E+01
 0.9334235150974E+00
 0.6703089891719E+00
 0.3524412624346E+00
-0.2393204128050E-01
-0.4569415615988E+00
-0.9365985548986E+00
-0.1444059456170E+01
 0.2450904723044E+01
 0.2397786367816E+01
 0.2335718474465E+01
 0.2272148677866E+01
 0.2212521791802E+01
 0.2159640603716E+01
 0.2114304878493E+01
 0.2076212436179E+01
 0.2044635771482E+01
 0.2018792123657E+01
 0.1997997326780E+01
 0.1981708060510E+01
 0.1969515185796E+01
 0.1961114747051E+01
 0.1956262666594E+01
 0.1954707958820E+01
 0.1956099193465E+01
 0.1959866496222E+01
 0.1965105047405E+01
 0.1970542994505E+01
 0.1974769757079E+01
 0.1976473486124E+01
 0.1974422468269E+01
 0.1967419282730E+01
 0.1954277061183E+01
 0.1933765751610E+01
 0.1904521789799E+01
 0.1864938129731E+01
 0.1813051627468E+01
 0.1746429842353E+01
 0.1661958635969E+01
 0.1555435999275E+01
 0.1421293141717E+01
 0.1252490690912E+01
 0.1040467064948E+01
 0.7755263035617E+00
 0.4480900301479E+00
 0.5118277521335E-01
-0.4158365274999E+00
-0.9432347080048E+00
-0.1508796610482E+01
 0.2496794787516E+01
 0.2437698128844E+01
 0.2368527676814E+01
 0.2298592945974E+01
 0.2234205984753E+01
 0.2178184553744E+01
 0.2130959390798E+01
 0.2091821015476E+01
 0.2059736791676E+01
 0.2033732699004E+01
 0.2013018296056E+01
 0.1997001851868E+01
 0.1985266781926E+01
 0.1977533910640E+01
 0.1973612085879E+01
 0.1973327516959E+01
 0.1976420062652E+01
 0.1982402327299E+01
 0.1990408596511E+01
 0.1999133768641E+01
 0.2007071581153E+01
 0.2012801810155E+01
 0.2015020802103E+01
 0.2012519284367E+01
 0.2004156130712E+01
 0.1988785048851E+01
 0.1965139425207E+01
 0.1931701344953E+01
 0.1886575033032E+01
 0.1827362991325E+01
 0.1750927945681E+01
 0.1652918224604E+01
 0.1527375630490E+01
 0.1366452915345E+01
 0.1160090511880E+01
 0.8960947015323E+00
 0.5612253432871E+00
 0.1440166605461E+00
-0.3602423567284E+00
-0.9431926496111E+00
-0.1578807589209E+01
 0.2545615677357E+01
 0.2479204061480E+01
 0.2401488671268E+01
 0.2324224888135E+01
 0.2254671387014E+01
 0.2195469172755E+01
 0.2146471388450E+01
 0.2106437245392E+01
 0.2073979254054E+01
 0.2047918733742E+01
 0.2027358221979E+01
 0.2011660490455E+01
 0.2000405427539E+01
 0.1993343454971E+01
 0.1990343664135E+01
 0.1991322149728E+01
 0.1996130480826E+01
 0.2004389793093E+01
 0.2015295147054E+01
 0.2027511093030E+01
 0.2039413902273E+01
 0.2049440837873E+01
 0.2056190605808E+01
 0.2058436849780E+01
 0.2055099082432E+01
 0.2045142843455E+01
 0.2027432577469E+01
 0.2000576255002E+01
 0.1962786954574E+01
 0.1911755923844E+01
 0.1844399372634E+01
 0.1756322845941E+01
 0.1641312577951E+01
 0.1490845738093E+01
 0.1293408739116E+01
 0.1034072433356E+01
 0.6951124370476E+00
 0.2589066754140E+00
-0.2856827350374E+00
-0.9337089066988E+00
-0.1655137591783E+01
 0.2598047287403E+01
 0.2522516822843E+01
 0.2434398127593E+01
 0.2348687698683E+01
 0.2273603477027E+01
 0.2211281331077E+01
 0.2160710691529E+01
 0.2119981898557E+01
 0.2087312540431E+01
 0.2061314874171E+01
 0.2040988640823E+01
 0.2025656565550E+01
 0.2014899945100E+01
 0.2008503530805E+01
 0.2006403264710E+01
 0.2008617675701E+01
 0.2015133086530E+01
 0.2025712227014E+01
 0.2039641736052E+01
 0.2055563075667E+01
 0.2071707561493E+01
 0.2086323436235E+01
 0.2097875710664E+01
 0.2105112401620E+01
 0.2107031444327E+01
 0.2102743882629E+01
 0.2091284538744E+01
 0.2071427267577E+01
 0.2041537110016E+01
 0.1999450731670E+01
 0.1942224214173E+01
 0.1865551796003E+01
 0.1763147855329E+01
 0.1626036920509E+01
 0.1441440927161E+01
 0.1191625007456E+01
 0.8535805223031E+00
 0.4014213865665E+00
-0.1859406779755E+00
-0.9106234693497E+00
-0.1739130554834E+01
 0.2655005624944E+01
 0.2567859818364E+01
 0.2466912448144E+01
 0.2371488166945E+01
 0.2290619468260E+01
 0.2225389984829E+01
 0.2173547872479E+01
 0.2132380420104E+01
 0.2099691087158E+01
 0.2073890477511E+01
 0.2053885337355E+01
 0.2038966572181E+01
 0.2028722836072E+01
 0.2022977628349E+01
 0.2021738973621E+01
 0.2025139085857E+01
 0.2033323968930E+01
 0.2046239506606E+01
 0.2063307950389E+01
 0.2083162713595E+01
 0.2103855750743E+01
 0.2123382444496E+01
 0.2140023494696E+01
 0.2152488465378E+01
 0.2159875792781E+01
 0.2161483250143E+01
 0.2156561856152E+01
 0.2144094538414E+01
 0.2122641185355E+01
 0.2090239990455E+01
 0.2044179270078E+01
 0.1980395568856E+01
 0.1892765847993E+01
 0.1772186675063E+01
 0.1604999002647E+01
 0.1370893806427E+01
 0.1041008842470E+01
 0.5787064096276E+00
-0.5223083840139E-01
-0.8674724740260E+00
-0.1832487567821E+01
 0.2717759237522E+01
 0.2615440015033E+01
 0.2498457319450E+01
 0.2391947154081E+01
 0.2305267617474E+01
 0.2237558005633E+01
 0.2184861123698E+01
 0.2143566072934E+01
 0.2111076241628E+01
 0.2085620774541E+01
 0.2066029148666E+01
 0.2051571601276E+01
 0.2041851040434E+01
 0.2036733643380E+01
 0.2036302685050E+01
 0.2040812344836E+01
 0.2050593353007E+01
 0.2065826020543E+01
 0.2086131410494E+01
 0.2110163612707E+01
 0.2135752691365E+01
 0.2160552569039E+01
 0.2182588250671E+01
 0.2200512670417E+01
 0.2213553471580E+01
 0.2221246763559E+01
 0.2223113954163E+01
 0.2218393644361E+01
 0.2205880957147E+01
 0.2183866333516E+01
 0.2149962882387E+01
 0.2100520257802E+01
 0.2029859933371E+01
 0.1929177728228E+01
 0.1784542349562E+01
 0.1573765017018E+01
 0.1262174190811E+01
 0.7998484168089E+00
 0.1280672237645E+00
-0.7938418936453E+00
-0.1937214994907E+01
 0.2788126486495E+01
 0.2665380670836E+01
 0.2528071716655E+01
 0.2409140591743E+01
 0.2317044848094E+01
 0.2247562401556E+01
 0.2194543343203E+01
 0.2153483086970E+01
 0.2121438265097E+01
 0.2096488004272E+01
 0.2077406745193E+01
 0.2063458005865E+01
 0.2054266663215E+01
 0.2049744951408E+01
 0.2050051979186E+01
 0.2055567070599E+01
 0.2066827358844E+01
 0.2084308623124E+01
 0.2107921567043E+01
 0.2136393697005E+01
 0.2167281700370E+01
 0.2197773180328E+01
 0.2225535918147E+01
 0.2249141766634E+01
 0.2267986803714E+01
 0.2281911434827E+01
 0.2290772604167E+01
 0.2294115410607E+01
 0.2291005574208E+01
 0.2280024434016E+01
 0.2259194451241E+01
 0.2225458904297E+01
 0.2173905577680E+01
 0.2096549530485E+01
 0.1980013607615E+01
 0.1801512128106E+01
 0.1521820902473E+01
 0.1076111427349E+01
 0.3733253820731E+00
-0.6722708216081E+00
-0.2055157354002E+01
 0.2868833779850E+01
 0.2717556409078E+01
 0.2554131631799E+01
 0.2421850163877E+01
 0.2325453440849E+01
 0.2255220119928E+01
 0.2202506767617E+01
 0.2162090277466E+01
 0.2130758346417E+01
 0.2106482420068E+01
 0.2088011379525E+01
 0.2074618006528E+01
 0.2065957631988E+01
 0.2061991372825E+01
 0.2062952119060E+01
 0.2069340280558E+01
 0.2081911632913E+01
 0.2101505076091E+01
 0.2128451039022E+01
 0.2161645652815E+01
 0.2198312284103E+01
 0.2234992523032E+01
 0.2268850717208E+01
 0.2298346851543E+01
 0.2323101783781E+01
 0.2343345858714E+01
 0.2359350883071E+01
 0.2371025422732E+01
 0.2377733924109E+01
 0.2378365946562E+01
 0.2371418108321E+01
 0.2354608825908E+01
 0.2324140833669E+01
 0.2273443523706E+01
 0.2190691277806E+01
 0.2054331134215E+01
 0.1823739299698E+01
 0.1420629780070E+01
 0.7104304198465E+00
-0.4722264831696E+00
-0.2186163081729E+01
 0.2964230255904E+01
 0.2771169726597E+01
 0.2573852068307E+01
 0.2428599819081E+01
 0.2330124275734E+01
 0.2260401508728E+01
 0.2208684934540E+01
 0.2169366467137E+01
 0.2139029826826E+01
 0.2115603307796E+01
 0.2097843564089E+01
 0.2085050211095E+01
 0.2076918290628E+01
 0.2073459945136E+01
 0.2074977807721E+01
 0.2082081173829E+01
 0.2095738180308E+01
 0.2117214286241E+01
 0.2147443389521E+01
 0.2185661916263E+01
 0.2228695819229E+01
 0.2272174417616E+01
 0.2312544594666E+01
 0.2348120092510E+01
 0.2378831324270E+01
 0.2405410614516E+01
 0.2428641356475E+01
 0.2448862618599E+01
 0.2465757979030E+01
 0.2478508616529E+01
 0.2486111666215E+01
 0.2487235554876E+01
 0.2479560612427E+01
 0.2458558944325E+01
 0.2415095995718E+01
 0.2330925523657E+01
 0.2169152094210E+01
 0.1846517918295E+01
 0.1178183703375E+01
-0.1379813976476E+00
-0.2322046270549E+01
 0.3081911949303E+01
 0.2823551136445E+01
 0.2582416259218E+01
 0.2428034872098E+01
 0.2330986554665E+01
 0.2262989285983E+01
 0.2213048835822E+01
 0.2175314069692E+01
 0.2146258291266E+01
 0.2123860490078E+01
 0.2106911354769E+01
 0.2094760122976E+01
 0.2087149853592E+01
 0.2084145541954E+01
 0.2086114133831E+01
 0.2093756073565E+01
 0.2108217265103E+01
 0.2131221517003E+01
 0.2164555641085E+01
 0.2208109830855E+01
 0.2258259201895E+01
 0.2309309433457E+01
 0.2356670579113E+01
 0.2398482904596E+01
 0.2435118763910E+01
 0.2467958665939E+01
 0.2498413083479E+01
 0.2527335161136E+01
 0.2554746440459E+01
 0.2580050080801E+01
 0.2602703960589E+01
 0.2622478511179E+01
 0.2638930713797E+01
 0.2650135963817E+01
 0.2650891358479E+01
 0.2628479739540E+01
 0.2554785647430E+01
 0.2361060346043E+01
 0.1829136663910E+01
 0.4362608596298E+00
-0.2427035973078E+01
 0.3237147781066E+01
 0.2866170251203E+01
 0.2571870815651E+01
 0.2420370323603E+01
 0.2328117901161E+01
 0.2262822241826E+01
 0.2215666382683E+01
 0.2179937796810E+01
 0.2152470874008E+01
 0.2131272410653E+01
 0.2115231500224E+01
 0.2103760256098E+01
 0.2096660732380E+01
 0.2094051508796E+01
 0.2096356633639E+01
 0.2104350669524E+01
 0.2119295924709E+01
 0.2143316854863E+01
 0.2179353300561E+01
 0.2228537538070E+01
 0.2286796534871E+01
 0.2346434810446E+01
 0.2401341363836E+01
 0.2449495452280E+01
 0.2491921134841E+01
 0.2530836092993E+01
 0.2568408086304E+01
 0.2606111012140E+01
 0.2644345515547E+01
 0.2682592533794E+01
 0.2720595686361E+01
 0.2759378120971E+01
 0.2800761404333E+01
 0.2846102917012E+01
 0.2894619660880E+01
 0.2942872680342E+01
 0.2973299180077E+01
 0.2953047079112E+01
 0.2717889290043E+01
 0.1459614143288E+01
-0.2377367372261E+01
 0.3468395322573E+01
 0.2867837328594E+01
 0.2534164088889E+01
 0.2410391442052E+01
 0.2319860304370E+01
 0.2260453668760E+01
 0.2216460981567E+01
 0.2183318237434E+01
 0.2157696933859E+01
 0.2137871960525E+01
 0.2122828300927E+01
 0.2112070710797E+01
 0.2105466665743E+01
 0.2103189729694E+01
 0.2105712894594E+01
 0.2113864527633E+01
 0.2128977240579E+01
 0.2153349985406E+01
 0.2191276541253E+01
 0.2246285834366E+01
 0.2314064275559E+01
 0.2383671494827E+01
 0.2446753454195E+01
 0.2501267626658E+01
 0.2549211582022E+01
 0.2593882725139E+01
 0.2638341811941E+01
 0.2684799456924E+01
 0.2734168767307E+01
 0.2785784811263E+01
 0.2839208702368E+01
 0.2896853474121E+01
 0.2963442424315E+01
 0.3043767192398E+01
 0.3143023419286E+01
 0.3265162135620E+01
 0.3421800628568E+01
 0.3582739068933E+01
 0.3829649803140E+01
 0.3336879310217E+01
-0.1714134695756E+01
 0.3913674578788E+01
 0.2677176222797E+01
 0.2521014505017E+01
 0.2384851664155E+01
 0.2309785152033E+01
 0.2255213738732E+01
 0.2215726378612E+01
 0.2185480351274E+01
 0.2162001811064E+01
 0.2143698259021E+01
 0.2129735817886E+01
 0.2119718711578E+01
 0.2113590920080E+01
 0.2111580567159E+01
 0.2114202249806E+01
 0.2122315067183E+01
 0.2137283888435E+01
 0.2161390816442E+01
 0.2199613825134E+01
 0.2260265627718E+01
 0.2339826193821E+01
 0.2421279581274E+01
 0.2493217353085E+01
 0.2553970401811E+01
 0.2606980252896E+01
 0.2656928957439E+01
 0.2707911079520E+01
 0.2762938740546E+01
 0.2823720132938E+01
 0.2889431420551E+01
 0.2958052589458E+01
 0.3033699741933E+01
 0.3125114705172E+01
 0.3240645957447E+01
 0.3390397791820E+01
 0.3592330280183E+01
 0.3865974187446E+01
 0.4297720273045E+01
 0.4811927714689E+01
 0.6641401734364E+01
 0.1345514095314E+01
 0.1945780078489E+01
 0.1853413319552E+01
 0.1765279327951E+01
 0.1683461220941E+01
 0.1609415093595E+01
 0.1543699838392E+01
 0.1486357562593E+01
 0.1437342547536E+01
 0.1396745016291E+01
 0.1364678136931E+01
 0.1341013655953E+01
 0.1327073032821E+01
 0.1322327837027E+01
 0.1326077715067E+01
 0.1339164479932E+01
 0.1361051689662E+01
 0.1392075151676E+01
 0.1433581149072E+01
 0.1482730821487E+01
 0.1570073118540E+01
 0.1989656685695E+01
 0.1890095470923E+01
 0.1798729624057E+01
 0.1714919727880E+01
 0.1639455458901E+01
 0.1572740295405E+01
 0.1514853483755E+01
 0.1465766741609E+01
 0.1425496039424E+01
 0.1394085443007E+01
 0.1371838435437E+01
 0.1359072174189E+01
 0.1355915063973E+01
 0.1362264101898E+01
 0.1378158391684E+01
 0.1403946154417E+01
 0.1440345210394E+01
 0.1487984157173E+01
 0.1554448580815E+01
 0.1636367621309E+01
 0.2030232466918E+01
 0.1925985277935E+01
 0.1830932305706E+01
 0.1744918602087E+01
 0.1667978559817E+01
 0.1600298841147E+01
 0.1541899464107E+01
 0.1492732788293E+01
 0.1452780158205E+01
 0.1422135456831E+01
 0.1400969151844E+01
 0.1389601236236E+01
 0.1388236586469E+01
 0.1396925911870E+01
 0.1415915262529E+01
 0.1445767595535E+01
 0.1487401077988E+01
 0.1543363595133E+01
 0.1615531109062E+01
 0.1705043977385E+01
 0.2068826531665E+01
 0.1960102538483E+01
 0.1861733376957E+01
 0.1773396088346E+01
 0.1694948929205E+01
 0.1626317024263E+01
 0.1567425555186E+01
 0.1518185057652E+01
 0.1478564401389E+01
 0.1448623640832E+01
 0.1428524802796E+01
 0.1418565953957E+01
 0.1419015733218E+01
 0.1430083181183E+01
 0.1452195270511E+01
 0.1486112066309E+01
 0.1533241605478E+01
 0.1595360603367E+01
 0.1674630834054E+01
 0.1773108648671E+01
 0.2105356300125E+01
 0.1992374718347E+01
 0.1890840942214E+01
 0.1800262685809E+01
 0.1720307270814E+01
 0.1650740490201E+01
 0.1591374497244E+01
 0.1542070339445E+01
 0.1502766546832E+01
 0.1473505338891E+01
 0.1454442107761E+01
 0.1445876098659E+01
 0.1448134799935E+01
 0.1461568083460E+01
 0.1486763468539E+01
 0.1524701090681E+01
 0.1576793838980E+01
 0.1644897830892E+01
 0.1731341646010E+01
 0.1838853194428E+01
 0.2139692116517E+01
 0.2022652842538E+01
 0.1918118150671E+01
 0.1825396746019E+01
 0.1743986931417E+01
 0.1673513929438E+01
 0.1613693971795E+01
 0.1564330343468E+01
 0.1525330207335E+01
 0.1496719281863E+01
 0.1478653223349E+01
 0.1471440605732E+01
 0.1475467517879E+01
 0.1491204564095E+01
 0.1519386049909E+01
 0.1561108024591E+01
 0.1617889738459E+01
 0.1691713103525E+01
 0.1785146224105E+01
 0.1901317003400E+01
 0.2171670320965E+01
 0.2050803118664E+01
 0.1943444096434E+01
 0.1848702791164E+01
 0.1765915582792E+01
 0.1694582850048E+01
 0.1634332854968E+01
 0.1584913795623E+01
 0.1546200907381E+01
 0.1518205760338E+01
 0.1501086377547E+01
 0.1495165934951E+01
 0.1500884826100E+01
 0.1518817804693E+01
 0.1549811630827E+01
 0.1595074483642E+01
 0.1656241563942E+01
 0.1735453229541E+01
 0.1835473164896E+01
 0.1959684569174E+01
 0.2201128455605E+01
 0.2076697240466E+01
 0.1966714144280E+01
 0.1870096127019E+01
 0.1786027426030E+01
 0.1713893812806E+01
 0.1653243450717E+01
 0.1603772955348E+01
 0.1565327596302E+01
 0.1537906169457E+01
 0.1521669926481E+01
 0.1516958155079E+01
 0.1524260018918E+01
 0.1544235669672E+01
 0.1577828628996E+01
 0.1626349682805E+01
 0.1691552035049E+01
 0.1775719861537E+01
 0.1881776791817E+01
 0.2013283280853E+01
 0.2227913003624E+01
 0.2100216962945E+01
 0.1987834707977E+01
 0.1889502367071E+01
 0.1804263063109E+01
 0.1731397752397E+01
 0.1670381588451E+01
 0.1620863947044E+01
 0.1582662551691E+01
 0.1555764636857E+01
 0.1540334377342E+01
 0.1536726534029E+01
 0.1545471892725E+01
 0.1567301641310E+01
 0.1603242168641E+01
 0.1654696510943E+01
 0.1723523086425E+01
 0.1812126247417E+01
 0.1923555369064E+01
 0.2061531295939E+01
 0.2251883512689E+01
 0.2121255318451E+01
 0.2006722744132E+01
 0.1906856093345E+01
 0.1820570020187E+01
 0.1747050687086E+01
 0.1685707416643E+01
 0.1636146907678E+01
 0.1598161946791E+01
 0.1571729087200E+01
 0.1557014454580E+01
 0.1554386077732E+01
 0.1564409227789E+01
 0.1587873253114E+01
 0.1625874099821E+01
 0.1679892860179E+01
 0.1751874847672E+01
 0.1844318442176E+01
 0.1960369875494E+01
 0.2103889340037E+01
 0.2272914995907E+01
 0.2139717855738E+01
 0.2023305790790E+01
 0.1922100735720E+01
 0.1834902915833E+01
 0.1760814345796E+01
 0.1699185969199E+01
 0.1649586560532E+01
 0.1611786561669E+01
 0.1585752458264E+01
 0.1571650867777E+01
 0.1569860037200E+01
 0.1580972422731E+01
 0.1605823354598E+01
 0.1645564313022E+01
 0.1701738045765E+01
 0.1776356148671E+01
 0.1871985333170E+01
 0.1991841142487E+01
 0.2139866875781E+01
 0.2290899320541E+01
 0.2155523432211E+01
 0.2037522192662E+01
 0.1935188569752E+01
 0.1847223605676E+01
 0.1772656488791E+01
 0.1710787604036E+01
 0.1661152721199E+01
 0.1623502494158E+01
 0.1597793738290E+01
 0.1584191805722E+01
 0.1583081523147E+01
 0.1595075037648E+01
 0.1621041625320E+01
 0.1662173653812E+01
 0.1720057925528E+01
 0.1796750893076E+01
 0.1894862209120E+01
 0.2017644333427E+01
 0.2169073468595E+01
 0.2305746246949E+01
 0.2168604849374E+01
 0.2049321400928E+01
 0.1946080864219E+01
 0.1857501357035E+01
 0.1782551193197E+01
 0.1720488391316E+01
 0.1670820806229E+01
 0.1633281843859E+01
 0.1607818907112E+01
 0.1594594126198E+01
 0.1593994854213E+01
 0.1606645225311E+01
 0.1633436454487E+01
 0.1675586775224E+01
 0.1734708882255E+01
 0.1812882366815E+01
 0.1912733806262E+01
 0.2037521620960E+01
 0.2191215446221E+01
 0.2317384175458E+01
 0.2178909335349E+01
 0.2058664239723E+01
 0.1954748041772E+01
 0.1865713012133E+01
 0.1790479082103E+01
 0.1728270434784E+01
 0.1678572267335E+01
 0.1641103295627E+01
 0.1615801694457E+01
 0.1602824296062E+01
 0.1602556646333E+01
 0.1615627027481E+01
 0.1642936658827E+01
 0.1685714502809E+01
 0.1745580819284E+01
 0.1824616515012E+01
 0.1925439689182E+01
 0.2051286452909E+01
 0.2206089002808E+01
 0.2325760682933E+01
 0.2186398892486E+01
 0.2065523118872E+01
 0.1961169820938E+01
 0.1871843128596E+01
 0.1796427511305E+01
 0.1734122132372E+01
 0.1684394946751E+01
 0.1646952587675E+01
 0.1621724173590E+01
 0.1608859118948E+01
 0.1608736683665E+01
 0.1621981443286E+01
 0.1649492869473E+01
 0.1692495635872E+01
 0.1752599356087E+01
 0.1831864791377E+01
 0.1932877233138E+01
 0.2058824624177E+01
 0.2213575635076E+01
 0.2330842825403E+01
 0.2191050507171E+01
 0.2069882158259E+01
 0.1965335303549E+01
 0.1875884071101E+01
 0.1800390697858E+01
 0.1738038362895E+01
 0.1688283336015E+01
 0.1650822851121E+01
 0.1625577186507E+01
 0.1612686255739E+01
 0.1612518546048E+01
 0.1625687196103E+01
 0.1653078497097E+01
 0.1695898146830E+01
 0.1755727304968E+01
 0.1834585772801E+01
 0.1935002795076E+01
 0.2060093855988E+01
 0.2213640275090E+01
 0.2332617369277E+01
 0.2192856288186E+01
 0.2071737284482E+01
 0.1967243050287E+01
 0.1877836092473E+01
 0.1802369826352E+01
 0.1740020630738E+01
 0.1690238766060E+01
 0.1652714847001E+01
 0.1627360627140E+01
 0.1614304556904E+01
 0.1613899992094E+01
 0.1626741174844E+01
 0.1653690246877E+01
 0.1695919776343E+01
 0.1754965293713E+01
 0.1832785613779E+01
 0.1931831607334E+01
 0.2055122805390E+01
 0.2206330247519E+01
 0.2331090777415E+01
 0.2191823461587E+01
 0.2071096217139E+01
 0.1966901072869E+01
 0.1877707340577E+01
 0.1802373078318E+01
 0.1740077121173E+01
 0.1690269487159E+01
 0.1652637064713E+01
 0.1627083549358E+01
 0.1613724171449E+01
 0.1612893054994E+01
 0.1625158499526E+01
 0.1651348137014E+01
 0.1692587964737E+01
 0.1750351517335E+01
 0.1826517464127E+01
 0.1923436705176E+01
 0.2044009627626E+01
 0.2191773720725E+01
 0.2326289073507E+01
 0.2187974268500E+01
 0.2067978395010E+01
 0.1964326780759E+01
 0.1875513824252E+01
 0.1800415614599E+01
 0.1738222694351E+01
 0.1688390665775E+01
 0.1650605708120E+01
 0.1624764124434E+01
 0.1610966454260E+01
 0.1609523869060E+01
 0.1620972228194E+01
 0.1646095038984E+01
 0.1685959157018E+01
 0.1741960704290E+01
 0.1815879987974E+01
 0.1909947029220E+01
 0.2026919783083E+01
 0.2170177779934E+01
 0.2318257548617E+01
 0.2181345759841E+01
 0.2062414826874E+01
 0.1959546870166E+01
 0.1871279326508E+01
 0.1796519501091E+01
 0.1734478810744E+01
 0.1684624293544E+01
 0.1646644566635E+01
 0.1620429446602E+01
 0.1606063671333E+01
 0.1603832227800E+01
 0.1614232708632E+01
 0.1637995752759E+01
 0.1676117514154E+01
 0.1729902372071E+01
 0.1801015068920E+01
 0.1891544596880E+01
 0.2004083107436E+01
 0.2141825449045E+01
 0.2307060323318E+01
 0.2171989491381E+01
 0.2054447871605E+01
 0.1952597156795E+01
 0.1865035266342E+01
 0.1790713579540E+01
 0.1728873390988E+01
 0.1678999013085E+01
 0.1640784777967E+01
 0.1614115195621E+01
 0.1599058514890E+01
 0.1595870889938E+01
 0.1605006598954E+01
 0.1627135652490E+01
 0.1663173088485E+01
 0.1714318435312E+01
 0.1782104822884E+01
 0.1868460775534E+01
 0.1975789626463E+01
 0.2107072916887E+01
 0.2292779774591E+01
 0.2159971125612E+01
 0.2044130950856E+01
 0.1943522354700E+01
 0.1856820510831E+01
 0.1783033285620E+01
 0.1721440613686E+01
 0.1671549866234E+01
 0.1633064490785E+01
 0.1605865168114E+01
 0.1590003445133E+01
 0.1585704657451E+01
 0.1593375590990E+01
 0.1613618951604E+01
 0.1647259519139E+01
 0.1695380252170E+01
 0.1759367919735E+01
 0.1840972141356E+01
 0.1942384246378E+01
 0.2066346754422E+01
 0.2275515835210E+01
 0.2145369945926E+01
 0.2031528197300E+01
 0.1932375802778E+01
 0.1846681138790E+01
 0.1773520416185E+01
 0.1712220654599E+01
 0.1662317970563E+01
 0.1623528436590E+01
 0.1595730691666E+01
 0.1578959879209E+01
 0.1573409255210E+01
 0.1579434878804E+01
 0.1597566641671E+01
 0.1628531320984E+01
 0.1673285149093E+01
 0.1733055364853E+01
 0.1809395407364E+01
 0.1904262221076E+01
 0.2020130742462E+01
 0.2255385180135E+01
 0.2128278292061E+01
 0.2016714044395E+01
 0.1919219143098E+01
 0.1834670159549E+01
 0.1762222849658E+01
 0.1701259372662E+01
 0.1651350132274E+01
 0.1612227422818E+01
 0.1583769939191E+01
 0.1565997252408E+01
 0.1559070047711E+01
 0.1563291420767E+01
 0.1579114171170E+01
 0.1607160836468E+01
 0.1648252529445E+01
 0.1703445641417E+01
 0.1774081809922E+01
 0.1861861534909E+01
 0.1968960565679E+01
 0.2232520316717E+01
 0.2108800927416E+01
 0.1999772764790E+01
 0.1904121956195E+01
 0.1820847191164E+01
 0.1749194224134E+01
 0.1688607948797E+01
 0.1638698404210E+01
 0.1599217760304E+01
 0.1570047162762E+01
 0.1551191978741E+01
 0.1542780630308E+01
 0.1545062046932E+01
 0.1558408930667E+01
 0.1583334942009E+01
 0.1620519625351E+01
 0.1670839407865E+01
 0.1735410504731E+01
 0.1815655629828E+01
 0.1913417258409E+01
 0.2207068592445E+01
 0.2087054347838E+01
 0.1980797963314E+01
 0.1887161357376E+01
 0.1805278101414E+01
 0.1734493576664E+01
 0.1674322482364E+01
 0.1624419596802E+01
 0.1584560637760E+01
 0.1554631866204E+01
 0.1534626338238E+01
 0.1524641332226E+01
 0.1524871461467E+01
 0.1535607614069E+01
 0.1557251594176E+01
 0.1590337030078E+01
 0.1635553788219E+01
 0.1693781640311E+01
 0.1766145751647E+01
 0.1854119113497E+01
 0.2179191139486E+01
 0.2063166044963E+01
 0.1959892033159E+01
 0.1868421561015E+01
 0.1788034617073E+01
 0.1718184948873E+01
 0.1658463551242E+01
 0.1608574750727E+01
 0.1568321457236E+01
 0.1537597937775E+01
 0.1516387320700E+01
 0.1504757669752E+01
 0.1502850189479E+01
 0.1510873520455E+01
 0.1529116315173E+01
 0.1557964137243E+01
 0.1597916509763E+01
 0.1649609080519E+01
 0.1713852669756E+01
 0.1791713453004E+01
 0.2149061788554E+01
 0.2037273738120E+01
 0.1937165590043E+01
 0.1847993423785E+01
 0.1769193911002E+01
 0.1700336966896E+01
 0.1641095743137E+01
 0.1591228580540E+01
 0.1550569144592E+01
 0.1519022764912E+01
 0.1496565456954E+01
 0.1483238788302E+01
 0.1479132512849E+01
 0.1484373852895E+01
 0.1499138699661E+01
 0.1523664642043E+01
 0.1558260094393E+01
 0.1603312940763E+01
 0.1659307683633E+01
 0.1726868528238E+01
 0.2116865888958E+01
 0.2009524556421E+01
 0.1912736857746E+01
 0.1825973945344E+01
 0.1748838146429E+01
 0.1681022376148E+01
 0.1622287140322E+01
 0.1572448874967E+01
 0.1531375427436E+01
 0.1498986334593E+01
 0.1475253654746E+01
 0.1460195920313E+01
 0.1453854422213E+01
 0.1456277038704E+01
 0.1467528983041E+01
 0.1487702192497E+01
 0.1516916296719E+01
 0.1555312335898E+01
 0.1603043300328E+01
 0.1660264370822E+01
 0.2082799205979E+01
 0.1980074248459E+01
 0.1886731088353E+01
 0.1802465797064E+01
 0.1727054039300E+01
 0.1660317581654E+01
 0.1602108800622E+01
 0.1552305891531E+01
 0.1510814116681E+01
 0.1477570362097E+01
 0.1452546096676E+01
 0.1435740931702E+01
 0.1427151654507E+01
 0.1426750110144E+01
 0.1434494701759E+01
 0.1450336254377E+01
 0.1474210951064E+01
 0.1506018760809E+01
 0.1545584529142E+01
 0.1592581441635E+01
 0.2047066750172E+01
 0.1949086367887E+01
 0.1859279964992E+01
 0.1777576840871E+01
 0.1703932402802E+01
 0.1638302158470E+01
 0.1580634202472E+01
 0.1530871716790E+01
 0.1488960367320E+01
 0.1454857432324E+01
 0.1428537213671E+01
 0.1409985008618E+01
 0.1399157885677E+01
 0.1395956163817E+01
 0.1400237356672E+01
 0.1411818174240E+01
 0.1430459280173E+01
 0.1455830133013E+01
 0.1487441047941E+01
 0.1524487784474E+01
 0.2009881596221E+01
 0.1916731455343E+01
 0.1830521035293E+01
 0.1751419682896E+01
 0.1679567702881E+01
 0.1615058346951E+01
 0.1557938662589E+01
 0.1508219602702E+01
 0.1465889916986E+01
 0.1430930146273E+01
 0.1403320735597E+01
 0.1383037566746E+01
 0.1370003210490E+01
 0.1364051981657E+01
 0.1364948935202E+01
 0.1372386996738E+01
 0.1385961905836E+01
 0.1405125354830E+01
 0.1429098798479E+01
 0.1456626088617E+01
 0.1971463613318E+01
 0.1883186201535E+01
 0.1800597201041E+01
 0.1724111291708E+01
 0.1654057631685E+01
 0.1590670506868E+01
 0.1534098708662E+01
 0.1484423268551E+01
 0.1441678297705E+01
 0.1405870205907E+01
 0.1376988765614E+01
 0.1355005375614E+01
 0.1339813181575E+01
 0.1331186025002E+01
 0.1328808209357E+01
 0.1332264342869E+01
 0.1341000113718E+01
 0.1354262441828E+01
 0.1371009739636E+01
 0.1389597214950E+01
 0.1932038025374E+01
 0.1848632605523E+01
 0.1769656370945E+01
 0.1695772834272E+01
 0.1627502731968E+01
 0.1565224547327E+01
 0.1509191408331E+01
 0.1459556243574E+01
 0.1416400079402E+01
 0.1379757497079E+01
 0.1349630672636E+01
 0.1325991974541E+01
 0.1308708569891E+01
 0.1297497919310E+01
 0.1291976882175E+01
 0.1291647656027E+01
 0.1295828645411E+01
 0.1303575551185E+01
 0.1313601383148E+01
 0.1323916310270E+01
 0.1891833285804E+01
 0.1813256835782E+01
 0.1737851500498E+01
 0.1666529698306E+01
 0.1600006079951E+01
 0.1538807036864E+01
 0.1483293592178E+01
 0.1433691180223E+01
 0.1390128213704E+01
 0.1352669061875E+01
 0.1321331805658E+01
 0.1296096140083E+01
 0.1276806772774E+01
 0.1263119459798E+01
 0.1254599129204E+01
 0.1250698651861E+01
 0.1250663506445E+01
 0.1253367785075E+01
 0.1257280223488E+01
 0.1260047364172E+01
 0.1851077087317E+01
 0.1777248459415E+01
 0.1705341075776E+01
 0.1636513041419E+01
 0.1571672424952E+01
 0.1511504291100E+01
 0.1456480716712E+01
 0.1406899573382E+01
 0.1362933603056E+01
 0.1324678342186E+01
 0.1292171699632E+01
 0.1265410292491E+01
 0.1244218997335E+01
 0.1228186024874E+01
 0.1216800949782E+01
 0.1209540032621E+01
 0.1205644077990E+01
 0.1203902395926E+01
 0.1202437827493E+01
 0.1198449663795E+01
 0.1809989877746E+01
 0.1740795170109E+01
 0.1672296220178E+01
 0.1605859368984E+01
 0.1542608928402E+01
 0.1483398278557E+01
 0.1428826623775E+01
 0.1379251238933E+01
 0.1334885273089E+01
 0.1295854486939E+01
 0.1262222540916E+01
 0.1234016423010E+01
 0.1211049645678E+01
 0.1192824844000E+01
 0.1178753156180E+01
 0.1168211465736E+01
 0.1160823503651E+01
 0.1155293861267E+01
 0.1149535688265E+01
 0.1139672001729E+01
 0.1768742282166E+01
 0.1704100746114E+01
 0.1638894391198E+01
 0.1574732545770E+01
 0.1512907726053E+01
 0.1454568379505E+01
 0.1400400893969E+01
 0.1350815975590E+01
 0.1306050102045E+01
 0.1266263188688E+01
 0.1231547448598E+01
 0.1201983060528E+01
 0.1177386156052E+01
 0.1157164626122E+01
 0.1140598677132E+01
 0.1127023274732E+01
 0.1115735761727E+01
 0.1107598537497E+01
 0.1098907458334E+01
 0.1084814348581E+01
 0.1727476981758E+01
 0.1667244001848E+01
 0.1605515310380E+01
 0.1543227894609E+01
 0.1482660009852E+01
 0.1425084899699E+01
 0.1371272720844E+01
 0.1321654898066E+01
 0.1276505276609E+01
 0.1235961856757E+01
 0.1200198708636E+01
 0.1169367122381E+01
 0.1143290213459E+01
 0.1121304194507E+01
 0.1102527689524E+01
 0.1086086073815E+01
 0.1071477378114E+01
 0.1057452292880E+01
 0.1052433968320E+01
 0.1035816827003E+01
 0.1684459146255E+01
 0.1631629097013E+01
 0.1572175405062E+01
 0.1511473650643E+01
 0.1451917390779E+01
 0.1395020622752E+01
 0.1341511715554E+01
 0.1291828601142E+01
 0.1246287714182E+01
 0.1205096832229E+01
 0.1168151316588E+01
 0.1136180669862E+01
 0.1108905130220E+01
 0.1085209126900E+01
 0.1064665628237E+01
 0.1045818157265E+01
 0.1027697978081E+01
 0.1010703965930E+01
 0.9895404735530E+00
 0.1013323370956E+01
 0.4122586805129E+01
 0.2755573784792E+00
 0.2450521766031E-01
-0.1031862280970E+00
-0.1414139889163E+00
-0.1578845218413E+00
-0.1685931225265E+00
-0.1776547242737E+00
-0.1834506312773E+00
-0.1865548598061E+00
-0.1899071905656E+00
-0.1810443311139E+00
-0.1707024279533E+00
-0.1704269279050E+00
-0.1831548976856E+00
-0.2038257688466E+00
-0.2279455432842E+00
-0.2500816416976E+00
-0.2693693564492E+00
-0.2303953693754E+00
 0.2408506057583E+01
 0.1229472372067E+01
 0.2502763844429E+00
 0.5007492117941E-01
-0.3431744194554E-01
-0.6828424584896E-01
-0.8826218108572E-01
-0.1017806404803E+00
-0.1112714344121E+00
-0.1181944434953E+00
-0.1205503758616E+00
-0.1202636369701E+00
-0.1203768599091E+00
-0.1222615941820E+00
-0.1294011740447E+00
-0.1419696950156E+00
-0.1553594403298E+00
-0.1663773441933E+00
-0.1630513273438E+00
-0.1438947995266E+00
 0.1912061766375E+01
 0.1243572849977E+01
 0.6100224043126E+00
 0.2245882549400E+00
 0.9079757266825E-01
 0.2953769049189E-01
-0.2324608582061E-02
-0.2242717167712E-01
-0.3621552244690E-01
-0.4583546050403E-01
-0.5160804142816E-01
-0.5619275606855E-01
-0.6186244881535E-01
-0.6577233054732E-01
-0.6928017417125E-01
-0.7415228876295E-01
-0.7786162936663E-01
-0.7577816385079E-01
-0.6432842529681E-01
-0.2750277149809E-01
 0.1672636165956E+01
 0.1233429303340E+01
 0.7741523596819E+00
 0.4229171697262E+00
 0.2278163611025E+00
 0.1374451429258E+00
 0.8946939760609E-01
 0.6101816904992E-01
 0.4216476634645E-01
 0.2894601882440E-01
 0.1985780546526E-01
 0.1140963717367E-01
 0.2552933271227E-02
-0.2259834648385E-02
-0.2663829803041E-02
-0.8301785855907E-03
 0.4940610282025E-02
 0.1730620362597E-01
 0.4223033295324E-01
 0.9998617118000E-01
 0.1549904292142E+01
 0.1227383691346E+01
 0.8761296644537E+00
 0.5734881995003E+00
 0.3697721551202E+00
 0.2521214176819E+00
 0.1872651264791E+00
 0.1487249146822E+00
 0.1238064476630E+00
 0.1065050052861E+00
 0.9414447522848E-01
 0.8273231830454E-01
 0.7198337658300E-01
 0.6722636825590E-01
 0.6983753232833E-01
 0.7780080243935E-01
 0.9202062194281E-01
 0.1150888043567E+00
 0.1547168378756E+00
 0.2330260529135E+00
 0.1487158869597E+01
 0.1233735720560E+01
 0.9505121609433E+00
 0.6921751689480E+00
 0.4976268789440E+00
 0.3686448202656E+00
 0.2891292031498E+00
 0.2403278025695E+00
 0.2086613082272E+00
 0.1869038143167E+00
 0.1713721040185E+00
 0.1575949550300E+00
 0.1458694875827E+00
 0.1418590581950E+00
 0.1475377215113E+00
 0.1611138448683E+00
 0.1833144869125E+00
 0.2169466868062E+00
 0.2708620201576E+00
 0.3664435528048E+00
 0.1459924526946E+01
 0.1250558836184E+01
 0.1013291812565E+01
 0.7902320993905E+00
 0.6108687152122E+00
 0.4803998653265E+00
 0.3922227539145E+00
 0.3345988603569E+00
 0.2963254204888E+00
 0.2700064667610E+00
 0.2514195855527E+00
 0.2357257268633E+00
 0.2236681489288E+00
 0.2209088410847E+00
 0.2296682584833E+00
 0.2484803259523E+00
 0.2781078133669E+00
 0.3215743103614E+00
 0.3879569839087E+00
 0.4966142771769E+00
 0.1455300370845E+01
 0.1275604391350E+01
 0.1071028167168E+01
 0.8755996292518E+00
 0.7119620549421E+00
 0.5853769776969E+00
 0.4935886113756E+00
 0.4298861846608E+00
 0.3859686013962E+00
 0.3554028658303E+00
 0.3339812440288E+00
 0.3167400594197E+00
 0.3048130306968E+00
 0.3036357668869E+00
 0.3154228222548E+00
 0.3390377795398E+00
 0.3753152910166E+00
 0.4272947462596E+00
 0.5036151209137E+00
 0.6211224868395E+00
 0.1465875574392E+01
 0.1306944881241E+01
 0.1126670927578E+01
 0.9530320536925E+00
 0.8038375899840E+00
 0.6835274610514E+00
 0.5916527756345E+00
 0.5245795222544E+00
 0.4765356475792E+00
 0.4424336924983E+00
 0.4185678675292E+00
 0.4001403228057E+00
 0.3886758429283E+00
 0.3892596718989E+00
 0.4039021572363E+00
 0.4317482033678E+00
 0.4736366202677E+00
 0.5324261412816E+00
 0.6159273799056E+00
 0.7384636995867E+00
 0.1487061556343E+01
 0.1343117603517E+01
 0.1181537393911E+01
 0.1025365083777E+01
 0.8888629265972E+00
 0.7756155194574E+00
 0.6858072807848E+00
 0.6175591474243E+00
 0.5669828167319E+00
 0.5303030049527E+00
 0.5045409773010E+00
 0.4853162503927E+00
 0.4745545997256E+00
 0.4769382722047E+00
 0.4941261608097E+00
 0.5254705308343E+00
 0.5717292062351E+00
 0.6354523179432E+00
 0.7234610415728E+00
 0.8477683034446E+00
 0.1515854073447E+01
 0.1383017442276E+01
 0.1236201695131E+01
 0.1094275567984E+01
 0.9687659545665E+00
 0.8625627353079E+00
 0.7760044266506E+00
 0.7081623906072E+00
 0.6564560537771E+00
 0.6182018658307E+00
 0.5911773787744E+00
 0.5715669418659E+00
 0.5616771950661E+00
 0.5657742679067E+00
 0.5850673878464E+00
 0.6190441188725E+00
 0.6683207020541E+00
 0.7350928143286E+00
 0.8251861240141E+00
 0.9486036572032E+00
 0.1550186889837E+01
 0.1425792442927E+01
 0.1290878587267E+01
 0.1160753546044E+01
 0.1044740979800E+01
 0.9451961347226E+00
 0.8624439210084E+00
 0.7960529225635E+00
 0.7443192221110E+00
 0.7053969603016E+00
 0.6777370386686E+00
 0.6581397655386E+00
 0.6492241714628E+00
 0.6548406345327E+00
 0.6756960993467E+00
 0.7113562472552E+00
 0.7622740543543E+00
 0.8303122529311E+00
 0.9203906718527E+00
 0.1040832740676E+01
 0.1588573515516E+01
 0.1470760912301E+01
 0.1345599091541E+01
 0.1225373833581E+01
 0.1117584983184E+01
 0.1024168294047E+01
 0.9453942365052E+00
 0.8810850461837E+00
 0.8301183684614E+00
 0.7912620998326E+00
 0.7635140018105E+00
 0.7442736493871E+00
 0.7363634139702E+00
 0.7432172146582E+00
 0.7650255534496E+00
 0.8013922444597E+00
 0.8526188166906E+00
 0.9203025959146E+00
 0.1008601769845E+01
 0.1124509312924E+01
 0.1629897391112E+01
 0.1517352891376E+01
 0.1400291213119E+01
 0.1288452652932E+01
 0.1187809262291E+01
 0.1099952858728E+01
 0.1025101390721E+01
 0.9632040826181E+00
 0.9135265731389E+00
 0.8752747510951E+00
 0.8478628390648E+00
 0.8292352025602E+00
 0.8222873028314E+00
 0.8300296999704E+00
 0.8521547987921E+00
 0.8882724803574E+00
 0.9385668630166E+00
 0.1004456495616E+01
 0.1089516639333E+01
 0.1199789345233E+01
 0.1673283205009E+01
 0.1565069804084E+01
 0.1454817772042E+01
 0.1350137855905E+01
 0.1255721155299E+01
 0.1172866209580E+01
 0.1101749639692E+01
 0.1042382671119E+01
 0.9942938392122E+00
 0.9569966715191E+00
 0.9302060564465E+00
 0.9123421666227E+00
 0.9062411669215E+00
 0.9144850338967E+00
 0.9363035629653E+00
 0.9712895939556E+00
 0.1019523789930E+01
 0.1082349245800E+01
 0.1162937448809E+01
 0.1266839897605E+01
 0.1718013945781E+01
 0.1613456781222E+01
 0.1508994223356E+01
 0.1410462151594E+01
 0.1321480853371E+01
 0.1243095070396E+01
 0.1175449507568E+01
 0.1118584276766E+01
 0.1072209599164E+01
 0.1036051499310E+01
 0.1010030696336E+01
 0.9929732465638E+00
 0.9875400059993E+00
 0.9958824007229E+00
 0.1016849581224E+01
 0.1049933723090E+01
 0.1095142373691E+01
 0.1153722492377E+01
 0.1228723255562E+01
 0.1325704222799E+01
 0.1763474993896E+01
 0.1662081427780E+01
 0.1562599756642E+01
 0.1469374950385E+01
 0.1385142232679E+01
 0.1310722192136E+01
 0.1246238963740E+01
 0.1191745167424E+01
 0.1147077363443E+01
 0.1112106756636E+01
 0.1086881119642E+01
 0.1070570863261E+01
 0.1065567649727E+01
 0.1073612868153E+01
 0.1093274512064E+01
 0.1124007870297E+01
 0.1165336311333E+01
 0.1218638653035E+01
 0.1286659971726E+01
 0.1376110226871E+01
 0.1809103733426E+01
 0.1710525929338E+01
 0.1615376879514E+01
 0.1526772601009E+01
 0.1446678678320E+01
 0.1375750524367E+01
 0.1314091165975E+01
 0.1261763416607E+01
 0.1218702482525E+01
 0.1184858905569E+01
 0.1160355837819E+01
 0.1144643173969E+01
 0.1139776061260E+01
 0.1147119639362E+01
 0.1165141662008E+01
 0.1193258786060E+01
 0.1231006698052E+01
 0.1277319944921E+01
 0.1336806936558E+01
 0.1416691371859E+01
 0.1854385705998E+01
 0.1758323333169E+01
 0.1667088807354E+01
 0.1582491005208E+01
 0.1506020809293E+01
 0.1438119688860E+01
 0.1378921842604E+01
 0.1328503771811E+01
 0.1286861622955E+01
 0.1254044383272E+01
 0.1230101732111E+01
 0.1214768098990E+01
 0.1209705536963E+01
 0.1215893804701E+01
 0.1231940187475E+01
 0.1257455140380E+01
 0.1291772388925E+01
 0.1334978688250E+01
 0.1377326971408E+01
 0.1444378074799E+01
 0.1898411956350E+01
 0.1805319469027E+01
 0.1717301150181E+01
 0.1636420844742E+01
 0.1563076773048E+01
 0.1497714956342E+01
 0.1440588540364E+01
 0.1391800261455E+01
 0.1351346231343E+01
 0.1319282062816E+01
 0.1295948481347E+01
 0.1280644004189E+01
 0.1274858752075E+01
 0.1279623346216E+01
 0.1293214215103E+01
 0.1315817297682E+01
 0.1347464505457E+01
 0.1387345307016E+01
 0.1436552459047E+01
 0.1429968772120E+01
 0.1647779761925E+01
 0.1591288127631E+01
 0.1530939829724E+01
 0.1469640631408E+01
 0.1409523558674E+01
 0.1351941924859E+01
 0.1297780697925E+01
 0.1247545196368E+01
 0.1201471335925E+01
 0.1159650528754E+01
 0.1122258780947E+01
 0.1088483305933E+01
 0.1058921842318E+01
 0.1034194108378E+01
 0.1012381948211E+01
 0.9926073328515E+00
 0.9736126828089E+00
 0.9529395242645E+00
 0.9314816854749E+00
 0.8408045915518E+00
 0.1607993602259E+01
 0.1550261573507E+01
 0.1486251105331E+01
 0.1420683527783E+01
 0.1356474365474E+01
 0.1295219525184E+01
 0.1237768993131E+01
 0.1184652221182E+01
 0.1136102000147E+01
 0.1092200567192E+01
 0.1052878758714E+01
 0.1017553580720E+01
 0.9872240487531E+00
 0.9624659232566E+00
 0.9415713271568E+00
 0.9232566085338E+00
 0.9055352701027E+00
 0.8872607626468E+00
 0.8565620134384E+00
 0.8376408462844E+00
 0.1570183433832E+01
 0.1510211541474E+01
 0.1442186119297E+01
 0.1371778197579E+01
 0.1302866929916E+01
 0.1237356933061E+01
 0.1176182601264E+01
 0.1119908302446E+01
 0.1068741266458E+01
 0.1022680424376E+01
 0.9816880467139E+00
 0.9449859531986E+00
 0.9138213984405E+00
 0.8890876580750E+00
 0.8690227471284E+00
 0.8520904948601E+00
 0.8365614120607E+00
 0.8196406292875E+00
 0.8039307533798E+00
 0.7937005603090E+00
 0.1534323536435E+01
 0.1471783546126E+01
 0.1398978677135E+01
 0.1322988710487E+01
 0.1248664771980E+01
 0.1178315707946E+01
 0.1112997405310E+01
 0.1053331707715E+01
 0.9994749918256E+00
 0.9513581766118E+00
 0.9088711805905E+00
 0.8709904634781E+00
 0.8391548674909E+00
 0.8145037479832E+00
 0.7953489451045E+00
 0.7801306838139E+00
 0.7669442584945E+00
 0.7552282337879E+00
 0.7451275355686E+00
 0.7398148906025E+00
 0.1500888049424E+01
 0.1435311766662E+01
 0.1356870800585E+01
 0.1274342454377E+01
 0.1193789810217E+01
 0.1117975476742E+01
 0.1048110917889E+01
 0.9848798004970E+00
 0.9283661036948E+00
 0.8783758432769E+00
 0.8346650152253E+00
 0.7959004868296E+00
 0.7636372949797E+00
 0.7392341336967E+00
 0.7211639504682E+00
 0.7077672958130E+00
 0.6974606724130E+00
 0.6892192643557E+00
 0.6830463912285E+00
 0.6803355844133E+00
 0.1470412257545E+01
 0.1401174162543E+01
 0.1316020945725E+01
 0.1225812443592E+01
 0.1138083486812E+01
 0.1056127833893E+01
 0.9813370242099E+00
 0.9144512150211E+00
 0.8554268380891E+00
 0.8038729114134E+00
 0.7593276191006E+00
 0.7200803486491E+00
 0.6877178344406E+00
 0.6637855721497E+00
 0.6469238642333E+00
 0.6354057016544E+00
 0.6275030972215E+00
 0.6219721131797E+00
 0.6184494241194E+00
 0.6176355129085E+00
 0.1443536157062E+01
 0.1369767722184E+01
 0.1276549044294E+01
 0.1177282643966E+01
 0.1081282667581E+01
 0.9924543371658E+00
 0.9123996300096E+00
 0.8418859006053E+00
 0.7806511287262E+00
 0.7279999401870E+00
 0.6831464110986E+00
 0.6439262196906E+00
 0.6118612955809E+00
 0.5886411701853E+00
 0.5730861463308E+00
 0.5632916170800E+00
 0.5573902732115E+00
 0.5538807366230E+00
 0.5522555579990E+00
 0.5528894090528E+00
 0.1421042311924E+01
 0.1341530728135E+01
 0.1238528626107E+01
 0.1128530459648E+01
 0.1022984388402E+01
 0.9265016287041E+00
 0.8409252717645E+00
 0.7669808794713E+00
 0.7040384809832E+00
 0.6509436589391E+00
 0.6064526792769E+00
 0.5678696245697E+00
 0.5365483875047E+00
 0.5142954174065E+00
 0.5001017797393E+00
 0.4918578392043E+00
 0.4875534307912E+00
 0.4855137248776E+00
 0.4851802572996E+00
 0.4868762783889E+00
 0.1403923542715E+01
 0.1316965850617E+01
 0.1201978575108E+01
 0.1079188862378E+01
 0.9625996761752E+00
 0.8576503391644E+00
 0.7664437103898E+00
 0.6895163201917E+00
 0.6256307526662E+00
 0.5729575161206E+00
 0.5296389524112E+00
 0.4923820938139E+00
 0.4622800578276E+00
 0.4412494626740E+00
 0.4284574196750E+00
 0.4215760801741E+00
 0.4184902284739E+00
 0.4174231296658E+00
 0.4178475014054E+00
 0.4201818906040E+00
 0.1393485485205E+01
 0.1296675484925E+01
 0.1166842185881E+01
 0.1028682725003E+01
 0.8992837770758E+00
 0.7850814384374E+00
 0.6884037753825E+00
 0.6093037067186E+00
 0.5455640168730E+00
 0.4943968881212E+00
 0.4531723848712E+00
 0.4179732476951E+00
 0.3895671844765E+00
 0.3700043657219E+00
 0.3586344747680E+00
 0.3529191216255E+00
 0.3506852794676E+00
 0.3501279173949E+00
 0.3508059016522E+00
 0.3533115694491E+00
 0.1391508407556E+01
 0.1281413372596E+01
 0.1132941729463E+01
 0.9761174495314E+00
 0.8318341295912E+00
 0.7077481696199E+00
 0.6062223058017E+00
 0.5262674810805E+00
 0.4641360196260E+00
 0.4157507569521E+00
 0.3775953332588E+00
 0.3451746347400E+00
 0.3189123919447E+00
 0.3010385246165E+00
 0.2910855096047E+00
 0.2863254214091E+00
 0.2845837489176E+00
 0.2840969190407E+00
 0.2845467373054E+00
 0.2867353889259E+00
 0.1400511337082E+01
 0.1272159960180E+01
 0.1099879824668E+01
 0.9200841281515E+00
 0.7585490606398E+00
 0.6243786533162E+00
 0.5193967193224E+00
 0.4405715287367E+00
 0.3818805380863E+00
 0.3376541140106E+00
 0.3035027354232E+00
 0.2745091435561E+00
 0.2507859720713E+00
 0.2347904547688E+00
 0.2262174196065E+00
 0.2221821747646E+00
 0.2205745726423E+00
 0.2197415171526E+00
 0.2195095709228E+00
 0.2209044687463E+00
 0.1424202073118E+01
 0.1270229328725E+01
 0.1066823453246E+01
 0.8583204767731E+00
 0.6770530803967E+00
 0.5335698011715E+00
 0.4277258980706E+00
 0.3527917310027E+00
 0.2996190904828E+00
 0.2608575341632E+00
 0.2314888980508E+00
 0.2064511139079E+00
 0.1856059440228E+00
 0.1716505633638E+00
 0.1643859897037E+00
 0.1608166291859E+00
 0.1589804420230E+00
 0.1574088948252E+00
 0.1560825551202E+00
 0.1562519786371E+00
 0.1468286536928E+01
 0.1277405182687E+01
 0.1032030723189E+01
 0.7871208601968E+00
 0.5841548630385E+00
 0.4340923530232E+00
 0.3316987321720E+00
 0.2640856773759E+00
 0.2184353391027E+00
 0.1861262267843E+00
 0.1620723328121E+00
 0.1413899503478E+00
 0.1237305110538E+00
 0.1119662483651E+00
 0.1059000506810E+00
 0.1024925644143E+00
 0.1000484077247E+00
 0.9737474087451E-01
 0.9460046472194E-01
 0.9318962923389E-01
 0.1542013333755E+01
 0.1296083710786E+01
 0.9917540263117E+00
 0.7003840520884E+00
 0.4759246165516E+00
 0.3256929151729E+00
 0.2330039336872E+00
 0.1762467447197E+00
 0.1394656853823E+00
 0.1140941543889E+00
 0.9562310609637E-01
 0.7961289091419E-01
 0.6546856667492E-01
 0.5606152607975E-01
 0.5103534075171E-01
 0.4740801633650E-01
 0.4393759360732E-01
 0.3983248922377E-01
 0.3534495149714E-01
 0.3210799835142E-01
 0.1661485664797E+01
 0.1329116142333E+01
 0.9377981263485E+00
 0.5880250720246E+00
 0.3489296277808E+00
 0.2105136830795E+00
 0.1350631569712E+00
 0.9117193343279E-01
 0.6361256637906E-01
 0.4512850510596E-01
 0.3232767991258E-01
 0.2131196191748E-01
 0.1110605939724E-01
 0.4274268881143E-02
 0.5639910052732E-04
-0.4304431017018E-02
-0.9304451718573E-02
-0.1512245773269E-01
-0.2145349342597E-01
-0.2660685680487E-01
 0.1857186789667E+01
 0.1379038256593E+01
 0.8503662974190E+00
 0.4357307612364E+00
 0.2033025388299E+00
 0.9635555952840E-01
 0.4125056547723E-01
 0.1028922023623E-01
-0.8708772539639E-02
-0.2069689749963E-01
-0.2780727943061E-01
-0.3340378903671E-01
-0.3904638056150E-01
-0.4299511194546E-01
-0.4673958897206E-01
-0.5258739168561E-01
-0.5976435939692E-01
-0.6754339117063E-01
-0.7559648095797E-01
-0.8254060370195E-01
 0.2199302432055E+01
 0.1436079225943E+01
 0.6867076854432E+00
 0.2233187962966E+00
 0.6165143562773E-01
-0.1078659578706E-01
-0.4609634320264E-01
-0.6600297447542E-01
-0.7748626181461E-01
-0.8352016605669E-01
-0.8499239947608E-01
-0.8448842132170E-01
-0.8459548082730E-01
-0.8517961431047E-01
-0.8902342431046E-01
-0.9739125238810E-01
-0.1077613658035E+00
-0.1176542697349E+00
-0.1270014586378E+00
-0.1350708298699E+00
 0.2860828530372E+01
 0.1465875092776E+01
 0.2835118768864E+00
 0.3584933607778E-01
-0.6718364962619E-01
-0.1067988968204E+00
-0.1271595599639E+00
-0.1379248736141E+00
-0.1427334433696E+00
-0.1437293816912E+00
-0.1396307575630E+00
-0.1321859290849E+00
-0.1247929889046E+00
-0.1213721068037E+00
-0.1264866750415E+00
-0.1388674912643E+00
-0.1532653910622E+00
-0.1666493050815E+00
-0.1753957536065E+00
-0.1833919483151E+00
 0.5009658279745E+01
 0.3617356108153E+00
 0.3185197851835E-01
-0.1278001312818E+00
-0.1753513172172E+00
-0.1939847549906E+00
-0.2022961336135E+00
-0.2061411588173E+00
-0.2050004852709E+00
-0.1998401745538E+00
-0.1944353358195E+00
-0.1771835692250E+00
-0.1571290431225E+00
-0.1503547679634E+00
-0.1595657451796E+00
-0.1768424542360E+00
-0.1967148424375E+00
-0.2135961661329E+00
-0.2263799634241E+00
-0.2208813011558E+00
 0.1634682039529E+01
 0.1553804914804E+01
 0.1512091801873E+01
 0.1469746408976E+01
 0.1424066799243E+01
 0.1372452369803E+01
 0.1313677041193E+01
 0.1246847431126E+01
 0.1171278879170E+01
 0.1086375028152E+01
 0.9915809794488E+00
 0.8863653393730E+00
 0.7702372817460E+00
 0.6428159221573E+00
 0.5040003551111E+00
 0.3543219252828E+00
 0.1957193480680E+00
 0.3269020608818E-01
-0.1247950871322E+00
-0.2765375950297E+00
 0.1680657851986E+01
 0.1660695911571E+01
 0.1622823089914E+01
 0.1588316312075E+01
 0.1550245225707E+01
 0.1507060135416E+01
 0.1457076371839E+01
 0.1399037126221E+01
 0.1331795323381E+01
 0.1254240659230E+01
 0.1165225436880E+01
 0.1063522300792E+01
 0.9478052406729E+00
 0.8166700426985E+00
 0.6687296223280E+00
 0.5028894101554E+00
 0.3189582571773E+00
 0.1193700972174E+00
-0.8816435741079E-01
-0.2872248419548E+00
 0.1757056158677E+01
 0.1745867551843E+01
 0.1728503485734E+01
 0.1704950197042E+01
 0.1678067072102E+01
 0.1646037467942E+01
 0.1607628533023E+01
 0.1561469808582E+01
 0.1506199941355E+01
 0.1440373899932E+01
 0.1362405651806E+01
 0.1270500758941E+01
 0.1162589626125E+01
 0.1036258987670E+01
 0.8886903154009E+00
 0.7166158331948E+00
 0.5164197507652E+00
 0.2844592442658E+00
 0.1978202985818E-01
-0.2570141454412E+00
 0.1832845117740E+01
 0.1833322355469E+01
 0.1828394320075E+01
 0.1819090867727E+01
 0.1805252757491E+01
 0.1786734823601E+01
 0.1762421450473E+01
 0.1731105266304E+01
 0.1691402186386E+01
 0.1641762155273E+01
 0.1580406634459E+01
 0.1505251105730E+01
 0.1413799327816E+01
 0.1302998790405E+01
 0.1169026532065E+01
 0.1006957623900E+01
 0.8101565896610E+00
 0.5693082455718E+00
 0.2700161702688E+00
-0.1101318530847E+00
 0.1907218070256E+01
 0.1918137572772E+01
 0.1925756511881E+01
 0.1929828010711E+01
 0.1930341248220E+01
 0.1926812337147E+01
 0.1918533909936E+01
 0.1904464953778E+01
 0.1883379446158E+01
 0.1853840495445E+01
 0.1814164831536E+01
 0.1762350155159E+01
 0.1695969741236E+01
 0.1612014975274E+01
 0.1506650334552E+01
 0.1374793144969E+01
 0.1209362576736E+01
 0.9995762662393E+00
 0.7271800638744E+00
 0.3443137358951E+00
 0.1978273004335E+01
 0.1999644565286E+01
 0.2019227767567E+01
 0.2036712165354E+01
 0.2051807362842E+01
 0.2064138994156E+01
 0.2073101357226E+01
 0.2077905113723E+01
 0.2077564562279E+01
 0.2070912774168E+01
 0.2056575142677E+01
 0.2032925302440E+01
 0.1998015274294E+01
 0.1949472464977E+01
 0.1884342217938E+01
 0.1798841649071E+01
 0.1687925666146E+01
 0.1544584239567E+01
 0.1357921171024E+01
 0.1116119801660E+01
 0.2045005687903E+01
 0.2076620755836E+01
 0.2107912664473E+01
 0.2138555263353E+01
 0.2168278889748E+01
 0.2196754444564E+01
 0.2223550203413E+01
 0.2248098486937E+01
 0.2269703094198E+01
 0.2287535929840E+01
 0.2300633701108E+01
 0.2307883582286E+01
 0.2308002762324E+01
 0.2299513333713E+01
 0.2280719723833E+01
 0.2249705157588E+01
 0.2204422764493E+01
 0.2143065906833E+01
 0.2066074793912E+01
 0.1985167923418E+01
 0.2106592200259E+01
 0.2148195082015E+01
 0.2190853811988E+01
 0.2234337884904E+01
 0.2278455292029E+01
 0.2323000184319E+01
 0.2367711851254E+01
 0.2412260827937E+01
 0.2456244220547E+01
 0.2499192421285E+01
 0.2540577379396E+01
 0.2579825742594E+01
 0.2616339941362E+01
 0.2649538136665E+01
 0.2678933713106E+01
 0.2704301648307E+01
 0.2726035177161E+01
 0.2745967322540E+01
 0.2769326015317E+01
 0.2804874228946E+01
 0.2162263651524E+01
 0.2213453110795E+01
 0.2266991050836E+01
 0.2322790286451E+01
 0.2380791266778E+01
 0.2440936695426E+01
 0.2503154195921E+01
 0.2567347166007E+01
 0.2633397339735E+01
 0.2701175143827E+01
 0.2770558881054E+01
 0.2841463698578E+01
 0.2913886405362E+01
 0.2987976642992E+01
 0.3064153722954E+01
 0.3143301834994E+01
 0.3227092335992E+01
 0.3318489680057E+01
 0.3421885257042E+01
 0.3542857524169E+01
 0.2211220906919E+01
 0.2271331839556E+01
 0.2334990591025E+01
 0.2402274028980E+01
 0.2473272061386E+01
 0.2548089723089E+01
 0.2626841664431E+01
 0.2709651868830E+01
 0.2796659899988E+01
 0.2888035204094E+01
 0.2983999959592E+01
 0.3084862882155E+01
 0.3191067780541E+01
 0.3303263031821E+01
 0.3422399627190E+01
 0.3549862246077E+01
 0.3687622807220E+01
 0.3838289184508E+01
 0.4004980145702E+01
 0.4190783402643E+01
 0.2252864571518E+01
 0.2320964947421E+01
 0.2393726611788E+01
 0.2471367758520E+01
 0.2554126372094E+01
 0.2642264859177E+01
 0.2736072838838E+01
 0.2835871172939E+01
 0.2942020563324E+01
 0.3054935844311E+01
 0.3175107147770E+01
 0.3303129042706E+01
 0.3439738983918E+01
 0.3585865641255E+01
 0.3742684437855E+01
 0.3911669511907E+01
 0.4094605321445E+01
 0.4293522637962E+01
 0.4510499029402E+01
 0.4747381412505E+01
 0.2286712915171E+01
 0.2361683247098E+01
 0.2442309621792E+01
 0.2528931715562E+01
 0.2621919007255E+01
 0.2721675655833E+01
 0.2828644923967E+01
 0.2943314798319E+01
 0.3066226038781E+01
 0.3197983715817E+01
 0.3339272683971E+01
 0.3490877047041E+01
 0.3653702795195E+01
 0.3828800961825E+01
 0.4017385144486E+01
 0.4220830394593E+01
 0.4440638604916E+01
 0.4678353474113E+01
 0.4935437487548E+01
 0.5213140260193E+01
 0.2312390616559E+01
 0.2392973966843E+01
 0.2480058518553E+01
 0.2574085387711E+01
 0.2675535039108E+01
 0.2784931132084E+01
 0.2902844681462E+01
 0.3029898777079E+01
 0.3166774357041E+01
 0.3314217272540E+01
 0.3473046544842E+01
 0.3644163102283E+01
 0.3828557361433E+01
 0.4027312580437E+01
 0.4241598872789E+01
 0.4472651912776E+01
 0.4721730929173E+01
 0.4990058845137E+01
 0.5278755623411E+01
 0.5588789130924E+01
 0.2329626131842E+01
 0.2414465982324E+01
 0.2506477971718E+01
 0.2606184238622E+01
 0.2714153552388E+01
 0.2831004387500E+01
 0.2957407990462E+01
 0.3094091355063E+01
 0.3241839992653E+01
 0.3401500273650E+01
 0.3573980834013E+01
 0.3760252143140E+01
 0.3961342798753E+01
 0.4178330532187E+01
 0.4412325744647E+01
 0.4664446043949E+01
 0.4935783016454E+01
 0.5227365869443E+01
 0.5540130819108E+01
 0.5874903785212E+01
 0.2338252285749E+01
 0.2425923624420E+01
 0.2521246690842E+01
 0.2624802917806E+01
 0.2737225632113E+01
 0.2859202547842E+01
 0.2991477802675E+01
 0.3134853233996E+01
 0.3290188494991E+01
 0.3458399499515E+01
 0.3640454547783E+01
 0.3837367349272E+01
 0.4050186102754E+01
 0.4279977966660E+01
 0.4527808816453E+01
 0.4794719458318E+01
 0.5081701214963E+01
 0.5389675517161E+01
 0.5719481622758E+01
 0.6071874407258E+01
 0.2338205992396E+01
 0.2427244056401E+01
 0.2524211049481E+01
 0.2629724834339E+01
 0.2744458787379E+01
 0.2869143996542E+01
 0.3004570722890E+01
 0.3151588654348E+01
 0.3311105400105E+01
 0.3484082575498E+01
 0.3671528781519E+01
 0.3874488850188E+01
 0.4094028992721E+01
 0.4331218030037E+01
 0.4587105750776E+01
 0.4862700453426E+01
 0.5158948803438E+01
 0.5476722187078E+01
 0.5816813394353E+01
 0.6179942996901E+01
 0.2329527585177E+01
 0.2418455373711E+01
 0.2515381025100E+01
 0.2620935217277E+01
 0.2735806217339E+01
 0.2860742271410E+01
 0.2996553141568E+01
 0.3144110335139E+01
 0.3304345395672E+01
 0.3478245526382E+01
 0.3666845795468E+01
 0.3871217276826E+01
 0.4092450831487E+01
 0.4331636904160E+01
 0.4589842619293E+01
 0.4868088428184E+01
 0.5167326905807E+01
 0.5488426534872E+01
 0.5832166835307E+01
 0.6199251886190E+01
 0.2312359740378E+01
 0.2399714458862E+01
 0.2494926800791E+01
 0.2598615961008E+01
 0.2711459344356E+01
 0.2834195437320E+01
 0.2967626155632E+01
 0.3112618140270E+01
 0.3270102347057E+01
 0.3441071231848E+01
 0.3626572676879E+01
 0.3827699780350E+01
 0.4045575815523E+01
 0.4281334200344E+01
 0.4536094285501E+01
 0.4810934844197E+01
 0.5106868143946E+01
 0.5424815470206E+01
 0.5765583174732E+01
 0.6129861382386E+01
 0.2286944839986E+01
 0.2371304117750E+01
 0.2463175169885E+01
 0.2563141443357E+01
 0.2671843071446E+01
 0.2789980732856E+01
 0.2918319563097E+01
 0.3057692323246E+01
 0.3209001632594E+01
 0.3373220614748E+01
 0.3551391072632E+01
 0.3744618001390E+01
 0.3954059003405E+01
 0.4180907216002E+01
 0.4426367057433E+01
 0.4691623816152E+01
 0.4977809737373E+01
 0.5285972187171E+01
 0.5617034618004E+01
 0.5971718773212E+01
 0.2253622310588E+01
 0.2333628976079E+01
 0.2420605379298E+01
 0.2515074942256E+01
 0.2617613093790E+01
 0.2728853637614E+01
 0.2849493851678E+01
 0.2980300033785E+01
 0.3122113209872E+01
 0.3275854691390E+01
 0.3442530759323E+01
 0.3623235199340E+01
 0.3819147605437E+01
 0.4031524395486E+01
 0.4261679059614E+01
 0.4510949509093E+01
 0.4780655092120E+01
 0.5072048980268E+01
 0.5386292966962E+01
 0.5724392795098E+01
 0.2212826569647E+01
 0.2287216134701E+01
 0.2367855319352E+01
 0.2455179772524E+01
 0.2549673784800E+01
 0.2651874564217E+01
 0.2762378578157E+01
 0.2881849167672E+01
 0.3011025816313E+01
 0.3150735139838E+01
 0.3301903438639E+01
 0.3465570048802E+01
 0.3642899534969E+01
 0.3835188758018E+01
 0.4043861740086E+01
 0.4270443380506E+01
 0.4516507027603E+01
 0.4783606171845E+01
 0.5073202188178E+01
 0.5386781902046E+01
 0.2165086036025E+01
 0.2232736095379E+01
 0.2305753673087E+01
 0.2384467044652E+01
 0.2469244268375E+01
 0.2560497254976E+01
 0.2658688078738E+01
 0.2764337840306E+01
 0.2878038503652E+01
 0.3000468443078E+01
 0.3132412456453E+01
 0.3274786783089E+01
 0.3428668822938E+01
 0.3595328928090E+01
 0.3776256947592E+01
 0.3973165763432E+01
 0.4187946020082E+01
 0.4422561263060E+01
 0.4678918449576E+01
 0.4958668287472E+01
 0.2111010820301E+01
 0.2170966003779E+01
 0.2235273215072E+01
 0.2304136820617E+01
 0.2377787876226E+01
 0.2456487182359E+01
 0.2540530707004E+01
 0.2630258017925E+01
 0.2726064604023E+01
 0.2828419367891E+01
 0.2937889101611E+01
 0.3055172316647E+01
 0.3181145173580E+01
 0.3316921911880E+01
 0.3463928419556E+01
 0.3623978030953E+01
 0.3799298959205E+01
 0.3992423323920E+01
 0.4205928954502E+01
 0.4442101700216E+01
 0.2051280686514E+01
 0.2102766928456E+01
 0.2157491125700E+01
 0.2215521770294E+01
 0.2276937474999E+01
 0.2341827659023E+01
 0.2410295538432E+01
 0.2482464001255E+01
 0.2558485351683E+01
 0.2638556498503E+01
 0.2722942061477E+01
 0.2812009244263E+01
 0.2906280453487E+01
 0.3006512546631E+01
 0.3113815705264E+01
 0.3229822721533E+01
 0.3356912989240E+01
 0.3498326303823E+01
 0.3657784350614E+01
 0.3838871882420E+01
 0.1986635313191E+01
 0.2029071694985E+01
 0.2073572448566E+01
 0.2120065188013E+01
 0.2168468223749E+01
 0.2218687767615E+01
 0.2270616864309E+01
 0.2324136358637E+01
 0.2379118602117E+01
 0.2435435177551E+01
 0.2492970861361E+01
 0.2551647711955E+01
 0.2611466196824E+01
 0.2672576185100E+01
 0.2735401154327E+01
 0.2800863405390E+01
 0.2870779850427E+01
 0.2948620174229E+01
 0.3040022968848E+01
 0.3151100562451E+01
 0.1917862902839E+01
 0.1950869707066E+01
 0.1984751023715E+01
 0.2019297205032E+01
 0.2054268421587E+01
 0.2089387671851E+01
 0.2124334414198E+01
 0.2158738686988E+01
 0.2192175791582E+01
 0.2224161879997E+01
 0.2254151270482E+01
 0.2281537290194E+01
 0.2305660603292E+01
 0.2325833654418E+01
 0.2341401753208E+01
 0.2351887053302E+01
 0.2357353620995E+01
 0.2359273893782E+01
 0.2363531787419E+01
 0.2383095230285E+01
 0.1845787118871E+01
 0.1869189347004E+01
 0.1892306368999E+01
 0.1914804711480E+01
 0.1936300694964E+01
 0.1956349193299E+01
 0.1974431552702E+01
 0.1989942061433E+01
 0.2002172237597E+01
 0.2010291942110E+01
 0.2013325909474E+01
 0.2010123786292E+01
 0.1999321141853E+01
 0.1979288523430E+01
 0.1948065834771E+01
 0.1903287131725E+01
 0.1842121080175E+01
 0.1761444017141E+01
 0.1658857095455E+01
 0.1546333708437E+01
 0.1771252522765E+01
 0.1785078515936E+01
 0.1797537372959E+01
 0.1808195544559E+01
 0.1816553267759E+01
 0.1822029975377E+01
 0.1823947371428E+01
 0.1821509355142E+01
 0.1813777518387E+01
 0.1799639962354E+01
 0.1777769900260E+01
 0.1746568481829E+01
 0.1704082814642E+01
 0.1647883496009E+01
 0.1574872803014E+01
 0.1480964532475E+01
 0.1360506581166E+01
 0.1205121768700E+01
 0.1000897311460E+01
 0.7205844885975E+00
 0.1695108896310E+01
 0.1699583339388E+01
 0.1701732426267E+01
 0.1701055681736E+01
 0.1696978290086E+01
 0.1688835016495E+01
 0.1675850508201E+01
 0.1657116244406E+01
 0.1631562773119E+01
 0.1597924532088E+01
 0.1554692778009E+01
 0.1500049815761E+01
 0.1431773463637E+01
 0.1347092439485E+01
 0.1242455800936E+01
 0.1113139323360E+01
 0.9525128916255E+00
 0.7504324191441E+00
 0.4894717462209E+00
 0.1240849292033E+00
 0.1618193017974E+01
 0.1613723616614E+01
 0.1606133717546E+01
 0.1594894892446E+01
 0.1579408734943E+01
 0.1558989692411E+01
 0.1532844946020E+01
 0.1500053043479E+01
 0.1459540935356E+01
 0.1410056518717E+01
 0.1350133049521E+01
 0.1278040611353E+01
 0.1191717944341E+01
 0.1088674245944E+01
 0.9658439119333E+00
 0.8193657379969E+00
 0.6442336883429E+00
 0.4338112813833E+00
 0.1788750006882E+00
-0.1246957745284E+00
 0.1541306617206E+01
 0.1528463083736E+01
 0.1511889606891E+01
 0.1491070327102E+01
 0.1465438756791E+01
 0.1434356471395E+01
 0.1397091183268E+01
 0.1352801417639E+01
 0.1300524560545E+01
 0.1239165657003E+01
 0.1167484527027E+01
 0.1084080236301E+01
 0.9873737457021E+00
 0.8755933350713E+00
 0.7467763784868E+00
 0.5988271070041E+00
 0.4297521451175E+00
 0.2384561104671E+00
 0.2785063013308E-01
-0.1821935716807E+00
 0.1465194426005E+01
 0.1444677463414E+01
 0.1420000741515E+01
 0.1390701417022E+01
 0.1356304756496E+01
 0.1316277971045E+01
 0.1270008901411E+01
 0.1216798932164E+01
 0.1155866012400E+01
 0.1086352612388E+01
 0.1007337430423E+01
 0.9178528898032E+00
 0.8169156625145E+00
 0.7035850655873E+00
 0.5770804365563E+00
 0.4370224037993E+00
 0.2839490724754E+00
 0.1204005284234E+00
-0.4660238867354E-01
-0.2086906688541E+00
 0.1390536201125E+01
 0.1363134962440E+01
 0.1331263913847E+01
 0.1294594488030E+01
 0.1252800316262E+01
 0.1205500047045E+01
 0.1152235130559E+01
 0.1092477312700E+01
 0.1025649632193E+01
 0.9511542833298E+00
 0.8684045356603E+00
 0.7768658088170E+00
 0.6761149116995E+00
 0.5659334241796E+00
 0.4464596802192E+00
 0.3184383161391E+00
 0.1835943071315E+00
 0.4513746684782E-01
-0.9296505524287E-01
-0.2273605982422E+00
 0.1317989615357E+01
 0.1284432038873E+01
 0.1246190361532E+01
 0.1203149541005E+01
 0.1155193833464E+01
 0.1102118891435E+01
 0.1043623803053E+01
 0.9793416206878E+00
 0.9088868975307E+00
 0.8318998900791E+00
 0.7480915749508E+00
 0.6572929039021E+00
 0.5595181278433E+00
 0.4550504732884E+00
 0.3445568639531E+00
 0.2292205237640E+00
 0.1108437021974E+00
-0.8383254593786E-02
-0.1264415725022E+00
-0.2425485407904E+00
 0.1247958594700E+01
 0.1208817421312E+01
 0.1164846755263E+01
 0.1116272195317E+01
 0.1063245065439E+01
 0.1005736896006E+01
 0.9435639005771E+00
 0.8764794655980E+00
 0.8042443057702E+00
 0.7266881846646E+00
 0.6437527773412E+00
 0.5555343562535E+00
 0.4623301419417E+00
 0.3646895773719E+00
 0.2634602348854E+00
 0.1598020318891E+00
 0.5508957994070E-01
-0.4932390339324E-01
-0.1524780483052E+00
-0.2539484310074E+00
 0.1180795226550E+01
 0.1136396630826E+01
 0.1087099386616E+01
 0.1033681606754E+01
 0.9766101741276E+00
 0.9159405026327E+00
 0.8515278889464E+00
 0.7831581834932E+00
 0.7106832679226E+00
 0.6340624219412E+00
 0.5533943393788E+00
 0.4689393105263E+00
 0.3811386291168E+00
 0.2906254967295E+00
 0.1982150117875E+00
 0.1048473516104E+00
 0.1148011064573E-01
-0.8105973467478E-01
-0.1721721686299E+00
-0.2613782750510E+00
 0.1116922541211E+01
 0.1067096664157E+01
 0.1012536086299E+01
 0.9549171691735E+00
 0.8948502459834E+00
 0.8323510803424E+00
 0.7670691728090E+00
 0.6987662393012E+00
 0.6273288994332E+00
 0.5527990896173E+00
 0.4753720000500E+00
 0.3953933907421E+00
 0.3133514876889E+00
 0.2298581986864E+00
 0.1456085632426E+00
 0.6131533176765E-01
-0.2238560518803E-01
-0.1049738930459E+00
-0.1859854160312E+00
-0.2650045133502E+00
 0.1056629022985E+01
 0.1000273489243E+01
 0.9401904766756E+00
 0.8790144534241E+00
 0.8175119277830E+00
 0.7546312877126E+00
 0.6898393309336E+00
 0.6228062310070E+00
 0.5534485219654E+00
 0.4818695618447E+00
 0.4083270995237E+00
 0.3332041959889E+00
 0.2569825323301E+00
 0.1802094928421E+00
 0.1034548489548E+00
 0.2725243031004E-01
-0.4794713848510E-01
-0.1218952511018E+00
-0.1944244475406E+00
-0.2650222921409E+00
 0.1000583166045E+01
 0.9339788513639E+00
 0.8669896578019E+00
 0.8053447739201E+00
 0.7443701269830E+00
 0.6827926348301E+00
 0.6197781572492E+00
 0.5550323548318E+00
 0.4885464465806E+00
 0.4205058439449E+00
 0.3512227477036E+00
 0.2810952916085E+00
 0.2105757576250E+00
 0.1401408877133E+00
 0.7025968606352E-01
 0.1365272357554E-02
-0.6619583951505E-01
-0.1321264699860E+00
-0.1968849016852E+00
-0.2612369384482E+00
 0.9454223585247E+00
 0.8546341367636E+00
 0.7926448821080E+00
 0.7341122635142E+00
 0.6763230577030E+00
 0.6175583387445E+00
 0.5573247304355E+00
 0.4955553321320E+00
 0.4324302125153E+00
 0.3682512338957E+00
 0.3033845590463E+00
 0.2382279968958E+00
 0.1731916954121E+00
 0.1086842654048E+00
 0.4510383207967E-01
-0.1716924100840E-01
-0.7774470718156E-01
-0.1363117653493E+00
-0.1919074515231E+00
-0.2478212801558E+00
</DataArray>
<DataArray type="Float64" Name="S_Oct" NumberOfComponents="1" ComponentName0="S_Oct" format="ascii">
 0.2937228509621E+00
 0.2439540722106E+00
 0.2250975649624E+00
 0.2332007773642E+00
 0.2505602816945E+00
 0.2746532392145E+00
 0.3033391173007E+00
 0.3357324152283E+00
 0.3713324283723E+00
 0.4099300882821E+00
 0.4514985687471E+00
 0.4961584390352E+00
 0.5441636082556E+00
 0.5959070447563E+00
 0.6519435982712E+00
 0.7130486005756E+00
 0.7803254734940E+00
 0.8554719382292E+00
 0.9414028419739E+00
 0.1042492923284E+01
 0.1158948301982E+01
 0.1283962958093E+01
 0.1410044239233E+01
 0.1532921409134E+01
 0.1651209556516E+01
 0.1764934916699E+01
 0.1874340705751E+01
 0.1979196644354E+01
 0.2078292546475E+01
 0.2168927279673E+01
 0.2248764401501E+01
 0.2320063339557E+01
 0.2387475559607E+01
 0.2454350420135E+01
 0.2524337256983E+01
 0.2601010460332E+01
 0.2694715199436E+01
 0.2791791616757E+01
 0.2999052642280E+01
 0.2674869676303E+01
 0.5378552466226E+01
 0.2816629246929E+00
 0.2890358991980E+00
 0.2786585862442E+00
 0.2828123510718E+00
 0.2980290296543E+00
 0.3196633176448E+00
 0.3462395640500E+00
 0.3767265248350E+00
 0.4106121213764E+00
 0.4476428989341E+00
 0.4877596713064E+00
 0.5310528760924E+00
 0.5777485849464E+00
 0.6282116419221E+00
 0.6829656806411E+00
 0.7427406676741E+00
 0.8085649775923E+00
 0.8819196703089E+00
 0.9645630593150E+00
 0.1057543230600E+01
 0.1159670492861E+01
 0.1267266115182E+01
 0.1375997238029E+01
 0.1482652606869E+01
 0.1585490164305E+01
 0.1683682257213E+01
 0.1776636294155E+01
 0.1863466230835E+01
 0.1942761272432E+01
 0.2013003449785E+01
 0.2073280862064E+01
 0.2123456351143E+01
 0.2163780272916E+01
 0.2193988921215E+01
 0.2211830246528E+01
 0.2212771081596E+01
 0.2181044244483E+01
 0.2104136207195E+01
 0.1843490701517E+01
 0.1419937668476E+01
 0.4628766325515E+01
 0.2926545418695E+00
 0.3172116191495E+00
 0.3230083958974E+00
 0.3284846225722E+00
 0.3424651649700E+00
 0.3625381226600E+00
 0.3873797413312E+00
 0.4161841347526E+00
 0.4484521709206E+00
 0.4839327492122E+00
 0.5225484521703E+00
 0.5643658205510E+00
 0.6095806997828E+00
 0.6585193690009E+00
 0.7116506239368E+00
 0.7696153959133E+00
 0.8332697634272E+00
 0.9036083015718E+00
 0.9812098090126E+00
 0.1065605198092E+01
 0.1155303477175E+01
 0.1248128834927E+01
 0.1341570402073E+01
 0.1433302118032E+01
 0.1521553430899E+01
 0.1605036524226E+01
 0.1682634069166E+01
 0.1753106604549E+01
 0.1815120086261E+01
 0.1867633298058E+01
 0.1909767539969E+01
 0.1940047785252E+01
 0.1956333074957E+01
 0.1955516558123E+01
 0.1932289132677E+01
 0.1876376998202E+01
 0.1771989811954E+01
 0.1587760015677E+01
 0.1276956866498E+01
 0.1369091831695E+01
 0.4300862252201E+01
 0.3127410013346E+00
 0.3434256283564E+00
 0.3598705315012E+00
 0.3699644930870E+00
 0.3840214124362E+00
 0.4031884230040E+00
 0.4267136520793E+00
 0.4540531722668E+00
 0.4848123212802E+00
 0.5187676182226E+00
 0.5558413248716E+00
 0.5960814384414E+00
 0.6396518460906E+00
 0.6868303179009E+00
 0.7380099755337E+00
 0.7937042136853E+00
 0.8545124633925E+00
 0.9208764920899E+00
 0.9925497595695E+00
 0.1068409757841E+01
 0.1147006026298E+01
 0.1226971919265E+01
 0.1306836055736E+01
 0.1384930249637E+01
 0.1459611552913E+01
 0.1529394251279E+01
 0.1592887549338E+01
 0.1648713859159E+01
 0.1695627987507E+01
 0.1732677279181E+01
 0.1758725749471E+01
 0.1771560120770E+01
 0.1767837721459E+01
 0.1743151717352E+01
 0.1691075306364E+01
 0.1602314082433E+01
 0.1465485828972E+01
 0.1270413064315E+01
 0.1104579083066E+01
 0.1685261327803E+01
 0.4001110672139E+01
 0.3368616960647E+00
 0.3699951925968E+00
 0.3927225671549E+00
 0.4075522759096E+00
 0.4228283613948E+00
 0.4416489748801E+00
 0.4642244345210E+00
 0.4903136997012E+00
 0.5196723183281E+00
 0.5521330170908E+00
 0.5876308706737E+00
 0.6262009766910E+00
 0.6679738548365E+00
 0.7131706106211E+00
 0.7620924199728E+00
 0.8150955225125E+00
 0.8724874674156E+00
 0.9342316883512E+00
 0.9995796312994E+00
 0.1067170953370E+01
 0.1135697333209E+01
 0.1204258290161E+01
 0.1271985014660E+01
 0.1337677520783E+01
 0.1399882148350E+01
 0.1457086172026E+01
 0.1507809972929E+01
 0.1550663428298E+01
 0.1584463150422E+01
 0.1608219719558E+01
 0.1620587834840E+01
 0.1619066997578E+01
 0.1600022570252E+01
 0.1559016799788E+01
 0.1490764098796E+01
 0.1390117678791E+01
 0.1256351710410E+01
 0.1117342179891E+01
 0.1157169480269E+01
 0.1968123493472E+01
 0.3750618446190E+01
 0.3628077556509E+00
 0.3970188486716E+00
 0.4233995591432E+00
 0.4420882519406E+00
 0.4590696410260E+00
 0.4780102280516E+00
 0.4999372001091E+00
 0.5249705557804E+00
 0.5530322358521E+00
 0.5840310334857E+00
 0.6179254550610E+00
 0.6547422464836E+00
 0.6945779026226E+00
 0.7375912476515E+00
 0.7839808391414E+00
 0.8339318897186E+00
 0.8874734138965E+00
 0.9442088575577E+00
 0.1003118028823E+01
 0.1062802926239E+01
 0.1122116198922E+01
 0.1180441004463E+01
 0.1237267101107E+01
 0.1291727769751E+01
 0.1342575752701E+01
 0.1388378578174E+01
 0.1427691976380E+01
 0.1459188061567E+01
 0.1481745040140E+01
 0.1494350294205E+01
 0.1495603836330E+01
 0.1483099319528E+01
 0.1453581152991E+01
 0.1403617758610E+01
 0.1330529718422E+01
 0.1235123657883E+01
 0.1131038654099E+01
 0.1081037551994E+01
 0.1301789901541E+01
 0.2161300465172E+01
 0.3549575182604E+01
 0.3895021666833E+00
 0.4242296384419E+00
 0.4527499638003E+00
 0.4743230027047E+00
 0.4930371621638E+00
 0.5123923921078E+00
 0.5339104001151E+00
 0.5580516361696E+00
 0.5849103501897E+00
 0.6144795287047E+00
 0.6467483964594E+00
 0.6817387951589E+00
 0.7195133370775E+00
 0.7601658919116E+00
 0.8037884746953E+00
 0.8503987752896E+00
 0.8997891022838E+00
 0.9513177133205E+00
 0.1003843454596E+01
 0.1056025404116E+01
 0.1106869085930E+01
 0.1155940676113E+01
 0.1202952130613E+01
 0.1247280843076E+01
 0.1287884840653E+01
 0.1323475814132E+01
 0.1352724096503E+01
 0.1374415339989E+01
 0.1387518140440E+01
 0.1391070995394E+01
 0.1383795730881E+01
 0.1363685808188E+01
 0.1328348533691E+01
 0.1276047856999E+01
 0.1207488845631E+01
 0.1130304530487E+01
 0.1072268109265E+01
 0.1118231931169E+01
 0.1459902415000E+01
 0.2283793537422E+01
 0.3389460647511E+01
 0.4163817642378E+00
 0.4513677510088E+00
 0.4811518809539E+00
 0.5047947148323E+00
 0.5250448425190E+00
 0.5449451004532E+00
 0.5662244659592E+00
 0.5896047262912E+00
 0.6153410702449E+00
 0.6435107665063E+00
 0.6741368497218E+00
 0.7072386582661E+00
 0.7428459093422E+00
 0.7809879334996E+00
 0.8216533254279E+00
 0.8647092022068E+00
 0.9097636915319E+00
 0.9560247621360E+00
 0.1002324757571E+01
 0.1047422638998E+01
 0.1090462373098E+01
 0.1131137220931E+01
 0.1169305840201E+01
 0.1204533408616E+01
 0.1235975851317E+01
 0.1262524755155E+01
 0.1283014515692E+01
 0.1296384609457E+01
 0.1301739108240E+01
 0.1298259837337E+01
 0.1284949647287E+01
 0.1260428955209E+01
 0.1223481057007E+01
 0.1174436101520E+01
 0.1117690207400E+01
 0.1067586235800E+01
 0.1062886649411E+01
 0.1193584580854E+01
 0.1601428534040E+01
 0.2359238289390E+01
 0.3261028813272E+01
 0.4431391356247E+00
 0.4782434208707E+00
 0.5087716350832E+00
 0.5338636598227E+00
 0.5553748720845E+00
 0.5758320789232E+00
 0.5969756702513E+00
 0.6196930218951E+00
 0.6443727943190E+00
 0.6711698296878E+00
 0.7001404672706E+00
 0.7313028523907E+00
 0.7646556541627E+00
 0.8001670578681E+00
 0.8377313825519E+00
 0.8770900430309E+00
 0.9177192736020E+00
 0.9587494264491E+00
 0.9990439438862E+00
 0.1037479101875E+01
 0.1073323783805E+01
 0.1106367763540E+01
 0.1136575692217E+01
 0.1163666121435E+01
 0.1186984130472E+01
 0.1205619483137E+01
 0.1218601249546E+01
 0.1225056110073E+01
 0.1224272793071E+01
 0.1215663650767E+01
 0.1198638387437E+01
 0.1172595783475E+01
 0.1137663370541E+01
 0.1096373363983E+01
 0.1056746074171E+01
 0.1038827595407E+01
 0.1087285965329E+01
 0.1283365700014E+01
 0.1719335652709E+01
 0.2404896494737E+01
 0.3156818233020E+01
 0.4696031121526E+00
 0.5047321800287E+00
 0.5356839125290E+00
 0.5617682049202E+00
 0.5842613511707E+00
 0.6052157132501E+00
 0.6262700435776E+00
 0.6483912694223E+00
 0.6720655106566E+00
 0.6975129519710E+00
 0.7248198990871E+00
 0.7540036818641E+00
 0.7850345522478E+00
 0.8178254987339E+00
 0.8521899471678E+00
 0.8877716238469E+00
 0.9239615454662E+00
 0.9598657369972E+00
 0.9944130284794E+00
 0.1026602366383E+01
 0.1055816976722E+01
 0.1081927234104E+01
 0.1104982975144E+01
 0.1124835704101E+01
 0.1141011328617E+01
 0.1152805627900E+01
 0.1159460972970E+01
 0.1160318416427E+01
 0.1154896249841E+01
 0.1142908734414E+01
 0.1124261143929E+01
 0.1099215896262E+01
 0.1069303071271E+01
 0.1039220197380E+01
 0.1020218332656E+01
 0.1036301449442E+01
 0.1132546079554E+01
 0.1374299545074E+01
 0.1814954973016E+01
 0.2432020814556E+01
 0.3071301316129E+01
 0.4956790616552E+00
 0.5307587433307E+00
 0.5619263178640E+00
 0.5886694074600E+00
 0.6118924787431E+00
 0.6332477284566E+00
 0.6542176248611E+00
 0.6757823453143E+00
 0.6984884330283E+00
 0.7226057545682E+00
 0.7482451764205E+00
 0.7754229054152E+00
 0.8040840586794E+00
 0.8340942674421E+00
 0.8652017928898E+00
 0.8969804993256E+00
 0.9287753298484E+00
 0.9597059863916E+00
 0.9887865346672E+00
 0.1015138492306E+01
 0.1038251880670E+01
 0.1058070220116E+01
 0.1074718962401E+01
 0.1088170731875E+01
 0.1098124799352E+01
 0.1104084625773E+01
 0.1105516525256E+01
 0.1101996668270E+01
 0.1093309035722E+01
 0.1079521927034E+01
 0.1061090738457E+01
 0.1039174208766E+01
 0.1016681843750E+01
 0.1000298340023E+01
 0.1003816969814E+01
 0.1053033014604E+01
 0.1189068074901E+01
 0.1460021344278E+01
 0.1891960035560E+01
 0.2447713672979E+01
 0.3000473517156E+01
 0.5213172303345E+00
 0.5562824638666E+00
 0.5875236412307E+00
 0.6146810896822E+00
 0.6384190055332E+00
 0.6600654590181E+00
 0.6809280616814E+00
 0.7019542471922E+00
 0.7237178095273E+00
 0.7465214887058E+00
 0.7704940590254E+00
 0.7956498650171E+00
 0.8219126487078E+00
 0.8491096684236E+00
 0.8769404857819E+00
 0.9049347620915E+00
 0.9324229030844E+00
 0.9585648399189E+00
 0.9824708934393E+00
 0.1003382820801E+01
 0.1020892335147E+01
 0.1035013396701E+01
 0.1045943633975E+01
 0.1053770000308E+01
 0.1058358435608E+01
 0.1059418038574E+01
 0.1056644031126E+01
 0.1049861967972E+01
 0.1039147346461E+01
 0.1024956135548E+01
 0.1008320108581E+01
 0.9912865535015E+00
 0.9780557498763E+00
 0.9769929020977E+00
 0.1003518926067E+01
 0.1083095003386E+01
 0.1250369339299E+01
 0.1538055067986E+01
 0.1954186520691E+01
 0.2456439780088E+01
 0.2941416482207E+01
 0.5464951178479E+00
 0.5812864763464E+00
 0.6124982188282E+00
 0.6398888023882E+00
 0.6639633211199E+00
 0.6857915852369E+00
 0.7065078053638E+00
 0.7269975994771E+00
 0.7478349407600E+00
 0.7693393427187E+00
 0.7916503941445E+00
 0.8147796402534E+00
 0.8386334906299E+00
 0.8630102651940E+00
 0.8875768412334E+00
 0.9118411948032E+00
 0.9351438890599E+00
 0.9567032945769E+00
 0.9757316508935E+00
 0.9915878825664E+00
 0.1003962022442E+01
 0.1012938259300E+01
 0.1018786069346E+01
 0.1021702712318E+01
 0.1021714614209E+01
 0.1018732137214E+01
 0.1012680122420E+01
 0.1003641705488E+01
 0.9919998491610E+00
 0.9786160165363E+00
 0.9651021551645E+00
 0.9543534088295E+00
 0.9517126476986E+00
 0.9668068022886E+00
 0.1015674055807E+01
 0.1121758051223E+01
 0.1312400401596E+01
 0.1607915365746E+01
 0.2004955946863E+01
 0.2461026545486E+01
 0.2891962039602E+01
 0.5712072544261E+00
 0.6057700875484E+00
 0.6368739683959E+00
 0.6643613920116E+00
 0.6886271705704E+00
 0.7105355748452E+00
 0.7310586516713E+00
 0.7510037477290E+00
 0.7709244583548E+00
 0.7911428769914E+00
 0.8118025564597E+00
 0.8329113088952E+00
 0.8543623493740E+00
 0.8759343772684E+00
 0.8972763796232E+00
 0.9178937105278E+00
 0.9371559963221E+00
 0.9543522702345E+00
 0.9687991098343E+00
 0.9799694164062E+00
 0.9876492605679E+00
 0.9919939680100E+00
 0.9933458647677E+00
 0.9920098419361E+00
 0.9881668759205E+00
 0.9819226812074E+00
 0.9734291908520E+00
 0.9630300694257E+00
 0.9514232208532E+00
 0.9398806297423E+00
 0.9305798230340E+00
 0.9271931855046E+00
 0.9360023394968E+00
 0.9674012300859E+00
 0.1037095985196E+01
 0.1165454730084E+01
 0.1372807205201E+01
 0.1670050630984E+01
 0.2046954657657E+01
 0.2463287628243E+01
 0.2850457217271E+01
 0.5954590539818E+00
 0.6297435616878E+00
 0.6606776072694E+00
 0.6881579128310E+00
 0.7124975797331E+00
 0.7343957207027E+00
 0.7546772121519E+00
 0.7740634014334E+00
 0.7930728786705E+00
 0.8120186134109E+00
 0.8310420055618E+00
 0.8501463589140E+00
 0.8692157674919E+00
 0.8880180982406E+00
 0.9061975908607E+00
 0.9232726638892E+00
 0.9386561830004E+00
 0.9517157960657E+00
 0.9618728579213E+00
 0.9687111372107E+00
 0.9721110412864E+00
 0.9723002338448E+00
 0.9696952011192E+00
 0.9647062809064E+00
 0.9576631165549E+00
 0.9488598318487E+00
 0.9386705155000E+00
 0.9276980874807E+00
 0.9169560253465E+00
 0.9081214021532E+00
 0.9039062595806E+00
 0.9086606618327E+00
 0.9293549619640E+00
 0.9766347703153E+00
 0.1065111613770E+01
 0.1211615145920E+01
 0.1430334547110E+01
 0.1725286292942E+01
 0.2082298027607E+01
 0.2464409181025E+01
 0.2815605682896E+01
 0.6192630006129E+00
 0.6532245668317E+00
 0.6839386736785E+00
 0.7113316857135E+00
 0.7356511581871E+00
 0.7574611793040E+00
 0.7774549323106E+00
 0.7962657133961E+00
 0.8143674093559E+00
 0.8320547775844E+00
 0.8494619685793E+00
 0.8665872631314E+00
 0.8833095211766E+00
 0.8993937690322E+00
 0.9144908124157E+00
 0.9281447264167E+00
 0.9398220074854E+00
 0.9489738200270E+00
 0.9551255006475E+00
 0.9579686671350E+00
 0.9574765704561E+00
 0.9539502273407E+00
 0.9478813432165E+00
 0.9397835227499E+00
 0.9301291392767E+00
 0.9193931230922E+00
 0.9081650865246E+00
 0.8973027139883E+00
 0.8881301954772E+00
 0.8827151091977E+00
 0.8842570181111E+00
 0.8976573416589E+00
 0.9302972067428E+00
 0.9925973036959E+00
 0.1097558611520E+01
 0.1258456304289E+01
 0.1484402079393E+01
 0.1774539625620E+01
 0.2112638093169E+01
 0.2465196874693E+01
 0.2786362927910E+01
 0.6426362137455E+00
 0.6762357506499E+00
 0.7066891000926E+00
 0.7339326426613E+00
 0.7581571271133E+00
 0.7798137629949E+00
 0.7994783999742E+00
 0.8176976995330E+00
 0.8348950022839E+00
 0.8513402178184E+00
 0.8671562827867E+00
 0.8823362507091E+00
 0.8967573637375E+00
 0.9101888588694E+00
 0.9222975834193E+00
 0.9326631364487E+00
 0.9408130435922E+00
 0.9462846949431E+00
 0.9487058120818E+00
 0.9478728730516E+00
 0.9438504334588E+00
 0.9370134368881E+00
 0.9279293417966E+00
 0.9172126021698E+00
 0.9054723066022E+00
 0.8933562313253E+00
 0.8816617741052E+00
 0.8714944771577E+00
 0.8644797302188E+00
 0.8630523522036E+00
 0.8708369781701E+00
 0.8931389142839E+00
 0.9374686655637E+00
 0.1013630473667E+01
 0.1132741053476E+01
 0.1304781886917E+01
 0.1534823670169E+01
 0.1818674188408E+01
 0.2139258085542E+01
 0.2466245940893E+01
 0.2761871138563E+01
 0.6655988492680E+00
 0.6988030798948E+00
 0.7289626690708E+00
 0.7560086464257E+00
 0.7800794006019E+00
 0.8015294029417E+00
 0.8208297666507E+00
 0.8384438943662E+00
 0.8547416151445E+00
 0.8699634928863E+00
 0.8842183996236E+00
 0.8974942730136E+00
 0.9096700314141E+00
 0.9205251821286E+00
 0.9297503488553E+00
 0.9369681846276E+00
 0.9417722895936E+00
 0.9437873940329E+00
 0.9427414562222E+00
 0.9385327792703E+00
 0.9313154809518E+00
 0.9215384529792E+00
 0.9098448169465E+00
 0.8969471331976E+00
 0.8835851466157E+00
 0.8705714049777E+00
 0.8589026824149E+00
 0.8499235651405E+00
 0.8455468331752E+00
 0.8485427403228E+00
 0.8628846861112E+00
 0.8941225692626E+00
 0.9496362619352E+00
 0.1038330736160E+01
 0.1169362302543E+01
 0.1349816253430E+01
 0.1581633945690E+01
 0.1858425745153E+01
 0.2163121747226E+01
 0.2468067400081E+01
 0.2741429551632E+01
 0.6881730115992E+00
 0.7209547130144E+00
 0.7507944852299E+00
 0.7776061998914E+00
 0.8014779937691E+00
 0.8226792888715E+00
 0.8415871817612E+00
 0.8585861624611E+00
 0.8739916458288E+00
 0.8880121183894E+00
 0.9007405482695E+00
 0.9121601567434E+00
 0.9221544836866E+00
 0.9305183883716E+00
 0.9369724196187E+00
 0.9411878444601E+00
 0.9428275363867E+00
 0.9416035028687E+00
 0.9373413838320E+00
 0.9300381625056E+00
 0.9199354883649E+00
 0.9075556499542E+00
 0.8936167243727E+00
 0.8789263148259E+00
 0.8643487816285E+00
 0.8508534328504E+00
 0.8396276008243E+00
 0.8322444140506E+00
 0.8308859963438E+00
 0.8386180761376E+00
 0.8596759595827E+00
 0.8996945082175E+00
 0.9657037611183E+00
 0.1065536607599E+01
 0.1206452072655E+01
 0.1393077212202E+01
 0.1624984112425E+01
 0.1894396617469E+01
 0.2184831200890E+01
 0.2471176744632E+01
 0.2724501956644E+01
 0.7103819456408E+00
 0.7427203370714E+00
 0.7722204472326E+00
 0.7987708194564E+00
 0.8224099576913E+00
 0.8433307289440E+00
 0.8618251889036E+00
 0.8782036078045E+00
 0.8927275060497E+00
 0.9055719571111E+00
 0.9168130506529E+00
 0.9264299307012E+00
 0.9343133472864E+00
 0.9402776705200E+00
 0.9440781169745E+00
 0.9454384877147E+00
 0.9440926784163E+00
 0.9398390259817E+00
 0.9325979767005E+00
 0.9224618982257E+00
 0.9097576198849E+00
 0.8950797406154E+00
 0.8792200312530E+00
 0.8630778065807E+00
 0.8476360837961E+00
 0.8340130828832E+00
 0.8235775635349E+00
 0.8181190174897E+00
 0.8200666570473E+00
 0.8327346197905E+00
 0.8605275665252E+00
 0.9090166662276E+00
 0.9847145942259E+00
 0.1094305180451E+01
 0.1243297708810E+01
 0.1434285043920E+01
 0.1665075136415E+01
 0.1927098980680E+01
 0.2204651829991E+01
 0.2475792784833E+01
 0.2710940370598E+01
 0.7322463932179E+00
 0.7641212679450E+00
 0.7932625920749E+00
 0.8195282050775E+00
 0.8429063643002E+00
 0.8635198455299E+00
 0.8815831840982E+00
 0.8973373056011E+00
 0.9109915135240E+00
 0.9226874359740E+00
 0.9324842471607E+00
 0.9403580473227E+00
 0.9462092064923E+00
 0.9498750342542E+00
 0.9511489663746E+00
 0.9498098299389E+00
 0.9456629538372E+00
 0.9385910586068E+00
 0.9286058224944E+00
 0.9158910109170E+00
 0.9008554418950E+00
 0.8841638843480E+00
 0.8666793964852E+00
 0.8493886541499E+00
 0.8333864767098E+00
 0.8199310584885E+00
 0.8105615536657E+00
 0.8072680455329E+00
 0.8126986114707E+00
 0.8303616838126E+00
 0.8647379000478E+00
 0.9212076983122E+00
 0.1005657853416E+01
 0.1123629386508E+01
 0.1279083731097E+01
 0.1472973161717E+01
 0.1701828603622E+01
 0.1956680106957E+01
 0.2222778576656E+01
 0.2480553156246E+01
 0.2705467717819E+01
 0.7537947713870E+00
 0.7851898542533E+00
 0.8139596770401E+00
 0.8399243315938E+00
 0.8630218831066E+00
 0.8833097113352E+00
 0.9009311061847E+00
 0.9160622789422E+00
 0.9288625475606E+00
 0.9394408102616E+00
 0.9478398025126E+00
 0.9540337027712E+00
 0.9579345349393E+00
 0.9594051796810E+00
 0.9582797597742E+00
 0.9543934829528E+00
 0.9476226125891E+00
 0.9379317996271E+00
 0.9254201924590E+00
 0.9103588407480E+00
 0.8932350944786E+00
 0.8747813929867E+00
 0.8559293880079E+00
 0.8377487507371E+00
 0.8214395313575E+00
 0.8083912667306E+00
 0.8003022321118E+00
 0.7993458532541E+00
 0.8083580343685E+00
 0.8309856553033E+00
 0.8716989456287E+00
 0.9355877997435E+00
 0.1027854681764E+01
 0.1152954120399E+01
 0.1313509934032E+01
 0.1509169671748E+01
 0.1735555813369E+01
 0.1983572210932E+01
 0.2239427664544E+01
 0.2485522171489E+01
 0.2702974334452E+01
 0.7750518980896E+00
 0.8059643305844E+00
 0.8343608659441E+00
 0.8600204242521E+00
 0.8828306055672E+00
 0.9027869745986E+00
 0.9199666342376E+00
 0.9344851828481E+00
 0.9464542510969E+00
 0.9559509983436E+00
 0.9630023370196E+00
 0.9675814725726E+00
 0.9696135935510E+00
 0.9689889717084E+00
 0.9655839331477E+00
 0.9592905562910E+00
 0.9500549962620E+00
 0.9379212709463E+00
 0.9230724712626E+00
 0.9058631811457E+00
 0.8868561650098E+00
 0.8668493171991E+00
 0.8468405637864E+00
 0.8279789355685E+00
 0.8115643117114E+00
 0.7991103246748E+00
 0.7924642220356E+00
 0.7939659266725E+00
 0.8066081886458E+00
 0.8341230502438E+00
 0.8808954335395E+00
 0.9516513969542E+00
 0.1050886790536E+01
 0.1182048020462E+01
 0.1346612988188E+01
 0.1543193061624E+01
 0.1766774755079E+01
 0.2008313119092E+01
 0.2254934960517E+01
 0.2490968219280E+01
 0.2700589935248E+01
 0.7960425206484E+00
 0.8264750727825E+00
 0.8545020435760E+00
 0.8798586027297E+00
 0.9023816608466E+00
 0.9220077765193E+00
 0.9387520735196E+00
 0.9526732830087E+00
 0.9638377907821E+00
 0.9722923646289E+00
 0.9780489857811E+00
 0.9810808565821E+00
 0.9813275520544E+00
 0.9787079937634E+00
 0.9731415076782E+00
 0.9645768221738E+00
 0.9530284008051E+00
 0.9386167613643E+00
 0.9216052688247E+00
 0.9024281718579E+00
 0.8817203675072E+00
 0.8603427730806E+00
 0.8393570831375E+00
 0.8199880215690E+00
 0.8036299940039E+00
 0.7919134431059E+00
 0.7868238369113E+00
 0.7908493796975E+00
 0.8071075390465E+00
 0.8393648679478E+00
 0.8918584847336E+00
 0.9689027896759E+00
 0.1074295158051E+01
 0.1210568461040E+01
 0.1378231949252E+01
 0.1575083331103E+01
 0.1795680936169E+01
 0.2031147831667E+01
 0.2269509742220E+01
 0.2496795679133E+01
 0.2699349638595E+01
 0.8167911419302E+00
 0.8467521771411E+00
 0.8744186346382E+00
 0.8994801173262E+00
 0.9217227099382E+00
 0.9410262068664E+00
 0.9573472807155E+00
 0.9706911797306E+00
 0.9810815110260E+00
 0.9885362143767E+00
 0.9930534094110E+00
 0.9946072497978E+00
 0.9931526550469E+00
 0.9886379745315E+00
 0.9810257330943E+00
 0.9703205133808E+00
 0.9566030756291E+00
 0.9400673308112E+00
 0.9210531341170E+00
 0.9000704353041E+00
 0.8778228609649E+00
 0.8552317636542E+00
 0.8334199657303E+00
 0.8136841930662E+00
 0.7975081157922E+00
 0.7866315670670E+00
 0.7831668800959E+00
 0.7897313730588E+00
 0.8095352583235E+00
 0.8463337910935E+00
 0.9041676434071E+00
 0.9869143938288E+00
 0.1097702823885E+01
 0.1238252744786E+01
 0.1408263340444E+01
 0.1604900793129E+01
 0.1822452355358E+01
 0.2052288637832E+01
 0.2283296749793E+01
 0.2502974311001E+01
 0.2699292002128E+01
 0.8373219429553E+00
 0.8668252976595E+00
 0.8941454805248E+00
 0.9189253006134E+00
 0.9408999935759E+00
 0.9598944148925E+00
 0.9758097636078E+00
 0.9886008443588E+00
 0.9982508972542E+00
 0.1004750710466E+01
 0.1008085712731E+01
 0.1008231920901E+01
 0.1005160319122E+01
 0.9988490547211E+00
 0.9893035577858E+00
 0.9765830061792E+00
 0.9608321058466E+00
 0.9423148655482E+00
 0.9214437559262E+00
 0.8988003960858E+00
 0.8751536580148E+00
 0.8514826344656E+00
 0.8289685351214E+00
 0.8089763633582E+00
 0.7930737701627E+00
 0.7831023576148E+00
 0.7812894516145E+00
 0.7903619093699E+00
 0.8135921539961E+00
 0.8546848109040E+00
 0.9174494606269E+00
 0.1005320570181E+01
 0.1120802440203E+01
 0.1264901340370E+01
 0.1436645075873E+01
 0.1632715825569E+01
 0.1847247943567E+01
 0.2071908742645E+01
 0.2296390519486E+01
 0.2509434081051E+01
 0.2700301579904E+01
 0.8576587127520E+00
 0.8867235465909E+00
 0.9137167402548E+00
 0.9382335228288E+00
 0.9599583623221E+00
 0.9786626913968E+00
 0.9941947644062E+00
 0.1006461662499E+01
 0.1015408568864E+01
 0.1021000836119E+01
 0.1023212417324E+01
 0.1022022044017E+01
 0.1017417273598E+01
 0.1009406078588E+01
 0.9980360972139E+00
 0.9834194715175E+00
 0.9657622342028E+00
 0.9453950491566E+00
 0.9227990593002E+00
 0.8986234780924E+00
 0.8736988918766E+00
 0.8490593673055E+00
 0.8259416815338E+00
 0.8057753394145E+00
 0.7902066123991E+00
 0.7811710209562E+00
 0.7809986614752E+00
 0.7925065573917E+00
 0.8190013764584E+00
 0.8641052418251E+00
 0.9313751491673E+00
 0.1023810994199E+01
 0.1143344967002E+01
 0.1290364168894E+01
 0.1463344315376E+01
 0.1658602020982E+01
 0.1870205959850E+01
 0.2090144699296E+01
 0.2308844852259E+01
 0.2516095920371E+01
 0.2702227658072E+01
 0.8778247912792E+00
 0.9064754252807E+00
 0.9331658175888E+00
 0.9574431542703E+00
 0.9789412965197E+00
 0.9973795322950E+00
 0.1012555331367E+01
 0.1024330482136E+01
 0.1032614294647E+01
 0.1037348393044E+01
 0.1038496475510E+01
 0.1036040770222E+01
 0.1029985731387E+01
 0.1020368898410E+01
 0.1007279092291E+01
 0.9908794908694E+00
 0.9714346237363E+00
 0.9493382536284E+00
 0.9251362041381E+00
 0.8995411866948E+00
 0.8734419510433E+00
 0.8479247250497E+00
 0.8242789632092E+00
 0.8039948226217E+00
 0.7887917182384E+00
 0.7806910262706E+00
 0.7821132705222E+00
 0.7959470774688E+00
 0.8255088442651E+00
 0.8743141467484E+00
 0.9456575745689E+00
 0.1042124010619E+01
 0.1165129707460E+01
 0.1314529525583E+01
 0.1488348413949E+01
 0.1682631526008E+01
 0.1891444268975E+01
 0.2107101599629E+01
 0.2320688228048E+01
 0.2522881857305E+01
 0.2704914635332E+01
 0.8978430258844E+00
 0.9261087740997E+00
 0.9525253075499E+00
 0.9765915348117E+00
 0.9978909184578E+00
 0.1016091686370E+01
 0.1030942377183E+01
 0.1042261659113E+01
 0.1049925017957E+01
 0.1053852018676E+01
 0.1053997307260E+01
 0.1050347319447E+01
 0.1042923571156E+01
 0.1031792675203E+01
 0.1017083344867E+01
 0.9990076287788E+00
 0.9778855581669E+00
 0.9541703518181E+00
 0.9284684907476E+00
 0.9015520842591E+00
 0.8743644941312E+00
 0.8480412656296E+00
 0.8239215716152E+00
 0.8035522790341E+00
 0.7887203326047E+00
 0.7815247459279E+00
 0.7844642681833E+00
 0.8004819210914E+00
 0.8328833595580E+00
 0.8850612518546E+00
 0.9600478410881E+00
 0.1060040268677E+01
 0.1185995693765E+01
 0.1337315208170E+01
 0.1511658181015E+01
 0.1704872149211E+01
 0.1911061852893E+01
 0.2122859830649E+01
 0.2331933839936E+01
 0.2529717440156E+01
 0.2708212954968E+01
 0.9177357393247E+00
 0.9456507379831E+00
 0.9718269605519E+00
 0.9957149545948E+00
 0.1016848005265E+01
 0.1034844197355E+01
 0.1049404732890E+01
 0.1060307105399E+01
 0.1067394893724E+01
 0.1070567222088E+01
 0.1069770858001E+01
 0.1064997089815E+01
 0.1056284527674E+01
 0.1043728173334E+01
 0.1027495129433E+01
 0.1007843962892E+01
 0.9851470820533E+00
 0.9599134537674E+00
 0.9328061748023E+00
 0.9046526614738E+00
 0.8764473483361E+00
 0.8493722308854E+00
 0.8248131698646E+00
 0.8043696921678E+00
 0.7898905221648E+00
 0.7835440229636E+00
 0.7878953729118E+00
 0.8059265768093E+00
 0.8409164213244E+00
 0.8961254749320E+00
 0.9743317220104E+00
 0.1077376855455E+01
 0.1205814392803E+01
 0.1358661499221E+01
 0.1533282963079E+01
 0.1725385792848E+01
 0.1929141127312E+01
 0.2137481020912E+01
 0.2342585389917E+01
 0.2536532654104E+01
 0.2711983734775E+01
 0.9375247081079E+00
 0.9651277448357E+00
 0.9911016613836E+00
 0.1014848645789E+01
 0.1035852005163E+01
 0.1053680443612E+01
 0.1067989198844E+01
 0.1078516338564E+01
 0.1085075332461E+01
 0.1087546431177E+01
 0.1085869668333E+01
 0.1080041774862E+01
 0.1070118381242E+01
 0.1056222041382E+01
 0.1038556575703E+01
 0.1017424568877E+01
 0.9932475807290E+00
 0.9665865691940E+00
 0.9381571961410E+00
 0.9088381114013E+00
 0.8796713015928E+00
 0.8518823243415E+00
 0.8269006224981E+00
 0.8063742190796E+00
 0.7922077503890E+00
 0.7866306746792E+00
 0.7922634495805E+00
 0.8121137561806E+00
 0.8494217750592E+00
 0.9073131971371E+00
 0.9883261215062E+00
 0.1093982029904E+01
 0.1224483610911E+01
 0.1378525658119E+01
 0.1553237109599E+01
 0.1744227805399E+01
 0.1945750417016E+01
 0.2151012629110E+01
 0.2352640648570E+01
 0.2543262621582E+01
 0.2716101017907E+01
 0.9572311500387E+00
 0.9845654958384E+00
 0.1010379422471E+01
 0.1034026786927E+01
 0.1054941061080E+01
 0.1072642180500E+01
 0.1086740597118E+01
 0.1096936534780E+01
 0.1103015051302E+01
 0.1104839049290E+01
 0.1102342952637E+01
 0.1095529485241E+01
 0.1084471143243E+01
 0.1069317077431E+01
 0.1050306021947E+01
 0.1027781961911E+01
 0.1002212303367E+01
 0.9742062009018E+00
 0.9445278275455E+00
 0.9141030141163E+00
 0.8840177985987E+00
 0.8555383907747E+00
 0.8301346318631E+00
 0.8094987653815E+00
 0.7955853870733E+00
 0.7906769359440E+00
 0.7974388406683E+00
 0.8188934292645E+00
 0.8582347584033E+00
 0.9184564068406E+00
 0.1001875712699E+01
 0.1109730604859E+01
 0.1241922468851E+01
 0.1396877641807E+01
 0.1571537487850E+01
 0.1761446914568E+01
 0.1960946239248E+01
 0.2163491391658E+01
 0.2362093871271E+01
 0.2549848324664E+01
 0.2720452852262E+01
 0.9768757199894E+00
 0.1003988966007E+01
 0.1029689389297E+01
 0.1053282518288E+01
 0.1074152041130E+01
 0.1091769585069E+01
 0.1105701823752E+01
 0.1115612581640E+01
 0.1121260125952E+01
 0.1122491513204E+01
 0.1119236677334E+01
 0.1111504865360E+01
 0.1099385228798E+01
 0.1083052471167E+01
 0.1062778333377E+01
 0.1038945491270E+01
 0.1012063827926E+01
 0.9827868700240E+00
 0.9519232466462E+00
 0.9204419375833E+00
 0.8894695491126E+00
 0.8603100086141E+00
 0.8344702937035E+00
 0.8136824909011E+00
 0.7999451593999E+00
 0.7955858421676E+00
 0.8033056091849E+00
 0.8261327246538E+00
 0.8672114998957E+00
 0.9294108126680E+00
 0.1014849831423E+01
 0.1124519955800E+01
 0.1258067285809E+01
 0.1413696788227E+01
 0.1588201748016E+01
 0.1777085460751E+01
 0.1974775256263E+01
 0.2174945917786E+01
 0.2370937580900E+01
 0.2556237285615E+01
 0.2724941816137E+01
 0.9964785136796E+00
 0.1023422414549E+01
 0.1049059857470E+01
 0.1072647968352E+01
 0.1093520576798E+01
 0.1111101304190E+01
 0.1124913901158E+01
 0.1134587129500E+01
 0.1139854040474E+01
 0.1140547347868E+01
 0.1136593633226E+01
 0.1128009199131E+01
 0.1114899611194E+01
 0.1097464018452E+01
 0.1076005182674E+01
 0.1050941686686E+01
 0.1022822468184E+01
 0.9923415748203E+00
 0.9603480342834E+00
 0.9278499599231E+00
 0.8960110556353E+00
 0.8661700039428E+00
 0.8398675812896E+00
 0.8188712537920E+00
 0.8052175485105E+00
 0.8012715524097E+00
 0.8097616981474E+00
 0.8337157204255E+00
 0.8762280333089E+00
 0.9400540101416E+00
 0.1027139679576E+01
 0.1138266622770E+01
 0.1272868235874E+01
 0.1428969257895E+01
 0.1603247121621E+01
 0.1791179763943E+01
 0.1987275889321E+01
 0.2185398671158E+01
 0.2379163946291E+01
 0.2562384161256E+01
 0.2729485226500E+01
 0.1016059079294E+01
 0.1042889405346E+01
 0.1068518302078E+01
 0.1092154292659E+01
 0.1113081111052E+01
 0.1130674508723E+01
 0.1144416032951E+01
 0.1153900642629E+01
 0.1158837734968E+01
 0.1159047216916E+01
 0.1154453500356E+01
 0.1145080503238E+01
 0.1131049956925E+01
 0.1112584308123E+01
 0.1090015293566E+01
 0.1063794558530E+01
 0.1034506626065E+01
 0.1002882187294E+01
 0.9698066047198E+00
 0.9363231197206E+00
 0.9036290683792E+00
 0.8730948948537E+00
 0.8462917666374E+00
 0.8250179998703E+00
 0.8113421356277E+00
 0.8076596162245E+00
 0.8167190185031E+00
 0.8415431598005E+00
 0.8851793888955E+00
 0.9502837707873E+00
 0.1038655870910E+01
 0.1150903465387E+01
 0.1286286662169E+01
 0.1442686075871E+01
 0.1616689599859E+01
 0.1803760532742E+01
 0.1998479633129E+01
 0.2194867503133E+01
 0.2386765868485E+01
 0.2568251224140E+01
 0.2734015155379E+01
 0.1035636436869E+01
 0.1062412837211E+01
 0.1088091418697E+01
 0.1111831724295E+01
 0.1132866955514E+01
 0.1150524952516E+01
 0.1164245659034E+01
 0.1173591446609E+01
 0.1178249646114E+01
 0.1178028962733E+01
 0.1172852898456E+01
 0.1162753600847E+01
 0.1147868734757E+01
 0.1128442875326E+01
 0.1104834642918E+01
 0.1077525848672E+01
 0.1047133087430E+01
 0.1014419787199E+01
 0.9803035687215E+00
 0.9458587968644E+00
 0.9123129713193E+00
 0.8810652706802E+00
 0.8537137829868E+00
 0.8320830997533E+00
 0.8182678984905E+00
 0.8146871862210E+00
 0.8241034764758E+00
 0.8495321204170E+00
 0.8939787070371E+00
 0.9600164940644E+00
 0.1049326320389E+01
 0.1162377310783E+01
 0.1298292932858E+01
 0.1454841632011E+01
 0.1628543364162E+01
 0.1814853248776E+01
 0.2008412100062E+01
 0.2203366832358E+01
 0.2393737822558E+01
 0.2573808719037E+01
 0.2738478316760E+01
 0.1055229106056E+01
 0.1082014985036E+01
 0.1107805177626E+01
 0.1131709638081E+01
 0.1152910359222E+01
 0.1170687038865E+01
 0.1184438513280E+01
 0.1193695773699E+01
 0.1198125741577E+01
 0.1197527636532E+01
 0.1191825423260E+01
 0.1181060176298E+01
 0.1165385299903E+01
 0.1145066323326E+01
 0.1120486624305E+01
 0.1092155235931E+01
 0.1060717266228E+01
 0.1026964939214E+01
 0.9918440361498E+00
 0.9564560314027E+00
 0.9220551074717E+00
 0.8900661144404E+00
 0.8621105363538E+00
 0.8400346405562E+00
 0.8259534646198E+00
 0.8223031863704E+00
 0.8318549607525E+00
 0.8576156735438E+00
 0.9025564216241E+00
 0.9691858604750E+00
 0.1059094481492E+01
 0.1172647052417E+01
 0.1308864759283E+01
 0.1465432546599E+01
 0.1638820395256E+01
 0.1824478503866E+01
 0.2017093836192E+01
 0.2210908543186E+01
 0.2400076494340E+01
 0.2579035096669E+01
 0.2742835895795E+01
 0.1074855142369E+01
 0.1101717552300E+01
 0.1127684891866E+01
 0.1151816628948E+01
 0.1173242589286E+01
 0.1191193894328E+01
 0.1205028682941E+01
 0.1214247804340E+01
 0.1218499545555E+01
 0.1217575515078E+01
 0.1211401665073E+01
 0.1200028807283E+01
 0.1183625950386E+01
 0.1162478411636E+01
 0.1136992171815E+01
 0.1107700495838E+01
 0.1075273397616E+01
 0.1040527914747E+01
 0.1004433860342E+01
 0.9681157833859E+00
 0.9328510467924E+00
 0.9000870718384E+00
 0.8714651688611E+00
 0.8488486739987E+00
 0.8343673235239E+00
 0.8304684418481E+00
 0.8399273039967E+00
 0.8657425586397E+00
 0.9108595424519E+00
 0.9777417018739E+00
 0.1067917916565E+01
 0.1181682148217E+01
 0.1317985897782E+01
 0.1474456817083E+01
 0.1647530195890E+01
 0.1832652266247E+01
 0.2024540929914E+01
 0.2217502641386E+01
 0.2405781228661E+01
 0.2583917136082E+01
 0.2747063300623E+01
 0.1094532182757E+01
 0.1121541735519E+01
 0.1147755299279E+01
 0.1172180604590E+01
 0.1193894022952E+01
 0.1212077448492E+01
 0.1226048667258E+01
 0.1235279701093E+01
 0.1239402150708E+01
 0.1238202098580E+01
 0.1231609203772E+01
 0.1219684968802E+01
 0.1202613950243E+01
 0.1180700105826E+01
 0.1154369840237E+01
 0.1124177611719E+01
 0.1090814677899E+01
 0.1055118857035E+01
 0.1018079823689E+01
 0.9808411337428E+00
 0.9446997971594E+00
 0.9111226673528E+00
 0.8817672741392E+00
 0.8585094211340E+00
 0.8434879993252E+00
 0.8391557761202E+00
 0.8482882320404E+00
 0.8738768943309E+00
 0.9188510580573E+00
 0.9856490970944E+00
 0.1075767183193E+01
 0.1189461473843E+01
 0.1325645173170E+01
 0.1481913182623E+01
 0.1654679581449E+01
 0.1839386061183E+01
 0.2030765428584E+01
 0.2223157692165E+01
 0.2410854304407E+01
 0.2588449955729E+01
 0.2751149874442E+01
 0.1114277501320E+01
 0.1141508302330E+01
 0.1168040661193E+01
 0.1192828894923E+01
 0.1214894253469E+01
 0.1233368521693E+01
 0.1247529436684E+01
 0.1256821635824E+01
 0.1260862216894E+01
 0.1259434090042E+01
 0.1252472580734E+01
 0.1240051009807E+01
 0.1222369521131E+01
 0.1199749591198E+01
 0.1172635844497E+01
 0.1141600840526E+01
 0.1107353355174E+01
 0.1070747893727E+01
 0.1032789768781E+01
 0.9946374305741E+00
 0.9576039626587E+00
 0.9231724713011E+00
 0.8930130683532E+00
 0.8690094374614E+00
 0.8533041892875E+00
 0.8483500850084E+00
 0.8569193169718E+00
 0.8819979475392E+00
 0.9265094797848E+00
 0.9928877027979E+00
 0.1082625028228E+01
 0.1195972504452E+01
 0.1331835786540E+01
 0.1487800670681E+01
 0.1660272516930E+01
 0.1844687066459E+01
 0.2035775582496E+01
 0.2227881064927E+01
 0.2415301051931E+01
 0.2592636927523E+01
 0.2755098572265E+01
 0.1134108076249E+01
 0.1161637684667E+01
 0.1188564879098E+01
 0.1213788379792E+01
 0.1236272210579E+01
 0.1255096920486E+01
 0.1269500491378E+01
 0.1278901807819E+01
 0.1282905953720E+01
 0.1281295352839E+01
 0.1274013244527E+01
 0.1261146099734E+01
 0.1242909800032E+01
 0.1219642248664E+01
 0.1191804057282E+01
 0.1159982732913E+01
 0.1124900770628E+01
 0.1087425197248E+01
 0.1048572675608E+01
 0.1009512381423E+01
 0.9715698496350E+00
 0.9362412181563E+00
 0.9052055170902E+00
 0.8803497392167E+00
 0.8638148708735E+00
 0.8580483938681E+00
 0.8658159446488E+00
 0.8900999738733E+00
 0.9338285374344E+00
 0.9994513203360E+00
 0.1088485876486E+01
 0.1201210799229E+01
 0.1336554874829E+01
 0.1492118295001E+01
 0.1664309980208E+01
 0.1848558118056E+01
 0.2039575924232E+01
 0.2231678996484E+01
 0.2419129821652E+01
 0.2596489500093E+01
 0.2758925608612E+01
 0.1154040669352E+01
 0.1181950089013E+01
 0.1209351631867E+01
 0.1235085637244E+01
 0.1258056297186E+01
 0.1277291541297E+01
 0.1291989918241E+01
 0.1301546451207E+01
 0.1305557084828E+01
 0.1303806844378E+01
 0.1296249468543E+01
 0.1282986143595E+01
 0.1264248762339E+01
 0.1240390592685E+01
 0.1211885965238E+01
 0.1179334108377E+01
 0.1143467351611E+01
 0.1105160994209E+01
 0.1065438686070E+01
 0.1025476092570E+01
 0.9866075212721E+00
 0.9503388766294E+00
 0.9183544186679E+00
 0.8925398921592E+00
 0.8750293804866E+00
 0.8682599039041E+00
 0.8749873055537E+00
 0.8981921391597E+00
 0.9408170335573E+00
 0.1005347699059E+01
 0.1093355606169E+01
 0.1205179773537E+01
 0.1339803303626E+01
 0.1494864888348E+01
 0.1666789841899E+01
 0.1850997625590E+01
 0.2042167190218E+01
 0.2234556481561E+01
 0.2422351811122E+01
 0.2600026937643E+01
 0.2762660083840E+01
 0.1174091919783E+01
 0.1202465626167E+01
 0.1230424536401E+01
 0.1256747115042E+01
 0.1280274543926E+01
 0.1299980482578E+01
 0.1315024445458E+01
 0.1324779829691E+01
 0.1328836791537E+01
 0.1326986523598E+01
 0.1319196238767E+01
 0.1305583664445E+01
 0.1286397109732E+01
 0.1262004171246E+01
 0.1232890584165E+01
 0.1199663986209E+01
 0.1163062557402E+01
 0.1123965524758E+01
 0.1083399076509E+01
 0.1042541055747E+01
 0.1002730800677E+01
 0.9654806711987E+00
 0.9324764436579E+00
 0.9055980634663E+00
 0.8869674661591E+00
 0.8790060319525E+00
 0.8844564147363E+00
 0.9062985274153E+00
 0.9474988591063E+00
 0.1010598574966E+01
 0.1097251606235E+01
 0.1207890751420E+01
 0.1341585685092E+01
 0.1496039063096E+01
 0.1667706758150E+01
 0.1851999398042E+01
 0.2043546088075E+01
 0.2236516994977E+01
 0.2424980754588E+01
 0.2603275979577E+01
 0.2766343595336E+01
 0.1194278453972E+01
 0.1223204463381E+01
 0.1251807335084E+01
 0.1278799328422E+01
 0.1302954783300E+01
 0.1323191165301E+01
 0.1338629492688E+01
 0.1348624215663E+01
 0.1352763632565E+01
 0.1350849229286E+01
 0.1342865109230E+01
 0.1328947651418E+01
 0.1309362121661E+01
 0.1284489427132E+01
 0.1254824332828E+01
 0.1220979472061E+01
 0.1183694777499E+01
 0.1143848951601E+01
 0.1102466177649E+01
 0.1060722081150E+01
 0.1019957220844E+01
 0.9816870531225E+00
 0.9475951287895E+00
 0.9195510357432E+00
 0.8996593146421E+00
 0.8903204455619E+00
 0.8942601629256E+00
 0.9144582359732E+00
 0.9539131691331E+00
 0.1015239942522E+01
 0.1100203114587E+01
 0.1209363299203E+01
 0.1341910623202E+01
 0.1495639302378E+01
 0.1667052078843E+01
 0.1851552381655E+01
 0.2043704910867E+01
 0.2237562045976E+01
 0.2427032476008E+01
 0.2606270424131E+01
 0.2770029840622E+01
 0.1214617014203E+01
 0.1244187002492E+01
 0.1273524114330E+01
 0.1301269087876E+01
 0.1326124845496E+01
 0.1346950461756E+01
 0.1362829215004E+01
 0.1373099850775E+01
 0.1377353436775E+01
 0.1375406526681E+01
 0.1367264023467E+01
 0.1353083372493E+01
 0.1333147470244E+01
 0.1307849520791E+01
 0.1277690865902E+01
 0.1243285600756E+01
 0.1205371183032E+01
 0.1164821219006E+01
 0.1122653241816E+01
 0.1080036176013E+01
 0.1038307920093E+01
 0.9989836190836E+00
 0.9637408234276E+00
 0.9344341820431E+00
 0.9131455529241E+00
 0.9022490941079E+00
 0.9044493987662E+00
 0.9227255555065E+00
 0.9601147147362E+00
 0.1019322557664E+01
 0.1102251840494E+01
 0.1209625849926E+01
 0.1340791199830E+01
 0.1493664195016E+01
 0.1664813780656E+01
 0.1849640314155E+01
 0.2042630997886E+01
 0.2237690562302E+01
 0.2428524304137E+01
 0.2609050638304E+01
 0.2773784220762E+01
 0.1235124608814E+01
 0.1265434088442E+01
 0.1295599559427E+01
 0.1324183761477E+01
 0.1349812778311E+01
 0.1371284832364E+01
 0.1387646538130E+01
 0.1398224884445E+01
 0.1402619165562E+01
 0.1400666519832E+01
 0.1392397100550E+01
 0.1377992151551E+01
 0.1357752998865E+01
 0.1332084115484E+01
 0.1301490866969E+01
 0.1266585136282E+01
 0.1228097532058E+01
 0.1186891862251E+01
 0.1143974257332E+01
 0.1100502367910E+01
 0.1057807481350E+01
 0.1017400975205E+01
 0.9809505862192E+00
 0.9502913999715E+00
 0.9274772230221E+00
 0.9148502348678E+00
 0.9150890394341E+00
 0.9311702291678E+00
 0.9661743240909E+00
 0.1022912668797E+01
 0.1103452877734E+01
 0.1208716635963E+01
 0.1338245725564E+01
 0.1490112837370E+01
 0.1660976440881E+01
 0.1846241300984E+01
 0.2040306039138E+01
 0.2236898097592E+01
 0.2429474344782E+01
 0.2611662994546E+01
 0.2777683451436E+01
 0.1255818687637E+01
 0.1286967253415E+01
 0.1318059251636E+01
 0.1347571576521E+01
 0.1374047092966E+01
 0.1396220468846E+01
 0.1413103180614E+01
 0.1424015284802E+01
 0.1428570739566E+01
 0.1426633625494E+01
 0.1418264382737E+01
 0.1403671107789E+01
 0.1383174463132E+01
 0.1357189123601E+01
 0.1326221800400E+01
 0.1290878327601E+01
 0.1251877927094E+01
 0.1210069765371E+01
 0.1166443707286E+01
 0.1122141469069E+01
 0.1078483710608E+01
 0.1036974541011E+01
 0.9992680261519E+00
 0.9671749993892E+00
 0.9427157251183E+00
 0.9281944489628E+00
 0.9262582024789E+00
 0.9398777802231E+00
 0.9721795207847E+00
 0.1026092970189E+01
 0.1103875917112E+01
 0.1206684955069E+01
 0.1334298791070E+01
 0.1484985437547E+01
 0.1655521276671E+01
 0.1841327322504E+01
 0.2036705219040E+01
 0.2235175851864E+01
 0.2429900601629E+01
 0.2614159231414E+01
 0.2781815188971E+01
 0.1276717347323E+01
 0.1308809003721E+01
 0.1340930016046E+01
 0.1371461967877E+01
 0.1398857040004E+01
 0.1421783444193E+01
 0.1439219660932E+01
 0.1450484719547E+01
 0.1455214828477E+01
 0.1453308309400E+01
 0.1444861547753E+01
 0.1430112862225E+01
 0.1409403240062E+01
 0.1383156420604E+01
 0.1351877628861E+01
 0.1316162627123E+01
 0.1276714531698E+01
 0.1234362873836E+01
 0.1190076278802E+01
 0.1144975787058E+01
 0.1100367358890E+01
 0.1057744296576E+01
 0.1018743090479E+01
 0.9851455457911E+00
 0.9589327308686E+00
 0.9423646478431E+00
 0.9380503561793E+00
 0.9489499000968E+00
 0.9782352681828E+00
 0.1028963772065E+01
 0.1103606769405E+01
 0.1203592802089E+01
 0.1328982665631E+01
 0.1478284168521E+01
 0.1648426281806E+01
 0.1834863682290E+01
 0.2031796191099E+01
 0.2232509490095E+01
 0.2429819935410E+01
 0.2616595734358E+01
 0.2786277683961E+01
 0.1297839571806E+01
 0.1330983156974E+01
 0.1364240328359E+01
 0.1395885978609E+01
 0.1424272915566E+01
 0.1447999864149E+01
 0.1466015280402E+01
 0.1477644396452E+01
 0.1482554594532E+01
 0.1480686777417E+01
 0.1472179579989E+01
 0.1457305206676E+01
 0.1436426001185E+01
 0.1409973522061E+01
 0.1378448491339E+01
 0.1342432366111E+01
 0.1302607239714E+01
 0.1259777855054E+01
 0.1214886514822E+01
 0.1169028772713E+01
 0.1123491777263E+01
 0.1079754461120E+01
 0.1039431786734E+01
 0.1004271646093E+01
 0.9762100535500E+00
 0.9574560564726E+00
 0.9505734721531E+00
 0.9585048760244E+00
 0.9844648164860E+00
 0.1031644371828E+01
 0.1102749205737E+01
 0.1199516903742E+01
 0.1322339103378E+01
 0.1470014334440E+01
 0.1639666507654E+01
 0.1826808413054E+01
 0.2025537872682E+01
 0.2228877737024E+01
 0.2429246842380E+01
 0.2619032728944E+01
 0.2791179443877E+01
 0.1319205515030E+01
 0.1353515239689E+01
 0.1388020791768E+01
 0.1420876720844E+01
 0.1450326399610E+01
 0.1474896015260E+01
 0.1493508073116E+01
 0.1505502854224E+01
 0.1510589382456E+01
 0.1508760617233E+01
 0.1500204398841E+01
 0.1485230735071E+01
 0.1464224350012E+01
 0.1437623224014E+01
 0.1405920341428E+01
 0.1369678386154E+01
 0.1329553295849E+01
 0.1286319704870E+01
 0.1240888405914E+01
 0.1194324601823E+01
 0.1147892500122E+01
 0.1103053096792E+01
 0.1061395831240E+01
 0.1024629668310E+01
 0.9946394660765E+00
 0.9735761635952E+00
 0.9639501681491E+00
 0.9686780409929E+00
 0.9910106307173E+00
 0.1034274610936E+01
 0.1101427125271E+01
 0.1194551204931E+01
 0.1314421638281E+01
 0.1460185939960E+01
 0.1629214557833E+01
 0.1817111669812E+01
 0.2017879051630E+01
 0.2224250724834E+01
 0.2428192038025E+01
 0.2621533372062E+01
 0.2796638931775E+01
 0.1340836834499E+01
 0.1376432958488E+01
 0.1412304698653E+01
 0.1446469907637E+01
 0.1477050929074E+01
 0.1502498505162E+01
 0.1521714714970E+01
 0.1534065696674E+01
 0.1539314352543E+01
 0.1537516391851E+01
 0.1528916449268E+01
 0.1513866444499E+01
 0.1492774432300E+01
 0.1466083215222E+01
 0.1434274554063E+01
 0.1397887634606E+01
 0.1357546875218E+01
 0.1313991307507E+01
 0.1268094929089E+01
 0.1220887696664E+01
 0.1173606761347E+01
 0.1127691640246E+01
 0.1084702224413E+01
 0.1046303393129E+01
 0.1014322462875E+01
 0.9908446329500E+00
 0.9783178310082E+00
 0.9796222283436E+00
 0.9980353730375E+00
 0.1037016591851E+01
 0.1099787048985E+01
 0.1188809850681E+01
 0.1305298455677E+01
 0.1448815766619E+01
 0.1617041378426E+01
 0.1805715140888E+01
 0.2008756783110E+01
 0.2218588053723E+01
 0.2426660822518E+01
 0.2624162732460E+01
 0.2802784260246E+01
 0.1362757086523E+01
 0.1399766760298E+01
 0.1437128693011E+01
 0.1472704465048E+01
 0.1504482103810E+01
 0.1530834382744E+01
 0.1550650374600E+01
 0.1563335253785E+01
 0.1568720044593E+01
 0.1566935177320E+01
 0.1558290250487E+01
 0.1543183303620E+01
 0.1522046516695E+01
 0.1495325657794E+01
 0.1463487495824E+01
 0.1427042717772E+01
 0.1386578614797E+01
 0.1342792941239E+01
 0.1296517525263E+01
 0.1248742177966E+01
 0.1200672932360E+01
 0.1153724348999E+01
 0.1109422737462E+01
 0.1069383579666E+01
 0.1035369946186E+01
 0.1009393155010E+01
 0.9938286977134E+00
 0.9915082037365E+00
 0.1005722903578E+01
 0.1040056518973E+01
 0.1098000930591E+01
 0.1182430713013E+01
 0.1295055952983E+01
 0.1435930100853E+01
 0.1603117468332E+01
 0.1792551535284E+01
 0.1998094558516E+01
 0.2211836514620E+01
 0.2424651207519E+01
 0.2626986644355E+01
 0.2809752836251E+01
 0.1384992197160E+01
 0.1423550502290E+01
 0.1462533555468E+01
 0.1499623237790E+01
 0.1532658124835E+01
 0.1559931226402E+01
 0.1580328490547E+01
 0.1593310157310E+01
 0.1598791867364E+01
 0.1596992046494E+01
 0.1588293909794E+01
 0.1573145798044E+01
 0.1552004556012E+01
 0.1525316745846E+01
 0.1493530067374E+01
 0.1457121419681E+01
 0.1416635104295E+01
 0.1372721737442E+01
 0.1326165523068E+01
 0.1277911254609E+01
 0.1229129888173E+01
 0.1181207666446E+01
 0.1135633311264E+01
 0.1093967442489E+01
 0.1057901830247E+01
 0.1029365229763E+01
 0.1010649881862E+01
 0.1004525054607E+01
 0.1014279266165E+01
 0.1043606619931E+01
 0.1096269260587E+01
 0.1175579502271E+01
 0.1283803110919E+01
 0.1421568285933E+01
 0.1587414668089E+01
 0.1777544224061E+01
 0.1985800215391E+01
 0.2203927392504E+01
 0.2422151781165E+01
 0.2630070437118E+01
 0.2817690858912E+01
 0.1407571026491E+01
 0.1447822257114E+01
 0.1488565136284E+01
 0.1527273801189E+01
 0.1561620258656E+01
 0.1589817179663E+01
 0.1610760449910E+01
 0.1623984811120E+01
 0.1629509502632E+01
 0.1627655496198E+01
 0.1618888604250E+01
 0.1603711457669E+01
 0.1582605733846E+01
 0.1556016245162E+01
 0.1524367218950E+01
 0.1488096185652E+01
 0.1447698334845E+01
 0.1403771091251E+01
 0.1357045507283E+01
 0.1308416548954E+01
 0.1259016298081E+01
 0.1210199499932E+01
 0.1163413358336E+01
 0.1120158026360E+01
 0.1082046545267E+01
 0.1050915859087E+01
 0.1028963321894E+01
 0.1018880508386E+01
 0.1023933616385E+01
 0.1047907088618E+01
 0.1094824417965E+01
 0.1168454489188E+01
 0.1271676810665E+01
 0.1405787315546E+01
 0.1569908747276E+01
 0.1760607161623E+01
 0.1971763556626E+01
 0.2194773219045E+01
 0.2419139282250E+01
 0.2633477565382E+01
 0.2826752452755E+01
 0.1430526049250E+01
 0.1472625285753E+01
 0.1515275466871E+01
 0.1555709391489E+01
 0.1591413314052E+01
 0.1620520902554E+01
 0.1641955133251E+01
 0.1655348728583E+01
 0.1660846207527E+01
 0.1658886811074E+01
 0.1650028029035E+01
 0.1634830366214E+01
 0.1613799995285E+01
 0.1587377009558E+01
 0.1555957431085E+01
 0.1519933559935E+01
 0.1479745093039E+01
 0.1435930010706E+01
 0.1389160618620E+01
 0.1340277344139E+01
 0.1290369826219E+01
 0.1240758394762E+01
 0.1192844947074E+01
 0.1148063452854E+01
 0.1107940409890E+01
 0.1074211113501E+01
 0.1048965614847E+01
 0.1034801141725E+01
 0.1034939043007E+01
 0.1053227980149E+01
 0.1093934203143E+01
 0.1161291848530E+01
 0.1258848250650E+01
 0.1388667749880E+01
 0.1550583105332E+01
 0.1741645304823E+01
 0.1955853673666E+01
 0.2184263773536E+01
 0.2415575824691E+01
 0.2637268273908E+01
 0.2837097839014E+01
 0.1453894182266E+01
 0.1498009221375E+01
 0.1542724090584E+01
 0.1584989970674E+01
 0.1622086115199E+01
 0.1652071402874E+01
 0.1673918290053E+01
 0.1687385714796E+01
 0.1692768009703E+01
 0.1690639371840E+01
 0.1681657827692E+01
 0.1666444670734E+01
 0.1645529578708E+01
 0.1619344488265E+01
 0.1588252171816E+01
 0.1552593586397E+01
 0.1512746308447E+01
 0.1469182413163E+01
 0.1422509794949E+01
 0.1373509764507E+01
 0.1323226253087E+01
 0.1272942613524E+01
 0.1224011873577E+01
 0.1177796037452E+01
 0.1135726862066E+01
 0.1099427554833E+01
 0.1070867711860E+01
 0.1052532452883E+01
 0.1047573240386E+01
 0.1059870981216E+01
 0.1093905453237E+01
 0.1154371588303E+01
 0.1245530597766E+01
 0.1370321265368E+01
 0.1529433977129E+01
 0.1720555848552E+01
 0.1937916006217E+01
 0.2172260988813E+01
 0.2411405622888E+01
 0.2641498620321E+01
 0.2848889246439E+01
 0.1477717798935E+01
 0.1524031518959E+01
 0.1570979660936E+01
 0.1615183438360E+01
 0.1653691939553E+01
 0.1684497692050E+01
 0.1706651692827E+01
 0.1720072860761E+01
 0.1725232783192E+01
 0.1722857910455E+01
 0.1713715013785E+01
 0.1698488101775E+01
 0.1677728556711E+01
 0.1651856227783E+01
 0.1621195328693E+01
 0.1586029166324E+01
 0.1546666346459E+01
 0.1503506360600E+01
 0.1457086946708E+01
 0.1408125883013E+01
 0.1357618512084E+01
 0.1306809113242E+01
 0.1256998609493E+01
 0.1209471258145E+01
 0.1165555518968E+01
 0.1126751474690E+01
 0.1094894428788E+01
 0.1072338749377E+01
 0.1062138975884E+01
 0.1068170964525E+01
 0.1095087606223E+01
 0.1148023975811E+01
 0.1231987988866E+01
 0.1350900215709E+01
 0.1506477632395E+01
 0.1697230813589E+01
 0.1917769304487E+01
 0.2158592266829E+01
 0.2406550776826E+01
 0.2646220832395E+01
 0.2862280577273E+01
 0.1502045986583E+01
 0.1550759242915E+01
 0.1600121871469E+01
 0.1646367006716E+01
 0.1686288878843E+01
 0.1717828200375E+01
 0.1740152016855E+01
 0.1753379325822E+01
 0.1758189209530E+01
 0.1755477735224E+01
 0.1746127415703E+01
 0.1730885537911E+01
 0.1710322418074E+01
 0.1684841396325E+01
 0.1654722639456E+01
 0.1620185394106E+01
 0.1581462266613E+01
 0.1538873256364E+01
 0.1492880093223E+01
 0.1444132786875E+01
 0.1393575675818E+01
 0.1342412456456E+01
 0.1291889159758E+01
 0.1243206602260E+01
 0.1197581080041E+01
 0.1156377946913E+01
 0.1121283756608E+01
 0.1094502829402E+01
 0.1078964321737E+01
 0.1078497254346E+01
 0.1097876060393E+01
 0.1142636305688E+01
 0.1218545919177E+01
 0.1330609633121E+01
 0.1481760130754E+01
 0.1671561568621E+01
 0.1895203419884E+01
 0.2143040742789E+01
 0.2400906000375E+01
 0.2651487159319E+01
 0.2877387514110E+01
 0.1526936125719E+01
 0.1578271272764E+01
 0.1630243794208E+01
 0.1678628737762E+01
 0.1719940040145E+01
 0.1752089844167E+01
 0.1774409356981E+01
 0.1787264858189E+01
 0.1791575606005E+01
 0.1788423925069E+01
 0.1778813148804E+01
 0.1763552616429E+01
 0.1743227686116E+01
 0.1718220317378E+01
 0.1688761098116E+01
 0.1654998838678E+01
 0.1617083008355E+01
 0.1575246963188E+01
 0.1529870420790E+01
 0.1481531564325E+01
 0.1431121856810E+01
 0.1379803620974E+01
 0.1328765791885E+01
 0.1279120245011E+01
 0.1231962012487E+01
 0.1188509614966E+01
 0.1150285877348E+01
 0.1119325360524E+01
 0.1098402562440E+01
 0.1091254493081E+01
 0.1102715138632E+01
 0.1138659760491E+01
 0.1205603029298E+01
 0.1309722009173E+01
 0.1455370885707E+01
 0.1643444989367E+01
 0.1869980765709E+01
 0.2125332181327E+01
 0.2394322725723E+01
 0.2657386079388E+01
 0.2894162134061E+01
 0.1552455927913E+01
 0.1606660970274E+01
 0.1661454781278E+01
 0.1712069210637E+01
 0.1754713480537E+01
 0.1787306612121E+01
 0.1809405287476E+01
 0.1821678015122E+01
 0.1825318623277E+01
 0.1821610514833E+01
 0.1811680141427E+01
 0.1796395413884E+01
 0.1776351590829E+01
 0.1751904021211E+01
 0.1723228335270E+01
 0.1690396760260E+01
 0.1653468487939E+01
 0.1612582825442E+01
 0.1568031249432E+01
 0.1520316204494E+01
 0.1470275020327E+01
 0.1419028709755E+01
 0.1367707637885E+01
 0.1317329553935E+01
 0.1268858997620E+01
 0.1223355168867E+01
 0.1182161814640E+01
 0.1147123872537E+01
 0.1120831701448E+01
 0.1106883022261E+01
 0.1110100468944E+01
 0.1136616061090E+01
 0.1193644059614E+01
 0.1288595572126E+01
 0.1427460065001E+01
 0.1612796248149E+01
 0.1841828925351E+01
 0.2105157347351E+01
 0.2386503646721E+01
 0.2664242237340E+01
 0.2911878162936E+01
 0.1578688367702E+01
 0.1636050502326E+01
 0.1693903489576E+01
 0.1746832698886E+01
 0.1790721109404E+01
 0.1823546107149E+01
 0.1845167165015E+01
 0.1856618175886E+01
 0.1859402814691E+01
 0.1855017591252E+01
 0.1844711042365E+01
 0.1829403827719E+01
 0.1809694929799E+01
 0.1785907844074E+01
 0.1758158346872E+01
 0.1726436338800E+01
 0.1690703494231E+01
 0.1650997018655E+01
 0.1607513123287E+01
 0.1560674210329E+01
 0.1511262452714E+01
 0.1460358198854E+01
 0.1409032113037E+01
 0.1358202242615E+01
 0.1308692212102E+01
 0.1261387653362E+01
 0.1217435877167E+01
 0.1178470338299E+01
 0.1146865771921E+01
 0.1126030076350E+01
 0.1120694801168E+01
 0.1137143799833E+01
 0.1183206525933E+01
 0.1267556897913E+01
 0.1398043811456E+01
 0.1579295232473E+01
 0.1810193468922E+01
 0.2081909363230E+01
 0.2377196270460E+01
 0.2671519283557E+01
 0.2934884267347E+01
 0.1605727581134E+01
 0.1666573552707E+01
 0.1727742146893E+01
 0.1783050095936E+01
 0.1828039180730E+01
 0.1860819936380E+01
 0.1881651642139E+01
 0.1892004709748E+01
 0.1893726610697E+01
 0.1888533934210E+01
 0.1877791395799E+01
 0.1862463435321E+01
 0.1843145276562E+01
 0.1820123399970E+01
 0.1793449664495E+01
 0.1763026791771E+01
 0.1728712072593E+01
 0.1690432261348E+01
 0.1648280741233E+01
 0.1602595459354E+01
 0.1554103055517E+01
 0.1503845026110E+01
 0.1452832247339E+01
 0.1401877990567E+01
 0.1351654537903E+01
 0.1302859502910E+01
 0.1256426313061E+01
 0.1213755310355E+01
 0.1176974654495E+01
 0.1149251660881E+01
 0.1135141481268E+01
 0.1140953327320E+01
 0.1174999422089E+01
 0.1247183424752E+01
 0.1367411426830E+01
 0.1542846755169E+01
 0.1774630224525E+01
 0.2055017251763E+01
 0.2365895656126E+01
 0.2679525801706E+01
 0.2963533603384E+01
 0.1633689111667E+01
 0.1698385001437E+01
 0.1763137255430E+01
 0.1820845583404E+01
 0.1866710446557E+01
 0.1899083065846E+01
 0.1918743460493E+01
 0.1927676450123E+01
 0.1928102666859E+01
 0.1921957850229E+01
 0.1910710391761E+01
 0.1895355584207E+01
 0.1876475858672E+01
 0.1854315728451E+01
 0.1828860323492E+01
 0.1799921841511E+01
 0.1767247343021E+01
 0.1730644988054E+01
 0.1690097569107E+01
 0.1645854398314E+01
 0.1598587291659E+01
 0.1549302411420E+01
 0.1498952574132E+01
 0.1448242794629E+01
 0.1397685113858E+01
 0.1347776535090E+01
 0.1299221630382E+01
 0.1253169189287E+01
 0.1211473709356E+01
 0.1177015051006E+01
 0.1154086609665E+01
 0.1148880000283E+01
 0.1170005041574E+01
 0.1228469481924E+01
 0.1336353837806E+01
 0.1503837927149E+01
 0.1735066946887E+01
 0.2024088792634E+01
 0.2352226750706E+01
 0.2688529809132E+01
 0.2995691231529E+01
 0.1662714881001E+01
 0.1731684798546E+01
 0.1800307217081E+01
 0.1860387782834E+01
 0.1906810014411E+01
 0.1938316888596E+01
 0.1956357069652E+01
 0.1963511549079E+01
 0.1962394931005E+01
 0.1955150787303E+01
 0.1943331226380E+01
 0.1927945576233E+01
 0.1909553316955E+01
 0.1888352784759E+01
 0.1864261374680E+01
 0.1836999396018E+01
 0.1806199044105E+01
 0.1771541668856E+01
 0.1732890805376E+01
 0.1690402379358E+01
 0.1644694596080E+01
 0.1596743101140E+01
 0.1547445676014E+01
 0.1497396395632E+01
 0.1446938686992E+01
 0.1396357156647E+01
 0.1346113999782E+01
 0.1297090173853E+01
 0.1250842273989E+01
 0.1209919279018E+01
 0.1178269618399E+01
 0.1161815622640E+01
 0.1169236414608E+01
 0.1212420356205E+01
 0.1305627208250E+01
 0.1462525651171E+01
 0.1691180395843E+01
 0.1988424617737E+01
 0.2335618955040E+01
 0.2698231090803E+01
 0.3031852102497E+01
 0.1692980136060E+01
 0.1766719489932E+01
 0.1839513708268E+01
 0.1901864746400E+01
 0.1948404527684E+01
 0.1978477272878E+01
 0.1994377549104E+01
 0.1999362875674E+01
 0.1996448403384E+01
 0.1987960652546E+01
 0.1975506980680E+01
 0.1960090012231E+01
 0.1942235308830E+01
 0.1922092024901E+01
 0.1899511247011E+01
 0.1874122770263E+01
 0.1845441159113E+01
 0.1813012896371E+01
 0.1776572418192E+01
 0.1736176487936E+01
 0.1692391146280E+01
 0.1646167599701E+01
 0.1598352913561E+01
 0.1549428319920E+01
 0.1499560920729E+01
 0.1448812422350E+01
 0.1397391450395E+01
 0.1345898196510E+01
 0.1295571258141E+01
 0.1248590212961E+01
 0.1208480353399E+01
 0.1180741445417E+01
 0.1173860785895E+01
 0.1200279391786E+01
 0.1276275572538E+01
 0.1419397090975E+01
 0.1642707668322E+01
 0.1947204058064E+01
 0.2315223728505E+01
 0.2708246693337E+01
 0.3072615442682E+01
 0.1724703726060E+01
 0.1803795995124E+01
 0.1881070796260E+01
 0.1945482395077E+01
 0.1991542871106E+01
 0.2019484290260E+01
 0.2032653506016E+01
 0.2035054613240E+01
 0.2030088290070E+01
 0.2020222302753E+01
 0.2007081648508E+01
 0.1991637891624E+01
 0.1974371362441E+01
 0.1955380737416E+01
 0.1934455330294E+01
 0.1911139449115E+01
 0.1884830038487E+01
 0.1854931241495E+01
 0.1821037101581E+01
 0.1783097799411E+01
 0.1741628440420E+01
 0.1697562945545E+01
 0.1651703139189E+01
 0.1604416148012E+01
 0.1555685788972E+01
 0.1505342193414E+01
 0.1453332617488E+01
 0.1399968409082E+01
 0.1346155971668E+01
 0.1293673671428E+01
 0.1245553157196E+01
 0.1206723757173E+01
 0.1185202021550E+01
 0.1193556736112E+01
 0.1249708442566E+01
 0.1375278514677E+01
 0.1589524084508E+01
 0.1899465452852E+01
 0.2289890097288E+01
 0.2718087698341E+01
 0.3118735478394E+01
 0.1758162518418E+01
 0.1843300198437E+01
 0.1925355522035E+01
 0.1991459624212E+01
 0.2036242094294E+01
 0.2061208850358E+01
 0.2070989048797E+01
 0.2070379146890E+01
 0.2063119786648E+01
 0.2051758629530E+01
 0.2037891657098E+01
 0.2022432134511E+01
 0.2005804109826E+01
 0.1988056687914E+01
 0.1968925724849E+01
 0.1947879782790E+01
 0.1924202209054E+01
 0.1897148658674E+01
 0.1866159816024E+01
 0.1831069396376E+01
 0.1792341875802E+01
 0.1750901711073E+01
 0.1707511760154E+01
 0.1662424101521E+01
 0.1615433092203E+01
 0.1566131071074E+01
 0.1514200759929E+01
 0.1459663250487E+01
 0.1403086726564E+01
 0.1345825663323E+01
 0.1290357927241E+01
 0.1240906089080E+01
 0.1204736706408E+01
 0.1194049112812E+01
 0.1227784321949E+01
 0.1331483967159E+01
 0.1531769955777E+01
 0.1844127031756E+01
 0.2258112676273E+01
 0.2727106140046E+01
 0.3171151952762E+01
 0.1793712001666E+01
 0.1885722420887E+01
 0.1972819511072E+01
 0.2040017602469E+01
 0.2082466568846E+01
 0.2103455788005E+01
 0.2109135247754E+01
 0.2105094724877E+01
 0.2095328781194E+01
 0.2082382373020E+01
 0.2067767942494E+01
 0.2052311571790E+01
 0.2036370961667E+01
 0.2019949167507E+01
 0.2002741253665E+01
 0.1984155656781E+01
 0.1963371808608E+01
 0.1939493286628E+01
 0.1911792736497E+01
 0.1879974027795E+01
 0.1844449320333E+01
 0.1806141334581E+01
 0.1765780331811E+01
 0.1723502140498E+01
 0.1678906257368E+01
 0.1631344231754E+01
 0.1580237138759E+01
 0.1525323091706E+01
 0.1466836938056E+01
 0.1405698979737E+01
 0.1343786909392E+01
 0.1284497107904E+01
 0.1234083428170E+01
 0.1203845728222E+01
 0.1212889690706E+01
 0.1290008135428E+01
 0.1470059893434E+01
 0.1780058661387E+01
 0.2217946989052E+01
 0.2734380611550E+01
 0.3231047133321E+01
 0.1831816419754E+01
 0.1931692722909E+01
 0.2024000302383E+01
 0.2091359176175E+01
 0.2130097804487E+01
 0.2145943288038E+01
 0.2146781928354E+01
 0.2138924567213E+01
 0.2126483795442E+01
 0.2111898784157E+01
 0.2096538623604E+01
 0.2081113433917E+01
 0.2065906282558E+01
 0.2050880555722E+01
 0.2035707877331E+01
 0.2019759224323E+01
 0.2002127591514E+01
 0.1981765439699E+01
 0.1957761347171E+01
 0.1929671221619E+01
 0.1897849649949E+01
 0.1863223928258E+01
 0.1826496926856E+01
 0.1787685820051E+01
 0.1746190615420E+01
 0.1701123314179E+01
 0.1651653904139E+01
 0.1597255577185E+01
 0.1537848625975E+01
 0.1473925438401E+01
 0.1406735617196E+01
 0.1338752326191E+01
 0.1274984715127E+01
 0.1225317009180E+01
 0.1207996750440E+01
 0.1253758843673E+01
 0.1405814380364E+01
 0.1706244393939E+01
 0.2166891337531E+01
 0.2738540640336E+01
 0.3299938933748E+01
 0.1873094021299E+01
 0.1982030296346E+01
 0.2079529163013E+01
 0.2145631709912E+01
 0.2178891849382E+01
 0.2188279331567E+01
 0.2183551271679E+01
 0.2171558263970E+01
 0.2156339466318E+01
 0.2140109217774E+01
 0.2124032285910E+01
 0.2108676339845E+01
 0.2094244107127E+01
 0.2080668518374E+01
 0.2067619703524E+01
 0.2054461856785E+01
 0.2040229468628E+01
 0.2023732509324E+01
 0.2003859281715E+01
 0.1979993533643E+01
 0.1952421170702E+01
 0.1922076735578E+01
 0.1889637592857E+01
 0.1854997199181E+01
 0.1817352344614E+01
 0.1775582475292E+01
 0.1728626637545E+01
 0.1675723882962E+01
 0.1616515445662E+01
 0.1551093325069E+01
 0.1480076094401E+01
 0.1404946484630E+01
 0.1329279710717E+01
 0.1261085455113E+01
 0.1216680589674E+01
 0.1226801958570E+01
 0.1341761656478E+01
 0.1622118976533E+01
 0.2101758428525E+01
 0.2737490839233E+01
 0.3379822893141E+01
 0.1918387051064E+01
 0.2037813004032E+01
 0.2140128113163E+01
 0.2202862676097E+01
 0.2228421270740E+01
 0.2229937482495E+01
 0.2218995528065E+01
 0.2202656401007E+01
 0.2184641818907E+01
 0.2166815713761E+01
 0.2150081876388E+01
 0.2134843784174E+01
 0.2121221444076E+01
 0.2109129004357E+01
 0.2098260898973E+01
 0.2088013639401E+01
 0.2077404673825E+01
 0.2065122491232E+01
 0.2049841399376E+01
 0.2030741527647E+01
 0.2008019892111E+01
 0.1982613611432E+01
 0.1955169482959E+01
 0.1925447344435E+01
 0.1892438452832E+01
 0.1854804880992E+01
 0.1811286893047E+01
 0.1760934461060E+01
 0.1703163955451E+01
 0.1637720346894E+01
 0.1564621300623E+01
 0.1484332650903E+01
 0.1398862775010E+01
 0.1313979184223E+01
 0.1243082201434E+01
 0.1214557164700E+01
 0.1282645283135E+01
 0.1528237602696E+01
 0.2018597660208E+01
 0.2727963142698E+01
 0.3473385531510E+01
 0.1968873699513E+01
 0.2100475244121E+01
 0.2206580354945E+01
 0.2262851266806E+01
 0.2278000365160E+01
 0.2270237178801E+01
 0.2252601899318E+01
 0.2231859148910E+01
 0.2211135402759E+01
 0.2191826520227E+01
 0.2174529121563E+01
 0.2159468031093E+01
 0.2146682117940E+01
 0.2136080128214E+01
 0.2127408823314E+01
 0.2120143850182E+01
 0.2113343710684E+01
 0.2105615678840E+01
 0.2095414178469E+01
 0.2081676645994E+01
 0.2064477361438E+01
 0.2044737844257E+01
 0.2023056247803E+01
 0.1999040877163E+01
 0.1971477924896E+01
 0.1938839535109E+01
 0.1899714717081E+01
 0.1853024631423E+01
 0.1798033919995E+01
 0.1734222887034E+01
 0.1661080049580E+01
 0.1578083668580E+01
 0.1485618956191E+01
 0.1386964029856E+01
 0.1291818430037E+01
 0.1223854920257E+01
 0.1236096302791E+01
 0.1427558686773E+01
 0.1912836262463E+01
 0.2704779362158E+01
 0.3584322217049E+01
 0.2026254146663E+01
 0.2171943774201E+01
 0.2279640403988E+01
 0.2324991350830E+01
 0.2326598032919E+01
 0.2308338211494E+01
 0.2283807856748E+01
 0.2258799045740E+01
 0.2235572229398E+01
 0.2214962464546E+01
 0.2197229350414E+01
 0.2182414304760E+01
 0.2170481062350E+01
 0.2161346995395E+01
 0.2154838801688E+01
 0.2150563178381E+01
 0.2147696585170E+01
 0.2144834088019E+01
 0.2140222134434E+01
 0.2132510708104E+01
 0.2121597691947E+01
 0.2108346946228E+01
 0.2093266697532E+01
 0.2075783307012E+01
 0.2054484266544E+01
 0.2027698316035E+01
 0.1993931083709E+01
 0.1952050548836E+01
 0.1901259030079E+01
 0.1840883512319E+01
 0.1770003728073E+01
 0.1687213169726E+01
 0.1591324772977E+01
 0.1483038238853E+01
 0.1367849021237E+01
 0.1262787466739E+01
 0.1213428654512E+01
 0.1327758637327E+01
 0.1780088674312E+01
 0.2659651955210E+01
 0.3717798015786E+01
 0.2093073694801E+01
 0.2254817727094E+01
 0.2359812276785E+01
 0.2387993857503E+01
 0.2372757597416E+01
 0.2343264501961E+01
 0.2312028595790E+01
 0.2283117437926E+01
 0.2257722392548E+01
 0.2236063999222E+01
 0.2218056576714E+01
 0.2203565157755E+01
 0.2192488935313E+01
 0.2184767439202E+01
 0.2180330989066E+01
 0.2178968871433E+01
 0.2180070483689E+01
 0.2182328364053E+01
 0.2183828393396E+01
 0.2182890039479E+01
 0.2179153292413E+01
 0.2173340567875E+01
 0.2165788404560E+01
 0.2155692314451E+01
 0.2141459832264E+01
 0.2121353048681E+01
 0.2093890063057E+01
 0.2057976179321E+01
 0.2012850074725E+01
 0.1957820065778E+01
 0.1891728472421E+01
 0.1812476821564E+01
 0.1717504247604E+01
 0.1605060818735E+01
 0.1476287666831E+01
 0.1340383003435E+01
 0.1229849942472E+01
 0.1244907411052E+01
 0.1618804162274E+01
 0.2579348133809E+01
 0.3881066970413E+01
 0.2173313968579E+01
 0.2352575485539E+01
 0.2446843245235E+01
 0.2449482797924E+01
 0.2414575332466E+01
 0.2373973987639E+01
 0.2336693519874E+01
 0.2304483758092E+01
 0.2277386168870E+01
 0.2254998536234E+01
 0.2236908631796E+01
 0.2222824822985E+01
 0.2212596808171E+01
 0.2206198375829E+01
 0.2203679521019E+01
 0.2205054350931E+01
 0.2210031057863E+01
 0.2217562300942E+01
 0.2225686406882E+01
 0.2232370614013E+01
 0.2236878280400E+01
 0.2239633283490E+01
 0.2240648554953E+01
 0.2238814267748E+01
 0.2232402066741E+01
 0.2219731911007E+01
 0.2199469762056E+01
 0.2170663302364E+01
 0.2132682765117E+01
 0.2084960714085E+01
 0.2026318680791E+01
 0.1954259320605E+01
 0.1865236339209E+01
 0.1755482753370E+01
 0.1622088153940E+01
 0.1466180301736E+01
 0.1303691518941E+01
 0.1207637963206E+01
 0.1437684536816E+01
 0.2443391895841E+01
 0.4084125088414E+01
 0.2273545054690E+01
 0.2469690725602E+01
 0.2538610538633E+01
 0.2505505731380E+01
 0.2449847134130E+01
 0.2399474608898E+01
 0.2357282488382E+01
 0.2322618559393E+01
 0.2294406727944E+01
 0.2271667624122E+01
 0.2253712170057E+01
 0.2240123339650E+01
 0.2230720688853E+01
 0.2225522270017E+01
 0.2224703627168E+01
 0.2228525111025E+01
 0.2237111447846E+01
 0.2249896586202E+01
 0.2265098253656E+01
 0.2280377884629E+01
 0.2294458092686E+01
 0.2307175594523E+01
 0.2317945783734E+01
 0.2325247740576E+01
 0.2327311888798E+01
 0.2322714406233E+01
 0.2310460505940E+01
 0.2289861949986E+01
 0.2260493007648E+01
 0.2222031365240E+01
 0.2173519930628E+01
 0.2112458756851E+01
 0.2034922494135E+01
 0.1935963029367E+01
 0.1809515453163E+01
 0.1649562674407E+01
 0.1455107065490E+01
 0.1257994006831E+01
 0.1273969508743E+01
 0.2223492211400E+01
 0.4339804741769E+01
 0.2405358040036E+01
 0.2611137397559E+01
 0.2628749014418E+01
 0.2550283827215E+01
 0.2476540128988E+01
 0.2418922744882E+01
 0.2373361367421E+01
 0.2337322026455E+01
 0.2308680740783E+01
 0.2286014106459E+01
 0.2268427111882E+01
 0.2255420234055E+01
 0.2246805608061E+01
 0.2242653046333E+01
 0.2243259260217E+01
 0.2249121920658E+01
 0.2260836195450E+01
 0.2278577114188E+01
 0.2301152320941E+01
 0.2326139189513E+01
 0.2351512828846E+01
 0.2375989238837E+01
 0.2397898340083E+01
 0.2415175539216E+01
 0.2426203790740E+01
 0.2430123634868E+01
 0.2426547194881E+01
 0.2415198226230E+01
 0.2395881911221E+01
 0.2368563962583E+01
 0.2332730836308E+01
 0.2286379497460E+01
 0.2226046714024E+01
 0.2146866781854E+01
 0.2041369205220E+01
 0.1898475496705E+01
 0.1704462873948E+01
 0.1446511386164E+01
 0.1224254238462E+01
 0.1896768289056E+01
 0.4661228970257E+01
 0.2591086826831E+01
 0.2779038825861E+01
 0.2702004140560E+01
 0.2577474578207E+01
 0.2493493708469E+01
 0.2431570692196E+01
 0.2384669186484E+01
 0.2348488980979E+01
 0.2320169595930E+01
 0.2298028257505E+01
 0.2281050273050E+01
 0.2268707578311E+01
 0.2260828982885E+01
 0.2257541125988E+01
 0.2259248712731E+01
 0.2266648872754E+01
 0.2280771091340E+01
 0.2302743573942E+01
 0.2332629519593E+01
 0.2368564364072E+01
 0.2407571603833E+01
 0.2446229306218E+01
 0.2480916530096E+01
 0.2508906436868E+01
 0.2529116675770E+01
 0.2541715308412E+01
 0.2547282454352E+01
 0.2546152163151E+01
 0.2538332603432E+01
 0.2523939444618E+01
 0.2503007625057E+01
 0.2474638188312E+01
 0.2436969186084E+01
 0.2386749789201E+01
 0.2317820710411E+01
 0.2217813860423E+01
 0.2067618824263E+01
 0.1829189830366E+01
 0.1445454252018E+01
 0.1533435659662E+01
 0.5053030835359E+01
 0.2879557800946E+01
 0.2955569879001E+01
 0.2728754743799E+01
 0.2586082988719E+01
 0.2499638745047E+01
 0.2436996799718E+01
 0.2391169836799E+01
 0.2356113900430E+01
 0.2328913215344E+01
 0.2307750604160E+01
 0.2291618690909E+01
 0.2280012062182E+01
 0.2272803029253E+01
 0.2270177433155E+01
 0.2272627146973E+01
 0.2280994986483E+01
 0.2296608340096E+01
 0.2321502866629E+01
 0.2357863280029E+01
 0.2406019094898E+01
 0.2462039692503E+01
 0.2518298939651E+01
 0.2567709415997E+01
 0.2606927171473E+01
 0.2636123184725E+01
 0.2657164313141E+01
 0.2672050723930E+01
 0.2682009818789E+01
 0.2687234496743E+01
 0.2687500603538E+01
 0.2683107284683E+01
 0.2675104516978E+01
 0.2664717121930E+01
 0.2652142999289E+01
 0.2634830094270E+01
 0.2607271631619E+01
 0.2550145906303E+01
 0.2448261537396E+01
 0.2133689448663E+01
 0.1627033728483E+01
 0.5498105652202E+01
 0.3401495328580E+01
 0.3005745589646E+01
 0.2699511130502E+01
 0.2579221060229E+01
 0.2493280535364E+01
 0.2435709950714E+01
 0.2392897767135E+01
 0.2360356380879E+01
 0.2335020761822E+01
 0.2315278514726E+01
 0.2300210257930E+01
 0.2289396445457E+01
 0.2282775988416E+01
 0.2280595269491E+01
 0.2283408130700E+01
 0.2292138166859E+01
 0.2308248016010E+01
 0.2334197781513E+01
 0.2374547653335E+01
 0.2435834035025E+01
 0.2514199733260E+01
 0.2593058514232E+01
 0.2659434117585E+01
 0.2709962603561E+01
 0.2747331532745E+01
 0.2776045861831E+01
 0.2800034493385E+01
 0.2821763115294E+01
 0.2841867931456E+01
 0.2858825137241E+01
 0.2871597322745E+01
 0.2884748760950E+01
 0.2905061947958E+01
 0.2936978817103E+01
 0.2984962705239E+01
 0.3053161522832E+01
 0.3153849868622E+01
 0.3269697305508E+01
 0.3531363097410E+01
 0.3159669931240E+01
 0.6485358929041E+01
 0.3837504008824E+00
 0.5250141882524E+00
 0.6549822995807E+00
 0.7716240496867E+00
 0.8748580388427E+00
 0.9654164197690E+00
 0.1044417659941E+01
 0.1113129790208E+01
 0.1172783549850E+01
 0.1224532254173E+01
 0.1269529562287E+01
 0.1308456653087E+01
 0.1342199062874E+01
 0.1372281761723E+01
 0.1399640406318E+01
 0.1424346751010E+01
 0.1446016063527E+01
 0.1464084439426E+01
 0.1478323370738E+01
 0.1489023573063E+01
 0.3723450393572E+00
 0.5215887166715E+00
 0.6577363661865E+00
 0.7797250895987E+00
 0.8876673418312E+00
 0.9824758057344E+00
 0.1065446481201E+01
 0.1137973536954E+01
 0.1201375631745E+01
 0.1256896558112E+01
 0.1305712579794E+01
 0.1348593944316E+01
 0.1386628467626E+01
 0.1421268457352E+01
 0.1453357432043E+01
 0.1483176945168E+01
 0.1510551775633E+01
 0.1535150227669E+01
 0.1555359824390E+01
 0.1568686222760E+01
 0.3612940312622E+00
 0.5186693102165E+00
 0.6609611696715E+00
 0.7879883224668E+00
 0.9003235349926E+00
 0.9991086947617E+00
 0.1085800136299E+01
 0.1161910609060E+01
 0.1228859255413E+01
 0.1287962650950E+01
 0.1340435343639E+01
 0.1387214605772E+01
 0.1429461181264E+01
 0.1468552337117E+01
 0.1505362739584E+01
 0.1540255005086E+01
 0.1573157417655E+01
 0.1603428929682E+01
 0.1629175314029E+01
 0.1649101179061E+01
 0.3507719894507E+00
 0.5161009932613E+00
 0.6644195222118E+00
 0.7962503804874E+00
 0.9126881367179E+00
 0.1015169485017E+01
 0.1105322158780E+01
 0.1184778381584E+01
 0.1255054133701E+01
 0.1317540517432E+01
 0.1373517429955E+01
 0.1424054678488E+01
 0.1470365191688E+01
 0.1513772453048E+01
 0.1555164037877E+01
 0.1594942822703E+01
 0.1632997077514E+01
 0.1668568209979E+01
 0.1700128089044E+01
 0.1726632012035E+01
 0.3408336894012E+00
 0.5138428990291E+00
 0.6679605046536E+00
 0.8043497294176E+00
 0.9246138205866E+00
 0.1030511586531E+01
 0.1123860028256E+01
 0.1206414493322E+01
 0.1279786736104E+01
 0.1345446185396E+01
 0.1404741608976E+01
 0.1458850029363E+01
 0.1509022673799E+01
 0.1556538502878E+01
 0.1602281271621E+01
 0.1646652160521E+01
 0.1689517670413E+01
 0.1730163044959E+01
 0.1767281660182E+01
 0.1799785143735E+01
 0.3315145391936E+00
 0.5118500821456E+00
 0.6714738736138E+00
 0.8121443802670E+00
 0.9359553375272E+00
 0.1044990183545E+01
 0.1141264676391E+01
 0.1226661694842E+01
 0.1302888571824E+01
 0.1371492096167E+01
 0.1433887607839E+01
 0.1491337048935E+01
 0.1545118222397E+01
 0.1596470404533E+01
 0.1646259927835E+01
 0.1694879968726E+01
 0.1742204742178E+01
 0.1787563478245E+01
 0.1829745146347E+01
 0.1867470905484E+01
 0.3228421686180E+00
 0.5100799223806E+00
 0.6748640686569E+00
 0.8195091490119E+00
 0.9465762938931E+00
 0.1058465714150E+01
 0.1157392656979E+01
 0.1245368949676E+01
 0.1324195795207E+01
 0.1395493770489E+01
 0.1460738904511E+01
 0.1521258929076E+01
 0.1578347947720E+01
 0.1633208352646E+01
 0.1686684464082E+01
 0.1739162710422E+01
 0.1790525203584E+01
 0.1840118146826E+01
 0.1886730352210E+01
 0.1928835664453E+01
 0.3148409665914E+00
 0.5084921873545E+00
 0.6780456062132E+00
 0.8263313723418E+00
 0.9563510777806E+00
 0.1070807009524E+01
 0.1172108266027E+01
 0.1262392876366E+01
 0.1343551939783E+01
 0.1417274174830E+01
 0.1485088546642E+01
 0.1548372160854E+01
 0.1608426667268E+01
 0.1666420162763E+01
 0.1723173521574E+01
 0.1779063516709E+01
 0.1833970112439E+01
 0.1887227280487E+01
 0.1937566460689E+01
 0.1983199393084E+01
 0.3075333032005E+00
 0.5070499603325E+00
 0.6809413794741E+00
 0.8325095521434E+00
 0.9651653135920E+00
 0.1081893241722E+01
 0.1185285552250E+01
 0.1277599863812E+01
 0.1360810749535E+01
 0.1436667760077E+01
 0.1506744045331E+01
 0.1572452023355E+01
 0.1635093584517E+01
 0.1695804356979E+01
 0.1755380047541E+01
 0.1814182359371E+01
 0.1872076904572E+01
 0.1928364364909E+01
 0.1981691467585E+01
 0.2030018000292E+01
 0.3009398363771E+00
 0.5057201088748E+00
 0.6834823679429E+00
 0.8379529629309E+00
 0.9729163404815E+00
 0.1091615252950E+01
 0.1196810143778E+01
 0.1290868243769E+01
 0.1375838955203E+01
 0.1453524008016E+01
 0.1525531488189E+01
 0.1593297002792E+01
 0.1658116368288E+01
 0.1721093386351E+01
 0.1782996270429E+01
 0.1844165665612E+01
 0.1904442753888E+01
 0.1963082538300E+01
 0.2018637676405E+01
 0.2068841836030E+01
 0.2950794427068E+00
 0.5044735824910E+00
 0.6856077412150E+00
 0.8425817666489E+00
 0.9795137451068E+00
 0.1099876673540E+01
 0.1206580858490E+01
 0.1302090343588E+01
 0.1388518828696E+01
 0.1467710524241E+01
 0.1541298982385E+01
 0.1610732365488E+01
 0.1677294700833E+01
 0.1742057575843E+01
 0.1805759159094E+01
 0.1868713918591E+01
 0.1930731918509E+01
 0.1991017118925E+01
 0.2048029141633E+01
 0.2099312387681E+01
 0.2899690504340E+00
 0.5032855987598E+00
 0.6872651110926E+00
 0.8463273298305E+00
 0.9848799449840E+00
 0.1106594907561E+01
 0.1214511113078E+01
 0.1311174299745E+01
 0.1398750403095E+01
 0.1479115629314E+01
 0.1553919458153E+01
 0.1624613091765E+01
 0.1692463460056E+01
 0.1758508857931E+01
 0.1823455090153E+01
 0.1887586854010E+01
 0.1950679922936E+01
 0.2011887649808E+01
 0.2069586595565E+01
 0.2121175049270E+01
 0.2856234634668E+00
 0.5021357605323E+00
 0.6884108070339E+00
 0.8491326005331E+00
 0.9889507597748E+00
 0.1111702000152E+01
 0.1220530128618E+01
 0.1318045599436E+01
 0.1406453329296E+01
 0.1487650475748E+01
 0.1563292938443E+01
 0.1634826307114E+01
 0.1703495447985E+01
 0.1770303934489E+01
 0.1835923408612E+01
 0.1900606909512E+01
 0.1964095999965E+01
 0.2025499030183E+01
 0.2083126745229E+01
 0.2134276253372E+01
 0.2820552173485E+00
 0.5010081254454E+00
 0.6890101234302E+00
 0.8509524632234E+00
 0.9916759153563E+00
 0.1115145358413E+01
 0.1224583905964E+01
 0.1322648309093E+01
 0.1411568329971E+01
 0.1493250675314E+01
 0.1569348272974E+01
 0.1641293153213E+01
 0.1710303489752E+01
 0.1777346608553E+01
 0.1843058824554E+01
 0.1907661241083E+01
 0.1970864100761E+01
 0.2031740494706E+01
 0.2088557368823E+01
 0.2138554988660E+01
 0.2792744762104E+00
 0.4998912356327E+00
 0.6890375128980E+00
 0.8517540300486E+00
 0.9930194483732E+00
 0.1116888311224E+01
 0.1226635965883E+01
 0.1324945989317E+01
 0.1414058260160E+01
 0.1495877460965E+01
 0.1572044356192E+01
 0.1643970084679E+01
 0.1712841848981E+01
 0.1779589261436E+01
 0.1844812758627E+01
 0.1908702565908E+01
 0.1970942617953E+01
 0.2030583212261E+01
 0.2085871876656E+01
 0.2134034485116E+01
 0.2772889694069E+00
 0.4987781126152E+00
 0.6884767105545E+00
 0.8515168408541E+00
 0.9929599848951E+00
 0.1116910489869E+01
 0.1226667843609E+01
 0.1324922291860E+01
 0.1413908776553E+01
 0.1495518388430E+01
 0.1571370823451E+01
 0.1642849565764E+01
 0.1711106929271E+01
 0.1777033481162E+01
 0.1841193721591E+01
 0.1903748983783E+01
 0.1964363173251E+01
 0.2022077504383E+01
 0.2075144809933E+01
 0.2120816138255E+01
 0.2761039477032E+00
 0.4976662140123E+00
 0.6873207748691E+00
 0.8502329509838E+00
 0.9914908724516E+00
 0.1115208014159E+01
 0.1224679329235E+01
 0.1322581235966E+01
 0.1411128616873E+01
 0.1492187578493E+01
 0.1567348217968E+01
 0.1637960151797E+01
 0.1705137253580E+01
 0.1769729864239E+01
 0.1832266800167E+01
 0.1892882939910E+01
 0.1951228821529E+01
 0.2006350179528E+01
 0.2056528568126E+01
 0.2099075868324E+01
 0.2757221551287E+00
 0.4965573543400E+00
 0.6855720424892E+00
 0.8479068992487E+00
 0.9886201573889E+00
 0.1111793479365E+01
 0.1220688454352E+01
 0.1317947169295E+01
 0.1405749497495E+01
 0.1485925507646E+01
 0.1560027632090E+01
 0.1629365957826E+01
 0.1695012733864E+01
 0.1757777025905E+01
 0.1818152324251E+01
 0.1876249468903E+01
 0.1931711867598E+01
 0.1983602119771E+01
 0.2030251242205E+01
 0.2069062629673E+01
 0.2761438008629E+00
 0.4954575883460E+00
 0.6832419921715E+00
 0.8445555499697E+00
 0.9843704025755E+00
 0.1106695742887E+01
 0.1214731229249E+01
 0.1311064423004E+01
 0.1397825642841E+01
 0.1476798362515E+01
 0.1549489838358E+01
 0.1617165533047E+01
 0.1680853259253E+01
 0.1741319863742E+01
 0.1799023782947E+01
 0.1854053801016E+01
 0.1906051345505E+01
 0.1954106055905E+01
 0.1996615381278E+01
 0.2031098931480E+01
 0.2773665235296E+00
 0.4943770575641E+00
 0.6803510189138E+00
 0.8402078101949E+00
 0.9787783480790E+00
 0.1099959516509E+01
 0.1206861140879E+01
 0.1301996675592E+01
 0.1387432964691E+01
 0.1464896978522E+01
 0.1535843932241E+01
 0.1601490165776E+01
 0.1662816633227E+01
 0.1720547111181E+01
 0.1775105025512E+01
 0.1826558340494E+01
 0.1874550084479E+01
 0.1918204326614E+01
 0.1955997390084E+01
 0.1985583080329E+01
 0.2793853465594E+00
 0.4933298018161E+00
 0.6769281214749E+00
 0.8349042263134E+00
 0.9718944209256E+00
 0.1091644773634E+01
 0.1197148425314E+01
 0.1290826043917E+01
 0.1374667914348E+01
 0.1450335389647E+01
 0.1519225516600E+01
 0.1582501652466E+01
 0.1641095895886E+01
 0.1695688214079E+01
 0.1746666762619E+01
 0.1794078984131E+01
 0.1837571227906E+01
 0.1876306288813E+01
 0.1908847054335E+01
 0.1932992383925E+01
 0.2821926288825E+00
 0.4923335387665E+00
 0.6730105090877E+00
 0.8286964678342E+00
 0.9637821040458E+00
 0.1081825984942E+01
 0.1185679132471E+01
 0.1277651924187E+01
 0.1359646035616E+01
 0.1433249022279E+01
 0.1499794465213E+01
 0.1560389571198E+01
 0.1615916071062E+01
 0.1667009559360E+01
 0.1714022367427E+01
 0.1756980717963E+01
 0.1795534043225E+01
 0.1828884989143E+01
 0.1855686090961E+01
 0.1873884689318E+01
 0.2857780208722E+00
 0.4914094160249E+00
 0.6686431357789E+00
 0.8216467093057E+00
 0.9545171780073E+00
 0.1070591199502E+01
 0.1172554004622E+01
 0.1262589609749E+01
 0.1342500251444E+01
 0.1413792572132E+01
 0.1477732309792E+01
 0.1535368107407E+01
 0.1587530383657E+01
 0.1634810086477E+01
 0.1677522970436E+01
 0.1715672420494E+01
 0.1748908840208E+01
 0.1776472839325E+01
 0.1797105274462E+01
 0.1808899185446E+01
 0.2901284388148E+00
 0.4905817416382E+00
 0.6638781733213E+00
 0.8138269247983E+00
 0.9441868530092E+00
 0.1058040992479E+01
 0.1157887194558E+01
 0.1245768717555E+01
 0.1323378923031E+01
 0.1392137610463E+01
 0.1453239303605E+01
 0.1507672489441E+01
 0.1556216003078E+01
 0.1599416322984E+01
 0.1637551853508E+01
 0.1670600807379E+01
 0.1698210844870E+01
 0.1719656041973E+01
 0.1733760649117E+01
 0.1738756610574E+01
 0.2952280726362E+00
 0.4898776997238E+00
 0.6587744355246E+00
 0.8053181113707E+00
 0.9328888106209E+00
 0.1044287302453E+01
 0.1141804851190E+01
 0.1227331457323E+01
 0.1302443723114E+01
 0.1368469969828E+01
 0.1426531220291E+01
 0.1477555098634E+01
 0.1522269378080E+01
 0.1561176899301E+01
 0.1594518167088E+01
 0.1622243482120E+01
 0.1643992884450E+01
 0.1659067522919E+01
 0.1666367904848E+01
 0.1664256939359E+01
 0.3010584412106E+00
 0.4893270588515E+00
 0.6533967681935E+00
 0.7962094598481E+00
 0.9207301765739E+00
 0.1029452182923E+01
 0.1124443601738E+01
 0.1207430779098E+01
 0.1279867367609E+01
 0.1342986963321E+01
 0.1397835951795E+01
 0.1445281326222E+01
 0.1486001239965E+01
 0.1520456617009E+01
 0.1548850027518E+01
 0.1571101099330E+01
 0.1586836791865E+01
 0.1595378006485E+01
 0.1595693901273E+01
 0.1586272908184E+01
 0.3075985059527E+00
 0.4889618814600E+00
 0.6478154213824E+00
 0.7865974946978E+00
 0.9078264497048E+00
 0.1013666496229E+01
 0.1105948963237E+01
 0.1186228438856E+01
 0.1255831254831E+01
 0.1315894498055E+01
 0.1367389978380E+01
 0.1411125260952E+01
 0.1447731367110E+01
 0.1477630171347E+01
 0.1500987095486E+01
 0.1517688716352E+01
 0.1527343501154E+01
 0.1529284957572E+01
 0.1522544780668E+01
 0.1505738162211E+01
 0.3148248512854E+00
 0.4888162419257E+00
 0.6421054181736E+00
 0.7765852008089E+00
 0.8943004065468E+00
 0.9970685709470E+00
 0.1086473707766E+01
 0.1163893013307E+01
 0.1230523054170E+01
 0.1287404138661E+01
 0.1335434781751E+01
 0.1375365292335E+01
 0.1407783209207E+01
 0.1433075644654E+01
 0.1451372777463E+01
 0.1462526489995E+01
 0.1466121940753E+01
 0.1461499315256E+01
 0.1447750233224E+01
 0.1423628825201E+01
 0.3227119356255E+00
 0.4889259629460E+00
 0.6363459421993E+00
 0.7662811661062E+00
 0.8802810129230E+00
 0.9798028544820E+00
 0.1066176214510E+01
 0.1140597902068E+01
 0.1204134292506E+01
 0.1257730183673E+01
 0.1302213280513E+01
 0.1338279721437E+01
 0.1366478472586E+01
 0.1387167890495E+01
 0.1400446210705E+01
 0.1406129942802E+01
 0.1403776999011E+01
 0.1392730191993E+01
 0.1372143517270E+01
 0.1340936749441E+01
 0.3312324000713E+00
 0.4893283748270E+00
 0.6306197611170E+00
 0.7557987659212E+00
 0.8659023710470E+00
 0.9620185891841E+00
 0.1045218838120E+01
 0.1116519352677E+01
 0.1176857987218E+01
 0.1227086825186E+01
 0.1267966384785E+01
 0.1300142497117E+01
 0.1324131795539E+01
 0.1340271956349E+01
 0.1348634241692E+01
 0.1349000140751E+01
 0.1340897101592E+01
 0.1323668243703E+01
 0.1296537656907E+01
 0.1258633652079E+01
 0.3403574331710E+00
 0.4900621046629E+00
 0.6250127086357E+00
 0.7452554189656E+00
 0.8513027308388E+00
 0.9438685355436E+00
 0.1023766313841E+01
 0.1091834531772E+01
 0.1148886361047E+01
 0.1195685451580E+01
 0.1232929766582E+01
 0.1261219205676E+01
 0.1281045648609E+01
 0.1292736674502E+01
 0.1296343577724E+01
 0.1291614151663E+01
 0.1278042109673E+01
 0.1254968948315E+01
 0.1221699823925E+01
 0.1177629096914E+01
 0.3500571673516E+00
 0.4911668944484E+00
 0.6196132511577E+00
 0.7347719550951E+00
 0.8366236018289E+00
 0.9255077680926E+00
 0.1001984217327E+01
 0.1066719658765E+01
 0.1120408660378E+01
 0.1163732135793E+01
 0.1197330934388E+01
 0.1221763454343E+01
 0.1237505607123E+01
 0.1244888513455E+01
 0.1243953162430E+01
 0.1234416029274E+01
 0.1215732328905E+01
 0.1187237329231E+01
 0.1148327095784E+01
 0.1098729209605E+01
 0.3603010753867E+00
 0.4926834420130E+00
 0.6145121719925E+00
 0.7244721413935E+00
 0.8220089962762E+00
 0.9070925504858E+00
 0.9800374737999E+00
 0.1041348193911E+01
 0.1091609066412E+01
 0.1131425306099E+01
 0.1161386664813E+01
 0.1182013800047E+01
 0.1193776211610E+01
 0.1197025803570E+01
 0.1191806682220E+01
 0.1177808227369E+01
 0.1154439363479E+01
 0.1121016256624E+01
 0.1077026367575E+01
 0.1022601618191E+01
 0.3710583023443E+00
 0.4946532456256E+00
 0.6098024355996E+00
 0.7144824597592E+00
 0.8076048604422E+00
 0.8887793124173E+00
 0.9580889359930E+00
 0.1015889119056E+01
 0.1062664740635E+01
 0.1098953628085E+01
 0.1125300861017E+01
 0.1142191480912E+01
 0.1150097890094E+01
 0.1149413811092E+01
 0.1140205151665E+01
 0.1122142955534E+01
 0.1094578801358E+01
 0.1056781382820E+01
 0.1008303729069E+01
 0.9497496322927E+00
 0.3822978153820E+00
 0.4971184035371E+00
 0.6055793727261E+00
 0.7049322857545E+00
 0.7935587492481E+00
 0.8707236836527E+00
 0.9362979969290E+00
 0.9905053087152E+00
 0.1033743995183E+01
 0.1066494013764E+01
 0.1089262669241E+01
 0.1102498907376E+01
 0.1106685471988E+01
 0.1102281419772E+01
 0.1089399714457E+01
 0.1067711667971E+01
 0.1036502726449E+01
 0.9949430325470E+00
 0.9425755313813E+00
 0.8805217885869E+00
 0.3939880599197E+00
 0.5001213222934E+00
 0.6019414444832E+00
 0.6959548090188E+00
 0.7800197182594E+00
 0.8530794673088E+00
 0.9148191618141E+00
 0.9653520647597E+00
 0.1005004674959E+01
 0.1034209742027E+01
 0.1053444680754E+01
 0.1063118544813E+01
 0.1063728591781E+01
 0.1055821833568E+01
 0.1039586014875E+01
 0.1014731283114E+01
 0.9804855587658E+00
 0.9358525339576E+00
 0.8802006827170E+00
 0.8151592516254E+00
 0.4060955183939E+00
 0.5037039241804E+00
 0.5989927882176E+00
 0.6876890934314E+00
 0.7671384361614E+00
 0.8359970493757E+00
 0.8938005440907E+00
 0.9405759209344E+00
 0.9765928849823E+00
 0.1002248687811E+01
 0.1018000886340E+01
 0.1024211507404E+01
 0.1021392427716E+01
 0.1010198880081E+01
 0.9909094399672E+00
 0.9633233562078E+00
 0.9266939278308E+00
 0.8797951219589E+00
 0.8215353534862E+00
 0.7538482205485E+00
 0.4185792862329E+00
 0.5079084403306E+00
 0.5968486652487E+00
 0.6802858380044E+00
 0.7550655186900E+00
 0.8196208030892E+00
 0.8733823056081E+00
 0.9163140075568E+00
 0.9486422789434E+00
 0.9707419094294E+00
 0.9830643473411E+00
 0.9859149147465E+00
 0.9798175389483E+00
 0.9655528204384E+00
 0.9434915514512E+00
 0.9135260106976E+00
 0.8750851122867E+00
 0.8269513389471E+00
 0.7669988317420E+00
 0.6968598390930E+00
 0.4313784842434E+00
 0.5127677962118E+00
 0.5956680421546E+00
 0.6739090096358E+00
 0.7439454111874E+00
 0.8040863945953E+00
 0.8536950993212E+00
 0.8926935238400E+00
 0.9212756553197E+00
 0.9398023115718E+00
 0.9487446256842E+00
 0.9483386968419E+00
 0.9391151310485E+00
 0.9220046404819E+00
 0.8974459511875E+00
 0.8654004553371E+00
 0.8254065898176E+00
 0.7768873474120E+00
 0.7173227382643E+00
 0.6449683835204E+00
 0.4442814814805E+00
 0.5184705545103E+00
 0.5956902115236E+00
 0.6687165763446E+00
 0.7339088966378E+00
 0.7895181812359E+00
 0.8348603355043E+00
 0.8698289857284E+00
 0.8946059611731E+00
 0.9095351021662E+00
 0.9151139971170E+00
 0.9115603670254E+00
 0.8993722425063E+00
 0.8796330751928E+00
 0.8528959311835E+00
 0.8190544475875E+00
 0.7776769072155E+00
 0.7283278640035E+00
 0.6709823615620E+00
 0.6026387170859E+00
 0.9459693775863E+00
 0.3535901557160E+00
 0.7093123616511E-01
 0.3722363625752E-02
 0.4697630186876E-01
 0.7721818841805E-01
 0.1013111829094E+00
 0.1213069412992E+00
 0.1372387662178E+00
 0.1484670047727E+00
 0.1532993589385E+00
 0.1494459493814E+00
 0.1337616682173E+00
 0.1074199422483E+00
 0.7359162174582E-01
 0.3540836588621E-01
 0.7393267432607E-02
 0.4092369762604E-01
 0.7766389437067E-01
 0.1333425096747E+00
 0.9837474197249E+00
 0.6878277872087E+00
 0.2728199160529E+00
 0.1103043848593E+00
 0.3601134395048E-01
 0.9619498187776E-02
 0.4126414557985E-01
 0.6583922495413E-01
 0.8552639983515E-01
 0.1005838513518E+00
 0.1102133305810E+00
 0.1145933530253E+00
 0.1098463153853E+00
 0.9330273400866E-01
 0.6758015976217E-01
 0.3652680024668E-01
 0.6428554033951E-02
 0.2640154887828E-01
 0.5733783703789E-01
 0.9096786880570E-01
 0.9151418222766E+00
 0.7934677701644E+00
 0.4700225654753E+00
 0.2490237213321E+00
 0.1361131821071E+00
 0.7122758466960E-01
 0.2847412321120E-01
 0.2857957500061E-02
 0.2737901185468E-01
 0.4711873468377E-01
 0.6234169410321E-01
 0.7379980031298E-01
 0.7776376972794E-01
 0.6989183050608E-01
 0.5212198295765E-01
 0.2833584521099E-01
 0.3794081053948E-02
 0.2162391445797E-01
 0.4419481676729E-01
 0.6328252083417E-01
 0.8448189579149E+00
 0.8173697238601E+00
 0.5936125433142E+00
 0.3851394433092E+00
 0.2469864771237E+00
 0.1624225941669E+00
 0.1071643501789E+00
 0.6781642619642E-01
 0.3739903699224E-01
 0.1246097090830E-01
 0.8319527782292E-02
 0.2610706431769E-01
 0.3757511704790E-01
 0.3743641985457E-01
 0.2697739438461E-01
 0.1000777316989E-01
 0.9169935341390E-02
 0.2789696287660E-01
 0.4430412396903E-01
 0.5779718906710E-01
 0.7823400701826E+00
 0.8081051179487E+00
 0.6652254009625E+00
 0.4932229946976E+00
 0.3550736609436E+00
 0.2586722608519E+00
 0.1925483521627E+00
 0.1451128567357E+00
 0.1085767881271E+00
 0.7837629308322E-01
 0.5246617299317E-01
 0.2907938164129E-01
 0.1118554256846E-01
 0.4694568251684E-02
 0.8485111689221E-02
 0.1933315790966E-01
 0.3331852907689E-01
 0.4773155983013E-01
 0.6146226609806E-01
 0.7643005892222E-01
 0.7290241554990E+00
 0.7851263866053E+00
 0.7036782296440E+00
 0.5731769568249E+00
 0.4499315040119E+00
 0.3528970802908E+00
 0.2808608938475E+00
 0.2272035408864E+00
 0.1852964516841E+00
 0.1503537489310E+00
 0.1198814455096E+00
 0.9172612015284E-01
 0.6826117187642E-01
 0.5569034401440E-01
 0.5418526009327E-01
 0.6026989612624E-01
 0.7051274617757E-01
 0.8269901043235E-01
 0.9699322786638E-01
 0.1178345567915E+00
 0.6838289725375E+00
 0.7572911957942E+00
 0.7216114368153E+00
 0.6302487157627E+00
 0.5289587189998E+00
 0.4398629293956E+00
 0.3680471036632E+00
 0.3115557915434E+00
 0.2660998821513E+00
 0.2275958972627E+00
 0.1935776925031E+00
 0.1617437211442E+00
 0.1339572535051E+00
 0.1166527766120E+00
 0.1108452604742E+00
 0.1133982122440E+00
 0.1214556240093E+00
 0.1333714457818E+00
 0.1504828490097E+00
 0.1791040758559E+00
 0.6453504693092E+00
 0.7288209658475E+00
 0.7271294600912E+00
 0.6701449775606E+00
 0.5930955722595E+00
 0.5173307789194E+00
 0.4510353770615E+00
 0.3956219096853E+00
 0.3491957100253E+00
 0.3089123037684E+00
 0.2727672860445E+00
 0.2385927934537E+00
 0.2078538983017E+00
 0.1871394132942E+00
 0.1783470577140E+00
 0.1787688634826E+00
 0.1861184007205E+00
 0.1992433611679E+00
 0.2202962732788E+00
 0.2566514955795E+00
 0.6122671008481E+00
 0.7017163008498E+00
 0.7254001565856E+00
 0.6976636574604E+00
 0.6445892594225E+00
 0.5850075495056E+00
 0.5281197104697E+00
 0.4773715319542E+00
 0.4328024440007E+00
 0.3928996068042E+00
 0.3563719724620E+00
 0.3214307053727E+00
 0.2892846447929E+00
 0.2666262941683E+00
 0.2562329274419E+00
 0.2558581612846E+00
 0.2636950572289E+00
 0.2789029277074E+00
 0.3040220080267E+00
 0.3467245286523E+00
 0.5834560487885E+00
 0.6768470509008E+00
 0.7197135703495E+00
 0.7165153503698E+00
 0.6859094650966E+00
 0.6436264940071E+00
 0.5986631766041E+00
 0.5554607350500E+00
 0.5154005071726E+00
 0.4781320145052E+00
 0.4431349761184E+00
 0.4091509299940E+00
 0.3772601157340E+00
 0.3542013575731E+00
 0.3435679125020E+00
 0.3435570471595E+00
 0.3527111481235E+00
 0.3702997166130E+00
 0.3988600247400E+00
 0.4457427412664E+00
 0.5579992098737E+00
 0.6544888448539E+00
 0.7121481178409E+00
 0.7294568437249E+00
 0.7193060744741E+00
 0.6943403766156E+00
 0.6627100877601E+00
 0.6291415918778E+00
 0.5958241389656E+00
 0.5632954824168E+00
 0.5317316862454E+00
 0.5004551279530E+00
 0.4705038457929E+00
 0.4485791497441E+00
 0.4389629280723E+00
 0.4402442516932E+00
 0.4511848449146E+00
 0.4709977933351E+00
 0.5019080551051E+00
 0.5504818043815E+00
 0.5351595869738E+00
 0.6346024316198E+00
 0.7039887184277E+00
 0.7384827654063E+00
 0.7466604253448E+00
 0.7383804657029E+00
 0.7206681252569E+00
 0.6980930098852E+00
 0.6732381161886E+00
 0.6472476414829E+00
 0.6208534217771E+00
 0.5939313379102E+00
 0.5675174357276E+00
 0.5481608180208E+00
 0.5406500137409E+00
 0.5439007161570E+00
 0.5567941931320E+00
 0.5783814296934E+00
 0.6103545615945E+00
 0.6581586259890E+00
 0.5143520328272E+00
 0.6169854015736E+00
 0.6959930484804E+00
 0.7449991390844E+00
 0.7694653136466E+00
 0.7768827619304E+00
 0.7730914424689E+00
 0.7622573353801E+00
 0.7470654736553E+00
 0.7290228960332E+00
 0.7092581800247E+00
 0.6881249797506E+00
 0.6666597244933E+00
 0.6511215068990E+00
 0.6465869487872E+00
 0.6522386532897E+00
 0.6670270601865E+00
 0.6898066564404E+00
 0.7215975158204E+00
 0.7664578095981E+00
 0.4951160314247E+00
 0.6013570451061E+00
 0.6885645409314E+00
 0.7499633291716E+00
 0.7888562828097E+00
 0.8108110924293E+00
 0.8205472377162E+00
 0.8217133051897E+00
 0.8169076291120E+00
 0.8078097922772E+00
 0.7957956101304E+00
 0.7815974194396E+00
 0.7662292459581E+00
 0.7555123404347E+00
 0.7545771380176E+00
 0.7628315842611E+00
 0.7793050927253E+00
 0.8026995256228E+00
 0.8333022110033E+00
 0.8735237257871E+00
 0.4770922994476E+00
 0.5874064901090E+00
 0.6818672724698E+00
 0.7539925336029E+00
 0.8056598716740E+00
 0.8409331424388E+00
 0.8635413537005E+00
 0.8765885000156E+00
 0.8824764737256E+00
 0.8829200442587E+00
 0.8794161466483E+00
 0.8729714785678E+00
 0.8645426124239E+00
 0.8593683458208E+00
 0.8623987197199E+00
 0.8732442338525E+00
 0.8910840277431E+00
 0.9146042076050E+00
 0.9434011189967E+00
 0.9779303140836E+00
 0.4600029664893E+00
 0.5748196520152E+00
 0.6759039739608E+00
 0.7574475727151E+00
 0.8204447867180E+00
 0.8678245983107E+00
 0.9024826731266E+00
 0.9270049024153E+00
 0.9435443925669E+00
 0.9537597644856E+00
 0.9591716314131E+00
 0.9609638781062E+00
 0.9600012745424E+00
 0.9608138608910E+00
 0.9679432220673E+00
 0.9811747968578E+00
 0.9999502551286E+00
 0.1023188649296E+01
 0.1050029362264E+01
 0.1078627597076E+01
 0.4436342844247E+00
 0.5632928799346E+00
 0.6705703197617E+00
 0.7604987282113E+00
 0.8335714000724E+00
 0.8918881614628E+00
 0.9376721760167E+00
 0.9730494107433E+00
 0.9999118412500E+00
 0.1019807735742E+01
 0.1034212324300E+01
 0.1044404078416E+01
 0.1051136873028E+01
 0.1058145184493E+01
 0.1069356122670E+01
 0.1084639553381E+01
 0.1103760608630E+01
 0.1126246687738E+01
 0.1151369662601E+01
 0.1174851341182E+01
 0.4278196537925E+00
 0.5525382114834E+00
 0.6656935334073E+00
 0.7631805676681E+00
 0.8452391227688E+00
 0.9133809065116E+00
 0.9693073926543E+00
 0.1014761253401E+01
 0.1051389688251E+01
 0.1080602234730E+01
 0.1103784815441E+01
 0.1122241755318E+01
 0.1136624830739E+01
 0.1149859448805E+01
 0.1165107824931E+01
 0.1182197349114E+01
 0.1200976510324E+01
 0.1221779370928E+01
 0.1245417644466E+01
 0.1265899071748E+01
 0.4124230597164E+00
 0.5422770209430E+00
 0.6610672897798E+00
 0.7654405872633E+00
 0.8555340199832E+00
 0.9324472740644E+00
 0.9974960359346E+00
 0.1052129688027E+01
 0.1097789220789E+01
 0.1135739361475E+01
 0.1167236781873E+01
 0.1193552974737E+01
 0.1215276122875E+01
 0.1234605206245E+01
 0.1253910499473E+01
 0.1272889080676E+01
 0.1291218058397E+01
 0.1308934158145E+01
 0.1329465011823E+01
 0.1350646270848E+01
 0.3972920597103E+00
 0.5322686054503E+00
 0.6564743018372E+00
 0.7671906117621E+00
 0.8644862593415E+00
 0.9491528493777E+00
 0.1022271276502E+01
 0.1085100332839E+01
 0.1138913443247E+01
 0.1184859501726E+01
 0.1224061459089E+01
 0.1257569497929E+01
 0.1286021564414E+01
 0.1311139141117E+01
 0.1334493965122E+01
 0.1355763131831E+01
 0.1374405104382E+01
 0.1389845929594E+01
 0.1403362256363E+01
 0.1424730911198E+01
 0.4583398654956E+00
 0.5273713657749E+00
 0.5995128815637E+00
 0.6670131784951E+00
 0.7262515901316E+00
 0.7756283447262E+00
 0.8145656247725E+00
 0.8430738871891E+00
 0.8614727441186E+00
 0.8702048793029E+00
 0.8698344476011E+00
 0.8609706094911E+00
 0.8440976058726E+00
 0.8204813963592E+00
 0.7912654914943E+00
 0.7561211679257E+00
 0.7145855599621E+00
 0.6662702995053E+00
 0.6127464986187E+00
 0.5624682021061E+00
 0.4740298235493E+00
 0.5388210103596E+00
 0.6065351362847E+00
 0.6683000894022E+00
 0.7204469277933E+00
 0.7617251360722E+00
 0.7919421784807E+00
 0.8114600498678E+00
 0.8209154318926E+00
 0.8210202530976E+00
 0.8126075645878E+00
 0.7966188044871E+00
 0.7736843389678E+00
 0.7453916795622E+00
 0.7134012929587E+00
 0.6774117713409E+00
 0.6371148333590E+00
 0.5924250570587E+00
 0.5464408128149E+00
 0.4958956911557E+00
 0.4901618915899E+00
 0.5513110411254E+00
 0.6149424438415E+00
 0.6709347418962E+00
 0.7155865447914E+00
 0.7481614680195E+00
 0.7690375696285E+00
 0.7790651557099E+00
 0.7792721956392E+00
 0.7706869632701E+00
 0.7544142923543E+00
 0.7315410954419E+00
 0.7028395708746E+00
 0.6703728636706E+00
 0.6362439599640E+00
 0.6001928984277E+00
 0.5619248578273E+00
 0.5214269362189E+00
 0.4788225040126E+00
 0.4268844790290E+00
 0.5068471680592E+00
 0.5651839961000E+00
 0.6250542086189E+00
 0.6750367706331E+00
 0.7115913098938E+00
 0.7347317450848E+00
 0.7455997553366E+00
 0.7456628952089E+00
 0.7364068684907E+00
 0.7191854260965E+00
 0.6953315396176E+00
 0.6660045656660E+00
 0.6321110098229E+00
 0.5961893586776E+00
 0.5606637415464E+00
 0.5251553751310E+00
 0.4891117167066E+00
 0.4515467700277E+00
 0.4107919513424E+00
 0.3612488009094E+00
 0.5242744115829E+00
 0.5807742879299E+00
 0.6371268794690E+00
 0.6806326282245E+00
 0.7082476082941E+00
 0.7210654980961E+00
 0.7212078029497E+00
 0.7108773573528E+00
 0.6920574373173E+00
 0.6664054845715E+00
 0.6354288420131E+00
 0.6002886660590E+00
 0.5619911527682E+00
 0.5234807627221E+00
 0.4873012599809E+00
 0.4527752240180E+00
 0.4188355687729E+00
 0.3837466471052E+00
 0.3454524869246E+00
 0.3004135263342E+00
 0.5426876656948E+00
 0.5984501392568E+00
 0.6513513552056E+00
 0.6876026025124E+00
 0.7051527915090E+00
 0.7065940079075E+00
 0.6952614875061E+00
 0.6741904592947E+00
 0.6458651210607E+00
 0.6121894263068E+00
 0.5747627238360E+00
 0.5346616641029E+00
 0.4929321614232E+00
 0.4528145568910E+00
 0.4167661593791E+00
 0.3836856049426E+00
 0.3520291644995E+00
 0.3196681722952E+00
 0.2846524161829E+00
 0.2450583817235E+00
 0.5623997904383E+00
 0.6186076232790E+00
 0.6678272328660E+00
 0.6956322635634E+00
 0.7016656831503E+00
 0.6905199962601E+00
 0.6669765581649E+00
 0.6349608436072E+00
 0.5974087917337E+00
 0.5563641391325E+00
 0.5133992816394E+00
 0.4693989183917E+00
 0.4253747543322E+00
 0.3847457000499E+00
 0.3497048801538E+00
 0.3186895306657E+00
 0.2897714295240E+00
 0.2606337306162E+00
 0.2295539476544E+00
 0.1956100068485E+00
 0.5838086840112E+00
 0.6416618413165E+00
 0.6865162033286E+00
 0.7041513138477E+00
 0.6968552198512E+00
 0.6717929011464E+00
 0.6353917413686E+00
 0.5924567103112E+00
 0.5462502792769E+00
 0.4987860152347E+00
 0.4514499066946E+00
 0.4048098287139E+00
 0.3597699629977E+00
 0.3198204479854E+00
 0.2867536164265E+00
 0.2585466622240E+00
 0.2329576253261E+00
 0.2075813049662E+00
 0.1808767179876E+00
 0.1524184389728E+00
 0.6074176263568E+00
 0.6680281937207E+00
 0.7071747073023E+00
 0.7122538872189E+00
 0.6894437719077E+00
 0.6490929962955E+00
 0.5993942145365E+00
 0.5459097711536E+00
 0.4919982683324E+00
 0.4393986139617E+00
 0.3891135011800E+00
 0.3412628081101E+00
 0.2965844069617E+00
 0.2585521547724E+00
 0.2284611437970E+00
 0.2038516408576E+00
 0.1822163415318E+00
 0.1611007791325E+00
 0.1390514940853E+00
 0.1157747807807E+00
 0.6338600604965E+00
 0.6980884605465E+00
 0.7292559438998E+00
 0.7185943454522E+00
 0.6777458942097E+00
 0.6208322934820E+00
 0.5577747489406E+00
 0.4945998035254E+00
 0.4343944346221E+00
 0.3783009138703E+00
 0.3267190244216E+00
 0.2792032300174E+00
 0.2362961639702E+00
 0.2013948990768E+00
 0.1752447595151E+00
 0.1549937446968E+00
 0.1379060475008E+00
 0.1214907242624E+00
 0.1042888606951E+00
 0.8588939449345E-01
 0.6639297991384E+00
 0.7321311131609E+00
 0.7517652962745E+00
 0.7212505339796E+00
 0.6596087131970E+00
 0.5851887615906E+00
 0.5093300964232E+00
 0.4379799671563E+00
 0.3734219969185E+00
 0.3158192095004E+00
 0.2647598081036E+00
 0.2191600831465E+00
 0.1793846493504E+00
 0.1487266431590E+00
 0.1273765922749E+00
 0.1121580103594E+00
 0.1001413548690E+00
 0.8880399970569E-01
 0.7660770415667E-01
 0.6285876358459E-01
 0.6986168293721E+00
 0.7702462788472E+00
 0.7730424915907E+00
 0.7175460183340E+00
 0.6323713333343E+00
 0.5402048147061E+00
 0.4530379634267E+00
 0.3758509299227E+00
 0.3094288272787E+00
 0.2525679037099E+00
 0.2039069747436E+00
 0.1617350311104E+00
 0.1263142427251E+00
 0.1008405624519E+00
 0.8498916205521E-01
 0.7534723726190E-01
 0.6882836591764E-01
 0.6288442348904E-01
 0.5584852487959E-01
 0.4664063083027E-01
 0.7391466078164E+00
 0.8121376570852E+00
 0.7904263144421E+00
 0.7038280244567E+00
 0.5928856071781E+00
 0.4840048650041E+00
 0.3883355831188E+00
 0.3085804042782E+00
 0.2432405377931E+00
 0.1894733980474E+00
 0.1449858993425E+00
 0.1075683625367E+00
 0.7751194265436E-01
 0.5794450948396E-01
 0.4809577055889E-01
 0.4441602132637E-01
 0.4370367517341E-01
 0.4340094875678E-01
 0.4169122349644E-01
 0.3705714717328E-01
 0.7870136885629E+00
 0.8567759049455E+00
 0.7997283991165E+00
 0.6752193622109E+00
 0.5376940148137E+00
 0.4152200533413E+00
 0.3155250808047E+00
 0.2373312916914E+00
 0.1762120550442E+00
 0.1277258463316E+00
 0.8890370924927E-01
 0.5728487426775E-01
 0.3335481728244E-01
 0.2020444825387E-01
 0.1665919052591E-01
 0.1912201659326E-01
 0.2437542075771E-01
 0.2988727745209E-01
 0.3369021858569E-01
 0.3383052392845E-01
 0.8439807160003E+00
 0.9017328411971E+00
 0.7943955350130E+00
 0.6254368043648E+00
 0.4635684632493E+00
 0.3337441427959E+00
 0.2362700665164E+00
 0.1641951042919E+00
 0.1101351276941E+00
 0.6863314300896E-01
 0.3653775212369E-01
 0.1151047873369E-01
 0.6404932764291E-02
 0.1281697129468E-01
 0.9979548058556E-02
 0.1749612928889E-02
 0.1036685189878E-01
 0.2179578983379E-01
 0.3130615044263E-01
 0.3657483926086E-01
 0.9119446900904E+00
 0.9418301184648E+00
 0.7641791147034E+00
 0.5469865682062E+00
 0.3688413128122E+00
 0.2418844325194E+00
 0.1539884046630E+00
 0.9200805526399E-01
 0.4694369368497E-01
 0.1341036490747E-01
 0.1154976614106E-01
 0.2980508909168E-01
 0.4035812954890E-01
 0.4025439130068E-01
 0.3104348157521E-01
 0.1610139276753E-01
 0.1241611739252E-02
 0.1854291088989E-01
 0.3387291856592E-01
 0.4472151598177E-01
 0.9924041113629E+00
 0.9661516585145E+00
 0.6931232628573E+00
 0.4328108544568E+00
 0.2561631291513E+00
 0.1456919178149E+00
 0.7342522146624E-01
 0.2371700851558E-01
 0.1170542823713E-01
 0.3714797259423E-01
 0.5464228562565E-01
 0.6590740280610E-01
 0.6947541884825E-01
 0.6269753061463E-01
 0.4726862240506E-01
 0.2644443257983E-01
 0.3915430315773E-02
 0.1945314255663E-01
 0.4054831028887E-01
 0.5753821498121E-01
 0.1084034072386E+01
 0.9506975329586E+00
 0.5574652343994E+00
 0.2822442125926E+00
 0.1378240562823E+00
 0.5365993578703E-01
 0.1591329005148E-02
 0.3842334189277E-01
 0.6475970921100E-01
 0.8255568144274E-01
 0.9290001704728E-01
 0.9706492496520E-01
 0.9344511657805E-01
 0.7998246554166E-01
 0.5850703858267E-01
 0.3221264001727E-01
 0.5300657572542E-02
 0.2370533196305E-01
 0.5032389333656E-01
 0.7418735248070E-01
 0.1175506532270E+01
 0.8356674375471E+00
 0.3295611859021E+00
 0.1253843300164E+00
 0.3033091707431E-01
 0.2764715758723E-01
 0.6614199372545E-01
 0.9321548828788E-01
 0.1118414797046E+00
 0.1229720323908E+00
 0.1266010455804E+00
 0.1235144173376E+00
 0.1121868388144E+00
 0.9181490466900E-01
 0.6446099979111E-01
 0.3331065868427E-01
 0.4601303663114E-02
 0.3050975992977E-01
 0.6193988402653E-01
 0.9366979961518E-01
 0.1140387620639E+01
 0.4409791846109E+00
 0.9069690432051E-01
 0.4451326071442E-02
 0.5838874057458E-01
 0.9476763598894E-01
 0.1213026756575E+00
 0.1405499142223E+00
 0.1530417279225E+00
 0.1587617641534E+00
 0.1569120545505E+00
 0.1459649850674E+00
 0.1251764463221E+00
 0.9728732536557E-01
 0.6457012859595E-01
 0.2956047383847E-01
 0.7986621617590E-02
 0.3982521562227E-01
 0.7364694006251E-01
 0.1141483802925E+00
 0.1472035445828E+01
 0.1402030649636E+01
 0.1326972626031E+01
 0.1247189332345E+01
 0.1161597223846E+01
 0.1070294656179E+01
 0.9737432919263E+00
 0.8726832670177E+00
 0.7681094433546E+00
 0.6613153988624E+00
 0.5539667624102E+00
 0.4481983787169E+00
 0.3467306663304E+00
 0.2529964590810E+00
 0.1712532739463E+00
 0.1066189038711E+00
 0.6490373984396E-01
 0.5211384972228E-01
 0.7250220816078E-01
 0.1269177899203E+00
 0.1557597253525E+01
 0.1503710343416E+01
 0.1436892568089E+01
 0.1362457214995E+01
 0.1281791074710E+01
 0.1195040250668E+01
 0.1102317415533E+01
 0.1003879972568E+01
 0.9002228745825E+00
 0.7921423406237E+00
 0.6808198073262E+00
 0.5679379847504E+00
 0.4558392278594E+00
 0.3477350379890E+00
 0.2479731083765E+00
 0.1623562847517E+00
 0.9847890224250E-01
 0.6602813595020E-01
 0.7669971138092E-01
 0.1388953738136E+00
 0.1641582124521E+01
 0.1596240022658E+01
 0.1540989280302E+01
 0.1476283245187E+01
 0.1403914750966E+01
 0.1324616578114E+01
 0.1238637166313E+01
 0.1146115520293E+01
 0.1047257727066E+01
 0.9424507530997E+00
 0.8323589829102E+00
 0.7180369117745E+00
 0.6010816218446E+00
 0.4838517798657E+00
 0.3697911599995E+00
 0.2639190395497E+00
 0.1735923785177E+00
 0.1097613377819E+00
 0.8915213602350E-01
 0.1348803007918E+00
 0.1723683562255E+01
 0.1685872465715E+01
 0.1640190848156E+01
 0.1585974130405E+01
 0.1523702958609E+01
 0.1454001528527E+01
 0.1377191435157E+01
 0.1293417426977E+01
 0.1202784454100E+01
 0.1105462085127E+01
 0.1001771512145E+01
 0.8922740355646E+00
 0.7778830494232E+00
 0.6600274705645E+00
 0.5409115395623E+00
 0.4239531220947E+00
 0.3145697186458E+00
 0.2216827673429E+00
 0.1609670137717E+00
 0.1641353465081E+00
 0.1801801731047E+01
 0.1771447405300E+01
 0.1734566984458E+01
 0.1690228383618E+01
 0.1638318951189E+01
 0.1579045467522E+01
 0.1512627682217E+01
 0.1439199330838E+01
 0.1358850956538E+01
 0.1271694513229E+01
 0.1177927250776E+01
 0.1077895851124E+01
 0.9721707286917E+00
 0.8616474816903E+00
 0.7477037080007E+00
 0.6324634528194E+00
 0.5192720058839E+00
 0.4136224186152E+00
 0.3251734275186E+00
 0.2736500373130E+00
 0.1874496475375E+01
 0.1851514143053E+01
 0.1822842268023E+01
 0.1787640454985E+01
 0.1745520314672E+01
 0.1696403685999E+01
 0.1640325914512E+01
 0.1577336498838E+01
 0.1507477043816E+01
 0.1430803543581E+01
 0.1347420392131E+01
 0.1257515572227E+01
 0.1161394824613E+01
 0.1059515840442E+01
 0.9525237802707E+00
 0.8412852691726E+00
 0.7269048009347E+00
 0.6106475790083E+00
 0.4935114249334E+00
 0.3728779535826E+00
 0.1940632476973E+01
 0.1924731630090E+01
 0.1903677556458E+01
 0.1876762651642E+01
 0.1843499680561E+01
 0.1803612859497E+01
 0.1756949040329E+01
 0.1703400485865E+01
 0.1642867001283E+01
 0.1575244800676E+01
 0.1500426068520E+01
 0.1418294700110E+01
 0.1328707227264E+01
 0.1231445990699E+01
 0.1126122540290E+01
 0.1011987131656E+01
 0.8875459032908E+00
 0.7497564834801E+00
 0.5921242982556E+00
 0.4002159343661E+00
 0.1999355821319E+01
 0.1990054257708E+01
 0.1975950113907E+01
 0.1956427671052E+01
 0.1930949461110E+01
 0.1899093720651E+01
 0.1860520289193E+01
 0.1814921400573E+01
 0.1761981155633E+01
 0.1701345751522E+01
 0.1632595270275E+01
 0.1555205240572E+01
 0.1468484137388E+01
 0.1371468675455E+01
 0.1262748600896E+01
 0.1140172259966E+01
 0.1000347006504E+01
 0.8377837877403E+00
 0.6435354800570E+00
 0.4044198981500E+00
 0.2049997570054E+01
 0.2046647719506E+01
 0.2038742490099E+01
 0.2025691292841E+01
 0.2006903218107E+01
 0.1981825699263E+01
 0.1949933927303E+01
 0.1910698547920E+01
 0.1863548327286E+01
 0.1807831662195E+01
 0.1742772875926E+01
 0.1667414746271E+01
 0.1580535973385E+01
 0.1480528958647E+01
 0.1365218458596E+01
 0.1231596303515E+01
 0.1075449080773E+01
 0.8909029609918E+00
 0.6702165753950E+00
 0.4054205446749E+00
 0.2092021130419E+01
 0.2093832523548E+01
 0.2091283210735E+01
 0.2083748788781E+01
 0.2070566092439E+01
 0.2051054361604E+01
 0.2024509706647E+01
 0.1990181425823E+01
 0.1947238868505E+01
 0.1894732128451E+01
 0.1831544900649E+01
 0.1756334750978E+01
 0.1667454362087E+01
 0.1562846900434E+01
 0.1439910438741E+01
 0.1295334661341E+01
 0.1124940713992E+01
 0.9236462687538E+00
 0.6859351399131E+00
 0.4087154366591E+00
 0.2125030014744E+01
 0.2131137467386E+01
 0.2133040745044E+01
 0.2130051867854E+01
 0.2121421899775E+01
 0.2106345171245E+01
 0.2083951441724E+01
 0.2053286060034E+01
 0.2013281613512E+01
 0.1962723146135E+01
 0.1900206846664E+01
 0.1824090703378E+01
 0.1732435600355E+01
 0.1622937310714E+01
 0.1492855523607E+01
 0.1338959439385E+01
 0.1157540833862E+01
 0.9446163903511E+00
 0.6966828343385E+00
 0.4142142787426E+00
 0.2148742627672E+01
 0.2158253351631E+01
 0.2163682924413E+01
 0.2164275525587E+01
 0.2159196182766E+01
 0.2147525056256E+01
 0.2128246533219E+01
 0.2100231638539E+01
 0.2062214946661E+01
 0.2012767456354E+01
 0.1950266392855E+01
 0.1872862814692E+01
 0.1778448935552E+01
 0.1664629995183E+01
 0.1528711602718E+01
 0.1367725333800E+01
 0.1178538361934E+01
 0.9581514344858E+00
 0.7045490844827E+00
 0.4205923628564E+00
 0.2162980796680E+01
 0.2174996416817E+01
 0.2183028591661E+01
 0.2186263745163E+01
 0.2183793069475E+01
 0.2174602117263E+01
 0.2157558359356E+01
 0.2131395772022E+01
 0.2094697200717E+01
 0.2045875914153E+01
 0.1983158059033E+01
 0.1904568267477E+01
 0.1807921971653E+01
 0.1690830551634E+01
 0.1550730028331E+01
 0.1384952099648E+01
 0.1190873686870E+01
 0.9662382519977E+00
 0.7100330093848E+00
 0.4266647527808E+00
 0.2167662111635E+01
 0.2181288205113E+01
 0.2191013666289E+01
 0.2195984872756E+01
 0.2195239978384E+01
 0.2187696660426E+01
 0.2172139449068E+01
 0.2147206579653E+01
 0.2111377332349E+01
 0.2062961498153E+01
 0.2000093133972E+01
 0.1920731424018E+01
 0.1822672498806E+01
 0.1703577739863E+01
 0.1561026882452E+01
 0.1392609747905E+01
 0.1196085965521E+01
 0.9697033252357E+00
 0.7130850387668E+00
 0.4316052375789E+00
 0.2162793109989E+01
 0.2177143231456E+01
 0.2187669905212E+01
 0.2193501280135E+01
 0.2193648454861E+01
 0.2186992611569E+01
 0.2172272655902E+01
 0.2148073930814E+01
 0.2112819274992E+01
 0.2064764283800E+01
 0.2001999149255E+01
 0.1922459987082E+01
 0.1823953181876E+01
 0.1704197131641E+01
 0.1560887361553E+01
 0.1391795398518E+01
 0.1194927632476E+01
 0.9688364296603E+00
 0.7135143031616E+00
 0.4348872042941E+00
 0.2148463999632E+01
 0.2162661387275E+01
 0.2173112703842E+01
 0.2178951717815E+01
 0.2179191068208E+01
 0.2172709198084E+01
 0.2158238206159E+01
 0.2134353508732E+01
 0.2099466748208E+01
 0.2051823903100E+01
 0.1989511026017E+01
 0.1910470454058E+01
 0.1812530693922E+01
 0.1693453589705E+01
 0.1551003455373E+01
 0.1383047059795E+01
 0.1187710018406E+01
 0.9636842203120E+00
 0.7111274129781E+00
 0.4361919614245E+00
 0.2124845560601E+01
 0.2138024023592E+01
 0.2147535444186E+01
 0.2152543428844E+01
 0.2152091367371E+01
 0.2145089232314E+01
 0.2130301241784E+01
 0.2106335312740E+01
 0.2071635703854E+01
 0.2024480731218E+01
 0.1962987920473E+01
 0.1885129400095E+01
 0.1788760719276E+01
 0.1671666690992E+01
 0.1531628958366E+01
 0.1366524305566E+01
 0.1174479783278E+01
 0.9541806984646E+00
 0.7057729019653E+00
 0.4353491081716E+00
 0.2092188851843E+01
 0.2103494430216E+01
 0.2111210564869E+01
 0.2114553807356E+01
 0.2112626404588E+01
 0.2104403018303E+01
 0.2088717837188E+01
 0.2064252800044E+01
 0.2029528049594E+01
 0.1982896233203E+01
 0.1922542814995E+01
 0.1846495173072E+01
 0.1752643947588E+01
 0.1638780983310E+01
 0.1502659813307E+01
 0.1342089248002E+01
 0.1155087296954E+01
 0.9401906380117E+00
 0.6973518433163E+00
 0.4323110008365E+00
 0.2050827537699E+01
 0.2059422212867E+01
 0.2064496415908E+01
 0.2065340243752E+01
 0.2061140171948E+01
 0.2050965939028E+01
 0.2033757154208E+01
 0.2008309771803E+01
 0.1973263063331E+01
 0.1927088222817E+01
 0.1868080333561E+01
 0.1794356249014E+01
 0.1703862120598E+01
 0.1594396023638E+01
 0.1463653828519E+01
 0.1309311874552E+01
 0.1129175967912E+01
 0.9214890009501E+00
 0.6858055372766E+00
 0.4271616487098E+00
 0.2001183027055E+01
 0.2006251721129E+01
 0.2007849907419E+01
 0.2005358202320E+01
 0.1998068105089E+01
 0.1985170119550E+01
 0.1965740556371E+01
 0.1938726494390E+01
 0.1902928994712E+01
 0.1856984986564E+01
 0.1799348757645E+01
 0.1728274883231E+01
 0.1641806011342E+01
 0.1537771596616E+01
 0.1413808064232E+01
 0.1267418347101E+01
 0.1096105037634E+01
 0.8976678692635E+00
 0.6710369358646E+00
 0.4201182257309E+00
 0.1943769799093E+01
 0.1944530483322E+01
 0.1941840386257E+01
 0.1935181944852E+01
 0.1923965662960E+01
 0.1907521538158E+01
 0.1885087243258E+01
 0.1855792697246E+01
 0.1818640528916E+01
 0.1772481960206E+01
 0.1715987830971E+01
 0.1647615128590E+01
 0.1565570906893E+01
 0.1467778623787E+01
 0.1351857952918E+01
 0.1215140123596E+01
 0.1054761357410E+01
 0.8679296727772E+00
 0.6527037031385E+00
 0.4114276032371E+00
 0.1879196095824E+01
 0.1874912955908E+01
 0.1867158839019E+01
 0.1855520043551E+01
 0.1839531182474E+01
 0.1818670949441E+01
 0.1792353241769E+01
 0.1759913240658E+01
 0.1720587486362E+01
 0.1673486538902E+01
 0.1617558470424E+01
 0.1551541371240E+01
 0.1473903709767E+01
 0.1382773715558E+01
 0.1275864898846E+01
 0.1150418469687E+01
 0.1003212674844E+01
 0.8307513209402E+00
 0.6299523936331E+00
 0.4011634955526E+00
 0.1808173389023E+01
 0.1798179174594E+01
 0.1784645720896E+01
 0.1767255762710E+01
 0.1745662877681E+01
 0.1719492132635E+01
 0.1688335631979E+01
 0.1651742446529E+01
 0.1609201678049E+01
 0.1560116559065E+01
 0.1503766499509E+01
 0.1439252900831E+01
 0.1365423568458E+01
 0.1280770317314E+01
 0.1183296812747E+01
 0.1070363783683E+01
 0.9385508031384E+00
 0.7836613691906E+00
 0.6012189360462E+00
 0.3889590692283E+00
 0.1731519826292E+01
 0.1715246165385E+01
 0.1695313294315E+01
 0.1671485122858E+01
 0.1643519186830E+01
 0.1611172537457E+01
 0.1574202792146E+01
 0.1532364027991E+01
 0.1485396386980E+01
 0.1433007174163E+01
 0.1374839749364E+01
 0.1310424466978E+01
 0.1239103072437E+01
 0.1159914149051E+01
 0.1071422722539E+01
 0.9714749476079E+00
 0.8568695518186E+00
 0.7230148029153E+00
 0.5639423579166E+00
 0.3740268931625E+00
 0.1650159265580E+01
 0.1627172299288E+01
 0.1600358945543E+01
 0.1569543400252E+01
 0.1534564358362E+01
 0.1495285856435E+01
 0.1451604049473E+01
 0.1403450143926E+01
 0.1350789020956E+01
 0.1293612036505E+01
 0.1231920916948E+01
 0.1165697264992E+01
 0.1094848333102E+01
 0.1019113260161E+01
 0.9379029629472E+00
 0.8500279378748E+00
 0.7532403422974E+00
 0.6434842347296E+00
 0.5139223009563E+00
 0.3550408295300E+00
 0.1565115226538E+01
 0.1535154404792E+01
 0.1501168276998E+01
 0.1463018392168E+01
 0.1420598021908E+01
 0.1373846838580E+01
 0.1322762380298E+01
 0.1267409294972E+01
 0.1207927068573E+01
 0.1144536239092E+01
 0.1077541949556E+01
 0.1007331869063E+01
 0.9343623669107E+00
 0.8591209261679E+00
 0.7820408762084E+00
 0.7033193889877E+00
 0.6225317887109E+00
 0.5378057860795E+00
 0.4439379511038E+00
 0.3290874136586E+00
 0.1477496987005E+01
 0.1440513519833E+01
 0.1399302477025E+01
 0.1353742833908E+01
 0.1303758342429E+01
 0.1249334437202E+01
 0.1190532133338E+01
 0.1127500792026E+01
 0.1060491949314E+01
 0.9898761702059E+00
 0.9161644546335E+00
 0.8400352214055E+00
 0.7623671512672E+00
 0.6842764969576E+00
 0.6071530812330E+00
 0.5326770174229E+00
 0.4627633540055E+00
 0.3992679548303E+00
 0.3428796195207E+00
 0.2879921428934E+00
 0.1388475547547E+01
 0.1344665400815E+01
 0.1296463584309E+01
 0.1243755388546E+01
 0.1186481587713E+01
 0.1124656466809E+01
 0.1058381514805E+01
 0.9878577811258E+00
 0.9134008127114E+00
 0.8354620210039E+00
 0.7546603701833E+00
 0.6718291022453E+00
 0.5880843059709E+00
 0.5049261191872E+00
 0.4243904102384E+00
 0.3492814613935E+00
 0.2835420320079E+00
 0.2328779665957E+00
 0.2059869632307E+00
 0.2166058646094E+00
 0.1299246603600E+01
 0.1249070788501E+01
 0.1194428620422E+01
 0.1135214124992E+01
 0.1071390340250E+01
 0.1003009415944E+01
 0.9302246323543E+00
 0.8532997453848E+00
 0.7726219860265E+00
 0.6887242721843E+00
 0.6023219751534E+00
 0.5143710925485E+00
 0.4261587719152E+00
 0.3394452937006E+00
 0.2566918807764E+00
 0.1814359276931E+00
 0.1189115045699E+00
 0.7705178315046E-01
 0.6922655430518E-01
 0.1269004659486E+00
 0.1210978288509E+01
 0.1155160199943E+01
 0.1094941363873E+01
 0.1030239223089E+01
 0.9610647534393E+00
 0.8875476392061E+00
 0.8099462226553E+00
 0.7286536906872E+00
 0.6442108831077E+00
 0.5573329776924E+00
 0.4689560603229E+00
 0.3803112898916E+00
 0.2930400120395E+00
 0.2093764689616E+00
 0.1324627192579E+00
 0.6704015389833E-01
 0.2262315244886E-01
 0.1645526753802E-01
 0.8696512192759E-02
 0.9130929510991E-01
 0.1124747432027E+01
 0.1064237599643E+01
 0.9995643914668E+00
 0.9306827655387E+00
 0.8576855919025E+00
 0.7808332146721E+00
 0.7005559737685E+00
 0.6174539768345E+00
 0.5323093419462E+00
 0.4461184311641E+00
 0.3601486087122E+00
 0.2760257546382E+00
 0.1958668337862E+00
 0.1225024011474E+00
 0.6004094238801E-01
 0.1864302481472E-01
 0.2440910371405E-01
 0.2086656455283E-01
 0.2153063196011E-01
 0.1124779212865E+00
 0.1041480504086E+01
 0.9773944840981E+00
 0.9095476476027E+00
 0.8379299998233E+00
 0.7627463343676E+00
 0.6844333691904E+00
 0.6036390594535E+00
 0.5212059706167E+00
 0.4381764063754E+00
 0.3558229429767E+00
 0.2757035035355E+00
 0.1997424625627E+00
 0.1303524604872E+00
 0.7068823339352E-01
 0.2603873136072E-01
 0.1649147088345E-01
 0.2091613153562E-01
 0.3514429360045E-02
 0.4975864062156E-01
 0.1311124282532E+00
 0.9619201688244E+00
 0.8954671485233E+00
 0.8257582221243E+00
 0.7528055861243E+00
 0.6769582411350E+00
 0.5988667891965E+00
 0.5194152091240E+00
 0.4396770250757E+00
 0.3609086930887E+00
 0.2845731980532E+00
 0.2123835595082E+00
 0.1463613790653E+00
 0.8892451669727E-01
 0.4314008888356E-01
 0.1473010183048E-01
 0.1245982930622E-01
 0.6416318223252E-02
 0.2385460111791E-01
 0.7413940243039E-01
 0.1440814749851E+00
 0.8866293277525E+00
 0.8190261743446E+00
 0.7486468972145E+00
 0.6755392276290E+00
 0.6002531157864E+00
 0.5236926334571E+00
 0.4469739859336E+00
 0.3713530464643E+00
 0.2982130107492E+00
 0.2290839868783E+00
 0.1656728910738E+00
 0.1098925011051E+00
 0.6389596623732E-01
 0.3018830821260E-01
 0.1189795660499E-01
 0.6881425166318E-02
 0.1507589915795E-01
 0.4541964785022E-01
 0.9277554418677E-01
 0.1538036730792E+00
 0.8160109916304E+00
 0.7483825872327E+00
 0.6782834136970E+00
 0.6058806159000E+00
 0.5320353949137E+00
 0.4579502775955E+00
 0.3849430286385E+00
 0.3143699883745E+00
 0.2476292430693E+00
 0.1861875580159E+00
 0.1315994089022E+00
 0.8550578064587E-01
 0.4960221489870E-01
 0.2550664894852E-01
 0.1402043554472E-01
 0.1514834207072E-01
 0.3158944591808E-01
 0.6263242547678E-01
 0.1062484358236E+00
 0.1602302824190E+00
 0.7503961322364E+00
 0.6837099359390E+00
 0.6145185712352E+00
 0.5433527584794E+00
 0.4715623038166E+00
 0.4006639048699E+00
 0.3320897884425E+00
 0.2671710397234E+00
 0.2071949697032E+00
 0.1534471008729E+00
 0.1072206913832E+00
 0.6978830406452E-01
 0.4231660935958E-01
 0.2565675776905E-01
 0.2018659972706E-01
 0.2668641770891E-01
 0.4548438614340E-01
 0.7548124545861E-01
 0.1151952087363E+00
 0.1630261179670E+00
 0.6900642750467E+00
 0.6249554305053E+00
 0.5568528825107E+00
 0.4871802958259E+00
 0.4179530765713E+00
 0.3508952631401E+00
 0.2873533809949E+00
 0.2284756284683E+00
 0.1753265136967E+00
 0.1289324698603E+00
 0.9027532124361E-01
 0.6024285085288E-01
 0.3953412912683E-01
 0.2856014478885E-01
 0.2760797767122E-01
 0.3694384788740E-01
 0.5614119064186E-01
 0.8422342517157E-01
 0.1200391421727E+00
 0.1623426996937E+00
 0.6351752424160E+00
 0.5715213987678E+00
 0.5041604098754E+00
 0.4362494332874E+00
 0.3703637546069E+00
 0.3079508962250E+00
 0.2500074370293E+00
 0.1973799212480E+00
 0.1508654319442E+00
 0.1112234485768E+00
 0.7914175869697E-01
 0.5517670213899E-01
 0.3968756366880E-01
 0.3283934627765E-01
 0.3470533549912E-01
 0.4511457760005E-01
 0.6346122911489E-01
 0.8894508149273E-01
 0.1207519377298E+00
 0.1579730777579E+00
 0.5854221655558E+00
 0.5214091529682E+00
 0.4544932227252E+00
 0.3897756153960E+00
 0.3286962256817E+00
 0.2718976685221E+00
 0.2199640436096E+00
 0.1734998112643E+00
 0.1331128614239E+00
 0.9936512713103E-01
 0.7271837972567E-01
 0.5348311953582E-01
 0.4179148171743E-01
 0.3762555868446E-01
 0.4082923121388E-01
 0.5099833195852E-01
 0.6749048719274E-01
 0.8960841211901E-01
 0.1168614450024E+00
 0.1491003710982E+00
 0.5374842998142E+00
 0.4693663609943E+00
 0.4073164644523E+00
 0.3492528366884E+00
 0.2946397911038E+00
 0.2439287929808E+00
 0.1977673722073E+00
 0.1568089415994E+00
 0.1216237202462E+00
 0.9265772802492E-01
 0.7020530952064E-01
 0.5439291485684E-01
 0.4518394237307E-01
 0.4240108620973E-01
 0.4571239605175E-01
 0.5458762833179E-01
 0.6833857548204E-01
 0.8623770358539E-01
 0.1076312481390E+00
 0.1330187227138E+00
</DataArray>
<DataArray type="Float64" Name="OI" NumberOfComponents="1" ComponentName0="OI" format="ascii">
 0.2937228509621E+00
 0.2439540722106E+00
 0.2250975649624E+00
 0.2332007773642E+00
 0.2505602816945E+00
 0.2746532392145E+00
 0.3033391173007E+00
 0.3357324152283E+00
 0.3713324283723E+00
 0.4099300882821E+00
 0.4514985687471E+00
 0.4961584390352E+00
 0.5441636082556E+00
 0.5959070447563E+00
 0.6519435982712E+00
 0.7130486005756E+00
 0.7803254734940E+00
 0.8554719382292E+00
 0.9414028419739E+00
 0.1042492923284E+01
 0.1158948301982E+01
 0.1283962958093E+01
 0.1410044239233E+01
 0.1532921409134E+01
 0.1651209556516E+01
 0.1764934916699E+01
 0.1874340705751E+01
 0.1979196644354E+01
 0.2078292546475E+01
 0.2168927279673E+01
 0.2248764401501E+01
 0.2320063339557E+01
 0.2387475559607E+01
 0.2454350420135E+01
 0.2524337256983E+01
 0.2601010460332E+01
 0.2694715199436E+01
 0.2791791616757E+01
 0.2999052642280E+01
 0.2674869676303E+01
 0.5378552466226E+01
 0.2816629246929E+00
 0.2890358991980E+00
 0.2786585862442E+00
 0.2828123510718E+00
 0.2980290296543E+00
 0.3196633176448E+00
 0.3462395640500E+00
 0.3767265248350E+00
 0.4106121213764E+00
 0.4476428989341E+00
 0.4877596713064E+00
 0.5310528760924E+00
 0.5777485849464E+00
 0.6282116419221E+00
 0.6829656806411E+00
 0.7427406676741E+00
 0.8085649775923E+00
 0.8819196703089E+00
 0.9645630593150E+00
 0.1057543230600E+01
 0.1159670492861E+01
 0.1267266115182E+01
 0.1375997238029E+01
 0.1482652606869E+01
 0.1585490164305E+01
 0.1683682257213E+01
 0.1776636294155E+01
 0.1863466230835E+01
 0.1942761272432E+01
 0.2013003449785E+01
 0.2073280862064E+01
 0.2123456351143E+01
 0.2163780272916E+01
 0.2193988921215E+01
 0.2211830246528E+01
 0.2212771081596E+01
 0.2181044244483E+01
 0.2104136207195E+01
 0.1843490701517E+01
 0.1419937668476E+01
 0.4628766325515E+01
 0.2926545418695E+00
 0.3172116191495E+00
 0.3230083958974E+00
 0.3284846225722E+00
 0.3424651649700E+00
 0.3625381226600E+00
 0.3873797413312E+00
 0.4161841347526E+00
 0.4484521709206E+00
 0.4839327492122E+00
 0.5225484521703E+00
 0.5643658205510E+00
 0.6095806997828E+00
 0.6585193690009E+00
 0.7116506239368E+00
 0.7696153959133E+00
 0.8332697634272E+00
 0.9036083015718E+00
 0.9812098090126E+00
 0.1065605198092E+01
 0.1155303477175E+01
 0.1248128834927E+01
 0.1341570402073E+01
 0.1433302118032E+01
 0.1521553430899E+01
 0.1605036524226E+01
 0.1682634069166E+01
 0.1753106604549E+01
 0.1815120086261E+01
 0.1867633298058E+01
 0.1909767539969E+01
 0.1940047785252E+01
 0.1956333074957E+01
 0.1955516558123E+01
 0.1932289132677E+01
 0.1876376998202E+01
 0.1771989811954E+01
 0.1587760015677E+01
 0.1276956866498E+01
 0.1369091831695E+01
 0.4300862252201E+01
 0.3127410013346E+00
 0.3434256283564E+00
 0.3598705315012E+00
 0.3699644930870E+00
 0.3840214124362E+00
 0.4031884230040E+00
 0.4267136520793E+00
 0.4540531722668E+00
 0.4848123212802E+00
 0.5187676182226E+00
 0.5558413248716E+00
 0.5960814384414E+00
 0.6396518460906E+00
 0.6868303179009E+00
 0.7380099755337E+00
 0.7937042136853E+00
 0.8545124633925E+00
 0.9208764920899E+00
 0.9925497595695E+00
 0.1068409757841E+01
 0.1147006026298E+01
 0.1226971919265E+01
 0.1306836055736E+01
 0.1384930249637E+01
 0.1459611552913E+01
 0.1529394251279E+01
 0.1592887549338E+01
 0.1648713859159E+01
 0.1695627987507E+01
 0.1732677279181E+01
 0.1758725749471E+01
 0.1771560120770E+01
 0.1767837721459E+01
 0.1743151717352E+01
 0.1691075306364E+01
 0.1602314082433E+01
 0.1465485828972E+01
 0.1270413064315E+01
 0.1104579083066E+01
 0.1685261327803E+01
 0.4001110672139E+01
 0.3368616960647E+00
 0.3699951925968E+00
 0.3927225671549E+00
 0.4075522759096E+00
 0.4228283613948E+00
 0.4416489748801E+00
 0.4642244345210E+00
 0.4903136997012E+00
 0.5196723183281E+00
 0.5521330170908E+00
 0.5876308706737E+00
 0.6262009766910E+00
 0.6679738548365E+00
 0.7131706106211E+00
 0.7620924199728E+00
 0.8150955225125E+00
 0.8724874674156E+00
 0.9342316883512E+00
 0.9995796312994E+00
 0.1067170953370E+01
 0.1135697333209E+01
 0.1204258290161E+01
 0.1271985014660E+01
 0.1337677520783E+01
 0.1399882148350E+01
 0.1457086172026E+01
 0.1507809972929E+01
 0.1550663428298E+01
 0.1584463150422E+01
 0.1608219719558E+01
 0.1620587834840E+01
 0.1619066997578E+01
 0.1600022570252E+01
 0.1559016799788E+01
 0.1490764098796E+01
 0.1390117678791E+01
 0.1256351710410E+01
 0.1117342179891E+01
 0.1157169480269E+01
 0.1968123493472E+01
 0.3750618446190E+01
 0.3628077556509E+00
 0.3970188486716E+00
 0.4233995591432E+00
 0.4420882519406E+00
 0.4590696410260E+00
 0.4780102280516E+00
 0.4999372001091E+00
 0.5249705557804E+00
 0.5530322358521E+00
 0.5840310334857E+00
 0.6179254550610E+00
 0.6547422464836E+00
 0.6945779026226E+00
 0.7375912476515E+00
 0.7839808391414E+00
 0.8339318897186E+00
 0.8874734138965E+00
 0.9442088575577E+00
 0.1003118028823E+01
 0.1062802926239E+01
 0.1122116198922E+01
 0.1180441004463E+01
 0.1237267101107E+01
 0.1291727769751E+01
 0.1342575752701E+01
 0.1388378578174E+01
 0.1427691976380E+01
 0.1459188061567E+01
 0.1481745040140E+01
 0.1494350294205E+01
 0.1495603836330E+01
 0.1483099319528E+01
 0.1453581152991E+01
 0.1403617758610E+01
 0.1330529718422E+01
 0.1235123657883E+01
 0.1131038654099E+01
 0.1081037551994E+01
 0.1301789901541E+01
 0.2161300465172E+01
 0.3549575182604E+01
 0.3895021666833E+00
 0.4242296384419E+00
 0.4527499638003E+00
 0.4743230027047E+00
 0.4930371621638E+00
 0.5123923921078E+00
 0.5339104001151E+00
 0.5580516361696E+00
 0.5849103501897E+00
 0.6144795287047E+00
 0.6467483964594E+00
 0.6817387951589E+00
 0.7195133370775E+00
 0.7601658919116E+00
 0.8037884746953E+00
 0.8503987752896E+00
 0.8997891022838E+00
 0.9513177133205E+00
 0.1003843454596E+01
 0.1056025404116E+01
 0.1106869085930E+01
 0.1155940676113E+01
 0.1202952130613E+01
 0.1247280843076E+01
 0.1287884840653E+01
 0.1323475814132E+01
 0.1352724096503E+01
 0.1374415339989E+01
 0.1387518140440E+01
 0.1391070995394E+01
 0.1383795730881E+01
 0.1363685808188E+01
 0.1328348533691E+01
 0.1276047856999E+01
 0.1207488845631E+01
 0.1130304530487E+01
 0.1072268109265E+01
 0.1118231931169E+01
 0.1459902415000E+01
 0.2283793537422E+01
 0.3389460647511E+01
 0.4163817642378E+00
 0.4513677510088E+00
 0.4811518809539E+00
 0.5047947148323E+00
 0.5250448425190E+00
 0.5449451004532E+00
 0.5662244659592E+00
 0.5896047262912E+00
 0.6153410702449E+00
 0.6435107665063E+00
 0.6741368497218E+00
 0.7072386582661E+00
 0.7428459093422E+00
 0.7809879334996E+00
 0.8216533254279E+00
 0.8647092022068E+00
 0.9097636915319E+00
 0.9560247621360E+00
 0.1002324757571E+01
 0.1047422638998E+01
 0.1090462373098E+01
 0.1131137220931E+01
 0.1169305840201E+01
 0.1204533408616E+01
 0.1235975851317E+01
 0.1262524755155E+01
 0.1283014515692E+01
 0.1296384609457E+01
 0.1301739108240E+01
 0.1298259837337E+01
 0.1284949647287E+01
 0.1260428955209E+01
 0.1223481057007E+01
 0.1174436101520E+01
 0.1117690207400E+01
 0.1067586235800E+01
 0.1062886649411E+01
 0.1193584580854E+01
 0.1601428534040E+01
 0.2359238289390E+01
 0.3261028813272E+01
 0.4431391356247E+00
 0.4782434208707E+00
 0.5087716350832E+00
 0.5338636598227E+00
 0.5553748720845E+00
 0.5758320789232E+00
 0.5969756702513E+00
 0.6196930218951E+00
 0.6443727943190E+00
 0.6711698296878E+00
 0.7001404672706E+00
 0.7313028523907E+00
 0.7646556541627E+00
 0.8001670578681E+00
 0.8377313825519E+00
 0.8770900430309E+00
 0.9177192736020E+00
 0.9587494264491E+00
 0.9990439438862E+00
 0.1037479101875E+01
 0.1073323783805E+01
 0.1106367763540E+01
 0.1136575692217E+01
 0.1163666121435E+01
 0.1186984130472E+01
 0.1205619483137E+01
 0.1218601249546E+01
 0.1225056110073E+01
 0.1224272793071E+01
 0.1215663650767E+01
 0.1198638387437E+01
 0.1172595783475E+01
 0.1137663370541E+01
 0.1096373363983E+01
 0.1056746074171E+01
 0.1038827595407E+01
 0.1087285965329E+01
 0.1283365700014E+01
 0.1719335652709E+01
 0.2404896494737E+01
 0.3156818233020E+01
 0.4696031121526E+00
 0.5047321800287E+00
 0.5356839125290E+00
 0.5617682049202E+00
 0.5842613511707E+00
 0.6052157132501E+00
 0.6262700435776E+00
 0.6483912694223E+00
 0.6720655106566E+00
 0.6975129519710E+00
 0.7248198990871E+00
 0.7540036818641E+00
 0.7850345522478E+00
 0.8178254987339E+00
 0.8521899471678E+00
 0.8877716238469E+00
 0.9239615454662E+00
 0.9598657369972E+00
 0.9944130284794E+00
 0.1026602366383E+01
 0.1055816976722E+01
 0.1081927234104E+01
 0.1104982975144E+01
 0.1124835704101E+01
 0.1141011328617E+01
 0.1152805627900E+01
 0.1159460972970E+01
 0.1160318416427E+01
 0.1154896249841E+01
 0.1142908734414E+01
 0.1124261143929E+01
 0.1099215896262E+01
 0.1069303071271E+01
 0.1039220197380E+01
 0.1020218332656E+01
 0.1036301449442E+01
 0.1132546079554E+01
 0.1374299545074E+01
 0.1814954973016E+01
 0.2432020814556E+01
 0.3071301316129E+01
 0.4956790616552E+00
 0.5307587433307E+00
 0.5619263178640E+00
 0.5886694074600E+00
 0.6118924787431E+00
 0.6332477284566E+00
 0.6542176248611E+00
 0.6757823453143E+00
 0.6984884330283E+00
 0.7226057545682E+00
 0.7482451764205E+00
 0.7754229054152E+00
 0.8040840586794E+00
 0.8340942674421E+00
 0.8652017928898E+00
 0.8969804993256E+00
 0.9287753298484E+00
 0.9597059863916E+00
 0.9887865346672E+00
 0.1015138492306E+01
 0.1038251880670E+01
 0.1058070220116E+01
 0.1074718962401E+01
 0.1088170731875E+01
 0.1098124799352E+01
 0.1104084625773E+01
 0.1105516525256E+01
 0.1101996668270E+01
 0.1093309035722E+01
 0.1079521927034E+01
 0.1061090738457E+01
 0.1039174208766E+01
 0.1016681843750E+01
 0.1000298340023E+01
 0.1003816969814E+01
 0.1053033014604E+01
 0.1189068074901E+01
 0.1460021344278E+01
 0.1891960035560E+01
 0.2447713672979E+01
 0.3000473517156E+01
 0.5213172303345E+00
 0.5562824638666E+00
 0.5875236412307E+00
 0.6146810896822E+00
 0.6384190055332E+00
 0.6600654590181E+00
 0.6809280616814E+00
 0.7019542471922E+00
 0.7237178095273E+00
 0.7465214887058E+00
 0.7704940590254E+00
 0.7956498650171E+00
 0.8219126487078E+00
 0.8491096684236E+00
 0.8769404857819E+00
 0.9049347620915E+00
 0.9324229030844E+00
 0.9585648399189E+00
 0.9824708934393E+00
 0.1003382820801E+01
 0.1020892335147E+01
 0.1035013396701E+01
 0.1045943633975E+01
 0.1053770000308E+01
 0.1058358435608E+01
 0.1059418038574E+01
 0.1056644031126E+01
 0.1049861967972E+01
 0.1039147346461E+01
 0.1024956135548E+01
 0.1008320108581E+01
 0.9912865535015E+00
 0.9780557498763E+00
 0.9769929020977E+00
 0.1003518926067E+01
 0.1083095003386E+01
 0.1250369339299E+01
 0.1538055067986E+01
 0.1954186520691E+01
 0.2456439780088E+01
 0.2941416482207E+01
 0.5464951178479E+00
 0.5812864763464E+00
 0.6124982188282E+00
 0.6398888023882E+00
 0.6639633211199E+00
 0.6857915852369E+00
 0.7065078053638E+00
 0.7269975994771E+00
 0.7478349407600E+00
 0.7693393427187E+00
 0.7916503941445E+00
 0.8147796402534E+00
 0.8386334906299E+00
 0.8630102651940E+00
 0.8875768412334E+00
 0.9118411948032E+00
 0.9351438890599E+00
 0.9567032945769E+00
 0.9757316508935E+00
 0.9915878825664E+00
 0.1003962022442E+01
 0.1012938259300E+01
 0.1018786069346E+01
 0.1021702712318E+01
 0.1021714614209E+01
 0.1018732137214E+01
 0.1012680122420E+01
 0.1003641705488E+01
 0.9919998491610E+00
 0.9786160165363E+00
 0.9651021551645E+00
 0.9543534088295E+00
 0.9517126476986E+00
 0.9668068022886E+00
 0.1015674055807E+01
 0.1121758051223E+01
 0.1312400401596E+01
 0.1607915365746E+01
 0.2004955946863E+01
 0.2461026545486E+01
 0.2891962039602E+01
 0.5712072544261E+00
 0.6057700875484E+00
 0.6368739683959E+00
 0.6643613920116E+00
 0.6886271705704E+00
 0.7105355748452E+00
 0.7310586516713E+00
 0.7510037477290E+00
 0.7709244583548E+00
 0.7911428769914E+00
 0.8118025564597E+00
 0.8329113088952E+00
 0.8543623493740E+00
 0.8759343772684E+00
 0.8972763796232E+00
 0.9178937105278E+00
 0.9371559963221E+00
 0.9543522702345E+00
 0.9687991098343E+00
 0.9799694164062E+00
 0.9876492605679E+00
 0.9919939680100E+00
 0.9933458647677E+00
 0.9920098419361E+00
 0.9881668759205E+00
 0.9819226812074E+00
 0.9734291908520E+00
 0.9630300694257E+00
 0.9514232208532E+00
 0.9398806297423E+00
 0.9305798230340E+00
 0.9271931855046E+00
 0.9360023394968E+00
 0.9674012300859E+00
 0.1037095985196E+01
 0.1165454730084E+01
 0.1372807205201E+01
 0.1670050630984E+01
 0.2046954657657E+01
 0.2463287628243E+01
 0.2850457217271E+01
 0.5954590539818E+00
 0.6297435616878E+00
 0.6606776072694E+00
 0.6881579128310E+00
 0.7124975797331E+00
 0.7343957207027E+00
 0.7546772121519E+00
 0.7740634014334E+00
 0.7930728786705E+00
 0.8120186134109E+00
 0.8310420055618E+00
 0.8501463589140E+00
 0.8692157674919E+00
 0.8880180982406E+00
 0.9061975908607E+00
 0.9232726638892E+00
 0.9386561830004E+00
 0.9517157960657E+00
 0.9618728579213E+00
 0.9687111372107E+00
 0.9721110412864E+00
 0.9723002338448E+00
 0.9696952011192E+00
 0.9647062809064E+00
 0.9576631165549E+00
 0.9488598318487E+00
 0.9386705155000E+00
 0.9276980874807E+00
 0.9169560253465E+00
 0.9081214021532E+00
 0.9039062595806E+00
 0.9086606618327E+00
 0.9293549619640E+00
 0.9766347703153E+00
 0.1065111613770E+01
 0.1211615145920E+01
 0.1430334547110E+01
 0.1725286292942E+01
 0.2082298027607E+01
 0.2464409181025E+01
 0.2815605682896E+01
 0.6192630006129E+00
 0.6532245668317E+00
 0.6839386736785E+00
 0.7113316857135E+00
 0.7356511581871E+00
 0.7574611793040E+00
 0.7774549323106E+00
 0.7962657133961E+00
 0.8143674093559E+00
 0.8320547775844E+00
 0.8494619685793E+00
 0.8665872631314E+00
 0.8833095211766E+00
 0.8993937690322E+00
 0.9144908124157E+00
 0.9281447264167E+00
 0.9398220074854E+00
 0.9489738200270E+00
 0.9551255006475E+00
 0.9579686671350E+00
 0.9574765704561E+00
 0.9539502273407E+00
 0.9478813432165E+00
 0.9397835227499E+00
 0.9301291392767E+00
 0.9193931230922E+00
 0.9081650865246E+00
 0.8973027139883E+00
 0.8881301954772E+00
 0.8827151091977E+00
 0.8842570181111E+00
 0.8976573416589E+00
 0.9302972067428E+00
 0.9925973036959E+00
 0.1097558611520E+01
 0.1258456304289E+01
 0.1484402079393E+01
 0.1774539625620E+01
 0.2112638093169E+01
 0.2465196874693E+01
 0.2786362927910E+01
 0.6426362137455E+00
 0.6762357506499E+00
 0.7066891000926E+00
 0.7339326426613E+00
 0.7581571271133E+00
 0.7798137629949E+00
 0.7994783999742E+00
 0.8176976995330E+00
 0.8348950022839E+00
 0.8513402178184E+00
 0.8671562827867E+00
 0.8823362507091E+00
 0.8967573637375E+00
 0.9101888588694E+00
 0.9222975834193E+00
 0.9326631364487E+00
 0.9408130435922E+00
 0.9462846949431E+00
 0.9487058120818E+00
 0.9478728730516E+00
 0.9438504334588E+00
 0.9370134368881E+00
 0.9279293417966E+00
 0.9172126021698E+00
 0.9054723066022E+00
 0.8933562313253E+00
 0.8816617741052E+00
 0.8714944771577E+00
 0.8644797302188E+00
 0.8630523522036E+00
 0.8708369781701E+00
 0.8931389142839E+00
 0.9374686655637E+00
 0.1013630473667E+01
 0.1132741053476E+01
 0.1304781886917E+01
 0.1534823670169E+01
 0.1818674188408E+01
 0.2139258085542E+01
 0.2466245940893E+01
 0.2761871138563E+01
 0.6655988492680E+00
 0.6988030798948E+00
 0.7289626690708E+00
 0.7560086464257E+00
 0.7800794006019E+00
 0.8015294029417E+00
 0.8208297666507E+00
 0.8384438943662E+00
 0.8547416151445E+00
 0.8699634928863E+00
 0.8842183996236E+00
 0.8974942730136E+00
 0.9096700314141E+00
 0.9205251821286E+00
 0.9297503488553E+00
 0.9369681846276E+00
 0.9417722895936E+00
 0.9437873940329E+00
 0.9427414562222E+00
 0.9385327792703E+00
 0.9313154809518E+00
 0.9215384529792E+00
 0.9098448169465E+00
 0.8969471331976E+00
 0.8835851466157E+00
 0.8705714049777E+00
 0.8589026824149E+00
 0.8499235651405E+00
 0.8455468331752E+00
 0.8485427403228E+00
 0.8628846861112E+00
 0.8941225692626E+00
 0.9496362619352E+00
 0.1038330736160E+01
 0.1169362302543E+01
 0.1349816253430E+01
 0.1581633945690E+01
 0.1858425745153E+01
 0.2163121747226E+01
 0.2468067400081E+01
 0.2741429551632E+01
 0.6881730115992E+00
 0.7209547130144E+00
 0.7507944852299E+00
 0.7776061998914E+00
 0.8014779937691E+00
 0.8226792888715E+00
 0.8415871817612E+00
 0.8585861624611E+00
 0.8739916458288E+00
 0.8880121183894E+00
 0.9007405482695E+00
 0.9121601567434E+00
 0.9221544836866E+00
 0.9305183883716E+00
 0.9369724196187E+00
 0.9411878444601E+00
 0.9428275363867E+00
 0.9416035028687E+00
 0.9373413838320E+00
 0.9300381625056E+00
 0.9199354883649E+00
 0.9075556499542E+00
 0.8936167243727E+00
 0.8789263148259E+00
 0.8643487816285E+00
 0.8508534328504E+00
 0.8396276008243E+00
 0.8322444140506E+00
 0.8308859963438E+00
 0.8386180761376E+00
 0.8596759595827E+00
 0.8996945082175E+00
 0.9657037611183E+00
 0.1065536607599E+01
 0.1206452072655E+01
 0.1393077212202E+01
 0.1624984112425E+01
 0.1894396617469E+01
 0.2184831200890E+01
 0.2471176744632E+01
 0.2724501956644E+01
 0.7103819456408E+00
 0.7427203370714E+00
 0.7722204472326E+00
 0.7987708194564E+00
 0.8224099576913E+00
 0.8433307289440E+00
 0.8618251889036E+00
 0.8782036078045E+00
 0.8927275060497E+00
 0.9055719571111E+00
 0.9168130506529E+00
 0.9264299307012E+00
 0.9343133472864E+00
 0.9402776705200E+00
 0.9440781169745E+00
 0.9454384877147E+00
 0.9440926784163E+00
 0.9398390259817E+00
 0.9325979767005E+00
 0.9224618982257E+00
 0.9097576198849E+00
 0.8950797406154E+00
 0.8792200312530E+00
 0.8630778065807E+00
 0.8476360837961E+00
 0.8340130828832E+00
 0.8235775635349E+00
 0.8181190174897E+00
 0.8200666570473E+00
 0.8327346197905E+00
 0.8605275665252E+00
 0.9090166662276E+00
 0.9847145942259E+00
 0.1094305180451E+01
 0.1243297708810E+01
 0.1434285043920E+01
 0.1665075136415E+01
 0.1927098980680E+01
 0.2204651829991E+01
 0.2475792784833E+01
 0.2710940370598E+01
 0.7322463932179E+00
 0.7641212679450E+00
 0.7932625920749E+00
 0.8195282050775E+00
 0.8429063643002E+00
 0.8635198455299E+00
 0.8815831840982E+00
 0.8973373056011E+00
 0.9109915135240E+00
 0.9226874359740E+00
 0.9324842471607E+00
 0.9403580473227E+00
 0.9462092064923E+00
 0.9498750342542E+00
 0.9511489663746E+00
 0.9498098299389E+00
 0.9456629538372E+00
 0.9385910586068E+00
 0.9286058224944E+00
 0.9158910109170E+00
 0.9008554418950E+00
 0.8841638843480E+00
 0.8666793964852E+00
 0.8493886541499E+00
 0.8333864767098E+00
 0.8199310584885E+00
 0.8105615536657E+00
 0.8072680455329E+00
 0.8126986114707E+00
 0.8303616838126E+00
 0.8647379000478E+00
 0.9212076983122E+00
 0.1005657853416E+01
 0.1123629386508E+01
 0.1279083731097E+01
 0.1472973161717E+01
 0.1701828603622E+01
 0.1956680106957E+01
 0.2222778576656E+01
 0.2480553156246E+01
 0.2705467717819E+01
 0.7537947713870E+00
 0.7851898542533E+00
 0.8139596770401E+00
 0.8399243315938E+00
 0.8630218831066E+00
 0.8833097113352E+00
 0.9009311061847E+00
 0.9160622789422E+00
 0.9288625475606E+00
 0.9394408102616E+00
 0.9478398025126E+00
 0.9540337027712E+00
 0.9579345349393E+00
 0.9594051796810E+00
 0.9582797597742E+00
 0.9543934829528E+00
 0.9476226125891E+00
 0.9379317996271E+00
 0.9254201924590E+00
 0.9103588407480E+00
 0.8932350944786E+00
 0.8747813929867E+00
 0.8559293880079E+00
 0.8377487507371E+00
 0.8214395313575E+00
 0.8083912667306E+00
 0.8003022321118E+00
 0.7993458532541E+00
 0.8083580343685E+00
 0.8309856553033E+00
 0.8716989456287E+00
 0.9355877997435E+00
 0.1027854681764E+01
 0.1152954120399E+01
 0.1313509934032E+01
 0.1509169671748E+01
 0.1735555813369E+01
 0.1983572210932E+01
 0.2239427664544E+01
 0.2485522171489E+01
 0.2702974334452E+01
 0.7750518980896E+00
 0.8059643305844E+00
 0.8343608659441E+00
 0.8600204242521E+00
 0.8828306055672E+00
 0.9027869745986E+00
 0.9199666342376E+00
 0.9344851828481E+00
 0.9464542510969E+00
 0.9559509983436E+00
 0.9630023370196E+00
 0.9675814725726E+00
 0.9696135935510E+00
 0.9689889717084E+00
 0.9655839331477E+00
 0.9592905562910E+00
 0.9500549962620E+00
 0.9379212709463E+00
 0.9230724712626E+00
 0.9058631811457E+00
 0.8868561650098E+00
 0.8668493171991E+00
 0.8468405637864E+00
 0.8279789355685E+00
 0.8115643117114E+00
 0.7991103246748E+00
 0.7924642220356E+00
 0.7939659266725E+00
 0.8066081886458E+00
 0.8341230502438E+00
 0.8808954335395E+00
 0.9516513969542E+00
 0.1050886790536E+01
 0.1182048020462E+01
 0.1346612988188E+01
 0.1543193061624E+01
 0.1766774755079E+01
 0.2008313119092E+01
 0.2254934960517E+01
 0.2490968219280E+01
 0.2700589935248E+01
 0.7960425206484E+00
 0.8264750727825E+00
 0.8545020435760E+00
 0.8798586027297E+00
 0.9023816608466E+00
 0.9220077765193E+00
 0.9387520735196E+00
 0.9526732830087E+00
 0.9638377907821E+00
 0.9722923646289E+00
 0.9780489857811E+00
 0.9810808565821E+00
 0.9813275520544E+00
 0.9787079937634E+00
 0.9731415076782E+00
 0.9645768221738E+00
 0.9530284008051E+00
 0.9386167613643E+00
 0.9216052688247E+00
 0.9024281718579E+00
 0.8817203675072E+00
 0.8603427730806E+00
 0.8393570831375E+00
 0.8199880215690E+00
 0.8036299940039E+00
 0.7919134431059E+00
 0.7868238369113E+00
 0.7908493796975E+00
 0.8071075390465E+00
 0.8393648679478E+00
 0.8918584847336E+00
 0.9689027896759E+00
 0.1074295158051E+01
 0.1210568461040E+01
 0.1378231949252E+01
 0.1575083331103E+01
 0.1795680936169E+01
 0.2031147831667E+01
 0.2269509742220E+01
 0.2496795679133E+01
 0.2699349638595E+01
 0.8167911419302E+00
 0.8467521771411E+00
 0.8744186346382E+00
 0.8994801173262E+00
 0.9217227099382E+00
 0.9410262068664E+00
 0.9573472807155E+00
 0.9706911797306E+00
 0.9810815110260E+00
 0.9885362143767E+00
 0.9930534094110E+00
 0.9946072497978E+00
 0.9931526550469E+00
 0.9886379745315E+00
 0.9810257330943E+00
 0.9703205133808E+00
 0.9566030756291E+00
 0.9400673308112E+00
 0.9210531341170E+00
 0.9000704353041E+00
 0.8778228609649E+00
 0.8552317636542E+00
 0.8334199657303E+00
 0.8136841930662E+00
 0.7975081157922E+00
 0.7866315670670E+00
 0.7831668800959E+00
 0.7897313730588E+00
 0.8095352583235E+00
 0.8463337910935E+00
 0.9041676434071E+00
 0.9869143938288E+00
 0.1097702823885E+01
 0.1238252744786E+01
 0.1408263340444E+01
 0.1604900793129E+01
 0.1822452355358E+01
 0.2052288637832E+01
 0.2283296749793E+01
 0.2502974311001E+01
 0.2699292002128E+01
 0.8373219429553E+00
 0.8668252976595E+00
 0.8941454805248E+00
 0.9189253006134E+00
 0.9408999935759E+00
 0.9598944148925E+00
 0.9758097636078E+00
 0.9886008443588E+00
 0.9982508972542E+00
 0.1004750710466E+01
 0.1008085712731E+01
 0.1008231920901E+01
 0.1005160319122E+01
 0.9988490547211E+00
 0.9893035577858E+00
 0.9765830061792E+00
 0.9608321058466E+00
 0.9423148655482E+00
 0.9214437559262E+00
 0.8988003960858E+00
 0.8751536580148E+00
 0.8514826344656E+00
 0.8289685351214E+00
 0.8089763633582E+00
 0.7930737701627E+00
 0.7831023576148E+00
 0.7812894516145E+00
 0.7903619093699E+00
 0.8135921539961E+00
 0.8546848109040E+00
 0.9174494606269E+00
 0.1005320570181E+01
 0.1120802440203E+01
 0.1264901340370E+01
 0.1436645075873E+01
 0.1632715825569E+01
 0.1847247943567E+01
 0.2071908742645E+01
 0.2296390519486E+01
 0.2509434081051E+01
 0.2700301579904E+01
 0.8576587127520E+00
 0.8867235465909E+00
 0.9137167402548E+00
 0.9382335228288E+00
 0.9599583623221E+00
 0.9786626913968E+00
 0.9941947644062E+00
 0.1006461662499E+01
 0.1015408568864E+01
 0.1021000836119E+01
 0.1023212417324E+01
 0.1022022044017E+01
 0.1017417273598E+01
 0.1009406078588E+01
 0.9980360972139E+00
 0.9834194715175E+00
 0.9657622342028E+00
 0.9453950491566E+00
 0.9227990593002E+00
 0.8986234780924E+00
 0.8736988918766E+00
 0.8490593673055E+00
 0.8259416815338E+00
 0.8057753394145E+00
 0.7902066123991E+00
 0.7811710209562E+00
 0.7809986614752E+00
 0.7925065573917E+00
 0.8190013764584E+00
 0.8641052418251E+00
 0.9313751491673E+00
 0.1023810994199E+01
 0.1143344967002E+01
 0.1290364168894E+01
 0.1463344315376E+01
 0.1658602020982E+01
 0.1870205959850E+01
 0.2090144699296E+01
 0.2308844852259E+01
 0.2516095920371E+01
 0.2702227658072E+01
 0.8778247912792E+00
 0.9064754252807E+00
 0.9331658175888E+00
 0.9574431542703E+00
 0.9789412965197E+00
 0.9973795322950E+00
 0.1012555331367E+01
 0.1024330482136E+01
 0.1032614294647E+01
 0.1037348393044E+01
 0.1038496475510E+01
 0.1036040770222E+01
 0.1029985731387E+01
 0.1020368898410E+01
 0.1007279092291E+01
 0.9908794908694E+00
 0.9714346237363E+00
 0.9493382536284E+00
 0.9251362041381E+00
 0.8995411866948E+00
 0.8734419510433E+00
 0.8479247250497E+00
 0.8242789632092E+00
 0.8039948226217E+00
 0.7887917182384E+00
 0.7806910262706E+00
 0.7821132705222E+00
 0.7959470774688E+00
 0.8255088442651E+00
 0.8743141467484E+00
 0.9456575745689E+00
 0.1042124010619E+01
 0.1165129707460E+01
 0.1314529525583E+01
 0.1488348413949E+01
 0.1682631526008E+01
 0.1891444268975E+01
 0.2107101599629E+01
 0.2320688228048E+01
 0.2522881857305E+01
 0.2704914635332E+01
 0.8978430258844E+00
 0.9261087740997E+00
 0.9525253075499E+00
 0.9765915348117E+00
 0.9978909184578E+00
 0.1016091686370E+01
 0.1030942377183E+01
 0.1042261659113E+01
 0.1049925017957E+01
 0.1053852018676E+01
 0.1053997307260E+01
 0.1050347319447E+01
 0.1042923571156E+01
 0.1031792675203E+01
 0.1017083344867E+01
 0.9990076287788E+00
 0.9778855581669E+00
 0.9541703518181E+00
 0.9284684907476E+00
 0.9015520842591E+00
 0.8743644941312E+00
 0.8480412656296E+00
 0.8239215716152E+00
 0.8035522790341E+00
 0.7887203326047E+00
 0.7815247459279E+00
 0.7844642681833E+00
 0.8004819210914E+00
 0.8328833595580E+00
 0.8850612518546E+00
 0.9600478410881E+00
 0.1060040268677E+01
 0.1185995693765E+01
 0.1337315208170E+01
 0.1511658181015E+01
 0.1704872149211E+01
 0.1911061852893E+01
 0.2122859830649E+01
 0.2331933839936E+01
 0.2529717440156E+01
 0.2708212954968E+01
 0.9177357393247E+00
 0.9456507379831E+00
 0.9718269605519E+00
 0.9957149545948E+00
 0.1016848005265E+01
 0.1034844197355E+01
 0.1049404732890E+01
 0.1060307105399E+01
 0.1067394893724E+01
 0.1070567222088E+01
 0.1069770858001E+01
 0.1064997089815E+01
 0.1056284527674E+01
 0.1043728173334E+01
 0.1027495129433E+01
 0.1007843962892E+01
 0.9851470820533E+00
 0.9599134537674E+00
 0.9328061748023E+00
 0.9046526614738E+00
 0.8764473483361E+00
 0.8493722308854E+00
 0.8248131698646E+00
 0.8043696921678E+00
 0.7898905221648E+00
 0.7835440229636E+00
 0.7878953729118E+00
 0.8059265768093E+00
 0.8409164213244E+00
 0.8961254749320E+00
 0.9743317220104E+00
 0.1077376855455E+01
 0.1205814392803E+01
 0.1358661499221E+01
 0.1533282963079E+01
 0.1725385792848E+01
 0.1929141127312E+01
 0.2137481020912E+01
 0.2342585389917E+01
 0.2536532654104E+01
 0.2711983734775E+01
 0.9375247081079E+00
 0.9651277448357E+00
 0.9911016613836E+00
 0.1014848645789E+01
 0.1035852005163E+01
 0.1053680443612E+01
 0.1067989198844E+01
 0.1078516338564E+01
 0.1085075332461E+01
 0.1087546431177E+01
 0.1085869668333E+01
 0.1080041774862E+01
 0.1070118381242E+01
 0.1056222041382E+01
 0.1038556575703E+01
 0.1017424568877E+01
 0.9932475807290E+00
 0.9665865691940E+00
 0.9381571961410E+00
 0.9088381114013E+00
 0.8796713015928E+00
 0.8518823243415E+00
 0.8269006224981E+00
 0.8063742190796E+00
 0.7922077503890E+00
 0.7866306746792E+00
 0.7922634495805E+00
 0.8121137561806E+00
 0.8494217750592E+00
 0.9073131971371E+00
 0.9883261215062E+00
 0.1093982029904E+01
 0.1224483610911E+01
 0.1378525658119E+01
 0.1553237109599E+01
 0.1744227805399E+01
 0.1945750417016E+01
 0.2151012629110E+01
 0.2352640648570E+01
 0.2543262621582E+01
 0.2716101017907E+01
 0.9572311500387E+00
 0.9845654958384E+00
 0.1010379422471E+01
 0.1034026786927E+01
 0.1054941061080E+01
 0.1072642180500E+01
 0.1086740597118E+01
 0.1096936534780E+01
 0.1103015051302E+01
 0.1104839049290E+01
 0.1102342952637E+01
 0.1095529485241E+01
 0.1084471143243E+01
 0.1069317077431E+01
 0.1050306021947E+01
 0.1027781961911E+01
 0.1002212303367E+01
 0.9742062009018E+00
 0.9445278275455E+00
 0.9141030141163E+00
 0.8840177985987E+00
 0.8555383907747E+00
 0.8301346318631E+00
 0.8094987653815E+00
 0.7955853870733E+00
 0.7906769359440E+00
 0.7974388406683E+00
 0.8188934292645E+00
 0.8582347584033E+00
 0.9184564068406E+00
 0.1001875712699E+01
 0.1109730604859E+01
 0.1241922468851E+01
 0.1396877641807E+01
 0.1571537487850E+01
 0.1761446914568E+01
 0.1960946239248E+01
 0.2163491391658E+01
 0.2362093871271E+01
 0.2549848324664E+01
 0.2720452852262E+01
 0.9768757199894E+00
 0.1003988966007E+01
 0.1029689389297E+01
 0.1053282518288E+01
 0.1074152041130E+01
 0.1091769585069E+01
 0.1105701823752E+01
 0.1115612581640E+01
 0.1121260125952E+01
 0.1122491513204E+01
 0.1119236677334E+01
 0.1111504865360E+01
 0.1099385228798E+01
 0.1083052471167E+01
 0.1062778333377E+01
 0.1038945491270E+01
 0.1012063827926E+01
 0.9827868700240E+00
 0.9519232466462E+00
 0.9204419375833E+00
 0.8894695491126E+00
 0.8603100086141E+00
 0.8344702937035E+00
 0.8136824909011E+00
 0.7999451593999E+00
 0.7955858421676E+00
 0.8033056091849E+00
 0.8261327246538E+00
 0.8672114998957E+00
 0.9294108126680E+00
 0.1014849831423E+01
 0.1124519955800E+01
 0.1258067285809E+01
 0.1413696788227E+01
 0.1588201748016E+01
 0.1777085460751E+01
 0.1974775256263E+01
 0.2174945917786E+01
 0.2370937580900E+01
 0.2556237285615E+01
 0.2724941816137E+01
 0.9964785136796E+00
 0.1023422414549E+01
 0.1049059857470E+01
 0.1072647968352E+01
 0.1093520576798E+01
 0.1111101304190E+01
 0.1124913901158E+01
 0.1134587129500E+01
 0.1139854040474E+01
 0.1140547347868E+01
 0.1136593633226E+01
 0.1128009199131E+01
 0.1114899611194E+01
 0.1097464018452E+01
 0.1076005182674E+01
 0.1050941686686E+01
 0.1022822468184E+01
 0.9923415748203E+00
 0.9603480342834E+00
 0.9278499599231E+00
 0.8960110556353E+00
 0.8661700039428E+00
 0.8398675812896E+00
 0.8188712537920E+00
 0.8052175485105E+00
 0.8012715524097E+00
 0.8097616981474E+00
 0.8337157204255E+00
 0.8762280333089E+00
 0.9400540101416E+00
 0.1027139679576E+01
 0.1138266622770E+01
 0.1272868235874E+01
 0.1428969257895E+01
 0.1603247121621E+01
 0.1791179763943E+01
 0.1987275889321E+01
 0.2185398671158E+01
 0.2379163946291E+01
 0.2562384161256E+01
 0.2729485226500E+01
 0.1016059079294E+01
 0.1042889405346E+01
 0.1068518302078E+01
 0.1092154292659E+01
 0.1113081111052E+01
 0.1130674508723E+01
 0.1144416032951E+01
 0.1153900642629E+01
 0.1158837734968E+01
 0.1159047216916E+01
 0.1154453500356E+01
 0.1145080503238E+01
 0.1131049956925E+01
 0.1112584308123E+01
 0.1090015293566E+01
 0.1063794558530E+01
 0.1034506626065E+01
 0.1002882187294E+01
 0.9698066047198E+00
 0.9363231197206E+00
 0.9036290683792E+00
 0.8730948948537E+00
 0.8462917666374E+00
 0.8250179998703E+00
 0.8113421356277E+00
 0.8076596162245E+00
 0.8167190185031E+00
 0.8415431598005E+00
 0.8851793888955E+00
 0.9502837707873E+00
 0.1038655870910E+01
 0.1150903465387E+01
 0.1286286662169E+01
 0.1442686075871E+01
 0.1616689599859E+01
 0.1803760532742E+01
 0.1998479633129E+01
 0.2194867503133E+01
 0.2386765868485E+01
 0.2568251224140E+01
 0.2734015155379E+01
 0.1035636436869E+01
 0.1062412837211E+01
 0.1088091418697E+01
 0.1111831724295E+01
 0.1132866955514E+01
 0.1150524952516E+01
 0.1164245659034E+01
 0.1173591446609E+01
 0.1178249646114E+01
 0.1178028962733E+01
 0.1172852898456E+01
 0.1162753600847E+01
 0.1147868734757E+01
 0.1128442875326E+01
 0.1104834642918E+01
 0.1077525848672E+01
 0.1047133087430E+01
 0.1014419787199E+01
 0.9803035687215E+00
 0.9458587968644E+00
 0.9123129713193E+00
 0.8810652706802E+00
 0.8537137829868E+00
 0.8320830997533E+00
 0.8182678984905E+00
 0.8146871862210E+00
 0.8241034764758E+00
 0.8495321204170E+00
 0.8939787070371E+00
 0.9600164940644E+00
 0.1049326320389E+01
 0.1162377310783E+01
 0.1298292932858E+01
 0.1454841632011E+01
 0.1628543364162E+01
 0.1814853248776E+01
 0.2008412100062E+01
 0.2203366832358E+01
 0.2393737822558E+01
 0.2573808719037E+01
 0.2738478316760E+01
 0.1055229106056E+01
 0.1082014985036E+01
 0.1107805177626E+01
 0.1131709638081E+01
 0.1152910359222E+01
 0.1170687038865E+01
 0.1184438513280E+01
 0.1193695773699E+01
 0.1198125741577E+01
 0.1197527636532E+01
 0.1191825423260E+01
 0.1181060176298E+01
 0.1165385299903E+01
 0.1145066323326E+01
 0.1120486624305E+01
 0.1092155235931E+01
 0.1060717266228E+01
 0.1026964939214E+01
 0.9918440361498E+00
 0.9564560314027E+00
 0.9220551074717E+00
 0.8900661144404E+00
 0.8621105363538E+00
 0.8400346405562E+00
 0.8259534646198E+00
 0.8223031863704E+00
 0.8318549607525E+00
 0.8576156735438E+00
 0.9025564216241E+00
 0.9691858604750E+00
 0.1059094481492E+01
 0.1172647052417E+01
 0.1308864759283E+01
 0.1465432546599E+01
 0.1638820395256E+01
 0.1824478503866E+01
 0.2017093836192E+01
 0.2210908543186E+01
 0.2400076494340E+01
 0.2579035096669E+01
 0.2742835895795E+01
 0.1074855142369E+01
 0.1101717552300E+01
 0.1127684891866E+01
 0.1151816628948E+01
 0.1173242589286E+01
 0.1191193894328E+01
 0.1205028682941E+01
 0.1214247804340E+01
 0.1218499545555E+01
 0.1217575515078E+01
 0.1211401665073E+01
 0.1200028807283E+01
 0.1183625950386E+01
 0.1162478411636E+01
 0.1136992171815E+01
 0.1107700495838E+01
 0.1075273397616E+01
 0.1040527914747E+01
 0.1004433860342E+01
 0.9681157833859E+00
 0.9328510467924E+00
 0.9000870718384E+00
 0.8714651688611E+00
 0.8488486739987E+00
 0.8343673235239E+00
 0.8304684418481E+00
 0.8399273039967E+00
 0.8657425586397E+00
 0.9108595424519E+00
 0.9777417018739E+00
 0.1067917916565E+01
 0.1181682148217E+01
 0.1317985897782E+01
 0.1474456817083E+01
 0.1647530195890E+01
 0.1832652266247E+01
 0.2024540929914E+01
 0.2217502641386E+01
 0.2405781228661E+01
 0.2583917136082E+01
 0.2747063300623E+01
 0.1094532182757E+01
 0.1121541735519E+01
 0.1147755299279E+01
 0.1172180604590E+01
 0.1193894022952E+01
 0.1212077448492E+01
 0.1226048667258E+01
 0.1235279701093E+01
 0.1239402150708E+01
 0.1238202098580E+01
 0.1231609203772E+01
 0.1219684968802E+01
 0.1202613950243E+01
 0.1180700105826E+01
 0.1154369840237E+01
 0.1124177611719E+01
 0.1090814677899E+01
 0.1055118857035E+01
 0.1018079823689E+01
 0.9808411337428E+00
 0.9446997971594E+00
 0.9111226673528E+00
 0.8817672741392E+00
 0.8585094211340E+00
 0.8434879993252E+00
 0.8391557761202E+00
 0.8482882320404E+00
 0.8738768943309E+00
 0.9188510580573E+00
 0.9856490970944E+00
 0.1075767183193E+01
 0.1189461473843E+01
 0.1325645173170E+01
 0.1481913182623E+01
 0.1654679581449E+01
 0.1839386061183E+01
 0.2030765428584E+01
 0.2223157692165E+01
 0.2410854304407E+01
 0.2588449955729E+01
 0.2751149874442E+01
 0.1114277501320E+01
 0.1141508302330E+01
 0.1168040661193E+01
 0.1192828894923E+01
 0.1214894253469E+01
 0.1233368521693E+01
 0.1247529436684E+01
 0.1256821635824E+01
 0.1260862216894E+01
 0.1259434090042E+01
 0.1252472580734E+01
 0.1240051009807E+01
 0.1222369521131E+01
 0.1199749591198E+01
 0.1172635844497E+01
 0.1141600840526E+01
 0.1107353355174E+01
 0.1070747893727E+01
 0.1032789768781E+01
 0.9946374305741E+00
 0.9576039626587E+00
 0.9231724713011E+00
 0.8930130683532E+00
 0.8690094374614E+00
 0.8533041892875E+00
 0.8483500850084E+00
 0.8569193169718E+00
 0.8819979475392E+00
 0.9265094797848E+00
 0.9928877027979E+00
 0.1082625028228E+01
 0.1195972504452E+01
 0.1331835786540E+01
 0.1487800670681E+01
 0.1660272516930E+01
 0.1844687066459E+01
 0.2035775582496E+01
 0.2227881064927E+01
 0.2415301051931E+01
 0.2592636927523E+01
 0.2755098572265E+01
 0.1134108076249E+01
 0.1161637684667E+01
 0.1188564879098E+01
 0.1213788379792E+01
 0.1236272210579E+01
 0.1255096920486E+01
 0.1269500491378E+01
 0.1278901807819E+01
 0.1282905953720E+01
 0.1281295352839E+01
 0.1274013244527E+01
 0.1261146099734E+01
 0.1242909800032E+01
 0.1219642248664E+01
 0.1191804057282E+01
 0.1159982732913E+01
 0.1124900770628E+01
 0.1087425197248E+01
 0.1048572675608E+01
 0.1009512381423E+01
 0.9715698496350E+00
 0.9362412181563E+00
 0.9052055170902E+00
 0.8803497392167E+00
 0.8638148708735E+00
 0.8580483938681E+00
 0.8658159446488E+00
 0.8900999738733E+00
 0.9338285374344E+00
 0.9994513203360E+00
 0.1088485876486E+01
 0.1201210799229E+01
 0.1336554874829E+01
 0.1492118295001E+01
 0.1664309980208E+01
 0.1848558118056E+01
 0.2039575924232E+01
 0.2231678996484E+01
 0.2419129821652E+01
 0.2596489500093E+01
 0.2758925608612E+01
 0.1154040669352E+01
 0.1181950089013E+01
 0.1209351631867E+01
 0.1235085637244E+01
 0.1258056297186E+01
 0.1277291541297E+01
 0.1291989918241E+01
 0.1301546451207E+01
 0.1305557084828E+01
 0.1303806844378E+01
 0.1296249468543E+01
 0.1282986143595E+01
 0.1264248762339E+01
 0.1240390592685E+01
 0.1211885965238E+01
 0.1179334108377E+01
 0.1143467351611E+01
 0.1105160994209E+01
 0.1065438686070E+01
 0.1025476092570E+01
 0.9866075212721E+00
 0.9503388766294E+00
 0.9183544186679E+00
 0.8925398921592E+00
 0.8750293804866E+00
 0.8682599039041E+00
 0.8749873055537E+00
 0.8981921391597E+00
 0.9408170335573E+00
 0.1005347699059E+01
 0.1093355606169E+01
 0.1205179773537E+01
 0.1339803303626E+01
 0.1494864888348E+01
 0.1666789841899E+01
 0.1850997625590E+01
 0.2042167190218E+01
 0.2234556481561E+01
 0.2422351811122E+01
 0.2600026937643E+01
 0.2762660083840E+01
 0.1174091919783E+01
 0.1202465626167E+01
 0.1230424536401E+01
 0.1256747115042E+01
 0.1280274543926E+01
 0.1299980482578E+01
 0.1315024445458E+01
 0.1324779829691E+01
 0.1328836791537E+01
 0.1326986523598E+01
 0.1319196238767E+01
 0.1305583664445E+01
 0.1286397109732E+01
 0.1262004171246E+01
 0.1232890584165E+01
 0.1199663986209E+01
 0.1163062557402E+01
 0.1123965524758E+01
 0.1083399076509E+01
 0.1042541055747E+01
 0.1002730800677E+01
 0.9654806711987E+00
 0.9324764436579E+00
 0.9055980634663E+00
 0.8869674661591E+00
 0.8790060319525E+00
 0.8844564147363E+00
 0.9062985274153E+00
 0.9474988591063E+00
 0.1010598574966E+01
 0.1097251606235E+01
 0.1207890751420E+01
 0.1341585685092E+01
 0.1496039063096E+01
 0.1667706758150E+01
 0.1851999398042E+01
 0.2043546088075E+01
 0.2236516994977E+01
 0.2424980754588E+01
 0.2603275979577E+01
 0.2766343595336E+01
 0.1194278453972E+01
 0.1223204463381E+01
 0.1251807335084E+01
 0.1278799328422E+01
 0.1302954783300E+01
 0.1323191165301E+01
 0.1338629492688E+01
 0.1348624215663E+01
 0.1352763632565E+01
 0.1350849229286E+01
 0.1342865109230E+01
 0.1328947651418E+01
 0.1309362121661E+01
 0.1284489427132E+01
 0.1254824332828E+01
 0.1220979472061E+01
 0.1183694777499E+01
 0.1143848951601E+01
 0.1102466177649E+01
 0.1060722081150E+01
 0.1019957220844E+01
 0.9816870531225E+00
 0.9475951287895E+00
 0.9195510357432E+00
 0.8996593146421E+00
 0.8903204455619E+00
 0.8942601629256E+00
 0.9144582359732E+00
 0.9539131691331E+00
 0.1015239942522E+01
 0.1100203114587E+01
 0.1209363299203E+01
 0.1341910623202E+01
 0.1495639302378E+01
 0.1667052078843E+01
 0.1851552381655E+01
 0.2043704910867E+01
 0.2237562045976E+01
 0.2427032476008E+01
 0.2606270424131E+01
 0.2770029840622E+01
 0.1214617014203E+01
 0.1244187002492E+01
 0.1273524114330E+01
 0.1301269087876E+01
 0.1326124845496E+01
 0.1346950461756E+01
 0.1362829215004E+01
 0.1373099850775E+01
 0.1377353436775E+01
 0.1375406526681E+01
 0.1367264023467E+01
 0.1353083372493E+01
 0.1333147470244E+01
 0.1307849520791E+01
 0.1277690865902E+01
 0.1243285600756E+01
 0.1205371183032E+01
 0.1164821219006E+01
 0.1122653241816E+01
 0.1080036176013E+01
 0.1038307920093E+01
 0.9989836190836E+00
 0.9637408234276E+00
 0.9344341820431E+00
 0.9131455529241E+00
 0.9022490941079E+00
 0.9044493987662E+00
 0.9227255555065E+00
 0.9601147147362E+00
 0.1019322557664E+01
 0.1102251840494E+01
 0.1209625849926E+01
 0.1340791199830E+01
 0.1493664195016E+01
 0.1664813780656E+01
 0.1849640314155E+01
 0.2042630997886E+01
 0.2237690562302E+01
 0.2428524304137E+01
 0.2609050638304E+01
 0.2773784220762E+01
 0.1235124608814E+01
 0.1265434088442E+01
 0.1295599559427E+01
 0.1324183761477E+01
 0.1349812778311E+01
 0.1371284832364E+01
 0.1387646538130E+01
 0.1398224884445E+01
 0.1402619165562E+01
 0.1400666519832E+01
 0.1392397100550E+01
 0.1377992151551E+01
 0.1357752998865E+01
 0.1332084115484E+01
 0.1301490866969E+01
 0.1266585136282E+01
 0.1228097532058E+01
 0.1186891862251E+01
 0.1143974257332E+01
 0.1100502367910E+01
 0.1057807481350E+01
 0.1017400975205E+01
 0.9809505862192E+00
 0.9502913999715E+00
 0.9274772230221E+00
 0.9148502348678E+00
 0.9150890394341E+00
 0.9311702291678E+00
 0.9661743240909E+00
 0.1022912668797E+01
 0.1103452877734E+01
 0.1208716635963E+01
 0.1338245725564E+01
 0.1490112837370E+01
 0.1660976440881E+01
 0.1846241300984E+01
 0.2040306039138E+01
 0.2236898097592E+01
 0.2429474344782E+01
 0.2611662994546E+01
 0.2777683451436E+01
 0.1255818687637E+01
 0.1286967253415E+01
 0.1318059251636E+01
 0.1347571576521E+01
 0.1374047092966E+01
 0.1396220468846E+01
 0.1413103180614E+01
 0.1424015284802E+01
 0.1428570739566E+01
 0.1426633625494E+01
 0.1418264382737E+01
 0.1403671107789E+01
 0.1383174463132E+01
 0.1357189123601E+01
 0.1326221800400E+01
 0.1290878327601E+01
 0.1251877927094E+01
 0.1210069765371E+01
 0.1166443707286E+01
 0.1122141469069E+01
 0.1078483710608E+01
 0.1036974541011E+01
 0.9992680261519E+00
 0.9671749993892E+00
 0.9427157251183E+00
 0.9281944489628E+00
 0.9262582024789E+00
 0.9398777802231E+00
 0.9721795207847E+00
 0.1026092970189E+01
 0.1103875917112E+01
 0.1206684955069E+01
 0.1334298791070E+01
 0.1484985437547E+01
 0.1655521276671E+01
 0.1841327322504E+01
 0.2036705219040E+01
 0.2235175851864E+01
 0.2429900601629E+01
 0.2614159231414E+01
 0.2781815188971E+01
 0.1276717347323E+01
 0.1308809003721E+01
 0.1340930016046E+01
 0.1371461967877E+01
 0.1398857040004E+01
 0.1421783444193E+01
 0.1439219660932E+01
 0.1450484719547E+01
 0.1455214828477E+01
 0.1453308309400E+01
 0.1444861547753E+01
 0.1430112862225E+01
 0.1409403240062E+01
 0.1383156420604E+01
 0.1351877628861E+01
 0.1316162627123E+01
 0.1276714531698E+01
 0.1234362873836E+01
 0.1190076278802E+01
 0.1144975787058E+01
 0.1100367358890E+01
 0.1057744296576E+01
 0.1018743090479E+01
 0.9851455457911E+00
 0.9589327308686E+00
 0.9423646478431E+00
 0.9380503561793E+00
 0.9489499000968E+00
 0.9782352681828E+00
 0.1028963772065E+01
 0.1103606769405E+01
 0.1203592802089E+01
 0.1328982665631E+01
 0.1478284168521E+01
 0.1648426281806E+01
 0.1834863682290E+01
 0.2031796191099E+01
 0.2232509490095E+01
 0.2429819935410E+01
 0.2616595734358E+01
 0.2786277683961E+01
 0.1297839571806E+01
 0.1330983156974E+01
 0.1364240328359E+01
 0.1395885978609E+01
 0.1424272915566E+01
 0.1447999864149E+01
 0.1466015280402E+01
 0.1477644396452E+01
 0.1482554594532E+01
 0.1480686777417E+01
 0.1472179579989E+01
 0.1457305206676E+01
 0.1436426001185E+01
 0.1409973522061E+01
 0.1378448491339E+01
 0.1342432366111E+01
 0.1302607239714E+01
 0.1259777855054E+01
 0.1214886514822E+01
 0.1169028772713E+01
 0.1123491777263E+01
 0.1079754461120E+01
 0.1039431786734E+01
 0.1004271646093E+01
 0.9762100535500E+00
 0.9574560564726E+00
 0.9505734721531E+00
 0.9585048760244E+00
 0.9844648164860E+00
 0.1031644371828E+01
 0.1102749205737E+01
 0.1199516903742E+01
 0.1322339103378E+01
 0.1470014334440E+01
 0.1639666507654E+01
 0.1826808413054E+01
 0.2025537872682E+01
 0.2228877737024E+01
 0.2429246842380E+01
 0.2619032728944E+01
 0.2791179443877E+01
 0.1319205515030E+01
 0.1353515239689E+01
 0.1388020791768E+01
 0.1420876720844E+01
 0.1450326399610E+01
 0.1474896015260E+01
 0.1493508073116E+01
 0.1505502854224E+01
 0.1510589382456E+01
 0.1508760617233E+01
 0.1500204398841E+01
 0.1485230735071E+01
 0.1464224350012E+01
 0.1437623224014E+01
 0.1405920341428E+01
 0.1369678386154E+01
 0.1329553295849E+01
 0.1286319704870E+01
 0.1240888405914E+01
 0.1194324601823E+01
 0.1147892500122E+01
 0.1103053096792E+01
 0.1061395831240E+01
 0.1024629668310E+01
 0.9946394660765E+00
 0.9735761635952E+00
 0.9639501681491E+00
 0.9686780409929E+00
 0.9910106307173E+00
 0.1034274610936E+01
 0.1101427125271E+01
 0.1194551204931E+01
 0.1314421638281E+01
 0.1460185939960E+01
 0.1629214557833E+01
 0.1817111669812E+01
 0.2017879051630E+01
 0.2224250724834E+01
 0.2428192038025E+01
 0.2621533372062E+01
 0.2796638931775E+01
 0.1340836834499E+01
 0.1376432958488E+01
 0.1412304698653E+01
 0.1446469907637E+01
 0.1477050929074E+01
 0.1502498505162E+01
 0.1521714714970E+01
 0.1534065696674E+01
 0.1539314352543E+01
 0.1537516391851E+01
 0.1528916449268E+01
 0.1513866444499E+01
 0.1492774432300E+01
 0.1466083215222E+01
 0.1434274554063E+01
 0.1397887634606E+01
 0.1357546875218E+01
 0.1313991307507E+01
 0.1268094929089E+01
 0.1220887696664E+01
 0.1173606761347E+01
 0.1127691640246E+01
 0.1084702224413E+01
 0.1046303393129E+01
 0.1014322462875E+01
 0.9908446329500E+00
 0.9783178310082E+00
 0.9796222283436E+00
 0.9980353730375E+00
 0.1037016591851E+01
 0.1099787048985E+01
 0.1188809850681E+01
 0.1305298455677E+01
 0.1448815766619E+01
 0.1617041378426E+01
 0.1805715140888E+01
 0.2008756783110E+01
 0.2218588053723E+01
 0.2426660822518E+01
 0.2624162732460E+01
 0.2802784260246E+01
 0.1362757086523E+01
 0.1399766760298E+01
 0.1437128693011E+01
 0.1472704465048E+01
 0.1504482103810E+01
 0.1530834382744E+01
 0.1550650374600E+01
 0.1563335253785E+01
 0.1568720044593E+01
 0.1566935177320E+01
 0.1558290250487E+01
 0.1543183303620E+01
 0.1522046516695E+01
 0.1495325657794E+01
 0.1463487495824E+01
 0.1427042717772E+01
 0.1386578614797E+01
 0.1342792941239E+01
 0.1296517525263E+01
 0.1248742177966E+01
 0.1200672932360E+01
 0.1153724348999E+01
 0.1109422737462E+01
 0.1069383579666E+01
 0.1035369946186E+01
 0.1009393155010E+01
 0.9938286977134E+00
 0.9915082037365E+00
 0.1005722903578E+01
 0.1040056518973E+01
 0.1098000930591E+01
 0.1182430713013E+01
 0.1295055952983E+01
 0.1435930100853E+01
 0.1603117468332E+01
 0.1792551535284E+01
 0.1998094558516E+01
 0.2211836514620E+01
 0.2424651207519E+01
 0.2626986644355E+01
 0.2809752836251E+01
 0.1384992197160E+01
 0.1423550502290E+01
 0.1462533555468E+01
 0.1499623237790E+01
 0.1532658124835E+01
 0.1559931226402E+01
 0.1580328490547E+01
 0.1593310157310E+01
 0.1598791867364E+01
 0.1596992046494E+01
 0.1588293909794E+01
 0.1573145798044E+01
 0.1552004556012E+01
 0.1525316745846E+01
 0.1493530067374E+01
 0.1457121419681E+01
 0.1416635104295E+01
 0.1372721737442E+01
 0.1326165523068E+01
 0.1277911254609E+01
 0.1229129888173E+01
 0.1181207666446E+01
 0.1135633311264E+01
 0.1093967442489E+01
 0.1057901830247E+01
 0.1029365229763E+01
 0.1010649881862E+01
 0.1004525054607E+01
 0.1014279266165E+01
 0.1043606619931E+01
 0.1096269260587E+01
 0.1175579502271E+01
 0.1283803110919E+01
 0.1421568285933E+01
 0.1587414668089E+01
 0.1777544224061E+01
 0.1985800215391E+01
 0.2203927392504E+01
 0.2422151781165E+01
 0.2630070437118E+01
 0.2817690858912E+01
 0.1407571026491E+01
 0.1447822257114E+01
 0.1488565136284E+01
 0.1527273801189E+01
 0.1561620258656E+01
 0.1589817179663E+01
 0.1610760449910E+01
 0.1623984811120E+01
 0.1629509502632E+01
 0.1627655496198E+01
 0.1618888604250E+01
 0.1603711457669E+01
 0.1582605733846E+01
 0.1556016245162E+01
 0.1524367218950E+01
 0.1488096185652E+01
 0.1447698334845E+01
 0.1403771091251E+01
 0.1357045507283E+01
 0.1308416548954E+01
 0.1259016298081E+01
 0.1210199499932E+01
 0.1163413358336E+01
 0.1120158026360E+01
 0.1082046545267E+01
 0.1050915859087E+01
 0.1028963321894E+01
 0.1018880508386E+01
 0.1023933616385E+01
 0.1047907088618E+01
 0.1094824417965E+01
 0.1168454489188E+01
 0.1271676810665E+01
 0.1405787315546E+01
 0.1569908747276E+01
 0.1760607161623E+01
 0.1971763556626E+01
 0.2194773219045E+01
 0.2419139282250E+01
 0.2633477565382E+01
 0.2826752452755E+01
 0.1430526049250E+01
 0.1472625285753E+01
 0.1515275466871E+01
 0.1555709391489E+01
 0.1591413314052E+01
 0.1620520902554E+01
 0.1641955133251E+01
 0.1655348728583E+01
 0.1660846207527E+01
 0.1658886811074E+01
 0.1650028029035E+01
 0.1634830366214E+01
 0.1613799995285E+01
 0.1587377009558E+01
 0.1555957431085E+01
 0.1519933559935E+01
 0.1479745093039E+01
 0.1435930010706E+01
 0.1389160618620E+01
 0.1340277344139E+01
 0.1290369826219E+01
 0.1240758394762E+01
 0.1192844947074E+01
 0.1148063452854E+01
 0.1107940409890E+01
 0.1074211113501E+01
 0.1048965614847E+01
 0.1034801141725E+01
 0.1034939043007E+01
 0.1053227980149E+01
 0.1093934203143E+01
 0.1161291848530E+01
 0.1258848250650E+01
 0.1388667749880E+01
 0.1550583105332E+01
 0.1741645304823E+01
 0.1955853673666E+01
 0.2184263773536E+01
 0.2415575824691E+01
 0.2637268273908E+01
 0.2837097839014E+01
 0.1453894182266E+01
 0.1498009221375E+01
 0.1542724090584E+01
 0.1584989970674E+01
 0.1622086115199E+01
 0.1652071402874E+01
 0.1673918290053E+01
 0.1687385714796E+01
 0.1692768009703E+01
 0.1690639371840E+01
 0.1681657827692E+01
 0.1666444670734E+01
 0.1645529578708E+01
 0.1619344488265E+01
 0.1588252171816E+01
 0.1552593586397E+01
 0.1512746308447E+01
 0.1469182413163E+01
 0.1422509794949E+01
 0.1373509764507E+01
 0.1323226253087E+01
 0.1272942613524E+01
 0.1224011873577E+01
 0.1177796037452E+01
 0.1135726862066E+01
 0.1099427554833E+01
 0.1070867711860E+01
 0.1052532452883E+01
 0.1047573240386E+01
 0.1059870981216E+01
 0.1093905453237E+01
 0.1154371588303E+01
 0.1245530597766E+01
 0.1370321265368E+01
 0.1529433977129E+01
 0.1720555848552E+01
 0.1937916006217E+01
 0.2172260988813E+01
 0.2411405622888E+01
 0.2641498620321E+01
 0.2848889246439E+01
 0.1477717798935E+01
 0.1524031518959E+01
 0.1570979660936E+01
 0.1615183438360E+01
 0.1653691939553E+01
 0.1684497692050E+01
 0.1706651692827E+01
 0.1720072860761E+01
 0.1725232783192E+01
 0.1722857910455E+01
 0.1713715013785E+01
 0.1698488101775E+01
 0.1677728556711E+01
 0.1651856227783E+01
 0.1621195328693E+01
 0.1586029166324E+01
 0.1546666346459E+01
 0.1503506360600E+01
 0.1457086946708E+01
 0.1408125883013E+01
 0.1357618512084E+01
 0.1306809113242E+01
 0.1256998609493E+01
 0.1209471258145E+01
 0.1165555518968E+01
 0.1126751474690E+01
 0.1094894428788E+01
 0.1072338749377E+01
 0.1062138975884E+01
 0.1068170964525E+01
 0.1095087606223E+01
 0.1148023975811E+01
 0.1231987988866E+01
 0.1350900215709E+01
 0.1506477632395E+01
 0.1697230813589E+01
 0.1917769304487E+01
 0.2158592266829E+01
 0.2406550776826E+01
 0.2646220832395E+01
 0.2862280577273E+01
 0.1502045986583E+01
 0.1550759242915E+01
 0.1600121871469E+01
 0.1646367006716E+01
 0.1686288878843E+01
 0.1717828200375E+01
 0.1740152016855E+01
 0.1753379325822E+01
 0.1758189209530E+01
 0.1755477735224E+01
 0.1746127415703E+01
 0.1730885537911E+01
 0.1710322418074E+01
 0.1684841396325E+01
 0.1654722639456E+01
 0.1620185394106E+01
 0.1581462266613E+01
 0.1538873256364E+01
 0.1492880093223E+01
 0.1444132786875E+01
 0.1393575675818E+01
 0.1342412456456E+01
 0.1291889159758E+01
 0.1243206602260E+01
 0.1197581080041E+01
 0.1156377946913E+01
 0.1121283756608E+01
 0.1094502829402E+01
 0.1078964321737E+01
 0.1078497254346E+01
 0.1097876060393E+01
 0.1142636305688E+01
 0.1218545919177E+01
 0.1330609633121E+01
 0.1481760130754E+01
 0.1671561568621E+01
 0.1895203419884E+01
 0.2143040742789E+01
 0.2400906000375E+01
 0.2651487159319E+01
 0.2877387514110E+01
 0.1526936125719E+01
 0.1578271272764E+01
 0.1630243794208E+01
 0.1678628737762E+01
 0.1719940040145E+01
 0.1752089844167E+01
 0.1774409356981E+01
 0.1787264858189E+01
 0.1791575606005E+01
 0.1788423925069E+01
 0.1778813148804E+01
 0.1763552616429E+01
 0.1743227686116E+01
 0.1718220317378E+01
 0.1688761098116E+01
 0.1654998838678E+01
 0.1617083008355E+01
 0.1575246963188E+01
 0.1529870420790E+01
 0.1481531564325E+01
 0.1431121856810E+01
 0.1379803620974E+01
 0.1328765791885E+01
 0.1279120245011E+01
 0.1231962012487E+01
 0.1188509614966E+01
 0.1150285877348E+01
 0.1119325360524E+01
 0.1098402562440E+01
 0.1091254493081E+01
 0.1102715138632E+01
 0.1138659760491E+01
 0.1205603029298E+01
 0.1309722009173E+01
 0.1455370885707E+01
 0.1643444989367E+01
 0.1869980765709E+01
 0.2125332181327E+01
 0.2394322725723E+01
 0.2657386079388E+01
 0.2894162134061E+01
 0.1552455927913E+01
 0.1606660970274E+01
 0.1661454781278E+01
 0.1712069210637E+01
 0.1754713480537E+01
 0.1787306612121E+01
 0.1809405287476E+01
 0.1821678015122E+01
 0.1825318623277E+01
 0.1821610514833E+01
 0.1811680141427E+01
 0.1796395413884E+01
 0.1776351590829E+01
 0.1751904021211E+01
 0.1723228335270E+01
 0.1690396760260E+01
 0.1653468487939E+01
 0.1612582825442E+01
 0.1568031249432E+01
 0.1520316204494E+01
 0.1470275020327E+01
 0.1419028709755E+01
 0.1367707637885E+01
 0.1317329553935E+01
 0.1268858997620E+01
 0.1223355168867E+01
 0.1182161814640E+01
 0.1147123872537E+01
 0.1120831701448E+01
 0.1106883022261E+01
 0.1110100468944E+01
 0.1136616061090E+01
 0.1193644059614E+01
 0.1288595572126E+01
 0.1427460065001E+01
 0.1612796248149E+01
 0.1841828925351E+01
 0.2105157347351E+01
 0.2386503646721E+01
 0.2664242237340E+01
 0.2911878162936E+01
 0.1578688367702E+01
 0.1636050502326E+01
 0.1693903489576E+01
 0.1746832698886E+01
 0.1790721109404E+01
 0.1823546107149E+01
 0.1845167165015E+01
 0.1856618175886E+01
 0.1859402814691E+01
 0.1855017591252E+01
 0.1844711042365E+01
 0.1829403827719E+01
 0.1809694929799E+01
 0.1785907844074E+01
 0.1758158346872E+01
 0.1726436338800E+01
 0.1690703494231E+01
 0.1650997018655E+01
 0.1607513123287E+01
 0.1560674210329E+01
 0.1511262452714E+01
 0.1460358198854E+01
 0.1409032113037E+01
 0.1358202242615E+01
 0.1308692212102E+01
 0.1261387653362E+01
 0.1217435877167E+01
 0.1178470338299E+01
 0.1146865771921E+01
 0.1126030076350E+01
 0.1120694801168E+01
 0.1137143799833E+01
 0.1183206525933E+01
 0.1267556897913E+01
 0.1398043811456E+01
 0.1579295232473E+01
 0.1810193468922E+01
 0.2081909363230E+01
 0.2377196270460E+01
 0.2671519283557E+01
 0.2934884267347E+01
 0.1605727581134E+01
 0.1666573552707E+01
 0.1727742146893E+01
 0.1783050095936E+01
 0.1828039180730E+01
 0.1860819936380E+01
 0.1881651642139E+01
 0.1892004709748E+01
 0.1893726610697E+01
 0.1888533934210E+01
 0.1877791395799E+01
 0.1862463435321E+01
 0.1843145276562E+01
 0.1820123399970E+01
 0.1793449664495E+01
 0.1763026791771E+01
 0.1728712072593E+01
 0.1690432261348E+01
 0.1648280741233E+01
 0.1602595459354E+01
 0.1554103055517E+01
 0.1503845026110E+01
 0.1452832247339E+01
 0.1401877990567E+01
 0.1351654537903E+01
 0.1302859502910E+01
 0.1256426313061E+01
 0.1213755310355E+01
 0.1176974654495E+01
 0.1149251660881E+01
 0.1135141481268E+01
 0.1140953327320E+01
 0.1174999422089E+01
 0.1247183424752E+01
 0.1367411426830E+01
 0.1542846755169E+01
 0.1774630224525E+01
 0.2055017251763E+01
 0.2365895656126E+01
 0.2679525801706E+01
 0.2963533603384E+01
 0.1633689111667E+01
 0.1698385001437E+01
 0.1763137255430E+01
 0.1820845583404E+01
 0.1866710446557E+01
 0.1899083065846E+01
 0.1918743460493E+01
 0.1927676450123E+01
 0.1928102666859E+01
 0.1921957850229E+01
 0.1910710391761E+01
 0.1895355584207E+01
 0.1876475858672E+01
 0.1854315728451E+01
 0.1828860323492E+01
 0.1799921841511E+01
 0.1767247343021E+01
 0.1730644988054E+01
 0.1690097569107E+01
 0.1645854398314E+01
 0.1598587291659E+01
 0.1549302411420E+01
 0.1498952574132E+01
 0.1448242794629E+01
 0.1397685113858E+01
 0.1347776535090E+01
 0.1299221630382E+01
 0.1253169189287E+01
 0.1211473709356E+01
 0.1177015051006E+01
 0.1154086609665E+01
 0.1148880000283E+01
 0.1170005041574E+01
 0.1228469481924E+01
 0.1336353837806E+01
 0.1503837927149E+01
 0.1735066946887E+01
 0.2024088792634E+01
 0.2352226750706E+01
 0.2688529809132E+01
 0.2995691231529E+01
 0.1662714881001E+01
 0.1731684798546E+01
 0.1800307217081E+01
 0.1860387782834E+01
 0.1906810014411E+01
 0.1938316888596E+01
 0.1956357069652E+01
 0.1963511549079E+01
 0.1962394931005E+01
 0.1955150787303E+01
 0.1943331226380E+01
 0.1927945576233E+01
 0.1909553316955E+01
 0.1888352784759E+01
 0.1864261374680E+01
 0.1836999396018E+01
 0.1806199044105E+01
 0.1771541668856E+01
 0.1732890805376E+01
 0.1690402379358E+01
 0.1644694596080E+01
 0.1596743101140E+01
 0.1547445676014E+01
 0.1497396395632E+01
 0.1446938686992E+01
 0.1396357156647E+01
 0.1346113999782E+01
 0.1297090173853E+01
 0.1250842273989E+01
 0.1209919279018E+01
 0.1178269618399E+01
 0.1161815622640E+01
 0.1169236414608E+01
 0.1212420356205E+01
 0.1305627208250E+01
 0.1462525651171E+01
 0.1691180395843E+01
 0.1988424617737E+01
 0.2335618955040E+01
 0.2698231090803E+01
 0.3031852102497E+01
 0.1692980136060E+01
 0.1766719489932E+01
 0.1839513708268E+01
 0.1901864746400E+01
 0.1948404527684E+01
 0.1978477272878E+01
 0.1994377549104E+01
 0.1999362875674E+01
 0.1996448403384E+01
 0.1987960652546E+01
 0.1975506980680E+01
 0.1960090012231E+01
 0.1942235308830E+01
 0.1922092024901E+01
 0.1899511247011E+01
 0.1874122770263E+01
 0.1845441159113E+01
 0.1813012896371E+01
 0.1776572418192E+01
 0.1736176487936E+01
 0.1692391146280E+01
 0.1646167599701E+01
 0.1598352913561E+01
 0.1549428319920E+01
 0.1499560920729E+01
 0.1448812422350E+01
 0.1397391450395E+01
 0.1345898196510E+01
 0.1295571258141E+01
 0.1248590212961E+01
 0.1208480353399E+01
 0.1180741445417E+01
 0.1173860785895E+01
 0.1200279391786E+01
 0.1276275572538E+01
 0.1419397090975E+01
 0.1642707668322E+01
 0.1947204058064E+01
 0.2315223728505E+01
 0.2708246693337E+01
 0.3072615442682E+01
 0.1724703726060E+01
 0.1803795995124E+01
 0.1881070796260E+01
 0.1945482395077E+01
 0.1991542871106E+01
 0.2019484290260E+01
 0.2032653506016E+01
 0.2035054613240E+01
 0.2030088290070E+01
 0.2020222302753E+01
 0.2007081648508E+01
 0.1991637891624E+01
 0.1974371362441E+01
 0.1955380737416E+01
 0.1934455330294E+01
 0.1911139449115E+01
 0.1884830038487E+01
 0.1854931241495E+01
 0.1821037101581E+01
 0.1783097799411E+01
 0.1741628440420E+01
 0.1697562945545E+01
 0.1651703139189E+01
 0.1604416148012E+01
 0.1555685788972E+01
 0.1505342193414E+01
 0.1453332617488E+01
 0.1399968409082E+01
 0.1346155971668E+01
 0.1293673671428E+01
 0.1245553157196E+01
 0.1206723757173E+01
 0.1185202021550E+01
 0.1193556736112E+01
 0.1249708442566E+01
 0.1375278514677E+01
 0.1589524084508E+01
 0.1899465452852E+01
 0.2289890097288E+01
 0.2718087698341E+01
 0.3118735478394E+01
 0.1758162518418E+01
 0.1843300198437E+01
 0.1925355522035E+01
 0.1991459624212E+01
 0.2036242094294E+01
 0.2061208850358E+01
 0.2070989048797E+01
 0.2070379146890E+01
 0.2063119786648E+01
 0.2051758629530E+01
 0.2037891657098E+01
 0.2022432134511E+01
 0.2005804109826E+01
 0.1988056687914E+01
 0.1968925724849E+01
 0.1947879782790E+01
 0.1924202209054E+01
 0.1897148658674E+01
 0.1866159816024E+01
 0.1831069396376E+01
 0.1792341875802E+01
 0.1750901711073E+01
 0.1707511760154E+01
 0.1662424101521E+01
 0.1615433092203E+01
 0.1566131071074E+01
 0.1514200759929E+01
 0.1459663250487E+01
 0.1403086726564E+01
 0.1345825663323E+01
 0.1290357927241E+01
 0.1240906089080E+01
 0.1204736706408E+01
 0.1194049112812E+01
 0.1227784321949E+01
 0.1331483967159E+01
 0.1531769955777E+01
 0.1844127031756E+01
 0.2258112676273E+01
 0.2727106140046E+01
 0.3171151952762E+01
 0.1793712001666E+01
 0.1885722420887E+01
 0.1972819511072E+01
 0.2040017602469E+01
 0.2082466568846E+01
 0.2103455788005E+01
 0.2109135247754E+01
 0.2105094724877E+01
 0.2095328781194E+01
 0.2082382373020E+01
 0.2067767942494E+01
 0.2052311571790E+01
 0.2036370961667E+01
 0.2019949167507E+01
 0.2002741253665E+01
 0.1984155656781E+01
 0.1963371808608E+01
 0.1939493286628E+01
 0.1911792736497E+01
 0.1879974027795E+01
 0.1844449320333E+01
 0.1806141334581E+01
 0.1765780331811E+01
 0.1723502140498E+01
 0.1678906257368E+01
 0.1631344231754E+01
 0.1580237138759E+01
 0.1525323091706E+01
 0.1466836938056E+01
 0.1405698979737E+01
 0.1343786909392E+01
 0.1284497107904E+01
 0.1234083428170E+01
 0.1203845728222E+01
 0.1212889690706E+01
 0.1290008135428E+01
 0.1470059893434E+01
 0.1780058661387E+01
 0.2217946989052E+01
 0.2734380611550E+01
 0.3231047133321E+01
 0.1831816419754E+01
 0.1931692722909E+01
 0.2024000302383E+01
 0.2091359176175E+01
 0.2130097804487E+01
 0.2145943288038E+01
 0.2146781928354E+01
 0.2138924567213E+01
 0.2126483795442E+01
 0.2111898784157E+01
 0.2096538623604E+01
 0.2081113433917E+01
 0.2065906282558E+01
 0.2050880555722E+01
 0.2035707877331E+01
 0.2019759224323E+01
 0.2002127591514E+01
 0.1981765439699E+01
 0.1957761347171E+01
 0.1929671221619E+01
 0.1897849649949E+01
 0.1863223928258E+01
 0.1826496926856E+01
 0.1787685820051E+01
 0.1746190615420E+01
 0.1701123314179E+01
 0.1651653904139E+01
 0.1597255577185E+01
 0.1537848625975E+01
 0.1473925438401E+01
 0.1406735617196E+01
 0.1338752326191E+01
 0.1274984715127E+01
 0.1225317009180E+01
 0.1207996750440E+01
 0.1253758843673E+01
 0.1405814380364E+01
 0.1706244393939E+01
 0.2166891337531E+01
 0.2738540640336E+01
 0.3299938933748E+01
 0.1873094021299E+01
 0.1982030296346E+01
 0.2079529163013E+01
 0.2145631709912E+01
 0.2178891849382E+01
 0.2188279331567E+01
 0.2183551271679E+01
 0.2171558263970E+01
 0.2156339466318E+01
 0.2140109217774E+01
 0.2124032285910E+01
 0.2108676339845E+01
 0.2094244107127E+01
 0.2080668518374E+01
 0.2067619703524E+01
 0.2054461856785E+01
 0.2040229468628E+01
 0.2023732509324E+01
 0.2003859281715E+01
 0.1979993533643E+01
 0.1952421170702E+01
 0.1922076735578E+01
 0.1889637592857E+01
 0.1854997199181E+01
 0.1817352344614E+01
 0.1775582475292E+01
 0.1728626637545E+01
 0.1675723882962E+01
 0.1616515445662E+01
 0.1551093325069E+01
 0.1480076094401E+01
 0.1404946484630E+01
 0.1329279710717E+01
 0.1261085455113E+01
 0.1216680589674E+01
 0.1226801958570E+01
 0.1341761656478E+01
 0.1622118976533E+01
 0.2101758428525E+01
 0.2737490839233E+01
 0.3379822893141E+01
 0.1918387051064E+01
 0.2037813004032E+01
 0.2140128113163E+01
 0.2202862676097E+01
 0.2228421270740E+01
 0.2229937482495E+01
 0.2218995528065E+01
 0.2202656401007E+01
 0.2184641818907E+01
 0.2166815713761E+01
 0.2150081876388E+01
 0.2134843784174E+01
 0.2121221444076E+01
 0.2109129004357E+01
 0.2098260898973E+01
 0.2088013639401E+01
 0.2077404673825E+01
 0.2065122491232E+01
 0.2049841399376E+01
 0.2030741527647E+01
 0.2008019892111E+01
 0.1982613611432E+01
 0.1955169482959E+01
 0.1925447344435E+01
 0.1892438452832E+01
 0.1854804880992E+01
 0.1811286893047E+01
 0.1760934461060E+01
 0.1703163955451E+01
 0.1637720346894E+01
 0.1564621300623E+01
 0.1484332650903E+01
 0.1398862775010E+01
 0.1313979184223E+01
 0.1243082201434E+01
 0.1214557164700E+01
 0.1282645283135E+01
 0.1528237602696E+01
 0.2018597660208E+01
 0.2727963142698E+01
 0.3473385531510E+01
 0.1968873699513E+01
 0.2100475244121E+01
 0.2206580354945E+01
 0.2262851266806E+01
 0.2278000365160E+01
 0.2270237178801E+01
 0.2252601899318E+01
 0.2231859148910E+01
 0.2211135402759E+01
 0.2191826520227E+01
 0.2174529121563E+01
 0.2159468031093E+01
 0.2146682117940E+01
 0.2136080128214E+01
 0.2127408823314E+01
 0.2120143850182E+01
 0.2113343710684E+01
 0.2105615678840E+01
 0.2095414178469E+01
 0.2081676645994E+01
 0.2064477361438E+01
 0.2044737844257E+01
 0.2023056247803E+01
 0.1999040877163E+01
 0.1971477924896E+01
 0.1938839535109E+01
 0.1899714717081E+01
 0.1853024631423E+01
 0.1798033919995E+01
 0.1734222887034E+01
 0.1661080049580E+01
 0.1578083668580E+01
 0.1485618956191E+01
 0.1386964029856E+01
 0.1291818430037E+01
 0.1223854920257E+01
 0.1236096302791E+01
 0.1427558686773E+01
 0.1912836262463E+01
 0.2704779362158E+01
 0.3584322217049E+01
 0.2026254146663E+01
 0.2171943774201E+01
 0.2279640403988E+01
 0.2324991350830E+01
 0.2326598032919E+01
 0.2308338211494E+01
 0.2283807856748E+01
 0.2258799045740E+01
 0.2235572229398E+01
 0.2214962464546E+01
 0.2197229350414E+01
 0.2182414304760E+01
 0.2170481062350E+01
 0.2161346995395E+01
 0.2154838801688E+01
 0.2150563178381E+01
 0.2147696585170E+01
 0.2144834088019E+01
 0.2140222134434E+01
 0.2132510708104E+01
 0.2121597691947E+01
 0.2108346946228E+01
 0.2093266697532E+01
 0.2075783307012E+01
 0.2054484266544E+01
 0.2027698316035E+01
 0.1993931083709E+01
 0.1952050548836E+01
 0.1901259030079E+01
 0.1840883512319E+01
 0.1770003728073E+01
 0.1687213169726E+01
 0.1591324772977E+01
 0.1483038238853E+01
 0.1367849021237E+01
 0.1262787466739E+01
 0.1213428654512E+01
 0.1327758637327E+01
 0.1780088674312E+01
 0.2659651955210E+01
 0.3717798015786E+01
 0.2093073694801E+01
 0.2254817727094E+01
 0.2359812276785E+01
 0.2387993857503E+01
 0.2372757597416E+01
 0.2343264501961E+01
 0.2312028595790E+01
 0.2283117437926E+01
 0.2257722392548E+01
 0.2236063999222E+01
 0.2218056576714E+01
 0.2203565157755E+01
 0.2192488935313E+01
 0.2184767439202E+01
 0.2180330989066E+01
 0.2178968871433E+01
 0.2180070483689E+01
 0.2182328364053E+01
 0.2183828393396E+01
 0.2182890039479E+01
 0.2179153292413E+01
 0.2173340567875E+01
 0.2165788404560E+01
 0.2155692314451E+01
 0.2141459832264E+01
 0.2121353048681E+01
 0.2093890063057E+01
 0.2057976179321E+01
 0.2012850074725E+01
 0.1957820065778E+01
 0.1891728472421E+01
 0.1812476821564E+01
 0.1717504247604E+01
 0.1605060818735E+01
 0.1476287666831E+01
 0.1340383003435E+01
 0.1229849942472E+01
 0.1244907411052E+01
 0.1618804162274E+01
 0.2579348133809E+01
 0.3881066970413E+01
 0.2173313968579E+01
 0.2352575485539E+01
 0.2446843245235E+01
 0.2449482797924E+01
 0.2414575332466E+01
 0.2373973987639E+01
 0.2336693519874E+01
 0.2304483758092E+01
 0.2277386168870E+01
 0.2254998536234E+01
 0.2236908631796E+01
 0.2222824822985E+01
 0.2212596808171E+01
 0.2206198375829E+01
 0.2203679521019E+01
 0.2205054350931E+01
 0.2210031057863E+01
 0.2217562300942E+01
 0.2225686406882E+01
 0.2232370614013E+01
 0.2236878280400E+01
 0.2239633283490E+01
 0.2240648554953E+01
 0.2238814267748E+01
 0.2232402066741E+01
 0.2219731911007E+01
 0.2199469762056E+01
 0.2170663302364E+01
 0.2132682765117E+01
 0.2084960714085E+01
 0.2026318680791E+01
 0.1954259320605E+01
 0.1865236339209E+01
 0.1755482753370E+01
 0.1622088153940E+01
 0.1466180301736E+01
 0.1303691518941E+01
 0.1207637963206E+01
 0.1437684536816E+01
 0.2443391895841E+01
 0.4084125088414E+01
 0.2273545054690E+01
 0.2469690725602E+01
 0.2538610538633E+01
 0.2505505731380E+01
 0.2449847134130E+01
 0.2399474608898E+01
 0.2357282488382E+01
 0.2322618559393E+01
 0.2294406727944E+01
 0.2271667624122E+01
 0.2253712170057E+01
 0.2240123339650E+01
 0.2230720688853E+01
 0.2225522270017E+01
 0.2224703627168E+01
 0.2228525111025E+01
 0.2237111447846E+01
 0.2249896586202E+01
 0.2265098253656E+01
 0.2280377884629E+01
 0.2294458092686E+01
 0.2307175594523E+01
 0.2317945783734E+01
 0.2325247740576E+01
 0.2327311888798E+01
 0.2322714406233E+01
 0.2310460505940E+01
 0.2289861949986E+01
 0.2260493007648E+01
 0.2222031365240E+01
 0.2173519930628E+01
 0.2112458756851E+01
 0.2034922494135E+01
 0.1935963029367E+01
 0.1809515453163E+01
 0.1649562674407E+01
 0.1455107065490E+01
 0.1257994006831E+01
 0.1273969508743E+01
 0.2223492211400E+01
 0.4339804741769E+01
 0.2405358040036E+01
 0.2611137397559E+01
 0.2628749014418E+01
 0.2550283827215E+01
 0.2476540128988E+01
 0.2418922744882E+01
 0.2373361367421E+01
 0.2337322026455E+01
 0.2308680740783E+01
 0.2286014106459E+01
 0.2268427111882E+01
 0.2255420234055E+01
 0.2246805608061E+01
 0.2242653046333E+01
 0.2243259260217E+01
 0.2249121920658E+01
 0.2260836195450E+01
 0.2278577114188E+01
 0.2301152320941E+01
 0.2326139189513E+01
 0.2351512828846E+01
 0.2375989238837E+01
 0.2397898340083E+01
 0.2415175539216E+01
 0.2426203790740E+01
 0.2430123634868E+01
 0.2426547194881E+01
 0.2415198226230E+01
 0.2395881911221E+01
 0.2368563962583E+01
 0.2332730836308E+01
 0.2286379497460E+01
 0.2226046714024E+01
 0.2146866781854E+01
 0.2041369205220E+01
 0.1898475496705E+01
 0.1704462873948E+01
 0.1446511386164E+01
 0.1224254238462E+01
 0.1896768289056E+01
 0.4661228970257E+01
 0.2591086826831E+01
 0.2779038825861E+01
 0.2702004140560E+01
 0.2577474578207E+01
 0.2493493708469E+01
 0.2431570692196E+01
 0.2384669186484E+01
 0.2348488980979E+01
 0.2320169595930E+01
 0.2298028257505E+01
 0.2281050273050E+01
 0.2268707578311E+01
 0.2260828982885E+01
 0.2257541125988E+01
 0.2259248712731E+01
 0.2266648872754E+01
 0.2280771091340E+01
 0.2302743573942E+01
 0.2332629519593E+01
 0.2368564364072E+01
 0.2407571603833E+01
 0.2446229306218E+01
 0.2480916530096E+01
 0.2508906436868E+01
 0.2529116675770E+01
 0.2541715308412E+01
 0.2547282454352E+01
 0.2546152163151E+01
 0.2538332603432E+01
 0.2523939444618E+01
 0.2503007625057E+01
 0.2474638188312E+01
 0.2436969186084E+01
 0.2386749789201E+01
 0.2317820710411E+01
 0.2217813860423E+01
 0.2067618824263E+01
 0.1829189830366E+01
 0.1445454252018E+01
 0.1533435659662E+01
 0.5053030835359E+01
 0.2879557800946E+01
 0.2955569879001E+01
 0.2728754743799E+01
 0.2586082988719E+01
 0.2499638745047E+01
 0.2436996799718E+01
 0.2391169836799E+01
 0.2356113900430E+01
 0.2328913215344E+01
 0.2307750604160E+01
 0.2291618690909E+01
 0.2280012062182E+01
 0.2272803029253E+01
 0.2270177433155E+01
 0.2272627146973E+01
 0.2280994986483E+01
 0.2296608340096E+01
 0.2321502866629E+01
 0.2357863280029E+01
 0.2406019094898E+01
 0.2462039692503E+01
 0.2518298939651E+01
 0.2567709415997E+01
 0.2606927171473E+01
 0.2636123184725E+01
 0.2657164313141E+01
 0.2672050723930E+01
 0.2682009818789E+01
 0.2687234496743E+01
 0.2687500603538E+01
 0.2683107284683E+01
 0.2675104516978E+01
 0.2664717121930E+01
 0.2652142999289E+01
 0.2634830094270E+01
 0.2607271631619E+01
 0.2550145906303E+01
 0.2448261537396E+01
 0.2133689448663E+01
 0.1627033728483E+01
 0.5498105652202E+01
 0.3401495328580E+01
 0.3005745589646E+01
 0.2699511130502E+01
 0.2579221060229E+01
 0.2493280535364E+01
 0.2435709950714E+01
 0.2392897767135E+01
 0.2360356380879E+01
 0.2335020761822E+01
 0.2315278514726E+01
 0.2300210257930E+01
 0.2289396445457E+01
 0.2282775988416E+01
 0.2280595269491E+01
 0.2283408130700E+01
 0.2292138166859E+01
 0.2308248016010E+01
 0.2334197781513E+01
 0.2374547653335E+01
 0.2435834035025E+01
 0.2514199733260E+01
 0.2593058514232E+01
 0.2659434117585E+01
 0.2709962603561E+01
 0.2747331532745E+01
 0.2776045861831E+01
 0.2800034493385E+01
 0.2821763115294E+01
 0.2841867931456E+01
 0.2858825137241E+01
 0.2871597322745E+01
 0.2884748760950E+01
 0.2905061947958E+01
 0.2936978817103E+01
 0.2984962705239E+01
 0.3053161522832E+01
 0.3153849868622E+01
 0.3269697305508E+01
 0.3531363097410E+01
 0.3159669931240E+01
 0.6485358929041E+01
 0.3837504008824E+00
 0.5250141882524E+00
 0.6549822995807E+00
 0.7716240496867E+00
 0.8748580388427E+00
 0.9654164197690E+00
 0.1044417659941E+01
 0.1113129790208E+01
 0.1172783549850E+01
 0.1224532254173E+01
 0.1269529562287E+01
 0.1308456653087E+01
 0.1342199062874E+01
 0.1372281761723E+01
 0.1399640406318E+01
 0.1424346751010E+01
 0.1446016063527E+01
 0.1464084439426E+01
 0.1478323370738E+01
 0.1489023573063E+01
 0.3723450393572E+00
 0.5215887166715E+00
 0.6577363661865E+00
 0.7797250895987E+00
 0.8876673418312E+00
 0.9824758057344E+00
 0.1065446481201E+01
 0.1137973536954E+01
 0.1201375631745E+01
 0.1256896558112E+01
 0.1305712579794E+01
 0.1348593944316E+01
 0.1386628467626E+01
 0.1421268457352E+01
 0.1453357432043E+01
 0.1483176945168E+01
 0.1510551775633E+01
 0.1535150227669E+01
 0.1555359824390E+01
 0.1568686222760E+01
 0.3612940312622E+00
 0.5186693102165E+00
 0.6609611696715E+00
 0.7879883224668E+00
 0.9003235349926E+00
 0.9991086947617E+00
 0.1085800136299E+01
 0.1161910609060E+01
 0.1228859255413E+01
 0.1287962650950E+01
 0.1340435343639E+01
 0.1387214605772E+01
 0.1429461181264E+01
 0.1468552337117E+01
 0.1505362739584E+01
 0.1540255005086E+01
 0.1573157417655E+01
 0.1603428929682E+01
 0.1629175314029E+01
 0.1649101179061E+01
 0.3507719894507E+00
 0.5161009932613E+00
 0.6644195222118E+00
 0.7962503804874E+00
 0.9126881367179E+00
 0.1015169485017E+01
 0.1105322158780E+01
 0.1184778381584E+01
 0.1255054133701E+01
 0.1317540517432E+01
 0.1373517429955E+01
 0.1424054678488E+01
 0.1470365191688E+01
 0.1513772453048E+01
 0.1555164037877E+01
 0.1594942822703E+01
 0.1632997077514E+01
 0.1668568209979E+01
 0.1700128089044E+01
 0.1726632012035E+01
 0.3408336894012E+00
 0.5138428990291E+00
 0.6679605046536E+00
 0.8043497294176E+00
 0.9246138205866E+00
 0.1030511586531E+01
 0.1123860028256E+01
 0.1206414493322E+01
 0.1279786736104E+01
 0.1345446185396E+01
 0.1404741608976E+01
 0.1458850029363E+01
 0.1509022673799E+01
 0.1556538502878E+01
 0.1602281271621E+01
 0.1646652160521E+01
 0.1689517670413E+01
 0.1730163044959E+01
 0.1767281660182E+01
 0.1799785143735E+01
 0.3315145391936E+00
 0.5118500821456E+00
 0.6714738736138E+00
 0.8121443802670E+00
 0.9359553375272E+00
 0.1044990183545E+01
 0.1141264676391E+01
 0.1226661694842E+01
 0.1302888571824E+01
 0.1371492096167E+01
 0.1433887607839E+01
 0.1491337048935E+01
 0.1545118222397E+01
 0.1596470404533E+01
 0.1646259927835E+01
 0.1694879968726E+01
 0.1742204742178E+01
 0.1787563478245E+01
 0.1829745146347E+01
 0.1867470905484E+01
 0.3228421686180E+00
 0.5100799223806E+00
 0.6748640686569E+00
 0.8195091490119E+00
 0.9465762938931E+00
 0.1058465714150E+01
 0.1157392656979E+01
 0.1245368949676E+01
 0.1324195795207E+01
 0.1395493770489E+01
 0.1460738904511E+01
 0.1521258929076E+01
 0.1578347947720E+01
 0.1633208352646E+01
 0.1686684464082E+01
 0.1739162710422E+01
 0.1790525203584E+01
 0.1840118146826E+01
 0.1886730352210E+01
 0.1928835664453E+01
 0.3148409665914E+00
 0.5084921873545E+00
 0.6780456062132E+00
 0.8263313723418E+00
 0.9563510777806E+00
 0.1070807009524E+01
 0.1172108266027E+01
 0.1262392876366E+01
 0.1343551939783E+01
 0.1417274174830E+01
 0.1485088546642E+01
 0.1548372160854E+01
 0.1608426667268E+01
 0.1666420162763E+01
 0.1723173521574E+01
 0.1779063516709E+01
 0.1833970112439E+01
 0.1887227280487E+01
 0.1937566460689E+01
 0.1983199393084E+01
 0.3075333032005E+00
 0.5070499603325E+00
 0.6809413794741E+00
 0.8325095521434E+00
 0.9651653135920E+00
 0.1081893241722E+01
 0.1185285552250E+01
 0.1277599863812E+01
 0.1360810749535E+01
 0.1436667760077E+01
 0.1506744045331E+01
 0.1572452023355E+01
 0.1635093584517E+01
 0.1695804356979E+01
 0.1755380047541E+01
 0.1814182359371E+01
 0.1872076904572E+01
 0.1928364364909E+01
 0.1981691467585E+01
 0.2030018000292E+01
 0.3009398363771E+00
 0.5057201088748E+00
 0.6834823679429E+00
 0.8379529629309E+00
 0.9729163404815E+00
 0.1091615252950E+01
 0.1196810143778E+01
 0.1290868243769E+01
 0.1375838955203E+01
 0.1453524008016E+01
 0.1525531488189E+01
 0.1593297002792E+01
 0.1658116368288E+01
 0.1721093386351E+01
 0.1782996270429E+01
 0.1844165665612E+01
 0.1904442753888E+01
 0.1963082538300E+01
 0.2018637676405E+01
 0.2068841836030E+01
 0.2950794427068E+00
 0.5044735824910E+00
 0.6856077412150E+00
 0.8425817666489E+00
 0.9795137451068E+00
 0.1099876673540E+01
 0.1206580858490E+01
 0.1302090343588E+01
 0.1388518828696E+01
 0.1467710524241E+01
 0.1541298982385E+01
 0.1610732365488E+01
 0.1677294700833E+01
 0.1742057575843E+01
 0.1805759159094E+01
 0.1868713918591E+01
 0.1930731918509E+01
 0.1991017118925E+01
 0.2048029141633E+01
 0.2099312387681E+01
 0.2899690504340E+00
 0.5032855987598E+00
 0.6872651110926E+00
 0.8463273298305E+00
 0.9848799449840E+00
 0.1106594907561E+01
 0.1214511113078E+01
 0.1311174299745E+01
 0.1398750403095E+01
 0.1479115629314E+01
 0.1553919458153E+01
 0.1624613091765E+01
 0.1692463460056E+01
 0.1758508857931E+01
 0.1823455090153E+01
 0.1887586854010E+01
 0.1950679922936E+01
 0.2011887649808E+01
 0.2069586595565E+01
 0.2121175049270E+01
 0.2856234634668E+00
 0.5021357605323E+00
 0.6884108070339E+00
 0.8491326005331E+00
 0.9889507597748E+00
 0.1111702000152E+01
 0.1220530128618E+01
 0.1318045599436E+01
 0.1406453329296E+01
 0.1487650475748E+01
 0.1563292938443E+01
 0.1634826307114E+01
 0.1703495447985E+01
 0.1770303934489E+01
 0.1835923408612E+01
 0.1900606909512E+01
 0.1964095999965E+01
 0.2025499030183E+01
 0.2083126745229E+01
 0.2134276253372E+01
 0.2820552173485E+00
 0.5010081254454E+00
 0.6890101234302E+00
 0.8509524632234E+00
 0.9916759153563E+00
 0.1115145358413E+01
 0.1224583905964E+01
 0.1322648309093E+01
 0.1411568329971E+01
 0.1493250675314E+01
 0.1569348272974E+01
 0.1641293153213E+01
 0.1710303489752E+01
 0.1777346608553E+01
 0.1843058824554E+01
 0.1907661241083E+01
 0.1970864100761E+01
 0.2031740494706E+01
 0.2088557368823E+01
 0.2138554988660E+01
 0.2792744762104E+00
 0.4998912356327E+00
 0.6890375128980E+00
 0.8517540300486E+00
 0.9930194483732E+00
 0.1116888311224E+01
 0.1226635965883E+01
 0.1324945989317E+01
 0.1414058260160E+01
 0.1495877460965E+01
 0.1572044356192E+01
 0.1643970084679E+01
 0.1712841848981E+01
 0.1779589261436E+01
 0.1844812758627E+01
 0.1908702565908E+01
 0.1970942617953E+01
 0.2030583212261E+01
 0.2085871876656E+01
 0.2134034485116E+01
 0.2772889694069E+00
 0.4987781126152E+00
 0.6884767105545E+00
 0.8515168408541E+00
 0.9929599848951E+00
 0.1116910489869E+01
 0.1226667843609E+01
 0.1324922291860E+01
 0.1413908776553E+01
 0.1495518388430E+01
 0.1571370823451E+01
 0.1642849565764E+01
 0.1711106929271E+01
 0.1777033481162E+01
 0.1841193721591E+01
 0.1903748983783E+01
 0.1964363173251E+01
 0.2022077504383E+01
 0.2075144809933E+01
 0.2120816138255E+01
 0.2761039477032E+00
 0.4976662140123E+00
 0.6873207748691E+00
 0.8502329509838E+00
 0.9914908724516E+00
 0.1115208014159E+01
 0.1224679329235E+01
 0.1322581235966E+01
 0.1411128616873E+01
 0.1492187578493E+01
 0.1567348217968E+01
 0.1637960151797E+01
 0.1705137253580E+01
 0.1769729864239E+01
 0.1832266800167E+01
 0.1892882939910E+01
 0.1951228821529E+01
 0.2006350179528E+01
 0.2056528568126E+01
 0.2099075868324E+01
 0.2757221551287E+00
 0.4965573543400E+00
 0.6855720424892E+00
 0.8479068992487E+00
 0.9886201573889E+00
 0.1111793479365E+01
 0.1220688454352E+01
 0.1317947169295E+01
 0.1405749497495E+01
 0.1485925507646E+01
 0.1560027632090E+01
 0.1629365957826E+01
 0.1695012733864E+01
 0.1757777025905E+01
 0.1818152324251E+01
 0.1876249468903E+01
 0.1931711867598E+01
 0.1983602119771E+01
 0.2030251242205E+01
 0.2069062629673E+01
 0.2761438008629E+00
 0.4954575883460E+00
 0.6832419921715E+00
 0.8445555499697E+00
 0.9843704025755E+00
 0.1106695742887E+01
 0.1214731229249E+01
 0.1311064423004E+01
 0.1397825642841E+01
 0.1476798362515E+01
 0.1549489838358E+01
 0.1617165533047E+01
 0.1680853259253E+01
 0.1741319863742E+01
 0.1799023782947E+01
 0.1854053801016E+01
 0.1906051345505E+01
 0.1954106055905E+01
 0.1996615381278E+01
 0.2031098931480E+01
 0.2773665235296E+00
 0.4943770575641E+00
 0.6803510189138E+00
 0.8402078101949E+00
 0.9787783480790E+00
 0.1099959516509E+01
 0.1206861140879E+01
 0.1301996675592E+01
 0.1387432964691E+01
 0.1464896978522E+01
 0.1535843932241E+01
 0.1601490165776E+01
 0.1662816633227E+01
 0.1720547111181E+01
 0.1775105025512E+01
 0.1826558340494E+01
 0.1874550084479E+01
 0.1918204326614E+01
 0.1955997390084E+01
 0.1985583080329E+01
 0.2793853465594E+00
 0.4933298018161E+00
 0.6769281214749E+00
 0.8349042263134E+00
 0.9718944209256E+00
 0.1091644773634E+01
 0.1197148425314E+01
 0.1290826043917E+01
 0.1374667914348E+01
 0.1450335389647E+01
 0.1519225516600E+01
 0.1582501652466E+01
 0.1641095895886E+01
 0.1695688214079E+01
 0.1746666762619E+01
 0.1794078984131E+01
 0.1837571227906E+01
 0.1876306288813E+01
 0.1908847054335E+01
 0.1932992383925E+01
 0.2821926288825E+00
 0.4923335387665E+00
 0.6730105090877E+00
 0.8286964678342E+00
 0.9637821040458E+00
 0.1081825984942E+01
 0.1185679132471E+01
 0.1277651924187E+01
 0.1359646035616E+01
 0.1433249022279E+01
 0.1499794465213E+01
 0.1560389571198E+01
 0.1615916071062E+01
 0.1667009559360E+01
 0.1714022367427E+01
 0.1756980717963E+01
 0.1795534043225E+01
 0.1828884989143E+01
 0.1855686090961E+01
 0.1873884689318E+01
 0.2857780208722E+00
 0.4914094160249E+00
 0.6686431357789E+00
 0.8216467093057E+00
 0.9545171780073E+00
 0.1070591199502E+01
 0.1172554004622E+01
 0.1262589609749E+01
 0.1342500251444E+01
 0.1413792572132E+01
 0.1477732309792E+01
 0.1535368107407E+01
 0.1587530383657E+01
 0.1634810086477E+01
 0.1677522970436E+01
 0.1715672420494E+01
 0.1748908840208E+01
 0.1776472839325E+01
 0.1797105274462E+01
 0.1808899185446E+01
 0.2901284388148E+00
 0.4905817416382E+00
 0.6638781733213E+00
 0.8138269247983E+00
 0.9441868530092E+00
 0.1058040992479E+01
 0.1157887194558E+01
 0.1245768717555E+01
 0.1323378923031E+01
 0.1392137610463E+01
 0.1453239303605E+01
 0.1507672489441E+01
 0.1556216003078E+01
 0.1599416322984E+01
 0.1637551853508E+01
 0.1670600807379E+01
 0.1698210844870E+01
 0.1719656041973E+01
 0.1733760649117E+01
 0.1738756610574E+01
 0.2952280726362E+00
 0.4898776997238E+00
 0.6587744355246E+00
 0.8053181113707E+00
 0.9328888106209E+00
 0.1044287302453E+01
 0.1141804851190E+01
 0.1227331457323E+01
 0.1302443723114E+01
 0.1368469969828E+01
 0.1426531220291E+01
 0.1477555098634E+01
 0.1522269378080E+01
 0.1561176899301E+01
 0.1594518167088E+01
 0.1622243482120E+01
 0.1643992884450E+01
 0.1659067522919E+01
 0.1666367904848E+01
 0.1664256939359E+01
 0.3010584412106E+00
 0.4893270588515E+00
 0.6533967681935E+00
 0.7962094598481E+00
 0.9207301765739E+00
 0.1029452182923E+01
 0.1124443601738E+01
 0.1207430779098E+01
 0.1279867367609E+01
 0.1342986963321E+01
 0.1397835951795E+01
 0.1445281326222E+01
 0.1486001239965E+01
 0.1520456617009E+01
 0.1548850027518E+01
 0.1571101099330E+01
 0.1586836791865E+01
 0.1595378006485E+01
 0.1595693901273E+01
 0.1586272908184E+01
 0.3075985059527E+00
 0.4889618814600E+00
 0.6478154213824E+00
 0.7865974946978E+00
 0.9078264497048E+00
 0.1013666496229E+01
 0.1105948963237E+01
 0.1186228438856E+01
 0.1255831254831E+01
 0.1315894498055E+01
 0.1367389978380E+01
 0.1411125260952E+01
 0.1447731367110E+01
 0.1477630171347E+01
 0.1500987095486E+01
 0.1517688716352E+01
 0.1527343501154E+01
 0.1529284957572E+01
 0.1522544780668E+01
 0.1505738162211E+01
 0.3148248512854E+00
 0.4888162419257E+00
 0.6421054181736E+00
 0.7765852008089E+00
 0.8943004065468E+00
 0.9970685709470E+00
 0.1086473707766E+01
 0.1163893013307E+01
 0.1230523054170E+01
 0.1287404138661E+01
 0.1335434781751E+01
 0.1375365292335E+01
 0.1407783209207E+01
 0.1433075644654E+01
 0.1451372777463E+01
 0.1462526489995E+01
 0.1466121940753E+01
 0.1461499315256E+01
 0.1447750233224E+01
 0.1423628825201E+01
 0.3227119356255E+00
 0.4889259629460E+00
 0.6363459421993E+00
 0.7662811661062E+00
 0.8802810129230E+00
 0.9798028544820E+00
 0.1066176214510E+01
 0.1140597902068E+01
 0.1204134292506E+01
 0.1257730183673E+01
 0.1302213280513E+01
 0.1338279721437E+01
 0.1366478472586E+01
 0.1387167890495E+01
 0.1400446210705E+01
 0.1406129942802E+01
 0.1403776999011E+01
 0.1392730191993E+01
 0.1372143517270E+01
 0.1340936749441E+01
 0.3312324000713E+00
 0.4893283748270E+00
 0.6306197611170E+00
 0.7557987659212E+00
 0.8659023710470E+00
 0.9620185891841E+00
 0.1045218838120E+01
 0.1116519352677E+01
 0.1176857987218E+01
 0.1227086825186E+01
 0.1267966384785E+01
 0.1300142497117E+01
 0.1324131795539E+01
 0.1340271956349E+01
 0.1348634241692E+01
 0.1349000140751E+01
 0.1340897101592E+01
 0.1323668243703E+01
 0.1296537656907E+01
 0.1258633652079E+01
 0.3403574331710E+00
 0.4900621046629E+00
 0.6250127086357E+00
 0.7452554189656E+00
 0.8513027308388E+00
 0.9438685355436E+00
 0.1023766313841E+01
 0.1091834531772E+01
 0.1148886361047E+01
 0.1195685451580E+01
 0.1232929766582E+01
 0.1261219205676E+01
 0.1281045648609E+01
 0.1292736674502E+01
 0.1296343577724E+01
 0.1291614151663E+01
 0.1278042109673E+01
 0.1254968948315E+01
 0.1221699823925E+01
 0.1177629096914E+01
 0.3500571673516E+00
 0.4911668944484E+00
 0.6196132511577E+00
 0.7347719550951E+00
 0.8366236018289E+00
 0.9255077680926E+00
 0.1001984217327E+01
 0.1066719658765E+01
 0.1120408660378E+01
 0.1163732135793E+01
 0.1197330934388E+01
 0.1221763454343E+01
 0.1237505607123E+01
 0.1244888513455E+01
 0.1243953162430E+01
 0.1234416029274E+01
 0.1215732328905E+01
 0.1187237329231E+01
 0.1148327095784E+01
 0.1098729209605E+01
 0.3603010753867E+00
 0.4926834420130E+00
 0.6145121719925E+00
 0.7244721413935E+00
 0.8220089962762E+00
 0.9070925504858E+00
 0.9800374737999E+00
 0.1041348193911E+01
 0.1091609066412E+01
 0.1131425306099E+01
 0.1161386664813E+01
 0.1182013800047E+01
 0.1193776211610E+01
 0.1197025803570E+01
 0.1191806682220E+01
 0.1177808227369E+01
 0.1154439363479E+01
 0.1121016256624E+01
 0.1077026367575E+01
 0.1022601618191E+01
 0.3710583023443E+00
 0.4946532456256E+00
 0.6098024355996E+00
 0.7144824597592E+00
 0.8076048604422E+00
 0.8887793124173E+00
 0.9580889359930E+00
 0.1015889119056E+01
 0.1062664740635E+01
 0.1098953628085E+01
 0.1125300861017E+01
 0.1142191480912E+01
 0.1150097890094E+01
 0.1149413811092E+01
 0.1140205151665E+01
 0.1122142955534E+01
 0.1094578801358E+01
 0.1056781382820E+01
 0.1008303729069E+01
 0.9497496322927E+00
 0.3822978153820E+00
 0.4971184035371E+00
 0.6055793727261E+00
 0.7049322857545E+00
 0.7935587492481E+00
 0.8707236836527E+00
 0.9362979969290E+00
 0.9905053087152E+00
 0.1033743995183E+01
 0.1066494013764E+01
 0.1089262669241E+01
 0.1102498907376E+01
 0.1106685471988E+01
 0.1102281419772E+01
 0.1089399714457E+01
 0.1067711667971E+01
 0.1036502726449E+01
 0.9949430325470E+00
 0.9425755313813E+00
 0.8805217885869E+00
 0.3939880599197E+00
 0.5001213222934E+00
 0.6019414444832E+00
 0.6959548090188E+00
 0.7800197182594E+00
 0.8530794673088E+00
 0.9148191618141E+00
 0.9653520647597E+00
 0.1005004674959E+01
 0.1034209742027E+01
 0.1053444680754E+01
 0.1063118544813E+01
 0.1063728591781E+01
 0.1055821833568E+01
 0.1039586014875E+01
 0.1014731283114E+01
 0.9804855587658E+00
 0.9358525339576E+00
 0.8802006827170E+00
 0.8151592516254E+00
 0.4060955183939E+00
 0.5037039241804E+00
 0.5989927882176E+00
 0.6876890934314E+00
 0.7671384361614E+00
 0.8359970493757E+00
 0.8938005440907E+00
 0.9405759209344E+00
 0.9765928849823E+00
 0.1002248687811E+01
 0.1018000886340E+01
 0.1024211507404E+01
 0.1021392427716E+01
 0.1010198880081E+01
 0.9909094399672E+00
 0.9633233562078E+00
 0.9266939278308E+00
 0.8797951219589E+00
 0.8215353534862E+00
 0.7538482205485E+00
 0.4185792862329E+00
 0.5079084403306E+00
 0.5968486652487E+00
 0.6802858380044E+00
 0.7550655186900E+00
 0.8196208030892E+00
 0.8733823056081E+00
 0.9163140075568E+00
 0.9486422789434E+00
 0.9707419094294E+00
 0.9830643473411E+00
 0.9859149147465E+00
 0.9798175389483E+00
 0.9655528204384E+00
 0.9434915514512E+00
 0.9135260106976E+00
 0.8750851122867E+00
 0.8269513389471E+00
 0.7669988317420E+00
 0.6968598390930E+00
 0.4313784842434E+00
 0.5127677962118E+00
 0.5956680421546E+00
 0.6739090096358E+00
 0.7439454111874E+00
 0.8040863945953E+00
 0.8536950993212E+00
 0.8926935238400E+00
 0.9212756553197E+00
 0.9398023115718E+00
 0.9487446256842E+00
 0.9483386968419E+00
 0.9391151310485E+00
 0.9220046404819E+00
 0.8974459511875E+00
 0.8654004553371E+00
 0.8254065898176E+00
 0.7768873474120E+00
 0.7173227382643E+00
 0.6449683835204E+00
 0.4442814814805E+00
 0.5184705545103E+00
 0.5956902115236E+00
 0.6687165763446E+00
 0.7339088966378E+00
 0.7895181812359E+00
 0.8348603355043E+00
 0.8698289857284E+00
 0.8946059611731E+00
 0.9095351021662E+00
 0.9151139971170E+00
 0.9115603670254E+00
 0.8993722425063E+00
 0.8796330751928E+00
 0.8528959311835E+00
 0.8190544475875E+00
 0.7776769072155E+00
 0.7283278640035E+00
 0.6709823615620E+00
 0.6026387170859E+00
 0.9459693775863E+00
 0.3535901557160E+00
 0.7093123616511E-01
 0.3722363625752E-02
 0.4697630186876E-01
 0.7721818841805E-01
 0.1013111829094E+00
 0.1213069412992E+00
 0.1372387662178E+00
 0.1484670047727E+00
 0.1532993589385E+00
 0.1494459493814E+00
 0.1337616682173E+00
 0.1074199422483E+00
 0.7359162174582E-01
 0.3540836588621E-01
 0.7393267432607E-02
 0.4092369762604E-01
 0.7766389437067E-01
 0.1333425096747E+00
 0.9837474197249E+00
 0.6878277872087E+00
 0.2728199160529E+00
 0.1103043848593E+00
 0.3601134395048E-01
 0.9619498187776E-02
 0.4126414557985E-01
 0.6583922495413E-01
 0.8552639983515E-01
 0.1005838513518E+00
 0.1102133305810E+00
 0.1145933530253E+00
 0.1098463153853E+00
 0.9330273400866E-01
 0.6758015976217E-01
 0.3652680024668E-01
 0.6428554033951E-02
 0.2640154887828E-01
 0.5733783703789E-01
 0.9096786880570E-01
 0.9151418222766E+00
 0.7934677701644E+00
 0.4700225654753E+00
 0.2490237213321E+00
 0.1361131821071E+00
 0.7122758466960E-01
 0.2847412321120E-01
 0.2857957500061E-02
 0.2737901185468E-01
 0.4711873468377E-01
 0.6234169410321E-01
 0.7379980031298E-01
 0.7776376972794E-01
 0.6989183050608E-01
 0.5212198295765E-01
 0.2833584521099E-01
 0.3794081053948E-02
 0.2162391445797E-01
 0.4419481676729E-01
 0.6328252083417E-01
 0.8448189579149E+00
 0.8173697238601E+00
 0.5936125433142E+00
 0.3851394433092E+00
 0.2469864771237E+00
 0.1624225941669E+00
 0.1071643501789E+00
 0.6781642619642E-01
 0.3739903699224E-01
 0.1246097090830E-01
 0.8319527782292E-02
 0.2610706431769E-01
 0.3757511704790E-01
 0.3743641985457E-01
 0.2697739438461E-01
 0.1000777316989E-01
 0.9169935341390E-02
 0.2789696287660E-01
 0.4430412396903E-01
 0.5779718906710E-01
 0.7823400701826E+00
 0.8081051179487E+00
 0.6652254009625E+00
 0.4932229946976E+00
 0.3550736609436E+00
 0.2586722608519E+00
 0.1925483521627E+00
 0.1451128567357E+00
 0.1085767881271E+00
 0.7837629308322E-01
 0.5246617299317E-01
 0.2907938164129E-01
 0.1118554256846E-01
 0.4694568251684E-02
 0.8485111689221E-02
 0.1933315790966E-01
 0.3331852907689E-01
 0.4773155983013E-01
 0.6146226609806E-01
 0.7643005892222E-01
 0.7290241554990E+00
 0.7851263866053E+00
 0.7036782296440E+00
 0.5731769568249E+00
 0.4499315040119E+00
 0.3528970802908E+00
 0.2808608938475E+00
 0.2272035408864E+00
 0.1852964516841E+00
 0.1503537489310E+00
 0.1198814455096E+00
 0.9172612015284E-01
 0.6826117187642E-01
 0.5569034401440E-01
 0.5418526009327E-01
 0.6026989612624E-01
 0.7051274617757E-01
 0.8269901043235E-01
 0.9699322786638E-01
 0.1178345567915E+00
 0.6838289725375E+00
 0.7572911957942E+00
 0.7216114368153E+00
 0.6302487157627E+00
 0.5289587189998E+00
 0.4398629293956E+00
 0.3680471036632E+00
 0.3115557915434E+00
 0.2660998821513E+00
 0.2275958972627E+00
 0.1935776925031E+00
 0.1617437211442E+00
 0.1339572535051E+00
 0.1166527766120E+00
 0.1108452604742E+00
 0.1133982122440E+00
 0.1214556240093E+00
 0.1333714457818E+00
 0.1504828490097E+00
 0.1791040758559E+00
 0.6453504693092E+00
 0.7288209658475E+00
 0.7271294600912E+00
 0.6701449775606E+00
 0.5930955722595E+00
 0.5173307789194E+00
 0.4510353770615E+00
 0.3956219096853E+00
 0.3491957100253E+00
 0.3089123037684E+00
 0.2727672860445E+00
 0.2385927934537E+00
 0.2078538983017E+00
 0.1871394132942E+00
 0.1783470577140E+00
 0.1787688634826E+00
 0.1861184007205E+00
 0.1992433611679E+00
 0.2202962732788E+00
 0.2566514955795E+00
 0.6122671008481E+00
 0.7017163008498E+00
 0.7254001565856E+00
 0.6976636574604E+00
 0.6445892594225E+00
 0.5850075495056E+00
 0.5281197104697E+00
 0.4773715319542E+00
 0.4328024440007E+00
 0.3928996068042E+00
 0.3563719724620E+00
 0.3214307053727E+00
 0.2892846447929E+00
 0.2666262941683E+00
 0.2562329274419E+00
 0.2558581612846E+00
 0.2636950572289E+00
 0.2789029277074E+00
 0.3040220080267E+00
 0.3467245286523E+00
 0.5834560487885E+00
 0.6768470509008E+00
 0.7197135703495E+00
 0.7165153503698E+00
 0.6859094650966E+00
 0.6436264940071E+00
 0.5986631766041E+00
 0.5554607350500E+00
 0.5154005071726E+00
 0.4781320145052E+00
 0.4431349761184E+00
 0.4091509299940E+00
 0.3772601157340E+00
 0.3542013575731E+00
 0.3435679125020E+00
 0.3435570471595E+00
 0.3527111481235E+00
 0.3702997166130E+00
 0.3988600247400E+00
 0.4457427412664E+00
 0.5579992098737E+00
 0.6544888448539E+00
 0.7121481178409E+00
 0.7294568437249E+00
 0.7193060744741E+00
 0.6943403766156E+00
 0.6627100877601E+00
 0.6291415918778E+00
 0.5958241389656E+00
 0.5632954824168E+00
 0.5317316862454E+00
 0.5004551279530E+00
 0.4705038457929E+00
 0.4485791497441E+00
 0.4389629280723E+00
 0.4402442516932E+00
 0.4511848449146E+00
 0.4709977933351E+00
 0.5019080551051E+00
 0.5504818043815E+00
 0.5351595869738E+00
 0.6346024316198E+00
 0.7039887184277E+00
 0.7384827654063E+00
 0.7466604253448E+00
 0.7383804657029E+00
 0.7206681252569E+00
 0.6980930098852E+00
 0.6732381161886E+00
 0.6472476414829E+00
 0.6208534217771E+00
 0.5939313379102E+00
 0.5675174357276E+00
 0.5481608180208E+00
 0.5406500137409E+00
 0.5439007161570E+00
 0.5567941931320E+00
 0.5783814296934E+00
 0.6103545615945E+00
 0.6581586259890E+00
 0.5143520328272E+00
 0.6169854015736E+00
 0.6959930484804E+00
 0.7449991390844E+00
 0.7694653136466E+00
 0.7768827619304E+00
 0.7730914424689E+00
 0.7622573353801E+00
 0.7470654736553E+00
 0.7290228960332E+00
 0.7092581800247E+00
 0.6881249797506E+00
 0.6666597244933E+00
 0.6511215068990E+00
 0.6465869487872E+00
 0.6522386532897E+00
 0.6670270601865E+00
 0.6898066564404E+00
 0.7215975158204E+00
 0.7664578095981E+00
 0.4951160314247E+00
 0.6013570451061E+00
 0.6885645409314E+00
 0.7499633291716E+00
 0.7888562828097E+00
 0.8108110924293E+00
 0.8205472377162E+00
 0.8217133051897E+00
 0.8169076291120E+00
 0.8078097922772E+00
 0.7957956101304E+00
 0.7815974194396E+00
 0.7662292459581E+00
 0.7555123404347E+00
 0.7545771380176E+00
 0.7628315842611E+00
 0.7793050927253E+00
 0.8026995256228E+00
 0.8333022110033E+00
 0.8735237257871E+00
 0.4770922994476E+00
 0.5874064901090E+00
 0.6818672724698E+00
 0.7539925336029E+00
 0.8056598716740E+00
 0.8409331424388E+00
 0.8635413537005E+00
 0.8765885000156E+00
 0.8824764737256E+00
 0.8829200442587E+00
 0.8794161466483E+00
 0.8729714785678E+00
 0.8645426124239E+00
 0.8593683458208E+00
 0.8623987197199E+00
 0.8732442338525E+00
 0.8910840277431E+00
 0.9146042076050E+00
 0.9434011189967E+00
 0.9779303140836E+00
 0.4600029664893E+00
 0.5748196520152E+00
 0.6759039739608E+00
 0.7574475727151E+00
 0.8204447867180E+00
 0.8678245983107E+00
 0.9024826731266E+00
 0.9270049024153E+00
 0.9435443925669E+00
 0.9537597644856E+00
 0.9591716314131E+00
 0.9609638781062E+00
 0.9600012745424E+00
 0.9608138608910E+00
 0.9679432220673E+00
 0.9811747968578E+00
 0.9999502551286E+00
 0.1023188649296E+01
 0.1050029362264E+01
 0.1078627597076E+01
 0.4436342844247E+00
 0.5632928799346E+00
 0.6705703197617E+00
 0.7604987282113E+00
 0.8335714000724E+00
 0.8918881614628E+00
 0.9376721760167E+00
 0.9730494107433E+00
 0.9999118412500E+00
 0.1019807735742E+01
 0.1034212324300E+01
 0.1044404078416E+01
 0.1051136873028E+01
 0.1058145184493E+01
 0.1069356122670E+01
 0.1084639553381E+01
 0.1103760608630E+01
 0.1126246687738E+01
 0.1151369662601E+01
 0.1174851341182E+01
 0.4278196537925E+00
 0.5525382114834E+00
 0.6656935334073E+00
 0.7631805676681E+00
 0.8452391227688E+00
 0.9133809065116E+00
 0.9693073926543E+00
 0.1014761253401E+01
 0.1051389688251E+01
 0.1080602234730E+01
 0.1103784815441E+01
 0.1122241755318E+01
 0.1136624830739E+01
 0.1149859448805E+01
 0.1165107824931E+01
 0.1182197349114E+01
 0.1200976510324E+01
 0.1221779370928E+01
 0.1245417644466E+01
 0.1265899071748E+01
 0.4124230597164E+00
 0.5422770209430E+00
 0.6610672897798E+00
 0.7654405872633E+00
 0.8555340199832E+00
 0.9324472740644E+00
 0.9974960359346E+00
 0.1052129688027E+01
 0.1097789220789E+01
 0.1135739361475E+01
 0.1167236781873E+01
 0.1193552974737E+01
 0.1215276122875E+01
 0.1234605206245E+01
 0.1253910499473E+01
 0.1272889080676E+01
 0.1291218058397E+01
 0.1308934158145E+01
 0.1329465011823E+01
 0.1350646270848E+01
 0.3972920597103E+00
 0.5322686054503E+00
 0.6564743018372E+00
 0.7671906117621E+00
 0.8644862593415E+00
 0.9491528493777E+00
 0.1022271276502E+01
 0.1085100332839E+01
 0.1138913443247E+01
 0.1184859501726E+01
 0.1224061459089E+01
 0.1257569497929E+01
 0.1286021564414E+01
 0.1311139141117E+01
 0.1334493965122E+01
 0.1355763131831E+01
 0.1374405104382E+01
 0.1389845929594E+01
 0.1403362256363E+01
 0.1424730911198E+01
 0.4583398654956E+00
 0.5273713657749E+00
 0.5995128815637E+00
 0.6670131784951E+00
 0.7262515901316E+00
 0.7756283447262E+00
 0.8145656247725E+00
 0.8430738871891E+00
 0.8614727441186E+00
 0.8702048793029E+00
 0.8698344476011E+00
 0.8609706094911E+00
 0.8440976058726E+00
 0.8204813963592E+00
 0.7912654914943E+00
 0.7561211679257E+00
 0.7145855599621E+00
 0.6662702995053E+00
 0.6127464986187E+00
 0.5624682021061E+00
 0.4740298235493E+00
 0.5388210103596E+00
 0.6065351362847E+00
 0.6683000894022E+00
 0.7204469277933E+00
 0.7617251360722E+00
 0.7919421784807E+00
 0.8114600498678E+00
 0.8209154318926E+00
 0.8210202530976E+00
 0.8126075645878E+00
 0.7966188044871E+00
 0.7736843389678E+00
 0.7453916795622E+00
 0.7134012929587E+00
 0.6774117713409E+00
 0.6371148333590E+00
 0.5924250570587E+00
 0.5464408128149E+00
 0.4958956911557E+00
 0.4901618915899E+00
 0.5513110411254E+00
 0.6149424438415E+00
 0.6709347418962E+00
 0.7155865447914E+00
 0.7481614680195E+00
 0.7690375696285E+00
 0.7790651557099E+00
 0.7792721956392E+00
 0.7706869632701E+00
 0.7544142923543E+00
 0.7315410954419E+00
 0.7028395708746E+00
 0.6703728636706E+00
 0.6362439599640E+00
 0.6001928984277E+00
 0.5619248578273E+00
 0.5214269362189E+00
 0.4788225040126E+00
 0.4268844790290E+00
 0.5068471680592E+00
 0.5651839961000E+00
 0.6250542086189E+00
 0.6750367706331E+00
 0.7115913098938E+00
 0.7347317450848E+00
 0.7455997553366E+00
 0.7456628952089E+00
 0.7364068684907E+00
 0.7191854260965E+00
 0.6953315396176E+00
 0.6660045656660E+00
 0.6321110098229E+00
 0.5961893586776E+00
 0.5606637415464E+00
 0.5251553751310E+00
 0.4891117167066E+00
 0.4515467700277E+00
 0.4107919513424E+00
 0.3612488009094E+00
 0.5242744115829E+00
 0.5807742879299E+00
 0.6371268794690E+00
 0.6806326282245E+00
 0.7082476082941E+00
 0.7210654980961E+00
 0.7212078029497E+00
 0.7108773573528E+00
 0.6920574373173E+00
 0.6664054845715E+00
 0.6354288420131E+00
 0.6002886660590E+00
 0.5619911527682E+00
 0.5234807627221E+00
 0.4873012599809E+00
 0.4527752240180E+00
 0.4188355687729E+00
 0.3837466471052E+00
 0.3454524869246E+00
 0.3004135263342E+00
 0.5426876656948E+00
 0.5984501392568E+00
 0.6513513552056E+00
 0.6876026025124E+00
 0.7051527915090E+00
 0.7065940079075E+00
 0.6952614875061E+00
 0.6741904592947E+00
 0.6458651210607E+00
 0.6121894263068E+00
 0.5747627238360E+00
 0.5346616641029E+00
 0.4929321614232E+00
 0.4528145568910E+00
 0.4167661593791E+00
 0.3836856049426E+00
 0.3520291644995E+00
 0.3196681722952E+00
 0.2846524161829E+00
 0.2450583817235E+00
 0.5623997904383E+00
 0.6186076232790E+00
 0.6678272328660E+00
 0.6956322635634E+00
 0.7016656831503E+00
 0.6905199962601E+00
 0.6669765581649E+00
 0.6349608436072E+00
 0.5974087917337E+00
 0.5563641391325E+00
 0.5133992816394E+00
 0.4693989183917E+00
 0.4253747543322E+00
 0.3847457000499E+00
 0.3497048801538E+00
 0.3186895306657E+00
 0.2897714295240E+00
 0.2606337306162E+00
 0.2295539476544E+00
 0.1956100068485E+00
 0.5838086840112E+00
 0.6416618413165E+00
 0.6865162033286E+00
 0.7041513138477E+00
 0.6968552198512E+00
 0.6717929011464E+00
 0.6353917413686E+00
 0.5924567103112E+00
 0.5462502792769E+00
 0.4987860152347E+00
 0.4514499066946E+00
 0.4048098287139E+00
 0.3597699629977E+00
 0.3198204479854E+00
 0.2867536164265E+00
 0.2585466622240E+00
 0.2329576253261E+00
 0.2075813049662E+00
 0.1808767179876E+00
 0.1524184389728E+00
 0.6074176263568E+00
 0.6680281937207E+00
 0.7071747073023E+00
 0.7122538872189E+00
 0.6894437719077E+00
 0.6490929962955E+00
 0.5993942145365E+00
 0.5459097711536E+00
 0.4919982683324E+00
 0.4393986139617E+00
 0.3891135011800E+00
 0.3412628081101E+00
 0.2965844069617E+00
 0.2585521547724E+00
 0.2284611437970E+00
 0.2038516408576E+00
 0.1822163415318E+00
 0.1611007791325E+00
 0.1390514940853E+00
 0.1157747807807E+00
 0.6338600604965E+00
 0.6980884605465E+00
 0.7292559438998E+00
 0.7185943454522E+00
 0.6777458942097E+00
 0.6208322934820E+00
 0.5577747489406E+00
 0.4945998035254E+00
 0.4343944346221E+00
 0.3783009138703E+00
 0.3267190244216E+00
 0.2792032300174E+00
 0.2362961639702E+00
 0.2013948990768E+00
 0.1752447595151E+00
 0.1549937446968E+00
 0.1379060475008E+00
 0.1214907242624E+00
 0.1042888606951E+00
 0.8588939449345E-01
 0.6639297991384E+00
 0.7321311131609E+00
 0.7517652962745E+00
 0.7212505339796E+00
 0.6596087131970E+00
 0.5851887615906E+00
 0.5093300964232E+00
 0.4379799671563E+00
 0.3734219969185E+00
 0.3158192095004E+00
 0.2647598081036E+00
 0.2191600831465E+00
 0.1793846493504E+00
 0.1487266431590E+00
 0.1273765922749E+00
 0.1121580103594E+00
 0.1001413548690E+00
 0.8880399970569E-01
 0.7660770415667E-01
 0.6285876358459E-01
 0.6986168293721E+00
 0.7702462788472E+00
 0.7730424915907E+00
 0.7175460183340E+00
 0.6323713333343E+00
 0.5402048147061E+00
 0.4530379634267E+00
 0.3758509299227E+00
 0.3094288272787E+00
 0.2525679037099E+00
 0.2039069747436E+00
 0.1617350311104E+00
 0.1263142427251E+00
 0.1008405624519E+00
 0.8498916205521E-01
 0.7534723726190E-01
 0.6882836591764E-01
 0.6288442348904E-01
 0.5584852487959E-01
 0.4664063083027E-01
 0.7391466078164E+00
 0.8121376570852E+00
 0.7904263144421E+00
 0.7038280244567E+00
 0.5928856071781E+00
 0.4840048650041E+00
 0.3883355831188E+00
 0.3085804042782E+00
 0.2432405377931E+00
 0.1894733980474E+00
 0.1449858993425E+00
 0.1075683625367E+00
 0.7751194265436E-01
 0.5794450948396E-01
 0.4809577055889E-01
 0.4441602132637E-01
 0.4370367517341E-01
 0.4340094875678E-01
 0.4169122349644E-01
 0.3705714717328E-01
 0.7870136885629E+00
 0.8567759049455E+00
 0.7997283991165E+00
 0.6752193622109E+00
 0.5376940148137E+00
 0.4152200533413E+00
 0.3155250808047E+00
 0.2373312916914E+00
 0.1762120550442E+00
 0.1277258463316E+00
 0.8890370924927E-01
 0.5728487426775E-01
 0.3335481728244E-01
 0.2020444825387E-01
 0.1665919052591E-01
 0.1912201659326E-01
 0.2437542075771E-01
 0.2988727745209E-01
 0.3369021858569E-01
 0.3383052392845E-01
 0.8439807160003E+00
 0.9017328411971E+00
 0.7943955350130E+00
 0.6254368043648E+00
 0.4635684632493E+00
 0.3337441427959E+00
 0.2362700665164E+00
 0.1641951042919E+00
 0.1101351276941E+00
 0.6863314300896E-01
 0.3653775212369E-01
 0.1151047873369E-01
 0.6404932764291E-02
 0.1281697129468E-01
 0.9979548058556E-02
 0.1749612928889E-02
 0.1036685189878E-01
 0.2179578983379E-01
 0.3130615044263E-01
 0.3657483926086E-01
 0.9119446900904E+00
 0.9418301184648E+00
 0.7641791147034E+00
 0.5469865682062E+00
 0.3688413128122E+00
 0.2418844325194E+00
 0.1539884046630E+00
 0.9200805526399E-01
 0.4694369368497E-01
 0.1341036490747E-01
 0.1154976614106E-01
 0.2980508909168E-01
 0.4035812954890E-01
 0.4025439130068E-01
 0.3104348157521E-01
 0.1610139276753E-01
 0.1241611739252E-02
 0.1854291088989E-01
 0.3387291856592E-01
 0.4472151598177E-01
 0.9924041113629E+00
 0.9661516585145E+00
 0.6931232628573E+00
 0.4328108544568E+00
 0.2561631291513E+00
 0.1456919178149E+00
 0.7342522146624E-01
 0.2371700851558E-01
 0.1170542823713E-01
 0.3714797259423E-01
 0.5464228562565E-01
 0.6590740280610E-01
 0.6947541884825E-01
 0.6269753061463E-01
 0.4726862240506E-01
 0.2644443257983E-01
 0.3915430315773E-02
 0.1945314255663E-01
 0.4054831028887E-01
 0.5753821498121E-01
 0.1084034072386E+01
 0.9506975329586E+00
 0.5574652343994E+00
 0.2822442125926E+00
 0.1378240562823E+00
 0.5365993578703E-01
 0.1591329005148E-02
 0.3842334189277E-01
 0.6475970921100E-01
 0.8255568144274E-01
 0.9290001704728E-01
 0.9706492496520E-01
 0.9344511657805E-01
 0.7998246554166E-01
 0.5850703858267E-01
 0.3221264001727E-01
 0.5300657572542E-02
 0.2370533196305E-01
 0.5032389333656E-01
 0.7418735248070E-01
 0.1175506532270E+01
 0.8356674375471E+00
 0.3295611859021E+00
 0.1253843300164E+00
 0.3033091707431E-01
 0.2764715758723E-01
 0.6614199372545E-01
 0.9321548828788E-01
 0.1118414797046E+00
 0.1229720323908E+00
 0.1266010455804E+00
 0.1235144173376E+00
 0.1121868388144E+00
 0.9181490466900E-01
 0.6446099979111E-01
 0.3331065868427E-01
 0.4601303663114E-02
 0.3050975992977E-01
 0.6193988402653E-01
 0.9366979961518E-01
 0.1140387620639E+01
 0.4409791846109E+00
 0.9069690432051E-01
 0.4451326071442E-02
 0.5838874057458E-01
 0.9476763598894E-01
 0.1213026756575E+00
 0.1405499142223E+00
 0.1530417279225E+00
 0.1587617641534E+00
 0.1569120545505E+00
 0.1459649850674E+00
 0.1251764463221E+00
 0.9728732536557E-01
 0.6457012859595E-01
 0.2956047383847E-01
 0.7986621617590E-02
 0.3982521562227E-01
 0.7364694006251E-01
 0.1141483802925E+00
 0.1472035445828E+01
 0.1402030649636E+01
 0.1326972626031E+01
 0.1247189332345E+01
 0.1161597223846E+01
 0.1070294656179E+01
 0.9737432919263E+00
 0.8726832670177E+00
 0.7681094433546E+00
 0.6613153988624E+00
 0.5539667624102E+00
 0.4481983787169E+00
 0.3467306663304E+00
 0.2529964590810E+00
 0.1712532739463E+00
 0.1066189038711E+00
 0.6490373984396E-01
 0.5211384972228E-01
 0.7250220816078E-01
 0.1269177899203E+00
 0.1557597253525E+01
 0.1503710343416E+01
 0.1436892568089E+01
 0.1362457214995E+01
 0.1281791074710E+01
 0.1195040250668E+01
 0.1102317415533E+01
 0.1003879972568E+01
 0.9002228745825E+00
 0.7921423406237E+00
 0.6808198073262E+00
 0.5679379847504E+00
 0.4558392278594E+00
 0.3477350379890E+00
 0.2479731083765E+00
 0.1623562847517E+00
 0.9847890224250E-01
 0.6602813595020E-01
 0.7669971138092E-01
 0.1388953738136E+00
 0.1641582124521E+01
 0.1596240022658E+01
 0.1540989280302E+01
 0.1476283245187E+01
 0.1403914750966E+01
 0.1324616578114E+01
 0.1238637166313E+01
 0.1146115520293E+01
 0.1047257727066E+01
 0.9424507530997E+00
 0.8323589829102E+00
 0.7180369117745E+00
 0.6010816218446E+00
 0.4838517798657E+00
 0.3697911599995E+00
 0.2639190395497E+00
 0.1735923785177E+00
 0.1097613377819E+00
 0.8915213602350E-01
 0.1348803007918E+00
 0.1723683562255E+01
 0.1685872465715E+01
 0.1640190848156E+01
 0.1585974130405E+01
 0.1523702958609E+01
 0.1454001528527E+01
 0.1377191435157E+01
 0.1293417426977E+01
 0.1202784454100E+01
 0.1105462085127E+01
 0.1001771512145E+01
 0.8922740355646E+00
 0.7778830494232E+00
 0.6600274705645E+00
 0.5409115395623E+00
 0.4239531220947E+00
 0.3145697186458E+00
 0.2216827673429E+00
 0.1609670137717E+00
 0.1641353465081E+00
 0.1801801731047E+01
 0.1771447405300E+01
 0.1734566984458E+01
 0.1690228383618E+01
 0.1638318951189E+01
 0.1579045467522E+01
 0.1512627682217E+01
 0.1439199330838E+01
 0.1358850956538E+01
 0.1271694513229E+01
 0.1177927250776E+01
 0.1077895851124E+01
 0.9721707286917E+00
 0.8616474816903E+00
 0.7477037080007E+00
 0.6324634528194E+00
 0.5192720058839E+00
 0.4136224186152E+00
 0.3251734275186E+00
 0.2736500373130E+00
 0.1874496475375E+01
 0.1851514143053E+01
 0.1822842268023E+01
 0.1787640454985E+01
 0.1745520314672E+01
 0.1696403685999E+01
 0.1640325914512E+01
 0.1577336498838E+01
 0.1507477043816E+01
 0.1430803543581E+01
 0.1347420392131E+01
 0.1257515572227E+01
 0.1161394824613E+01
 0.1059515840442E+01
 0.9525237802707E+00
 0.8412852691726E+00
 0.7269048009347E+00
 0.6106475790083E+00
 0.4935114249334E+00
 0.3728779535826E+00
 0.1940632476973E+01
 0.1924731630090E+01
 0.1903677556458E+01
 0.1876762651642E+01
 0.1843499680561E+01
 0.1803612859497E+01
 0.1756949040329E+01
 0.1703400485865E+01
 0.1642867001283E+01
 0.1575244800676E+01
 0.1500426068520E+01
 0.1418294700110E+01
 0.1328707227264E+01
 0.1231445990699E+01
 0.1126122540290E+01
 0.1011987131656E+01
 0.8875459032908E+00
 0.7497564834801E+00
 0.5921242982556E+00
 0.4002159343661E+00
 0.1999355821319E+01
 0.1990054257708E+01
 0.1975950113907E+01
 0.1956427671052E+01
 0.1930949461110E+01
 0.1899093720651E+01
 0.1860520289193E+01
 0.1814921400573E+01
 0.1761981155633E+01
 0.1701345751522E+01
 0.1632595270275E+01
 0.1555205240572E+01
 0.1468484137388E+01
 0.1371468675455E+01
 0.1262748600896E+01
 0.1140172259966E+01
 0.1000347006504E+01
 0.8377837877403E+00
 0.6435354800570E+00
 0.4044198981500E+00
 0.2049997570054E+01
 0.2046647719506E+01
 0.2038742490099E+01
 0.2025691292841E+01
 0.2006903218107E+01
 0.1981825699263E+01
 0.1949933927303E+01
 0.1910698547920E+01
 0.1863548327286E+01
 0.1807831662195E+01
 0.1742772875926E+01
 0.1667414746271E+01
 0.1580535973385E+01
 0.1480528958647E+01
 0.1365218458596E+01
 0.1231596303515E+01
 0.1075449080773E+01
 0.8909029609918E+00
 0.6702165753950E+00
 0.4054205446749E+00
 0.2092021130419E+01
 0.2093832523548E+01
 0.2091283210735E+01
 0.2083748788781E+01
 0.2070566092439E+01
 0.2051054361604E+01
 0.2024509706647E+01
 0.1990181425823E+01
 0.1947238868505E+01
 0.1894732128451E+01
 0.1831544900649E+01
 0.1756334750978E+01
 0.1667454362087E+01
 0.1562846900434E+01
 0.1439910438741E+01
 0.1295334661341E+01
 0.1124940713992E+01
 0.9236462687538E+00
 0.6859351399131E+00
 0.4087154366591E+00
 0.2125030014744E+01
 0.2131137467386E+01
 0.2133040745044E+01
 0.2130051867854E+01
 0.2121421899775E+01
 0.2106345171245E+01
 0.2083951441724E+01
 0.2053286060034E+01
 0.2013281613512E+01
 0.1962723146135E+01
 0.1900206846664E+01
 0.1824090703378E+01
 0.1732435600355E+01
 0.1622937310714E+01
 0.1492855523607E+01
 0.1338959439385E+01
 0.1157540833862E+01
 0.9446163903511E+00
 0.6966828343385E+00
 0.4142142787426E+00
 0.2148742627672E+01
 0.2158253351631E+01
 0.2163682924413E+01
 0.2164275525587E+01
 0.2159196182766E+01
 0.2147525056256E+01
 0.2128246533219E+01
 0.2100231638539E+01
 0.2062214946661E+01
 0.2012767456354E+01
 0.1950266392855E+01
 0.1872862814692E+01
 0.1778448935552E+01
 0.1664629995183E+01
 0.1528711602718E+01
 0.1367725333800E+01
 0.1178538361934E+01
 0.9581514344858E+00
 0.7045490844827E+00
 0.4205923628564E+00
 0.2162980796680E+01
 0.2174996416817E+01
 0.2183028591661E+01
 0.2186263745163E+01
 0.2183793069475E+01
 0.2174602117263E+01
 0.2157558359356E+01
 0.2131395772022E+01
 0.2094697200717E+01
 0.2045875914153E+01
 0.1983158059033E+01
 0.1904568267477E+01
 0.1807921971653E+01
 0.1690830551634E+01
 0.1550730028331E+01
 0.1384952099648E+01
 0.1190873686870E+01
 0.9662382519977E+00
 0.7100330093848E+00
 0.4266647527808E+00
 0.2167662111635E+01
 0.2181288205113E+01
 0.2191013666289E+01
 0.2195984872756E+01
 0.2195239978384E+01
 0.2187696660426E+01
 0.2172139449068E+01
 0.2147206579653E+01
 0.2111377332349E+01
 0.2062961498153E+01
 0.2000093133972E+01
 0.1920731424018E+01
 0.1822672498806E+01
 0.1703577739863E+01
 0.1561026882452E+01
 0.1392609747905E+01
 0.1196085965521E+01
 0.9697033252357E+00
 0.7130850387668E+00
 0.4316052375789E+00
 0.2162793109989E+01
 0.2177143231456E+01
 0.2187669905212E+01
 0.2193501280135E+01
 0.2193648454861E+01
 0.2186992611569E+01
 0.2172272655902E+01
 0.2148073930814E+01
 0.2112819274992E+01
 0.2064764283800E+01
 0.2001999149255E+01
 0.1922459987082E+01
 0.1823953181876E+01
 0.1704197131641E+01
 0.1560887361553E+01
 0.1391795398518E+01
 0.1194927632476E+01
 0.9688364296603E+00
 0.7135143031616E+00
 0.4348872042941E+00
 0.2148463999632E+01
 0.2162661387275E+01
 0.2173112703842E+01
 0.2178951717815E+01
 0.2179191068208E+01
 0.2172709198084E+01
 0.2158238206159E+01
 0.2134353508732E+01
 0.2099466748208E+01
 0.2051823903100E+01
 0.1989511026017E+01
 0.1910470454058E+01
 0.1812530693922E+01
 0.1693453589705E+01
 0.1551003455373E+01
 0.1383047059795E+01
 0.1187710018406E+01
 0.9636842203120E+00
 0.7111274129781E+00
 0.4361919614245E+00
 0.2124845560601E+01
 0.2138024023592E+01
 0.2147535444186E+01
 0.2152543428844E+01
 0.2152091367371E+01
 0.2145089232314E+01
 0.2130301241784E+01
 0.2106335312740E+01
 0.2071635703854E+01
 0.2024480731218E+01
 0.1962987920473E+01
 0.1885129400095E+01
 0.1788760719276E+01
 0.1671666690992E+01
 0.1531628958366E+01
 0.1366524305566E+01
 0.1174479783278E+01
 0.9541806984646E+00
 0.7057729019653E+00
 0.4353491081716E+00
 0.2092188851843E+01
 0.2103494430216E+01
 0.2111210564869E+01
 0.2114553807356E+01
 0.2112626404588E+01
 0.2104403018303E+01
 0.2088717837188E+01
 0.2064252800044E+01
 0.2029528049594E+01
 0.1982896233203E+01
 0.1922542814995E+01
 0.1846495173072E+01
 0.1752643947588E+01
 0.1638780983310E+01
 0.1502659813307E+01
 0.1342089248002E+01
 0.1155087296954E+01
 0.9401906380117E+00
 0.6973518433163E+00
 0.4323110008365E+00
 0.2050827537699E+01
 0.2059422212867E+01
 0.2064496415908E+01
 0.2065340243752E+01
 0.2061140171948E+01
 0.2050965939028E+01
 0.2033757154208E+01
 0.2008309771803E+01
 0.1973263063331E+01
 0.1927088222817E+01
 0.1868080333561E+01
 0.1794356249014E+01
 0.1703862120598E+01
 0.1594396023638E+01
 0.1463653828519E+01
 0.1309311874552E+01
 0.1129175967912E+01
 0.9214890009501E+00
 0.6858055372766E+00
 0.4271616487098E+00
 0.2001183027055E+01
 0.2006251721129E+01
 0.2007849907419E+01
 0.2005358202320E+01
 0.1998068105089E+01
 0.1985170119550E+01
 0.1965740556371E+01
 0.1938726494390E+01
 0.1902928994712E+01
 0.1856984986564E+01
 0.1799348757645E+01
 0.1728274883231E+01
 0.1641806011342E+01
 0.1537771596616E+01
 0.1413808064232E+01
 0.1267418347101E+01
 0.1096105037634E+01
 0.8976678692635E+00
 0.6710369358646E+00
 0.4201182257309E+00
 0.1943769799093E+01
 0.1944530483322E+01
 0.1941840386257E+01
 0.1935181944852E+01
 0.1923965662960E+01
 0.1907521538158E+01
 0.1885087243258E+01
 0.1855792697246E+01
 0.1818640528916E+01
 0.1772481960206E+01
 0.1715987830971E+01
 0.1647615128590E+01
 0.1565570906893E+01
 0.1467778623787E+01
 0.1351857952918E+01
 0.1215140123596E+01
 0.1054761357410E+01
 0.8679296727772E+00
 0.6527037031385E+00
 0.4114276032371E+00
 0.1879196095824E+01
 0.1874912955908E+01
 0.1867158839019E+01
 0.1855520043551E+01
 0.1839531182474E+01
 0.1818670949441E+01
 0.1792353241769E+01
 0.1759913240658E+01
 0.1720587486362E+01
 0.1673486538902E+01
 0.1617558470424E+01
 0.1551541371240E+01
 0.1473903709767E+01
 0.1382773715558E+01
 0.1275864898846E+01
 0.1150418469687E+01
 0.1003212674844E+01
 0.8307513209402E+00
 0.6299523936331E+00
 0.4011634955526E+00
 0.1808173389023E+01
 0.1798179174594E+01
 0.1784645720896E+01
 0.1767255762710E+01
 0.1745662877681E+01
 0.1719492132635E+01
 0.1688335631979E+01
 0.1651742446529E+01
 0.1609201678049E+01
 0.1560116559065E+01
 0.1503766499509E+01
 0.1439252900831E+01
 0.1365423568458E+01
 0.1280770317314E+01
 0.1183296812747E+01
 0.1070363783683E+01
 0.9385508031384E+00
 0.7836613691906E+00
 0.6012189360462E+00
 0.3889590692283E+00
 0.1731519826292E+01
 0.1715246165385E+01
 0.1695313294315E+01
 0.1671485122858E+01
 0.1643519186830E+01
 0.1611172537457E+01
 0.1574202792146E+01
 0.1532364027991E+01
 0.1485396386980E+01
 0.1433007174163E+01
 0.1374839749364E+01
 0.1310424466978E+01
 0.1239103072437E+01
 0.1159914149051E+01
 0.1071422722539E+01
 0.9714749476079E+00
 0.8568695518186E+00
 0.7230148029153E+00
 0.5639423579166E+00
 0.3740268931625E+00
 0.1650159265580E+01
 0.1627172299288E+01
 0.1600358945543E+01
 0.1569543400252E+01
 0.1534564358362E+01
 0.1495285856435E+01
 0.1451604049473E+01
 0.1403450143926E+01
 0.1350789020956E+01
 0.1293612036505E+01
 0.1231920916948E+01
 0.1165697264992E+01
 0.1094848333102E+01
 0.1019113260161E+01
 0.9379029629472E+00
 0.8500279378748E+00
 0.7532403422974E+00
 0.6434842347296E+00
 0.5139223009563E+00
 0.3550408295300E+00
 0.1565115226538E+01
 0.1535154404792E+01
 0.1501168276998E+01
 0.1463018392168E+01
 0.1420598021908E+01
 0.1373846838580E+01
 0.1322762380298E+01
 0.1267409294972E+01
 0.1207927068573E+01
 0.1144536239092E+01
 0.1077541949556E+01
 0.1007331869063E+01
 0.9343623669107E+00
 0.8591209261679E+00
 0.7820408762084E+00
 0.7033193889877E+00
 0.6225317887109E+00
 0.5378057860795E+00
 0.4439379511038E+00
 0.3290874136586E+00
 0.1477496987005E+01
 0.1440513519833E+01
 0.1399302477025E+01
 0.1353742833908E+01
 0.1303758342429E+01
 0.1249334437202E+01
 0.1190532133338E+01
 0.1127500792026E+01
 0.1060491949314E+01
 0.9898761702059E+00
 0.9161644546335E+00
 0.8400352214055E+00
 0.7623671512672E+00
 0.6842764969576E+00
 0.6071530812330E+00
 0.5326770174229E+00
 0.4627633540055E+00
 0.3992679548303E+00
 0.3428796195207E+00
 0.2879921428934E+00
 0.1388475547547E+01
 0.1344665400815E+01
 0.1296463584309E+01
 0.1243755388546E+01
 0.1186481587713E+01
 0.1124656466809E+01
 0.1058381514805E+01
 0.9878577811258E+00
 0.9134008127114E+00
 0.8354620210039E+00
 0.7546603701833E+00
 0.6718291022453E+00
 0.5880843059709E+00
 0.5049261191872E+00
 0.4243904102384E+00
 0.3492814613935E+00
 0.2835420320079E+00
 0.2328779665957E+00
 0.2059869632307E+00
 0.2166058646094E+00
 0.1299246603600E+01
 0.1249070788501E+01
 0.1194428620422E+01
 0.1135214124992E+01
 0.1071390340250E+01
 0.1003009415944E+01
 0.9302246323543E+00
 0.8532997453848E+00
 0.7726219860265E+00
 0.6887242721843E+00
 0.6023219751534E+00
 0.5143710925485E+00
 0.4261587719152E+00
 0.3394452937006E+00
 0.2566918807764E+00
 0.1814359276931E+00
 0.1189115045699E+00
 0.7705178315046E-01
 0.6922655430518E-01
 0.1269004659486E+00
 0.1210978288509E+01
 0.1155160199943E+01
 0.1094941363873E+01
 0.1030239223089E+01
 0.9610647534393E+00
 0.8875476392061E+00
 0.8099462226553E+00
 0.7286536906872E+00
 0.6442108831077E+00
 0.5573329776924E+00
 0.4689560603229E+00
 0.3803112898916E+00
 0.2930400120395E+00
 0.2093764689616E+00
 0.1324627192579E+00
 0.6704015389833E-01
 0.2262315244886E-01
 0.1645526753802E-01
 0.8696512192759E-02
 0.9130929510991E-01
 0.1124747432027E+01
 0.1064237599643E+01
 0.9995643914668E+00
 0.9306827655387E+00
 0.8576855919025E+00
 0.7808332146721E+00
 0.7005559737685E+00
 0.6174539768345E+00
 0.5323093419462E+00
 0.4461184311641E+00
 0.3601486087122E+00
 0.2760257546382E+00
 0.1958668337862E+00
 0.1225024011474E+00
 0.6004094238801E-01
 0.1864302481472E-01
 0.2440910371405E-01
 0.2086656455283E-01
 0.2153063196011E-01
 0.1124779212865E+00
 0.1041480504086E+01
 0.9773944840981E+00
 0.9095476476027E+00
 0.8379299998233E+00
 0.7627463343676E+00
 0.6844333691904E+00
 0.6036390594535E+00
 0.5212059706167E+00
 0.4381764063754E+00
 0.3558229429767E+00
 0.2757035035355E+00
 0.1997424625627E+00
 0.1303524604872E+00
 0.7068823339352E-01
 0.2603873136072E-01
 0.1649147088345E-01
 0.2091613153562E-01
 0.3514429360045E-02
 0.4975864062156E-01
 0.1311124282532E+00
 0.9619201688244E+00
 0.8954671485233E+00
 0.8257582221243E+00
 0.7528055861243E+00
 0.6769582411350E+00
 0.5988667891965E+00
 0.5194152091240E+00
 0.4396770250757E+00
 0.3609086930887E+00
 0.2845731980532E+00
 0.2123835595082E+00
 0.1463613790653E+00
 0.8892451669727E-01
 0.4314008888356E-01
 0.1473010183048E-01
 0.1245982930622E-01
 0.6416318223252E-02
 0.2385460111791E-01
 0.7413940243039E-01
 0.1440814749851E+00
 0.8866293277525E+00
 0.8190261743446E+00
 0.7486468972145E+00
 0.6755392276290E+00
 0.6002531157864E+00
 0.5236926334571E+00
 0.4469739859336E+00
 0.3713530464643E+00
 0.2982130107492E+00
 0.2290839868783E+00
 0.1656728910738E+00
 0.1098925011051E+00
 0.6389596623732E-01
 0.3018830821260E-01
 0.1189795660499E-01
 0.6881425166318E-02
 0.1507589915795E-01
 0.4541964785022E-01
 0.9277554418677E-01
 0.1538036730792E+00
 0.8160109916304E+00
 0.7483825872327E+00
 0.6782834136970E+00
 0.6058806159000E+00
 0.5320353949137E+00
 0.4579502775955E+00
 0.3849430286385E+00
 0.3143699883745E+00
 0.2476292430693E+00
 0.1861875580159E+00
 0.1315994089022E+00
 0.8550578064587E-01
 0.4960221489870E-01
 0.2550664894852E-01
 0.1402043554472E-01
 0.1514834207072E-01
 0.3158944591808E-01
 0.6263242547678E-01
 0.1062484358236E+00
 0.1602302824190E+00
 0.7503961322364E+00
 0.6837099359390E+00
 0.6145185712352E+00
 0.5433527584794E+00
 0.4715623038166E+00
 0.4006639048699E+00
 0.3320897884425E+00
 0.2671710397234E+00
 0.2071949697032E+00
 0.1534471008729E+00
 0.1072206913832E+00
 0.6978830406452E-01
 0.4231660935958E-01
 0.2565675776905E-01
 0.2018659972706E-01
 0.2668641770891E-01
 0.4548438614340E-01
 0.7548124545861E-01
 0.1151952087363E+00
 0.1630261179670E+00
 0.6900642750467E+00
 0.6249554305053E+00
 0.5568528825107E+00
 0.4871802958259E+00
 0.4179530765713E+00
 0.3508952631401E+00
 0.2873533809949E+00
 0.2284756284683E+00
 0.1753265136967E+00
 0.1289324698603E+00
 0.9027532124361E-01
 0.6024285085288E-01
 0.3953412912683E-01
 0.2856014478885E-01
 0.2760797767122E-01
 0.3694384788740E-01
 0.5614119064186E-01
 0.8422342517157E-01
 0.1200391421727E+00
 0.1623426996937E+00
 0.6351752424160E+00
 0.5715213987678E+00
 0.5041604098754E+00
 0.4362494332874E+00
 0.3703637546069E+00
 0.3079508962250E+00
 0.2500074370293E+00
 0.1973799212480E+00
 0.1508654319442E+00
 0.1112234485768E+00
 0.7914175869697E-01
 0.5517670213899E-01
 0.3968756366880E-01
 0.3283934627765E-01
 0.3470533549912E-01
 0.4511457760005E-01
 0.6346122911489E-01
 0.8894508149273E-01
 0.1207519377298E+00
 0.1579730777579E+00
 0.5854221655558E+00
 0.5214091529682E+00
 0.4544932227252E+00
 0.3897756153960E+00
 0.3286962256817E+00
 0.2718976685221E+00
 0.2199640436096E+00
 0.1734998112643E+00
 0.1331128614239E+00
 0.9936512713103E-01
 0.7271837972567E-01
 0.5348311953582E-01
 0.4179148171743E-01
 0.3762555868446E-01
 0.4082923121388E-01
 0.5099833195852E-01
 0.6749048719274E-01
 0.8960841211901E-01
 0.1168614450024E+00
 0.1491003710982E+00
 0.5374842998142E+00
 0.4693663609943E+00
 0.4073164644523E+00
 0.3492528366884E+00
 0.2946397911038E+00
 0.2439287929808E+00
 0.1977673722073E+00
 0.1568089415994E+00
 0.1216237202462E+00
 0.9265772802492E-01
 0.7020530952064E-01
 0.5439291485684E-01
 0.4518394237307E-01
 0.4240108620973E-01
 0.4571239605175E-01
 0.5458762833179E-01
 0.6833857548204E-01
 0.8623770358539E-01
 0.1076312481390E+00
 0.1330187227138E+00
</DataArray>
<DataArray type="Float64" Name="CK" NumberOfComponents="1" ComponentName0="CK" format="ascii">
 0.0000000000000E+00
 0.0000000000000E+00
 0.0000000000000E+00
 0.0000000000000E+00
 0.0000000000000E+00
 0.0000000000000E+00
 0.0000000000000E+00
 0.0000000000000E+00
 0.0000000000000E+00
 0.0000000000000E+00
 0.0000000000000E+00
 0.0000000000000E+00
 0.0000000000000E+00
 0.0000000000000E+00
 0.0000000000000E+00
 0.0000000000000E+00
 0.0000000000000E+00
 0.0000000000000E+00
 0.0000000000000E+00
 0.0000000000000E+00
 0.0000000000000E+00
 0.0000000000000E+00
 0.0000000000000E+00
 0.0000000000000E+00
 0.0000000000000E+00
 0.0000000000000E+00
 0.0000000000000E+00
 0.0000000000000E+00
 0.0000000000000E+00
 0.0000000000000E+00
 0.0000000000000E+00
 0.0000000000000E+00
 0.0000000000000E+00
 0.0000000000000E+00
 0.0000000000000E+00
 0.0000000000000E+00
 0.0000000000000E+00
 0.0000000000000E+00
 0.0000000000000E+00
 0.0000000000000E+00
 0.0000000000000E+00
 0.0000000000000E+00
 0.0000000000000E+00
 0.0000000000000E+00
 0.0000000000000E+00
 0.0000000000000E+00
 0.0000000000000E+00
 0.0000000000000E+00
 0.0000000000000E+00
 0.0000000000000E+00
 0.0000000000000E+00
 0.0000000000000E+00
 0.0000000000000E+00
 0.0000000000000E+00
 0.0000000000000E+00
 0.0000000000000E+00
 0.0000000000000E+00
 0.0000000000000E+00
 0.0000000000000E+00
 0.0000000000000E+00
 0.0000000000000E+00
 0.0000000000000E+00
 0.0000000000000E+00
 0.0000000000000E+00
 0.0000000000000E+00
 0.0000000000000E+00
 0.0000000000000E+00
 0.0000000000000E+00
 0.0000000000000E+00
 0.0000000000000E+00
 0.0000000000000E+00
 0.0000000000000E+00
 0.0000000000000E+00
 0.0000000000000E+00
 0.0000000000000E+00
 0.0000000000000E+00
 0.0000000000000E+00
 0.0000000000000E+00
 0.0000000000000E+00
 0.0000000000000E+00
 0.0000000000000E+00
 0.0000000000000E+00
 0.0000000000000E+00
 0.0000000000000E+00
 0.0000000000000E+00
 0.0000000000000E+00
 0.0000000000000E+00
 0.0000000000000E+00
 0.0000000000000E+00
 0.0000000000000E+00
 0.0000000000000E+00
 0.0000000000000E+00
 0.0000000000000E+00
 0.0000000000000E+00
 0.0000000000000E+00
 0.0000000000000E+00
 0.0000000000000E+00
 0.0000000000000E+00
 0.0000000000000E+00
 0.0000000000000E+00
 0.0000000000000E+00
 0.0000000000000E+00
 0.0000000000000E+00
 0.0000000000000E+00
 0.0000000000000E+00
 0.0000000000000E+00
 0.0000000000000E+00
 0.0000000000000E+00
 0.0000000000000E+00
 0.0000000000000E+00
 0.0000000000000E+00
 0.0000000000000E+00
 0.0000000000000E+00
 0.0000000000000E+00
 0.0000000000000E+00
 0.0000000000000E+00
 0.0000000000000E+00
 0.0000000000000E+00
 0.0000000000000E+00
 0.0000000000000E+00
 0.0000000000000E+00
 0.0000000000000E+00
 0.0000000000000E+00
 0.0000000000000E+00
 0.0000000000000E+00
 0.0000000000000E+00
 0.0000000000000E+00
 0.0000000000000E+00
 0.0000000000000E+00
 0.0000000000000E+00
 0.0000000000000E+00
 0.0000000000000E+00
 0.0000000000000E+00
 0.0000000000000E+00
 0.0000000000000E+00
 0.0000000000000E+00
 0.0000000000000E+00
 0.0000000000000E+00
 0.0000000000000E+00
 0.0000000000000E+00
 0.0000000000000E+00
 0.0000000000000E+00
 0.0000000000000E+00
 0.0000000000000E+00
 0.0000000000000E+00
 0.0000000000000E+00
 0.0000000000000E+00
 0.0000000000000E+00
 0.0000000000000E+00
 0.0000000000000E+00
 0.0000000000000E+00
 0.0000000000000E+00
 0.0000000000000E+00
 0.0000000000000E+00
 0.0000000000000E+00
 0.0000000000000E+00
 0.0000000000000E+00
 0.0000000000000E+00
 0.0000000000000E+00
 0.0000000000000E+00
 0.0000000000000E+00
 0.0000000000000E+00
 0.0000000000000E+00
 0.0000000000000E+00
 0.0000000000000E+00
 0.0000000000000E+00
 0.0000000000000E+00
 0.0000000000000E+00
 0.0000000000000E+00
 0.0000000000000E+00
 0.0000000000000E+00
 0.0000000000000E+00
 0.0000000000000E+00
 0.0000000000000E+00
 0.0000000000000E+00
 0.0000000000000E+00
 0.0000000000000E+00
 0.0000000000000E+00
 0.0000000000000E+00
 0.0000000000000E+00
 0.0000000000000E+00
 0.0000000000000E+00
 0.0000000000000E+00
 0.0000000000000E+00
 0.0000000000000E+00
 0.0000000000000E+00
 0.0000000000000E+00
 0.0000000000000E+00
 0.0000000000000E+00
 0.0000000000000E+00
 0.0000000000000E+00
 0.0000000000000E+00
 0.0000000000000E+00
 0.0000000000000E+00
 0.0000000000000E+00
 0.0000000000000E+00
 0.0000000000000E+00
 0.0000000000000E+00
 0.0000000000000E+00
 0.0000000000000E+00
 0.0000000000000E+00
 0.0000000000000E+00
 0.0000000000000E+00
 0.0000000000000E+00
 0.0000000000000E+00
 0.0000000000000E+00
 0.0000000000000E+00
 0.0000000000000E+00
 0.0000000000000E+00
 0.0000000000000E+00
 0.0000000000000E+00
 0.0000000000000E+00
 0.0000000000000E+00
 0.0000000000000E+00
 0.0000000000000E+00
 0.0000000000000E+00
 0.0000000000000E+00
 0.0000000000000E+00
 0.0000000000000E+00
 0.0000000000000E+00
 0.0000000000000E+00
 0.0000000000000E+00
 0.0000000000000E+00
 0.0000000000000E+00
 0.0000000000000E+00
 0.0000000000000E+00
 0.0000000000000E+00
 0.0000000000000E+00
 0.0000000000000E+00
 0.0000000000000E+00
 0.0000000000000E+00
 0.0000000000000E+00
 0.0000000000000E+00
 0.0000000000000E+00
 0.0000000000000E+00
 0.0000000000000E+00
 0.0000000000000E+00
 0.0000000000000E+00
 0.0000000000000E+00
 0.0000000000000E+00
 0.0000000000000E+00
 0.0000000000000E+00
 0.0000000000000E+00
 0.0000000000000E+00
 0.0000000000000E+00
 0.0000000000000E+00
 0.0000000000000E+00
 0.0000000000000E+00
 0.0000000000000E+00
 0.0000000000000E+00
 0.0000000000000E+00
 0.0000000000000E+00
 0.0000000000000E+00
 0.0000000000000E+00
 0.0000000000000E+00
 0.0000000000000E+00
 0.0000000000000E+00
 0.0000000000000E+00
 0.0000000000000E+00
 0.0000000000000E+00
 0.0000000000000E+00
 0.0000000000000E+00
 0.0000000000000E+00
 0.0000000000000E+00
 0.0000000000000E+00
 0.0000000000000E+00
 0.0000000000000E+00
 0.0000000000000E+00
 0.0000000000000E+00
 0.0000000000000E+00
 0.0000000000000E+00
 0.0000000000000E+00
 0.0000000000000E+00
 0.0000000000000E+00
 0.0000000000000E+00
 0.0000000000000E+00
 0.0000000000000E+00
 0.0000000000000E+00
 0.0000000000000E+00
 0.0000000000000E+00
 0.0000000000000E+00
 0.0000000000000E+00
 0.0000000000000E+00
 0.0000000000000E+00
 0.0000000000000E+00
 0.0000000000000E+00
 0.0000000000000E+00
 0.0000000000000E+00
 0.0000000000000E+00
 0.0000000000000E+00
 0.0000000000000E+00
 0.0000000000000E+00
 0.0000000000000E+00
 0.0000000000000E+00
 0.0000000000000E+00
 0.0000000000000E+00
 0.0000000000000E+00
 0.0000000000000E+00
 0.0000000000000E+00
 0.0000000000000E+00
 0.0000000000000E+00
 0.0000000000000E+00
 0.0000000000000E+00
 0.0000000000000E+00
 0.0000000000000E+00
 0.0000000000000E+00
 0.0000000000000E+00
 0.0000000000000E+00
 0.0000000000000E+00
 0.0000000000000E+00
 0.0000000000000E+00
 0.0000000000000E+00
 0.0000000000000E+00
 0.0000000000000E+00
 0.0000000000000E+00
 0.0000000000000E+00
 0.0000000000000E+00
 0.0000000000000E+00
 0.0000000000000E+00
 0.0000000000000E+00
 0.0000000000000E+00
 0.0000000000000E+00
 0.0000000000000E+00
 0.0000000000000E+00
 0.0000000000000E+00
 0.0000000000000E+00
 0.0000000000000E+00
 0.0000000000000E+00
 0.0000000000000E+00
 0.0000000000000E+00
 0.0000000000000E+00
 0.0000000000000E+00
 0.0000000000000E+00
 0.0000000000000E+00
 0.0000000000000E+00
 0.0000000000000E+00
 0.0000000000000E+00
 0.0000000000000E+00
 0.0000000000000E+00
 0.0000000000000E+00
 0.0000000000000E+00
 0.0000000000000E+00
 0.0000000000000E+00
 0.0000000000000E+00
 0.0000000000000E+00
 0.0000000000000E+00
 0.0000000000000E+00
 0.0000000000000E+00
 0.0000000000000E+00
 0.0000000000000E+00
 0.0000000000000E+00
 0.0000000000000E+00
 0.0000000000000E+00
 0.0000000000000E+00
 0.0000000000000E+00
 0.0000000000000E+00
 0.0000000000000E+00
 0.0000000000000E+00
 0.0000000000000E+00
 0.0000000000000E+00
 0.0000000000000E+00
 0.0000000000000E+00
 0.0000000000000E+00
 0.0000000000000E+00
 0.0000000000000E+00
 0.0000000000000E+00
 0.0000000000000E+00
 0.0000000000000E+00
 0.0000000000000E+00
 0.0000000000000E+00
 0.0000000000000E+00
 0.0000000000000E+00
 0.0000000000000E+00
 0.0000000000000E+00
 0.0000000000000E+00
 0.0000000000000E+00
 0.0000000000000E+00
 0.0000000000000E+00
 0.0000000000000E+00
 0.0000000000000E+00
 0.0000000000000E+00
 0.0000000000000E+00
 0.0000000000000E+00
 0.0000000000000E+00
 0.0000000000000E+00
 0.0000000000000E+00
 0.0000000000000E+00
 0.0000000000000E+00
 0.0000000000000E+00
 0.0000000000000E+00
 0.0000000000000E+00
 0.0000000000000E+00
 0.0000000000000E+00
 0.0000000000000E+00
 0.0000000000000E+00
 0.0000000000000E+00
 0.0000000000000E+00
 0.0000000000000E+00
 0.0000000000000E+00
 0.0000000000000E+00
 0.0000000000000E+00
 0.0000000000000E+00
 0.0000000000000E+00
 0.0000000000000E+00
 0.0000000000000E+00
 0.0000000000000E+00
 0.0000000000000E+00
 0.0000000000000E+00
 0.0000000000000E+00
 0.0000000000000E+00
 0.0000000000000E+00
 0.0000000000000E+00
 0.0000000000000E+00
 0.0000000000000E+00
 0.0000000000000E+00
 0.0000000000000E+00
 0.0000000000000E+00
 0.0000000000000E+00
 0.0000000000000E+00
 0.0000000000000E+00
 0.0000000000000E+00
 0.0000000000000E+00
 0.0000000000000E+00
 0.0000000000000E+00
 0.0000000000000E+00
 0.0000000000000E+00
 0.0000000000000E+00
 0.0000000000000E+00
 0.0000000000000E+00
 0.0000000000000E+00
 0.0000000000000E+00
 0.0000000000000E+00
 0.0000000000000E+00
 0.0000000000000E+00
 0.0000000000000E+00
 0.0000000000000E+00
 0.0000000000000E+00
 0.0000000000000E+00
 0.0000000000000E+00
 0.0000000000000E+00
 0.0000000000000E+00
 0.0000000000000E+00
 0.0000000000000E+00
 0.0000000000000E+00
 0.0000000000000E+00
 0.0000000000000E+00
 0.0000000000000E+00
 0.0000000000000E+00
 0.0000000000000E+00
 0.0000000000000E+00
 0.0000000000000E+00
 0.0000000000000E+00
 0.0000000000000E+00
 0.0000000000000E+00
 0.0000000000000E+00
 0.0000000000000E+00
 0.0000000000000E+00
 0.0000000000000E+00
 0.0000000000000E+00
 0.0000000000000E+00
 0.0000000000000E+00
 0.0000000000000E+00
 0.0000000000000E+00
 0.0000000000000E+00
 0.0000000000000E+00
 0.0000000000000E+00
 0.0000000000000E+00
 0.0000000000000E+00
 0.0000000000000E+00
 0.0000000000000E+00
 0.0000000000000E+00
 0.0000000000000E+00
 0.0000000000000E+00
 0.0000000000000E+00
 0.0000000000000E+00
 0.0000000000000E+00
 0.0000000000000E+00
 0.0000000000000E+00
 0.0000000000000E+00
 0.0000000000000E+00
 0.0000000000000E+00
 0.0000000000000E+00
 0.0000000000000E+00
 0.0000000000000E+00
 0.0000000000000E+00
 0.0000000000000E+00
 0.0000000000000E+00
 0.0000000000000E+00
 0.0000000000000E+00
 0.0000000000000E+00
 0.0000000000000E+00
 0.0000000000000E+00
 0.0000000000000E+00
 0.0000000000000E+00
 0.0000000000000E+00
 0.0000000000000E+00
 0.0000000000000E+00
 0.0000000000000E+00
 0.0000000000000E+00
 0.0000000000000E+00
 0.0000000000000E+00
 0.0000000000000E+00
 0.0000000000000E+00
 0.0000000000000E+00
 0.0000000000000E+00
 0.0000000000000E+00
 0.0000000000000E+00
 0.0000000000000E+00
 0.0000000000000E+00
 0.0000000000000E+00
 0.0000000000000E+00
 0.0000000000000E+00
 0.0000000000000E+00
 0.0000000000000E+00
 0.0000000000000E+00
 0.0000000000000E+00
 0.0000000000000E+00
 0.0000000000000E+00
 0.0000000000000E+00
 0.0000000000000E+00
 0.0000000000000E+00
 0.0000000000000E+00
 0.0000000000000E+00
 0.0000000000000E+00
 0.0000000000000E+00
 0.0000000000000E+00
 0.0000000000000E+00
 0.0000000000000E+00
 0.0000000000000E+00
 0.0000000000000E+00
 0.0000000000000E+00
 0.0000000000000E+00
 0.0000000000000E+00
 0.0000000000000E+00
 0.0000000000000E+00
 0.0000000000000E+00
 0.0000000000000E+00
 0.0000000000000E+00
 0.0000000000000E+00
 0.0000000000000E+00
 0.0000000000000E+00
 0.0000000000000E+00
 0.0000000000000E+00
 0.0000000000000E+00
 0.0000000000000E+00
 0.0000000000000E+00
 0.0000000000000E+00
 0.0000000000000E+00
 0.0000000000000E+00
 0.0000000000000E+00
 0.0000000000000E+00
 0.0000000000000E+00
 0.0000000000000E+00
 0.0000000000000E+00
 0.0000000000000E+00
 0.0000000000000E+00
 0.0000000000000E+00
 0.0000000000000E+00
 0.0000000000000E+00
 0.0000000000000E+00
 0.0000000000000E+00
 0.0000000000000E+00
 0.0000000000000E+00
 0.0000000000000E+00
 0.0000000000000E+00
 0.0000000000000E+00
 0.0000000000000E+00
 0.0000000000000E+00
 0.0000000000000E+00
 0.0000000000000E+00
 0.0000000000000E+00
 0.0000000000000E+00
 0.0000000000000E+00
 0.0000000000000E+00
 0.0000000000000E+00
 0.0000000000000E+00
 0.0000000000000E+00
 0.0000000000000E+00
 0.0000000000000E+00
 0.0000000000000E+00
 0.0000000000000E+00
 0.0000000000000E+00
 0.0000000000000E+00
 0.0000000000000E+00
 0.0000000000000E+00
 0.0000000000000E+00
 0.0000000000000E+00
 0.0000000000000E+00
 0.0000000000000E+00
 0.0000000000000E+00
 0.0000000000000E+00
 0.0000000000000E+00
 0.0000000000000E+00
 0.0000000000000E+00
 0.0000000000000E+00
 0.0000000000000E+00
 0.0000000000000E+00
 0.0000000000000E+00
 0.0000000000000E+00
 0.0000000000000E+00
 0.0000000000000E+00
 0.0000000000000E+00
 0.0000000000000E+00
 0.0000000000000E+00
 0.0000000000000E+00
 0.0000000000000E+00
 0.0000000000000E+00
 0.0000000000000E+00
 0.0000000000000E+00
 0.0000000000000E+00
 0.0000000000000E+00
 0.0000000000000E+00
 0.0000000000000E+00
 0.0000000000000E+00
 0.0000000000000E+00
 0.0000000000000E+00
 0.0000000000000E+00
 0.0000000000000E+00
 0.0000000000000E+00
 0.0000000000000E+00
 0.0000000000000E+00
 0.0000000000000E+00
 0.0000000000000E+00
 0.0000000000000E+00
 0.0000000000000E+00
 0.0000000000000E+00
 0.0000000000000E+00
 0.0000000000000E+00
 0.0000000000000E+00
 0.0000000000000E+00
 0.0000000000000E+00
 0.0000000000000E+00
 0.0000000000000E+00
 0.0000000000000E+00
 0.0000000000000E+00
 0.0000000000000E+00
 0.0000000000000E+00
 0.0000000000000E+00
 0.0000000000000E+00
 0.0000000000000E+00
 0.0000000000000E+00
 0.0000000000000E+00
 0.0000000000000E+00
 0.0000000000000E+00
 0.0000000000000E+00
 0.0000000000000E+00
 0.0000000000000E+00
 0.0000000000000E+00
 0.0000000000000E+00
 0.0000000000000E+00
 0.0000000000000E+00
 0.0000000000000E+00
 0.0000000000000E+00
 0.0000000000000E+00
 0.0000000000000E+00
 0.0000000000000E+00
 0.0000000000000E+00
 0.0000000000000E+00
 0.0000000000000E+00
 0.0000000000000E+00
 0.0000000000000E+00
 0.0000000000000E+00
 0.0000000000000E+00
 0.0000000000000E+00
 0.0000000000000E+00
 0.0000000000000E+00
 0.0000000000000E+00
 0.0000000000000E+00
 0.0000000000000E+00
 0.0000000000000E+00
 0.0000000000000E+00
 0.0000000000000E+00
 0.0000000000000E+00
 0.0000000000000E+00
 0.0000000000000E+00
 0.0000000000000E+00
 0.0000000000000E+00
 0.0000000000000E+00
 0.0000000000000E+00
 0.0000000000000E+00
 0.0000000000000E+00
 0.0000000000000E+00
 0.0000000000000E+00
 0.0000000000000E+00
 0.0000000000000E+00
 0.0000000000000E+00
 0.0000000000000E+00
 0.0000000000000E+00
 0.0000000000000E+00
 0.0000000000000E+00
 0.0000000000000E+00
 0.0000000000000E+00
 0.0000000000000E+00
 0.0000000000000E+00
 0.0000000000000E+00
 0.0000000000000E+00
 0.0000000000000E+00
 0.0000000000000E+00
 0.0000000000000E+00
 0.0000000000000E+00
 0.0000000000000E+00
 0.0000000000000E+00
 0.0000000000000E+00
 0.0000000000000E+00
 0.0000000000000E+00
 0.0000000000000E+00
 0.0000000000000E+00
 0.0000000000000E+00
 0.0000000000000E+00
 0.0000000000000E+00
 0.0000000000000E+00
 0.0000000000000E+00
 0.0000000000000E+00
 0.0000000000000E+00
 0.0000000000000E+00
 0.0000000000000E+00
 0.0000000000000E+00
 0.0000000000000E+00
 0.0000000000000E+00
 0.0000000000000E+00
 0.0000000000000E+00
 0.0000000000000E+00
 0.0000000000000E+00
 0.0000000000000E+00
 0.0000000000000E+00
 0.0000000000000E+00
 0.0000000000000E+00
 0.0000000000000E+00
 0.0000000000000E+00
 0.0000000000000E+00
 0.0000000000000E+00
 0.0000000000000E+00
 0.0000000000000E+00
 0.0000000000000E+00
 0.0000000000000E+00
 0.0000000000000E+00
 0.0000000000000E+00
 0.0000000000000E+00
 0.0000000000000E+00
 0.0000000000000E+00
 0.0000000000000E+00
 0.0000000000000E+00
 0.0000000000000E+00
 0.0000000000000E+00
 0.0000000000000E+00
 0.0000000000000E+00
 0.0000000000000E+00
 0.0000000000000E+00
 0.0000000000000E+00
 0.0000000000000E+00
 0.0000000000000E+00
 0.0000000000000E+00
 0.0000000000000E+00
 0.0000000000000E+00
 0.0000000000000E+00
 0.0000000000000E+00
 0.0000000000000E+00
 0.0000000000000E+00
 0.0000000000000E+00
 0.0000000000000E+00
 0.0000000000000E+00
 0.0000000000000E+00
 0.0000000000000E+00
 0.0000000000000E+00
 0.0000000000000E+00
 0.0000000000000E+00
 0.0000000000000E+00
 0.0000000000000E+00
 0.0000000000000E+00
 0.0000000000000E+00
 0.0000000000000E+00
 0.0000000000000E+00
 0.0000000000000E+00
 0.0000000000000E+00
 0.0000000000000E+00
 0.0000000000000E+00
 0.0000000000000E+00
 0.0000000000000E+00
 0.0000000000000E+00
 0.0000000000000E+00
 0.0000000000000E+00
 0.0000000000000E+00
 0.0000000000000E+00
 0.0000000000000E+00
 0.0000000000000E+00
 0.0000000000000E+00
 0.0000000000000E+00
 0.0000000000000E+00
 0.0000000000000E+00
 0.0000000000000E+00
 0.0000000000000E+00
 0.0000000000000E+00
 0.0000000000000E+00
 0.0000000000000E+00
 0.0000000000000E+00
 0.0000000000000E+00
 0.0000000000000E+00
 0.0000000000000E+00
 0.0000000000000E+00
 0.0000000000000E+00
 0.0000000000000E+00
 0.0000000000000E+00
 0.0000000000000E+00
 0.0000000000000E+00
 0.0000000000000E+00
 0.0000000000000E+00
 0.0000000000000E+00
 0.0000000000000E+00
 0.0000000000000E+00
 0.0000000000000E+00
 0.0000000000000E+00
 0.0000000000000E+00
 0.0000000000000E+00
 0.0000000000000E+00
 0.0000000000000E+00
 0.0000000000000E+00
 0.0000000000000E+00
 0.0000000000000E+00
 0.0000000000000E+00
 0.0000000000000E+00
 0.0000000000000E+00
 0.0000000000000E+00
 0.0000000000000E+00
 0.0000000000000E+00
 0.0000000000000E+00
 0.0000000000000E+00
 0.0000000000000E+00
 0.0000000000000E+00
 0.0000000000000E+00
 0.0000000000000E+00
 0.0000000000000E+00
 0.0000000000000E+00
 0.0000000000000E+00
 0.0000000000000E+00
 0.0000000000000E+00
 0.0000000000000E+00
 0.0000000000000E+00
 0.0000000000000E+00
 0.0000000000000E+00
 0.0000000000000E+00
 0.0000000000000E+00
 0.0000000000000E+00
 0.0000000000000E+00
 0.0000000000000E+00
 0.0000000000000E+00
 0.0000000000000E+00
 0.0000000000000E+00
 0.0000000000000E+00
 0.0000000000000E+00
 0.0000000000000E+00
 0.0000000000000E+00
 0.0000000000000E+00
 0.0000000000000E+00
 0.0000000000000E+00
 0.0000000000000E+00
 0.0000000000000E+00
 0.0000000000000E+00
 0.0000000000000E+00
 0.0000000000000E+00
 0.0000000000000E+00
 0.0000000000000E+00
 0.0000000000000E+00
 0.0000000000000E+00
 0.0000000000000E+00
 0.0000000000000E+00
 0.0000000000000E+00
 0.0000000000000E+00
 0.0000000000000E+00
 0.0000000000000E+00
 0.0000000000000E+00
 0.0000000000000E+00
 0.0000000000000E+00
 0.0000000000000E+00
 0.0000000000000E+00
 0.0000000000000E+00
 0.0000000000000E+00
 0.0000000000000E+00
 0.0000000000000E+00
 0.0000000000000E+00
 0.0000000000000E+00
 0.0000000000000E+00
 0.0000000000000E+00
 0.0000000000000E+00
 0.0000000000000E+00
 0.0000000000000E+00
 0.0000000000000E+00
 0.0000000000000E+00
 0.0000000000000E+00
 0.0000000000000E+00
 0.0000000000000E+00
 0.0000000000000E+00
 0.0000000000000E+00
 0.0000000000000E+00
 0.0000000000000E+00
 0.0000000000000E+00
 0.0000000000000E+00
 0.0000000000000E+00
 0.0000000000000E+00
 0.0000000000000E+00
 0.0000000000000E+00
 0.0000000000000E+00
 0.0000000000000E+00
 0.0000000000000E+00
 0.0000000000000E+00
 0.0000000000000E+00
 0.0000000000000E+00
 0.0000000000000E+00
 0.0000000000000E+00
 0.0000000000000E+00
 0.0000000000000E+00
 0.0000000000000E+00
 0.0000000000000E+00
 0.0000000000000E+00
 0.0000000000000E+00
 0.0000000000000E+00
 0.0000000000000E+00
 0.0000000000000E+00
 0.0000000000000E+00
 0.0000000000000E+00
 0.0000000000000E+00
 0.0000000000000E+00
 0.0000000000000E+00
 0.0000000000000E+00
 0.0000000000000E+00
 0.0000000000000E+00
 0.0000000000000E+00
 0.0000000000000E+00
 0.0000000000000E+00
 0.0000000000000E+00
 0.0000000000000E+00
 0.0000000000000E+00
 0.0000000000000E+00
 0.0000000000000E+00
 0.0000000000000E+00
 0.0000000000000E+00
 0.0000000000000E+00
 0.0000000000000E+00
 0.0000000000000E+00
 0.0000000000000E+00
 0.0000000000000E+00
 0.0000000000000E+00
 0.0000000000000E+00
 0.0000000000000E+00
 0.0000000000000E+00
 0.0000000000000E+00
 0.0000000000000E+00
 0.0000000000000E+00
 0.0000000000000E+00
 0.0000000000000E+00
 0.0000000000000E+00
 0.0000000000000E+00
 0.0000000000000E+00
 0.0000000000000E+00
 0.0000000000000E+00
 0.0000000000000E+00
 0.0000000000000E+00
 0.0000000000000E+00
 0.0000000000000E+00
 0.0000000000000E+00
 0.0000000000000E+00
 0.0000000000000E+00
 0.0000000000000E+00
 0.0000000000000E+00
 0.0000000000000E+00
 0.0000000000000E+00
 0.0000000000000E+00
 0.0000000000000E+00
 0.0000000000000E+00
 0.0000000000000E+00
 0.0000000000000E+00
 0.0000000000000E+00
 0.0000000000000E+00
 0.0000000000000E+00
 0.0000000000000E+00
 0.0000000000000E+00
 0.0000000000000E+00
 0.0000000000000E+00
 0.0000000000000E+00
 0.0000000000000E+00
 0.0000000000000E+00
 0.0000000000000E+00
 0.0000000000000E+00
 0.0000000000000E+00
 0.0000000000000E+00
 0.0000000000000E+00
 0.0000000000000E+00
 0.0000000000000E+00
 0.0000000000000E+00
 0.0000000000000E+00
 0.0000000000000E+00
 0.0000000000000E+00
 0.0000000000000E+00
 0.0000000000000E+00
 0.0000000000000E+00
 0.0000000000000E+00
 0.0000000000000E+00
 0.0000000000000E+00
 0.0000000000000E+00
 0.0000000000000E+00
 0.0000000000000E+00
 0.0000000000000E+00
 0.0000000000000E+00
 0.0000000000000E+00
 0.0000000000000E+00
 0.0000000000000E+00
 0.0000000000000E+00
 0.0000000000000E+00
 0.0000000000000E+00
 0.0000000000000E+00
 0.0000000000000E+00
 0.0000000000000E+00
 0.0000000000000E+00
 0.0000000000000E+00
 0.0000000000000E+00
 0.0000000000000E+00
 0.0000000000000E+00
 0.0000000000000E+00
 0.0000000000000E+00
 0.0000000000000E+00
 0.0000000000000E+00
 0.0000000000000E+00
 0.0000000000000E+00
 0.0000000000000E+00
 0.0000000000000E+00
 0.0000000000000E+00
 0.0000000000000E+00
 0.0000000000000E+00
 0.0000000000000E+00
 0.0000000000000E+00
 0.0000000000000E+00
 0.0000000000000E+00
 0.0000000000000E+00
 0.0000000000000E+00
 0.0000000000000E+00
 0.0000000000000E+00
 0.0000000000000E+00
 0.0000000000000E+00
 0.0000000000000E+00
 0.0000000000000E+00
 0.0000000000000E+00
 0.0000000000000E+00
 0.0000000000000E+00
 0.0000000000000E+00
 0.0000000000000E+00
 0.0000000000000E+00
 0.0000000000000E+00
 0.0000000000000E+00
 0.0000000000000E+00
 0.0000000000000E+00
 0.0000000000000E+00
 0.0000000000000E+00
 0.0000000000000E+00
 0.0000000000000E+00
 0.0000000000000E+00
 0.0000000000000E+00
 0.0000000000000E+00
 0.0000000000000E+00
 0.0000000000000E+00
 0.0000000000000E+00
 0.0000000000000E+00
 0.0000000000000E+00
 0.0000000000000E+00
 0.0000000000000E+00
 0.0000000000000E+00
 0.0000000000000E+00
 0.0000000000000E+00
 0.0000000000000E+00
 0.0000000000000E+00
 0.0000000000000E+00
 0.0000000000000E+00
 0.0000000000000E+00
 0.0000000000000E+00
 0.0000000000000E+00
 0.0000000000000E+00
 0.0000000000000E+00
 0.0000000000000E+00
 0.0000000000000E+00
 0.0000000000000E+00
 0.0000000000000E+00
 0.0000000000000E+00
 0.0000000000000E+00
 0.0000000000000E+00
 0.0000000000000E+00
 0.0000000000000E+00
 0.0000000000000E+00
 0.0000000000000E+00
 0.0000000000000E+00
 0.0000000000000E+00
 0.0000000000000E+00
 0.0000000000000E+00
 0.0000000000000E+00
 0.0000000000000E+00
 0.0000000000000E+00
 0.0000000000000E+00
 0.0000000000000E+00
 0.0000000000000E+00
 0.0000000000000E+00
 0.0000000000000E+00
 0.0000000000000E+00
 0.0000000000000E+00
 0.0000000000000E+00
 0.0000000000000E+00
 0.0000000000000E+00
 0.0000000000000E+00
 0.0000000000000E+00
 0.0000000000000E+00
 0.0000000000000E+00
 0.0000000000000E+00
 0.0000000000000E+00
 0.0000000000000E+00
 0.0000000000000E+00
 0.0000000000000E+00
 0.0000000000000E+00
 0.0000000000000E+00
 0.0000000000000E+00
 0.0000000000000E+00
 0.0000000000000E+00
 0.0000000000000E+00
 0.0000000000000E+00
 0.0000000000000E+00
 0.0000000000000E+00
 0.0000000000000E+00
 0.0000000000000E+00
 0.0000000000000E+00
 0.0000000000000E+00
 0.0000000000000E+00
 0.0000000000000E+00
 0.0000000000000E+00
 0.0000000000000E+00
 0.0000000000000E+00
 0.0000000000000E+00
 0.0000000000000E+00
 0.0000000000000E+00
 0.0000000000000E+00
 0.0000000000000E+00
 0.0000000000000E+00
 0.0000000000000E+00
 0.0000000000000E+00
 0.0000000000000E+00
 0.0000000000000E+00
 0.0000000000000E+00
 0.0000000000000E+00
 0.0000000000000E+00
 0.0000000000000E+00
 0.0000000000000E+00
 0.0000000000000E+00
 0.0000000000000E+00
 0.0000000000000E+00
 0.0000000000000E+00
 0.0000000000000E+00
 0.0000000000000E+00
 0.0000000000000E+00
 0.0000000000000E+00
 0.0000000000000E+00
 0.0000000000000E+00
 0.0000000000000E+00
 0.0000000000000E+00
 0.0000000000000E+00
 0.0000000000000E+00
 0.0000000000000E+00
 0.0000000000000E+00
 0.0000000000000E+00
 0.0000000000000E+00
 0.0000000000000E+00
 0.0000000000000E+00
 0.0000000000000E+00
 0.0000000000000E+00
 0.0000000000000E+00
 0.0000000000000E+00
 0.0000000000000E+00
 0.0000000000000E+00
 0.0000000000000E+00
 0.0000000000000E+00
 0.0000000000000E+00
 0.0000000000000E+00
 0.0000000000000E+00
 0.0000000000000E+00
 0.0000000000000E+00
 0.0000000000000E+00
 0.0000000000000E+00
 0.0000000000000E+00
 0.0000000000000E+00
 0.0000000000000E+00
 0.0000000000000E+00
 0.0000000000000E+00
 0.0000000000000E+00
 0.0000000000000E+00
 0.0000000000000E+00
 0.0000000000000E+00
 0.0000000000000E+00
 0.0000000000000E+00
 0.0000000000000E+00
 0.0000000000000E+00
 0.0000000000000E+00
 0.0000000000000E+00
 0.0000000000000E+00
 0.0000000000000E+00
 0.0000000000000E+00
 0.0000000000000E+00
 0.0000000000000E+00
 0.0000000000000E+00
 0.0000000000000E+00
 0.0000000000000E+00
 0.0000000000000E+00
 0.0000000000000E+00
 0.0000000000000E+00
 0.0000000000000E+00
 0.0000000000000E+00
 0.0000000000000E+00
 0.0000000000000E+00
 0.0000000000000E+00
 0.0000000000000E+00
 0.0000000000000E+00
 0.0000000000000E+00
 0.0000000000000E+00
 0.0000000000000E+00
 0.0000000000000E+00
 0.0000000000000E+00
 0.0000000000000E+00
 0.0000000000000E+00
 0.0000000000000E+00
 0.0000000000000E+00
 0.0000000000000E+00
 0.0000000000000E+00
 0.0000000000000E+00
 0.0000000000000E+00
 0.0000000000000E+00
 0.0000000000000E+00
 0.0000000000000E+00
 0.0000000000000E+00
 0.0000000000000E+00
 0.0000000000000E+00
 0.0000000000000E+00
 0.0000000000000E+00
 0.0000000000000E+00
 0.0000000000000E+00
 0.0000000000000E+00
 0.0000000000000E+00
 0.0000000000000E+00
 0.0000000000000E+00
 0.0000000000000E+00
 0.0000000000000E+00
 0.0000000000000E+00
 0.0000000000000E+00
 0.0000000000000E+00
 0.0000000000000E+00
 0.0000000000000E+00
 0.0000000000000E+00
 0.0000000000000E+00
 0.0000000000000E+00
 0.0000000000000E+00
 0.0000000000000E+00
 0.0000000000000E+00
 0.0000000000000E+00
 0.0000000000000E+00
 0.0000000000000E+00
 0.0000000000000E+00
 0.0000000000000E+00
 0.0000000000000E+00
 0.0000000000000E+00
 0.0000000000000E+00
 0.0000000000000E+00
 0.0000000000000E+00
 0.0000000000000E+00
 0.0000000000000E+00
 0.0000000000000E+00
 0.0000000000000E+00
 0.0000000000000E+00
 0.0000000000000E+00
 0.0000000000000E+00
 0.0000000000000E+00
 0.0000000000000E+00
 0.0000000000000E+00
 0.0000000000000E+00
 0.0000000000000E+00
 0.0000000000000E+00
 0.0000000000000E+00
 0.0000000000000E+00
 0.0000000000000E+00
 0.0000000000000E+00
 0.0000000000000E+00
 0.0000000000000E+00
 0.0000000000000E+00
 0.0000000000000E+00
 0.0000000000000E+00
 0.0000000000000E+00
 0.0000000000000E+00
 0.0000000000000E+00
 0.0000000000000E+00
 0.0000000000000E+00
 0.0000000000000E+00
 0.0000000000000E+00
 0.0000000000000E+00
 0.0000000000000E+00
 0.0000000000000E+00
 0.0000000000000E+00
 0.0000000000000E+00
 0.0000000000000E+00
 0.0000000000000E+00
 0.0000000000000E+00
 0.0000000000000E+00
 0.0000000000000E+00
 0.0000000000000E+00
 0.0000000000000E+00
 0.0000000000000E+00
 0.0000000000000E+00
 0.0000000000000E+00
 0.0000000000000E+00
 0.0000000000000E+00
 0.0000000000000E+00
 0.0000000000000E+00
 0.0000000000000E+00
 0.0000000000000E+00
 0.0000000000000E+00
 0.0000000000000E+00
 0.0000000000000E+00
 0.0000000000000E+00
 0.0000000000000E+00
 0.0000000000000E+00
 0.0000000000000E+00
 0.0000000000000E+00
 0.0000000000000E+00
 0.0000000000000E+00
 0.0000000000000E+00
 0.0000000000000E+00
 0.0000000000000E+00
 0.0000000000000E+00
 0.0000000000000E+00
 0.0000000000000E+00
 0.0000000000000E+00
 0.0000000000000E+00
 0.0000000000000E+00
 0.0000000000000E+00
 0.0000000000000E+00
 0.0000000000000E+00
 0.0000000000000E+00
 0.0000000000000E+00
 0.0000000000000E+00
 0.0000000000000E+00
 0.0000000000000E+00
 0.0000000000000E+00
 0.0000000000000E+00
 0.0000000000000E+00
 0.0000000000000E+00
 0.0000000000000E+00
 0.0000000000000E+00
 0.0000000000000E+00
 0.0000000000000E+00
 0.0000000000000E+00
 0.0000000000000E+00
 0.0000000000000E+00
 0.0000000000000E+00
 0.0000000000000E+00
 0.0000000000000E+00
 0.0000000000000E+00
 0.0000000000000E+00
 0.0000000000000E+00
 0.0000000000000E+00
 0.0000000000000E+00
 0.0000000000000E+00
 0.0000000000000E+00
 0.0000000000000E+00
 0.0000000000000E+00
 0.0000000000000E+00
 0.0000000000000E+00
 0.0000000000000E+00
 0.0000000000000E+00
 0.0000000000000E+00
 0.0000000000000E+00
 0.0000000000000E+00
 0.0000000000000E+00
 0.0000000000000E+00
 0.0000000000000E+00
 0.0000000000000E+00
 0.0000000000000E+00
 0.0000000000000E+00
 0.0000000000000E+00
 0.0000000000000E+00
 0.0000000000000E+00
 0.0000000000000E+00
 0.0000000000000E+00
 0.0000000000000E+00
 0.0000000000000E+00
 0.0000000000000E+00
 0.0000000000000E+00
 0.0000000000000E+00
 0.0000000000000E+00
 0.0000000000000E+00
 0.0000000000000E+00
 0.0000000000000E+00
 0.0000000000000E+00
 0.0000000000000E+00
 0.0000000000000E+00
 0.0000000000000E+00
 0.0000000000000E+00
 0.0000000000000E+00
 0.0000000000000E+00
 0.0000000000000E+00
 0.0000000000000E+00
 0.0000000000000E+00
 0.0000000000000E+00
 0.0000000000000E+00
 0.0000000000000E+00
 0.0000000000000E+00
 0.0000000000000E+00
 0.0000000000000E+00
 0.0000000000000E+00
 0.0000000000000E+00
 0.0000000000000E+00
 0.0000000000000E+00
 0.0000000000000E+00
 0.0000000000000E+00
 0.0000000000000E+00
 0.0000000000000E+00
 0.0000000000000E+00
 0.0000000000000E+00
 0.0000000000000E+00
 0.0000000000000E+00
 0.0000000000000E+00
 0.0000000000000E+00
 0.0000000000000E+00
 0.0000000000000E+00
 0.0000000000000E+00
 0.0000000000000E+00
 0.0000000000000E+00
 0.0000000000000E+00
 0.0000000000000E+00
 0.0000000000000E+00
 0.0000000000000E+00
 0.0000000000000E+00
 0.0000000000000E+00
 0.0000000000000E+00
 0.0000000000000E+00
 0.0000000000000E+00
 0.0000000000000E+00
 0.0000000000000E+00
 0.0000000000000E+00
 0.0000000000000E+00
 0.0000000000000E+00
 0.0000000000000E+00
 0.0000000000000E+00
 0.0000000000000E+00
 0.0000000000000E+00
 0.0000000000000E+00
 0.0000000000000E+00
 0.0000000000000E+00
 0.0000000000000E+00
 0.0000000000000E+00
 0.0000000000000E+00
 0.0000000000000E+00
 0.0000000000000E+00
 0.0000000000000E+00
 0.0000000000000E+00
 0.0000000000000E+00
 0.0000000000000E+00
 0.0000000000000E+00
 0.0000000000000E+00
 0.0000000000000E+00
 0.0000000000000E+00
 0.0000000000000E+00
 0.0000000000000E+00
 0.0000000000000E+00
 0.0000000000000E+00
 0.0000000000000E+00
 0.0000000000000E+00
 0.0000000000000E+00
 0.0000000000000E+00
 0.0000000000000E+00
 0.0000000000000E+00
 0.0000000000000E+00
 0.0000000000000E+00
 0.0000000000000E+00
 0.0000000000000E+00
 0.0000000000000E+00
 0.0000000000000E+00
 0.0000000000000E+00
 0.0000000000000E+00
 0.0000000000000E+00
 0.0000000000000E+00
 0.0000000000000E+00
 0.0000000000000E+00
 0.0000000000000E+00
 0.0000000000000E+00
 0.0000000000000E+00
 0.0000000000000E+00
 0.0000000000000E+00
 0.0000000000000E+00
 0.0000000000000E+00
 0.0000000000000E+00
 0.0000000000000E+00
 0.0000000000000E+00
 0.0000000000000E+00
 0.0000000000000E+00
 0.0000000000000E+00
 0.0000000000000E+00
 0.0000000000000E+00
 0.0000000000000E+00
 0.0000000000000E+00
 0.0000000000000E+00
 0.0000000000000E+00
 0.0000000000000E+00
 0.0000000000000E+00
 0.0000000000000E+00
 0.0000000000000E+00
 0.0000000000000E+00
 0.0000000000000E+00
 0.0000000000000E+00
 0.0000000000000E+00
 0.0000000000000E+00
 0.0000000000000E+00
 0.0000000000000E+00
 0.0000000000000E+00
 0.0000000000000E+00
 0.0000000000000E+00
 0.0000000000000E+00
 0.0000000000000E+00
 0.0000000000000E+00
 0.0000000000000E+00
 0.0000000000000E+00
 0.0000000000000E+00
 0.0000000000000E+00
 0.0000000000000E+00
 0.0000000000000E+00
 0.0000000000000E+00
 0.0000000000000E+00
 0.0000000000000E+00
 0.0000000000000E+00
 0.0000000000000E+00
 0.0000000000000E+00
 0.0000000000000E+00
 0.0000000000000E+00
 0.0000000000000E+00
 0.0000000000000E+00
 0.0000000000000E+00
 0.0000000000000E+00
 0.0000000000000E+00
 0.0000000000000E+00
 0.0000000000000E+00
 0.0000000000000E+00
 0.0000000000000E+00
 0.0000000000000E+00
 0.0000000000000E+00
 0.0000000000000E+00
 0.0000000000000E+00
 0.0000000000000E+00
 0.0000000000000E+00
 0.0000000000000E+00
 0.0000000000000E+00
 0.0000000000000E+00
 0.0000000000000E+00
 0.0000000000000E+00
 0.0000000000000E+00
 0.0000000000000E+00
 0.0000000000000E+00
 0.0000000000000E+00
 0.0000000000000E+00
 0.0000000000000E+00
 0.0000000000000E+00
 0.0000000000000E+00
 0.0000000000000E+00
 0.0000000000000E+00
 0.0000000000000E+00
 0.0000000000000E+00
 0.0000000000000E+00
 0.0000000000000E+00
 0.0000000000000E+00
 0.0000000000000E+00
 0.0000000000000E+00
 0.0000000000000E+00
 0.0000000000000E+00
 0.0000000000000E+00
 0.0000000000000E+00
 0.0000000000000E+00
 0.0000000000000E+00
 0.0000000000000E+00
 0.0000000000000E+00
 0.0000000000000E+00
 0.0000000000000E+00
 0.0000000000000E+00
 0.0000000000000E+00
 0.0000000000000E+00
 0.0000000000000E+00
 0.0000000000000E+00
 0.0000000000000E+00
 0.0000000000000E+00
 0.0000000000000E+00
 0.0000000000000E+00
 0.0000000000000E+00
 0.0000000000000E+00
 0.0000000000000E+00
 0.0000000000000E+00
 0.0000000000000E+00
 0.0000000000000E+00
 0.0000000000000E+00
 0.0000000000000E+00
 0.0000000000000E+00
 0.0000000000000E+00
 0.0000000000000E+00
 0.0000000000000E+00
 0.0000000000000E+00
 0.0000000000000E+00
 0.0000000000000E+00
 0.0000000000000E+00
 0.0000000000000E+00
 0.0000000000000E+00
 0.0000000000000E+00
 0.0000000000000E+00
 0.0000000000000E+00
 0.0000000000000E+00
 0.0000000000000E+00
 0.0000000000000E+00
 0.0000000000000E+00
 0.0000000000000E+00
 0.0000000000000E+00
 0.0000000000000E+00
 0.0000000000000E+00
 0.0000000000000E+00
 0.0000000000000E+00
 0.0000000000000E+00
 0.0000000000000E+00
 0.0000000000000E+00
 0.0000000000000E+00
 0.0000000000000E+00
 0.0000000000000E+00
 0.0000000000000E+00
 0.0000000000000E+00
 0.0000000000000E+00
 0.0000000000000E+00
 0.0000000000000E+00
 0.0000000000000E+00
 0.0000000000000E+00
 0.0000000000000E+00
 0.0000000000000E+00
 0.0000000000000E+00
 0.0000000000000E+00
 0.0000000000000E+00
 0.0000000000000E+00
 0.0000000000000E+00
 0.0000000000000E+00
 0.0000000000000E+00
 0.0000000000000E+00
 0.0000000000000E+00
 0.0000000000000E+00
 0.0000000000000E+00
 0.0000000000000E+00
 0.0000000000000E+00
 0.0000000000000E+00
 0.0000000000000E+00
 0.0000000000000E+00
 0.0000000000000E+00
 0.0000000000000E+00
 0.0000000000000E+00
 0.0000000000000E+00
 0.0000000000000E+00
 0.0000000000000E+00
 0.0000000000000E+00
 0.0000000000000E+00
 0.0000000000000E+00
 0.0000000000000E+00
 0.0000000000000E+00
 0.0000000000000E+00
 0.0000000000000E+00
 0.0000000000000E+00
 0.0000000000000E+00
 0.0000000000000E+00
 0.0000000000000E+00
 0.0000000000000E+00
 0.0000000000000E+00
 0.0000000000000E+00
 0.0000000000000E+00
 0.0000000000000E+00
 0.0000000000000E+00
 0.0000000000000E+00
 0.0000000000000E+00
 0.0000000000000E+00
 0.0000000000000E+00
 0.0000000000000E+00
 0.0000000000000E+00
 0.0000000000000E+00
 0.0000000000000E+00
 0.0000000000000E+00
 0.0000000000000E+00
 0.0000000000000E+00
 0.0000000000000E+00
 0.0000000000000E+00
 0.0000000000000E+00
 0.0000000000000E+00
 0.0000000000000E+00
 0.0000000000000E+00
 0.0000000000000E+00
 0.0000000000000E+00
 0.0000000000000E+00
 0.0000000000000E+00
 0.0000000000000E+00
 0.0000000000000E+00
 0.0000000000000E+00
 0.0000000000000E+00
 0.0000000000000E+00
 0.0000000000000E+00
 0.0000000000000E+00
 0.0000000000000E+00
 0.0000000000000E+00
 0.0000000000000E+00
 0.0000000000000E+00
 0.0000000000000E+00
 0.0000000000000E+00
 0.0000000000000E+00
 0.0000000000000E+00
 0.0000000000000E+00
 0.0000000000000E+00
 0.0000000000000E+00
 0.0000000000000E+00
 0.0000000000000E+00
 0.0000000000000E+00
 0.0000000000000E+00
 0.0000000000000E+00
 0.0000000000000E+00
 0.0000000000000E+00
 0.0000000000000E+00
 0.0000000000000E+00
 0.0000000000000E+00
 0.0000000000000E+00
 0.0000000000000E+00
 0.0000000000000E+00
 0.0000000000000E+00
 0.0000000000000E+00
 0.0000000000000E+00
 0.0000000000000E+00
 0.0000000000000E+00
 0.0000000000000E+00
 0.0000000000000E+00
 0.0000000000000E+00
 0.0000000000000E+00
 0.0000000000000E+00
 0.0000000000000E+00
 0.0000000000000E+00
 0.0000000000000E+00
 0.0000000000000E+00
 0.0000000000000E+00
 0.0000000000000E+00
 0.0000000000000E+00
 0.0000000000000E+00
 0.0000000000000E+00
 0.0000000000000E+00
 0.0000000000000E+00
 0.0000000000000E+00
 0.0000000000000E+00
 0.0000000000000E+00
 0.0000000000000E+00
 0.0000000000000E+00
 0.0000000000000E+00
 0.0000000000000E+00
 0.0000000000000E+00
 0.0000000000000E+00
 0.0000000000000E+00
 0.0000000000000E+00
 0.0000000000000E+00
 0.0000000000000E+00
 0.0000000000000E+00
 0.0000000000000E+00
 0.0000000000000E+00
 0.0000000000000E+00
 0.0000000000000E+00
 0.0000000000000E+00
 0.0000000000000E+00
 0.0000000000000E+00
 0.0000000000000E+00
 0.0000000000000E+00
 0.0000000000000E+00
 0.0000000000000E+00
 0.0000000000000E+00
 0.0000000000000E+00
 0.0000000000000E+00
 0.0000000000000E+00
 0.0000000000000E+00
 0.0000000000000E+00
 0.0000000000000E+00
 0.0000000000000E+00
 0.0000000000000E+00
 0.0000000000000E+00
 0.0000000000000E+00
 0.0000000000000E+00
 0.0000000000000E+00
 0.0000000000000E+00
 0.0000000000000E+00
 0.0000000000000E+00
 0.0000000000000E+00
 0.0000000000000E+00
 0.0000000000000E+00
 0.0000000000000E+00
 0.0000000000000E+00
 0.0000000000000E+00
 0.0000000000000E+00
 0.0000000000000E+00
 0.0000000000000E+00
 0.0000000000000E+00
 0.0000000000000E+00
 0.0000000000000E+00
 0.0000000000000E+00
 0.0000000000000E+00
 0.0000000000000E+00
 0.0000000000000E+00
 0.0000000000000E+00
 0.0000000000000E+00
 0.0000000000000E+00
 0.0000000000000E+00
 0.0000000000000E+00
 0.0000000000000E+00
 0.0000000000000E+00
 0.0000000000000E+00
 0.0000000000000E+00
 0.0000000000000E+00
 0.0000000000000E+00
 0.0000000000000E+00
 0.0000000000000E+00
 0.0000000000000E+00
 0.0000000000000E+00
 0.0000000000000E+00
 0.0000000000000E+00
 0.0000000000000E+00
 0.0000000000000E+00
 0.0000000000000E+00
 0.0000000000000E+00
 0.0000000000000E+00
 0.0000000000000E+00
 0.0000000000000E+00
 0.0000000000000E+00
 0.0000000000000E+00
 0.0000000000000E+00
 0.0000000000000E+00
 0.0000000000000E+00
 0.0000000000000E+00
 0.0000000000000E+00
 0.0000000000000E+00
 0.0000000000000E+00
 0.0000000000000E+00
 0.0000000000000E+00
 0.0000000000000E+00
 0.0000000000000E+00
 0.0000000000000E+00
 0.0000000000000E+00
 0.0000000000000E+00
 0.0000000000000E+00
 0.0000000000000E+00
 0.0000000000000E+00
 0.0000000000000E+00
 0.0000000000000E+00
 0.0000000000000E+00
 0.0000000000000E+00
 0.0000000000000E+00
 0.0000000000000E+00
 0.0000000000000E+00
 0.0000000000000E+00
 0.0000000000000E+00
 0.0000000000000E+00
 0.0000000000000E+00
 0.0000000000000E+00
 0.0000000000000E+00
 0.0000000000000E+00
 0.0000000000000E+00
 0.0000000000000E+00
 0.0000000000000E+00
 0.0000000000000E+00
 0.0000000000000E+00
 0.0000000000000E+00
 0.0000000000000E+00
 0.0000000000000E+00
 0.0000000000000E+00
 0.0000000000000E+00
 0.0000000000000E+00
 0.0000000000000E+00
 0.0000000000000E+00
 0.0000000000000E+00
 0.0000000000000E+00
 0.0000000000000E+00
 0.0000000000000E+00
 0.0000000000000E+00
 0.0000000000000E+00
 0.0000000000000E+00
 0.0000000000000E+00
 0.0000000000000E+00
 0.0000000000000E+00
 0.0000000000000E+00
 0.0000000000000E+00
 0.0000000000000E+00
 0.0000000000000E+00
 0.0000000000000E+00
 0.0000000000000E+00
 0.0000000000000E+00
 0.0000000000000E+00
 0.0000000000000E+00
 0.0000000000000E+00
 0.0000000000000E+00
 0.0000000000000E+00
 0.0000000000000E+00
 0.0000000000000E+00
 0.0000000000000E+00
 0.0000000000000E+00
 0.0000000000000E+00
 0.0000000000000E+00
 0.0000000000000E+00
 0.0000000000000E+00
 0.0000000000000E+00
 0.0000000000000E+00
 0.0000000000000E+00
 0.0000000000000E+00
 0.0000000000000E+00
 0.0000000000000E+00
 0.0000000000000E+00
 0.0000000000000E+00
 0.0000000000000E+00
 0.0000000000000E+00
 0.0000000000000E+00
 0.0000000000000E+00
 0.0000000000000E+00
 0.0000000000000E+00
 0.0000000000000E+00
 0.0000000000000E+00
 0.0000000000000E+00
 0.0000000000000E+00
 0.0000000000000E+00
 0.0000000000000E+00
 0.0000000000000E+00
 0.0000000000000E+00
 0.0000000000000E+00
 0.0000000000000E+00
 0.0000000000000E+00
 0.0000000000000E+00
 0.0000000000000E+00
 0.0000000000000E+00
 0.0000000000000E+00
 0.0000000000000E+00
 0.0000000000000E+00
 0.0000000000000E+00
 0.0000000000000E+00
 0.0000000000000E+00
 0.0000000000000E+00
 0.0000000000000E+00
 0.0000000000000E+00
 0.0000000000000E+00
 0.0000000000000E+00
 0.0000000000000E+00
 0.0000000000000E+00
 0.0000000000000E+00
 0.0000000000000E+00
 0.0000000000000E+00
 0.0000000000000E+00
 0.0000000000000E+00
 0.0000000000000E+00
 0.0000000000000E+00
 0.0000000000000E+00
 0.0000000000000E+00
 0.0000000000000E+00
 0.0000000000000E+00
 0.0000000000000E+00
 0.0000000000000E+00
 0.0000000000000E+00
 0.0000000000000E+00
 0.0000000000000E+00
 0.0000000000000E+00
 0.0000000000000E+00
 0.0000000000000E+00
 0.0000000000000E+00
 0.0000000000000E+00
 0.0000000000000E+00
 0.0000000000000E+00
 0.0000000000000E+00
 0.0000000000000E+00
 0.0000000000000E+00
 0.0000000000000E+00
 0.0000000000000E+00
 0.0000000000000E+00
 0.0000000000000E+00
 0.0000000000000E+00
 0.0000000000000E+00
 0.0000000000000E+00
 0.0000000000000E+00
 0.0000000000000E+00
 0.0000000000000E+00
 0.0000000000000E+00
 0.0000000000000E+00
 0.0000000000000E+00
 0.0000000000000E+00
 0.0000000000000E+00
 0.0000000000000E+00
 0.0000000000000E+00
 0.0000000000000E+00
 0.0000000000000E+00
 0.0000000000000E+00
 0.0000000000000E+00
 0.0000000000000E+00
 0.0000000000000E+00
 0.0000000000000E+00
 0.0000000000000E+00
 0.0000000000000E+00
 0.0000000000000E+00
 0.0000000000000E+00
 0.0000000000000E+00
 0.0000000000000E+00
 0.0000000000000E+00
 0.0000000000000E+00
 0.0000000000000E+00
 0.0000000000000E+00
 0.0000000000000E+00
 0.0000000000000E+00
 0.0000000000000E+00
 0.0000000000000E+00
 0.0000000000000E+00
 0.0000000000000E+00
 0.0000000000000E+00
 0.0000000000000E+00
 0.0000000000000E+00
 0.0000000000000E+00
 0.0000000000000E+00
 0.0000000000000E+00
 0.0000000000000E+00
 0.0000000000000E+00
 0.0000000000000E+00
 0.0000000000000E+00
 0.0000000000000E+00
 0.0000000000000E+00
 0.0000000000000E+00
 0.0000000000000E+00
 0.0000000000000E+00
 0.0000000000000E+00
 0.0000000000000E+00
 0.0000000000000E+00
 0.0000000000000E+00
 0.0000000000000E+00
 0.0000000000000E+00
 0.0000000000000E+00
 0.0000000000000E+00
 0.0000000000000E+00
 0.0000000000000E+00
 0.0000000000000E+00
 0.0000000000000E+00
 0.0000000000000E+00
 0.0000000000000E+00
 0.0000000000000E+00
 0.0000000000000E+00
 0.0000000000000E+00
 0.0000000000000E+00
 0.0000000000000E+00
 0.0000000000000E+00
 0.0000000000000E+00
 0.0000000000000E+00
 0.0000000000000E+00
 0.0000000000000E+00
 0.0000000000000E+00
 0.0000000000000E+00
 0.0000000000000E+00
 0.0000000000000E+00
 0.0000000000000E+00
 0.0000000000000E+00
 0.0000000000000E+00
 0.0000000000000E+00
 0.0000000000000E+00
 0.0000000000000E+00
 0.0000000000000E+00
 0.0000000000000E+00
 0.0000000000000E+00
 0.0000000000000E+00
 0.0000000000000E+00
 0.0000000000000E+00
 0.0000000000000E+00
 0.0000000000000E+00
 0.0000000000000E+00
 0.0000000000000E+00
 0.0000000000000E+00
 0.0000000000000E+00
 0.0000000000000E+00
 0.0000000000000E+00
 0.0000000000000E+00
 0.0000000000000E+00
 0.0000000000000E+00
 0.0000000000000E+00
 0.0000000000000E+00
 0.0000000000000E+00
 0.0000000000000E+00
 0.0000000000000E+00
 0.0000000000000E+00
 0.0000000000000E+00
 0.0000000000000E+00
 0.0000000000000E+00
 0.0000000000000E+00
 0.0000000000000E+00
 0.0000000000000E+00
 0.0000000000000E+00
 0.0000000000000E+00
 0.0000000000000E+00
 0.0000000000000E+00
 0.0000000000000E+00
 0.0000000000000E+00
 0.0000000000000E+00
 0.0000000000000E+00
 0.0000000000000E+00
 0.0000000000000E+00
 0.0000000000000E+00
 0.0000000000000E+00
 0.0000000000000E+00
 0.0000000000000E+00
 0.0000000000000E+00
 0.0000000000000E+00
 0.0000000000000E+00
 0.0000000000000E+00
 0.0000000000000E+00
 0.0000000000000E+00
 0.0000000000000E+00
 0.0000000000000E+00
 0.0000000000000E+00
 0.0000000000000E+00
 0.0000000000000E+00
 0.0000000000000E+00
 0.0000000000000E+00
 0.0000000000000E+00
 0.0000000000000E+00
 0.0000000000000E+00
 0.0000000000000E+00
 0.0000000000000E+00
 0.0000000000000E+00
 0.0000000000000E+00
 0.0000000000000E+00
 0.0000000000000E+00
 0.0000000000000E+00
 0.0000000000000E+00
 0.0000000000000E+00
 0.0000000000000E+00
 0.0000000000000E+00
 0.0000000000000E+00
 0.0000000000000E+00
 0.0000000000000E+00
 0.0000000000000E+00
 0.0000000000000E+00
 0.0000000000000E+00
 0.0000000000000E+00
 0.0000000000000E+00
 0.0000000000000E+00
 0.0000000000000E+00
 0.0000000000000E+00
 0.0000000000000E+00
 0.0000000000000E+00
 0.0000000000000E+00
 0.0000000000000E+00
 0.0000000000000E+00
 0.0000000000000E+00
 0.0000000000000E+00
 0.0000000000000E+00
 0.0000000000000E+00
 0.0000000000000E+00
 0.0000000000000E+00
 0.0000000000000E+00
 0.0000000000000E+00
 0.0000000000000E+00
 0.0000000000000E+00
 0.0000000000000E+00
 0.0000000000000E+00
 0.0000000000000E+00
 0.0000000000000E+00
 0.0000000000000E+00
 0.0000000000000E+00
 0.0000000000000E+00
 0.0000000000000E+00
 0.0000000000000E+00
 0.0000000000000E+00
 0.0000000000000E+00
 0.0000000000000E+00
 0.0000000000000E+00
 0.0000000000000E+00
 0.0000000000000E+00
 0.0000000000000E+00
 0.0000000000000E+00
 0.0000000000000E+00
 0.0000000000000E+00
 0.0000000000000E+00
 0.0000000000000E+00
 0.0000000000000E+00
 0.0000000000000E+00
 0.0000000000000E+00
 0.0000000000000E+00
 0.0000000000000E+00
 0.0000000000000E+00
 0.0000000000000E+00
 0.0000000000000E+00
 0.0000000000000E+00
 0.0000000000000E+00
 0.0000000000000E+00
 0.0000000000000E+00
 0.0000000000000E+00
 0.0000000000000E+00
 0.0000000000000E+00
 0.0000000000000E+00
 0.0000000000000E+00
 0.0000000000000E+00
 0.0000000000000E+00
 0.0000000000000E+00
 0.0000000000000E+00
 0.0000000000000E+00
 0.0000000000000E+00
 0.0000000000000E+00
 0.0000000000000E+00
 0.0000000000000E+00
 0.0000000000000E+00
 0.0000000000000E+00
 0.0000000000000E+00
 0.0000000000000E+00
 0.0000000000000E+00
 0.0000000000000E+00
 0.0000000000000E+00
 0.0000000000000E+00
 0.0000000000000E+00
 0.0000000000000E+00
 0.0000000000000E+00
 0.0000000000000E+00
 0.0000000000000E+00
 0.0000000000000E+00
 0.0000000000000E+00
 0.0000000000000E+00
 0.0000000000000E+00
 0.0000000000000E+00
 0.0000000000000E+00
 0.0000000000000E+00
 0.0000000000000E+00
 0.0000000000000E+00
 0.0000000000000E+00
 0.0000000000000E+00
 0.0000000000000E+00
 0.0000000000000E+00
 0.0000000000000E+00
 0.0000000000000E+00
 0.0000000000000E+00
 0.0000000000000E+00
 0.0000000000000E+00
 0.0000000000000E+00
 0.0000000000000E+00
 0.0000000000000E+00
 0.0000000000000E+00
 0.0000000000000E+00
 0.0000000000000E+00
 0.0000000000000E+00
 0.0000000000000E+00
 0.0000000000000E+00
 0.0000000000000E+00
 0.0000000000000E+00
 0.0000000000000E+00
 0.0000000000000E+00
 0.0000000000000E+00
 0.0000000000000E+00
 0.0000000000000E+00
 0.0000000000000E+00
 0.0000000000000E+00
 0.0000000000000E+00
 0.0000000000000E+00
 0.0000000000000E+00
 0.0000000000000E+00
 0.0000000000000E+00
 0.0000000000000E+00
 0.0000000000000E+00
 0.0000000000000E+00
 0.0000000000000E+00
 0.0000000000000E+00
 0.0000000000000E+00
 0.0000000000000E+00
 0.0000000000000E+00
 0.0000000000000E+00
 0.0000000000000E+00
 0.0000000000000E+00
 0.0000000000000E+00
 0.0000000000000E+00
 0.0000000000000E+00
 0.0000000000000E+00
 0.0000000000000E+00
 0.0000000000000E+00
 0.0000000000000E+00
 0.0000000000000E+00
 0.0000000000000E+00
 0.0000000000000E+00
 0.0000000000000E+00
 0.0000000000000E+00
 0.0000000000000E+00
 0.0000000000000E+00
 0.0000000000000E+00
 0.0000000000000E+00
 0.0000000000000E+00
 0.0000000000000E+00
 0.0000000000000E+00
 0.0000000000000E+00
 0.0000000000000E+00
 0.0000000000000E+00
 0.0000000000000E+00
 0.0000000000000E+00
 0.0000000000000E+00
 0.0000000000000E+00
 0.0000000000000E+00
 0.0000000000000E+00
 0.0000000000000E+00
 0.0000000000000E+00
 0.0000000000000E+00
 0.0000000000000E+00
 0.0000000000000E+00
 0.0000000000000E+00
 0.0000000000000E+00
 0.0000000000000E+00
 0.0000000000000E+00
 0.0000000000000E+00
 0.0000000000000E+00
 0.0000000000000E+00
 0.0000000000000E+00
 0.0000000000000E+00
 0.0000000000000E+00
 0.0000000000000E+00
 0.0000000000000E+00
 0.0000000000000E+00
 0.0000000000000E+00
 0.0000000000000E+00
 0.0000000000000E+00
 0.0000000000000E+00
 0.0000000000000E+00
 0.0000000000000E+00
 0.0000000000000E+00
 0.0000000000000E+00
 0.0000000000000E+00
 0.0000000000000E+00
 0.0000000000000E+00
 0.0000000000000E+00
 0.0000000000000E+00
 0.0000000000000E+00
 0.0000000000000E+00
 0.0000000000000E+00
 0.0000000000000E+00
 0.0000000000000E+00
 0.0000000000000E+00
 0.0000000000000E+00
 0.0000000000000E+00
 0.0000000000000E+00
 0.0000000000000E+00
 0.0000000000000E+00
 0.0000000000000E+00
 0.0000000000000E+00
 0.0000000000000E+00
 0.0000000000000E+00
 0.0000000000000E+00
 0.0000000000000E+00
 0.0000000000000E+00
 0.0000000000000E+00
 0.0000000000000E+00
 0.0000000000000E+00
 0.0000000000000E+00
 0.0000000000000E+00
 0.0000000000000E+00
 0.0000000000000E+00
 0.0000000000000E+00
 0.0000000000000E+00
 0.0000000000000E+00
 0.0000000000000E+00
 0.0000000000000E+00
 0.0000000000000E+00
 0.0000000000000E+00
 0.0000000000000E+00
 0.0000000000000E+00
 0.0000000000000E+00
 0.0000000000000E+00
 0.0000000000000E+00
 0.0000000000000E+00
 0.0000000000000E+00
 0.0000000000000E+00
 0.0000000000000E+00
 0.0000000000000E+00
 0.0000000000000E+00
 0.0000000000000E+00
 0.0000000000000E+00
 0.0000000000000E+00
 0.0000000000000E+00
 0.0000000000000E+00
 0.0000000000000E+00
 0.0000000000000E+00
 0.0000000000000E+00
 0.0000000000000E+00
 0.0000000000000E+00
 0.0000000000000E+00
 0.0000000000000E+00
 0.0000000000000E+00
 0.0000000000000E+00
 0.0000000000000E+00
 0.0000000000000E+00
 0.0000000000000E+00
 0.0000000000000E+00
 0.0000000000000E+00
 0.0000000000000E+00
 0.0000000000000E+00
 0.0000000000000E+00
 0.0000000000000E+00
 0.0000000000000E+00
 0.0000000000000E+00
 0.0000000000000E+00
 0.0000000000000E+00
 0.0000000000000E+00
 0.0000000000000E+00
 0.0000000000000E+00
 0.0000000000000E+00
 0.0000000000000E+00
 0.0000000000000E+00
 0.0000000000000E+00
 0.0000000000000E+00
 0.0000000000000E+00
 0.0000000000000E+00
 0.0000000000000E+00
 0.0000000000000E+00
 0.0000000000000E+00
 0.0000000000000E+00
 0.0000000000000E+00
 0.0000000000000E+00
 0.0000000000000E+00
 0.0000000000000E+00
 0.0000000000000E+00
 0.0000000000000E+00
 0.0000000000000E+00
 0.0000000000000E+00
 0.0000000000000E+00
 0.0000000000000E+00
 0.0000000000000E+00
 0.0000000000000E+00
 0.0000000000000E+00
 0.0000000000000E+00
 0.0000000000000E+00
 0.0000000000000E+00
 0.0000000000000E+00
 0.0000000000000E+00
 0.0000000000000E+00
 0.0000000000000E+00
 0.0000000000000E+00
 0.0000000000000E+00
 0.0000000000000E+00
 0.0000000000000E+00
 0.0000000000000E+00
 0.0000000000000E+00
 0.0000000000000E+00
 0.0000000000000E+00
 0.0000000000000E+00
 0.0000000000000E+00
 0.0000000000000E+00
 0.0000000000000E+00
 0.0000000000000E+00
 0.0000000000000E+00
 0.0000000000000E+00
 0.0000000000000E+00
 0.0000000000000E+00
 0.0000000000000E+00
 0.0000000000000E+00
 0.0000000000000E+00
 0.0000000000000E+00
 0.0000000000000E+00
 0.0000000000000E+00
 0.0000000000000E+00
 0.0000000000000E+00
 0.0000000000000E+00
 0.0000000000000E+00
 0.0000000000000E+00
 0.0000000000000E+00
 0.0000000000000E+00
 0.0000000000000E+00
 0.0000000000000E+00
 0.0000000000000E+00
 0.0000000000000E+00
 0.0000000000000E+00
 0.0000000000000E+00
 0.0000000000000E+00
 0.0000000000000E+00
 0.0000000000000E+00
 0.0000000000000E+00
 0.0000000000000E+00
 0.0000000000000E+00
 0.0000000000000E+00
 0.0000000000000E+00
 0.0000000000000E+00
 0.0000000000000E+00
 0.0000000000000E+00
 0.0000000000000E+00
 0.0000000000000E+00
 0.0000000000000E+00
 0.0000000000000E+00
 0.0000000000000E+00
 0.0000000000000E+00
 0.0000000000000E+00
 0.0000000000000E+00
 0.0000000000000E+00
 0.0000000000000E+00
 0.0000000000000E+00
 0.0000000000000E+00
 0.0000000000000E+00
 0.0000000000000E+00
 0.0000000000000E+00
 0.0000000000000E+00
 0.0000000000000E+00
 0.0000000000000E+00
 0.0000000000000E+00
 0.0000000000000E+00
 0.0000000000000E+00
 0.0000000000000E+00
 0.0000000000000E+00
 0.0000000000000E+00
 0.0000000000000E+00
 0.0000000000000E+00
 0.0000000000000E+00
 0.0000000000000E+00
 0.0000000000000E+00
 0.0000000000000E+00
 0.0000000000000E+00
 0.0000000000000E+00
 0.0000000000000E+00
 0.0000000000000E+00
 0.0000000000000E+00
 0.0000000000000E+00
 0.0000000000000E+00
 0.0000000000000E+00
 0.0000000000000E+00
 0.0000000000000E+00
 0.0000000000000E+00
 0.0000000000000E+00
 0.0000000000000E+00
 0.0000000000000E+00
 0.0000000000000E+00
 0.0000000000000E+00
 0.0000000000000E+00
 0.0000000000000E+00
 0.0000000000000E+00
 0.0000000000000E+00
 0.0000000000000E+00
 0.0000000000000E+00
 0.0000000000000E+00
 0.0000000000000E+00
 0.0000000000000E+00
 0.0000000000000E+00
 0.0000000000000E+00
 0.0000000000000E+00
 0.0000000000000E+00
 0.0000000000000E+00
 0.0000000000000E+00
 0.0000000000000E+00
 0.0000000000000E+00
 0.0000000000000E+00
 0.0000000000000E+00
 0.0000000000000E+00
 0.0000000000000E+00
 0.0000000000000E+00
 0.0000000000000E+00
 0.0000000000000E+00
 0.0000000000000E+00
 0.0000000000000E+00
 0.0000000000000E+00
 0.0000000000000E+00
 0.0000000000000E+00
 0.0000000000000E+00
 0.0000000000000E+00
 0.0000000000000E+00
 0.0000000000000E+00
 0.0000000000000E+00
 0.0000000000000E+00
 0.0000000000000E+00
 0.0000000000000E+00
 0.0000000000000E+00
 0.0000000000000E+00
 0.0000000000000E+00
 0.0000000000000E+00
 0.0000000000000E+00
 0.0000000000000E+00
 0.0000000000000E+00
 0.0000000000000E+00
 0.0000000000000E+00
 0.0000000000000E+00
 0.0000000000000E+00
 0.0000000000000E+00
 0.0000000000000E+00
 0.0000000000000E+00
 0.0000000000000E+00
 0.0000000000000E+00
 0.0000000000000E+00
 0.0000000000000E+00
 0.0000000000000E+00
 0.0000000000000E+00
 0.0000000000000E+00
 0.0000000000000E+00
 0.0000000000000E+00
 0.0000000000000E+00
 0.0000000000000E+00
 0.0000000000000E+00
 0.0000000000000E+00
 0.0000000000000E+00
 0.0000000000000E+00
 0.0000000000000E+00
 0.0000000000000E+00
 0.0000000000000E+00
 0.0000000000000E+00
 0.0000000000000E+00
 0.0000000000000E+00
 0.0000000000000E+00
 0.0000000000000E+00
 0.0000000000000E+00
 0.0000000000000E+00
 0.0000000000000E+00
 0.0000000000000E+00
 0.0000000000000E+00
 0.0000000000000E+00
 0.0000000000000E+00
 0.0000000000000E+00
 0.0000000000000E+00
 0.0000000000000E+00
 0.0000000000000E+00
 0.0000000000000E+00
 0.0000000000000E+00
 0.0000000000000E+00
 0.0000000000000E+00
 0.0000000000000E+00
 0.0000000000000E+00
 0.0000000000000E+00
 0.0000000000000E+00
 0.0000000000000E+00
 0.0000000000000E+00
 0.0000000000000E+00
 0.0000000000000E+00
 0.0000000000000E+00
 0.0000000000000E+00
 0.0000000000000E+00
 0.0000000000000E+00
 0.0000000000000E+00
 0.0000000000000E+00
 0.0000000000000E+00
 0.0000000000000E+00
 0.0000000000000E+00
 0.0000000000000E+00
 0.0000000000000E+00
 0.0000000000000E+00
 0.0000000000000E+00
 0.0000000000000E+00
 0.0000000000000E+00
 0.0000000000000E+00
 0.0000000000000E+00
 0.0000000000000E+00
 0.0000000000000E+00
 0.0000000000000E+00
 0.0000000000000E+00
 0.0000000000000E+00
 0.0000000000000E+00
 0.0000000000000E+00
 0.0000000000000E+00
 0.0000000000000E+00
 0.0000000000000E+00
 0.0000000000000E+00
 0.0000000000000E+00
 0.0000000000000E+00
 0.0000000000000E+00
 0.0000000000000E+00
 0.0000000000000E+00
 0.0000000000000E+00
 0.0000000000000E+00
 0.0000000000000E+00
 0.0000000000000E+00
 0.0000000000000E+00
 0.0000000000000E+00
 0.0000000000000E+00
 0.0000000000000E+00
 0.0000000000000E+00
 0.0000000000000E+00
 0.0000000000000E+00
 0.0000000000000E+00
 0.0000000000000E+00
 0.0000000000000E+00
 0.0000000000000E+00
 0.0000000000000E+00
 0.0000000000000E+00
 0.0000000000000E+00
 0.0000000000000E+00
 0.0000000000000E+00
 0.0000000000000E+00
 0.0000000000000E+00
 0.0000000000000E+00
 0.0000000000000E+00
 0.0000000000000E+00
 0.0000000000000E+00
 0.0000000000000E+00
 0.0000000000000E+00
 0.0000000000000E+00
 0.0000000000000E+00
 0.0000000000000E+00
 0.0000000000000E+00
 0.0000000000000E+00
 0.0000000000000E+00
 0.0000000000000E+00
 0.0000000000000E+00
 0.0000000000000E+00
 0.0000000000000E+00
 0.0000000000000E+00
 0.0000000000000E+00
 0.0000000000000E+00
 0.0000000000000E+00
 0.0000000000000E+00
 0.0000000000000E+00
 0.0000000000000E+00
 0.0000000000000E+00
 0.0000000000000E+00
 0.0000000000000E+00
 0.0000000000000E+00
 0.0000000000000E+00
 0.0000000000000E+00
 0.0000000000000E+00
 0.0000000000000E+00
 0.0000000000000E+00
 0.0000000000000E+00
 0.0000000000000E+00
 0.0000000000000E+00
 0.0000000000000E+00
 0.0000000000000E+00
 0.0000000000000E+00
 0.0000000000000E+00
 0.0000000000000E+00
 0.0000000000000E+00
 0.0000000000000E+00
 0.0000000000000E+00
 0.0000000000000E+00
 0.0000000000000E+00
 0.0000000000000E+00
 0.0000000000000E+00
 0.0000000000000E+00
 0.0000000000000E+00
 0.0000000000000E+00
 0.0000000000000E+00
 0.0000000000000E+00
 0.0000000000000E+00
 0.0000000000000E+00
 0.0000000000000E+00
 0.0000000000000E+00
 0.0000000000000E+00
 0.0000000000000E+00
 0.0000000000000E+00
 0.0000000000000E+00
 0.0000000000000E+00
 0.0000000000000E+00
 0.0000000000000E+00
 0.0000000000000E+00
 0.0000000000000E+00
 0.0000000000000E+00
 0.0000000000000E+00
 0.0000000000000E+00
 0.0000000000000E+00
 0.0000000000000E+00
 0.0000000000000E+00
 0.0000000000000E+00
 0.0000000000000E+00
 0.0000000000000E+00
 0.0000000000000E+00
 0.0000000000000E+00
 0.0000000000000E+00
 0.0000000000000E+00
 0.0000000000000E+00
 0.0000000000000E+00
 0.0000000000000E+00
 0.0000000000000E+00
 0.0000000000000E+00
 0.0000000000000E+00
 0.0000000000000E+00
 0.0000000000000E+00
 0.0000000000000E+00
 0.0000000000000E+00
 0.0000000000000E+00
 0.0000000000000E+00
 0.0000000000000E+00
 0.0000000000000E+00
 0.0000000000000E+00
 0.0000000000000E+00
 0.0000000000000E+00
 0.0000000000000E+00
 0.0000000000000E+00
 0.0000000000000E+00
 0.0000000000000E+00
 0.0000000000000E+00
 0.0000000000000E+00
 0.0000000000000E+00
 0.0000000000000E+00
 0.0000000000000E+00
 0.0000000000000E+00
 0.0000000000000E+00
 0.0000000000000E+00
 0.0000000000000E+00
 0.0000000000000E+00
 0.0000000000000E+00
 0.0000000000000E+00
 0.0000000000000E+00
 0.0000000000000E+00
 0.0000000000000E+00
 0.0000000000000E+00
 0.0000000000000E+00
 0.0000000000000E+00
 0.0000000000000E+00
 0.0000000000000E+00
 0.0000000000000E+00
 0.0000000000000E+00
 0.0000000000000E+00
 0.0000000000000E+00
 0.0000000000000E+00
 0.0000000000000E+00
 0.0000000000000E+00
 0.0000000000000E+00
 0.0000000000000E+00
 0.0000000000000E+00
 0.0000000000000E+00
 0.0000000000000E+00
 0.0000000000000E+00
 0.0000000000000E+00
 0.0000000000000E+00
 0.0000000000000E+00
 0.0000000000000E+00
 0.0000000000000E+00
 0.0000000000000E+00
 0.0000000000000E+00
 0.0000000000000E+00
 0.0000000000000E+00
 0.0000000000000E+00
 0.0000000000000E+00
 0.0000000000000E+00
 0.0000000000000E+00
 0.0000000000000E+00
 0.0000000000000E+00
 0.0000000000000E+00
 0.0000000000000E+00
 0.0000000000000E+00
 0.0000000000000E+00
 0.0000000000000E+00
 0.0000000000000E+00
 0.0000000000000E+00
 0.0000000000000E+00
 0.0000000000000E+00
 0.0000000000000E+00
 0.0000000000000E+00
 0.0000000000000E+00
 0.0000000000000E+00
 0.0000000000000E+00
 0.0000000000000E+00
 0.0000000000000E+00
 0.0000000000000E+00
 0.0000000000000E+00
 0.0000000000000E+00
 0.0000000000000E+00
 0.0000000000000E+00
 0.0000000000000E+00
 0.0000000000000E+00
 0.0000000000000E+00
 0.0000000000000E+00
 0.0000000000000E+00
 0.0000000000000E+00
 0.0000000000000E+00
 0.0000000000000E+00
 0.0000000000000E+00
 0.0000000000000E+00
 0.0000000000000E+00
 0.0000000000000E+00
 0.0000000000000E+00
 0.0000000000000E+00
 0.0000000000000E+00
 0.0000000000000E+00
 0.0000000000000E+00
 0.0000000000000E+00
 0.0000000000000E+00
 0.0000000000000E+00
 0.0000000000000E+00
 0.0000000000000E+00
 0.0000000000000E+00
 0.0000000000000E+00
 0.0000000000000E+00
 0.0000000000000E+00
 0.0000000000000E+00
 0.0000000000000E+00
 0.0000000000000E+00
 0.0000000000000E+00
 0.0000000000000E+00
 0.0000000000000E+00
 0.0000000000000E+00
 0.0000000000000E+00
 0.0000000000000E+00
 0.0000000000000E+00
 0.0000000000000E+00
 0.0000000000000E+00
 0.0000000000000E+00
 0.0000000000000E+00
 0.0000000000000E+00
 0.0000000000000E+00
 0.0000000000000E+00
 0.0000000000000E+00
 0.0000000000000E+00
 0.0000000000000E+00
 0.0000000000000E+00
 0.0000000000000E+00
 0.0000000000000E+00
 0.0000000000000E+00
 0.0000000000000E+00
 0.0000000000000E+00
 0.0000000000000E+00
 0.0000000000000E+00
 0.0000000000000E+00
 0.0000000000000E+00
 0.0000000000000E+00
 0.0000000000000E+00
 0.0000000000000E+00
 0.0000000000000E+00
 0.0000000000000E+00
 0.0000000000000E+00
 0.0000000000000E+00
 0.0000000000000E+00
 0.0000000000000E+00
 0.0000000000000E+00
 0.0000000000000E+00
 0.0000000000000E+00
 0.0000000000000E+00
 0.0000000000000E+00
 0.0000000000000E+00
 0.0000000000000E+00
 0.0000000000000E+00
 0.0000000000000E+00
 0.0000000000000E+00
 0.0000000000000E+00
 0.0000000000000E+00
 0.0000000000000E+00
 0.0000000000000E+00
 0.0000000000000E+00
 0.0000000000000E+00
 0.0000000000000E+00
 0.0000000000000E+00
 0.0000000000000E+00
 0.0000000000000E+00
 0.0000000000000E+00
 0.0000000000000E+00
 0.0000000000000E+00
 0.0000000000000E+00
 0.0000000000000E+00
 0.0000000000000E+00
 0.0000000000000E+00
 0.0000000000000E+00
 0.0000000000000E+00
 0.0000000000000E+00
 0.0000000000000E+00
 0.0000000000000E+00
 0.0000000000000E+00
 0.0000000000000E+00
 0.0000000000000E+00
 0.0000000000000E+00
 0.0000000000000E+00
 0.0000000000000E+00
 0.0000000000000E+00
 0.0000000000000E+00
 0.0000000000000E+00
 0.0000000000000E+00
 0.0000000000000E+00
 0.0000000000000E+00
 0.0000000000000E+00
 0.0000000000000E+00
 0.0000000000000E+00
 0.0000000000000E+00
 0.0000000000000E+00
 0.0000000000000E+00
 0.0000000000000E+00
 0.0000000000000E+00
 0.0000000000000E+00
 0.0000000000000E+00
 0.0000000000000E+00
 0.0000000000000E+00
 0.0000000000000E+00
 0.0000000000000E+00
 0.0000000000000E+00
 0.0000000000000E+00
 0.0000000000000E+00
 0.0000000000000E+00
 0.0000000000000E+00
 0.0000000000000E+00
 0.0000000000000E+00
 0.0000000000000E+00
 0.0000000000000E+00
 0.0000000000000E+00
 0.0000000000000E+00
 0.0000000000000E+00
 0.0000000000000E+00
 0.0000000000000E+00
 0.0000000000000E+00
 0.0000000000000E+00
 0.0000000000000E+00
 0.0000000000000E+00
 0.0000000000000E+00
 0.0000000000000E+00
 0.0000000000000E+00
 0.0000000000000E+00
 0.0000000000000E+00
 0.0000000000000E+00
 0.0000000000000E+00
 0.0000000000000E+00
 0.0000000000000E+00
 0.0000000000000E+00
 0.0000000000000E+00
 0.0000000000000E+00
 0.0000000000000E+00
 0.0000000000000E+00
 0.0000000000000E+00
 0.0000000000000E+00
 0.0000000000000E+00
 0.0000000000000E+00
 0.0000000000000E+00
 0.0000000000000E+00
 0.0000000000000E+00
 0.0000000000000E+00
 0.0000000000000E+00
 0.0000000000000E+00
 0.0000000000000E+00
 0.0000000000000E+00
 0.0000000000000E+00
 0.0000000000000E+00
 0.0000000000000E+00
 0.0000000000000E+00
 0.0000000000000E+00
 0.0000000000000E+00
 0.0000000000000E+00
 0.0000000000000E+00
 0.0000000000000E+00
 0.0000000000000E+00
 0.0000000000000E+00
 0.0000000000000E+00
 0.0000000000000E+00
 0.0000000000000E+00
 0.0000000000000E+00
 0.0000000000000E+00
 0.0000000000000E+00
 0.0000000000000E+00
 0.0000000000000E+00
 0.0000000000000E+00
 0.0000000000000E+00
 0.0000000000000E+00
 0.0000000000000E+00
 0.0000000000000E+00
 0.0000000000000E+00
 0.0000000000000E+00
 0.0000000000000E+00
 0.0000000000000E+00
 0.0000000000000E+00
 0.0000000000000E+00
 0.0000000000000E+00
 0.0000000000000E+00
 0.0000000000000E+00
 0.0000000000000E+00
 0.0000000000000E+00
 0.0000000000000E+00
 0.0000000000000E+00
 0.0000000000000E+00
 0.0000000000000E+00
 0.0000000000000E+00
 0.0000000000000E+00
 0.0000000000000E+00
 0.0000000000000E+00
 0.0000000000000E+00
 0.0000000000000E+00
 0.0000000000000E+00
 0.0000000000000E+00
 0.0000000000000E+00
 0.0000000000000E+00
 0.0000000000000E+00
 0.0000000000000E+00
 0.0000000000000E+00
 0.0000000000000E+00
 0.0000000000000E+00
 0.0000000000000E+00
 0.0000000000000E+00
 0.0000000000000E+00
 0.0000000000000E+00
 0.0000000000000E+00
 0.0000000000000E+00
 0.0000000000000E+00
 0.0000000000000E+00
 0.0000000000000E+00
 0.0000000000000E+00
 0.0000000000000E+00
 0.0000000000000E+00
 0.0000000000000E+00
 0.0000000000000E+00
 0.0000000000000E+00
 0.0000000000000E+00
 0.0000000000000E+00
 0.0000000000000E+00
 0.0000000000000E+00
 0.0000000000000E+00
 0.0000000000000E+00
 0.0000000000000E+00
 0.0000000000000E+00
 0.0000000000000E+00
 0.0000000000000E+00
 0.0000000000000E+00
 0.0000000000000E+00
 0.0000000000000E+00
 0.0000000000000E+00
 0.0000000000000E+00
 0.0000000000000E+00
 0.0000000000000E+00
 0.0000000000000E+00
 0.0000000000000E+00
 0.0000000000000E+00
 0.0000000000000E+00
 0.0000000000000E+00
 0.0000000000000E+00
 0.0000000000000E+00
 0.0000000000000E+00
 0.0000000000000E+00
 0.0000000000000E+00
 0.0000000000000E+00
 0.0000000000000E+00
 0.0000000000000E+00
 0.0000000000000E+00
 0.0000000000000E+00
 0.0000000000000E+00
 0.0000000000000E+00
 0.0000000000000E+00
 0.0000000000000E+00
 0.0000000000000E+00
 0.0000000000000E+00
 0.0000000000000E+00
 0.0000000000000E+00
 0.0000000000000E+00
 0.0000000000000E+00
 0.0000000000000E+00
 0.0000000000000E+00
 0.0000000000000E+00
 0.0000000000000E+00
 0.0000000000000E+00
 0.0000000000000E+00
 0.0000000000000E+00
 0.0000000000000E+00
 0.0000000000000E+00
 0.0000000000000E+00
 0.0000000000000E+00
 0.0000000000000E+00
 0.0000000000000E+00
 0.0000000000000E+00
 0.0000000000000E+00
 0.0000000000000E+00
 0.0000000000000E+00
 0.0000000000000E+00
 0.0000000000000E+00
 0.0000000000000E+00
 0.0000000000000E+00
 0.0000000000000E+00
 0.0000000000000E+00
 0.0000000000000E+00
 0.0000000000000E+00
 0.0000000000000E+00
 0.0000000000000E+00
 0.0000000000000E+00
 0.0000000000000E+00
 0.0000000000000E+00
 0.0000000000000E+00
 0.0000000000000E+00
 0.0000000000000E+00
 0.0000000000000E+00
 0.0000000000000E+00
 0.0000000000000E+00
 0.0000000000000E+00
 0.0000000000000E+00
 0.0000000000000E+00
 0.0000000000000E+00
 0.0000000000000E+00
 0.0000000000000E+00
 0.0000000000000E+00
 0.0000000000000E+00
 0.0000000000000E+00
 0.0000000000000E+00
 0.0000000000000E+00
 0.0000000000000E+00
 0.0000000000000E+00
 0.0000000000000E+00
 0.0000000000000E+00
 0.0000000000000E+00
 0.0000000000000E+00
 0.0000000000000E+00
 0.0000000000000E+00
 0.0000000000000E+00
 0.0000000000000E+00
 0.0000000000000E+00
 0.0000000000000E+00
 0.0000000000000E+00
 0.0000000000000E+00
 0.0000000000000E+00
 0.0000000000000E+00
 0.0000000000000E+00
 0.0000000000000E+00
 0.0000000000000E+00
 0.0000000000000E+00
 0.0000000000000E+00
 0.0000000000000E+00
 0.0000000000000E+00
 0.0000000000000E+00
 0.0000000000000E+00
 0.0000000000000E+00
 0.0000000000000E+00
 0.0000000000000E+00
 0.0000000000000E+00
 0.0000000000000E+00
 0.0000000000000E+00
 0.0000000000000E+00
 0.0000000000000E+00
 0.0000000000000E+00
 0.0000000000000E+00
 0.0000000000000E+00
 0.0000000000000E+00
 0.0000000000000E+00
 0.0000000000000E+00
 0.0000000000000E+00
 0.0000000000000E+00
 0.0000000000000E+00
 0.0000000000000E+00
 0.0000000000000E+00
 0.0000000000000E+00
 0.0000000000000E+00
 0.0000000000000E+00
 0.0000000000000E+00
 0.0000000000000E+00
 0.0000000000000E+00
 0.0000000000000E+00
 0.0000000000000E+00
 0.0000000000000E+00
 0.0000000000000E+00
 0.0000000000000E+00
 0.0000000000000E+00
 0.0000000000000E+00
 0.0000000000000E+00
 0.0000000000000E+00
 0.0000000000000E+00
 0.0000000000000E+00
 0.0000000000000E+00
 0.0000000000000E+00
 0.0000000000000E+00
 0.0000000000000E+00
 0.0000000000000E+00
 0.0000000000000E+00
 0.0000000000000E+00
 0.0000000000000E+00
 0.0000000000000E+00
 0.0000000000000E+00
 0.0000000000000E+00
 0.0000000000000E+00
 0.0000000000000E+00
 0.0000000000000E+00
 0.0000000000000E+00
 0.0000000000000E+00
 0.0000000000000E+00
 0.0000000000000E+00
 0.0000000000000E+00
 0.0000000000000E+00
 0.0000000000000E+00
 0.0000000000000E+00
 0.0000000000000E+00
 0.0000000000000E+00
 0.0000000000000E+00
 0.0000000000000E+00
 0.0000000000000E+00
 0.0000000000000E+00
 0.0000000000000E+00
 0.0000000000000E+00
 0.0000000000000E+00
 0.0000000000000E+00
 0.0000000000000E+00
 0.0000000000000E+00
 0.0000000000000E+00
 0.0000000000000E+00
 0.0000000000000E+00
 0.0000000000000E+00
 0.0000000000000E+00
 0.0000000000000E+00
 0.0000000000000E+00
 0.0000000000000E+00
 0.0000000000000E+00
 0.0000000000000E+00
 0.0000000000000E+00
 0.0000000000000E+00
 0.0000000000000E+00
 0.0000000000000E+00
 0.0000000000000E+00
 0.0000000000000E+00
 0.0000000000000E+00
 0.0000000000000E+00
 0.0000000000000E+00
 0.0000000000000E+00
 0.0000000000000E+00
 0.0000000000000E+00
 0.0000000000000E+00
 0.0000000000000E+00
 0.0000000000000E+00
 0.0000000000000E+00
 0.0000000000000E+00
 0.0000000000000E+00
 0.0000000000000E+00
 0.0000000000000E+00
 0.0000000000000E+00
 0.0000000000000E+00
 0.0000000000000E+00
 0.0000000000000E+00
 0.0000000000000E+00
 0.0000000000000E+00
 0.0000000000000E+00
 0.0000000000000E+00
 0.0000000000000E+00
 0.0000000000000E+00
 0.0000000000000E+00
 0.0000000000000E+00
 0.0000000000000E+00
 0.0000000000000E+00
 0.0000000000000E+00
 0.0000000000000E+00
 0.0000000000000E+00
 0.0000000000000E+00
 0.0000000000000E+00
 0.0000000000000E+00
 0.0000000000000E+00
 0.0000000000000E+00
 0.0000000000000E+00
 0.0000000000000E+00
 0.0000000000000E+00
 0.0000000000000E+00
 0.0000000000000E+00
 0.0000000000000E+00
 0.0000000000000E+00
 0.0000000000000E+00
 0.0000000000000E+00
 0.0000000000000E+00
 0.0000000000000E+00
 0.0000000000000E+00
 0.0000000000000E+00
 0.0000000000000E+00
 0.0000000000000E+00
 0.0000000000000E+00
 0.0000000000000E+00
 0.0000000000000E+00
 0.0000000000000E+00
 0.0000000000000E+00
 0.0000000000000E+00
 0.0000000000000E+00
 0.0000000000000E+00
 0.0000000000000E+00
 0.0000000000000E+00
 0.0000000000000E+00
 0.0000000000000E+00
 0.0000000000000E+00
 0.0000000000000E+00
 0.0000000000000E+00
 0.0000000000000E+00
 0.0000000000000E+00
 0.0000000000000E+00
 0.0000000000000E+00
 0.0000000000000E+00
 0.0000000000000E+00
 0.0000000000000E+00
 0.0000000000000E+00
 0.0000000000000E+00
 0.0000000000000E+00
 0.0000000000000E+00
 0.0000000000000E+00
 0.0000000000000E+00
 0.0000000000000E+00
 0.0000000000000E+00
 0.0000000000000E+00
 0.0000000000000E+00
 0.0000000000000E+00
 0.0000000000000E+00
 0.0000000000000E+00
 0.0000000000000E+00
 0.0000000000000E+00
 0.0000000000000E+00
 0.0000000000000E+00
 0.0000000000000E+00
 0.0000000000000E+00
 0.0000000000000E+00
 0.0000000000000E+00
 0.0000000000000E+00
 0.0000000000000E+00
 0.0000000000000E+00
 0.0000000000000E+00
 0.0000000000000E+00
 0.0000000000000E+00
 0.0000000000000E+00
 0.0000000000000E+00
 0.0000000000000E+00
 0.0000000000000E+00
 0.0000000000000E+00
 0.0000000000000E+00
 0.0000000000000E+00
 0.0000000000000E+00
 0.0000000000000E+00
 0.0000000000000E+00
 0.0000000000000E+00
 0.0000000000000E+00
 0.0000000000000E+00
 0.0000000000000E+00
 0.0000000000000E+00
 0.0000000000000E+00
 0.0000000000000E+00
 0.0000000000000E+00
 0.0000000000000E+00
 0.0000000000000E+00
 0.0000000000000E+00
 0.0000000000000E+00
 0.0000000000000E+00
 0.0000000000000E+00
 0.0000000000000E+00
 0.0000000000000E+00
 0.0000000000000E+00
 0.0000000000000E+00
 0.0000000000000E+00
 0.0000000000000E+00
 0.0000000000000E+00
 0.0000000000000E+00
 0.0000000000000E+00
 0.0000000000000E+00
 0.0000000000000E+00
 0.0000000000000E+00
 0.0000000000000E+00
 0.0000000000000E+00
 0.0000000000000E+00
 0.0000000000000E+00
 0.0000000000000E+00
 0.0000000000000E+00
 0.0000000000000E+00
 0.0000000000000E+00
 0.0000000000000E+00
 0.0000000000000E+00
 0.0000000000000E+00
 0.0000000000000E+00
 0.0000000000000E+00
 0.0000000000000E+00
 0.0000000000000E+00
 0.0000000000000E+00
 0.0000000000000E+00
 0.0000000000000E+00
 0.0000000000000E+00
 0.0000000000000E+00
 0.0000000000000E+00
 0.0000000000000E+00
 0.0000000000000E+00
 0.0000000000000E+00
 0.0000000000000E+00
 0.0000000000000E+00
 0.0000000000000E+00
 0.0000000000000E+00
 0.0000000000000E+00
 0.0000000000000E+00
 0.0000000000000E+00
 0.0000000000000E+00
 0.0000000000000E+00
 0.0000000000000E+00
 0.0000000000000E+00
 0.0000000000000E+00
 0.0000000000000E+00
 0.0000000000000E+00
 0.0000000000000E+00
 0.0000000000000E+00
 0.0000000000000E+00
 0.0000000000000E+00
 0.0000000000000E+00
 0.0000000000000E+00
 0.0000000000000E+00
 0.0000000000000E+00
 0.0000000000000E+00
 0.0000000000000E+00
 0.0000000000000E+00
 0.0000000000000E+00
 0.0000000000000E+00
 0.0000000000000E+00
 0.0000000000000E+00
 0.0000000000000E+00
 0.0000000000000E+00
 0.0000000000000E+00
 0.0000000000000E+00
 0.0000000000000E+00
 0.0000000000000E+00
 0.0000000000000E+00
 0.0000000000000E+00
 0.0000000000000E+00
 0.0000000000000E+00
 0.0000000000000E+00
 0.0000000000000E+00
 0.0000000000000E+00
 0.0000000000000E+00
 0.0000000000000E+00
 0.0000000000000E+00
 0.0000000000000E+00
 0.0000000000000E+00
 0.0000000000000E+00
 0.0000000000000E+00
 0.0000000000000E+00
 0.0000000000000E+00
 0.0000000000000E+00
 0.0000000000000E+00
 0.0000000000000E+00
 0.0000000000000E+00
 0.0000000000000E+00
 0.0000000000000E+00
 0.0000000000000E+00
 0.0000000000000E+00
 0.0000000000000E+00
 0.0000000000000E+00
 0.0000000000000E+00
 0.0000000000000E+00
 0.0000000000000E+00
 0.0000000000000E+00
 0.0000000000000E+00
 0.0000000000000E+00
 0.0000000000000E+00
 0.0000000000000E+00
 0.0000000000000E+00
 0.0000000000000E+00
 0.0000000000000E+00
 0.0000000000000E+00
 0.0000000000000E+00
 0.0000000000000E+00
 0.0000000000000E+00
 0.0000000000000E+00
 0.0000000000000E+00
 0.0000000000000E+00
 0.0000000000000E+00
 0.0000000000000E+00
 0.0000000000000E+00
 0.0000000000000E+00
 0.0000000000000E+00
 0.0000000000000E+00
 0.0000000000000E+00
 0.0000000000000E+00
 0.0000000000000E+00
 0.0000000000000E+00
 0.0000000000000E+00
 0.0000000000000E+00
 0.0000000000000E+00
 0.0000000000000E+00
 0.0000000000000E+00
 0.0000000000000E+00
 0.0000000000000E+00
 0.0000000000000E+00
 0.0000000000000E+00
 0.0000000000000E+00
 0.0000000000000E+00
 0.0000000000000E+00
 0.0000000000000E+00
 0.0000000000000E+00
 0.0000000000000E+00
 0.0000000000000E+00
 0.0000000000000E+00
 0.0000000000000E+00
 0.0000000000000E+00
 0.0000000000000E+00
 0.0000000000000E+00
 0.0000000000000E+00
 0.0000000000000E+00
 0.0000000000000E+00
 0.0000000000000E+00
 0.0000000000000E+00
 0.0000000000000E+00
 0.0000000000000E+00
 0.0000000000000E+00
 0.0000000000000E+00
 0.0000000000000E+00
 0.0000000000000E+00
 0.0000000000000E+00
 0.0000000000000E+00
 0.0000000000000E+00
 0.0000000000000E+00
 0.0000000000000E+00
 0.0000000000000E+00
 0.0000000000000E+00
 0.0000000000000E+00
 0.0000000000000E+00
 0.0000000000000E+00
 0.0000000000000E+00
 0.0000000000000E+00
 0.0000000000000E+00
 0.0000000000000E+00
 0.0000000000000E+00
 0.0000000000000E+00
 0.0000000000000E+00
 0.0000000000000E+00
 0.0000000000000E+00
 0.0000000000000E+00
 0.0000000000000E+00
 0.0000000000000E+00
 0.0000000000000E+00
 0.0000000000000E+00
 0.0000000000000E+00
 0.0000000000000E+00
 0.0000000000000E+00
 0.0000000000000E+00
 0.0000000000000E+00
 0.0000000000000E+00
 0.0000000000000E+00
 0.0000000000000E+00
 0.0000000000000E+00
 0.0000000000000E+00
 0.0000000000000E+00
 0.0000000000000E+00
 0.0000000000000E+00
 0.0000000000000E+00
 0.0000000000000E+00
 0.0000000000000E+00
 0.0000000000000E+00
 0.0000000000000E+00
 0.0000000000000E+00
 0.0000000000000E+00
 0.0000000000000E+00
 0.0000000000000E+00
 0.0000000000000E+00
 0.0000000000000E+00
 0.0000000000000E+00
 0.0000000000000E+00
 0.0000000000000E+00
 0.0000000000000E+00
 0.0000000000000E+00
 0.0000000000000E+00
 0.0000000000000E+00
 0.0000000000000E+00
 0.0000000000000E+00
 0.0000000000000E+00
 0.0000000000000E+00
 0.0000000000000E+00
 0.0000000000000E+00
 0.0000000000000E+00
 0.0000000000000E+00
 0.0000000000000E+00
 0.0000000000000E+00
 0.0000000000000E+00
 0.0000000000000E+00
 0.0000000000000E+00
 0.0000000000000E+00
 0.0000000000000E+00
 0.0000000000000E+00
 0.0000000000000E+00
 0.0000000000000E+00
 0.0000000000000E+00
 0.0000000000000E+00
 0.0000000000000E+00
 0.0000000000000E+00
 0.0000000000000E+00
 0.0000000000000E+00
 0.0000000000000E+00
 0.0000000000000E+00
 0.0000000000000E+00
 0.0000000000000E+00
 0.0000000000000E+00
 0.0000000000000E+00
 0.0000000000000E+00
 0.0000000000000E+00
 0.0000000000000E+00
 0.0000000000000E+00
 0.0000000000000E+00
 0.0000000000000E+00
 0.0000000000000E+00
 0.0000000000000E+00
 0.0000000000000E+00
 0.0000000000000E+00
 0.0000000000000E+00
 0.0000000000000E+00
 0.0000000000000E+00
 0.0000000000000E+00
 0.0000000000000E+00
 0.0000000000000E+00
 0.0000000000000E+00
 0.0000000000000E+00
 0.0000000000000E+00
 0.0000000000000E+00
 0.0000000000000E+00
 0.0000000000000E+00
 0.0000000000000E+00
 0.0000000000000E+00
 0.0000000000000E+00
 0.0000000000000E+00
 0.0000000000000E+00
 0.0000000000000E+00
 0.0000000000000E+00
 0.0000000000000E+00
 0.0000000000000E+00
 0.0000000000000E+00
 0.0000000000000E+00
 0.0000000000000E+00
 0.0000000000000E+00
 0.0000000000000E+00
 0.0000000000000E+00
 0.0000000000000E+00
 0.0000000000000E+00
 0.0000000000000E+00
 0.0000000000000E+00
 0.0000000000000E+00
 0.0000000000000E+00
 0.0000000000000E+00
 0.0000000000000E+00
 0.0000000000000E+00
 0.0000000000000E+00
 0.0000000000000E+00
 0.0000000000000E+00
 0.0000000000000E+00
 0.0000000000000E+00
 0.0000000000000E+00
 0.0000000000000E+00
 0.0000000000000E+00
 0.0000000000000E+00
 0.0000000000000E+00
 0.0000000000000E+00
 0.0000000000000E+00
 0.0000000000000E+00
 0.0000000000000E+00
 0.0000000000000E+00
 0.0000000000000E+00
 0.0000000000000E+00
 0.0000000000000E+00
 0.0000000000000E+00
 0.0000000000000E+00
 0.0000000000000E+00
 0.0000000000000E+00
 0.0000000000000E+00
 0.0000000000000E+00
 0.0000000000000E+00
 0.0000000000000E+00
 0.0000000000000E+00
 0.0000000000000E+00
 0.0000000000000E+00
 0.0000000000000E+00
 0.0000000000000E+00
 0.0000000000000E+00
 0.0000000000000E+00
 0.0000000000000E+00
 0.0000000000000E+00
 0.0000000000000E+00
 0.0000000000000E+00
 0.0000000000000E+00
 0.0000000000000E+00
 0.0000000000000E+00
 0.0000000000000E+00
 0.0000000000000E+00
 0.0000000000000E+00
 0.0000000000000E+00
 0.0000000000000E+00
 0.0000000000000E+00
 0.0000000000000E+00
 0.0000000000000E+00
 0.0000000000000E+00
 0.0000000000000E+00
 0.0000000000000E+00
 0.0000000000000E+00
 0.0000000000000E+00
 0.0000000000000E+00
 0.0000000000000E+00
 0.0000000000000E+00
 0.0000000000000E+00
 0.0000000000000E+00
 0.0000000000000E+00
 0.0000000000000E+00
 0.0000000000000E+00
 0.0000000000000E+00
 0.0000000000000E+00
 0.0000000000000E+00
 0.0000000000000E+00
 0.0000000000000E+00
 0.0000000000000E+00
 0.0000000000000E+00
 0.0000000000000E+00
 0.0000000000000E+00
 0.0000000000000E+00
 0.0000000000000E+00
 0.0000000000000E+00
 0.0000000000000E+00
 0.0000000000000E+00
 0.0000000000000E+00
 0.0000000000000E+00
 0.0000000000000E+00
 0.0000000000000E+00
 0.0000000000000E+00
 0.0000000000000E+00
 0.0000000000000E+00
 0.0000000000000E+00
 0.0000000000000E+00
 0.0000000000000E+00
 0.0000000000000E+00
 0.0000000000000E+00
 0.0000000000000E+00
 0.0000000000000E+00
 0.0000000000000E+00
 0.0000000000000E+00
 0.0000000000000E+00
 0.0000000000000E+00
 0.0000000000000E+00
 0.0000000000000E+00
 0.0000000000000E+00
 0.0000000000000E+00
 0.0000000000000E+00
 0.0000000000000E+00
 0.0000000000000E+00
 0.0000000000000E+00
 0.0000000000000E+00
 0.0000000000000E+00
 0.0000000000000E+00
 0.0000000000000E+00
 0.0000000000000E+00
 0.0000000000000E+00
 0.0000000000000E+00
 0.0000000000000E+00
 0.0000000000000E+00
 0.0000000000000E+00
 0.0000000000000E+00
 0.0000000000000E+00
 0.0000000000000E+00
 0.0000000000000E+00
 0.0000000000000E+00
 0.0000000000000E+00
 0.0000000000000E+00
 0.0000000000000E+00
 0.0000000000000E+00
 0.0000000000000E+00
 0.0000000000000E+00
 0.0000000000000E+00
 0.0000000000000E+00
 0.0000000000000E+00
 0.0000000000000E+00
 0.0000000000000E+00
 0.0000000000000E+00
 0.0000000000000E+00
 0.0000000000000E+00
 0.0000000000000E+00
 0.0000000000000E+00
 0.0000000000000E+00
 0.0000000000000E+00
 0.0000000000000E+00
 0.0000000000000E+00
 0.0000000000000E+00
 0.0000000000000E+00
 0.0000000000000E+00
 0.0000000000000E+00
 0.0000000000000E+00
 0.0000000000000E+00
 0.0000000000000E+00
 0.0000000000000E+00
 0.0000000000000E+00
 0.0000000000000E+00
 0.0000000000000E+00
 0.0000000000000E+00
 0.0000000000000E+00
 0.0000000000000E+00
 0.0000000000000E+00
 0.0000000000000E+00
 0.0000000000000E+00
 0.0000000000000E+00
 0.0000000000000E+00
 0.0000000000000E+00
 0.0000000000000E+00
 0.0000000000000E+00
 0.0000000000000E+00
 0.0000000000000E+00
 0.0000000000000E+00
 0.0000000000000E+00
 0.0000000000000E+00
 0.0000000000000E+00
 0.0000000000000E+00
 0.0000000000000E+00
 0.0000000000000E+00
 0.0000000000000E+00
 0.0000000000000E+00
 0.0000000000000E+00
 0.0000000000000E+00
 0.0000000000000E+00
 0.0000000000000E+00
 0.0000000000000E+00
 0.0000000000000E+00
 0.0000000000000E+00
 0.0000000000000E+00
 0.0000000000000E+00
 0.0000000000000E+00
 0.0000000000000E+00
 0.0000000000000E+00
 0.0000000000000E+00
 0.0000000000000E+00
 0.0000000000000E+00
 0.0000000000000E+00
 0.0000000000000E+00
 0.0000000000000E+00
 0.0000000000000E+00
 0.0000000000000E+00
 0.0000000000000E+00
 0.0000000000000E+00
 0.0000000000000E+00
 0.0000000000000E+00
 0.0000000000000E+00
 0.0000000000000E+00
 0.0000000000000E+00
 0.0000000000000E+00
 0.0000000000000E+00
 0.0000000000000E+00
 0.0000000000000E+00
 0.0000000000000E+00
 0.0000000000000E+00
 0.0000000000000E+00
 0.0000000000000E+00
 0.0000000000000E+00
 0.0000000000000E+00
 0.0000000000000E+00
 0.0000000000000E+00
 0.0000000000000E+00
 0.0000000000000E+00
 0.0000000000000E+00
 0.0000000000000E+00
 0.0000000000000E+00
 0.0000000000000E+00
 0.0000000000000E+00
 0.0000000000000E+00
 0.0000000000000E+00
 0.0000000000000E+00
 0.0000000000000E+00
 0.0000000000000E+00
 0.0000000000000E+00
 0.0000000000000E+00
 0.0000000000000E+00
 0.0000000000000E+00
 0.0000000000000E+00
 0.0000000000000E+00
 0.0000000000000E+00
 0.0000000000000E+00
 0.0000000000000E+00
 0.0000000000000E+00
 0.0000000000000E+00
 0.0000000000000E+00
 0.0000000000000E+00
 0.0000000000000E+00
 0.0000000000000E+00
 0.0000000000000E+00
 0.0000000000000E+00
 0.0000000000000E+00
 0.0000000000000E+00
 0.0000000000000E+00
 0.0000000000000E+00
 0.0000000000000E+00
 0.0000000000000E+00
 0.0000000000000E+00
 0.0000000000000E+00
 0.0000000000000E+00
 0.0000000000000E+00
 0.0000000000000E+00
 0.0000000000000E+00
 0.0000000000000E+00
 0.0000000000000E+00
 0.0000000000000E+00
 0.0000000000000E+00
 0.0000000000000E+00
 0.0000000000000E+00
 0.0000000000000E+00
 0.0000000000000E+00
 0.0000000000000E+00
 0.0000000000000E+00
 0.0000000000000E+00
 0.0000000000000E+00
 0.0000000000000E+00
 0.0000000000000E+00
 0.0000000000000E+00
 0.0000000000000E+00
 0.0000000000000E+00
 0.0000000000000E+00
 0.0000000000000E+00
 0.0000000000000E+00
 0.0000000000000E+00
 0.0000000000000E+00
 0.0000000000000E+00
 0.0000000000000E+00
 0.0000000000000E+00
 0.0000000000000E+00
 0.0000000000000E+00
 0.0000000000000E+00
 0.0000000000000E+00
 0.0000000000000E+00
 0.0000000000000E+00
 0.0000000000000E+00
 0.0000000000000E+00
 0.0000000000000E+00
 0.0000000000000E+00
 0.0000000000000E+00
 0.0000000000000E+00
 0.0000000000000E+00
 0.0000000000000E+00
 0.0000000000000E+00
 0.0000000000000E+00
 0.0000000000000E+00
 0.0000000000000E+00
 0.0000000000000E+00
 0.0000000000000E+00
 0.0000000000000E+00
 0.0000000000000E+00
 0.0000000000000E+00
 0.0000000000000E+00
 0.0000000000000E+00
 0.0000000000000E+00
 0.0000000000000E+00
 0.0000000000000E+00
 0.0000000000000E+00
 0.0000000000000E+00
 0.0000000000000E+00
 0.0000000000000E+00
 0.0000000000000E+00
 0.0000000000000E+00
 0.0000000000000E+00
 0.0000000000000E+00
 0.0000000000000E+00
 0.0000000000000E+00
 0.0000000000000E+00
 0.0000000000000E+00
 0.0000000000000E+00
 0.0000000000000E+00
 0.0000000000000E+00
 0.0000000000000E+00
 0.0000000000000E+00
 0.0000000000000E+00
 0.0000000000000E+00
 0.0000000000000E+00
 0.0000000000000E+00
 0.0000000000000E+00
 0.0000000000000E+00
 0.0000000000000E+00
 0.0000000000000E+00
 0.0000000000000E+00
 0.0000000000000E+00
 0.0000000000000E+00
 0.0000000000000E+00
 0.0000000000000E+00
 0.0000000000000E+00
 0.0000000000000E+00
 0.0000000000000E+00
 0.0000000000000E+00
 0.0000000000000E+00
 0.0000000000000E+00
 0.0000000000000E+00
 0.0000000000000E+00
 0.0000000000000E+00
 0.0000000000000E+00
 0.0000000000000E+00
 0.0000000000000E+00
 0.0000000000000E+00
 0.0000000000000E+00
 0.0000000000000E+00
 0.0000000000000E+00
 0.0000000000000E+00
 0.0000000000000E+00
 0.0000000000000E+00
 0.0000000000000E+00
 0.0000000000000E+00
 0.0000000000000E+00
 0.0000000000000E+00
 0.0000000000000E+00
 0.0000000000000E+00
 0.0000000000000E+00
 0.0000000000000E+00
 0.0000000000000E+00
 0.0000000000000E+00
 0.0000000000000E+00
 0.0000000000000E+00
 0.0000000000000E+00
 0.0000000000000E+00
 0.0000000000000E+00
 0.0000000000000E+00
 0.0000000000000E+00
 0.0000000000000E+00
 0.0000000000000E+00
 0.0000000000000E+00
 0.0000000000000E+00
 0.0000000000000E+00
 0.0000000000000E+00
 0.0000000000000E+00
 0.0000000000000E+00
 0.0000000000000E+00
 0.0000000000000E+00
 0.0000000000000E+00
 0.0000000000000E+00
 0.0000000000000E+00
 0.0000000000000E+00
 0.0000000000000E+00
 0.0000000000000E+00
 0.0000000000000E+00
 0.0000000000000E+00
 0.0000000000000E+00
 0.0000000000000E+00
 0.0000000000000E+00
 0.0000000000000E+00
 0.0000000000000E+00
 0.0000000000000E+00
 0.0000000000000E+00
 0.0000000000000E+00
 0.0000000000000E+00
 0.0000000000000E+00
 0.0000000000000E+00
 0.0000000000000E+00
 0.0000000000000E+00
 0.0000000000000E+00
 0.0000000000000E+00
 0.0000000000000E+00
 0.0000000000000E+00
 0.0000000000000E+00
 0.0000000000000E+00
 0.0000000000000E+00
 0.0000000000000E+00
 0.0000000000000E+00
 0.0000000000000E+00
 0.0000000000000E+00
 0.0000000000000E+00
 0.0000000000000E+00
 0.0000000000000E+00
 0.0000000000000E+00
 0.0000000000000E+00
 0.0000000000000E+00
 0.0000000000000E+00
 0.0000000000000E+00
 0.0000000000000E+00
 0.0000000000000E+00
 0.0000000000000E+00
 0.0000000000000E+00
 0.0000000000000E+00
 0.0000000000000E+00
 0.0000000000000E+00
 0.0000000000000E+00
 0.0000000000000E+00
 0.0000000000000E+00
 0.0000000000000E+00
 0.0000000000000E+00
 0.0000000000000E+00
 0.0000000000000E+00
 0.0000000000000E+00
 0.0000000000000E+00
 0.0000000000000E+00
 0.0000000000000E+00
 0.0000000000000E+00
 0.0000000000000E+00
 0.0000000000000E+00
 0.0000000000000E+00
 0.0000000000000E+00
 0.0000000000000E+00
 0.0000000000000E+00
 0.0000000000000E+00
 0.0000000000000E+00
 0.0000000000000E+00
 0.0000000000000E+00
 0.0000000000000E+00
 0.0000000000000E+00
 0.0000000000000E+00
 0.0000000000000E+00
 0.0000000000000E+00
 0.0000000000000E+00
 0.0000000000000E+00
 0.0000000000000E+00
 0.0000000000000E+00
 0.0000000000000E+00
 0.0000000000000E+00
 0.0000000000000E+00
 0.0000000000000E+00
 0.0000000000000E+00
 0.0000000000000E+00
 0.0000000000000E+00
 0.0000000000000E+00
 0.0000000000000E+00
 0.0000000000000E+00
 0.0000000000000E+00
 0.0000000000000E+00
 0.0000000000000E+00
 0.0000000000000E+00
 0.0000000000000E+00
 0.0000000000000E+00
 0.0000000000000E+00
 0.0000000000000E+00
 0.0000000000000E+00
 0.0000000000000E+00
 0.0000000000000E+00
 0.0000000000000E+00
 0.0000000000000E+00
 0.0000000000000E+00
 0.0000000000000E+00
 0.0000000000000E+00
 0.0000000000000E+00
 0.0000000000000E+00
 0.0000000000000E+00
 0.0000000000000E+00
 0.0000000000000E+00
 0.0000000000000E+00
 0.0000000000000E+00
 0.0000000000000E+00
 0.0000000000000E+00
 0.0000000000000E+00
 0.0000000000000E+00
 0.0000000000000E+00
 0.0000000000000E+00
 0.0000000000000E+00
 0.0000000000000E+00
 0.0000000000000E+00
 0.0000000000000E+00
 0.0000000000000E+00
 0.0000000000000E+00
 0.0000000000000E+00
 0.0000000000000E+00
 0.0000000000000E+00
 0.0000000000000E+00
 0.0000000000000E+00
 0.0000000000000E+00
 0.0000000000000E+00
 0.0000000000000E+00
 0.0000000000000E+00
 0.0000000000000E+00
 0.0000000000000E+00
 0.0000000000000E+00
 0.0000000000000E+00
 0.0000000000000E+00
 0.0000000000000E+00
 0.0000000000000E+00
 0.0000000000000E+00
 0.0000000000000E+00
 0.0000000000000E+00
 0.0000000000000E+00
 0.0000000000000E+00
 0.0000000000000E+00
 0.0000000000000E+00
 0.0000000000000E+00
 0.0000000000000E+00
 0.0000000000000E+00
 0.0000000000000E+00
 0.0000000000000E+00
 0.0000000000000E+00
 0.0000000000000E+00
 0.0000000000000E+00
 0.0000000000000E+00
 0.0000000000000E+00
 0.0000000000000E+00
 0.0000000000000E+00
 0.0000000000000E+00
 0.0000000000000E+00
 0.0000000000000E+00
 0.0000000000000E+00
 0.0000000000000E+00
 0.0000000000000E+00
 0.0000000000000E+00
 0.0000000000000E+00
 0.0000000000000E+00
 0.0000000000000E+00
 0.0000000000000E+00
 0.0000000000000E+00
 0.0000000000000E+00
 0.0000000000000E+00
 0.0000000000000E+00
 0.0000000000000E+00
 0.0000000000000E+00
 0.0000000000000E+00
 0.0000000000000E+00
 0.0000000000000E+00
 0.0000000000000E+00
 0.0000000000000E+00
 0.0000000000000E+00
 0.0000000000000E+00
 0.0000000000000E+00
 0.0000000000000E+00
 0.0000000000000E+00
 0.0000000000000E+00
 0.0000000000000E+00
 0.0000000000000E+00
 0.0000000000000E+00
 0.0000000000000E+00
 0.0000000000000E+00
 0.0000000000000E+00
 0.0000000000000E+00
 0.0000000000000E+00
 0.0000000000000E+00
 0.0000000000000E+00
 0.0000000000000E+00
 0.0000000000000E+00
 0.0000000000000E+00
 0.0000000000000E+00
 0.0000000000000E+00
 0.0000000000000E+00
 0.0000000000000E+00
 0.0000000000000E+00
 0.0000000000000E+00
 0.0000000000000E+00
 0.0000000000000E+00
 0.0000000000000E+00
 0.0000000000000E+00
 0.0000000000000E+00
 0.0000000000000E+00
 0.0000000000000E+00
 0.0000000000000E+00
 0.0000000000000E+00
 0.0000000000000E+00
 0.0000000000000E+00
 0.0000000000000E+00
 0.0000000000000E+00
 0.0000000000000E+00
 0.0000000000000E+00
 0.0000000000000E+00
 0.0000000000000E+00
 0.0000000000000E+00
 0.0000000000000E+00
 0.0000000000000E+00
 0.0000000000000E+00
 0.0000000000000E+00
 0.0000000000000E+00
 0.0000000000000E+00
 0.0000000000000E+00
 0.0000000000000E+00
 0.0000000000000E+00
 0.0000000000000E+00
 0.0000000000000E+00
 0.0000000000000E+00
 0.0000000000000E+00
 0.0000000000000E+00
 0.0000000000000E+00
 0.0000000000000E+00
 0.0000000000000E+00
 0.0000000000000E+00
 0.0000000000000E+00
 0.0000000000000E+00
 0.0000000000000E+00
 0.0000000000000E+00
 0.0000000000000E+00
 0.0000000000000E+00
 0.0000000000000E+00
 0.0000000000000E+00
 0.0000000000000E+00
 0.0000000000000E+00
 0.0000000000000E+00
 0.0000000000000E+00
 0.0000000000000E+00
 0.0000000000000E+00
 0.0000000000000E+00
 0.0000000000000E+00
 0.0000000000000E+00
 0.0000000000000E+00
 0.0000000000000E+00
 0.0000000000000E+00
 0.0000000000000E+00
 0.0000000000000E+00
 0.0000000000000E+00
 0.0000000000000E+00
 0.0000000000000E+00
 0.0000000000000E+00
 0.0000000000000E+00
 0.0000000000000E+00
 0.0000000000000E+00
 0.0000000000000E+00
 0.0000000000000E+00
 0.0000000000000E+00
 0.0000000000000E+00
 0.0000000000000E+00
 0.0000000000000E+00
 0.0000000000000E+00
 0.0000000000000E+00
 0.0000000000000E+00
 0.0000000000000E+00
 0.0000000000000E+00
 0.0000000000000E+00
 0.0000000000000E+00
 0.0000000000000E+00
 0.0000000000000E+00
 0.0000000000000E+00
 0.0000000000000E+00
 0.0000000000000E+00
 0.0000000000000E+00
 0.0000000000000E+00
 0.0000000000000E+00
 0.0000000000000E+00
 0.0000000000000E+00
 0.0000000000000E+00
 0.0000000000000E+00
 0.0000000000000E+00
 0.0000000000000E+00
 0.0000000000000E+00
 0.0000000000000E+00
 0.0000000000000E+00
 0.0000000000000E+00
 0.0000000000000E+00
 0.0000000000000E+00
 0.0000000000000E+00
 0.0000000000000E+00
 0.0000000000000E+00
 0.0000000000000E+00
 0.0000000000000E+00
 0.0000000000000E+00
 0.0000000000000E+00
 0.0000000000000E+00
 0.0000000000000E+00
 0.0000000000000E+00
 0.0000000000000E+00
 0.0000000000000E+00
 0.0000000000000E+00
 0.0000000000000E+00
 0.0000000000000E+00
 0.0000000000000E+00
 0.0000000000000E+00
 0.0000000000000E+00
 0.0000000000000E+00
 0.0000000000000E+00
 0.0000000000000E+00
 0.0000000000000E+00
 0.0000000000000E+00
 0.0000000000000E+00
 0.0000000000000E+00
 0.0000000000000E+00
 0.0000000000000E+00
 0.0000000000000E+00
 0.0000000000000E+00
 0.0000000000000E+00
 0.0000000000000E+00
 0.0000000000000E+00
 0.0000000000000E+00
 0.0000000000000E+00
 0.0000000000000E+00
 0.0000000000000E+00
 0.0000000000000E+00
 0.0000000000000E+00
 0.0000000000000E+00
 0.0000000000000E+00
 0.0000000000000E+00
 0.0000000000000E+00
 0.0000000000000E+00
 0.0000000000000E+00
 0.0000000000000E+00
 0.0000000000000E+00
 0.0000000000000E+00
 0.0000000000000E+00
 0.0000000000000E+00
 0.0000000000000E+00
 0.0000000000000E+00
 0.0000000000000E+00
 0.0000000000000E+00
 0.0000000000000E+00
 0.0000000000000E+00
 0.0000000000000E+00
 0.0000000000000E+00
 0.0000000000000E+00
 0.0000000000000E+00
 0.0000000000000E+00
 0.0000000000000E+00
 0.0000000000000E+00
 0.0000000000000E+00
 0.0000000000000E+00
 0.0000000000000E+00
 0.0000000000000E+00
 0.0000000000000E+00
 0.0000000000000E+00
 0.0000000000000E+00
 0.0000000000000E+00
 0.0000000000000E+00
 0.0000000000000E+00
 0.0000000000000E+00
 0.0000000000000E+00
 0.0000000000000E+00
 0.0000000000000E+00
 0.0000000000000E+00
 0.0000000000000E+00
 0.0000000000000E+00
 0.0000000000000E+00
 0.0000000000000E+00
 0.0000000000000E+00
 0.0000000000000E+00
 0.0000000000000E+00
 0.0000000000000E+00
 0.0000000000000E+00
 0.0000000000000E+00
 0.0000000000000E+00
 0.0000000000000E+00
 0.0000000000000E+00
 0.0000000000000E+00
 0.0000000000000E+00
 0.0000000000000E+00
 0.0000000000000E+00
 0.0000000000000E+00
 0.0000000000000E+00
 0.0000000000000E+00
 0.0000000000000E+00
 0.0000000000000E+00
 0.0000000000000E+00
 0.0000000000000E+00
 0.0000000000000E+00
 0.0000000000000E+00
 0.0000000000000E+00
 0.0000000000000E+00
 0.0000000000000E+00
 0.0000000000000E+00
 0.0000000000000E+00
 0.0000000000000E+00
 0.0000000000000E+00
 0.0000000000000E+00
 0.0000000000000E+00
 0.0000000000000E+00
 0.0000000000000E+00
 0.0000000000000E+00
 0.0000000000000E+00
 0.0000000000000E+00
 0.0000000000000E+00
 0.0000000000000E+00
 0.0000000000000E+00
 0.0000000000000E+00
 0.0000000000000E+00
 0.0000000000000E+00
 0.0000000000000E+00
 0.0000000000000E+00
 0.0000000000000E+00
 0.0000000000000E+00
 0.0000000000000E+00
 0.0000000000000E+00
 0.0000000000000E+00
 0.0000000000000E+00
 0.0000000000000E+00
 0.0000000000000E+00
 0.0000000000000E+00
 0.0000000000000E+00
 0.0000000000000E+00
 0.0000000000000E+00
 0.0000000000000E+00
 0.0000000000000E+00
 0.0000000000000E+00
 0.0000000000000E+00
 0.0000000000000E+00
 0.0000000000000E+00
 0.0000000000000E+00
 0.0000000000000E+00
 0.0000000000000E+00
 0.0000000000000E+00
 0.0000000000000E+00
 0.0000000000000E+00
 0.0000000000000E+00
 0.0000000000000E+00
 0.0000000000000E+00
 0.0000000000000E+00
 0.0000000000000E+00
 0.0000000000000E+00
 0.0000000000000E+00
 0.0000000000000E+00
 0.0000000000000E+00
 0.0000000000000E+00
 0.0000000000000E+00
 0.0000000000000E+00
 0.0000000000000E+00
 0.0000000000000E+00
 0.0000000000000E+00
 0.0000000000000E+00
 0.0000000000000E+00
 0.0000000000000E+00
 0.0000000000000E+00
 0.0000000000000E+00
 0.0000000000000E+00
 0.0000000000000E+00
 0.0000000000000E+00
 0.0000000000000E+00
 0.0000000000000E+00
 0.0000000000000E+00
 0.0000000000000E+00
 0.0000000000000E+00
 0.0000000000000E+00
 0.0000000000000E+00
 0.0000000000000E+00
 0.0000000000000E+00
 0.0000000000000E+00
 0.0000000000000E+00
 0.0000000000000E+00
 0.0000000000000E+00
 0.0000000000000E+00
 0.0000000000000E+00
 0.0000000000000E+00
 0.0000000000000E+00
 0.0000000000000E+00
 0.0000000000000E+00
 0.0000000000000E+00
 0.0000000000000E+00
 0.0000000000000E+00
 0.0000000000000E+00
 0.0000000000000E+00
 0.0000000000000E+00
 0.0000000000000E+00
 0.0000000000000E+00
 0.0000000000000E+00
 0.0000000000000E+00
 0.0000000000000E+00
 0.0000000000000E+00
 0.0000000000000E+00
 0.0000000000000E+00
 0.0000000000000E+00
 0.0000000000000E+00
 0.0000000000000E+00
 0.0000000000000E+00
 0.0000000000000E+00
 0.0000000000000E+00
 0.0000000000000E+00
 0.0000000000000E+00
 0.0000000000000E+00
 0.0000000000000E+00
 0.0000000000000E+00
 0.0000000000000E+00
 0.0000000000000E+00
 0.0000000000000E+00
 0.0000000000000E+00
 0.0000000000000E+00
 0.0000000000000E+00
 0.0000000000000E+00
 0.0000000000000E+00
 0.0000000000000E+00
 0.0000000000000E+00
 0.0000000000000E+00
 0.0000000000000E+00
 0.0000000000000E+00
 0.0000000000000E+00
 0.0000000000000E+00
 0.0000000000000E+00
 0.0000000000000E+00
 0.0000000000000E+00
 0.0000000000000E+00
 0.0000000000000E+00
 0.0000000000000E+00
 0.0000000000000E+00
 0.0000000000000E+00
 0.0000000000000E+00
 0.0000000000000E+00
 0.0000000000000E+00
 0.0000000000000E+00
 0.0000000000000E+00
 0.0000000000000E+00
 0.0000000000000E+00
 0.0000000000000E+00
 0.0000000000000E+00
 0.0000000000000E+00
 0.0000000000000E+00
 0.0000000000000E+00
 0.0000000000000E+00
 0.0000000000000E+00
 0.0000000000000E+00
 0.0000000000000E+00
 0.0000000000000E+00
 0.0000000000000E+00
 0.0000000000000E+00
 0.0000000000000E+00
 0.0000000000000E+00
 0.0000000000000E+00
 0.0000000000000E+00
 0.0000000000000E+00
 0.0000000000000E+00
 0.0000000000000E+00
 0.0000000000000E+00
 0.0000000000000E+00
 0.0000000000000E+00
 0.0000000000000E+00
 0.0000000000000E+00
 0.0000000000000E+00
 0.0000000000000E+00
 0.0000000000000E+00
 0.0000000000000E+00
 0.0000000000000E+00
 0.0000000000000E+00
 0.0000000000000E+00
 0.0000000000000E+00
 0.0000000000000E+00
 0.0000000000000E+00
 0.0000000000000E+00
 0.0000000000000E+00
 0.0000000000000E+00
 0.0000000000000E+00
 0.0000000000000E+00
 0.0000000000000E+00
 0.0000000000000E+00
 0.0000000000000E+00
 0.0000000000000E+00
 0.0000000000000E+00
 0.0000000000000E+00
 0.0000000000000E+00
 0.0000000000000E+00
 0.0000000000000E+00
 0.0000000000000E+00
 0.0000000000000E+00
 0.0000000000000E+00
 0.0000000000000E+00
 0.0000000000000E+00
 0.0000000000000E+00
 0.0000000000000E+00
 0.0000000000000E+00
 0.0000000000000E+00
 0.0000000000000E+00
 0.0000000000000E+00
 0.0000000000000E+00
 0.0000000000000E+00
 0.0000000000000E+00
 0.0000000000000E+00
 0.0000000000000E+00
 0.0000000000000E+00
 0.0000000000000E+00
 0.0000000000000E+00
 0.0000000000000E+00
 0.0000000000000E+00
 0.0000000000000E+00
 0.0000000000000E+00
 0.0000000000000E+00
 0.0000000000000E+00
 0.0000000000000E+00
 0.0000000000000E+00
 0.0000000000000E+00
 0.0000000000000E+00
 0.0000000000000E+00
 0.0000000000000E+00
 0.0000000000000E+00
 0.0000000000000E+00
 0.0000000000000E+00
 0.0000000000000E+00
 0.0000000000000E+00
 0.0000000000000E+00
 0.0000000000000E+00
 0.0000000000000E+00
 0.0000000000000E+00
 0.0000000000000E+00
 0.0000000000000E+00
 0.0000000000000E+00
 0.0000000000000E+00
 0.0000000000000E+00
 0.0000000000000E+00
 0.0000000000000E+00
 0.0000000000000E+00
 0.0000000000000E+00
 0.0000000000000E+00
 0.0000000000000E+00
 0.0000000000000E+00
 0.0000000000000E+00
 0.0000000000000E+00
 0.0000000000000E+00
 0.0000000000000E+00
 0.0000000000000E+00
 0.0000000000000E+00
 0.0000000000000E+00
 0.0000000000000E+00
 0.0000000000000E+00
 0.0000000000000E+00
 0.0000000000000E+00
 0.0000000000000E+00
 0.0000000000000E+00
 0.0000000000000E+00
 0.0000000000000E+00
 0.0000000000000E+00
 0.0000000000000E+00
 0.0000000000000E+00
 0.0000000000000E+00
 0.0000000000000E+00
 0.0000000000000E+00
 0.0000000000000E+00
 0.0000000000000E+00
 0.0000000000000E+00
 0.0000000000000E+00
 0.0000000000000E+00
 0.0000000000000E+00
 0.0000000000000E+00
 0.0000000000000E+00
 0.0000000000000E+00
 0.0000000000000E+00
 0.0000000000000E+00
 0.0000000000000E+00
 0.0000000000000E+00
 0.0000000000000E+00
 0.0000000000000E+00
 0.0000000000000E+00
 0.0000000000000E+00
 0.0000000000000E+00
 0.0000000000000E+00
 0.0000000000000E+00
 0.0000000000000E+00
 0.0000000000000E+00
 0.0000000000000E+00
 0.0000000000000E+00
 0.0000000000000E+00
 0.0000000000000E+00
 0.0000000000000E+00
 0.0000000000000E+00
 0.0000000000000E+00
 0.0000000000000E+00
 0.0000000000000E+00
 0.0000000000000E+00
 0.0000000000000E+00
 0.0000000000000E+00
 0.0000000000000E+00
 0.0000000000000E+00
 0.0000000000000E+00
 0.0000000000000E+00
 0.0000000000000E+00
 0.0000000000000E+00
 0.0000000000000E+00
 0.0000000000000E+00
 0.0000000000000E+00
 0.0000000000000E+00
 0.0000000000000E+00
 0.0000000000000E+00
 0.0000000000000E+00
 0.0000000000000E+00
 0.0000000000000E+00
 0.0000000000000E+00
 0.0000000000000E+00
 0.0000000000000E+00
 0.0000000000000E+00
 0.0000000000000E+00
 0.0000000000000E+00
 0.0000000000000E+00
 0.0000000000000E+00
 0.0000000000000E+00
 0.0000000000000E+00
 0.0000000000000E+00
 0.0000000000000E+00
 0.0000000000000E+00
 0.0000000000000E+00
 0.0000000000000E+00
 0.0000000000000E+00
 0.0000000000000E+00
 0.0000000000000E+00
 0.0000000000000E+00
 0.0000000000000E+00
 0.0000000000000E+00
 0.0000000000000E+00
 0.0000000000000E+00
 0.0000000000000E+00
 0.0000000000000E+00
 0.0000000000000E+00
 0.0000000000000E+00
 0.0000000000000E+00
 0.0000000000000E+00
 0.0000000000000E+00
 0.0000000000000E+00
 0.0000000000000E+00
 0.0000000000000E+00
 0.0000000000000E+00
 0.0000000000000E+00
 0.0000000000000E+00
 0.0000000000000E+00
 0.0000000000000E+00
 0.0000000000000E+00
 0.0000000000000E+00
 0.0000000000000E+00
 0.0000000000000E+00
 0.0000000000000E+00
 0.0000000000000E+00
 0.0000000000000E+00
 0.0000000000000E+00
 0.0000000000000E+00
 0.0000000000000E+00
 0.0000000000000E+00
 0.0000000000000E+00
 0.0000000000000E+00
 0.0000000000000E+00
 0.0000000000000E+00
 0.0000000000000E+00
 0.0000000000000E+00
 0.0000000000000E+00
 0.0000000000000E+00
 0.0000000000000E+00
 0.0000000000000E+00
 0.0000000000000E+00
 0.0000000000000E+00
 0.0000000000000E+00
 0.0000000000000E+00
 0.0000000000000E+00
 0.0000000000000E+00
 0.0000000000000E+00
 0.0000000000000E+00
 0.0000000000000E+00
 0.0000000000000E+00
 0.0000000000000E+00
 0.0000000000000E+00
 0.0000000000000E+00
 0.0000000000000E+00
 0.0000000000000E+00
 0.0000000000000E+00
 0.0000000000000E+00
 0.0000000000000E+00
 0.0000000000000E+00
 0.0000000000000E+00
 0.0000000000000E+00
 0.0000000000000E+00
 0.0000000000000E+00
 0.0000000000000E+00
 0.0000000000000E+00
 0.0000000000000E+00
 0.0000000000000E+00
 0.0000000000000E+00
 0.0000000000000E+00
 0.0000000000000E+00
 0.0000000000000E+00
 0.0000000000000E+00
 0.0000000000000E+00
 0.0000000000000E+00
 0.0000000000000E+00
 0.0000000000000E+00
 0.0000000000000E+00
 0.0000000000000E+00
 0.0000000000000E+00
 0.0000000000000E+00
 0.0000000000000E+00
 0.0000000000000E+00
 0.0000000000000E+00
 0.0000000000000E+00
 0.0000000000000E+00
 0.0000000000000E+00
 0.0000000000000E+00
 0.0000000000000E+00
 0.0000000000000E+00
 0.0000000000000E+00
 0.0000000000000E+00
 0.0000000000000E+00
 0.0000000000000E+00
 0.0000000000000E+00
 0.0000000000000E+00
 0.0000000000000E+00
 0.0000000000000E+00
 0.0000000000000E+00
 0.0000000000000E+00
 0.0000000000000E+00
 0.0000000000000E+00
 0.0000000000000E+00
 0.0000000000000E+00
 0.0000000000000E+00
 0.0000000000000E+00
 0.0000000000000E+00
 0.0000000000000E+00
 0.0000000000000E+00
 0.0000000000000E+00
 0.0000000000000E+00
 0.0000000000000E+00
 0.0000000000000E+00
 0.0000000000000E+00
 0.0000000000000E+00
 0.0000000000000E+00
 0.0000000000000E+00
 0.0000000000000E+00
 0.0000000000000E+00
 0.0000000000000E+00
 0.0000000000000E+00
 0.0000000000000E+00
 0.0000000000000E+00
 0.0000000000000E+00
 0.0000000000000E+00
 0.0000000000000E+00
 0.0000000000000E+00
 0.0000000000000E+00
 0.0000000000000E+00
 0.0000000000000E+00
 0.0000000000000E+00
 0.0000000000000E+00
 0.0000000000000E+00
 0.0000000000000E+00
 0.0000000000000E+00
 0.0000000000000E+00
 0.0000000000000E+00
 0.0000000000000E+00
 0.0000000000000E+00
 0.0000000000000E+00
 0.0000000000000E+00
 0.0000000000000E+00
 0.0000000000000E+00
 0.0000000000000E+00
 0.0000000000000E+00
 0.0000000000000E+00
 0.0000000000000E+00
 0.0000000000000E+00
 0.0000000000000E+00
 0.0000000000000E+00
 0.0000000000000E+00
 0.0000000000000E+00
 0.0000000000000E+00
 0.0000000000000E+00
 0.0000000000000E+00
 0.0000000000000E+00
 0.0000000000000E+00
 0.0000000000000E+00
 0.0000000000000E+00
 0.0000000000000E+00
 0.0000000000000E+00
 0.0000000000000E+00
 0.0000000000000E+00
 0.0000000000000E+00
 0.0000000000000E+00
 0.0000000000000E+00
 0.0000000000000E+00
 0.0000000000000E+00
 0.0000000000000E+00
 0.0000000000000E+00
 0.0000000000000E+00
 0.0000000000000E+00
 0.0000000000000E+00
 0.0000000000000E+00
 0.0000000000000E+00
 0.0000000000000E+00
 0.0000000000000E+00
 0.0000000000000E+00
 0.0000000000000E+00
 0.0000000000000E+00
 0.0000000000000E+00
 0.0000000000000E+00
 0.0000000000000E+00
 0.0000000000000E+00
 0.0000000000000E+00
 0.0000000000000E+00
 0.0000000000000E+00
 0.0000000000000E+00
 0.0000000000000E+00
 0.0000000000000E+00
 0.0000000000000E+00
 0.0000000000000E+00
 0.0000000000000E+00
 0.0000000000000E+00
 0.0000000000000E+00
 0.0000000000000E+00
 0.0000000000000E+00
 0.0000000000000E+00
 0.0000000000000E+00
 0.0000000000000E+00
 0.0000000000000E+00
 0.0000000000000E+00
 0.0000000000000E+00
 0.0000000000000E+00
 0.0000000000000E+00
 0.0000000000000E+00
 0.0000000000000E+00
 0.0000000000000E+00
 0.0000000000000E+00
 0.0000000000000E+00
 0.0000000000000E+00
 0.0000000000000E+00
 0.0000000000000E+00
 0.0000000000000E+00
 0.0000000000000E+00
 0.0000000000000E+00
 0.0000000000000E+00
 0.0000000000000E+00
 0.0000000000000E+00
 0.0000000000000E+00
 0.0000000000000E+00
 0.0000000000000E+00
 0.0000000000000E+00
 0.0000000000000E+00
 0.0000000000000E+00
 0.0000000000000E+00
 0.0000000000000E+00
 0.0000000000000E+00
 0.0000000000000E+00
 0.0000000000000E+00
 0.0000000000000E+00
 0.0000000000000E+00
 0.0000000000000E+00
 0.0000000000000E+00
 0.0000000000000E+00
 0.0000000000000E+00
 0.0000000000000E+00
 0.0000000000000E+00
 0.0000000000000E+00
 0.0000000000000E+00
 0.0000000000000E+00
 0.0000000000000E+00
 0.0000000000000E+00
 0.0000000000000E+00
 0.0000000000000E+00
 0.0000000000000E+00
 0.0000000000000E+00
 0.0000000000000E+00
 0.0000000000000E+00
 0.0000000000000E+00
 0.0000000000000E+00
 0.0000000000000E+00
 0.0000000000000E+00
 0.0000000000000E+00
 0.0000000000000E+00
 0.0000000000000E+00
 0.0000000000000E+00
 0.0000000000000E+00
 0.0000000000000E+00
 0.0000000000000E+00
 0.0000000000000E+00
 0.0000000000000E+00
 0.0000000000000E+00
 0.0000000000000E+00
 0.0000000000000E+00
 0.0000000000000E+00
 0.0000000000000E+00
 0.0000000000000E+00
 0.0000000000000E+00
 0.0000000000000E+00
 0.0000000000000E+00
 0.0000000000000E+00
 0.0000000000000E+00
 0.0000000000000E+00
 0.0000000000000E+00
 0.0000000000000E+00
 0.0000000000000E+00
 0.0000000000000E+00
 0.0000000000000E+00
 0.0000000000000E+00
 0.0000000000000E+00
 0.0000000000000E+00
 0.0000000000000E+00
 0.0000000000000E+00
 0.0000000000000E+00
 0.0000000000000E+00
 0.0000000000000E+00
 0.0000000000000E+00
 0.0000000000000E+00
 0.0000000000000E+00
 0.0000000000000E+00
 0.0000000000000E+00
 0.0000000000000E+00
 0.0000000000000E+00
 0.0000000000000E+00
 0.0000000000000E+00
 0.0000000000000E+00
 0.0000000000000E+00
 0.0000000000000E+00
 0.0000000000000E+00
 0.0000000000000E+00
 0.0000000000000E+00
 0.0000000000000E+00
 0.0000000000000E+00
 0.0000000000000E+00
 0.0000000000000E+00
 0.0000000000000E+00
 0.0000000000000E+00
 0.0000000000000E+00
 0.0000000000000E+00
 0.0000000000000E+00
 0.0000000000000E+00
 0.0000000000000E+00
 0.0000000000000E+00
 0.0000000000000E+00
 0.0000000000000E+00
 0.0000000000000E+00
 0.0000000000000E+00
 0.0000000000000E+00
 0.0000000000000E+00
 0.0000000000000E+00
 0.0000000000000E+00
 0.0000000000000E+00
 0.0000000000000E+00
 0.0000000000000E+00
 0.0000000000000E+00
 0.0000000000000E+00
 0.0000000000000E+00
 0.0000000000000E+00
 0.0000000000000E+00
 0.0000000000000E+00
 0.0000000000000E+00
 0.0000000000000E+00
 0.0000000000000E+00
 0.0000000000000E+00
 0.0000000000000E+00
 0.0000000000000E+00
 0.0000000000000E+00
 0.0000000000000E+00
 0.0000000000000E+00
 0.0000000000000E+00
 0.0000000000000E+00
 0.0000000000000E+00
 0.0000000000000E+00
 0.0000000000000E+00
 0.0000000000000E+00
 0.0000000000000E+00
 0.0000000000000E+00
 0.0000000000000E+00
 0.0000000000000E+00
 0.0000000000000E+00
 0.0000000000000E+00
 0.0000000000000E+00
 0.0000000000000E+00
 0.0000000000000E+00
 0.0000000000000E+00
 0.0000000000000E+00
 0.0000000000000E+00
 0.0000000000000E+00
 0.0000000000000E+00
 0.0000000000000E+00
 0.0000000000000E+00
 0.0000000000000E+00
 0.0000000000000E+00
 0.0000000000000E+00
 0.0000000000000E+00
 0.0000000000000E+00
 0.0000000000000E+00
 0.0000000000000E+00
 0.0000000000000E+00
 0.0000000000000E+00
 0.0000000000000E+00
 0.0000000000000E+00
 0.0000000000000E+00
 0.0000000000000E+00
 0.0000000000000E+00
 0.0000000000000E+00
 0.0000000000000E+00
 0.0000000000000E+00
 0.0000000000000E+00
 0.0000000000000E+00
 0.0000000000000E+00
 0.0000000000000E+00
 0.0000000000000E+00
 0.0000000000000E+00
 0.0000000000000E+00
 0.0000000000000E+00
 0.0000000000000E+00
 0.0000000000000E+00
 0.0000000000000E+00
 0.0000000000000E+00
 0.0000000000000E+00
 0.0000000000000E+00
 0.0000000000000E+00
 0.0000000000000E+00
 0.0000000000000E+00
 0.0000000000000E+00
 0.0000000000000E+00
 0.0000000000000E+00
 0.0000000000000E+00
 0.0000000000000E+00
 0.0000000000000E+00
 0.0000000000000E+00
 0.0000000000000E+00
 0.0000000000000E+00
 0.0000000000000E+00
 0.0000000000000E+00
 0.0000000000000E+00
 0.0000000000000E+00
 0.0000000000000E+00
 0.0000000000000E+00
 0.0000000000000E+00
 0.0000000000000E+00
 0.0000000000000E+00
 0.0000000000000E+00
 0.0000000000000E+00
 0.0000000000000E+00
 0.0000000000000E+00
 0.0000000000000E+00
 0.0000000000000E+00
 0.0000000000000E+00
 0.0000000000000E+00
 0.0000000000000E+00
 0.0000000000000E+00
 0.0000000000000E+00
 0.0000000000000E+00
 0.0000000000000E+00
 0.0000000000000E+00
 0.0000000000000E+00
 0.0000000000000E+00
 0.0000000000000E+00
 0.0000000000000E+00
 0.0000000000000E+00
 0.0000000000000E+00
 0.0000000000000E+00
 0.0000000000000E+00
 0.0000000000000E+00
 0.0000000000000E+00
 0.0000000000000E+00
 0.0000000000000E+00
 0.0000000000000E+00
 0.0000000000000E+00
 0.0000000000000E+00
 0.0000000000000E+00
 0.0000000000000E+00
 0.0000000000000E+00
 0.0000000000000E+00
 0.0000000000000E+00
 0.0000000000000E+00
 0.0000000000000E+00
 0.0000000000000E+00
 0.0000000000000E+00
 0.0000000000000E+00
 0.0000000000000E+00
 0.0000000000000E+00
 0.0000000000000E+00
 0.0000000000000E+00
 0.0000000000000E+00
 0.0000000000000E+00
 0.0000000000000E+00
 0.0000000000000E+00
 0.0000000000000E+00
 0.0000000000000E+00
 0.0000000000000E+00
 0.0000000000000E+00
 0.0000000000000E+00
 0.0000000000000E+00
 0.0000000000000E+00
 0.0000000000000E+00
 0.0000000000000E+00
 0.0000000000000E+00
 0.0000000000000E+00
 0.0000000000000E+00
 0.0000000000000E+00
 0.0000000000000E+00
 0.0000000000000E+00
 0.0000000000000E+00
 0.0000000000000E+00
 0.0000000000000E+00
 0.0000000000000E+00
 0.0000000000000E+00
 0.0000000000000E+00
 0.0000000000000E+00
 0.0000000000000E+00
 0.0000000000000E+00
 0.0000000000000E+00
 0.0000000000000E+00
 0.0000000000000E+00
 0.0000000000000E+00
 0.0000000000000E+00
 0.0000000000000E+00
 0.0000000000000E+00
 0.0000000000000E+00
 0.0000000000000E+00
 0.0000000000000E+00
 0.0000000000000E+00
 0.0000000000000E+00
 0.0000000000000E+00
 0.0000000000000E+00
 0.0000000000000E+00
 0.0000000000000E+00
 0.0000000000000E+00
 0.0000000000000E+00
 0.0000000000000E+00
 0.0000000000000E+00
 0.0000000000000E+00
 0.0000000000000E+00
 0.0000000000000E+00
 0.0000000000000E+00
 0.0000000000000E+00
 0.0000000000000E+00
 0.0000000000000E+00
 0.0000000000000E+00
 0.0000000000000E+00
 0.0000000000000E+00
 0.0000000000000E+00
 0.0000000000000E+00
 0.0000000000000E+00
 0.0000000000000E+00
 0.0000000000000E+00
 0.0000000000000E+00
 0.0000000000000E+00
 0.0000000000000E+00
 0.0000000000000E+00
 0.0000000000000E+00
 0.0000000000000E+00
 0.0000000000000E+00
 0.0000000000000E+00
 0.0000000000000E+00
 0.0000000000000E+00
 0.0000000000000E+00
 0.0000000000000E+00
 0.0000000000000E+00
 0.0000000000000E+00
 0.0000000000000E+00
 0.0000000000000E+00
 0.0000000000000E+00
 0.0000000000000E+00
 0.0000000000000E+00
 0.0000000000000E+00
 0.0000000000000E+00
 0.0000000000000E+00
 0.0000000000000E+00
 0.0000000000000E+00
 0.0000000000000E+00
 0.0000000000000E+00
 0.0000000000000E+00
 0.0000000000000E+00
 0.0000000000000E+00
 0.0000000000000E+00
 0.0000000000000E+00
 0.0000000000000E+00
 0.0000000000000E+00
 0.0000000000000E+00
 0.0000000000000E+00
 0.0000000000000E+00
 0.0000000000000E+00
 0.0000000000000E+00
 0.0000000000000E+00
 0.0000000000000E+00
 0.0000000000000E+00
 0.0000000000000E+00
 0.0000000000000E+00
 0.0000000000000E+00
 0.0000000000000E+00
 0.0000000000000E+00
 0.0000000000000E+00
 0.0000000000000E+00
 0.0000000000000E+00
 0.0000000000000E+00
 0.0000000000000E+00
 0.0000000000000E+00
 0.0000000000000E+00
 0.0000000000000E+00
 0.0000000000000E+00
 0.0000000000000E+00
 0.0000000000000E+00
 0.0000000000000E+00
 0.0000000000000E+00
 0.0000000000000E+00
 0.0000000000000E+00
 0.0000000000000E+00
 0.0000000000000E+00
 0.0000000000000E+00
 0.0000000000000E+00
 0.0000000000000E+00
 0.0000000000000E+00
 0.0000000000000E+00
 0.0000000000000E+00
 0.0000000000000E+00
 0.0000000000000E+00
 0.0000000000000E+00
 0.0000000000000E+00
 0.0000000000000E+00
 0.0000000000000E+00
 0.0000000000000E+00
 0.0000000000000E+00
 0.0000000000000E+00
 0.0000000000000E+00
 0.0000000000000E+00
 0.0000000000000E+00
 0.0000000000000E+00
 0.0000000000000E+00
 0.0000000000000E+00
 0.0000000000000E+00
 0.0000000000000E+00
 0.0000000000000E+00
 0.0000000000000E+00
 0.0000000000000E+00
 0.0000000000000E+00
 0.0000000000000E+00
 0.0000000000000E+00
 0.0000000000000E+00
 0.0000000000000E+00
 0.0000000000000E+00
 0.0000000000000E+00
 0.0000000000000E+00
 0.0000000000000E+00
 0.0000000000000E+00
 0.0000000000000E+00
 0.0000000000000E+00
 0.0000000000000E+00
 0.0000000000000E+00
 0.0000000000000E+00
 0.0000000000000E+00
 0.0000000000000E+00
 0.0000000000000E+00
 0.0000000000000E+00
 0.0000000000000E+00
 0.0000000000000E+00
 0.0000000000000E+00
 0.0000000000000E+00
 0.0000000000000E+00
 0.0000000000000E+00
 0.0000000000000E+00
 0.0000000000000E+00
 0.0000000000000E+00
 0.0000000000000E+00
 0.0000000000000E+00
 0.0000000000000E+00
 0.0000000000000E+00
 0.0000000000000E+00
 0.0000000000000E+00
 0.0000000000000E+00
 0.0000000000000E+00
 0.0000000000000E+00
 0.0000000000000E+00
 0.0000000000000E+00
 0.0000000000000E+00
 0.0000000000000E+00
 0.0000000000000E+00
 0.0000000000000E+00
 0.0000000000000E+00
 0.0000000000000E+00
 0.0000000000000E+00
 0.0000000000000E+00
 0.0000000000000E+00
 0.0000000000000E+00
 0.0000000000000E+00
 0.0000000000000E+00
 0.0000000000000E+00
 0.0000000000000E+00
 0.0000000000000E+00
 0.0000000000000E+00
 0.0000000000000E+00
 0.0000000000000E+00
 0.0000000000000E+00
 0.0000000000000E+00
 0.0000000000000E+00
 0.0000000000000E+00
 0.0000000000000E+00
 0.0000000000000E+00
 0.0000000000000E+00
 0.0000000000000E+00
 0.0000000000000E+00
 0.0000000000000E+00
 0.0000000000000E+00
 0.0000000000000E+00
 0.0000000000000E+00
 0.0000000000000E+00
 0.0000000000000E+00
 0.0000000000000E+00
 0.0000000000000E+00
 0.0000000000000E+00
 0.0000000000000E+00
 0.0000000000000E+00
 0.0000000000000E+00
 0.0000000000000E+00
 0.0000000000000E+00
 0.0000000000000E+00
 0.0000000000000E+00
 0.0000000000000E+00
 0.0000000000000E+00
 0.0000000000000E+00
 0.0000000000000E+00
 0.0000000000000E+00
 0.0000000000000E+00
 0.0000000000000E+00
 0.0000000000000E+00
 0.0000000000000E+00
 0.0000000000000E+00
 0.0000000000000E+00
 0.0000000000000E+00
 0.0000000000000E+00
 0.0000000000000E+00
 0.0000000000000E+00
 0.0000000000000E+00
 0.0000000000000E+00
 0.0000000000000E+00
 0.0000000000000E+00
 0.0000000000000E+00
 0.0000000000000E+00
 0.0000000000000E+00
 0.0000000000000E+00
 0.0000000000000E+00
 0.0000000000000E+00
 0.0000000000000E+00
 0.0000000000000E+00
 0.0000000000000E+00
 0.0000000000000E+00
 0.0000000000000E+00
 0.0000000000000E+00
 0.0000000000000E+00
 0.0000000000000E+00
 0.0000000000000E+00
 0.0000000000000E+00
 0.0000000000000E+00
 0.0000000000000E+00
 0.0000000000000E+00
 0.0000000000000E+00
 0.0000000000000E+00
 0.0000000000000E+00
 0.0000000000000E+00
 0.0000000000000E+00
 0.0000000000000E+00
 0.0000000000000E+00
 0.0000000000000E+00
 0.0000000000000E+00
 0.0000000000000E+00
 0.0000000000000E+00
 0.0000000000000E+00
 0.0000000000000E+00
 0.0000000000000E+00
 0.0000000000000E+00
 0.0000000000000E+00
 0.0000000000000E+00
 0.0000000000000E+00
 0.0000000000000E+00
 0.0000000000000E+00
 0.0000000000000E+00
 0.0000000000000E+00
 0.0000000000000E+00
 0.0000000000000E+00
 0.0000000000000E+00
 0.0000000000000E+00
 0.0000000000000E+00
 0.0000000000000E+00
 0.0000000000000E+00
 0.0000000000000E+00
 0.0000000000000E+00
 0.0000000000000E+00
 0.0000000000000E+00
 0.0000000000000E+00
 0.0000000000000E+00
 0.0000000000000E+00
 0.0000000000000E+00
 0.0000000000000E+00
 0.0000000000000E+00
 0.0000000000000E+00
 0.0000000000000E+00
 0.0000000000000E+00
 0.0000000000000E+00
 0.0000000000000E+00
 0.0000000000000E+00
 0.0000000000000E+00
 0.0000000000000E+00
 0.0000000000000E+00
 0.0000000000000E+00
 0.0000000000000E+00
 0.0000000000000E+00
 0.0000000000000E+00
 0.0000000000000E+00
 0.0000000000000E+00
 0.0000000000000E+00
 0.0000000000000E+00
 0.0000000000000E+00
 0.0000000000000E+00
 0.0000000000000E+00
 0.0000000000000E+00
 0.0000000000000E+00
 0.0000000000000E+00
 0.0000000000000E+00
 0.0000000000000E+00
 0.0000000000000E+00
 0.0000000000000E+00
 0.0000000000000E+00
 0.0000000000000E+00
 0.0000000000000E+00
 0.0000000000000E+00
 0.0000000000000E+00
 0.0000000000000E+00
 0.0000000000000E+00
 0.0000000000000E+00
 0.0000000000000E+00
 0.0000000000000E+00
 0.0000000000000E+00
 0.0000000000000E+00
 0.0000000000000E+00
 0.0000000000000E+00
 0.0000000000000E+00
 0.0000000000000E+00
 0.0000000000000E+00
 0.0000000000000E+00
 0.0000000000000E+00
 0.0000000000000E+00
 0.0000000000000E+00
 0.0000000000000E+00
 0.0000000000000E+00
 0.0000000000000E+00
 0.0000000000000E+00
 0.0000000000000E+00
 0.0000000000000E+00
 0.0000000000000E+00
 0.0000000000000E+00
 0.0000000000000E+00
 0.0000000000000E+00
 0.0000000000000E+00
 0.0000000000000E+00
 0.0000000000000E+00
 0.0000000000000E+00
 0.0000000000000E+00
 0.0000000000000E+00
 0.0000000000000E+00
 0.0000000000000E+00
 0.0000000000000E+00
 0.0000000000000E+00
 0.0000000000000E+00
 0.0000000000000E+00
 0.0000000000000E+00
 0.0000000000000E+00
 0.0000000000000E+00
 0.0000000000000E+00
 0.0000000000000E+00
 0.0000000000000E+00
 0.0000000000000E+00
 0.0000000000000E+00
 0.0000000000000E+00
 0.0000000000000E+00
 0.0000000000000E+00
 0.0000000000000E+00
 0.0000000000000E+00
 0.0000000000000E+00
 0.0000000000000E+00
 0.0000000000000E+00
 0.0000000000000E+00
 0.0000000000000E+00
 0.0000000000000E+00
 0.0000000000000E+00
 0.0000000000000E+00
 0.0000000000000E+00
 0.0000000000000E+00
 0.0000000000000E+00
 0.0000000000000E+00
 0.0000000000000E+00
 0.0000000000000E+00
 0.0000000000000E+00
 0.0000000000000E+00
 0.0000000000000E+00
 0.0000000000000E+00
 0.0000000000000E+00
 0.0000000000000E+00
 0.0000000000000E+00
 0.0000000000000E+00
 0.0000000000000E+00
 0.0000000000000E+00
</DataArray>
<DataArray type="Int32" Name="Region" format="ascii">
           1
           1
           1
           1
           1
           1
           1
           1
           1
           1
           1
           1
           1
           1
           1
           1
           1
           1
           1
           1
           1
           1
           1
           1
           1
           1
           1
           1
           1
           1
           1
           1
           1
           1
           1
           1
           1
           1
           1
           1
           1
           1
           1
           1
           1
           1
           1
           1
           1
           1
           1
           1
           1
           1
           1
           1
           1
           1
           1
           1
           1
           1
           1
           1
           1
           1
           1
           1
           1
           1
           1
           1
           1
           1
           1
           1
           1
           1
           1
           1
           1
           1
           1
           1
           1
           1
           1
           1
           1
           1
           1
           1
           1
           1
           1
           1
           1
           1
           1
           1
           1
           1
           1
           1
           1
           1
           1
           1
           1
           1
           1
           1
           1
           1
           1
           1
           1
           1
           1
           1
           1
           1
           1
           1
           1
           1
           1
           1
           1
           1
           1
           1
           1
           1
           1
           1
           1
           1
           1
           1
           1
           1
           1
           1
           1
           1
           1
           1
           1
           1
           1
           1
           1
           1
           1
           1
           1
           1
           1
           1
           1
           1
           1
           1
           1
           1
           1
           1
           1
           1
           1
           1
           1
           1
           1
           1
           1
           1
           1
           1
           1
           1
           1
           1
           1
           1
           1
           1
           1
           1
           1
           1
           1
           1
           1
           1
           1
           1
           1
           1
           1
           1
           1
           1
           1
           1
           1
           1
           1
           1
           1
           1
           1
           1
           1
           1
           1
           1
           1
           1
           1
           1
           1
           1
           1
           1
           1
           1
           1
           1
           1
           1
           1
           1
           1
           1
           1
           1
           1
           1
           1
           1
           1
           1
           1
           1
           1
           1
           1
           1
           1
           1
           1
           1
           1
           1
           1
           1
           1
           1
           1
           1
           1
           1
           1
           1
           1
           1
           1
           1
           1
           1
           1
           1
           1
           1
           1
           1
           1
           1
           1
           1
           1
           1
           1
           1
           1
           1
           1
           1
           1
           1
           1
           1
           1
           1
           1
           1
           1
           1
           1
           1
           1
           1
           1
           1
           1
           1
           1
           1
           1
           1
           1
           1
           1
           1
           1
           1
           1
           1
           1
           1
           1
           1
           1
           1
           1
           1
           1
           1
           1
           1
           1
           1
           1
           1
           1
           1
           1
           1
           1
           1
           1
           1
           1
           1
           1
           1
           1
           1
           1
           1
           1
           1
           1
           1
           1
           1
           1
           1
           1
           1
           1
           1
           1
           1
           1
           1
           1
           1
           1
           1
           1
           1
           1
           1
           1
           1
           1
           1
           1
           1
           1
           1
           1
           1
           1
           1
           1
           1
           1
           1
           1
           1
           1
           1
           1
           1
           1
           1
           1
           1
           1
           1
           1
           1
           1
           1
           1
           1
           1
           1
           1
           1
           1
           1
           1
           1
           1
           1
           1
           1
           1
           1
           1
           1
           1
           1
           1
           1
           1
           1
           1
           1
           1
           1
           1
           1
           1
           1
           1
           1
           1
           1
           1
           1
           1
           1
           1
           1
           1
           1
           1
           1
           1
           1
           1
           1
           1
           1
           1
           1
           1
           1
           1
           1
           1
           1
           1
           1
           1
           1
           1
           1
           1
           1
           1
           1
           1
           1
           1
           1
           1
           1
           1
           1
           1
           1
           1
           1
           1
           1
           1
           1
           1
           1
           1
           1
           1
           1
           1
           1
           1
           1
           1
           1
           1
           1
           1
           1
           1
           1
           1
           1
           1
           1
           1
           1
           1
           1
           1
           1
           1
           1
           1
           1
           1
           1
           1
           1
           1
           1
           1
           1
           1
           1
           1
           1
           1
           1
           1
           1
           1
           1
           1
           1
           1
           1
           1
           1
           1
           1
           1
           1
           1
           1
           1
           1
           1
           1
           1
           1
           1
           1
           1
           1
           1
           1
           1
           1
           1
           1
           1
           1
           1
           1
           1
           1
           1
           1
           1
           1
           1
           1
           1
           1
           1
           1
           1
           1
           1
           1
           1
           1
           1
           1
           1
           1
           1
           1
           1
           1
           1
           1
           1
           1
           1
           1
           1
           1
           1
           1
           1
           1
           1
           1
           1
           1
           1
           1
           1
           1
           1
           1
           1
           1
           1
           1
           1
           1
           1
           1
           1
           1
           1
           1
           1
           1
           1
           1
           1
           1
           1
           1
           1
           1
           1
           1
           1
           1
           1
           1
           1
           1
           1
           1
           1
           1
           1
           1
           1
           1
           1
           1
           1
           1
           1
           1
           1
           1
           1
           1
           1
           1
           1
           1
           1
           1
           1
           1
           1
           1
           1
           1
           1
           1
           1
           1
           1
           1
           1
           1
           1
           1
           1
           1
           1
           1
           1
           1
           1
           1
           1
           1
           1
           1
           1
           1
           1
           1
           1
           1
           1
           1
           1
           1
           1
           1
           1
           1
           1
           1
           1
           1
           1
           1
           1
           1
           1
           1
           1
           1
           1
           1
           1
           1
           1
           1
           1
           1
           1
           1
           1
           1
           1
           1
           1
           1
           1
           1
           1
           1
           1
           1
           1
           1
           1
           1
           1
           1
           1
           1
           1
           1
           1
           1
           1
           1
           1
           1
           1
           1
           1
           1
           1
           1
           1
           1
           1
           1
           1
           1
           1
           1
           1
           1
           1
           1
           1
           1
           1
           1
           1
           1
           1
           1
           1
           1
           1
           1
           1
           1
           1
           1
           1
           1
           1
           1
           1
           1
           1
           1
           1
           1
           1
           1
           1
           1
           1
           1
           1
           1
           1
           1
           1
           1
           1
           1
           1
           1
           1
           1
           1
           1
           1
           1
           1
           1
           1
           1
           1
           1
           1
           1
           1
           1
           1
           1
           1
           1
           1
           1
           1
           1
           1
           1
           1
           1
           1
           1
           1
           1
           1
           1
           1
           1
           1
           1
           1
           1
           1
           1
           1
           1
           1
           1
           1
           1
           1
           1
           1
           1
           1
           1
           1
           1
           1
           1
           1
           1
           1
           1
           1
           1
           1
           1
           1
           1
           1
           1
           1
           1
           1
           1
           1
           1
           1
           1
           1
           1
           1
           1
           1
           1
           1
           1
           1
           1
           1
           1
           1
           1
           1
           1
           1
           1
           1
           1
           1
           1
           1
           1
           1
           1
           1
           1
           1
           1
           1
           1
           1
           1
           1
           1
           1
           1
           1
           1
           1
           1
           1
           1
           1
           1
           1
           1
           1
           1
           1
           1
           1
           1
           1
           1
           1
           1
           1
           1
           1
           1
           1
           1
           1
           1
           1
           1
           1
           1
           1
           1
           1
           1
           1
           1
           1
           1
           1
           1
           1
           1
           1
           1
           1
           1
           1
           1
           1
           1
           1
           1
           1
           1
           1
           1
           1
           1
           1
           1
           1
           1
           1
           1
           1
           1
           1
           1
           1
           1
           1
           1
           1
           1
           1
           1
           1
           1
           1
           1
           1
           1
           1
           1
           1
           1
           1
           1
           1
           1
           1
           1
           1
           1
           1
           1
           1
           1
           1
           1
           1
           1
           1
           1
           1
           1
           1
           1
           1
           1
           1
           1
           1
           1
           1
           1
           1
           1
           1
           1
           1
           1
           1
           1
           1
           1
           1
           1
           1
           1
           1
           1
           1
           1
           1
           1
           1
           1
           1
           1
           1
           1
           1
           1
           1
           1
           1
           1
           1
           1
           1
           1
           1
           1
           1
           1
           1
           1
           1
           1
           1
           1
           1
           1
           1
           1
           1
           1
           1
           1
           1
           1
           1
           1
           1
           1
           1
           1
           1
           1
           1
           1
           1
           1
           1
           1
           1
           1
           1
           1
           1
           1
           1
           1
           1
           1
           1
           1
           1
           1
           1
           1
           1
           1
           1
           1
           1
           1
           1
           1
           1
           1
           1
           1
           1
           1
           1
           1
           1
           1
           1
           1
           1
           1
           1
           1
           1
           1
           1
           1
           1
           1
           1
           1
           1
           1
           1
           1
           1
           1
           1
           1
           1
           1
           1
           1
           1
           1
           1
           1
           1
           1
           1
           1
           1
           1
           1
           1
           1
           1
           1
           1
           1
           1
           1
           1
           1
           1
           1
           1
           1
           1
           1
           1
           1
           1
           1
           1
           1
           1
           1
           1
           1
           1
           1
           1
           1
           1
           1
           1
           1
           1
           1
           1
           1
           1
           1
           1
           1
           1
           1
           1
           1
           1
           1
           1
           1
           1
           1
           1
           1
           1
           1
           1
           1
           1
           1
           1
           1
           1
           1
           1
           1
           1
           1
           1
           1
           1
           1
           1
           1
           1
           1
           1
           1
           1
           1
           1
           1
           1
           1
           1
           1
           1
           1
           1
           1
           1
           1
           1
           1
           1
           1
           1
           1
           1
           1
           1
           1
           1
           1
           1
           1
           1
           1
           1
           1
           1
           1
           1
           1
           1
           1
           1
           1
           1
           1
           1
           1
           1
           1
           1
           1
           1
           1
           1
           1
           1
           1
           1
           1
           1
           1
           1
           1
           1
           1
           1
           1
           1
           1
           1
           1
           1
           1
           1
           1
           1
           1
           1
           1
           1
           1
           1
           1
           1
           1
           1
           1
           1
           1
           1
           1
           1
           1
           1
           1
           1
           1
           1
           1
           1
           1
           1
           1
           1
           1
           1
           1
           1
           1
           1
           1
           1
           1
           1
           1
           1
           1
           1
           1
           1
           1
           1
           1
           1
           1
           1
           1
           1
           1
           1
           1
           1
           1
           1
           1
           1
           1
           1
           1
           1
           1
           1
           1
           1
           1
           1
           1
           1
           1
           1
           1
           1
           1
           1
           1
           1
           1
           1
           1
           1
           1
           1
           1
           1
           1
           1
           1
           1
           1
           1
           1
           1
           1
           1
           1
           1
           1
           1
           1
           1
           1
           1
           1
           1
           1
           1
           1
           1
           1
           1
           1
           1
           1
           1
           1
           1
           1
           1
           1
           1
           1
           1
           1
           1
           1
           1
           1
           1
           1
           1
           1
           1
           1
           1
           1
           1
           1
           1
           1
           1
           1
           1
           1
           1
           1
           1
           1
           1
           1
           1
           1
           1
           1
           1
           1
           1
           1
           1
           1
           1
           1
           1
           1
           1
           1
           1
           1
           1
           1
           1
           1
           1
           1
           1
           1
           1
           1
           1
           1
           1
           1
           1
           1
           1
           1
           1
           1
           1
           1
           1
           1
           1
           1
           1
           1
           1
           1
           1
           1
           1
           1
           1
           1
           1
           1
           1
           1
           1
           1
           1
           1
           1
           1
           1
           1
           1
           1
           1
           1
           1
           1
           1
           1
           1
           1
           1
           1
           1
           1
           1
           1
           1
           1
           1
           1
           1
           1
           1
           1
           1
           1
           1
           1
           1
           1
           1
           1
           1
           1
           1
           1
           1
           1
           1
           1
           1
           1
           1
           1
           1
           1
           1
           1
           1
           1
           1
           1
           1
           1
           1
           1
           1
           1
           1
           1
           1
           1
           1
           1
           1
           1
           1
           1
           1
           1
           1
           1
           1
           1
           1
           1
           1
           1
           1
           1
           1
           1
           1
           1
           1
           1
           1
           1
           1
           1
           1
           1
           1
           1
           1
           1
           1
           1
           1
           1
           1
           1
           1
           1
           1
           1
           1
           1
           1
           1
           1
           1
           1
           1
           1
           1
           1
           1
           1
           1
           1
           1
           1
           1
           1
           1
           1
           1
           1
           1
           1
           1
           1
           1
           1
           1
           1
           1
           1
           1
           1
           1
           1
           1
           1
           1
           1
           1
           1
           1
           1
           1
           1
           1
           1
           1
           1
           1
           1
           1
           1
           1
           1
           1
           1
           1
           1
           1
           1
           1
           1
           1
           1
           1
           1
           1
           1
           1
           1
           1
           1
           1
           1
           1
           1
           1
           1
           1
           1
           1
           1
           1
           1
           1
           1
           1
           1
           1
           1
           1
           1
           1
           1
           1
           1
           1
           1
           1
           1
           1
           1
           1
           1
           1
           1
           1
           1
           1
           1
           1
           1
           1
           1
           1
           1
           1
           1
           1
           1
           1
           1
           1
           1
           1
           1
           1
           1
           1
           1
           1
           1
           1
           1
           1
           1
           1
           1
           1
           1
           1
           1
           1
           1
           1
           1
           1
           1
           1
           1
           1
           1
           1
           1
           1
           1
           1
           1
           1
           1
           1
           1
           1
           1
           1
           1
           1
           1
           1
           1
           1
           1
           1
           1
           1
           1
           1
           1
           1
           1
           1
           1
           1
           1
           1
           1
           1
           1
           1
           1
           1
           1
           1
           1
           1
           1
           1
           1
           1
           1
           1
           1
           1
           1
           1
           1
           1
           1
           1
           1
           1
           1
           1
           1
           1
           1
           1
           1
           1
           1
           1
           1
           1
           1
           1
           1
           1
           1
           1
           1
           1
           1
           1
           1
           1
           1
           1
           1
           1
           1
           1
           1
           1
           1
           1
           1
           1
           1
           1
           1
           1
           1
           1
           1
           1
           1
           1
           1
           1
           1
           1
           1
           1
           1
           1
           1
           1
           1
           1
           1
           1
           1
           1
           1
           1
           1
           1
           1
           1
           1
           1
           1
           1
           1
           1
           1
           1
           1
           1
           1
           1
           1
           1
           1
           1
           1
           1
           1
           1
           1
           1
           1
           1
           1
           1
           1
           1
           1
           1
           1
           1
           1
           1
           1
           1
           1
           1
           1
           1
           1
           1
           1
           1
           1
           1
           1
           1
           1
           1
           1
           1
           1
           1
           1
           1
           1
           1
           1
           1
           1
           1
           1
           1
           1
           1
           1
           1
           1
           1
           1
           1
           1
           1
           1
           1
           1
           1
           1
           1
           1
           1
           1
           1
           1
           1
           1
           1
           1
           1
           1
           1
           1
           1
           1
           1
           1
           1
           1
           1
           1
           1
           1
           1
           1
           1
           1
           1
           1
           1
           1
           1
           1
           1
           1
           1
           1
           1
           1
           1
           1
           1
           1
           1
           1
           1
           1
           1
           1
           1
           1
           1
           1
           1
           1
           1
           1
           1
           1
           1
           1
           1
           1
           1
           1
           1
           1
           1
           1
           1
           1
           1
           1
           1
           1
           1
           1
           1
           1
           1
           1
           1
           1
           1
           1
           1
           1
           1
           1
           1
           1
           1
           1
           1
           1
           1
           1
           1
           1
           1
           1
           1
           1
           1
           1
           1
           1
           1
           1
           1
           1
           1
           1
           1
           1
           1
           1
           1
           1
           1
           1
           1
           1
           1
           1
           1
           1
           1
           1
           1
           1
           1
           1
           1
           1
           1
           1
           1
           1
           1
           1
           1
           1
           1
           1
           1
           1
           1
           1
           1
           1
           1
           1
           1
           1
           1
           1
           1
           1
           1
           1
           1
           1
           1
           1
           1
           1
           1
           1
           1
           1
           1
           1
           1
           1
           1
           1
           1
           1
           1
           1
           1
           1
           1
           1
           1
           1
           1
           1
           1
           1
           1
           1
           1
           1
           1
           1
           1
           1
           1
           1
           1
           1
           1
           1
           1
           1
           1
           1
           1
           1
           1
           1
           1
           1
           1
           1
           1
           1
           1
           1
           1
           1
           1
           1
           1
           1
           1
           1
           1
           1
           1
           1
           1
           1
           1
           1
           1
           1
           1
           1
           1
           1
           1
           1
           1
           1
           1
           1
           1
           1
           1
           1
           1
           1
           1
           1
           1
           1
           1
           1
           1
           1
           1
           1
           1
           1
           1
           1
           1
           1
           1
           1
           1
           1
           1
           1
           1
           1
           1
           1
           1
           1
           1
           1
           1
           1
           1
           1
           1
           1
           1
           1
           1
           1
           1
           1
           1
           1
           1
           1
           1
           1
           1
           1
           1
           1
           1
           1
           1
           1
           1
           1
           1
           1
           1
           1
           1
           1
           1
           1
           1
           1
           1
           1
           1
           1
           1
           1
           1
           1
           1
           1
           1
           1
           1
           1
           1
           1
           1
           1
           1
           1
           1
           1
           1
           1
           1
           1
           1
           1
           1
           1
           1
           1
           1
           1
           1
           1
           1
           1
           1
           1
           1
           1
           1
           1
           1
           1
           1
           1
           1
           1
           1
           1
           1
           1
           1
           1
           1
           1
           1
           1
           1
           1
           1
           1
           1
           1
           1
           1
           1
           1
           1
           1
           1
           1
           1
           1
           1
           1
           1
           1
           1
           1
           1
           1
           1
           1
           1
           1
           1
           1
           1
           1
           1
           1
           1
           1
           1
           1
           1
           1
           1
           1
           1
           1
           1
           1
           1
           1
           1
           1
           1
           1
           1
           1
           1
           1
           1
           1
           1
           1
           1
           1
           1
           1
           1
           1
           1
           1
           1
           1
           1
           1
           1
           1
           1
           1
           1
           1
           1
           1
           1
           1
           1
           1
           1
           1
           1
           1
           1
           1
           1
           1
           1
           1
           1
           1
           1
           1
           1
           1
           1
           1
           1
           1
           1
           1
           1
           1
           1
           1
           1
           1
           1
           1
           1
           1
           1
           1
           1
           1
           1
           1
           1
           1
           1
           1
           1
           1
           1
           1
           1
           1
           1
           1
           1
           1
           1
           1
           1
           1
           1
           1
           1
           1
           1
           1
           1
           1
           1
           1
           1
           1
           1
           1
           1
           1
           1
           1
           1
           1
           1
           1
           1
           1
           1
           1
           1
           1
           1
           1
           1
           1
           1
           1
           1
           1
           1
           1
           1
           1
           1
           1
           1
           1
           1
           1
           1
           1
           1
           1
           1
           1
           1
           1
           1
           1
           1
           1
           1
           1
           1
           1
           1
           1
           1
           1
           1
           1
           1
           1
           1
           1
           1
           1
           1
           1
           1
           1
           1
           1
           1
           1
           1
           1
           1
           1
           1
           1
           1
           1
           1
           1
           1
           1
           1
           1
           1
           1
           1
           1
           1
           1
           1
           1
           1
           1
           1
           1
           1
           1
           1
           1
           1
           1
           1
           1
           1
           1
           1
           1
           1
           1
           1
           1
           1
           1
           1
           1
           1
           1
           1
           1
           1
           1
           1
           1
           1
           1
           1
           1
           1
           1
           1
           1
           1
           1
           1
           1
           1
           1
           1
           1
           1
           1
           1
           1
           1
           1
           1
           1
           1
           1
           1
           1
           1
           1
           1
           1
           1
           1
           1
           1
           1
           1
           1
           1
           1
           1
           1
           1
           1
           1
           1
           1
           1
           1
           1
           1
           1
           1
           1
           1
           1
           1
           1
           1
           1
           1
           1
           1
           1
           1
           1
           1
           1
           1
           1
           1
           1
           1
           1
           1
           1
           1
           1
           1
           1
           1
           1
           1
           1
           1
           1
           1
           1
           1
           1
           1
           1
           1
           1
           1
           1
           1
           1
           1
           1
           1
           1
           1
           1
           1
           1
           1
           1
           1
           1
           1
           1
           1
           1
           1
           1
           1
           1
           1
           1
           1
           1
           1
           1
           1
           1
           1
           1
           1
           1
           1
           1
           1
           1
           1
           1
           1
           1
           1
           1
           1
           1
           1
           1
           1
           1
           1
           1
           1
           1
           1
           1
           1
           1
           1
           1
           1
           1
           1
           1
           1
           1
           1
           1
           1
           1
           1
           1
           1
           1
           1
           1
           1
           1
           1
           1
           1
           1
           1
           1
           1
           1
           1
           1
           1
           1
           1
           1
           1
           1
           1
           1
           1
           1
           1
           1
           1
           1
           1
           1
           1
           1
           1
           1
           1
           1
           1
           1
           1
           1
           1
           1
           1
           1
           1
           1
           1
           1
           1
           1
           1
           1
           1
           1
           1
           1
           1
           1
           1
           1
           1
           1
           1
           1
           1
           1
           1
           1
           1
           1
           1
           1
           1
           1
           1
           1
           1
           1
           1
           1
           1
           1
           1
           1
           1
           1
           1
           1
           1
           1
           1
           1
           1
           1
           1
           1
           1
           1
           1
           1
           1
           1
           1
           1
           1
           1
           1
           1
           1
           1
           1
           1
           1
           1
           1
           1
           1
           1
           1
           1
           1
           1
           1
           1
           1
           1
           1
           1
           1
           1
           1
           1
           1
           1
           1
           1
           1
           1
           1
           1
           1
           1
           1
           1
           1
           1
           1
           1
           1
           1
           1
           1
           1
           1
           1
           1
           1
           1
           1
           1
           1
           1
           1
           1
           1
           1
           1
           1
           1
           1
           1
           1
           1
           1
           1
           1
           1
           1
           1
           1
           1
           1
           1
           1
           1
           1
           1
           1
           1
           1
           1
           1
           1
           1
           1
           1
           1
           1
           1
           1
           1
           1
           1
           1
           1
           1
           1
           1
           1
           1
           1
           1
           1
           1
           1
           1
           1
           1
           1
           1
           1
           1
           1
           1
           1
           1
           1
           1
           1
           1
           1
           1
           1
           1
           1
           1
           1
           1
           1
           1
           1
           1
           1
           1
           1
           1
           1
           1
           1
           1
           1
           1
           1
           1
           1
           1
           1
           1
           1
           1
           1
           1
           1
           1
           1
           1
           1
           1
           1
           1
           1
           1
           1
           1
           1
           1
           1
           1
           1
           1
           1
           1
           1
           1
           1
           1
           1
           1
           1
           1
           1
           1
           1
           1
           1
           1
           1
           1
           1
           1
           1
           1
           1
           1
           1
           1
           1
           1
           1
           1
           1
           1
           1
           1
           1
           1
           1
           1
           1
           1
           1
           1
           1
           1
           1
           1
           1
           1
           1
           1
           1
           1
           1
           1
           1
           1
           1
           1
           1
           1
           1
           1
           1
           1
           1
           1
           1
           1
           1
           1
           1
           1
           1
           1
           1
           1
           1
           1
           1
           1
           1
           1
           1
           1
           1
           1
           1
           1
           1
           1
           1
           1
           1
           1
           1
           1
           1
           1
           1
           1
           1
           1
           1
           1
           1
           1
           1
           1
           1
           1
           1
           1
           1
           1
           1
           1
           1
           1
           1
           1
           1
           1
           1
           1
           1
           1
           1
           2
           2
           2
           2
           2
           2
           2
           2
           2
           2
           2
           2
           2
           2
           2
           2
           2
           2
           2
           2
           2
           2
           2
           2
           2
           2
           2
           2
           2
           2
           2
           2
           2
           2
           2
           2
           2
           2
           2
           2
           2
           2
           2
           2
           2
           2
           2
           2
           2
           2
           2
           2
           2
           2
           2
           2
           2
           2
           2
           2
           2
           2
           2
           2
           2
           2
           2
           2
           2
           2
           2
           2
           2
           2
           2
           2
           2
           2
           2
           2
           2
           2
           2
           2
           2
           2
           2
           2
           2
           2
           2
           2
           2
           2
           2
           2
           2
           2
           2
           2
           2
           2
           2
           2
           2
           2
           2
           2
           2
           2
           2
           2
           2
           2
           2
           2
           2
           2
           2
           2
           2
           2
           2
           2
           2
           2
           2
           2
           2
           2
           2
           2
           2
           2
           2
           2
           2
           2
           2
           2
           2
           2
           2
           2
           2
           2
           2
           2
           2
           2
           2
           2
           2
           2
           2
           2
           2
           2
           2
           2
           2
           2
           2
           2
           2
           2
           2
           2
           2
           2
           2
           2
           2
           2
           2
           2
           2
           2
           2
           2
           2
           2
           2
           2
           2
           2
           2
           2
           2
           2
           2
           2
           2
           2
           2
           2
           2
           2
           2
           2
           2
           2
           2
           2
           2
           2
           2
           2
           2
           2
           2
           2
           2
           2
           2
           2
           2
           2
           2
           2
           2
           2
           2
           2
           2
           2
           2
           2
           2
           2
           2
           2
           2
           2
           2
           2
           2
           2
           2
           2
           2
           2
           2
           2
           2
           2
           2
           2
           2
           2
           2
           2
           2
           2
           2
           2
           2
           2
           2
           2
           2
           2
           2
           2
           2
           2
           2
           2
           2
           2
           2
           2
           2
           2
           2
           2
           2
           2
           2
           2
           2
           2
           2
           2
           2
           2
           2
           2
           2
           2
           2
           2
           2
           2
           2
           2
           2
           2
           2
           2
           2
           2
           2
           2
           2
           2
           2
           2
           2
           2
           2
           2
           2
           2
           2
           2
           2
           2
           2
           2
           2
           2
           2
           2
           2
           2
           2
           2
           2
           2
           2
           2
           2
           2
           2
           2
           2
           2
           2
           2
           2
           2
           2
           2
           2
           2
           2
           2
           2
           2
           2
           2
           2
           2
           2
           2
           2
           2
           2
           2
           2
           2
           2
           2
           2
           2
           2
           2
           2
           2
           2
           2
           2
           2
           2
           2
           2
           2
           2
           2
           2
           2
           2
           2
           2
           2
           2
           2
           2
           2
           2
           2
           2
           2
           2
           2
           2
           2
           2
           2
           2
           2
           2
           2
           2
           2
           2
           2
           2
           2
           2
           2
           2
           2
           2
           2
           2
           2
           2
           2
           2
           2
           2
           2
           2
           2
           2
           2
           2
           2
           2
           2
           2
           2
           2
           2
           2
           2
           2
           2
           2
           2
           2
           2
           2
           2
           2
           2
           2
           2
           2
           2
           2
           2
           2
           2
           2
           2
           2
           2
           2
           2
           2
           2
           2
           2
           2
           2
           2
           2
           2
           2
           2
           2
           2
           2
           2
           2
           2
           2
           2
           2
           2
           2
           2
           2
           2
           2
           2
           2
           2
           2
           2
           2
           2
           2
           2
           2
           2
           2
           2
           2
           2
           2
           2
           2
           2
           2
           2
           2
           2
           2
           2
           2
           2
           2
           2
           2
           2
           2
           2
           2
           2
           2
           2
           2
           2
           2
           2
           2
           2
           2
           2
           2
           2
           2
           2
           2
           2
           2
           2
           2
           2
           2
           2
           2
           2
           2
           2
           2
           2
           2
           2
           2
           2
           2
           2
           2
           2
           2
           2
           2
           2
           2
           2
           2
           2
           2
           2
           2
           2
           2
           2
           2
           2
           2
           2
           2
           2
           2
           2
           2
           2
           2
           2
           2
           2
           2
           2
           2
           2
           2
           2
           2
           2
           2
           2
           2
           2
           2
           2
           2
           2
           2
           2
           2
           2
           2
           2
           2
           2
           2
           2
           2
           2
           2
           2
           2
           2
           2
           2
           2
           2
           2
           2
           2
           2
           2
           2
           2
           2
           2
           2
           2
           2
           2
           2
           2
           2
           2
           2
           2
           2
           2
           2
           2
           2
           2
           2
           2
           2
           2
           2
           2
           2
           2
           2
           2
           2
           2
           2
           2
           2
           2
           2
           2
           2
           2
           2
           2
           2
           2
           2
           2
           2
           2
           2
           2
           2
           2
           2
           2
           2
           2
           2
           2
           2
           2
           2
           2
           2
           2
           2
           2
           2
           2
           2
           2
           2
           2
           2
           2
           2
           2
           2
           2
           2
           2
           2
           2
           2
           2
           2
           2
           2
           2
           2
           2
           2
           2
           2
           2
           2
           2
           2
           2
           2
           2
           2
           2
           2
           2
           2
           2
           2
           2
           2
           2
           2
           2
           2
           2
           2
           2
           2
           2
           2
           2
           2
           2
           2
           2
           2
           2
           2
           2
           2
           2
           2
           2
           2
           2
           2
           2
           2
           2
           2
           2
           2
           2
           2
           2
           2
           2
           2
           2
           2
           2
           2
           2
           2
           2
           2
           2
           2
           2
           2
           2
           2
           2
           2
           2
           2
           2
           2
           2
           2
           2
           2
           2
           2
           2
           2
           2
           2
           2
           2
           2
           2
           2
           2
           2
           2
           2
           2
           2
           2
           2
           2
           2
           2
           2
           2
           2
           2
           2
           2
           2
           2
           2
           2
           2
           2
           2
           2
           2
           2
           2
           2
           2
           2
           2
           2
           2
           2
           2
           2
           2
           2
           2
           2
           2
           2
           2
           2
           2
           2
           2
           2
           2
           2
           2
           2
           2
           2
           2
           2
           2
           2
           2
           2
           2
           2
           2
           2
           2
           2
           2
           2
           2
           2
           2
           2
           2
           2
           2
           2
           2
           2
           2
           2
           2
           2
           2
           2
           2
           2
           2
           2
           2
           2
           2
           2
           2
           2
           2
           2
           2
           2
           2
           2
           2
           2
           2
           2
           2
           2
           2
           2
           2
           2
           2
           2
           2
           2
           2
           2
           2
           2
           2
           2
           2
           2
           2
           2
           2
           2
           2
           2
           2
           2
           2
           2
           2
           2
           2
           2
           2
           2
           2
           2
           2
           2
           2
           2
           2
           2
           2
           2
           2
           2
           2
           2
           2
           2
           2
           2
           2
           2
           2
           2
           2
           2
           2
           2
           2
           2
           2
           2
           2
           2
           2
           2
           2
           2
           2
           2
           2
           2
           2
           2
           2
           2
           2
           2
           2
           2
           2
           2
           2
           2
           2
           2
           2
           2
           2
           2
           2
           2
           2
           2
           2
           2
           2
           2
           2
           2
           2
           2
           2
           2
           2
           2
           2
           2
           2
           2
           2
           2
           2
           2
           2
           2
           2
           2
           2
           2
           2
           2
           2
           2
           2
           2
           2
           2
           2
           2
           2
           2
           2
           2
           2
           2
           2
           2
           2
           2
           2
           2
           2
           2
           2
           2
           2
           2
           2
           2
           2
           2
           2
           2
           2
           2
           2
           2
           2
           2
           2
           2
           2
           2
           2
           2
           2
           2
           2
           2
           2
           2
           2
           2
           2
           2
           2
           2
           2
           2
           2
           2
           2
           2
           2
           2
           2
           2
           2
           2
           2
           2
           2
           2
           2
           2
           2
           2
           2
           2
           2
           2
           2
           2
           2
           2
           2
           2
           2
           2
           2
           2
           2
           2
           2
           2
           2
           2
           2
           2
           2
           2
           2
           2
           2
           2
           2
           2
           2
           2
           2
           2
           2
           2
           2
           2
           2
           2
           2
           2
           2
           2
           2
           2
           2
           2
           2
           2
           2
           2
           2
           2
           2
           2
           2
           2
           2
           2
           2
           2
           2
           2
           2
           2
           2
           2
           2
           2
           2
           2
           2
           2
           2
           2
           2
           2
           2
           2
           2
           2
           2
           2
           2
           2
           2
           2
           2
           2
           2
           2
           2
           2
           2
           2
           2
           2
           2
           2
           2
           2
           2
           2
           2
           2
           2
           2
           2
           2
           2
           2
           2
           2
           2
           2
           2
           2
           2
           2
           2
           2
           2
           2
           2
           2
           2
           2
           2
           2
           2
           2
           2
           2
           2
           2
           2
           2
           2
           2
           2
           2
           2
           2
           2
           2
           2
           2
           2
           2
           2
           2
           2
           2
           2
           2
           2
           2
           2
           2
           2
           2
           2
           2
           2
           2
           2
           2
           2
           2
           2
           2
           2
           2
           2
           2
           2
           2
           2
           2
           2
           2
           2
           2
           2
           2
           2
           2
           2
           2
           2
           2
           2
           2
           2
           2
           2
           2
           2
           2
           2
           2
           2
           2
           2
           2
           2
           2
           2
           2
           2
           2
           2
           2
           2
           2
           2
           2
           2
           2
           2
           2
           2
           2
           2
           2
           2
           2
           2
           2
           2
           2
           2
           2
           2
           2
           2
           2
           2
           2
           2
           2
           2
           2
           2
           2
           2
           2
           2
           2
           2
           2
           2
           2
           2
           2
           2
           2
           2
           2
           2
           2
           2
           2
           2
           2
           2
           2
           2
           2
           2
           2
           2
           2
           2
           2
           2
           2
           2
           2
           2
           2
           2
           2
           2
           2
           2
           2
           2
           2
           2
           2
           2
           2
           2
           2
           2
           2
           2
           2
           2
           2
           2
           2
           2
           2
           2
           2
           2
           2
           2
           2
           2
           2
           2
           2
           2
           2
           2
           2
           2
           2
           2
           2
           2
           2
           2
           2
           2
           2
           2
           2
           2
           2
           2
           2
           2
           2
           2
           2
           2
           2
           2
           2
           2
           2
           2
           2
           2
           2
           2
           2
           2
           2
           2
           2
           2
           2
           2
           2
           2
           2
           2
           2
           2
           2
           2
           2
           2
           2
           2
           2
           2
           2
           2
           2
           2
           2
           2
           2
           2
           2
           2
           2
           2
           2
           2
           2
           2
           2
           2
           2
           2
           2
           2
           2
           2
           2
           2
           2
           2
           2
           2
           2
           2
           2
           2
           2
           2
           2
           2
           2
           2
           2
           2
           2
           2
           2
           2
           2
           2
           2
           2
           2
           2
           2
           2
           2
           2
           2
           2
           2
           2
           2
           2
           2
           2
           2
           2
           2
           2
           2
           2
           2
           2
           2
           2
           2
           2
           2
           2
           2
           2
           2
           2
           2
           2
           2
           2
           2
           2
           2
           2
           2
           2
           2
           2
           2
           2
           2
           2
           2
           2
           2
           2
           2
           2
           2
           2
           2
           2
           2
           2
           2
           2
           2
           2
           2
           2
           2
           2
           2
           2
           2
           2
           2
           2
           2
           2
           2
           2
           2
           2
           2
           2
           2
           2
           2
           2
           2
           2
           2
           2
           2
           2
           2
           2
           2
           2
           2
           2
           2
           2
           2
           2
           2
           2
           2
           2
           2
           2
           2
           2
           2
           2
           2
           2
           2
           2
           2
           2
           2
           2
           2
           2
           2
           2
           2
           2
           2
           2
           2
           2
           2
           2
           2
           2
           2
           2
           2
           2
           2
           2
           2
           2
           2
           2
           2
           2
           2
           2
           2
           2
           2
           2
           2
           2
           2
           2
           2
           2
           2
           2
           2
           2
           2
           2
           2
           2
           2
           2
           2
           2
           2
           2
           2
           2
           2
           2
           2
           2
           2
           2
           2
           2
           2
           2
           2
           2
           2
           2
           2
           2
           2
           2
           2
           2
           2
           2
           2
           2
           2
           2
           2
           2
           2
           2
           2
           2
           2
           2
           2
           2
           2
           2
           2
           2
           2
           2
           2
           2
           2
           2
           2
           2
           2
           2
           2
           2
           2
           2
           2
           2
           2
           2
           2
           2
           2
           2
           2
           2
           2
           2
           2
           2
           2
           2
           2
           2
           2
           2
           2
           2
           2
           2
           2
           2
           2
           2
           2
           2
           2
           2
           2
           2
           2
           2
           2
           2
           2
           2
           2
           2
           2
           2
           2
           2
           2
           2
           2
           2
           2
           2
           2
           2
           2
           2
           2
           2
           2
           2
           2
           2
           2
           2
           2
           2
           2
           2
           2
           2
           2
           2
           2
           2
           2
           2
           2
           2
           2
           2
           2
           2
           2
           2
           2
           2
           2
           2
           2
           2
           2
           2
           2
           2
           2
           2
           2
           2
           2
           2
           2
           2
           2
           2
           2
           2
           2
           2
           2
           2
           2
           2
           2
           2
           2
           2
           2
           2
           2
           2
           2
           2
           2
           2
           2
           2
           2
           2
           2
           2
           2
           2
           2
           2
           2
           2
           2
           2
           2
           2
           2
           2
           2
           2
           2
           2
           2
           2
           2
           2
           2
           2
           2
           2
           2
           2
           2
           2
           2
           2
           2
           2
           2
           2
           2
           2
           2
           2
           2
           2
           2
           2
           2
           2
           2
           2
           2
           2
           2
           2
           2
           2
           2
           2
           2
           2
           2
           2
           2
           2
           2
           2
           2
           2
           2
           2
           2
           2
           2
           2
           2
           2
           2
           2
           2
           2
           2
           2
           2
           2
           2
           2
           2
           2
           2
           2
           2
           2
           2
           2
           2
           2
           2
           2
           2
           2
           2
           2
           2
           2
           2
           2
           2
           2
           2
           2
           2
           2
           2
           2
           2
           2
           2
           2
           2
           2
           2
           2
           2
           2
           2
           2
           2
           2
           2
           2
           2
           2
           2
           2
           2
           2
           2
           2
           2
           2
           2
           2
           2
           2
           2
           2
           2
           2
           2
           2
           2
           2
           2
           2
           2
           2
           2
           2
           2
           2
           2
           2
           2
           2
           2
           2
           2
           2
           2
           2
           2
           2
           2
           2
           2
           2
           2
           2
           2
           2
           2
           2
           2
           2
           2
           2
           2
           2
           2
           2
           2
           2
           2
           2
           2
           2
           2
           2
           2
           2
           2
           2
           2
           2
           2
           2
           2
           2
           2
           2
           2
           2
           2
           2
           2
           2
           2
           2
           2
           2
           2
           2
           2
           2
           2
           2
           2
           2
           2
           2
           2
           2
           2
           2
           2
           2
           2
           2
           2
           2
           2
           2
           2
           2
           2
           2
           2
           2
           2
           2
           2
           2
           2
           2
           2
           2
           2
           2
           2
           2
           2
           2
           2
           2
           2
           2
           2
           2
           2
           2
           2
           2
           2
           2
           2
           2
           2
           2
           2
           2
           2
           2
           2
           2
           2
           2
           2
           2
           2
           2
           2
           2
           2
           2
           2
           2
           2
           2
           2
           2
           2
           2
           2
           2
           2
           2
           2
           2
           2
           2
           2
           2
           2
           2
           2
           2
           2
           2
           2
           2
           2
           2
           2
           2
           2
           2
           2
           2
           2
           2
           2
           2
           2
           2
           2
           2
           2
           2
           2
           2
           2
           2
           2
           2
           2
           2
           2
           2
           2
           2
           2
           2
           2
           2
           2
           2
           2
           2
           2
           2
           2
           2
           2
           2
           2
           2
           2
           2
           2
           2
           2
           2
           2
           2
           2
           2
           2
           2
           2
           2
           2
           2
           2
           2
           2
           2
           2
           2
           2
           2
           2
           2
           2
           2
           2
           2
           2
           2
           2
           2
           2
           2
           2
           2
           2
           2
           2
           2
           2
           2
           2
           2
           2
           2
           2
           2
           2
           2
           2
           2
           2
           2
           2
           2
           2
           2
           2
           2
           2
           2
           2
           2
           2
           2
           2
           2
           2
           2
           2
           2
           2
           2
           2
           2
           2
           2
           2
           2
           2
           2
           2
           2
           2
           2
           2
           2
           2
           2
           2
           2
           2
           2
           2
           2
           2
           2
           2
           2
           2
           2
           2
           2
           2
           2
           2
           2
           2
           2
           2
           2
           2
           2
           2
           2
           2
           2
           2
           2
           2
           2
           2
           2
           2
           2
           2
           2
           2
           2
           2
           2
           2
           2
           2
           2
           2
           2
           2
           2
</DataArray>
</CellData>
</Piece>
</UnstructuredGrid>
</VTKFile>
