<VTKFile type="UnstructuredGrid" version="1,0" byte_order="LittleEndian">
<UnstructuredGrid>
<Piece NumberOfPoints="1502" NumberOfCells="1440">
<Points>
<DataArray type="Float64" NumberOfComponents="3" format="ascii">
-0.1100000000000E+01 -0.4304044648606E+01  0.0000000000000E+00
 0.0000000000000E+00 -0.4304044648606E+01  0.0000000000000E+00
 0.1100000000000E+01 -0.4304044648606E+01  0.0000000000000E+00
-0.1426338184892E+01 -0.1495137730994E+01  0.0000000000000E+00
-0.7131690856113E+00 -0.1351817918288E+01  0.0000000000000E+00
 0.7131690992823E+00 -0.1351817920119E+01  0.0000000000000E+00
 0.1426338184892E+01 -0.1495137730994E+01  0.0000000000000E+00
-0.1297471036855E+01  0.8924645033579E+00  0.0000000000000E+00
 0.1297471037589E+01  0.8924645030013E+00  0.0000000000000E+00
-0.7500000000000E+00  0.3449934570704E+00  0.0000000000000E+00
 0.7500000000000E+00  0.3449934570704E+00  0.0000000000000E+00
-0.1045000000000E+01 -0.4304044648606E+01  0.0000000000000E+00
-0.9900000000000E+00 -0.4304044648606E+01  0.0000000000000E+00
-0.9350000000000E+00 -0.4304044648606E+01  0.0000000000000E+00
-0.8800000000000E+00 -0.4304044648606E+01  0.0000000000000E+00
-0.8250000000000E+00 -0.4304044648606E+01  0.0000000000000E+00
-0.7700000000000E+00 -0.4304044648606E+01  0.0000000000000E+00
-0.7150000000000E+00 -0.4304044648606E+01  0.0000000000000E+00
-0.6600000000000E+00 -0.4304044648606E+01  0.0000000000000E+00
-0.6050000000000E+00 -0.4304044648606E+01  0.0000000000000E+00
-0.5500000000000E+00 -0.4304044648606E+01  0.0000000000000E+00
-0.4950000000000E+00 -0.4304044648606E+01  0.0000000000000E+00
-0.4400000000000E+00 -0.4304044648606E+01  0.0000000000000E+00
-0.3850000000000E+00 -0.4304044648606E+01  0.0000000000000E+00
-0.3300000000000E+00 -0.4304044648606E+01  0.0000000000000E+00
-0.2750000000000E+00 -0.4304044648606E+01  0.0000000000000E+00
-0.2200000000000E+00 -0.4304044648606E+01  0.0000000000000E+00
-0.1650000000000E+00 -0.4304044648606E+01  0.0000000000000E+00
-0.1100000000000E+00 -0.4304044648606E+01  0.0000000000000E+00
-0.5500000000000E-01 -0.4304044648606E+01  0.0000000000000E+00
 0.5500000000000E-01 -0.4304044648606E+01  0.0000000000000E+00
 0.1100000000000E+00 -0.4304044648606E+01  0.0000000000000E+00
 0.1650000000000E+00 -0.4304044648606E+01  0.0000000000000E+00
 0.2200000000000E+00 -0.4304044648606E+01  0.0000000000000E+00
 0.2750000000000E+00 -0.4304044648606E+01  0.0000000000000E+00
 0.3300000000000E+00 -0.4304044648606E+01  0.0000000000000E+00
 0.3850000000000E+00 -0.4304044648606E+01  0.0000000000000E+00
 0.4400000000000E+00 -0.4304044648606E+01  0.0000000000000E+00
 0.4950000000000E+00 -0.4304044648606E+01  0.0000000000000E+00
 0.5500000000000E+00 -0.4304044648606E+01  0.0000000000000E+00
 0.6050000000000E+00 -0.4304044648606E+01  0.0000000000000E+00
 0.6600000000000E+00 -0.4304044648606E+01  0.0000000000000E+00
 0.7150000000000E+00 -0.4304044648606E+01  0.0000000000000E+00
 0.7700000000000E+00 -0.4304044648606E+01  0.0000000000000E+00
 0.8250000000000E+00 -0.4304044648606E+01  0.0000000000000E+00
 0.8800000000000E+00 -0.4304044648606E+01  0.0000000000000E+00
 0.9350000000000E+00 -0.4304044648606E+01  0.0000000000000E+00
 0.9900000000000E+00 -0.4304044648606E+01  0.0000000000000E+00
 0.1045000000000E+01 -0.4304044648606E+01  0.0000000000000E+00
-0.1355910848380E+01 -0.1476732672072E+01  0.0000000000000E+00
-0.1285259981017E+01 -0.1459205415754E+01  0.0000000000000E+00
-0.1214394584761E+01 -0.1442566916018E+01  0.0000000000000E+00
-0.1143323993112E+01 -0.1426827745365E+01  0.0000000000000E+00
-0.1072058114862E+01 -0.1411998118171E+01  0.0000000000000E+00
-0.1000607103274E+01 -0.1398087786375E+01  0.0000000000000E+00
-0.9289815514207E+00 -0.1385106053576E+01  0.0000000000000E+00
-0.8571924453329E+00 -0.1373061734396E+01  0.0000000000000E+00
-0.7852510794390E+00 -0.1361963112090E+01  0.0000000000000E+00
-0.6422126030433E+00 -0.1342784468384E+01  0.0000000000000E+00
-0.5711435255488E+00 -0.1334684768748E+01  0.0000000000000E+00
-0.4999736369017E+00 -0.1327524435880E+01  0.0000000000000E+00
-0.4287150862649E+00 -0.1321308491716E+01  0.0000000000000E+00
-0.3573801183139E+00 -0.1316041318931E+01  0.0000000000000E+00
-0.2859812157621E+00 -0.1311726660302E+01  0.0000000000000E+00
-0.2145309892672E+00 -0.1308367596678E+01  0.0000000000000E+00
-0.1430421463503E+00 -0.1305966536203E+01  0.0000000000000E+00
-0.7152752388590E-01 -0.1304525207180E+01  0.0000000000000E+00
 0.6896563986558E-08 -0.1304044648606E+01  0.0000000000000E+00
 0.7152753767778E-01 -0.1304525207365E+01  0.0000000000000E+00
 0.1430421601384E+00 -0.1305966536574E+01  0.0000000000000E+00
 0.2145310030492E+00 -0.1308367597233E+01  0.0000000000000E+00
 0.2859812295354E+00 -0.1311726661042E+01  0.0000000000000E+00
 0.3573801320760E+00 -0.1316041319855E+01  0.0000000000000E+00
 0.4287151000135E+00 -0.1321308492824E+01  0.0000000000000E+00
 0.4999736506343E+00 -0.1327524437170E+01  0.0000000000000E+00
 0.5711435392633E+00 -0.1334684770220E+01  0.0000000000000E+00
 0.6422126167371E+00 -0.1342784470036E+01  0.0000000000000E+00
 0.7852510917199E+00 -0.1361963113902E+01  0.0000000000000E+00
 0.8571924562271E+00 -0.1373061736151E+01  0.0000000000000E+00
 0.9289815609321E+00 -0.1385106055236E+01  0.0000000000000E+00
 0.1000607111408E+01 -0.1398087787904E+01  0.0000000000000E+00
 0.1072058121623E+01 -0.1411998119533E+01  0.0000000000000E+00
 0.1143323998507E+01 -0.1426827746523E+01  0.0000000000000E+00
 0.1214394588795E+01 -0.1442566916938E+01  0.0000000000000E+00
 0.1285259983698E+01 -0.1459205416402E+01  0.0000000000000E+00
 0.1355910849717E+01 -0.1476732672412E+01  0.0000000000000E+00
-0.1579712636672E+01 -0.1257117726587E+01  0.0000000000000E+00
-0.1733164540211E+01 -0.1019175933670E+01  0.0000000000000E+00
-0.1854662117542E+01 -0.7635066404071E+00  0.0000000000000E+00
-0.1941975481337E+01 -0.4942606593644E+00  0.0000000000000E+00
-0.1991516502432E+01 -0.2156092846034E+00  0.0000000000000E+00
-0.1998781287050E+01  0.6736447573279E-01  0.0000000000000E+00
-0.1925316867218E+01  0.3385059547416E+00  0.0000000000000E+00
-0.1756248887890E+01  0.5644442091257E+00  0.0000000000000E+00
-0.1540277150090E+01  0.7471961778048E+00  0.0000000000000E+00
-0.1173981215584E+01  0.9468055532948E+00  0.0000000000000E+00
-0.1048246390832E+01  0.9957805369659E+00  0.0000000000000E+00
-0.9216449825030E+00  0.1042480347406E+01  0.0000000000000E+00
-0.7946812217419E+00  0.1088183183765E+01  0.0000000000000E+00
-0.6661180574429E+00  0.1129122063103E+01  0.0000000000000E+00
-0.5354041844713E+00  0.1162549250252E+01  0.0000000000000E+00
-0.4029695874389E+00  0.1188340213072E+01  0.0000000000000E+00
-0.2693161135181E+00  0.1206817739605E+01  0.0000000000000E+00
-0.1348660417516E+00  0.1218121850014E+01  0.0000000000000E+00
 0.4058846663134E-09  0.1222022719718E+01  0.0000000000000E+00
 0.1348660425620E+00  0.1218121849962E+01  0.0000000000000E+00
 0.2693161143243E+00  0.1206817739504E+01  0.0000000000000E+00
 0.4029695882387E+00  0.1188340212925E+01  0.0000000000000E+00
 0.5354041852619E+00  0.1162549250060E+01  0.0000000000000E+00
 0.6661180582227E+00  0.1129122062868E+01  0.0000000000000E+00
 0.7946812225112E+00  0.1088183183495E+01  0.0000000000000E+00
 0.9216449832687E+00  0.1042480347127E+01  0.0000000000000E+00
 0.1048246391595E+01  0.9957805366789E+00  0.0000000000000E+00
 0.1173981216337E+01  0.9468055529829E+00  0.0000000000000E+00
 0.1540277150686E+01  0.7471961773831E+00  0.0000000000000E+00
 0.1756248888337E+01  0.5644442086587E+00  0.0000000000000E+00
 0.1925316867476E+01  0.3385059542402E+00  0.0000000000000E+00
 0.1998781287072E+01  0.6736447525390E-01  0.0000000000000E+00
 0.1991516502379E+01 -0.2156092849952E+00  0.0000000000000E+00
 0.1941975481197E+01 -0.4942606596555E+00  0.0000000000000E+00
 0.1854662117367E+01 -0.7635066405985E+00  0.0000000000000E+00
 0.1733164540072E+01 -0.1019175933786E+01  0.0000000000000E+00
 0.1579712636620E+01 -0.1257117726658E+01  0.0000000000000E+00
-0.1100000000000E+01 -0.4167858878309E+01  0.0000000000000E+00
-0.1100000000000E+01 -0.4031673085110E+01  0.0000000000000E+00
-0.1100000000000E+01 -0.3895487265942E+01  0.0000000000000E+00
-0.1100000000000E+01 -0.3759301447614E+01  0.0000000000000E+00
-0.1100000000000E+01 -0.3623115632099E+01  0.0000000000000E+00
-0.1100000000000E+01 -0.3486929673705E+01  0.0000000000000E+00
-0.1100000000000E+01 -0.3350743588902E+01  0.0000000000000E+00
-0.1100000000000E+01 -0.3214558196319E+01  0.0000000000000E+00
-0.1100000000000E+01 -0.3078372499853E+01  0.0000000000000E+00
-0.1100009219814E+01 -0.2942186831538E+01  0.0000000000000E+00
-0.1101425067002E+01 -0.2806011978909E+01  0.0000000000000E+00
-0.1107601577287E+01 -0.2669976600093E+01  0.0000000000000E+00
-0.1119747344921E+01 -0.2534345262128E+01  0.0000000000000E+00
-0.1137772499496E+01 -0.2399367495624E+01  0.0000000000000E+00
-0.1161564969771E+01 -0.2265287019052E+01  0.0000000000000E+00
-0.1191325563594E+01 -0.2132404467843E+01  0.0000000000000E+00
-0.1226713953463E+01 -0.2000906688008E+01  0.0000000000000E+00
-0.1267386994665E+01 -0.1870945985496E+01  0.0000000000000E+00
-0.1313508982080E+01 -0.1742820021577E+01  0.0000000000000E+00
-0.1365854654983E+01 -0.1617114507943E+01  0.0000000000000E+00
 0.1365854655064E+01 -0.1617114507984E+01  0.0000000000000E+00
 0.1313508982144E+01 -0.1742820021612E+01  0.0000000000000E+00
 0.1267386994709E+01 -0.1870945985522E+01  0.0000000000000E+00
 0.1226713953493E+01 -0.2000906688028E+01  0.0000000000000E+00
 0.1191325563615E+01 -0.2132404467860E+01  0.0000000000000E+00
 0.1161564969779E+01 -0.2265287019065E+01  0.0000000000000E+00
 0.1137772499496E+01 -0.2399367495636E+01  0.0000000000000E+00
 0.1119747344920E+01 -0.2534345262137E+01  0.0000000000000E+00
 0.1107601577287E+01 -0.2669976600103E+01  0.0000000000000E+00
 0.1101425067003E+01 -0.2806011978917E+01  0.0000000000000E+00
 0.1100009219814E+01 -0.2942186831546E+01  0.0000000000000E+00
 0.1100000000000E+01 -0.3078372499860E+01  0.0000000000000E+00
 0.1100000000000E+01 -0.3214558196326E+01  0.0000000000000E+00
 0.1100000000000E+01 -0.3350743588907E+01  0.0000000000000E+00
 0.1100000000000E+01 -0.3486929673709E+01  0.0000000000000E+00
 0.1100000000000E+01 -0.3623115632103E+01  0.0000000000000E+00
 0.1100000000000E+01 -0.3759301447617E+01  0.0000000000000E+00
 0.1100000000000E+01 -0.3895487265945E+01  0.0000000000000E+00
 0.1100000000000E+01 -0.4031673085112E+01  0.0000000000000E+00
 0.1100000000000E+01 -0.4167858878310E+01  0.0000000000000E+00
-0.6764636662017E+00  0.3637314849837E+00  0.0000000000000E+00
-0.6024837198702E+00  0.3806330875003E+00  0.0000000000000E+00
-0.5280996171512E+00  0.3956556459469E+00  0.0000000000000E+00
-0.4533537451325E+00  0.4087600740826E+00  0.0000000000000E+00
-0.3782916751723E+00  0.4199112310808E+00  0.0000000000000E+00
-0.3029616164712E+00  0.4290784607705E+00  0.0000000000000E+00
-0.2274141490083E+00  0.4362360171118E+00  0.0000000000000E+00
-0.1517018295911E+00  0.4413634482121E+00  0.0000000000000E+00
-0.7587874076696E-01  0.4444459110349E+00  0.0000000000000E+00
-0.3330669073875E-15  0.4454744042321E+00  0.0000000000000E+00
 0.7587874076696E-01  0.4444459110349E+00  0.0000000000000E+00
 0.1517018295911E+00  0.4413634482121E+00  0.0000000000000E+00
 0.2274141490083E+00  0.4362360171118E+00  0.0000000000000E+00
 0.3029616164712E+00  0.4290784607705E+00  0.0000000000000E+00
 0.3782916751723E+00  0.4199112310808E+00  0.0000000000000E+00
 0.4533537451325E+00  0.4087600740826E+00  0.0000000000000E+00
 0.5280996171512E+00  0.3956556459469E+00  0.0000000000000E+00
 0.6024837198702E+00  0.3806330875003E+00  0.0000000000000E+00
 0.6764636662017E+00  0.3637314849837E+00  0.0000000000000E+00
-0.7494610908407E+00  0.1752564208624E+00  0.0000000000000E+00
-0.7476230150202E+00  0.5528898378488E-02  0.0000000000000E+00
-0.7441028539882E+00 -0.1641717347835E+00  0.0000000000000E+00
-0.7386208425271E+00 -0.3338203224162E+00  0.0000000000000E+00
-0.7315845453817E+00 -0.5034122306519E+00  0.0000000000000E+00
-0.7245482478836E+00 -0.6730041388732E+00  0.0000000000000E+00
-0.7190662355151E+00 -0.8426527264768E+00  0.0000000000000E+00
-0.7155460732803E+00 -0.1012353359614E+01  0.0000000000000E+00
-0.7137079961342E+00 -0.1182080882084E+01  0.0000000000000E+00
 0.7494610908447E+00  0.1752564207090E+00  0.0000000000000E+00
 0.7476230150664E+00  0.5528898070996E-02  0.0000000000000E+00
 0.7441028541992E+00 -0.1641717352482E+00  0.0000000000000E+00
 0.7386208431973E+00 -0.3338203230495E+00  0.0000000000000E+00
 0.7315845470645E+00 -0.5034122314810E+00  0.0000000000000E+00
 0.7245482512846E+00 -0.6730041399270E+00  0.0000000000000E+00
 0.7190662411903E+00 -0.8426527277573E+00  0.0000000000000E+00
 0.7155460815261E+00 -0.1012353361101E+01  0.0000000000000E+00
 0.7137080070737E+00 -0.1182080883753E+01  0.0000000000000E+00
-0.8047471036855E+00  0.3997405616991E+00  0.0000000000000E+00
-0.8594942073710E+00  0.4544876663279E+00  0.0000000000000E+00
-0.9142413110566E+00  0.5092347709566E+00  0.0000000000000E+00
-0.9689884147421E+00  0.5639818755854E+00  0.0000000000000E+00
-0.1023735518428E+01  0.6187289802141E+00  0.0000000000000E+00
-0.1078482622113E+01  0.6734760848429E+00  0.0000000000000E+00
-0.1133229725799E+01  0.7282231894716E+00  0.0000000000000E+00
-0.1187976829484E+01  0.7829702941004E+00  0.0000000000000E+00
-0.1242723933170E+01  0.8377173987291E+00  0.0000000000000E+00
 0.8047471037588E+00  0.3997405616635E+00  0.0000000000000E+00
 0.8594942075177E+00  0.4544876662566E+00  0.0000000000000E+00
 0.9142413112766E+00  0.5092347708497E+00  0.0000000000000E+00
 0.9689884150354E+00  0.5639818754428E+00  0.0000000000000E+00
 0.1023735518794E+01  0.6187289800359E+00  0.0000000000000E+00
 0.1078482622553E+01  0.6734760846289E+00  0.0000000000000E+00
 0.1133229726312E+01  0.7282231892220E+00  0.0000000000000E+00
 0.1187976830071E+01  0.7829702938151E+00  0.0000000000000E+00
 0.1242723933830E+01  0.8377173984082E+00  0.0000000000000E+00
-0.1045046222997E+01 -0.4166982403859E+01  0.0000000000000E+00
-0.1045092446001E+01 -0.4029920136063E+01  0.0000000000000E+00
-0.1045138669014E+01 -0.3892857842130E+01  0.0000000000000E+00
-0.1045184892027E+01 -0.3755795549043E+01  0.0000000000000E+00
-0.1045231115039E+01 -0.3618733258786E+01  0.0000000000000E+00
-0.1045277338100E+01 -0.3481670824732E+01  0.0000000000000E+00
-0.1045323561203E+01 -0.3344608263454E+01  0.0000000000000E+00
-0.1045369784072E+01 -0.3207546398853E+01  0.0000000000000E+00
-0.1045416007044E+01 -0.3070484228411E+01  0.0000000000000E+00
-0.1045470986539E+01 -0.2933422086301E+01  0.0000000000000E+00
-0.1046861911460E+01 -0.2796370782116E+01  0.0000000000000E+00
-0.1052774281503E+01 -0.2659458994789E+01  0.0000000000000E+00
-0.1064355962771E+01 -0.2522951257624E+01  0.0000000000000E+00
-0.1081521601846E+01 -0.2387097079535E+01  0.0000000000000E+00
-0.1104164757923E+01 -0.2252140197233E+01  0.0000000000000E+00
-0.1132476148650E+01 -0.2118381244796E+01  0.0000000000000E+00
-0.1166132548346E+01 -0.1986007050998E+01  0.0000000000000E+00
-0.1204808054195E+01 -0.1855169932722E+01  0.0000000000000E+00
-0.1248658704703E+01 -0.1726167566747E+01  0.0000000000000E+00
-0.1298420308522E+01 -0.1599585687799E+01  0.0000000000000E+00
-0.9900818008859E+00 -0.4166147731587E+01  0.0000000000000E+00
-0.9901636017856E+00 -0.4028250791379E+01  0.0000000000000E+00
-0.9902454027008E+00 -0.3890353824875E+01  0.0000000000000E+00
-0.9903272036156E+00 -0.3752456859222E+01  0.0000000000000E+00
-0.9904090045286E+00 -0.3614559896416E+01  0.0000000000000E+00
-0.9904908055275E+00 -0.3476662788937E+01  0.0000000000000E+00
-0.9905726066023E+00 -0.3338765553460E+01  0.0000000000000E+00
-0.9906544072614E+00 -0.3200869018902E+01  0.0000000000000E+00
-0.9907362081029E+00 -0.3062972176641E+01  0.0000000000000E+00
-0.9908263021799E+00 -0.2925075362882E+01  0.0000000000000E+00
-0.9921816600285E+00 -0.2787189408229E+01  0.0000000000000E+00
-0.9978192456255E+00 -0.2649443011423E+01  0.0000000000000E+00
-0.1008826196536E+01 -0.2512100673648E+01  0.0000000000000E+00
-0.1025121676066E+01 -0.2375411883154E+01  0.0000000000000E+00
-0.1046604874068E+01 -0.2239620394023E+01  0.0000000000000E+00
-0.1073456417974E+01 -0.2105026839044E+01  0.0000000000000E+00
-0.1105370183713E+01 -0.1971818030576E+01  0.0000000000000E+00
-0.1142037510489E+01 -0.1840146295916E+01  0.0000000000000E+00
-0.1183606180628E+01 -0.1710309326612E+01  0.0000000000000E+00
-0.1230773072450E+01 -0.1582892879321E+01  0.0000000000000E+00
-0.9351071623717E+00 -0.4165355383137E+01  0.0000000000000E+00
-0.9352143247615E+00 -0.4026666094346E+01  0.0000000000000E+00
-0.9353214871716E+00 -0.3887976779108E+01  0.0000000000000E+00
-0.9354286495812E+00 -0.3749287464725E+01  0.0000000000000E+00
-0.9355358119885E+00 -0.3610598153207E+01  0.0000000000000E+00
-0.9356429745082E+00 -0.3471908696183E+01  0.0000000000000E+00
-0.9357501371274E+00 -0.3333219110427E+01  0.0000000000000E+00
-0.9358572992019E+00 -0.3194530229616E+01  0.0000000000000E+00
-0.9359644615155E+00 -0.3055841039335E+01  0.0000000000000E+00
-0.9360794537788E+00 -0.2917151877718E+01  0.0000000000000E+00
-0.9373890284398E+00 -0.2778473595312E+01  0.0000000000000E+00
-0.9427416140514E+00 -0.2639934909666E+01  0.0000000000000E+00
-0.9531636192662E+00 -0.2501800291468E+01  0.0000000000000E+00
-0.9685787238578E+00 -0.2364319209355E+01  0.0000000000000E+00
-0.9888917485491E+00 -0.2227735433899E+01  0.0000000000000E+00
-0.1014273230545E+01 -0.2092349596663E+01  0.0000000000000E+00
-0.1044434147173E+01 -0.1958348494428E+01  0.0000000000000E+00
-0.1079083079785E+01 -0.1825884464371E+01  0.0000000000000E+00
-0.1118359554707E+01 -0.1695255212063E+01  0.0000000000000E+00
-0.1162921520209E+01 -0.1567046514983E+01  0.0000000000000E+00
-0.8801227524380E+00 -0.4164605861986E+01  0.0000000000000E+00
-0.8802455048967E+00 -0.4025167051918E+01  0.0000000000000E+00
-0.8803682573788E+00 -0.3885728215260E+01  0.0000000000000E+00
-0.8804910098601E+00 -0.3746289379463E+01  0.0000000000000E+00
-0.8806137623389E+00 -0.3606850546545E+01  0.0000000000000E+00
-0.8807365149465E+00 -0.3467411567335E+01  0.0000000000000E+00
-0.8808592676680E+00 -0.3327972458697E+01  0.0000000000000E+00
-0.8809820197656E+00 -0.3188534058815E+01  0.0000000000000E+00
-0.8811047721371E+00 -0.3049095347789E+01  0.0000000000000E+00
-0.8812348911742E+00 -0.2909656665581E+01  0.0000000000000E+00
-0.8824889114589E+00 -0.2770228881603E+01  0.0000000000000E+00
-0.8875467262934E+00 -0.2630940731194E+01  0.0000000000000E+00
-0.8973740150205E+00 -0.2492056656196E+01  0.0000000000000E+00
-0.9118989736425E+00 -0.2353826106691E+01  0.0000000000000E+00
-0.9310320539568E+00 -0.2216492868851E+01  0.0000000000000E+00
-0.9549337029221E+00 -0.2080357573080E+01  0.0000000000000E+00
-0.9833319990803E+00 -0.1945607001420E+01  0.0000000000000E+00
-0.1015952766056E+01 -0.1812393500398E+01  0.0000000000000E+00
-0.1052927274348E+01 -0.1681014788849E+01  0.0000000000000E+00
-0.1094874542418E+01 -0.1552056663945E+01  0.0000000000000E+00
-0.8251290423813E+00 -0.4163899654558E+01  0.0000000000000E+00
-0.8252580847842E+00 -0.4023754636942E+01  0.0000000000000E+00
-0.8253871272118E+00 -0.3883609592602E+01  0.0000000000000E+00
-0.8255161696385E+00 -0.3743464549126E+01  0.0000000000000E+00
-0.8256452120626E+00 -0.3603319508545E+01  0.0000000000000E+00
-0.8257742546221E+00 -0.3463174320931E+01  0.0000000000000E+00
-0.8259032973014E+00 -0.3323029003233E+01  0.0000000000000E+00
-0.8260323393247E+00 -0.3182884397881E+01  0.0000000000000E+00
-0.8261613816360E+00 -0.3042739479809E+01  0.0000000000000E+00
-0.8262973273311E+00 -0.2902594590699E+01  0.0000000000000E+00
-0.8274864933868E+00 -0.2762460617739E+01  0.0000000000000E+00
-0.8322402381418E+00 -0.2622466313031E+01  0.0000000000000E+00
-0.8414635112943E+00 -0.2482876091236E+01  0.0000000000000E+00
-0.8550890248433E+00 -0.2343939384954E+01  0.0000000000000E+00
-0.8730328618520E+00 -0.2205899995056E+01  0.0000000000000E+00
-0.8954453790228E+00 -0.2069058550854E+01  0.0000000000000E+00
-0.9220717559223E+00 -0.1933601820502E+01  0.0000000000000E+00
-0.9526550585576E+00 -0.1799682159337E+01  0.0000000000000E+00
-0.9873183017666E+00 -0.1667597298689E+01  0.0000000000000E+00
-0.1026641574463E+01 -0.1537933054292E+01  0.0000000000000E+00
-0.7701265160660E+00 -0.4163237225252E+01  0.0000000000000E+00
-0.7702530321532E+00 -0.4022429778218E+01  0.0000000000000E+00
-0.7703795482645E+00 -0.3881622304334E+01  0.0000000000000E+00
-0.7705060643751E+00 -0.3740814831319E+01  0.0000000000000E+00
-0.7706325804831E+00 -0.3600007361211E+01  0.0000000000000E+00
-0.7707590967238E+00 -0.3459199743377E+01  0.0000000000000E+00
-0.7708856130819E+00 -0.3318391994843E+01  0.0000000000000E+00
-0.7710121287970E+00 -0.3177584962021E+01  0.0000000000000E+00
-0.7711386447943E+00 -0.3036777615003E+01  0.0000000000000E+00
-0.7712716008954E+00 -0.2895970297081E+01  0.0000000000000E+00
-0.7723870966897E+00 -0.2755173912119E+01  0.0000000000000E+00
-0.7768279557508E+00 -0.2614517227940E+01  0.0000000000000E+00
-0.7854383977895E+00 -0.2474264633712E+01  0.0000000000000E+00
-0.7981556505838E+00 -0.2334665545637E+01  0.0000000000000E+00
-0.8149014286464E+00 -0.2195963778370E+01  0.0000000000000E+00
-0.8358159984089E+00 -0.2058459960202E+01  0.0000000000000E+00
-0.8606616402904E+00 -0.1922340846260E+01  0.0000000000000E+00
-0.8891986627916E+00 -0.1787758800143E+01  0.0000000000000E+00
-0.9215418252451E+00 -0.1655011564905E+01  0.0000000000000E+00
-0.9582322872467E+00 -0.1524684973684E+01  0.0000000000000E+00
-0.7151156779294E+00 -0.4162619017118E+01  0.0000000000000E+00
-0.7152313558782E+00 -0.4021193361848E+01  0.0000000000000E+00
-0.7153470338491E+00 -0.3879767679609E+01  0.0000000000000E+00
-0.7154627118192E+00 -0.3738341998242E+01  0.0000000000000E+00
-0.7155783897870E+00 -0.3596916319797E+01  0.0000000000000E+00
-0.7156940678761E+00 -0.3455490492975E+01  0.0000000000000E+00
-0.7158097460726E+00 -0.3314064534880E+01  0.0000000000000E+00
-0.7159254236812E+00 -0.3172639295640E+01  0.0000000000000E+00
-0.7160411015478E+00 -0.3031213740824E+01  0.0000000000000E+00
-0.7161627562398E+00 -0.2889788215231E+01  0.0000000000000E+00
-0.7171962701658E+00 -0.2748373638284E+01  0.0000000000000E+00
-0.7213159323257E+00 -0.2607098792480E+01  0.0000000000000E+00
-0.7293052321208E+00 -0.2466228043196E+01  0.0000000000000E+00
-0.7411059129022E+00 -0.2326010791328E+01  0.0000000000000E+00
-0.7566453208056E+00 -0.2186690864400E+01  0.0000000000000E+00
-0.7760536319784E+00 -0.2048568889744E+01  0.0000000000000E+00
-0.7991102275296E+00 -0.1911831610333E+01  0.0000000000000E+00
-0.8255926585574E+00 -0.1776631397476E+01  0.0000000000000E+00
-0.8556074290363E+00 -0.1643266005168E+01  0.0000000000000E+00
-0.8896567694607E+00 -0.1512321282791E+01  0.0000000000000E+00
-0.6600970509584E+00 -0.4162045449923E+01  0.0000000000000E+00
-0.6601941019331E+00 -0.4020046227361E+01  0.0000000000000E+00
-0.6602911529263E+00 -0.3878046977720E+01  0.0000000000000E+00
-0.6603882039189E+00 -0.3736047728956E+01  0.0000000000000E+00
-0.6604852549095E+00 -0.3594048483124E+01  0.0000000000000E+00
-0.6605823060019E+00 -0.3452049088315E+01  0.0000000000000E+00
-0.6606793571844E+00 -0.3310049561700E+01  0.0000000000000E+00
-0.6607764078736E+00 -0.3168050756855E+01  0.0000000000000E+00
-0.6608734587794E+00 -0.3026051635154E+01  0.0000000000000E+00
-0.6609760232337E+00 -0.2884052542794E+01  0.0000000000000E+00
-0.6619197666746E+00 -0.2742064413634E+01  0.0000000000000E+00
-0.6657104437464E+00 -0.2600216043785E+01  0.0000000000000E+00
-0.6730708132532E+00 -0.2458771776549E+01  0.0000000000000E+00
-0.6839471339256E+00 -0.2317980998624E+01  0.0000000000000E+00
-0.6982723836829E+00 -0.2178087549471E+01  0.0000000000000E+00
-0.7161666483788E+00 -0.2039392055537E+01  0.0000000000000E+00
-0.7374264096551E+00 -0.1902081248514E+01  0.0000000000000E+00
-0.7618464613018E+00 -0.1766307506865E+01  0.0000000000000E+00
-0.7895250520744E+00 -0.1632368594737E+01  0.0000000000000E+00
-0.8209254835783E+00 -0.1500850376583E+01  0.0000000000000E+00
-0.6050711730871E+00 -0.4161516918125E+01  0.0000000000000E+00
-0.6051423461862E+00 -0.4018989163676E+01  0.0000000000000E+00
-0.6052135192989E+00 -0.3876461382048E+01  0.0000000000000E+00
-0.6052846924112E+00 -0.3733933601299E+01  0.0000000000000E+00
-0.6053558655219E+00 -0.3591405823494E+01  0.0000000000000E+00
-0.6054270387074E+00 -0.3448877896157E+01  0.0000000000000E+00
-0.6054982119589E+00 -0.3306349836524E+01  0.0000000000000E+00
-0.6055693848486E+00 -0.3163822501347E+01  0.0000000000000E+00
-0.6056405578972E+00 -0.3021294848134E+01  0.0000000000000E+00
-0.6057167812191E+00 -0.2878767224371E+01  0.0000000000000E+00
-0.6065635034711E+00 -0.2736250577219E+01  0.0000000000000E+00
-0.6100179451307E+00 -0.2593873715334E+01  0.0000000000000E+00
-0.6167421341316E+00 -0.2451900961678E+01  0.0000000000000E+00
-0.6266868444039E+00 -0.2310581689864E+01  0.0000000000000E+00
-0.6397906858014E+00 -0.2170159750353E+01  0.0000000000000E+00
-0.6561636538731E+00 -0.2030935768775E+01  0.0000000000000E+00
-0.6756193306500E+00 -0.1893096466429E+01  0.0000000000000E+00
-0.6979697527023E+00 -0.1756794228372E+01  0.0000000000000E+00
-0.7233049136956E+00 -0.1622326828101E+01  0.0000000000000E+00
-0.7520491865408E+00 -0.1490280143960E+01  0.0000000000000E+00
-0.5500385982869E+00 -0.4161033789916E+01  0.0000000000000E+00
-0.5500771965804E+00 -0.4018022907176E+01  0.0000000000000E+00
-0.5501157948812E+00 -0.3875011997166E+01  0.0000000000000E+00
-0.5501543931817E+00 -0.3732001088037E+01  0.0000000000000E+00
-0.5501929914815E+00 -0.3588990181862E+01  0.0000000000000E+00
-0.5502315898217E+00 -0.3445979125648E+01  0.0000000000000E+00
-0.5502701881978E+00 -0.3302967936690E+01  0.0000000000000E+00
-0.5503087863777E+00 -0.3159957474644E+01  0.0000000000000E+00
-0.5503473846437E+00 -0.3016946693484E+01  0.0000000000000E+00
-0.5503905699093E+00 -0.2873935941872E+01  0.0000000000000E+00
-0.5511335742212E+00 -0.2730936179131E+01  0.0000000000000E+00
-0.5542450840560E+00 -0.2588076225384E+01  0.0000000000000E+00
-0.5603263962216E+00 -0.2445620384998E+01  0.0000000000000E+00
-0.5693327996820E+00 -0.2303818019626E+01  0.0000000000000E+00
-0.5812085363640E+00 -0.2162912989786E+01  0.0000000000000E+00
-0.5960535115026E+00 -0.2023205920360E+01  0.0000000000000E+00
-0.6136984073852E+00 -0.1884883523146E+01  0.0000000000000E+00
-0.6339725034451E+00 -0.1748098189228E+01  0.0000000000000E+00
-0.6569575383771E+00 -0.1613147700654E+01  0.0000000000000E+00
-0.6830389565749E+00 -0.1480617948461E+01  0.0000000000000E+00
-0.4950519026787E+00 -0.4160603604494E+01  0.0000000000000E+00
-0.4951038053660E+00 -0.4017162536260E+01  0.0000000000000E+00
-0.4951557080633E+00 -0.3873721440673E+01  0.0000000000000E+00
-0.4952076107603E+00 -0.3730280345971E+01  0.0000000000000E+00
-0.4952595134562E+00 -0.3586839254232E+01  0.0000000000000E+00
-0.4953114162065E+00 -0.3443398012002E+01  0.0000000000000E+00
-0.4953633190051E+00 -0.3299956636628E+01  0.0000000000000E+00
-0.4954152215398E+00 -0.3156515990354E+01  0.0000000000000E+00
-0.4954671241903E+00 -0.3013075024005E+01  0.0000000000000E+00
-0.4955231551368E+00 -0.2869634087292E+01  0.0000000000000E+00
-0.4962090227682E+00 -0.2726204150367E+01  0.0000000000000E+00
-0.4990265444554E+00 -0.2582914043561E+01  0.0000000000000E+00
-0.5045168879682E+00 -0.2440028054687E+01  0.0000000000000E+00
-0.5126398137999E+00 -0.2297795534748E+01  0.0000000000000E+00
-0.5233451393291E+00 -0.2156460353215E+01  0.0000000000000E+00
-0.5367227792908E+00 -0.2016323134305E+01  0.0000000000000E+00
-0.5526203480869E+00 -0.1877570581358E+01  0.0000000000000E+00
-0.5708841969978E+00 -0.1740355090822E+01  0.0000000000000E+00
-0.5915878905426E+00 -0.1604974452359E+01  0.0000000000000E+00
-0.6150783282135E+00 -0.1472014568309E+01  0.0000000000000E+00
-0.4400598448564E+00 -0.4160217885556E+01  0.0000000000000E+00
-0.4401196897229E+00 -0.4016391098319E+01  0.0000000000000E+00
-0.4401795346009E+00 -0.3872564283656E+01  0.0000000000000E+00
-0.4402393794784E+00 -0.3728737469879E+01  0.0000000000000E+00
-0.4402992243547E+00 -0.3584910659074E+01  0.0000000000000E+00
-0.4403590692938E+00 -0.3441083697373E+01  0.0000000000000E+00
-0.4404189142884E+00 -0.3297256602171E+01  0.0000000000000E+00
-0.4404787589789E+00 -0.3153430238028E+01  0.0000000000000E+00
-0.4405386038029E+00 -0.3009603552950E+01  0.0000000000000E+00
-0.4406021182205E+00 -0.2865776897587E+01  0.0000000000000E+00
-0.4412254871236E+00 -0.2721961251799E+01  0.0000000000000E+00
-0.4437436589671E+00 -0.2578285455073E+01  0.0000000000000E+00
-0.4486376722979E+00 -0.2435013780377E+01  0.0000000000000E+00
-0.4558717590049E+00 -0.2292395569166E+01  0.0000000000000E+00
-0.4654013120275E+00 -0.2150674698937E+01  0.0000000000000E+00
-0.4773062555965E+00 -0.2010151793313E+01  0.0000000000000E+00
-0.4914511361163E+00 -0.1871013548046E+01  0.0000000000000E+00
-0.5076993767752E+00 -0.1733412364399E+01  0.0000000000000E+00
-0.5261163680144E+00 -0.1597646038857E+01  0.0000000000000E+00
-0.5470104645797E+00 -0.1464300483898E+01  0.0000000000000E+00
-0.3850629864597E+00 -0.4159876900567E+01  0.0000000000000E+00
-0.3851259729300E+00 -0.4015709128284E+01  0.0000000000000E+00
-0.3851889594123E+00 -0.3871541328509E+01  0.0000000000000E+00
-0.3852519458942E+00 -0.3727373529624E+01  0.0000000000000E+00
-0.3853149323749E+00 -0.3583205733716E+01  0.0000000000000E+00
-0.3853779189216E+00 -0.3439037786555E+01  0.0000000000000E+00
-0.3854409055267E+00 -0.3294869705576E+01  0.0000000000000E+00
-0.3855038918118E+00 -0.3150702357390E+01  0.0000000000000E+00
-0.3855668782373E+00 -0.3006534687509E+01  0.0000000000000E+00
-0.3856330755550E+00 -0.2862367047411E+01  0.0000000000000E+00
-0.3861891452633E+00 -0.2718210425541E+01  0.0000000000000E+00
-0.3884031669730E+00 -0.2574193669479E+01  0.0000000000000E+00
-0.3926960498090E+00 -0.2430581039070E+01  0.0000000000000E+00
-0.3990364969378E+00 -0.2287621867327E+01  0.0000000000000E+00
-0.4073854769611E+00 -0.2145560038844E+01  0.0000000000000E+00
-0.4178129235952E+00 -0.2004696176717E+01  0.0000000000000E+00
-0.4302003151572E+00 -0.1865216969994E+01  0.0000000000000E+00
-0.4444281468073E+00 -0.1727274824189E+01  0.0000000000000E+00
-0.4605536349915E+00 -0.1591167541823E+01  0.0000000000000E+00
-0.4788465898261E+00 -0.1457481044333E+01  0.0000000000000E+00
-0.3300619056673E+00 -0.4159580888679E+01  0.0000000000000E+00
-0.3301238113451E+00 -0.4015117104458E+01  0.0000000000000E+00
-0.3301857170347E+00 -0.3870653292689E+01  0.0000000000000E+00
-0.3302476227239E+00 -0.3726189481811E+01  0.0000000000000E+00
-0.3303095284118E+00 -0.3581725673917E+01  0.0000000000000E+00
-0.3303714341646E+00 -0.3437261714459E+01  0.0000000000000E+00
-0.3304333399749E+00 -0.3292797620909E+01  0.0000000000000E+00
-0.3304952454706E+00 -0.3148334261655E+01  0.0000000000000E+00
-0.3305571511044E+00 -0.3003870580046E+01  0.0000000000000E+00
-0.3306218089298E+00 -0.2859406928281E+01  0.0000000000000E+00
-0.3311063571750E+00 -0.2714954302256E+01  0.0000000000000E+00
-0.3330120067481E+00 -0.2570641556575E+01  0.0000000000000E+00
-0.3366995372036E+00 -0.2426732939691E+01  0.0000000000000E+00
-0.3421421228802E+00 -0.2283477777292E+01  0.0000000000000E+00
-0.3493063081284E+00 -0.2141119960130E+01  0.0000000000000E+00
-0.3582520361460E+00 -0.1999960110844E+01  0.0000000000000E+00
-0.3688777170754E+00 -0.1860184912661E+01  0.0000000000000E+00
-0.3810809180974E+00 -0.1721946774789E+01  0.0000000000000E+00
-0.3949106817397E+00 -0.1585543504984E+01  0.0000000000000E+00
-0.4105982736091E+00 -0.1451561032464E+01  0.0000000000000E+00
-0.2750571858516E+00 -0.4159330058600E+01  0.0000000000000E+00
-0.2751143717129E+00 -0.4014615444259E+01  0.0000000000000E+00
-0.2751715575851E+00 -0.3869900802322E+01  0.0000000000000E+00
-0.2752287434569E+00 -0.3725186161277E+01  0.0000000000000E+00
-0.2752859293275E+00 -0.3580471523221E+01  0.0000000000000E+00
-0.2753431152582E+00 -0.3435756733339E+01  0.0000000000000E+00
-0.2754003012419E+00 -0.3291041809131E+01  0.0000000000000E+00
-0.2754574869349E+00 -0.3146327620495E+01  0.0000000000000E+00
-0.2755146727556E+00 -0.3001613108943E+01  0.0000000000000E+00
-0.2755741520680E+00 -0.2856898627288E+01  0.0000000000000E+00
-0.2759835399151E+00 -0.2712195177736E+01  0.0000000000000E+00
-0.2775771785720E+00 -0.2567631620847E+01  0.0000000000000E+00
-0.2806557178774E+00 -0.2423472195421E+01  0.0000000000000E+00
-0.2851968032522E+00 -0.2279966220933E+01  0.0000000000000E+00
-0.2911725548721E+00 -0.2137357593360E+01  0.0000000000000E+00
-0.2986329254098E+00 -0.1995946934950E+01  0.0000000000000E+00
-0.3074932567632E+00 -0.1855920924000E+01  0.0000000000000E+00
-0.3176681881805E+00 -0.1717431972844E+01  0.0000000000000E+00
-0.3291985883348E+00 -0.1580777893680E+01  0.0000000000000E+00
-0.3422771784154E+00 -0.1446544622314E+01  0.0000000000000E+00
-0.2200494213304E+00 -0.4159124588568E+01  0.0000000000000E+00
-0.2200988426691E+00 -0.4014204504160E+01  0.0000000000000E+00
-0.2201482640172E+00 -0.3869284392117E+01  0.0000000000000E+00
-0.2201976853651E+00 -0.3724364280968E+01  0.0000000000000E+00
-0.2202471067119E+00 -0.3579444172811E+01  0.0000000000000E+00
-0.2202965281105E+00 -0.3434523912613E+01  0.0000000000000E+00
-0.2203459495550E+00 -0.3289603517898E+01  0.0000000000000E+00
-0.2203953707484E+00 -0.3144683859800E+01  0.0000000000000E+00
-0.2204447920520E+00 -0.2999763878328E+01  0.0000000000000E+00
-0.2204960481482E+00 -0.2854843926793E+01  0.0000000000000E+00
-0.2208272309758E+00 -0.2709935012576E+01  0.0000000000000E+00
-0.2221058142604E+00 -0.2565166001113E+01  0.0000000000000E+00
-0.2245723180114E+00 -0.2420801123295E+01  0.0000000000000E+00
-0.2282088586565E+00 -0.2277089693513E+01  0.0000000000000E+00
-0.2329931322596E+00 -0.2134275612017E+01  0.0000000000000E+00
-0.2389651009641E+00 -0.1992659500741E+01  0.0000000000000E+00
-0.2460570383625E+00 -0.1852428033938E+01  0.0000000000000E+00
-0.2542006558072E+00 -0.1713733626508E+01  0.0000000000000E+00
-0.2634286481713E+00 -0.1576874094283E+01  0.0000000000000E+00
-0.2738951923088E+00 -0.1442435378469E+01  0.0000000000000E+00
-0.1650392126324E+00 -0.4158964625296E+01  0.0000000000000E+00
-0.1650784252713E+00 -0.4013884577590E+01  0.0000000000000E+00
-0.1651176379177E+00 -0.3868804502217E+01  0.0000000000000E+00
-0.1651568505639E+00 -0.3723724427740E+01  0.0000000000000E+00
-0.1651960632093E+00 -0.3578644356259E+01  0.0000000000000E+00
-0.1652352758958E+00 -0.3433564132568E+01  0.0000000000000E+00
-0.1652744886187E+00 -0.3288483774212E+01  0.0000000000000E+00
-0.1653137011423E+00 -0.3143404153285E+01  0.0000000000000E+00
-0.1653529137534E+00 -0.2998324208628E+01  0.0000000000000E+00
-0.1653935024586E+00 -0.2853244293941E+01  0.0000000000000E+00
-0.1656440361591E+00 -0.2708175420631E+01  0.0000000000000E+00
-0.1666051201020E+00 -0.2563246457930E+01  0.0000000000000E+00
-0.1684571443782E+00 -0.2418721630574E+01  0.0000000000000E+00
-0.1711866963610E+00 -0.2274850248994E+01  0.0000000000000E+00
-0.1747770480530E+00 -0.2131876216768E+01  0.0000000000000E+00
-0.1792581710655E+00 -0.1990100155583E+01  0.0000000000000E+00
-0.1845792706359E+00 -0.1849708736549E+01  0.0000000000000E+00
-0.1906891302505E+00 -0.1710854376557E+01  0.0000000000000E+00
-0.1976122710256E+00 -0.1573834894273E+01  0.0000000000000E+00
-0.2054643255476E+00 -0.1439236235106E+01  0.0000000000000E+00
-0.1100271650341E+00 -0.4158850283464E+01  0.0000000000000E+00
-0.1100543300728E+00 -0.4013655893906E+01  0.0000000000000E+00
-0.1100814951167E+00 -0.3868461476660E+01  0.0000000000000E+00
-0.1101086601604E+00 -0.3723267060310E+01  0.0000000000000E+00
-0.1101358252036E+00 -0.3578072646959E+01  0.0000000000000E+00
-0.1101629902752E+00 -0.3432878081278E+01  0.0000000000000E+00
-0.1101901553721E+00 -0.3287683380826E+01  0.0000000000000E+00
-0.1102173203309E+00 -0.3142489418384E+01  0.0000000000000E+00
-0.1102444853503E+00 -0.2997295131957E+01  0.0000000000000E+00
-0.1102725677655E+00 -0.2852100875523E+01  0.0000000000000E+00
-0.1104406134806E+00 -0.2706917663368E+01  0.0000000000000E+00
-0.1110823592933E+00 -0.2561874367437E+01  0.0000000000000E+00
-0.1123180652995E+00 -0.2417235208066E+01  0.0000000000000E+00
-0.1141387897736E+00 -0.2273249492854E+01  0.0000000000000E+00
-0.1165333806953E+00 -0.2130161127761E+01  0.0000000000000E+00
-0.1195218191400E+00 -0.1988270734297E+01  0.0000000000000E+00
-0.1230702419557E+00 -0.1847764981321E+01  0.0000000000000E+00
-0.1271445047865E+00 -0.1708796287153E+01  0.0000000000000E+00
-0.1317609550242E+00 -0.1571662472481E+01  0.0000000000000E+00
-0.1369966810324E+00 -0.1436949485720E+01  0.0000000000000E+00
-0.5501388973120E-01 -0.4158781645376E+01  0.0000000000000E+00
-0.5502777946474E-01 -0.4013518617717E+01  0.0000000000000E+00
-0.5504166920092E-01 -0.3868255562359E+01  0.0000000000000E+00
-0.5505555893702E-01 -0.3722992507896E+01  0.0000000000000E+00
-0.5506944867283E-01 -0.3577729456434E+01  0.0000000000000E+00
-0.5508333842322E-01 -0.3432466252569E+01  0.0000000000000E+00
-0.5509722818649E-01 -0.3287202913870E+01  0.0000000000000E+00
-0.5511111787917E-01 -0.3141940313530E+01  0.0000000000000E+00
-0.5512500760284E-01 -0.2996677389052E+01  0.0000000000000E+00
-0.5513935602430E-01 -0.2851414494581E+01  0.0000000000000E+00
-0.5522368608569E-01 -0.2706162646130E+01  0.0000000000000E+00
-0.5554486617438E-01 -0.2561050717274E+01  0.0000000000000E+00
-0.5616302634812E-01 -0.2416342925707E+01  0.0000000000000E+00
-0.5707369575115E-01 -0.2272288577330E+01  0.0000000000000E+00
-0.5827129836579E-01 -0.2129131579530E+01  0.0000000000000E+00
-0.5976582473046E-01 -0.1987172553712E+01  0.0000000000000E+00
-0.6154034327819E-01 -0.1846598167384E+01  0.0000000000000E+00
-0.6357778182533E-01 -0.1707560839724E+01  0.0000000000000E+00
-0.6588631406154E-01 -0.1570358392634E+01  0.0000000000000E+00
-0.6850448416199E-01 -0.1435576776330E+01  0.0000000000000E+00
 0.2862823369523E-09 -0.4158758760510E+01  0.0000000000000E+00
 0.5725642989217E-09 -0.4013472847981E+01  0.0000000000000E+00
 0.8588466427077E-09 -0.3868186907748E+01  0.0000000000000E+00
 0.1145129137124E-08 -0.3722900968411E+01  0.0000000000000E+00
 0.1431411291690E-08 -0.3577615032075E+01  0.0000000000000E+00
 0.1717693957354E-08 -0.3432328943313E+01  0.0000000000000E+00
 0.2003976567042E-08 -0.3287042719694E+01  0.0000000000000E+00
 0.2290258229023E-08 -0.3141757234552E+01  0.0000000000000E+00
 0.2576540540582E-08 -0.2996471425219E+01  0.0000000000000E+00
 0.2862908882798E-08 -0.2851185645899E+01  0.0000000000000E+00
 0.3153507500703E-08 -0.2705910913180E+01  0.0000000000000E+00
 0.3456098328546E-08 -0.2560776101180E+01  0.0000000000000E+00
 0.3774700689739E-08 -0.2416045426712E+01  0.0000000000000E+00
 0.4110245087960E-08 -0.2271968195110E+01  0.0000000000000E+00
 0.4465088130623E-08 -0.2128788314238E+01  0.0000000000000E+00
 0.4838883325138E-08 -0.1986806405465E+01  0.0000000000000E+00
 0.5225485939100E-08 -0.1846209135851E+01  0.0000000000000E+00
 0.5628719591881E-08 -0.1707148924857E+01  0.0000000000000E+00
 0.6050320966622E-08 -0.1569923594790E+01  0.0000000000000E+00
 0.6487104863030E-08 -0.1435119096470E+01  0.0000000000000E+00
 0.5501389030371E-01 -0.4158781645385E+01  0.0000000000000E+00
 0.5502778060975E-01 -0.4013518617735E+01  0.0000000000000E+00
 0.5504167091844E-01 -0.3868255562385E+01  0.0000000000000E+00
 0.5505556122704E-01 -0.3722992507932E+01  0.0000000000000E+00
 0.5506945153536E-01 -0.3577729456478E+01  0.0000000000000E+00
 0.5508334185825E-01 -0.3432466252622E+01  0.0000000000000E+00
 0.5509723219403E-01 -0.3287202913932E+01  0.0000000000000E+00
 0.5511112245921E-01 -0.3141940313601E+01  0.0000000000000E+00
 0.5512501275539E-01 -0.2996677389131E+01  0.0000000000000E+00
 0.5513936174952E-01 -0.2851414494669E+01  0.0000000000000E+00
 0.5522369239205E-01 -0.2706162646227E+01  0.0000000000000E+00
 0.5554487308587E-01 -0.2561050717381E+01  0.0000000000000E+00
 0.5616303389675E-01 -0.2416342925823E+01  0.0000000000000E+00
 0.5707370397081E-01 -0.2272288577454E+01  0.0000000000000E+00
 0.5827130729508E-01 -0.2129131579663E+01  0.0000000000000E+00
 0.5976583440727E-01 -0.1987172553854E+01  0.0000000000000E+00
 0.6154035372815E-01 -0.1846598167536E+01  0.0000000000000E+00
 0.6357779308170E-01 -0.1707560839884E+01  0.0000000000000E+00
 0.6588632616105E-01 -0.1570358392803E+01  0.0000000000000E+00
 0.6850449713501E-01 -0.1435576776509E+01  0.0000000000000E+00
 0.1100271656065E+00 -0.4158850283482E+01  0.0000000000000E+00
 0.1100543312175E+00 -0.4013655893941E+01  0.0000000000000E+00
 0.1100814968337E+00 -0.3868461476714E+01  0.0000000000000E+00
 0.1101086624497E+00 -0.3723267060381E+01  0.0000000000000E+00
 0.1101358280652E+00 -0.3578072647048E+01  0.0000000000000E+00
 0.1101629937092E+00 -0.3432878081384E+01  0.0000000000000E+00
 0.1101901593784E+00 -0.3287683380950E+01  0.0000000000000E+00
 0.1102173249095E+00 -0.3142489418526E+01  0.0000000000000E+00
 0.1102444905012E+00 -0.2997295132116E+01  0.0000000000000E+00
 0.1102725734889E+00 -0.2852100875700E+01  0.0000000000000E+00
 0.1104406197850E+00 -0.2706917663563E+01  0.0000000000000E+00
 0.1110823662026E+00 -0.2561874367650E+01  0.0000000000000E+00
 0.1123180728459E+00 -0.2417235208296E+01  0.0000000000000E+00
 0.1141387979908E+00 -0.2273249493102E+01  0.0000000000000E+00
 0.1165333896219E+00 -0.2130161128027E+01  0.0000000000000E+00
 0.1195218288140E+00 -0.1988270734580E+01  0.0000000000000E+00
 0.1230702524027E+00 -0.1847764981623E+01  0.0000000000000E+00
 0.1271445160396E+00 -0.1708796287473E+01  0.0000000000000E+00
 0.1317609671203E+00 -0.1571662472820E+01  0.0000000000000E+00
 0.1369966940019E+00 -0.1436949486077E+01  0.0000000000000E+00
 0.1650392132044E+00 -0.4158964625323E+01  0.0000000000000E+00
 0.1650784264154E+00 -0.4013884577643E+01  0.0000000000000E+00
 0.1651176396338E+00 -0.3868804502297E+01  0.0000000000000E+00
 0.1651568528521E+00 -0.3723724427846E+01  0.0000000000000E+00
 0.1651960660695E+00 -0.3578644356392E+01  0.0000000000000E+00
 0.1652352793280E+00 -0.3433564132727E+01  0.0000000000000E+00
 0.1652744926230E+00 -0.3288483774398E+01  0.0000000000000E+00
 0.1653137057186E+00 -0.3143404153498E+01  0.0000000000000E+00
 0.1653529189017E+00 -0.2998324208867E+01  0.0000000000000E+00
 0.1653935081791E+00 -0.2853244294207E+01  0.0000000000000E+00
 0.1656440424602E+00 -0.2708175420923E+01  0.0000000000000E+00
 0.1666051270078E+00 -0.2563246458249E+01  0.0000000000000E+00
 0.1684571519207E+00 -0.2418721630920E+01  0.0000000000000E+00
 0.1711867045741E+00 -0.2274850249366E+01  0.0000000000000E+00
 0.1747770569752E+00 -0.2131876217167E+01  0.0000000000000E+00
 0.1792581807348E+00 -0.1990100156009E+01  0.0000000000000E+00
 0.1845792810779E+00 -0.1849708737001E+01  0.0000000000000E+00
 0.1906891414983E+00 -0.1710854377037E+01  0.0000000000000E+00
 0.1976122831161E+00 -0.1573834894781E+01  0.0000000000000E+00
 0.2054643385111E+00 -0.1439236235641E+01  0.0000000000000E+00
 0.2200494219020E+00 -0.4159124588604E+01  0.0000000000000E+00
 0.2200988438123E+00 -0.4014204504231E+01  0.0000000000000E+00
 0.2201482657321E+00 -0.3869284392223E+01  0.0000000000000E+00
 0.2201976876515E+00 -0.3724364281109E+01  0.0000000000000E+00
 0.2202471095699E+00 -0.3579444172988E+01  0.0000000000000E+00
 0.2202965315402E+00 -0.3434523912825E+01  0.0000000000000E+00
 0.2203459535564E+00 -0.3289603518146E+01  0.0000000000000E+00
 0.2203953753213E+00 -0.3144683860083E+01  0.0000000000000E+00
 0.2204447971965E+00 -0.2999763878646E+01  0.0000000000000E+00
 0.2204960538646E+00 -0.2854843927147E+01  0.0000000000000E+00
 0.2208272372724E+00 -0.2709935012966E+01  0.0000000000000E+00
 0.2221058211612E+00 -0.2565166001538E+01  0.0000000000000E+00
 0.2245723255485E+00 -0.2420801123755E+01  0.0000000000000E+00
 0.2282088668637E+00 -0.2277089694009E+01  0.0000000000000E+00
 0.2329931411755E+00 -0.2134275612548E+01  0.0000000000000E+00
 0.2389651106267E+00 -0.1992659501308E+01  0.0000000000000E+00
 0.2460570487974E+00 -0.1852428034541E+01  0.0000000000000E+00
 0.2542006670476E+00 -0.1713733627147E+01  0.0000000000000E+00
 0.2634286602540E+00 -0.1576874094959E+01  0.0000000000000E+00
 0.2738952052641E+00 -0.1442435379182E+01  0.0000000000000E+00
 0.2750571864227E+00 -0.4159330058645E+01  0.0000000000000E+00
 0.2751143728551E+00 -0.4014615444347E+01  0.0000000000000E+00
 0.2751715592983E+00 -0.3869900802454E+01  0.0000000000000E+00
 0.2752287457413E+00 -0.3725186161454E+01  0.0000000000000E+00
 0.2752859321830E+00 -0.3580471523442E+01  0.0000000000000E+00
 0.2753431186847E+00 -0.3435756733604E+01  0.0000000000000E+00
 0.2754003052395E+00 -0.3291041809440E+01  0.0000000000000E+00
 0.2754574915036E+00 -0.3146327620849E+01  0.0000000000000E+00
 0.2755146778954E+00 -0.3001613109341E+01  0.0000000000000E+00
 0.2755741577791E+00 -0.2856898627730E+01  0.0000000000000E+00
 0.2759835462059E+00 -0.2712195178222E+01  0.0000000000000E+00
 0.2775771854665E+00 -0.2567631621378E+01  0.0000000000000E+00
 0.2806557254076E+00 -0.2423472195995E+01  0.0000000000000E+00
 0.2851968114520E+00 -0.2279966221552E+01  0.0000000000000E+00
 0.2911725637801E+00 -0.2137357594023E+01  0.0000000000000E+00
 0.2986329350640E+00 -0.1995946935658E+01  0.0000000000000E+00
 0.3074932671891E+00 -0.1855920924753E+01  0.0000000000000E+00
 0.3176681994114E+00 -0.1717431973642E+01  0.0000000000000E+00
 0.3291986004074E+00 -0.1580777894524E+01  0.0000000000000E+00
 0.3422771913601E+00 -0.1446544623204E+01  0.0000000000000E+00
 0.3300619062378E+00 -0.4159580888732E+01  0.0000000000000E+00
 0.3301238124860E+00 -0.4015117104564E+01  0.0000000000000E+00
 0.3301857187460E+00 -0.3870653292848E+01  0.0000000000000E+00
 0.3302476250056E+00 -0.3726189482023E+01  0.0000000000000E+00
 0.3303095312640E+00 -0.3581725674181E+01  0.0000000000000E+00
 0.3303714375873E+00 -0.3437261714777E+01  0.0000000000000E+00
 0.3304333439680E+00 -0.3292797621279E+01  0.0000000000000E+00
 0.3304952500341E+00 -0.3148334262079E+01  0.0000000000000E+00
 0.3305571562384E+00 -0.3003870580523E+01  0.0000000000000E+00
 0.3306218146344E+00 -0.2859406928811E+01  0.0000000000000E+00
 0.3311063634587E+00 -0.2714954302838E+01  0.0000000000000E+00
 0.3330120136349E+00 -0.2570641557211E+01  0.0000000000000E+00
 0.3366995447255E+00 -0.2426732940380E+01  0.0000000000000E+00
 0.3421421310710E+00 -0.2283477778033E+01  0.0000000000000E+00
 0.3493063170268E+00 -0.2141119960924E+01  0.0000000000000E+00
 0.3582520457899E+00 -0.1999960111693E+01  0.0000000000000E+00
 0.3688777274904E+00 -0.1860184913564E+01  0.0000000000000E+00
 0.3810809293167E+00 -0.1721946775745E+01  0.0000000000000E+00
 0.3949106938001E+00 -0.1585543505997E+01  0.0000000000000E+00
 0.4105982865409E+00 -0.1451561033531E+01  0.0000000000000E+00
 0.3850629870294E+00 -0.4159876900628E+01  0.0000000000000E+00
 0.3851259740694E+00 -0.4015709128407E+01  0.0000000000000E+00
 0.3851889611214E+00 -0.3871541328694E+01  0.0000000000000E+00
 0.3852519481730E+00 -0.3727373529871E+01  0.0000000000000E+00
 0.3853149352233E+00 -0.3583205734024E+01  0.0000000000000E+00
 0.3853779223397E+00 -0.3439037786925E+01  0.0000000000000E+00
 0.3854409095145E+00 -0.3294869706008E+01  0.0000000000000E+00
 0.3855038963692E+00 -0.3150702357884E+01  0.0000000000000E+00
 0.3855668833645E+00 -0.3006534688064E+01  0.0000000000000E+00
 0.3856330812520E+00 -0.2862367048028E+01  0.0000000000000E+00
 0.3861891515386E+00 -0.2718210426220E+01  0.0000000000000E+00
 0.3884031738507E+00 -0.2574193670220E+01  0.0000000000000E+00
 0.3926960573210E+00 -0.2430581039871E+01  0.0000000000000E+00
 0.3990365051180E+00 -0.2287621868191E+01  0.0000000000000E+00
 0.4073854858481E+00 -0.2145560039770E+01  0.0000000000000E+00
 0.4178129332270E+00 -0.2004696177705E+01  0.0000000000000E+00
 0.4302003255592E+00 -0.1865216971045E+01  0.0000000000000E+00
 0.4444281580129E+00 -0.1727274825304E+01  0.0000000000000E+00
 0.4605536470375E+00 -0.1591167543002E+01  0.0000000000000E+00
 0.4788466027428E+00 -0.1457481045576E+01  0.0000000000000E+00
 0.4400598454253E+00 -0.4160217885626E+01  0.0000000000000E+00
 0.4401196908606E+00 -0.4016391098460E+01  0.0000000000000E+00
 0.4401795363073E+00 -0.3872564283867E+01  0.0000000000000E+00
 0.4402393817537E+00 -0.3728737470161E+01  0.0000000000000E+00
 0.4402992271988E+00 -0.3584910659426E+01  0.0000000000000E+00
 0.4403590727067E+00 -0.3441083697795E+01  0.0000000000000E+00
 0.4404189182702E+00 -0.3297256602663E+01  0.0000000000000E+00
 0.4404787635294E+00 -0.3153430238591E+01  0.0000000000000E+00
 0.4405386089222E+00 -0.3009603553584E+01  0.0000000000000E+00
 0.4406021239088E+00 -0.2865776898291E+01  0.0000000000000E+00
 0.4412254933894E+00 -0.2721961252573E+01  0.0000000000000E+00
 0.4437436658343E+00 -0.2578285455918E+01  0.0000000000000E+00
 0.4486376797985E+00 -0.2435013781291E+01  0.0000000000000E+00
 0.4558717671729E+00 -0.2292395570152E+01  0.0000000000000E+00
 0.4654013209015E+00 -0.2150674699993E+01  0.0000000000000E+00
 0.4773062652143E+00 -0.2010151794440E+01  0.0000000000000E+00
 0.4914511465035E+00 -0.1871013549246E+01  0.0000000000000E+00
 0.5076993879652E+00 -0.1733412365671E+01  0.0000000000000E+00
 0.5261163800438E+00 -0.1597646040203E+01  0.0000000000000E+00
 0.5470104774790E+00 -0.1464300485316E+01  0.0000000000000E+00
 0.4950519032465E+00 -0.4160603604573E+01  0.0000000000000E+00
 0.4951038065017E+00 -0.4017162536418E+01  0.0000000000000E+00
 0.4951557097668E+00 -0.3873721440910E+01  0.0000000000000E+00
 0.4952076130316E+00 -0.3730280346287E+01  0.0000000000000E+00
 0.4952595162954E+00 -0.3586839254627E+01  0.0000000000000E+00
 0.4953114196136E+00 -0.3443398012476E+01  0.0000000000000E+00
 0.4953633229799E+00 -0.3299956637182E+01  0.0000000000000E+00
 0.4954152260825E+00 -0.3156515990986E+01  0.0000000000000E+00
 0.4954671293008E+00 -0.3013075024716E+01  0.0000000000000E+00
 0.4955231608153E+00 -0.2869634088082E+01  0.0000000000000E+00
 0.4962090290232E+00 -0.2726204151236E+01  0.0000000000000E+00
 0.4990265513109E+00 -0.2582914044509E+01  0.0000000000000E+00
 0.5045168954561E+00 -0.2440028055714E+01  0.0000000000000E+00
 0.5126398219542E+00 -0.2297795535855E+01  0.0000000000000E+00
 0.5233451481883E+00 -0.2156460354401E+01  0.0000000000000E+00
 0.5367227888929E+00 -0.2016323135572E+01  0.0000000000000E+00
 0.5526203584575E+00 -0.1877570582705E+01  0.0000000000000E+00
 0.5708842081701E+00 -0.1740355092250E+01  0.0000000000000E+00
 0.5915879025534E+00 -0.1604974453869E+01  0.0000000000000E+00
 0.6150783410931E+00 -0.1472014569901E+01  0.0000000000000E+00
 0.5500385988537E+00 -0.4161033790003E+01  0.0000000000000E+00
 0.5500771977139E+00 -0.4018022907351E+01  0.0000000000000E+00
 0.5501157965814E+00 -0.3875011997428E+01  0.0000000000000E+00
 0.5501543954487E+00 -0.3732001088388E+01  0.0000000000000E+00
 0.5501929943152E+00 -0.3588990182300E+01  0.0000000000000E+00
 0.5502315932222E+00 -0.3445979126174E+01  0.0000000000000E+00
 0.5502701921651E+00 -0.3302967937304E+01  0.0000000000000E+00
 0.5503087909117E+00 -0.3159957475345E+01  0.0000000000000E+00
 0.5503473897445E+00 -0.3016946694273E+01  0.0000000000000E+00
 0.5503905755770E+00 -0.2873935942748E+01  0.0000000000000E+00
 0.5511335804643E+00 -0.2730936180095E+01  0.0000000000000E+00
 0.5542450908984E+00 -0.2588076226435E+01  0.0000000000000E+00
 0.5603264036954E+00 -0.2445620386136E+01  0.0000000000000E+00
 0.5693328078211E+00 -0.2303818020853E+01  0.0000000000000E+00
 0.5812085452069E+00 -0.2162912991101E+01  0.0000000000000E+00
 0.5960535210873E+00 -0.2023205921764E+01  0.0000000000000E+00
 0.6136984177373E+00 -0.1884883524639E+01  0.0000000000000E+00
 0.6339725145979E+00 -0.1748098190811E+01  0.0000000000000E+00
 0.6569575503672E+00 -0.1613147702329E+01  0.0000000000000E+00
 0.6830389694328E+00 -0.1480617950226E+01  0.0000000000000E+00
 0.6050711735961E+00 -0.4161516918212E+01  0.0000000000000E+00
 0.6051423472042E+00 -0.4018989163849E+01  0.0000000000000E+00
 0.6052135208259E+00 -0.3876461382308E+01  0.0000000000000E+00
 0.6052846944471E+00 -0.3733933601646E+01  0.0000000000000E+00
 0.6053558680668E+00 -0.3591405823928E+01  0.0000000000000E+00
 0.6054270417613E+00 -0.3448877896677E+01  0.0000000000000E+00
 0.6054982155217E+00 -0.3306349837131E+01  0.0000000000000E+00
 0.6055693889205E+00 -0.3163822502041E+01  0.0000000000000E+00
 0.6056405624780E+00 -0.3021294848915E+01  0.0000000000000E+00
 0.6057167863091E+00 -0.2878767225238E+01  0.0000000000000E+00
 0.6065635090779E+00 -0.2736250578173E+01  0.0000000000000E+00
 0.6100179512757E+00 -0.2593873716375E+01  0.0000000000000E+00
 0.6167421408437E+00 -0.2451900962805E+01  0.0000000000000E+00
 0.6266868517137E+00 -0.2310581691079E+01  0.0000000000000E+00
 0.6397906937444E+00 -0.2170159751654E+01  0.0000000000000E+00
 0.6561636624840E+00 -0.2030935770165E+01  0.0000000000000E+00
 0.6756193399513E+00 -0.1893096467907E+01  0.0000000000000E+00
 0.6979697627244E+00 -0.1756794229939E+01  0.0000000000000E+00
 0.7233049244723E+00 -0.1622326829760E+01  0.0000000000000E+00
 0.7520491980992E+00 -0.1490280145708E+01  0.0000000000000E+00
 0.6600970514097E+00 -0.4162045450007E+01  0.0000000000000E+00
 0.6601941028358E+00 -0.4020046227529E+01  0.0000000000000E+00
 0.6602911542804E+00 -0.3878046977972E+01  0.0000000000000E+00
 0.6603882057244E+00 -0.3736047729292E+01  0.0000000000000E+00
 0.6604852571663E+00 -0.3594048483544E+01  0.0000000000000E+00
 0.6605823087101E+00 -0.3452049088819E+01  0.0000000000000E+00
 0.6606793603440E+00 -0.3310049562288E+01  0.0000000000000E+00
 0.6607764114846E+00 -0.3168050757527E+01  0.0000000000000E+00
 0.6608734628417E+00 -0.3026051635910E+01  0.0000000000000E+00
 0.6609760277476E+00 -0.2884052543634E+01  0.0000000000000E+00
 0.6619197716469E+00 -0.2742064414558E+01  0.0000000000000E+00
 0.6657104491960E+00 -0.2600216044793E+01  0.0000000000000E+00
 0.6730708192057E+00 -0.2458771777641E+01  0.0000000000000E+00
 0.6839471404084E+00 -0.2317980999801E+01  0.0000000000000E+00
 0.6982723907284E+00 -0.2178087550732E+01  0.0000000000000E+00
 0.7161666560184E+00 -0.2039392056884E+01  0.0000000000000E+00
 0.7374264179084E+00 -0.1902081249946E+01  0.0000000000000E+00
 0.7618464701962E+00 -0.1766307508384E+01  0.0000000000000E+00
 0.7895250616408E+00 -0.1632368596345E+01  0.0000000000000E+00
 0.8209254938403E+00 -0.1500850378279E+01  0.0000000000000E+00
 0.7151156783233E+00 -0.4162619017198E+01  0.0000000000000E+00
 0.7152313566661E+00 -0.4021193362007E+01  0.0000000000000E+00
 0.7153470350309E+00 -0.3879767679848E+01  0.0000000000000E+00
 0.7154627133950E+00 -0.3738341998561E+01  0.0000000000000E+00
 0.7155783917567E+00 -0.3596916320194E+01  0.0000000000000E+00
 0.7156940702398E+00 -0.3455490493452E+01  0.0000000000000E+00
 0.7158097488303E+00 -0.3314064535437E+01  0.0000000000000E+00
 0.7159254268328E+00 -0.3172639296277E+01  0.0000000000000E+00
 0.7160411050934E+00 -0.3031213741540E+01  0.0000000000000E+00
 0.7161627601794E+00 -0.2889788216026E+01  0.0000000000000E+00
 0.7171962745057E+00 -0.2748373639159E+01  0.0000000000000E+00
 0.7213159370821E+00 -0.2607098793435E+01  0.0000000000000E+00
 0.7293052373161E+00 -0.2466228044230E+01  0.0000000000000E+00
 0.7411059185607E+00 -0.2326010792442E+01  0.0000000000000E+00
 0.7566453269564E+00 -0.2186690865594E+01  0.0000000000000E+00
 0.7760536386498E+00 -0.2048568891020E+01  0.0000000000000E+00
 0.7991102347380E+00 -0.1911831611690E+01  0.0000000000000E+00
 0.8255926663275E+00 -0.1776631398915E+01  0.0000000000000E+00
 0.8556074373960E+00 -0.1643266006692E+01  0.0000000000000E+00
 0.8896567784302E+00 -0.1512321284399E+01  0.0000000000000E+00
 0.7701265164027E+00 -0.4163237225325E+01  0.0000000000000E+00
 0.7702530328267E+00 -0.4022429778365E+01  0.0000000000000E+00
 0.7703795492748E+00 -0.3881622304554E+01  0.0000000000000E+00
 0.7705060657221E+00 -0.3740814831612E+01  0.0000000000000E+00
 0.7706325821669E+00 -0.3600007361578E+01  0.0000000000000E+00
 0.7707590987443E+00 -0.3459199743817E+01  0.0000000000000E+00
 0.7708856154392E+00 -0.3318391995356E+01  0.0000000000000E+00
 0.7710121314910E+00 -0.3177584962608E+01  0.0000000000000E+00
 0.7711386478251E+00 -0.3036777615663E+01  0.0000000000000E+00
 0.7712716042631E+00 -0.2895970297815E+01  0.0000000000000E+00
 0.7723871003997E+00 -0.2755173912926E+01  0.0000000000000E+00
 0.7768279598168E+00 -0.2614517228821E+01  0.0000000000000E+00
 0.7854384022306E+00 -0.2474264634665E+01  0.0000000000000E+00
 0.7981556554211E+00 -0.2334665546664E+01  0.0000000000000E+00
 0.8149014339060E+00 -0.2195963779472E+01  0.0000000000000E+00
 0.8358160041157E+00 -0.2058459961379E+01  0.0000000000000E+00
 0.8606616464579E+00 -0.1922340847513E+01  0.0000000000000E+00
 0.8891986694414E+00 -0.1787758801471E+01  0.0000000000000E+00
 0.9215418324023E+00 -0.1655011566313E+01  0.0000000000000E+00
 0.9582322949282E+00 -0.1524684975170E+01  0.0000000000000E+00
 0.8251290426611E+00 -0.4163899654623E+01  0.0000000000000E+00
 0.8252580853438E+00 -0.4023754637073E+01  0.0000000000000E+00
 0.8253871280512E+00 -0.3883609592798E+01  0.0000000000000E+00
 0.8255161707578E+00 -0.3743464549388E+01  0.0000000000000E+00
 0.8256452134617E+00 -0.3603319508872E+01  0.0000000000000E+00
 0.8257742563010E+00 -0.3463174321324E+01  0.0000000000000E+00
 0.8259032992601E+00 -0.3323029003691E+01  0.0000000000000E+00
 0.8260323415633E+00 -0.3182884398404E+01  0.0000000000000E+00
 0.8261613841544E+00 -0.3042739480398E+01  0.0000000000000E+00
 0.8262973301294E+00 -0.2902594591353E+01  0.0000000000000E+00
 0.8274864964698E+00 -0.2762460618459E+01  0.0000000000000E+00
 0.8322402415205E+00 -0.2622466313816E+01  0.0000000000000E+00
 0.8414635149845E+00 -0.2482876092086E+01  0.0000000000000E+00
 0.8550890288630E+00 -0.2343939385871E+01  0.0000000000000E+00
 0.8730328662242E+00 -0.2205899996038E+01  0.0000000000000E+00
 0.8954453837691E+00 -0.2069058551904E+01  0.0000000000000E+00
 0.9220717610531E+00 -0.1933601821620E+01  0.0000000000000E+00
 0.9526550640919E+00 -0.1799682160523E+01  0.0000000000000E+00
 0.9873183077263E+00 -0.1667597299948E+01  0.0000000000000E+00
 0.1026641580862E+01 -0.1537933055620E+01  0.0000000000000E+00
 0.8801227526612E+00 -0.4164605862042E+01  0.0000000000000E+00
 0.8802455053430E+00 -0.4025167052030E+01  0.0000000000000E+00
 0.8803682580483E+00 -0.3885728215428E+01  0.0000000000000E+00
 0.8804910107528E+00 -0.3746289379686E+01  0.0000000000000E+00
 0.8806137634548E+00 -0.3606850546824E+01  0.0000000000000E+00
 0.8807365162855E+00 -0.3467411567670E+01  0.0000000000000E+00
 0.8808592692302E+00 -0.3327972459088E+01  0.0000000000000E+00
 0.8809820215509E+00 -0.3188534059261E+01  0.0000000000000E+00
 0.8811047741456E+00 -0.3049095348291E+01  0.0000000000000E+00
 0.8812348934061E+00 -0.2909656666139E+01  0.0000000000000E+00
 0.8824889139179E+00 -0.2770228882217E+01  0.0000000000000E+00
 0.8875467289882E+00 -0.2630940731864E+01  0.0000000000000E+00
 0.8973740179636E+00 -0.2492056656920E+01  0.0000000000000E+00
 0.9118989768486E+00 -0.2353826107473E+01  0.0000000000000E+00
 0.9310320574458E+00 -0.2216492869689E+01  0.0000000000000E+00
 0.9549337067125E+00 -0.2080357573977E+01  0.0000000000000E+00
 0.9833320031794E+00 -0.1945607002375E+01  0.0000000000000E+00
 0.1015952770480E+01 -0.1812393501412E+01  0.0000000000000E+00
 0.1052927279116E+01 -0.1681014789925E+01  0.0000000000000E+00
 0.1094874547539E+01 -0.1552056665082E+01  0.0000000000000E+00
 0.9351071625386E+00 -0.4165355383182E+01  0.0000000000000E+00
 0.9352143250951E+00 -0.4026666094435E+01  0.0000000000000E+00
 0.9353214876721E+00 -0.3887976779241E+01  0.0000000000000E+00
 0.9354286502485E+00 -0.3749287464903E+01  0.0000000000000E+00
 0.9355358128226E+00 -0.3610598153429E+01  0.0000000000000E+00
 0.9356429755092E+00 -0.3471908696450E+01  0.0000000000000E+00
 0.9357501382952E+00 -0.3333219110738E+01  0.0000000000000E+00
 0.9358573005366E+00 -0.3194530229972E+01  0.0000000000000E+00
 0.9359644630170E+00 -0.3055841039736E+01  0.0000000000000E+00
 0.9360794554472E+00 -0.2917151878163E+01  0.0000000000000E+00
 0.9373890302784E+00 -0.2778473595801E+01  0.0000000000000E+00
 0.9427416160660E+00 -0.2639934910201E+01  0.0000000000000E+00
 0.9531636214662E+00 -0.2501800292046E+01  0.0000000000000E+00
 0.9685787262547E+00 -0.2364319209979E+01  0.0000000000000E+00
 0.9888917511598E+00 -0.2227735434568E+01  0.0000000000000E+00
 0.1014273233385E+01 -0.2092349597379E+01  0.0000000000000E+00
 0.1044434150246E+01 -0.1958348495191E+01  0.0000000000000E+00
 0.1079083083104E+01 -0.1825884465182E+01  0.0000000000000E+00
 0.1118359558289E+01 -0.1695255212926E+01  0.0000000000000E+00
 0.1162921524060E+01 -0.1567046515895E+01  0.0000000000000E+00
 0.9900818009967E+00 -0.4166147731619E+01  0.0000000000000E+00
 0.9901636020073E+00 -0.4028250791442E+01  0.0000000000000E+00
 0.9902454030334E+00 -0.3890353824970E+01  0.0000000000000E+00
 0.9903272040590E+00 -0.3752456859348E+01  0.0000000000000E+00
 0.9904090050829E+00 -0.3614559896574E+01  0.0000000000000E+00
 0.9904908061926E+00 -0.3476662789126E+01  0.0000000000000E+00
 0.9905726073782E+00 -0.3338765553681E+01  0.0000000000000E+00
 0.9906544081481E+00 -0.3200869019154E+01  0.0000000000000E+00
 0.9907362091005E+00 -0.3062972176925E+01  0.0000000000000E+00
 0.9908263032885E+00 -0.2925075363198E+01  0.0000000000000E+00
 0.9921816612505E+00 -0.2787189408576E+01  0.0000000000000E+00
 0.9978192469641E+00 -0.2649443011802E+01  0.0000000000000E+00
 0.1008826197998E+01 -0.2512100674057E+01  0.0000000000000E+00
 0.1025121677659E+01 -0.2375411883596E+01  0.0000000000000E+00
 0.1046604875805E+01 -0.2239620394497E+01  0.0000000000000E+00
 0.1073456419869E+01 -0.2105026839552E+01  0.0000000000000E+00
 0.1105370185765E+01 -0.1971818031119E+01  0.0000000000000E+00
 0.1142037512709E+01 -0.1840146296494E+01  0.0000000000000E+00
 0.1183606183030E+01 -0.1710309327229E+01  0.0000000000000E+00
 0.1230773075037E+01 -0.1582892879975E+01  0.0000000000000E+00
 0.1045046223052E+01 -0.4166982403876E+01  0.0000000000000E+00
 0.1045092446112E+01 -0.4029920136097E+01  0.0000000000000E+00
 0.1045138669180E+01 -0.3892857842181E+01  0.0000000000000E+00
 0.1045184892248E+01 -0.3755795549111E+01  0.0000000000000E+00
 0.1045231115316E+01 -0.3618733258871E+01  0.0000000000000E+00
 0.1045277338431E+01 -0.3481670824833E+01  0.0000000000000E+00
 0.1045323561590E+01 -0.3344608263573E+01  0.0000000000000E+00
 0.1045369784514E+01 -0.3207546398988E+01  0.0000000000000E+00
 0.1045416007541E+01 -0.3070484228564E+01  0.0000000000000E+00
 0.1045470987091E+01 -0.2933422086471E+01  0.0000000000000E+00
 0.1046861912070E+01 -0.2796370782303E+01  0.0000000000000E+00
 0.1052774282170E+01 -0.2659458994993E+01  0.0000000000000E+00
 0.1064355963499E+01 -0.2522951257843E+01  0.0000000000000E+00
 0.1081521602640E+01 -0.2387097079773E+01  0.0000000000000E+00
 0.1104164758793E+01 -0.2252140197489E+01  0.0000000000000E+00
 0.1132476149605E+01 -0.2118381245072E+01  0.0000000000000E+00
 0.1166132549384E+01 -0.1986007051293E+01  0.0000000000000E+00
 0.1204808055323E+01 -0.1855169933038E+01  0.0000000000000E+00
 0.1248658705933E+01 -0.1726167567089E+01  0.0000000000000E+00
 0.1298420309852E+01 -0.1599585688162E+01  0.0000000000000E+00
-0.6428079475289E+00 -0.1172076972089E+01  0.0000000000000E+00
-0.6445725414276E+00 -0.1001378991910E+01  0.0000000000000E+00
-0.6478510113258E+00 -0.8307079029823E+00  0.0000000000000E+00
-0.6528951459130E+00 -0.6600888595986E+00  0.0000000000000E+00
-0.6593381371986E+00 -0.4895264917391E+00  0.0000000000000E+00
-0.6657811281315E+00 -0.3189641238667E+00  0.0000000000000E+00
-0.6708252618112E+00 -0.1483450804569E+00  0.0000000000000E+00
-0.6741037305066E+00  0.2232600849347E-01  0.0000000000000E+00
-0.6758683230797E+00  0.1930239886852E+00  0.0000000000000E+00
-0.5717622019252E+00 -0.1163097080089E+01  0.0000000000000E+00
-0.5734202106823E+00 -0.9915189097050E+00  0.0000000000000E+00
-0.5764238865398E+00 -0.8199676323119E+00  0.0000000000000E+00
-0.5809970417873E+00 -0.6484684004727E+00  0.0000000000000E+00
-0.5868136252857E+00 -0.4770258406587E+00  0.0000000000000E+00
-0.5926302084314E+00 -0.3055832808331E+00  0.0000000000000E+00
-0.5972033627714E+00 -0.1340840489707E+00  0.0000000000000E+00
-0.6002070374260E+00  0.3746722844213E-01  0.0000000000000E+00
-0.6018650448575E+00  0.2090453988374E+00  0.0000000000000E+00
-0.5005853102949E+00 -0.1155150522808E+01  0.0000000000000E+00
-0.5021063992260E+00 -0.9827861299403E+00  0.0000000000000E+00
-0.5048049465676E+00 -0.8104486316177E+00  0.0000000000000E+00
-0.5088767881748E+00 -0.6381631788575E+00  0.0000000000000E+00
-0.5140366296026E+00 -0.4659343949968E+00  0.0000000000000E+00
-0.5191964706777E+00 -0.2937056111261E+00  0.0000000000000E+00
-0.5232683113774E+00 -0.1214201583456E+00  0.0000000000000E+00
-0.5259668575162E+00  0.5091733999426E-01  0.0000000000000E+00
-0.5274879451216E+00  0.2232817328716E+00  0.0000000000000E+00
-0.4292924458054E+00 -0.1148245728622E+01  0.0000000000000E+00
-0.4306493041388E+00 -0.9751924874222E+00  0.0000000000000E+00
-0.4330154122864E+00 -0.8021661421289E+00  0.0000000000000E+00
-0.4365586296214E+00 -0.6291918424054E+00  0.0000000000000E+00
-0.4410344182749E+00 -0.4562742088428E+00  0.0000000000000E+00
-0.4455102065756E+00 -0.2833565752716E+00  0.0000000000000E+00
-0.4490534230032E+00 -0.1103822755307E+00  0.0000000000000E+00
-0.4514195299479E+00  0.6264406977736E-01  0.0000000000000E+00
-0.4527763869556E+00  0.2356973109854E+00  0.0000000000000E+00
-0.3578991857854E+00 -0.1142390156027E+01  0.0000000000000E+00
-0.3590678354036E+00 -0.9687485164622E+00  0.0000000000000E+00
-0.3610775263391E+00 -0.7951337739660E+00  0.0000000000000E+00
-0.3640681414448E+00 -0.6215710770455E+00  0.0000000000000E+00
-0.3678358993193E+00 -0.4480650439469E+00  0.0000000000000E+00
-0.3716036568411E+00 -0.2745590108411E+00  0.0000000000000E+00
-0.3745942710393E+00 -0.1009963139061E+00  0.0000000000000E+00
-0.3766039607719E+00  0.7261842860244E-01  0.0000000000000E+00
-0.3777726090644E+00  0.2462600681747E+00  0.0000000000000E+00
-0.2864215855890E+00 -0.1137590239147E+01  0.0000000000000E+00
-0.2873816210134E+00 -0.9634633425220E+00  0.0000000000000E+00
-0.2890144893591E+00 -0.7893633439243E+00  0.0000000000000E+00
-0.2914320969289E+00 -0.6153153909072E+00  0.0000000000000E+00
-0.2944714186929E+00 -0.4413240997829E+00  0.0000000000000E+00
-0.2975107401042E+00 -0.2673328086529E+00  0.0000000000000E+00
-0.2999283467665E+00 -0.9328485562423E-01  0.0000000000000E+00
-0.3015612139093E+00  0.8081514298333E-01  0.0000000000000E+00
-0.3025212480080E+00  0.2549420396143E+00  0.0000000000000E+00
-0.2148760528319E+00 -0.1133851325356E+01  0.0000000000000E+00
-0.2156108655255E+00 -0.9593445794947E+00  0.0000000000000E+00
-0.2168503028290E+00 -0.7848647324114E+00  0.0000000000000E+00
-0.2186782944709E+00 -0.6104369309123E+00  0.0000000000000E+00
-0.2209725717140E+00 -0.4360657897959E+00  0.0000000000000E+00
-0.2232668486044E+00 -0.2616946486752E+00  0.0000000000000E+00
-0.2250948393388E+00 -0.8726684716740E-01  0.0000000000000E+00
-0.2263342754395E+00  0.8721299992331E-01  0.0000000000000E+00
-0.2270690868073E+00  0.2617197457887E+00  0.0000000000000E+00
-0.1432792800287E+00 -0.1131177627176E+01  0.0000000000000E+00
-0.1437762464154E+00 -0.9563982442783E+00  0.0000000000000E+00
-0.1446096291476E+00 -0.7816457606963E+00  0.0000000000000E+00
-0.1458353813581E+00 -0.6069453227008E+00  0.0000000000000E+00
-0.1473719905470E+00 -0.4323015440042E+00  0.0000000000000E+00
-0.1489085993831E+00 -0.2576577653047E+00  0.0000000000000E+00
-0.1501343506860E+00 -0.8295732730341E-01  0.0000000000000E+00
-0.1509677322153E+00  0.9179515628351E-01  0.0000000000000E+00
-0.1514646972764E+00  0.2665745391843E+00  0.0000000000000E+00
-0.7164822860673E-01 -0.1129572184387E+01  0.0000000000000E+00
-0.7189884966313E-01 -0.9546286881243E+00  0.0000000000000E+00
-0.7231767885223E-01 -0.7797120915013E+00  0.0000000000000E+00
-0.7293269270050E-01 -0.6048475404658E+00  0.0000000000000E+00
-0.7370313490275E-01 -0.4300396480768E+00  0.0000000000000E+00
-0.7447357675223E-01 -0.2552317556864E+00  0.0000000000000E+00
-0.7508858969298E-01 -0.8036720464800E-01  0.0000000000000E+00
-0.7550741767918E-01  0.9454939197745E-01  0.0000000000000E+00
-0.7575803740985E-01  0.2694928882412E+00  0.0000000000000E+00
 0.5524736011661E-08 -0.1129036832222E+01  0.0000000000000E+00
 0.4171790811275E-08 -0.9540385425029E+00  0.0000000000000E+00
 0.2880364772908E-08 -0.7790671525299E+00  0.0000000000000E+00
 0.1737109607311E-08 -0.6041478081441E+00  0.0000000000000E+00
 0.8719450676882E-09 -0.4292851221871E+00  0.0000000000000E+00
 0.3595448458221E-09 -0.2544224362301E+00  0.0000000000000E+00
 0.1238229648589E-09 -0.7950309184428E-01  0.0000000000000E+00
 0.3529816344305E-10  0.9546829812865E-01  0.0000000000000E+00
 0.8104325914218E-11  0.2704665878481E+00  0.0000000000000E+00
 0.7164823965508E-01 -0.1129572184556E+01  0.0000000000000E+00
 0.7189885800572E-01 -0.9546286882748E+00  0.0000000000000E+00
 0.7231768461208E-01 -0.7797120916309E+00  0.0000000000000E+00
 0.7293269617397E-01 -0.6048475405725E+00  0.0000000000000E+00
 0.7370313664601E-01 -0.4300396481608E+00  0.0000000000000E+00
 0.7447357747082E-01 -0.2552317557506E+00  0.0000000000000E+00
 0.7508858994025E-01 -0.8036720469512E-01  0.0000000000000E+00
 0.7550741774953E-01  0.9454939194626E-01  0.0000000000000E+00
 0.7575803742593E-01  0.2694928882256E+00  0.0000000000000E+00
 0.1432792910737E+00 -0.1131177627514E+01  0.0000000000000E+00
 0.1437762547550E+00 -0.9563982445790E+00  0.0000000000000E+00
 0.1446096349048E+00 -0.7816457609553E+00  0.0000000000000E+00
 0.1458353848293E+00 -0.6069453229140E+00  0.0000000000000E+00
 0.1473719922884E+00 -0.4323015441721E+00  0.0000000000000E+00
 0.1489086001002E+00 -0.2576577654331E+00  0.0000000000000E+00
 0.1501343509322E+00 -0.8295732739760E-01  0.0000000000000E+00
 0.1509677322849E+00  0.9179515622118E-01  0.0000000000000E+00
 0.1514646972921E+00  0.2665745391532E+00  0.0000000000000E+00
 0.2148760638713E+00 -0.1133851325862E+01  0.0000000000000E+00
 0.2156108738601E+00 -0.9593445799456E+00  0.0000000000000E+00
 0.2168503085819E+00 -0.7848647327997E+00  0.0000000000000E+00
 0.2186782979384E+00 -0.6104369312320E+00  0.0000000000000E+00
 0.2209725734523E+00 -0.4360657900476E+00  0.0000000000000E+00
 0.2232668493190E+00 -0.2616946488676E+00  0.0000000000000E+00
 0.2250948395831E+00 -0.8726684730858E-01  0.0000000000000E+00
 0.2263342755078E+00  0.8721299982987E-01  0.0000000000000E+00
 0.2270690868224E+00  0.2617197457421E+00  0.0000000000000E+00
 0.2864215966206E+00 -0.1137590239822E+01  0.0000000000000E+00
 0.2873816293411E+00 -0.9634633431226E+00  0.0000000000000E+00
 0.2890144951059E+00 -0.7893633444416E+00  0.0000000000000E+00
 0.2914321003912E+00 -0.6153153913331E+00  0.0000000000000E+00
 0.2944714204269E+00 -0.4413241001183E+00  0.0000000000000E+00
 0.2975107408153E+00 -0.2673328089091E+00  0.0000000000000E+00
 0.2999283470082E+00 -0.9328485581228E-01  0.0000000000000E+00
 0.3015612139760E+00  0.8081514285887E-01  0.0000000000000E+00
 0.3025212480222E+00  0.2549420395522E+00  0.0000000000000E+00
 0.3578991968070E+00 -0.1142390156869E+01  0.0000000000000E+00
 0.3590678437224E+00 -0.9687485172122E+00  0.0000000000000E+00
 0.3610775320781E+00 -0.7951337746119E+00  0.0000000000000E+00
 0.3640681449004E+00 -0.6215710775773E+00  0.0000000000000E+00
 0.3678359010477E+00 -0.4480650443656E+00  0.0000000000000E+00
 0.3716036575478E+00 -0.2745590111610E+00  0.0000000000000E+00
 0.3745942712777E+00 -0.1009963141409E+00  0.0000000000000E+00
 0.3766039608363E+00  0.7261842844706E-01  0.0000000000000E+00
 0.3777726090775E+00  0.2462600680972E+00  0.0000000000000E+00
 0.4292924568149E+00 -0.1148245729631E+01  0.0000000000000E+00
 0.4306493124468E+00 -0.9751924883211E+00  0.0000000000000E+00
 0.4330154180159E+00 -0.8021661429030E+00  0.0000000000000E+00
 0.4365586330689E+00 -0.6291918430427E+00  0.0000000000000E+00
 0.4410344199965E+00 -0.4562742093445E+00  0.0000000000000E+00
 0.4455102072769E+00 -0.2833565756550E+00  0.0000000000000E+00
 0.4490534232375E+00 -0.1103822758120E+00  0.0000000000000E+00
 0.4514195300096E+00  0.6264406959120E-01  0.0000000000000E+00
 0.4527763869673E+00  0.2356973108925E+00  0.0000000000000E+00
 0.5005853212899E+00 -0.1155150523983E+01  0.0000000000000E+00
 0.5021064075213E+00 -0.9827861309873E+00  0.0000000000000E+00
 0.5048049522860E+00 -0.8104486325194E+00  0.0000000000000E+00
 0.5088767916127E+00 -0.6381631795998E+00  0.0000000000000E+00
 0.5140366313163E+00 -0.4659343955811E+00  0.0000000000000E+00
 0.5191964713726E+00 -0.2937056115725E+00  0.0000000000000E+00
 0.5232683116069E+00 -0.1214201586732E+00  0.0000000000000E+00
 0.5259668575747E+00  0.5091733977747E-01  0.0000000000000E+00
 0.5274879451318E+00  0.2232817327634E+00  0.0000000000000E+00
 0.5717622129039E+00 -0.1163097081430E+01  0.0000000000000E+00
 0.5734202189629E+00 -0.9915189108996E+00  0.0000000000000E+00
 0.5764238922454E+00 -0.8199676333406E+00  0.0000000000000E+00
 0.5809970452143E+00 -0.6484684013195E+00  0.0000000000000E+00
 0.5868136269902E+00 -0.4770258413251E+00  0.0000000000000E+00
 0.5926302091190E+00 -0.3055832813422E+00  0.0000000000000E+00
 0.5972033629954E+00 -0.1340840493443E+00  0.0000000000000E+00
 0.6002070374809E+00  0.3746722819490E-01  0.0000000000000E+00
 0.6018650448658E+00  0.2090453987140E+00  0.0000000000000E+00
 0.6428079584890E+00 -0.1172076973595E+01  0.0000000000000E+00
 0.6445725496918E+00 -0.1001378993252E+01  0.0000000000000E+00
 0.6478510170170E+00 -0.8307079041373E+00  0.0000000000000E+00
 0.6528951493277E+00 -0.6600888605492E+00  0.0000000000000E+00
 0.6593381388929E+00 -0.4895264924872E+00  0.0000000000000E+00
 0.6657811288108E+00 -0.3189641244382E+00  0.0000000000000E+00
 0.6708252620291E+00 -0.1483450808761E+00  0.0000000000000E+00
 0.6741037305573E+00  0.2232600821599E-01  0.0000000000000E+00
 0.6758683230860E+00  0.1930239885468E+00  0.0000000000000E+00
-0.1493912699900E+01 -0.1245948640961E+01  0.0000000000000E+00
-0.1632114179481E+01 -0.1015235929788E+01  0.0000000000000E+00
-0.1741724987958E+01 -0.7685711016251E+00  0.0000000000000E+00
-0.1820766194995E+01 -0.5096924415063E+00  0.0000000000000E+00
-0.1865967729498E+01 -0.2423545704136E+00  0.0000000000000E+00
-0.1873120644158E+01  0.2887340610501E-01  0.0000000000000E+00
-0.1807462272798E+01  0.2894599333017E+00  0.0000000000000E+00
-0.1655564266959E+01  0.5093676183748E+00  0.0000000000000E+00
-0.1461284529476E+01  0.6904096839716E+00  0.0000000000000E+00
-0.1407911610363E+01 -0.1235569498233E+01  0.0000000000000E+00
-0.1530885042842E+01 -0.1011998013791E+01  0.0000000000000E+00
-0.1628631455275E+01 -0.7742498073865E+00  0.0000000000000E+00
-0.1699422876353E+01 -0.5256506283837E+00  0.0000000000000E+00
-0.1740307292582E+01 -0.2695384262787E+00  0.0000000000000E+00
-0.1747370706685E+01 -0.9968389857222E-02  0.0000000000000E+00
-0.1689540644756E+01  0.2401506118249E+00  0.0000000000000E+00
-0.1554834933667E+01  0.4541153997418E+00  0.0000000000000E+00
-0.1382269552347E+01  0.6335353740062E+00  0.0000000000000E+00
-0.1321717468671E+01 -0.1225990155986E+01  0.0000000000000E+00
-0.1429484329607E+01 -0.1009470946930E+01  0.0000000000000E+00
-0.1515387817702E+01 -0.7805504227981E+00  0.0000000000000E+00
-0.1577950922623E+01 -0.5421417890339E+00  0.0000000000000E+00
-0.1614539688037E+01 -0.2971663252531E+00  0.0000000000000E+00
-0.1621535070117E+01 -0.4916528912248E-01  0.0000000000000E+00
-0.1571554682145E+01  0.1905747042462E+00  0.0000000000000E+00
-0.1454062688287E+01  0.3986853612403E+00  0.0000000000000E+00
-0.1303233118844E+01  0.5765721518443E+00  0.0000000000000E+00
-0.1235338664721E+01 -0.1217220128470E+01  0.0000000000000E+00
-0.1327919486188E+01 -0.1007663185251E+01  0.0000000000000E+00
-0.1402000580163E+01 -0.7874803468363E+00  0.0000000000000E+00
-0.1456355899294E+01 -0.5591722661683E+00  0.0000000000000E+00
-0.1488669544153E+01 -0.3252435543734E+00  0.0000000000000E+00
-0.1495617427797E+01 -0.8872152318509E-01  0.0000000000000E+00
-0.1453507152202E+01  0.1407290302321E+00  0.0000000000000E+00
-0.1353249374514E+01  0.3430753791977E+00  0.0000000000000E+00
-0.1224176150134E+01  0.5195189545757E+00  0.0000000000000E+00
-0.1148784126122E+01 -0.1209268607751E+01  0.0000000000000E+00
-0.1226198458988E+01 -0.1006582898571E+01  0.0000000000000E+00
-0.1288476705889E+01 -0.7950467260992E+00  0.0000000000000E+00
-0.1334643784206E+01 -0.5767481823590E+00  0.0000000000000E+00
-0.1362701850985E+01 -0.3537752116567E+00  0.0000000000000E+00
-0.1369621779253E+01 -0.1286411651334E+00  0.0000000000000E+00
-0.1335401063674E+01  0.9061053604662E-01  0.0000000000000E+00
-0.1252397001676E+01  0.2872834192639E+00  0.0000000000000E+00
-0.1145099651710E+01  0.4623747661662E+00  0.0000000000000E+00
-0.1062062983396E+01 -0.1202144369658E+01  0.0000000000000E+00
-0.1124329355888E+01 -0.1006237886659E+01  0.0000000000000E+00
-0.1174823281550E+01 -0.8032563851118E+00  0.0000000000000E+00
-0.1212820644252E+01 -0.5948753874537E+00  0.0000000000000E+00
-0.1236641657216E+01 -0.3827661726965E+00  0.0000000000000E+00
-0.1243552156475E+01 -0.1689281163730E+00  0.0000000000000E+00
-0.1217239439725E+01  0.4021629028167E-01  0.0000000000000E+00
-0.1151507584842E+01  0.2313075245172E+00  0.0000000000000E+00
-0.1066004630648E+01  0.4051386074055E+00  0.0000000000000E+00
-0.9751847697070E+00 -0.1195855786589E+01  0.0000000000000E+00
-0.1022320650200E+01 -0.1006635590763E+01  0.0000000000000E+00
-0.1061047720681E+01 -0.8121158340625E+00  0.0000000000000E+00
-0.1090892833159E+01 -0.6135594605944E+00  0.0000000000000E+00
-0.1110494256751E+01 -0.4122210856250E+00  0.0000000000000E+00
-0.1117412793346E+01 -0.2095860939228E+00  0.0000000000000E+00
-0.1099025459080E+01 -0.1045649741365E-01  0.0000000000000E+00
-0.1050583244399E+01  0.1751458337972E+00  0.0000000000000E+00
-0.9868921472004E+00  0.3478095477247E+00  0.0000000000000E+00
-0.8881593748716E+00 -0.1190410790924E+01  0.0000000000000E+00
-0.9201811355569E+00 -0.1007783061068E+01  0.0000000000000E+00
-0.9471577202152E+00 -0.8216312407101E+00  0.0000000000000E+00
-0.9688669504882E+00 -0.6328056868796E+00  0.0000000000000E+00
-0.9842651510562E+00 -0.4421443527462E+00  0.0000000000000E+00
-0.9912080922863E+00 -0.2506186171164E+00  0.0000000000000E+00
-0.9807624287546E+00 -0.6141046782172E-01  0.0000000000000E+00
-0.9496261869906E+00  0.1187965864475E+00  0.0000000000000E+00
-0.9077633049796E+00  0.2903867071423E+00  0.0000000000000E+00
-0.8009969614158E+00 -0.1185816836835E+01  0.0000000000000E+00
-0.8179198426556E+00 -0.1009686922706E+01  0.0000000000000E+00
-0.8331611794591E+00 -0.8318084014129E+00  0.0000000000000E+00
-0.8467497645126E+00 -0.6526190340470E+00  0.0000000000000E+00
-0.8579599777782E+00 -0.4725401133079E+00  0.0000000000000E+00
-0.8649425605567E+00 -0.2920289966644E+00  0.0000000000000E+00
-0.8624537316589E+00 -0.1126481069538E+00  0.0000000000000E+00
-0.8486386687954E+00  0.6225812387342E-01  0.0000000000000E+00
-0.8286192320009E+00  0.2328692561765E+00  0.0000000000000E+00
 0.8009969712356E+00 -0.1185816838491E+01  0.0000000000000E+00
 0.8179198500446E+00 -0.1009686924186E+01  0.0000000000000E+00
 0.8331611845332E+00 -0.8318084026986E+00  0.0000000000000E+00
 0.8467497675458E+00 -0.6526190351224E+00  0.0000000000000E+00
 0.8579599792759E+00 -0.4725401141749E+00  0.0000000000000E+00
 0.8649425611529E+00 -0.2920289973475E+00  0.0000000000000E+00
 0.8624537318677E+00 -0.1126481074711E+00  0.0000000000000E+00
 0.8486386688771E+00  0.6225812351732E-01  0.0000000000000E+00
 0.8286192320618E+00  0.2328692559799E+00  0.0000000000000E+00
 0.8881593835745E+00 -0.1190410792534E+01  0.0000000000000E+00
 0.9201811420918E+00 -0.1007783062512E+01  0.0000000000000E+00
 0.9471577246905E+00 -0.8216312419750E+00  0.0000000000000E+00
 0.9688669531555E+00 -0.6328056879542E+00  0.0000000000000E+00
 0.9842651523705E+00 -0.4421443536322E+00  0.0000000000000E+00
 0.9912080928098E+00 -0.2506186178343E+00  0.0000000000000E+00
 0.9807624289621E+00 -0.6141046838041E-01  0.0000000000000E+00
 0.9496261871083E+00  0.1187965860503E+00  0.0000000000000E+00
 0.9077633050977E+00  0.2903867069063E+00  0.0000000000000E+00
 0.9751847772968E+00 -0.1195855788119E+01  0.0000000000000E+00
 0.1022320655883E+01 -0.1006635592141E+01  0.0000000000000E+00
 0.1061047724560E+01 -0.8121158352806E+00  0.0000000000000E+00
 0.1090892835463E+01 -0.6135594616459E+00  0.0000000000000E+00
 0.1110494257883E+01 -0.4122210865117E+00  0.0000000000000E+00
 0.1117412793798E+01 -0.2095860946607E+00  0.0000000000000E+00
 0.1099025459288E+01 -0.1045649800265E-01  0.0000000000000E+00
 0.1050583244554E+01  0.1751458333663E+00  0.0000000000000E+00
 0.9868921473761E+00  0.3478095474530E+00  0.0000000000000E+00
 0.1062062989877E+01 -0.1202144371075E+01  0.0000000000000E+00
 0.1124329360724E+01 -0.1006237887942E+01  0.0000000000000E+00
 0.1174823284836E+01 -0.8032563862574E+00  0.0000000000000E+00
 0.1212820646195E+01 -0.5948753884603E+00  0.0000000000000E+00
 0.1236641658170E+01 -0.3827661735655E+00  0.0000000000000E+00
 0.1243552156858E+01 -0.1689281171164E+00  0.0000000000000E+00
 0.1217239439933E+01  0.4021628967337E-01  0.0000000000000E+00
 0.1151507585035E+01  0.2313075240599E+00  0.0000000000000E+00
 0.1066004630881E+01  0.4051386071018E+00  0.0000000000000E+00
 0.1148784131499E+01 -0.1209268609022E+01  0.0000000000000E+00
 0.1226198462982E+01 -0.1006582899729E+01  0.0000000000000E+00
 0.1288476708587E+01 -0.7950467271470E+00  0.0000000000000E+00
 0.1334643785792E+01 -0.5767481832988E+00  0.0000000000000E+00
 0.1362701851763E+01 -0.3537752124899E+00  0.0000000000000E+00
 0.1369621779569E+01 -0.1286411658677E+00  0.0000000000000E+00
 0.1335401063885E+01  0.9061053542988E-01  0.0000000000000E+00
 0.1252397001908E+01  0.2872834187875E+00  0.0000000000000E+00
 0.1145099652002E+01  0.4623747658340E+00  0.0000000000000E+00
 0.1235338668999E+01 -0.1217220129564E+01  0.0000000000000E+00
 0.1327919489344E+01 -0.1007663186256E+01  0.0000000000000E+00
 0.1402000582276E+01 -0.7874803477613E+00  0.0000000000000E+00
 0.1456355900526E+01 -0.5591722670199E+00  0.0000000000000E+00
 0.1488669544757E+01 -0.3252435551529E+00  0.0000000000000E+00
 0.1495617428049E+01 -0.8872152389594E-01  0.0000000000000E+00
 0.1453507152418E+01  0.1407290296177E+00  0.0000000000000E+00
 0.1353249374785E+01  0.3430753787092E+00  0.0000000000000E+00
 0.1224176150486E+01  0.5195189542187E+00  0.0000000000000E+00
 0.1321717471856E+01 -0.1225990156871E+01  0.0000000000000E+00
 0.1429484331930E+01 -0.1009470947754E+01  0.0000000000000E+00
 0.1515387819235E+01 -0.7805504235757E+00  0.0000000000000E+00
 0.1577950923506E+01 -0.5421417897762E+00  0.0000000000000E+00
 0.1614539688471E+01 -0.2971663259614E+00  0.0000000000000E+00
 0.1621535070306E+01 -0.4916528979589E-01  0.0000000000000E+00
 0.1571554682369E+01  0.1905747036446E+00  0.0000000000000E+00
 0.1454062688600E+01  0.3986853607469E+00  0.0000000000000E+00
 0.1303233119256E+01  0.5765721514660E+00  0.0000000000000E+00
 0.1407911612462E+01 -0.1235569498876E+01  0.0000000000000E+00
 0.1530885044338E+01 -0.1011998014406E+01  0.0000000000000E+00
 0.1628631456233E+01 -0.7742498079925E+00  0.0000000000000E+00
 0.1699422876890E+01 -0.5256506289959E+00  0.0000000000000E+00
 0.1740307292850E+01 -0.2695384268984E+00  0.0000000000000E+00
 0.1747370706816E+01 -0.9968390479329E-02  0.0000000000000E+00
 0.1689540644988E+01  0.2401506112465E+00  0.0000000000000E+00
 0.1554834934023E+01  0.4541153992504E+00  0.0000000000000E+00
 0.1382269552819E+01  0.6335353736101E+00  0.0000000000000E+00
 0.1493912700920E+01 -0.1245948641334E+01  0.0000000000000E+00
 0.1632114180156E+01 -0.1015235930167E+01  0.0000000000000E+00
 0.1741724988346E+01 -0.7685711020355E+00  0.0000000000000E+00
 0.1820766195191E+01 -0.5096924419680E+00  0.0000000000000E+00
 0.1865967729603E+01 -0.2423545709277E+00  0.0000000000000E+00
 0.1873120644233E+01  0.2887340554782E-01  0.0000000000000E+00
 0.1807462273042E+01  0.2894599327568E+00  0.0000000000000E+00
 0.1655564267360E+01  0.5093676178923E+00  0.0000000000000E+00
 0.1461284530009E+01  0.6904096835610E+00  0.0000000000000E+00
-0.7262154211400E+00  0.4220388918148E+00  0.0000000000000E+00
-0.7759671760782E+00  0.4803462986459E+00  0.0000000000000E+00
-0.8257189310165E+00  0.5386537054770E+00  0.0000000000000E+00
-0.8754706859548E+00  0.5969611123081E+00  0.0000000000000E+00
-0.9252224408930E+00  0.6552685191392E+00  0.0000000000000E+00
-0.9749741958313E+00  0.7135759259704E+00  0.0000000000000E+00
-0.1024725950770E+01  0.7718833328015E+00  0.0000000000000E+00
-0.1074477705708E+01  0.8301907396326E+00  0.0000000000000E+00
-0.1124229460646E+01  0.8884981464637E+00  0.0000000000000E+00
-0.6470599869664E+00  0.4421478324469E+00  0.0000000000000E+00
-0.6916362540626E+00  0.5036625773935E+00  0.0000000000000E+00
-0.7362125211588E+00  0.5651773223400E+00  0.0000000000000E+00
-0.7807887882550E+00  0.6266920672866E+00  0.0000000000000E+00
-0.8253650553512E+00  0.6882068122331E+00  0.0000000000000E+00
-0.8699413224474E+00  0.7497215571797E+00  0.0000000000000E+00
-0.9145175895436E+00  0.8112363021263E+00  0.0000000000000E+00
-0.9590938566398E+00  0.8727510470728E+00  0.0000000000000E+00
-0.1003670123736E+01  0.9342657920194E+00  0.0000000000000E+00
-0.5674541536864E+00  0.4603381160929E+00  0.0000000000000E+00
-0.6068086902216E+00  0.5250205862388E+00  0.0000000000000E+00
-0.6461632267567E+00  0.5897030563848E+00  0.0000000000000E+00
-0.6855177632919E+00  0.6543855265307E+00  0.0000000000000E+00
-0.7248722998271E+00  0.7190679966767E+00  0.0000000000000E+00
-0.7642268363623E+00  0.7837504668226E+00  0.0000000000000E+00
-0.8035813728974E+00  0.8484329369686E+00  0.0000000000000E+00
-0.8429359094326E+00  0.9131154071145E+00  0.0000000000000E+00
-0.8822904459678E+00  0.9777978772605E+00  0.0000000000000E+00
-0.4874864927934E+00  0.4767023850508E+00  0.0000000000000E+00
-0.5216192404544E+00  0.5446446960190E+00  0.0000000000000E+00
-0.5557519881153E+00  0.6125870069873E+00  0.0000000000000E+00
-0.5898847357762E+00  0.6805293179555E+00  0.0000000000000E+00
-0.6240174834372E+00  0.7484716289237E+00  0.0000000000000E+00
-0.6581502310981E+00  0.8164139398920E+00  0.0000000000000E+00
-0.6922829787591E+00  0.8843562508602E+00  0.0000000000000E+00
-0.7264157264200E+00  0.9522985618284E+00  0.0000000000000E+00
-0.7605484740810E+00  0.1020240872797E+01  0.0000000000000E+00
-0.4070743133994E+00  0.4908323142830E+00  0.0000000000000E+00
-0.4358569516264E+00  0.5617533974853E+00  0.0000000000000E+00
-0.4646395898535E+00  0.6326744806875E+00  0.0000000000000E+00
-0.4934222280806E+00  0.7035955638897E+00  0.0000000000000E+00
-0.5222048663076E+00  0.7745166470919E+00  0.0000000000000E+00
-0.5509875045347E+00  0.8454377302941E+00  0.0000000000000E+00
-0.5797701427618E+00  0.9163588134963E+00  0.0000000000000E+00
-0.6085527809888E+00  0.9872798966986E+00  0.0000000000000E+00
-0.6373354192159E+00  0.1058200979901E+01  0.0000000000000E+00
-0.3262058732712E+00  0.5024255397187E+00  0.0000000000000E+00
-0.3494501300712E+00  0.5757726186668E+00  0.0000000000000E+00
-0.3726943868712E+00  0.6491196976150E+00  0.0000000000000E+00
-0.3959386436712E+00  0.7224667765632E+00  0.0000000000000E+00
-0.4191829004712E+00  0.7958138555114E+00  0.0000000000000E+00
-0.4424271572712E+00  0.8691609344596E+00  0.0000000000000E+00
-0.4656714140712E+00  0.9425080134077E+00  0.0000000000000E+00
-0.4889156708712E+00  0.1015855092356E+01  0.0000000000000E+00
-0.5121599276713E+00  0.1089202171304E+01  0.0000000000000E+00
-0.2449696928514E+00  0.5114464367078E+00  0.0000000000000E+00
-0.2625252366944E+00  0.5866568563038E+00  0.0000000000000E+00
-0.2800807805375E+00  0.6618672758998E+00  0.0000000000000E+00
-0.2976363243805E+00  0.7370776954957E+00  0.0000000000000E+00
-0.3151918682236E+00  0.8122881150917E+00  0.0000000000000E+00
-0.3327474120667E+00  0.8874985346877E+00  0.0000000000000E+00
-0.3503029559097E+00  0.9627089542837E+00  0.0000000000000E+00
-0.3678584997528E+00  0.1037919373880E+01  0.0000000000000E+00
-0.3854140435958E+00  0.1113129793476E+01  0.0000000000000E+00
-0.1634632579838E+00  0.5179088773513E+00  0.0000000000000E+00
-0.1752246863765E+00  0.5944543064906E+00  0.0000000000000E+00
-0.1869861147692E+00  0.6709997356298E+00  0.0000000000000E+00
-0.1987475431619E+00  0.7475451647691E+00  0.0000000000000E+00
-0.2105089715546E+00  0.8240905939083E+00  0.0000000000000E+00
-0.2222703999473E+00  0.9006360230476E+00  0.0000000000000E+00
-0.2340318283400E+00  0.9771814521868E+00  0.0000000000000E+00
-0.2457932567327E+00  0.1053726881326E+01  0.0000000000000E+00
-0.2575546851254E+00  0.1130272310465E+01  0.0000000000000E+00
-0.8177747086543E-01  0.5218135049328E+00  0.0000000000000E+00
-0.8767620096390E-01  0.5991810988308E+00  0.0000000000000E+00
-0.9357493106237E-01  0.6765486927287E+00  0.0000000000000E+00
-0.9947366116083E-01  0.7539162866266E+00  0.0000000000000E+00
-0.1053723912593E+00  0.8312838805245E+00  0.0000000000000E+00
-0.1112711213578E+00  0.9086514744224E+00  0.0000000000000E+00
-0.1171698514562E+00  0.9860190683204E+00  0.0000000000000E+00
-0.1230685815547E+00  0.1063386662218E+01  0.0000000000000E+00
-0.1289673116532E+00  0.1140754256116E+01  0.0000000000000E+00
 0.4058808316585E-10  0.5231292357807E+00  0.0000000000000E+00
 0.8117646714002E-10  0.6007840673293E+00  0.0000000000000E+00
 0.1217649898921E-09  0.6784388988780E+00  0.0000000000000E+00
 0.1623534571330E-09  0.7560937304266E+00  0.0000000000000E+00
 0.2029419521295E-09  0.8337485619753E+00  0.0000000000000E+00
 0.2435305581482E-09  0.9114033935239E+00  0.0000000000000E+00
 0.2841190531447E-09  0.9890582250725E+00  0.0000000000000E+00
 0.3247077701858E-09  0.1066713056621E+01  0.0000000000000E+00
 0.3652960431377E-09  0.1144367888170E+01  0.0000000000000E+00
 0.8177747094646E-01  0.5218135049277E+00  0.0000000000000E+00
 0.8767620112596E-01  0.5991810988204E+00  0.0000000000000E+00
 0.9357493130547E-01  0.6765486927132E+00  0.0000000000000E+00
 0.9947366148497E-01  0.7539162866059E+00  0.0000000000000E+00
 0.1053723916645E+00  0.8312838804987E+00  0.0000000000000E+00
 0.1112711218440E+00  0.9086514743914E+00  0.0000000000000E+00
 0.1171698520235E+00  0.9860190682842E+00  0.0000000000000E+00
 0.1230685822030E+00  0.1063386662177E+01  0.0000000000000E+00
 0.1289673123825E+00  0.1140754256070E+01  0.0000000000000E+00
 0.1634632580644E+00  0.5179088773413E+00  0.0000000000000E+00
 0.1752246865377E+00  0.5944543064706E+00  0.0000000000000E+00
 0.1869861150110E+00  0.6709997355998E+00  0.0000000000000E+00
 0.1987475434844E+00  0.7475451647290E+00  0.0000000000000E+00
 0.2105089719577E+00  0.8240905938582E+00  0.0000000000000E+00
 0.2222704004310E+00  0.9006360229875E+00  0.0000000000000E+00
 0.2340318289043E+00  0.9771814521167E+00  0.0000000000000E+00
 0.2457932573776E+00  0.1053726881246E+01  0.0000000000000E+00
 0.2575546858510E+00  0.1130272310375E+01  0.0000000000000E+00
 0.2449696929314E+00  0.5114464366931E+00  0.0000000000000E+00
 0.2625252368544E+00  0.5866568562744E+00  0.0000000000000E+00
 0.2800807807774E+00  0.6618672758557E+00  0.0000000000000E+00
 0.2976363247005E+00  0.7370776954370E+00  0.0000000000000E+00
 0.3151918686235E+00  0.8122881150183E+00  0.0000000000000E+00
 0.3327474125465E+00  0.8874985345996E+00  0.0000000000000E+00
 0.3503029564696E+00  0.9627089541809E+00  0.0000000000000E+00
 0.3678585003926E+00  0.1037919373762E+01  0.0000000000000E+00
 0.3854140443156E+00  0.1113129793344E+01  0.0000000000000E+00
 0.3262058733503E+00  0.5024255396995E+00  0.0000000000000E+00
 0.3494501302294E+00  0.5757726186284E+00  0.0000000000000E+00
 0.3726943871084E+00  0.6491196975574E+00  0.0000000000000E+00
 0.3959386439875E+00  0.7224667764863E+00  0.0000000000000E+00
 0.4191829008666E+00  0.7958138554153E+00  0.0000000000000E+00
 0.4424271577456E+00  0.8691609343443E+00  0.0000000000000E+00
 0.4656714146247E+00  0.9425080132732E+00  0.0000000000000E+00
 0.4889156715038E+00  0.1015855092202E+01  0.0000000000000E+00
 0.5121599283828E+00  0.1089202171131E+01  0.0000000000000E+00
 0.4070743134774E+00  0.4908323142595E+00  0.0000000000000E+00
 0.4358569517824E+00  0.5617533974382E+00  0.0000000000000E+00
 0.4646395900874E+00  0.6326744806169E+00  0.0000000000000E+00
 0.4934222283925E+00  0.7035955637956E+00  0.0000000000000E+00
 0.5222048666975E+00  0.7745166469743E+00  0.0000000000000E+00
 0.5509875050026E+00  0.8454377301529E+00  0.0000000000000E+00
 0.5797701433076E+00  0.9163588133316E+00  0.0000000000000E+00
 0.6085527816127E+00  0.9872798965103E+00  0.0000000000000E+00
 0.6373354199177E+00  0.1058200979689E+01  0.0000000000000E+00
 0.4874864928703E+00  0.4767023850238E+00  0.0000000000000E+00
 0.5216192406082E+00  0.5446446959651E+00  0.0000000000000E+00
 0.5557519883461E+00  0.6125870069063E+00  0.0000000000000E+00
 0.5898847360840E+00  0.6805293178476E+00  0.0000000000000E+00
 0.6240174838218E+00  0.7484716287888E+00  0.0000000000000E+00
 0.6581502315597E+00  0.8164139397300E+00  0.0000000000000E+00
 0.6922829792976E+00  0.8843562506713E+00  0.0000000000000E+00
 0.7264157270354E+00  0.9522985616125E+00  0.0000000000000E+00
 0.7605484747733E+00  0.1020240872554E+01  0.0000000000000E+00
 0.5674541537630E+00  0.4603381160649E+00  0.0000000000000E+00
 0.6068086903747E+00  0.5250205861830E+00  0.0000000000000E+00
 0.6461632269865E+00  0.5897030563010E+00  0.0000000000000E+00
 0.6855177635982E+00  0.6543855264191E+00  0.0000000000000E+00
 0.7248723002099E+00  0.7190679965371E+00  0.0000000000000E+00
 0.7642268368217E+00  0.7837504666552E+00  0.0000000000000E+00
 0.8035813734334E+00  0.8484329367732E+00  0.0000000000000E+00
 0.8429359100452E+00  0.9131154068912E+00  0.0000000000000E+00
 0.8822904466569E+00  0.9777978770093E+00  0.0000000000000E+00
 0.6470599870427E+00  0.4421478324182E+00  0.0000000000000E+00
 0.6916362542152E+00  0.5036625773361E+00  0.0000000000000E+00
 0.7362125213877E+00  0.5651773222539E+00  0.0000000000000E+00
 0.7807887885601E+00  0.6266920671718E+00  0.0000000000000E+00
 0.8253650557326E+00  0.6882068120896E+00  0.0000000000000E+00
 0.8699413229051E+00  0.7497215570075E+00  0.0000000000000E+00
 0.9145175900776E+00  0.8112363019254E+00  0.0000000000000E+00
 0.9590938572500E+00  0.8727510468432E+00  0.0000000000000E+00
 0.1003670124423E+01  0.9342657917611E+00  0.0000000000000E+00
 0.7262154212153E+00  0.4220388917836E+00  0.0000000000000E+00
 0.7759671762288E+00  0.4803462985835E+00  0.0000000000000E+00
 0.8257189312424E+00  0.5386537053834E+00  0.0000000000000E+00
 0.8754706862560E+00  0.5969611121833E+00  0.0000000000000E+00
 0.9252224412695E+00  0.6552685189833E+00  0.0000000000000E+00
 0.9749741962831E+00  0.7135759257832E+00  0.0000000000000E+00
 0.1024725951297E+01  0.7718833325831E+00  0.0000000000000E+00
 0.1074477706310E+01  0.8301907393830E+00  0.0000000000000E+00
 0.1124229461324E+01  0.8884981461829E+00  0.0000000000000E+00
</DataArray>
</Points>
<Cells>
<DataArray type="Int64" Name="connectivity" format="ascii">
0 11 218 123
123 218 219 124
124 219 220 125
125 220 221 126
126 221 222 127
127 222 223 128
128 223 224 129
129 224 225 130
130 225 226 131
131 226 227 132
132 227 228 133
133 228 229 134
134 229 230 135
135 230 231 136
136 231 232 137
137 232 233 138
138 233 234 139
139 234 235 140
140 235 236 141
141 236 237 142
142 237 49 3
11 12 238 218
218 238 239 219
219 239 240 220
220 240 241 221
221 241 242 222
222 242 243 223
223 243 244 224
224 244 245 225
225 245 246 226
226 246 247 227
227 247 248 228
228 248 249 229
229 249 250 230
230 250 251 231
231 251 252 232
232 252 253 233
233 253 254 234
234 254 255 235
235 255 256 236
236 256 257 237
237 257 50 49
12 13 258 238
238 258 259 239
239 259 260 240
240 260 261 241
241 261 262 242
242 262 263 243
243 263 264 244
244 264 265 245
245 265 266 246
246 266 267 247
247 267 268 248
248 268 269 249
249 269 270 250
250 270 271 251
251 271 272 252
252 272 273 253
253 273 274 254
254 274 275 255
255 275 276 256
256 276 277 257
257 277 51 50
13 14 278 258
258 278 279 259
259 279 280 260
260 280 281 261
261 281 282 262
262 282 283 263
263 283 284 264
264 284 285 265
265 285 286 266
266 286 287 267
267 287 288 268
268 288 289 269
269 289 290 270
270 290 291 271
271 291 292 272
272 292 293 273
273 293 294 274
274 294 295 275
275 295 296 276
276 296 297 277
277 297 52 51
14 15 298 278
278 298 299 279
279 299 300 280
280 300 301 281
281 301 302 282
282 302 303 283
283 303 304 284
284 304 305 285
285 305 306 286
286 306 307 287
287 307 308 288
288 308 309 289
289 309 310 290
290 310 311 291
291 311 312 292
292 312 313 293
293 313 314 294
294 314 315 295
295 315 316 296
296 316 317 297
297 317 53 52
15 16 318 298
298 318 319 299
299 319 320 300
300 320 321 301
301 321 322 302
302 322 323 303
303 323 324 304
304 324 325 305
305 325 326 306
306 326 327 307
307 327 328 308
308 328 329 309
309 329 330 310
310 330 331 311
311 331 332 312
312 332 333 313
313 333 334 314
314 334 335 315
315 335 336 316
316 336 337 317
317 337 54 53
16 17 338 318
318 338 339 319
319 339 340 320
320 340 341 321
321 341 342 322
322 342 343 323
323 343 344 324
324 344 345 325
325 345 346 326
326 346 347 327
327 347 348 328
328 348 349 329
329 349 350 330
330 350 351 331
331 351 352 332
332 352 353 333
333 353 354 334
334 354 355 335
335 355 356 336
336 356 357 337
337 357 55 54
17 18 358 338
338 358 359 339
339 359 360 340
340 360 361 341
341 361 362 342
342 362 363 343
343 363 364 344
344 364 365 345
345 365 366 346
346 366 367 347
347 367 368 348
348 368 369 349
349 369 370 350
350 370 371 351
351 371 372 352
352 372 373 353
353 373 374 354
354 374 375 355
355 375 376 356
356 376 377 357
357 377 56 55
18 19 378 358
358 378 379 359
359 379 380 360
360 380 381 361
361 381 382 362
362 382 383 363
363 383 384 364
364 384 385 365
365 385 386 366
366 386 387 367
367 387 388 368
368 388 389 369
369 389 390 370
370 390 391 371
371 391 392 372
372 392 393 373
373 393 394 374
374 394 395 375
375 395 396 376
376 396 397 377
377 397 57 56
19 20 398 378
378 398 399 379
379 399 400 380
380 400 401 381
381 401 402 382
382 402 403 383
383 403 404 384
384 404 405 385
385 405 406 386
386 406 407 387
387 407 408 388
388 408 409 389
389 409 410 390
390 410 411 391
391 411 412 392
392 412 413 393
393 413 414 394
394 414 415 395
395 415 416 396
396 416 417 397
397 417 4 57
20 21 418 398
398 418 419 399
399 419 420 400
400 420 421 401
401 421 422 402
402 422 423 403
403 423 424 404
404 424 425 405
405 425 426 406
406 426 427 407
407 427 428 408
408 428 429 409
409 429 430 410
410 430 431 411
411 431 432 412
412 432 433 413
413 433 434 414
414 434 435 415
415 435 436 416
416 436 437 417
417 437 58 4
21 22 438 418
418 438 439 419
419 439 440 420
420 440 441 421
421 441 442 422
422 442 443 423
423 443 444 424
424 444 445 425
425 445 446 426
426 446 447 427
427 447 448 428
428 448 449 429
429 449 450 430
430 450 451 431
431 451 452 432
432 452 453 433
433 453 454 434
434 454 455 435
435 455 456 436
436 456 457 437
437 457 59 58
22 23 458 438
438 458 459 439
439 459 460 440
440 460 461 441
441 461 462 442
442 462 463 443
443 463 464 444
444 464 465 445
445 465 466 446
446 466 467 447
447 467 468 448
448 468 469 449
449 469 470 450
450 470 471 451
451 471 472 452
452 472 473 453
453 473 474 454
454 474 475 455
455 475 476 456
456 476 477 457
457 477 60 59
23 24 478 458
458 478 479 459
459 479 480 460
460 480 481 461
461 481 482 462
462 482 483 463
463 483 484 464
464 484 485 465
465 485 486 466
466 486 487 467
467 487 488 468
468 488 489 469
469 489 490 470
470 490 491 471
471 491 492 472
472 492 493 473
473 493 494 474
474 494 495 475
475 495 496 476
476 496 497 477
477 497 61 60
24 25 498 478
478 498 499 479
479 499 500 480
480 500 501 481
481 501 502 482
482 502 503 483
483 503 504 484
484 504 505 485
485 505 506 486
486 506 507 487
487 507 508 488
488 508 509 489
489 509 510 490
490 510 511 491
491 511 512 492
492 512 513 493
493 513 514 494
494 514 515 495
495 515 516 496
496 516 517 497
497 517 62 61
25 26 518 498
498 518 519 499
499 519 520 500
500 520 521 501
501 521 522 502
502 522 523 503
503 523 524 504
504 524 525 505
505 525 526 506
506 526 527 507
507 527 528 508
508 528 529 509
509 529 530 510
510 530 531 511
511 531 532 512
512 532 533 513
513 533 534 514
514 534 535 515
515 535 536 516
516 536 537 517
517 537 63 62
26 27 538 518
518 538 539 519
519 539 540 520
520 540 541 521
521 541 542 522
522 542 543 523
523 543 544 524
524 544 545 525
525 545 546 526
526 546 547 527
527 547 548 528
528 548 549 529
529 549 550 530
530 550 551 531
531 551 552 532
532 552 553 533
533 553 554 534
534 554 555 535
535 555 556 536
536 556 557 537
537 557 64 63
27 28 558 538
538 558 559 539
539 559 560 540
540 560 561 541
541 561 562 542
542 562 563 543
543 563 564 544
544 564 565 545
545 565 566 546
546 566 567 547
547 567 568 548
548 568 569 549
549 569 570 550
550 570 571 551
551 571 572 552
552 572 573 553
553 573 574 554
554 574 575 555
555 575 576 556
556 576 577 557
557 577 65 64
28 29 578 558
558 578 579 559
559 579 580 560
560 580 581 561
561 581 582 562
562 582 583 563
563 583 584 564
564 584 585 565
565 585 586 566
566 586 587 567
567 587 588 568
568 588 589 569
569 589 590 570
570 590 591 571
571 591 592 572
572 592 593 573
573 593 594 574
574 594 595 575
575 595 596 576
576 596 597 577
577 597 66 65
29 1 598 578
578 598 599 579
579 599 600 580
580 600 601 581
581 601 602 582
582 602 603 583
583 603 604 584
584 604 605 585
585 605 606 586
586 606 607 587
587 607 608 588
588 608 609 589
589 609 610 590
590 610 611 591
591 611 612 592
592 612 613 593
593 613 614 594
594 614 615 595
595 615 616 596
596 616 617 597
597 617 67 66
1 30 618 598
598 618 619 599
599 619 620 600
600 620 621 601
601 621 622 602
602 622 623 603
603 623 624 604
604 624 625 605
605 625 626 606
606 626 627 607
607 627 628 608
608 628 629 609
609 629 630 610
610 630 631 611
611 631 632 612
612 632 633 613
613 633 634 614
614 634 635 615
615 635 636 616
616 636 637 617
617 637 68 67
30 31 638 618
618 638 639 619
619 639 640 620
620 640 641 621
621 641 642 622
622 642 643 623
623 643 644 624
624 644 645 625
625 645 646 626
626 646 647 627
627 647 648 628
628 648 649 629
629 649 650 630
630 650 651 631
631 651 652 632
632 652 653 633
633 653 654 634
634 654 655 635
635 655 656 636
636 656 657 637
637 657 69 68
31 32 658 638
638 658 659 639
639 659 660 640
640 660 661 641
641 661 662 642
642 662 663 643
643 663 664 644
644 664 665 645
645 665 666 646
646 666 667 647
647 667 668 648
648 668 669 649
649 669 670 650
650 670 671 651
651 671 672 652
652 672 673 653
653 673 674 654
654 674 675 655
655 675 676 656
656 676 677 657
657 677 70 69
32 33 678 658
658 678 679 659
659 679 680 660
660 680 681 661
661 681 682 662
662 682 683 663
663 683 684 664
664 684 685 665
665 685 686 666
666 686 687 667
667 687 688 668
668 688 689 669
669 689 690 670
670 690 691 671
671 691 692 672
672 692 693 673
673 693 694 674
674 694 695 675
675 695 696 676
676 696 697 677
677 697 71 70
33 34 698 678
678 698 699 679
679 699 700 680
680 700 701 681
681 701 702 682
682 702 703 683
683 703 704 684
684 704 705 685
685 705 706 686
686 706 707 687
687 707 708 688
688 708 709 689
689 709 710 690
690 710 711 691
691 711 712 692
692 712 713 693
693 713 714 694
694 714 715 695
695 715 716 696
696 716 717 697
697 717 72 71
34 35 718 698
698 718 719 699
699 719 720 700
700 720 721 701
701 721 722 702
702 722 723 703
703 723 724 704
704 724 725 705
705 725 726 706
706 726 727 707
707 727 728 708
708 728 729 709
709 729 730 710
710 730 731 711
711 731 732 712
712 732 733 713
713 733 734 714
714 734 735 715
715 735 736 716
716 736 737 717
717 737 73 72
35 36 738 718
718 738 739 719
719 739 740 720
720 740 741 721
721 741 742 722
722 742 743 723
723 743 744 724
724 744 745 725
725 745 746 726
726 746 747 727
727 747 748 728
728 748 749 729
729 749 750 730
730 750 751 731
731 751 752 732
732 752 753 733
733 753 754 734
734 754 755 735
735 755 756 736
736 756 757 737
737 757 74 73
36 37 758 738
738 758 759 739
739 759 760 740
740 760 761 741
741 761 762 742
742 762 763 743
743 763 764 744
744 764 765 745
745 765 766 746
746 766 767 747
747 767 768 748
748 768 769 749
749 769 770 750
750 770 771 751
751 771 772 752
752 772 773 753
753 773 774 754
754 774 775 755
755 775 776 756
756 776 777 757
757 777 75 74
37 38 778 758
758 778 779 759
759 779 780 760
760 780 781 761
761 781 782 762
762 782 783 763
763 783 784 764
764 784 785 765
765 785 786 766
766 786 787 767
767 787 788 768
768 788 789 769
769 789 790 770
770 790 791 771
771 791 792 772
772 792 793 773
773 793 794 774
774 794 795 775
775 795 796 776
776 796 797 777
777 797 76 75
38 39 798 778
778 798 799 779
779 799 800 780
780 800 801 781
781 801 802 782
782 802 803 783
783 803 804 784
784 804 805 785
785 805 806 786
786 806 807 787
787 807 808 788
788 808 809 789
789 809 810 790
790 810 811 791
791 811 812 792
792 812 813 793
793 813 814 794
794 814 815 795
795 815 816 796
796 816 817 797
797 817 5 76
39 40 818 798
798 818 819 799
799 819 820 800
800 820 821 801
801 821 822 802
802 822 823 803
803 823 824 804
804 824 825 805
805 825 826 806
806 826 827 807
807 827 828 808
808 828 829 809
809 829 830 810
810 830 831 811
811 831 832 812
812 832 833 813
813 833 834 814
814 834 835 815
815 835 836 816
816 836 837 817
817 837 77 5
40 41 838 818
818 838 839 819
819 839 840 820
820 840 841 821
821 841 842 822
822 842 843 823
823 843 844 824
824 844 845 825
825 845 846 826
826 846 847 827
827 847 848 828
828 848 849 829
829 849 850 830
830 850 851 831
831 851 852 832
832 852 853 833
833 853 854 834
834 854 855 835
835 855 856 836
836 856 857 837
837 857 78 77
41 42 858 838
838 858 859 839
839 859 860 840
840 860 861 841
841 861 862 842
842 862 863 843
843 863 864 844
844 864 865 845
845 865 866 846
846 866 867 847
847 867 868 848
848 868 869 849
849 869 870 850
850 870 871 851
851 871 872 852
852 872 873 853
853 873 874 854
854 874 875 855
855 875 876 856
856 876 877 857
857 877 79 78
42 43 878 858
858 878 879 859
859 879 880 860
860 880 881 861
861 881 882 862
862 882 883 863
863 883 884 864
864 884 885 865
865 885 886 866
866 886 887 867
867 887 888 868
868 888 889 869
869 889 890 870
870 890 891 871
871 891 892 872
872 892 893 873
873 893 894 874
874 894 895 875
875 895 896 876
876 896 897 877
877 897 80 79
43 44 898 878
878 898 899 879
879 899 900 880
880 900 901 881
881 901 902 882
882 902 903 883
883 903 904 884
884 904 905 885
885 905 906 886
886 906 907 887
887 907 908 888
888 908 909 889
889 909 910 890
890 910 911 891
891 911 912 892
892 912 913 893
893 913 914 894
894 914 915 895
895 915 916 896
896 916 917 897
897 917 81 80
44 45 918 898
898 918 919 899
899 919 920 900
900 920 921 901
901 921 922 902
902 922 923 903
903 923 924 904
904 924 925 905
905 925 926 906
906 926 927 907
907 927 928 908
908 928 929 909
909 929 930 910
910 930 931 911
911 931 932 912
912 932 933 913
913 933 934 914
914 934 935 915
915 935 936 916
916 936 937 917
917 937 82 81
45 46 938 918
918 938 939 919
919 939 940 920
920 940 941 921
921 941 942 922
922 942 943 923
923 943 944 924
924 944 945 925
925 945 946 926
926 946 947 927
927 947 948 928
928 948 949 929
929 949 950 930
930 950 951 931
931 951 952 932
932 952 953 933
933 953 954 934
934 954 955 935
935 955 956 936
936 956 957 937
937 957 83 82
46 47 958 938
938 958 959 939
939 959 960 940
940 960 961 941
941 961 962 942
942 962 963 943
943 963 964 944
944 964 965 945
945 965 966 946
946 966 967 947
947 967 968 948
948 968 969 949
949 969 970 950
950 970 971 951
951 971 972 952
952 972 973 953
953 973 974 954
954 974 975 955
955 975 976 956
956 976 977 957
957 977 84 83
47 48 978 958
958 978 979 959
959 979 980 960
960 980 981 961
961 981 982 962
962 982 983 963
963 983 984 964
964 984 985 965
965 985 986 966
966 986 987 967
967 987 988 968
968 988 989 969
969 989 990 970
970 990 991 971
971 991 992 972
972 992 993 973
973 993 994 974
974 994 995 975
975 995 996 976
976 996 997 977
977 997 85 84
48 2 162 978
978 162 161 979
979 161 160 980
980 160 159 981
981 159 158 982
982 158 157 983
983 157 156 984
984 156 155 985
985 155 154 986
986 154 153 987
987 153 152 988
988 152 151 989
989 151 150 990
990 150 149 991
991 149 148 992
992 148 147 993
993 147 146 994
994 146 145 995
995 145 144 996
996 144 143 997
997 143 6 85
4 58 998 190
190 998 999 189
189 999 1000 188
188 1000 1001 187
187 1001 1002 186
186 1002 1003 185
185 1003 1004 184
184 1004 1005 183
183 1005 1006 182
182 1006 163 9
58 59 1007 998
998 1007 1008 999
999 1008 1009 1000
1000 1009 1010 1001
1001 1010 1011 1002
1002 1011 1012 1003
1003 1012 1013 1004
1004 1013 1014 1005
1005 1014 1015 1006
1006 1015 164 163
59 60 1016 1007
1007 1016 1017 1008
1008 1017 1018 1009
1009 1018 1019 1010
1010 1019 1020 1011
1011 1020 1021 1012
1012 1021 1022 1013
1013 1022 1023 1014
1014 1023 1024 1015
1015 1024 165 164
60 61 1025 1016
1016 1025 1026 1017
1017 1026 1027 1018
1018 1027 1028 1019
1019 1028 1029 1020
1020 1029 1030 1021
1021 1030 1031 1022
1022 1031 1032 1023
1023 1032 1033 1024
1024 1033 166 165
61 62 1034 1025
1025 1034 1035 1026
1026 1035 1036 1027
1027 1036 1037 1028
1028 1037 1038 1029
1029 1038 1039 1030
1030 1039 1040 1031
1031 1040 1041 1032
1032 1041 1042 1033
1033 1042 167 166
62 63 1043 1034
1034 1043 1044 1035
1035 1044 1045 1036
1036 1045 1046 1037
1037 1046 1047 1038
1038 1047 1048 1039
1039 1048 1049 1040
1040 1049 1050 1041
1041 1050 1051 1042
1042 1051 168 167
63 64 1052 1043
1043 1052 1053 1044
1044 1053 1054 1045
1045 1054 1055 1046
1046 1055 1056 1047
1047 1056 1057 1048
1048 1057 1058 1049
1049 1058 1059 1050
1050 1059 1060 1051
1051 1060 169 168
64 65 1061 1052
1052 1061 1062 1053
1053 1062 1063 1054
1054 1063 1064 1055
1055 1064 1065 1056
1056 1065 1066 1057
1057 1066 1067 1058
1058 1067 1068 1059
1059 1068 1069 1060
1060 1069 170 169
65 66 1070 1061
1061 1070 1071 1062
1062 1071 1072 1063
1063 1072 1073 1064
1064 1073 1074 1065
1065 1074 1075 1066
1066 1075 1076 1067
1067 1076 1077 1068
1068 1077 1078 1069
1069 1078 171 170
66 67 1079 1070
1070 1079 1080 1071
1071 1080 1081 1072
1072 1081 1082 1073
1073 1082 1083 1074
1074 1083 1084 1075
1075 1084 1085 1076
1076 1085 1086 1077
1077 1086 1087 1078
1078 1087 172 171
67 68 1088 1079
1079 1088 1089 1080
1080 1089 1090 1081
1081 1090 1091 1082
1082 1091 1092 1083
1083 1092 1093 1084
1084 1093 1094 1085
1085 1094 1095 1086
1086 1095 1096 1087
1087 1096 173 172
68 69 1097 1088
1088 1097 1098 1089
1089 1098 1099 1090
1090 1099 1100 1091
1091 1100 1101 1092
1092 1101 1102 1093
1093 1102 1103 1094
1094 1103 1104 1095
1095 1104 1105 1096
1096 1105 174 173
69 70 1106 1097
1097 1106 1107 1098
1098 1107 1108 1099
1099 1108 1109 1100
1100 1109 1110 1101
1101 1110 1111 1102
1102 1111 1112 1103
1103 1112 1113 1104
1104 1113 1114 1105
1105 1114 175 174
70 71 1115 1106
1106 1115 1116 1107
1107 1116 1117 1108
1108 1117 1118 1109
1109 1118 1119 1110
1110 1119 1120 1111
1111 1120 1121 1112
1112 1121 1122 1113
1113 1122 1123 1114
1114 1123 176 175
71 72 1124 1115
1115 1124 1125 1116
1116 1125 1126 1117
1117 1126 1127 1118
1118 1127 1128 1119
1119 1128 1129 1120
1120 1129 1130 1121
1121 1130 1131 1122
1122 1131 1132 1123
1123 1132 177 176
72 73 1133 1124
1124 1133 1134 1125
1125 1134 1135 1126
1126 1135 1136 1127
1127 1136 1137 1128
1128 1137 1138 1129
1129 1138 1139 1130
1130 1139 1140 1131
1131 1140 1141 1132
1132 1141 178 177
73 74 1142 1133
1133 1142 1143 1134
1134 1143 1144 1135
1135 1144 1145 1136
1136 1145 1146 1137
1137 1146 1147 1138
1138 1147 1148 1139
1139 1148 1149 1140
1140 1149 1150 1141
1141 1150 179 178
74 75 1151 1142
1142 1151 1152 1143
1143 1152 1153 1144
1144 1153 1154 1145
1145 1154 1155 1146
1146 1155 1156 1147
1147 1156 1157 1148
1148 1157 1158 1149
1149 1158 1159 1150
1150 1159 180 179
75 76 1160 1151
1151 1160 1161 1152
1152 1161 1162 1153
1153 1162 1163 1154
1154 1163 1164 1155
1155 1164 1165 1156
1156 1165 1166 1157
1157 1166 1167 1158
1158 1167 1168 1159
1159 1168 181 180
76 5 199 1160
1160 199 198 1161
1161 198 197 1162
1162 197 196 1163
1163 196 195 1164
1164 195 194 1165
1165 194 193 1166
1166 193 192 1167
1167 192 191 1168
1168 191 10 181
3 49 1169 86
86 1169 1170 87
87 1170 1171 88
88 1171 1172 89
89 1172 1173 90
90 1173 1174 91
91 1174 1175 92
92 1175 1176 93
93 1176 1177 94
94 1177 208 7
49 50 1178 1169
1169 1178 1179 1170
1170 1179 1180 1171
1171 1180 1181 1172
1172 1181 1182 1173
1173 1182 1183 1174
1174 1183 1184 1175
1175 1184 1185 1176
1176 1185 1186 1177
1177 1186 207 208
50 51 1187 1178
1178 1187 1188 1179
1179 1188 1189 1180
1180 1189 1190 1181
1181 1190 1191 1182
1182 1191 1192 1183
1183 1192 1193 1184
1184 1193 1194 1185
1185 1194 1195 1186
1186 1195 206 207
51 52 1196 1187
1187 1196 1197 1188
1188 1197 1198 1189
1189 1198 1199 1190
1190 1199 1200 1191
1191 1200 1201 1192
1192 1201 1202 1193
1193 1202 1203 1194
1194 1203 1204 1195
1195 1204 205 206
52 53 1205 1196
1196 1205 1206 1197
1197 1206 1207 1198
1198 1207 1208 1199
1199 1208 1209 1200
1200 1209 1210 1201
1201 1210 1211 1202
1202 1211 1212 1203
1203 1212 1213 1204
1204 1213 204 205
53 54 1214 1205
1205 1214 1215 1206
1206 1215 1216 1207
1207 1216 1217 1208
1208 1217 1218 1209
1209 1218 1219 1210
1210 1219 1220 1211
1211 1220 1221 1212
1212 1221 1222 1213
1213 1222 203 204
54 55 1223 1214
1214 1223 1224 1215
1215 1224 1225 1216
1216 1225 1226 1217
1217 1226 1227 1218
1218 1227 1228 1219
1219 1228 1229 1220
1220 1229 1230 1221
1221 1230 1231 1222
1222 1231 202 203
55 56 1232 1223
1223 1232 1233 1224
1224 1233 1234 1225
1225 1234 1235 1226
1226 1235 1236 1227
1227 1236 1237 1228
1228 1237 1238 1229
1229 1238 1239 1230
1230 1239 1240 1231
1231 1240 201 202
56 57 1241 1232
1232 1241 1242 1233
1233 1242 1243 1234
1234 1243 1244 1235
1235 1244 1245 1236
1236 1245 1246 1237
1237 1246 1247 1238
1238 1247 1248 1239
1239 1248 1249 1240
1240 1249 200 201
57 4 190 1241
1241 190 189 1242
1242 189 188 1243
1243 188 187 1244
1244 187 186 1245
1245 186 185 1246
1246 185 184 1247
1247 184 183 1248
1248 183 182 1249
1249 182 9 200
5 77 1250 199
199 1250 1251 198
198 1251 1252 197
197 1252 1253 196
196 1253 1254 195
195 1254 1255 194
194 1255 1256 193
193 1256 1257 192
192 1257 1258 191
191 1258 209 10
77 78 1259 1250
1250 1259 1260 1251
1251 1260 1261 1252
1252 1261 1262 1253
1253 1262 1263 1254
1254 1263 1264 1255
1255 1264 1265 1256
1256 1265 1266 1257
1257 1266 1267 1258
1258 1267 210 209
78 79 1268 1259
1259 1268 1269 1260
1260 1269 1270 1261
1261 1270 1271 1262
1262 1271 1272 1263
1263 1272 1273 1264
1264 1273 1274 1265
1265 1274 1275 1266
1266 1275 1276 1267
1267 1276 211 210
79 80 1277 1268
1268 1277 1278 1269
1269 1278 1279 1270
1270 1279 1280 1271
1271 1280 1281 1272
1272 1281 1282 1273
1273 1282 1283 1274
1274 1283 1284 1275
1275 1284 1285 1276
1276 1285 212 211
80 81 1286 1277
1277 1286 1287 1278
1278 1287 1288 1279
1279 1288 1289 1280
1280 1289 1290 1281
1281 1290 1291 1282
1282 1291 1292 1283
1283 1292 1293 1284
1284 1293 1294 1285
1285 1294 213 212
81 82 1295 1286
1286 1295 1296 1287
1287 1296 1297 1288
1288 1297 1298 1289
1289 1298 1299 1290
1290 1299 1300 1291
1291 1300 1301 1292
1292 1301 1302 1293
1293 1302 1303 1294
1294 1303 214 213
82 83 1304 1295
1295 1304 1305 1296
1296 1305 1306 1297
1297 1306 1307 1298
1298 1307 1308 1299
1299 1308 1309 1300
1300 1309 1310 1301
1301 1310 1311 1302
1302 1311 1312 1303
1303 1312 215 214
83 84 1313 1304
1304 1313 1314 1305
1305 1314 1315 1306
1306 1315 1316 1307
1307 1316 1317 1308
1308 1317 1318 1309
1309 1318 1319 1310
1310 1319 1320 1311
1311 1320 1321 1312
1312 1321 216 215
84 85 1322 1313
1313 1322 1323 1314
1314 1323 1324 1315
1315 1324 1325 1316
1316 1325 1326 1317
1317 1326 1327 1318
1318 1327 1328 1319
1319 1328 1329 1320
1320 1329 1330 1321
1321 1330 217 216
85 6 122 1322
1322 122 121 1323
1323 121 120 1324
1324 120 119 1325
1325 119 118 1326
1326 118 117 1327
1327 117 116 1328
1328 116 115 1329
1329 115 114 1330
1330 114 8 217
9 163 1331 200
200 1331 1332 201
201 1332 1333 202
202 1333 1334 203
203 1334 1335 204
204 1335 1336 205
205 1336 1337 206
206 1337 1338 207
207 1338 1339 208
208 1339 95 7
163 164 1340 1331
1331 1340 1341 1332
1332 1341 1342 1333
1333 1342 1343 1334
1334 1343 1344 1335
1335 1344 1345 1336
1336 1345 1346 1337
1337 1346 1347 1338
1338 1347 1348 1339
1339 1348 96 95
164 165 1349 1340
1340 1349 1350 1341
1341 1350 1351 1342
1342 1351 1352 1343
1343 1352 1353 1344
1344 1353 1354 1345
1345 1354 1355 1346
1346 1355 1356 1347
1347 1356 1357 1348
1348 1357 97 96
165 166 1358 1349
1349 1358 1359 1350
1350 1359 1360 1351
1351 1360 1361 1352
1352 1361 1362 1353
1353 1362 1363 1354
1354 1363 1364 1355
1355 1364 1365 1356
1356 1365 1366 1357
1357 1366 98 97
166 167 1367 1358
1358 1367 1368 1359
1359 1368 1369 1360
1360 1369 1370 1361
1361 1370 1371 1362
1362 1371 1372 1363
1363 1372 1373 1364
1364 1373 1374 1365
1365 1374 1375 1366
1366 1375 99 98
167 168 1376 1367
1367 1376 1377 1368
1368 1377 1378 1369
1369 1378 1379 1370
1370 1379 1380 1371
1371 1380 1381 1372
1372 1381 1382 1373
1373 1382 1383 1374
1374 1383 1384 1375
1375 1384 100 99
168 169 1385 1376
1376 1385 1386 1377
1377 1386 1387 1378
1378 1387 1388 1379
1379 1388 1389 1380
1380 1389 1390 1381
1381 1390 1391 1382
1382 1391 1392 1383
1383 1392 1393 1384
1384 1393 101 100
169 170 1394 1385
1385 1394 1395 1386
1386 1395 1396 1387
1387 1396 1397 1388
1388 1397 1398 1389
1389 1398 1399 1390
1390 1399 1400 1391
1391 1400 1401 1392
1392 1401 1402 1393
1393 1402 102 101
170 171 1403 1394
1394 1403 1404 1395
1395 1404 1405 1396
1396 1405 1406 1397
1397 1406 1407 1398
1398 1407 1408 1399
1399 1408 1409 1400
1400 1409 1410 1401
1401 1410 1411 1402
1402 1411 103 102
171 172 1412 1403
1403 1412 1413 1404
1404 1413 1414 1405
1405 1414 1415 1406
1406 1415 1416 1407
1407 1416 1417 1408
1408 1417 1418 1409
1409 1418 1419 1410
1410 1419 1420 1411
1411 1420 104 103
172 173 1421 1412
1412 1421 1422 1413
1413 1422 1423 1414
1414 1423 1424 1415
1415 1424 1425 1416
1416 1425 1426 1417
1417 1426 1427 1418
1418 1427 1428 1419
1419 1428 1429 1420
1420 1429 105 104
173 174 1430 1421
1421 1430 1431 1422
1422 1431 1432 1423
1423 1432 1433 1424
1424 1433 1434 1425
1425 1434 1435 1426
1426 1435 1436 1427
1427 1436 1437 1428
1428 1437 1438 1429
1429 1438 106 105
174 175 1439 1430
1430 1439 1440 1431
1431 1440 1441 1432
1432 1441 1442 1433
1433 1442 1443 1434
1434 1443 1444 1435
1435 1444 1445 1436
1436 1445 1446 1437
1437 1446 1447 1438
1438 1447 107 106
175 176 1448 1439
1439 1448 1449 1440
1440 1449 1450 1441
1441 1450 1451 1442
1442 1451 1452 1443
1443 1452 1453 1444
1444 1453 1454 1445
1445 1454 1455 1446
1446 1455 1456 1447
1447 1456 108 107
176 177 1457 1448
1448 1457 1458 1449
1449 1458 1459 1450
1450 1459 1460 1451
1451 1460 1461 1452
1452 1461 1462 1453
1453 1462 1463 1454
1454 1463 1464 1455
1455 1464 1465 1456
1456 1465 109 108
177 178 1466 1457
1457 1466 1467 1458
1458 1467 1468 1459
1459 1468 1469 1460
1460 1469 1470 1461
1461 1470 1471 1462
1462 1471 1472 1463
1463 1472 1473 1464
1464 1473 1474 1465
1465 1474 110 109
178 179 1475 1466
1466 1475 1476 1467
1467 1476 1477 1468
1468 1477 1478 1469
1469 1478 1479 1470
1470 1479 1480 1471
1471 1480 1481 1472
1472 1481 1482 1473
1473 1482 1483 1474
1474 1483 111 110
179 180 1484 1475
1475 1484 1485 1476
1476 1485 1486 1477
1477 1486 1487 1478
1478 1487 1488 1479
1479 1488 1489 1480
1480 1489 1490 1481
1481 1490 1491 1482
1482 1491 1492 1483
1483 1492 112 111
180 181 1493 1484
1484 1493 1494 1485
1485 1494 1495 1486
1486 1495 1496 1487
1487 1496 1497 1488
1488 1497 1498 1489
1489 1498 1499 1490
1490 1499 1500 1491
1491 1500 1501 1492
1492 1501 113 112
181 10 209 1493
1493 209 210 1494
1494 210 211 1495
1495 211 212 1496
1496 212 213 1497
1497 213 214 1498
1498 214 215 1499
1499 215 216 1500
1500 216 217 1501
1501 217 8 113
</DataArray>
<DataArray type="Int64" Name="offsets" format="ascii">
4
8
12
16
20
24
28
32
36
40
44
48
52
56
60
64
68
72
76
80
84
88
92
96
100
104
108
112
116
120
124
128
132
136
140
144
148
152
156
160
164
168
172
176
180
184
188
192
196
200
204
208
212
216
220
224
228
232
236
240
244
248
252
256
260
264
268
272
276
280
284
288
292
296
300
304
308
312
316
320
324
328
332
336
340
344
348
352
356
360
364
368
372
376
380
384
388
392
396
400
404
408
412
416
420
424
428
432
436
440
444
448
452
456
460
464
468
472
476
480
484
488
492
496
500
504
508
512
516
520
524
528
532
536
540
544
548
552
556
560
564
568
572
576
580
584
588
592
596
600
604
608
612
616
620
624
628
632
636
640
644
648
652
656
660
664
668
672
676
680
684
688
692
696
700
704
708
712
716
720
724
728
732
736
740
744
748
752
756
760
764
768
772
776
780
784
788
792
796
800
804
808
812
816
820
824
828
832
836
840
844
848
852
856
860
864
868
872
876
880
884
888
892
896
900
904
908
912
916
920
924
928
932
936
940
944
948
952
956
960
964
968
972
976
980
984
988
992
996
1000
1004
1008
1012
1016
1020
1024
1028
1032
1036
1040
1044
1048
1052
1056
1060
1064
1068
1072
1076
1080
1084
1088
1092
1096
1100
1104
1108
1112
1116
1120
1124
1128
1132
1136
1140
1144
1148
1152
1156
1160
1164
1168
1172
1176
1180
1184
1188
1192
1196
1200
1204
1208
1212
1216
1220
1224
1228
1232
1236
1240
1244
1248
1252
1256
1260
1264
1268
1272
1276
1280
1284
1288
1292
1296
1300
1304
1308
1312
1316
1320
1324
1328
1332
1336
1340
1344
1348
1352
1356
1360
1364
1368
1372
1376
1380
1384
1388
1392
1396
1400
1404
1408
1412
1416
1420
1424
1428
1432
1436
1440
1444
1448
1452
1456
1460
1464
1468
1472
1476
1480
1484
1488
1492
1496
1500
1504
1508
1512
1516
1520
1524
1528
1532
1536
1540
1544
1548
1552
1556
1560
1564
1568
1572
1576
1580
1584
1588
1592
1596
1600
1604
1608
1612
1616
1620
1624
1628
1632
1636
1640
1644
1648
1652
1656
1660
1664
1668
1672
1676
1680
1684
1688
1692
1696
1700
1704
1708
1712
1716
1720
1724
1728
1732
1736
1740
1744
1748
1752
1756
1760
1764
1768
1772
1776
1780
1784
1788
1792
1796
1800
1804
1808
1812
1816
1820
1824
1828
1832
1836
1840
1844
1848
1852
1856
1860
1864
1868
1872
1876
1880
1884
1888
1892
1896
1900
1904
1908
1912
1916
1920
1924
1928
1932
1936
1940
1944
1948
1952
1956
1960
1964
1968
1972
1976
1980
1984
1988
1992
1996
2000
2004
2008
2012
2016
2020
2024
2028
2032
2036
2040
2044
2048
2052
2056
2060
2064
2068
2072
2076
2080
2084
2088
2092
2096
2100
2104
2108
2112
2116
2120
2124
2128
2132
2136
2140
2144
2148
2152
2156
2160
2164
2168
2172
2176
2180
2184
2188
2192
2196
2200
2204
2208
2212
2216
2220
2224
2228
2232
2236
2240
2244
2248
2252
2256
2260
2264
2268
2272
2276
2280
2284
2288
2292
2296
2300
2304
2308
2312
2316
2320
2324
2328
2332
2336
2340
2344
2348
2352
2356
2360
2364
2368
2372
2376
2380
2384
2388
2392
2396
2400
2404
2408
2412
2416
2420
2424
2428
2432
2436
2440
2444
2448
2452
2456
2460
2464
2468
2472
2476
2480
2484
2488
2492
2496
2500
2504
2508
2512
2516
2520
2524
2528
2532
2536
2540
2544
2548
2552
2556
2560
2564
2568
2572
2576
2580
2584
2588
2592
2596
2600
2604
2608
2612
2616
2620
2624
2628
2632
2636
2640
2644
2648
2652
2656
2660
2664
2668
2672
2676
2680
2684
2688
2692
2696
2700
2704
2708
2712
2716
2720
2724
2728
2732
2736
2740
2744
2748
2752
2756
2760
2764
2768
2772
2776
2780
2784
2788
2792
2796
2800
2804
2808
2812
2816
2820
2824
2828
2832
2836
2840
2844
2848
2852
2856
2860
2864
2868
2872
2876
2880
2884
2888
2892
2896
2900
2904
2908
2912
2916
2920
2924
2928
2932
2936
2940
2944
2948
2952
2956
2960
2964
2968
2972
2976
2980
2984
2988
2992
2996
3000
3004
3008
3012
3016
3020
3024
3028
3032
3036
3040
3044
3048
3052
3056
3060
3064
3068
3072
3076
3080
3084
3088
3092
3096
3100
3104
3108
3112
3116
3120
3124
3128
3132
3136
3140
3144
3148
3152
3156
3160
3164
3168
3172
3176
3180
3184
3188
3192
3196
3200
3204
3208
3212
3216
3220
3224
3228
3232
3236
3240
3244
3248
3252
3256
3260
3264
3268
3272
3276
3280
3284
3288
3292
3296
3300
3304
3308
3312
3316
3320
3324
3328
3332
3336
3340
3344
3348
3352
3356
3360
3364
3368
3372
3376
3380
3384
3388
3392
3396
3400
3404
3408
3412
3416
3420
3424
3428
3432
3436
3440
3444
3448
3452
3456
3460
3464
3468
3472
3476
3480
3484
3488
3492
3496
3500
3504
3508
3512
3516
3520
3524
3528
3532
3536
3540
3544
3548
3552
3556
3560
3564
3568
3572
3576
3580
3584
3588
3592
3596
3600
3604
3608
3612
3616
3620
3624
3628
3632
3636
3640
3644
3648
3652
3656
3660
3664
3668
3672
3676
3680
3684
3688
3692
3696
3700
3704
3708
3712
3716
3720
3724
3728
3732
3736
3740
3744
3748
3752
3756
3760
3764
3768
3772
3776
3780
3784
3788
3792
3796
3800
3804
3808
3812
3816
3820
3824
3828
3832
3836
3840
3844
3848
3852
3856
3860
3864
3868
3872
3876
3880
3884
3888
3892
3896
3900
3904
3908
3912
3916
3920
3924
3928
3932
3936
3940
3944
3948
3952
3956
3960
3964
3968
3972
3976
3980
3984
3988
3992
3996
4000
4004
4008
4012
4016
4020
4024
4028
4032
4036
4040
4044
4048
4052
4056
4060
4064
4068
4072
4076
4080
4084
4088
4092
4096
4100
4104
4108
4112
4116
4120
4124
4128
4132
4136
4140
4144
4148
4152
4156
4160
4164
4168
4172
4176
4180
4184
4188
4192
4196
4200
4204
4208
4212
4216
4220
4224
4228
4232
4236
4240
4244
4248
4252
4256
4260
4264
4268
4272
4276
4280
4284
4288
4292
4296
4300
4304
4308
4312
4316
4320
4324
4328
4332
4336
4340
4344
4348
4352
4356
4360
4364
4368
4372
4376
4380
4384
4388
4392
4396
4400
4404
4408
4412
4416
4420
4424
4428
4432
4436
4440
4444
4448
4452
4456
4460
4464
4468
4472
4476
4480
4484
4488
4492
4496
4500
4504
4508
4512
4516
4520
4524
4528
4532
4536
4540
4544
4548
4552
4556
4560
4564
4568
4572
4576
4580
4584
4588
4592
4596
4600
4604
4608
4612
4616
4620
4624
4628
4632
4636
4640
4644
4648
4652
4656
4660
4664
4668
4672
4676
4680
4684
4688
4692
4696
4700
4704
4708
4712
4716
4720
4724
4728
4732
4736
4740
4744
4748
4752
4756
4760
4764
4768
4772
4776
4780
4784
4788
4792
4796
4800
4804
4808
4812
4816
4820
4824
4828
4832
4836
4840
4844
4848
4852
4856
4860
4864
4868
4872
4876
4880
4884
4888
4892
4896
4900
4904
4908
4912
4916
4920
4924
4928
4932
4936
4940
4944
4948
4952
4956
4960
4964
4968
4972
4976
4980
4984
4988
4992
4996
5000
5004
5008
5012
5016
5020
5024
5028
5032
5036
5040
5044
5048
5052
5056
5060
5064
5068
5072
5076
5080
5084
5088
5092
5096
5100
5104
5108
5112
5116
5120
5124
5128
5132
5136
5140
5144
5148
5152
5156
5160
5164
5168
5172
5176
5180
5184
5188
5192
5196
5200
5204
5208
5212
5216
5220
5224
5228
5232
5236
5240
5244
5248
5252
5256
5260
5264
5268
5272
5276
5280
5284
5288
5292
5296
5300
5304
5308
5312
5316
5320
5324
5328
5332
5336
5340
5344
5348
5352
5356
5360
5364
5368
5372
5376
5380
5384
5388
5392
5396
5400
5404
5408
5412
5416
5420
5424
5428
5432
5436
5440
5444
5448
5452
5456
5460
5464
5468
5472
5476
5480
5484
5488
5492
5496
5500
5504
5508
5512
5516
5520
5524
5528
5532
5536
5540
5544
5548
5552
5556
5560
5564
5568
5572
5576
5580
5584
5588
5592
5596
5600
5604
5608
5612
5616
5620
5624
5628
5632
5636
5640
5644
5648
5652
5656
5660
5664
5668
5672
5676
5680
5684
5688
5692
5696
5700
5704
5708
5712
5716
5720
5724
5728
5732
5736
5740
5744
5748
5752
5756
5760
</DataArray>
<DataArray type="Int64" Name="types" format="ascii">
9
9
9
9
9
9
9
9
9
9
9
9
9
9
9
9
9
9
9
9
9
9
9
9
9
9
9
9
9
9
9
9
9
9
9
9
9
9
9
9
9
9
9
9
9
9
9
9
9
9
9
9
9
9
9
9
9
9
9
9
9
9
9
9
9
9
9
9
9
9
9
9
9
9
9
9
9
9
9
9
9
9
9
9
9
9
9
9
9
9
9
9
9
9
9
9
9
9
9
9
9
9
9
9
9
9
9
9
9
9
9
9
9
9
9
9
9
9
9
9
9
9
9
9
9
9
9
9
9
9
9
9
9
9
9
9
9
9
9
9
9
9
9
9
9
9
9
9
9
9
9
9
9
9
9
9
9
9
9
9
9
9
9
9
9
9
9
9
9
9
9
9
9
9
9
9
9
9
9
9
9
9
9
9
9
9
9
9
9
9
9
9
9
9
9
9
9
9
9
9
9
9
9
9
9
9
9
9
9
9
9
9
9
9
9
9
9
9
9
9
9
9
9
9
9
9
9
9
9
9
9
9
9
9
9
9
9
9
9
9
9
9
9
9
9
9
9
9
9
9
9
9
9
9
9
9
9
9
9
9
9
9
9
9
9
9
9
9
9
9
9
9
9
9
9
9
9
9
9
9
9
9
9
9
9
9
9
9
9
9
9
9
9
9
9
9
9
9
9
9
9
9
9
9
9
9
9
9
9
9
9
9
9
9
9
9
9
9
9
9
9
9
9
9
9
9
9
9
9
9
9
9
9
9
9
9
9
9
9
9
9
9
9
9
9
9
9
9
9
9
9
9
9
9
9
9
9
9
9
9
9
9
9
9
9
9
9
9
9
9
9
9
9
9
9
9
9
9
9
9
9
9
9
9
9
9
9
9
9
9
9
9
9
9
9
9
9
9
9
9
9
9
9
9
9
9
9
9
9
9
9
9
9
9
9
9
9
9
9
9
9
9
9
9
9
9
9
9
9
9
9
9
9
9
9
9
9
9
9
9
9
9
9
9
9
9
9
9
9
9
9
9
9
9
9
9
9
9
9
9
9
9
9
9
9
9
9
9
9
9
9
9
9
9
9
9
9
9
9
9
9
9
9
9
9
9
9
9
9
9
9
9
9
9
9
9
9
9
9
9
9
9
9
9
9
9
9
9
9
9
9
9
9
9
9
9
9
9
9
9
9
9
9
9
9
9
9
9
9
9
9
9
9
9
9
9
9
9
9
9
9
9
9
9
9
9
9
9
9
9
9
9
9
9
9
9
9
9
9
9
9
9
9
9
9
9
9
9
9
9
9
9
9
9
9
9
9
9
9
9
9
9
9
9
9
9
9
9
9
9
9
9
9
9
9
9
9
9
9
9
9
9
9
9
9
9
9
9
9
9
9
9
9
9
9
9
9
9
9
9
9
9
9
9
9
9
9
9
9
9
9
9
9
9
9
9
9
9
9
9
9
9
9
9
9
9
9
9
9
9
9
9
9
9
9
9
9
9
9
9
9
9
9
9
9
9
9
9
9
9
9
9
9
9
9
9
9
9
9
9
9
9
9
9
9
9
9
9
9
9
9
9
9
9
9
9
9
9
9
9
9
9
9
9
9
9
9
9
9
9
9
9
9
9
9
9
9
9
9
9
9
9
9
9
9
9
9
9
9
9
9
9
9
9
9
9
9
9
9
9
9
9
9
9
9
9
9
9
9
9
9
9
9
9
9
9
9
9
9
9
9
9
9
9
9
9
9
9
9
9
9
9
9
9
9
9
9
9
9
9
9
9
9
9
9
9
9
9
9
9
9
9
9
9
9
9
9
9
9
9
9
9
9
9
9
9
9
9
9
9
9
9
9
9
9
9
9
9
9
9
9
9
9
9
9
9
9
9
9
9
9
9
9
9
9
9
9
9
9
9
9
9
9
9
9
9
9
9
9
9
9
9
9
9
9
9
9
9
9
9
9
9
9
9
9
9
9
9
9
9
9
9
9
9
9
9
9
9
9
9
9
9
9
9
9
9
9
9
9
9
9
9
9
9
9
9
9
9
9
9
9
9
9
9
9
9
9
9
9
9
9
9
9
9
9
9
9
9
9
9
9
9
9
9
9
9
9
9
9
9
9
9
9
9
9
9
9
9
9
9
9
9
9
9
9
9
9
9
9
9
9
9
9
9
9
9
9
9
9
9
9
9
9
9
9
9
9
9
9
9
9
9
9
9
9
9
9
9
9
9
9
9
9
9
9
9
9
9
9
9
9
9
9
9
9
9
9
9
9
9
9
9
9
9
9
9
9
9
9
9
9
9
9
9
9
9
9
9
9
9
9
9
9
9
9
9
9
9
9
9
9
9
9
9
9
9
9
9
9
9
9
9
9
9
9
9
9
9
9
9
9
9
9
9
9
9
9
9
9
9
9
9
9
9
9
9
9
9
9
9
9
9
9
9
9
9
9
9
9
9
9
9
9
9
9
9
9
9
9
9
9
9
9
9
9
9
9
9
9
9
9
9
9
9
9
9
9
9
9
9
9
9
9
9
9
9
9
9
9
9
9
9
9
9
9
9
9
9
9
9
9
9
9
9
9
9
9
9
9
9
9
9
9
9
9
9
9
9
9
9
9
9
9
9
9
9
9
9
9
9
9
9
9
9
9
9
9
9
9
9
9
9
9
9
9
9
9
9
9
9
9
9
9
9
9
9
9
9
9
9
9
9
9
9
9
9
9
9
9
9
9
9
9
9
9
9
9
9
9
9
9
9
9
9
9
9
9
9
9
9
9
9
9
9
9
9
9
9
9
9
9
9
9
9
9
9
9
9
9
9
9
9
9
9
9
9
9
9
9
9
9
9
9
9
9
9
9
9
9
9
9
9
9
9
9
9
9
9
9
9
9
9
9
9
9
9
9
9
9
9
9
9
9
9
9
9
9
9
9
9
9
9
9
9
9
9
9
9
9
9
9
9
9
9
9
9
9
9
9
9
9
9
9
9
9
9
9
9
9
9
9
9
9
9
9
9
9
9
9
9
9
9
9
9
9
9
9
9
9
9
9
9
9
9
9
9
9
9
9
9
9
9
9
9
9
9
9
9
9
9
9
9
9
9
9
9
9
9
9
9
9
9
9
9
9
9
9
9
9
9
9
9
9
9
9
9
9
9
9
9
9
9
9
9
9
9
9
9
9
9
9
9
9
9
9
9
9
9
9
9
9
9
9
9
9
9
9
9
9
9
9
9
9
9
9
9
9
9
9
9
9
9
9
9
9
9
9
9
9
9
</DataArray>
</Cells>
<PointData Vectors="'U'">
<DataArray type="Float64" Name="U" NumberOfComponents="2" ComponentName0="U1" ComponentName1="U2" format="ascii">
-0.6967945534641E-37 -0.1817563917575E-36
-0.5087545133229E-37 -0.1413128334871E-37
-0.6475953277500E-37  0.1692467794686E-36
 0.1864085940022E-01 -0.1830387610986E-01
 0.2739788231380E-01 -0.9174269057275E-02
 0.4108533025731E-01 -0.2563781650781E-01
 0.4734870207449E-01 -0.5935089885677E-01
 0.2205284013465E+00 -0.4642584573923E+00
 0.7220305731938E+00 -0.3017059043440E+00
 0.1286552353298E+00 -0.6666904581198E+00
 0.7096614340494E+00 -0.3552258840659E+00
 0.6001322605663E-37 -0.1456248719503E-37
 0.5033608993510E-37 -0.7703672566423E-38
 0.4423452548614E-37 -0.7765603298734E-38
 0.3843833418271E-37 -0.9019120823183E-38
 0.3259448806431E-37 -0.1030767196469E-37
 0.2671300249660E-37 -0.1137060258926E-37
 0.2083482134288E-37 -0.1217272922131E-37
 0.1498828881600E-37 -0.1274142616418E-37
 0.9188755406212E-38 -0.1311941290975E-37
 0.3443806163825E-38 -0.1334965162994E-37
-0.2220562034270E-38 -0.1347506188145E-37
-0.7826412286426E-38 -0.1354451302238E-37
-0.1337773711972E-37 -0.1358329469731E-37
-0.1887687015176E-37 -0.1361215115093E-37
-0.2432606145125E-37 -0.1364669240173E-37
-0.2972724974175E-37 -0.1369771315529E-37
-0.3508195029985E-37 -0.1377151455531E-37
-0.4039121758380E-37 -0.1387020243249E-37
-0.4565565417622E-37 -0.1399195976853E-37
-0.5605044349793E-37 -0.1427919351346E-37
-0.6118016928086E-37 -0.1442340808296E-37
-0.6626392833869E-37 -0.1454847626951E-37
-0.7130082185145E-37 -0.1463586771115E-37
-0.7628976379168E-37 -0.1466399386119E-37
-0.8122943491959E-37 -0.1460816682355E-37
-0.8611814778596E-37 -0.1444046822152E-37
-0.9095356801681E-37 -0.1412952115058E-37
-0.9573221568865E-37 -0.1364025173631E-37
-0.1004496628239E-36 -0.1293383338671E-37
-0.1051254481764E-36 -0.1179154101774E-37
-0.1097159247878E-36 -0.1031938612086E-37
-0.1141934848852E-36 -0.8468612574360E-38
-0.1185141330194E-36 -0.6199013932075E-38
-0.1226080379614E-36 -0.3510707820977E-38
-0.1263831772147E-36 -0.5426236965909E-39
-0.1298233518584E-36  0.2085064782445E-38
-0.1337088964227E-36  0.1850685172286E-38
-0.1451187410784E-36 -0.1351449557054E-37
 0.1923649041809E-01 -0.1301106533878E-01
 0.2025542922856E-01 -0.1048067937757E-01
 0.2129870774568E-01 -0.9110361694318E-02
 0.2228713613689E-01 -0.8379913657710E-02
 0.2322086412211E-01 -0.8044979589916E-02
 0.2411170129281E-01 -0.7974667195070E-02
 0.2497026143473E-01 -0.8092503368628E-02
 0.2580342759334E-01 -0.8350720876694E-02
 0.2661392000010E-01 -0.8717901832593E-02
 0.2815833023887E-01 -0.9691813816588E-02
 0.2891003552530E-01 -0.1024790262588E-01
 0.2965405240254E-01 -0.1083959552407E-01
 0.3039082737981E-01 -0.1146161447300E-01
 0.3112046690189E-01 -0.1210975387514E-01
 0.3184291441671E-01 -0.1278112328761E-01
 0.3255798248577E-01 -0.1347409761483E-01
 0.3326539023850E-01 -0.1418822984039E-01
 0.3396480376358E-01 -0.1492416478382E-01
 0.3465588101781E-01 -0.1568357102238E-01
 0.3533831414384E-01 -0.1646909107953E-01
 0.3601186688512E-01 -0.1728431196525E-01
 0.3667640416939E-01 -0.1813375704212E-01
 0.3733191189618E-01 -0.1902290182132E-01
 0.3797850693000E-01 -0.1995822034292E-01
 0.3861643156486E-01 -0.2094726703690E-01
 0.3924602945398E-01 -0.2199879846807E-01
 0.3986764830397E-01 -0.2312296434959E-01
 0.4048156026365E-01 -0.2433118958872E-01
 0.4169684677265E-01 -0.2709111692664E-01
 0.4230753976716E-01 -0.2868753073297E-01
 0.4291976587462E-01 -0.3045602308003E-01
 0.4353895509557E-01 -0.3243707893103E-01
 0.4417482180245E-01 -0.3469114679269E-01
 0.4484249021300E-01 -0.3731462751379E-01
 0.4556123274605E-01 -0.4047433193841E-01
 0.4634102186247E-01 -0.4448805852702E-01
 0.4709813631856E-01 -0.5004978323144E-01
-0.1324136352933E+00 -0.1315510591640E+00
-0.1968283456496E+00 -0.1911013486557E+00
-0.2313251271290E+00 -0.2036171779956E+00
-0.2349147306845E+00 -0.1953727540955E+00
-0.2103931873213E+00 -0.1788994557957E+00
-0.1598831605957E+00 -0.1639569989895E+00
-0.8575634184043E-01 -0.1682601794813E+00
 0.2312823464127E-02 -0.2133820522702E+00
 0.1008958506623E+00 -0.3035083081657E+00
 0.2875610366403E+00 -0.5852365385081E+00
 0.3632326410807E+00 -0.7372785177537E+00
 0.4326103723923E+00 -0.8902413513545E+00
 0.4879877547118E+00 -0.1024231032712E+01
 0.5233571025644E+00 -0.1126585134855E+01
 0.5394802133678E+00 -0.1188152117355E+01
 0.5418894111672E+00 -0.1203834433220E+01
 0.5368820965251E+00 -0.1172220611306E+01
 0.5306722925937E+00 -0.1095449302565E+01
 0.5291807882902E+00 -0.9795682722388E+00
 0.5372422319884E+00 -0.8358298630053E+00
 0.5555991631516E+00 -0.6841628533445E+00
 0.5794071496583E+00 -0.5585589837591E+00
 0.6037640790327E+00 -0.4729351809846E+00
 0.6282819713603E+00 -0.4135643146457E+00
 0.6521155507393E+00 -0.3711516747076E+00
 0.6738427668227E+00 -0.3409859351938E+00
 0.6925519878680E+00 -0.3201583670395E+00
 0.7085959676667E+00 -0.3072534557750E+00
 0.7407246586048E+00 -0.3068494308047E+00
 0.7448213335273E+00 -0.3255936767759E+00
 0.7335712161047E+00 -0.3504606136974E+00
 0.7049519802566E+00 -0.3712938322405E+00
 0.6591638836133E+00 -0.3836813516238E+00
 0.5950170002772E+00 -0.3870163269080E+00
 0.5095265311178E+00 -0.3732716236171E+00
 0.3989055232768E+00 -0.3296250694393E+00
 0.2673993315763E+00 -0.2248971842788E+00
 0.3470591483611E-03  0.5215352350355E-03
 0.8304434107581E-03  0.9124287715692E-03
 0.1502271378256E-02  0.1241256937263E-02
 0.2349841915010E-02  0.1503291171471E-02
 0.3364051913663E-02  0.1695594730913E-02
 0.4534477334768E-02  0.1813240994325E-02
 0.5851264582359E-02  0.1849733375944E-02
 0.7304518171378E-02  0.1796432066952E-02
 0.8884297023661E-02  0.1641283215118E-02
 0.1057988123339E-01  0.1364556186371E-02
 0.1237390987390E-01  0.9517051280064E-03
 0.1423451133286E-01  0.4172966345932E-03
 0.1611940088995E-01 -0.2375083126104E-03
 0.1798042080121E-01 -0.1027168237865E-02
 0.1976108328602E-01 -0.1973986560609E-02
 0.2139304230863E-01 -0.3102255922250E-02
 0.2279520885652E-01 -0.4457663874365E-02
 0.2387154975985E-01 -0.6130889284365E-02
 0.2441359127118E-01 -0.8328521889987E-02
 0.2423461537900E-01 -0.1173965191418E-01
 0.3617586321943E-01 -0.4877069491773E-01
 0.3206203691505E-01 -0.4281432074055E-01
 0.2869411410678E-01 -0.3863065907604E-01
 0.2589790424276E-01 -0.3521894833560E-01
 0.2343567939281E-01 -0.3225864136301E-01
 0.2122212309175E-01 -0.2960634221346E-01
 0.1919789995886E-01 -0.2718706977080E-01
 0.1732747982747E-01 -0.2494584039975E-01
 0.1559066178892E-01 -0.2285001001438E-01
 0.1397595630891E-01 -0.2089471224281E-01
 0.1246614824302E-01 -0.1907961497039E-01
 0.1103249705400E-01 -0.1735199808656E-01
 0.9659825581402E-02 -0.1565038992289E-01
 0.8349048631379E-02 -0.1394299954312E-01
 0.7102213368210E-02 -0.1221419919350E-01
 0.5918571899514E-02 -0.1045269575714E-01
 0.4792629739329E-02 -0.8647882912637E-02
 0.3713009120560E-02 -0.6785912315879E-02
 0.2645869016348E-02 -0.4840098817637E-02
 0.1539896487261E-02 -0.2773513918374E-02
 0.1716819239253E+00 -0.7022633428050E+00
 0.2168430750599E+00 -0.7321327405661E+00
 0.2635551049670E+00 -0.7548328492364E+00
 0.3109624287073E+00 -0.7694820547012E+00
 0.3581748340078E+00 -0.7756250519358E+00
 0.4043162292461E+00 -0.7731535901826E+00
 0.4485557760896E+00 -0.7623042954551E+00
 0.4901375637981E+00 -0.7436621728612E+00
 0.5284127763389E+00 -0.7181335914288E+00
 0.5628726159592E+00 -0.6869075790681E+00
 0.5931818914836E+00 -0.6514030159062E+00
 0.6192086923967E+00 -0.6131895706105E+00
 0.6410442757682E+00 -0.5738852465475E+00
 0.6589857671522E+00 -0.5349559890256E+00
 0.6734640722872E+00 -0.4975584663359E+00
 0.6849544293500E+00 -0.4625333144834E+00
 0.6939136448881E+00 -0.4304471044541E+00
 0.7007498074819E+00 -0.4016719950467E+00
 0.7058264640405E+00 -0.3764769590018E+00
 0.9020923075903E-01 -0.5742325617074E+00
 0.5829204937462E-01 -0.4873164662619E+00
 0.3099312454256E-01 -0.4054721333417E+00
 0.7712729931260E-02 -0.3284695063099E+00
-0.1073569218513E-01 -0.2562964041290E+00
-0.2339484262089E-01 -0.1895059874109E+00
-0.2915867901610E-01 -0.1292797140464E+00
-0.2557034653160E-01 -0.7737156567374E-01
-0.8776676118468E-02 -0.3615539814102E-01
 0.6794220569015E+00 -0.3322759692057E+00
 0.6404487272880E+00 -0.3047665976579E+00
 0.5943384401112E+00 -0.2730748724497E+00
 0.5420050140263E+00 -0.2379131203846E+00
 0.4829379710626E+00 -0.2001800915482E+00
 0.4164242519486E+00 -0.1611892197599E+00
 0.3414858648667E+00 -0.1226544724205E+00
 0.2560905615481E+00 -0.8633550370656E-01
 0.1571881352534E+00 -0.5372600421604E-01
 0.1141058029556E+00 -0.6759442362511E+00
 0.1018906075792E+00 -0.6793447857907E+00
 0.9303643814463E-01 -0.6760924095885E+00
 0.8858168278803E-01 -0.6656542257530E+00
 0.8967729883705E-01 -0.6476960932747E+00
 0.9759997981818E-01 -0.6221852133612E+00
 0.1137112601451E+00 -0.5895228440273E+00
 0.1393071243602E+00 -0.5507384921724E+00
 0.1753111280327E+00 -0.5077476742145E+00
 0.7225135946366E+00 -0.3482259885946E+00
 0.7319184286757E+00 -0.3400638798089E+00
 0.7377940781249E+00 -0.3314835862588E+00
 0.7404814569558E+00 -0.3231308287738E+00
 0.7404903499653E+00 -0.3155680192543E+00
 0.7384221865743E+00 -0.3092581836551E+00
 0.7349163322319E+00 -0.3045484729637E+00
 0.7306085677869E+00 -0.3016622741593E+00
 0.7260930984960E+00 -0.3007000533244E+00
 0.3018156381164E-03  0.3683969243298E-03
 0.8068044222465E-03  0.6953996637313E-03
 0.1490375842923E-02  0.9507075739713E-03
 0.2354335710650E-02  0.1144567537713E-02
 0.3386754457947E-02  0.1272025890341E-02
 0.4577755092606E-02  0.1328170281805E-02
 0.5917329161703E-02  0.1306299064753E-02
 0.7395666419958E-02  0.1197726786116E-02
 0.9003034181467E-02  0.9904409000009E-03
 0.1072876077113E-01  0.6674093635963E-03
 0.1255455132974E-01  0.2241144545259E-03
 0.1444618867617E-01 -0.3167104577680E-03
 0.1635833119113E-01 -0.9512490109649E-03
 0.1823990964002E-01 -0.1689979121991E-02
 0.2003075990283E-01 -0.2545974437515E-02
 0.2165758630561E-01 -0.3534258445665E-02
 0.2303729632893E-01 -0.4684834734598E-02
 0.2404655488699E-01 -0.6043541065029E-02
 0.2452191517788E-01 -0.7714566941653E-02
 0.2364151961982E-01 -0.9708266410655E-02
 0.2771592173313E-03  0.2573649079571E-03
 0.7878893333880E-03  0.4954699386297E-03
 0.1485568526010E-02  0.6801065197804E-03
 0.2364269059470E-02  0.8057603952023E-03
 0.3414137511596E-02  0.8696567644032E-03
 0.4624677983042E-02  0.8661090284485E-03
 0.5985942083472E-02  0.7885661105492E-03
 0.7488095313413E-02  0.6286993755612E-03
 0.9121302115862E-02  0.3758034974635E-03
 0.1087380348362E-01  0.1719718141616E-04
 0.1272534937279E-01 -0.4450173377630E-03
 0.1464020979434E-01 -0.9845858956342E-03
 0.1657125408160E-01 -0.1594331864732E-02
 0.1846452269696E-01 -0.2279917431852E-02
 0.2025624195459E-01 -0.3047608485106E-02
 0.2186979265336E-01 -0.3903494525691E-02
 0.2321191307753E-01 -0.4859172690103E-02
 0.2415531339610E-01 -0.5929942665969E-02
 0.2444055086591E-01 -0.7094729663089E-02
 0.2334091337265E-01 -0.8390256221990E-02
 0.2654776545956E-03  0.1646873512634E-03
 0.7772649725809E-03  0.3157107869751E-03
 0.1486551297438E-02  0.4269465291946E-03
 0.2379344430847E-02  0.4858100051395E-03
 0.3445478886604E-02  0.4873678409245E-03
 0.4674407372152E-02  0.4261070796997E-03
 0.6055987435456E-02  0.2956432240419E-03
 0.7580246976103E-02  0.8849848187011E-04
 0.9236780474183E-02 -0.2039691952943E-03
 0.1101222246334E-01 -0.5902020799617E-03
 0.1288430612216E-01 -0.1063719239842E-02
 0.1481617947790E-01 -0.1596786868824E-02
 0.1675945858319E-01 -0.2179350887011E-02
 0.1865775562077E-01 -0.2812746632267E-02
 0.2044444060972E-01 -0.3498013694804E-02
 0.2203881732163E-01 -0.4233502284180E-02
 0.2334204040529E-01 -0.5019111385742E-02
 0.2421115536373E-01 -0.5843173089896E-02
 0.2437289014436E-01 -0.6678738951579E-02
 0.2338323825742E-01 -0.7637397674801E-02
 0.2620912880914E-03  0.8255462634595E-04
 0.7745993399846E-03  0.1520228931321E-03
 0.1493166800779E-02  0.1902019281627E-03
 0.2398900391550E-02  0.1831863978799E-03
 0.3480139321586E-02  0.1239861403709E-03
 0.4726103902855E-02  0.6996722522142E-05
 0.6126397477519E-02 -0.1736679291373E-03
 0.7670682198330E-02 -0.4243218383952E-03
 0.9347658961031E-02 -0.7513004486133E-03
 0.1114222898314E-01 -0.1159404917947E-02
 0.1303033029873E-01 -0.1639262460630E-02
 0.1497426351760E-01 -0.2162786002153E-02
 0.1692474106626E-01 -0.2717821391452E-02
 0.1882361673079E-01 -0.3302363782608E-02
 0.2060198816977E-01 -0.3913659013647E-02
 0.2217649398607E-01 -0.4545490730010E-02
 0.2344441215473E-01 -0.5190783692153E-02
 0.2425956105913E-01 -0.5834246550095E-02
 0.2439828113750E-01 -0.6479944001033E-02
 0.2365029816102E-01 -0.7257616065165E-02
 0.2641882253807E-03  0.7457091531334E-05
 0.7785796484603E-03  0.8605531690499E-06
 0.1504988159628E-02 -0.3189728154752E-04
 0.2422358674095E-02 -0.1035035271797E-03
 0.3517453778956E-02 -0.2218346924631E-03
 0.4778984462345E-02 -0.3925554377161E-03
 0.6196192886285E-02 -0.6208630606024E-03
 0.7758190419767E-02 -0.9117097684855E-03
 0.9452616752413E-02 -0.1269197098706E-02
 0.1126273029606E-01 -0.1695157389072E-02
 0.1316298866320E-01 -0.2178373809822E-02
 0.1511510868756E-01 -0.2691140860266E-02
 0.1706925991038E-01 -0.3220030860352E-02
 0.1896620550579E-01 -0.3760797018029E-02
 0.2073575913682E-01 -0.4308630658033E-02
 0.2229355004944E-01 -0.4855599490598E-02
 0.2353713794835E-01 -0.5394233513776E-02
 0.2433321761100E-01 -0.5919410684957E-02
 0.2452535614569E-01 -0.6461012098317E-02
 0.2405270082730E-01 -0.7133860235221E-02
 0.2699973352322E-03 -0.6250281397304E-04
 0.7878122086833E-03 -0.1403623537272E-03
 0.1521336576983E-02 -0.2412511506666E-03
 0.2449143873858E-02 -0.3757267631241E-03
 0.3556788985106E-02 -0.5515143485383E-03
 0.4832330931904E-02 -0.7740446583510E-03
 0.6264528331813E-02 -0.1047686695709E-02
 0.7841820692235E-02 -0.1375964018511E-02
 0.9550753818117E-02 -0.1760957034846E-02
 0.1137314753519E-01 -0.2202157076524E-02
 0.1328232882927E-01 -0.2687280289239E-02
 0.1523972239666E-01 -0.3189540528776E-02
 0.1719534913332E-01 -0.3695009113575E-02
 0.1908961030427E-01 -0.4198325379768E-02
 0.2085218907389E-01 -0.4694258225721E-02
 0.2239972675586E-01 -0.5175831257901E-02
 0.2363513321540E-01 -0.5640108079511E-02
 0.2444722371444E-01 -0.6095016120216E-02
 0.2474006791195E-01 -0.6583329622837E-02
 0.2453618369851E-01 -0.7194360060284E-02
 0.2783463328014E-03 -0.1284862489373E-03
 0.8010703199052E-03 -0.2735302531640E-03
 0.1541437094888E-02 -0.4396170687181E-03
 0.2478666852499E-02 -0.6349910705199E-03
 0.3597559564671E-02 -0.8665337413610E-03
 0.4885511623261E-02 -0.1139088094019E-02
 0.6330712657064E-02 -0.1456069733440E-02
 0.7920875433232E-02 -0.1819594790616E-02
 0.9641518141709E-02 -0.2229986454732E-02
 0.1147328664055E-01 -0.2684943275072E-02
 0.1338874253201E-01 -0.3171710528783E-02
 0.1534933955305E-01 -0.3664835377010E-02
 0.1730538686679E-01 -0.4150581079249E-02
 0.1919768757317E-01 -0.4623500727494E-02
 0.2095700516319E-01 -0.5079340353860E-02
 0.2250311415736E-01 -0.5514121306341E-02
 0.2374813288617E-01 -0.5931545161204E-02
 0.2460528377141E-01 -0.6350252444038E-02
 0.2502449995248E-01 -0.6816116764723E-02
 0.2506884915494E-01 -0.7392957780935E-02
 0.2884267544330E-03 -0.1912726139143E-03
 0.8173407931557E-03 -0.4000585422257E-03
 0.1564527230732E-02 -0.6285470374794E-03
 0.2510349101889E-02 -0.8827850743091E-03
 0.3639237886345E-02 -0.1168413814410E-02
 0.4937995840684E-02 -0.1489386878670E-02
 0.6394214375553E-02 -0.1848062175780E-02
 0.7994887569512E-02 -0.2245215398799E-02
 0.9724640035388E-02 -0.2679680823244E-02
 0.1156324003324E-01 -0.3147827345431E-02
 0.1348285421116E-01 -0.3636891666265E-02
 0.1544530930262E-01 -0.4123078078207E-02
 0.1740166918120E-01 -0.4593432009273E-02
 0.1929389915666E-01 -0.5043276942295E-02
 0.2105500748490E-01 -0.5470399182913E-02
 0.2260968030665E-01 -0.5874949151606E-02
 0.2388119564006E-01 -0.6267281557369E-02
 0.2480519756410E-01 -0.6673050663435E-02
 0.2536280974815E-01 -0.7136039133086E-02
 0.2563181738162E-01 -0.7698585789310E-02
 0.2996640887207E-03 -0.2514249157343E-03
 0.8358110378524E-03 -0.5210501701429E-03
 0.1589915947238E-02 -0.8093985033651E-03
 0.2543653727723E-02 -0.1120540640147E-02
 0.3681365356599E-02 -0.1458687203829E-02
 0.4989361008646E-02 -0.1826688700733E-02
 0.6454657240308E-02 -0.2225772313609E-02
 0.8063591834071E-02 -0.2655459907468E-02
 0.9800074818717E-02 -0.3113345185224E-02
 0.1164330785575E-01 -0.3594848765723E-02
 0.1356543090665E-01 -0.4087554289503E-02
 0.1552899963483E-01 -0.4569571240774E-02
 0.1748630700413E-01 -0.5029200118440E-02
 0.1938119772569E-01 -0.5463185415869E-02
 0.2114992803606E-01 -0.5872020511312E-02
 0.2272327077990E-01 -0.6260299619097E-02
 0.2403597308167E-01 -0.6643961242343E-02
 0.2504213337204E-01 -0.7052433495062E-02
 0.2574243103410E-01 -0.7524988151918E-02
 0.2621401307416E-01 -0.8089337688892E-02
 0.3116427855124E-03 -0.3093742891577E-03
 0.8558422741286E-03 -0.6373963372765E-03
 0.1617010968249E-02 -0.9833637926577E-03
 0.2578110235214E-02 -0.1349615141320E-02
 0.3723563078804E-02 -0.1738871328479E-02
 0.5039294664893E-02 -0.2152752103095E-02
 0.6511809902098E-02 -0.2591315382405E-02
 0.8126895235489E-02 -0.3052921447967E-02
 0.9867953492250E-02 -0.3534140353951E-02
 0.1171393409552E-01 -0.4029749931965E-02
 0.1363730987390E-01 -0.4527946588195E-02
 0.1560172127976E-01 -0.5008924072849E-02
 0.1756115042917E-01 -0.5462588206462E-02
 0.1946195783773E-01 -0.5887538220876E-02
 0.2124440804007E-01 -0.6287267581352E-02
 0.2284591144196E-01 -0.6670567624250E-02
 0.2421186370385E-01 -0.7057560739227E-02
 0.2531049783747E-01 -0.7479076728141E-02
 0.2615312935083E-01 -0.7969198172956E-02
 0.2681052981303E-01 -0.8546263578478E-02
 0.3240335728258E-03 -0.3654089749601E-03
 0.8768447919874E-03 -0.7496038268227E-03
 0.1645139693166E-02 -0.1150987716006E-02
 0.2613031808478E-02 -0.1570401993471E-02
 0.3765117998335E-02 -0.2009110625452E-02
 0.5087041536657E-02 -0.2467462447847E-02
 0.6564892598197E-02 -0.2944360781008E-02
 0.8184050045270E-02 -0.3437120018752E-02
 0.9927641304364E-02 -0.3941494647624E-02
 0.1177467870182E-01 -0.4451880857184E-02
 0.1369831065367E-01 -0.4957289985924E-02
 0.1566359212927E-01 -0.5440113213341E-02
 0.1762658981314E-01 -0.5892086944390E-02
 0.1953665440102E-01 -0.6313879911495E-02
 0.2133847045520E-01 -0.6711947868173E-02
 0.2297598842994E-01 -0.7098684169845E-02
 0.2440368442938E-01 -0.7497025167653E-02
 0.2559966083176E-01 -0.7937650295190E-02
 0.2657992437051E-01 -0.8449861690839E-02
 0.2740491960683E-01 -0.9044513041464E-02
 0.3366529953673E-03 -0.4198829099622E-03
 0.8985578876012E-03 -0.8585543003719E-03
 0.1674135298815E-02 -0.1313751905618E-02
 0.2648453422650E-02 -0.1785020649514E-02
 0.3806305999187E-02 -0.2272228750535E-02
 0.5133135834144E-02 -0.2774444929376E-02
 0.6614721731149E-02 -0.3289432939264E-02
 0.8236187003882E-02 -0.3813542449790E-02
 0.9980609028877E-02 -0.4341853225683E-02
 0.1182735458918E-01 -0.4868547205456E-02
 0.1375056291413E-01 -0.5383565062328E-02
 0.1571701551396E-01 -0.5871546988689E-02
 0.1768522804918E-01 -0.6326173275269E-02
 0.1960793358554E-01 -0.6750236589415E-02
 0.2143447766347E-01 -0.7152954772340E-02
 0.2311502753829E-01 -0.7549691795557E-02
 0.2461154772009E-01 -0.7965131497718E-02
 0.2590873486534E-01 -0.8428958739111E-02
 0.2702317997315E-01 -0.8966065216414E-02
 0.2800425777543E-01 -0.9582448439007E-02
 0.3493527627084E-03 -0.4730491783056E-03
 0.9207209869452E-03 -0.9648052343094E-03
 0.1703730221438E-02 -0.1472509258381E-02
 0.2684175464943E-02 -0.1994580862044E-02
 0.3847023114297E-02 -0.2529574705001E-02
 0.5177578756624E-02 -0.3075303701655E-02
 0.6661417993225E-02 -0.3628424082589E-02
 0.8283569033751E-02 -0.4184394029522E-02
 0.1002728262997E-01 -0.4737727001250E-02
 0.1187255573530E-01 -0.5282504753860E-02
 0.1379480995730E-01 -0.5809655978521E-02
 0.1576283863868E-01 -0.6306073293174E-02
 0.1773791773912E-01 -0.6767403531821E-02
 0.1967644389074E-01 -0.7198491528209E-02
 0.2153248069713E-01 -0.7611008006094E-02
 0.2326188274746E-01 -0.8022670654793E-02
 0.2483254522311E-01 -0.8459119322733E-02
 0.2623307365602E-01 -0.8948598437848E-02
 0.2747810749820E-01 -0.9512283460817E-02
 0.2860550480011E-01 -0.1015237600717E-01
 0.3620387768659E-03 -0.5251303460394E-03
 0.9431640526349E-03 -0.1068852447027E-02
 0.1733754250944E-02 -0.1628035152567E-02
 0.2720090633290E-02 -0.2200115756344E-02
 0.3887255161776E-02 -0.2782423999541E-02
 0.5220462207817E-02 -0.3371561423189E-02
 0.6705190968288E-02 -0.3963119419477E-02
 0.8326535871118E-02 -0.4551729213653E-02
 0.1006813655432E-01 -0.5131417493332E-02
 0.1191087618741E-01 -0.5696233900351E-02
 0.1383172361300E-01 -0.6238106842982E-02
 0.1580173841566E-01 -0.6746144565137E-02
 0.1778521345526E-01 -0.7217909521857E-02
 0.1974239438263E-01 -0.7660137844587E-02
 0.2163199011016E-01 -0.8086595795631E-02
 0.2341492976366E-01 -0.8516814919962E-02
 0.2506361982607E-01 -0.8976838682912E-02
 0.2656852556735E-01 -0.9493352907150E-02
 0.2794062866957E-01 -0.1008444210356E-01
 0.2920685474236E-01 -0.1074983866282E-01
 0.3746621379940E-03 -0.5763255254071E-03
 0.9657960463093E-03 -0.1171142222957E-02
 0.1764127617233E-02 -0.1781038084017E-02
 0.2756181034985E-02 -0.2402584903614E-02
 0.3927074524628E-02 -0.3031973583506E-02
 0.5261962168006E-02 -0.3664648830427E-02
 0.6746328253741E-02 -0.4295185471969E-02
 0.8365489941607E-02 -0.4917443728894E-02
 0.1010367862976E-01 -0.5525018361369E-02
 0.1194289704438E-01 -0.6111956343294E-02
 0.1386189737736E-01 -0.6671159111026E-02
 0.1583422706337E-01 -0.7193882229825E-02
 0.1782740089577E-01 -0.7679496784677E-02
 0.1980562366490E-01 -0.8136411707730E-02
 0.2173210160992E-01 -0.8580125161013E-02
 0.2357222474457E-01 -0.9031539244322E-02
 0.2530170619124E-01 -0.9516757999303E-02
 0.2691132715924E-01 -0.1006097109457E-01
 0.2840740465546E-01 -0.1067985251040E-01
 0.2980674912343E-01 -0.1137161298056E-01
 0.3872125356595E-03 -0.6268150360381E-03
 0.9885956090507E-03 -0.1272079910205E-02
 0.1794854041810E-02 -0.1932167715452E-02
 0.2792513770974E-02 -0.2602877330267E-02
 0.3966635538575E-02 -0.3279338656925E-02
 0.5302331689684E-02 -0.3955897210307E-02
 0.6785185656679E-02 -0.4626161663146E-02
 0.8400884977728E-02 -0.5283269609201E-02
 0.1013443941792E-01 -0.5920418674085E-02
 0.1196917957011E-01 -0.6531651377014E-02
 0.1388584720009E-01 -0.7110785509893E-02
 0.1586066632766E-01 -0.7651132997463E-02
 0.1786453313298E-01 -0.8153726476148E-02
 0.1986566871997E-01 -0.8628395950463E-02
 0.2183159905102E-01 -0.9092024585320E-02
 0.2373162124426E-01 -0.9566540546333E-02
 0.2554378294865E-01 -0.1007792320600E-01
 0.2725806645058E-01 -0.1065005717069E-01
 0.2887556767395E-01 -0.1129683168376E-01
 0.3040372798692E-01 -0.1201556301934E-01
 0.3997132629239E-03 -0.6767637469824E-03
 0.1011603559372E-02 -0.1372036400889E-02
 0.1826014215844E-02 -0.2082021562093E-02
 0.2829235836623E-02 -0.2801815000935E-02
 0.4006169167016E-02 -0.3525551658385E-02
 0.5341893981168E-02 -0.4246534061203E-02
 0.6822178720458E-02 -0.4957455443960E-02
 0.8433217392887E-02 -0.5650773449949E-02
 0.1016096576815E-01 -0.6319308308685E-02
 0.1199026386576E-01 -0.6957072395142E-02
 0.1390401891068E-01 -0.7558721290708E-02
 0.1588128847958E-01 -0.8119518054795E-02
 0.1789647130506E-01 -0.8641983267340E-02
 0.1992182975689E-01 -0.9137099722569E-02
 0.2192903904805E-01 -0.9622815883615E-02
 0.2389084716376E-01 -0.1012182795231E-01
 0.2578689808934E-01 -0.1065992367092E-01
 0.2760560619902E-01 -0.1125994534880E-01
 0.2934255365954E-01 -0.1193453943939E-01
 0.3099640242892E-01 -0.1268055126422E-01
 0.4122173827124E-03 -0.7263236932253E-03
 0.1034916868432E-02 -0.1471353393603E-02
 0.1857759877064E-02 -0.2231150926411E-02
 0.2866568723330E-02 -0.3000156746297E-02
 0.4045977200834E-02 -0.3771562825673E-02
 0.5381035548333E-02 -0.4537680908624E-02
 0.6857775275774E-02 -0.5290339525396E-02
 0.8463019826377E-02 -0.6021356074298E-02
 0.1018381770121E-01 -0.6723183374596E-02
 0.1200667191582E-01 -0.7389761278314E-02
 0.1391680067875E-01 -0.8016490342878E-02
 0.1589622198014E-01 -0.8600472881067E-02
 0.1792292703792E-01 -0.9145528013974E-02
 0.1997322963558E-01 -0.9663516721608E-02
 0.2202281799663E-01 -0.1017316105152E-01
 0.2404755528771E-01 -0.1069773635637E-01
 0.2602816837161E-01 -0.1126285455018E-01
 0.2795100790499E-01 -0.1189061313101E-01
 0.2980599831425E-01 -0.1259288748516E-01
 0.3158343755616E-01 -0.1336635701571E-01
 0.4248047844255E-03 -0.7756363716786E-03
 0.1058683923059E-02 -0.1570348149457E-02
 0.1890308629006E-02 -0.2380066708183E-02
 0.2904803025026E-02 -0.3198602887306E-02
 0.4086426199627E-02 -0.4018242191811E-02
 0.5420199411556E-02 -0.4830352847609E-02
 0.6892488812502E-02 -0.5625950569198E-02
 0.8490856430991E-02 -0.6396252799004E-02
 0.1020356796083E-01 -0.7133350740982E-02
 0.1201891408475E-01 -0.7831059699319E-02
 0.1392453929882E-01 -0.8485425285118E-02
 0.1590552032321E-01 -0.9095277208494E-02
 0.1794350529416E-01 -0.9665536112983E-02
 0.2001886773927E-01 -0.1020866533720E-01
 0.2211122541104E-01 -0.1074389151036E-01
 0.2419935459488E-01 -0.1129492968340E-01
 0.2626476398307E-01 -0.1188728491772E-01
 0.2829146508275E-01 -0.1254262397843E-01
 0.3026366415319E-01 -0.1327247876556E-01
 0.3216353928387E-01 -0.1407360977855E-01
 0.4375800037697E-03 -0.8248350212580E-03
 0.1083101002416E-02 -0.1669318326957E-02
 0.1923939623872E-02 -0.2529245696194E-02
 0.2944293254704E-02 -0.3397800938373E-02
 0.4127941295950E-02 -0.4266383121966E-02
 0.5459878349490E-02 -0.5125459713656E-02
 0.6926872428507E-02 -0.5965289127406E-02
 0.8517319453136E-02 -0.6776534053339E-02
 0.1022080356232E-01 -0.7550931445718E-02
 0.1202749816462E-01 -0.8282117215494E-02
 0.1392755920514E-01 -0.8966681625338E-02
 0.1590919295686E-01 -0.9605075796756E-02
 0.1795774705908E-01 -0.1020312344300E-01
 0.2005766936432E-01 -0.1077361475200E-01
 0.2219248748874E-01 -0.1133602563000E-01
 0.2434382909380E-01 -0.1191440033887E-01
 0.2649388636631E-01 -0.1253423555632E-01
 0.2862424489542E-01 -0.1321709123978E-01
 0.3071338401049E-01 -0.1397456720206E-01
 0.3273544345231E-01 -0.1480373944069E-01
 0.4506707721369E-03 -0.8740471265561E-03
 0.1108409973467E-02 -0.1768547342846E-02
 0.1958990184103E-02 -0.2679137771131E-02
 0.2985452924629E-02 -0.3598352547084E-02
 0.4170999796022E-02 -0.4516707171303E-02
 0.5500607938983E-02 -0.5423808318056E-02
 0.6961512949799E-02 -0.6309220002019E-02
 0.8543026517732E-02 -0.7163105326703E-02
 0.1023612855923E-01 -0.7976861815290E-02
 0.1203294001380E-01 -0.8743894883439E-02
 0.1392618316319E-01 -0.9461244740415E-02
 0.1590723738968E-01 -0.1013088904107E-01
 0.1796517168364E-01 -0.1075935964240E-01
 0.2008853198189E-01 -0.1135949789616E-01
 0.2226480430804E-01 -0.1195077633716E-01
 0.2447854905246E-01 -0.1255746640877E-01
 0.2671274234541E-01 -0.1320516455179E-01
 0.2894663388800E-01 -0.1391565637484E-01
 0.3115301058600E-01 -0.1470103162732E-01
 0.3329790362441E-01 -0.1555894141812E-01
 0.4642273508622E-03 -0.9233973894533E-03
 0.1134897327097E-02 -0.1868310757298E-02
 0.1995853485806E-02 -0.2830174595349E-02
 0.3028749929006E-02 -0.3800822096921E-02
 0.4216124492752E-02 -0.4769870450664E-02
 0.5542959180396E-02 -0.5726105752013E-02
 0.6997024878628E-02 -0.6658472955406E-02
 0.8568618121104E-02 -0.7556706391216E-02
 0.1025016735476E-01 -0.8411892313003E-02
 0.1203577495298E-01 -0.9217164526138E-02
 0.1392075376873E-01 -0.9969929985888E-02
 0.1589967190298E-01 -0.1067361405437E-01
 0.1796531919100E-01 -0.1133526994843E-01
 0.2011037026858E-01 -0.1196751325563E-01
 0.2232638440794E-01 -0.1258955143232E-01
 0.2460107919877E-01 -0.1322576892204E-01
 0.2691851703516E-01 -0.1390196110261E-01
 0.2925588528607E-01 -0.1464048017250E-01
 0.3158036699083E-01 -0.1545436380085E-01
 0.3384967595701E-01 -0.1634215796342E-01
 0.4784227882784E-03 -0.9730114317466E-03
 0.1162894775293E-02 -0.1968884206653E-02
 0.2034977430977E-02 -0.2982780366652E-02
 0.3074702172783E-02 -0.4005747343367E-02
 0.4263876479122E-02 -0.5026471563980E-02
 0.5587530387318E-02 -0.6032963587099E-02
 0.7034043746505E-02 -0.7013643483683E-02
 0.8594754780302E-02 -0.7957909486124E-02
 0.1026356784758E-01 -0.8856583823896E-02
 0.1203656906275E-01 -0.9702503401785E-02
 0.1391165488976E-01 -0.1049337573479E-01
 0.1588656833828E-01 -0.1123401609443E-01
 0.1795779293405E-01 -0.1193182558884E-01
 0.2012216182119E-01 -0.1259891570160E-01
 0.2237548022717E-01 -0.1325394690709E-01
 0.2470898760649E-01 -0.1392126921241E-01
 0.2710834681488E-01 -0.1462694684225E-01
 0.2954916494350E-01 -0.1539424597757E-01
 0.3199319332689E-01 -0.1623767033165E-01
 0.3438949761841E-01 -0.1715707602743E-01
 0.4934543390849E-03 -0.1023020557721E-02
 0.1192781759332E-02 -0.2070553530098E-02
 0.2076864862619E-02 -0.3137385333062E-02
 0.3123873317844E-02 -0.4213652520541E-02
 0.4314847161014E-02 -0.5287061211190E-02
 0.5634937968227E-02 -0.6344902841022E-02
 0.7073218440933E-02 -0.7375193447595E-02
 0.8622113308722E-02 -0.8367116275843E-02
 0.1027700373657E-01 -0.9311301242551E-02
 0.1203592956206E-01 -0.1020028419225E-01
 0.1389933220899E-01 -0.1103202926418E-01
 0.1586808443607E-01 -0.1181271014314E-01
 0.1794230299556E-01 -0.1254992227293E-01
 0.2012299550731E-01 -0.1325499555100E-01
 0.2241042795097E-01 -0.1394573226343E-01
 0.2479985903803E-01 -0.1464624544849E-01
 0.2727929376608E-01 -0.1538288409037E-01
 0.2982349343162E-01 -0.1618017498405E-01
 0.3238908468880E-01 -0.1705468942554E-01
 0.3491605490019E-01 -0.1800814321775E-01
 0.5095464203287E-03 -0.1073568025400E-02
 0.1224990385384E-02 -0.2173627966584E-02
 0.2122075305181E-02 -0.3294442997635E-02
 0.3176868433553E-02 -0.4425064522411E-02
 0.4369649086128E-02 -0.5552153709930E-02
 0.5685805700372E-02 -0.6662359829316E-02
 0.7115202090493E-02 -0.7743451751675E-02
 0.8651381720022E-02 -0.8784553940374E-02
 0.1029117533410E-01 -0.9776204924311E-02
 0.1203451343317E-01 -0.1071066106610E-01
 0.1388431193583E-01 -0.1158612634920E-01
 0.1584449501161E-01 -0.1241013337437E-01
 0.1791871046380E-01 -0.1319034703489E-01
 0.2011212424023E-01 -0.1393704536941E-01
 0.2242969552413E-01 -0.1466682689503E-01
 0.2487131724624E-01 -0.1540328793026E-01
 0.2742832402648E-01 -0.1617299213726E-01
 0.3007568269412E-01 -0.1700205636267E-01
 0.3276541674599E-01 -0.1790982648180E-01
 0.3542793795780E-01 -0.1890060724992E-01
 0.5269556715887E-03 -0.1124817464553E-02
 0.1260013507979E-02 -0.2278457586615E-02
 0.2171228385079E-02 -0.3454452082269E-02
 0.3234329154177E-02 -0.4640532604328E-02
 0.4428905039013E-02 -0.5822240300449E-02
 0.5740752008964E-02 -0.6985692518211E-02
 0.7160641064279E-02 -0.8118614661560E-02
 0.8683252272897E-02 -0.9210270012707E-02
 0.1030680827997E-01 -0.1025123963099E-01
 0.1203303350728E-01 -0.1123355143778E-01
 0.1386721674412E-01 -0.1215566405494E-01
 0.1581622109305E-01 -0.1302650751442E-01
 0.1788707237300E-01 -0.1385373133270E-01
 0.2008902361777E-01 -0.1464631073194E-01
 0.2243194266132E-01 -0.1541926238088E-01
 0.2492106146054E-01 -0.1619528840351E-01
 0.2755229307450E-01 -0.1700096925619E-01
 0.3030226479076E-01 -0.1786429224633E-01
 0.3311925237534E-01 -0.1880821044336E-01
 0.3592357625896E-01 -0.1984058206621E-01
 0.5459789824232E-03 -0.1176964413176E-02
 0.1298416974927E-02 -0.2385456698316E-02
 0.2225009046703E-02 -0.3617984789480E-02
 0.3296927755966E-02 -0.4860652291551E-02
 0.4493234763982E-02 -0.6097804341289E-02
 0.5800374805675E-02 -0.7315187492121E-02
 0.7210161726660E-02 -0.8500746171318E-02
 0.8718412244778E-02 -0.9644126686718E-02
 0.1032464959699E-01 -0.1073612198308E-01
 0.1203226120566E-01 -0.1176861473761E-01
 0.1384877782303E-01 -0.1274036826226E-01
 0.1578385570777E-01 -0.1366179247568E-01
 0.1784768638796E-01 -0.1454049070211E-01
 0.2005345716054E-01 -0.1538392320511E-01
 0.2241609702879E-01 -0.1620512665021E-01
 0.2494692444649E-01 -0.1702542011379E-01
 0.2764794441799E-01 -0.1787102100241E-01
 0.3049941196060E-01 -0.1877196327874E-01
 0.3344722466082E-01 -0.1975577757020E-01
 0.3640114985343E-01 -0.2083515523485E-01
 0.5669658132994E-03 -0.1230252488135E-02
 0.1340857414513E-02 -0.2495135760948E-02
 0.2284174482119E-02 -0.3785723286357E-02
 0.3365359188889E-02 -0.5086093963968E-02
 0.4563238496956E-02 -0.6379338062155E-02
 0.5865233440662E-02 -0.7651067313631E-02
 0.7264354626134E-02 -0.8889778599460E-02
 0.8757532053237E-02 -0.1008579505040E-01
 0.1034546057492E-01 -0.1123032706062E-01
 0.1203302517569E-01 -0.1231522907502E-01
 0.1382984185504E-01 -0.1333965707036E-01
 0.1574818463697E-01 -0.1431563228733E-01
 0.1780113333748E-01 -0.1525075080800E-01
 0.2000554779427E-01 -0.1615081207202E-01
 0.2238144983601E-01 -0.1702648340679E-01
 0.2494696243450E-01 -0.1789709873405E-01
 0.2771193007255E-01 -0.1878789648072E-01
 0.3066285017624E-01 -0.1973091382951E-01
 0.3374538221890E-01 -0.2075940145205E-01
 0.3685848528599E-01 -0.2189253670329E-01
 0.5903368985611E-03 -0.1284996680700E-02
 0.1388107419124E-02 -0.2608145599592E-02
 0.2349562257177E-02 -0.3958506803925E-02
 0.3440329515040E-02 -0.5317636054406E-02
 0.4639476304909E-02 -0.6667359737127E-02
 0.5935827398049E-02 -0.7993497451077E-02
 0.7323755879078E-02 -0.9285513068735E-02
 0.8801250399178E-02 -0.1053474899040E-01
 0.1037000608300E-01 -0.1173307377062E-01
 0.1203620525215E-01 -0.1287246538583E-01
 0.1381137192541E-01 -0.1395259978920E-01
 0.1571020033032E-01 -0.1498729297940E-01
 0.1774831507390E-01 -0.1598425804486E-01
 0.1994585320649E-01 -0.1694758907091E-01
 0.2232777487778E-01 -0.1788525262944E-01
 0.2491958479187E-01 -0.1881391156778E-01
 0.2774088212653E-01 -0.1975690599470E-01
 0.3078773953871E-01 -0.2074790779160E-01
 0.3400903433729E-01 -0.2182696888874E-01
 0.3729284716114E-01 -0.2302248250638E-01
 0.6166126757914E-03 -0.1341618143049E-02
 0.1441090546979E-02 -0.2725339693740E-02
 0.2422098311264E-02 -0.4137392762154E-02
 0.3522538436259E-02 -0.5556202457650E-02
 0.4722442284030E-02 -0.6962430263101E-02
 0.6012571726302E-02 -0.8342593150634E-02
 0.7388825737811E-02 -0.9687621634642E-02
 0.8850156131677E-02 -0.1099026121471E-01
 0.1039903984688E-01 -0.1224331182747E-01
 0.1204272104952E-01 -0.1343906260344E-01
 0.1379444104805E-01 -0.1457787626287E-01
 0.1567110649297E-01 -0.1567559859606E-01
 0.1769048303725E-01 -0.1674028137587E-01
 0.1987544027983E-01 -0.1777440878305E-01
 0.2225546787728E-01 -0.1878304766915E-01
 0.2486374684632E-01 -0.1977949291921E-01
 0.2773152796442E-01 -0.2078393991409E-01
 0.3086866205513E-01 -0.2183075996646E-01
 0.3423218249066E-01 -0.2296782604394E-01
 0.3770165307289E-01 -0.2423598163283E-01
 0.6464371108220E-03 -0.1400657867489E-02
 0.1500943512774E-02 -0.2847930805252E-02
 0.2502876016451E-02 -0.4324034434128E-02
 0.3612783924944E-02 -0.5803554717190E-02
 0.4812695542954E-02 -0.7266277820848E-02
 0.6095928671318E-02 -0.8700096095347E-02
 0.7460038316642E-02 -0.1009798721250E-01
 0.8904786042928E-02 -0.1145452085798E-01
 0.1043315273152E-01 -0.1276374589972E-01
 0.1205316711216E-01 -0.1401850255717E-01
 0.1377959727327E-01 -0.1522006478023E-01
 0.1563137830748E-01 -0.1638662144919E-01
 0.1762798756658E-01 -0.1752690028495E-01
 0.1979436093783E-01 -0.1864203215020E-01
 0.2216386179185E-01 -0.1973417062903E-01
 0.2477730244564E-01 -0.2081260394187E-01
 0.2767944458176E-01 -0.2189274811709E-01
 0.3089920231812E-01 -0.2300785743550E-01
 0.3440985214773E-01 -0.2421435822502E-01
 0.3808578971954E-01 -0.2556955050900E-01
 0.6806972898798E-03 -0.1462952598502E-02
 0.1569045520850E-02 -0.2977406352406E-02
 0.2592945828485E-02 -0.4519870194631E-02
 0.3711548150405E-02 -0.6060361652578E-02
 0.4910352314457E-02 -0.7578455191164E-02
 0.6185918170996E-02 -0.9064339546348E-02
 0.7537533021604E-02 -0.1051365868488E-01
 0.8965566879497E-02 -0.1192321837884E-01
 0.1047318019218E-01 -0.1328865638220E-01
 0.1206886725953E-01 -0.1460364941015E-01
 0.1376872235292E-01 -0.1587064081214E-01
 0.1559352804094E-01 -0.1711049335884E-01
 0.1756398435496E-01 -0.1833304799493E-01
 0.1970623703379E-01 -0.1953857168433E-01
 0.2205643968189E-01 -0.2072669571007E-01
 0.2466217198048E-01 -0.2190252755111E-01
 0.2758253330392E-01 -0.2307505201443E-01
 0.3087095754466E-01 -0.2427352167391E-01
 0.3452802068328E-01 -0.2556211622529E-01
 0.3843227610078E-01 -0.2702101816025E-01
 0.7205899942352E-03 -0.1529699468307E-02
 0.1647137417262E-02 -0.3115976640521E-02
 0.2693481780127E-02 -0.4727179036465E-02
 0.3819290177780E-02 -0.6328201416300E-02
 0.5015493978294E-02 -0.7899691568577E-02
 0.6282531995859E-02 -0.9435307323409E-02
 0.7621389651399E-02 -0.1093393600742E-01
 0.9032796290333E-02 -0.1239498445888E-01
 0.1051972305821E-01 -0.1381605102413E-01
 0.1209076380243E-01 -0.1519200238090E-01
 0.1376314594974E-01 -0.1652675657180E-01
 0.1555937238345E-01 -0.1784419736763E-01
 0.1750088345609E-01 -0.1915578472162E-01
 0.1961408442135E-01 -0.2046160018595E-01
 0.2193654722643E-01 -0.2175957810929E-01
 0.2452095423835E-01 -0.2305120541606E-01
 0.2744010254630E-01 -0.2433786530218E-01
 0.3077671796402E-01 -0.2564073492113E-01
 0.3457375822765E-01 -0.2702879741032E-01
 0.3873182254632E-01 -0.2861146756137E-01
 0.7678180453379E-03 -0.1602719268529E-02
 0.1737408705852E-02 -0.3266800918504E-02
 0.2805640312989E-02 -0.4948896135379E-02
 0.3936237969426E-02 -0.6608874007575E-02
 0.5127975700528E-02 -0.8230734812204E-02
 0.6385564720041E-02 -0.9812948955090E-02
 0.7711499066169E-02 -0.1135803663671E-01
 0.9106600392669E-02 -0.1286827074178E-01
 0.1057325475144E-01 -0.1434362277847E-01
 0.1211973129805E-01 -0.1578060794873E-01
 0.1376420263490E-01 -0.1718499028853E-01
 0.1553084357448E-01 -0.1858400867532E-01
 0.1744139226568E-01 -0.1999125857711E-01
 0.1952152732260E-01 -0.2140744427280E-01
 0.2180870937833E-01 -0.2283006473538E-01
 0.2435833218672E-01 -0.2425862107335E-01
 0.2725408265904E-01 -0.2568718431393E-01
 0.3061013357648E-01 -0.2712434090035E-01
 0.3453029263610E-01 -0.2863681999690E-01
 0.3896959416432E-01 -0.3036895212095E-01
 0.8249088991988E-03 -0.1684908465594E-02
 0.1842589472845E-02 -0.3434485988646E-02
 0.2930387400650E-02 -0.5188721272309E-02
 0.4062265537820E-02 -0.6904300858956E-02
 0.5247394485266E-02 -0.8572293872291E-02
 0.6494600431741E-02 -0.1019718828271E-01
 0.7807534734650E-02 -0.1178513562906E-01
 0.9186887079917E-02 -0.1334138856306E-01
 0.1063407001543E-01 -0.1486875314985E-01
 0.1215653147055E-01 -0.1636602451285E-01
 0.1377318877300E-01 -0.1784130177264E-01
 0.1550993635430E-01 -0.1932546278615E-01
 0.1738843822100E-01 -0.2083466368118E-01
 0.1943268829945E-01 -0.2237105675395E-01
 0.2167853859092E-01 -0.2393329787741E-01
 0.2418135948025E-01 -0.2552172097728E-01
 0.2703048147919E-01 -0.2712622052658E-01
 0.3036793280458E-01 -0.2874015452648E-01
 0.3437660428589E-01 -0.3041546494049E-01
 0.3912138445063E-01 -0.3233251872412E-01
 0.8957900008657E-03 -0.1781148015621E-02
 0.1965952765474E-02 -0.3625872976037E-02
 0.3068151733117E-02 -0.5451079651299E-02
 0.4196759601457E-02 -0.7216289195501E-02
 0.5373088643132E-02 -0.8924970549525E-02
 0.6609013966116E-02 -0.1058793944326E-01
 0.7908929763480E-02 -0.1221442603691E-01
 0.9273289594619E-02 -0.1381258058293E-01
 0.1070221445878E-01 -0.1538852942542E-01
 0.1220175639799E-01 -0.1694427071871E-01
 0.1379132004169E-01 -0.1849097192184E-01
 0.1549865725436E-01 -0.2006334218365E-01
 0.1734507297104E-01 -0.2168025656116E-01
 0.1935202161531E-01 -0.2334596895490E-01
 0.2155247051933E-01 -0.2506205713624E-01
 0.2399933133178E-01 -0.2683332374456E-01
 0.2678088443661E-01 -0.2865240976904E-01
 0.3005421751111E-01 -0.3050200817712E-01
 0.3408897299933E-01 -0.3240309445016E-01
 0.3914637748564E-01 -0.3455951067214E-01
 0.9868743628769E-03 -0.1900320212040E-02
 0.2110963776084E-02 -0.3851212287470E-02
 0.3218201353213E-02 -0.5740592221435E-02
 0.4338560743849E-02 -0.7546145283805E-02
 0.5504184521965E-02 -0.9289229783922E-02
 0.6727984937649E-02 -0.1098511591098E-01
 0.8014870607543E-02 -0.1264520408485E-01
 0.9365100324605E-02 -0.1428014886918E-01
 0.1077738066908E-01 -0.1589979260453E-01
 0.1225574988060E-01 -0.1751073771079E-01
 0.1381969739781E-01 -0.1912849950338E-01
 0.1549899375081E-01 -0.2079167970642E-01
 0.1731437146296E-01 -0.2252145524462E-01
 0.1928408485156E-01 -0.2432435450675E-01
 0.2143738813293E-01 -0.2620666517760E-01
 0.2382299061012E-01 -0.2818153731700E-01
 0.2652289267568E-01 -0.3025345325591E-01
 0.2968758461622E-01 -0.3241381772558E-01
 0.3364862418562E-01 -0.3464727544202E-01
 0.3897459576964E-01 -0.3713894721538E-01
 0.1109183977518E-02 -0.2060453522486E-02
 0.2279744119078E-02 -0.4125386468787E-02
 0.3377766879336E-02 -0.6060208723042E-02
 0.4486199641233E-02 -0.7894441162407E-02
 0.5639641302003E-02 -0.9665426108794E-02
 0.6850529195211E-02 -0.1138859233245E-01
 0.8124328959932E-02 -0.1307698742694E-01
 0.9461201791565E-02 -0.1474266998980E-01
 0.1085874637878E-01 -0.1639926686891E-01
 0.1231847722311E-01 -0.1806002985703E-01
 0.1385930029561E-01 -0.1974738899582E-01
 0.1551292790283E-01 -0.2150379669022E-01
 0.1729935658487E-01 -0.2335102237335E-01
 0.1923323413258E-01 -0.2529729591476E-01
 0.2134016442393E-01 -0.2735497620437E-01
 0.2366346087620E-01 -0.2954995686571E-01
 0.2627713814226E-01 -0.3190506713033E-01
 0.2930902783955E-01 -0.3445251190191E-01
 0.3306653887793E-01 -0.3719226683076E-01
 0.3848931518978E-01 -0.4021719334530E-01
 0.1282434422145E-02 -0.2304918952493E-02
 0.2467670910703E-02 -0.4464924520587E-02
 0.3542049288025E-02 -0.6407155680736E-02
 0.4638591691374E-02 -0.8262288522441E-02
 0.5778073520517E-02 -0.1005329557674E-01
 0.6975648244967E-02 -0.1179832683927E-01
 0.8236115480334E-02 -0.1350956117050E-01
 0.9560050528396E-02 -0.1519935336424E-01
 0.1094470900799E-01 -0.1688391550842E-01
 0.1238926480910E-01 -0.1858567443971E-01
 0.1391103621056E-01 -0.2033967880533E-01
 0.1554258628974E-01 -0.2219240521549E-01
 0.1730287181194E-01 -0.2416148423637E-01
 0.1920347816736E-01 -0.2625498016970E-01
 0.2126661856001E-01 -0.2849326845896E-01
 0.2353223187332E-01 -0.3091671345930E-01
 0.2606078608635E-01 -0.3357586748607E-01
 0.2897475258959E-01 -0.3654834089654E-01
 0.3244761428730E-01 -0.4001225431066E-01
 0.3753411620288E-01 -0.4403681449237E-01
 0.6256797590403E-03 -0.3608077397527E-01
-0.9660669207425E-02 -0.7800446247934E-01
-0.8087934233499E-02 -0.1316312064132E+00
 0.1937258366812E-02 -0.1943439932950E+00
 0.1824703789504E-01 -0.2643172733533E+00
 0.3983995423753E-01 -0.3403358541532E+00
 0.6593988563473E-01 -0.4219468706980E+00
 0.9600987294291E-01 -0.5093797961001E+00
 0.1307623662213E+00 -0.6029872222910E+00
 0.1043888972029E-01 -0.3610882996163E-01
 0.6955020368237E-02 -0.7869343907870E-01
 0.1390090807694E-01 -0.1338066911686E+00
 0.2835769427934E-01 -0.1986511995717E+00
 0.4847783785158E-01 -0.2713269731540E+00
 0.7342133875021E-01 -0.3506599723163E+00
 0.1026347539456E+00 -0.4362644140496E+00
 0.1358217261731E+00 -0.5283823994636E+00
 0.1735746651135E+00 -0.6271969522768E+00
 0.2060345759776E-01 -0.3624517081375E-01
 0.2415584842680E-01 -0.7936877909886E-01
 0.3662787182595E-01 -0.1356916722033E+00
 0.5563755317068E-01 -0.2022473332319E+00
 0.7969195206332E-01 -0.2770894870173E+00
 0.1081551643746E+00 -0.3590702306371E+00
 0.1406890525101E+00 -0.4478042212868E+00
 0.1771488055809E+00 -0.5434240174879E+00
 0.2179543521180E+00 -0.6459798374780E+00
 0.3103932761686E-01 -0.3647786939890E-01
 0.4179412143176E-01 -0.7998551164479E-01
 0.5988984773815E-01 -0.1371918089962E+00
 0.8352431347424E-01 -0.2049905308378E+00
 0.1115876835045E+00 -0.2813897625798E+00
 0.1436682314845E+00 -0.3652354502858E+00
 0.1796129318270E+00 -0.4560802858489E+00
 0.2193687025526E+00 -0.5539121198379E+00
 0.2631629142350E+00 -0.6586252876449E+00
 0.4165140952666E-01 -0.3680012495026E-01
 0.5970365485269E-01 -0.8050970795970E-01
 0.8346517844218E-01 -0.1382397487259E+00
 0.1117442054011E+00 -0.2067721392167E+00
 0.1438304221416E+00 -0.2840626911455E+00
 0.1795397291322E+00 -0.3689140545037E+00
 0.2188731893337E+00 -0.4607759909940E+00
 0.2618262037632E+00 -0.5594642162824E+00
 0.3084239123128E+00 -0.6646990834552E+00
 0.5233351585821E-01 -0.3720825203765E-01
 0.7770577650805E-01 -0.8092049449532E-01
 0.1071196104085E+00 -0.1387929792387E+00
 0.1400087011186E+00 -0.2075246923764E+00
 0.1760658481491E+00 -0.2850099429474E+00
 0.2153278742953E+00 -0.3699762188568E+00
 0.2579209316148E+00 -0.4617386797116E+00
 0.3038577545321E+00 -0.5599210932357E+00
 0.3529632752032E+00 -0.6640555352265E+00
 0.6297280712941E-01 -0.3770128052846E-01
 0.9561518168417E-01 -0.8120923927928E-01
 0.1306132422536E+00 -0.1388353258392E+00
 0.1680240975683E+00 -0.2072264960826E+00
 0.2079355221637E+00 -0.2842084225534E+00
 0.2505913548699E+00 -0.3684075985654E+00
 0.2962166019623E+00 -0.4589812842805E+00
 0.3448203295783E+00 -0.5553465536008E+00
 0.3960379612675E+00 -0.6568330115256E+00
 0.7345415086855E-01 -0.3828025809879E-01
 0.1132459918850E+00 -0.8137915229721E-01
 0.1537081581469E+00 -0.1383773136091E+00
 0.1955020228070E+00 -0.2059031093901E+00
 0.2390916496216E+00 -0.2817105902636E+00
 0.2849086449358E+00 -0.3643067306482E+00
 0.3332534766138E+00 -0.4526754666115E+00
 0.3841182784718E+00 -0.5460170723167E+00
 0.4369661808104E+00 -0.6434459272394E+00
 0.8366437022812E-01 -0.3894777489403E-01
 0.1304177898896E+00 -0.8144456517897E-01
 0.1761760783082E+00 -0.1374552043932E+00
 0.2221694472803E+00 -0.2036252647738E+00
 0.2692103685511E+00 -0.2776396767145E+00
 0.3178950253960E+00 -0.3578756024029E+00
 0.3685785285740E+00 -0.4431365276761E+00
 0.4212284489544E+00 -0.5324017281258E+00
 0.4751572209718E+00 -0.6245606331683E+00
 0.9349626695269E-01 -0.3970759439321E-01
 0.1469613541354E+00 -0.8142983251652E-01
 0.1978054427212E+00 -0.1361285943333E+00
 0.2477775244173E+00 -0.2005040589964E+00
 0.2980029653110E+00 -0.2721806863765E+00
 0.3492166576830E+00 -0.3494044830012E+00
 0.4018099689293E+00 -0.4308006612836E+00
 0.4557221818380E+00 -0.5151315059536E+00
 0.5101384526431E+00 -0.6010577956324E+00
 0.1028522403244E+00 -0.4056437482769E-01
 0.1627237436954E+00 -0.8136786870840E-01
 0.2184074498208E+00 -0.1344768973805E+00
 0.2721087174549E+00 -0.1966840939796E+00
 0.3252244389455E+00 -0.2655683195168E+00
 0.3786009815929E+00 -0.3392523238906E+00
 0.4326503172360E+00 -0.4161955426958E+00
 0.4872825871062E+00 -0.4949587579643E+00
 0.5415788179120E+00 -0.5739821307295E+00
 0.1116473874863E+00 -0.4152348543432E-01
 0.1775725406941E+00 -0.8129846365267E-01
 0.2378208046961E+00 -0.1325951065381E+00
 0.2949819421668E+00 -0.1923353242489E+00
 0.3506791035950E+00 -0.2580729815772E+00
 0.4058428966631E+00 -0.3278243887404E+00
 0.4608938087699E+00 -0.3999063077439E+00
 0.5157153206274E+00 -0.4727081131028E+00
 0.5693064489041E+00 -0.5444776526264E+00
 0.1198119886997E+00 -0.4259094133747E-01
 0.1913991090993E+00 -0.8126655773138E-01
 0.2559150201292E+00 -0.1305892756320E+00
 0.3162555730764E+00 -0.1876443808174E+00
 0.3742230751633E+00 -0.2499860724805E+00
 0.4308064538662E+00 -0.3155489729649E+00
 0.4864272630638E+00 -0.3825400331065E+00
 0.5409501224144E+00 -0.4492223169624E+00
 0.5933162403787E+00 -0.5137074807118E+00
 0.1272933342295E+00 -0.4377347319117E-01
 0.2041208258237E+00 -0.8132065921217E-01
 0.2725922493298E+00 -0.1285721659744E+00
 0.3358283170176E+00 -0.1828061540841E+00
 0.3957636990563E+00 -0.2416056894389E+00
 0.4534221795555E+00 -0.3028549481031E+00
 0.5092243937531E+00 -0.3646917865009E+00
 0.5630309469189E+00 -0.4253093438741E+00
 0.6137564837601E+00 -0.4827581100153E+00
 0.1340569107763E+00 -0.4507873904675E-01
 0.2156823634655E+00 -0.8151152307260E-01
 0.2877877994263E+00 -0.1266594814143E+00
 0.3536381551563E+00 -0.1780163905364E+00
 0.4152561567357E+00 -0.2332238834641E+00
 0.4736804999041E+00 -0.2901514514602E+00
 0.5293344780909E+00 -0.3469146495094E+00
 0.5820961535541E+00 -0.4016982095213E+00
 0.6308897327688E+00 -0.4525642605382E+00
 0.1400869636665E+00 -0.4651561575798E-01
 0.2260561050139E+00 -0.8189117502761E-01
 0.3014695791008E+00 -0.1249668848124E+00
 0.3696596685920E+00 -0.1734662094311E+00
 0.4326975707955E+00 -0.2251166040740E+00
 0.4916216647781E+00 -0.2778111901875E+00
 0.5468669770253E+00 -0.3296946231484E+00
 0.5983534959174E+00 -0.3790077020416E+00
 0.6450460507615E+00 -0.4238775081108E+00
 0.1453864624177E+00 -0.4809454490264E-01
 0.2352419408972E+00 -0.8251204500553E-01
 0.3136368183895E+00 -0.1236081381496E+00
 0.3839005957285E+00 -0.1693384356448E+00
 0.4481191641432E+00 -0.2175388595779E+00
 0.5073224930382E+00 -0.2661583425818E+00
 0.5619731009592E+00 -0.3134315195713E+00
 0.6120561010515E+00 -0.3577246756006E+00
 0.6565857896545E+00 -0.3972645723664E+00
 0.1499764990086E+00 -0.4982643705769E-01
 0.2432667954624E+00 -0.8342666735111E-01
 0.3243185928833E+00 -0.1226938858853E+00
 0.3963978032832E+00 -0.1658067186742E+00
 0.4615792539939E+00 -0.2107223855132E+00
 0.5208793472082E+00 -0.2554725086904E+00
 0.5748229210804E+00 -0.2984198487561E+00
 0.6234824787340E+00 -0.3381876610656E+00
 0.6658816646739E+00 -0.3731148610600E+00
 0.1538937617540E+00 -0.5172363722600E-01
 0.2501849792992E+00 -0.8467986283442E-01
 0.3335736196433E+00 -0.1223378306674E+00
 0.4072120869448E+00 -0.1630357712259E+00
 0.4731559145503E+00 -0.2048745220539E+00
 0.5324016990807E+00 -0.2459938652819E+00
 0.5855633586753E+00 -0.2848956900597E+00
 0.6329090736510E+00 -0.3204986440419E+00
 0.6733395914471E+00 -0.3516461160954E+00
-0.1261977090960E+00 -0.9547532888306E-01
-0.1956509957193E+00 -0.1646010556983E+00
-0.2306858440251E+00 -0.1941714331426E+00
-0.2368312930663E+00 -0.2004112218060E+00
-0.2166096524923E+00 -0.1961508348106E+00
-0.1718747891334E+00 -0.1908225009205E+00
-0.1042448499112E+00 -0.2023596538612E+00
-0.2290661111453E-01 -0.2525647416316E+00
 0.6755125622678E-01 -0.3476461662895E+00
-0.1135390527510E+00 -0.7721760027680E-01
-0.1871743481742E+00 -0.1405500630843E+00
-0.2246110200805E+00 -0.1817030144037E+00
-0.2336713194394E+00 -0.2022850408915E+00
-0.2179551158765E+00 -0.2114453494345E+00
-0.1792883532754E+00 -0.2179880661351E+00
-0.1187121966930E+00 -0.2389227683089E+00
-0.4445988181057E-01 -0.2957748438481E+00
 0.3929476891227E-01 -0.3945946054830E+00
-0.1002748689351E+00 -0.6554191165190E-01
-0.1732219341887E+00 -0.1236259351120E+00
-0.2125223930703E+00 -0.1699330143008E+00
-0.2246023493834E+00 -0.2023285223993E+00
-0.2132872345733E+00 -0.2249464321962E+00
-0.1806198185697E+00 -0.2446326018192E+00
-0.1271707067366E+00 -0.2766045170309E+00
-0.5958941363940E-01 -0.3402594338211E+00
 0.1869267264670E-01 -0.4410138672454E+00
-0.8700425609672E-01 -0.5750806949472E-01
-0.1561611953535E+00 -0.1115072939352E+00
-0.1953038451504E+00 -0.1607614079289E+00
-0.2094303170512E+00 -0.2020449146779E+00
-0.2019147301449E+00 -0.2368781495067E+00
-0.1747097364138E+00 -0.2697914659883E+00
-0.1279517985473E+00 -0.3132104688466E+00
-0.6643646697924E-01 -0.3830010132576E+00
 0.7086539101773E-02 -0.4836357679986E+00
-0.7383202978411E-01 -0.5166889608011E-01
-0.1370386208553E+00 -0.1026467975596E+00
-0.1739755716661E+00 -0.1538615440575E+00
-0.1885797473845E+00 -0.2020260289726E+00
-0.1836881942546E+00 -0.2472578221403E+00
-0.1609727398155E+00 -0.2923192951895E+00
-0.1201119547854E+00 -0.3464065027897E+00
-0.6415098172490E-01 -0.4211206580090E+00
 0.4549405939144E-02 -0.5200252677607E+00
-0.6072155872481E-01 -0.4723906370373E-01
-0.1164237226767E+00 -0.9592385124649E-01
-0.1493065745882E+00 -0.1485261406669E+00
-0.1626756426618E+00 -0.2019878925842E+00
-0.1589350246131E+00 -0.2556693723232E+00
-0.1394448601386E+00 -0.3110055098670E+00
-0.1035298680914E+00 -0.3740754597291E+00
-0.5286052776677E-01 -0.4523138725033E+00
 0.1037899402225E-01 -0.5485218976201E+00
-0.4763432326338E-01 -0.4374320679302E-01
-0.9467564028053E-01 -0.9054776168875E-01
-0.1219229612718E+00 -0.1440020522236E+00
-0.1324171907084E+00 -0.2013205374494E+00
-0.1283050805710E+00 -0.2614099733388E+00
-0.1107049295517E+00 -0.3247018818968E+00
-0.7882502521226E-01 -0.3945661210518E+00
-0.3346021125645E-01 -0.4749829014447E+00
 0.2339372185114E-01 -0.5681706535664E+00
-0.3456761713036E-01 -0.4087641483147E-01
-0.7208607825329E-01 -0.8594494380210E-01
-0.9239371333086E-01 -0.1396249679747E+00
-0.9856433940467E-01 -0.1993604314896E+00
-0.9267914851544E-01 -0.2637564451418E+00
-0.7573388789833E-01 -0.3324923233598E+00
-0.4717439488446E-01 -0.4068358570426E+00
-0.7378531639668E-02 -0.4882852962473E+00
 0.4212897523432E-01 -0.5786516563165E+00
-0.2157241003865E-01 -0.3842670706011E-01
-0.4894888290684E-01 -0.8167805879168E-01
-0.6128208499032E-01 -0.1348536093965E+00
-0.6193607127731E-01 -0.1955488880558E+00
-0.5310368401298E-01 -0.2621461748576E+00
-0.3578365193657E-01 -0.3338103545167E+00
-0.1004025114994E-01 -0.4104730187130E+00
 0.2367930011224E-01 -0.4922276578942E+00
 0.6495749363526E-01 -0.5802195840824E+00
 0.1670371596102E+00 -0.5832605954396E-01
 0.2743663793504E+00 -0.9325031274647E-01
 0.3671473612113E+00 -0.1306456258001E+00
 0.4475755790629E+00 -0.1687539297097E+00
 0.5172046306224E+00 -0.2058527042827E+00
 0.5768485974186E+00 -0.2405584583213E+00
 0.6267690552924E+00 -0.2720832584033E+00
 0.6673437740741E+00 -0.3002051920691E+00
 0.6990363965422E+00 -0.3254110649111E+00
 0.1769009874435E+00 -0.6363978154924E-01
 0.2922572382416E+00 -0.1015920781174E+00
 0.3915264758730E+00 -0.1407035032239E+00
 0.4762802831699E+00 -0.1787597227152E+00
 0.5478406639913E+00 -0.2140364316126E+00
 0.6071014434311E+00 -0.2454558018324E+00
 0.6541795151113E+00 -0.2726508208145E+00
 0.6895210817250E+00 -0.2964576287260E+00
 0.7150263153801E+00 -0.3187142657725E+00
 0.1869207809991E+00 -0.6989599572326E-01
 0.3098776379222E+00 -0.1119254950700E+00
 0.4146802398238E+00 -0.1535787564511E+00
 0.5025689917136E+00 -0.1920027645287E+00
 0.5749239867986E+00 -0.2254447402520E+00
 0.6329296329263E+00 -0.2532145980643E+00
 0.6768102303097E+00 -0.2753242547403E+00
 0.7072519544878E+00 -0.2938448292444E+00
 0.7270503105543E+00 -0.3120531601143E+00
 0.1972875914623E+00 -0.7743391723088E-01
 0.3273295366691E+00 -0.1249198536645E+00
 0.4365798120923E+00 -0.1700667171961E+00
 0.5263671729670E+00 -0.2091784842389E+00
 0.5984463088786E+00 -0.2405720393956E+00
 0.6544737080376E+00 -0.2641720659684E+00
 0.6949380074118E+00 -0.2803957274528E+00
 0.7207195458459E+00 -0.2927001317509E+00
 0.7352549924976E+00 -0.3060942477176E+00
 0.2082334351860E+00 -0.8673858382052E-01
 0.3446276818345E+00 -0.1414452550860E+00
 0.4570350667698E+00 -0.1910303253277E+00
 0.5474406921440E+00 -0.2308419128159E+00
 0.6182992928010E+00 -0.2596084096387E+00
 0.6718540911165E+00 -0.2783197068878E+00
 0.7088814887853E+00 -0.2879415996866E+00
 0.7303564799049E+00 -0.2933981974940E+00
 0.7401514016900E+00 -0.3014398305244E+00
 0.2200118313056E+00 -0.9854764902965E-01
 0.3615902354990E+00 -0.1626800464420E+00
 0.4755857997118E+00 -0.2173920080281E+00
 0.5653484757960E+00 -0.2572673075868E+00
 0.6342831778169E+00 -0.2822898328595E+00
 0.6851955166824E+00 -0.2952180657419E+00
 0.7190544449971E+00 -0.2977708847038E+00
 0.7367811537104E+00 -0.2961324516628E+00
 0.7424512992548E+00 -0.2985305835542E+00
 0.2328483731203E+00 -0.1140524443090E+00
 0.3776287746371E+00 -0.1902900906887E+00
 0.4913647799125E+00 -0.2499870048067E+00
 0.5794352844520E+00 -0.2881550707271E+00
 0.6461822933269E+00 -0.3076846006872E+00
 0.6947007989102E+00 -0.3140005287732E+00
 0.7259657223130E+00 -0.3094504397439E+00
 0.7407134570028E+00 -0.3009008622315E+00
 0.7429415831022E+00 -0.2976163861382E+00
 0.2467459493874E+00 -0.1354116950959E+00
 0.3913617277263E+00 -0.2265965164544E+00
 0.5029379339326E+00 -0.2891314588459E+00
 0.5890151160120E+00 -0.3219350913829E+00
 0.6539857815986E+00 -0.3341853339134E+00
 0.7007408143566E+00 -0.3335701235260E+00
 0.7302231874444E+00 -0.3224387336064E+00
 0.7429016706690E+00 -0.3075546732508E+00
 0.7423920328492E+00 -0.2987726974705E+00
 0.2609831474958E+00 -0.1669615670192E+00
 0.3993990802820E+00 -0.2751090024103E+00
 0.5088525750569E+00 -0.3320309896569E+00
 0.5939971179407E+00 -0.3557633404762E+00
 0.6580657430811E+00 -0.3599907108754E+00
 0.7039060914231E+00 -0.3529096922056E+00
 0.7325178026262E+00 -0.3362438655516E+00
 0.7440492178863E+00 -0.3158488616213E+00
 0.7414984077972E+00 -0.3019371026847E+00
 0.1600734927317E+00 -0.7201774881604E+00
 0.1498724431266E+00 -0.7338380915606E+00
 0.1424860502329E+00 -0.7418392150620E+00
 0.1389344886761E+00 -0.7432245601136E+00
 0.1404794047235E+00 -0.7371979959162E+00
 0.1486230866803E+00 -0.7231108597584E+00
 0.1651388459956E+00 -0.7005300911303E+00
 0.1920943217504E+00 -0.6693870683148E+00
 0.2318325828113E+00 -0.6302937654875E+00
 0.2091836847375E+00 -0.7592757194234E+00
 0.2023275220011E+00 -0.7831158171852E+00
 0.1975757393828E+00 -0.8027046997477E+00
 0.1961161459863E+00 -0.8169526993086E+00
 0.1992770653264E+00 -0.8248424320471E+00
 0.2087143728488E+00 -0.8253898669280E+00
 0.2265232062526E+00 -0.8176606427189E+00
 0.2554062709331E+00 -0.8008214914351E+00
 0.2990819795127E+00 -0.7742155505186E+00
 0.2602515168023E+00 -0.7904937299379E+00
 0.2575106495346E+00 -0.8239784671620E+00
 0.2563420854539E+00 -0.8545234100969E+00
 0.2578746924796E+00 -0.8811718389231E+00
 0.2634351248721E+00 -0.9028503532104E+00
 0.2746893788098E+00 -0.9183971908221E+00
 0.2938015155157E+00 -0.9265354530402E+00
 0.3236416555074E+00 -0.9258262822340E+00
 0.3681109564587E+00 -0.9145313232329E+00
 0.3122939785613E+00 -0.8123270943759E+00
 0.3140008769138E+00 -0.8540734743703E+00
 0.3168371660445E+00 -0.8940881142973E+00
 0.3217308572315E+00 -0.9315158140824E+00
 0.3298304986700E+00 -0.9653048989727E+00
 0.3426051253226E+00 -0.9941953069784E+00
 0.3619692400586E+00 -0.1016673628653E+01
 0.3904187726701E+00 -0.1030880488984E+01
 0.4311436003264E+00 -0.1034447646287E+01
 0.3641896042608E+00 -0.8236505042996E+00
 0.3703524265417E+00 -0.8714783051286E+00
 0.3771434534741E+00 -0.9185705397645E+00
 0.3851820563769E+00 -0.9641652051400E+00
 0.3952574081861E+00 -0.1007256721064E+01
 0.4083926256557E+00 -0.1046560739902E+01
 0.4259202538628E+00 -0.1080454036012E+01
 0.4495381128476E+00 -0.1106892614597E+01
 0.4812879369417E+00 -0.1123316367379E+01
 0.4148140869413E+00 -0.8238908076865E+00
 0.4251656218143E+00 -0.8750400752555E+00
 0.4355486799859E+00 -0.9261530548413E+00
 0.4461933057406E+00 -0.9765653542138E+00
 0.4573915378805E+00 -0.1025358121168E+01
 0.4695254976382E+00 -0.1071307040239E+01
 0.4831017180728E+00 -0.1112819170450E+01
 0.4987710787210E+00 -0.1147868532084E+01
 0.5173008757985E+00 -0.1173958143361E+01
 0.4631292730484E+00 -0.8131573779439E+00
 0.4772012191599E+00 -0.8646655401432E+00
 0.4906405887110E+00 -0.9164624676933E+00
 0.5032610361465E+00 -0.9679926895206E+00
 0.5148027175250E+00 -0.1018467430244E+01
 0.5249231123874E+00 -0.1066809597014E+01
 0.5331975658280E+00 -0.1111588279248E+01
 0.5391334210351E+00 -0.1150955401638E+01
 0.5422020177183E+00 -0.1182611624245E+01
 0.5082081307197E+00 -0.7921371622280E+00
 0.5253746212644E+00 -0.8411121542371E+00
 0.5412238239439E+00 -0.8902860105792E+00
 0.5551838150206E+00 -0.9392123393069E+00
 0.5664770709457E+00 -0.9872618089338E+00
 0.5740720981639E+00 -0.1033573396572E+01
 0.5766415349908E+00 -0.1076990236295E+01
 0.5725537945873E+00 -0.1115979275782E+01
 0.5599428932556E+00 -0.1148551667546E+01
 0.5492542249429E+00 -0.7620185577564E+00
 0.5687548652223E+00 -0.8058695220794E+00
 0.5862732248793E+00 -0.8494207471948E+00
 0.6009315968928E+00 -0.8923140323890E+00
 0.6115466138767E+00 -0.9340778387107E+00
 0.6165441066870E+00 -0.9740970540821E+00
 0.6138625016172E+00 -0.1011563541343E+01
 0.6008625948085E+00 -0.1045390445052E+01
 0.5743263953702E+00 -0.1074061364594E+01
 0.5856348286252E+00 -0.7244323551200E+00
 0.6065931137919E+00 -0.7610890869644E+00
 0.6249462267681E+00 -0.7966086776594E+00
 0.6396202001648E+00 -0.8306785344590E+00
 0.6491902137509E+00 -0.8629448308796E+00
 0.6517735515685E+00 -0.8930115325116E+00
 0.6448845505564E+00 -0.9204265299740E+00
 0.6252388677668E+00 -0.9446334741910E+00
 0.5884918671976E+00 -0.9648278110558E+00
 0.6169339603233E+00 -0.6813977668917E+00
 0.6383965224994E+00 -0.7095373519562E+00
 0.6566755548235E+00 -0.7355172444757E+00
 0.6706135345210E+00 -0.7590219128029E+00
 0.6787217300445E+00 -0.7797501134883E+00
 0.6790786849186E+00 -0.7974454432287E+00
 0.6691790572380E+00 -0.8119307428815E+00
 0.6456896442858E+00 -0.8231405020651E+00
 0.6040022654309E+00 -0.8311268826105E+00
 0.6430314623118E+00 -0.6352364592511E+00
 0.6640618948593E+00 -0.6544998825672E+00
 0.6813620505293E+00 -0.6706446482896E+00
 0.6937793083592E+00 -0.6833409408005E+00
 0.6999040708066E+00 -0.6923073594547E+00
 0.6980024417844E+00 -0.6973640916361E+00
 0.6859162420960E+00 -0.6985061670881E+00
 0.6608995148728E+00 -0.6960174439559E+00
 0.6193010303994E+00 -0.6906706398523E+00
 0.6641234620292E+00 -0.5883366236826E+00
 0.6839194236044E+00 -0.5993869468722E+00
 0.6994854027687E+00 -0.6067481396296E+00
 0.7097384738906E+00 -0.6101661750286E+00
 0.7134471467979E+00 -0.6094823520510E+00
 0.7092125135171E+00 -0.6047037223733E+00
 0.6954553855496E+00 -0.5961001257957E+00
 0.6704237574499E+00 -0.5843612279702E+00
 0.6322576038673E+00 -0.5708915287879E+00
 0.6807100116210E+00 -0.5427432867165E+00
 0.6987367889126E+00 -0.5469621565386E+00
 0.7121538520653E+00 -0.5474622865602E+00
 0.7200150193859E+00 -0.5441746384988E+00
 0.7213518961562E+00 -0.5371878864262E+00
 0.7151976152502E+00 -0.5268259823185E+00
 0.7006511644897E+00 -0.5137422794887E+00
 0.6770299549219E+00 -0.4990526341595E+00
 0.6442301572533E+00 -0.4845432536459E+00
 0.6934850077976E+00 -0.4998985175364E+00
 0.7095410551424E+00 -0.4989110693779E+00
 0.7208124192105E+00 -0.4946041863613E+00
 0.7265641342097E+00 -0.4871041285722E+00
 0.7261679912644E+00 -0.4767349694395E+00
 0.7191428308978E+00 -0.4640788441908E+00
 0.7052480930402E+00 -0.4500281275015E+00
 0.6846654285119E+00 -0.4358318071232E+00
 0.6583296909274E+00 -0.4231015676660E+00
 0.7031775199140E+00 -0.4607267054429E+00
 0.7173401556997E+00 -0.4561227519876E+00
 0.7267568851458E+00 -0.4488413387774E+00
 0.7309549600489E+00 -0.4391428299637E+00
 0.7296712783584E+00 -0.4274995726861E+00
 0.7228713677297E+00 -0.4146177123728E+00
 0.7108145910938E+00 -0.4014284466804E+00
 0.6941633555113E+00 -0.3890440374657E+00
 0.6740772681855E+00 -0.3786299791316E+00
 0.7104981715106E+00 -0.4257621916338E+00
 0.7230306934544E+00 -0.4189535468330E+00
 0.7309816398424E+00 -0.4101668493013E+00
 0.7341629441585E+00 -0.3997236929560E+00
 0.7326485269988E+00 -0.3881643734130E+00
 0.7267436290280E+00 -0.3762118166739E+00
 0.7170008554159E+00 -0.3647070965397E+00
 0.7042358844730E+00 -0.3545208375190E+00
 0.6894811794544E+00 -0.3464285249223E+00
 0.7160400558061E+00 -0.3952867995955E+00
 0.7272594048078E+00 -0.3874361930871E+00
 0.7340900418254E+00 -0.3782045207769E+00
 0.7366513692568E+00 -0.3679552012823E+00
 0.7352910954269E+00 -0.3572681569775E+00
 0.7305304081484E+00 -0.3468265689750E+00
 0.7230506266402E+00 -0.3373307911837E+00
 0.7136616618929E+00 -0.3294171376069E+00
 0.7032238433483E+00 -0.3235868494074E+00
 0.7201035058425E+00 -0.3694513240417E+00
 0.7302403062446E+00 -0.3613668735643E+00
 0.7362990826799E+00 -0.3523255131197E+00
 0.7386518852030E+00 -0.3428309994597E+00
 0.7377939024675E+00 -0.3334916855652E+00
 0.7343341326265E+00 -0.3249150163557E+00
 0.7289639613128E+00 -0.3176412102854E+00
 0.7224137743775E+00 -0.3120970571277E+00
 0.7154115860028E+00 -0.3085754000130E+00
</DataArray>
</PointData>
   <DataArray type="Float64" Name="Load" NumberOfComponents="1"    ComponentName0="Load" format="ascii">
 0.1454908725768E+01
 0.1269499307392E+01
 0.1016679723500E+01
 0.7962187257027E+00
 0.5576785286397E+00
 0.3028505154556E+00
 0.2479560651883E-01
 0.2834356989487E+00
 0.6336263097032E+00
 0.1046971864412E+01
 0.1548515344376E+01
 0.2123999918860E+01
 0.2718976701759E+01
 0.3293714100938E+01
 0.3824241819743E+01
 0.4279599643007E+01
 0.4653471702298E+01
 0.4928921555796E+01
 0.5267796067146E+01
 0.4619245533380E+01
 0.8165775990754E+01
 0.1001864458613E+01
 0.9715368504409E+00
 0.7648343217050E+00
 0.5536817456079E+00
 0.3321329800732E+00
 0.9143404178986E-01
 0.1719519996339E+00
 0.4644543833692E+00
 0.7952056672506E+00
 0.1173264414549E+01
 0.1597796251194E+01
 0.2050975917128E+01
 0.2504589616512E+01
 0.2929394403118E+01
 0.3297251740897E+01
 0.3583686646665E+01
 0.3752598232642E+01
 0.3774840176802E+01
 0.3405541872649E+01
 0.2645871935856E+01
 0.7149554188563E+01
 0.6620627551984E+00
 0.6524556909667E+00
 0.5105448846875E+00
 0.3198584621101E+00
 0.1153711585708E+00
 0.1086105983898E+00
 0.3540196365406E+00
 0.6256391982540E+00
 0.9277962689033E+00
 0.1259591842687E+01
 0.1610042709615E+01
 0.1962424454159E+01
 0.2299563982264E+01
 0.2600475019342E+01
 0.2841070226565E+01
 0.2995465809946E+01
 0.3029071255052E+01
 0.2874514143687E+01
 0.2425553719033E+01
 0.2571642984348E+01
 0.6797352116636E+01
 0.3795720218835E+00
 0.3597903336398E+00
 0.2565141355483E+00
 0.9419245760886E-01
 0.9275061396848E-01
 0.2971997366737E+00
 0.5219448433224E+00
 0.7682918400236E+00
 0.1035886062051E+01
 0.1317833661578E+01
 0.1599870537453E+01
 0.1867527750980E+01
 0.2109668220563E+01
 0.2312166898906E+01
 0.2456290892229E+01
 0.2520883338503E+01
 0.2478080408777E+01
 0.2291618451797E+01
 0.2099102020377E+01
 0.3029185920996E+01
 0.6457891546792E+01
 0.1324585245364E+00
 0.9631570348243E-01
 0.1398015356768E-01
 0.1250702025874E+00
 0.2905042436073E+00
 0.4749880942325E+00
 0.6767736514425E+00
 0.8947034628960E+00
 0.1124765307694E+01
 0.1357104749551E+01
 0.1577356848040E+01
 0.1773760261431E+01
 0.1939564206802E+01
 0.2066495823407E+01
 0.2142468440629E+01
 0.2154768421948E+01
 0.2092599252038E+01
 0.1987474245573E+01
 0.2138911750240E+01
 0.3458007492912E+01
 0.6176659794301E+01
 0.9171501489342E-01
 0.1429103205439E+00
 0.2170001873358E+00
 0.3338867335928E+00
 0.4791687405765E+00
 0.6425946181886E+00
 0.8199382501244E+00
 0.1007670748663E+01
 0.1199431756725E+01
 0.1384439024098E+01
 0.1549795290140E+01
 0.1686720083038E+01
 0.1792271085050E+01
 0.1863555570091E+01
 0.1895867444360E+01
 0.1887413407884E+01
 0.1852682664059E+01
 0.1886891212122E+01
 0.2340267768509E+01
 0.3772356812367E+01
 0.5958380764358E+01
 0.2966385874134E+00
 0.3609478114616E+00
 0.4315073417534E+00
 0.5327070881326E+00
 0.6588487756875E+00
 0.8009329050186E+00
 0.9531200234067E+00
 0.1110085479768E+01
 0.1264269339867E+01
 0.1405282519706E+01
 0.1522504509618E+01
 0.1610289699205E+01
 0.1669280362333E+01
 0.1701694306076E+01
 0.1710424457391E+01
 0.1706306517474E+01
 0.1730531887096E+01
 0.1920789948450E+01
 0.2586302899554E+01
 0.3994606032828E+01
 0.5793707041790E+01
 0.4880552245852E+00
 0.5623207253843E+00
 0.6319967539549E+00
 0.7212517344458E+00
 0.8299629499163E+00
 0.9510857731109E+00
 0.1078122244904E+01
 0.1204702177763E+01
 0.1322990888512E+01
 0.1423833392200E+01
 0.1499297113349E+01
 0.1546916786915E+01
 0.1570777128019E+01
 0.1577939243761E+01
 0.1578877966149E+01
 0.1597583146245E+01
 0.1698269794572E+01
 0.2032923999248E+01
 0.2827440491108E+01
 0.4157771417614E+01
 0.5670697579175E+01
 0.6684653401535E+00
 0.7500440180886E+00
 0.8199991298116E+00
 0.9000580847747E+00
 0.9931991256736E+00
 0.1094251147029E+01
 0.1196758344564E+01
 0.1294030595175E+01
 0.1378674674469E+01
 0.1443291592439E+01
 0.1482813942742E+01
 0.1497908093191E+01
 0.1495939541914E+01
 0.1488534002363E+01
 0.1493581949784E+01
 0.1547579638687E+01
 0.1730352673046E+01
 0.2183015011374E+01
 0.3046761300852E+01
 0.4288959969182E+01
 0.5578928354705E+01
 0.8399073912184E+00
 0.9266357123080E+00
 0.9972575632271E+00
 0.1070108697062E+01
 0.1149487544909E+01
 0.1231705005994E+01
 0.1310779385320E+01
 0.1380296485962E+01
 0.1433834727768E+01
 0.1466057297627E+01
 0.1474790494428E+01
 0.1463708893717E+01
 0.1443266684006E+01
 0.1429387002298E+01
 0.1447054990122E+01
 0.1543453845448E+01
 0.1804618413122E+01
 0.2345946485213E+01
 0.3239366756073E+01
 0.4404617940610E+01
 0.5513383794152E+01
 0.1003954109626E+01
 0.1094067151726E+01
 0.1165322367794E+01
 0.1232369249339E+01
 0.1299624101855E+01
 0.1364427996673E+01
 0.1421501503924E+01
 0.1465144260778E+01
 0.1490271738320E+01
 0.1493755938856E+01
 0.1476233055498E+01
 0.1444193319270E+01
 0.1410948630208E+01
 0.1396427229871E+01
 0.1432104934387E+01
 0.1572898460311E+01
 0.1902449222950E+01
 0.2505661215902E+01
 0.3405938525709E+01
 0.4498236760054E+01
 0.5519225430047E+01
 0.1161962304121E+01
 0.1254119158172E+01
 0.1325879477063E+01
 0.1388196345839E+01
 0.1444834049292E+01
 0.1493746280282E+01
 0.1530442004173E+01
 0.1550219807814E+01
 0.1549558190978E+01
 0.1527575788205E+01
 0.1487572792870E+01
 0.1438639547965E+01
 0.1396722693230E+01
 0.1385455421091E+01
 0.1441907193695E+01
 0.1625309578934E+01
 0.2010916458783E+01
 0.2655198037757E+01
 0.3548201464762E+01
 0.4577818463534E+01
 0.5529777903644E+01
 0.1315059798281E+01
 0.1408429414202E+01
 0.1480684021324E+01
 0.1539232475799E+01
 0.1586701731037E+01
 0.1621306784399E+01
 0.1639337792287E+01
 0.1637249294447E+01
 0.1613197090034E+01
 0.1568512111078E+01
 0.1508988445506E+01
 0.1446112759817E+01
 0.1398271760083E+01
 0.1392483216306E+01
 0.1470307456040E+01
 0.1692130992712E+01
 0.2121883016203E+01
 0.2791915732498E+01
 0.3670646213270E+01
 0.4645150290357E+01
 0.5538685018552E+01
 0.1464219399432E+01
 0.1558322684793E+01
 0.1631163702154E+01
 0.1686811411398E+01
 0.1726468528749E+01
 0.1748337728329E+01
 0.1749434548335E+01
 0.1727433448608E+01
 0.1682195739628E+01
 0.1617173693343E+01
 0.1540462840895E+01
 0.1465742529075E+01
 0.1413637774185E+01
 0.1414147988618E+01
 0.1512082962021E+01
 0.1766552443209E+01
 0.2229545628409E+01
 0.2914397300768E+01
 0.3775547829582E+01
 0.4704030645819E+01
 0.5552618996116E+01
 0.1610303019073E+01
 0.1704975537710E+01
 0.1778633136336E+01
 0.1832215847136E+01
 0.1865343414605E+01
 0.1876003048987E+01
 0.1861858190267E+01
 0.1821801507982E+01
 0.1757362956599E+01
 0.1673983372247E+01
 0.1581853494583E+01
 0.1496642139318E+01
 0.1440992136047E+01
 0.1447404175961E+01
 0.1562744252942E+01
 0.1843347467912E+01
 0.2330195812213E+01
 0.3022230119240E+01
 0.3865343296251E+01
 0.4756545938102E+01
 0.5569941788708E+01
 0.1754086835564E+01
 0.1849445157994E+01
 0.1924302363940E+01
 0.1976661567771E+01
 0.2004481609198E+01
 0.2005391281974E+01
 0.1977621180783E+01
 0.1921237901222E+01
 0.1839355867181E+01
 0.1739240670131E+01
 0.1632962222296E+01
 0.1537972896668E+01
 0.1478687834506E+01
 0.1489585624957E+01
 0.1618591435366E+01
 0.1918661138034E+01
 0.2421507784335E+01
 0.3115593392367E+01
 0.3941897628810E+01
 0.4803294896810E+01
 0.5589053492873E+01
 0.1896278966815E+01
 0.1992691758344E+01
 0.2069287077460E+01
 0.2121290416785E+01
 0.2144971250027E+01
 0.2137508472754E+01
 0.2097628918406E+01
 0.2026504850503E+01
 0.1928718005016E+01
 0.1813171394346E+01
 0.1693589199862E+01
 0.1588994882399E+01
 0.1525307275343E+01
 0.1538460019035E+01
 0.1676713080171E+01
 0.1989743592432E+01
 0.2502071517011E+01
 0.3194876822865E+01
 0.4006442744903E+01
 0.4844462500671E+01
 0.5608697287506E+01
 0.2037532826837E+01
 0.2135596655575E+01
 0.2214619741295E+01
 0.2267168867830E+01
 0.2287825601177E+01
 0.2273273606801E+01
 0.2222685082317E+01
 0.2138260336480E+01
 0.2025909264240E+01
 0.1895966303720E+01
 0.1763575285246E+01
 0.1649108841506E+01
 0.1579705199275E+01
 0.1592266767845E+01
 0.1734939645732E+01
 0.2054710036995E+01
 0.2571063588107E+01
 0.3260469477298E+01
 0.4059787715019E+01
 0.4880140037662E+01
 0.5628042814826E+01
 0.2178458127026E+01
 0.2278977790532E+01
 0.2361261209483E+01
 0.2415290039164E+01
 0.2433978576536E+01
 0.2413514946988E+01
 0.2353494846704E+01
 0.2257070967618E+01
 0.2131328147617E+01
 0.1987810359650E+01
 0.1842835037864E+01
 0.1717890952162E+01
 0.1641044535483E+01
 0.1649736295240E+01
 0.1791777946117E+01
 0.2112348860432E+01
 0.2628026514333E+01
 0.3312682374285E+01
 0.4102464511470E+01
 0.4910435893313E+01
 0.5646692724566E+01
 0.2319630875071E+01
 0.2423604157697E+01
 0.2510112913773E+01
 0.2566577787568E+01
 0.2584281873594E+01
 0.2558965961133E+01
 0.2490665199633E+01
 0.2383419588112E+01
 0.2245326799408E+01
 0.2088903668793E+01
 0.1931381748521E+01
 0.1795120799491E+01
 0.1708823839165E+01
 0.1710095445189E+01
 0.1846347755531E+01
 0.2161982599007E+01
 0.2672735123562E+01
 0.3351722154122E+01
 0.4134807092555E+01
 0.4935512309615E+01
 0.5664667927511E+01
 0.2461603408125E+01
 0.2570210371826E+01
 0.2662029891390E+01
 0.2721891910949E+01
 0.2739502256006E+01
 0.2710259613051E+01
 0.2634701662608E+01
 0.2517707463890E+01
 0.2368219120664E+01
 0.2199474679607E+01
 0.2029344892281E+01
 0.1880802281276E+01
 0.1782896498909E+01
 0.1773065974451E+01
 0.1898333380316E+01
 0.2203380679684E+01
 0.2705123382502E+01
 0.3377681148540E+01
 0.4156985572989E+01
 0.4955588946597E+01
 0.5682379718388E+01
 0.2604915385323E+01
 0.2719512530626E+01
 0.2817835072768E+01
 0.2882033731626E+01
 0.2900317692287E+01
 0.2867919896214E+01
 0.2786000795447E+01
 0.2660250915415E+01
 0.2500282130488E+01
 0.2319785813282E+01
 0.2136979891321E+01
 0.1975177103832E+01
 0.1863482975325E+01
 0.1838862251779E+01
 0.1947957085984E+01
 0.2236719454350E+01
 0.2725254170437E+01
 0.3390531989603E+01
 0.4169010122824E+01
 0.4970925462363E+01
 0.5700592584907E+01
 0.2750106695844E+01
 0.2872226623472E+01
 0.2978335394025E+01
 0.3047751453760E+01
 0.3067311152439E+01
 0.3032349612709E+01
 0.2944838022720E+01
 0.2811272376029E+01
 0.2641750723526E+01
 0.2450131532854E+01
 0.2254669834735E+01
 0.2078730570202E+01
 0.1951177494484E+01
 0.1908192303889E+01
 0.1995976979196E+01
 0.2262585701713E+01
 0.2733324011442E+01
 0.3390124240249E+01
 0.4170712238686E+01
 0.4981786435237E+01
 0.5720380658199E+01
 0.2897733415296E+01
 0.3029090949004E+01
 0.3144340368879E+01
 0.3219744564269E+01
 0.3240960722786E+01
 0.3203813372085E+01
 0.3111350362251E+01
 0.2970885869762E+01
 0.2792805900915E+01
 0.2590828681834E+01
 0.2382918571590E+01
 0.2192189120482E+01
 0.2046949940035E+01
 0.1982263986115E+01
 0.2043709132435E+01
 0.2282022082420E+01
 0.2729702440792E+01
 0.3376185004062E+01
 0.4161706876671E+01
 0.4988388830105E+01
 0.5743080072014E+01
 0.3048388303035E+01
 0.3190894425522E+01
 0.3316683830465E+01
 0.3398666271684E+01
 0.3421624487044E+01
 0.3382414844036E+01
 0.3285513845088E+01
 0.3139077094961E+01
 0.2953556679749E+01
 0.2742198995512E+01
 0.2522334564108E+01
 0.2316508759889E+01
 0.2152142633540E+01
 0.2062795931670E+01
 0.2093071874675E+01
 0.2296615515159E+01
 0.2715012515598E+01
 0.3348329077344E+01
 0.4141336863349E+01
 0.4990830727482E+01
 0.5770237407301E+01
 0.3202727941221E+01
 0.3358513298159E+01
 0.3496249462934E+01
 0.3585122290158E+01
 0.3609518111241E+01
 0.3568067249744E+01
 0.3467115559803E+01
 0.3315678379948E+01
 0.3124015886868E+01
 0.2904543667477E+01
 0.2673604752973E+01
 0.2452852881021E+01
 0.2268460170120E+01
 0.2152030790366E+01
 0.2146648261350E+01
 0.2308630908533E+01
 0.2690266101312E+01
 0.3306088771608E+01
 0.4108600037333E+01
 0.4988999200622E+01
 0.5803547547653E+01
 0.3361509644492E+01
 0.3532959714647E+01
 0.3684000449728E+01
 0.3779663130686E+01
 0.3804682416102E+01
 0.3760456219957E+01
 0.3655720638213E+01
 0.3500339008484E+01
 0.3304070169393E+01
 0.3078110026550E+01
 0.2837457812919E+01
 0.2602557555977E+01
 0.2397948888412E+01
 0.2252746289377E+01
 0.2207760284556E+01
 0.2321192616114E+01
 0.2657076039609E+01
 0.3248981318613E+01
 0.4062058694696E+01
 0.4982457337185E+01
 0.5844757879121E+01
 0.3525642990957E+01
 0.3715447075608E+01
 0.3881012779506E+01
 0.3982765137055E+01
 0.4006937409306E+01
 0.3958994635719E+01
 0.3850635203014E+01
 0.3692491764896E+01
 0.3493444734821E+01
 0.3263050706543E+01
 0.3014616625091E+01
 0.2767082369186E+01
 0.2542961065241E+01
 0.2368257163248E+01
 0.2280545854102E+01
 0.2338510143260E+01
 0.2617982708019E+01
 0.3176637680389E+01
 0.3999738106806E+01
 0.4970313522045E+01
 0.5895450857143E+01
 0.3696263796177E+01
 0.3907478994939E+01
 0.4088509790194E+01
 0.4194792054951E+01
 0.4215818054469E+01
 0.4162769831189E+01
 0.4050867005534E+01
 0.3891316484253E+01
 0.3691662933066E+01
 0.3459375524700E+01
 0.3205740063071E+01
 0.2947944932760E+01
 0.2706097596485E+01
 0.2502396699033E+01
 0.2370027199208E+01
 0.2366131773358E+01
 0.2576944520768E+01
 0.3089064526249E+01
 0.3918938414697E+01
 0.4951283345572E+01
 0.5956198055322E+01
 0.3874843844324E+01
 0.4110970959160E+01
 0.4307892102500E+01
 0.4415923366881E+01
 0.4430486552845E+01
 0.4370485822527E+01
 0.4255087235666E+01
 0.4095701840112E+01
 0.3898000770282E+01
 0.3666896755499E+01
 0.3411355460089E+01
 0.3146639293213E+01
 0.2890122752346E+01
 0.2659464623105E+01
 0.2482146626164E+01
 0.2411222015084E+01
 0.2539953469104E+01
 0.2987403959383E+01
 0.3815428753425E+01
 0.4924881306062E+01
 0.6022805102546E+01
 0.4063387754440E+01
 0.4328588567761E+01
 0.4541039470416E+01
 0.4646426411245E+01
 0.4650098790964E+01
 0.4580968350827E+01
 0.4462253013124E+01
 0.4304975435541E+01
 0.4112340692857E+01
 0.3886221657952E+01
 0.3632986209366E+01
 0.3365875828125E+01
 0.3099276935339E+01
 0.2845557525229E+01
 0.2625042966531E+01
 0.2483660437320E+01
 0.2516161573622E+01
 0.2873879123939E+01
 0.3684301108967E+01
 0.4882307736416E+01
 0.6125617243583E+01
 0.4264614840556E+01
 0.4563665238327E+01
 0.4789695448041E+01
 0.4885650769674E+01
 0.4872686188370E+01
 0.4791983275333E+01
 0.4670267490789E+01
 0.4517328260187E+01
 0.4333335631378E+01
 0.4116659805088E+01
 0.3870815359273E+01
 0.3607029413280E+01
 0.3336582812549E+01
 0.3065920951619E+01
 0.2806839418910E+01
 0.2594939826912E+01
 0.2518765316487E+01
 0.2755254735740E+01
 0.3518395953259E+01
 0.4818676872693E+01
 0.6262335646830E+01
 0.4482433669840E+01
 0.4820577009886E+01
 0.5055327251731E+01
 0.5131677153539E+01
 0.5094996150185E+01
 0.5000236233421E+01
 0.4875976218232E+01
 0.4729733472553E+01
 0.4558253550589E+01
 0.4356019745278E+01
 0.4123444957733E+01
 0.3869845622828E+01
 0.3603468616963E+01
 0.3324493840778E+01
 0.3035285019765E+01
 0.2758312494101E+01
 0.2566945461242E+01
 0.2647352975329E+01
 0.3314272405744E+01
 0.4722221890671E+01
 0.6427444772132E+01
 0.4722713097054E+01
 0.5105442068894E+01
 0.5339146808950E+01
 0.5381446438548E+01
 0.5313265115022E+01
 0.5202557207737E+01
 0.5076525462098E+01
 0.4939443270087E+01
 0.4784661712227E+01
 0.4602538102103E+01
 0.4390067636983E+01
 0.4154747914835E+01
 0.3901989193640E+01
 0.3625700653661E+01
 0.3318713381590E+01
 0.2988756704402E+01
 0.2685147632566E+01
 0.2577458736942E+01
 0.3072753468481E+01
 0.4570577833889E+01
 0.6630687956394E+01
 0.4994633931301E+01
 0.5426522155044E+01
 0.5640768312514E+01
 0.5629524508721E+01
 0.5522743575494E+01
 0.5395547861231E+01
 0.5268811465181E+01
 0.5143199252381E+01
 0.5009418733328E+01
 0.4853764255999E+01
 0.4669348770103E+01
 0.4461711811049E+01
 0.4233601642079E+01
 0.3973055798409E+01
 0.3664439714682E+01
 0.3301537084366E+01
 0.2903235203086E+01
 0.2590992101872E+01
 0.2811319322370E+01
 0.4331513016078E+01
 0.6886317621349E+01
 0.5313360382393E+01
 0.5794597467328E+01
 0.5955725210165E+01
 0.5866996460262E+01
 0.5718042445421E+01
 0.5575909572107E+01
 0.5449628263518E+01
 0.5337215030207E+01
 0.5228449518949E+01
 0.5106310442998E+01
 0.4959363154726E+01
 0.4790350083412E+01
 0.4599124024359E+01
 0.4368731495846E+01
 0.4077665611608E+01
 0.3709802835011E+01
 0.3254268698262E+01
 0.2754865290172E+01
 0.2591035086232E+01
 0.3962769238422E+01
 0.7213600336576E+01
 0.5705713826053E+01
 0.6222039096451E+01
 0.6270054933185E+01
 0.6080825782907E+01
 0.5894207324187E+01
 0.5740772369719E+01
 0.5615907586891E+01
 0.5517244866242E+01
 0.5436406342246E+01
 0.5355392705428E+01
 0.5257521740325E+01
 0.5140202471254E+01
 0.4998889605761E+01
 0.4813117219668E+01
 0.4560417176513E+01
 0.4221415431493E+01
 0.3767706996989E+01
 0.3155693325870E+01
 0.2560358166371E+01
 0.3434392251989E+01
 0.7634592502875E+01
 0.6223643706940E+01
 0.6715486237642E+01
 0.6549351153972E+01
 0.6256565525018E+01
 0.6048370740894E+01
 0.5887700739435E+01
 0.5765198102624E+01
 0.5678841900687E+01
 0.5626217100922E+01
 0.5593899181405E+01
 0.5560425977835E+01
 0.5511452271894E+01
 0.5433174365683E+01
 0.5304498553584E+01
 0.5110217860692E+01
 0.4837138518311E+01
 0.4455790336086E+01
 0.3885481761063E+01
 0.2981211352360E+01
 0.2863975445838E+01
 0.8165576002133E+01
 0.6981885704708E+01
 0.7236548947362E+01
 0.6724720108226E+01
 0.6392152373650E+01
 0.6178056194907E+01
 0.6015310216751E+01
 0.5896133752827E+01
 0.5818117900886E+01
 0.5788727246736E+01
 0.5810354807306E+01
 0.5863407201984E+01
 0.5906698437771E+01
 0.5902897693392E+01
 0.5838826706686E+01
 0.5718858075634E+01
 0.5548925386174E+01
 0.5307692869902E+01
 0.4974683411511E+01
 0.4221267935328E+01
 0.3026488746893E+01
 0.8794963640826E+01
 0.8294836507140E+01
 0.7465316815905E+01
 0.6774416199928E+01
 0.6495217831546E+01
 0.6279705837586E+01
 0.6124669502805E+01
 0.6008258617547E+01
 0.5933391105831E+01
 0.5913680755735E+01
 0.5984158707566E+01
 0.6158840101473E+01
 0.6335543082893E+01
 0.6410864384866E+01
 0.6407463179630E+01
 0.6375670502110E+01
 0.6330542220430E+01
 0.6307033075047E+01
 0.6306126375595E+01
 0.6562781018464E+01
 0.5652132941823E+01
 0.1053799800906E+02
 0.9041084240317E+00
 0.1537214221623E+01
 0.2016203773087E+01
 0.2391144222050E+01
 0.2693479798444E+01
 0.2943790964267E+01
 0.3164520253872E+01
 0.3380061117717E+01
 0.3597800534859E+01
 0.3797940743945E+01
 0.8684404737436E+00
 0.1550861685071E+01
 0.2065967760125E+01
 0.2467945872496E+01
 0.2792765410186E+01
 0.3065480172495E+01
 0.3312965963332E+01
 0.3560496113063E+01
 0.3807874361792E+01
 0.4019960469551E+01
 0.8377212832718E+00
 0.1562485588574E+01
 0.2106667188986E+01
 0.2529916641240E+01
 0.2872471098947E+01
 0.3163689497772E+01
 0.3431691562011E+01
 0.3698302966110E+01
 0.3959749601230E+01
 0.4184335577614E+01
 0.8117661235602E+00
 0.1570209657777E+01
 0.2136615184486E+01
 0.2575361673298E+01
 0.2930549485287E+01
 0.3234224783774E+01
 0.3513934204799E+01
 0.3788120418850E+01
 0.4052212315356E+01
 0.4277154363897E+01
 0.7903666015443E+00
 0.1572942684425E+01
 0.2154458866211E+01
 0.2602909135771E+01
 0.2965032320379E+01
 0.3274146274301E+01
 0.3556489837342E+01
 0.3827872222161E+01
 0.4083381337562E+01
 0.4296364495326E+01
 0.7734133641871E+00
 0.1569916428669E+01
 0.2159326537984E+01
 0.2611606572805E+01
 0.2974731857764E+01
 0.3282132027603E+01
 0.3558432693028E+01
 0.3817271383629E+01
 0.4053761913417E+01
 0.4243589196487E+01
 0.7608572476833E+00
 0.1560717426271E+01
 0.2150814920416E+01
 0.2601133289425E+01
 0.2959441590523E+01
 0.3258327175635E+01
 0.3520579966363E+01
 0.3758006900709E+01
 0.3965952473841E+01
 0.4122465958552E+01
 0.7526863583052E+00
 0.1545281164558E+01
 0.2129033796140E+01
 0.2571864303112E+01
 0.2919933191643E+01
 0.3204162688726E+01
 0.3445320184180E+01
 0.3653587597999E+01
 0.3824601117492E+01
 0.3938787213509E+01
 0.7489084336857E+00
 0.1523887101412E+01
 0.2094608621998E+01
 0.2524853702921E+01
 0.2857864131471E+01
 0.3122190876463E+01
 0.3336409720106E+01
 0.3509174537411E+01
 0.3636358163336E+01
 0.3700665188687E+01
 0.7495387502660E+00
 0.1497137644415E+01
 0.2048646807603E+01
 0.2461763157810E+01
 0.2775644195095E+01
 0.3015885252143E+01
 0.3198736147686E+01
 0.3331355447474E+01
 0.3409688611874E+01
 0.3418509346964E+01
 0.7545909137495E+00
 0.1465922130506E+01
 0.1992675192643E+01
 0.2384757325356E+01
 0.2676269697879E+01
 0.2889406037931E+01
 0.3038026782387E+01
 0.3127831502349E+01
 0.3154619748278E+01
 0.3105039174953E+01
 0.7640699734607E+00
 0.1431369203482E+01
 0.1928558601708E+01
 0.2296378415833E+01
 0.2563137686000E+01
 0.2747338095671E+01
 0.2860496317103E+01
 0.2906992998703E+01
 0.2882346357945E+01
 0.2775062535112E+01
 0.7779685279873E+00
 0.1394792750375E+01
 0.1858408132710E+01
 0.2199410579918E+01
 0.2439851649343E+01
 0.2594417034901E+01
 0.2672455392500E+01
 0.2677356086145E+01
 0.2604548321464E+01
 0.2444886910820E+01
 0.7962669108431E+00
 0.1357636922415E+01
 0.1784487746154E+01
 0.2096743851483E+01
 0.2310029022542E+01
 0.2435261337232E+01
 0.2479921588225E+01
 0.2446910128745E+01
 0.2332144750375E+01
 0.2129964447456E+01
 0.8189382099294E+00
 0.1321425104512E+01
 0.1709128300809E+01
 0.1991247736004E+01
 0.2177119188580E+01
 0.2274120521675E+01
 0.2288272330373E+01
 0.2222538386927E+01
 0.2073874481033E+01
 0.1841331426263E+01
 0.8459578329132E+00
 0.1287716711690E+01
 0.1634657126321E+01
 0.1885670321948E+01
 0.2044240449947E+01
 0.2114640271491E+01
 0.2101952084804E+01
 0.2009671980618E+01
 0.1835743131115E+01
 0.1584456519330E+01
 0.8773153283567E+00
 0.1258072219894E+01
 0.1563352050406E+01
 0.1782575010120E+01
 0.1914074537725E+01
 0.1959624573610E+01
 0.1924206052244E+01
 0.1812185461390E+01
 0.1621446055280E+01
 0.1360626860046E+01
 0.9130105216243E+00
 0.1234049038163E+01
 0.1497424538714E+01
 0.1684314974721E+01
 0.1788848352577E+01
 0.1810941796864E+01
 0.1756576987143E+01
 0.1632405760712E+01
 0.1433311998594E+01
 0.1169123104603E+01
 0.9530282666630E+00
 0.1217116165402E+01
 0.1439222514153E+01
 0.1592969114523E+01
 0.1670263433281E+01
 0.1669870816982E+01
 0.1598770357322E+01
 0.1469138463731E+01
 0.1274344151323E+01
 0.1010320978679E+01
 0.9964959883032E+00
 0.1209989277354E+01
 0.1391231273234E+01
 0.1510305714793E+01
 0.1559380020120E+01
 0.1536984859160E+01
 0.1450961775240E+01
 0.1316168852040E+01
 0.1137562171760E+01
 0.9003052507455E+00
 0.1326467867785E+01
 0.4335743923970E+00
 0.5059480090503E-01
 0.6129835461827E-01
 0.1504406841140E+00
 0.2132014149908E+00
 0.2104953944609E+00
 0.1232381956521E+00
 0.3645078913797E-01
 0.1896172003564E+00
 0.1443610665252E+01
 0.1010508275830E+01
 0.4948341028882E+00
 0.2767317159332E+00
 0.1460761308549E+00
 0.4712436347238E-01
 0.4605899969210E-02
 0.3359876512411E-01
 0.1121166898532E+00
 0.3837663746813E+00
 0.1382608554608E+01
 0.1240898785295E+01
 0.9020020735328E+00
 0.6576564283950E+00
 0.4984809215207E+00
 0.3800639091920E+00
 0.3095441498541E+00
 0.3149072441276E+00
 0.4198139916844E+00
 0.7694905319737E+00
 0.1309572726036E+01
 0.1354198016405E+01
 0.1187368629466E+01
 0.1015868937692E+01
 0.8758218835957E+00
 0.7649178187842E+00
 0.6937809133057E+00
 0.7028030468595E+00
 0.8503212923781E+00
 0.1250351272486E+01
 0.1240112699391E+01
 0.1420802908330E+01
 0.1400809360542E+01
 0.1326703487313E+01
 0.1245713210243E+01
 0.1173228571361E+01
 0.1127721620581E+01
 0.1161095862386E+01
 0.1347602197311E+01
 0.1759094325359E+01
 0.1177206903136E+01
 0.1466208890789E+01
 0.1569363008788E+01
 0.1595366895492E+01
 0.1590320994538E+01
 0.1576950907274E+01
 0.1576682007814E+01
 0.1646129533051E+01
 0.1860670668446E+01
 0.2250791233578E+01
 0.1119684983798E+01
 0.1499702850455E+01
 0.1706576676047E+01
 0.1826205047603E+01
 0.1900526831547E+01
 0.1954048182951E+01
 0.2007996185840E+01
 0.2116849764029E+01
 0.2347478589471E+01
 0.2696767866359E+01
 0.1065540501586E+01
 0.1523570991189E+01
 0.1817716081840E+01
 0.2020677398618E+01
 0.2169570378892E+01
 0.2288210447584E+01
 0.2395460470471E+01
 0.2538924872224E+01
 0.2775155818330E+01
 0.3079908732291E+01
 0.1012493150100E+01
 0.1536592025672E+01
 0.1903816329820E+01
 0.2178234057582E+01
 0.2391978941292E+01
 0.2567762882714E+01
 0.2721918849345E+01
 0.2889358951096E+01
 0.3118383022383E+01
 0.3390836645078E+01
 0.9568617955404E+00
 0.1536420539936E+01
 0.1965077078834E+01
 0.2298022043645E+01
 0.2563875917945E+01
 0.2784179550858E+01
 0.2976431387620E+01
 0.3165271614062E+01
 0.3372037200925E+01
 0.3617558560311E+01
 0.1046295184789E+01
 0.1217048153762E+01
 0.1347600225357E+01
 0.1417721573282E+01
 0.1422644892282E+01
 0.1365880050067E+01
 0.1257517758807E+01
 0.1112920171445E+01
 0.9513010759402E+00
 0.7937758062016E+00
 0.1106365395444E+01
 0.1232408544957E+01
 0.1305099875799E+01
 0.1313479803888E+01
 0.1263411404014E+01
 0.1165976994086E+01
 0.1034314823425E+01
 0.8845045510921E+00
 0.7441065056642E+00
 0.5889041207846E+00
 0.1174216101291E+01
 0.1258299065023E+01
 0.1270497107785E+01
 0.1215579060259E+01
 0.1112011202249E+01
 0.9773350905898E+00
 0.8270133152973E+00
 0.6777900278271E+00
 0.5454223420423E+00
 0.3936722044478E+00
 0.1252607504085E+01
 0.1295801689694E+01
 0.1239746027928E+01
 0.1117153251075E+01
 0.9611054536936E+00
 0.7944460356600E+00
 0.6331156169622E+00
 0.4894922498500E+00
 0.3682778435617E+00
 0.2384387624711E+00
 0.1344709699054E+01
 0.1342519948610E+01
 0.1203863553494E+01
 0.1007128906729E+01
 0.8012769615966E+00
 0.6114839925501E+00
 0.4505461903917E+00
 0.3245588846589E+00
 0.2268240666833E+00
 0.1299039738900E+00
 0.1453622267926E+01
 0.1390991031884E+01
 0.1146263963006E+01
 0.8691461262887E+00
 0.6216492110926E+00
 0.4235267533952E+00
 0.2791783629375E+00
 0.1861303987833E+00
 0.1246384240468E+00
 0.6765540224104E-01
 0.1581488329238E+01
 0.1423638036487E+01
 0.1037859860868E+01
 0.6815926525772E+00
 0.4128867173872E+00
 0.2301774782853E+00
 0.1211662389584E+00
 0.7475401454981E-01
 0.5946601306825E-01
 0.4722520088468E-01
 0.1724810664110E+01
 0.1399579137458E+01
 0.8298601740296E+00
 0.4215755331467E+00
 0.1786505165188E+00
 0.4038750317084E-01
 0.1814146107105E-01
 0.9878601721684E-02
 0.2631054928152E-01
 0.6262679921431E-01
 0.1862542259808E+01
 0.1213328545626E+01
 0.4402923073492E+00
 0.1094408219331E+00
 0.5326115315435E-01
 0.1293216149864E+00
 0.1310453639977E+00
 0.6869640486367E-01
 0.1959323254268E-01
 0.1057354146140E+00
 0.1761709556091E+01
 0.5316341874657E+00
 0.2669994757666E-01
 0.1734488919711E+00
 0.2500087148149E+00
 0.2631591708766E+00
 0.2120774035712E+00
 0.1020311283752E+00
 0.3028402119667E-01
 0.1668369007208E+00
 0.3886634554300E+01
 0.3753001928831E+01
 0.3546229788520E+01
 0.3277334465004E+01
 0.2942948035321E+01
 0.2543828963441E+01
 0.2085536762215E+01
 0.1584124157304E+01
 0.1077738104776E+01
 0.6810873692442E+00
 0.4115344143763E+01
 0.4088012788280E+01
 0.3972692998327E+01
 0.3786963282713E+01
 0.3533254955068E+01
 0.3208396803419E+01
 0.2810414119711E+01
 0.2341760368618E+01
 0.1814736924236E+01
 0.1244592615294E+01
 0.4281398818768E+01
 0.4299883964121E+01
 0.4257160016547E+01
 0.4142901771793E+01
 0.3954111406560E+01
 0.3682740169060E+01
 0.3316645578880E+01
 0.2839231010998E+01
 0.2222297146225E+01
 0.1403156288917E+01
 0.4377020633021E+01
 0.4419128658291E+01
 0.4413040812323E+01
 0.4341671085529E+01
 0.4191054363125E+01
 0.3945035270340E+01
 0.3581399927487E+01
 0.3068521889039E+01
 0.2358275506884E+01
 0.1376425637954E+01
 0.4394726545428E+01
 0.4446190826956E+01
 0.4455358873346E+01
 0.4402743850337E+01
 0.4268549850840E+01
 0.4029602022596E+01
 0.3656594476368E+01
 0.3111540363623E+01
 0.2346173507159E+01
 0.1309691780258E+01
 0.4332609665925E+01
 0.4381251215277E+01
 0.4390906857066E+01
 0.4342111361704E+01
 0.4212727223900E+01
 0.3976331620351E+01
 0.3600615743338E+01
 0.3047009957464E+01
 0.2273600589095E+01
 0.1251779254985E+01
 0.4192534871992E+01
 0.4226987782426E+01
 0.4225506207036E+01
 0.4170271827135E+01
 0.4039938762512E+01
 0.3808482269271E+01
 0.3444270665609E+01
 0.2910602555998E+01
 0.2170063038244E+01
 0.1202142851792E+01
 0.3979595353618E+01
 0.3989305606795E+01
 0.3966339474073E+01
 0.3896021397669E+01
 0.3760279085424E+01
 0.3536660875408E+01
 0.3197250467061E+01
 0.2708359763688E+01
 0.2033268080167E+01
 0.1147423173544E+01
 0.3702025042260E+01
 0.3677085702741E+01
 0.3622655024397E+01
 0.3528174462263E+01
 0.3380667481027E+01
 0.3163861264090E+01
 0.2856693653482E+01
 0.2431111306533E+01
 0.1850344158974E+01
 0.1078051767899E+01
 0.3371684288403E+01
 0.3303352297801E+01
 0.3207917453769E+01
 0.3079149570592E+01
 0.2910040380801E+01
 0.2692256795756E+01
 0.2414699556846E+01
 0.2060368825232E+01
 0.1599394339146E+01
 0.9831760053916E+00
 0.3004396317871E+01
 0.2886421434415E+01
 0.2742243309655E+01
 0.2569290814670E+01
 0.2366186277829E+01
 0.2132807758687E+01
 0.1869815138520E+01
 0.1576837637231E+01
 0.1246630733606E+01
 0.8424936755039E+00
 0.2619755562846E+01
 0.2450517669707E+01
 0.2254589643597E+01
 0.2031785117535E+01
 0.1785006207896E+01
 0.1520883129899E+01
 0.1250774121244E+01
 0.9922953494367E+00
 0.7712984083853E+00
 0.6185296655533E+00
 0.2240690880272E+01
 0.2026153427065E+01
 0.1784767443161E+01
 0.1517946035793E+01
 0.1231763006885E+01
 0.9377624054263E+00
 0.6550912384950E+00
 0.4149549324043E+00
 0.2692100834172E+00
 0.3233772075049E+00
 0.1889729232396E+01
 0.1644943653962E+01
 0.1376226445554E+01
 0.1087406074645E+01
 0.7882627428085E+00
 0.4950864864002E+00
 0.2336472015408E+00
 0.5683208756029E-01
 0.4986303389878E-01
 0.1368550709583E+00
 0.1582126274825E+01
 0.1327232809178E+01
 0.1054915679528E+01
 0.7728342338626E+00
 0.4954195561401E+00
 0.2437444826692E+00
 0.5560101390509E-01
 0.8251420174603E-01
 0.5357822275791E-01
 0.1672106538275E+00
 0.1322576338873E+01
 0.1075127251835E+01
 0.8171130555534E+00
 0.5602930729361E+00
 0.3228458150298E+00
 0.1276854772916E+00
 0.3051037400174E-01
 0.5357469051977E-01
 0.2625627137617E-01
 0.2282367825775E+00
 0.1109576734194E+01
 0.8807811722160E+00
 0.6453442560084E+00
 0.4200016975206E+00
 0.2252914041810E+00
 0.8191684989775E-01
 0.1895068598517E-01
 0.9281622484582E-02
 0.9676128892930E-01
 0.2672131400383E+00
 0.9386872213343E+00
 0.7310176448803E+00
 0.5176037392576E+00
 0.3229892048828E+00
 0.1677063747562E+00
 0.6638286257003E-01
 0.2719107722540E-01
 0.5328196060293E-01
 0.1459188063634E+00
 0.2901187527829E+00
 0.8028290387203E+00
 0.6079144123023E+00
 0.4153104964524E+00
 0.2541648943781E+00
 0.1369554385265E+00
 0.6993831247741E-01
 0.5515498396070E-01
 0.9220902641580E-01
 0.1751130601941E+00
 0.2935405859274E+00
 0.6804202971672E+00
 0.4878497192028E+00
 0.3362054068403E+00
 0.2200098429176E+00
 0.1398709230127E+00
 0.9740151562845E-01
 0.9250411826654E-01
 0.1225851958893E+00
 0.1822226177924E+00
 0.2685372459284E+00
</DataArray>
<CellData Tensors="'E_Centroid','S_Centroid'">
<DataArray type="Float64" Name="E_Centroid" NumberOfComponents="4" ComponentName0="E11" ComponentName1="E22" ComponentName2="E33" ComponentName3="E12" format="ascii">
-0.4304061966934E-03  0.3256625970857E-02  0.0000000000000E+00  0.9558893205950E-03
-0.7135644581360E-03  0.2626688816548E-02  0.0000000000000E+00  0.1847335426861E-03
-0.5217519498505E-03  0.2136953070128E-02  0.0000000000000E+00  0.2508564830597E-03
-0.4178729323833E-03  0.1667408600736E-02  0.0000000000000E+00  0.2504087146546E-03
-0.2909771753765E-03  0.1169003704939E-02  0.0000000000000E+00  0.2670553689900E-03
-0.1583625183301E-03  0.6346038423569E-03  0.0000000000000E+00  0.2874239580105E-03
-0.1302611572707E-04  0.5191737564997E-04  0.0000000000000E+00  0.3145946270264E-03
 0.1478484292125E-03 -0.5941624680249E-03  0.0000000000000E+00  0.3512519446474E-03
 0.3304613029041E-03 -0.1328300251125E-02  0.0000000000000E+00  0.4039603473881E-03
 0.5416282486514E-03 -0.2197748949693E-02  0.0000000000000E+00  0.5034106905037E-03
 0.7838840293806E-03 -0.3261966457802E-02  0.0000000000000E+00  0.7479590063445E-03
 0.1044521150966E-02 -0.4494437101036E-02  0.0000000000000E+00  0.1260343395238E-02
 0.1292126161065E-02 -0.5782819660236E-02  0.0000000000000E+00  0.2079602264176E-02
 0.1494135806276E-02 -0.7051222410007E-02  0.0000000000000E+00  0.3177639868541E-02
 0.1624455716878E-02 -0.8257493911965E-02  0.0000000000000E+00  0.4537443889059E-02
 0.1654777678743E-02 -0.9343182861912E-02  0.0000000000000E+00  0.6129192483133E-02
 0.1588294992477E-02 -0.1028915667962E-01  0.0000000000000E+00  0.7930577732021E-02
 0.1296510144069E-02 -0.1112774929066E-01  0.0000000000000E+00  0.1002777645314E-01
 0.1117022644930E-02 -0.1204713528669E-01  0.0000000000000E+00  0.1291690478984E-01
-0.2335378526237E-02 -0.1206783140528E-01  0.0000000000000E+00  0.1797131409220E-01
 0.9473485641608E-02 -0.1306117880044E-01  0.0000000000000E+00  0.2025672170922E-01
-0.2402038417365E-03  0.2275357367180E-02  0.0000000000000E+00  0.1078584587444E-02
-0.4806569866597E-03  0.2053902894096E-02  0.0000000000000E+00  0.8173768380424E-03
-0.4068979263590E-03  0.1598012011504E-02  0.0000000000000E+00  0.6780767122368E-03
-0.2906907552600E-03  0.1159426552936E-02  0.0000000000000E+00  0.7233812630933E-03
-0.1784495633641E-03  0.6927699503481E-03  0.0000000000000E+00  0.7679071255898E-03
-0.5369688663359E-04  0.1876093458685E-03  0.0000000000000E+00  0.8319050192562E-03
 0.8172682115292E-04 -0.3657067424106E-03  0.0000000000000E+00  0.9141004991017E-03
 0.2313529435694E-03 -0.9808598127805E-03  0.0000000000000E+00  0.1024274749734E-02
 0.3972965602456E-03 -0.1678574249865E-02  0.0000000000000E+00  0.1183491249969E-02
 0.5734534846528E-03 -0.2484967294003E-02  0.0000000000000E+00  0.1441082662873E-02
 0.7433718060802E-03 -0.3408599445579E-02  0.0000000000000E+00  0.1861013730534E-02
 0.8942410754232E-03 -0.4413918707081E-02  0.0000000000000E+00  0.2474482363290E-02
 0.1016920038758E-02 -0.5437690642443E-02  0.0000000000000E+00  0.3279263638588E-02
 0.1093362909651E-02 -0.6419810018213E-02  0.0000000000000E+00  0.4261225499498E-02
 0.1100991824021E-02 -0.7305255404727E-02  0.0000000000000E+00  0.5384597883226E-02
 0.1027539236988E-02 -0.8040919633497E-02  0.0000000000000E+00  0.6600762304627E-02
 0.8258970758001E-03 -0.8564840914569E-02  0.0000000000000E+00  0.7883846083535E-02
 0.5009077880898E-03 -0.8798770863051E-02  0.0000000000000E+00  0.9171232717573E-02
-0.4590247082517E-03 -0.8393139828526E-02  0.0000000000000E+00  0.1055268005476E-01
-0.8835367366044E-03 -0.6745592520361E-02  0.0000000000000E+00  0.8125307036389E-02
 0.1142755764803E-01 -0.8303605977062E-02  0.0000000000000E+00  0.4689287695202E-02
-0.1203551398554E-03  0.1525350746332E-02  0.0000000000000E+00  0.1108119167379E-02
-0.2828612259001E-03  0.1405183465128E-02  0.0000000000000E+00  0.1187929789724E-02
-0.2711655722049E-03  0.1067010639978E-02  0.0000000000000E+00  0.1108065844603E-02
-0.1772433654927E-03  0.6635358440268E-03  0.0000000000000E+00  0.1152701408295E-02
-0.7414599932500E-04  0.2322693156790E-03  0.0000000000000E+00  0.1238018368108E-02
 0.3825735803485E-04 -0.2394225747996E-03  0.0000000000000E+00  0.1344577828253E-02
 0.1607153855594E-03 -0.7578118418753E-03  0.0000000000000E+00  0.1481410570663E-02
 0.2932484409662E-03 -0.1333277332296E-02  0.0000000000000E+00  0.1662184079860E-02
 0.4327275702072E-03 -0.1978585472095E-02  0.0000000000000E+00  0.1915986771779E-02
 0.5648763607987E-03 -0.2700737735080E-02  0.0000000000000E+00  0.2287077553929E-02
 0.6686073813352E-03 -0.3486168970623E-02  0.0000000000000E+00  0.2806651139559E-02
 0.7341529264386E-03 -0.4299630814201E-02  0.0000000000000E+00  0.3462193229181E-02
 0.7622526602606E-03 -0.5098205443165E-02  0.0000000000000E+00  0.4224215766927E-02
 0.7463154913221E-03 -0.5834425452578E-02  0.0000000000000E+00  0.5065459477807E-02
 0.6754567118204E-03 -0.6455701991835E-02  0.0000000000000E+00  0.5934172492339E-02
 0.5373873550516E-03 -0.6905344807914E-02  0.0000000000000E+00  0.6760923369830E-02
 0.3193693757233E-03 -0.7104823088487E-02  0.0000000000000E+00  0.7441759604827E-02
-0.3292025506660E-04 -0.6915235180222E-02  0.0000000000000E+00  0.7810466553092E-02
-0.4524846710317E-03 -0.6034367148753E-02  0.0000000000000E+00  0.6877145284832E-02
 0.1575886585522E-02 -0.5231219331037E-02  0.0000000000000E+00  0.2388592122536E-02
 0.1154982935149E-01 -0.7112524890722E-02  0.0000000000000E+00  0.1070069687301E-02
-0.4371595323338E-04  0.8883278443704E-03  0.0000000000000E+00  0.1143999398734E-02
-0.1303536865108E-03  0.7909088217887E-03  0.0000000000000E+00  0.1430853262668E-02
-0.1390908601475E-03  0.5341891402054E-03  0.0000000000000E+00  0.1472593979668E-02
-0.7057815293141E-04  0.1823528894920E-03  0.0000000000000E+00  0.1549558298530E-02
 0.1942577990576E-04 -0.2122519621468E-03  0.0000000000000E+00  0.1671528189160E-02
 0.1182876253639E-03 -0.6467410841886E-03  0.0000000000000E+00  0.1822358512704E-02
 0.2244718090875E-03 -0.1125255707201E-02  0.0000000000000E+00  0.2010686513776E-02
 0.3352715127475E-03 -0.1653260594542E-02  0.0000000000000E+00  0.2255000820498E-02
 0.4428039130731E-03 -0.2234971135825E-02  0.0000000000000E+00  0.2584390693767E-02
 0.5294600264414E-03 -0.2864656976784E-02  0.0000000000000E+00  0.3030526009754E-02
 0.5752682057402E-03 -0.3519597671623E-02  0.0000000000000E+00  0.3599787533889E-02
 0.5744765720376E-03 -0.4167130763446E-02  0.0000000000000E+00  0.4255760988658E-02
 0.5339279780111E-03 -0.4775081510390E-02  0.0000000000000E+00  0.4949586052420E-02
 0.4573067276196E-03 -0.5306396762120E-02  0.0000000000000E+00  0.5635660339554E-02
 0.3443274325648E-03 -0.5715387662104E-02  0.0000000000000E+00  0.6245767793726E-02
 0.1981346935565E-03 -0.5948618932184E-02  0.0000000000000E+00  0.6677598658671E-02
 0.2720645484103E-04 -0.5933743097077E-02  0.0000000000000E+00  0.6775714342190E-02
-0.1186123047402E-03 -0.5558231104753E-02  0.0000000000000E+00  0.6173116716762E-02
 0.3073633227594E-03 -0.4877126095688E-02  0.0000000000000E+00  0.3903925198249E-02
 0.3418797534386E-02 -0.4930438559721E-02  0.0000000000000E+00 -0.1924939655358E-03
 0.1109382185961E-01 -0.6615016171161E-02  0.0000000000000E+00  0.7407138728020E-04
 0.6978496386475E-05  0.3213322561451E-03  0.0000000000000E+00  0.1197567116235E-02
-0.1549660746854E-04  0.2230194767726E-03  0.0000000000000E+00  0.1611386393532E-02
-0.2225869604751E-04  0.1633288566978E-04  0.0000000000000E+00  0.1773507555755E-02
 0.2768711834270E-04 -0.2853657123584E-03  0.0000000000000E+00  0.1906423556749E-02
 0.1027516432119E-03 -0.6401323987844E-03  0.0000000000000E+00  0.2068230477457E-02
 0.1866866165147E-03 -0.1035105157257E-02  0.0000000000000E+00  0.2261590870576E-02
 0.2743449100341E-03 -0.1469613529335E-02  0.0000000000000E+00  0.2497028600770E-02
 0.3603664508040E-03 -0.1944304743285E-02  0.0000000000000E+00  0.2794632177134E-02
 0.4339742669255E-03 -0.2456158671186E-02  0.0000000000000E+00  0.3179533560712E-02
 0.4773790671416E-03 -0.2992017167386E-02  0.0000000000000E+00  0.3669858929394E-02
 0.4741798874879E-03 -0.3526227713989E-02  0.0000000000000E+00  0.4254055839211E-02
 0.4231119597089E-03 -0.4029669193462E-02  0.0000000000000E+00  0.4881384956028E-02
 0.3363544849898E-03 -0.4477653898629E-02  0.0000000000000E+00  0.5489065180822E-02
 0.2265892508907E-03 -0.4842411765929E-02  0.0000000000000E+00  0.6014844754991E-02
 0.1063128611262E-03 -0.5087943489002E-02  0.0000000000000E+00  0.6372738090850E-02
-0.3082013704192E-05 -0.5172984543578E-02  0.0000000000000E+00  0.6436649119851E-02
-0.5438183073403E-04 -0.5049208306249E-02  0.0000000000000E+00  0.6005025998479E-02
 0.1326877298886E-03 -0.4702209995319E-02  0.0000000000000E+00  0.4678921965001E-02
 0.1234594909276E-02 -0.4403509861542E-02  0.0000000000000E+00  0.1970272496615E-02
 0.4627938514302E-02 -0.4953331362898E-02  0.0000000000000E+00 -0.1180113863802E-02
 0.1057190410881E-01 -0.6372805200247E-02  0.0000000000000E+00 -0.1775201669754E-03
 0.4135889370277E-04 -0.1965028518430E-03  0.0000000000000E+00  0.1266574605069E-02
 0.7036187056388E-04 -0.3023475197226E-03  0.0000000000000E+00  0.1759767951579E-02
 0.7607863938997E-04 -0.4785767274119E-03  0.0000000000000E+00  0.2024150760561E-02
 0.1152471803431E-03 -0.7374647003746E-03  0.0000000000000E+00  0.2221496267308E-02
 0.1761171330189E-03 -0.1051787265684E-02  0.0000000000000E+00  0.2426698480041E-02
 0.2442941605056E-03 -0.1405499692310E-02  0.0000000000000E+00  0.2660009307210E-02
 0.3121012178968E-03 -0.1793150599114E-02  0.0000000000000E+00  0.2936445426651E-02
 0.3720062166362E-03 -0.2210852019836E-02  0.0000000000000E+00  0.3275833667674E-02
 0.4120898336835E-03 -0.2650383444375E-02  0.0000000000000E+00  0.3697614345685E-02
 0.4163568767226E-03 -0.3094852381684E-02  0.0000000000000E+00  0.4207991087641E-02
 0.3730347293976E-03 -0.3518935216139E-02  0.0000000000000E+00  0.4782640101861E-02
 0.2857095167997E-03 -0.3897704553540E-02  0.0000000000000E+00  0.5361952940262E-02
 0.1718335461252E-03 -0.4212958930643E-02  0.0000000000000E+00  0.5873616659534E-02
 0.5280109487302E-04 -0.4445899069368E-02  0.0000000000000E+00  0.6241889573931E-02
-0.4553488561801E-04 -0.4572678433697E-02  0.0000000000000E+00  0.6367161350429E-02
-0.8121998411337E-04 -0.4569856040989E-02  0.0000000000000E+00  0.6109096424209E-02
 0.3701662914510E-04 -0.4427814527328E-02  0.0000000000000E+00  0.5257819170758E-02
 0.5627439201157E-03 -0.4220866840062E-02  0.0000000000000E+00  0.3521586950160E-02
 0.2095741810903E-02 -0.4267444179127E-02  0.0000000000000E+00  0.8655419136982E-03
 0.5400204031282E-02 -0.5052126117009E-02  0.0000000000000E+00 -0.1413075310048E-02
 0.1010992801221E-01 -0.6251462192527E-02  0.0000000000000E+00 -0.1761454442267E-03
 0.6497415916546E-04 -0.6772183609935E-03  0.0000000000000E+00  0.1346946517435E-02
 0.1342262640436E-03 -0.7913269791263E-03  0.0000000000000E+00  0.1890328090831E-02
 0.1564323465539E-03 -0.9485021675188E-03  0.0000000000000E+00  0.2236561263732E-02
 0.1910166835607E-03 -0.1172241273298E-02  0.0000000000000E+00  0.2496984345999E-02
 0.2397782601480E-03 -0.1447653675410E-02  0.0000000000000E+00  0.2746230547178E-02
 0.2922586537506E-03 -0.1759373584033E-02  0.0000000000000E+00  0.3016088241625E-02
 0.3398163422256E-03 -0.2098570454157E-02  0.0000000000000E+00  0.3326355248938E-02
 0.3736753061819E-03 -0.2457640404748E-02  0.0000000000000E+00  0.3695913843956E-02
 0.3821607010739E-03 -0.2825062261429E-02  0.0000000000000E+00  0.4138330319785E-02
 0.3522564278169E-03 -0.3182724837953E-02  0.0000000000000E+00  0.4650204116427E-02
 0.2772742431160E-03 -0.3507475110274E-02  0.0000000000000E+00  0.5198361185841E-02
 0.1658714564818E-03 -0.3779088955993E-02  0.0000000000000E+00  0.5718001599561E-02
 0.4092875572123E-04 -0.3985651697982E-02  0.0000000000000E+00  0.6130866074423E-02
-0.6766493602847E-04 -0.4117478388077E-02  0.0000000000000E+00  0.6351968113965E-02
-0.1210435785245E-03 -0.4164201836678E-02  0.0000000000000E+00  0.6274065679248E-02
-0.5706451938517E-04 -0.4123369709414E-02  0.0000000000000E+00  0.5755979099744E-02
 0.2476978758572E-03 -0.4023884218145E-02  0.0000000000000E+00  0.4619840986818E-02
 0.1058778601821E-02 -0.3988395665193E-02  0.0000000000000E+00  0.2724901719983E-02
 0.2826452052344E-02 -0.4290877923835E-02  0.0000000000000E+00  0.3284008402874E-03
 0.5897853926627E-02 -0.5164216899020E-02  0.0000000000000E+00 -0.1295216676636E-02
 0.9729466568171E-02 -0.6196427097737E-02  0.0000000000000E+00 -0.6585431783697E-04
 0.8119904321178E-04 -0.1128620286763E-02  0.0000000000000E+00  0.1434986185273E-02
 0.1814174529398E-03 -0.1249684602179E-02  0.0000000000000E+00  0.2009971060855E-02
 0.2207977850828E-03 -0.1394292063030E-02  0.0000000000000E+00  0.2419600638718E-02
 0.2551201594349E-03 -0.1589286070714E-02  0.0000000000000E+00  0.2736530643774E-02
 0.2942777864922E-03 -0.1828401591739E-02  0.0000000000000E+00  0.3027243664721E-02
 0.3319182322529E-03 -0.2098475080889E-02  0.0000000000000E+00  0.3329116428357E-02
 0.3596915511692E-03 -0.2388828698930E-02  0.0000000000000E+00  0.3665536915674E-02
 0.3686243794073E-03 -0.2689294838655E-02  0.0000000000000E+00  0.4054239223797E-02
 0.3483400857066E-03 -0.2986644822218E-02  0.0000000000000E+00  0.4503617421582E-02
 0.2894838258874E-03 -0.3263249606921E-02  0.0000000000000E+00  0.5003026244725E-02
 0.1906042219847E-03 -0.3499222830031E-02  0.0000000000000E+00  0.5513537368075E-02
 0.6551817231429E-04 -0.3679407598970E-02  0.0000000000000E+00  0.5967935621354E-02
-0.5738225919663E-04 -0.3798228694695E-02  0.0000000000000E+00  0.6285159729525E-02
-0.1401538089287E-03 -0.3855185509768E-02  0.0000000000000E+00  0.6375488992434E-02
-0.1321488956169E-03 -0.3853652963646E-02  0.0000000000000E+00  0.6130757672069E-02
 0.4478378807701E-04 -0.3811611506986E-02  0.0000000000000E+00  0.5422726478071E-02
 0.5281479457212E-03 -0.3786028222540E-02  0.0000000000000E+00  0.4127967721860E-02
 0.1555912891448E-02 -0.3911304066062E-02  0.0000000000000E+00  0.2241192762954E-02
 0.3427401765447E-02 -0.4388556546419E-02  0.0000000000000E+00  0.1609228568000E-03
 0.6229520169715E-02 -0.5279779398879E-02  0.0000000000000E+00 -0.1016738995382E-02
 0.9420233678996E-02 -0.6183350494338E-02  0.0000000000000E+00  0.1010259778220E-03
 0.9220448257476E-04 -0.1556226130212E-02  0.0000000000000E+00  0.1527727171072E-02
 0.2159572791657E-03 -0.1682385061938E-02  0.0000000000000E+00  0.2122028641641E-02
 0.2716322058847E-03 -0.1818071754034E-02  0.0000000000000E+00  0.2579428157622E-02
 0.3085153153063E-03 -0.1989294532222E-02  0.0000000000000E+00  0.2943919137140E-02
 0.3405299007824E-03 -0.2195099695257E-02  0.0000000000000E+00  0.3271007770960E-02
 0.3647526961568E-03 -0.2424759539523E-02  0.0000000000000E+00  0.3599236520363E-02
 0.3739135930040E-03 -0.2666950944288E-02  0.0000000000000E+00  0.3953957602050E-02
 0.3597628289657E-03 -0.2910124333421E-02  0.0000000000000E+00  0.4351717404739E-02
 0.3139940385056E-03 -0.3140629473306E-02  0.0000000000000E+00  0.4796816439052E-02
 0.2312768854171E-03 -0.3342465848248E-02  0.0000000000000E+00  0.5273553812892E-02
 0.1153714438511E-03 -0.3499664885310E-02  0.0000000000000E+00  0.5739771082188E-02
-0.1478971696020E-04 -0.3602351474202E-02  0.0000000000000E+00  0.6128098576999E-02
-0.1254049116400E-03 -0.3651314377073E-02  0.0000000000000E+00  0.6357469435448E-02
-0.1712246123707E-03 -0.3655015125333E-02  0.0000000000000E+00  0.6337711929384E-02
-0.9199527080356E-04 -0.3629708850188E-02  0.0000000000000E+00  0.5966103224490E-02
 0.2000439141592E-03 -0.3610126646975E-02  0.0000000000000E+00  0.5137018714480E-02
 0.8405830554770E-03 -0.3668253265944E-02  0.0000000000000E+00  0.3785755777785E-02
 0.2021394413339E-02 -0.3927426703821E-02  0.0000000000000E+00  0.2004128345342E-02
 0.3918436044723E-02 -0.4517900161870E-02  0.0000000000000E+00  0.2337772683175E-03
 0.6465659722631E-02 -0.5404453094856E-02  0.0000000000000E+00 -0.6615300918570E-03
 0.9164111398353E-02 -0.6201778551224E-02  0.0000000000000E+00  0.2892913676197E-03
 0.9946466951479E-04 -0.1964204108521E-02  0.0000000000000E+00  0.1622896664968E-02
 0.2409313731278E-03 -0.2093650308861E-02  0.0000000000000E+00  0.2228094597274E-02
 0.3114192357463E-03 -0.2222464896804E-02  0.0000000000000E+00  0.2720279687378E-02
 0.3526497793438E-03 -0.2373712863799E-02  0.0000000000000E+00  0.3122595843420E-02
 0.3797677628255E-03 -0.2549211750386E-02  0.0000000000000E+00  0.3479317417844E-02
 0.3923412988498E-03 -0.2740329183681E-02  0.0000000000000E+00  0.3827350804309E-02
 0.3845723360015E-03 -0.2935904922158E-02  0.0000000000000E+00  0.4192559906103E-02
 0.3496262291835E-03 -0.3124032001651E-02  0.0000000000000E+00  0.4590353227642E-02
 0.2817972718543E-03 -0.3291640257509E-02  0.0000000000000E+00  0.5022102318702E-02
 0.1799326184107E-03 -0.3425118965818E-02  0.0000000000000E+00  0.5469000824323E-02
 0.5285823062012E-04 -0.3512772051896E-02  0.0000000000000E+00  0.5887762440911E-02
-0.7554889655245E-04 -0.3550066462561E-02  0.0000000000000E+00  0.6212764842985E-02
-0.1663805980530E-03 -0.3544032106438E-02  0.0000000000000E+00  0.6365368873139E-02
-0.1681346336744E-03 -0.3511504552242E-02  0.0000000000000E+00  0.6258686843387E-02
-0.1376565981151E-04 -0.3479794353659E-02  0.0000000000000E+00  0.5800348827623E-02
 0.3875936940517E-03 -0.3495252774089E-02  0.0000000000000E+00  0.4911514832949E-02
 0.1158810064791E-02 -0.3633807493965E-02  0.0000000000000E+00  0.3578713139730E-02
 0.2441950975507E-02 -0.3997033195884E-02  0.0000000000000E+00  0.1952362942614E-02
 0.4318166665461E-02 -0.4656899383946E-02  0.0000000000000E+00  0.4588411883705E-03
 0.6655205365334E-02 -0.5534055103648E-02  0.0000000000000E+00 -0.2408964435027E-03
 0.8936180434144E-02 -0.6264921441774E-02  0.0000000000000E+00  0.4473364341876E-03
 0.1039774148879E-03 -0.2355817960900E-02  0.0000000000000E+00  0.1718917382594E-02
 0.2587377060775E-03 -0.2486814019956E-02  0.0000000000000E+00  0.2328888948963E-02
 0.3424478686496E-03 -0.2609781309121E-02  0.0000000000000E+00  0.2845045458608E-02
 0.3891621676896E-03 -0.2743840651911E-02  0.0000000000000E+00  0.3275383709121E-02
 0.4133824743598E-03 -0.2891793490717E-02  0.0000000000000E+00  0.3653962762874E-02
 0.4162673994850E-03 -0.3046589696960E-02  0.0000000000000E+00  0.4014565895033E-02
 0.3936085960463E-03 -0.3197727105639E-02  0.0000000000000E+00  0.4382554503510E-02
 0.3404371892595E-03 -0.3333745978779E-02  0.0000000000000E+00  0.4772359014328E-02
 0.2539625300392E-03 -0.3442902220163E-02  0.0000000000000E+00  0.5183559986640E-02
 0.1371928310589E-03 -0.3514448498395E-02  0.0000000000000E+00  0.5595965377908E-02
 0.3753118259037E-05 -0.3541081291960E-02  0.0000000000000E+00  0.5966939438734E-02
-0.1178575871074E-03 -0.3523489612714E-02  0.0000000000000E+00  0.6234194367517E-02
-0.1841465038535E-03 -0.3474592664939E-02  0.0000000000000E+00  0.6323519383165E-02
-0.1386805223213E-03 -0.3418612977481E-02  0.0000000000000E+00  0.6154189403946E-02
 0.8942178882221E-04 -0.3391468413291E-02  0.0000000000000E+00  0.5646981576277E-02
 0.5887536822695E-03 -0.3445987044870E-02  0.0000000000000E+00  0.4749074637618E-02
 0.1463777655633E-02 -0.3654483190047E-02  0.0000000000000E+00  0.3485401780047E-02
 0.2810312264588E-02 -0.4093919838592E-02  0.0000000000000E+00  0.2033611563304E-02
 0.4644966527804E-02 -0.4793457861924E-02  0.0000000000000E+00  0.7761693931909E-03
 0.6796800611769E-02 -0.5651529981742E-02  0.0000000000000E+00  0.2218211600253E-03
 0.8843962540773E-02 -0.6385354111066E-02  0.0000000000000E+00  0.6573304961192E-03
 0.1066649053728E-03 -0.2733846735884E-02  0.0000000000000E+00  0.1814272864681E-02
 0.2713511096241E-03 -0.2865022711717E-02  0.0000000000000E+00  0.2424659386713E-02
 0.3668917404339E-03 -0.2982761905898E-02  0.0000000000000E+00  0.2955761239491E-02
 0.4198661234351E-03 -0.3101836490777E-02  0.0000000000000E+00  0.3404822625563E-02
 0.4429669763724E-03 -0.3224832940969E-02  0.0000000000000E+00  0.3797185911396E-02
 0.4381650100272E-03 -0.3345769472700E-02  0.0000000000000E+00  0.4162962659544E-02
 0.4027859708135E-03 -0.3455066829410E-02  0.0000000000000E+00  0.4526455400780E-02
 0.3339672659431E-03 -0.3542285113606E-02  0.0000000000000E+00  0.4901369425083E-02
 0.2319762719737E-03 -0.3597521323817E-02  0.0000000000000E+00  0.5286515152217E-02
 0.1038594932161E-03 -0.3613148647368E-02  0.0000000000000E+00  0.5661759538198E-02
-0.3228600813354E-04 -0.3586208225140E-02  0.0000000000000E+00  0.5986567932428E-02
-0.1437366804013E-03 -0.3522358635550E-02  0.0000000000000E+00  0.6203254901975E-02
-0.1830405882003E-03 -0.3439904624818E-02  0.0000000000000E+00  0.6243564597421E-02
-0.9018706155031E-04 -0.3369269113476E-02  0.0000000000000E+00  0.6034834394028E-02
 0.2069342021856E-03 -0.3352466744133E-02  0.0000000000000E+00  0.5511805055474E-02
 0.7910190553587E-03 -0.3444609296759E-02  0.0000000000000E+00  0.4643926933043E-02
 0.1746145562806E-02 -0.3710095718121E-02  0.0000000000000E+00  0.3481209437252E-02
 0.3129458070645E-02 -0.4202706327928E-02  0.0000000000000E+00  0.2206155038445E-02
 0.4912046258614E-02 -0.4921016741810E-02  0.0000000000000E+00  0.1148894567629E-02
 0.6913637902692E-02 -0.5755140605145E-02  0.0000000000000E+00  0.6886844028554E-03
 0.8783906288182E-02 -0.6482975780628E-02  0.0000000000000E+00  0.1023599933325E-02
 0.1080714685830E-03 -0.3100719780885E-02  0.0000000000000E+00  0.1908324495100E-02
 0.2803637011473E-03 -0.3231317233255E-02  0.0000000000000E+00  0.2515851039110E-02
 0.3866999819094E-03 -0.3344476515632E-02  0.0000000000000E+00  0.3054359510710E-02
 0.4465934492400E-03 -0.3450559381154E-02  0.0000000000000E+00  0.3513568036638E-02
 0.4702044975174E-03 -0.3551147320086E-02  0.0000000000000E+00  0.3911743654243E-02
 0.4596862476543E-03 -0.3640874905160E-02  0.0000000000000E+00  0.4275396346194E-02
 0.4137420355210E-03 -0.3711189827979E-02  0.0000000000000E+00  0.4627596086938E-02
 0.3316952110584E-03 -0.3753036782202E-02  0.0000000000000E+00  0.4981646038399E-02
 0.2168866939778E-03 -0.3758670840539E-02  0.0000000000000E+00  0.5336465078385E-02
 0.8021513172575E-04 -0.3723680475092E-02  0.0000000000000E+00  0.5673163265272E-02
-0.5609613337013E-04 -0.3649294493560E-02  0.0000000000000E+00  0.5954472904620E-02
-0.1555151841994E-03 -0.3545814095055E-02  0.0000000000000E+00  0.6128293743811E-02
-0.1672607985267E-03 -0.3436354974226E-02  0.0000000000000E+00  0.6133414101382E-02
-0.2895728822397E-04 -0.3356344279708E-02  0.0000000000000E+00  0.5906282020414E-02
 0.3307617629274E-03 -0.3351711480423E-02  0.0000000000000E+00  0.5395016391150E-02
 0.9866117455835E-03 -0.3476907982575E-02  0.0000000000000E+00  0.4586381718369E-02
 0.2002878612538E-02 -0.3786578057404E-02  0.0000000000000E+00  0.3543790527040E-02
 0.3405023065037E-02 -0.4314329331454E-02  0.0000000000000E+00  0.2440476847731E-02
 0.5134874130096E-02 -0.5037363287689E-02  0.0000000000000E+00  0.1551160779055E-02
 0.7010524511531E-02 -0.5844890491621E-02  0.0000000000000E+00  0.1159507499821E-02
 0.8746548885384E-02 -0.6550237612341E-02  0.0000000000000E+00  0.1374346737513E-02
 0.1086936432749E-03 -0.3458518789284E-02  0.0000000000000E+00  0.2000598429810E-02
 0.2871104532312E-03 -0.3588144734296E-02  0.0000000000000E+00  0.2602740948895E-02
 0.4035952150398E-03 -0.3697360838439E-02  0.0000000000000E+00  0.3142211227303E-02
 0.4710518618464E-03 -0.3792215279446E-02  0.0000000000000E+00  0.3603647084390E-02
 0.4966863045491E-03 -0.3872794087204E-02  0.0000000000000E+00  0.3999858175242E-02
 0.4823498381500E-03 -0.3933990776024E-02  0.0000000000000E+00  0.4354231097624E-02
 0.4279235863388E-03 -0.3968293994904E-02  0.0000000000000E+00  0.4688738672008E-02
 0.3348825811710E-03 -0.3968242682781E-02  0.0000000000000E+00  0.5016674322192E-02
 0.2095547278147E-03 -0.3928411502236E-02  0.0000000000000E+00  0.5337829328367E-02
 0.6644311189608E-04 -0.3847568750814E-02  0.0000000000000E+00  0.5635529787254E-02
-0.6848171747864E-04 -0.3730875971966E-02  0.0000000000000E+00  0.5876702274303E-02
-0.1553241509807E-03 -0.3592871394723E-02  0.0000000000000E+00  0.6015553930156E-02
-0.1405969124443E-03 -0.3460843509213E-02  0.0000000000000E+00  0.5998595938962E-02
 0.3942147078864E-04 -0.3374072733264E-02  0.0000000000000E+00  0.5771699380952E-02
 0.4540095722759E-03 -0.3380631708670E-02  0.0000000000000E+00  0.5294818619370E-02
 0.1169152460868E-02 -0.3532472151728E-02  0.0000000000000E+00  0.4566704661906E-02
 0.2231196866627E-02 -0.3874246565655E-02  0.0000000000000E+00  0.3654749743803E-02
 0.3641037395762E-02 -0.4422951028557E-02  0.0000000000000E+00  0.2713766084450E-02
 0.5321221056556E-02 -0.5141368771863E-02  0.0000000000000E+00  0.1966361101788E-02
 0.7097085914255E-02 -0.5921423153801E-02  0.0000000000000E+00  0.1618387605534E-02
 0.8730908336411E-02 -0.6608073899026E-02  0.0000000000000E+00  0.1729955581884E-02
 0.1089439046827E-03 -0.3809103487281E-02  0.0000000000000E+00  0.2090905478038E-02
 0.2927336892778E-03 -0.3937713694291E-02  0.0000000000000E+00  0.2685673875798E-02
 0.4191289887185E-03 -0.4043694804176E-02  0.0000000000000E+00  0.3220527735539E-02
 0.4948620863913E-03 -0.4128953265466E-02  0.0000000000000E+00  0.3676910987354E-02
 0.5239543027306E-03 -0.4191791914207E-02  0.0000000000000E+00  0.4063707412688E-02
 0.5075944338449E-03 -0.4227099196970E-02  0.0000000000000E+00  0.4401905983420E-02
 0.4466329304861E-03 -0.4228370975633E-02  0.0000000000000E+00  0.4712737728549E-02
 0.3445872716494E-03 -0.4189834128782E-02  0.0000000000000E+00  0.5009920879261E-02
 0.2106110851368E-03 -0.4108419862477E-02  0.0000000000000E+00  0.5294770549143E-02
 0.6251834535324E-04 -0.3985936089763E-02  0.0000000000000E+00  0.5553607382580E-02
-0.7037278842070E-04 -0.3831145585210E-02  0.0000000000000E+00  0.5758260352948E-02
-0.1452526654926E-03 -0.3662364125984E-02  0.0000000000000E+00  0.5869726167213E-02
-0.1064968443032E-03 -0.3510399545873E-02  0.0000000000000E+00  0.5842563354636E-02
 0.1101893108829E-03 -0.3417364410501E-02  0.0000000000000E+00  0.5631841039572E-02
 0.5712752218346E-03 -0.3432174976096E-02  0.0000000000000E+00  0.5207314645702E-02
 0.1334215445493E-02 -0.3603369780734E-02  0.0000000000000E+00  0.4574750262884E-02
 0.2430064306360E-02 -0.3966358672605E-02  0.0000000000000E+00  0.3798215461944E-02
 0.3841087947151E-02 -0.4525047712637E-02  0.0000000000000E+00  0.3009098302959E-02
 0.5478224805929E-02 -0.5232791512350E-02  0.0000000000000E+00  0.2381818031086E-02
 0.7176772993361E-02 -0.5987044994567E-02  0.0000000000000E+00  0.2063596566802E-02
 0.8732811583336E-02 -0.6656442800484E-02  0.0000000000000E+00  0.2088193829338E-02
 0.1091732671787E-03 -0.4154159948960E-02  0.0000000000000E+00  0.2179304058831E-02
 0.2982271995024E-03 -0.4282034387098E-02  0.0000000000000E+00  0.2765094543524E-02
 0.4347034378759E-03 -0.4385604594440E-02  0.0000000000000E+00  0.3290439002002E-02
 0.5195452444960E-03 -0.4462829897355E-02  0.0000000000000E+00  0.3735079412719E-02
 0.5534770809698E-03 -0.4510078713191E-02  0.0000000000000E+00  0.4105402391303E-02
 0.5367664205358E-03 -0.4522054559788E-02  0.0000000000000E+00  0.4420866355945E-02
 0.4710385306187E-03 -0.4493208768598E-02  0.0000000000000E+00  0.4702456242522E-02
 0.3617008780075E-03 -0.4419468319816E-02  0.0000000000000E+00  0.4964760191883E-02
 0.2205201704382E-03 -0.4300061113168E-02  0.0000000000000E+00  0.5211155289452E-02
 0.6829518164160E-04 -0.4139610981309E-02  0.0000000000000E+00  0.5431555135234E-02
-0.6271783108316E-04 -0.3950091861220E-02  0.0000000000000E+00  0.5603200205661E-02
-0.1272313569730E-03 -0.3753105675480E-02  0.0000000000000E+00  0.5694149025368E-02
-0.6797021097199E-04 -0.3582347702657E-02  0.0000000000000E+00  0.5667057400433E-02
 0.1794239694938E-03 -0.3481915048855E-02  0.0000000000000E+00  0.5485635458173E-02
 0.6784201118926E-03 -0.3500721964327E-02  0.0000000000000E+00  0.5127304179024E-02
 0.1478832005385E-02 -0.3683688435459E-02  0.0000000000000E+00  0.4600552278768E-02
 0.2599305637547E-02 -0.4058296371858E-02  0.0000000000000E+00  0.3960827392438E-02
 0.4008492238800E-02 -0.4618507428098E-02  0.0000000000000E+00  0.3313437070878E-02
 0.5610795465863E-02 -0.5311949060265E-02  0.0000000000000E+00  0.2789767927648E-02
 0.7251019854892E-02 -0.6041945327409E-02  0.0000000000000E+00  0.2493278143418E-02
 0.8749233436722E-02 -0.6694091233614E-02  0.0000000000000E+00  0.2443205807162E-02
 0.1096866906714E-03 -0.4495234731403E-02  0.0000000000000E+00  0.2266069343432E-02
 0.3044690309156E-03 -0.4622951326648E-02  0.0000000000000E+00  0.2841559817319E-02
 0.4515925487873E-03 -0.4725069765143E-02  0.0000000000000E+00  0.3353039098754E-02
 0.5465203028065E-03 -0.4795788621690E-02  0.0000000000000E+00  0.3779767036126E-02
 0.5866365137976E-03 -0.4829482433503E-02  0.0000000000000E+00  0.4126968912422E-02
 0.5711132780905E-03 -0.4820565273123E-02  0.0000000000000E+00  0.4413512363313E-02
 0.5021859457159E-03 -0.4764395862719E-02  0.0000000000000E+00  0.4660706157711E-02
 0.3869813543008E-03 -0.4658560681559E-02  0.0000000000000E+00  0.4884431078090E-02
 0.2396343801463E-03 -0.4504451588044E-02  0.0000000000000E+00  0.5090546579682E-02
 0.8358073684046E-04 -0.4309218951240E-02  0.0000000000000E+00  0.5272989228763E-02
-0.4639684424851E-04 -0.4087613902651E-02  0.0000000000000E+00  0.5414742090843E-02
-0.1029448670500E-03 -0.3864017924274E-02  0.0000000000000E+00  0.5491024837980E-02
-0.2753049337081E-04 -0.3674425074856E-02  0.0000000000000E+00  0.5472452448982E-02
 0.2440019735413E-03 -0.3564251379952E-02  0.0000000000000E+00  0.5330677748703E-02
 0.7723569000026E-03 -0.3581953502596E-02  0.0000000000000E+00  0.5048818429579E-02
 0.1601040575747E-02 -0.3769140553574E-02  0.0000000000000E+00  0.4634643927156E-02
 0.2739193428286E-02 -0.4146951038580E-02  0.0000000000000E+00  0.4131272846200E-02
 0.4145935050012E-02 -0.4702141890593E-02  0.0000000000000E+00  0.3616871600599E-02
 0.5722197897551E-02 -0.5379013893408E-02  0.0000000000000E+00  0.3184764900267E-02
 0.7320579343666E-02 -0.6085849291256E-02  0.0000000000000E+00  0.2904936846441E-02
 0.8777832406974E-02 -0.6719970315445E-02  0.0000000000000E+00  0.2788722314226E-02
 0.1107541399660E-03 -0.4833760970293E-02  0.0000000000000E+00  0.2351668015087E-02
 0.3122469927144E-03 -0.4962170106581E-02  0.0000000000000E+00  0.2915739461390E-02
 0.4709626446097E-03 -0.5063933704696E-02  0.0000000000000E+00  0.3409408831758E-02
 0.5771078974378E-03 -0.5129649160484E-02  0.0000000000000E+00  0.3812495192426E-02
 0.6247215317129E-03 -0.5151701208396E-02  0.0000000000000E+00  0.4130330060271E-02
 0.6117804263717E-03 -0.5124180277573E-02  0.0000000000000E+00  0.4382160443699E-02
 0.5410075762270E-03 -0.5043325164731E-02  0.0000000000000E+00  0.4590209253749E-02
 0.4210800035422E-03 -0.4908311891884E-02  0.0000000000000E+00  0.4772017603573E-02
 0.2682385114541E-03 -0.4722510467804E-02  0.0000000000000E+00  0.4936222233516E-02
 0.1081941560064E-03 -0.4495257249413E-02  0.0000000000000E+00  0.5081053450298E-02
-0.2215326109284E-04 -0.4243613844243E-02  0.0000000000000E+00  0.5195410941759E-02
-0.7376852854457E-04 -0.3994229860083E-02  0.0000000000000E+00  0.5261640492623E-02
 0.1283343420358E-04 -0.3784859480214E-02  0.0000000000000E+00  0.5258073031783E-02
 0.3015425077466E-03 -0.3661735754520E-02  0.0000000000000E+00  0.5163618667640E-02
 0.8508522847734E-03 -0.3672710944925E-02  0.0000000000000E+00  0.4965473843082E-02
 0.1699568991440E-02 -0.3856738538260E-02  0.0000000000000E+00  0.4668121439025E-02
 0.2850130868719E-02 -0.4230311232429E-02  0.0000000000000E+00  0.4299894198294E-02
 0.4255400592530E-02 -0.4775290594309E-02  0.0000000000000E+00  0.3911625126945E-02
 0.5814580286736E-02 -0.5434088638022E-02  0.0000000000000E+00  0.3562546794167E-02
 0.7385890468684E-02 -0.6118542107751E-02  0.0000000000000E+00  0.3295837229821E-02
 0.8816954636857E-02 -0.6733479952889E-02  0.0000000000000E+00  0.3118632253262E-02
 0.1126191686187E-03 -0.5171080160149E-02  0.0000000000000E+00  0.2436737664256E-02
 0.3222798571627E-03 -0.5301281054146E-02  0.0000000000000E+00  0.2988410253876E-02
 0.4938923707623E-03 -0.5403916299292E-02  0.0000000000000E+00  0.3460621939504E-02
 0.6125381668126E-03 -0.5466103350756E-02  0.0000000000000E+00  0.3834690602734E-02
 0.6689263125359E-03 -0.5478289480509E-02  0.0000000000000E+00  0.4117287132250E-02
 0.6598095411811E-03 -0.5434277915086E-02  0.0000000000000E+00  0.4329013965984E-02
 0.5883298897038E-03 -0.5331195839710E-02  0.0000000000000E+00  0.4493574215503E-02
 0.4645620649224E-03 -0.5169728240403E-02  0.0000000000000E+00  0.4630449776608E-02
 0.3065841565218E-03 -0.4955000049414E-02  0.0000000000000E+00  0.4751213735945E-02
 0.1420123380117E-03 -0.4698153194478E-02  0.0000000000000E+00  0.4858508551349E-02
 0.9457149622027E-05 -0.4418067943813E-02  0.0000000000000E+00  0.4947186902252E-02
-0.4072483622888E-04 -0.4143149861544E-02  0.0000000000000E+00  0.5006586806264E-02
 0.5166811811189E-04 -0.3912418645592E-02  0.0000000000000E+00  0.5022476274268E-02
 0.3503477379319E-03 -0.3772550833344E-02  0.0000000000000E+00  0.4980466651026E-02
 0.9123685351220E-03 -0.3770869637125E-02  0.0000000000000E+00  0.4870678364408E-02
 0.1773602595031E-02 -0.3944551774130E-02  0.0000000000000E+00  0.4692590621144E-02
 0.2932456094912E-02 -0.4307167893406E-02  0.0000000000000E+00  0.4458254847288E-02
 0.4338211002694E-02 -0.4837634388242E-02  0.0000000000000E+00  0.4191300167375E-02
 0.5889286235812E-02 -0.5477308555961E-02  0.0000000000000E+00  0.3919545560234E-02
 0.7447233523284E-02 -0.6140020901115E-02  0.0000000000000E+00  0.3663251330863E-02
 0.8865603274306E-02 -0.6734526105377E-02  0.0000000000000E+00  0.3427169631273E-02
 0.1155062703683E-03 -0.5508462211386E-02  0.0000000000000E+00  0.2522070197531E-02
 0.3352365029590E-03 -0.5641781847104E-02  0.0000000000000E+00  0.3060446095305E-02
 0.5213928101486E-03 -0.5746628567921E-02  0.0000000000000E+00  0.3507738705097E-02
 0.6539611089888E-03 -0.5806715183616E-02  0.0000000000000E+00  0.3847672318971E-02
 0.7203507138672E-03 -0.5810647527288E-02  0.0000000000000E+00  0.4089497125288E-02
 0.7161365446512E-03 -0.5752055182742E-02  0.0000000000000E+00  0.4256139786069E-02
 0.6448769842977E-03 -0.5629011759765E-02  0.0000000000000E+00  0.4373286192910E-02
 0.5179203592585E-03 -0.5443634606314E-02  0.0000000000000E+00  0.4462519883297E-02
 0.3549140722874E-03 -0.5202554448729E-02  0.0000000000000E+00  0.4538361154574E-02
 0.1850027669377E-03 -0.4918306673422E-02  0.0000000000000E+00  0.4607835612878E-02
 0.4810224813551E-04 -0.4611077890112E-02  0.0000000000000E+00  0.4671664164700E-02
-0.4455019661037E-05 -0.4310515711779E-02  0.0000000000000E+00  0.4725972666581E-02
 0.8805717682378E-04 -0.4056439564659E-02  0.0000000000000E+00  0.4763702708300E-02
 0.3893522639318E-03 -0.3895678368679E-02  0.0000000000000E+00  0.4776818822836E-02
 0.9559465476318E-03 -0.3875239900836E-02  0.0000000000000E+00  0.4757739273107E-02
 0.1822626839318E-02 -0.4031533506519E-02  0.0000000000000E+00  0.4700035598135E-02
 0.2986332768664E-02 -0.4376927121316E-02  0.0000000000000E+00  0.4598722854690E-02
 0.4395075810434E-02 -0.4889108709492E-02  0.0000000000000E+00  0.4450342979100E-02
 0.5947027116002E-02 -0.5508894053045E-02  0.0000000000000E+00  0.4252632596400E-02
 0.7504793073360E-02 -0.6150533550906E-02  0.0000000000000E+00  0.4004601319716E-02
 0.8923413466379E-02 -0.6723509640129E-02  0.0000000000000E+00  0.3708991767745E-02
 0.1196279003475E-03 -0.5847125795538E-02  0.0000000000000E+00  0.2608599042368E-02
 0.3517548331922E-03 -0.5985100930983E-02  0.0000000000000E+00  0.3132805449917E-02
 0.5544285449437E-03 -0.6093589369600E-02  0.0000000000000E+00  0.3551788789778E-02
 0.7024585148282E-03 -0.6152923319942E-02  0.0000000000000E+00  0.3852626998504E-02
 0.7800011409838E-03 -0.6150012053134E-02  0.0000000000000E+00  0.4048445009228E-02
 0.7815876408520E-03 -0.6078515422443E-02  0.0000000000000E+00  0.4165447987508E-02
 0.7112694695598E-03 -0.5937575290821E-02  0.0000000000000E+00  0.4231705673383E-02
 0.5815815798934E-03 -0.5730679409555E-02  0.0000000000000E+00  0.4270910870236E-02
 0.4134766120520E-03 -0.5465696617970E-02  0.0000000000000E+00  0.4300380093228E-02
 0.2372440869308E-03 -0.5156117233534E-02  0.0000000000000E+00  0.4331349357140E-02
 0.9369606432644E-04 -0.4822903736500E-02  0.0000000000000E+00  0.4370214773456E-02
 0.3479800456666E-04 -0.4496425885745E-02  0.0000000000000E+00  0.4419633574035E-02
 0.1216203441130E-03 -0.4216844937066E-02  0.0000000000000E+00  0.4479502210618E-02
 0.4180888142104E-03 -0.4030882005949E-02  0.0000000000000E+00  0.4548042111584E-02
 0.9811313651115E-03 -0.3985501013089E-02  0.0000000000000E+00  0.4619906968958E-02
 0.1846333045275E-02 -0.4117412474885E-02  0.0000000000000E+00  0.4682644474730E-02
 0.3011692841266E-02 -0.4439503759601E-02  0.0000000000000E+00  0.4714090992530E-02
 0.4426124478211E-02 -0.4929860927587E-02  0.0000000000000E+00  0.4683640719984E-02
 0.5987962348786E-02 -0.5529168362473E-02  0.0000000000000E+00  0.4558954339842E-02
 0.7558672553230E-02 -0.6150574933431E-02  0.0000000000000E+00  0.4317539972055E-02
 0.8990609678818E-02 -0.6701296175475E-02  0.0000000000000E+00  0.3959245572910E-02
 0.1251919590202E-03 -0.6188260778793E-02  0.0000000000000E+00  0.2697390164628E-02
 0.3724621680259E-03 -0.6332623490988E-02  0.0000000000000E+00  0.3206516535237E-02
 0.5939406508688E-03 -0.6446244516847E-02  0.0000000000000E+00  0.3593743348146E-02
 0.7590568454693E-03 -0.6506044677943E-02  0.0000000000000E+00  0.3850571483371E-02
 0.8487902644551E-03 -0.6497445706825E-02  0.0000000000000E+00  0.3995408908766E-02
 0.8568718883993E-03 -0.6414452616898E-02  0.0000000000000E+00  0.4058672519523E-02
 0.7880177515867E-03 -0.6257475299119E-02  0.0000000000000E+00  0.4071074036969E-02
 0.6559049265679E-03 -0.6031331062542E-02  0.0000000000000E+00  0.4058233685526E-02
 0.4825303677142E-03 -0.5744843679884E-02  0.0000000000000E+00  0.4039937186154E-02
 0.2989349903397E-03 -0.5411996195439E-02  0.0000000000000E+00  0.4031317951051E-02
 0.1464092015945E-03 -0.5053979596398E-02  0.0000000000000E+00  0.4044155270402E-02
 0.7719791167035E-04 -0.4701354643146E-02  0.0000000000000E+00  0.4087336385030E-02
 0.1525140792666E-03 -0.4394151328199E-02  0.0000000000000E+00  0.4167544926131E-02
 0.4366742237027E-03 -0.4178699805003E-02  0.0000000000000E+00  0.4289425673111E-02
 0.9879401294551E-03 -0.4102171018062E-02  0.0000000000000E+00  0.4450383245370E-02
 0.1844577644754E-02 -0.4202643791044E-02  0.0000000000000E+00  0.4632615388729E-02
 0.3008211962388E-02 -0.4495275244812E-02  0.0000000000000E+00  0.4797223727409E-02
 0.4430915277251E-02 -0.4960231596354E-02  0.0000000000000E+00  0.4886183688781E-02
 0.6011714534686E-02 -0.5538555192889E-02  0.0000000000000E+00  0.4835795026444E-02
 0.7608869961794E-02 -0.6140865409789E-02  0.0000000000000E+00  0.4599999411436E-02
 0.9067947597033E-02 -0.6669175724310E-02  0.0000000000000E+00  0.4173626529991E-02
 0.1324105234205E-03 -0.6533054620750E-02  0.0000000000000E+00  0.2789637283589E-02
 0.3979989029521E-03 -0.6685721891038E-02  0.0000000000000E+00  0.3282659986379E-02
 0.6408727841460E-03 -0.6805988834705E-02  0.0000000000000E+00  0.3634474923331E-02
 0.8247405493647E-03 -0.6867277844361E-02  0.0000000000000E+00  0.3842300546064E-02
 0.9275340611237E-03 -0.6853823520919E-02  0.0000000000000E+00  0.3931416224265E-02
 0.9425688804890E-03 -0.6760430683619E-02  0.0000000000000E+00  0.3937350951687E-02
 0.8755089444127E-03 -0.6589068576613E-02  0.0000000000000E+00  0.3893523728123E-02
 0.7411729317056E-03 -0.6345865789923E-02  0.0000000000000E+00  0.3827070894017E-02
 0.5623392671000E-03 -0.6040300857580E-02  0.0000000000000E+00  0.3759730886012E-02
 0.3703918937946E-03 -0.5686364326013E-02  0.0000000000000E+00  0.3710086089228E-02
 0.2066678551498E-03 -0.5304912939052E-02  0.0000000000000E+00  0.3694914547914E-02
 0.1233157589873E-03 -0.4926152336847E-02  0.0000000000000E+00  0.3728983086454E-02
 0.1814356529128E-03 -0.4589471289284E-02  0.0000000000000E+00  0.3825628234140E-02
 0.4458175461248E-03 -0.4340449076603E-02  0.0000000000000E+00  0.3996325428408E-02
 0.9768722448688E-03 -0.4226613548715E-02  0.0000000000000E+00  0.4242319126043E-02
 0.1817389794417E-02 -0.4288415325750E-02  0.0000000000000E+00  0.4541956956746E-02
 0.2975309331563E-02 -0.4545085795458E-02  0.0000000000000E+00  0.4840713011707E-02
 0.4408420916533E-02 -0.4980754198175E-02  0.0000000000000E+00  0.5052742815990E-02
 0.6017331488935E-02 -0.5537565795851E-02  0.0000000000000E+00  0.5080433648876E-02
 0.7655216637855E-02 -0.6122319009341E-02  0.0000000000000E+00  0.4850216969241E-02
 0.9156644708451E-02 -0.6628816543677E-02  0.0000000000000E+00  0.4348424231223E-02
 0.1415107645989E-03 -0.6882724954735E-02  0.0000000000000E+00  0.2886661986205E-02
 0.4290475628275E-03 -0.7045792788379E-02  0.0000000000000E+00  0.3362347929200E-02
 0.6962017258787E-03 -0.7174191703653E-02  0.0000000000000E+00  0.3674701832837E-02
 0.9004652266049E-03 -0.7237704770612E-02  0.0000000000000E+00  0.3828316412732E-02
 0.1016944491930E-02 -0.7219814001841E-02  0.0000000000000E+00  0.3857188682585E-02
 0.1039110076739E-02 -0.7116756105718E-02  0.0000000000000E+00  0.3802802203263E-02
 0.9739867294335E-03 -0.6932453977693E-02  0.0000000000000E+00  0.3701091647551E-02
 0.8375744538848E-03 -0.6674346780731E-02  0.0000000000000E+00  0.3580024377448E-02
 0.6531584297857E-03 -0.6352244298379E-02  0.0000000000000E+00  0.3462574667144E-02
 0.4520357281105E-03 -0.5979635456672E-02  0.0000000000000E+00  0.3370198449376E-02
 0.2751415675116E-03 -0.5576467743702E-02  0.0000000000000E+00  0.3324201584624E-02
 0.1741231234595E-03 -0.5172030895821E-02  0.0000000000000E+00  0.3344816847801E-02
 0.2096303893892E-03 -0.4804509077864E-02  0.0000000000000E+00  0.3451891280916E-02
 0.4468502098595E-03 -0.4518243158585E-02  0.0000000000000E+00  0.3664321767693E-02
 0.9489620848075E-03 -0.4361081609900E-02  0.0000000000000E+00  0.3988826301641E-02
 0.1765027581370E-02 -0.4376709263755E-02  0.0000000000000E+00  0.4402293449690E-02
 0.2912172272755E-02 -0.4590300064940E-02  0.0000000000000E+00  0.4836523208865E-02
 0.4356993549293E-02 -0.4992175214854E-02  0.0000000000000E+00  0.5177521611205E-02
 0.6003198788468E-02 -0.5526781196390E-02  0.0000000000000E+00  0.5289968725264E-02
 0.7697277276526E-02 -0.6096003928524E-02  0.0000000000000E+00  0.5066735554327E-02
 0.9258303459847E-02 -0.6582215872552E-02  0.0000000000000E+00  0.4480546571417E-02
 0.1527493050640E-03 -0.7238561258373E-02  0.0000000000000E+00  0.2989919828005E-02
 0.4663700125329E-03 -0.7414303746420E-02  0.0000000000000E+00  0.3446697343495E-02
 0.7609739860834E-03 -0.7552226606679E-02  0.0000000000000E+00  0.3714911514940E-02
 0.9871697241147E-03 -0.7618288722861E-02  0.0000000000000E+00  0.3808735306837E-02
 0.1117615784528E-02 -0.7595852305706E-02  0.0000000000000E+00  0.3773074491746E-02
 0.1146752306087E-02 -0.7483442419389E-02  0.0000000000000E+00  0.3656101924835E-02
 0.1083523682108E-02 -0.7287438992673E-02  0.0000000000000E+00  0.3495734975087E-02
 0.9451800381947E-03 -0.7016595060080E-02  0.0000000000000E+00  0.3319765181183E-02
 0.7552112355391E-03 -0.6680693420263E-02  0.0000000000000E+00  0.3151479782839E-02
 0.5443681251878E-03 -0.6292186617817E-02  0.0000000000000E+00  0.3014520367212E-02
 0.3527193316005E-03 -0.5869531559637E-02  0.0000000000000E+00  0.2934171076978E-02
 0.2309760733634E-03 -0.5440533347475E-02  0.0000000000000E+00  0.2935632488380E-02
 0.2388995282219E-03 -0.5041547289275E-02  0.0000000000000E+00  0.3045047504704E-02
 0.4417761089099E-03 -0.4715016864083E-02  0.0000000000000E+00  0.3289411499865E-02
 0.9058753202872E-03 -0.4508797300465E-02  0.0000000000000E+00  0.3683027918552E-02
 0.1688088630509E-02 -0.4470422581952E-02  0.0000000000000E+00  0.4204687038324E-02
 0.2817813417982E-02 -0.4632913655415E-02  0.0000000000000E+00  0.4775607060438E-02
 0.4274313301634E-02 -0.4995501795024E-02  0.0000000000000E+00  0.5253743167637E-02
 0.5966901088496E-02 -0.5506834144230E-02  0.0000000000000E+00  0.5461083272567E-02
 0.7734206068112E-02 -0.6063097228921E-02  0.0000000000000E+00  0.5248368395958E-02
 0.9374827595526E-02 -0.6531647727212E-02  0.0000000000000E+00  0.4567517569297E-02
 0.1664318085112E-03 -0.7601979690033E-02  0.0000000000000E+00  0.3101014065077E-02
 0.5108565888060E-03 -0.7792853021983E-02  0.0000000000000E+00  0.3536793955288E-02
 0.8363502494761E-03 -0.7941504798176E-02  0.0000000000000E+00  0.3755254220445E-02
 0.1085785490027E-02 -0.8009865251200E-02  0.0000000000000E+00  0.3783164818240E-02
 0.1230001622362E-02 -0.7982102149287E-02  0.0000000000000E+00  0.3678966538084E-02
 0.1265541865910E-02 -0.7860165052907E-02  0.0000000000000E+00  0.3498056556826E-02
 0.1203985791538E-02 -0.7653498740785E-02  0.0000000000000E+00  0.3279349470581E-02
 0.1063910027005E-02 -0.7372152594082E-02  0.0000000000000E+00  0.3049083972012E-02
 0.8686581438203E-03 -0.7025473375660E-02  0.0000000000000E+00  0.2829734998752E-02
 0.6479372303215E-03 -0.6624315130365E-02  0.0000000000000E+00  0.2646352637078E-02
 0.4404732054099E-03 -0.6185066122513E-02  0.0000000000000E+00  0.2527584344669E-02
 0.2955871724070E-03 -0.5733485010662E-02  0.0000000000000E+00  0.2502991904046E-02
 0.2716037367446E-03 -0.5303419049642E-02  0.0000000000000E+00  0.2604643709725E-02
 0.4333368014727E-03 -0.4934553484946E-02  0.0000000000000E+00  0.2868255547889E-02
 0.8500498896662E-03 -0.4674064225448E-02  0.0000000000000E+00  0.3318179927188E-02
 0.1587686693648E-02 -0.4573553788133E-02  0.0000000000000E+00  0.3939498017733E-02
 0.2691176859348E-02 -0.4675736848789E-02  0.0000000000000E+00  0.4647477624095E-02
 0.4157327294543E-02 -0.4992089984412E-02  0.0000000000000E+00  0.5273128013707E-02
 0.5905024949349E-02 -0.5478396949595E-02  0.0000000000000E+00  0.5589712957513E-02
 0.7764552602419E-02 -0.6024834473000E-02  0.0000000000000E+00  0.5394114840270E-02
 0.9508316602088E-02 -0.6479605224310E-02  0.0000000000000E+00  0.4607434507281E-02
 0.1829405416100E-03 -0.7974597118600E-02  0.0000000000000E+00  0.3221719217613E-02
 0.5635924950272E-03 -0.8183247521469E-02  0.0000000000000E+00  0.3633640009845E-02
 0.9236594953757E-03 -0.8343512374403E-02  0.0000000000000E+00  0.3795393800302E-02
 0.1197240159609E-02 -0.8413121033106E-02  0.0000000000000E+00  0.3750544368160E-02
 0.1354379591029E-02 -0.8378402183594E-02  0.0000000000000E+00  0.3574207160187E-02
 0.1395267681913E-02 -0.8246205375733E-02  0.0000000000000E+00  0.3329178898933E-02
 0.1334989313084E-02 -0.8029728056970E-02  0.0000000000000E+00  0.3053790925918E-02
 0.1193496084339E-02 -0.7740238533153E-02  0.0000000000000E+00  0.2770940536523E-02
 0.9935579512855E-03 -0.7386168394588E-02  0.0000000000000E+00  0.2500980681538E-02
 0.7632934780983E-03 -0.6976183298642E-02  0.0000000000000E+00  0.2269537085000E-02
 0.5396085239412E-03 -0.6524041350785E-02  0.0000000000000E+00  0.2107961656822E-02
 0.3699817945710E-03 -0.6052923569175E-02  0.0000000000000E+00  0.2049441872815E-02
 0.3106549414649E-03 -0.5593458087496E-02  0.0000000000000E+00  0.2131350414331E-02
 0.4250831042553E-03 -0.5181501984426E-02  0.0000000000000E+00  0.2398502363404E-02
 0.7848809635950E-03 -0.4862404432640E-02  0.0000000000000E+00  0.2887903238051E-02
 0.1465711356162E-02 -0.4691466800110E-02  0.0000000000000E+00  0.3596319663304E-02
 0.2531322512160E-02 -0.4722678305009E-02  0.0000000000000E+00  0.4439730349118E-02
 0.4002189325535E-02 -0.4983798128108E-02  0.0000000000000E+00  0.5225201394562E-02
 0.5812894484415E-02 -0.5442177901516E-02  0.0000000000000E+00  0.5670577492383E-02
 0.7786001352086E-02 -0.5982471624178E-02  0.0000000000000E+00  0.5502983539580E-02
 0.9660920853731E-02 -0.6428688672618E-02  0.0000000000000E+00  0.4598895684820E-02
 0.2027742101397E-03 -0.8358333651466E-02  0.0000000000000E+00  0.3354017504781E-02
 0.6259491901870E-03 -0.8587605816324E-02  0.0000000000000E+00  0.3738074231705E-02
 0.1024464233489E-02 -0.8759848228467E-02  0.0000000000000E+00  0.3834295454042E-02
 0.1322449967353E-02 -0.8828552331177E-02  0.0000000000000E+00  0.3708939934936E-02
 0.1490797956866E-02 -0.8784191494630E-02  0.0000000000000E+00  0.3457483368198E-02
 0.1535402366273E-02 -0.8640383799282E-02  0.0000000000000E+00  0.3149670679250E-02
 0.1475850854951E-02 -0.8414788566900E-02  0.0000000000000E+00  0.2820900794854E-02
 0.1333437186313E-02 -0.8119700076674E-02  0.0000000000000E+00  0.2488510216694E-02
 0.1129822350094E-02 -0.7762067008299E-02  0.0000000000000E+00  0.2169274365761E-02
 0.8909359830840E-03 -0.7347751793101E-02  0.0000000000000E+00  0.1888549334734E-02
 0.6514001080822E-03 -0.6887353380320E-02  0.0000000000000E+00  0.1679720557169E-02
 0.4564349282820E-03 -0.6401005782388E-02  0.0000000000000E+00  0.1578727638564E-02
 0.3594863489154E-03 -0.5915417774989E-02  0.0000000000000E+00  0.1627280295789E-02
 0.4214400990977E-03 -0.5461366798550E-02  0.0000000000000E+00  0.1879205050562E-02
 0.7149411581156E-03 -0.5080706266710E-02  0.0000000000000E+00  0.2386569267580E-02
 0.1325196809318E-02 -0.4831234249695E-02  0.0000000000000E+00  0.3164067193452E-02
 0.2337728986120E-02 -0.4779189668876E-02  0.0000000000000E+00  0.4137500738100E-02
 0.3804233473773E-02 -0.4973213894633E-02  0.0000000000000E+00  0.5096387035448E-02
 0.5684191848659E-02 -0.5398984410501E-02  0.0000000000000E+00  0.5696439085775E-02
 0.7795106393769E-02 -0.5937200131080E-02  0.0000000000000E+00  0.5573806322707E-02
 0.9834393863597E-02 -0.6381477638961E-02  0.0000000000000E+00  0.4540616996483E-02
 0.2266070849296E-03 -0.8755558603607E-02  0.0000000000000E+00  0.3500151928139E-02
 0.6997121031286E-03 -0.9008495359807E-02  0.0000000000000E+00  0.3850642911913E-02
 0.1140636826873E-02 -0.9192256353197E-02  0.0000000000000E+00  0.3869919777104E-02
 0.1462291401721E-02 -0.9256389200666E-02  0.0000000000000E+00  0.3655284291380E-02
 0.1638998094862E-02 -0.9198407241020E-02  0.0000000000000E+00  0.3326722795793E-02
 0.1685030826409E-02 -0.9040983116965E-02  0.0000000000000E+00  0.2959421532267E-02
 0.1625532566399E-02 -0.8806853704937E-02  0.0000000000000E+00  0.2582537102055E-02
 0.1482951216017E-02 -0.8508959167166E-02  0.0000000000000E+00  0.2205224479148E-02
 0.1277164378476E-02 -0.8152099238854E-02  0.0000000000000E+00  0.1839145388139E-02
 0.1031250199594E-02 -0.7738702236340E-02  0.0000000000000E+00  0.1508576402041E-02
 0.7771145270246E-03 -0.7275727538108E-02  0.0000000000000E+00  0.1248295229608E-02
 0.5573847601419E-03 -0.6779889406777E-02  0.0000000000000E+00  0.1095992055932E-02
 0.4219900887084E-03 -0.6273348969120E-02  0.0000000000000E+00  0.1096324723459E-02
 0.4277412288458E-03 -0.5780446384082E-02  0.0000000000000E+00  0.1311335471372E-02
 0.6462295864001E-03 -0.5337351376637E-02  0.0000000000000E+00  0.1809911297247E-02
 0.1170789999718E-02 -0.5002069233533E-02  0.0000000000000E+00  0.2631276460530E-02
 0.2110865849886E-02 -0.4852890716867E-02  0.0000000000000E+00  0.3723075817271E-02
 0.3557883486681E-02 -0.4964192562235E-02  0.0000000000000E+00  0.4868374534389E-02
 0.5510657526539E-02 -0.5349424265408E-02  0.0000000000000E+00  0.5657739569461E-02
 0.7786672610635E-02 -0.5891007767074E-02  0.0000000000000E+00  0.5603677142395E-02
 0.1002975408911E-01 -0.6338381803833E-02  0.0000000000000E+00  0.4432556511601E-02
 0.2553791199315E-03 -0.9169305433550E-02  0.0000000000000E+00  0.3662698869159E-02
 0.7872613339113E-03 -0.9449114824290E-02  0.0000000000000E+00  0.3971383752380E-02
 0.1274443366697E-02 -0.9642639602799E-02  0.0000000000000E+00  0.3898776754703E-02
 0.1617535742055E-02 -0.9696462647128E-02  0.0000000000000E+00  0.3585056652502E-02
 0.1798304254442E-02 -0.9619347424748E-02  0.0000000000000E+00  0.3179012301985E-02
 0.1842768519776E-02 -0.9445667226184E-02  0.0000000000000E+00  0.2758038018116E-02
 0.1782586247896E-02 -0.9203557560753E-02  0.0000000000000E+00  0.2340609748625E-02
 0.1640923682661E-02 -0.8905956991114E-02  0.0000000000000E+00  0.1924799882560E-02
 0.1435041169871E-02 -0.8554765794097E-02  0.0000000000000E+00  0.1515635241084E-02
 0.1184437981599E-02 -0.8148350192197E-02  0.0000000000000E+00  0.1135577213072E-02
 0.9179197483365E-03 -0.7689609400686E-02  0.0000000000000E+00  0.8202314077818E-03
 0.6753223537217E-03 -0.7191592889762E-02  0.0000000000000E+00  0.6079459697675E-03
 0.5024095629969E-03 -0.6671429945853E-02  0.0000000000000E+00  0.5444815082471E-03
 0.4502089126164E-03 -0.6145691109656E-02  0.0000000000000E+00  0.6983873219939E-03
 0.5863900274249E-03 -0.5642272029496E-02  0.0000000000000E+00  0.1155893849077E-02
 0.1009413979246E-02 -0.5215817844772E-02  0.0000000000000E+00  0.1986863188872E-02
 0.1852849860133E-02 -0.4954481905843E-02  0.0000000000000E+00  0.3175462711696E-02
 0.3257513728519E-02 -0.4962680627362E-02  0.0000000000000E+00  0.4516905895053E-02
 0.5279440876669E-02 -0.5294182050113E-02  0.0000000000000E+00  0.5538350034250E-02
 0.7758178598242E-02 -0.5845295780881E-02  0.0000000000000E+00  0.5594915728260E-02
 0.1023453135611E-01 -0.6301143199069E-02  0.0000000000000E+00  0.4258855064428E-02
 0.2904725964202E-03 -0.9603649339272E-02  0.0000000000000E+00  0.3844549369855E-02
 0.8919291777826E-03 -0.9913891504164E-02  0.0000000000000E+00  0.4099481435886E-02
 0.1428838070536E-02 -0.1011360037154E-01  0.0000000000000E+00  0.3915188715647E-02
 0.1789019281251E-02 -0.1014875987895E-01  0.0000000000000E+00  0.3491676737005E-02
 0.1967842666259E-02 -0.1004542992340E-01  0.0000000000000E+00  0.3010148163375E-02
 0.2007108911214E-02 -0.9852494416080E-02  0.0000000000000E+00  0.2544314481907E-02
 0.1945613302555E-02 -0.9603220271788E-02  0.0000000000000E+00  0.2096339639680E-02
 0.1806461930461E-02 -0.9309580976839E-02  0.0000000000000E+00  0.1650276666317E-02
 0.1603303670309E-02 -0.8969807436643E-02  0.0000000000000E+00  0.1203093464331E-02
 0.1351250235297E-02 -0.8577604193019E-02  0.0000000000000E+00  0.7747495982540E-03
 0.1075658860341E-02 -0.8131431804964E-02  0.0000000000000E+00  0.4012094026045E-03
 0.8135403484701E-03 -0.7640549014205E-02  0.0000000000000E+00  0.1203395993682E-03
 0.6059700893080E-03 -0.7116744154531E-02  0.0000000000000E+00 -0.2329610569435E-04
 0.4963568183169E-03 -0.6567618023293E-02  0.0000000000000E+00  0.4262705082628E-04
 0.5448613016753E-03 -0.6009976860390E-02  0.0000000000000E+00  0.4204539879365E-03
 0.8500451290336E-03 -0.5490129677191E-02  0.0000000000000E+00  0.1215121891742E-02
 0.1566923517624E-02 -0.5100883660221E-02  0.0000000000000E+00  0.2464119529676E-02
 0.2894128942996E-02 -0.4978734879850E-02  0.0000000000000E+00  0.4003654483431E-02
 0.4974094397926E-02 -0.5235028890354E-02  0.0000000000000E+00  0.5310860114367E-02
 0.7688055840551E-02 -0.5798122192892E-02  0.0000000000000E+00  0.5545400425076E-02
 0.1051237397822E-01 -0.6287254914495E-02  0.0000000000000E+00  0.3980353391232E-02
 0.3337881508041E-03 -0.1006409866801E-01  0.0000000000000E+00  0.4049629439798E-02
 0.1018133371992E-02 -0.1040818144120E-01  0.0000000000000E+00  0.4232784432661E-02
 0.1607064638989E-02 -0.1060717402168E-01  0.0000000000000E+00  0.3910620885635E-02
 0.1976809880653E-02 -0.1061150748769E-01  0.0000000000000E+00  0.3366676034142E-02
 0.2145613839939E-02 -0.1047307302887E-01  0.0000000000000E+00  0.2815677438877E-02
 0.2175494629515E-02 -0.1025764361594E-01  0.0000000000000E+00  0.2317712936039E-02
 0.2112234036964E-02 -0.1000225113159E-01  0.0000000000000E+00  0.1852047569053E-02
 0.1977683841126E-02 -0.9716605389451E-02  0.0000000000000E+00  0.1386268194936E-02
 0.1780802989647E-02 -0.9394620176991E-02  0.0000000000000E+00  0.9080902577091E-03
 0.1531449464170E-02 -0.9024835618866E-02  0.0000000000000E+00  0.4342625658021E-03
 0.1251223563961E-02 -0.8600933000656E-02  0.0000000000000E+00  0.7529056343936E-06
 0.9745136749893E-03 -0.8128377273794E-02  0.0000000000000E+00 -0.3561371629961E-03
 0.7374522306577E-03 -0.7613564551924E-02  0.0000000000000E+00 -0.5957181680465E-03
 0.5741205153215E-03 -0.7054332530921E-02  0.0000000000000E+00 -0.6456492163587E-03
 0.5332427914308E-03 -0.6453945623150E-02  0.0000000000000E+00 -0.3910645240794E-03
 0.7064565591550E-03 -0.5844503137858E-02  0.0000000000000E+00  0.3084811753404E-03
 0.1262407328009E-02 -0.5314148756979E-02  0.0000000000000E+00  0.1559634982292E-02
 0.2462494571386E-02 -0.5028043381499E-02  0.0000000000000E+00  0.3279925841087E-02
 0.4569566612658E-02 -0.5174638264199E-02  0.0000000000000E+00  0.4936071368743E-02
 0.7564098659042E-02 -0.5748610398918E-02  0.0000000000000E+00  0.5436863914203E-02
 0.1084280951729E-01 -0.6313762709751E-02  0.0000000000000E+00  0.3674528819158E-02
 0.3883735439005E-03 -0.1055839496034E-01  0.0000000000000E+00  0.4282099970391E-02
 0.1172145502798E-02 -0.1093869284511E-01  0.0000000000000E+00  0.4365969191641E-02
 0.1812753594337E-02 -0.1112441393740E-01  0.0000000000000E+00  0.3871546246263E-02
 0.2179829987026E-02 -0.1108057113586E-01  0.0000000000000E+00  0.3198875658757E-02
 0.2328230748837E-02 -0.1089649261048E-01  0.0000000000000E+00  0.2590826533360E-02
 0.2344219866291E-02 -0.1065548842813E-01  0.0000000000000E+00  0.2078134013860E-02
 0.2278972626458E-02 -0.1039522406074E-01  0.0000000000000E+00  0.1610554930877E-02
 0.2151490750079E-02 -0.1012165154297E-01  0.0000000000000E+00  0.1138146600913E-02
 0.1965060460143E-02 -0.9824102646113E-02  0.0000000000000E+00  0.6385469999944E-03
 0.1723414856814E-02 -0.9485652218806E-02  0.0000000000000E+00  0.1244027402154E-03
 0.1444120481912E-02 -0.9094864217947E-02  0.0000000000000E+00 -0.3685866401551E-03
 0.1159436539320E-02 -0.8653474149236E-02  0.0000000000000E+00 -0.8065512195670E-03
 0.9006922019751E-03 -0.8162730313540E-02  0.0000000000000E+00 -0.1155455708010E-02
 0.6913650663177E-03 -0.7610605836921E-02  0.0000000000000E+00 -0.1347317809798E-02
 0.5652655577714E-03 -0.6985584201326E-02  0.0000000000000E+00 -0.1260714628414E-02
 0.5988560463970E-03 -0.6300175495914E-02  0.0000000000000E+00 -0.7257632630529E-03
 0.9600991348762E-03 -0.5624252298676E-02  0.0000000000000E+00  0.4413441816739E-03
 0.1966896068621E-02 -0.5137607600269E-02  0.0000000000000E+00  0.2289188599303E-02
 0.4041992545428E-02 -0.5121613587069E-02  0.0000000000000E+00  0.4348676281464E-02
 0.7353663121307E-02 -0.5697983427912E-02  0.0000000000000E+00  0.5262046746055E-02
 0.1122320336702E-01 -0.6367011237020E-02  0.0000000000000E+00  0.3323933576559E-02
 0.4589369832098E-03 -0.1109807240196E-01  0.0000000000000E+00  0.4547173695209E-02
 0.1362844160556E-02 -0.1151466317737E-01  0.0000000000000E+00  0.4488743740611E-02
 0.2049748364713E-02 -0.1166552668430E-01  0.0000000000000E+00  0.3777826378181E-02
 0.2395572483042E-02 -0.1154997152321E-01  0.0000000000000E+00  0.2974674166071E-02
 0.2511344075120E-02 -0.1130932666603E-01  0.0000000000000E+00  0.2331074780925E-02
 0.2509367509584E-02 -0.1104088176451E-01  0.0000000000000E+00  0.1825587431006E-02
 0.2442382938815E-02 -0.1077746149425E-01  0.0000000000000E+00  0.1374049127785E-02
 0.2324806524092E-02 -0.1052004132893E-01  0.0000000000000E+00  0.9104040052398E-03
 0.2153658379194E-02 -0.1025387804777E-01  0.0000000000000E+00  0.4016755836510E-03
 0.1925691491226E-02 -0.9956628647822E-02  0.0000000000000E+00 -0.1450875345621E-03
 0.1654071815900E-02 -0.9611294992641E-02  0.0000000000000E+00 -0.6948601019500E-03
 0.1369642767417E-02 -0.9215773430213E-02  0.0000000000000E+00 -0.1216722677511E-02
 0.1099441479305E-02 -0.8766523946075E-02  0.0000000000000E+00 -0.1685830404922E-02
 0.8555832214338E-03 -0.8242285984902E-02  0.0000000000000E+00 -0.2042848077217E-02
 0.6546572631087E-03 -0.7617379873399E-02  0.0000000000000E+00 -0.2167008231614E-02
 0.5504294469449E-03 -0.6881944675271E-02  0.0000000000000E+00 -0.1872447218934E-02
 0.6894834319384E-03 -0.6071889973014E-02  0.0000000000000E+00 -0.9062827077070E-03
 0.1421240120450E-02 -0.5351593097869E-02  0.0000000000000E+00  0.9577569824088E-03
 0.3359966701704E-02 -0.5096285241105E-02  0.0000000000000E+00  0.3446424572169E-02
 0.7002691586568E-02 -0.5639178278263E-02  0.0000000000000E+00  0.4978630506812E-02
 0.1167067466649E-01 -0.6456562725901E-02  0.0000000000000E+00  0.2913612330303E-02
 0.5531313912765E-03 -0.1170098059991E-01  0.0000000000000E+00  0.4850904201745E-02
 0.1602848472461E-02 -0.1214804294858E-01  0.0000000000000E+00  0.4580995941932E-02
 0.2320990541410E-02 -0.1222729662736E-01  0.0000000000000E+00  0.3599548731554E-02
 0.2618713968297E-02 -0.1200980439523E-01  0.0000000000000E+00  0.2679161872744E-02
 0.2689165323370E-02 -0.1170380059794E-01  0.0000000000000E+00  0.2033799035840E-02
 0.2666604395172E-02 -0.1140842735951E-01  0.0000000000000E+00  0.1560895098463E-02
 0.2598641107135E-02 -0.1114395292265E-01  0.0000000000000E+00  0.1144427338256E-02
 0.2493906237733E-02 -0.1090630636825E-01  0.0000000000000E+00  0.7071190704262E-03
 0.2343377418094E-02 -0.1067839430539E-01  0.0000000000000E+00  0.2049372329052E-03
 0.2136083086344E-02 -0.1043316972297E-01  0.0000000000000E+00 -0.3633679697880E-03
 0.1880179788570E-02 -0.1014742222125E-01  0.0000000000000E+00 -0.9645403227284E-03
 0.1605865848083E-02 -0.9814481124999E-02  0.0000000000000E+00 -0.1570739576409E-02
 0.1336683613105E-02 -0.9426143990021E-02  0.0000000000000E+00 -0.2168033698962E-02
 0.1073190562101E-02 -0.8953335691184E-02  0.0000000000000E+00 -0.2708929366992E-02
 0.8142459735165E-03 -0.8359216906205E-02  0.0000000000000E+00 -0.3080040560476E-02
 0.5870317081540E-03 -0.7613847363208E-02  0.0000000000000E+00 -0.3098423321177E-02
 0.4939976390970E-03 -0.6707619569876E-02  0.0000000000000E+00 -0.2475589490034E-02
 0.8629768750531E-03 -0.5741818309382E-02  0.0000000000000E+00 -0.7919548902476E-03
 0.2494872810713E-02 -0.5144430422427E-02  0.0000000000000E+00  0.2065984162530E-02
 0.6425000961696E-02 -0.5568653849144E-02  0.0000000000000E+00  0.4485769844314E-02
 0.1220705554836E-01 -0.6600327581069E-02  0.0000000000000E+00  0.2423810571756E-02
 0.6839211220711E-03 -0.1239634189252E-01  0.0000000000000E+00  0.5199340990939E-02
 0.1909981738008E-02 -0.1285332440757E-01  0.0000000000000E+00  0.4603127195530E-02
 0.2626006237161E-02 -0.1279866180990E-01  0.0000000000000E+00  0.3293597010676E-02
 0.2839449841878E-02 -0.1244468396759E-01  0.0000000000000E+00  0.2299704223868E-02
 0.2854702306613E-02 -0.1207142735361E-01  0.0000000000000E+00  0.1700386055314E-02
 0.2811606351655E-02 -0.1175299518521E-01  0.0000000000000E+00  0.1285767364879E-02
 0.2743711609737E-02 -0.1148960202441E-01  0.0000000000000E+00  0.9228916052987E-03
 0.2654355709785E-02 -0.1127418619368E-01  0.0000000000000E+00  0.5313170378493E-03
 0.2529930318565E-02 -0.1109055555833E-01  0.0000000000000E+00  0.5564983640430E-04
 0.2351391572923E-02 -0.1090907973975E-01  0.0000000000000E+00 -0.5182755139907E-03
 0.2120853621144E-02 -0.1069947604398E-01  0.0000000000000E+00 -0.1162069857312E-02
 0.1868292369322E-02 -0.1044827218589E-01  0.0000000000000E+00 -0.1850972260235E-02
 0.1614515809078E-02 -0.1014172329695E-01  0.0000000000000E+00 -0.2581903456747E-02
 0.1348926799657E-02 -0.9745209898209E-02  0.0000000000000E+00 -0.3319638331079E-02
 0.1054199884789E-02 -0.9216619718332E-02  0.0000000000000E+00 -0.3962719725343E-02
 0.7331002204909E-03 -0.8514312066020E-02  0.0000000000000E+00 -0.4349883080409E-02
 0.4302669702859E-03 -0.7586217556447E-02  0.0000000000000E+00 -0.4215051551873E-02
 0.3707740635385E-03 -0.6418487883793E-02  0.0000000000000E+00 -0.3011917732136E-02
 0.1443667731023E-02 -0.5369669531521E-02  0.0000000000000E+00 -0.3819624089160E-04
 0.5482319384810E-02 -0.5499624353092E-02  0.0000000000000E+00  0.3557529354324E-02
 0.1285150213504E-01 -0.6835346280847E-02  0.0000000000000E+00  0.1806646801804E-02
 0.8742818277410E-03 -0.1323562417301E-01  0.0000000000000E+00  0.5594598060501E-02
 0.2308534324128E-02 -0.1364418955631E-01  0.0000000000000E+00  0.4475168606895E-02
 0.2955023855264E-02 -0.1335141751785E-01  0.0000000000000E+00  0.2802523945545E-02
 0.3041766901964E-02 -0.1283338590442E-01  0.0000000000000E+00  0.1834633056024E-02
 0.3000934889894E-02 -0.1240485060325E-01  0.0000000000000E+00  0.1338037598365E-02
 0.2940602608547E-02 -0.1207015272786E-01  0.0000000000000E+00  0.1002369895895E-02
 0.2873594473632E-02 -0.1180964114579E-01  0.0000000000000E+00  0.7095804894071E-03
 0.2801029400440E-02 -0.1161678241782E-01  0.0000000000000E+00  0.3838910808732E-03
 0.2707545691298E-02 -0.1148117546981E-01  0.0000000000000E+00 -0.3987019953716E-04
 0.2566943758770E-02 -0.1137576314308E-01  0.0000000000000E+00 -0.5959434120494E-03
 0.2373738865428E-02 -0.1126259900477E-01  0.0000000000000E+00 -0.1268829207847E-02
 0.2156846560253E-02 -0.1111583338310E-01  0.0000000000000E+00 -0.2037870459077E-02
 0.1934260629776E-02 -0.1091268559155E-01  0.0000000000000E+00 -0.2907170435299E-02
 0.1685242787291E-02 -0.1061629169078E-01  0.0000000000000E+00 -0.3848429169995E-02
 0.1380617987633E-02 -0.1018918882821E-01  0.0000000000000E+00 -0.4773002071779E-02
 0.1005630579679E-02 -0.9591080724851E-02  0.0000000000000E+00 -0.5556156093314E-02
 0.5573505774832E-03 -0.8750929846800E-02  0.0000000000000E+00 -0.6009535586264E-02
 0.8445325476331E-04 -0.7531084216253E-02  0.0000000000000E+00 -0.5655591354695E-02
 0.2876856929539E-03 -0.5995963941127E-02  0.0000000000000E+00 -0.3186292149065E-02
 0.3963879228034E-02 -0.5511740072628E-02  0.0000000000000E+00  0.1698026455699E-02
 0.1359498329267E-01 -0.7242289658477E-02  0.0000000000000E+00  0.8946201337470E-03
 0.1166756755071E-02 -0.1431915020730E-01  0.0000000000000E+00  0.6018261832565E-02
 0.2827465788445E-02 -0.1451633773812E-01  0.0000000000000E+00  0.4029503677301E-02
 0.3275817449540E-02 -0.1382240205329E-01  0.0000000000000E+00  0.2068171810697E-02
 0.3204141200823E-02 -0.1315506586255E-01  0.0000000000000E+00  0.1309901975714E-02
 0.3123501378873E-02 -0.1270007485451E-01  0.0000000000000E+00  0.9574395609242E-03
 0.3050510412706E-02 -0.1235607419114E-01  0.0000000000000E+00  0.7130656091851E-03
 0.2984815642242E-02 -0.1210046569456E-01  0.0000000000000E+00  0.5035151140912E-03
 0.2928348330670E-02 -0.1192702578394E-01  0.0000000000000E+00  0.2618580132098E-03
 0.2868343871855E-02 -0.1183829317619E-01  0.0000000000000E+00 -0.7817946991451E-04
 0.2775632417946E-02 -0.1182059542088E-01  0.0000000000000E+00 -0.5803507476558E-03
 0.2635616491396E-02 -0.1183056680995E-01  0.0000000000000E+00 -0.1260748518314E-02
 0.2471884660404E-02 -0.1181716886735E-01  0.0000000000000E+00 -0.2109408610605E-02
 0.2297014370969E-02 -0.1173848022902E-01  0.0000000000000E+00 -0.3125212179749E-02
 0.2081670122588E-02 -0.1156167136335E-01  0.0000000000000E+00 -0.4271601617772E-02
 0.1794159808395E-02 -0.1126862043758E-01  0.0000000000000E+00 -0.5466236890466E-02
 0.1411059259076E-02 -0.1083910724635E-01  0.0000000000000E+00 -0.6638406989046E-02
 0.9085681027702E-03 -0.1021062605046E-01  0.0000000000000E+00 -0.7690203433056E-02
 0.1998967122504E-03 -0.9223600863985E-02  0.0000000000000E+00 -0.8445587400414E-02
-0.6693736301911E-03 -0.7466071824738E-02  0.0000000000000E+00 -0.7619802691347E-02
 0.1608778719581E-02 -0.5926467966686E-02  0.0000000000000E+00 -0.2153130159366E-02
 0.1431626237015E-01 -0.8018853787301E-02  0.0000000000000E+00 -0.9360430409593E-03
 0.1641529635387E-02 -0.1587534820241E-01  0.0000000000000E+00  0.6353689517181E-02
 0.3481806634414E-02 -0.1536305466520E-01  0.0000000000000E+00  0.2901842869044E-02
 0.3507265771940E-02 -0.1409730503812E-01  0.0000000000000E+00  0.1112583114514E-02
 0.3312224035015E-02 -0.1341449663181E-01  0.0000000000000E+00  0.7907269380415E-03
 0.3222626681575E-02 -0.1295099651468E-01  0.0000000000000E+00  0.5604053586994E-03
 0.3138080924094E-02 -0.1260960296609E-01  0.0000000000000E+00  0.4247918785152E-03
 0.3075658266382E-02 -0.1235994589297E-01  0.0000000000000E+00  0.3013794893111E-03
 0.3030850762087E-02 -0.1219914042125E-01  0.0000000000000E+00  0.1568871956459E-03
 0.3001675907136E-02 -0.1214674018102E-01  0.0000000000000E+00 -0.6319395021775E-04
 0.2965809551635E-02 -0.1222336625781E-01  0.0000000000000E+00 -0.4533209138263E-03
 0.2902039057596E-02 -0.1239491133549E-01  0.0000000000000E+00 -0.1102813949019E-02
 0.2816063172299E-02 -0.1255669111141E-01  0.0000000000000E+00 -0.2039422390440E-02
 0.2704158380789E-02 -0.1261997310605E-01  0.0000000000000E+00 -0.3223323391317E-02
 0.2535574549342E-02 -0.1257228049119E-01  0.0000000000000E+00 -0.4570242323100E-02
 0.2285777454712E-02 -0.1243886970432E-01  0.0000000000000E+00 -0.6004770618919E-02
 0.1949837620048E-02 -0.1223501309610E-01  0.0000000000000E+00 -0.7503881700761E-02
 0.1467156906670E-02 -0.1194135845015E-01  0.0000000000000E+00 -0.9105070634280E-02
 0.8417609050067E-03 -0.1149608375404E-01  0.0000000000000E+00 -0.1080093251565E-01
-0.6560976823016E-03 -0.1044314575411E-01  0.0000000000000E+00 -0.1283068297630E-01
-0.1566351876579E-02 -0.7918958952725E-02  0.0000000000000E+00 -0.1000420903769E-01
 0.1442554510743E-01 -0.9801095866852E-02  0.0000000000000E+00 -0.6170963256254E-02
 0.2423879052791E-02 -0.1858468773078E-01  0.0000000000000E+00  0.5918525737570E-02
 0.4166218094898E-02 -0.1546659959446E-01  0.0000000000000E+00  0.3338935535858E-03
 0.3493714778691E-02 -0.1422773201483E-01  0.0000000000000E+00  0.4003051636292E-03
 0.3408721074070E-02 -0.1360209266542E-01  0.0000000000000E+00  0.2334294729022E-03
 0.3284526338905E-02 -0.1315816990925E-01  0.0000000000000E+00  0.1795855619508E-03
 0.3206425250337E-02 -0.1283132268622E-01  0.0000000000000E+00  0.1380905758448E-03
 0.3144852436926E-02 -0.1258785827372E-01  0.0000000000000E+00  0.1008977630853E-03
 0.3105655714732E-02 -0.1243101020049E-01  0.0000000000000E+00  0.5484720131593E-04
 0.3094021566655E-02 -0.1239059322792E-01  0.0000000000000E+00 -0.1576827870967E-04
 0.3116421595847E-02 -0.1254790254599E-01  0.0000000000000E+00 -0.1983461430669E-03
 0.3166118492066E-02 -0.1294161372771E-01  0.0000000000000E+00 -0.7350147575570E-03
 0.3198591967735E-02 -0.1335155715802E-01  0.0000000000000E+00 -0.1794195939811E-02
 0.3159367237402E-02 -0.1356115814847E-01  0.0000000000000E+00 -0.3203736200069E-02
 0.3038167859080E-02 -0.1363206518048E-01  0.0000000000000E+00 -0.4734960332887E-02
 0.2847207536414E-02 -0.1367802867206E-01  0.0000000000000E+00 -0.6352969240354E-02
 0.2581443862874E-02 -0.1373720264611E-01  0.0000000000000E+00 -0.8092785220371E-02
 0.2264605861726E-02 -0.1387698714976E-01  0.0000000000000E+00 -0.1003316579311E-01
 0.1721781143702E-02 -0.1420018002190E-01  0.0000000000000E+00 -0.1241404658207E-01
 0.1416163917508E-02 -0.1499477149220E-01  0.0000000000000E+00 -0.1603706665632E-01
-0.3403532283937E-02 -0.1494277939739E-01  0.0000000000000E+00 -0.2298361690753E-01
 0.1247531127199E-01 -0.1662977787591E-01  0.0000000000000E+00 -0.2745178014919E-01
 0.9671124000958E-01 -0.1567062238561E+00  0.0000000000000E+00 -0.1688993727273E+00
 0.1898778422019E+00 -0.2438833524129E+00  0.0000000000000E+00 -0.4541106249234E-01
 0.2601965813583E+00 -0.3094805874637E+00  0.0000000000000E+00  0.2817123301429E-01
 0.3150245094702E+00 -0.3609150294371E+00  0.0000000000000E+00  0.6862627717497E-01
 0.3589389417965E+00 -0.4026331855580E+00  0.0000000000000E+00  0.8501734448605E-01
 0.3947790015489E+00 -0.4376562583780E+00  0.0000000000000E+00  0.8298816328863E-01
 0.4258021871797E+00 -0.4690967311945E+00  0.0000000000000E+00  0.6283758243198E-01
 0.4555211926222E+00 -0.5003532279575E+00  0.0000000000000E+00  0.2631721094533E-01
 0.4848303627017E+00 -0.5326192461599E+00  0.0000000000000E+00 -0.1932280319920E-01
 0.5098074547748E+00 -0.5641775325655E+00  0.0000000000000E+00 -0.6241308799760E-01
 0.9045431669341E-01 -0.1525952328980E+00  0.0000000000000E+00 -0.1198484360620E+00
 0.1909370806654E+00 -0.2466246055480E+00  0.0000000000000E+00 -0.1068896443364E-01
 0.2664548275228E+00 -0.3172739080724E+00  0.0000000000000E+00  0.5553386241542E-01
 0.3251678035402E+00 -0.3724834797413E+00  0.0000000000000E+00  0.9358275122961E-01
 0.3722410631741E+00 -0.4174063932902E+00  0.0000000000000E+00  0.1112166698055E+00
 0.4112496215835E+00 -0.4556015960771E+00  0.0000000000000E+00  0.1127665372345E+00
 0.4459993516958E+00 -0.4908857734263E+00  0.0000000000000E+00  0.9877570881047E-01
 0.4800267670808E+00 -0.5268800957074E+00  0.0000000000000E+00  0.7279628127423E-01
 0.5129347707191E+00 -0.5639168943042E+00  0.0000000000000E+00  0.4360724550353E-01
 0.5393382454561E+00 -0.5974206210861E+00  0.0000000000000E+00  0.1533624935316E-01
 0.8509324270237E-01 -0.1490088961809E+00  0.0000000000000E+00 -0.6901019799570E-01
 0.1918195350452E+00 -0.2489766719673E+00  0.0000000000000E+00  0.2541997194876E-01
 0.2715613186547E+00 -0.3236587676932E+00  0.0000000000000E+00  0.8438539214788E-01
 0.3333177747262E+00 -0.3818510485709E+00  0.0000000000000E+00  0.1202607376864E+00
 0.3829060596917E+00 -0.4292795223840E+00  0.0000000000000E+00  0.1395693278585E+00
 0.4245044609197E+00 -0.4701208849247E+00  0.0000000000000E+00  0.1458788947331E+00
 0.4620723563528E+00 -0.5083904126731E+00  0.0000000000000E+00  0.1405178789837E+00
 0.4985765852034E+00 -0.5473011035445E+00  0.0000000000000E+00  0.1278571240111E+00
 0.5332257734603E+00 -0.5865703931404E+00  0.0000000000000E+00  0.1150140986487E+00
 0.5611233689034E+00 -0.6221082397837E+00  0.0000000000000E+00  0.1038787963942E+00
 0.8058946654236E-01 -0.1459398817048E+00  0.0000000000000E+00 -0.1660894694541E-01
 0.1922970020750E+00 -0.2506389527818E+00  0.0000000000000E+00  0.6252786629262E-01
 0.2752663994621E+00 -0.3284063924247E+00  0.0000000000000E+00  0.1141652609220E+00
 0.3392501645235E+00 -0.3887628392127E+00  0.0000000000000E+00  0.1480962295203E+00
 0.3906259926668E+00 -0.4379803162033E+00  0.0000000000000E+00  0.1695920807369E+00
 0.4339568922175E+00 -0.4806139586105E+00  0.0000000000000E+00  0.1817434094862E+00
 0.4730991768165E+00 -0.5206198672282E+00  0.0000000000000E+00  0.1864156426973E+00
 0.5105436330376E+00 -0.5607300355297E+00  0.0000000000000E+00  0.1878402368080E+00
 0.5454001164678E+00 -0.6005353182016E+00  0.0000000000000E+00  0.1916102249395E+00
 0.5731756262788E+00 -0.6362895311982E+00  0.0000000000000E+00  0.1983782399281E+00
 0.7693203942700E-01 -0.1433511268809E+00  0.0000000000000E+00  0.3685966998115E-01
 0.1922187135587E+00 -0.2514532266554E+00  0.0000000000000E+00  0.1002019124813E+00
 0.2773869399001E+00 -0.3313171537857E+00  0.0000000000000E+00  0.1444087610991E+00
 0.3427677463798E+00 -0.3930275369672E+00  0.0000000000000E+00  0.1765529248709E+00
 0.3951241005207E+00 -0.4432284717551E+00  0.0000000000000E+00  0.2006161715111E+00
 0.4391999282823E+00 -0.4866560776602E+00  0.0000000000000E+00  0.2192212626576E+00
 0.4786661806386E+00 -0.5270822198679E+00  0.0000000000000E+00  0.2344097494537E+00
 0.5156422579896E+00 -0.5668651477191E+00  0.0000000000000E+00  0.2499792826778E+00
 0.5492067908206E+00 -0.6055306642759E+00  0.0000000000000E+00  0.2701316639386E+00
 0.5752444003927E+00 -0.6396354497394E+00  0.0000000000000E+00  0.2943193294377E+00
 0.7411784945230E-01 -0.1412244350026E+00  0.0000000000000E+00  0.9085501382750E-01
 0.1914807992582E+00 -0.2513059934031E+00  0.0000000000000E+00  0.1380211525166E+00
 0.2778008723166E+00 -0.3322662426158E+00  0.0000000000000E+00  0.1746862771498E+00
 0.3437368676926E+00 -0.3945091516627E+00  0.0000000000000E+00  0.2050792841996E+00
 0.3962344494293E+00 -0.4448537685883E+00  0.0000000000000E+00  0.2318167051191E+00
 0.4400580045500E+00 -0.4880490033062E+00  0.0000000000000E+00  0.2569675872540E+00
 0.4786543603987E+00 -0.5276347850573E+00  0.0000000000000E+00  0.2825026964322E+00
 0.5138439449953E+00 -0.5656540037635E+00  0.0000000000000E+00  0.3116476905178E+00
 0.5447302749788E+00 -0.6016152156781E+00  0.0000000000000E+00  0.3473326576164E+00
 0.5675596949361E+00 -0.6323752431712E+00  0.0000000000000E+00  0.3879168236315E+00
 0.7214799665774E-01 -0.1395525872220E+00  0.0000000000000E+00  0.1448017448273E+00
 0.1900263777961E+00 -0.2501370836229E+00  0.0000000000000E+00  0.1755890382613E+00
 0.2764516766634E+00 -0.3311959249427E+00  0.0000000000000E+00  0.2045901187549E+00
 0.3421124988891E+00 -0.3931618720655E+00  0.0000000000000E+00  0.2331090511180E+00
 0.3939304584354E+00 -0.4428243640169E+00  0.0000000000000E+00  0.2623160909329E+00
 0.4365561788088E+00 -0.4848088201826E+00  0.0000000000000E+00  0.2936335840940E+00
 0.4731846623820E+00 -0.5223879487334E+00  0.0000000000000E+00  0.3287831768598E+00
 0.5053907069351E+00 -0.5573325417164E+00  0.0000000000000E+00  0.3703538364966E+00
 0.5323349533021E+00 -0.5891597020064E+00  0.0000000000000E+00  0.4201583226307E+00
 0.5506327928661E+00 -0.6150268221154E+00  0.0000000000000E+00  0.4756009260943E+00
 0.7102328986523E-01 -0.1383363859017E+00  0.0000000000000E+00  0.1981131704520E+00
 0.1878456313085E+00 -0.2479380388837E+00  0.0000000000000E+00  0.2125339684167E+00
 0.2733539966171E+00 -0.3281225368545E+00  0.0000000000000E+00  0.2337377753084E+00
 0.3379473539399E+00 -0.3890390563946E+00  0.0000000000000E+00  0.2600929404731E+00
 0.3883216461374E+00 -0.4372490789692E+00  0.0000000000000E+00  0.2912680320755E+00
 0.4288974210293E+00 -0.4771374585845E+00  0.0000000000000E+00  0.3279559570102E+00
 0.4625936916371E+00 -0.5116809009936E+00  0.0000000000000E+00  0.3714981751555E+00
 0.4907726191808E+00 -0.5424033410339E+00  0.0000000000000E+00  0.4238245344374E+00
 0.5126648005474E+00 -0.5688349840211E+00  0.0000000000000E+00  0.4857724759293E+00
 0.5252622070542E+00 -0.5884301414993E+00  0.0000000000000E+00  0.5539334545014E+00
 0.7074158245263E-01 -0.1375817266746E+00  0.0000000000000E+00  0.2502096628394E+00
 0.1849750210955E+00 -0.2447515005712E+00  0.0000000000000E+00  0.2485123119706E+00
 0.2685940226338E+00 -0.3231368519024E+00  0.0000000000000E+00  0.2617817527499E+00
 0.3313888185609E+00 -0.3822915695582E+00  0.0000000000000E+00  0.2855315608137E+00
 0.3796407482578E+00 -0.4283641486662E+00  0.0000000000000E+00  0.3179135946716E+00
 0.4174396913936E+00 -0.4653990838171E+00  0.0000000000000E+00  0.3588254555152E+00
 0.4474059593290E+00 -0.4960518463386E+00  0.0000000000000E+00  0.4091291347663E+00
 0.4707058478960E+00 -0.5216102297508E+00  0.0000000000000E+00  0.4700867412926E+00
 0.4866365024878E+00 -0.5416055053010E+00  0.0000000000000E+00  0.5416803895224E+00
 0.4925578911357E+00 -0.5537696685633E+00  0.0000000000000E+00  0.6198387700143E+00
 0.7129604269230E-01 -0.1372976382267E+00  0.0000000000000E+00  0.3005367307429E+00
 0.1814943652443E+00 -0.2406681903283E+00  0.0000000000000E+00  0.2832126552359E+00
 0.2623245649868E+00 -0.3163994617682E+00  0.0000000000000E+00  0.2884197360728E+00
 0.3226687649593E+00 -0.3731577392163E+00  0.0000000000000E+00  0.3090000054020E+00
 0.3682249364688E+00 -0.4165142405085E+00  0.0000000000000E+00  0.3416214394486E+00
 0.4026682812764E+00 -0.4500911512388E+00  0.0000000000000E+00  0.3853403054618E+00
 0.4283016082952E+00 -0.4762033604860E+00  0.0000000000000E+00  0.4404594776639E+00
 0.4461020228335E+00 -0.4959051298813E+00  0.0000000000000E+00  0.5075588862526E+00
 0.4554138278653E+00 -0.5087018843020E+00  0.0000000000000E+00  0.5858461079861E+00
 0.4539424486136E+00 -0.5125669514102E+00  0.0000000000000E+00  0.6707067758072E+00
 0.7267416033058E-01 -0.1374948264938E+00  0.0000000000000E+00  0.3485815308546E+00
 0.1775218035477E+00 -0.2358217402364E+00  0.0000000000000E+00  0.3163595996611E+00
 0.2547562038407E+00 -0.3081319339343E+00  0.0000000000000E+00  0.3134012985371E+00
 0.3120887816220E+00 -0.3619485343082E+00  0.0000000000000E+00  0.3301636159210E+00
 0.3544926247469E+00 -0.4021287507655E+00  0.0000000000000E+00  0.3619139504879E+00
 0.3851633115150E+00 -0.4318105836141E+00  0.0000000000000E+00  0.4068435652886E+00
 0.4060764648025E+00 -0.4529599167194E+00  0.0000000000000E+00  0.4646311084324E+00
 0.4180256962801E+00 -0.4664020352150E+00  0.0000000000000E+00  0.5351387548631E+00
 0.4203746015404E+00 -0.4715826243757E+00  0.0000000000000E+00  0.6168116840151E+00
 0.4111554655462E+00 -0.4666800413072E+00  0.0000000000000E+00  0.7045341730194E+00
 0.7485738657847E-01 -0.1381846582331E+00  0.0000000000000E+00  0.3938871573110E+00
 0.1732071874865E+00 -0.2303818013435E+00  0.0000000000000E+00  0.3477158271443E+00
 0.2461458287353E+00 -0.2986052249227E+00  0.0000000000000E+00  0.3365300873527E+00
 0.3000025444734E+00 -0.3490297067982E+00  0.0000000000000E+00  0.3487848077362E+00
 0.3389174836726E+00 -0.3856952309675E+00  0.0000000000000E+00  0.3784797028616E+00
 0.3655632699728E+00 -0.4112161043874E+00  0.0000000000000E+00  0.4229425582544E+00
 0.3815933739434E+00 -0.4272168919362E+00  0.0000000000000E+00  0.4811803133873E+00
 0.3876368618994E+00 -0.4343145243455E+00  0.0000000000000E+00  0.5522792845219E+00
 0.3830577236674E+00 -0.4318755126200E+00  0.0000000000000E+00  0.6338393257682E+00
 0.3662237590565E+00 -0.4182706665320E+00  0.0000000000000E+00  0.7201855656442E+00
 0.7782145730332E-01 -0.1393786379313E+00  0.0000000000000E+00  0.4360641970893E+00
 0.1687246118854E+00 -0.2245461739975E+00  0.0000000000000E+00  0.3770820279879E+00
 0.2367837734289E+00 -0.2881265906361E+00  0.0000000000000E+00  0.3576612219253E+00
 0.2867967967054E+00 -0.3348024451163E+00  0.0000000000000E+00  0.3647212102217E+00
 0.3220012750054E+00 -0.3677315912686E+00  0.0000000000000E+00  0.3911728659475E+00
 0.3445268106130E+00 -0.3889889594763E+00  0.0000000000000E+00  0.4335092764495E+00
 0.3557276629937E+00 -0.3998843762720E+00  0.0000000000000E+00  0.4900437103136E+00
 0.3561131912911E+00 -0.4008742190076E+00  0.0000000000000E+00  0.5590289574097E+00
 0.3450720093327E+00 -0.3912759231520E+00  0.0000000000000E+00  0.6370590033481E+00
 0.3213792126921E+00 -0.3697199597982E+00  0.0000000000000E+00  0.7176709805889E+00
 0.8153746064755E-01 -0.1410884731208E+00  0.0000000000000E+00  0.4747993615960E+00
 0.1642648546582E+00 -0.2185327572206E+00  0.0000000000000E+00  0.4042947784903E+00
 0.2269807360505E+00 -0.2770262253094E+00  0.0000000000000E+00  0.3766941283539E+00
 0.2728722679220E+00 -0.3196839584650E+00  0.0000000000000E+00  0.3779153823858E+00
 0.3042469863982E+00 -0.3487585077578E+00  0.0000000000000E+00  0.4000003083669E+00
 0.3226953791149E+00 -0.3657945094055E+00  0.0000000000000E+00  0.4386631979071E+00
 0.3293126952082E+00 -0.3718315611918E+00  0.0000000000000E+00  0.4915340860220E+00
 0.3245577046090E+00 -0.3672384341178E+00  0.0000000000000E+00  0.5560102468464E+00
 0.3079218357446E+00 -0.3513687047055E+00  0.0000000000000E+00  0.6275814896569E+00
 0.2787317173998E+00 -0.3232893081406E+00  0.0000000000000E+00  0.6989289551058E+00
 0.8597363726364E-01 -0.1433267723974E+00  0.0000000000000E+00  0.5098612752901E+00
 0.1600284367415E+00 -0.2125719858893E+00  0.0000000000000E+00  0.4292230901933E+00
 0.2170557135750E+00 -0.2656449823195E+00  0.0000000000000E+00  0.3935615496738E+00
 0.2586259543357E+00 -0.3040894234706E+00  0.0000000000000E+00  0.3883763722269E+00
 0.2861333992679E+00 -0.3292733598383E+00  0.0000000000000E+00  0.4050963250395E+00
 0.3006583446980E+00 -0.3422458561989E+00  0.0000000000000E+00  0.4387393281960E+00
 0.3030912565425E+00 -0.3438371402819E+00  0.0000000000000E+00  0.4862927151381E+00
 0.2939166752209E+00 -0.3344083057533E+00  0.0000000000000E+00  0.5443270135309E+00
 0.2728008299778E+00 -0.3134324713396E+00  0.0000000000000E+00  0.6072931208615E+00
 0.2397773699219E+00 -0.2806047071706E+00  0.0000000000000E+00  0.6674096251801E+00
 0.9109785911161E-01 -0.1461082002351E+00  0.0000000000000E+00  0.5411039968384E+00
 0.1562197644561E+00 -0.2069003875268E+00  0.0000000000000E+00  0.4517645610986E+00
 0.2073262732365E+00 -0.2543241535127E+00  0.0000000000000E+00  0.4082169473328E+00
 0.2444366619860E+00 -0.2884178656095E+00  0.0000000000000E+00  0.3961533473874E+00
 0.2680924805331E+00 -0.3097267084490E+00  0.0000000000000E+00  0.4066834524936E+00
 0.2789203983851E+00 -0.3188699867474E+00  0.0000000000000E+00  0.4342405217112E+00
 0.2776759266672E+00 -0.3165461256012E+00  0.0000000000000E+00  0.4752298632662E+00
 0.2649308624681E+00 -0.3031795915866E+00  0.0000000000000E+00  0.5254356259198E+00
 0.2405161807079E+00 -0.2783587610365E+00  0.0000000000000E+00  0.5784371877625E+00
 0.2052318381596E+00 -0.2424968588207E+00  0.0000000000000E+00  0.6267208245575E+00
 0.9688026592850E-01 -0.1494508310970E+00  0.0000000000000E+00  0.5684682355281E+00
 0.1530427580659E+00 -0.2017550065436E+00  0.0000000000000E+00  0.4718438189396E+00
 0.1981017981545E+00 -0.2433991523016E+00  0.0000000000000E+00  0.4206215133509E+00
 0.2306567309165E+00 -0.2730425441074E+00  0.0000000000000E+00  0.4013075974206E+00
 0.2504929173139E+00 -0.2905088126464E+00  0.0000000000000E+00  0.4050133314783E+00
 0.2578702317857E+00 -0.2960718471993E+00  0.0000000000000E+00  0.4257661160988E+00
 0.2535126146633E+00 -0.2904309592613E+00  0.0000000000000E+00  0.4594579980344E+00
 0.2381261623486E+00 -0.2741226471734E+00  0.0000000000000E+00  0.5010443063106E+00
 0.2115491892998E+00 -0.2467111084896E+00  0.0000000000000E+00  0.5433168916628E+00
 0.1752310563970E+00 -0.2091927723058E+00  0.0000000000000E+00  0.5800153578684E+00
 0.1032956495792E+00 -0.1533732447703E+00  0.0000000000000E+00  0.5919911427631E+00
 0.1506991560161E+00 -0.1973737557477E+00  0.0000000000000E+00  0.4894195400947E+00
 0.1896822191026E+00 -0.2331960279099E+00  0.0000000000000E+00  0.4307319297216E+00
 0.2176070426628E+00 -0.2583086140292E+00  0.0000000000000E+00  0.4038802499459E+00
 0.2336411471760E+00 -0.2719435780772E+00  0.0000000000000E+00  0.4003204912835E+00
 0.2377571404378E+00 -0.2741306606669E+00  0.0000000000000E+00  0.4138636907073E+00
 0.2308248240931E+00 -0.2657054528061E+00  0.0000000000000E+00  0.4402011642820E+00
 0.2138134826564E+00 -0.2475849771743E+00  0.0000000000000E+00  0.4731170855568E+00
 0.1861973415518E+00 -0.2188504741182E+00  0.0000000000000E+00  0.5042054886555E+00
 0.1496202539711E+00 -0.1806413083440E+00  0.0000000000000E+00  0.5296014597428E+00
 0.1103162920178E+00 -0.1578939975936E+00  0.0000000000000E+00  0.6117879679364E+00
 0.1493865263867E+00 -0.1939739827734E+00  0.0000000000000E+00  0.5045360794102E+00
 0.1823745898341E+00 -0.2240714912988E+00  0.0000000000000E+00  0.4384929325781E+00
 0.2055754291305E+00 -0.2445169524214E+00  0.0000000000000E+00  0.4038183346161E+00
 0.2177687033393E+00 -0.2542810848804E+00  0.0000000000000E+00  0.3928038525620E+00
 0.2187542235114E+00 -0.2532353072795E+00  0.0000000000000E+00  0.3989976678524E+00
 0.2095325002601E+00 -0.2423648479376E+00  0.0000000000000E+00  0.4182537972180E+00
 0.1919202184844E+00 -0.2233062385382E+00  0.0000000000000E+00  0.4440921363692E+00
 0.1648034202526E+00 -0.1952809399128E+00  0.0000000000000E+00  0.4639613382661E+00
 0.1283794638414E+00 -0.1569651060505E+00  0.0000000000000E+00  0.4767296029703E+00
 0.1179004140270E+00 -0.1628147576927E+00  0.0000000000000E+00  0.6285935700964E+00
 0.1493959783719E+00 -0.1920259805323E+00  0.0000000000000E+00  0.5176226592355E+00
 0.1765414205886E+00 -0.2163679287074E+00  0.0000000000000E+00  0.4436080591150E+00
 0.1947926260155E+00 -0.2319368027389E+00  0.0000000000000E+00  0.4009710315487E+00
 0.2030238591408E+00 -0.2376734750509E+00  0.0000000000000E+00  0.3825480645036E+00
 0.2009396983985E+00 -0.2334700158578E+00  0.0000000000000E+00  0.3816597890526E+00
 0.1896501104602E+00 -0.2204441363209E+00  0.0000000000000E+00  0.3940808684288E+00
 0.1713971588652E+00 -0.2005680700693E+00  0.0000000000000E+00  0.4142669619176E+00
 0.1470342175477E+00 -0.1743960149131E+00  0.0000000000000E+00  0.4293261556702E+00
 0.1130284487725E+00 -0.1411513104370E+00  0.0000000000000E+00  0.4249414772856E+00
 0.1461287189667E+00 -0.2262679076206E+00  0.0000000000000E+00 -0.2339826028738E+00
 0.5966321957457E-01 -0.6298072801102E-01  0.0000000000000E+00  0.9147839291348E-01
 0.7780894990387E-02 -0.6513747965119E-02  0.0000000000000E+00  0.3311038468574E-01
-0.7269048153667E-02  0.1000050206104E-01  0.0000000000000E+00 -0.1024789603600E-02
-0.1953173871327E-01  0.2298154521478E-01  0.0000000000000E+00 -0.7843058706203E-02
-0.2804110377404E-01  0.3222552191664E-01  0.0000000000000E+00  0.3880780385181E-02
-0.2681142884936E-01  0.3264281249107E-01  0.0000000000000E+00  0.3499174491536E-01
-0.1412152700829E-01  0.2054495543440E-01  0.0000000000000E+00  0.6459592756250E-01
-0.1425043678115E-02  0.8132236834010E-02  0.0000000000000E+00  0.6258369076385E-01
 0.2623529688651E-01 -0.2740347841404E-01  0.0000000000000E+00  0.5777773794523E-01
 0.1785329754584E+00 -0.2288330057728E+00  0.0000000000000E+00 -0.3385994792602E+00
 0.1303419221926E+00 -0.1551728250551E+00  0.0000000000000E+00 -0.2783163080827E-02
 0.6651563378152E-01 -0.7341702412505E-01  0.0000000000000E+00  0.4842415427214E-01
 0.3765199385363E-01 -0.4061714043102E-01  0.0000000000000E+00  0.2259638110997E-01
 0.1990948672544E-01 -0.2140664799515E-01  0.0000000000000E+00 -0.1315269768366E-02
 0.6470271261392E-02 -0.6859394954638E-02  0.0000000000000E+00 -0.1339069150248E-01
 0.9370307144373E-03 -0.3156206689470E-03  0.0000000000000E+00 -0.1083868500905E-01
 0.5130266529221E-02 -0.4364593778486E-02  0.0000000000000E+00 -0.1170989849060E-01
 0.1490990578541E-01 -0.1678951891635E-01  0.0000000000000E+00 -0.4393735168079E-01
 0.4806698461035E-01 -0.6027222199958E-01  0.0000000000000E+00 -0.8937641733164E-01
 0.1728574230106E+00 -0.2174370621077E+00  0.0000000000000E+00 -0.3704372242005E+00
 0.1611248409798E+00 -0.1895438040408E+00  0.0000000000000E+00 -0.8390763573676E-01
 0.1192560212605E+00 -0.1357442125710E+00  0.0000000000000E+00  0.1379103742262E-01
 0.8827343080110E-01 -0.9769904344342E-01  0.0000000000000E+00  0.2123654435955E-01
 0.6703676938346E-01 -0.7392815767568E-01  0.0000000000000E+00 -0.3665543541750E-02
 0.5096245678777E-01 -0.5651051938080E-01  0.0000000000000E+00 -0.3261634702275E-01
 0.4128891986366E-01 -0.4623505184189E-01  0.0000000000000E+00 -0.5697433629216E-01
 0.4155578240526E-01 -0.4746660462240E-01  0.0000000000000E+00 -0.8717967090536E-01
 0.5412519781795E-01 -0.6449001195082E-01  0.0000000000000E+00 -0.1413630809728E+00
 0.9728085963116E-01 -0.1200132666284E+00  0.0000000000000E+00 -0.2070344197738E+00
 0.1630172174768E+00 -0.2066072671560E+00  0.0000000000000E+00 -0.3776292064598E+00
 0.1755114754720E+00 -0.2071574251942E+00  0.0000000000000E+00 -0.1321042351760E+00
 0.1566416037521E+00 -0.1790183861311E+00  0.0000000000000E+00 -0.2408484053999E-01
 0.1355804246302E+00 -0.1516605632563E+00  0.0000000000000E+00  0.2587637486283E-02
 0.1175149108324E+00 -0.1301491329569E+00  0.0000000000000E+00 -0.1456527774112E-01
 0.1026252290394E+00 -0.1136771741578E+00  0.0000000000000E+00 -0.5132100229854E-01
 0.9262629354753E-01 -0.1035442117369E+00  0.0000000000000E+00 -0.9572074207740E-01
 0.9293726586409E-01 -0.1057492177812E+00  0.0000000000000E+00 -0.1482864535010E+00
 0.1108902578018E+00 -0.1294287934000E+00  0.0000000000000E+00 -0.2148218086653E+00
 0.1610764111066E+00 -0.1921934847957E+00  0.0000000000000E+00 -0.2825359696142E+00
 0.1526011545270E+00 -0.1972791789268E+00  0.0000000000000E+00 -0.3703791487487E+00
 0.1833059955964E+00 -0.2181380690017E+00  0.0000000000000E+00 -0.1569526658771E+00
 0.1843739582277E+00 -0.2116053035417E+00  0.0000000000000E+00 -0.5114573582113E-01
 0.1766789482199E+00 -0.1984373448958E+00  0.0000000000000E+00 -0.1636128658575E-01
 0.1669339548655E+00 -0.1853204293576E+00  0.0000000000000E+00 -0.2711785167585E-01
 0.1575201461891E+00 -0.1742475967417E+00  0.0000000000000E+00 -0.6507725231050E-01
 0.1509479966725E+00 -0.1679354996593E+00  0.0000000000000E+00 -0.1206322556876E+00
 0.1543592555657E+00 -0.1739224126783E+00  0.0000000000000E+00 -0.1863122049614E+00
 0.1775919762522E+00 -0.2033565730902E+00  0.0000000000000E+00 -0.2565781724957E+00
 0.2297619732901E+00 -0.2674136738892E+00  0.0000000000000E+00 -0.3178587966299E+00
 0.1426174603189E+00 -0.1893228217371E+00  0.0000000000000E+00 -0.3531690526776E+00
 0.1880342859682E+00 -0.2261737144190E+00  0.0000000000000E+00 -0.1643326263266E+00
 0.2060109013597E+00 -0.2375899381004E+00  0.0000000000000E+00 -0.6511021306035E-01
 0.2121162519565E+00 -0.2389496757542E+00  0.0000000000000E+00 -0.2762490034885E-01
 0.2129573772241E+00 -0.2367374915569E+00  0.0000000000000E+00 -0.3354589599476E-01
 0.2118123076602E+00 -0.2341236664679E+00  0.0000000000000E+00 -0.6898588185756E-01
 0.2114867747111E+00 -0.2343635446959E+00  0.0000000000000E+00 -0.1274845377212E+00
 0.2198291990292E+00 -0.2456253168279E+00  0.0000000000000E+00 -0.1973219064176E+00
 0.2470904795494E+00 -0.2789743167916E+00  0.0000000000000E+00 -0.2655133782389E+00
 0.2968478290433E+00 -0.3394299021689E+00  0.0000000000000E+00 -0.3185631833017E+00
 0.1331507369519E+00 -0.1823345970797E+00  0.0000000000000E+00 -0.3280295842030E+00
 0.1910517103630E+00 -0.2325399596366E+00  0.0000000000000E+00 -0.1582847650445E+00
 0.2233501198497E+00 -0.2590041677927E+00  0.0000000000000E+00 -0.6636973648909E-01
 0.2424236342191E+00 -0.2738931740380E+00  0.0000000000000E+00 -0.2820653199575E-01
 0.2543118486597E+00 -0.2830934469965E+00  0.0000000000000E+00 -0.2968225677061E-01
 0.2624994034189E+00 -0.2900747133402E+00  0.0000000000000E+00 -0.5988323082477E-01
 0.2697453652043E+00 -0.2980843594107E+00  0.0000000000000E+00 -0.1148024737226E+00
 0.2836422349336E+00 -0.3149452486510E+00  0.0000000000000E+00 -0.1815250771763E+00
 0.3134522364843E+00 -0.3503122246083E+00  0.0000000000000E+00 -0.2442501535987E+00
 0.3581527576786E+00 -0.4043018692484E+00  0.0000000000000E+00 -0.2913806281087E+00
 0.1240633170485E+00 -0.1758910136969E+00  0.0000000000000E+00 -0.2960178262422E+00
 0.1927272275809E+00 -0.2375170643139E+00  0.0000000000000E+00 -0.1414938194683E+00
 0.2371117861960E+00 -0.2766169904078E+00  0.0000000000000E+00 -0.5608394780185E-01
 0.2677637439041E+00 -0.3035163905915E+00  0.0000000000000E+00 -0.1752517101537E-01
 0.2900489979435E+00 -0.3234234674710E+00  0.0000000000000E+00 -0.1421341145860E-01
 0.3073386018107E+00 -0.3397296838833E+00  0.0000000000000E+00 -0.3719906525751E-01
 0.3220808238141E+00 -0.3553269615266E+00  0.0000000000000E+00 -0.8403376354196E-01
 0.3409943100042E+00 -0.3769712766690E+00  0.0000000000000E+00 -0.1425487825979E+00
 0.3719965262232E+00 -0.4127469780509E+00  0.0000000000000E+00 -0.1979244301682E+00
 0.4111801461963E+00 -0.4596809833191E+00  0.0000000000000E+00 -0.2429467180500E+00
 0.1151349403790E+00 -0.1695715408315E+00  0.0000000000000E+00 -0.2577552592697E+00
 0.1929441520453E+00 -0.2408784041780E+00  0.0000000000000E+00 -0.1156860729333E+00
 0.2474466175749E+00 -0.2905703530178E+00  0.0000000000000E+00 -0.3540645507132E-01
 0.2880489758707E+00 -0.3277505371876E+00  0.0000000000000E+00  0.3804315720448E-02
 0.3194073523801E+00 -0.3569403417697E+00  0.0000000000000E+00  0.1230511591899E-01
 0.3447180987888E+00 -0.3813974693933E+00  0.0000000000000E+00 -0.2269830507569E-02
 0.3661201360984E+00 -0.4036108687944E+00  0.0000000000000E+00 -0.3867519105445E-01
 0.3885300675089E+00 -0.4285477053124E+00  0.0000000000000E+00 -0.8734022228753E-01
 0.4191399662338E+00 -0.4626971764681E+00  0.0000000000000E+00 -0.1340579127818E+00
 0.4545656012555E+00 -0.5042781455976E+00  0.0000000000000E+00 -0.1791577282178E+00
 0.1060169253630E+00 -0.1626956585623E+00  0.0000000000000E+00 -0.2133495025594E+00
 0.1913910865019E+00 -0.2422710054045E+00  0.0000000000000E+00 -0.8128227713622E-01
 0.2543951037520E+00 -0.3008802001247E+00  0.0000000000000E+00 -0.5211045742558E-02
 0.3031771943341E+00 -0.3464566141645E+00  0.0000000000000E+00  0.3459610927851E-01
 0.3418415375284E+00 -0.3830920394139E+00  0.0000000000000E+00  0.4814859018583E-01
 0.3734696610148E+00 -0.4138344378961E+00  0.0000000000000E+00  0.4240603557617E-01
 0.4003591985392E+00 -0.4413455289632E+00  0.0000000000000E+00  0.1783501973103E-01
 0.4259384792230E+00 -0.4691740334767E+00  0.0000000000000E+00 -0.2200040549452E-01
 0.4533747881707E+00 -0.5001969391609E+00  0.0000000000000E+00 -0.6610182233225E-01
 0.4872487914199E+00 -0.5357807779039E+00  0.0000000000000E+00 -0.1093052375257E+00
 0.1259197605913E+00 -0.1690305192383E+00  0.0000000000000E+00  0.6394140779660E+00
 0.1516048516348E+00 -0.1919126825463E+00  0.0000000000000E+00  0.5262726174138E+00
 0.1715561070336E+00 -0.2090665820626E+00  0.0000000000000E+00  0.4475496551707E+00
 0.1828888969740E+00 -0.2176834445435E+00  0.0000000000000E+00  0.3983224942291E+00
 0.1848751590285E+00 -0.2171614980329E+00  0.0000000000000E+00  0.3712252310639E+00
 0.1780389858996E+00 -0.2079837542062E+00  0.0000000000000E+00  0.3588348019016E+00
 0.1637580443435E+00 -0.1916316094798E+00  0.0000000000000E+00  0.3578888661062E+00
 0.1441817156413E+00 -0.1703037951706E+00  0.0000000000000E+00  0.3652101578449E+00
 0.1222235567572E+00 -0.1465347966248E+00  0.0000000000000E+00  0.3705758894766E+00
 0.1025866150729E+00 -0.1217024830944E+00  0.0000000000000E+00  0.3723554608004E+00
 0.1355480776605E+00 -0.1765480912901E+00  0.0000000000000E+00  0.6459665472064E+00
 0.1550363648477E+00 -0.1929270321850E+00  0.0000000000000E+00  0.5247320129250E+00
 0.1670714569918E+00 -0.2016047093920E+00  0.0000000000000E+00  0.4343711035573E+00
 0.1698815494817E+00 -0.2012620844946E+00  0.0000000000000E+00  0.3731411121755E+00
 0.1642829149842E+00 -0.1927598893304E+00  0.0000000000000E+00  0.3347793010934E+00
 0.1518282595220E+00 -0.1776904111655E+00  0.0000000000000E+00  0.3126476146832E+00
 0.1342957162266E+00 -0.1579935857935E+00  0.0000000000000E+00  0.3053799566986E+00
 0.1139670051917E+00 -0.1359390154813E+00  0.0000000000000E+00  0.3095167691276E+00
 0.9515553937293E-01 -0.1150401238852E+00  0.0000000000000E+00  0.3151774610755E+00
 0.7389204230895E-01 -0.9236804822317E-01  0.0000000000000E+00  0.3265038585064E+00
 0.1461025518913E+00 -0.1853128273120E+00  0.0000000000000E+00  0.6478560253300E+00
 0.1599035585178E+00 -0.1954782734978E+00  0.0000000000000E+00  0.5147086794280E+00
 0.1636776443223E+00 -0.1952845249798E+00  0.0000000000000E+00  0.4100391520187E+00
 0.1578039073549E+00 -0.1857078210654E+00  0.0000000000000E+00  0.3365941299399E+00
 0.1448358081512E+00 -0.1694332700913E+00  0.0000000000000E+00  0.2884592133934E+00
 0.1272373605897E+00 -0.1489675441283E+00  0.0000000000000E+00  0.2589781586047E+00
 0.1070974022952E+00 -0.1265950468593E+00  0.0000000000000E+00  0.2471383547717E+00
 0.8684473647652E-01 -0.1046280895705E+00  0.0000000000000E+00  0.2496581586972E+00
 0.6876545556821E-01 -0.8524190626601E-01  0.0000000000000E+00  0.2580340426871E+00
 0.4771982500637E-01 -0.6328741349902E-01  0.0000000000000E+00  0.2694955131284E+00
 0.1579214674021E+00 -0.1957688909190E+00  0.0000000000000E+00  0.6449927497044E+00
 0.1662915185189E+00 -0.1997825826918E+00  0.0000000000000E+00  0.4947533320874E+00
 0.1608118492183E+00 -0.1895223969779E+00  0.0000000000000E+00  0.3739029755155E+00
 0.1456948986284E+00 -0.1700369495912E+00  0.0000000000000E+00  0.2893760718583E+00
 0.1255191515621E+00 -0.1461189093076E+00  0.0000000000000E+00  0.2342979178984E+00
 0.1034932312454E+00 -0.1210287069222E+00  0.0000000000000E+00  0.2006117423585E+00
 0.8179163418232E-01 -0.9709961886748E-01  0.0000000000000E+00  0.1862390072824E+00
 0.6222116315176E-01 -0.7602738996114E-01  0.0000000000000E+00  0.1872593530603E+00
 0.4555012207869E-01 -0.5837291914819E-01  0.0000000000000E+00  0.1949552239679E+00
 0.2744536647297E-01 -0.3964086070363E-01  0.0000000000000E+00  0.2045102403835E+00
 0.1713356877616E+00 -0.2084799386819E+00  0.0000000000000E+00  0.6369754217056E+00
 0.1738253832333E+00 -0.2055342260840E+00  0.0000000000000E+00  0.4624242633794E+00
 0.1572191932639E+00 -0.1830296078525E+00  0.0000000000000E+00  0.3246980566560E+00
 0.1320398401350E+00 -0.1526304541973E+00  0.0000000000000E+00  0.2323155265207E+00
 0.1050368575176E+00 -0.1214476056559E+00  0.0000000000000E+00  0.1749015375122E+00
 0.7977395638733E-01 -0.9304606916802E-01  0.0000000000000E+00  0.1410717956568E+00
 0.5804720539735E-01 -0.6924886759049E-01  0.0000000000000E+00  0.1259780877367E+00
 0.4085854024721E-01 -0.5078081620407E-01  0.0000000000000E+00  0.1245656502640E+00
 0.2737297942919E-01 -0.3657558003390E-01  0.0000000000000E+00  0.1298432580645E+00
 0.1384878518806E-01 -0.2255581741158E-01  0.0000000000000E+00  0.1374047715130E+00
 0.1865946454286E+00 -0.2240679492176E+00  0.0000000000000E+00  0.6225424732231E+00
 0.1814116901933E+00 -0.2117128766382E+00  0.0000000000000E+00  0.4138215575999E+00
 0.1506210177039E+00 -0.1733923138932E+00  0.0000000000000E+00  0.2609459018806E+00
 0.1146269681529E+00 -0.1310724980475E+00  0.0000000000000E+00  0.1672244775037E+00
 0.8189426479775E-01 -0.9383611099573E-01  0.0000000000000E+00  0.1143393395012E+00
 0.5536303693015E-01 -0.6434119401507E-01  0.0000000000000E+00  0.8501893303497E-01
 0.3581119050475E-01 -0.4305792648230E-01  0.0000000000000E+00  0.7046104704025E-01
 0.2314057369950E-01 -0.2939217178590E-01  0.0000000000000E+00  0.6571154248438E-01
 0.1468020192938E-01 -0.2042392837765E-01  0.0000000000000E+00  0.6765595623411E-01
 0.6789214558093E-02 -0.1210312037044E-01  0.0000000000000E+00  0.7296042059246E-01
 0.2036527296484E+00 -0.2431707682088E+00  0.0000000000000E+00  0.5988192473287E+00
 0.1865265824024E+00 -0.2158665512811E+00  0.0000000000000E+00  0.3428235501750E+00
 0.1371018910369E+00 -0.1563010453023E+00  0.0000000000000E+00  0.1818792446270E+00
 0.9055883712842E-01 -0.1021486980712E+00  0.0000000000000E+00  0.9860008994081E-01
 0.5480289124683E-01 -0.6193091517806E-01  0.0000000000000E+00  0.5928479155277E-01
 0.3011939557848E-01 -0.3493871553265E-01  0.0000000000000E+00  0.3827786279662E-01
 0.1532444733108E-01 -0.1889174898083E-01  0.0000000000000E+00  0.2386903975730E-01
 0.9097935226630E-02 -0.1198433653199E-01  0.0000000000000E+00  0.1456617708140E-01
 0.7108481424645E-02 -0.9650414766489E-02  0.0000000000000E+00  0.1252291123237E-01
 0.5592825363979E-02 -0.7711163609658E-02  0.0000000000000E+00  0.1480760272745E-01
 0.2211763357152E+00 -0.2660860348925E+00  0.0000000000000E+00  0.5591787850232E+00
 0.1835159486676E+00 -0.2120835937774E+00  0.0000000000000E+00  0.2402837718861E+00
 0.1101720522856E+00 -0.1244519372757E+00  0.0000000000000E+00  0.9012545028459E-01
 0.5691196595965E-01 -0.6231168768424E-01  0.0000000000000E+00  0.3736094639005E-01
 0.2406650268786E-01 -0.2645520025518E-01  0.0000000000000E+00  0.2004828514518E-01
 0.5205824672911E-02 -0.6205285291333E-02  0.0000000000000E+00  0.6101676625194E-02
-0.2700547762565E-02  0.2429311507001E-02  0.0000000000000E+00 -0.1100067655366E-01
-0.1341190753228E-02  0.1452739618372E-02  0.0000000000000E+00 -0.2630840369854E-01
 0.3900411232112E-02 -0.3539976569695E-02  0.0000000000000E+00 -0.3288321321954E-01
 0.9266560971998E-02 -0.8444301366991E-02  0.0000000000000E+00 -0.3459735599686E-01
 0.2341974438389E+00 -0.2916728700520E+00  0.0000000000000E+00  0.4884907051754E+00
 0.1576875533156E+00 -0.1851974137566E+00  0.0000000000000E+00  0.9128717364309E-01
 0.6019518795111E-01 -0.6434122155770E-01  0.0000000000000E+00  0.4733363443181E-02
 0.1577037187509E-01 -0.1518879442316E-01  0.0000000000000E+00  0.6857574778321E-02
-0.6557826423942E-02  0.8469368749646E-02  0.0000000000000E+00  0.4688108043879E-02
-0.1711509323311E-01  0.1944545490565E-01  0.0000000000000E+00 -0.9769544170671E-02
-0.1723683052699E-01  0.1980642107850E-01  0.0000000000000E+00 -0.3360249450546E-01
-0.8314736138999E-02  0.1105508124405E-01  0.0000000000000E+00 -0.5605080183824E-01
 0.4103757526311E-02 -0.1174987153473E-02  0.0000000000000E+00 -0.6733035910301E-01
 0.1666826946382E-01 -0.1317643865389E-01  0.0000000000000E+00 -0.7390179725698E-01
 0.1949575389779E+00 -0.2997472270294E+00  0.0000000000000E+00  0.3173300222378E+00
 0.7451975487898E-01 -0.7587837869760E-01  0.0000000000000E+00 -0.7838736334676E-01
-0.1462641056189E-02  0.5686355453283E-02  0.0000000000000E+00 -0.8740515413601E-02
-0.2164527192142E-01  0.2731441754595E-01  0.0000000000000E+00  0.1791510042212E-01
-0.3251965742363E-01  0.3813390220126E-01  0.0000000000000E+00  0.1129455851619E-01
-0.3463462761390E-01  0.3975481768040E-01  0.0000000000000E+00 -0.1157763472224E-01
-0.2748489511514E-01  0.3244379853325E-01  0.0000000000000E+00 -0.4509806240678E-01
-0.1190762486593E-01  0.1681761000298E-01  0.0000000000000E+00 -0.7513196547302E-01
 0.6678326177092E-02 -0.1308439944623E-02  0.0000000000000E+00 -0.9150173505743E-01
 0.2636418077704E-01 -0.2072169150333E-01  0.0000000000000E+00 -0.1019452350873E+00
 0.5183669135262E+00 -0.5805814767004E+00  0.0000000000000E+00 -0.1203681183087E+00
 0.5010280028546E+00 -0.5601534631664E+00  0.0000000000000E+00 -0.1779152089266E+00
 0.4722167651928E+00 -0.5304538328832E+00  0.0000000000000E+00 -0.2356125017494E+00
 0.4347697899569E+00 -0.4918084608985E+00  0.0000000000000E+00 -0.2876559459589E+00
 0.3883559973266E+00 -0.4435976872614E+00  0.0000000000000E+00 -0.3271150087748E+00
 0.3332607261038E+00 -0.3857541860232E+00  0.0000000000000E+00 -0.3461175025922E+00
 0.2704522328288E+00 -0.3188864727941E+00  0.0000000000000E+00 -0.3350621612935E+00
 0.2025143632514E+00 -0.2449662234790E+00  0.0000000000000E+00 -0.2821706675689E+00
 0.1353207564937E+00 -0.1689541244112E+00  0.0000000000000E+00 -0.1732470994202E+00
 0.8754642726297E-01 -0.1048744050266E+00  0.0000000000000E+00  0.1301099002556E-01
 0.5498548338831E+00 -0.6137972824591E+00  0.0000000000000E+00 -0.2996394964808E-01
 0.5450795373225E+00 -0.6108032742783E+00  0.0000000000000E+00 -0.9157887067435E-01
 0.5284275537393E+00 -0.5948002949471E+00  0.0000000000000E+00 -0.1483732216891E+00
 0.5016943088207E+00 -0.5689400713539E+00  0.0000000000000E+00 -0.2038452443056E+00
 0.4654772076162E+00 -0.5333186770738E+00  0.0000000000000E+00 -0.2519944474406E+00
 0.4194479724065E+00 -0.4873653165217E+00  0.0000000000000E+00 -0.2856952825920E+00
 0.3635119414436E+00 -0.4306143524457E+00  0.0000000000000E+00 -0.2956907256838E+00
 0.2982784764639E+00 -0.3631497971839E+00  0.0000000000000E+00 -0.2691455887791E+00
 0.2261112856473E+00 -0.2861107417334E+00  0.0000000000000E+00 -0.1857852594497E+00
 0.1500047368245E+00 -0.2008659081239E+00  0.0000000000000E+00 -0.5836013217557E-02
 0.5717042426179E+00 -0.6388891952558E+00  0.0000000000000E+00  0.8101156647745E-01
 0.5728257994539E+00 -0.6429445676433E+00  0.0000000000000E+00  0.2120354550687E-01
 0.5652675871493E+00 -0.6383505624808E+00  0.0000000000000E+00 -0.3345916954870E-01
 0.5475784474202E+00 -0.6236324038376E+00  0.0000000000000E+00 -0.8566143701420E-01
 0.5192427465722E+00 -0.5984467603326E+00  0.0000000000000E+00 -0.1330782006805E+00
 0.4791930343642E+00 -0.5615739385199E+00  0.0000000000000E+00 -0.1699563531751E+00
 0.4257809349599E+00 -0.5112063649251E+00  0.0000000000000E+00 -0.1880268765662E+00
 0.3567639657909E+00 -0.4448475884482E+00  0.0000000000000E+00 -0.1753434336523E+00
 0.2681750762979E+00 -0.3583567098032E+00  0.0000000000000E+00 -0.1135661894826E+00
 0.1507213449996E+00 -0.2426682293102E+00  0.0000000000000E+00  0.2531147124264E-01
 0.5839963158431E+00 -0.6536173879004E+00  0.0000000000000E+00  0.1974115887630E+00
 0.5878676117477E+00 -0.6615863952503E+00  0.0000000000000E+00  0.1476850093665E+00
 0.5847262051853E+00 -0.6629138586785E+00  0.0000000000000E+00  0.1003503146879E+00
 0.5720901181330E+00 -0.6552372536889E+00  0.0000000000000E+00  0.5485732084525E-01
 0.5479478993656E+00 -0.6366028712788E+00  0.0000000000000E+00  0.1251023638800E-01
 0.5099636729797E+00 -0.6047507191932E+00  0.0000000000000E+00 -0.2296951289370E-01
 0.4549534824247E+00 -0.5565316659148E+00  0.0000000000000E+00 -0.4556277164943E-01
 0.3783284737211E+00 -0.4874713107110E+00  0.0000000000000E+00 -0.4694112835148E-01
 0.2729383472975E+00 -0.3907455188209E+00  0.0000000000000E+00 -0.1674438377213E-01
 0.1269108494265E+00 -0.2553555583729E+00  0.0000000000000E+00  0.5485340637466E-01
 0.5857035139763E+00 -0.6568922445655E+00  0.0000000000000E+00  0.3127422433255E+00
 0.5904622661135E+00 -0.6666039462587E+00  0.0000000000000E+00  0.2766283080916E+00
 0.5888640660163E+00 -0.6706788149616E+00  0.0000000000000E+00  0.2403511266082E+00
 0.5780934032246E+00 -0.6664059761851E+00  0.0000000000000E+00  0.2037815299619E+00
 0.5552639725719E+00 -0.6510488100542E+00  0.0000000000000E+00  0.1674685362193E+00
 0.5169994065516E+00 -0.6213873341218E+00  0.0000000000000E+00  0.1332389897728E+00
 0.4590141661768E+00 -0.5733345900269E+00  0.0000000000000E+00  0.1041949393334E+00
 0.3757011444016E+00 -0.5015546314220E+00  0.0000000000000E+00  0.8420390412601E-01
 0.2597167810314E+00 -0.3991215859456E+00  0.0000000000000E+00  0.7640768357089E-01
 0.1019514307965E+00 -0.2575123152000E+00  0.0000000000000E+00  0.7969952402196E-01
 0.5766534950423E+00 -0.6483496837309E+00  0.0000000000000E+00  0.4228710477429E+00
 0.5807307728471E+00 -0.6579306865250E+00  0.0000000000000E+00  0.4019066492093E+00
 0.5788150022263E+00 -0.6624410562966E+00  0.0000000000000E+00  0.3784459780138E+00
 0.5680655754794E+00 -0.6591974797742E+00  0.0000000000000E+00  0.3517722471599E+00
 0.5452414934489E+00 -0.6451492136601E+00  0.0000000000000E+00  0.3212102543840E+00
 0.5064637482895E+00 -0.6166468081100E+00  0.0000000000000E+00  0.2864974840457E+00
 0.4469748020376E+00 -0.5691980840312E+00  0.0000000000000E+00  0.2477832219742E+00
 0.3610349002957E+00 -0.4973679658833E+00  0.0000000000000E+00  0.2051903384288E+00
 0.2421451941966E+00 -0.3949788422053E+00  0.0000000000000E+00  0.1577230297535E+00
 0.8398943716134E-01 -0.2559408158166E+00  0.0000000000000E+00  0.1015659932673E+00
 0.5571301923695E+00 -0.6282341168388E+00  0.0000000000000E+00  0.5242620020130E+00
 0.5591171821746E+00 -0.6358829467063E+00  0.0000000000000E+00  0.5187514743099E+00
 0.5554945439306E+00 -0.6389369113381E+00  0.0000000000000E+00  0.5087789333040E+00
 0.5436441372482E+00 -0.6349541403951E+00  0.0000000000000E+00  0.4925638066168E+00
 0.5204209801494E+00 -0.6210078942645E+00  0.0000000000000E+00  0.4678665026034E+00
 0.4819833878852E+00 -0.5935164570606E+00  0.0000000000000E+00  0.4321697773680E+00
 0.4236471221345E+00 -0.5480902076359E+00  0.0000000000000E+00  0.3827479039603E+00
 0.3399196916110E+00 -0.4795393275091E+00  0.0000000000000E+00  0.3166647287177E+00
 0.2249198658494E+00 -0.3822383940770E+00  0.0000000000000E+00  0.2307245504358E+00
 0.7327528643361E-01 -0.2509697697800E+00  0.0000000000000E+00  0.1215663796561E+00
 0.5278361265617E+00 -0.5972836821145E+00  0.0000000000000E+00  0.6133846729047E+00
 0.5264395520210E+00 -0.6013133144183E+00  0.0000000000000E+00  0.6223933170867E+00
 0.5199072830476E+00 -0.6011947410908E+00  0.0000000000000E+00  0.6255294835245E+00
 0.5060688801939E+00 -0.5949273239764E+00  0.0000000000000E+00  0.6199128565809E+00
 0.4822449499314E+00 -0.5800445453834E+00  0.0000000000000E+00  0.6017562784135E+00
 0.4450988995524E+00 -0.5534699662872E+00  0.0000000000000E+00  0.5663841813106E+00
 0.3904656966838E+00 -0.5113452414690E+00  0.0000000000000E+00  0.5083134654243E+00
 0.3132676772699E+00 -0.4489185191000E+00  0.0000000000000E+00  0.4216466455198E+00
 0.2077065535317E+00 -0.3606869151866E+00  0.0000000000000E+00  0.3010270466933E+00
 0.6788432647838E-01 -0.2409605457061E+00  0.0000000000000E+00  0.1430453549025E+00
 0.4898904525841E+00 -0.5567077513502E+00  0.0000000000000E+00  0.6870199114467E+00
 0.4838902592902E+00 -0.5555404447113E+00  0.0000000000000E+00  0.7083065373519E+00
 0.4732761618177E+00 -0.5506059162081E+00  0.0000000000000E+00  0.7229445243635E+00
 0.4564777501718E+00 -0.5404698792760E+00  0.0000000000000E+00  0.7272271879430E+00
 0.4315574933918E+00 -0.5233687867250E+00  0.0000000000000E+00  0.7162036329951E+00
 0.3960752198521E+00 -0.4970844301121E+00  0.0000000000000E+00  0.6834877416404E+00
 0.3468537552058E+00 -0.4587244403873E+00  0.0000000000000E+00  0.6211516953435E+00
 0.2796062893405E+00 -0.4043761734643E+00  0.0000000000000E+00  0.5199900581678E+00
 0.1885287877362E+00 -0.3286477442283E+00  0.0000000000000E+00  0.3709131238893E+00
 0.6634493389187E-01 -0.2246250387511E+00  0.0000000000000E+00  0.1678159346337E+00
 0.4449009020554E+00 -0.5082525612961E+00  0.0000000000000E+00  0.7422294610997E+00
 0.4332098287597E+00 -0.5005058997560E+00  0.0000000000000E+00  0.7721640739004E+00
 0.4173627495555E+00 -0.4892137335532E+00  0.0000000000000E+00  0.7951428173408E+00
 0.3964317530089E+00 -0.4735267466171E+00  0.0000000000000E+00  0.8071189230069E+00
 0.3693628514028E+00 -0.4524921155159E+00  0.0000000000000E+00  0.8026538626970E+00
 0.3348887305328E+00 -0.4249770711622E+00  0.0000000000000E+00  0.7744995467086E+00
 0.2912998774354E+00 -0.3894673305098E+00  0.0000000000000E+00  0.7131243134113E+00
 0.2359392318587E+00 -0.3436176656230E+00  0.0000000000000E+00  0.6062609196965E+00
 0.1639905083717E+00 -0.2832143038842E+00  0.0000000000000E+00  0.4389959327707E+00
 0.6688290434441E-01 -0.2003688920533E+00  0.0000000000000E+00  0.1973018120658E+00
 0.3950149050019E+00 -0.4542455005127E+00  0.0000000000000E+00  0.7764309996153E+00
 0.3768544472440E+00 -0.4389319645019E+00  0.0000000000000E+00  0.8099274043046E+00
 0.3548172047215E+00 -0.4200530803548E+00  0.0000000000000E+00  0.8361813129538E+00
 0.3285316117039E+00 -0.3972416146189E+00  0.0000000000000E+00  0.8513361511717E+00
 0.2977925143956E+00 -0.3702953589258E+00  0.0000000000000E+00  0.8502538220749E+00
 0.2625671685092E+00 -0.3391839692785E+00  0.0000000000000E+00  0.8259467681925E+00
 0.2229169140471E+00 -0.3039822259674E+00  0.0000000000000E+00  0.7687942266972E+00
 0.1787007169634E+00 -0.2646224039593E+00  0.0000000000000E+00  0.6652733694151E+00
 0.1286160817498E+00 -0.2200817811091E+00  0.0000000000000E+00  0.4956208455592E+00
 0.6610920356671E-01 -0.1652574258887E+00  0.0000000000000E+00  0.2311036430449E+00
 0.3428957576141E+00 -0.3975649544519E+00  0.0000000000000E+00  0.7878043997158E+00
 0.3180848060632E+00 -0.3744075744012E+00  0.0000000000000E+00  0.8184716101350E+00
 0.2894895374078E+00 -0.3474588500619E+00  0.0000000000000E+00  0.8408517177083E+00
 0.2571125097518E+00 -0.3166539395202E+00  0.0000000000000E+00  0.8515911923613E+00
 0.2214068348144E+00 -0.2823471464209E+00  0.0000000000000E+00  0.8463538071298E+00
 0.1833729228225E+00 -0.2453947379792E+00  0.0000000000000E+00  0.8192774159705E+00
 0.1447096436164E+00 -0.2072870995323E+00  0.0000000000000E+00  0.7622183925325E+00
 0.1080536494115E+00 -0.1703543831150E+00  0.0000000000000E+00  0.6633075800052E+00
 0.7731741773666E-01 -0.1380485610600E+00  0.0000000000000E+00  0.5036708150024E+00
 0.5720138486754E-01 -0.1146134913733E+00  0.0000000000000E+00  0.2468865416588E+00
 0.2916733285407E+00 -0.3415669223201E+00  0.0000000000000E+00  0.7758424160412E+00
 0.2610477729054E+00 -0.3114161998026E+00  0.0000000000000E+00  0.7966055957244E+00
 0.2267565750234E+00 -0.2773126592650E+00  0.0000000000000E+00  0.8064560106231E+00
 0.1890510071628E+00 -0.2393936503357E+00  0.0000000000000E+00  0.8023993343100E+00
 0.1488656519581E+00 -0.1984253797122E+00  0.0000000000000E+00  0.7806458797684E+00
 0.1079412681896E+00 -0.1559040822974E+00  0.0000000000000E+00  0.7362452867129E+00
 0.6914522525177E-01 -0.1143354253886E+00  0.0000000000000E+00  0.6627025748472E+00
 0.3717323672147E-01 -0.7784560282322E-01  0.0000000000000E+00  0.5512852452954E+00
 0.2014085226837E-01 -0.5353787157851E-01  0.0000000000000E+00  0.3894596282293E+00
 0.3505094846406E-01 -0.5565619470989E-01  0.0000000000000E+00  0.1559436374651E+00
 0.2444213663851E+00 -0.2895507982672E+00  0.0000000000000E+00  0.7436867240849E+00
 0.2100571383787E+00 -0.2545893143647E+00  0.0000000000000E+00  0.7496567329748E+00
 0.1725340871307E+00 -0.2159932666748E+00  0.0000000000000E+00  0.7414915123131E+00
 0.1324445717329E+00 -0.1742366628515E+00  0.0000000000000E+00  0.7167827095965E+00
 0.9124416400782E-01 -0.1305962481896E+00  0.0000000000000E+00  0.6724278455685E+00
 0.5131619057828E-01 -0.8720355418147E-01  0.0000000000000E+00  0.6045876506788E+00
 0.1628983384758E-01 -0.4733306647719E-01  0.0000000000000E+00  0.5089034817620E+00
-0.8224527502323E-02 -0.1607645105955E-01  0.0000000000000E+00  0.3810551218866E+00
-0.1302283400774E-01 -0.1816118015266E-02  0.0000000000000E+00  0.2182541906363E+00
 0.1868786393069E-01 -0.2002100740186E-01  0.0000000000000E+00  0.2639848792241E-01
 0.2031979470831E+00 -0.2437746452257E+00  0.0000000000000E+00  0.6973994334663E+00
 0.1678647647379E+00 -0.2069334283701E+00  0.0000000000000E+00  0.6874160633375E+00
 0.1303284841385E+00 -0.1673427711377E+00  0.0000000000000E+00  0.6613315189616E+00
 0.9170772719234E-01 -0.1260285570360E+00  0.0000000000000E+00  0.6181059369861E+00
 0.5408188719447E-01 -0.8493642149945E-01  0.0000000000000E+00  0.5561371108873E+00
 0.2040457287007E-01 -0.4684074734587E-01  0.0000000000000E+00  0.4736005955119E+00
-0.5359601435627E-02 -0.1548689467751E-01  0.0000000000000E+00  0.3692821301097E+00
-0.1789236630316E-01  0.4037777901069E-02  0.0000000000000E+00  0.2440673069358E+00
-0.1008406436293E-01  0.4758123789051E-02  0.0000000000000E+00  0.1041104629662E+00
 0.2553287026749E-01 -0.2172004844287E-01  0.0000000000000E+00 -0.3131742138611E-01
 0.1686079925597E+00 -0.2049618485697E+00  0.0000000000000E+00  0.6429174962166E+00
 0.1346968136144E+00 -0.1688197326878E+00  0.0000000000000E+00  0.6180682832571E+00
 0.9954772744960E-01 -0.1309048676791E+00  0.0000000000000E+00  0.5769937827804E+00
 0.6482662291448E-01 -0.9285312280816E-01  0.0000000000000E+00  0.5205809779420E+00
 0.3310272154342E-01 -0.5716789256221E-01  0.0000000000000E+00  0.4489562451951E+00
 0.7477763337835E-02 -0.2686642418169E-01  0.0000000000000E+00  0.3622613530749E+00
-0.8530831008412E-02 -0.5403369376483E-02  0.0000000000000E+00  0.2618680837665E+00
-0.1110823535161E-01  0.3375716269714E-02  0.0000000000000E+00  0.1519326276948E+00
 0.3141971245028E-02 -0.4257972641521E-02  0.0000000000000E+00  0.4153979106066E-01
 0.3488618489257E-01 -0.2961048986859E-01  0.0000000000000E+00 -0.5453661638934E-01
 0.1403980585528E+00 -0.1729402302093E+00  0.0000000000000E+00  0.5851032882891E+00
 0.1094286463958E+00 -0.1391540631422E+00  0.0000000000000E+00  0.5470849725107E+00
 0.7773804111949E-01 -0.1041909736302E+00  0.0000000000000E+00  0.4945671482078E+00
 0.4765568706624E-01 -0.7043348040925E-01  0.0000000000000E+00  0.4304322147451E+00
 0.2205911684346E-01 -0.4075546288188E-01  0.0000000000000E+00  0.3559677907586E+00
 0.3745122595156E-02 -0.1793325903370E-01  0.0000000000000E+00  0.2724360956762E+00
-0.4757998354033E-02 -0.4518573172770E-02  0.0000000000000E+00  0.1824518294837E+00
-0.1483988635571E-02 -0.2618000170231E-02  0.0000000000000E+00  0.9088389306001E-01
 0.1422650844009E-01 -0.1314023271635E-01  0.0000000000000E+00  0.4960637278413E-02
 0.4080399194715E-01 -0.3470909617704E-01  0.0000000000000E+00 -0.6765155557741E-01
 0.1179408876522E+00 -0.1470817594898E+00  0.0000000000000E+00  0.5271851408691E+00
 0.9025075622550E-01 -0.1160194889976E+00  0.0000000000000E+00  0.4772927642156E+00
 0.6188872173521E-01 -0.8398542317371E-01  0.0000000000000E+00  0.4169306754046E+00
 0.3623299251176E-01 -0.5452858147819E-01  0.0000000000000E+00  0.3499380295825E+00
 0.1617827756601E-01 -0.3053632331450E-01  0.0000000000000E+00  0.2774308629166E+00
 0.3790228710184E-02 -0.1403400545753E-01  0.0000000000000E+00  0.2008820841389E+00
 0.4399745102244E-03 -0.6430921063190E-02  0.0000000000000E+00  0.1231155346985E+00
 0.6673314562221E-02 -0.8368434261184E-02  0.0000000000000E+00  0.4824708062002E-01
 0.2188740025617E-01 -0.1936762565831E-01  0.0000000000000E+00 -0.1918220753447E-01
 0.4428637573793E-01 -0.3770056995132E-01  0.0000000000000E+00 -0.7555802587661E-01
 0.1002506619708E+00 -0.1263698100369E+00  0.0000000000000E+00  0.4705353016926E+00
 0.7479110308412E-01 -0.9672213222122E-01  0.0000000000000E+00  0.4111496927063E+00
 0.4951956095564E-01 -0.6751231916938E-01  0.0000000000000E+00  0.3480646545199E+00
 0.2852257828039E-01 -0.4290031945142E-01  0.0000000000000E+00  0.2823633350233E+00
 0.1370840848889E-01 -0.2452948736479E-01  0.0000000000000E+00  0.2141599712744E+00
 0.6043747113515E-02 -0.1329404435995E-01  0.0000000000000E+00  0.1451420294125E+00
 0.5899480478011E-02 -0.9560155220978E-02  0.0000000000000E+00  0.7803728832692E-01
 0.1299331634574E-01 -0.1309270457056E-01  0.0000000000000E+00  0.1604938890697E-01
 0.2646279874828E-01 -0.2303748335540E-01  0.0000000000000E+00 -0.3797485018167E-01
 0.4489074511478E-01 -0.3805863087196E-01  0.0000000000000E+00 -0.8257926168306E-01
 0.8469722691530E-01 -0.1073499700758E+00  0.0000000000000E+00  0.4120342222839E+00
 0.6008681659680E-01 -0.7755757531961E-01  0.0000000000000E+00  0.3566904458935E+00
 0.4037043542563E-01 -0.5439722884039E-01  0.0000000000000E+00  0.2957291635602E+00
 0.2547343609551E-01 -0.3644455890309E-01  0.0000000000000E+00  0.2312537307558E+00
 0.1562263163563E-01 -0.2367315077796E-01  0.0000000000000E+00  0.1654051213859E+00
 0.1113068029815E-01 -0.1626448938155E-01  0.0000000000000E+00  0.1008677451380E+00
 0.1196939200491E-01 -0.1416933286314E-01  0.0000000000000E+00  0.4043086764553E-01
 0.1770826965243E-01 -0.1696865319723E-01  0.0000000000000E+00 -0.1337785527909E-01
 0.2756612800029E-01 -0.2394247788117E-01  0.0000000000000E+00 -0.5854591212958E-01
 0.4128330008402E-01 -0.3458791447710E-01  0.0000000000000E+00 -0.9393485003034E-01
</DataArray>
<DataArray type="Float64" Name="S_Centroid" NumberOfComponents="4" ComponentName0="S11" ComponentName1="S22" ComponentName2="S33" ComponentName3="S12" format="ascii">
 0.2131946181197E+00  0.1749458017451E+01  0.3925305329632E+00  0.1991436079627E+00
-0.3160680109970E-01  0.1360165393229E+01  0.2657117223852E+00  0.3848615463070E-01
 0.6936848710610E-02  0.1114730604284E+01  0.2243334939417E+00  0.5226176717430E-01
-0.5670969103225E-03  0.8683002063982E+00  0.1735466244836E+00  0.5216848209014E-01
 0.7076423925156E-03  0.6090330076798E+00  0.1219481318316E+00  0.5563653506807E-01
 0.1602473418456E-03  0.3305628968075E+00  0.6614462981551E-01  0.5987999110348E-01
-0.2598420721529E-04  0.2703380379935E-01  0.5401563998916E-02  0.6554054713439E-01
-0.3845503128190E-03 -0.3095557567272E+00 -0.6198806233170E-01  0.7317748828648E-01
-0.8965367048244E-03 -0.6920471825007E+00 -0.1385887459062E+00  0.8415840549685E-01
-0.4338332797292E-02 -0.1145745495940E+01 -0.2300167691749E+00  0.1048772269278E+00
-0.1755977798738E-01 -0.1703330810127E+01 -0.3441781227515E+00  0.1558247926014E+00
-0.4393785862006E-01 -0.2351837124556E+01 -0.4791550037752E+00  0.2625715400224E+00
-0.8532154527483E-01 -0.3033215630163E+01 -0.6237074443814E+00  0.4332504706274E+00
-0.1492610167007E+00 -0.3709826931309E+01 -0.7718176011030E+00  0.6620083043019E+00
-0.2443987784465E+00 -0.4361877780239E+01 -0.9212553254648E+00  0.9453008078729E+00
-0.3783433793218E+00 -0.4960826926547E+01 -0.1067834077086E+01  0.1276915097481E+01
-0.5466634605589E+00 -0.5495601644974E+01 -0.1208453039114E+01  0.1652203690068E+01
-0.8252373533039E+00 -0.6002012104918E+01 -0.1365449911991E+01  0.2089120089216E+01
-0.1052645133278E+01 -0.6537710924499E+01 -0.1518071234176E+01  0.2691021824533E+01
-0.2973520252051E+01 -0.7028708941581E+01 -0.2000445868535E+01  0.3744023759909E+01
 0.3448994946558E+01 -0.5940448547644E+01 -0.4982907276423E+00  0.4220150345606E+01
 0.1825752843768E+00  0.1230725785489E+01  0.2826602181851E+00  0.2247051218261E+00
 0.1823263697269E-01  0.1074299251332E+01  0.2185063809168E+00  0.1702868408359E+00
-0.4108286705064E-02  0.8312708519967E+00  0.1654325155235E+00  0.1412659813652E+00
-0.4633953501319E-03  0.6037521482307E+00  0.1206577523741E+00  0.1507044294368E+00
-0.2920595872584E-02  0.3600875339393E+00  0.7143338867778E-01  0.1599806507672E+00
-0.3774749621201E-02  0.9676951367162E-01  0.1859895308723E-01  0.1733135452479E+00
-0.5388814549338E-02 -0.1918194655711E+00 -0.3944165661182E-01  0.1904376035066E+00
-0.7701119024950E-02 -0.5127897662497E+00 -0.1040981786061E+00  0.2133905723313E+00
-0.1241500562244E-01 -0.8773611743538E+00 -0.1779552386470E+00  0.2465606764646E+00
-0.2654908366531E-01 -0.1300891071607E+01 -0.2654880350106E+00  0.3002255540196E+00
-0.6043226199578E-01 -0.1790420279224E+01 -0.3701705137600E+00  0.3877111928984E+00
-0.1162436792669E+00 -0.2327976916484E+01 -0.4888441264346E+00  0.5155171577384E+00
-0.1902792491390E+00 -0.2879700359627E+01 -0.6139959309024E+00  0.6831799230092E+00
-0.2842164592794E+00 -0.3414705171448E+01 -0.7397843371692E+00  0.8877553101907E+00
-0.4029567021557E+00 -0.3905559705435E+01 -0.8617032943586E+00  0.1121791222886E+01
-0.5459392847169E+00 -0.4324463804702E+01 -0.9740806323987E+00  0.1375158810049E+01
-0.7307295542362E+00 -0.4643537040506E+01 -0.1074853334965E+01  0.1642467929991E+01
-0.9437694305411E+00 -0.4818635525560E+01 -0.1152481008393E+01  0.1910673478083E+01
-0.1420727618885E+01 -0.4726608910789E+01 -0.1229467324255E+01  0.2198475005947E+01
-0.1427741615378E+01 -0.3870264852544E+01 -0.1059601309374E+01  0.1692772295044E+01
 0.5195364527743E+01 -0.3025953628962E+01  0.4338821862216E+00  0.9769349340741E+00
 0.1449903082238E+00  0.8307010924323E+00  0.1951382830390E+00  0.2308581592974E+00
 0.3801924843342E-01  0.7413712012816E+00  0.1558780922658E+00  0.2474853722444E+00
-0.2451615143446E-02  0.5551218052146E+00  0.1105340396613E+00  0.2308470503856E+00
-0.6310778576955E-02  0.3440138911861E+00  0.6754062352827E-01  0.2401461261318E+00
-0.8932594101972E-02  0.1187404534993E+00  0.2196157220672E-01  0.2579204927154E+00
-0.1199904825578E-01 -0.1276990199828E+00 -0.2793961406404E-01  0.2801203801903E+00
-0.1596532141408E-01 -0.3986849985613E+00 -0.8293006523084E-01  0.3086272014549E+00
-0.2226161025872E-01 -0.6999806807683E+00 -0.1444484603579E+00  0.3462883491108E+00
-0.3439933736713E-01 -0.1039113102498E+01 -0.2147024911723E+00  0.3991639097960E+00
-0.6128226997687E-01 -0.1421954806547E+01 -0.2966474197251E+00  0.4764744892185E+00
-0.1127415990612E+00 -0.1843898408078E+01 -0.3913280072590E+00  0.5847189859560E+00
-0.1893082213349E+00 -0.2286718108059E+01 -0.4952052732579E+00  0.7212902542880E+00
-0.2846104034331E+00 -0.2726467940463E+01 -0.6022156777529E+00  0.8800449492576E+00
-0.3957171675803E+00 -0.3137692554062E+01 -0.7066819548589E+00  0.1055304055256E+01
-0.5213715664979E+00 -0.3492687685642E+01 -0.8028118623907E+00  0.1236285932834E+01
-0.6605271575065E+00 -0.3761665551041E+01 -0.8844385548886E+00  0.1408525698550E+01
-0.8093535749500E+00 -0.3902767094022E+01 -0.9424241478376E+00  0.1550366580489E+01
-0.9787383827148E+00 -0.3846369594408E+01 -0.9650216098044E+00  0.1627180527853E+01
-0.1089486940903E+01 -0.3415271300844E+01 -0.9009516617746E+00  0.1432738597448E+01
 0.1489342941120E+00 -0.2687359830744E+01 -0.5076851148914E+00  0.4976233576259E+00
 0.5428721184495E+01 -0.2347259730448E+01  0.6162922999929E+00  0.2229311843008E+00
 0.9909222925571E-01  0.4874438106261E+00  0.1173072097244E+00  0.2383332074776E+00
 0.3742973492797E-01  0.4212891124327E+00  0.9174377083923E-01  0.2980944289822E+00
-0.3079762571808E-02  0.2774535702118E+00  0.5487476234570E-01  0.3067904116689E+00
-0.1388329433465E-01  0.9150463974669E-01  0.1552426931374E-01  0.3228246447252E+00
-0.1868733985812E-01 -0.1152197321403E+00 -0.2678141479875E-01  0.3482350385435E+00
-0.2410980492030E-01 -0.3428717664422E+00 -0.7339631536619E-01  0.3796580225371E+00
-0.3157895731360E-01 -0.5939654210373E+00 -0.1251088775345E+00  0.4188930226631E+00
-0.4335757993176E-01 -0.8719126225778E+00 -0.1830540432296E+00  0.4697918364371E+00
-0.6441048984582E-01 -0.1180150090782E+01 -0.2489121198347E+00  0.5384147265310E+00
-0.1037245732165E+00 -0.1517939987715E+01 -0.3243329170192E+00  0.6313595837974E+00
-0.1692395720499E+00 -0.1875433683380E+01 -0.4089346571797E+00  0.7499557343644E+00
-0.2596145222052E+00 -0.2235284240417E+01 -0.4989797599598E+00  0.8866168704352E+00
-0.3665791246001E+00 -0.2578666405940E+01 -0.5890491148855E+00  0.1031163758360E+01
-0.4829402726993E+00 -0.2884483387460E+01 -0.6734847420676E+00  0.1174095901158E+01
-0.6025108408977E+00 -0.3127392124073E+01 -0.7459806041100E+00  0.1301201620461E+01
-0.7161222622177E+00 -0.3277269599916E+01 -0.7986783843279E+00  0.1391166383768E+01
-0.8090163069357E+00 -0.3292745280733E+01 -0.8203523297579E+00  0.1411607151117E+01
-0.8378722846829E+00 -0.3104380112393E+01 -0.7884504911640E+00  0.1286065979465E+01
-0.5066212373726E+00 -0.2666825156361E+01 -0.6346892882043E+00  0.8133177476152E+00
 0.1214548822023E+01 -0.2264299541882E+01 -0.2099501471003E+00 -0.4010290938704E-01
 0.5244482122878E+01 -0.2134200371617E+01  0.6220563595216E+00  0.1543153897838E-01
 0.4850642346907E-01  0.1794871563765E+00  0.4559871664859E-01  0.2494931485961E+00
 0.2236570161839E-01  0.1217474031387E+00  0.2882262138091E-01  0.3357054978188E+00
-0.1009748590096E-01  0.5982339774649E-02 -0.8230292375255E-03  0.3694807398648E+00
-0.2425239513242E-01 -0.1546910742673E+00 -0.3578869441323E-01  0.3971715733362E+00
-0.3182303315470E-01 -0.3413580498844E+00 -0.7463621771999E-01  0.4308813484000E+00
-0.4004982104900E-01 -0.5491297255230E+00 -0.1178359110703E+00  0.4711647635333E+00
-0.5169915527208E-01 -0.7783485032045E+00 -0.1660095341691E+00  0.5202142905350E+00
-0.6983874696638E-01 -0.1030118408785E+01 -0.2199914344285E+00  0.5822150354570E+00
-0.1000363405440E+00 -0.1304258395100E+01 -0.2808589513138E+00  0.6624028235032E+00
-0.1503473553588E+00 -0.1595929116155E+01 -0.3492552995071E+00  0.7645539417250E+00
-0.2263205883040E+00 -0.1893157084780E+01 -0.4238955409333E+00  0.8862616309678E+00
-0.3246140886655E+00 -0.2179939564545E+01 -0.5009107381063E+00  0.1016955196647E+01
-0.4350327852418E+00 -0.2440869606768E+01 -0.5751804869729E+00  0.1143555243165E+01
-0.5466742871147E+00 -0.2658758038878E+01 -0.6410864747514E+00  0.1253092654178E+01
-0.6475961328663E+00 -0.2811869606711E+01 -0.6918931582255E+00  0.1327653765630E+01
-0.7201823213981E+00 -0.2874308370162E+01 -0.7188981490245E+00  0.1340968563305E+01
-0.7314910753964E+00 -0.2812668768359E+01 -0.7088319793135E+00  0.1251047079909E+01
-0.5793693304014E+00 -0.2593910044235E+01 -0.6346558843844E+00  0.9747754069544E+00
 0.7428745771299E-01 -0.2274922857627E+01 -0.4401270865412E+00  0.4104734357754E+00
 0.1883114257300E+01 -0.2109081514952E+01 -0.4519345220397E-01 -0.2458570543482E+00
 0.4988168229176E+01 -0.2072127298728E+01  0.5832081947800E+00 -0.3698336802802E-01
-0.4314900112187E-02 -0.1034239605101E+00 -0.2154777244555E-01  0.2638697087340E+00
-0.2902783774535E-02 -0.1581983626749E+00 -0.3222022977001E-01  0.3666183223350E+00
-0.2420308047435E-01 -0.2553094827345E+00 -0.5590251347478E-01  0.4216980740695E+00
-0.3839944357898E-01 -0.3936960596623E+00 -0.8641910193600E-01  0.4628117212064E+00
-0.4823871590185E-01 -0.5598655474241E+00 -0.1216208544775E+00  0.5055621820863E+00
-0.5948931639764E-01 -0.7469034200304E+00 -0.1612785496888E+00  0.5541686042924E+00
-0.7565913374395E-01 -0.9528473886534E+00 -0.2057013075447E+00  0.6117594623663E+00
-0.1003926662728E+00 -0.1176583595463E+01 -0.2553952561529E+00  0.6824653457371E+00
-0.1391700226030E+00 -0.1415200551959E+01 -0.3108741195447E+00  0.7703363201046E+00
-0.1985312413562E+00 -0.1661535095392E+01 -0.3720132728931E+00  0.8766648077481E+00
-0.2814994960617E+00 -0.1903153636008E+01 -0.4369306329247E+00  0.9963833520799E+00
-0.3826203568340E+00 -0.2125709548480E+01 -0.5016659885382E+00  0.1117073526447E+01
-0.4896701163540E+00 -0.2316666977137E+01 -0.5612674270617E+00  0.1223670134364E+01
-0.5881520539532E+00 -0.2462610451065E+01 -0.6101525100957E+00  0.1300393658006E+01
-0.6603913998688E+00 -0.2546701206884E+01 -0.6414185309084E+00  0.1326491944712E+01
-0.6798244556662E+00 -0.2550089474720E+01 -0.6459827957030E+00  0.1272728418549E+01
-0.5944094596063E+00 -0.2454755770183E+01 -0.6098330550452E+00  0.1095378991187E+01
-0.2735960063274E+00 -0.2266767151451E+01 -0.5080726391266E+00  0.7336639461280E+00
 0.5716004167123E+00 -0.2079727072549E+01 -0.3016253356618E+00  0.1803212315726E+00
 0.2298429163286E+01 -0.2056708387685E+01  0.4834415584060E-01 -0.2943906888621E+00
 0.4748368037116E+01 -0.2068877864594E+01  0.5358980424900E+00 -0.3669696745609E-01
-0.5796135256952E-01 -0.3672082352011E+00 -0.8503391882122E-01  0.2806138571020E+00
-0.3533638036655E-01 -0.4209835640629E+00 -0.9126399024583E-01  0.3938183512784E+00
-0.4482955557954E-01 -0.5052189352998E+00 -0.1100096998151E+00  0.4659502621202E+00
-0.5669091144585E-01 -0.6247150587262E+00 -0.1362811960652E+00  0.5202050707911E+00
-0.6785286994481E-01 -0.7709495080145E+00 -0.1677604780917E+00  0.5721313625745E+00
-0.8199152833349E-01 -0.9368382919538E+00 -0.2037659670938E+00  0.6283517154448E+00
-0.1026812676525E+00 -0.1118675763622E+01 -0.2442714098948E+00  0.6929906751410E+00
-0.1337415596368E+00 -0.1313456436261E+01 -0.2894396034926E+00  0.7699820489118E+00
-0.1800582659144E+00 -0.1516401163639E+01 -0.3392918909665E+00  0.8621521478140E+00
-0.2463471100800E+00 -0.1719255967160E+01 -0.3931206213059E+00  0.9687925218496E+00
-0.3331080850106E+00 -0.1910086978340E+01 -0.4486390193553E+00  0.1082991911027E+01
-0.4327226683421E+00 -0.2076456169457E+01 -0.5018357750378E+00  0.1191250330283E+01
-0.5308245504963E+00 -0.2208566402039E+01 -0.5478781986711E+00  0.1277263762333E+01
-0.6094636423933E+00 -0.2296885909890E+01 -0.5812699191182E+00  0.1323326687123E+01
-0.6456078118967E+00 -0.2330257081943E+01 -0.5951729876368E+00  0.1307097013264E+01
-0.6043927611068E+00 -0.2298686586077E+01 -0.5806158780887E+00  0.1199162309468E+01
-0.4212628890230E+00 -0.2201088757103E+01 -0.5244703370405E+00  0.9624668698633E+00
 0.3426648176651E-01 -0.2068722790933E+01 -0.4068912678964E+00  0.5676878569200E+00
 0.9742958655210E+00 -0.1991258283855E+01 -0.2033924866976E+00  0.6841684155663E-01
 0.2559333163881E+01 -0.2049863002025E+01  0.1018940338896E+00 -0.2698368069623E+00
 0.4544644330754E+01 -0.2091144680228E+01  0.4906999374172E+00 -0.1371964951530E-01
-0.1116422413795E+00 -0.6157336276170E+00 -0.1454751759670E+00  0.2989554545227E+00
-0.7277983550681E-01 -0.6690723569921E+00 -0.1483704407107E+00  0.4187439699715E+00
-0.7098624313526E-01 -0.7439403448444E+00 -0.1629853200246E+00  0.5040834651476E+00
-0.7900075898557E-01 -0.8475033529723E+00 -0.1853008251528E+00  0.5701105493703E+00
-0.9045701142410E-01 -0.9749067501574E+00 -0.2130727554913E+00  0.6306757619173E+00
-0.1070558602550E+00 -0.1119719738216E+01 -0.2453551233502E+00  0.6935659208518E+00
-0.1319531308734E+00 -0.1277169898904E+01 -0.2818246101550E+00  0.7636535222021E+00
-0.1687218577283E+00 -0.1442854862090E+01 -0.3223153487665E+00  0.8446331695266E+00
-0.2212895195774E+00 -0.1610866561095E+01 -0.3664312215947E+00  0.9382536271660E+00
-0.2924047738885E+00 -0.1772710367216E+01 -0.4130230343754E+00  0.1042297131729E+01
-0.3801119468701E+00 -0.1917539881392E+01 -0.4595303724999E+00  0.1148653615496E+01
-0.4746298598580E+00 -0.2035015594018E+01 -0.5019290982545E+00  0.1243319918028E+01
-0.5594108079491E+00 -0.2118096818869E+01 -0.5355015333432E+00  0.1309408273732E+01
-0.6133056713530E+00 -0.2161235542859E+01 -0.5549082511111E+00  0.1328226870125E+01
-0.6086456436415E+00 -0.2159272334803E+01 -0.5535836039379E+00  0.1277241178509E+01
-0.5045106165566E+00 -0.2111341985509E+01 -0.5231705282090E+00  0.1129734680126E+01
-0.2324217383902E+00 -0.2029995137368E+01 -0.4524833818941E+00  0.8599932732517E+00
 0.3211593660404E+00 -0.1956847693932E+01 -0.3271376704530E+00  0.4669151577891E+00
 0.1294590342826E+01 -0.1962058945697E+01 -0.1334937225633E+00  0.3352559508341E-01
 0.2727541840944E+01 -0.2067999634060E+01  0.1319084433423E+00 -0.2118206235118E+00
 0.4374664475529E+01 -0.2126828913880E+01  0.4495671190290E+00  0.2104707866064E-01
-0.1649178101838E+00 -0.8517638971391E+00 -0.2033363444945E+00  0.3182764931828E+00
-0.1136883305085E+00 -0.9046643040039E+00 -0.2036705299374E+00  0.4420892992440E+00
-0.1016031898729E+00 -0.9723131710098E+00 -0.2147832753771E+00  0.5373808648367E+00
-0.1048935153978E+00 -0.1062314282824E+01 -0.2334415631228E+00  0.6133164853809E+00
-0.1156916855719E+00 -0.1172204014631E+01 -0.2575791438788E+00  0.6814599505909E+00
-0.1341317782859E+00 -0.1296428540266E+01 -0.2861120679738E+00  0.7498409398801E+00
-0.1626800869876E+00 -0.1429706974379E+01 -0.3184774170190E+00  0.8237411650479E+00
-0.2043157051727E+00 -0.1566768686117E+01 -0.3542168835362E+00  0.9066077904023E+00
-0.2617574145561E+00 -0.1701183874236E+01 -0.3925882636085E+00  0.9993367556540E+00
-0.3357442191449E+00 -0.1824803687807E+01 -0.4321095878293E+00  0.1098657041624E+01
-0.4219693314458E+00 -0.1928234464855E+01 -0.4700407662644E+00  0.1195785639153E+01
-0.5085431142753E+00 -0.2003360509414E+01 -0.5023807322238E+00  0.1276687200371E+01
-0.5767964037659E+00 -0.2045925344048E+01 -0.5245443573790E+00  0.1324472795762E+01
-0.6027657859810E+00 -0.2054345162777E+01 -0.5314221976704E+00  0.1320356648676E+01
-0.5552347244310E+00 -0.2029282045514E+01 -0.5169033616914E+00  0.1242938168682E+01
-0.3902709816736E+00 -0.1977842044870E+01 -0.4736226123662E+00  0.1070212229526E+01
-0.4248904354200E-01 -0.1921170839468E+01 -0.3927319824542E+00  0.7886991184130E+00
 0.5775209572044E+00 -0.1901154502123E+01 -0.2647267129285E+00  0.4175267375760E+00
 0.1549422774226E+01 -0.1965717303124E+01 -0.8325890702019E-01  0.4870359744520E-01
 0.2841414690447E+01 -0.2104465637890E+01  0.1473898127076E+00 -0.1378187687946E+00
 0.4229814866684E+01 -0.2172639263073E+01  0.4114351268531E+00  0.6026903477110E-01
-0.2175479823449E+00 -0.1077409971058E+01 -0.2589915945398E+00  0.3381034710286E+00
-0.1569340082718E+00 -0.1129676373351E+01 -0.2573220801590E+00  0.4641863732792E+00
-0.1356649998409E+00 -0.1191450052448E+01 -0.2654230144130E+00  0.5667249334630E+00
-0.1337658047535E+00 -0.1269750236575E+01 -0.2807032124485E+00  0.6505407990968E+00
-0.1430751042227E+00 -0.1363483231696E+01 -0.3013116716737E+00  0.7248577935839E+00
-0.1626338949564E+00 -0.1467913259436E+01 -0.3261094357379E+00  0.7973647489175E+00
-0.1941132830617E+00 -0.1577645470525E+01 -0.3543517559977E+00  0.8734499782690E+00
-0.2396565485465E+00 -0.1687014141133E+01 -0.3853341436779E+00  0.9563235867170E+00
-0.3006182277037E+00 -0.1789550527907E+01 -0.4180337573514E+00  0.1046271313798E+01
-0.3757484119517E+00 -0.1877853234983E+01 -0.4507203361033E+00  0.1139375168904E+01
-0.4585193343257E+00 -0.1944198615018E+01 -0.4805435970293E+00  0.1226617172143E+01
-0.5350364068398E+00 -0.1982752055748E+01 -0.5035577000212E+00  0.1294326005741E+01
-0.5846603583812E+00 -0.1992015150046E+01 -0.5153351093646E+00  0.1326118511944E+01
-0.5811171066575E+00 -0.1974187902601E+01 -0.5110610094671E+00  0.1303893089134E+01
-0.4909523709569E+00 -0.1935130989807E+01 -0.4852166793830E+00  0.1208406002754E+01
-0.2701219541989E+00 -0.1887974645240E+01 -0.4316193263193E+00  0.1023232254323E+01
 0.1390878751728E+00 -0.1857836102683E+01 -0.3437496506243E+00  0.7455652355922E+00
 0.8014959240547E+00 -0.1881414140695E+01 -0.2159836465465E+00  0.4067422787011E+00
 0.1752189894188E+01 -0.1987420950444E+01 -0.4704621195224E-01  0.9559191400646E-01
 0.2928717546273E+01 -0.2150140969857E+01  0.1557153176036E+00 -0.5018675893842E-01
 0.4094416706657E+01 -0.2239375725912E+01  0.3710082016775E+00  0.9319509022429E-01
-0.2694317156188E+00 -0.1294346452985E+01 -0.3127556383812E+00  0.3581077871511E+00
-0.2016476732466E+00 -0.1345627556253E+01 -0.3094550505111E+00  0.4851851964956E+00
-0.1722208177434E+00 -0.1402316305426E+01 -0.3149074293264E+00  0.5927178024046E+00
-0.1648877828727E+00 -0.1470305621131E+01 -0.3270386856740E+00  0.6823716043723E+00
-0.1719810627437E+00 -0.1549137711439E+01 -0.3442237599659E+00  0.7612422403749E+00
-0.1918778001270E+00 -0.1634734920062E+01 -0.3653225494816E+00  0.8363678927214E+00
-0.2254573315365E+00 -0.1721847203522E+01 -0.3894609128152E+00  0.9130321859637E+00
-0.2738885126643E+00 -0.1804798162212E+01 -0.4157373411702E+00  0.9942414588492E+00
-0.3370905796079E+00 -0.1877450888367E+01 -0.4429083001947E+00  0.1079908327868E+01
-0.4118996181484E+00 -0.1933416834975E+01 -0.4690632976144E+00  0.1165826117502E+01
-0.4897317913912E+00 -0.1966746125314E+01 -0.4912955906619E+00  0.1243112379982E+01
-0.5548500057855E+00 -0.1973863346264E+01 -0.5057426779461E+00  0.1298790490007E+01
-0.5848859389945E+00 -0.1955905169375E+01 -0.5081582292461E+00  0.1317399868221E+01
-0.5518521035062E+00 -0.1918490623096E+01 -0.4940685526825E+00  0.1282122789305E+01
-0.4213585183992E+00 -0.1871729432344E+01 -0.4586175969826E+00  0.1176454492136E+01
-0.1515239422282E+00 -0.1832665907695E+01 -0.3968379758979E+00  0.9893905470466E+00
 0.3056426906405E+00 -0.1826965989763E+01 -0.3042646643584E+00  0.7261253690397E+00
 0.9926846069628E+00 -0.1884078762218E+01 -0.1782788337076E+00  0.4236690746362E+00
 0.1914778918245E+01 -0.2017897901041E+01 -0.2062379686650E-01  0.1617019565132E+00
 0.2991065616707E+01 -0.2195738784374E+01  0.1590653688369E+00  0.4621274155717E-01
 0.4026457783484E+01 -0.2319090805689E+01  0.3414734006474E+00  0.1369438530181E+00
-0.3204426630429E+00 -0.1503989177294E+01 -0.3648863735046E+00  0.3779735125364E+00
-0.2471692129466E+00 -0.1553991635260E+01 -0.3602321750091E+00  0.5051373709774E+00
-0.2104437507452E+00 -0.1606132766584E+01 -0.3633153088797E+00  0.6157835900314E+00
-0.1975516750155E+00 -0.1664927760626E+01 -0.3724958926790E+00  0.7093380452307E+00
-0.2018007084666E+00 -0.1730050670230E+01 -0.3863702814967E+00  0.7910803962427E+00
-0.2212652084508E+00 -0.1797904572338E+01 -0.4038339621754E+00  0.8672838852510E+00
-0.2561004190806E+00 -0.1863539081848E+01 -0.4239279065028E+00  0.9430115394872E+00
-0.3064466838936E+00 -0.1921551838028E+01 -0.4455997110243E+00  0.1021118627690E+01
-0.3707800434551E+00 -0.1966404037739E+01 -0.4674368232041E+00  0.1101357320643E+01
-0.4441264935717E+00 -0.1992879881635E+01 -0.4874012823043E+00  0.1179533234195E+01
-0.5160211580991E+00 -0.1996822078174E+01 -0.5025686547435E+00  0.1247201649492E+01
-0.5690701997261E+00 -0.1976829344208E+01 -0.5091799163743E+00  0.1292344768035E+01
-0.5794537579493E+00 -0.1936480436503E+01 -0.5031868463886E+00  0.1300742621232E+01
-0.5180579772681E+00 -0.1884342162177E+01 -0.4804800350488E+00  0.1257257162300E+01
-0.3506569454500E+00 -0.1833740669399E+01 -0.4368795294799E+00  0.1148292717039E+01
-0.3896293618470E-01 -0.1803808078517E+01 -0.3685542084323E+00  0.9674847753145E+00
 0.4547897883605E+00 -0.1818644073046E+01 -0.2727708610017E+00  0.7252519642930E+00
 0.1154878598243E+01 -0.1900189893575E+01 -0.1490622612877E+00  0.4596156318679E+00
 0.2045440035535E+01 -0.2051669537800E+01 -0.1245900471697E-02  0.2393530343283E+00
 0.3041584858334E+01 -0.2237072840155E+01  0.1609024060335E+00  0.1434759169052E+00
 0.3979534633068E+01 -0.2381666213139E+01  0.3195736887478E+00  0.2132499855798E+00
-0.3706158297568E+00 -0.1707612180381E+01 -0.4156456082212E+00  0.3975676021585E+00
-0.2930364578769E+00 -0.1756236843577E+01 -0.4098546663981E+00  0.5241356318463E+00
-0.2496773134703E+00 -0.1804334183585E+01 -0.4108023055324E+00  0.6363248964842E+00
-0.2311368964813E+00 -0.1854950571779E+01 -0.4172174998692E+00  0.7319933391483E+00
-0.2319901947756E+00 -0.1907553447949E+01 -0.4279087349213E+00  0.8149465926100E+00
-0.2502958318157E+00 -0.1958862974578E+01 -0.4418317678626E+00  0.8907075699116E+00
-0.2855863559279E+00 -0.2004307961451E+01 -0.4579788703002E+00  0.9640825157178E+00
-0.3369800023490E+00 -0.2038951661981E+01 -0.4751863399467E+00  0.1037842922089E+01
-0.4015450201957E+00 -0.2058027322131E+01 -0.4919144757954E+00  0.1111763555236E+01
-0.4726138930867E+00 -0.2057570391991E+01 -0.5060368645561E+00  0.1181909010663E+01
-0.5380109874229E+00 -0.2035176967117E+01 -0.5146375985767E+00  0.1240515185382E+01
-0.5788715157535E+00 -0.1991496058435E+01 -0.5140735224980E+00  0.1276727860123E+01
-0.5701942010602E+00 -0.1932316770885E+01 -0.5005022018472E+00  0.1277794601281E+01
-0.4822463205633E+00 -0.1868657563572E+01 -0.4701807838333E+00  0.1230475417864E+01
-0.2817589581529E+00 -0.1816122805738E+01 -0.4195763590304E+00  0.1123961745365E+01
 0.6521374121466E-01 -0.1794586140899E+01 -0.3458744850908E+00  0.9554961889539E+00
 0.5867967136051E+00 -0.1825476892880E+01 -0.2477360395465E+00  0.7382896912998E+00
 0.1292467067084E+01 -0.1923929756800E+01 -0.1262925398252E+00  0.5084326753478E+00
 0.2153074055086E+01 -0.2085358191799E+01  0.1354317285924E-01  0.3231584948339E+00
 0.3082945490045E+01 -0.2273477414632E+01  0.1618936174949E+00  0.2415640618629E+00
 0.3949438599044E+01 -0.2424222425845E+01  0.3050432391854E+00  0.2863222362707E+00
-0.4199644849818E+00 -0.1906302994857E+01 -0.4652535029005E+00  0.4167913385086E+00
-0.3388476385131E+00 -0.1953537295973E+01 -0.4584769937290E+00  0.5422376963397E+00
-0.2893027854039E+00 -0.1998034470110E+01 -0.4574674579195E+00  0.6546273373957E+00
-0.2650010985838E+00 -0.2041362403044E+01 -0.4612727071990E+00  0.7507598073834E+00
-0.2619512428014E+00 -0.2082568068177E+01 -0.4689038691829E+00  0.8333037844393E+00
-0.2784154866900E+00 -0.2118557404692E+01 -0.4793945854200E+00  0.9071314764189E+00
-0.3134166294264E+00 -0.2145173950395E+01 -0.4917181232915E+00  0.9768205542423E+00
-0.3650989502505E+00 -0.2158067805778E+01 -0.5046333587253E+00  0.1045140481194E+01
-0.4291934271752E+00 -0.2153346018748E+01 -0.5165078968812E+00  0.1112047773981E+01
-0.4974717205888E+00 -0.2128309992668E+01 -0.5251563504767E+00  0.1174068702762E+01
-0.5562226286517E+00 -0.2082220230898E+01 -0.5276885797732E+00  0.1224312970773E+01
-0.5853011223982E+00 -0.2017612470400E+01 -0.5205827263170E+00  0.1253240399003E+01
-0.5587821164502E+00 -0.1942218195002E+01 -0.5002000697439E+00  0.1249707484180E+01
-0.4467204062414E+00 -0.1869009654397E+01 -0.4631460190292E+00  0.1202437368045E+01
-0.2173046511617E+00 -0.1815071847588E+01 -0.4064753058068E+00  0.1103087209629E+01
 0.1589080041958E+00 -0.1800102246187E+01 -0.3282388532895E+00  0.9513968022009E+00
 0.7014640065978E+00 -0.1842470750535E+01 -0.2282013521879E+00  0.7614061947347E+00
 0.1408499793040E+01 -0.1951495375415E+01 -0.1085991180932E+00  0.5653679328563E+00
 0.2242154919269E+01 -0.2117257498412E+01  0.2497948454353E-01  0.4096585618551E+00
 0.3120405621753E+01 -0.2303973143132E+01  0.1632864981572E+00  0.3371640836489E+00
 0.3932716587363E+01 -0.2458525994863E+01  0.2948381228936E+00  0.3604074119974E+00
-0.4685177711204E+00 -0.2101037513717E+01 -0.5139110646254E+00  0.4356053068428E+00
-0.3842748640046E+00 -0.2146961269447E+01 -0.5062472342341E+00  0.5595153894016E+00
-0.3287748518666E+00 -0.2188284760954E+01 -0.5034119300656E+00  0.6709432765711E+00
-0.2985423617800E+00 -0.2225132086936E+01 -0.5047348972642E+00  0.7660231204630E+00
-0.2911076096071E+00 -0.2256001861785E+01 -0.5094219018693E+00  0.8466057088741E+00
-0.3051002150708E+00 -0.2277889223011E+01 -0.5165978953143E+00  0.9170637442683E+00
-0.3391443529923E+00 -0.2287062642371E+01 -0.5252414068993E+00  0.9818203576760E+00
-0.3904840459305E+00 -0.2279826291418E+01 -0.5340620754278E+00  0.1043733513921E+01
-0.4536077236975E+00 -0.2253203947401E+01 -0.5413623422866E+00  0.1103077194999E+01
-0.5188698328487E+00 -0.2205725843291E+01 -0.5449191433478E+00  0.1157001535164E+01
-0.5711995591075E+00 -0.2138188220545E+01 -0.5418775640050E+00  0.1199637570551E+01
-0.5893576211082E+00 -0.2054820726007E+01 -0.5288356773032E+00  0.1222859615132E+01
-0.5467204171022E+00 -0.1965013205900E+01 -0.5023467320861E+00  0.1217200695860E+01
-0.4134176724599E+00 -0.1883231719386E+01 -0.4593298852137E+00  0.1173300213664E+01
-0.1593158551334E+00 -0.1827420100128E+01 -0.3973471969733E+00  0.1084857215160E+01
 0.2407627695248E+00 -0.1816564402960E+01 -0.3151603313834E+00  0.9530729690672E+00
 0.7991525694985E+00 -0.1866023665118E+01 -0.2133742223034E+00  0.7912948859398E+00
 0.1505458893342E+01 -0.1980430956246E+01 -0.9499441399633E-01  0.6268954782262E+00
 0.2316681621672E+01 -0.2146241833194E+01  0.3408795820343E-01  0.4962120885773E+00
 0.3155562076667E+01 -0.2329362071348E+01  0.1652400035260E+00  0.4299159503493E+00
 0.3927056043640E+01 -0.2485133267027E+01  0.2883845596198E+00  0.4350403800317E+00
-0.5163148571488E+00 -0.2292703692795E+01 -0.5618037183603E+00  0.4540216777955E+00
-0.4290452333827E+00 -0.2337487556393E+01 -0.5533065662000E+00  0.5760613618035E+00
-0.3676098520118E+00 -0.2376071527155E+01 -0.5487362840102E+00  0.6855081237145E+00
-0.3312012515808E+00 -0.2407190888863E+01 -0.5476784362498E+00  0.7781415423839E+00
-0.3189125669267E+00 -0.2428727475920E+01 -0.5495280167580E+00  0.8552921627306E+00
-0.3298595792671E+00 -0.2437701649167E+01 -0.5535122539348E+00  0.9210138218678E+00
-0.3623687138243E+00 -0.2430805083361E+01 -0.5586347677614E+00  0.9796783814257E+00
-0.4128701251637E+00 -0.2405023952642E+01 -0.5635788239592E+00  0.1034325037407E+01
-0.4747195172560E+00 -0.2358295047414E+01 -0.5666029213770E+00  0.1085657349273E+01
-0.5370042147573E+00 -0.2290298444966E+01 -0.5654605403706E+00  0.1131573983697E+01
-0.5834671214970E+00 -0.2203206296698E+01 -0.5573346919439E+00  0.1167333373280E+01
-0.5919487762718E+00 -0.2102729738565E+01 -0.5389357109980E+00  0.1186281044006E+01
-0.5353095316152E+00 -0.1999633482847E+01 -0.5069886104472E+00  0.1180636955491E+01
-0.3839193397267E+00 -0.1909477260250E+01 -0.4586793268302E+00  0.1142840717614E+01
-0.1093113312353E+00 -0.1850620525335E+01 -0.3919863771552E+00  0.1068188367977E+01
 0.3099499341363E+00 -0.1841100244206E+01 -0.3062300665772E+00  0.9584483890296E+00
 0.8804064064377E+00 -0.1893594423925E+01 -0.2026376065170E+00  0.8251723713752E+00
 0.1585480761611E+01 -0.2009102424003E+01 -0.8472433374074E-01  0.6902993880519E+00
 0.2379337884453E+01 -0.2171805656797E+01  0.4150644614969E-01  0.5812016501500E+00
 0.3189185286827E+01 -0.2349550192042E+01  0.1679270214593E+00  0.5194329452553E+00
 0.3930950346392E+01 -0.2503768250267E+01  0.2854364234783E+00  0.5090012085613E+00
-0.5634011204943E+00 -0.2482118374927E+01 -0.6091039081606E+00  0.4720977787092E+00
-0.4729271252471E+00 -0.2526018935800E+01 -0.5997892211469E+00  0.5919916271378E+00
-0.4053749540109E+00 -0.2562317579458E+01 -0.5935385155383E+00  0.6985498105056E+00
-0.3624593763215E+00 -0.2588421422667E+01 -0.5901761685920E+00  0.7874514639039E+00
-0.3448522885442E+00 -0.2601568510981E+01 -0.5892841686861E+00  0.8597851879525E+00
-0.3522378138887E+00 -0.2598770537982E+01 -0.5902016791688E+00  0.9194817400732E+00
-0.3827294692868E+00 -0.2577138550685E+01 -0.5919736128154E+00  0.9709804471117E+00
-0.4320326892661E+00 -0.2534341865653E+01 -0.5932749198244E+00  0.1017589805408E+01
-0.4924880784125E+00 -0.2469190560249E+01 -0.5923357365589E+00  0.1060530534800E+01
-0.5520689026322E+00 -0.2382402101453E+01 -0.5868942095625E+00  0.1098539419931E+01
-0.5935001905141E+00 -0.2277340627333E+01 -0.5741681721252E+00  0.1128071266124E+01
-0.5938607611634E+00 -0.2160974531115E+01 -0.5509670666657E+00  0.1143963505071E+01
-0.5256315459555E+00 -0.2045170951134E+01 -0.5141605070794E+00  0.1140094257373E+01
-0.3594782724747E+00 -0.1946250499156E+01 -0.4611457611977E+00  0.1110557861555E+01
-0.6840638488048E-01 -0.1882702381457E+01 -0.3902217590823E+00  0.1051837170217E+01
 0.3659752345865E+00 -0.1871600230407E+01 -0.3011250036512E+00  0.9655508157595E+00
 0.9458086975956E+00 -0.1923418156473E+01 -0.1955218946889E+00  0.8606818408207E+00
 0.1650221981407E+01 -0.2036476734689E+01 -0.7725095180742E-01  0.7535149149201E+00
 0.2431913564143E+01 -0.2193591337269E+01  0.4766444608522E-01  0.6634926859079E+00
 0.3221731674509E+01 -0.2364280242835E+01  0.1714902888901E+00  0.6051951748388E+00
 0.3943244346257E+01 -0.2514173438714E+01  0.2858141857676E+00  0.5809838140208E+00
-0.6098256273363E+00 -0.2670040251494E+01 -0.6559731855409E+00  0.4899308352597E+00
-0.5157197558310E+00 -0.2713393541746E+01 -0.6458226691389E+00  0.6074457196143E+00
-0.4416782267259E+00 -0.2747885033209E+01 -0.6379126614926E+00  0.7102935048522E+00
-0.3918357884430E+00 -0.2769651223338E+01 -0.6322974117782E+00  0.7942698297827E+00
-0.3684465538035E+00 -0.2775289356205E+01 -0.6287471913707E+00  0.8604854270861E+00
-0.3718137052089E+00 -0.2761797325917E+01 -0.6267222155640E+00  0.9129500901699E+00
-0.3999020784011E+00 -0.2726707381355E+01 -0.6253219012692E+00  0.9562935921562E+00
-0.4477766640486E+00 -0.2668356614961E+01 -0.6232266650887E+00  0.9941703316086E+00
-0.5068828504926E+00 -0.2586361586685E+01 -0.6186488966542E+00  0.1028379629429E+01
-0.5642334339239E+00 -0.2482338181418E+01 -0.6093143321479E+00  0.1058552799517E+01
-0.6016981921940E+00 -0.2360640097472E+01 -0.5924676667616E+00  0.1082377276845E+01
-0.5957366756443E+00 -0.2229262226395E+01 -0.5649997888271E+00  0.1096175099907E+01
-0.5185452538620E+00 -0.2100917297606E+01 -0.5238925181002E+00  0.1095431878901E+01
-0.3410508056787E+00 -0.1992416744189E+01 -0.4666935169277E+00  0.1075753886420E+01
-0.3740303822833E-01 -0.1922221045921E+01 -0.3919248226701E+00  0.1034473714740E+01
 0.4085468564752E+00 -0.1906581275150E+01 -0.2996068881995E+00  0.9725252973816E+00
 0.9958628042170E+00 -0.1954321397268E+01 -0.1916917214666E+00  0.8958112890864E+00
 0.1700876629512E+01 -0.2061911355659E+01 -0.7220694630547E-01  0.8149218994230E+00
 0.2475587843626E+01 -0.2211357530050E+01  0.5284606350260E-01  0.7421972469414E+00
 0.3253474963928E+01 -0.2373371928945E+01  0.1760206096196E+00  0.6866327545075E+00
 0.3963102579919E+01 -0.2516245149717E+01  0.2893714903524E+00  0.6497150511493E+00
-0.6556393888303E+00 -0.2857180770349E+01 -0.7025640423049E+00  0.5076536787925E+00
-0.5572446859979E+00 -0.2900395059890E+01 -0.6915279594822E+00  0.6225854680112E+00
-0.4761592957876E+00 -0.2933579568874E+01 -0.6819477830941E+00  0.7209629022727E+00
-0.4188820550771E+00 -0.2951649347774E+01 -0.6741062906151E+00  0.7988938735855E+00
-0.3892478253955E+00 -0.2950587732803E+01 -0.6679671215932E+00  0.8577681504219E+00
-0.3881999808326E+00 -0.2927403081304E+01 -0.6631206223086E+00  0.9018779073401E+00
-0.4135939432346E+00 -0.2880062991031E+01 -0.6587313966691E+00  0.9361612925714E+00
-0.4599277901866E+00 -0.2807548744909E+01 -0.6534953167569E+00  0.9646770343975E+00
-0.5178699346544E+00 -0.2710196681683E+01 -0.6456133328879E+00  0.9898361925303E+00
-0.5736255479620E+00 -0.2590361181491E+01 -0.6327973553199E+00  0.1012189279017E+01
-0.6083665894355E+00 -0.2453168707119E+01 -0.6123070684349E+00  0.1030663935410E+01
-0.5980624027324E+00 -0.2307406159035E+01 -0.5810937210125E+00  0.1043038915381E+01
-0.5146869805311E+00 -0.2166389794639E+01 -0.5362153630243E+00  0.1046349221207E+01
-0.3293277723221E+00 -0.2047202172754E+01 -0.4753059960979E+00  0.1037597216387E+01
-0.1686049546208E-01 -0.1968209729052E+01 -0.3970140508188E+00  0.1014724656731E+01
 0.4374803533686E+00 -0.1945083961198E+01 -0.3015207260589E+00  0.9776230436438E+00
 0.1030924504676E+01 -0.1985585482965E+01 -0.1909321985028E+00  0.9288030908784E+00
 0.1738223552645E+01 -0.2085045350749E+01 -0.6936436065431E-01  0.8731875327012E+00
 0.2511088382308E+01 -0.2224992769169E+01  0.5721912348046E-01  0.8165719896875E+00
 0.3284571273021E+01 -0.2376784723085E+01  0.1815573126927E+00  0.7631773587011E+00
 0.3989984301865E+01 -0.2510069590193E+01  0.2959829467448E+00  0.7139936714087E+00
-0.7008940626827E+00 -0.3044214257594E+01 -0.7490216752166E+00  0.5254312898474E+00
-0.5973383272745E+00 -0.3087762633616E+01 -0.7370202031605E+00  0.6375929349385E+00
-0.5084802011117E+00 -0.3120155768821E+01 -0.7257272048008E+00  0.7307788950804E+00
-0.4431765094036E+00 -0.3135124957970E+01 -0.7156603041389E+00  0.8015983977949E+00
-0.4068395543004E+00 -0.3128088814690E+01 -0.7069856843330E+00  0.8519785656525E+00
-0.4010429336160E+00 -0.3096122813337E+01 -0.6994331598129E+00  0.8866957865622E+00
-0.4235422137199E+00 -0.3037662517254E+01 -0.6922409565100E+00  0.9111012879269E+00
-0.4683268448941E+00 -0.2952308074380E+01 -0.6841269940492E+00  0.9296916400446E+00
-0.5254025375801E+00 -0.2841014415586E+01 -0.6732834006659E+00  0.9454919048547E+00
-0.5803188490065E+00 -0.2706697777209E+01 -0.6574033350391E+00  0.9599657502988E+00
-0.6137040277665E+00 -0.2555029080548E+01 -0.6337466311066E+00  0.9732633652287E+00
-0.6011577620606E+00 -0.2395349712654E+01 -0.5993015038732E+00  0.9845776364257E+00
-0.5144737426000E+00 -0.2241347380596E+01 -0.5511642328522E+00  0.9924380617645E+00
-0.3247596380868E+00 -0.2110189063907E+01 -0.4869897476555E+00  0.9951705856193E+00
-0.7146358705930E-02 -0.2020140707235E+01 -0.4054574192299E+00  0.9911956794357E+00
 0.4526352483054E+00 -0.1986598223069E+01 -0.3067925995242E+00  0.9791740805130E+00
 0.1051167208334E+01 -0.2016857738204E+01 -0.1931381088520E+00  0.9580672590144E+00
 0.1762665901175E+01 -0.2105744305854E+01 -0.6861568195835E-01  0.9271547850098E+00
 0.2538779774507E+01 -0.2234520700742E+01  0.6085181565975E-01  0.8859651220498E+00
 0.3315088710679E+01 -0.2374630701968E+01  0.1880916045450E+00  0.8342919395355E+00
 0.4023631140010E+01 -0.2495920138177E+01  0.3055422049197E+00  0.7727066163611E+00
-0.7456408782026E+00 -0.3231788245314E+01 -0.7954858365569E+00  0.5434581324770E+00
-0.6358446842709E+00 -0.3276201246120E+01 -0.7824091977369E+00  0.6526678004451E+00
-0.5383160163564E+00 -0.3308323473870E+01 -0.7693279095092E+00  0.7399559960327E+00
-0.4643179705126E+00 -0.3320727061240E+01 -0.7570090176308E+00  0.8026306226950E+00
-0.4208343909777E+00 -0.3308339881356E+01 -0.7458348655805E+00  0.8434260414946E+00
-0.4100229143409E+00 -0.3268399183615E+01 -0.7356844305537E+00  0.8678016619090E+00
-0.4295135464859E+00 -0.3199865523098E+01 -0.7258758247331E+00  0.8816053464319E+00
-0.4728268346396E+00 -0.3102935573711E+01 -0.7151524923267E+00  0.8897730957560E+00
-0.5294153174678E+00 -0.2979070823893E+01 -0.7016972387283E+00  0.8959125171975E+00
-0.5843251385450E+00 -0.2831559016491E+01 -0.6831768411874E+00  0.9023644471631E+00
-0.6177943868887E+00 -0.2666377632145E+01 -0.6568344135944E+00  0.9104614088754E+00
-0.6051713843698E+00 -0.2493181333977E+01 -0.6196705529032E+00  0.9207569923038E+00
-0.5181060629244E+00 -0.2325799925593E+01 -0.5687812061790E+00  0.9332296248943E+00
-0.3275731712465E+00 -0.2181311008376E+01 -0.5017768434015E+00  0.9475087708934E+00
-0.8468837098031E-02 -0.2077898989542E+01 -0.4172735715459E+00  0.9624806161425E+00
 0.4538777280135E+00 -0.2031016232549E+01 -0.3154277056073E+00  0.9755509298125E+00
 0.1056564937654E+01 -0.2048100304997E+01 -0.1983070764236E+00  0.9821022876714E+00
 0.1774255130697E+01 -0.2124072112037E+01 -0.6996339731037E-01  0.9757584809066E+00
 0.2558705694210E+01 -0.2240098756897E+01  0.6372138841219E-01  0.9497821517748E+00
 0.3345016007590E+01 -0.2367170430999E+01  0.1955691182323E+00  0.8994874919443E+00
 0.4064047572775E+01 -0.2474246516942E+01  0.3179602159046E+00  0.8248428256411E+00
-0.7899295943285E+00 -0.3420534895218E+01 -0.8420929104574E+00  0.5619562829019E+00
-0.6726076326222E+00 -0.3466393316940E+01 -0.8278002022476E+00  0.6680242765153E+00
-0.5653447289731E+00 -0.3498755208236E+01 -0.8128199995538E+00  0.7486965290044E+00
-0.4819190875245E+00 -0.3509044714761E+01 -0.7981927723512E+00  0.8022023903766E+00
-0.4308728863314E+00 -0.3491804533429E+01 -0.7845354956426E+00  0.8323768539258E+00
-0.4148562769315E+00 -0.3444574813281E+01 -0.7718862295445E+00  0.8455567728007E+00
-0.4313061695687E+00 -0.3366928266739E+01 -0.7596468985811E+00  0.8481404222621E+00
-0.4732932612927E+00 -0.3259641583169E+01 -0.7465869800173E+00  0.8454653490516E+00
-0.5298225458672E+00 -0.3124561725922E+01 -0.7308768652488E+00  0.8416535783585E+00
-0.5855911598046E+00 -0.2965145814636E+01 -0.7101474054702E+00  0.8398579043832E+00
-0.6206031806671E+00 -0.2787431841116E+01 -0.6816070145133E+00  0.8425323459080E+00
-0.6100782083886E+00 -0.2601141767951E+01 -0.6422440048381E+00  0.8515284114331E+00
-0.5255687648718E+00 -0.2420012679944E+01 -0.5891162977417E+00  0.8682385241210E+00
-0.3377781940397E+00 -0.2260850701224E+01 -0.5197257867973E+00  0.8936303463454E+00
-0.2089035794599E-01 -0.2141769997478E+01 -0.4325320775300E+00  0.9271631738161E+00
 0.4410648224338E+00 -0.2078610769558E+01 -0.3275091943051E+00  0.9651282035883E+00
 0.1046885076262E+01 -0.2079567918973E+01 -0.2065365716198E+00  0.9994216073947E+00
 0.1772698537195E+01 -0.2140279317089E+01 -0.7351615707411E-01  0.1017954932635E+01
 0.2570597626617E+01 -0.2242014747920E+01  0.6571657671854E-01  0.1007457294674E+01
 0.3374252001876E+01 -0.2354804388722E+01  0.2038895256691E+00  0.9583332083358E+00
 0.4111474256927E+01 -0.2445660444014E+01  0.3331627675472E+00  0.8695055249219E+00
-0.8338073154333E+00 -0.3611084451940E+01 -0.8889783667215E+00  0.5811744326376E+00
-0.7074620031579E+00 -0.3659012326657E+01 -0.8732948789761E+00  0.6838874954639E+00
-0.5892358112079E+00 -0.3692094811356E+01 -0.8562661372722E+00  0.7571822738136E+00
-0.4955994150150E+00 -0.3700607071107E+01 -0.8392413097302E+00  0.8004792784421E+00
-0.4366232521941E+00 -0.3678855569993E+01 -0.8230957767026E+00  0.8190450446878E+00
-0.4152993470451E+00 -0.3624882490786E+01 -0.8080363796069E+00  0.8202814462308E+00
-0.4287545740546E+00 -0.3538995200091E+01 -0.7935499666539E+00  0.8111507746777E+00
-0.4696075269301E+00 -0.3422540320275E+01 -0.7784295810405E+00  0.7973064342734E+00
-0.5265199883072E+00 -0.3277620033425E+01 -0.7608280156836E+00  0.7832772659738E+00
-0.5839995656133E+00 -0.3107647984266E+01 -0.7383295209778E+00  0.7729346000028E+00
-0.6219780047149E+00 -0.2918469996596E+01 -0.7080896108135E+00  0.7697738622370E+00
-0.6156790846067E+00 -0.2719624119312E+01 -0.6670606507238E+00  0.7768714744152E+00
-0.5366289968766E+00 -0.2524506884522E+01 -0.6122271854025E+00  0.7970058801332E+00
-0.3551637475663E+00 -0.2349441502083E+01 -0.5409210579903E+00  0.8325677955173E+00
-0.4432286793833E-01 -0.2212441943214E+01 -0.4513529689561E+00  0.8838164823972E+00
 0.4140477476589E+00 -0.2130037712759E+01 -0.3431979981340E+00  0.9462410303054E+00
 0.1021687704658E+01 -0.2111810257152E+01 -0.2180245137475E+00  0.1008481874934E+01
 0.1757351308656E+01 -0.2154804979424E+01 -0.7949073533811E-01  0.1052654750717E+01
 0.2573855573025E+01 -0.2240684950345E+01  0.6663412552882E-01  0.1058423674221E+01
 0.3402576044348E+01 -0.2338063794393E+01  0.2129024531634E+00  0.1010461866082E+01
 0.4166355872001E+01 -0.2410919633384E+01  0.3510872529549E+00  0.9059217125882E+00
-0.8773169511210E+00 -0.3804081826908E+01 -0.9362797695575E+00  0.6013879122992E+00
-0.7402225955780E+00 -0.3854739400846E+01 -0.9189924129788E+00  0.7004891501770E+00
-0.6096367986277E+00 -0.3888967386122E+01 -0.8997208503567E+00  0.7655628799397E+00
-0.5049783350763E+00 -0.3895882492162E+01 -0.8801721785632E+00  0.7975659173383E+00
-0.4377828028255E+00 -0.3869765500040E+01 -0.8615096734106E+00  0.8035809735429E+00
-0.4111549919933E+00 -0.3809432559577E+01 -0.8441175228924E+00  0.7922504570455E+00
-0.4217371111663E+00 -0.3716087397621E+01 -0.8275649140891E+00  0.7710607579916E+00
-0.4616734863742E+00 -0.3591640659691E+01 -0.8106628412928E+00  0.7458384101160E+00
-0.5193903765953E+00 -0.3438308172748E+01 -0.7915397216635E+00  0.7213697205302E+00
-0.5793739821040E+00 -0.3259236969108E+01 -0.7677222016823E+00  0.7021246752095E+00
-0.6216529991943E+00 -0.3059823539478E+01 -0.7362953187061E+00  0.6925419950766E+00
-0.6216025715267E+00 -0.2849166740695E+01 -0.6941538727879E+00  0.6968368415613E+00
-0.5508316145239E+00 -0.2640056387357E+01 -0.6381776098859E+00  0.7191440150714E+00
-0.3792836685387E+00 -0.2448072566919E+01 -0.5654712555178E+00  0.7634003663735E+00
-0.7850463250104E-01 -0.2291022833134E+01 -0.4739055001888E+00  0.8310054774448E+00
 0.3726945819721E+00 -0.2186362430474E+01 -0.3627335751056E+00  0.9171444664077E+00
 0.9803318009546E+00 -0.2145698331988E+01 -0.2330733096797E+00  0.1007608999344E+01
 0.1727194296619E+01 -0.2168292678768E+01 -0.8821967774432E-01  0.1078650332989E+01
 0.2567501933806E+01 -0.2236656381287E+01  0.6616911148975E-01  0.1102076815026E+01
 0.3429597938336E+01 -0.2317602549494E+01  0.2223990810824E+00  0.1055569904530E+01
 0.4229305271899E+01 -0.2370911100209E+01  0.3716788398765E+00  0.9334472000603E+00
-0.9204950274493E+00 -0.4000207754566E+01 -0.9841405710679E+00  0.6228999626208E+00
-0.7706699798697E+00 -0.4054284037945E+01 -0.9649908179425E+00  0.7180619447782E+00
-0.6261570583071E+00 -0.4089990630022E+01 -0.9432295517210E+00  0.7739398970237E+00
-0.5096680530521E+00 -0.4095275730387E+01 -0.9209887704116E+00  0.7934865202872E+00
-0.4340818500999E+00 -0.4064693545347E+01 -0.8997550924968E+00  0.7860571838281E+00
-0.4022824090586E+00 -0.3998196869076E+01 -0.8800958687414E+00  0.7616878991157E+00
-0.4101867237474E+00 -0.3898087829577E+01 -0.8616549235046E+00  0.7282781180011E+00
-0.4494270902847E+00 -0.3766833372994E+01 -0.8432521052211E+00  0.6916177443622E+00
-0.5083123078025E+00 -0.3606605906692E+01 -0.8229836551623E+00  0.6565582864609E+00
-0.5714880902215E+00 -0.3420052559399E+01 -0.7983081418198E+00  0.6280250749428E+00
-0.6192575498852E+00 -0.3211862081462E+01 -0.7662239376871E+00  0.6112856395189E+00
-0.6273096072479E+00 -0.2990438526728E+01 -0.7235496375770E+00  0.6115901002270E+00
-0.5674929563215E+00 -0.2767679124814E+01 -0.6670344261668E+00  0.6343848952379E+00
-0.4094322954513E+00 -0.2558096028862E+01 -0.5935056737066E+00  0.6852940607700E+00
-0.1229577925829E+00 -0.2379071378960E+01 -0.5004058417652E+00  0.7672974811260E+00
 0.3169349812939E+00 -0.2249111350859E+01 -0.3864352796713E+00  0.8759764641420E+00
 0.9219916604092E+00 -0.2182477945796E+01 -0.2520972608339E+00  0.9949181351202E+00
 0.1680798800493E+01 -0.2181624146856E+01 -0.1001650707652E+00  0.1094529823873E+01
 0.2550106968831E+01 -0.2230616032932E+01  0.6389818813188E-01  0.1137725678959E+01
 0.3454684308785E+01 -0.2294192050701E+01  0.2320984550755E+00  0.1093410079776E+01
 0.4301064256749E+01 -0.2326633777931E+01  0.3948861016478E+00  0.9515661579070E+00
-0.9633684199202E+00 -0.4200206536275E+01 -0.1032715006628E+01  0.6460445952866E+00
-0.7985315046292E+00 -0.4258410500532E+01 -0.1011388416103E+01  0.7368320721883E+00
-0.6383477729605E+00 -0.4295787367065E+01 -0.9868270427101E+00  0.7823446273164E+00
-0.5092671463814E+00 -0.4299121612481E+01 -0.9616777661025E+00  0.7881593351760E+00
-0.4252910861006E+00 -0.4263667648088E+01 -0.9377917608119E+00  0.7664513601973E+00
-0.3886107980691E+00 -0.4190988671466E+01 -0.9159199075553E+00  0.7287617808622E+00
-0.3941049621892E+00 -0.4084723508158E+01 -0.8957657074173E+00  0.6831978046743E+00
-0.4328489770820E+00 -0.3947875060472E+01 -0.8761448205663E+00  0.6352258259250E+00
-0.4931723533982E+00 -0.3782393811679E+01 -0.8551132457577E+00  0.5895281232759E+00
-0.5600786593734E+00 -0.3590183802134E+01 -0.8300525046702E+00  0.5513234646887E+00
-0.6143296434107E+00 -0.3374971023189E+01 -0.7978601452090E+00  0.5265800704982E+00
-0.6321022839977E+00 -0.3144215687371E+01 -0.7552636055280E+00  0.5214566453812E+00
-0.5856950301607E+00 -0.2908621185386E+01 -0.6988632535232E+00  0.5426341048451E+00
-0.4446119976242E+00 -0.2681232944744E+01 -0.6251689977894E+00  0.5975532376595E+00
-0.1769256609152E+00 -0.2478639869830E+01 -0.5311131140632E+00  0.6912874831139E+00
 0.2468323483184E+00 -0.2320351179381E+01 -0.4147037723922E+00  0.8207287516560E+00
 0.8456903505825E+00 -0.2223857020185E+01 -0.2756333380277E+00  0.9682245026152E+00
 0.1616280436684E+01 -0.2195976753413E+01 -0.1159392650733E+00  0.1098568333461E+01
 0.2519680946298E+01 -0.2223411499816E+01  0.5925389017922E-01  0.1164523529923E+01
 0.3476857766349E+01 -0.2268720167473E+01  0.2416275233757E+00  0.1123773922265E+01
 0.4382452941791E+01 -0.2279181135997E+01  0.4206543674271E+00  0.9598821866331E+00
-0.1005949323289E+01 -0.4404923339935E+01 -0.1082174548770E+01  0.6711915020026E+00
-0.8234552383155E+00 -0.4467971902804E+01 -0.1058285443994E+01  0.7570083335043E+00
-0.6456770230040E+00 -0.4506998625822E+01 -0.1030535145121E+01  0.7907070397658E+00
-0.5033556340108E+00 -0.4507672787697E+01 -0.1002205699276E+01  0.7813634080927E+00
-0.4112338870232E+00 -0.4466559616378E+01 -0.9755587152172E+00  0.7446264898563E+00
-0.3701576127235E+00 -0.4387438043432E+01 -0.9515191454099E+00  0.6935789355551E+00
-0.3735793005862E+00 -0.4275544861751E+01 -0.9298248463230E+00  0.6362064413195E+00
-0.4119797709751E+00 -0.4134369185685E+01 -0.9092698048813E+00  0.5772792770086E+00
-0.4738801027409E+00 -0.3965432738183E+01 -0.8878625814150E+00  0.5210376406930E+00
-0.5448624348339E+00 -0.3769644417133E+01 -0.8629013832517E+00  0.4728202248673E+00
-0.6063343601116E+00 -0.3549521800605E+01 -0.8311712445287E+00  0.4391586774139E+00
-0.6351384056488E+00 -0.3311348967230E+01 -0.7892974863372E+00  0.4269670557760E+00
-0.6042831169488E+00 -0.3064330206240E+01 -0.7337226755710E+00  0.4440313352162E+00
-0.4834957884564E+00 -0.2819572902939E+01 -0.6606137481230E+00  0.4996879911349E+00
-0.2392889826734E+00 -0.2592324558594E+01 -0.5663227166924E+00  0.6016465064330E+00
 0.1626914640995E+00 -0.2402799427976E+01 -0.4480215994513E+00  0.7492332613276E+00
 0.7503627327487E+00 -0.2272137600232E+01 -0.3043549780319E+00  0.9249438204358E+00
 0.1531244322538E+01 -0.2212917107181E+01 -0.1363345589603E+00  0.1088583621164E+01
 0.2473527777933E+01 -0.2216085704557E+01  0.5148841544241E-01  0.1181370307979E+01
 0.3494657467565E+01 -0.2242206258297E+01  0.2504902455862E+00  0.1146454901232E+01
 0.4474304825357E+01 -0.2229699127305E+01  0.4489211462998E+00  0.9581032652914E+00
-0.1048227360376E+01 -0.4615355627186E+01 -0.1132716614391E+01  0.6987536450940E+00
-0.8449735053051E+00 -0.4683954748484E+01 -0.1105785667235E+01  0.7787654630044E+00
-0.6474988159780E+00 -0.4724295665001E+01 -0.1074358912205E+01  0.7988115509415E+00
-0.4914934221377E+00 -0.4721077702687E+01 -0.1042514240500E+01  0.7726958178593E+00
-0.3918055335128E+00 -0.4673051127670E+01 -0.1012971347331E+01  0.7203090332524E+00
-0.3470520145051E+00 -0.4586962906290E+01 -0.9868029988635E+00  0.6561813898807E+00
-0.3488035157209E+00 -0.4469903264590E+01 -0.9637413704231E+00  0.5876876641350E+00
-0.3869377073670E+00 -0.4325744890496E+01 -0.9425365336175E+00  0.5184396271903E+00
-0.4503858006367E+00 -0.4155339690766E+01 -0.9211451120066E+00  0.4519321584112E+00
-0.5255566682951E+00 -0.3958343233180E+01 -0.8967799936581E+00  0.3934477770925E+00
-0.5946879294762E+00 -0.3735835208509E+01 -0.8661046405031E+00  0.3499417818744E+00
-0.6354536396573E+00 -0.3492720595340E+01 -0.8256348593024E+00  0.3289015905507E+00
-0.6218711814153E+00 -0.3236414559882E+01 -0.7716571597581E+00  0.3390167274475E+00
-0.5243897941597E+00 -0.2975559328759E+01 -0.6999898350143E+00  0.3915010512281E+00
-0.3084641301607E+00 -0.2723317217841E+01 -0.6063562786357E+00  0.4972019295111E+00
 0.6521568046336E-01 -0.2499963921088E+01 -0.4869496553810E+00  0.6591806636654E+00
 0.6349619727243E+00 -0.2330420792826E+01 -0.3390917690732E+00  0.8619793182968E+00
 0.1422738881387E+01 -0.2234530846366E+01 -0.1623583954150E+00  0.1061747296415E+01
 0.2408025409467E+01 -0.2209964687048E+01  0.3961214507401E-01  0.1186758139923E+01
 0.3506003531590E+01 -0.2215790839554E+01  0.2580425422523E+00  0.1161209647680E+01
 0.4577235808241E+01 -0.2179377301045E+01  0.4795717085854E+00  0.9459618719179E+00
-0.1090157007807E+01 -0.4832726035403E+01 -0.1184576626294E+01  0.7291983165514E+00
-0.8624509914196E+00 -0.4907537424263E+01 -0.1153997700332E+01  0.8022172713230E+00
-0.6430151714125E+00 -0.4948387319083E+01 -0.1118280514763E+01  0.8062332848943E+00
-0.4732255248457E+00 -0.4939342431415E+01 -0.1082513607383E+01  0.7615175588129E+00
-0.3670020892706E+00 -0.4882587634674E+01 -0.1049917960434E+01  0.6930672474024E+00
-0.3195638872643E+00 -0.4788736352571E+01 -0.1021660063191E+01  0.6165461510244E+00
-0.3201005016622E+00 -0.4666928103923E+01 -0.9974057359796E+00  0.5380285615919E+00
-0.3579381209986E+00 -0.4521234103652E+01 -0.9758344594712E+00  0.4594217653482E+00
-0.4227002622406E+00 -0.4351560093037E+01 -0.9548520852840E+00  0.3831552882441E+00
-0.5019029993846E+00 -0.4156049838615E+01 -0.9315905814818E+00  0.3142867496447E+00
-0.5787874418131E+00 -0.3934138293952E+01 -0.9025851606026E+00  0.2600615055224E+00
-0.6319931263119E+00 -0.3689190688269E+01 -0.8642367757943E+00  0.2283316777521E+00
-0.6368595483637E+00 -0.3426584148864E+01 -0.8126887515555E+00  0.2284009834868E+00
-0.5652057766011E+00 -0.3151950608897E+01 -0.7434312881776E+00  0.2731948891907E+00
-0.3822823806536E+00 -0.2875441109061E+01 -0.6515447076516E+00  0.3770648526566E+00
-0.4429296236375E-01 -0.2616317636497E+01 -0.5321221277014E+00  0.5481825945822E+00
 0.4986906396752E+00 -0.2402874589266E+01 -0.3808367955931E+00  0.7756407933385E+00
 0.1287130739798E+01 -0.2263734271765E+01 -0.1953207093039E+00  0.1014244692145E+01
 0.2318500806013E+01 -0.2206533262727E+01  0.2239350899096E-01  0.1178695740710E+01
 0.3507733702753E+01 -0.2191299773805E+01  0.2632867897128E+00  0.1167432735100E+01
 0.4691754800053E+01 -0.2128301805068E+01  0.5126906066368E+00  0.9234492709568E+00
-0.1131637382635E+01 -0.5058589270166E+01 -0.1238045349008E+01  0.7630622625131E+00
-0.8750096789053E+00 -0.5140166400897E+01 -0.1203035233887E+01  0.8273716130243E+00
-0.6312314350762E+00 -0.5180015994402E+01 -0.1162249503215E+01  0.8122451552125E+00
-0.4480999821582E+00 -0.5162265965943E+01 -0.1122073206340E+01  0.7468868007496E+00
-0.3369625826657E+00 -0.5094317437180E+01 -0.1086256020156E+01  0.6622942279354E+00
-0.2881379626038E+00 -0.4991652845072E+01 -0.1055958177270E+01  0.5745912523472E+00
-0.2879462150447E+00 -0.4865506123947E+01 -0.1030690483157E+01  0.4876270297524E+00
-0.3253142270946E+00 -0.4719847830254E+01 -0.1009032426505E+01  0.4009999745374E+00
-0.3909168450616E+00 -0.4553336403044E+01 -0.9888506643562E+00  0.3157573411084E+00
-0.4736942264280E+00 -0.4362355955852E+01 -0.9672100508685E+00  0.2365785854692E+00
-0.5580459118803E+00 -0.4144516381733E+01 -0.9405124727373E+00  0.1708815428635E+00
-0.6236532813274E+00 -0.3901534624638E+01 -0.9050375946793E+00  0.1266554100537E+00
-0.6474710882635E+00 -0.3636570876194E+01 -0.8568084056589E+00  0.1134336472698E+00
-0.6034521652568E+00 -0.3351743834378E+01 -0.7910392117144E+00  0.1454973583874E+00
-0.4578766718296E+00 -0.3053152522435E+01 -0.7022058493166E+00  0.2408112179597E+00
-0.1636336151848E+00 -0.2757480202084E+01 -0.5842227721593E+00  0.4139298299871E+00
 0.3412385349384E+00 -0.2495149693841E+01 -0.4307822381996E+00  0.6615547299604E+00
 0.1120468642268E+01 -0.2304612330843E+01 -0.2368287412441E+00  0.9410220591323E+00
 0.2197719641236E+01 -0.2207956567315E+01 -0.2047385246381E-02  0.1153822920937E+01
 0.3498252582922E+01 -0.2169861727635E+01  0.2656781750164E+00  0.1165607440493E+01
 0.4810691977365E+01 -0.2079172403514E+01  0.5463039229107E+00  0.8872614695523E+00
-0.1172466550545E+01 -0.5295017346845E+01 -0.1293496798752E+01  0.8009477833973E+00
-0.8814131946299E+00 -0.5383838467592E+01 -0.1253050351116E+01  0.8540586303552E+00
-0.6108678186327E+00 -0.5420217157552E+01 -0.1206217013211E+01  0.8156643137340E+00
-0.4156504102963E+00 -0.5389725048027E+01 -0.1161075108966E+01  0.7274326517362E+00
-0.3019527018849E+00 -0.5307482935144E+01 -0.1121887144123E+01  0.6271141991456E+00
-0.2533415224358E+00 -0.5194842896536E+01 -0.1089636900031E+01  0.5300655157475E+00
-0.2528843398922E+00 -0.5064898317251E+01 -0.1063556547277E+01  0.4367374238486E+00
-0.2894074216890E+00 -0.4921091954895E+01 -0.1042099890845E+01  0.3438076379622E+00
-0.3550823516677E+00 -0.4760545301957E+01 -0.1023125545971E+01  0.2506444711132E+00
-0.4406393643641E+00 -0.4577662032554E+01 -0.1003660294339E+01  0.1614061659021E+00
-0.5317772957396E+00 -0.4368065063422E+01 -0.9799684864351E+00  0.8358529200169E-01
-0.6092205248585E+00 -0.4131757750558E+01 -0.9481956692125E+00  0.2507074980612E-01
-0.6517866593529E+00 -0.3869584252961E+01 -0.9042741959375E+00 -0.4853355340936E-02
-0.6364154013093E+00 -0.3579738244670E+01 -0.8432307417610E+00  0.8880635566752E-02
-0.5320183027643E+00 -0.3263200863509E+01 -0.7590438445652E+00  0.8759458060257E-01
-0.2902707320978E+00 -0.2932010228131E+01 -0.6444562016488E+00  0.2531503934843E+00
 0.1620569888346E+00 -0.2616195995034E+01 -0.4908278085538E+00  0.5133582340742E+00
 0.9163584477747E+00 -0.2364001470264E+01 -0.2895286088123E+00  0.8340946819766E+00
 0.2036298424786E+01 -0.2217502934767E+01 -0.3624090253622E-01  0.1106429187745E+01
 0.3465847382538E+01 -0.2153393450774E+01  0.2624907902643E+00  0.1155291752355E+01
 0.4966977918679E+01 -0.2032867435900E+01  0.5868221053001E+00  0.8292402877806E+00
-0.1212353650662E+01 -0.5544806481073E+01 -0.1351432046485E+01  0.8436727978626E+00
-0.8799511348197E+00 -0.5640915628493E+01 -0.1304173372096E+01  0.8818300879476E+00
-0.5804049553979E+00 -0.5669671051369E+01 -0.1250015219980E+01  0.8147126824840E+00
-0.3755928017784E+00 -0.5620725025561E+01 -0.1199263583338E+01  0.7013908387044E+00
-0.2625858154488E+00 -0.5520371997727E+01 -0.1156591579870E+01  0.5865994649759E+00
-0.2160646242696E+00 -0.5396538880345E+01 -0.1122520717650E+01  0.4828568604756E+00
-0.2157382188646E+00 -0.5263440359892E+01 -0.1095835732080E+01  0.3858432425945E+00
-0.2508153073137E+00 -0.5123435807953E+01 -0.1074850239070E+01  0.2888058732278E+00
-0.3154733891460E+00 -0.4971899697014E+01 -0.1057474632990E+01  0.1891854698862E+00
-0.4026441584841E+00 -0.4801096265492E+01 -0.1040748100304E+01  0.9047136765075E-01
-0.4994498497796E+00 -0.4604515074842E+01 -0.1020793000135E+01  0.1568553401091E-03
-0.5875448251387E+00 -0.4380416044379E+01 -0.9935921887092E+00 -0.7419524210658E-01
-0.6477438595112E+00 -0.4127334176945E+01 -0.9550156215221E+00 -0.1241079513681E+00
-0.6608125859384E+00 -0.3839334680646E+01 -0.9000294667283E+00 -0.1345102530740E+00
-0.6001353602414E+00 -0.3511463859086E+01 -0.8223198561191E+00 -0.8147177564754E-01
-0.4192606974091E+00 -0.3148827231052E+01 -0.7136175963260E+00  0.6426691136964E-01
-0.3673882568205E-01 -0.2776970520955E+01 -0.5627418777129E+00  0.3249239538371E+00
 0.6697131706046E+00 -0.2451344302013E+01 -0.3563262315914E+00  0.6833178818627E+00
 0.1819948352620E+01 -0.2240137002654E+01 -0.8403773125906E-01  0.1028348199268E+01
 0.3403858919649E+01 -0.2143103174058E+01  0.2521511528755E+00  0.1132679979313E+01
 0.5146871580536E+01 -0.2001700162978E+01  0.6290342928850E+00  0.7655268354234E+00
-0.1250680696521E+01 -0.5811834228629E+01 -0.1412503006078E+01  0.8921041582826E+00
-0.8680709806877E+00 -0.5914253613118E+01 -0.1356464938974E+01  0.9095769126662E+00
-0.5379721919018E+00 -0.5928458650074E+01 -0.1293286187667E+01  0.8065721326351E+00
-0.3279515837415E+00 -0.5853118704554E+01 -0.1236214076080E+01  0.6664324272526E+00
-0.2199402533324E+00 -0.5730241639361E+01 -0.1190036396272E+01  0.5397555264428E+00
-0.1775846064171E+00 -0.5594129715641E+01 -0.1154342881613E+01  0.4329445851456E+00
-0.1776852435136E+00 -0.5458600516730E+01 -0.1127257168846E+01  0.3355322764328E+00
-0.2105123245597E+00 -0.5324321600630E+01 -0.1106966801533E+01  0.2371138746014E+00
-0.2727584716452E+00 -0.5184909753719E+01 -0.1091533661338E+01  0.1330306246684E+00
-0.3599990247068E+00 -0.5030443627949E+01 -0.1078088546596E+01  0.2591723748051E-01
-0.4608864544538E+00 -0.4852130068489E+01 -0.1062603320423E+01 -0.7678888317493E-01
-0.5577400233471E+00 -0.4646452800091E+01 -0.1040838580197E+01 -0.1680315036592E+00
-0.6333280103708E+00 -0.4409754049123E+01 -0.1008616426928E+01 -0.2407199385710E+00
-0.6729369071470E+00 -0.4132091441572E+01 -0.9610056840640E+00 -0.2806912096775E+00
-0.6561836274940E+00 -0.3802371019304E+01 -0.8917109426472E+00 -0.2626488802672E+00
-0.5423265891976E+00 -0.3416923058022E+01 -0.7918499412433E+00 -0.1512006794272E+00
-0.2477577598023E+00 -0.2991237516969E+01 -0.6477990650072E+00  0.9194670428703E-01
 0.3791634150958E+00 -0.2581046439590E+01 -0.4403766114610E+00  0.4769142903371E+00
 0.1534216186166E+01 -0.2283953026225E+01 -0.1499473702462E+00  0.9059742230550E+00
 0.3293981811046E+01 -0.2144204237622E+01  0.2299555181114E+00  0.1096259736039E+01
 0.5350805868889E+01 -0.1978450197927E+01  0.6744711442428E+00  0.6924861600633E+00
-0.1286433987548E+01 -0.6101854552744E+01 -0.1477657730077E+01  0.9473278508159E+00
-0.8421231628067E+00 -0.6207751206949E+01 -0.1409974894961E+01  0.9351549436381E+00
-0.4814629799509E+00 -0.6196160902845E+01 -0.1335524796460E+01  0.7870471601663E+00
-0.2732891407647E+00 -0.6083932462271E+01 -0.1271444339553E+01  0.6197237830589E+00
-0.1755486917931E+00 -0.5934161486303E+01 -0.1221942053828E+01  0.4856405781534E+00
-0.1393627688288E+00 -0.5785299952347E+01 -0.1184932561892E+01  0.3803307138483E+00
-0.1399902699294E+00 -0.5648258770026E+01 -0.1157649825241E+01  0.2862602342443E+00
-0.1695576990364E+00 -0.5521577624504E+01 -0.1138227081669E+01  0.1896675006206E+00
-0.2276728789016E+00 -0.5397479710629E+01 -0.1125030534670E+01  0.8368241305279E-01
-0.3130365106629E+00 -0.5264003222970E+01 -0.1115407963348E+01 -0.3022656962538E-01
-0.4159733221144E+00 -0.5109876147349E+01 -0.1105169910361E+01 -0.1447625208801E+00
-0.5190559091839E+00 -0.4929645980576E+01 -0.1089740394190E+01 -0.2534838905186E+00
-0.6067719733917E+00 -0.4717590890424E+01 -0.1064872588631E+01 -0.3512146668198E+00
-0.6694379542566E+00 -0.4460216780815E+01 -0.1025930962302E+01 -0.4255933483632E+00
-0.6942709696487E+00 -0.4140953101300E+01 -0.9670448285999E+00 -0.4514600471317E+00
-0.6500315323767E+00 -0.3746854075609E+01 -0.8793771347008E+00 -0.3900931696424E+00
-0.4602717181533E+00 -0.3277510629887E+01 -0.7475564807475E+00 -0.1888088969700E+00
 0.4630101187403E-01 -0.2775712822084E+01 -0.5458823701763E+00  0.1995327041730E+00
 0.1158830764148E+01 -0.2364607536605E+01 -0.2411553580849E+00  0.7180051174187E+00
 0.3107165006432E+01 -0.2160280757499E+01  0.1893768526085E+00  0.1037214686343E+01
 0.5586963329117E+01 -0.1966052232287E+01  0.7241822301572E+00  0.6070025673055E+00
-0.1317841012236E+01 -0.6423720995885E+01 -0.1548312424696E+01  0.1010605039520E+01
-0.7967568481090E+00 -0.6526294925981E+01 -0.1464610376642E+01  0.9543741521989E+00
-0.4087964861711E+00 -0.6470582791436E+01 -0.1375875876024E+01  0.7499059838780E+00
-0.2131873265922E+00 -0.6308403296258E+01 -0.1304318144006E+01  0.5581587221021E+00
-0.1315471563876E+00 -0.6128616275374E+01 -0.1252032705009E+01  0.4237081314144E+00
-0.1030569436229E+00 -0.5967653493508E+01 -0.1214142105518E+01  0.3251864780387E+00
-0.1040817645097E+00 -0.5830162596031E+01 -0.1186848889794E+01  0.2384223615445E+00
-0.1292613366565E+00 -0.5712683241947E+01 -0.1168388933131E+01  0.1473164726396E+00
-0.1812340051082E+00 -0.5606972209753E+01 -0.1157641260222E+01  0.4269525674922E-01
-0.2623385526340E+00 -0.5499527210174E+01 -0.1152373169733E+01 -0.7570166018450E-01
-0.3648198980229E+00 -0.5376320723001E+01 -0.1148228141315E+01 -0.2009459000694E+00
-0.4709747122372E+00 -0.5229452605871E+01 -0.1140085480610E+01 -0.3272374109391E+00
-0.5665846844961E+00 -0.5051096174661E+01 -0.1123536188573E+01 -0.4516736861620E+00
-0.6473018926262E+00 -0.4825021154453E+01 -0.1094464625725E+01 -0.5643602833884E+00
-0.7086434981734E+00 -0.4530919688565E+01 -0.1047912652963E+01 -0.6416751151722E+00
-0.7313500961149E+00 -0.4148383034029E+01 -0.9759466405716E+00 -0.6455048569754E+00
-0.6571707161186E+00 -0.3657844545738E+01 -0.8630030652311E+00 -0.5157478091428E+00
-0.3180431839791E+00 -0.3070041170659E+01 -0.6776168810249E+00 -0.1649906017252E+00
 0.6715362142523E+00 -0.2511506791651E+01 -0.3679941209632E+00  0.4304133661249E+00
 0.2796020829015E+01 -0.2201335329757E+01  0.1189371016239E+00  0.9345353819112E+00
 0.5864985367603E+01 -0.1971424250197E+01  0.7787122350849E+00  0.5049605345284E+00
-0.1341758009878E+01 -0.6791867585754E+01 -0.1626725143366E+01  0.1083196037089E+01
-0.7240830158847E+00 -0.6875460561264E+01 -0.1519908738078E+01  0.9589848300203E+00
-0.3186995983606E+00 -0.6745644602006E+01 -0.1412868861127E+01  0.6861660421868E+00
-0.1509562272116E+00 -0.6519345298673E+01 -0.1334060325056E+01  0.4791050454492E+00
-0.9064143811713E-01 -0.6309862114433E+01 -0.1280100729585E+01  0.3542470939773E+00
-0.7035694435986E-01 -0.6138940902981E+01 -0.1241859587973E+01  0.2678682003512E+00
-0.7149386130440E-01 -0.6002041194137E+01 -0.1214707029189E+01  0.1922690839597E+00
-0.9121716208085E-01 -0.5894776274110E+01 -0.1197198705078E+01  0.1106910492770E+00
-0.1348381242037E+00 -0.5810040558816E+01 -0.1188975754321E+01  0.1159371588877E-01
-0.2088213412308E+00 -0.5734017707791E+01 -0.1188567827515E+01 -0.1079740651466E+00
-0.3077863565217E+00 -0.5649590370391E+01 -0.1191475363137E+01 -0.2420978863387E+00
-0.4132087380970E+00 -0.5545110623357E+01 -0.1191663890048E+01 -0.3856192199246E+00
-0.5116194810087E+00 -0.5410052429688E+01 -0.1184334399787E+01 -0.5378965521531E+00
-0.6040976246254E+00 -0.5226654570589E+01 -0.1166150456420E+01 -0.6915913172571E+00
-0.6944194957604E+00 -0.4973927653099E+01 -0.1133669446665E+01 -0.8255666073961E+00
-0.7752654671448E+00 -0.4628353910288E+01 -0.1080723891591E+01 -0.9062256395012E+00
-0.8146041442301E+00 -0.4154806022073E+01 -0.9938820480706E+00 -0.8781357377927E+00
-0.6854710788303E+00 -0.3514330216526E+01 -0.8399602715877E+00 -0.6274828593033E+00
 0.5625017973089E-01 -0.2782640339279E+01 -0.5452780400348E+00 -0.7957550165988E-02
 0.2281896270127E+01 -0.2293913609301E+01 -0.2403467870663E-02  0.7411519469768E+00
 0.6190369763615E+01 -0.2012483722632E+01  0.8355772206477E+00  0.3763847494411E+00
-0.1352569047897E+01 -0.7231696533608E+01 -0.1716853141884E+01  0.1165541259710E+01
-0.6125072958850E+00 -0.7259475562895E+01 -0.1574396595216E+01  0.9323267907877E+00
-0.2126836598874E+00 -0.7007034215145E+01 -0.1443943596523E+01  0.5838591538718E+00
-0.9254424140052E-01 -0.6707191227632E+01 -0.1359947114071E+01  0.3822152190558E+00
-0.5570989947620E-01 -0.6474787172346E+01 -0.1306099433827E+01  0.2787578323005E+00
-0.4274201661679E-01 -0.6297223391252E+01 -0.1267993100468E+01  0.2088270611262E+00
-0.4378659339041E-01 -0.6161801419624E+01 -0.1241117621097E+01  0.1478292682593E+00
-0.5731458805232E-01 -0.6064736164074E+01 -0.1224410168670E+01  0.7997730831663E-01
-0.9041568345804E-01 -0.6002382819237E+01 -0.1218559718697E+01 -0.8306291549613E-02
-0.1538872672251E+00 -0.5963348461903E+01 -0.1223447164056E+01 -0.1241548772019E+00
-0.2455060776972E+00 -0.5927313509501E+01 -0.1234563935836E+01 -0.2643394176449E+00
-0.3456176886673E+00 -0.5875900984662E+01 -0.1244303753207E+01 -0.4245563445866E+00
-0.4410615677134E+00 -0.5793955813304E+01 -0.1247003494785E+01 -0.6056605058498E+00
-0.5382389935828E+00 -0.5663878346716E+01 -0.1240423486544E+01 -0.8017560750911E+00
-0.6481551506741E+00 -0.5468907978636E+01 -0.1223412644092E+01 -0.9943754291511E+00
-0.7734109174343E+00 -0.5188707283356E+01 -0.1192423657927E+01 -0.1157532516566E+01
-0.9057677394668E+00 -0.4784217906619E+01 -0.1137997146175E+01 -0.1251986577362E+01
-0.9990654672603E+00 -0.4172206072303E+01 -0.1034254323324E+01 -0.1178248195969E+01
-0.6729474026451E+00 -0.3291134743676E+01 -0.7928164410782E+00 -0.6638108627401E+00
 0.1436635663247E+01 -0.2511539035557E+01 -0.2149806776654E+00  0.3537555107254E+00
 0.6546894937904E+01 -0.2135302103512E+01  0.8823185800261E+00  0.1863791940677E+00
-0.1340572706901E+01 -0.7793033925198E+01 -0.1826721353640E+01  0.1253804545337E+01
-0.4453437314826E+00 -0.7671928516272E+01 -0.1623454473742E+01  0.8394799306863E+00
-0.9987951601028E-01 -0.7224137624497E+01 -0.1464803449929E+01  0.4308691261586E+00
-0.4701407021478E-01 -0.6863350329690E+01 -0.1382072900576E+01  0.2728962442627E+00
-0.2862077449176E-01 -0.6621777522027E+01 -0.1330079679123E+01  0.1994665746972E+00
-0.2139344042261E-01 -0.6440803676084E+01 -0.1292439442560E+01  0.1485553348780E+00
-0.2238935438633E-01 -0.6307923229110E+01 -0.1266062535565E+01  0.1048989818418E+00
-0.2967120614077E-01 -0.6219410405188E+01 -0.1249816340889E+01  0.5455375261656E-01
-0.5068304314404E-01 -0.6178448464613E+01 -0.1245826320116E+01 -0.1628738952507E-01
-0.9973138499228E-01 -0.6181492969397E+01 -0.1256244889597E+01 -0.1209064054614E+00
-0.1789029263234E+00 -0.6206479286915E+01 -0.1277076461678E+01 -0.2626559406631E+00
-0.2680042295880E+00 -0.6221776518032E+01 -0.1297956168865E+01 -0.4394601261179E+00
-0.3542254129576E+00 -0.6202348148430E+01 -0.1311314731818E+01 -0.6510858691640E+00
-0.4493043195002E+00 -0.6134029924523E+01 -0.1316666868425E+01 -0.8899170014925E+00
-0.5683307540468E+00 -0.6011155843019E+01 -0.1315897339022E+01 -0.1138799349352E+01
-0.7215097821239E+00 -0.5825745813374E+01 -0.1309451138612E+01 -0.1383001452617E+01
-0.9133824797308E+00 -0.5546380032069E+01 -0.1291952521612E+01 -0.1602125711241E+01
-0.1170001974746E+01 -0.5096459288426E+01 -0.1253292271310E+01 -0.1759497370717E+01
-0.1408828683661E+01 -0.4240786257689E+01 -0.1129923005107E+01 -0.1587458890088E+01
 0.7064538932573E-01 -0.3069040722155E+01 -0.5996790755017E+00 -0.4485687820873E+00
 0.6839749406585E+01 -0.2466548969243E+01  0.8746401005016E+00 -0.1950089663822E+00
-0.1292948609894E+01 -0.8591647690848E+01 -0.1976919289607E+01  0.1323685312792E+01
-0.1994206137571E+00 -0.8051446135761E+01 -0.1650173374493E+01  0.6045505962160E+00
-0.9478085165609E-02 -0.7344715904472E+01 -0.1470838819845E+01  0.2317881482815E+00
-0.2300010308720E-01 -0.6992467030288E+01 -0.1403093447583E+01  0.1647347783495E+00
-0.8401393032730E-02 -0.6747411041402E+01 -0.1351162507021E+01  0.1167511161058E+00
-0.7955486777713E-02 -0.6569490424725E+01 -0.1315489201903E+01  0.8849830780421E-01
-0.7960146927419E-02 -0.6439461864018E+01 -0.1289484421404E+01  0.6278739345055E-01
-0.1051911116863E-01 -0.6356348755134E+01 -0.1273373592235E+01  0.3268483234506E-01
-0.1944955267419E-01 -0.6331289573732E+01 -0.1270147844208E+01 -0.1316540626267E-01
-0.5001781670750E-01 -0.6378841054926E+01 -0.1285771793486E+01 -0.9444185681260E-01
-0.1092715748483E+00 -0.6483000889470E+01 -0.1318454512510E+01 -0.2297529054751E+00
-0.1795053695709E+00 -0.6584819638540E+01 -0.1352865021782E+01 -0.4248796636199E+00
-0.2504638645388E+00 -0.6635518634865E+01 -0.1377196520403E+01 -0.6715257048567E+00
-0.3374975745904E+00 -0.6632437159178E+01 -0.1393986967526E+01 -0.9521338149479E+00
-0.4577444624223E+00 -0.6593014096781E+01 -0.1410151732854E+01 -0.1250993875835E+01
-0.6160642861573E+00 -0.6526418736542E+01 -0.1428496625826E+01 -0.1563308683776E+01
-0.8434348706273E+00 -0.6430316255428E+01 -0.1454750246888E+01 -0.1896889710764E+01
-0.1129033385892E+01 -0.6269801981061E+01 -0.1479767095441E+01 -0.2250194268506E+01
-0.1814935656461E+01 -0.5892872342920E+01 -0.1541561622847E+01 -0.2673058946756E+01
-0.1970050924915E+01 -0.4616970533402E+01 -0.1317404311294E+01 -0.2084210211008E+01
 0.6652928410939E+01 -0.3441505303276E+01  0.6422846311034E+00 -0.1285617341860E+01
-0.1234607208180E+01 -0.9988176679593E+01 -0.2244556811001E+01  0.1233026192265E+01
 0.1664267363205E+00 -0.8013913947263E+01 -0.1569497465576E+01  0.6956115682429E-01
-0.3512127305865E-01 -0.7419057418687E+01 -0.1490835760564E+01  0.8339690888230E-01
 0.4554358003840E-02 -0.7083284682512E+01 -0.1415746085998E+01  0.4863114006718E-01
-0.2786777610015E-02 -0.6853910197325E+01 -0.1371339415422E+01  0.3741365864682E-01
-0.7808227635990E-03 -0.6683175779734E+01 -0.1336791340419E+01  0.2876886989621E-01
-0.1173438960343E-02 -0.6556469552116E+01 -0.1311528617759E+01  0.2102036725723E-01
-0.1164940714147E-02 -0.6474775722646E+01 -0.1295188151972E+01  0.1142650024577E-01
-0.2014887799050E-02 -0.6453937702850E+01 -0.1291190537370E+01 -0.3285058056355E-02
-0.1141894397611E-01 -0.6538220653531E+01 -0.1309927939021E+01 -0.4132211303631E-01
-0.3849166687934E-01 -0.6750046741782E+01 -0.1357707701964E+01 -0.1531280741107E+00
-0.7738743581206E-01 -0.6973282887750E+01 -0.1410134085725E+01 -0.3737908198656E+00
-0.1282902020689E+00 -0.7095175762212E+01 -0.1444693214384E+01 -0.6674450400234E+00
-0.2054713893867E+00 -0.7151401805285E+01 -0.1471374660860E+01 -0.9864500669016E+00
-0.3179442763484E+00 -0.7203459346112E+01 -0.1504280746908E+01 -0.1323535255120E+01
-0.4738093698887E+00 -0.7273245398413E+01 -0.1549410976748E+01 -0.1685996916723E+01
-0.6692449971236E+00 -0.7394908735208E+01 -0.1612830770499E+01 -0.2090242868373E+01
-0.1015702185949E+01 -0.7649852655139E+01 -0.1733110994043E+01 -0.2586259698175E+01
-0.1295849463364E+01 -0.8133739200427E+01 -0.1885917760861E+01 -0.3341055545102E+01
-0.3966237349702E+01 -0.8774256968368E+01 -0.2548098901584E+01 -0.4788253510510E+01
 0.4621037086976E+01 -0.7506083361199E+01 -0.5770092634427E+00 -0.5719120850211E+01
-0.1523467131528E+01 -0.2557824127737E+01 -0.1918206886990E+01 -0.3446925976823E+00
-0.9516951160145E+00 -0.2722148973021E+01 -0.1726706717467E+01 -0.9267563781461E-01
-0.5137202050982E+00 -0.2838933140951E+01 -0.1575747068647E+01  0.5749231232069E-01
-0.1814335310629E+00 -0.2940370426799E+01 -0.1467247856474E+01  0.1400536270013E+00
 0.6803012304982E-01 -0.3040427542143E+01 -0.1397026783430E+01  0.1735047848061E+00
 0.2404374311588E+00 -0.3157257510074E+01 -0.1370905433613E+01  0.1693635986856E+00
 0.3537208440971E+00 -0.3298927805290E+01 -0.1384247268250E+01  0.1282399642509E+00
 0.4258650235067E+00 -0.3475663226921E+01 -0.1433405151969E+01  0.5370859380954E-01
 0.4509556116741E+00 -0.3701899938068E+01 -0.1527943829530E+01 -0.3943429227525E-01
 0.3424837965397E+00 -0.4041128400241E+01 -0.1738362959330E+01 -0.1273736490780E+00
-0.1617617033961E+01 -0.2609656012690E+01 -0.1986818326887E+01 -0.2445886452227E+00
-0.1001150391865E+01 -0.2787116459490E+01 -0.1780485415621E+01 -0.2181421314757E-01
-0.5372569526301E+00 -0.2919823222297E+01 -0.1624827678095E+01  0.1133344131846E+00
-0.1855985485888E+00 -0.3033154809190E+01 -0.1512814074319E+01  0.1909852067459E+00
 0.7528976422667E-01 -0.3147761081099E+01 -0.1444061515267E+01  0.2269727957055E+00
 0.2605136168237E+00 -0.3277654621395E+01 -0.1418056268552E+01  0.2301357904612E+00
 0.3852614819619E+00 -0.3438759440005E+01 -0.1435144036640E+01  0.2015830793685E+00
 0.4612613950158E+00 -0.3648562538065E+01 -0.1498031533433E+01  0.1485638394556E+00
 0.4635706922860E+00 -0.3931742229741E+01 -0.1630040618469E+01  0.8899437865080E-01
 0.3443251251260E+00 -0.4295506986972E+01 -0.1857055470358E+01  0.3129846809305E-01
-0.1696242266877E+01 -0.2651761201869E+01 -0.2043561625127E+01 -0.1408371388810E+00
-0.1044536131122E+01 -0.2843704324468E+01 -0.1827473009492E+01  0.5187749381506E-01
-0.5572871360816E+00 -0.2986756878247E+01 -0.1665700682510E+01  0.1722150861557E+00
-0.1912633511174E+00 -0.3110319775106E+01 -0.1551744065389E+01  0.2454300771100E+00
 0.8019299581355E-01 -0.3234850199021E+01 -0.1482688881747E+01  0.2848353632076E+00
 0.2741870260133E+00 -0.3377345000803E+01 -0.1458484244452E+01  0.2977120303090E+00
 0.4050922337190E+00 -0.3555980296130E+01 -0.1480917385577E+01  0.2867711818319E+00
 0.4771477867781E+00 -0.3791740742185E+01 -0.1557858685090E+01  0.2609329063568E+00
 0.4708555254066E+00 -0.4099741076670E+01 -0.1705576204768E+01  0.2347226504937E+00
 0.3404431317129E+00 -0.4489073642355E+01 -0.1949856335056E+01  0.2119975438335E+00
-0.1760498357577E+01 -0.2685107943009E+01 -0.2089434955976E+01 -0.3389581012017E-01
-0.1080469085813E+01 -0.2888370943838E+01 -0.1865354809205E+01  0.1276078904966E+00
-0.5754973929072E+00 -0.3039467974035E+01 -0.1699033718153E+01  0.2329903286012E+00
-0.1983636905528E+00 -0.3169845340865E+01 -0.1583058240751E+01  0.3022372033477E+00
 0.8034207072394E-01 -0.3301724498836E+01 -0.1514049737372E+01  0.3461062874989E+00
 0.2794961400477E+00 -0.3453446111257E+01 -0.1491756482685E+01  0.3709049176196E+00
 0.4116480996303E+00 -0.3644348001801E+01 -0.1519368950166E+01  0.3804400874458E+00
 0.4792523682863E+00 -0.3893293221249E+01 -0.1604599196822E+01  0.3833474223680E+00
 0.4632968213685E+00 -0.4213990670871E+01 -0.1762826104795E+01  0.3910412757039E+00
 0.3215648654680E+00 -0.4615027618033E+01 -0.2017927488587E+01  0.4048535512020E+00
-0.1809595063921E+01 -0.2708710029172E+01 -0.2123603388367E+01  0.7522381634907E-01
-0.1109326338657E+01 -0.2920232218551E+01 -0.1893892517084E+01  0.2044936991072E+00
-0.5921076916871E+00 -0.3076614198542E+01 -0.1724299284034E+01  0.2947117575840E+00
-0.2078935916454E+00 -0.3211139648559E+01 -0.1606945618820E+01  0.3603120918654E+00
 0.7472057875622E-01 -0.3347126657798E+01 -0.1538030853249E+01  0.4094207585178E+00
 0.2753473765632E+00 -0.3503656732389E+01 -0.1517305393390E+01  0.4473903323172E+00
 0.4057437664833E+00 -0.3699351749117E+01 -0.1547995747911E+01  0.4783872441710E+00
 0.4669236959011E+00 -0.3951473882003E+01 -0.1637738583314E+01  0.5101618017970E+00
 0.4408291190171E+00 -0.4272384987239E+01 -0.1800831253497E+01  0.5512891105259E+00
 0.2891749737010E+00 -0.4669518296165E+01 -0.2058761356336E+01  0.6006516932170E+00
-0.1843062784367E+01 -0.2722010884896E+01 -0.2145584619112E+01  0.1854183957167E+00
-0.1131223953569E+01 -0.2938516986305E+01 -0.1912778236890E+01  0.2816758216908E+00
-0.6075286140639E+00 -0.3097598472950E+01 -0.1741409726480E+01  0.3565026067174E+00
-0.2203238366141E+00 -0.3233572897651E+01 -0.1623331460987E+01  0.4185291517672E+00
 0.6278829440441E-01 -0.3370224843145E+01 -0.1554495173965E+01  0.4730953169533E+00
 0.2617491030074E+00 -0.3526442768866E+01 -0.1534406019062E+01  0.5244236478824E+00
 0.3876505450454E+00 -0.3719652092800E+01 -0.1566040723472E+01  0.5765361156354E+00
 0.4408102117898E+00 -0.3965303868350E+01 -0.1656512014382E+01  0.6360156954500E+00
 0.4046187418413E+00 -0.4274342448308E+01 -0.1818770137426E+01  0.7088421589757E+00
 0.2442364160800E+00 -0.4653457212820E+01 -0.2072333769211E+01  0.7916669876450E+00
-0.1860631050933E+01 -0.2724715067470E+01 -0.2155112670183E+01  0.2955137651933E+00
-0.1146288972122E+01 -0.2942874530391E+01 -0.1921906841307E+01  0.3583449763341E+00
-0.6219520415799E+00 -0.3102146335861E+01 -0.1750326232958E+01  0.4175308549405E+00
-0.2358132277607E+00 -0.3236933111642E+01 -0.1632190775379E+01  0.4757327577695E+00
 0.4460495610686E-01 -0.3370720852590E+01 -0.1563274467382E+01  0.5353389615216E+00
 0.2390904928135E+00 -0.3521582975507E+01 -0.1542771462953E+01  0.5992522129227E+00
 0.3581997373893E+00 -0.3705361943928E+01 -0.1573166233083E+01  0.6709860757683E+00
 0.4020939527671E+00 -0.3935551963614E+01 -0.1660725260886E+01  0.7558241567284E+00
 0.3559500979806E+00 -0.4221579111072E+01 -0.1816845631545E+01  0.8574659652478E+00
 0.1886241569010E+00 -0.4569170193821E+01 -0.2058856632130E+01  0.9706141356734E+00
-0.1862296355783E+01 -0.2716825645321E+01 -0.2152187335060E+01  0.4043125930871E+00
-0.1154604932086E+01 -0.2933313791456E+01 -0.1921321795192E+01  0.4337427930389E+00
-0.6353723152374E+00 -0.3090378576296E+01 -0.1751102914579E+01  0.4770158683631E+00
-0.2541672044366E+00 -0.3221458677596E+01 -0.1633544160412E+01  0.5308019197633E+00
 0.2063988500880E-01 -0.3349036546730E+01 -0.1564346427041E+01  0.5944245557381E+00
 0.2082332361740E+00 -0.3489868316269E+01 -0.1542368483733E+01  0.6692978719921E+00
 0.3186825904590E+00 -0.3657948403095E+01 -0.1569454927958E+01  0.7581595417486E+00
 0.3523754360462E+00 -0.3864669302944E+01 -0.1650778113255E+01  0.8649480301655E+00
 0.2965920353548E+00 -0.4117692803198E+01 -0.1795917356331E+01  0.9913724006597E+00
 0.1242724143244E+00 -0.4421410644682E+01 -0.2019654963146E+01  0.1130476438675E+01
-0.1848324593959E+01 -0.2698623815576E+01 -0.2137065747061E+01  0.5106319653925E+00
-0.1156220606391E+01 -0.2910206410535E+01 -0.1911220693107E+01  0.5071679840248E+00
-0.6475841715809E+00 -0.3062812232871E+01 -0.1743886305669E+01  0.5342484754330E+00
-0.2748954317680E+00 -0.3187876610127E+01 -0.1627502855563E+01  0.5827174715210E+00
-0.8268865888549E-02 -0.3306248039681E+01 -0.1557822941667E+01  0.6488032549580E+00
 0.1704399999635E+00 -0.3432983575247E+01 -0.1533395476494E+01  0.7322968485841E+00
 0.2708021520369E+00 -0.3580046037484E+01 -0.1555344622215E+01  0.8349574185675E+00
 0.2936933616930E+00 -0.3756576346272E+01 -0.1627554998624E+01  0.9593606972935E+00
 0.2287591783646E+00 -0.3968146979279E+01 -0.1757512261972E+01  0.1105470183595E+01
 0.5332920367170E-01 -0.4217395533257E+01 -0.1957111169941E+01  0.1264977082688E+01
-0.1819250751700E+01 -0.2670653531652E+01 -0.2110255007823E+01  0.6133402673196E+00
-0.1151158824006E+01 -0.2874271297128E+01 -0.1891952152135E+01  0.5779850111542E+00
-0.6582126885394E+00 -0.3020351575169E+01 -0.1728925199558E+01  0.5886117067483E+00
-0.2972578914047E+00 -0.3137366074016E+01 -0.1614273259653E+01  0.6306122564338E+00
-0.4098474500373E-01 -0.3244001796488E+01 -0.1543943670585E+01  0.6971866116850E+00
 0.1273026488414E+00 -0.3353348098941E+01 -0.1516241357701E+01  0.7864087872944E+00
 0.2166172736284E+00 -0.3475239744799E+01 -0.1531552557565E+01  0.8988968939206E+00
 0.2284804115493E+00 -0.3616446745506E+01 -0.1592344172921E+01  0.1035834462580E+01
 0.1550642317886E+00 -0.3780101943514E+01 -0.1703767720190E+01  0.1195604302982E+01
-0.2156246483586E-01 -0.3966498794663E+01 -0.1874388787210E+01  0.1368789339492E+01
-0.1775868177563E+01 -0.2633700777542E+01 -0.2072497403643E+01  0.7113908798720E+00
-0.1139432713339E+01 -0.2826549219948E+01 -0.1864011503917E+01  0.6456318365667E+00
-0.6667496504081E+00 -0.2964252255434E+01 -0.1706570891418E+01  0.6395944873291E+00
-0.3203235291427E+00 -0.3071496249456E+01 -0.1594155291898E+01  0.6738032983445E+00
-0.7615107472111E-01 -0.3164401589521E+01 -0.1523059748331E+01  0.7385998995540E+00
 0.8065181850890E-01 -0.3253935511253E+01 -0.1491443331807E+01  0.8302929910582E+00
 0.1584603007199E+00 -0.3347810647111E+01 -0.1498994659002E+01  0.9482267526717E+00
 0.1595009143171E+00 -0.3450408196754E+01 -0.1546726418822E+01  0.1092119908769E+01
 0.7855145429766E-01 -0.3562090287088E+01 -0.1637263247259E+01  0.1258799356154E+01
-0.9708990291849E-01 -0.3680091974614E+01 -0.1775275477937E+01  0.1437824844063E+01
-0.1719209064304E+01 -0.2588768431587E+01 -0.2024749417933E+01  0.8038513421028E+00
-0.1121063683061E+01 -0.2768365679622E+01 -0.1828031795825E+01  0.7096241376046E+00
-0.6725962890972E+00 -0.2896069979300E+01 -0.1677273141893E+01  0.6867960971950E+00
-0.3430348744378E+00 -0.2992146106266E+01 -0.1567535056955E+01  0.7118057306512E+00
-0.1122783183797E+00 -0.3069881237676E+01 -0.1495614987553E+01  0.7724075574868E+00
 0.3244659394178E-01 -0.3138081467242E+01 -0.1459648386749E+01  0.8631480787701E+00
 0.9881291752728E-01 -0.3202453476495E+01 -0.1458711059015E+01  0.9820006403623E+00
 0.8977627841938E-01 -0.3265127341627E+01 -0.1492414995922E+01  0.1127100581571E+01
 0.2660107639084E-02 -0.3323598002354E+01 -0.1560840806557E+01  0.1293549645474E+01
-0.1692938733365E+00 -0.3371311939560E+01 -0.1664084727841E+01  0.1469766461690E+01
-0.1650516071674E+01 -0.2537047073350E+01 -0.1968154673169E+01  0.8899269335570E+00
-0.1096099073711E+01 -0.2701285956168E+01 -0.1784770959516E+01  0.7695551597830E+00
-0.6751086169797E+00 -0.2817599900615E+01 -0.1641572999106E+01  0.7299208616639E+00
-0.3642752381879E+00 -0.2901415002783E+01 -0.1534874409363E+01  0.7443290010561E+00
-0.1478347779980E+00 -0.2963070969155E+01 -0.1462125697453E+01  0.7983119719689E+00
-0.1534696910067E-01 -0.3009288890260E+01 -0.1421578850294E+01  0.8847128097980E+00
 0.4013642289606E-01 -0.3043994352118E+01 -0.1411813223153E+01  0.1000089205533E+01
 0.2238839049777E-01 -0.3067356143839E+01 -0.1431134840441E+01  0.1140875424210E+01
-0.6881074951843E-01 -0.3074312517200E+01 -0.1477267931611E+01  0.1300120416050E+01
-0.2338365592311E+00 -0.3054649510458E+01 -0.1545588448834E+01  0.1464634655451E+01
-0.1571205922390E+01 -0.2479883203814E+01 -0.1904011884486E+01  0.9689782897572E+00
-0.1064627337366E+01 -0.2627066570792E+01 -0.1735096132433E+01  0.8250913853432E+00
-0.6736418232919E+00 -0.2730813095817E+01 -0.1600093807923E+01  0.7687635278762E+00
-0.3829358880530E+00 -0.2801532732411E+01 -0.1496700247822E+01  0.7712558830454E+00
-0.1813329913548E+00 -0.2846661541092E+01 -0.1423157426640E+01  0.8163271605944E+00
-0.6087534925944E-01 -0.2871038161826E+01 -0.1377999346715E+01  0.8952310168629E+00
-0.1531322824376E-01 -0.2877126521993E+01 -0.1359446679163E+01  0.1003130788614E+01
-0.3989658129760E-01 -0.2863554292677E+01 -0.1364621907307E+01  0.1134714790403E+01
-0.1322937010411E+00 -0.2823275500979E+01 -0.1389117521426E+01  0.1280778551359E+01
-0.2869499130850E+00 -0.2744178590753E+01 -0.1424630393190E+01  0.1426385623822E+01
-0.1482826813279E+01 -0.2418746853470E+01 -0.1833739618721E+01  0.1040533215721E+01
-0.1026786453283E+01 -0.2547604506071E+01 -0.1679963746635E+01  0.8759654909008E+00
-0.6675926896588E+00 -0.2637799613275E+01 -0.1553534378438E+01  0.8031868367203E+00
-0.3979777098448E+00 -0.2694775172141E+01 -0.1453593850847E+01  0.7926048419221E+00
-0.2114133780537E+00 -0.2723277702973E+01 -0.1379304804584E+01  0.8267271946286E+00
-0.1024917618014E+00 -0.2726590543100E+01 -0.1329668679931E+01  0.8953863847996E+00
-0.6565232354929E-01 -0.2706176394362E+01 -0.1302759494114E+01  0.9924341133316E+00
-0.9497041044915E-01 -0.2659562171607E+01 -0.1294630310283E+01  0.1110871457086E+01
-0.1856340704973E+00 -0.2578423057407E+01 -0.1299106846820E+01  0.1239373717049E+01
-0.3266806465486E+00 -0.2450689126200E+01 -0.1305363789881E+01  0.1362060460656E+01
-0.1387005966322E+01 -0.2355193964440E+01 -0.1758833962997E+01  0.1104293871994E+01
-0.9827691143278E+00 -0.2464892184848E+01 -0.1620400806503E+01  0.9219684927856E+00
-0.6564235652862E+00 -0.2540711022933E+01 -0.1502653252652E+01  0.8330958115589E+00
-0.4085010282268E+00 -0.2583417469156E+01 -0.1406201690203E+01  0.8084762198135E+00
-0.2369073104813E+00 -0.2595352981709E+01 -0.1331162333953E+01  0.8299662302518E+00
-0.1388491044259E+00 -0.2578809862047E+01 -0.1277299711003E+01  0.8862051470680E+00
-0.1094174916985E+00 -0.2534813625373E+01 -0.1242788621871E+01  0.9698568645950E+00
-0.1415680394107E+00 -0.2460386221106E+01 -0.1222918499341E+01  0.1072317604788E+01
-0.2282340927104E+00 -0.2346090999507E+01 -0.1209932790273E+01  0.1180484057615E+01
-0.3537856248294E+00 -0.2181249695619E+01 -0.1191466597589E+01  0.1279022091971E+01
-0.1285397866962E+01 -0.2290830916861E+01 -0.1680827524134E+01  0.1160139257121E+01
-0.9328020642092E+00 -0.2380956206647E+01 -0.1557466383352E+01  0.9629465700454E+00
-0.6397039229608E+00 -0.2441748620161E+01 -0.1448282691594E+01  0.8584112524327E+00
-0.4137365651403E+00 -0.2469651975068E+01 -0.1355192610461E+01  0.8189950974409E+00
-0.2569996581969E+00 -0.2465169986356E+01 -0.1279419729695E+01  0.8265578200137E+00
-0.1688805836923E+00 -0.2429868663016E+01 -0.1221412142855E+01  0.8689104417227E+00
-0.1456370305763E+00 -0.2365814885130E+01 -0.1180382397388E+01  0.9376693845041E+00
-0.1789644499123E+00 -0.2269775919044E+01 -0.1150907970490E+01  0.1022539401463E+01
-0.2607585010681E+00 -0.2131208697644E+01 -0.1124224580543E+01  0.1108809983884E+01
-0.3706219335344E+00 -0.1939698786655E+01 -0.1085850735735E+01  0.1183704812936E+01
-0.1179505427493E+01 -0.2227133568544E+01 -0.1601120324076E+01  0.1208145190292E+01
-0.8772184759187E+00 -0.2297924239372E+01 -0.1492317072402E+01  0.9988153887583E+00
-0.6170446351078E+00 -0.2343078297783E+01 -0.1391257774930E+01  0.8790447552466E+00
-0.4131506924314E+00 -0.2355663578464E+01 -0.1301342704020E+01  0.8242454087212E+00
-0.2709981588599E+00 -0.2334609284016E+01 -0.1224635495046E+01  0.8169805951186E+00
-0.1925255347650E+00 -0.2281863500152E+01 -0.1162962843461E+01  0.8446197776386E+00
-0.1730887999048E+00 -0.2199742992974E+01 -0.1115230939824E+01  0.8983697237529E+00
-0.2070607343884E+00 -0.2090319755633E+01 -0.1079768827571E+01  0.9655450733479E+00
-0.2840225284149E+00 -0.1937278920246E+01 -0.1044011678222E+01  0.1028990794009E+01
-0.3811346738258E+00 -0.1729141051715E+01 -0.9918295884886E+00  0.1080819306474E+01
-0.1070921303881E+01 -0.2165657180734E+01 -0.1521191883911E+01  0.1248546874352E+01
-0.8158443566247E+00 -0.2217315823721E+01 -0.1425585281147E+01  0.1029665469019E+01
-0.5887801004714E+00 -0.2247743698277E+01 -0.1333166182031E+01  0.8948835365994E+00
-0.4059856755144E+00 -0.2243097438441E+01 -0.1245069060401E+01  0.8241190509053E+00
-0.2785507756369E+00 -0.2205284606667E+01 -0.1167402626722E+01  0.8016405160827E+00
-0.2095819916813E+00 -0.2136069874023E+01 -0.1102456374085E+01  0.8142809554611E+00
-0.1945069893066E+00 -0.2038985963038E+01 -0.1049741684939E+01  0.8535791786882E+00
-0.2201507275699E+00 -0.1914952594343E+01 -0.1003498558754E+01  0.9063104831212E+00
-0.3017842464759E+00 -0.1771516329975E+01 -0.9744512684605E+00  0.9468598747804E+00
-0.3899648601715E+00 -0.1554636574960E+01 -0.9139626721938E+00  0.9729175578711E+00
-0.9548105986598E+00 -0.2100586810690E+01 -0.1436036778752E+01  0.1282844021645E+01
-0.7532205085079E+00 -0.2146779525573E+01 -0.1363000012561E+01  0.1056372774807E+01
-0.5527872650211E+00 -0.2156498896101E+01 -0.1273364492498E+01  0.9053225703566E+00
-0.3925309364446E+00 -0.2134283708283E+01 -0.1187602880010E+01  0.8183082283141E+00
-0.2791760030076E+00 -0.2077940633820E+01 -0.1107844816499E+01  0.7807103363548E+00
-0.2199229019245E+00 -0.1993023777878E+01 -0.1040084936869E+01  0.7788975293104E+00
-0.2104887699037E+00 -0.1884342839755E+01 -0.9845708540425E+00  0.8042466709152E+00
-0.2330951127362E+00 -0.1751320538190E+01 -0.9326753535698E+00  0.8454427801092E+00
-0.2746932767713E+00 -0.1586653410328E+01 -0.8748329407179E+00  0.8761758286089E+00
-0.4378256804348E+00 -0.1475294086213E+01 -0.8991662880438E+00  0.8672275053678E+00
-0.1965829521125E+01 -0.3485815753326E+01 -0.2562273272493E+01 -0.4775155164563E+00
 0.1374533521696E+00 -0.3631341894020E+00 -0.1060699932302E+00  0.1866905979340E+00
 0.7227297802617E-01  0.1392749652782E-01  0.4051422293762E-01  0.6757221369917E-01
 0.5766261181373E-01  0.1281505719309E+00  0.8733219613847E-01 -0.2091407355983E-02
 0.3057854862159E-01  0.2041021566319E+00  0.1102999311894E+00 -0.1600624227054E-01
 0.1933402841336E-01  0.2653202559217E+00  0.1337875132982E+00  0.7919959976180E-02
 0.7701118814299E-01  0.3196815611579E+00  0.1864455916985E+00  0.7141172437498E-01
 0.1477360281573E+00  0.2892318749769E+00  0.2053749139521E+00  0.1318284237038E+00
 0.2086311586266E+00  0.2476404668709E+00  0.2144476634399E+00  0.1277218179890E+00
 0.6973282444160E-01 -0.1492009524729E+00 -0.3735002007996E-01  0.1179137510043E+00
-0.8795261722026E+00 -0.2542244464291E+01 -0.1608232195073E+01 -0.6910193459893E+00
-0.2619053417403E+00 -0.1427271657982E+01 -0.7939131878560E+00 -0.5679924659355E-02
 0.5083569409226E-01 -0.5203180121121E+00 -0.2206566889096E+00  0.9882480471717E-01
 0.5887760540534E-01 -0.2605882490768E+00 -0.9480400228513E-01  0.4611506352712E-01
 0.3339479162599E-01 -0.1352424930846E+00 -0.4786841956413E-01 -0.2684224019250E-02
 0.1396790120787E-01 -0.4043889971801E-01 -0.1244136926821E-01 -0.2732794186396E-01
 0.2369282667911E-01  0.1857996388564E-01  0.1986821151504E-01 -0.2211976534252E-01
 0.4542055577736E-01  0.6666023877740E-02  0.2448069237581E-01 -0.2389775204102E-01
 0.7602865943421E-03 -0.1286251204566E+00 -0.6009647176282E-01 -0.8966806472740E-01
-0.1940436908934E+00 -0.6362445345578E+00 -0.3902354649723E+00 -0.1824008518451E+00
-0.7197948379497E+00 -0.2312833554010E+01 -0.1425335340606E+01 -0.7559943357162E+00
-0.2509810624665E+00 -0.1682281655548E+01 -0.9086334751621E+00 -0.1712400730710E+00
-0.4041417096311E-01 -0.1081231452752E+01 -0.5271734418090E+00  0.2814497435471E-01
 0.5893660504433E-01 -0.7001347190183E+00 -0.3013631128034E+00  0.4333988648321E-01
 0.5328257164758E-01 -0.5220844780400E+00 -0.2203368954456E+00 -0.7480701111679E-02
 0.3062299994128E-01 -0.4080422092658E+00 -0.1773870279326E+00 -0.6656397356980E-01
 0.1038457554049E-01 -0.3468561255882E+00 -0.1581416281213E+00 -0.1162741557926E+00
-0.1937002588690E-01 -0.3827267079271E+00 -0.1889854644132E+00 -0.1779176958695E+00
-0.1104728278067E+00 -0.5946165415413E+00 -0.3313920027530E+00 -0.2884960838520E+00
-0.3297536913682E+00 -0.1216668493147E+01 -0.7268184248786E+00 -0.4225192243708E+00
-0.7283190097425E+00 -0.2236990376814E+01 -0.1393695408147E+01 -0.7706718505430E+00
-0.2954358650266E+00 -0.1857349746563E+01 -0.1011809234881E+01 -0.2696004801696E+00
-0.7609462920565E-01 -0.1446135405350E+01 -0.7154481144264E+00 -0.4915273583576E-01
 0.3926262881048E-01 -0.1133149567595E+01 -0.5141268599249E+00  0.5280892833432E-02
 0.7570139478310E-01 -0.9351722541563E+00 -0.4039513028808E+00 -0.2972505663864E-01
 0.6551699027887E-01 -0.8173499622624E+00 -0.3533614959360E+00 -0.1047367394697E+00
 0.2899022320437E-01 -0.7717057173815E+00 -0.3490762813779E+00 -0.1953484533776E+00
-0.3029804047730E-01 -0.8412632805035E+00 -0.4096338198220E+00 -0.3026254155536E+00
-0.1401153671021E+00 -0.1121009454435E+01 -0.5927286646192E+00 -0.4384118547744E+00
-0.3374448539624E+00 -0.1779362797590E+01 -0.9948995937062E+00 -0.5766040200884E+00
-0.8056191372926E+00 -0.2233702132140E+01 -0.1428480993010E+01 -0.7558758143858E+00
-0.3654907535369E+00 -0.2004037957307E+01 -0.1113678491272E+01 -0.3203115632742E+00
-0.1181152560729E+00 -0.1734357142157E+01 -0.8706620249595E+00 -0.1043790527808E+00
 0.2546196517715E-01 -0.1505624946741E+01 -0.6956765995705E+00 -0.3339038081433E-01
 0.9349623449374E-01 -0.1344276763501E+01 -0.5878668471426E+00 -0.5534255448539E-01
 0.1081161459368E+00 -0.1246037907940E+01 -0.5348232267850E+00 -0.1328107191087E+00
 0.7297644455231E-01 -0.1228588847654E+01 -0.5431378280800E+00 -0.2461882771132E+00
 0.4549107464578E-02 -0.1335376070128E+01 -0.6254886708654E+00 -0.3802289900254E+00
-0.9890077741390E-01 -0.1653792816807E+01 -0.8237659871946E+00 -0.5236289238853E+00
-0.2660258598125E+00 -0.2295314217292E+01 -0.1203829833186E+01 -0.6486914222198E+00
-0.9111885258725E+00 -0.2266046821077E+01 -0.1493300609279E+01 -0.7207531693143E+00
-0.4519369701661E+00 -0.2142581871077E+01 -0.1219423852291E+01 -0.3353727070610E+00
-0.1688090177637E+00 -0.1979424690498E+01 -0.1009669840322E+01 -0.1328779859452E+00
 0.7841256167963E-02 -0.1833244164553E+01 -0.8579393647647E+00 -0.5637734769643E-01
 0.1088972361085E+00 -0.1726592025711E+01 -0.7603165491846E+00 -0.6846101228971E-01
 0.1511836915033E+00 -0.1668963143149E+01 -0.7133563404641E+00 -0.1407875141092E+00
 0.1317772140076E+00 -0.1688020009538E+01 -0.7314341120440E+00 -0.2601725261727E+00
 0.7248823739649E-01 -0.1827326114581E+01 -0.8247738001850E+00 -0.4026977685258E+00
-0.1088259166920E-01 -0.2158085843782E+01 -0.1019415162076E+01 -0.5418640376617E+00
-0.1498437947048E+00 -0.2746895760942E+01 -0.1361467587701E+01 -0.6501289460410E+00
-0.1029072726398E+01 -0.2316767968387E+01 -0.1572545122561E+01 -0.6694481315695E+00
-0.5466920897280E+00 -0.2275637682965E+01 -0.1326494989801E+01 -0.3230301330059E+00
-0.2283261657544E+00 -0.2197119178136E+01 -0.1139959308737E+01 -0.1354484419243E+00
-0.1668469637355E-01 -0.2124100241989E+01 -0.1006168918479E+01 -0.5756435105841E-01
 0.1177796105120E+00 -0.2075711393945E+01 -0.9202279358796E+00 -0.6057603427486E-01
 0.1897666049141E+00 -0.2065637955116E+01 -0.8816595323585E+00 -0.1222106752517E+00
 0.1949248435805E+00 -0.2122747503666E+01 -0.9060766479423E+00 -0.2342907628891E+00
 0.1568787940561E+00 -0.2286335426638E+01 -0.1000844614775E+01 -0.3704593414766E+00
 0.1008803064170E+00 -0.2608362394117E+01 -0.1178516578230E+01 -0.4984697016260E+00
-0.1366775920717E-01 -0.3125727463474E+01 -0.1475515750918E+01 -0.5946543435612E+00
-0.1150695060261E+01 -0.2374998452052E+01 -0.1657075946584E+01 -0.6041180132291E+00
-0.6454141991471E+00 -0.2401513351162E+01 -0.1432055945013E+01 -0.2887628971083E+00
-0.2952883011161E+00 -0.2392140452220E+01 -0.1263091510864E+01 -0.1144570364231E+00
-0.5019854415492E-01 -0.2381954197048E+01 -0.1143111785466E+01 -0.3576565516241E-01
 0.1167986301477E+00 -0.2387170618473E+01 -0.1067074831806E+01 -0.2900696218394E-01
 0.2188100803171E+00 -0.2422284965473E+01 -0.1035633193397E+01 -0.7591645977077E-01
 0.2516439025505E+00 -0.2513285835776E+01 -0.1062971705920E+01 -0.1714974767553E+00
 0.2415295908506E+00 -0.2688942193866E+01 -0.1150283920500E+01 -0.2909158830888E+00
 0.2154476208548E+00 -0.2987587093066E+01 -0.1302905548634E+01 -0.4039274088342E+00
 0.1275793394007E+00 -0.3426955885993E+01 -0.1550706972965E+01 -0.4958096290755E+00
-0.1270551341736E+01 -0.2432618612925E+01 -0.1740489874276E+01 -0.5260311417934E+00
-0.7450645194685E+00 -0.2515768832020E+01 -0.1532591671312E+01 -0.2360940265859E+00
-0.3687998470228E+00 -0.2564787483876E+01 -0.1378786042025E+01 -0.7225807163273E-01
-0.9365948837000E-01 -0.2607126890646E+01 -0.1269369594918E+01  0.7763909639864E-02
 0.1036691752831E+00 -0.2656933660220E+01 -0.1200034304877E+01  0.2511248148768E-01
 0.2342709166507E+00 -0.2729466098741E+01 -0.1172741732608E+01 -0.4632307162060E-02
 0.2956846630713E+00 -0.2846074543121E+01 -0.1198683240583E+01 -0.7892896139962E-01
 0.3063615701773E+00 -0.3028649750165E+01 -0.1279475441349E+01 -0.1782453517517E+00
 0.3181299342259E+00 -0.3281205345027E+01 -0.1392645439544E+01 -0.2735875773276E+00
 0.2659211717982E+00 -0.3647726777715E+01 -0.1589448630749E+01 -0.3656280170676E+00
-0.1379454964097E+01 -0.2476241021825E+01 -0.1812177108787E+01 -0.4354071484335E+00
-0.8455847410408E+00 -0.2615634097196E+01 -0.1626772849845E+01 -0.1658821983717E+00
-0.4479107586254E+00 -0.2714340572205E+01 -0.1486258121721E+01 -0.1063478723833E-01
-0.1463057688506E+00 -0.2797872336301E+01 -0.1383763705912E+01  0.7060430470728E-01
 0.7637803986587E-01 -0.2882534521482E+01 -0.1318893543014E+01  0.9826242903035E-01
 0.2337915191473E+00 -0.2979694601462E+01 -0.1290574445415E+01  0.8654292981746E-01
 0.3236719340976E+00 -0.3111857568698E+01 -0.1310447244939E+01  0.3639799948061E-01
 0.3561632052659E+00 -0.3297357257695E+01 -0.1382361201136E+01 -0.4489878675992E-01
 0.3534746434927E+00 -0.3538654858976E+01 -0.1497034697480E+01 -0.1349016783385E+00
 0.4370676739563E+00 -0.3738563224629E+01 -0.1551702904881E+01 -0.2230719134987E+00
-0.8644129307751E+00 -0.2068291624934E+01 -0.1378371137687E+01  0.1304926690785E+01
-0.6699584107116E+00 -0.2072070796261E+01 -0.1288753724008E+01  0.1074025750695E+01
-0.4990854491347E+00 -0.2052647446705E+01 -0.1199314458003E+01  0.9133666439461E+00
-0.3659933913130E+00 -0.2000982541690E+01 -0.1112478685690E+01  0.8129030501064E+00
-0.2776917790603E+00 -0.1918657727581E+01 -0.1032284265503E+01  0.7576025129896E+00
-0.2307279835328E+00 -0.1806331005651E+01 -0.9574177224880E+00  0.7323159228421E+00
-0.2227954015178E+00 -0.1673365418299E+01 -0.8911955830537E+00  0.7303854416253E+00
-0.2466989064106E+00 -0.1530313237296E+01 -0.8351957054239E+00  0.7453268533492E+00
-0.2784264525613E+00 -0.1375399324398E+01 -0.7772981131992E+00  0.7562773260758E+00
-0.1924667134851E+00 -0.1107932421033E+01 -0.6111875916732E+00  0.7599091042905E+00
-0.7576272748756E+00 -0.2031489189993E+01 -0.1310884735163E+01  0.1318299077000E+01
-0.5786687763108E+00 -0.1998927540861E+01 -0.1211470265998E+01  0.1070881659899E+01
-0.4222000358829E+00 -0.1927000716221E+01 -0.1104124350688E+01  0.8864716406317E+00
-0.3099291066248E+00 -0.1824801083267E+01 -0.1003323186704E+01  0.7615124744452E+00
-0.2399457469870E+00 -0.1697263316800E+01 -0.9104882576704E+00  0.6832230640100E+00
-0.2071779040647E+00 -0.1552152071227E+01 -0.8268850862898E+00  0.6380563570138E+00
-0.2095411737757E+00 -0.1402558734009E+01 -0.7576869547371E+00  0.6232244019310E+00
-0.2373349721676E+00 -0.1257359547170E+01 -0.7025064223070E+00  0.6316668762830E+00
-0.2473756439636E+00 -0.1105317127346E+01 -0.6357656009027E+00  0.6432193088390E+00
-0.2891292433678E+00 -0.9677418583350E+00 -0.5907294163020E+00  0.6663344056556E+00
-0.6573248682363E+00 -0.2010040702816E+01 -0.1253661815215E+01  0.1322155154807E+01
-0.4847552264296E+00 -0.1935293317466E+01 -0.1137422812746E+01  0.1050425877236E+01
-0.3424880697796E+00 -0.1807639782405E+01 -0.1010560087964E+01  0.8368145966351E+00
-0.2480683300140E+00 -0.1650157018581E+01 -0.8921659115768E+00  0.6869267963527E+00
-0.1952828664198E+00 -0.1478013799062E+01 -0.7864494307818E+00  0.5886922727088E+00
-0.1754383808246E+00 -0.1302805339772E+01 -0.6947745469180E+00  0.5285268547239E+00
-0.1862617974324E+00 -0.1140108529449E+01 -0.6233940520529E+00  0.5043639897390E+00
-0.2141150622310E+00 -0.9956368018321E+00 -0.5685833746675E+00  0.5095064467341E+00
-0.2461227326157E+00 -0.8747242099998E+00 -0.5267980616931E+00  0.5266000875436E+00
-0.3029644071750E+00 -0.7560551769521E+00 -0.4977392032773E+00  0.5499908435651E+00
-0.5655102220131E+00 -0.2009144338780E+01 -0.1210087640504E+01  0.1316311735158E+01
-0.3920617951956E+00 -0.1886241801349E+01 -0.1070802687660E+01  0.1009700678548E+01
-0.2615813555508E+00 -0.1691517055470E+01 -0.9179562508517E+00  0.7630672975892E+00
-0.1836101736977E+00 -0.1472311596047E+01 -0.7782832298061E+00  0.5905634124346E+00
-0.1463086149077E+00 -0.1255035394867E+01 -0.6586316829235E+00  0.4781590165069E+00
-0.1382366902477E+00 -0.1054652765144E+01 -0.5606580426122E+00  0.4094117194311E+00
-0.1555955407344E+00 -0.8857639211216E+00 -0.4894389458309E+00  0.3800796070071E+00
-0.1874596285194E+00 -0.7517394376011E+00 -0.4414235599570E+00  0.3821619453309E+00
-0.2240617037995E+00 -0.6482373826206E+00 -0.4099805695776E+00  0.3978678043387E+00
-0.2779020449691E+00 -0.5517233806059E+00 -0.3899239490313E+00  0.4173678378558E+00
-0.4882759139225E+00 -0.2038543778215E+01 -0.1187605252292E+01  0.1299949841270E+01
-0.3043287428220E+00 -0.1852735312720E+01 -0.1013820103533E+01  0.9437229872538E+00
-0.1835199149799E+00 -0.1572290532908E+01 -0.8252309084142E+00  0.6626490957537E+00
-0.1194012104425E+00 -0.1281320780088E+01 -0.6583393338795E+00  0.4741133198145E+00
-0.9597549993297E-01 -0.1020401880983E+01 -0.5246973676995E+00  0.3569419135797E+00
-0.9873845994345E-01 -0.8041263199250E+00 -0.4243464454619E+00  0.2879016240229E+00
-0.1212209990356E+00 -0.6407968075706E+00 -0.3581483681965E+00  0.2570981384466E+00
-0.1504732713978E+00 -0.5245114612982E+00 -0.3172428235625E+00  0.2542156129899E+00
-0.1825063495099E+00 -0.4435208781424E+00 -0.2942327962503E+00  0.2649862411628E+00
-0.2218624396887E+00 -0.3704526545016E+00 -0.2783880935633E+00  0.2804179012744E+00
-0.4365151915498E+00 -0.2112689048608E+01 -0.1198125989835E+01  0.1270494844343E+01
-0.2283575250471E+00 -0.1832947595048E+01 -0.9688134039876E+00  0.8445337917051E+00
-0.1132821561696E+00 -0.1435785551516E+01 -0.7280618207656E+00  0.5325426573310E+00
-0.5794426090230E-01 -0.1060799225799E+01 -0.5258094374158E+00  0.3412744441618E+00
-0.4755180874080E-01 -0.7648186492959E+00 -0.3818141143088E+00  0.2333455910081E+00
-0.6108513173130E-01 -0.5496738298631E+00 -0.2870567112213E+00  0.1735080267427E+00
-0.8553022695270E-01 -0.4074449904262E+00 -0.2316983515804E+00  0.1437980553008E+00
-0.1054296976660E+00 -0.3198490671681E+00 -0.1998810189650E+00  0.1341051888524E+00
-0.1237237552572E+00 -0.2670059198919E+00 -0.1836429468543E+00  0.1380733801816E+00
-0.1421893030227E+00 -0.2193008742221E+00 -0.1699003828741E+00  0.1488988176564E+00
-0.4322662288765E+00 -0.2256035609364E+01 -0.1263501860768E+01  0.1222080097580E+01
-0.1767476087068E+00 -0.1819168563849E+01 -0.9380805987219E+00  0.6996398988836E+00
-0.5425092936901E-01 -0.1251813935806E+01 -0.6138504850754E+00  0.3711821321928E+00
-0.9322574933455E-03 -0.7874936262930E+00 -0.3705601644397E+00  0.2012246735118E+00
-0.4217525938772E-02 -0.4806820423451E+00 -0.2279027965154E+00  0.1209893706140E+00
-0.3115078560354E-01 -0.2966940964765E+00 -0.1540870941868E+00  0.7811808740340E-01
-0.5150781396288E-01 -0.1911657582064E+00 -0.1140565786303E+00  0.4871232607482E-01
-0.5515186688638E-01 -0.1412019557669E+00 -0.9228629641295E-01  0.2972689202697E-01
-0.5225848539503E-01 -0.1206621433735E+00 -0.8127269531507E-01  0.2555696171945E-01
-0.4490132054954E-01 -0.9920331640434E-01 -0.6772917919654E-01  0.3021959742747E-01
-0.5331277268360E+00 -0.2521953730929E+01 -0.1435888281508E+01  0.1141181194850E+01
-0.1643425657084E+00 -0.1779034576997E+01 -0.9133872547550E+00  0.4903750450633E+00
-0.6885886025132E-02 -0.9645348237868E+00 -0.4565677324536E+00  0.1839294905259E+00
 0.5964958197412E-01 -0.4269775761507E+00 -0.1726441568251E+00  0.7624682942929E-01
 0.2185730288120E-01 -0.1843537297066E+00 -0.7637332041424E-01  0.4091486767640E-01
-0.1070727826896E-01 -0.5728323734446E-01 -0.3195554225725E-01  0.1245240128600E-01
-0.1969482317786E-01  0.1243377939390E-02 -0.8672179240085E-02 -0.2245036033180E-01
-0.1907719783343E-02  0.9496077661006E-02  0.3566528193456E-02 -0.5369061983648E-01
 0.2744414683187E-01 -0.2924782996050E-02  0.1152410097361E-01 -0.6710859846165E-01
 0.6411262973474E-01 -0.8176604360567E-02  0.2628993185918E-01 -0.7060684903045E-01
-0.8817416706384E+00 -0.3028151116832E+01 -0.1837649605450E+01  0.9969198072890E+00
-0.2359442628970E+00 -0.1635474741878E+01 -0.8795669300133E+00  0.1863003545247E+00
 0.1131343922239E+00 -0.3951774837345E+00 -0.1325602526737E+00  0.9659925402080E-02
 0.8296351730246E-01 -0.4340042687452E-01  0.1859465245397E-01  0.1399505057935E-01
 0.3435069864455E-01  0.9568618919873E-01  0.6111733713133E-01  0.9567567444246E-02
 0.4650635772744E-02  0.1538773629908E+00  0.7450815922986E-01 -0.1993784526244E-01
 0.1180256303930E-01  0.1629995084904E+00  0.8215697341059E-01 -0.6857651945450E-01
 0.5367877396107E-01  0.1327392531397E+00  0.8761647251512E-01 -0.1143893915994E+00
 0.1103909843496E+00  0.8884508767995E-01  0.9364095361638E-01 -0.1374088962400E+00
 0.1796773184534E+00  0.5786218318030E-01  0.1116435654847E+00 -0.1508199945243E+00
-0.2554673400954E+01 -0.4573876529151E+01 -0.3350418458652E+01  0.6476122908064E+00
 0.2607232740196E+00 -0.3531466594438E+00 -0.4343899103917E-01 -0.1599742110415E+00
 0.1290739606043E+00  0.1582535382177E+00  0.1350439241038E+00 -0.1783778657283E-01
 0.9291034127292E-01  0.2927458086487E+00  0.1812583900034E+00  0.3656142946255E-01
 0.4676976116179E-01  0.3351516374156E+00  0.1795030568761E+00  0.2305011943949E-01
 0.2234092333058E-01  0.3259713125332E+00  0.1637067504407E+00 -0.2362782598291E-01
 0.4636672119936E-01  0.2909736342483E+00  0.1585499666583E+00 -0.9203686212928E-01
 0.1083833623262E+00  0.2256292190291E+00  0.1569859128388E+00 -0.1533305419060E+00
 0.1989487071815E+00  0.1663496617603E+00  0.1716902329671E+00 -0.1867382349625E+00
 0.2880150133737E+00  0.9582777942042E-01  0.1804061121557E+00 -0.2080515003469E+00
 0.1266102964169E+00 -0.4358893340798E+01 -0.1989173025814E+01 -0.2456492212374E+00
 0.1546064626753E+00 -0.4176746463372E+01 -0.1890405795533E+01 -0.3630922634099E+00
 0.6541396292073E-01 -0.4027119093769E+01 -0.1862001406776E+01 -0.4808418406949E+00
-0.4911474914844E-01 -0.3831066796523E+01 -0.1823685321840E+01 -0.5870529514126E+00
-0.1811043084614E+00 -0.3576833636064E+01 -0.1766230829447E+01 -0.6675816511021E+00
-0.3181143916120E+00 -0.3252869137368E+01 -0.1678362254363E+01 -0.7063622507609E+00
-0.4446910106756E+00 -0.2850155117210E+01 -0.1548577676178E+01 -0.6838003297250E+00
-0.5307150799186E+00 -0.2357166455810E+01 -0.1357304318350E+01 -0.5758585057096E+00
-0.5230229163008E+00 -0.1764961206716E+01 -0.1075352535090E+01 -0.3535655093075E+00
-0.1966913993998E+00 -0.9820825522389E+00 -0.5540237558650E+00  0.2655304089002E-01
 0.1998871071488E+00 -0.4549713371569E+01 -0.2044418339092E+01 -0.6115091769874E-01
 0.1234433454036E+00 -0.4594445685364E+01 -0.2101371094452E+01 -0.1868956545890E+00
 0.3472559018930E-01 -0.4549877877555E+01 -0.2122121569679E+01 -0.3028024934887E+00
-0.1023026208550E+00 -0.4472238870009E+01 -0.2150034495253E+01 -0.4160107030019E+00
-0.2691739349247E+00 -0.4345891834925E+01 -0.2169080906328E+01 -0.5142743829489E+00
-0.4594742888327E+00 -0.4160753022153E+01 -0.2171506830656E+01 -0.5830515975993E+00
-0.6617289359906E+00 -0.3903060750412E+01 -0.2145451147168E+01 -0.6034504610686E+00
-0.8566538008087E+00 -0.3556361042377E+01 -0.2074116971036E+01 -0.5492767122394E+00
-0.9954466694831E+00 -0.3086148823753E+01 -0.1918349876955E+01 -0.3791535910212E+00
-0.1013909204273E+01 -0.2446034286856E+01 -0.1626173436706E+01 -0.1191023106590E-01
 0.1853964730826E+00 -0.4755801236531E+01 -0.2148090233373E+01  0.1653297276391E+00
 0.9617199404827E-01 -0.4866156038944E+01 -0.2241892495415E+01  0.4327254188584E-01
-0.2945181803968E-01 -0.4942178963371E+01 -0.2336666461336E+01 -0.6828401954251E-01
-0.1966429362109E+00 -0.4977095394201E+01 -0.2431657009126E+01 -0.1748192593544E+00
-0.4130149730822E+00 -0.4975012964148E+01 -0.2532373124075E+01 -0.2715881648743E+00
-0.6780572287494E+00 -0.4926085692946E+01 -0.2633947166516E+01 -0.3468497006387E+00
-0.9934077755527E+00 -0.4817845737369E+01 -0.2731289144145E+01 -0.3837283198341E+00
-0.1360099521607E+01 -0.4631983419114E+01 -0.2816278974995E+01 -0.3578437424377E+00
-0.1788766081578E+01 -0.4346038679982E+01 -0.2883358230620E+01 -0.2317677338258E+00
-0.2324609056250E+01 -0.3930280789429E+01 -0.2939798220013E+01  0.5165606380238E-01
 0.1576786713463E+00 -0.4893805837826E+01 -0.2225979762599E+01  0.4028807937207E+00
 0.4246462066527E-01 -0.5057347656932E+01 -0.2356995021067E+01  0.3013979785435E+00
-0.1132396788157E+00 -0.5205648106879E+01 -0.2499877252936E+01  0.2047965607536E+00
-0.3233840119149E+00 -0.5332883492801E+01 -0.2658445720474E+01  0.1119537161015E+00
-0.5980245634664E+00 -0.5432925672058E+01 -0.2834546603507E+01  0.2553109469009E-01
-0.9491217326285E+00 -0.5498976398249E+01 -0.3030606113825E+01 -0.4687655696394E-01
-0.1390784713829E+01 -0.5519295526725E+01 -0.3247737704823E+01 -0.9298524833955E-01
-0.1945402912702E+01 -0.5479279586719E+01 -0.3489600765877E+01 -0.9579822120315E-01
-0.2652589623751E+01 -0.5361503365206E+01 -0.3766623695256E+01 -0.3417221180757E-01
-0.3588731954421E+01 -0.5149003007929E+01 -0.4106735421889E+01  0.1119457273860E+00
 0.1145244134283E+00 -0.4957295013304E+01 -0.2276102176169E+01  0.6382494766920E+00
-0.2441171353184E-01 -0.5155294217171E+01 -0.2434461781256E+01  0.5645475679917E+00
-0.2123188041036E+00 -0.5353310159203E+01 -0.2615845606119E+01  0.4905125036797E+00
-0.4640342414202E+00 -0.5543623549253E+01 -0.2823599154455E+01  0.4158806737290E+00
-0.7961247189665E+00 -0.5719850366331E+01 -0.3062508282322E+01  0.3417725231737E+00
-0.1227371394934E+01 -0.5873847891247E+01 -0.3337573056040E+01  0.2719163058793E+00
-0.1781615441417E+01 -0.5995283837502E+01 -0.3655142651821E+01  0.2126427335058E+00
-0.2490412773110E+01 -0.6071048595702E+01 -0.4023886833136E+01  0.1718447024373E+00
-0.3397091749565E+01 -0.6086227943489E+01 -0.4457160244430E+01  0.1559340482303E+00
-0.4557586856154E+01 -0.6024785820595E+01 -0.4973715145457E+01  0.1626520899726E+00
 0.6136071048276E-01 -0.4938652268156E+01 -0.2292327026292E+01  0.8630021389508E+00
-0.9796677041703E-01 -0.5153727833179E+01 -0.2468296457430E+01  0.8202176521128E+00
-0.3112478654204E+00 -0.5377599128806E+01 -0.2673758080505E+01  0.7723387312667E+00
-0.5951060330775E+00 -0.5604342997358E+01 -0.2913741036915E+01  0.7179025458065E+00
-0.9688528516252E+00 -0.5827590435602E+01 -0.3194328336895E+01  0.6555311319276E+00
-0.1455660615407E+01 -0.6039785339122E+01 -0.3522859589693E+01  0.5846887434245E+00
-0.2083432109606E+01 -0.6231076545904E+01 -0.3907819058178E+01  0.5056800452553E+00
-0.2885336335656E+01 -0.6389021506575E+01 -0.4358948174793E+01  0.4187557930514E+00
-0.3898170062738E+01 -0.6498676335875E+01 -0.4886517794954E+01  0.3218837344518E+00
-0.5154950910435E+01 -0.6542421331878E+01 -0.5497764939942E+01  0.2072775374484E+00
 0.6100989318050E-03 -0.4837611575230E+01 -0.2273390688094E+01  0.1069922453955E+01
-0.1723045494047E+00 -0.5049856099813E+01 -0.2454415498907E+01  0.1058676479042E+01
-0.4005604348718E+00 -0.5275790868494E+01 -0.2667885105815E+01  0.1038324354524E+01
-0.7004796896853E+00 -0.5511084908457E+01 -0.2919435353722E+01  0.1005232259217E+01
-0.1091876791817E+01 -0.5750770160549E+01 -0.3216044059455E+01  0.9548295979242E+00
-0.1598744016492E+01 -0.5988539305545E+01 -0.3566023152313E+01  0.8819791382009E+00
-0.2249620436188E+01 -0.6215895254794E+01 -0.3978792364670E+01  0.7811181719810E+00
-0.3076601676063E+01 -0.6421332369062E+01 -0.4464028989886E+01  0.6462545489276E+00
-0.4111871648940E+01 -0.6590068630241E+01 -0.5029911918458E+01  0.4708664298427E+00
-0.5382305205474E+01 -0.6705754415582E+01 -0.5681388007486E+01  0.2480946525605E+00
-0.6599878483626E-01 -0.4658324538259E+01 -0.2220431956223E+01  0.1251805455923E+01
-0.2451900490338E+00 -0.4848262977009E+01 -0.2393922916168E+01  0.1270190444064E+01
-0.4769161012340E+00 -0.5052842734081E+01 -0.2598986646006E+01  0.1276590783738E+01
-0.7754648986352E+00 -0.5269326960118E+01 -0.2841052166408E+01  0.1265128279763E+01
-0.1158578975325E+01 -0.5494454469922E+01 -0.3126925711335E+01  0.1228074038575E+01
-0.1648194915562E+01 -0.5723986208008E+01 -0.3464925119290E+01  0.1155886085245E+01
-0.2271118494791E+01 -0.5951979469828E+01 -0.3864856033568E+01  0.1037374420074E+01
-0.3058491997640E+01 -0.6169456066979E+01 -0.4337135579370E+01  0.8605033589016E+00
-0.4043426787394E+01 -0.6363400130982E+01 -0.4891208639231E+01  0.6143409121172E+00
-0.5256650345051E+01 -0.6517241661112E+01 -0.5533729228861E+01  0.2919292959562E+00
-0.1367824448390E+00 -0.4408611852116E+01 -0.2136335314151E+01  0.1402081453069E+01
-0.3157938891640E+00 -0.4558368194651E+01 -0.2290856173583E+01  0.1445523546788E+01
-0.5407083894198E+00 -0.4719818915363E+01 -0.2472447826977E+01  0.1475396989693E+01
-0.8222880278693E+00 -0.4891462028915E+01 -0.2685462519878E+01  0.1484137119455E+01
-0.1174003840338E+01 -0.5071662129689E+01 -0.2935462998467E+01  0.1461640068522E+01
-0.1612912492752E+01 -0.5258462087399E+01 -0.3229546044480E+01  0.1394872943254E+01
-0.2161088062997E+01 -0.5449162333391E+01 -0.3576817677230E+01  0.1267656522137E+01
-0.2847990866175E+01 -0.5639756022744E+01 -0.3989241027673E+01  0.1061204201203E+01
-0.3710488404585E+01 -0.5821413026560E+01 -0.4479993661276E+01  0.7569655595716E+00
-0.4789860555285E+01 -0.5977493097649E+01 -0.5060656204043E+01  0.3424814995301E+00
-0.2096071063704E+00 -0.4100029408919E+01 -0.2025529157049E+01  0.1514754003473E+01
-0.3834396129389E+00 -0.4194524222216E+01 -0.2151642997065E+01  0.1575845050054E+01
-0.5937548357223E+00 -0.4294067014677E+01 -0.2297276263861E+01  0.1622740444869E+01
-0.8468530812017E+00 -0.4397704102963E+01 -0.2464941870305E+01  0.1647181476860E+01
-0.1150270844290E+01 -0.4504780916066E+01 -0.2657874320626E+01  0.1638069108873E+01
-0.1513482618503E+01 -0.4614975689161E+01 -0.2880375397296E+01  0.1580611321095E+01
-0.1949708052493E+01 -0.4728349719829E+01 -0.3138687145030E+01  0.1455355742836E+01
-0.2479762438632E+01 -0.4845300797619E+01 -0.3442779712306E+01  0.1237267184057E+01
-0.3142568099135E+01 -0.4967893864925E+01 -0.3811917113440E+01  0.8959100676056E+00
-0.3994927711429E+01 -0.5085751371079E+01 -0.4267919157954E+01  0.4026567596444E+00
-0.2814615249305E+00 -0.3747830529842E+01 -0.1893767260940E+01  0.1584553061724E+01
-0.4466098672478E+00 -0.3776350326054E+01 -0.1984791285818E+01  0.1652913071350E+01
-0.6375393180848E+00 -0.3800275178104E+01 -0.2085772807918E+01  0.1706492476800E+01
-0.8559049872700E+00 -0.3818244688949E+01 -0.2196850342251E+01  0.1737420718086E+01
-0.1102638410756E+01 -0.3829527691830E+01 -0.2318118062336E+01  0.1735211883193E+01
-0.1377949982668E+01 -0.3834077077670E+01 -0.2449652712146E+01  0.1685605650739E+01
-0.1682019059127E+01 -0.3832627795624E+01 -0.2591884015159E+01  0.1568967810858E+01
-0.2017765182804E+01 -0.3827247310487E+01 -0.2747155864879E+01  0.1357700755009E+01
-0.2399449796273E+01 -0.3822706380525E+01 -0.2924413395677E+01  0.1011471114206E+01
-0.2900211587892E+01 -0.3844565178272E+01 -0.3170045072056E+01  0.4716400882291E+00
-0.3483521071332E+00 -0.3370640730262E+01 -0.1747926629142E+01  0.1607764082357E+01
-0.5024905878932E+00 -0.3328990102285E+01 -0.1800795919816E+01  0.1670350226120E+01
-0.6718505822593E+00 -0.3271639920979E+01 -0.1853440531821E+01  0.1716023915082E+01
-0.8542666825328E+00 -0.3196170559012E+01 -0.1903705498697E+01  0.1737941210310E+01
-0.1044730283530E+01 -0.3100868984117E+01 -0.1948431650852E+01  0.1727252669013E+01
-0.1234549424267E+01 -0.2984621510591E+01 -0.1983010334354E+01  0.1671994727826E+01
-0.1410124111360E+01 -0.2846845513132E+01 -0.2000775718436E+01  0.1555547741124E+01
-0.1550892833784E+01 -0.2687252151140E+01 -0.1991928137862E+01  0.1353688939884E+01
-0.1626162660580E+01 -0.2505207472707E+01 -0.1941743957720E+01  0.1027899623287E+01
-0.1602150057421E+01 -0.2303435267136E+01 -0.1835625097886E+01  0.5038500854265E+00
-0.4047339032242E+00 -0.2989387990467E+01 -0.1595237285989E+01  0.1583351870756E+01
-0.5449179097383E+00 -0.2881505555339E+01 -0.1610419024502E+01  0.1625725706878E+01
-0.6908819112885E+00 -0.2748307359032E+01 -0.1616418952951E+01  0.1645828594443E+01
-0.8379578823992E+00 -0.2586711587893E+01 -0.1609594646955E+01  0.1637549663185E+01
-0.9769477519695E+00 -0.2394462168100E+01 -0.1584562658413E+01  0.1593154857962E+01
-0.1092928272068E+01 -0.2169848070847E+01 -0.1533504877280E+01  0.1502541402673E+01
-0.1162631269743E+01 -0.1911531885209E+01 -0.1444856679163E+01  0.1352454235479E+01
-0.1148681433343E+01 -0.1618146084927E+01 -0.1300408930288E+01  0.1125071930087E+01
-0.9855882508759E+00 -0.1286317736209E+01 -0.1067795811222E+01  0.7948155684595E+00
-0.5157420696910E+00 -0.8859753074360E+00 -0.6588071655787E+00  0.3182523216154E+00
-0.4452755176979E+00 -0.2624753742536E+01 -0.1442913748650E+01  0.1517728009567E+01
-0.5664417369172E+00 -0.2462957872102E+01 -0.1423817812627E+01  0.1529911701189E+01
-0.6852903607214E+00 -0.2271116295907E+01 -0.1389511125091E+01  0.1513247985540E+01
-0.7956195714881E+00 -0.2047379713664E+01 -0.1336209660632E+01  0.1462821857506E+01
-0.8857706771196E+00 -0.1791241748047E+01 -0.1258195836637E+01  0.1372301726763E+01
-0.9379652215624E+00 -0.1503351935326E+01 -0.1147419060827E+01  0.1233852349325E+01
-0.9260495713826E+00 -0.1185734879041E+01 -0.9925386891818E+00  0.1038578535050E+01
-0.8105395306848E+00 -0.8425881982913E+00 -0.7769700306481E+00  0.7776635146849E+00
-0.5275970886218E+00 -0.4818553906563E+00 -0.4744426640574E+00  0.4454167159455E+00
 0.3365268239974E-01 -0.1243427109225E+00 -0.4262431329757E-01  0.5387446519146E-01
-0.4679707824126E+00 -0.2292348711683E+01 -0.1297350158934E+01  0.1423264151085E+01
-0.5639717859415E+00 -0.2093760330480E+01 -0.1249134091550E+01  0.1402889926316E+01
-0.6514969465080E+00 -0.1866481662907E+01 -0.1183449943423E+01  0.1349656162241E+01
-0.7230153552194E+00 -0.1611734883403E+01 -0.1097332609369E+01  0.1261440688750E+01
-0.7657630808013E+00 -0.1333184749400E+01 -0.9865054776924E+00  0.1134973696609E+01
-0.7619542255282E+00 -0.1036424920510E+01 -0.8452381964940E+00  0.9665318283591E+00
-0.6883965206351E+00 -0.7297324114519E+00 -0.6665205963903E+00  0.7536370008351E+00
-0.5159998815005E+00 -0.4264890887576E+00 -0.4429698148977E+00  0.4980965451709E+00
-0.2114446141633E+00 -0.1508642543102E+00 -0.1702851677507E+00  0.2124703327563E+00
 0.2261223401742E+00  0.3325328405714E-01  0.1219065430795E+00 -0.6391310492145E-01
-0.4741382349999E+00 -0.1998913097989E+01 -0.1162334123557E+01  0.1312076523955E+01
-0.5412219371517E+00 -0.1780064984288E+01 -0.1091004850309E+01  0.1261363844405E+01
-0.5962579350315E+00 -0.1536880773054E+01 -0.1002575190257E+01  0.1177538333160E+01
-0.6314868725069E+00 -0.1275077671897E+01 -0.8960853335970E+00  0.1062410159927E+01
-0.6343174568473E+00 -0.1002768943292E+01 -0.7694306061137E+00  0.9162372358351E+00
-0.5893880556565E+00 -0.7295684129927E+00 -0.6199095386928E+00  0.7393088844258E+00
-0.4803349503594E+00 -0.4675698008310E+00 -0.4455152319295E+00  0.5344246611814E+00
-0.2925699278532E+00 -0.2334517579223E+00 -0.2472301916874E+00  0.3100665873838E+00
-0.2285730338430E-01 -0.5306115600695E-01 -0.3568167582339E-01  0.8477508386602E-01
 0.3110712689603E+00  0.4781953502780E-01  0.1686786774466E+00 -0.1112992172114E+00
-0.4674106479158E+00 -0.1746342439819E+01 -0.1040463948596E+01  0.1194088344415E+01
-0.5037569049309E+00 -0.1518380209990E+01 -0.9504044416025E+00  0.1116499944805E+01
-0.5284758703136E+00 -0.1271043278058E+01 -0.8457739975892E+00  0.1009320711447E+01
-0.5337565442891E+00 -0.1015753146621E+01 -0.7282695528805E+00  0.8784330920290E+00
-0.5077370926557E+00 -0.7641231325589E+00 -0.5977743043347E+00  0.7264648796883E+00
-0.4383480607985E+00 -0.5268312511921E+00 -0.4536342754850E+00  0.5559920324432E+00
-0.3160182543059E+00 -0.3150410086673E+00 -0.2965978528452E+00  0.3723506727176E+00
-0.1372091140815E+00 -0.1418377325941E+00 -0.1311520176049E+00  0.1854773329260E+00
 0.9279864463187E-01 -0.1890233977074E-01  0.3473126319664E-01  0.1012374955599E-01
 0.3614177151015E+00  0.5320102863041E-01  0.1948708090597E+00 -0.1380643992495E+00
-0.4503235327153E+00 -0.1532048623968E+01 -0.9317149112780E+00  0.1075888043462E+01
-0.4555277906684E+00 -0.1297447159609E+01 -0.8238982245406E+00  0.9740668665361E+00
-0.4538861182562E+00 -0.1049290791837E+01 -0.7064931459517E+00  0.8508789300871E+00
-0.4370712180424E+00 -0.8075266223834E+00 -0.5849609835165E+00  0.7141592446250E+00
-0.3930329637581E+00 -0.5837048042414E+00 -0.4590667497954E+00  0.5661854349829E+00
-0.3120517788325E+00 -0.3848037550862E+00 -0.3275221001111E+00  0.4099634373505E+00
-0.1897514484703E+00 -0.2177959202212E+00 -0.1915472627992E+00  0.2512561934661E+00
-0.2695968377017E-01 -0.8835457697671E-01 -0.5419770241357E-01  0.9846342991663E-01
 0.1699005461447E+00  0.1512685132741E-02  0.8056421849608E-01 -0.3914736234700E-01
 0.3913272882858E+00  0.5668669336440E-01  0.2105665708415E+00 -0.1542000529345E+00
-0.4259156026509E+00 -0.1350897121799E+01 -0.8351019783736E+00  0.9602761266820E+00
-0.3959263318626E+00 -0.1095980354085E+01 -0.7011961406168E+00  0.8390810062034E+00
-0.3731579829988E+00 -0.8508391267537E+00 -0.5752786401246E+00  0.7103360302086E+00
-0.3432777804077E+00 -0.6347998122025E+00 -0.4596964673609E+00  0.5762517045965E+00
-0.2900273708029E+00 -0.4461004152302E+00 -0.3459800585580E+00  0.4370611662206E+00
-0.2071438596893E+00 -0.2860736208695E+00 -0.2318122152747E+00  0.2962082235309E+00
-0.9296246455040E-01 -0.1560630184750E+00 -0.1170419767251E+00  0.1592597722249E+00
 0.4985622569052E-01 -0.5661732915624E-01 -0.3177718620828E-02  0.3275385493876E-01
 0.2175283057204E+00  0.1548633778645E-01  0.1095168821705E+00 -0.7749969431115E-01
 0.4016692700720E+00  0.6310038821888E-01  0.2184417388427E+00 -0.1685291056123E+00
-0.3785683826505E+00 -0.1162434493454E+01 -0.7242713499321E+00  0.8408861686082E+00
-0.3133365483356E+00 -0.8751503933480E+00 -0.5585888611745E+00  0.7279396860872E+00
-0.2836984016388E+00 -0.6705051948750E+00 -0.4484756892240E+00  0.6035289057143E+00
-0.2468041727070E+00 -0.4995306831103E+00 -0.3507773813444E+00  0.4719463896802E+00
-0.1936316966746E+00 -0.3540226454316E+00 -0.2573975401370E+00  0.3375614724899E+00
-0.1187108401855E+00 -0.2305278593770E+00 -0.1641421883780E+00  0.2058525412648E+00
-0.2148358092668E-01 -0.1281722539440E+00 -0.7033824221082E-01  0.8251197485370E-01
 0.9592625166947E-01 -0.4561220905615E-01  0.2364759996828E-01 -0.2730174548966E-01
 0.2283730045396E+00  0.1813379668966E-01  0.1158581962839E+00 -0.1194814534226E+00
 0.3825734089679E+00  0.7289498193670E-01  0.2140701431822E+00 -0.1917037757276E+00
</DataArray>
<DataArray type="Float64" Name="S_Mises" NumberOfComponents="1" ComponentName0="S_Mises" format="ascii">
 0.1454908725768E+01
 0.1269499307392E+01
 0.1016679723500E+01
 0.7962187257027E+00
 0.5576785286397E+00
 0.3028505154556E+00
 0.2479560651883E-01
 0.2834356989487E+00
 0.6336263097032E+00
 0.1046971864412E+01
 0.1548515344376E+01
 0.2123999918860E+01
 0.2718976701759E+01
 0.3293714100938E+01
 0.3824241819743E+01
 0.4279599643007E+01
 0.4653471702298E+01
 0.4928921555796E+01
 0.5267796067146E+01
 0.4619245533380E+01
 0.8165775990754E+01
 0.1001864458613E+01
 0.9715368504409E+00
 0.7648343217050E+00
 0.5536817456079E+00
 0.3321329800732E+00
 0.9143404178986E-01
 0.1719519996339E+00
 0.4644543833692E+00
 0.7952056672506E+00
 0.1173264414549E+01
 0.1597796251194E+01
 0.2050975917128E+01
 0.2504589616512E+01
 0.2929394403118E+01
 0.3297251740897E+01
 0.3583686646665E+01
 0.3752598232642E+01
 0.3774840176802E+01
 0.3405541872649E+01
 0.2645871935856E+01
 0.7149554188563E+01
 0.6620627551984E+00
 0.6524556909667E+00
 0.5105448846875E+00
 0.3198584621101E+00
 0.1153711585708E+00
 0.1086105983898E+00
 0.3540196365406E+00
 0.6256391982540E+00
 0.9277962689033E+00
 0.1259591842687E+01
 0.1610042709615E+01
 0.1962424454159E+01
 0.2299563982264E+01
 0.2600475019342E+01
 0.2841070226565E+01
 0.2995465809946E+01
 0.3029071255052E+01
 0.2874514143687E+01
 0.2425553719033E+01
 0.2571642984348E+01
 0.6797352116636E+01
 0.3795720218835E+00
 0.3597903336398E+00
 0.2565141355483E+00
 0.9419245760886E-01
 0.9275061396848E-01
 0.2971997366737E+00
 0.5219448433224E+00
 0.7682918400236E+00
 0.1035886062051E+01
 0.1317833661578E+01
 0.1599870537453E+01
 0.1867527750980E+01
 0.2109668220563E+01
 0.2312166898906E+01
 0.2456290892229E+01
 0.2520883338503E+01
 0.2478080408777E+01
 0.2291618451797E+01
 0.2099102020377E+01
 0.3029185920996E+01
 0.6457891546792E+01
 0.1324585245364E+00
 0.9631570348243E-01
 0.1398015356768E-01
 0.1250702025874E+00
 0.2905042436073E+00
 0.4749880942325E+00
 0.6767736514425E+00
 0.8947034628960E+00
 0.1124765307694E+01
 0.1357104749551E+01
 0.1577356848040E+01
 0.1773760261431E+01
 0.1939564206802E+01
 0.2066495823407E+01
 0.2142468440629E+01
 0.2154768421948E+01
 0.2092599252038E+01
 0.1987474245573E+01
 0.2138911750240E+01
 0.3458007492912E+01
 0.6176659794301E+01
 0.9171501489342E-01
 0.1429103205439E+00
 0.2170001873358E+00
 0.3338867335928E+00
 0.4791687405765E+00
 0.6425946181886E+00
 0.8199382501244E+00
 0.1007670748663E+01
 0.1199431756725E+01
 0.1384439024098E+01
 0.1549795290140E+01
 0.1686720083038E+01
 0.1792271085050E+01
 0.1863555570091E+01
 0.1895867444360E+01
 0.1887413407884E+01
 0.1852682664059E+01
 0.1886891212122E+01
 0.2340267768509E+01
 0.3772356812367E+01
 0.5958380764358E+01
 0.2966385874134E+00
 0.3609478114616E+00
 0.4315073417534E+00
 0.5327070881326E+00
 0.6588487756875E+00
 0.8009329050186E+00
 0.9531200234067E+00
 0.1110085479768E+01
 0.1264269339867E+01
 0.1405282519706E+01
 0.1522504509618E+01
 0.1610289699205E+01
 0.1669280362333E+01
 0.1701694306076E+01
 0.1710424457391E+01
 0.1706306517474E+01
 0.1730531887096E+01
 0.1920789948450E+01
 0.2586302899554E+01
 0.3994606032828E+01
 0.5793707041790E+01
 0.4880552245852E+00
 0.5623207253843E+00
 0.6319967539549E+00
 0.7212517344458E+00
 0.8299629499163E+00
 0.9510857731109E+00
 0.1078122244904E+01
 0.1204702177763E+01
 0.1322990888512E+01
 0.1423833392200E+01
 0.1499297113349E+01
 0.1546916786915E+01
 0.1570777128019E+01
 0.1577939243761E+01
 0.1578877966149E+01
 0.1597583146245E+01
 0.1698269794572E+01
 0.2032923999248E+01
 0.2827440491108E+01
 0.4157771417614E+01
 0.5670697579175E+01
 0.6684653401535E+00
 0.7500440180886E+00
 0.8199991298116E+00
 0.9000580847747E+00
 0.9931991256736E+00
 0.1094251147029E+01
 0.1196758344564E+01
 0.1294030595175E+01
 0.1378674674469E+01
 0.1443291592439E+01
 0.1482813942742E+01
 0.1497908093191E+01
 0.1495939541914E+01
 0.1488534002363E+01
 0.1493581949784E+01
 0.1547579638687E+01
 0.1730352673046E+01
 0.2183015011374E+01
 0.3046761300852E+01
 0.4288959969182E+01
 0.5578928354705E+01
 0.8399073912184E+00
 0.9266357123080E+00
 0.9972575632271E+00
 0.1070108697062E+01
 0.1149487544909E+01
 0.1231705005994E+01
 0.1310779385320E+01
 0.1380296485962E+01
 0.1433834727768E+01
 0.1466057297627E+01
 0.1474790494428E+01
 0.1463708893717E+01
 0.1443266684006E+01
 0.1429387002298E+01
 0.1447054990122E+01
 0.1543453845448E+01
 0.1804618413122E+01
 0.2345946485213E+01
 0.3239366756073E+01
 0.4404617940610E+01
 0.5513383794152E+01
 0.1003954109626E+01
 0.1094067151726E+01
 0.1165322367794E+01
 0.1232369249339E+01
 0.1299624101855E+01
 0.1364427996673E+01
 0.1421501503924E+01
 0.1465144260778E+01
 0.1490271738320E+01
 0.1493755938856E+01
 0.1476233055498E+01
 0.1444193319270E+01
 0.1410948630208E+01
 0.1396427229871E+01
 0.1432104934387E+01
 0.1572898460311E+01
 0.1902449222950E+01
 0.2505661215902E+01
 0.3405938525709E+01
 0.4498236760054E+01
 0.5519225430047E+01
 0.1161962304121E+01
 0.1254119158172E+01
 0.1325879477063E+01
 0.1388196345839E+01
 0.1444834049292E+01
 0.1493746280282E+01
 0.1530442004173E+01
 0.1550219807814E+01
 0.1549558190978E+01
 0.1527575788205E+01
 0.1487572792870E+01
 0.1438639547965E+01
 0.1396722693230E+01
 0.1385455421091E+01
 0.1441907193695E+01
 0.1625309578934E+01
 0.2010916458783E+01
 0.2655198037757E+01
 0.3548201464762E+01
 0.4577818463534E+01
 0.5529777903644E+01
 0.1315059798281E+01
 0.1408429414202E+01
 0.1480684021324E+01
 0.1539232475799E+01
 0.1586701731037E+01
 0.1621306784399E+01
 0.1639337792287E+01
 0.1637249294447E+01
 0.1613197090034E+01
 0.1568512111078E+01
 0.1508988445506E+01
 0.1446112759817E+01
 0.1398271760083E+01
 0.1392483216306E+01
 0.1470307456040E+01
 0.1692130992712E+01
 0.2121883016203E+01
 0.2791915732498E+01
 0.3670646213270E+01
 0.4645150290357E+01
 0.5538685018552E+01
 0.1464219399432E+01
 0.1558322684793E+01
 0.1631163702154E+01
 0.1686811411398E+01
 0.1726468528749E+01
 0.1748337728329E+01
 0.1749434548335E+01
 0.1727433448608E+01
 0.1682195739628E+01
 0.1617173693343E+01
 0.1540462840895E+01
 0.1465742529075E+01
 0.1413637774185E+01
 0.1414147988618E+01
 0.1512082962021E+01
 0.1766552443209E+01
 0.2229545628409E+01
 0.2914397300768E+01
 0.3775547829582E+01
 0.4704030645819E+01
 0.5552618996116E+01
 0.1610303019073E+01
 0.1704975537710E+01
 0.1778633136336E+01
 0.1832215847136E+01
 0.1865343414605E+01
 0.1876003048987E+01
 0.1861858190267E+01
 0.1821801507982E+01
 0.1757362956599E+01
 0.1673983372247E+01
 0.1581853494583E+01
 0.1496642139318E+01
 0.1440992136047E+01
 0.1447404175961E+01
 0.1562744252942E+01
 0.1843347467912E+01
 0.2330195812213E+01
 0.3022230119240E+01
 0.3865343296251E+01
 0.4756545938102E+01
 0.5569941788708E+01
 0.1754086835564E+01
 0.1849445157994E+01
 0.1924302363940E+01
 0.1976661567771E+01
 0.2004481609198E+01
 0.2005391281974E+01
 0.1977621180783E+01
 0.1921237901222E+01
 0.1839355867181E+01
 0.1739240670131E+01
 0.1632962222296E+01
 0.1537972896668E+01
 0.1478687834506E+01
 0.1489585624957E+01
 0.1618591435366E+01
 0.1918661138034E+01
 0.2421507784335E+01
 0.3115593392367E+01
 0.3941897628810E+01
 0.4803294896810E+01
 0.5589053492873E+01
 0.1896278966815E+01
 0.1992691758344E+01
 0.2069287077460E+01
 0.2121290416785E+01
 0.2144971250027E+01
 0.2137508472754E+01
 0.2097628918406E+01
 0.2026504850503E+01
 0.1928718005016E+01
 0.1813171394346E+01
 0.1693589199862E+01
 0.1588994882399E+01
 0.1525307275343E+01
 0.1538460019035E+01
 0.1676713080171E+01
 0.1989743592432E+01
 0.2502071517011E+01
 0.3194876822865E+01
 0.4006442744903E+01
 0.4844462500671E+01
 0.5608697287506E+01
 0.2037532826837E+01
 0.2135596655575E+01
 0.2214619741295E+01
 0.2267168867830E+01
 0.2287825601177E+01
 0.2273273606801E+01
 0.2222685082317E+01
 0.2138260336480E+01
 0.2025909264240E+01
 0.1895966303720E+01
 0.1763575285246E+01
 0.1649108841506E+01
 0.1579705199275E+01
 0.1592266767845E+01
 0.1734939645732E+01
 0.2054710036995E+01
 0.2571063588107E+01
 0.3260469477298E+01
 0.4059787715019E+01
 0.4880140037662E+01
 0.5628042814826E+01
 0.2178458127026E+01
 0.2278977790532E+01
 0.2361261209483E+01
 0.2415290039164E+01
 0.2433978576536E+01
 0.2413514946988E+01
 0.2353494846704E+01
 0.2257070967618E+01
 0.2131328147617E+01
 0.1987810359650E+01
 0.1842835037864E+01
 0.1717890952162E+01
 0.1641044535483E+01
 0.1649736295240E+01
 0.1791777946117E+01
 0.2112348860432E+01
 0.2628026514333E+01
 0.3312682374285E+01
 0.4102464511470E+01
 0.4910435893313E+01
 0.5646692724566E+01
 0.2319630875071E+01
 0.2423604157697E+01
 0.2510112913773E+01
 0.2566577787568E+01
 0.2584281873594E+01
 0.2558965961133E+01
 0.2490665199633E+01
 0.2383419588112E+01
 0.2245326799408E+01
 0.2088903668793E+01
 0.1931381748521E+01
 0.1795120799491E+01
 0.1708823839165E+01
 0.1710095445189E+01
 0.1846347755531E+01
 0.2161982599007E+01
 0.2672735123562E+01
 0.3351722154122E+01
 0.4134807092555E+01
 0.4935512309615E+01
 0.5664667927511E+01
 0.2461603408125E+01
 0.2570210371826E+01
 0.2662029891390E+01
 0.2721891910949E+01
 0.2739502256006E+01
 0.2710259613051E+01
 0.2634701662608E+01
 0.2517707463890E+01
 0.2368219120664E+01
 0.2199474679607E+01
 0.2029344892281E+01
 0.1880802281276E+01
 0.1782896498909E+01
 0.1773065974451E+01
 0.1898333380316E+01
 0.2203380679684E+01
 0.2705123382502E+01
 0.3377681148540E+01
 0.4156985572989E+01
 0.4955588946597E+01
 0.5682379718388E+01
 0.2604915385323E+01
 0.2719512530626E+01
 0.2817835072768E+01
 0.2882033731626E+01
 0.2900317692287E+01
 0.2867919896214E+01
 0.2786000795447E+01
 0.2660250915415E+01
 0.2500282130488E+01
 0.2319785813282E+01
 0.2136979891321E+01
 0.1975177103832E+01
 0.1863482975325E+01
 0.1838862251779E+01
 0.1947957085984E+01
 0.2236719454350E+01
 0.2725254170437E+01
 0.3390531989603E+01
 0.4169010122824E+01
 0.4970925462363E+01
 0.5700592584907E+01
 0.2750106695844E+01
 0.2872226623472E+01
 0.2978335394025E+01
 0.3047751453760E+01
 0.3067311152439E+01
 0.3032349612709E+01
 0.2944838022720E+01
 0.2811272376029E+01
 0.2641750723526E+01
 0.2450131532854E+01
 0.2254669834735E+01
 0.2078730570202E+01
 0.1951177494484E+01
 0.1908192303889E+01
 0.1995976979196E+01
 0.2262585701713E+01
 0.2733324011442E+01
 0.3390124240249E+01
 0.4170712238686E+01
 0.4981786435237E+01
 0.5720380658199E+01
 0.2897733415296E+01
 0.3029090949004E+01
 0.3144340368879E+01
 0.3219744564269E+01
 0.3240960722786E+01
 0.3203813372085E+01
 0.3111350362251E+01
 0.2970885869762E+01
 0.2792805900915E+01
 0.2590828681834E+01
 0.2382918571590E+01
 0.2192189120482E+01
 0.2046949940035E+01
 0.1982263986115E+01
 0.2043709132435E+01
 0.2282022082420E+01
 0.2729702440792E+01
 0.3376185004062E+01
 0.4161706876671E+01
 0.4988388830105E+01
 0.5743080072014E+01
 0.3048388303035E+01
 0.3190894425522E+01
 0.3316683830465E+01
 0.3398666271684E+01
 0.3421624487044E+01
 0.3382414844036E+01
 0.3285513845088E+01
 0.3139077094961E+01
 0.2953556679749E+01
 0.2742198995512E+01
 0.2522334564108E+01
 0.2316508759889E+01
 0.2152142633540E+01
 0.2062795931670E+01
 0.2093071874675E+01
 0.2296615515159E+01
 0.2715012515598E+01
 0.3348329077344E+01
 0.4141336863349E+01
 0.4990830727482E+01
 0.5770237407301E+01
 0.3202727941221E+01
 0.3358513298159E+01
 0.3496249462934E+01
 0.3585122290158E+01
 0.3609518111241E+01
 0.3568067249744E+01
 0.3467115559803E+01
 0.3315678379948E+01
 0.3124015886868E+01
 0.2904543667477E+01
 0.2673604752973E+01
 0.2452852881021E+01
 0.2268460170120E+01
 0.2152030790366E+01
 0.2146648261350E+01
 0.2308630908533E+01
 0.2690266101312E+01
 0.3306088771608E+01
 0.4108600037333E+01
 0.4988999200622E+01
 0.5803547547653E+01
 0.3361509644492E+01
 0.3532959714647E+01
 0.3684000449728E+01
 0.3779663130686E+01
 0.3804682416102E+01
 0.3760456219957E+01
 0.3655720638213E+01
 0.3500339008484E+01
 0.3304070169393E+01
 0.3078110026550E+01
 0.2837457812919E+01
 0.2602557555977E+01
 0.2397948888412E+01
 0.2252746289377E+01
 0.2207760284556E+01
 0.2321192616114E+01
 0.2657076039609E+01
 0.3248981318613E+01
 0.4062058694696E+01
 0.4982457337185E+01
 0.5844757879121E+01
 0.3525642990957E+01
 0.3715447075608E+01
 0.3881012779506E+01
 0.3982765137055E+01
 0.4006937409306E+01
 0.3958994635719E+01
 0.3850635203014E+01
 0.3692491764896E+01
 0.3493444734821E+01
 0.3263050706543E+01
 0.3014616625091E+01
 0.2767082369186E+01
 0.2542961065241E+01
 0.2368257163248E+01
 0.2280545854102E+01
 0.2338510143260E+01
 0.2617982708019E+01
 0.3176637680389E+01
 0.3999738106806E+01
 0.4970313522045E+01
 0.5895450857143E+01
 0.3696263796177E+01
 0.3907478994939E+01
 0.4088509790194E+01
 0.4194792054951E+01
 0.4215818054469E+01
 0.4162769831189E+01
 0.4050867005534E+01
 0.3891316484253E+01
 0.3691662933066E+01
 0.3459375524700E+01
 0.3205740063071E+01
 0.2947944932760E+01
 0.2706097596485E+01
 0.2502396699033E+01
 0.2370027199208E+01
 0.2366131773358E+01
 0.2576944520768E+01
 0.3089064526249E+01
 0.3918938414697E+01
 0.4951283345572E+01
 0.5956198055322E+01
 0.3874843844324E+01
 0.4110970959160E+01
 0.4307892102500E+01
 0.4415923366881E+01
 0.4430486552845E+01
 0.4370485822527E+01
 0.4255087235666E+01
 0.4095701840112E+01
 0.3898000770282E+01
 0.3666896755499E+01
 0.3411355460089E+01
 0.3146639293213E+01
 0.2890122752346E+01
 0.2659464623105E+01
 0.2482146626164E+01
 0.2411222015084E+01
 0.2539953469104E+01
 0.2987403959383E+01
 0.3815428753425E+01
 0.4924881306062E+01
 0.6022805102546E+01
 0.4063387754440E+01
 0.4328588567761E+01
 0.4541039470416E+01
 0.4646426411245E+01
 0.4650098790964E+01
 0.4580968350827E+01
 0.4462253013124E+01
 0.4304975435541E+01
 0.4112340692857E+01
 0.3886221657952E+01
 0.3632986209366E+01
 0.3365875828125E+01
 0.3099276935339E+01
 0.2845557525229E+01
 0.2625042966531E+01
 0.2483660437320E+01
 0.2516161573622E+01
 0.2873879123939E+01
 0.3684301108967E+01
 0.4882307736416E+01
 0.6125617243583E+01
 0.4264614840556E+01
 0.4563665238327E+01
 0.4789695448041E+01
 0.4885650769674E+01
 0.4872686188370E+01
 0.4791983275333E+01
 0.4670267490789E+01
 0.4517328260187E+01
 0.4333335631378E+01
 0.4116659805088E+01
 0.3870815359273E+01
 0.3607029413280E+01
 0.3336582812549E+01
 0.3065920951619E+01
 0.2806839418910E+01
 0.2594939826912E+01
 0.2518765316487E+01
 0.2755254735740E+01
 0.3518395953259E+01
 0.4818676872693E+01
 0.6262335646830E+01
 0.4482433669840E+01
 0.4820577009886E+01
 0.5055327251731E+01
 0.5131677153539E+01
 0.5094996150185E+01
 0.5000236233421E+01
 0.4875976218232E+01
 0.4729733472553E+01
 0.4558253550589E+01
 0.4356019745278E+01
 0.4123444957733E+01
 0.3869845622828E+01
 0.3603468616963E+01
 0.3324493840778E+01
 0.3035285019765E+01
 0.2758312494101E+01
 0.2566945461242E+01
 0.2647352975329E+01
 0.3314272405744E+01
 0.4722221890671E+01
 0.6427444772132E+01
 0.4722713097054E+01
 0.5105442068894E+01
 0.5339146808950E+01
 0.5381446438548E+01
 0.5313265115022E+01
 0.5202557207737E+01
 0.5076525462098E+01
 0.4939443270087E+01
 0.4784661712227E+01
 0.4602538102103E+01
 0.4390067636983E+01
 0.4154747914835E+01
 0.3901989193640E+01
 0.3625700653661E+01
 0.3318713381590E+01
 0.2988756704402E+01
 0.2685147632566E+01
 0.2577458736942E+01
 0.3072753468481E+01
 0.4570577833889E+01
 0.6630687956394E+01
 0.4994633931301E+01
 0.5426522155044E+01
 0.5640768312514E+01
 0.5629524508721E+01
 0.5522743575494E+01
 0.5395547861231E+01
 0.5268811465181E+01
 0.5143199252381E+01
 0.5009418733328E+01
 0.4853764255999E+01
 0.4669348770103E+01
 0.4461711811049E+01
 0.4233601642079E+01
 0.3973055798409E+01
 0.3664439714682E+01
 0.3301537084366E+01
 0.2903235203086E+01
 0.2590992101872E+01
 0.2811319322370E+01
 0.4331513016078E+01
 0.6886317621349E+01
 0.5313360382393E+01
 0.5794597467328E+01
 0.5955725210165E+01
 0.5866996460262E+01
 0.5718042445421E+01
 0.5575909572107E+01
 0.5449628263518E+01
 0.5337215030207E+01
 0.5228449518949E+01
 0.5106310442998E+01
 0.4959363154726E+01
 0.4790350083412E+01
 0.4599124024359E+01
 0.4368731495846E+01
 0.4077665611608E+01
 0.3709802835011E+01
 0.3254268698262E+01
 0.2754865290172E+01
 0.2591035086232E+01
 0.3962769238422E+01
 0.7213600336576E+01
 0.5705713826053E+01
 0.6222039096451E+01
 0.6270054933185E+01
 0.6080825782907E+01
 0.5894207324187E+01
 0.5740772369719E+01
 0.5615907586891E+01
 0.5517244866242E+01
 0.5436406342246E+01
 0.5355392705428E+01
 0.5257521740325E+01
 0.5140202471254E+01
 0.4998889605761E+01
 0.4813117219668E+01
 0.4560417176513E+01
 0.4221415431493E+01
 0.3767706996989E+01
 0.3155693325870E+01
 0.2560358166371E+01
 0.3434392251989E+01
 0.7634592502875E+01
 0.6223643706940E+01
 0.6715486237642E+01
 0.6549351153972E+01
 0.6256565525018E+01
 0.6048370740894E+01
 0.5887700739435E+01
 0.5765198102624E+01
 0.5678841900687E+01
 0.5626217100922E+01
 0.5593899181405E+01
 0.5560425977835E+01
 0.5511452271894E+01
 0.5433174365683E+01
 0.5304498553584E+01
 0.5110217860692E+01
 0.4837138518311E+01
 0.4455790336086E+01
 0.3885481761063E+01
 0.2981211352360E+01
 0.2863975445838E+01
 0.8165576002133E+01
 0.6981885704708E+01
 0.7236548947362E+01
 0.6724720108226E+01
 0.6392152373650E+01
 0.6178056194907E+01
 0.6015310216751E+01
 0.5896133752827E+01
 0.5818117900886E+01
 0.5788727246736E+01
 0.5810354807306E+01
 0.5863407201984E+01
 0.5906698437771E+01
 0.5902897693392E+01
 0.5838826706686E+01
 0.5718858075634E+01
 0.5548925386174E+01
 0.5307692869902E+01
 0.4974683411511E+01
 0.4221267935328E+01
 0.3026488746893E+01
 0.8794963640826E+01
 0.8294836507140E+01
 0.7465316815905E+01
 0.6774416199928E+01
 0.6495217831546E+01
 0.6279705837586E+01
 0.6124669502805E+01
 0.6008258617547E+01
 0.5933391105831E+01
 0.5913680755735E+01
 0.5984158707566E+01
 0.6158840101473E+01
 0.6335543082893E+01
 0.6410864384866E+01
 0.6407463179630E+01
 0.6375670502110E+01
 0.6330542220430E+01
 0.6307033075047E+01
 0.6306126375595E+01
 0.6562781018464E+01
 0.5652132941823E+01
 0.1053799800906E+02
 0.9041084240317E+00
 0.1537214221623E+01
 0.2016203773087E+01
 0.2391144222050E+01
 0.2693479798444E+01
 0.2943790964267E+01
 0.3164520253872E+01
 0.3380061117717E+01
 0.3597800534859E+01
 0.3797940743945E+01
 0.8684404737436E+00
 0.1550861685071E+01
 0.2065967760125E+01
 0.2467945872496E+01
 0.2792765410186E+01
 0.3065480172495E+01
 0.3312965963332E+01
 0.3560496113063E+01
 0.3807874361792E+01
 0.4019960469551E+01
 0.8377212832718E+00
 0.1562485588574E+01
 0.2106667188986E+01
 0.2529916641240E+01
 0.2872471098947E+01
 0.3163689497772E+01
 0.3431691562011E+01
 0.3698302966110E+01
 0.3959749601230E+01
 0.4184335577614E+01
 0.8117661235602E+00
 0.1570209657777E+01
 0.2136615184486E+01
 0.2575361673298E+01
 0.2930549485287E+01
 0.3234224783774E+01
 0.3513934204799E+01
 0.3788120418850E+01
 0.4052212315356E+01
 0.4277154363897E+01
 0.7903666015443E+00
 0.1572942684425E+01
 0.2154458866211E+01
 0.2602909135771E+01
 0.2965032320379E+01
 0.3274146274301E+01
 0.3556489837342E+01
 0.3827872222161E+01
 0.4083381337562E+01
 0.4296364495326E+01
 0.7734133641871E+00
 0.1569916428669E+01
 0.2159326537984E+01
 0.2611606572805E+01
 0.2974731857764E+01
 0.3282132027603E+01
 0.3558432693028E+01
 0.3817271383629E+01
 0.4053761913417E+01
 0.4243589196487E+01
 0.7608572476833E+00
 0.1560717426271E+01
 0.2150814920416E+01
 0.2601133289425E+01
 0.2959441590523E+01
 0.3258327175635E+01
 0.3520579966363E+01
 0.3758006900709E+01
 0.3965952473841E+01
 0.4122465958552E+01
 0.7526863583052E+00
 0.1545281164558E+01
 0.2129033796140E+01
 0.2571864303112E+01
 0.2919933191643E+01
 0.3204162688726E+01
 0.3445320184180E+01
 0.3653587597999E+01
 0.3824601117492E+01
 0.3938787213509E+01
 0.7489084336857E+00
 0.1523887101412E+01
 0.2094608621998E+01
 0.2524853702921E+01
 0.2857864131471E+01
 0.3122190876463E+01
 0.3336409720106E+01
 0.3509174537411E+01
 0.3636358163336E+01
 0.3700665188687E+01
 0.7495387502660E+00
 0.1497137644415E+01
 0.2048646807603E+01
 0.2461763157810E+01
 0.2775644195095E+01
 0.3015885252143E+01
 0.3198736147686E+01
 0.3331355447474E+01
 0.3409688611874E+01
 0.3418509346964E+01
 0.7545909137495E+00
 0.1465922130506E+01
 0.1992675192643E+01
 0.2384757325356E+01
 0.2676269697879E+01
 0.2889406037931E+01
 0.3038026782387E+01
 0.3127831502349E+01
 0.3154619748278E+01
 0.3105039174953E+01
 0.7640699734607E+00
 0.1431369203482E+01
 0.1928558601708E+01
 0.2296378415833E+01
 0.2563137686000E+01
 0.2747338095671E+01
 0.2860496317103E+01
 0.2906992998703E+01
 0.2882346357945E+01
 0.2775062535112E+01
 0.7779685279873E+00
 0.1394792750375E+01
 0.1858408132710E+01
 0.2199410579918E+01
 0.2439851649343E+01
 0.2594417034901E+01
 0.2672455392500E+01
 0.2677356086145E+01
 0.2604548321464E+01
 0.2444886910820E+01
 0.7962669108431E+00
 0.1357636922415E+01
 0.1784487746154E+01
 0.2096743851483E+01
 0.2310029022542E+01
 0.2435261337232E+01
 0.2479921588225E+01
 0.2446910128745E+01
 0.2332144750375E+01
 0.2129964447456E+01
 0.8189382099294E+00
 0.1321425104512E+01
 0.1709128300809E+01
 0.1991247736004E+01
 0.2177119188580E+01
 0.2274120521675E+01
 0.2288272330373E+01
 0.2222538386927E+01
 0.2073874481033E+01
 0.1841331426263E+01
 0.8459578329132E+00
 0.1287716711690E+01
 0.1634657126321E+01
 0.1885670321948E+01
 0.2044240449947E+01
 0.2114640271491E+01
 0.2101952084804E+01
 0.2009671980618E+01
 0.1835743131115E+01
 0.1584456519330E+01
 0.8773153283567E+00
 0.1258072219894E+01
 0.1563352050406E+01
 0.1782575010120E+01
 0.1914074537725E+01
 0.1959624573610E+01
 0.1924206052244E+01
 0.1812185461390E+01
 0.1621446055280E+01
 0.1360626860046E+01
 0.9130105216243E+00
 0.1234049038163E+01
 0.1497424538714E+01
 0.1684314974721E+01
 0.1788848352577E+01
 0.1810941796864E+01
 0.1756576987143E+01
 0.1632405760712E+01
 0.1433311998594E+01
 0.1169123104603E+01
 0.9530282666630E+00
 0.1217116165402E+01
 0.1439222514153E+01
 0.1592969114523E+01
 0.1670263433281E+01
 0.1669870816982E+01
 0.1598770357322E+01
 0.1469138463731E+01
 0.1274344151323E+01
 0.1010320978679E+01
 0.9964959883032E+00
 0.1209989277354E+01
 0.1391231273234E+01
 0.1510305714793E+01
 0.1559380020120E+01
 0.1536984859160E+01
 0.1450961775240E+01
 0.1316168852040E+01
 0.1137562171760E+01
 0.9003052507455E+00
 0.1326467867785E+01
 0.4335743923970E+00
 0.5059480090503E-01
 0.6129835461827E-01
 0.1504406841140E+00
 0.2132014149908E+00
 0.2104953944609E+00
 0.1232381956521E+00
 0.3645078913797E-01
 0.1896172003564E+00
 0.1443610665252E+01
 0.1010508275830E+01
 0.4948341028882E+00
 0.2767317159332E+00
 0.1460761308549E+00
 0.4712436347238E-01
 0.4605899969210E-02
 0.3359876512411E-01
 0.1121166898532E+00
 0.3837663746813E+00
 0.1382608554608E+01
 0.1240898785295E+01
 0.9020020735328E+00
 0.6576564283950E+00
 0.4984809215207E+00
 0.3800639091920E+00
 0.3095441498541E+00
 0.3149072441276E+00
 0.4198139916844E+00
 0.7694905319737E+00
 0.1309572726036E+01
 0.1354198016405E+01
 0.1187368629466E+01
 0.1015868937692E+01
 0.8758218835957E+00
 0.7649178187842E+00
 0.6937809133057E+00
 0.7028030468595E+00
 0.8503212923781E+00
 0.1250351272486E+01
 0.1240112699391E+01
 0.1420802908330E+01
 0.1400809360542E+01
 0.1326703487313E+01
 0.1245713210243E+01
 0.1173228571361E+01
 0.1127721620581E+01
 0.1161095862386E+01
 0.1347602197311E+01
 0.1759094325359E+01
 0.1177206903136E+01
 0.1466208890789E+01
 0.1569363008788E+01
 0.1595366895492E+01
 0.1590320994538E+01
 0.1576950907274E+01
 0.1576682007814E+01
 0.1646129533051E+01
 0.1860670668446E+01
 0.2250791233578E+01
 0.1119684983798E+01
 0.1499702850455E+01
 0.1706576676047E+01
 0.1826205047603E+01
 0.1900526831547E+01
 0.1954048182951E+01
 0.2007996185840E+01
 0.2116849764029E+01
 0.2347478589471E+01
 0.2696767866359E+01
 0.1065540501586E+01
 0.1523570991189E+01
 0.1817716081840E+01
 0.2020677398618E+01
 0.2169570378892E+01
 0.2288210447584E+01
 0.2395460470471E+01
 0.2538924872224E+01
 0.2775155818330E+01
 0.3079908732291E+01
 0.1012493150100E+01
 0.1536592025672E+01
 0.1903816329820E+01
 0.2178234057582E+01
 0.2391978941292E+01
 0.2567762882714E+01
 0.2721918849345E+01
 0.2889358951096E+01
 0.3118383022383E+01
 0.3390836645078E+01
 0.9568617955404E+00
 0.1536420539936E+01
 0.1965077078834E+01
 0.2298022043645E+01
 0.2563875917945E+01
 0.2784179550858E+01
 0.2976431387620E+01
 0.3165271614062E+01
 0.3372037200925E+01
 0.3617558560311E+01
 0.1046295184789E+01
 0.1217048153762E+01
 0.1347600225357E+01
 0.1417721573282E+01
 0.1422644892282E+01
 0.1365880050067E+01
 0.1257517758807E+01
 0.1112920171445E+01
 0.9513010759402E+00
 0.7937758062016E+00
 0.1106365395444E+01
 0.1232408544957E+01
 0.1305099875799E+01
 0.1313479803888E+01
 0.1263411404014E+01
 0.1165976994086E+01
 0.1034314823425E+01
 0.8845045510921E+00
 0.7441065056642E+00
 0.5889041207846E+00
 0.1174216101291E+01
 0.1258299065023E+01
 0.1270497107785E+01
 0.1215579060259E+01
 0.1112011202249E+01
 0.9773350905898E+00
 0.8270133152973E+00
 0.6777900278271E+00
 0.5454223420423E+00
 0.3936722044478E+00
 0.1252607504085E+01
 0.1295801689694E+01
 0.1239746027928E+01
 0.1117153251075E+01
 0.9611054536936E+00
 0.7944460356600E+00
 0.6331156169622E+00
 0.4894922498500E+00
 0.3682778435617E+00
 0.2384387624711E+00
 0.1344709699054E+01
 0.1342519948610E+01
 0.1203863553494E+01
 0.1007128906729E+01
 0.8012769615966E+00
 0.6114839925501E+00
 0.4505461903917E+00
 0.3245588846589E+00
 0.2268240666833E+00
 0.1299039738900E+00
 0.1453622267926E+01
 0.1390991031884E+01
 0.1146263963006E+01
 0.8691461262887E+00
 0.6216492110926E+00
 0.4235267533952E+00
 0.2791783629375E+00
 0.1861303987833E+00
 0.1246384240468E+00
 0.6765540224104E-01
 0.1581488329238E+01
 0.1423638036487E+01
 0.1037859860868E+01
 0.6815926525772E+00
 0.4128867173872E+00
 0.2301774782853E+00
 0.1211662389584E+00
 0.7475401454981E-01
 0.5946601306825E-01
 0.4722520088468E-01
 0.1724810664110E+01
 0.1399579137458E+01
 0.8298601740296E+00
 0.4215755331467E+00
 0.1786505165188E+00
 0.4038750317084E-01
 0.1814146107105E-01
 0.9878601721684E-02
 0.2631054928152E-01
 0.6262679921431E-01
 0.1862542259808E+01
 0.1213328545626E+01
 0.4402923073492E+00
 0.1094408219331E+00
 0.5326115315435E-01
 0.1293216149864E+00
 0.1310453639977E+00
 0.6869640486367E-01
 0.1959323254268E-01
 0.1057354146140E+00
 0.1761709556091E+01
 0.5316341874657E+00
 0.2669994757666E-01
 0.1734488919711E+00
 0.2500087148149E+00
 0.2631591708766E+00
 0.2120774035712E+00
 0.1020311283752E+00
 0.3028402119667E-01
 0.1668369007208E+00
 0.3886634554300E+01
 0.3753001928831E+01
 0.3546229788520E+01
 0.3277334465004E+01
 0.2942948035321E+01
 0.2543828963441E+01
 0.2085536762215E+01
 0.1584124157304E+01
 0.1077738104776E+01
 0.6810873692442E+00
 0.4115344143763E+01
 0.4088012788280E+01
 0.3972692998327E+01
 0.3786963282713E+01
 0.3533254955068E+01
 0.3208396803419E+01
 0.2810414119711E+01
 0.2341760368618E+01
 0.1814736924236E+01
 0.1244592615294E+01
 0.4281398818768E+01
 0.4299883964121E+01
 0.4257160016547E+01
 0.4142901771793E+01
 0.3954111406560E+01
 0.3682740169060E+01
 0.3316645578880E+01
 0.2839231010998E+01
 0.2222297146225E+01
 0.1403156288917E+01
 0.4377020633021E+01
 0.4419128658291E+01
 0.4413040812323E+01
 0.4341671085529E+01
 0.4191054363125E+01
 0.3945035270340E+01
 0.3581399927487E+01
 0.3068521889039E+01
 0.2358275506884E+01
 0.1376425637954E+01
 0.4394726545428E+01
 0.4446190826956E+01
 0.4455358873346E+01
 0.4402743850337E+01
 0.4268549850840E+01
 0.4029602022596E+01
 0.3656594476368E+01
 0.3111540363623E+01
 0.2346173507159E+01
 0.1309691780258E+01
 0.4332609665925E+01
 0.4381251215277E+01
 0.4390906857066E+01
 0.4342111361704E+01
 0.4212727223900E+01
 0.3976331620351E+01
 0.3600615743338E+01
 0.3047009957464E+01
 0.2273600589095E+01
 0.1251779254985E+01
 0.4192534871992E+01
 0.4226987782426E+01
 0.4225506207036E+01
 0.4170271827135E+01
 0.4039938762512E+01
 0.3808482269271E+01
 0.3444270665609E+01
 0.2910602555998E+01
 0.2170063038244E+01
 0.1202142851792E+01
 0.3979595353618E+01
 0.3989305606795E+01
 0.3966339474073E+01
 0.3896021397669E+01
 0.3760279085424E+01
 0.3536660875408E+01
 0.3197250467061E+01
 0.2708359763688E+01
 0.2033268080167E+01
 0.1147423173544E+01
 0.3702025042260E+01
 0.3677085702741E+01
 0.3622655024397E+01
 0.3528174462263E+01
 0.3380667481027E+01
 0.3163861264090E+01
 0.2856693653482E+01
 0.2431111306533E+01
 0.1850344158974E+01
 0.1078051767899E+01
 0.3371684288403E+01
 0.3303352297801E+01
 0.3207917453769E+01
 0.3079149570592E+01
 0.2910040380801E+01
 0.2692256795756E+01
 0.2414699556846E+01
 0.2060368825232E+01
 0.1599394339146E+01
 0.9831760053916E+00
 0.3004396317871E+01
 0.2886421434415E+01
 0.2742243309655E+01
 0.2569290814670E+01
 0.2366186277829E+01
 0.2132807758687E+01
 0.1869815138520E+01
 0.1576837637231E+01
 0.1246630733606E+01
 0.8424936755039E+00
 0.2619755562846E+01
 0.2450517669707E+01
 0.2254589643597E+01
 0.2031785117535E+01
 0.1785006207896E+01
 0.1520883129899E+01
 0.1250774121244E+01
 0.9922953494367E+00
 0.7712984083853E+00
 0.6185296655533E+00
 0.2240690880272E+01
 0.2026153427065E+01
 0.1784767443161E+01
 0.1517946035793E+01
 0.1231763006885E+01
 0.9377624054263E+00
 0.6550912384950E+00
 0.4149549324043E+00
 0.2692100834172E+00
 0.3233772075049E+00
 0.1889729232396E+01
 0.1644943653962E+01
 0.1376226445554E+01
 0.1087406074645E+01
 0.7882627428085E+00
 0.4950864864002E+00
 0.2336472015408E+00
 0.5683208756029E-01
 0.4986303389878E-01
 0.1368550709583E+00
 0.1582126274825E+01
 0.1327232809178E+01
 0.1054915679528E+01
 0.7728342338626E+00
 0.4954195561401E+00
 0.2437444826692E+00
 0.5560101390509E-01
 0.8251420174603E-01
 0.5357822275791E-01
 0.1672106538275E+00
 0.1322576338873E+01
 0.1075127251835E+01
 0.8171130555534E+00
 0.5602930729361E+00
 0.3228458150298E+00
 0.1276854772916E+00
 0.3051037400174E-01
 0.5357469051977E-01
 0.2625627137617E-01
 0.2282367825775E+00
 0.1109576734194E+01
 0.8807811722160E+00
 0.6453442560084E+00
 0.4200016975206E+00
 0.2252914041810E+00
 0.8191684989775E-01
 0.1895068598517E-01
 0.9281622484582E-02
 0.9676128892930E-01
 0.2672131400383E+00
 0.9386872213343E+00
 0.7310176448803E+00
 0.5176037392576E+00
 0.3229892048828E+00
 0.1677063747562E+00
 0.6638286257003E-01
 0.2719107722540E-01
 0.5328196060293E-01
 0.1459188063634E+00
 0.2901187527829E+00
 0.8028290387203E+00
 0.6079144123023E+00
 0.4153104964524E+00
 0.2541648943781E+00
 0.1369554385265E+00
 0.6993831247741E-01
 0.5515498396070E-01
 0.9220902641580E-01
 0.1751130601941E+00
 0.2935405859274E+00
 0.6804202971672E+00
 0.4878497192028E+00
 0.3362054068403E+00
 0.2200098429176E+00
 0.1398709230127E+00
 0.9740151562845E-01
 0.9250411826654E-01
 0.1225851958893E+00
 0.1822226177924E+00
 0.2685372459284E+00
</DataArray>
<DataArray type="Float64" Name="S_Hyd" NumberOfComponents="1" ComponentName0="S_Hyd" format="ascii">
-0.7850610561778E+00
-0.5314234381715E+00
-0.4486669823121E+00
-0.3470932446572E+00
-0.2438962606347E+00
-0.1322892579883E+00
-0.1080312786368E-01
 0.1239761231239E+00
 0.2771774883706E+00
 0.4600335326372E+00
 0.6883562369552E+00
 0.9583099956505E+00
 0.1247414873273E+01
 0.1543635183038E+01
 0.1842510628050E+01
 0.2135668127652E+01
 0.2416906048216E+01
 0.2730899790071E+01
 0.3036142430651E+01
 0.4000891687389E+01
 0.9965814429095E+00
-0.5653204293503E+00
-0.4370127564070E+00
-0.3308650269384E+00
-0.2413155017516E+00
-0.1428667755815E+00
-0.3719790571255E-01
 0.7888331224409E-01
 0.2081963546269E+00
 0.3559104728744E+00
 0.5309760634276E+00
 0.7403410183266E+00
 0.9776882407286E+00
 0.1227991846556E+01
 0.1479568655966E+01
 0.1723406567317E+01
 0.1948161240606E+01
 0.2149706643236E+01
 0.2304961988165E+01
 0.2458934617977E+01
 0.2119202592432E+01
-0.8677643616676E+00
-0.3902765612317E+00
-0.3117561806602E+00
-0.2210680765775E+00
-0.1350812453791E+00
-0.4392314386802E-01
 0.5587922743420E-01
 0.1658601284021E+00
 0.2888969171283E+00
 0.4294049770125E+00
 0.5932948320830E+00
 0.7826560047994E+00
 0.9904105342173E+00
 0.1204431340550E+01
 0.1413363892167E+01
 0.1605623704843E+01
 0.1768877087812E+01
 0.1884848272270E+01
 0.1930043195642E+01
 0.1801903301174E+01
 0.1015370217174E+01
-0.1232584584680E+01
-0.2346144165354E+00
-0.1834875394000E+00
-0.1097495233286E+00
-0.3104853824193E-01
 0.5356282893238E-01
 0.1467926289096E+00
 0.2502177519618E+00
 0.3661080819131E+00
 0.4978242334876E+00
 0.6486658259836E+00
 0.8178693042033E+00
 0.9979595075272E+00
 0.1178098215142E+01
 0.1346969467409E+01
 0.1491961189693E+01
 0.1597356748820E+01
 0.1640704639142E+01
 0.1576900962747E+01
 0.1269378560646E+01
 0.4199002889864E+00
-0.1244112703594E+01
-0.9119743216473E-01
-0.5764524204601E-01
 0.1646058454611E-02
 0.7157738793764E-01
 0.1492724335864E+00
 0.2356718192141E+00
 0.3320190642152E+00
 0.4399828633934E+00
 0.5617178956525E+00
 0.6985105903404E+00
 0.8477910713390E+00
 0.1001821463772E+01
 0.1150360959661E+01
 0.1282172933581E+01
 0.1383786299268E+01
 0.1437796280195E+01
 0.1417663941023E+01
 0.1269311753007E+01
 0.8802541621517E+00
 0.9038690328556E-01
-0.1166416375076E+01
 0.4309554435595E-01
 0.6444045873981E-01
 0.1118050255612E+00
 0.1728382017258E+00
 0.2432417059345E+00
 0.3225570953723E+00
 0.4114026099807E+00
 0.5107905059631E+00
 0.6217482313687E+00
 0.7440265365472E+00
 0.8738612549982E+00
 0.1003331964617E+01
 0.1122534840184E+01
 0.1220305005038E+01
 0.1282837045887E+01
 0.1291965575363E+01
 0.1219666094945E+01
 0.1016145265635E+01
 0.6032506638327E+00
-0.9668831048056E-01
-0.1071796071671E+01
 0.1700678355306E+00
 0.1825279782251E+00
 0.2200193968982E+00
 0.2725623887457E+00
 0.3355209520170E+00
 0.4075319291270E+00
 0.4885428137231E+00
 0.5788791997969E+00
 0.6785837735065E+00
 0.7862412328485E+00
 0.8972780275686E+00
 0.1003671537612E+01
 0.1095756383736E+01
 0.1162539823800E+01
 0.1190345960492E+01
 0.1161231741758E+01
 0.1048940661056E+01
 0.8137825256876E+00
 0.4067849683439E+00
-0.2037880652487E+00
-0.9813998626477E+00
 0.2909503483212E+00
 0.2967408777365E+00
 0.3259706360014E+00
 0.3706016457035E+00
 0.4261455056910E+00
 0.4907102406070E+00
 0.5636492133108E+00
 0.6446306895282E+00
 0.7328624340889E+00
 0.8260460584932E+00
 0.9190607335872E+00
 0.1003858184043E+01
 0.1071003053387E+01
 0.1109816488441E+01
 0.1107167194127E+01
 0.1046341043425E+01
 0.9049667525507E+00
 0.6542753327814E+00
 0.2669874418112E+00
-0.2638168834086E+00
-0.8991342268928E+00
 0.4066726839392E+00
 0.4073410548166E+00
 0.4295665454199E+00
 0.4668831204481E+00
 0.5151582813606E+00
 0.5722241288418E+00
 0.6369548261286E+00
 0.7084337582752E+00
 0.7851765174669E+00
 0.8642191649271E+00
 0.9400815208552E+00
 0.1004761451971E+01
 0.1049088701731E+01
 0.1062844382143E+01
 0.1033806710545E+01
 0.9472452129699E+00
 0.7854639551549E+00
 0.5294534192824E+00
 0.1665178119726E+00
-0.2947796217548E+00
-0.8228702434880E+00
 0.5179831826474E+00
 0.5146441539274E+00
 0.5308460222341E+00
 0.5614064179257E+00
 0.6026233358643E+00
 0.6522188633767E+00
 0.7087035031949E+00
 0.7706682777858E+00
 0.8360675043209E+00
 0.9014406610127E+00
 0.9610871821243E+00
 0.1007115387536E+01
 0.1030670205931E+01
 0.1022122006242E+01
 0.9704333467155E+00
 0.8632386419193E+00
 0.6874992927115E+00
 0.4319672877290E+00
 0.9409242273608E-01
-0.3114306313399E+00
-0.7420163941409E+00
 0.6255112689950E+00
 0.6189100933368E+00
 0.6298148508319E+00
 0.6540773632258E+00
 0.6884475113829E+00
 0.7306450898903E+00
 0.7789218159580E+00
 0.8314746720154E+00
 0.8858165893897E+00
 0.9381265835794E+00
 0.9825911691224E+00
 0.1011485343332E+01
 0.1016316445872E+01
 0.9881370930948E+00
 0.9172351825754E+00
 0.7936759419402E+00
 0.6085293211603E+00
 0.3565576629876E+00
 0.4124759322079E-01
-0.3181307337234E+00
-0.6829467928142E+00
 0.7297727379471E+00
 0.7204643410718E+00
 0.7266306087363E+00
 0.7449917761069E+00
 0.7727405533977E+00
 0.8076679143214E+00
 0.8478558024773E+00
 0.8911994109819E+00
 0.9348736347993E+00
 0.9748025525038E+00
 0.1005137297006E+01
 0.1018359820103E+01
 0.1006373680280E+01
 0.9609600581647E+00
 0.8737590481097E+00
 0.7371084077114E+00
 0.5455417152291E+00
 0.2981245188733E+00
 0.2491800912451E-02
-0.3218048080710E+00
-0.6391473695589E+00
 0.8312912061198E+00
 0.8197093226173E+00
 0.8216046008625E+00
 0.8344349893767E+00
 0.8558174592153E+00
 0.8836635247522E+00
 0.9159577292264E+00
 0.9503726680921E+00
 0.9838289393739E+00
 0.1012073716545E+01
 0.1029275184372E+01
 0.1028147032229E+01
 0.1001004391264E+01
 0.9403615559895E+00
 0.8391527076405E+00
 0.6917489615918E+00
 0.4954720729404E+00
 0.2525850765139E+00
-0.2708634538214E-01
-0.3237872309692E+00
-0.6100864707949E+00
 0.9305069942463E+00
 0.9169539760716E+00
 0.9149349044778E+00
 0.9225454029422E+00
 0.9378077267204E+00
 0.9587891589341E+00
 0.9834362343710E+00
 0.1009266704918E+01
 0.1033015780935E+01
 0.1050312687911E+01
 0.1055377146441E+01
 0.1041165439705E+01
 0.1000400127065E+01
 0.9262920265560E+00
 0.8129506015187E+00
 0.6564776984271E+00
 0.4564026987084E+00
 0.2171982334894E+00
-0.4995896846669E-01
-0.3265729922592E+00
-0.5896762384647E+00
 0.1027822116488E+01
 0.1012494455895E+01
 0.1006823847629E+01
 0.1009469781993E+01
 0.1018843791087E+01
 0.1033195777799E+01
 0.1050482800754E+01
 0.1068124137592E+01
 0.1082724671128E+01
 0.1089838273162E+01
 0.1083755114552E+01
 0.1057671341473E+01
 0.1004693451696E+01
 0.9186597590199E+00
 0.7946943840784E+00
 0.6303206549397E+00
 0.4267484393075E+00
 0.1899888256334E+00
-0.6817591556027E-01
-0.3304800029482E+00
-0.5767691120775E+00
 0.1123607422768E+01
 0.1106613118659E+01
 0.1097472554392E+01
 0.1095356858898E+01
 0.1099056019868E+01
 0.1107024494123E+01
 0.1117269521649E+01
 0.1127157633922E+01
 0.1133205828682E+01
 0.1130921066698E+01
 0.1114669370046E+01
 0.1077871408611E+01
 0.1013977208303E+01
 0.9173586422689E+00
 0.7839727445753E+00
 0.6124601255491E+00
 0.4052752080014E+00
 0.1694486653773E+00
-0.8301289126856E-01
-0.3358540387482E+00
-0.5708728398678E+00
 0.1218207801194E+01
 0.1199578427398E+01
 0.1187077016336E+01
 0.1180352322527E+01
 0.1178568322737E+01
 0.1180403343680E+01
 0.1183947210929E+01
 0.1186549824915E+01
 0.1184671458407E+01
 0.1173788404549E+01
 0.1148336329991E+01
 0.1101934119648E+01
 0.1028321001390E+01
 0.9222915109428E+00
 0.7804435084734E+00
 0.6022499998238E+00
 0.3910437845220E+00
 0.1545019016963E+00
-0.9532889098667E-01
-0.3429805735213E+00
-0.5716283644369E+00
 0.1311946354790E+01
 0.1291645322239E+01
 0.1275825307143E+01
 0.1264594807853E+01
 0.1257494367126E+01
 0.1253444415563E+01
 0.1250643787008E+01
 0.1246453314699E+01
 0.1237297777944E+01
 0.1218628649163E+01
 0.1184935318809E+01
 0.1129999563622E+01
 0.1047785023189E+01
 0.9333870222650E+00
 0.7838496356066E+00
 0.5992137689582E+00
 0.3833834381724E+00
 0.1444138908177E+00
-0.1056921256928E+00
-0.3520412148676E+00
-0.5787429735182E+00
 0.1405128067161E+01
 0.1383055901790E+01
 0.1363895549252E+01
 0.1348212564489E+01
 0.1335934226597E+01
 0.1326241228148E+01
 0.1317462776978E+01
 0.1306990617284E+01
 0.1291226649742E+01
 0.1265594694924E+01
 0.1224614121663E+01
 0.1162187427593E+01
 0.1072430712731E+01
 0.9506119803914E+00
 0.7940280917776E+00
 0.6030414446294E+00
 0.3818643922638E+00
 0.1387287195859E+00
-0.1144382455399E+00
-0.3631146208764E+00
-0.5919658861389E+00
 0.1498043331831E+01
 0.1474040388017E+01
 0.1451454391578E+01
 0.1431320590504E+01
 0.1413971351108E+01
 0.1398866302255E+01
 0.1384481895828E+01
 0.1368253971108E+01
 0.1346566784611E+01
 0.1314806653751E+01
 0.1267493246474E+01
 0.1198602992863E+01
 0.1102328452016E+01
 0.9739794832165E+00
 0.8109148283902E+00
 0.6135851914291E+00
 0.3862762129073E+00
 0.1372313622126E+00
-0.1217036298082E+00
-0.3761832044187E+00
-0.6110844022511E+00
 0.1590971653358E+01
 0.1564818376043E+01
 0.1538655799912E+01
 0.1514018016461E+01
 0.1491669712638E+01
 0.1471368842837E+01
 0.1451751631439E+01
 0.1430304966892E+01
 0.1403394460030E+01
 0.1366353665408E+01
 0.1313668810876E+01
 0.1239341090417E+01
 0.1137562398232E+01
 0.1003553674341E+01
 0.8345471327286E+00
 0.6308554033809E+00
 0.3966141479221E+00
 0.1399267928832E+00
-0.1274427752418E+00
-0.3911382316076E+00
-0.6359204239126E+00
 0.1684185800001E+01
 0.1655600383937E+01
 0.1625639978921E+01
 0.1596385524879E+01
 0.1569070971801E+01
 0.1543772439919E+01
 0.1519293778296E+01
 0.1493173941493E+01
 0.1461753712346E+01
 0.1420294793304E+01
 0.1363214012099E+01
 0.1284487993726E+01
 0.1178232580852E+01
 0.1039451560687E+01
 0.8650641443179E+00
 0.6550183804765E+00
 0.4130731381103E+00
 0.1470323123224E+00
-0.1314331518050E+00
-0.4077790462746E+00
-0.6663255268201E+00
 0.1777956711365E+01
 0.1746589736264E+01
 0.1712532253279E+01
 0.1678482598618E+01
 0.1646191532963E+01
 0.1616072739146E+01
 0.1587099913600E+01
 0.1556859142749E+01
 0.1521656012472E+01
 0.1476659023619E+01
 0.1416179204041E+01
 0.1334121284881E+01
 0.1224454355600E+01
 0.1081842102547E+01
 0.9027059267028E+00
 0.6863959877446E+00
 0.4360490220804E+00
 0.1589814687020E+00
-0.1332682494028E+00
-0.4258049010394E+00
-0.7021744971904E+00
 0.1872559515862E+01
 0.1837984803134E+01
 0.1799441678369E+01
 0.1760344335267E+01
 0.1723019325425E+01
 0.1688235024821E+01
 0.1655129807625E+01
 0.1621325662453E+01
 0.1583079423669E+01
 0.1535444384298E+01
 0.1472590619126E+01
 0.1388307728336E+01
 0.1276355203922E+01
 0.1130942496992E+01
 0.9478109886081E+00
 0.7254671412026E+00
 0.4661466135709E+00
 0.1764393532977E+00
-0.1323382213362E+00
-0.4447981566415E+00
-0.7433576705222E+00
 0.1968281117694E+01
 0.1929981611919E+01
 0.1886459080017E+01
 0.1841977517950E+01
 0.1799510162648E+01
 0.1760191715625E+01
 0.1723309825610E+01
 0.1686504189500E+01
 0.1645967289886E+01
 0.1596616263813E+01
 0.1532447856345E+01
 0.1447099257184E+01
 0.1334068835768E+01
 0.1187011332673E+01
 0.1000811671103E+01
 0.7728705497454E+00
 0.5041945154068E+00
 0.2003301390428E+00
-0.1277963746768E+00
-0.4641969043868E+00
-0.7897721934884E+00
 0.2065429987608E+01
 0.2022776807088E+01
 0.1973654060912E+01
 0.1923355508322E+01
 0.1875583498334E+01
 0.1831839792364E+01
 0.1791531392588E+01
 0.1752289619373E+01
 0.1710226470278E+01
 0.1660104988726E+01
 0.1595720270603E+01
 0.1510527192299E+01
 0.1397726489690E+01
 0.1250337980053E+01
 0.1062226214936E+01
 0.8294075344851E+00
 0.5512666692100E+00
 0.2318785272673E+00
-0.1185077788869E+00
-0.4832550407505E+00
-0.8413087244072E+00
 0.2164349070665E+01
 0.2116570861704E+01
 0.2061070264649E+01
 0.2004411373661E+01
 0.1951117406206E+01
 0.1903038267188E+01
 0.1859649669553E+01
 0.1818539587181E+01
 0.1775725140780E+01
 0.1725802745073E+01
 0.1662342468415E+01
 0.1578594953072E+01
 0.1467445332920E+01
 0.1321227479839E+01
 0.1132645419320E+01
 0.8960431877758E+00
 0.6087099485050E+00
 0.2726691145347E+00
-0.1029768296061E+00
-0.5009804849513E+00
-0.8978422814506E+00
 0.2265433200651E+01
 0.2211571307008E+01
 0.2148717797728E+01
 0.2085028455108E+01
 0.2025942669505E+01
 0.1973605973220E+01
 0.1927482716911E+01
 0.1885073043827E+01
 0.1842290201136E+01
 0.1793559965044E+01
 0.1732209259496E+01
 0.1651269698100E+01
 0.1543314300352E+01
 0.1399979652644E+01
 0.1212712542212E+01
 0.9738992986685E+00
 0.6781835297249E+00
 0.3247167867979E+00
-0.7922428916423E-01
-0.5160850780961E+00
-0.9591434052605E+00
 0.2369153223168E+01
 0.2307995372005E+01
 0.2236561001753E+01
 0.2165027187881E+01
 0.2099835894793E+01
 0.2043320101009E+01
 0.1994811447188E+01
 0.1951668894707E+01
 0.1909704146854E+01
 0.1863181139827E+01
 0.1805170298789E+01
 0.1728473530125E+01
 0.1625377482928E+01
 0.1486862557892E+01
 0.1303089399122E+01
 0.1064244242187E+01
 0.7616735817280E+00
 0.3906414137570E+00
-0.4478701742578E-01
-0.5265735728868E+00
-0.1025381200541E+01
 0.2476090667270E+01
 0.2406070437896E+01
 0.2324498977564E+01
 0.2244146384814E+01
 0.2172512013334E+01
 0.2111916328315E+01
 0.2061380940716E+01
 0.2018064827951E+01
 0.1977701304154E+01
 0.1934420077716E+01
 0.1881024922117E+01
 0.1810075166882E+01
 0.1713616790039E+01
 0.1582078403783E+01
 0.1404411681194E+01
 0.1168445529809E+01
 0.8615644657006E+00
 0.4736574766064E+00
 0.4094770441914E-02
-0.5313563434345E+00
-0.1092607832254E+01
 0.2586993565381E+01
 0.2506100671113E+01
 0.2412433996465E+01
 0.2322150189097E+01
 0.2243774260384E+01
 0.2179273773001E+01
 0.2127113068140E+01
 0.2084199755810E+01
 0.2046251066532E+01
 0.2007320563753E+01
 0.1959936948532E+01
 0.1896391314876E+01
 0.1808548369417E+01
 0.1686461462580E+01
 0.1518087670279E+01
 0.1288912387292E+01
 0.9816556049178E+00
 0.5790572104340E+00
 0.7248180417238E-01
-0.5249815740096E+00
-0.1173644196026E+01
 0.2702864059407E+01
 0.2608346711803E+01
 0.2500030408916E+01
 0.2398527136893E+01
 0.2313183131015E+01
 0.2245041407421E+01
 0.2191671436946E+01
 0.2149700451445E+01
 0.2114949239717E+01
 0.2081496174760E+01
 0.2041585974919E+01
 0.1987184352742E+01
 0.1910031219326E+01
 0.1800058911104E+01
 0.1644639691816E+01
 0.1427235174929E+01
 0.1125483741450E+01
 0.7126524543333E+00
 0.1680754604310E+00
-0.5043022994887E+00
-0.1258068570148E+01
 0.2825005977076E+01
 0.2712929844260E+01
 0.2586572343214E+01
 0.2472428121459E+01
 0.2380072762988E+01
 0.2308685734557E+01
 0.2254514309697E+01
 0.2213933575574E+01
 0.2183067295567E+01
 0.2156177066417E+01
 0.2125206614455E+01
 0.2081677134545E+01
 0.2017232828807E+01
 0.1922011344261E+01
 0.1783421863149E+01
 0.1583699862821E+01
 0.1295598113926E+01
 0.8807532119851E+00
 0.2998947367685E+00
-0.4599110305118E+00
-0.1348942271735E+01
 0.2955315423456E+01
 0.2819949754906E+01
 0.2671049559752E+01
 0.2542888647529E+01
 0.2443884077308E+01
 0.2369865094356E+01
 0.2315299621732E+01
 0.2276454135070E+01
 0.2250061041400E+01
 0.2230815898994E+01
 0.2210339793275E+01
 0.2179480761317E+01
 0.2129745150815E+01
 0.2051861899125E+01
 0.1934089633183E+01
 0.1758754247562E+01
 0.1495112942929E+01
 0.1091764726795E+01
 0.4823107101807E+00
-0.3787537005138E+00
-0.1448364442329E+01
 0.3096624810939E+01
 0.2929220716911E+01
 0.2751751717877E+01
 0.2608636255619E+01
 0.2504065378924E+01
 0.2428284180883E+01
 0.2373697750111E+01
 0.2336777837245E+01
 0.2315282491694E+01
 0.2304746310847E+01
 0.2296456254113E+01
 0.2280170932906E+01
 0.2247072349244E+01
 0.2188929224268E+01
 0.2095825279900E+01
 0.1951893256905E+01
 0.1726006109029E+01
 0.1355233745221E+01
 0.7359882327873E+00
-0.2378742002941E+00
-0.1557424450830E+01
 0.3253450246333E+01
 0.3039817438409E+01
 0.2825737687165E+01
 0.2668120616980E+01
 0.2560201427378E+01
 0.2483719145105E+01
 0.2429414028210E+01
 0.2394397380423E+01
 0.2377951479113E+01
 0.2377135625512E+01
 0.2382950696683E+01
 0.2383327750501E+01
 0.2368668770161E+01
 0.2332300883878E+01
 0.2267338865175E+01
 0.2161447756341E+01
 0.1987764071458E+01
 0.1679920522315E+01
 0.1090556066528E+01
 0.4806935681635E-02
-0.1671154420544E+01
 0.3433706241130E+01
 0.3148793151332E+01
 0.2887887157185E+01
 0.2719894194368E+01
 0.2612198835216E+01
 0.2535986169446E+01
 0.2482235211370E+01
 0.2448820306932E+01
 0.2437119407131E+01
 0.2446894297728E+01
 0.2469127841011E+01
 0.2488607475512E+01
 0.2494006958601E+01
 0.2480846942281E+01
 0.2446825257801E+01
 0.2384847286239E+01
 0.2275994264087E+01
 0.2068508620963E+01
 0.1585632862467E+01
 0.4299613499918E+00
-0.1764637138140E+01
 0.3653442661913E+01
 0.3246908907166E+01
 0.2929606863479E+01
 0.2764145766827E+01
 0.2660159325214E+01
 0.2584878853022E+01
 0.2532125039687E+01
 0.2499632650739E+01
 0.2491652609291E+01
 0.2512489747996E+01
 0.2554152891639E+01
 0.2595912305495E+01
 0.2622629431068E+01
 0.2633333704149E+01
 0.2631794645362E+01
 0.2618902244703E+01
 0.2583905011137E+01
 0.2506584511494E+01
 0.2259845982152E+01
 0.1199358136110E+01
-0.1749280179281E+01
 0.3953838530117E+01
 0.3300346708004E+01
 0.2941677603161E+01
 0.2806186860319E+01
 0.2702324980485E+01
 0.2630978371135E+01
 0.2578968810783E+01
 0.2546747152846E+01
 0.2540295656871E+01
 0.2571543555040E+01
 0.2636908992276E+01
 0.2705730009964E+01
 0.2754393006602E+01
 0.2787973900431E+01
 0.2820303430686E+01
 0.2856993216175E+01
 0.2909500457648E+01
 0.2959534154131E+01
 0.3083123207409E+01
 0.2634808589870E+01
-0.1284569246256E+01
 0.4489113566258E+01
 0.3138994892173E+01
 0.2981671484104E+01
 0.2831492136835E+01
 0.2742678796786E+01
 0.2673582647639E+01
 0.2623057202945E+01
 0.2590376271777E+01
 0.2582381042673E+01
 0.2619855845509E+01
 0.2715415370208E+01
 0.2820268136429E+01
 0.2889386392888E+01
 0.2942749285177E+01
 0.3008561456456E+01
 0.3098821915017E+01
 0.3225661500944E+01
 0.3466221945043E+01
 0.3771835474884E+01
 0.5096197739885E+01
 0.1154018512555E+01
 0.1999832715418E+01
 0.1800183602168E+01
 0.1642800138232E+01
 0.1529683938112E+01
 0.1456474734174E+01
 0.1429241837509E+01
 0.1443151409814E+01
 0.1494401118461E+01
 0.1592962718641E+01
 0.1812335854344E+01
 0.2071363791179E+01
 0.1856250755658E+01
 0.1693969284341E+01
 0.1577189144033E+01
 0.1505510944046E+01
 0.1478399091041E+01
 0.1496213998228E+01
 0.1561777558827E+01
 0.1699404051975E+01
 0.1936079110735E+01
 0.2130521697957E+01
 0.1905237821694E+01
 0.1736581565613E+01
 0.1617775730537E+01
 0.1545782028318E+01
 0.1520547406414E+01
 0.1543935149329E+01
 0.1624150546832E+01
 0.1778153918677E+01
 0.2032828948566E+01
 0.2178347085521E+01
 0.1944731612952E+01
 0.1771333028365E+01
 0.1650422424056E+01
 0.1578477388495E+01
 0.1555235484631E+01
 0.1584022950779E+01
 0.1672880016595E+01
 0.1837839984766E+01
 0.2103796747051E+01
 0.2213969493820E+01
 0.1974483691431E+01
 0.1797673724755E+01
 0.1675326286341E+01
 0.1603478977430E+01
 0.1581871583072E+01
 0.1613867910182E+01
 0.1707429589805E+01
 0.1877462373906E+01
 0.2146368226267E+01
 0.2236886096125E+01
 0.1994173058921E+01
 0.1815512271165E+01
 0.1692409398417E+01
 0.1620643907569E+01
 0.1599699894973E+01
 0.1632680757076E+01
 0.1727001890314E+01
 0.1896164614631E+01
 0.2160518188650E+01
 0.2246819596195E+01
 0.2003690114607E+01
 0.1824808203466E+01
 0.1701645704927E+01
 0.1629796787955E+01
 0.1608421315216E+01
 0.1640109479874E+01
 0.1731394423911E+01
 0.1894158214879E+01
 0.2146467556350E+01
 0.2243769778721E+01
 0.2003080172912E+01
 0.1825617935371E+01
 0.1703056680815E+01
 0.1630914362921E+01
 0.1608001187943E+01
 0.1636240246865E+01
 0.1721023993384E+01
 0.1872339374725E+01
 0.2105597731168E+01
 0.2228004718865E+01
 0.1992549236678E+01
 0.1818094236707E+01
 0.1696758299153E+01
 0.1624113282412E+01
 0.1598646350593E+01
 0.1621529502554E+01
 0.1696812661068E+01
 0.1832300020962E+01
 0.2040392499842E+01
 0.2200053097058E+01
 0.1972460757756E+01
 0.1802496487755E+01
 0.1682965741691E+01
 0.1609643404026E+01
 0.1580762269267E+01
 0.1596725009579E+01
 0.1660103502293E+01
 0.1776268477305E+01
 0.1954150015570E+01
 0.2160688786249E+01
 0.1943331145735E+01
 0.1779190932420E+01
 0.1661991690166E+01
 0.1587870804191E+01
 0.1554909008184E+01
 0.1562781668464E+01
 0.1612544567086E+01
 0.1706934026683E+01
 0.1850819118490E+01
 0.2110908971275E+01
 0.1905820386169E+01
 0.1748646470097E+01
 0.1634238679220E+01
 0.1559258181203E+01
 0.1521761086683E+01
 0.1520783872661E+01
 0.1555922019710E+01
 0.1627259567091E+01
 0.1734896846912E+01
 0.2051905939398E+01
 0.1860718663131E+01
 0.1711427172233E+01
 0.1600188216778E+01
 0.1524343814869E+01
 0.1482071569885E+01
 0.1471890384125E+01
 0.1492034197927E+01
 0.1540130399443E+01
 0.1611358172841E+01
 0.1985033670230E+01
 0.1808930013530E+01
 0.1668182909011E+01
 0.1560389622762E+01
 0.1483717319696E+01
 0.1436637619267E+01
 0.1417295476467E+01
 0.1422690927094E+01
 0.1448228907815E+01
 0.1485252965676E+01
 0.1911771095157E+01
 0.1751451568663E+01
 0.1619642227124E+01
 0.1515448910944E+01
 0.1437998628537E+01
 0.1386250328278E+01
 0.1358196070675E+01
 0.1349720964113E+01
 0.1354387991575E+01
 0.1360911187543E+01
 0.1833677964586E+01
 0.1689354035226E+01
 0.1566595946957E+01
 0.1466040062529E+01
 0.1387807542048E+01
 0.1331652892492E+01
 0.1295673246314E+01
 0.1274957586619E+01
 0.1261419294164E+01
 0.1242167306012E+01
 0.1752352102652E+01
 0.1623741551403E+01
 0.1509911744905E+01
 0.1412860383556E+01
 0.1333863124749E+01
 0.1273387129854E+01
 0.1230611437698E+01
 0.1199882779816E+01
 0.1172063926418E+01
 0.1132057151975E+01
 0.1669253106704E+01
 0.1555819929231E+01
 0.1450460235940E+01
 0.1356718991638E+01
 0.1276747645974E+01
 0.1212450626126E+01
 0.1162687577568E+01
 0.1125716439197E+01
 0.1088437708961E+01
 0.1034035104677E+01
 0.1585923456175E+01
 0.1486248487164E+01
 0.1389896660260E+01
 0.1298050724785E+01
 0.1217079336342E+01
 0.1149369413263E+01
 0.1094411545761E+01
 0.1046200626889E+01
 0.1015917281637E+01
 0.9528547024418E+00
 0.1497144729367E+01
 0.1421000015548E+01
 0.1327550217873E+01
 0.1238139174913E+01
 0.1154987151109E+01
 0.1084343872224E+01
 0.1026467487901E+01
 0.9723636681654E+00
 0.9120598759391E+00
 0.9374286848972E+00
 0.2671306182315E+01
 0.1105836101542E+00
-0.4223823249720E-01
-0.9104845996103E-01
-0.1149935454809E+00
-0.1394805992111E+00
-0.1943794469998E+00
-0.2141142723621E+00
-0.2235730963125E+00
 0.3893938270374E-01
 0.1676667610522E+01
 0.8276967291929E+00
 0.2300463356431E+00
 0.9883821531887E-01
 0.4990537367425E-01
 0.1297078925945E-01
-0.2071366735993E-01
-0.2552242401030E-01
 0.6265376854168E-01
 0.4068412301412E+00
 0.1485987910855E+01
 0.9472987310589E+00
 0.5496063551747E+00
 0.3141870755924E+00
 0.2297129339460E+00
 0.1849354124190E+00
 0.1648710593897E+00
 0.1970273994091E+00
 0.3454937907003E+00
 0.7577468697979E+00
 0.1453001598234E+01
 0.1054864948823E+01
 0.7458927163273E+00
 0.5360045995699E+00
 0.4211407207513E+00
 0.3683981559732E+00
 0.3639305918517E+00
 0.4270650469343E+00
 0.6179511620522E+00
 0.1037235748420E+01
 0.1489267420814E+01
 0.1161069067372E+01
 0.9077114743963E+00
 0.7252798603781E+00
 0.6128824587168E+00
 0.5575816629294E+00
 0.5662500770604E+00
 0.6521052111763E+00
 0.8588198604719E+00
 0.1255056636763E+01
 0.1556845318743E+01
 0.1271314231178E+01
 0.1052634516195E+01
 0.8944474243831E+00
 0.7926704462623E+00
 0.7437119307032E+00
 0.7625589691914E+00
 0.8598705591233E+00
 0.1062794532509E+01
 0.1419402381116E+01
 0.1639461939115E+01
 0.1382941587498E+01
 0.1188468217543E+01
 0.1048984618947E+01
 0.9593865731043E+00
 0.9191769608533E+00
 0.9446331026761E+00
 0.1043433749119E+01
 0.1228666221977E+01
 0.1538303657866E+01
 0.1727589819632E+01
 0.1492994498441E+01
 0.1316840088067E+01
 0.1191754842223E+01
 0.1112482273377E+01
 0.1079702692851E+01
 0.1108204546382E+01
 0.1199232174505E+01
 0.1358348340282E+01
 0.1616694506519E+01
 0.1814553276312E+01
 0.1597808340934E+01
 0.1437457790975E+01
 0.1323385324645E+01
 0.1251099596604E+01
 0.1222645638233E+01
 0.1249691040211E+01
 0.1333921207112E+01
 0.1451906950115E+01
 0.1657084745555E+01
 0.1889291031570E+01
 0.1695997229361E+01
 0.1549503150850E+01
 0.1442647270354E+01
 0.1375016674877E+01
 0.1345492509243E+01
 0.1366210959846E+01
 0.1441185084522E+01
 0.1560738304321E+01
 0.1617732818518E+01
 0.1437025231132E+01
 0.1343594310327E+01
 0.1250349117948E+01
 0.1159818206231E+01
 0.1076211257381E+01
 0.9981589038906E+00
 0.9291188009570E+00
 0.8707359497103E+00
 0.8103746300528E+00
 0.6371955753971E+00
 0.1366667066677E+01
 0.1263022194390E+01
 0.1151108367597E+01
 0.1046017792199E+01
 0.9492324404857E+00
 0.8620716871938E+00
 0.7899289541740E+00
 0.7324003138817E+00
 0.6628194574039E+00
 0.6158668393349E+00
 0.1307009128756E+01
 0.1185823785547E+01
 0.1053562646716E+01
 0.9301304200573E+00
 0.8199153654213E+00
 0.7243394225048E+00
 0.6499214596446E+00
 0.5927784129102E+00
 0.5492150014362E+00
 0.5189195958015E+00
 0.1261580733766E+01
 0.1116368761402E+01
 0.9570182206243E+00
 0.8114016665170E+00
 0.6866585642327E+00
 0.5845158326681E+00
 0.5102661358956E+00
 0.4602075420259E+00
 0.4274265519992E+00
 0.4065164582021E+00
 0.1238141648143E+01
 0.1056961386358E+01
 0.8603471187673E+00
 0.6863537748033E+00
 0.5470249162050E+00
 0.4424037417768E+00
 0.3733887249342E+00
 0.3307425187529E+00
 0.3067533413008E+00
 0.2902343959178E+00
 0.1249110076664E+01
 0.1010039508028E+01
 0.7590431761504E+00
 0.5481843080390E+00
 0.3980615241152E+00
 0.2992718909386E+00
 0.2415578563198E+00
 0.2083865945997E+00
 0.1914575406678E+00
 0.1771301867063E+00
 0.1317267899670E+01
 0.9779989237592E+00
 0.6399717834169E+00
 0.3863286827420E+00
 0.2376007882664E+00
 0.1606439920890E+00
 0.1189100502665E+00
 0.9621337302206E-01
 0.8473110802787E-01
 0.7061127205014E-01
 0.1496989913091E+01
 0.9522547991535E+00
 0.4759961474218E+00
 0.1799907170005E+00
 0.7962324907988E-01
 0.3331535262356E-01
 0.9041208159519E-02
-0.3718295357039E-02
-0.1201448826981E-01
-0.2740865241112E-01
 0.1915847464307E+01
 0.9169953115960E+00
 0.1382011147281E+00
-0.1938591429397E-01
-0.6371807499154E-01
-0.7767871933112E-01
-0.8565301498011E-01
-0.9134483320529E-01
-0.9762567521531E-01
-0.1163943557061E+00
 0.3492989462919E+01
 0.4528745882111E-01
-0.1407904743086E+00
-0.1889715133084E+00
-0.1871414851512E+00
-0.1706729954348E+00
-0.1652967740353E+00
-0.1636661647314E+00
-0.1789962006363E+00
-0.1880829683166E+00
 0.2073818690065E+01
 0.1970848598743E+01
 0.1941235512542E+01
 0.1901288955837E+01
 0.1841389591324E+01
 0.1749781927781E+01
 0.1614474601354E+01
 0.1415061951359E+01
 0.1121112219369E+01
 0.5775992358346E+00
 0.2131414867837E+01
 0.2190791144804E+01
 0.2212424619015E+01
 0.2241525328706E+01
 0.2261382225392E+01
 0.2263911380547E+01
 0.2236746944524E+01
 0.2162377271407E+01
 0.1999981790064E+01
 0.1695372309278E+01
 0.2239498332274E+01
 0.2337292180104E+01
 0.2436099080916E+01
 0.2535131779846E+01
 0.2640133687102E+01
 0.2746030029404E+01
 0.2847514219022E+01
 0.2936120638572E+01
 0.3006054330727E+01
 0.3064896021897E+01
 0.2320702309693E+01
 0.2457292685778E+01
 0.2606255012877E+01
 0.2771571075063E+01
 0.2955165613011E+01
 0.3159568081568E+01
 0.3385939315126E+01
 0.3638094421766E+01
 0.3926905561405E+01
 0.4281490128080E+01
 0.2372957592015E+01
 0.2538055903986E+01
 0.2727158189809E+01
 0.2943752315042E+01
 0.3192827789207E+01
 0.3479597447407E+01
 0.3810680643580E+01
 0.4195116067316E+01
 0.4646826645828E+01
 0.5185362607402E+01
 0.2389872861322E+01
 0.2573330353675E+01
 0.2787535024910E+01
 0.3037730022450E+01
 0.3330257208041E+01
 0.3672768514741E+01
 0.4074109237896E+01
 0.4544435339008E+01
 0.5094454731189E+01
 0.5731712394085E+01
 0.2370130721464E+01
 0.2558858716041E+01
 0.2781412136394E+01
 0.3043666650621E+01
 0.3352897003940E+01
 0.3717768824783E+01
 0.4148102685217E+01
 0.4653987678337E+01
 0.5243950732546E+01
 0.5923149209514E+01
 0.2314918426440E+01
 0.2495791980737E+01
 0.2709581827107E+01
 0.2961948008387E+01
 0.3259986385528E+01
 0.3612368747620E+01
 0.4029317999396E+01
 0.4521694547996E+01
 0.5099345185869E+01
 0.5769207078341E+01
 0.2227243203702E+01
 0.2388339419133E+01
 0.2577658377253E+01
 0.2799737525554E+01
 0.3060376322831E+01
 0.3366973541544E+01
 0.3729022691206E+01
 0.4158995972197E+01
 0.4670631697474E+01
 0.5276003285659E+01
 0.2111721890779E+01
 0.2243202277407E+01
 0.2395032704753E+01
 0.2569833018157E+01
 0.2770975360328E+01
 0.3002944568320E+01
 0.3272248305784E+01
 0.3589280982852E+01
 0.3974126359167E+01
 0.4449532746821E+01
 0.1974353105237E+01
 0.2069250493040E+01
 0.2174529101369E+01
 0.2290333339490E+01
 0.2416761388307E+01
 0.2553893257495E+01
 0.2702176956636E+01
 0.2864056119390E+01
 0.3048856524158E+01
 0.3304940612740E+01
 0.1822306488846E+01
 0.1877425536665E+01
 0.1932310345020E+01
 0.1984714246747E+01
 0.2031343639500E+01
 0.2067393756404E+01
 0.2085915114309E+01
 0.2076691040929E+01
 0.2024371363669E+01
 0.1913736807481E+01
 0.1663119726560E+01
 0.1678947496527E+01
 0.1685202741091E+01
 0.1678088039082E+01
 0.1651990859494E+01
 0.1598760406731E+01
 0.1506339944705E+01
 0.1355745482853E+01
 0.1113233932769E+01
 0.6868415142352E+00
 0.1504314336295E+01
 0.1484405807215E+01
 0.1448639260573E+01
 0.1393069648595E+01
 0.1311736087268E+01
 0.1196245405905E+01
 0.1034774379869E+01
 0.8100325865414E+00
 0.4946317144452E+00
 0.4443811394010E-01
 0.1352556551010E+01
 0.1302288735990E+01
 0.1233809517613E+01
 0.1144027615997E+01
 0.1028484435965E+01
 0.8812057808439E+00
 0.6948831761591E+00
 0.4618195950519E+00
 0.1775313454081E+00
-0.1270940557703E+00
 0.1211795152182E+01
 0.1137430590583E+01
 0.1045237966114E+01
 0.9342166260002E+00
 0.8021723354175E+00
 0.6462886691140E+00
 0.4644733277067E+00
 0.2577506258209E+00
 0.3720004507155E-01
-0.1758564938115E+00
 0.1084739012110E+01
 0.9908471855080E+00
 0.8817643819868E+00
 0.7592597479302E+00
 0.6232115098498E+00
 0.4729378624919E+00
 0.3092190386062E+00
 0.1367329547601E+00
-0.3620918935259E-01
-0.2031631842639E+00
 0.9713623559871E+00
 0.8589577249392E+00
 0.7365566853482E+00
 0.6098529413141E+00
 0.4786015059316E+00
 0.3414592113433E+00
 0.1996982104969E+00
 0.5650398772015E-01
-0.8399248325785E-01
-0.2195268508306E+00
 0.8706382342746E+00
 0.7310342755214E+00
 0.5997585832924E+00
 0.4792580199904E+00
 0.3607026148637E+00
 0.2416765652778E+00
 0.1220224865835E+00
 0.3312940695516E-02
-0.1141771752258E+00
-0.2277371323778E+00
 0.7550914086788E+00
 0.5823586009527E+00
 0.4675597619126E+00
 0.3657040790539E+00
 0.2683506274144E+00
 0.1711269626468E+00
 0.7333135902717E-01
-0.2465388086053E-01
-0.1207883325044E+00
-0.2231795113623E+00
</DataArray>
<DataArray type="Float64" Name="S_Oct" NumberOfComponents="1" ComponentName0="S_Oct" format="ascii">
 0.6858505506655E+00
 0.5984477126456E+00
 0.4792674178543E+00
 0.3753411068347E+00
 0.2628921795488E+00
 0.1427651021097E+00
 0.1168876100873E-01
 0.1336128698380E+00
 0.2986943068862E+00
 0.4935472700248E+00
 0.7299771338531E+00
 0.1001263163911E+01
 0.1281737909135E+01
 0.1552671717375E+01
 0.1802764882425E+01
 0.2017422618889E+01
 0.2193667597836E+01
 0.2323515904027E+01
 0.2483262880658E+01
 0.2177533227079E+01
 0.3849383717808E+01
 0.4722834350101E+00
 0.4579868634129E+00
 0.3605463569079E+00
 0.2610080779590E+00
 0.1565689883103E+00
 0.4310242065394E-01
 0.8105894998646E-01
 0.2189458960215E+00
 0.3748635465006E+00
 0.5530821491017E+00
 0.7532083761159E+00
 0.9668393193676E+00
 0.1180674867950E+01
 0.1380929764810E+01
 0.1554339376845E+01
 0.1689366086336E+01
 0.1768991771580E+01
 0.1779476724608E+01
 0.1605387834510E+01
 0.1247275991997E+01
 0.3370332166129E+01
 0.3120993758479E+00
 0.3075705623376E+00
 0.2406731667084E+00
 0.1507827250520E+00
 0.5438648571919E-01
 0.5119952708676E-01
 0.1668864571140E+00
 0.2949291464410E+00
 0.4373673555341E+00
 0.5937772889942E+00
 0.7589814119794E+00
 0.9250957594014E+00
 0.1084024857088E+01
 0.1225875680322E+01
 0.1339293348687E+01
 0.1412076124684E+01
 0.1427917883430E+01
 0.1355058962412E+01
 0.1143416988574E+01
 0.1212284128682E+01
 0.3204302517191E+01
 0.1789319670817E+00
 0.1696067898147E+00
 0.1209219231443E+00
 0.4440275034123E-01
 0.4372305873088E-01
 0.1401012994459E+00
 0.2460471587457E+00
 0.3621762466740E+00
 0.4883213726751E+00
 0.6212327457184E+00
 0.7541862040358E+00
 0.8803610245145E+00
 0.9945071365425E+00
 0.1089965928967E+01
 0.1157906630975E+01
 0.1188355802157E+01
 0.1168178307581E+01
 0.1080279298105E+01
 0.9895261820075E+00
 0.1427971937474E+01
 0.3044279269936E+01
 0.6244154728376E-01
 0.4540365804479E-01
 0.6590307593155E-02
 0.5895865891593E-01
 0.1369450137454E+00
 0.2239115349431E+00
 0.3190341588422E+00
 0.4217672571766E+00
 0.5302194508760E+00
 0.6397453141254E+00
 0.7435731490667E+00
 0.8361586060383E+00
 0.9143193354509E+00
 0.9741554733499E+00
 0.1009969308564E+01
 0.1015767575364E+01
 0.9864607476147E+00
 0.9369043443191E+00
 0.1008292668636E+01
 0.1630120365088E+01
 0.2911705350421E+01
 0.4323487264517E-01
 0.6736857117207E-01
 0.1022948693226E+00
 0.1573957156478E+00
 0.2258823105295E+00
 0.3029220080501E+00
 0.3865225978781E+00
 0.4750205463888E+00
 0.5654175525006E+00
 0.6526308147194E+00
 0.7305805060728E+00
 0.7951274724532E+00
 0.8448846919757E+00
 0.8784885204863E+00
 0.8937204840919E+00
 0.8897352130780E+00
 0.8733629834284E+00
 0.8894890476350E+00
 0.1103212805936E+01
 0.1778306055387E+01
 0.2808807628913E+01
 0.1398367711477E+00
 0.1701524300926E+00
 0.2034145116571E+00
 0.2511205296031E+00
 0.3105842913767E+00
 0.3775633922761E+00
 0.4493050878904E+00
 0.5232993136271E+00
 0.5959822823108E+00
 0.6624565327781E+00
 0.7177155087589E+00
 0.7590978439882E+00
 0.7869063092715E+00
 0.8021863888887E+00
 0.8063018216857E+00
 0.8043606061925E+00
 0.8157805549499E+00
 0.9054690651894E+00
 0.1219194878985E+01
 0.1883075342654E+01
 0.2731179691639E+01
 0.2300714392651E+00
 0.2650805320807E+00
 0.2979261269396E+00
 0.3400013282461E+00
 0.3912482866796E+00
 0.4483461331045E+00
 0.5082317002133E+00
 0.5679020528041E+00
 0.6236638858100E+00
 0.6712014979361E+00
 0.7067754372418E+00
 0.7292235666393E+00
 0.7404714393035E+00
 0.7438476930426E+00
 0.7442902110202E+00
 0.7531079174797E+00
 0.8005720586841E+00
 0.9583295636699E+00
 0.1332868229776E+01
 0.1959992242679E+01
 0.2673192474862E+01
 0.3151175833405E+00
 0.3535741409192E+00
 0.3865512968379E+00
 0.4242914501373E+00
 0.4681985578882E+00
 0.5158349375902E+00
 0.5641572939220E+00
 0.6100118726076E+00
 0.6499134742449E+00
 0.6803741814952E+00
 0.6990051961006E+00
 0.7061206468596E+00
 0.7051926628881E+00
 0.7017016580651E+00
 0.7040812833000E+00
 0.7295360379614E+00
 0.8156960726367E+00
 0.1029083145316E+01
 0.1436257050993E+01
 0.2021835118964E+01
 0.2629932047577E+01
 0.3959361412662E+00
 0.4368202639084E+00
 0.4701117236983E+00
 0.5044540775328E+00
 0.5418736252633E+00
 0.5806313081065E+00
 0.6179073279996E+00
 0.6506780035143E+00
 0.6759161727372E+00
 0.6911060378401E+00
 0.6952229062928E+00
 0.6899989896201E+00
 0.6803624395474E+00
 0.6738194948432E+00
 0.6821482641766E+00
 0.7275911203765E+00
 0.8507052782486E+00
 0.1105889778663E+01
 0.1527052133313E+01
 0.2076356809561E+01
 0.2599034045419E+01
 0.4732685059442E+00
 0.5157482013725E+00
 0.5493382323571E+00
 0.5809444354221E+00
 0.6126486769436E+00
 0.6431975259256E+00
 0.6701022352611E+00
 0.6906756281416E+00
 0.7025208346509E+00
 0.7041633025350E+00
 0.6959029361027E+00
 0.6807992595999E+00
 0.6651275628838E+00
 0.6582821091169E+00
 0.6751007403174E+00
 0.7414714449356E+00
 0.8968231642738E+00
 0.1181180024747E+01
 0.1605574818556E+01
 0.2120489144278E+01
 0.2601787818989E+01
 0.5477542831513E+00
 0.5911974407729E+00
 0.6250255795116E+00
 0.6544020331742E+00
 0.6811013026289E+00
 0.7041587494399E+00
 0.7214572795757E+00
 0.7307806256233E+00
 0.7304687364558E+00
 0.7201061324110E+00
 0.7012485395648E+00
 0.6781811866993E+00
 0.6584213918803E+00
 0.6531099488567E+00
 0.6797215696688E+00
 0.7661782831945E+00
 0.9479551096033E+00
 0.1251672358594E+01
 0.1672638211166E+01
 0.2158004319071E+01
 0.2606762302748E+01
 0.6199251340203E+00
 0.6639399930700E+00
 0.6980011415152E+00
 0.7256011476399E+00
 0.7479783691576E+00
 0.7642913477548E+00
 0.7727912463878E+00
 0.7718067190644E+00
 0.7604684011687E+00
 0.7394037000776E+00
 0.7113439750330E+00
 0.6817040925513E+00
 0.6591516289975E+00
 0.6564228832921E+00
 0.6931095817300E+00
 0.7976781997350E+00
 0.1000265246428E+01
 0.1316121697967E+01
 0.1730359219160E+01
 0.2189744846628E+01
 0.2610961156983E+01
 0.6902396443224E+00
 0.7346003584627E+00
 0.7689379433456E+00
 0.7951705250550E+00
 0.8138650694557E+00
 0.8241743090040E+00
 0.8246913549134E+00
 0.8143199370394E+00
 0.7929946765158E+00
 0.7623429899461E+00
 0.7261811473085E+00
 0.6909576545215E+00
 0.6663952375118E+00
 0.6666357549023E+00
 0.7128027441079E+00
 0.8327608079433E+00
 0.1051017888542E+01
 0.1373860062963E+01
 0.1779810315328E+01
 0.2217501312379E+01
 0.2617529696999E+01
 0.7591041230345E+00
 0.8037331763146E+00
 0.8384557012975E+00
 0.8637148334049E+00
 0.8793313184728E+00
 0.8843563183103E+00
 0.8776883679635E+00
 0.8588054668465E+00
 0.8284288424113E+00
 0.7891233294062E+00
 0.7456928885757E+00
 0.7055238704811E+00
 0.6792902073569E+00
 0.6823128719600E+00
 0.7366847056771E+00
 0.8689623297626E+00
 0.1098464840206E+01
 0.1424692941080E+01
 0.1822140304262E+01
 0.2242257258572E+01
 0.2625695739740E+01
 0.8268844641451E+00
 0.8718368084336E+00
 0.9071248337301E+00
 0.9318071991214E+00
 0.9449216924186E+00
 0.9453505162774E+00
 0.9322595650332E+00
 0.9056802321510E+00
 0.8670806711325E+00
 0.8198859146435E+00
 0.7697857738712E+00
 0.7250073763432E+00
 0.6970601300247E+00
 0.7021973977101E+00
 0.7630113199452E+00
 0.9044655343353E+00
 0.1141509716666E+01
 0.1468704810108E+01
 0.1858228362716E+01
 0.2264294929049E+01
 0.2634705083483E+01
 0.8939144776377E+00
 0.9393639034264E+00
 0.9754712831293E+00
 0.9999858923830E+00
 0.1011149144230E+01
 0.1007631157286E+01
 0.9888317550788E+00
 0.9553035479322E+00
 0.9092063868957E+00
 0.8547371922639E+00
 0.7983656051780E+00
 0.7490593710768E+00
 0.7190367451919E+00
 0.7252370080292E+00
 0.7904101260620E+00
 0.9379741246875E+00
 0.1179487824462E+01
 0.1506079377669E+01
 0.1888655222237E+01
 0.2283701523619E+01
 0.2643965257079E+01
 0.9605021858313E+00
 0.1006729918024E+01
 0.1043981757879E+01
 0.1068753653692E+01
 0.1078491331176E+01
 0.1071631455241E+01
 0.1047783796099E+01
 0.1007985589245E+01
 0.9550227858749E+00
 0.8937670868408E+00
 0.8313573622205E+00
 0.7773973631625E+00
 0.7446801724553E+00
 0.7506017526672E+00
 0.8178583922977E+00
 0.9685996003542E+00
 0.1212010998675E+01
 0.1537000051499E+01
 0.1913802282312E+01
 0.2300520075847E+01
 0.2653084826114E+01
 0.1026935009434E+01
 0.1074320433239E+01
 0.1113109208919E+01
 0.1138578643484E+01
 0.1147388504488E+01
 0.1137741857007E+01
 0.1109448110395E+01
 0.1063993457881E+01
 0.1004717724076E+01
 0.9370627900141E+00
 0.8687207679213E+00
 0.8098215610754E+00
 0.7735958128460E+00
 0.7776931476891E+00
 0.8446522240531E+00
 0.9957708022957E+00
 0.1238863579615E+01
 0.1561613447183E+01
 0.1933920317092E+01
 0.2314801679162E+01
 0.2661876477878E+01
 0.1093484481075E+01
 0.1142497956546E+01
 0.1183278575249E+01
 0.1209896372021E+01
 0.1218242158210E+01
 0.1206308122628E+01
 0.1174110834884E+01
 0.1123554768778E+01
 0.1058457203894E+01
 0.9847186329661E+00
 0.9104620876261E+00
 0.8462280602461E+00
 0.8055472830178E+00
 0.8061467238465E+00
 0.8703766789096E+00
 0.1019168371044E+01
 0.1259939420124E+01
 0.1580016975888E+01
 0.1949166756029E+01
 0.2326622815172E+01
 0.2670350069809E+01
 0.1160410974985E+01
 0.1211608788663E+01
 0.1254892925282E+01
 0.1283112151926E+01
 0.1291413748199E+01
 0.1277628634109E+01
 0.1242010274689E+01
 0.1186858680507E+01
 0.1116389199705E+01
 0.1036842307332E+01
 0.9566423564656E+00
 0.8866186981076E+00
 0.8404654696883E+00
 0.8358313160171E+00
 0.8948829374496E+00
 0.1038683613427E+01
 0.1275207391809E+01
 0.1592254163212E+01
 0.1959621791970E+01
 0.2336087032608E+01
 0.2678699488099E+01
 0.1227968888920E+01
 0.1281990501285E+01
 0.1328340192146E+01
 0.1358603730161E+01
 0.1367222871874E+01
 0.1351950404342E+01
 0.1313333369901E+01
 0.1254054307965E+01
 0.1178644299565E+01
 0.1093557519648E+01
 0.1007381981608E+01
 0.9311074161094E+00
 0.8784542989852E+00
 0.8668479786008E+00
 0.9182757766397E+00
 0.1054399662522E+01
 0.1284697136248E+01
 0.1598312107786E+01
 0.1965290219123E+01
 0.2343316735473E+01
 0.2687285115713E+01
 0.1296412729078E+01
 0.1353980615041E+01
 0.1404000769175E+01
 0.1436723813550E+01
 0.1445944343933E+01
 0.1429463316050E+01
 0.1388209956907E+01
 0.1325246507235E+01
 0.1245333233873E+01
 0.1155003081120E+01
 0.1062861552985E+01
 0.9799229882997E+00
 0.9197938917653E+00
 0.8995304785918E+00
 0.9409125713878E+00
 0.1066593128465E+01
 0.1288501295780E+01
 0.1598119892896E+01
 0.1966092604235E+01
 0.2348436647186E+01
 0.2696613302921E+01
 0.1366004632018E+01
 0.1427927167248E+01
 0.1482256264795E+01
 0.1517802143389E+01
 0.1527803536428E+01
 0.1510292107371E+01
 0.1466704626530E+01
 0.1400489029760E+01
 0.1316541327383E+01
 0.1221328353212E+01
 0.1123318587324E+01
 0.1033407861824E+01
 0.9649414555654E+00
 0.9344482044560E+00
 0.9634137242116E+00
 0.1075755526198E+01
 0.1286794071004E+01
 0.1591548873942E+01
 0.1961847435870E+01
 0.2351549045975E+01
 0.2707313909212E+01
 0.1437024027177E+01
 0.1504202057558E+01
 0.1563499751715E+01
 0.1602146645132E+01
 0.1612969251642E+01
 0.1594485648669E+01
 0.1548806079696E+01
 0.1479775133676E+01
 0.1392319971246E+01
 0.1292685003393E+01
 0.1189039916468E+01
 0.1092012701863E+01
 0.1014529766838E+01
 0.9724113276586E+00
 0.9866835440623E+00
 0.1082634936365E+01
 0.1279869173857E+01
 0.1578417464156E+01
 0.1952244919501E+01
 0.2352700167438E+01
 0.2720115999839E+01
 0.1509780430356E+01
 0.1583218351889E+01
 0.1648147802640E+01
 0.1690042855169E+01
 0.1701543155516E+01
 0.1682003032016E+01
 0.1634413948996E+01
 0.1563025777797E+01
 0.1472675212092E+01
 0.1369215015684E+01
 0.1260349367360E+01
 0.1156285936949E+01
 0.1069362379429E+01
 0.1014477043460E+01
 0.1011939694948E+01
 0.1088299047120E+01
 0.1268203602289E+01
 0.1558505193072E+01
 0.1936812631721E+01
 0.2351836777396E+01
 0.2735818550589E+01
 0.1584630843096E+01
 0.1665453181257E+01
 0.1736654466598E+01
 0.1781750286872E+01
 0.1793544491125E+01
 0.1772696062325E+01
 0.1723323235603E+01
 0.1650075632901E+01
 0.1557553614863E+01
 0.1451034982008E+01
 0.1337590440564E+01
 0.1226857397507E+01
 0.1130403946623E+01
 0.1061954785008E+01
 0.1040748178963E+01
 0.1094220692863E+01
 0.1252557657157E+01
 0.1531584481560E+01
 0.1914872832398E+01
 0.2348752913398E+01
 0.2755245287147E+01
 0.1662004044632E+01
 0.1751478548202E+01
 0.1829526969507E+01
 0.1877493490857E+01
 0.1888888409274E+01
 0.1866287969065E+01
 0.1815206842618E+01
 0.1740657310956E+01
 0.1646825641128E+01
 0.1538216854635E+01
 0.1421103905520E+01
 0.1304415138235E+01
 0.1198763342350E+01
 0.1116407133151E+01
 0.1075059625495E+01
 0.1102384253449E+01
 0.1234128883913E+01
 0.1497481363451E+01
 0.1885494625529E+01
 0.2343028264041E+01
 0.2779142186159E+01
 0.1742435463554E+01
 0.1842003263110E+01
 0.1927341998396E+01
 0.1977443938482E+01
 0.1987355689709E+01
 0.1962348517435E+01
 0.1909597019532E+01
 0.1834384182505E+01
 0.1740266595884E+01
 0.1630765261457E+01
 0.1511200358213E+01
 0.1389674568346E+01
 0.1275666640685E+01
 0.1179641116737E+01
 0.1117241536104E+01
 0.1115405214748E+01
 0.1214783296918E+01
 0.1456198982689E+01
 0.1847405285390E+01
 0.2334057352820E+01
 0.2807778690005E+01
 0.1826618905574E+01
 0.1937930294988E+01
 0.2030759812199E+01
 0.2081686238615E+01
 0.2088551390315E+01
 0.2060266774792E+01
 0.2005867359253E+01
 0.1930732363241E+01
 0.1837535185158E+01
 0.1728591707816E+01
 0.1608128385911E+01
 0.1483339988119E+01
 0.1362416931097E+01
 0.1253683646215E+01
 0.1170095140840E+01
 0.1136660958541E+01
 0.1197345547934E+01
 0.1408275731882E+01
 0.1798610363121E+01
 0.2321611312037E+01
 0.2839177553183E+01
 0.1915499357170E+01
 0.2040516219487E+01
 0.2140666535445E+01
 0.2190346415784E+01
 0.2192077592185E+01
 0.2159489190181E+01
 0.2103526243300E+01
 0.2029384882208E+01
 0.1938575993646E+01
 0.1831982458355E+01
 0.1712606123066E+01
 0.1586689081799E+01
 0.1461013158502E+01
 0.1341408681564E+01
 0.1237457121693E+01
 0.1170808758262E+01
 0.1186129940846E+01
 0.1354759611232E+01
 0.1736796198723E+01
 0.2301541938839E+01
 0.2887643661261E+01
 0.2010358715271E+01
 0.2151332424724E+01
 0.2257884087419E+01
 0.2303117859830E+01
 0.2297006297593E+01
 0.2258962579547E+01
 0.2201585208462E+01
 0.2129488963749E+01
 0.2042754006736E+01
 0.1940612042677E+01
 0.1824719859509E+01
 0.1700369972046E+01
 0.1572880221829E+01
 0.1445288996981E+01
 0.1323156791208E+01
 0.1223266365587E+01
 0.1187357357004E+01
 0.1298839538359E+01
 0.1658587758299E+01
 0.2271546062019E+01
 0.2952093334627E+01
 0.2113039496109E+01
 0.2272441795282E+01
 0.2383104120544E+01
 0.2419095809419E+01
 0.2401804218610E+01
 0.2357133965458E+01
 0.2298557232544E+01
 0.2229617741098E+01
 0.2148781330659E+01
 0.2053447400579E+01
 0.1943810594308E+01
 0.1824262721364E+01
 0.1698691396565E+01
 0.1567181425885E+01
 0.1430847080206E+01
 0.1300280979473E+01
 0.1210069695054E+01
 0.1247974160700E+01
 0.1562362995201E+01
 0.2226076747441E+01
 0.3029926522718E+01
 0.2226308304350E+01
 0.2406728471913E+01
 0.2516897942906E+01
 0.2536838179526E+01
 0.2504697195382E+01
 0.2452508987401E+01
 0.2393097052744E+01
 0.2328475887710E+01
 0.2255511161599E+01
 0.2169657268444E+01
 0.2069497730652E+01
 0.1958566949800E+01
 0.1839415345960E+01
 0.1709171679171E+01
 0.1564456491291E+01
 0.1408913422000E+01
 0.1265790732983E+01
 0.1215025700747E+01
 0.1448509876318E+01
 0.2154591053523E+01
 0.3125736278599E+01
 0.2354493014911E+01
 0.2558087076060E+01
 0.2659083683254E+01
 0.2653783303315E+01
 0.2603446288658E+01
 0.2543485653929E+01
 0.2483741543882E+01
 0.2424527378901E+01
 0.2361462637426E+01
 0.2288086413132E+01
 0.2201152119377E+01
 0.2103271118195E+01
 0.1995738953305E+01
 0.1872916464725E+01
 0.1727433447667E+01
 0.1556359507129E+01
 0.1368598199654E+01
 0.1221405390156E+01
 0.1325268637952E+01
 0.2041894817644E+01
 0.3246241258307E+01
 0.2504742104852E+01
 0.2731599442263E+01
 0.2807555788661E+01
 0.2765728654833E+01
 0.2695511058847E+01
 0.2628508979813E+01
 0.2568979400053E+01
 0.2515987293673E+01
 0.2464714739960E+01
 0.2407137827392E+01
 0.2337866211382E+01
 0.2258192685492E+01
 0.2168047856762E+01
 0.2059439777264E+01
 0.1922230003586E+01
 0.1748817827668E+01
 0.1534076976229E+01
 0.1298655951958E+01
 0.1221425653178E+01
 0.1868067333844E+01
 0.3400523809842E+01
 0.2689699291941E+01
 0.2933097358606E+01
 0.2955732241111E+01
 0.2866528764205E+01
 0.2778555979101E+01
 0.2706226047918E+01
 0.2647364224805E+01
 0.2600854172257E+01
 0.2562746526592E+01
 0.2524556331950E+01
 0.2478419516546E+01
 0.2423114682730E+01
 0.2356499159091E+01
 0.2268925216449E+01
 0.2149801273701E+01
 0.1989994318543E+01
 0.1776114111397E+01
 0.1487608100045E+01
 0.1206964414472E+01
 0.1618988033757E+01
 0.3598981420253E+01
 0.2933853779244E+01
 0.3165710571735E+01
 0.3087393742231E+01
 0.2949373273119E+01
 0.2851229310677E+01
 0.2775488745634E+01
 0.2717740448833E+01
 0.2677031744841E+01
 0.2652224176327E+01
 0.2636989362964E+01
 0.2621209943476E+01
 0.2598123517095E+01
 0.2561222958229E+01
 0.2500564598689E+01
 0.2408979801757E+01
 0.2280248965224E+01
 0.2100479708128E+01
 0.1831633667616E+01
 0.1405356508936E+01
 0.1350090972603E+01
 0.3849289442268E+01
 0.3291292484846E+01
 0.3411341888712E+01
 0.3170063460072E+01
 0.3013289526524E+01
 0.2912363619980E+01
 0.2835644430137E+01
 0.2779464106271E+01
 0.2742687080973E+01
 0.2728832193737E+01
 0.2739027523564E+01
 0.2764036662254E+01
 0.2784444346514E+01
 0.2782652658432E+01
 0.2752449305647E+01
 0.2695895550616E+01
 0.2615788512575E+01
 0.2502070413842E+01
 0.2345088249691E+01
 0.1989924788184E+01
 0.1426700477408E+01
 0.4145985620478E+01
 0.3910223428688E+01
 0.3519184096155E+01
 0.3193490422366E+01
 0.3061875049313E+01
 0.2960281721076E+01
 0.2887196891973E+01
 0.2832320274393E+01
 0.2797027390910E+01
 0.2787735842768E+01
 0.2820959467877E+01
 0.2903305066664E+01
 0.2986603650942E+01
 0.3022110453204E+01
 0.3020507109680E+01
 0.3005519897769E+01
 0.2984246221769E+01
 0.2973163904356E+01
 0.2972736482135E+01
 0.3093724641066E+01
 0.2664441020887E+01
 0.4967659901557E+01
 0.4262007983738E+00
 0.7246497334972E+00
 0.9504475734691E+00
 0.1127196196138E+01
 0.1269718553646E+01
 0.1387716368819E+01
 0.1491769153810E+01
 0.1593376091442E+01
 0.1696019437037E+01
 0.1790366436392E+01
 0.4093867653606E+00
 0.7310832094642E+00
 0.9739065419313E+00
 0.1163400841362E+01
 0.1316522239871E+01
 0.1445081211710E+01
 0.1561747132342E+01
 0.1678433963957E+01
 0.1795049188753E+01
 0.1895027538748E+01
 0.3949056000972E+00
 0.7365627701246E+00
 0.9930924366902E+00
 0.1192614141905E+01
 0.1354095861885E+01
 0.1491377531629E+01
 0.1617714916292E+01
 0.1743396737479E+01
 0.1866643863220E+01
 0.1972514707794E+01
 0.3826702204713E+00
 0.7402039312658E+00
 0.1007210057157E+01
 0.1214037135464E+01
 0.1381474275766E+01
 0.1524628184326E+01
 0.1656484469904E+01
 0.1785737090747E+01
 0.1910231204664E+01
 0.2016269903262E+01
 0.3725823890503E+00
 0.7414922923830E+00
 0.1015621649390E+01
 0.1227023133811E+01
 0.1397729640118E+01
 0.1543447355437E+01
 0.1676545387470E+01
 0.1804476270537E+01
 0.1924924422640E+01
 0.2025325646063E+01
 0.3645905563180E+00
 0.7400657017384E+00
 0.1017916291870E+01
 0.1231123144948E+01
 0.1402302045891E+01
 0.1547211875645E+01
 0.1677461258424E+01
 0.1799478987329E+01
 0.1910961692195E+01
 0.2000447131604E+01
 0.3586715462345E+00
 0.7357292504217E+00
 0.1013903876869E+01
 0.1226185991815E+01
 0.1395094144790E+01
 0.1535990160810E+01
 0.1659617311950E+01
 0.1771541442158E+01
 0.1869567925411E+01
 0.1943349089668E+01
 0.3548197520428E+00
 0.7284525268658E+00
 0.1003636156417E+01
 0.1212388459348E+01
 0.1376469706948E+01
 0.1510456776815E+01
 0.1624139510395E+01
 0.1722317710803E+01
 0.1802934257008E+01
 0.1856762098882E+01
 0.3530388212980E+00
 0.7183672687810E+00
 0.9874079736976E+00
 0.1190227449893E+01
 0.1347210071382E+01
 0.1471814893937E+01
 0.1572798625269E+01
 0.1654240741180E+01
 0.1714195677412E+01
 0.1744510299881E+01
 0.3533359553835E+00
 0.7057574538238E+00
 0.9657413666082E+00
 0.1160486281709E+01
 0.1308451221675E+01
 0.1421701942047E+01
 0.1507898680837E+01
 0.1570416018301E+01
 0.1607342626127E+01
 0.1611500760525E+01
 0.3557175680894E+00
 0.6910423194481E+00
 0.9393560942803E+00
 0.1124185384162E+01
 0.1261605634436E+01
 0.1362079068681E+01
 0.1432139559501E+01
 0.1474473910480E+01
 0.1487102010715E+01
 0.1463729504306E+01
 0.3601860396901E+00
 0.6747539134426E+00
 0.9091312434556E+00
 0.1082523166670E+01
 0.1208274692590E+01
 0.1295107598441E+01
 0.1348450895589E+01
 0.1370369641497E+01
 0.1358751103621E+01
 0.1308177024530E+01
 0.3667378811264E+00
 0.6575116080933E+00
 0.8760619952342E+00
 0.1036812090449E+01
 0.1150157097560E+01
 0.1223019919070E+01
 0.1259807553637E+01
 0.1262117762776E+01
 0.1227795853357E+01
 0.1152530742583E+01
 0.3753638215277E+00
 0.6399961828194E+00
 0.8412155908330E+00
 0.9884145305300E+00
 0.1088958124385E+01
 0.1147993203679E+01
 0.1169046247897E+01
 0.1153484496660E+01
 0.1099383578466E+01
 0.1004074869655E+01
 0.3860511744092E+00
 0.6229257681538E+00
 0.8056908076135E+00
 0.9386831847674E+00
 0.1026303827798E+01
 0.1072030694741E+01
 0.1078701921339E+01
 0.1047714643229E+01
 0.9776338059120E+00
 0.8680119586149E+00
 0.3987883468338E+00
 0.6070354793889E+00
 0.7705847592912E+00
 0.8889135144876E+00
 0.9636641896887E+00
 0.9968509838275E+00
 0.9908697152629E+00
 0.9473684569705E+00
 0.8653776110187E+00
 0.7469199662089E+00
 0.4135704119466E+00
 0.5930609319397E+00
 0.7369712241493E+00
 0.8403139184199E+00
 0.9023033902147E+00
 0.9237758830531E+00
 0.9070794319613E+00
 0.8542724190112E+00
 0.7643570006779E+00
 0.6414056529353E+00
 0.4303972874235E+00
 0.5817362954677E+00
 0.7058926970932E+00
 0.7939936935196E+00
 0.8432712004145E+00
 0.8536861499312E+00
 0.8280583328568E+00
 0.7695234553649E+00
 0.6756697558411E+00
 0.5511299168709E+00
 0.4492618333466E+00
 0.5737540626984E+00
 0.6784559995959E+00
 0.7509328420665E+00
 0.7873697333606E+00
 0.7871846522623E+00
 0.7536675741482E+00
 0.6925585134709E+00
 0.6007315939771E+00
 0.4762698767995E+00
 0.4697527138363E+00
 0.5703944154536E+00
 0.6558327116682E+00
 0.7119649417300E+00
 0.7350987911159E+00
 0.7245416109954E+00
 0.6839899403433E+00
 0.6204479469761E+00
 0.5362519504488E+00
 0.4244079652933E+00
 0.6253029495577E+00
 0.2043889286752E+00
 0.2385061787515E-01
 0.2889632148411E-01
 0.7091841860225E-01
 0.1005041108657E+00
 0.9922848055456E-01
 0.5809504256453E-01
 0.1718306678604E-01
 0.8938640546776E-01
 0.6805245938621E+00
 0.4763581695229E+00
 0.2332670331431E+00
 0.1304525819371E+00
 0.6886094846464E-01
 0.2221463798028E-01
 0.2171242067797E-02
 0.1583860977250E-01
 0.5285231445291E-01
 0.1809092039524E+00
 0.6517679231268E+00
 0.5849652972323E+00
 0.4252078552263E+00
 0.3100222134727E+00
 0.2349861599329E+00
 0.1791638449826E+00
 0.1459205116256E+00
 0.1484486985116E+00
 0.1979022135713E+00
 0.3627413154783E+00
 0.6173385033580E+00
 0.6383750669794E+00
 0.5597309397756E+00
 0.4788852097593E+00
 0.4128663953347E+00
 0.3605857178085E+00
 0.3270514589708E+00
 0.3313045335153E+00
 0.4008453013519E+00
 0.5894212424266E+00
 0.5845947327831E+00
 0.6697729141397E+00
 0.6603478653258E+00
 0.6254140216686E+00
 0.5872348389176E+00
 0.5530652524609E+00
 0.5316130701355E+00
 0.5473458386007E+00
 0.6352657680404E+00
 0.8292450174723E+00
 0.5549406560446E+00
 0.6911774995419E+00
 0.7398048171048E+00
 0.7520631668551E+00
 0.7496845063339E+00
 0.7433817867546E+00
 0.7432550263336E+00
 0.7759929036880E+00
 0.8771285648087E+00
 0.1061033162866E+01
 0.5278245632241E+00
 0.7069667035475E+00
 0.8044879601653E+00
 0.8608813153317E+00
 0.8959169402761E+00
 0.9211471472865E+00
 0.9465784797362E+00
 0.9978925485987E+00
 0.1106612019537E+01
 0.1271268563725E+01
 0.5023006095335E+00
 0.7182182529926E+00
 0.8568795784941E+00
 0.9525564607687E+00
 0.1022745284784E+01
 0.1078672749513E+01
 0.1129230895156E+01
 0.1196860662715E+01
 0.1308220998660E+01
 0.1451882900026E+01
 0.4772938482272E+00
 0.7243564275132E+00
 0.8974676246330E+00
 0.1026829382085E+01
 0.1127589686562E+01
 0.1210455031231E+01
 0.1283124850808E+01
 0.1362056871735E+01
 0.1470019854309E+01
 0.1598455723754E+01
 0.4510689761899E+00
 0.7242755883621E+00
 0.9263462186651E+00
 0.1083297980252E+01
 0.1208622698467E+01
 0.1312474826968E+01
 0.1403103211949E+01
 0.1492123348400E+01
 0.1589593580792E+01
 0.1705333459557E+01
 0.4932282801912E+00
 0.5737220017038E+00
 0.6352648384523E+00
 0.6683203588681E+00
 0.6706412337022E+00
 0.6438820304597E+00
 0.5927995564768E+00
 0.5246356000989E+00
 0.4484476278316E+00
 0.3741895035380E+00
 0.5215456490588E+00
 0.5809629595544E+00
 0.6152299815354E+00
 0.6191803175207E+00
 0.5955778474713E+00
 0.5496468261504E+00
 0.4875806836836E+00
 0.4169594440450E+00
 0.3507751707201E+00
 0.2776120648503E+00
 0.5535307785343E+00
 0.5931678677591E+00
 0.5989180802618E+00
 0.5730294643850E+00
 0.5242071079102E+00
 0.4607201800318E+00
 0.3898578155855E+00
 0.3195132832648E+00
 0.2571145577792E+00
 0.1855788568865E+00
 0.5904848402027E+00
 0.6108467745702E+00
 0.5844218821982E+00
 0.5266310929730E+00
 0.4530694558281E+00
 0.3745054527346E+00
 0.2984535640194E+00
 0.2307488594715E+00
 0.1736078403622E+00
 0.1124011105607E+00
 0.6339022312856E+00
 0.6328699730268E+00
 0.5675067215327E+00
 0.4747651196514E+00
 0.3777255821023E+00
 0.2882563184795E+00
 0.2123895109758E+00
 0.1529985254911E+00
 0.1069258904587E+00
 0.6123732056049E-01
 0.6852441086228E+00
 0.6557194608100E+00
 0.5403540141807E+00
 0.4097194131605E+00
 0.2930482484552E+00
 0.1996524262265E+00
 0.1316059423958E+00
 0.8774271144307E-01
 0.5875511655991E-01
 0.3189306247236E-01
 0.7455207479811E+00
 0.6711094063701E+00
 0.4892518303607E+00
 0.3213058577629E+00
 0.1946366651509E+00
 0.1085067038480E+00
 0.5711831281223E-01
 0.3523938040606E-01
 0.2803254739379E-01
 0.2226217319231E-01
 0.8130835445700E+00
 0.6597679326024E+00
 0.3911998376620E+00
 0.1987326121802E+00
 0.8421666112863E-01
 0.1903885157820E-01
 0.8551966762648E-02
 0.4656817510696E-02
 0.1240291187581E-01
 0.2952255627230E-01
 0.8780108414380E+00
 0.5719685616127E+00
 0.2075557841539E+00
 0.5159089821836E-01
 0.2510754837950E-01
 0.6096279394060E-01
 0.6177537701722E-01
 0.3238379581483E-01
 0.9236338397530E-02
 0.4984415245675E-01
 0.8304778490621E+00
 0.2506147593784E+00
 0.1258647599252E-01
 0.8176459180137E-01
 0.1178552384009E+00
 0.1240544228388E+00
 0.9997424680110E-01
 0.4809793517750E-01
 0.1427602449984E-01
 0.7864766923456E-01
 0.1832177099560E+01
 0.1769182075788E+01
 0.1671708754072E+01
 0.1544950282947E+01
 0.1387319008304E+01
 0.1199172473485E+01
 0.9831314579840E+00
 0.7467632892475E+00
 0.5080506148202E+00
 0.3210676649154E+00
 0.1939991833981E+01
 0.1927107709447E+01
 0.1872745439126E+01
 0.1785191611541E+01
 0.1665592358926E+01
 0.1512452757623E+01
 0.1324841921327E+01
 0.1103916424376E+01
 0.8554751901314E+00
 0.5867065853928E+00
 0.2018270758476E+01
 0.2026984739563E+01
 0.2006844477531E+01
 0.1952982624416E+01
 0.1863985992764E+01
 0.1736060364594E+01
 0.1563481719745E+01
 0.1338426334155E+01
 0.1047600921272E+01
 0.6614542179720E+00
 0.2063347314002E+01
 0.2083197227475E+01
 0.2080327389365E+01
 0.2046683377506E+01
 0.1975681973658E+01
 0.1859707461118E+01
 0.1688288116578E+01
 0.1446515090639E+01
 0.1111701735216E+01
 0.6488532682641E+00
 0.2071693961155E+01
 0.2095954456127E+01
 0.2100276314642E+01
 0.2075473354934E+01
 0.2012213696908E+01
 0.1899572610441E+01
 0.1723735166859E+01
 0.1466794194036E+01
 0.1105996797835E+01
 0.6173946260563E+00
 0.2042411783340E+01
 0.2065341629603E+01
 0.2069893342793E+01
 0.2046890925685E+01
 0.1985898658206E+01
 0.1874460701998E+01
 0.1697346539041E+01
 0.1436374268844E+01
 0.1071785596173E+01
 0.5900943998321E+00
 0.1976379892231E+01
 0.1992621149964E+01
 0.1991922728627E+01
 0.1965884992239E+01
 0.1904445396367E+01
 0.1795335759087E+01
 0.1623644762596E+01
 0.1372071203123E+01
 0.1022977526630E+01
 0.5666955749716E+00
 0.1875999240614E+01
 0.1880576697860E+01
 0.1869750359070E+01
 0.1836602099960E+01
 0.1772612560305E+01
 0.1667197925172E+01
 0.1507198324274E+01
 0.1276733036531E+01
 0.9584917649708E+00
 0.5409004712692E+00
 0.1745151341003E+01
 0.1733394823608E+01
 0.1707735955767E+01
 0.1663197391650E+01
 0.1593661933847E+01
 0.1491458503048E+01
 0.1346658302767E+01
 0.1146036860446E+01
 0.8722606015595E+00
 0.5081984770345E+00
 0.1589427216233E+01
 0.1557215206949E+01
 0.1512226790031E+01
 0.1451525027769E+01
 0.1371806191194E+01
 0.1269142024650E+01
 0.1138300287449E+01
 0.9712671787112E+00
 0.7539617220008E+00
 0.4634736136749E+00
 0.1416286006492E+01
 0.1360672113091E+01
 0.1292705893280E+01
 0.1211175305262E+01
 0.1115430908402E+01
 0.1005415219423E+01
 0.8814393093417E+00
 0.7433283907441E+00
 0.5876673635787E+00
 0.3971553273704E+00
 0.1234964615693E+01
 0.1155185107778E+01
 0.1062823750520E+01
 0.9577926896819E+00
 0.8414599960422E+00
 0.7169511830292E+00
 0.5896205752429E+00
 0.4677725136844E+00
 0.3635935565917E+00
 0.2915776805852E+00
 0.1056271810656E+01
 0.9551378853347E+00
 0.8413474412667E+00
 0.7155666235898E+00
 0.5806586499887E+00
 0.4420654373458E+00
 0.3088129713572E+00
 0.1956116310599E+00
 0.1269068503654E+00
 0.1524414775386E+00
 0.8908269032227E+00
 0.7754338749241E+00
 0.6487593680665E+00
 0.5126081395234E+00
 0.3715906205310E+00
 0.2333860078716E+00
 0.1101423470765E+00
 0.2679090300191E-01
 0.2350565960024E-01
 0.6451409914294E-01
 0.7458214784146E+00
 0.6256635463886E+00
 0.4972920203830E+00
 0.3643175516649E+00
 0.2335430184527E+00
 0.1149022510481E+00
 0.2621056931542E-01
 0.3889756773254E-01
 0.2525701642403E-01
 0.7882385813872E-01
 0.6234684652359E+00
 0.5068198469406E+00
 0.3851907883853E+00
 0.2641246875500E+00
 0.1521909767235E+00
 0.6019151123463E-01
 0.1438272823545E-01
 0.2525535131100E-01
 0.1237732502584E-01
 0.1075918511178E+00
 0.5230594886638E+00
 0.4152042264103E+00
 0.3042181997489E+00
 0.1979906989511E+00
 0.1062033864263E+00
 0.3861597337076E-01
 0.8933439045502E-02
 0.4375398799507E-02
 0.4561370903884E-01
 0.1259654822288E+00
 0.4425013997458E+00
 0.3446050225746E+00
 0.2440007426644E+00
 0.1522585713485E+00
 0.7905754322555E-01
 0.3129318151856E-01
 0.1281799672923E-01
 0.2511735710483E-01
 0.6878678498814E-01
 0.1367632916281E+00
 0.3784572382751E+00
 0.2865736022133E+00
 0.1957792455596E+00
 0.1198144802362E+00
 0.6456141286833E-01
 0.3296923667835E-01
 0.2600030878323E-01
 0.4346775191015E-01
 0.8254908822504E-01
 0.1383763592418E+00
 0.3207532041226E+00
 0.2299745630988E+00
 0.1584887486989E+00
 0.1037136345699E+00
 0.6593578543538E-01
 0.4591551479915E-01
 0.4360685954264E-01
 0.5778721552426E-01
 0.8590056581772E-01
 0.1265896717314E+00
</DataArray>
<DataArray type="Float64" Name="OI" NumberOfComponents="1" ComponentName0="OI" format="ascii">
 0.6858505506655E+00
 0.5984477126456E+00
 0.4792674178543E+00
 0.3753411068347E+00
 0.2628921795488E+00
 0.1427651021097E+00
 0.1168876100873E-01
 0.1336128698380E+00
 0.2986943068862E+00
 0.4935472700248E+00
 0.7299771338531E+00
 0.1001263163911E+01
 0.1281737909135E+01
 0.1552671717375E+01
 0.1802764882425E+01
 0.2017422618889E+01
 0.2193667597836E+01
 0.2323515904027E+01
 0.2483262880658E+01
 0.2177533227079E+01
 0.3849383717808E+01
 0.4722834350101E+00
 0.4579868634129E+00
 0.3605463569079E+00
 0.2610080779590E+00
 0.1565689883103E+00
 0.4310242065394E-01
 0.8105894998646E-01
 0.2189458960215E+00
 0.3748635465006E+00
 0.5530821491017E+00
 0.7532083761159E+00
 0.9668393193676E+00
 0.1180674867950E+01
 0.1380929764810E+01
 0.1554339376845E+01
 0.1689366086336E+01
 0.1768991771580E+01
 0.1779476724608E+01
 0.1605387834510E+01
 0.1247275991997E+01
 0.3370332166129E+01
 0.3120993758479E+00
 0.3075705623376E+00
 0.2406731667084E+00
 0.1507827250520E+00
 0.5438648571919E-01
 0.5119952708676E-01
 0.1668864571140E+00
 0.2949291464410E+00
 0.4373673555341E+00
 0.5937772889942E+00
 0.7589814119794E+00
 0.9250957594014E+00
 0.1084024857088E+01
 0.1225875680322E+01
 0.1339293348687E+01
 0.1412076124684E+01
 0.1427917883430E+01
 0.1355058962412E+01
 0.1143416988574E+01
 0.1212284128682E+01
 0.3204302517191E+01
 0.1789319670817E+00
 0.1696067898147E+00
 0.1209219231443E+00
 0.4440275034123E-01
 0.4372305873088E-01
 0.1401012994459E+00
 0.2460471587457E+00
 0.3621762466740E+00
 0.4883213726751E+00
 0.6212327457184E+00
 0.7541862040358E+00
 0.8803610245145E+00
 0.9945071365425E+00
 0.1089965928967E+01
 0.1157906630975E+01
 0.1188355802157E+01
 0.1168178307581E+01
 0.1080279298105E+01
 0.9895261820075E+00
 0.1427971937474E+01
 0.3044279269936E+01
 0.6244154728376E-01
 0.4540365804479E-01
 0.6590307593155E-02
 0.5895865891593E-01
 0.1369450137454E+00
 0.2239115349431E+00
 0.3190341588422E+00
 0.4217672571766E+00
 0.5302194508760E+00
 0.6397453141254E+00
 0.7435731490667E+00
 0.8361586060383E+00
 0.9143193354509E+00
 0.9741554733499E+00
 0.1009969308564E+01
 0.1015767575364E+01
 0.9864607476147E+00
 0.9369043443191E+00
 0.1008292668636E+01
 0.1630120365088E+01
 0.2911705350421E+01
 0.4323487264517E-01
 0.6736857117207E-01
 0.1022948693226E+00
 0.1573957156478E+00
 0.2258823105295E+00
 0.3029220080501E+00
 0.3865225978781E+00
 0.4750205463888E+00
 0.5654175525006E+00
 0.6526308147194E+00
 0.7305805060728E+00
 0.7951274724532E+00
 0.8448846919757E+00
 0.8784885204863E+00
 0.8937204840919E+00
 0.8897352130780E+00
 0.8733629834284E+00
 0.8894890476350E+00
 0.1103212805936E+01
 0.1778306055387E+01
 0.2808807628913E+01
 0.1398367711477E+00
 0.1701524300926E+00
 0.2034145116571E+00
 0.2511205296031E+00
 0.3105842913767E+00
 0.3775633922761E+00
 0.4493050878904E+00
 0.5232993136271E+00
 0.5959822823108E+00
 0.6624565327781E+00
 0.7177155087589E+00
 0.7590978439882E+00
 0.7869063092715E+00
 0.8021863888887E+00
 0.8063018216857E+00
 0.8043606061925E+00
 0.8157805549499E+00
 0.9054690651894E+00
 0.1219194878985E+01
 0.1883075342654E+01
 0.2731179691639E+01
 0.2300714392651E+00
 0.2650805320807E+00
 0.2979261269396E+00
 0.3400013282461E+00
 0.3912482866796E+00
 0.4483461331045E+00
 0.5082317002133E+00
 0.5679020528041E+00
 0.6236638858100E+00
 0.6712014979361E+00
 0.7067754372418E+00
 0.7292235666393E+00
 0.7404714393035E+00
 0.7438476930426E+00
 0.7442902110202E+00
 0.7531079174797E+00
 0.8005720586841E+00
 0.9583295636699E+00
 0.1332868229776E+01
 0.1959992242679E+01
 0.2673192474862E+01
 0.3151175833405E+00
 0.3535741409192E+00
 0.3865512968379E+00
 0.4242914501373E+00
 0.4681985578882E+00
 0.5158349375902E+00
 0.5641572939220E+00
 0.6100118726076E+00
 0.6499134742449E+00
 0.6803741814952E+00
 0.6990051961006E+00
 0.7061206468596E+00
 0.7051926628881E+00
 0.7017016580651E+00
 0.7040812833000E+00
 0.7295360379614E+00
 0.8156960726367E+00
 0.1029083145316E+01
 0.1436257050993E+01
 0.2021835118964E+01
 0.2629932047577E+01
 0.3959361412662E+00
 0.4368202639084E+00
 0.4701117236983E+00
 0.5044540775328E+00
 0.5418736252633E+00
 0.5806313081065E+00
 0.6179073279996E+00
 0.6506780035143E+00
 0.6759161727372E+00
 0.6911060378401E+00
 0.6952229062928E+00
 0.6899989896201E+00
 0.6803624395474E+00
 0.6738194948432E+00
 0.6821482641766E+00
 0.7275911203765E+00
 0.8507052782486E+00
 0.1105889778663E+01
 0.1527052133313E+01
 0.2076356809561E+01
 0.2599034045419E+01
 0.4732685059442E+00
 0.5157482013725E+00
 0.5493382323571E+00
 0.5809444354221E+00
 0.6126486769436E+00
 0.6431975259256E+00
 0.6701022352611E+00
 0.6906756281416E+00
 0.7025208346509E+00
 0.7041633025350E+00
 0.6959029361027E+00
 0.6807992595999E+00
 0.6651275628838E+00
 0.6582821091169E+00
 0.6751007403174E+00
 0.7414714449356E+00
 0.8968231642738E+00
 0.1181180024747E+01
 0.1605574818556E+01
 0.2120489144278E+01
 0.2601787818989E+01
 0.5477542831513E+00
 0.5911974407729E+00
 0.6250255795116E+00
 0.6544020331742E+00
 0.6811013026289E+00
 0.7041587494399E+00
 0.7214572795757E+00
 0.7307806256233E+00
 0.7304687364558E+00
 0.7201061324110E+00
 0.7012485395648E+00
 0.6781811866993E+00
 0.6584213918803E+00
 0.6531099488567E+00
 0.6797215696688E+00
 0.7661782831945E+00
 0.9479551096033E+00
 0.1251672358594E+01
 0.1672638211166E+01
 0.2158004319071E+01
 0.2606762302748E+01
 0.6199251340203E+00
 0.6639399930700E+00
 0.6980011415152E+00
 0.7256011476399E+00
 0.7479783691576E+00
 0.7642913477548E+00
 0.7727912463878E+00
 0.7718067190644E+00
 0.7604684011687E+00
 0.7394037000776E+00
 0.7113439750330E+00
 0.6817040925513E+00
 0.6591516289975E+00
 0.6564228832921E+00
 0.6931095817300E+00
 0.7976781997350E+00
 0.1000265246428E+01
 0.1316121697967E+01
 0.1730359219160E+01
 0.2189744846628E+01
 0.2610961156983E+01
 0.6902396443224E+00
 0.7346003584627E+00
 0.7689379433456E+00
 0.7951705250550E+00
 0.8138650694557E+00
 0.8241743090040E+00
 0.8246913549134E+00
 0.8143199370394E+00
 0.7929946765158E+00
 0.7623429899461E+00
 0.7261811473085E+00
 0.6909576545215E+00
 0.6663952375118E+00
 0.6666357549023E+00
 0.7128027441079E+00
 0.8327608079433E+00
 0.1051017888542E+01
 0.1373860062963E+01
 0.1779810315328E+01
 0.2217501312379E+01
 0.2617529696999E+01
 0.7591041230345E+00
 0.8037331763146E+00
 0.8384557012975E+00
 0.8637148334049E+00
 0.8793313184728E+00
 0.8843563183103E+00
 0.8776883679635E+00
 0.8588054668465E+00
 0.8284288424113E+00
 0.7891233294062E+00
 0.7456928885757E+00
 0.7055238704811E+00
 0.6792902073569E+00
 0.6823128719600E+00
 0.7366847056771E+00
 0.8689623297626E+00
 0.1098464840206E+01
 0.1424692941080E+01
 0.1822140304262E+01
 0.2242257258572E+01
 0.2625695739740E+01
 0.8268844641451E+00
 0.8718368084336E+00
 0.9071248337301E+00
 0.9318071991214E+00
 0.9449216924186E+00
 0.9453505162774E+00
 0.9322595650332E+00
 0.9056802321510E+00
 0.8670806711325E+00
 0.8198859146435E+00
 0.7697857738712E+00
 0.7250073763432E+00
 0.6970601300247E+00
 0.7021973977101E+00
 0.7630113199452E+00
 0.9044655343353E+00
 0.1141509716666E+01
 0.1468704810108E+01
 0.1858228362716E+01
 0.2264294929049E+01
 0.2634705083483E+01
 0.8939144776377E+00
 0.9393639034264E+00
 0.9754712831293E+00
 0.9999858923830E+00
 0.1011149144230E+01
 0.1007631157286E+01
 0.9888317550788E+00
 0.9553035479322E+00
 0.9092063868957E+00
 0.8547371922639E+00
 0.7983656051780E+00
 0.7490593710768E+00
 0.7190367451919E+00
 0.7252370080292E+00
 0.7904101260620E+00
 0.9379741246875E+00
 0.1179487824462E+01
 0.1506079377669E+01
 0.1888655222237E+01
 0.2283701523619E+01
 0.2643965257079E+01
 0.9605021858313E+00
 0.1006729918024E+01
 0.1043981757879E+01
 0.1068753653692E+01
 0.1078491331176E+01
 0.1071631455241E+01
 0.1047783796099E+01
 0.1007985589245E+01
 0.9550227858749E+00
 0.8937670868408E+00
 0.8313573622205E+00
 0.7773973631625E+00
 0.7446801724553E+00
 0.7506017526672E+00
 0.8178583922977E+00
 0.9685996003542E+00
 0.1212010998675E+01
 0.1537000051499E+01
 0.1913802282312E+01
 0.2300520075847E+01
 0.2653084826114E+01
 0.1026935009434E+01
 0.1074320433239E+01
 0.1113109208919E+01
 0.1138578643484E+01
 0.1147388504488E+01
 0.1137741857007E+01
 0.1109448110395E+01
 0.1063993457881E+01
 0.1004717724076E+01
 0.9370627900141E+00
 0.8687207679213E+00
 0.8098215610754E+00
 0.7735958128460E+00
 0.7776931476891E+00
 0.8446522240531E+00
 0.9957708022957E+00
 0.1238863579615E+01
 0.1561613447183E+01
 0.1933920317092E+01
 0.2314801679162E+01
 0.2661876477878E+01
 0.1093484481075E+01
 0.1142497956546E+01
 0.1183278575249E+01
 0.1209896372021E+01
 0.1218242158210E+01
 0.1206308122628E+01
 0.1174110834884E+01
 0.1123554768778E+01
 0.1058457203894E+01
 0.9847186329661E+00
 0.9104620876261E+00
 0.8462280602461E+00
 0.8055472830178E+00
 0.8061467238465E+00
 0.8703766789096E+00
 0.1019168371044E+01
 0.1259939420124E+01
 0.1580016975888E+01
 0.1949166756029E+01
 0.2326622815172E+01
 0.2670350069809E+01
 0.1160410974985E+01
 0.1211608788663E+01
 0.1254892925282E+01
 0.1283112151926E+01
 0.1291413748199E+01
 0.1277628634109E+01
 0.1242010274689E+01
 0.1186858680507E+01
 0.1116389199705E+01
 0.1036842307332E+01
 0.9566423564656E+00
 0.8866186981076E+00
 0.8404654696883E+00
 0.8358313160171E+00
 0.8948829374496E+00
 0.1038683613427E+01
 0.1275207391809E+01
 0.1592254163212E+01
 0.1959621791970E+01
 0.2336087032608E+01
 0.2678699488099E+01
 0.1227968888920E+01
 0.1281990501285E+01
 0.1328340192146E+01
 0.1358603730161E+01
 0.1367222871874E+01
 0.1351950404342E+01
 0.1313333369901E+01
 0.1254054307965E+01
 0.1178644299565E+01
 0.1093557519648E+01
 0.1007381981608E+01
 0.9311074161094E+00
 0.8784542989852E+00
 0.8668479786008E+00
 0.9182757766397E+00
 0.1054399662522E+01
 0.1284697136248E+01
 0.1598312107786E+01
 0.1965290219123E+01
 0.2343316735473E+01
 0.2687285115713E+01
 0.1296412729078E+01
 0.1353980615041E+01
 0.1404000769175E+01
 0.1436723813550E+01
 0.1445944343933E+01
 0.1429463316050E+01
 0.1388209956907E+01
 0.1325246507235E+01
 0.1245333233873E+01
 0.1155003081120E+01
 0.1062861552985E+01
 0.9799229882997E+00
 0.9197938917653E+00
 0.8995304785918E+00
 0.9409125713878E+00
 0.1066593128465E+01
 0.1288501295780E+01
 0.1598119892896E+01
 0.1966092604235E+01
 0.2348436647186E+01
 0.2696613302921E+01
 0.1366004632018E+01
 0.1427927167248E+01
 0.1482256264795E+01
 0.1517802143389E+01
 0.1527803536428E+01
 0.1510292107371E+01
 0.1466704626530E+01
 0.1400489029760E+01
 0.1316541327383E+01
 0.1221328353212E+01
 0.1123318587324E+01
 0.1033407861824E+01
 0.9649414555654E+00
 0.9344482044560E+00
 0.9634137242116E+00
 0.1075755526198E+01
 0.1286794071004E+01
 0.1591548873942E+01
 0.1961847435870E+01
 0.2351549045975E+01
 0.2707313909212E+01
 0.1437024027177E+01
 0.1504202057558E+01
 0.1563499751715E+01
 0.1602146645132E+01
 0.1612969251642E+01
 0.1594485648669E+01
 0.1548806079696E+01
 0.1479775133676E+01
 0.1392319971246E+01
 0.1292685003393E+01
 0.1189039916468E+01
 0.1092012701863E+01
 0.1014529766838E+01
 0.9724113276586E+00
 0.9866835440623E+00
 0.1082634936365E+01
 0.1279869173857E+01
 0.1578417464156E+01
 0.1952244919501E+01
 0.2352700167438E+01
 0.2720115999839E+01
 0.1509780430356E+01
 0.1583218351889E+01
 0.1648147802640E+01
 0.1690042855169E+01
 0.1701543155516E+01
 0.1682003032016E+01
 0.1634413948996E+01
 0.1563025777797E+01
 0.1472675212092E+01
 0.1369215015684E+01
 0.1260349367360E+01
 0.1156285936949E+01
 0.1069362379429E+01
 0.1014477043460E+01
 0.1011939694948E+01
 0.1088299047120E+01
 0.1268203602289E+01
 0.1558505193072E+01
 0.1936812631721E+01
 0.2351836777396E+01
 0.2735818550589E+01
 0.1584630843096E+01
 0.1665453181257E+01
 0.1736654466598E+01
 0.1781750286872E+01
 0.1793544491125E+01
 0.1772696062325E+01
 0.1723323235603E+01
 0.1650075632901E+01
 0.1557553614863E+01
 0.1451034982008E+01
 0.1337590440564E+01
 0.1226857397507E+01
 0.1130403946623E+01
 0.1061954785008E+01
 0.1040748178963E+01
 0.1094220692863E+01
 0.1252557657157E+01
 0.1531584481560E+01
 0.1914872832398E+01
 0.2348752913398E+01
 0.2755245287147E+01
 0.1662004044632E+01
 0.1751478548202E+01
 0.1829526969507E+01
 0.1877493490857E+01
 0.1888888409274E+01
 0.1866287969065E+01
 0.1815206842618E+01
 0.1740657310956E+01
 0.1646825641128E+01
 0.1538216854635E+01
 0.1421103905520E+01
 0.1304415138235E+01
 0.1198763342350E+01
 0.1116407133151E+01
 0.1075059625495E+01
 0.1102384253449E+01
 0.1234128883913E+01
 0.1497481363451E+01
 0.1885494625529E+01
 0.2343028264041E+01
 0.2779142186159E+01
 0.1742435463554E+01
 0.1842003263110E+01
 0.1927341998396E+01
 0.1977443938482E+01
 0.1987355689709E+01
 0.1962348517435E+01
 0.1909597019532E+01
 0.1834384182505E+01
 0.1740266595884E+01
 0.1630765261457E+01
 0.1511200358213E+01
 0.1389674568346E+01
 0.1275666640685E+01
 0.1179641116737E+01
 0.1117241536104E+01
 0.1115405214748E+01
 0.1214783296918E+01
 0.1456198982689E+01
 0.1847405285390E+01
 0.2334057352820E+01
 0.2807778690005E+01
 0.1826618905574E+01
 0.1937930294988E+01
 0.2030759812199E+01
 0.2081686238615E+01
 0.2088551390315E+01
 0.2060266774792E+01
 0.2005867359253E+01
 0.1930732363241E+01
 0.1837535185158E+01
 0.1728591707816E+01
 0.1608128385911E+01
 0.1483339988119E+01
 0.1362416931097E+01
 0.1253683646215E+01
 0.1170095140840E+01
 0.1136660958541E+01
 0.1197345547934E+01
 0.1408275731882E+01
 0.1798610363121E+01
 0.2321611312037E+01
 0.2839177553183E+01
 0.1915499357170E+01
 0.2040516219487E+01
 0.2140666535445E+01
 0.2190346415784E+01
 0.2192077592185E+01
 0.2159489190181E+01
 0.2103526243300E+01
 0.2029384882208E+01
 0.1938575993646E+01
 0.1831982458355E+01
 0.1712606123066E+01
 0.1586689081799E+01
 0.1461013158502E+01
 0.1341408681564E+01
 0.1237457121693E+01
 0.1170808758262E+01
 0.1186129940846E+01
 0.1354759611232E+01
 0.1736796198723E+01
 0.2301541938839E+01
 0.2887643661261E+01
 0.2010358715271E+01
 0.2151332424724E+01
 0.2257884087419E+01
 0.2303117859830E+01
 0.2297006297593E+01
 0.2258962579547E+01
 0.2201585208462E+01
 0.2129488963749E+01
 0.2042754006736E+01
 0.1940612042677E+01
 0.1824719859509E+01
 0.1700369972046E+01
 0.1572880221829E+01
 0.1445288996981E+01
 0.1323156791208E+01
 0.1223266365587E+01
 0.1187357357004E+01
 0.1298839538359E+01
 0.1658587758299E+01
 0.2271546062019E+01
 0.2952093334627E+01
 0.2113039496109E+01
 0.2272441795282E+01
 0.2383104120544E+01
 0.2419095809419E+01
 0.2401804218610E+01
 0.2357133965458E+01
 0.2298557232544E+01
 0.2229617741098E+01
 0.2148781330659E+01
 0.2053447400579E+01
 0.1943810594308E+01
 0.1824262721364E+01
 0.1698691396565E+01
 0.1567181425885E+01
 0.1430847080206E+01
 0.1300280979473E+01
 0.1210069695054E+01
 0.1247974160700E+01
 0.1562362995201E+01
 0.2226076747441E+01
 0.3029926522718E+01
 0.2226308304350E+01
 0.2406728471913E+01
 0.2516897942906E+01
 0.2536838179526E+01
 0.2504697195382E+01
 0.2452508987401E+01
 0.2393097052744E+01
 0.2328475887710E+01
 0.2255511161599E+01
 0.2169657268444E+01
 0.2069497730652E+01
 0.1958566949800E+01
 0.1839415345960E+01
 0.1709171679171E+01
 0.1564456491291E+01
 0.1408913422000E+01
 0.1265790732983E+01
 0.1215025700747E+01
 0.1448509876318E+01
 0.2154591053523E+01
 0.3125736278599E+01
 0.2354493014911E+01
 0.2558087076060E+01
 0.2659083683254E+01
 0.2653783303315E+01
 0.2603446288658E+01
 0.2543485653929E+01
 0.2483741543882E+01
 0.2424527378901E+01
 0.2361462637426E+01
 0.2288086413132E+01
 0.2201152119377E+01
 0.2103271118195E+01
 0.1995738953305E+01
 0.1872916464725E+01
 0.1727433447667E+01
 0.1556359507129E+01
 0.1368598199654E+01
 0.1221405390156E+01
 0.1325268637952E+01
 0.2041894817644E+01
 0.3246241258307E+01
 0.2504742104852E+01
 0.2731599442263E+01
 0.2807555788661E+01
 0.2765728654833E+01
 0.2695511058847E+01
 0.2628508979813E+01
 0.2568979400053E+01
 0.2515987293673E+01
 0.2464714739960E+01
 0.2407137827392E+01
 0.2337866211382E+01
 0.2258192685492E+01
 0.2168047856762E+01
 0.2059439777264E+01
 0.1922230003586E+01
 0.1748817827668E+01
 0.1534076976229E+01
 0.1298655951958E+01
 0.1221425653178E+01
 0.1868067333844E+01
 0.3400523809842E+01
 0.2689699291941E+01
 0.2933097358606E+01
 0.2955732241111E+01
 0.2866528764205E+01
 0.2778555979101E+01
 0.2706226047918E+01
 0.2647364224805E+01
 0.2600854172257E+01
 0.2562746526592E+01
 0.2524556331950E+01
 0.2478419516546E+01
 0.2423114682730E+01
 0.2356499159091E+01
 0.2268925216449E+01
 0.2149801273701E+01
 0.1989994318543E+01
 0.1776114111397E+01
 0.1487608100045E+01
 0.1206964414472E+01
 0.1618988033757E+01
 0.3598981420253E+01
 0.2933853779244E+01
 0.3165710571735E+01
 0.3087393742231E+01
 0.2949373273119E+01
 0.2851229310677E+01
 0.2775488745634E+01
 0.2717740448833E+01
 0.2677031744841E+01
 0.2652224176327E+01
 0.2636989362964E+01
 0.2621209943476E+01
 0.2598123517095E+01
 0.2561222958229E+01
 0.2500564598689E+01
 0.2408979801757E+01
 0.2280248965224E+01
 0.2100479708128E+01
 0.1831633667616E+01
 0.1405356508936E+01
 0.1350090972603E+01
 0.3849289442268E+01
 0.3291292484846E+01
 0.3411341888712E+01
 0.3170063460072E+01
 0.3013289526524E+01
 0.2912363619980E+01
 0.2835644430137E+01
 0.2779464106271E+01
 0.2742687080973E+01
 0.2728832193737E+01
 0.2739027523564E+01
 0.2764036662254E+01
 0.2784444346514E+01
 0.2782652658432E+01
 0.2752449305647E+01
 0.2695895550616E+01
 0.2615788512575E+01
 0.2502070413842E+01
 0.2345088249691E+01
 0.1989924788184E+01
 0.1426700477408E+01
 0.4145985620478E+01
 0.3910223428688E+01
 0.3519184096155E+01
 0.3193490422366E+01
 0.3061875049313E+01
 0.2960281721076E+01
 0.2887196891973E+01
 0.2832320274393E+01
 0.2797027390910E+01
 0.2787735842768E+01
 0.2820959467877E+01
 0.2903305066664E+01
 0.2986603650942E+01
 0.3022110453204E+01
 0.3020507109680E+01
 0.3005519897769E+01
 0.2984246221769E+01
 0.2973163904356E+01
 0.2972736482135E+01
 0.3093724641066E+01
 0.2664441020887E+01
 0.4967659901557E+01
 0.4262007983738E+00
 0.7246497334972E+00
 0.9504475734691E+00
 0.1127196196138E+01
 0.1269718553646E+01
 0.1387716368819E+01
 0.1491769153810E+01
 0.1593376091442E+01
 0.1696019437037E+01
 0.1790366436392E+01
 0.4093867653606E+00
 0.7310832094642E+00
 0.9739065419313E+00
 0.1163400841362E+01
 0.1316522239871E+01
 0.1445081211710E+01
 0.1561747132342E+01
 0.1678433963957E+01
 0.1795049188753E+01
 0.1895027538748E+01
 0.3949056000972E+00
 0.7365627701246E+00
 0.9930924366902E+00
 0.1192614141905E+01
 0.1354095861885E+01
 0.1491377531629E+01
 0.1617714916292E+01
 0.1743396737479E+01
 0.1866643863220E+01
 0.1972514707794E+01
 0.3826702204713E+00
 0.7402039312658E+00
 0.1007210057157E+01
 0.1214037135464E+01
 0.1381474275766E+01
 0.1524628184326E+01
 0.1656484469904E+01
 0.1785737090747E+01
 0.1910231204664E+01
 0.2016269903262E+01
 0.3725823890503E+00
 0.7414922923830E+00
 0.1015621649390E+01
 0.1227023133811E+01
 0.1397729640118E+01
 0.1543447355437E+01
 0.1676545387470E+01
 0.1804476270537E+01
 0.1924924422640E+01
 0.2025325646063E+01
 0.3645905563180E+00
 0.7400657017384E+00
 0.1017916291870E+01
 0.1231123144948E+01
 0.1402302045891E+01
 0.1547211875645E+01
 0.1677461258424E+01
 0.1799478987329E+01
 0.1910961692195E+01
 0.2000447131604E+01
 0.3586715462345E+00
 0.7357292504217E+00
 0.1013903876869E+01
 0.1226185991815E+01
 0.1395094144790E+01
 0.1535990160810E+01
 0.1659617311950E+01
 0.1771541442158E+01
 0.1869567925411E+01
 0.1943349089668E+01
 0.3548197520428E+00
 0.7284525268658E+00
 0.1003636156417E+01
 0.1212388459348E+01
 0.1376469706948E+01
 0.1510456776815E+01
 0.1624139510395E+01
 0.1722317710803E+01
 0.1802934257008E+01
 0.1856762098882E+01
 0.3530388212980E+00
 0.7183672687810E+00
 0.9874079736976E+00
 0.1190227449893E+01
 0.1347210071382E+01
 0.1471814893937E+01
 0.1572798625269E+01
 0.1654240741180E+01
 0.1714195677412E+01
 0.1744510299881E+01
 0.3533359553835E+00
 0.7057574538238E+00
 0.9657413666082E+00
 0.1160486281709E+01
 0.1308451221675E+01
 0.1421701942047E+01
 0.1507898680837E+01
 0.1570416018301E+01
 0.1607342626127E+01
 0.1611500760525E+01
 0.3557175680894E+00
 0.6910423194481E+00
 0.9393560942803E+00
 0.1124185384162E+01
 0.1261605634436E+01
 0.1362079068681E+01
 0.1432139559501E+01
 0.1474473910480E+01
 0.1487102010715E+01
 0.1463729504306E+01
 0.3601860396901E+00
 0.6747539134426E+00
 0.9091312434556E+00
 0.1082523166670E+01
 0.1208274692590E+01
 0.1295107598441E+01
 0.1348450895589E+01
 0.1370369641497E+01
 0.1358751103621E+01
 0.1308177024530E+01
 0.3667378811264E+00
 0.6575116080933E+00
 0.8760619952342E+00
 0.1036812090449E+01
 0.1150157097560E+01
 0.1223019919070E+01
 0.1259807553637E+01
 0.1262117762776E+01
 0.1227795853357E+01
 0.1152530742583E+01
 0.3753638215277E+00
 0.6399961828194E+00
 0.8412155908330E+00
 0.9884145305300E+00
 0.1088958124385E+01
 0.1147993203679E+01
 0.1169046247897E+01
 0.1153484496660E+01
 0.1099383578466E+01
 0.1004074869655E+01
 0.3860511744092E+00
 0.6229257681538E+00
 0.8056908076135E+00
 0.9386831847674E+00
 0.1026303827798E+01
 0.1072030694741E+01
 0.1078701921339E+01
 0.1047714643229E+01
 0.9776338059120E+00
 0.8680119586149E+00
 0.3987883468338E+00
 0.6070354793889E+00
 0.7705847592912E+00
 0.8889135144876E+00
 0.9636641896887E+00
 0.9968509838275E+00
 0.9908697152629E+00
 0.9473684569705E+00
 0.8653776110187E+00
 0.7469199662089E+00
 0.4135704119466E+00
 0.5930609319397E+00
 0.7369712241493E+00
 0.8403139184199E+00
 0.9023033902147E+00
 0.9237758830531E+00
 0.9070794319613E+00
 0.8542724190112E+00
 0.7643570006779E+00
 0.6414056529353E+00
 0.4303972874235E+00
 0.5817362954677E+00
 0.7058926970932E+00
 0.7939936935196E+00
 0.8432712004145E+00
 0.8536861499312E+00
 0.8280583328568E+00
 0.7695234553649E+00
 0.6756697558411E+00
 0.5511299168709E+00
 0.4492618333466E+00
 0.5737540626984E+00
 0.6784559995959E+00
 0.7509328420665E+00
 0.7873697333606E+00
 0.7871846522623E+00
 0.7536675741482E+00
 0.6925585134709E+00
 0.6007315939771E+00
 0.4762698767995E+00
 0.4697527138363E+00
 0.5703944154536E+00
 0.6558327116682E+00
 0.7119649417300E+00
 0.7350987911159E+00
 0.7245416109954E+00
 0.6839899403433E+00
 0.6204479469761E+00
 0.5362519504488E+00
 0.4244079652933E+00
 0.6253029495577E+00
 0.2043889286752E+00
 0.2385061787515E-01
 0.2889632148411E-01
 0.7091841860225E-01
 0.1005041108657E+00
 0.9922848055456E-01
 0.5809504256453E-01
 0.1718306678604E-01
 0.8938640546776E-01
 0.6805245938621E+00
 0.4763581695229E+00
 0.2332670331431E+00
 0.1304525819371E+00
 0.6886094846464E-01
 0.2221463798028E-01
 0.2171242067797E-02
 0.1583860977250E-01
 0.5285231445291E-01
 0.1809092039524E+00
 0.6517679231268E+00
 0.5849652972323E+00
 0.4252078552263E+00
 0.3100222134727E+00
 0.2349861599329E+00
 0.1791638449826E+00
 0.1459205116256E+00
 0.1484486985116E+00
 0.1979022135713E+00
 0.3627413154783E+00
 0.6173385033580E+00
 0.6383750669794E+00
 0.5597309397756E+00
 0.4788852097593E+00
 0.4128663953347E+00
 0.3605857178085E+00
 0.3270514589708E+00
 0.3313045335153E+00
 0.4008453013519E+00
 0.5894212424266E+00
 0.5845947327831E+00
 0.6697729141397E+00
 0.6603478653258E+00
 0.6254140216686E+00
 0.5872348389176E+00
 0.5530652524609E+00
 0.5316130701355E+00
 0.5473458386007E+00
 0.6352657680404E+00
 0.8292450174723E+00
 0.5549406560446E+00
 0.6911774995419E+00
 0.7398048171048E+00
 0.7520631668551E+00
 0.7496845063339E+00
 0.7433817867546E+00
 0.7432550263336E+00
 0.7759929036880E+00
 0.8771285648087E+00
 0.1061033162866E+01
 0.5278245632241E+00
 0.7069667035475E+00
 0.8044879601653E+00
 0.8608813153317E+00
 0.8959169402761E+00
 0.9211471472865E+00
 0.9465784797362E+00
 0.9978925485987E+00
 0.1106612019537E+01
 0.1271268563725E+01
 0.5023006095335E+00
 0.7182182529926E+00
 0.8568795784941E+00
 0.9525564607687E+00
 0.1022745284784E+01
 0.1078672749513E+01
 0.1129230895156E+01
 0.1196860662715E+01
 0.1308220998660E+01
 0.1451882900026E+01
 0.4772938482272E+00
 0.7243564275132E+00
 0.8974676246330E+00
 0.1026829382085E+01
 0.1127589686562E+01
 0.1210455031231E+01
 0.1283124850808E+01
 0.1362056871735E+01
 0.1470019854309E+01
 0.1598455723754E+01
 0.4510689761899E+00
 0.7242755883621E+00
 0.9263462186651E+00
 0.1083297980252E+01
 0.1208622698467E+01
 0.1312474826968E+01
 0.1403103211949E+01
 0.1492123348400E+01
 0.1589593580792E+01
 0.1705333459557E+01
 0.4932282801912E+00
 0.5737220017038E+00
 0.6352648384523E+00
 0.6683203588681E+00
 0.6706412337022E+00
 0.6438820304597E+00
 0.5927995564768E+00
 0.5246356000989E+00
 0.4484476278316E+00
 0.3741895035380E+00
 0.5215456490588E+00
 0.5809629595544E+00
 0.6152299815354E+00
 0.6191803175207E+00
 0.5955778474713E+00
 0.5496468261504E+00
 0.4875806836836E+00
 0.4169594440450E+00
 0.3507751707201E+00
 0.2776120648503E+00
 0.5535307785343E+00
 0.5931678677591E+00
 0.5989180802618E+00
 0.5730294643850E+00
 0.5242071079102E+00
 0.4607201800318E+00
 0.3898578155855E+00
 0.3195132832648E+00
 0.2571145577792E+00
 0.1855788568865E+00
 0.5904848402027E+00
 0.6108467745702E+00
 0.5844218821982E+00
 0.5266310929730E+00
 0.4530694558281E+00
 0.3745054527346E+00
 0.2984535640194E+00
 0.2307488594715E+00
 0.1736078403622E+00
 0.1124011105607E+00
 0.6339022312856E+00
 0.6328699730268E+00
 0.5675067215327E+00
 0.4747651196514E+00
 0.3777255821023E+00
 0.2882563184795E+00
 0.2123895109758E+00
 0.1529985254911E+00
 0.1069258904587E+00
 0.6123732056049E-01
 0.6852441086228E+00
 0.6557194608100E+00
 0.5403540141807E+00
 0.4097194131605E+00
 0.2930482484552E+00
 0.1996524262265E+00
 0.1316059423958E+00
 0.8774271144307E-01
 0.5875511655991E-01
 0.3189306247236E-01
 0.7455207479811E+00
 0.6711094063701E+00
 0.4892518303607E+00
 0.3213058577629E+00
 0.1946366651509E+00
 0.1085067038480E+00
 0.5711831281223E-01
 0.3523938040606E-01
 0.2803254739379E-01
 0.2226217319231E-01
 0.8130835445700E+00
 0.6597679326024E+00
 0.3911998376620E+00
 0.1987326121802E+00
 0.8421666112863E-01
 0.1903885157820E-01
 0.8551966762648E-02
 0.4656817510696E-02
 0.1240291187581E-01
 0.2952255627230E-01
 0.8780108414380E+00
 0.5719685616127E+00
 0.2075557841539E+00
 0.5159089821836E-01
 0.2510754837950E-01
 0.6096279394060E-01
 0.6177537701722E-01
 0.3238379581483E-01
 0.9236338397530E-02
 0.4984415245675E-01
 0.8304778490621E+00
 0.2506147593784E+00
 0.1258647599252E-01
 0.8176459180137E-01
 0.1178552384009E+00
 0.1240544228388E+00
 0.9997424680110E-01
 0.4809793517750E-01
 0.1427602449984E-01
 0.7864766923456E-01
 0.1832177099560E+01
 0.1769182075788E+01
 0.1671708754072E+01
 0.1544950282947E+01
 0.1387319008304E+01
 0.1199172473485E+01
 0.9831314579840E+00
 0.7467632892475E+00
 0.5080506148202E+00
 0.3210676649154E+00
 0.1939991833981E+01
 0.1927107709447E+01
 0.1872745439126E+01
 0.1785191611541E+01
 0.1665592358926E+01
 0.1512452757623E+01
 0.1324841921327E+01
 0.1103916424376E+01
 0.8554751901314E+00
 0.5867065853928E+00
 0.2018270758476E+01
 0.2026984739563E+01
 0.2006844477531E+01
 0.1952982624416E+01
 0.1863985992764E+01
 0.1736060364594E+01
 0.1563481719745E+01
 0.1338426334155E+01
 0.1047600921272E+01
 0.6614542179720E+00
 0.2063347314002E+01
 0.2083197227475E+01
 0.2080327389365E+01
 0.2046683377506E+01
 0.1975681973658E+01
 0.1859707461118E+01
 0.1688288116578E+01
 0.1446515090639E+01
 0.1111701735216E+01
 0.6488532682641E+00
 0.2071693961155E+01
 0.2095954456127E+01
 0.2100276314642E+01
 0.2075473354934E+01
 0.2012213696908E+01
 0.1899572610441E+01
 0.1723735166859E+01
 0.1466794194036E+01
 0.1105996797835E+01
 0.6173946260563E+00
 0.2042411783340E+01
 0.2065341629603E+01
 0.2069893342793E+01
 0.2046890925685E+01
 0.1985898658206E+01
 0.1874460701998E+01
 0.1697346539041E+01
 0.1436374268844E+01
 0.1071785596173E+01
 0.5900943998321E+00
 0.1976379892231E+01
 0.1992621149964E+01
 0.1991922728627E+01
 0.1965884992239E+01
 0.1904445396367E+01
 0.1795335759087E+01
 0.1623644762596E+01
 0.1372071203123E+01
 0.1022977526630E+01
 0.5666955749716E+00
 0.1875999240614E+01
 0.1880576697860E+01
 0.1869750359070E+01
 0.1836602099960E+01
 0.1772612560305E+01
 0.1667197925172E+01
 0.1507198324274E+01
 0.1276733036531E+01
 0.9584917649708E+00
 0.5409004712692E+00
 0.1745151341003E+01
 0.1733394823608E+01
 0.1707735955767E+01
 0.1663197391650E+01
 0.1593661933847E+01
 0.1491458503048E+01
 0.1346658302767E+01
 0.1146036860446E+01
 0.8722606015595E+00
 0.5081984770345E+00
 0.1589427216233E+01
 0.1557215206949E+01
 0.1512226790031E+01
 0.1451525027769E+01
 0.1371806191194E+01
 0.1269142024650E+01
 0.1138300287449E+01
 0.9712671787112E+00
 0.7539617220008E+00
 0.4634736136749E+00
 0.1416286006492E+01
 0.1360672113091E+01
 0.1292705893280E+01
 0.1211175305262E+01
 0.1115430908402E+01
 0.1005415219423E+01
 0.8814393093417E+00
 0.7433283907441E+00
 0.5876673635787E+00
 0.3971553273704E+00
 0.1234964615693E+01
 0.1155185107778E+01
 0.1062823750520E+01
 0.9577926896819E+00
 0.8414599960422E+00
 0.7169511830292E+00
 0.5896205752429E+00
 0.4677725136844E+00
 0.3635935565917E+00
 0.2915776805852E+00
 0.1056271810656E+01
 0.9551378853347E+00
 0.8413474412667E+00
 0.7155666235898E+00
 0.5806586499887E+00
 0.4420654373458E+00
 0.3088129713572E+00
 0.1956116310599E+00
 0.1269068503654E+00
 0.1524414775386E+00
 0.8908269032227E+00
 0.7754338749241E+00
 0.6487593680665E+00
 0.5126081395234E+00
 0.3715906205310E+00
 0.2333860078716E+00
 0.1101423470765E+00
 0.2679090300191E-01
 0.2350565960024E-01
 0.6451409914294E-01
 0.7458214784146E+00
 0.6256635463886E+00
 0.4972920203830E+00
 0.3643175516649E+00
 0.2335430184527E+00
 0.1149022510481E+00
 0.2621056931542E-01
 0.3889756773254E-01
 0.2525701642403E-01
 0.7882385813872E-01
 0.6234684652359E+00
 0.5068198469406E+00
 0.3851907883853E+00
 0.2641246875500E+00
 0.1521909767235E+00
 0.6019151123463E-01
 0.1438272823545E-01
 0.2525535131100E-01
 0.1237732502584E-01
 0.1075918511178E+00
 0.5230594886638E+00
 0.4152042264103E+00
 0.3042181997489E+00
 0.1979906989511E+00
 0.1062033864263E+00
 0.3861597337076E-01
 0.8933439045502E-02
 0.4375398799507E-02
 0.4561370903884E-01
 0.1259654822288E+00
 0.4425013997458E+00
 0.3446050225746E+00
 0.2440007426644E+00
 0.1522585713485E+00
 0.7905754322555E-01
 0.3129318151856E-01
 0.1281799672923E-01
 0.2511735710483E-01
 0.6878678498814E-01
 0.1367632916281E+00
 0.3784572382751E+00
 0.2865736022133E+00
 0.1957792455596E+00
 0.1198144802362E+00
 0.6456141286833E-01
 0.3296923667835E-01
 0.2600030878323E-01
 0.4346775191015E-01
 0.8254908822504E-01
 0.1383763592418E+00
 0.3207532041226E+00
 0.2299745630988E+00
 0.1584887486989E+00
 0.1037136345699E+00
 0.6593578543538E-01
 0.4591551479915E-01
 0.4360685954264E-01
 0.5778721552426E-01
 0.8590056581772E-01
 0.1265896717314E+00
</DataArray>
<DataArray type="Float64" Name="CK" NumberOfComponents="1" ComponentName0="CK" format="ascii">
 0.0000000000000E+00
 0.0000000000000E+00
 0.0000000000000E+00
 0.0000000000000E+00
 0.0000000000000E+00
 0.0000000000000E+00
 0.0000000000000E+00
 0.0000000000000E+00
 0.0000000000000E+00
 0.0000000000000E+00
 0.0000000000000E+00
 0.0000000000000E+00
 0.0000000000000E+00
 0.0000000000000E+00
 0.0000000000000E+00
 0.0000000000000E+00
 0.0000000000000E+00
 0.0000000000000E+00
 0.0000000000000E+00
 0.0000000000000E+00
 0.0000000000000E+00
 0.0000000000000E+00
 0.0000000000000E+00
 0.0000000000000E+00
 0.0000000000000E+00
 0.0000000000000E+00
 0.0000000000000E+00
 0.0000000000000E+00
 0.0000000000000E+00
 0.0000000000000E+00
 0.0000000000000E+00
 0.0000000000000E+00
 0.0000000000000E+00
 0.0000000000000E+00
 0.0000000000000E+00
 0.0000000000000E+00
 0.0000000000000E+00
 0.0000000000000E+00
 0.0000000000000E+00
 0.0000000000000E+00
 0.0000000000000E+00
 0.0000000000000E+00
 0.0000000000000E+00
 0.0000000000000E+00
 0.0000000000000E+00
 0.0000000000000E+00
 0.0000000000000E+00
 0.0000000000000E+00
 0.0000000000000E+00
 0.0000000000000E+00
 0.0000000000000E+00
 0.0000000000000E+00
 0.0000000000000E+00
 0.0000000000000E+00
 0.0000000000000E+00
 0.0000000000000E+00
 0.0000000000000E+00
 0.0000000000000E+00
 0.0000000000000E+00
 0.0000000000000E+00
 0.0000000000000E+00
 0.0000000000000E+00
 0.0000000000000E+00
 0.0000000000000E+00
 0.0000000000000E+00
 0.0000000000000E+00
 0.0000000000000E+00
 0.0000000000000E+00
 0.0000000000000E+00
 0.0000000000000E+00
 0.0000000000000E+00
 0.0000000000000E+00
 0.0000000000000E+00
 0.0000000000000E+00
 0.0000000000000E+00
 0.0000000000000E+00
 0.0000000000000E+00
 0.0000000000000E+00
 0.0000000000000E+00
 0.0000000000000E+00
 0.0000000000000E+00
 0.0000000000000E+00
 0.0000000000000E+00
 0.0000000000000E+00
 0.0000000000000E+00
 0.0000000000000E+00
 0.0000000000000E+00
 0.0000000000000E+00
 0.0000000000000E+00
 0.0000000000000E+00
 0.0000000000000E+00
 0.0000000000000E+00
 0.0000000000000E+00
 0.0000000000000E+00
 0.0000000000000E+00
 0.0000000000000E+00
 0.0000000000000E+00
 0.0000000000000E+00
 0.0000000000000E+00
 0.0000000000000E+00
 0.0000000000000E+00
 0.0000000000000E+00
 0.0000000000000E+00
 0.0000000000000E+00
 0.0000000000000E+00
 0.0000000000000E+00
 0.0000000000000E+00
 0.0000000000000E+00
 0.0000000000000E+00
 0.0000000000000E+00
 0.0000000000000E+00
 0.0000000000000E+00
 0.0000000000000E+00
 0.0000000000000E+00
 0.0000000000000E+00
 0.0000000000000E+00
 0.0000000000000E+00
 0.0000000000000E+00
 0.0000000000000E+00
 0.0000000000000E+00
 0.0000000000000E+00
 0.0000000000000E+00
 0.0000000000000E+00
 0.0000000000000E+00
 0.0000000000000E+00
 0.0000000000000E+00
 0.0000000000000E+00
 0.0000000000000E+00
 0.0000000000000E+00
 0.0000000000000E+00
 0.0000000000000E+00
 0.0000000000000E+00
 0.0000000000000E+00
 0.0000000000000E+00
 0.0000000000000E+00
 0.0000000000000E+00
 0.0000000000000E+00
 0.0000000000000E+00
 0.0000000000000E+00
 0.0000000000000E+00
 0.0000000000000E+00
 0.0000000000000E+00
 0.0000000000000E+00
 0.0000000000000E+00
 0.0000000000000E+00
 0.0000000000000E+00
 0.0000000000000E+00
 0.0000000000000E+00
 0.0000000000000E+00
 0.0000000000000E+00
 0.0000000000000E+00
 0.0000000000000E+00
 0.0000000000000E+00
 0.0000000000000E+00
 0.0000000000000E+00
 0.0000000000000E+00
 0.0000000000000E+00
 0.0000000000000E+00
 0.0000000000000E+00
 0.0000000000000E+00
 0.0000000000000E+00
 0.0000000000000E+00
 0.0000000000000E+00
 0.0000000000000E+00
 0.0000000000000E+00
 0.0000000000000E+00
 0.0000000000000E+00
 0.0000000000000E+00
 0.0000000000000E+00
 0.0000000000000E+00
 0.0000000000000E+00
 0.0000000000000E+00
 0.0000000000000E+00
 0.0000000000000E+00
 0.0000000000000E+00
 0.0000000000000E+00
 0.0000000000000E+00
 0.0000000000000E+00
 0.0000000000000E+00
 0.0000000000000E+00
 0.0000000000000E+00
 0.0000000000000E+00
 0.0000000000000E+00
 0.0000000000000E+00
 0.0000000000000E+00
 0.0000000000000E+00
 0.0000000000000E+00
 0.0000000000000E+00
 0.0000000000000E+00
 0.0000000000000E+00
 0.0000000000000E+00
 0.0000000000000E+00
 0.0000000000000E+00
 0.0000000000000E+00
 0.0000000000000E+00
 0.0000000000000E+00
 0.0000000000000E+00
 0.0000000000000E+00
 0.0000000000000E+00
 0.0000000000000E+00
 0.0000000000000E+00
 0.0000000000000E+00
 0.0000000000000E+00
 0.0000000000000E+00
 0.0000000000000E+00
 0.0000000000000E+00
 0.0000000000000E+00
 0.0000000000000E+00
 0.0000000000000E+00
 0.0000000000000E+00
 0.0000000000000E+00
 0.0000000000000E+00
 0.0000000000000E+00
 0.0000000000000E+00
 0.0000000000000E+00
 0.0000000000000E+00
 0.0000000000000E+00
 0.0000000000000E+00
 0.0000000000000E+00
 0.0000000000000E+00
 0.0000000000000E+00
 0.0000000000000E+00
 0.0000000000000E+00
 0.0000000000000E+00
 0.0000000000000E+00
 0.0000000000000E+00
 0.0000000000000E+00
 0.0000000000000E+00
 0.0000000000000E+00
 0.0000000000000E+00
 0.0000000000000E+00
 0.0000000000000E+00
 0.0000000000000E+00
 0.0000000000000E+00
 0.0000000000000E+00
 0.0000000000000E+00
 0.0000000000000E+00
 0.0000000000000E+00
 0.0000000000000E+00
 0.0000000000000E+00
 0.0000000000000E+00
 0.0000000000000E+00
 0.0000000000000E+00
 0.0000000000000E+00
 0.0000000000000E+00
 0.0000000000000E+00
 0.0000000000000E+00
 0.0000000000000E+00
 0.0000000000000E+00
 0.0000000000000E+00
 0.0000000000000E+00
 0.0000000000000E+00
 0.0000000000000E+00
 0.0000000000000E+00
 0.0000000000000E+00
 0.0000000000000E+00
 0.0000000000000E+00
 0.0000000000000E+00
 0.0000000000000E+00
 0.0000000000000E+00
 0.0000000000000E+00
 0.0000000000000E+00
 0.0000000000000E+00
 0.0000000000000E+00
 0.0000000000000E+00
 0.0000000000000E+00
 0.0000000000000E+00
 0.0000000000000E+00
 0.0000000000000E+00
 0.0000000000000E+00
 0.0000000000000E+00
 0.0000000000000E+00
 0.0000000000000E+00
 0.0000000000000E+00
 0.0000000000000E+00
 0.0000000000000E+00
 0.0000000000000E+00
 0.0000000000000E+00
 0.0000000000000E+00
 0.0000000000000E+00
 0.0000000000000E+00
 0.0000000000000E+00
 0.0000000000000E+00
 0.0000000000000E+00
 0.0000000000000E+00
 0.0000000000000E+00
 0.0000000000000E+00
 0.0000000000000E+00
 0.0000000000000E+00
 0.0000000000000E+00
 0.0000000000000E+00
 0.0000000000000E+00
 0.0000000000000E+00
 0.0000000000000E+00
 0.0000000000000E+00
 0.0000000000000E+00
 0.0000000000000E+00
 0.0000000000000E+00
 0.0000000000000E+00
 0.0000000000000E+00
 0.0000000000000E+00
 0.0000000000000E+00
 0.0000000000000E+00
 0.0000000000000E+00
 0.0000000000000E+00
 0.0000000000000E+00
 0.0000000000000E+00
 0.0000000000000E+00
 0.0000000000000E+00
 0.0000000000000E+00
 0.0000000000000E+00
 0.0000000000000E+00
 0.0000000000000E+00
 0.0000000000000E+00
 0.0000000000000E+00
 0.0000000000000E+00
 0.0000000000000E+00
 0.0000000000000E+00
 0.0000000000000E+00
 0.0000000000000E+00
 0.0000000000000E+00
 0.0000000000000E+00
 0.0000000000000E+00
 0.0000000000000E+00
 0.0000000000000E+00
 0.0000000000000E+00
 0.0000000000000E+00
 0.0000000000000E+00
 0.0000000000000E+00
 0.0000000000000E+00
 0.0000000000000E+00
 0.0000000000000E+00
 0.0000000000000E+00
 0.0000000000000E+00
 0.0000000000000E+00
 0.0000000000000E+00
 0.0000000000000E+00
 0.0000000000000E+00
 0.0000000000000E+00
 0.0000000000000E+00
 0.0000000000000E+00
 0.0000000000000E+00
 0.0000000000000E+00
 0.0000000000000E+00
 0.0000000000000E+00
 0.0000000000000E+00
 0.0000000000000E+00
 0.0000000000000E+00
 0.0000000000000E+00
 0.0000000000000E+00
 0.0000000000000E+00
 0.0000000000000E+00
 0.0000000000000E+00
 0.0000000000000E+00
 0.0000000000000E+00
 0.0000000000000E+00
 0.0000000000000E+00
 0.0000000000000E+00
 0.0000000000000E+00
 0.0000000000000E+00
 0.0000000000000E+00
 0.0000000000000E+00
 0.0000000000000E+00
 0.0000000000000E+00
 0.0000000000000E+00
 0.0000000000000E+00
 0.0000000000000E+00
 0.0000000000000E+00
 0.0000000000000E+00
 0.0000000000000E+00
 0.0000000000000E+00
 0.0000000000000E+00
 0.0000000000000E+00
 0.0000000000000E+00
 0.0000000000000E+00
 0.0000000000000E+00
 0.0000000000000E+00
 0.0000000000000E+00
 0.0000000000000E+00
 0.0000000000000E+00
 0.0000000000000E+00
 0.0000000000000E+00
 0.0000000000000E+00
 0.0000000000000E+00
 0.0000000000000E+00
 0.0000000000000E+00
 0.0000000000000E+00
 0.0000000000000E+00
 0.0000000000000E+00
 0.0000000000000E+00
 0.0000000000000E+00
 0.0000000000000E+00
 0.0000000000000E+00
 0.0000000000000E+00
 0.0000000000000E+00
 0.0000000000000E+00
 0.0000000000000E+00
 0.0000000000000E+00
 0.0000000000000E+00
 0.0000000000000E+00
 0.0000000000000E+00
 0.0000000000000E+00
 0.0000000000000E+00
 0.0000000000000E+00
 0.0000000000000E+00
 0.0000000000000E+00
 0.0000000000000E+00
 0.0000000000000E+00
 0.0000000000000E+00
 0.0000000000000E+00
 0.0000000000000E+00
 0.0000000000000E+00
 0.0000000000000E+00
 0.0000000000000E+00
 0.0000000000000E+00
 0.0000000000000E+00
 0.0000000000000E+00
 0.0000000000000E+00
 0.0000000000000E+00
 0.0000000000000E+00
 0.0000000000000E+00
 0.0000000000000E+00
 0.0000000000000E+00
 0.0000000000000E+00
 0.0000000000000E+00
 0.0000000000000E+00
 0.0000000000000E+00
 0.0000000000000E+00
 0.0000000000000E+00
 0.0000000000000E+00
 0.0000000000000E+00
 0.0000000000000E+00
 0.0000000000000E+00
 0.0000000000000E+00
 0.0000000000000E+00
 0.0000000000000E+00
 0.0000000000000E+00
 0.0000000000000E+00
 0.0000000000000E+00
 0.0000000000000E+00
 0.0000000000000E+00
 0.0000000000000E+00
 0.0000000000000E+00
 0.0000000000000E+00
 0.0000000000000E+00
 0.0000000000000E+00
 0.0000000000000E+00
 0.0000000000000E+00
 0.0000000000000E+00
 0.0000000000000E+00
 0.0000000000000E+00
 0.0000000000000E+00
 0.0000000000000E+00
 0.0000000000000E+00
 0.0000000000000E+00
 0.0000000000000E+00
 0.0000000000000E+00
 0.0000000000000E+00
 0.0000000000000E+00
 0.0000000000000E+00
 0.0000000000000E+00
 0.0000000000000E+00
 0.0000000000000E+00
 0.0000000000000E+00
 0.0000000000000E+00
 0.0000000000000E+00
 0.0000000000000E+00
 0.0000000000000E+00
 0.0000000000000E+00
 0.0000000000000E+00
 0.0000000000000E+00
 0.0000000000000E+00
 0.0000000000000E+00
 0.0000000000000E+00
 0.0000000000000E+00
 0.0000000000000E+00
 0.0000000000000E+00
 0.0000000000000E+00
 0.0000000000000E+00
 0.0000000000000E+00
 0.0000000000000E+00
 0.0000000000000E+00
 0.0000000000000E+00
 0.0000000000000E+00
 0.0000000000000E+00
 0.0000000000000E+00
 0.0000000000000E+00
 0.0000000000000E+00
 0.0000000000000E+00
 0.0000000000000E+00
 0.0000000000000E+00
 0.0000000000000E+00
 0.0000000000000E+00
 0.0000000000000E+00
 0.0000000000000E+00
 0.0000000000000E+00
 0.0000000000000E+00
 0.0000000000000E+00
 0.0000000000000E+00
 0.0000000000000E+00
 0.0000000000000E+00
 0.0000000000000E+00
 0.0000000000000E+00
 0.0000000000000E+00
 0.0000000000000E+00
 0.0000000000000E+00
 0.0000000000000E+00
 0.0000000000000E+00
 0.0000000000000E+00
 0.0000000000000E+00
 0.0000000000000E+00
 0.0000000000000E+00
 0.0000000000000E+00
 0.0000000000000E+00
 0.0000000000000E+00
 0.0000000000000E+00
 0.0000000000000E+00
 0.0000000000000E+00
 0.0000000000000E+00
 0.0000000000000E+00
 0.0000000000000E+00
 0.0000000000000E+00
 0.0000000000000E+00
 0.0000000000000E+00
 0.0000000000000E+00
 0.0000000000000E+00
 0.0000000000000E+00
 0.0000000000000E+00
 0.0000000000000E+00
 0.0000000000000E+00
 0.0000000000000E+00
 0.0000000000000E+00
 0.0000000000000E+00
 0.0000000000000E+00
 0.0000000000000E+00
 0.0000000000000E+00
 0.0000000000000E+00
 0.0000000000000E+00
 0.0000000000000E+00
 0.0000000000000E+00
 0.0000000000000E+00
 0.0000000000000E+00
 0.0000000000000E+00
 0.0000000000000E+00
 0.0000000000000E+00
 0.0000000000000E+00
 0.0000000000000E+00
 0.0000000000000E+00
 0.0000000000000E+00
 0.0000000000000E+00
 0.0000000000000E+00
 0.0000000000000E+00
 0.0000000000000E+00
 0.0000000000000E+00
 0.0000000000000E+00
 0.0000000000000E+00
 0.0000000000000E+00
 0.0000000000000E+00
 0.0000000000000E+00
 0.0000000000000E+00
 0.0000000000000E+00
 0.0000000000000E+00
 0.0000000000000E+00
 0.0000000000000E+00
 0.0000000000000E+00
 0.0000000000000E+00
 0.0000000000000E+00
 0.0000000000000E+00
 0.0000000000000E+00
 0.0000000000000E+00
 0.0000000000000E+00
 0.0000000000000E+00
 0.0000000000000E+00
 0.0000000000000E+00
 0.0000000000000E+00
 0.0000000000000E+00
 0.0000000000000E+00
 0.0000000000000E+00
 0.0000000000000E+00
 0.0000000000000E+00
 0.0000000000000E+00
 0.0000000000000E+00
 0.0000000000000E+00
 0.0000000000000E+00
 0.0000000000000E+00
 0.0000000000000E+00
 0.0000000000000E+00
 0.0000000000000E+00
 0.0000000000000E+00
 0.0000000000000E+00
 0.0000000000000E+00
 0.0000000000000E+00
 0.0000000000000E+00
 0.0000000000000E+00
 0.0000000000000E+00
 0.0000000000000E+00
 0.0000000000000E+00
 0.0000000000000E+00
 0.0000000000000E+00
 0.0000000000000E+00
 0.0000000000000E+00
 0.0000000000000E+00
 0.0000000000000E+00
 0.0000000000000E+00
 0.0000000000000E+00
 0.0000000000000E+00
 0.0000000000000E+00
 0.0000000000000E+00
 0.0000000000000E+00
 0.0000000000000E+00
 0.0000000000000E+00
 0.0000000000000E+00
 0.0000000000000E+00
 0.0000000000000E+00
 0.0000000000000E+00
 0.0000000000000E+00
 0.0000000000000E+00
 0.0000000000000E+00
 0.0000000000000E+00
 0.0000000000000E+00
 0.0000000000000E+00
 0.0000000000000E+00
 0.0000000000000E+00
 0.0000000000000E+00
 0.0000000000000E+00
 0.0000000000000E+00
 0.0000000000000E+00
 0.0000000000000E+00
 0.0000000000000E+00
 0.0000000000000E+00
 0.0000000000000E+00
 0.0000000000000E+00
 0.0000000000000E+00
 0.0000000000000E+00
 0.0000000000000E+00
 0.0000000000000E+00
 0.0000000000000E+00
 0.0000000000000E+00
 0.0000000000000E+00
 0.0000000000000E+00
 0.0000000000000E+00
 0.0000000000000E+00
 0.0000000000000E+00
 0.0000000000000E+00
 0.0000000000000E+00
 0.0000000000000E+00
 0.0000000000000E+00
 0.0000000000000E+00
 0.0000000000000E+00
 0.0000000000000E+00
 0.0000000000000E+00
 0.0000000000000E+00
 0.0000000000000E+00
 0.0000000000000E+00
 0.0000000000000E+00
 0.0000000000000E+00
 0.0000000000000E+00
 0.0000000000000E+00
 0.0000000000000E+00
 0.0000000000000E+00
 0.0000000000000E+00
 0.0000000000000E+00
 0.0000000000000E+00
 0.0000000000000E+00
 0.0000000000000E+00
 0.0000000000000E+00
 0.0000000000000E+00
 0.0000000000000E+00
 0.0000000000000E+00
 0.0000000000000E+00
 0.0000000000000E+00
 0.0000000000000E+00
 0.0000000000000E+00
 0.0000000000000E+00
 0.0000000000000E+00
 0.0000000000000E+00
 0.0000000000000E+00
 0.0000000000000E+00
 0.0000000000000E+00
 0.0000000000000E+00
 0.0000000000000E+00
 0.0000000000000E+00
 0.0000000000000E+00
 0.0000000000000E+00
 0.0000000000000E+00
 0.0000000000000E+00
 0.0000000000000E+00
 0.0000000000000E+00
 0.0000000000000E+00
 0.0000000000000E+00
 0.0000000000000E+00
 0.0000000000000E+00
 0.0000000000000E+00
 0.0000000000000E+00
 0.0000000000000E+00
 0.0000000000000E+00
 0.0000000000000E+00
 0.0000000000000E+00
 0.0000000000000E+00
 0.0000000000000E+00
 0.0000000000000E+00
 0.0000000000000E+00
 0.0000000000000E+00
 0.0000000000000E+00
 0.0000000000000E+00
 0.0000000000000E+00
 0.0000000000000E+00
 0.0000000000000E+00
 0.0000000000000E+00
 0.0000000000000E+00
 0.0000000000000E+00
 0.0000000000000E+00
 0.0000000000000E+00
 0.0000000000000E+00
 0.0000000000000E+00
 0.0000000000000E+00
 0.0000000000000E+00
 0.0000000000000E+00
 0.0000000000000E+00
 0.0000000000000E+00
 0.0000000000000E+00
 0.0000000000000E+00
 0.0000000000000E+00
 0.0000000000000E+00
 0.0000000000000E+00
 0.0000000000000E+00
 0.0000000000000E+00
 0.0000000000000E+00
 0.0000000000000E+00
 0.0000000000000E+00
 0.0000000000000E+00
 0.0000000000000E+00
 0.0000000000000E+00
 0.0000000000000E+00
 0.0000000000000E+00
 0.0000000000000E+00
 0.0000000000000E+00
 0.0000000000000E+00
 0.0000000000000E+00
 0.0000000000000E+00
 0.0000000000000E+00
 0.0000000000000E+00
 0.0000000000000E+00
 0.0000000000000E+00
 0.0000000000000E+00
 0.0000000000000E+00
 0.0000000000000E+00
 0.0000000000000E+00
 0.0000000000000E+00
 0.0000000000000E+00
 0.0000000000000E+00
 0.0000000000000E+00
 0.0000000000000E+00
 0.0000000000000E+00
 0.0000000000000E+00
 0.0000000000000E+00
 0.0000000000000E+00
 0.0000000000000E+00
 0.0000000000000E+00
 0.0000000000000E+00
 0.0000000000000E+00
 0.0000000000000E+00
 0.0000000000000E+00
 0.0000000000000E+00
 0.0000000000000E+00
 0.0000000000000E+00
 0.0000000000000E+00
 0.0000000000000E+00
 0.0000000000000E+00
 0.0000000000000E+00
 0.0000000000000E+00
 0.0000000000000E+00
 0.0000000000000E+00
 0.0000000000000E+00
 0.0000000000000E+00
 0.0000000000000E+00
 0.0000000000000E+00
 0.0000000000000E+00
 0.0000000000000E+00
 0.0000000000000E+00
 0.0000000000000E+00
 0.0000000000000E+00
 0.0000000000000E+00
 0.0000000000000E+00
 0.0000000000000E+00
 0.0000000000000E+00
 0.0000000000000E+00
 0.0000000000000E+00
 0.0000000000000E+00
 0.0000000000000E+00
 0.0000000000000E+00
 0.0000000000000E+00
 0.0000000000000E+00
 0.0000000000000E+00
 0.0000000000000E+00
 0.0000000000000E+00
 0.0000000000000E+00
 0.0000000000000E+00
 0.0000000000000E+00
 0.0000000000000E+00
 0.0000000000000E+00
 0.0000000000000E+00
 0.0000000000000E+00
 0.0000000000000E+00
 0.0000000000000E+00
 0.0000000000000E+00
 0.0000000000000E+00
 0.0000000000000E+00
 0.0000000000000E+00
 0.0000000000000E+00
 0.0000000000000E+00
 0.0000000000000E+00
 0.0000000000000E+00
 0.0000000000000E+00
 0.0000000000000E+00
 0.0000000000000E+00
 0.0000000000000E+00
 0.0000000000000E+00
 0.0000000000000E+00
 0.0000000000000E+00
 0.0000000000000E+00
 0.0000000000000E+00
 0.0000000000000E+00
 0.0000000000000E+00
 0.0000000000000E+00
 0.0000000000000E+00
 0.0000000000000E+00
 0.0000000000000E+00
 0.0000000000000E+00
 0.0000000000000E+00
 0.0000000000000E+00
 0.0000000000000E+00
 0.0000000000000E+00
 0.0000000000000E+00
 0.0000000000000E+00
 0.0000000000000E+00
 0.0000000000000E+00
 0.0000000000000E+00
 0.0000000000000E+00
 0.0000000000000E+00
 0.0000000000000E+00
 0.0000000000000E+00
 0.0000000000000E+00
 0.0000000000000E+00
 0.0000000000000E+00
 0.0000000000000E+00
 0.0000000000000E+00
 0.0000000000000E+00
 0.0000000000000E+00
 0.0000000000000E+00
 0.0000000000000E+00
 0.0000000000000E+00
 0.0000000000000E+00
 0.0000000000000E+00
 0.0000000000000E+00
 0.0000000000000E+00
 0.0000000000000E+00
 0.0000000000000E+00
 0.0000000000000E+00
 0.0000000000000E+00
 0.0000000000000E+00
 0.0000000000000E+00
 0.0000000000000E+00
 0.0000000000000E+00
 0.0000000000000E+00
 0.0000000000000E+00
 0.0000000000000E+00
 0.0000000000000E+00
 0.0000000000000E+00
 0.0000000000000E+00
 0.0000000000000E+00
 0.0000000000000E+00
 0.0000000000000E+00
 0.0000000000000E+00
 0.0000000000000E+00
 0.0000000000000E+00
 0.0000000000000E+00
 0.0000000000000E+00
 0.0000000000000E+00
 0.0000000000000E+00
 0.0000000000000E+00
 0.0000000000000E+00
 0.0000000000000E+00
 0.0000000000000E+00
 0.0000000000000E+00
 0.0000000000000E+00
 0.0000000000000E+00
 0.0000000000000E+00
 0.0000000000000E+00
 0.0000000000000E+00
 0.0000000000000E+00
 0.0000000000000E+00
 0.0000000000000E+00
 0.0000000000000E+00
 0.0000000000000E+00
 0.0000000000000E+00
 0.0000000000000E+00
 0.0000000000000E+00
 0.0000000000000E+00
 0.0000000000000E+00
 0.0000000000000E+00
 0.0000000000000E+00
 0.0000000000000E+00
 0.0000000000000E+00
 0.0000000000000E+00
 0.0000000000000E+00
 0.0000000000000E+00
 0.0000000000000E+00
 0.0000000000000E+00
 0.0000000000000E+00
 0.0000000000000E+00
 0.0000000000000E+00
 0.0000000000000E+00
 0.0000000000000E+00
 0.0000000000000E+00
 0.0000000000000E+00
 0.0000000000000E+00
 0.0000000000000E+00
 0.0000000000000E+00
 0.0000000000000E+00
 0.0000000000000E+00
 0.0000000000000E+00
 0.0000000000000E+00
 0.0000000000000E+00
 0.0000000000000E+00
 0.0000000000000E+00
 0.0000000000000E+00
 0.0000000000000E+00
 0.0000000000000E+00
 0.0000000000000E+00
 0.0000000000000E+00
 0.0000000000000E+00
 0.0000000000000E+00
 0.0000000000000E+00
 0.0000000000000E+00
 0.0000000000000E+00
 0.0000000000000E+00
 0.0000000000000E+00
 0.0000000000000E+00
 0.0000000000000E+00
 0.0000000000000E+00
 0.0000000000000E+00
 0.0000000000000E+00
 0.0000000000000E+00
 0.0000000000000E+00
 0.0000000000000E+00
 0.0000000000000E+00
 0.0000000000000E+00
 0.0000000000000E+00
 0.0000000000000E+00
 0.0000000000000E+00
 0.0000000000000E+00
 0.0000000000000E+00
 0.0000000000000E+00
 0.0000000000000E+00
 0.0000000000000E+00
 0.0000000000000E+00
 0.0000000000000E+00
 0.0000000000000E+00
 0.0000000000000E+00
 0.0000000000000E+00
 0.0000000000000E+00
 0.0000000000000E+00
 0.0000000000000E+00
 0.0000000000000E+00
 0.0000000000000E+00
 0.0000000000000E+00
 0.0000000000000E+00
 0.0000000000000E+00
 0.0000000000000E+00
 0.0000000000000E+00
 0.0000000000000E+00
 0.0000000000000E+00
 0.0000000000000E+00
 0.0000000000000E+00
 0.0000000000000E+00
 0.0000000000000E+00
 0.0000000000000E+00
 0.0000000000000E+00
 0.0000000000000E+00
 0.0000000000000E+00
 0.0000000000000E+00
 0.0000000000000E+00
 0.0000000000000E+00
 0.0000000000000E+00
 0.0000000000000E+00
 0.0000000000000E+00
 0.0000000000000E+00
 0.0000000000000E+00
 0.0000000000000E+00
 0.0000000000000E+00
 0.0000000000000E+00
 0.0000000000000E+00
 0.0000000000000E+00
 0.0000000000000E+00
 0.0000000000000E+00
 0.0000000000000E+00
 0.0000000000000E+00
 0.0000000000000E+00
 0.0000000000000E+00
 0.0000000000000E+00
 0.0000000000000E+00
 0.0000000000000E+00
 0.0000000000000E+00
 0.0000000000000E+00
 0.0000000000000E+00
 0.0000000000000E+00
 0.0000000000000E+00
 0.0000000000000E+00
 0.0000000000000E+00
 0.0000000000000E+00
 0.0000000000000E+00
 0.0000000000000E+00
 0.0000000000000E+00
 0.0000000000000E+00
 0.0000000000000E+00
 0.0000000000000E+00
 0.0000000000000E+00
 0.0000000000000E+00
 0.0000000000000E+00
 0.0000000000000E+00
 0.0000000000000E+00
 0.0000000000000E+00
 0.0000000000000E+00
 0.0000000000000E+00
 0.0000000000000E+00
 0.0000000000000E+00
 0.0000000000000E+00
 0.0000000000000E+00
 0.0000000000000E+00
 0.0000000000000E+00
 0.0000000000000E+00
 0.0000000000000E+00
 0.0000000000000E+00
 0.0000000000000E+00
 0.0000000000000E+00
 0.0000000000000E+00
 0.0000000000000E+00
 0.0000000000000E+00
 0.0000000000000E+00
 0.0000000000000E+00
 0.0000000000000E+00
 0.0000000000000E+00
 0.0000000000000E+00
 0.0000000000000E+00
 0.0000000000000E+00
 0.0000000000000E+00
 0.0000000000000E+00
 0.0000000000000E+00
 0.0000000000000E+00
 0.0000000000000E+00
 0.0000000000000E+00
 0.0000000000000E+00
 0.0000000000000E+00
 0.0000000000000E+00
 0.0000000000000E+00
 0.0000000000000E+00
 0.0000000000000E+00
 0.0000000000000E+00
 0.0000000000000E+00
 0.0000000000000E+00
 0.0000000000000E+00
 0.0000000000000E+00
 0.0000000000000E+00
 0.0000000000000E+00
 0.0000000000000E+00
 0.0000000000000E+00
 0.0000000000000E+00
 0.0000000000000E+00
 0.0000000000000E+00
 0.0000000000000E+00
 0.0000000000000E+00
 0.0000000000000E+00
 0.0000000000000E+00
 0.0000000000000E+00
 0.0000000000000E+00
 0.0000000000000E+00
 0.0000000000000E+00
 0.0000000000000E+00
 0.0000000000000E+00
 0.0000000000000E+00
 0.0000000000000E+00
 0.0000000000000E+00
 0.0000000000000E+00
 0.0000000000000E+00
 0.0000000000000E+00
 0.0000000000000E+00
 0.0000000000000E+00
 0.0000000000000E+00
 0.0000000000000E+00
 0.0000000000000E+00
 0.0000000000000E+00
 0.0000000000000E+00
 0.0000000000000E+00
 0.0000000000000E+00
 0.0000000000000E+00
 0.0000000000000E+00
 0.0000000000000E+00
 0.0000000000000E+00
 0.0000000000000E+00
 0.0000000000000E+00
 0.0000000000000E+00
 0.0000000000000E+00
 0.0000000000000E+00
 0.0000000000000E+00
 0.0000000000000E+00
 0.0000000000000E+00
 0.0000000000000E+00
 0.0000000000000E+00
 0.0000000000000E+00
 0.0000000000000E+00
 0.0000000000000E+00
 0.0000000000000E+00
 0.0000000000000E+00
 0.0000000000000E+00
 0.0000000000000E+00
 0.0000000000000E+00
 0.0000000000000E+00
 0.0000000000000E+00
 0.0000000000000E+00
 0.0000000000000E+00
 0.0000000000000E+00
 0.0000000000000E+00
 0.0000000000000E+00
 0.0000000000000E+00
 0.0000000000000E+00
 0.0000000000000E+00
 0.0000000000000E+00
 0.0000000000000E+00
 0.0000000000000E+00
 0.0000000000000E+00
 0.0000000000000E+00
 0.0000000000000E+00
 0.0000000000000E+00
 0.0000000000000E+00
 0.0000000000000E+00
 0.0000000000000E+00
 0.0000000000000E+00
 0.0000000000000E+00
 0.0000000000000E+00
 0.0000000000000E+00
 0.0000000000000E+00
 0.0000000000000E+00
 0.0000000000000E+00
 0.0000000000000E+00
 0.0000000000000E+00
 0.0000000000000E+00
 0.0000000000000E+00
 0.0000000000000E+00
 0.0000000000000E+00
 0.0000000000000E+00
 0.0000000000000E+00
 0.0000000000000E+00
 0.0000000000000E+00
 0.0000000000000E+00
 0.0000000000000E+00
 0.0000000000000E+00
 0.0000000000000E+00
 0.0000000000000E+00
 0.0000000000000E+00
 0.0000000000000E+00
 0.0000000000000E+00
 0.0000000000000E+00
 0.0000000000000E+00
 0.0000000000000E+00
 0.0000000000000E+00
 0.0000000000000E+00
 0.0000000000000E+00
 0.0000000000000E+00
 0.0000000000000E+00
 0.0000000000000E+00
 0.0000000000000E+00
 0.0000000000000E+00
 0.0000000000000E+00
 0.0000000000000E+00
 0.0000000000000E+00
 0.0000000000000E+00
 0.0000000000000E+00
 0.0000000000000E+00
 0.0000000000000E+00
 0.0000000000000E+00
 0.0000000000000E+00
 0.0000000000000E+00
 0.0000000000000E+00
 0.0000000000000E+00
 0.0000000000000E+00
 0.0000000000000E+00
 0.0000000000000E+00
 0.0000000000000E+00
 0.0000000000000E+00
 0.0000000000000E+00
 0.0000000000000E+00
 0.0000000000000E+00
 0.0000000000000E+00
 0.0000000000000E+00
 0.0000000000000E+00
 0.0000000000000E+00
 0.0000000000000E+00
 0.0000000000000E+00
 0.0000000000000E+00
 0.0000000000000E+00
 0.0000000000000E+00
 0.0000000000000E+00
 0.0000000000000E+00
 0.0000000000000E+00
 0.0000000000000E+00
 0.0000000000000E+00
 0.0000000000000E+00
 0.0000000000000E+00
 0.0000000000000E+00
 0.0000000000000E+00
 0.0000000000000E+00
 0.0000000000000E+00
 0.0000000000000E+00
 0.0000000000000E+00
 0.0000000000000E+00
 0.0000000000000E+00
 0.0000000000000E+00
 0.0000000000000E+00
 0.0000000000000E+00
 0.0000000000000E+00
 0.0000000000000E+00
 0.0000000000000E+00
 0.0000000000000E+00
 0.0000000000000E+00
 0.0000000000000E+00
 0.0000000000000E+00
 0.0000000000000E+00
 0.0000000000000E+00
 0.0000000000000E+00
 0.0000000000000E+00
 0.0000000000000E+00
 0.0000000000000E+00
 0.0000000000000E+00
 0.0000000000000E+00
 0.0000000000000E+00
 0.0000000000000E+00
 0.0000000000000E+00
 0.0000000000000E+00
 0.0000000000000E+00
 0.0000000000000E+00
 0.0000000000000E+00
 0.0000000000000E+00
 0.0000000000000E+00
 0.0000000000000E+00
 0.0000000000000E+00
 0.0000000000000E+00
 0.0000000000000E+00
 0.0000000000000E+00
 0.0000000000000E+00
 0.0000000000000E+00
 0.0000000000000E+00
 0.0000000000000E+00
 0.0000000000000E+00
 0.0000000000000E+00
 0.0000000000000E+00
 0.0000000000000E+00
 0.0000000000000E+00
 0.0000000000000E+00
 0.0000000000000E+00
 0.0000000000000E+00
 0.0000000000000E+00
 0.0000000000000E+00
 0.0000000000000E+00
 0.0000000000000E+00
 0.0000000000000E+00
 0.0000000000000E+00
 0.0000000000000E+00
 0.0000000000000E+00
 0.0000000000000E+00
 0.0000000000000E+00
 0.0000000000000E+00
 0.0000000000000E+00
 0.0000000000000E+00
 0.0000000000000E+00
 0.0000000000000E+00
 0.0000000000000E+00
 0.0000000000000E+00
 0.0000000000000E+00
 0.0000000000000E+00
 0.0000000000000E+00
 0.0000000000000E+00
 0.0000000000000E+00
 0.0000000000000E+00
 0.0000000000000E+00
 0.0000000000000E+00
 0.0000000000000E+00
 0.0000000000000E+00
 0.0000000000000E+00
 0.0000000000000E+00
 0.0000000000000E+00
 0.0000000000000E+00
 0.0000000000000E+00
 0.0000000000000E+00
 0.0000000000000E+00
 0.0000000000000E+00
 0.0000000000000E+00
 0.0000000000000E+00
 0.0000000000000E+00
 0.0000000000000E+00
 0.0000000000000E+00
 0.0000000000000E+00
 0.0000000000000E+00
 0.0000000000000E+00
 0.0000000000000E+00
 0.0000000000000E+00
 0.0000000000000E+00
 0.0000000000000E+00
 0.0000000000000E+00
 0.0000000000000E+00
 0.0000000000000E+00
 0.0000000000000E+00
 0.0000000000000E+00
 0.0000000000000E+00
 0.0000000000000E+00
 0.0000000000000E+00
 0.0000000000000E+00
 0.0000000000000E+00
 0.0000000000000E+00
 0.0000000000000E+00
 0.0000000000000E+00
 0.0000000000000E+00
 0.0000000000000E+00
 0.0000000000000E+00
 0.0000000000000E+00
 0.0000000000000E+00
 0.0000000000000E+00
 0.0000000000000E+00
 0.0000000000000E+00
 0.0000000000000E+00
 0.0000000000000E+00
 0.0000000000000E+00
 0.0000000000000E+00
 0.0000000000000E+00
 0.0000000000000E+00
 0.0000000000000E+00
 0.0000000000000E+00
 0.0000000000000E+00
 0.0000000000000E+00
 0.0000000000000E+00
 0.0000000000000E+00
 0.0000000000000E+00
 0.0000000000000E+00
 0.0000000000000E+00
 0.0000000000000E+00
 0.0000000000000E+00
 0.0000000000000E+00
 0.0000000000000E+00
 0.0000000000000E+00
 0.0000000000000E+00
 0.0000000000000E+00
 0.0000000000000E+00
 0.0000000000000E+00
 0.0000000000000E+00
 0.0000000000000E+00
 0.0000000000000E+00
 0.0000000000000E+00
 0.0000000000000E+00
 0.0000000000000E+00
 0.0000000000000E+00
 0.0000000000000E+00
 0.0000000000000E+00
 0.0000000000000E+00
 0.0000000000000E+00
 0.0000000000000E+00
 0.0000000000000E+00
 0.0000000000000E+00
 0.0000000000000E+00
 0.0000000000000E+00
 0.0000000000000E+00
 0.0000000000000E+00
 0.0000000000000E+00
 0.0000000000000E+00
 0.0000000000000E+00
 0.0000000000000E+00
 0.0000000000000E+00
 0.0000000000000E+00
 0.0000000000000E+00
 0.0000000000000E+00
 0.0000000000000E+00
 0.0000000000000E+00
 0.0000000000000E+00
 0.0000000000000E+00
 0.0000000000000E+00
 0.0000000000000E+00
 0.0000000000000E+00
 0.0000000000000E+00
 0.0000000000000E+00
 0.0000000000000E+00
 0.0000000000000E+00
 0.0000000000000E+00
 0.0000000000000E+00
 0.0000000000000E+00
 0.0000000000000E+00
 0.0000000000000E+00
 0.0000000000000E+00
 0.0000000000000E+00
 0.0000000000000E+00
 0.0000000000000E+00
 0.0000000000000E+00
 0.0000000000000E+00
 0.0000000000000E+00
 0.0000000000000E+00
 0.0000000000000E+00
 0.0000000000000E+00
 0.0000000000000E+00
 0.0000000000000E+00
 0.0000000000000E+00
 0.0000000000000E+00
 0.0000000000000E+00
 0.0000000000000E+00
 0.0000000000000E+00
 0.0000000000000E+00
 0.0000000000000E+00
 0.0000000000000E+00
 0.0000000000000E+00
 0.0000000000000E+00
 0.0000000000000E+00
 0.0000000000000E+00
 0.0000000000000E+00
 0.0000000000000E+00
 0.0000000000000E+00
 0.0000000000000E+00
 0.0000000000000E+00
 0.0000000000000E+00
 0.0000000000000E+00
 0.0000000000000E+00
 0.0000000000000E+00
 0.0000000000000E+00
 0.0000000000000E+00
 0.0000000000000E+00
 0.0000000000000E+00
 0.0000000000000E+00
 0.0000000000000E+00
 0.0000000000000E+00
 0.0000000000000E+00
 0.0000000000000E+00
 0.0000000000000E+00
 0.0000000000000E+00
 0.0000000000000E+00
</DataArray>
<DataArray type="Int32" Name="Region" format="ascii">
           1
           1
           1
           1
           1
           1
           1
           1
           1
           1
           1
           1
           1
           1
           1
           1
           1
           1
           1
           1
           1
           1
           1
           1
           1
           1
           1
           1
           1
           1
           1
           1
           1
           1
           1
           1
           1
           1
           1
           1
           1
           1
           1
           1
           1
           1
           1
           1
           1
           1
           1
           1
           1
           1
           1
           1
           1
           1
           1
           1
           1
           1
           1
           1
           1
           1
           1
           1
           1
           1
           1
           1
           1
           1
           1
           1
           1
           1
           1
           1
           1
           1
           1
           1
           1
           1
           1
           1
           1
           1
           1
           1
           1
           1
           1
           1
           1
           1
           1
           1
           1
           1
           1
           1
           1
           1
           1
           1
           1
           1
           1
           1
           1
           1
           1
           1
           1
           1
           1
           1
           1
           1
           1
           1
           1
           1
           1
           1
           1
           1
           1
           1
           1
           1
           1
           1
           1
           1
           1
           1
           1
           1
           1
           1
           1
           1
           1
           1
           1
           1
           1
           1
           1
           1
           1
           1
           1
           1
           1
           1
           1
           1
           1
           1
           1
           1
           1
           1
           1
           1
           1
           1
           1
           1
           1
           1
           1
           1
           1
           1
           1
           1
           1
           1
           1
           1
           1
           1
           1
           1
           1
           1
           1
           1
           1
           1
           1
           1
           1
           1
           1
           1
           1
           1
           1
           1
           1
           1
           1
           1
           1
           1
           1
           1
           1
           1
           1
           1
           1
           1
           1
           1
           1
           1
           1
           1
           1
           1
           1
           1
           1
           1
           1
           1
           1
           1
           1
           1
           1
           1
           1
           1
           1
           1
           1
           1
           1
           1
           1
           1
           1
           1
           1
           1
           1
           1
           1
           1
           1
           1
           1
           1
           1
           1
           1
           1
           1
           1
           1
           1
           1
           1
           1
           1
           1
           1
           1
           1
           1
           1
           1
           1
           1
           1
           1
           1
           1
           1
           1
           1
           1
           1
           1
           1
           1
           1
           1
           1
           1
           1
           1
           1
           1
           1
           1
           1
           1
           1
           1
           1
           1
           1
           1
           1
           1
           1
           1
           1
           1
           1
           1
           1
           1
           1
           1
           1
           1
           1
           1
           1
           1
           1
           1
           1
           1
           1
           1
           1
           1
           1
           1
           1
           1
           1
           1
           1
           1
           1
           1
           1
           1
           1
           1
           1
           1
           1
           1
           1
           1
           1
           1
           1
           1
           1
           1
           1
           1
           1
           1
           1
           1
           1
           1
           1
           1
           1
           1
           1
           1
           1
           1
           1
           1
           1
           1
           1
           1
           1
           1
           1
           1
           1
           1
           1
           1
           1
           1
           1
           1
           1
           1
           1
           1
           1
           1
           1
           1
           1
           1
           1
           1
           1
           1
           1
           1
           1
           1
           1
           1
           1
           1
           1
           1
           1
           1
           1
           1
           1
           1
           1
           1
           1
           1
           1
           1
           1
           1
           1
           1
           1
           1
           1
           1
           1
           1
           1
           1
           1
           1
           1
           1
           1
           1
           1
           1
           1
           1
           1
           1
           1
           1
           1
           1
           1
           1
           1
           1
           1
           1
           1
           1
           1
           1
           1
           1
           1
           1
           1
           1
           1
           1
           1
           1
           1
           1
           1
           1
           1
           1
           1
           1
           1
           1
           1
           1
           1
           1
           1
           1
           1
           1
           1
           1
           1
           1
           1
           1
           1
           1
           1
           1
           1
           1
           1
           1
           1
           1
           1
           1
           1
           1
           1
           1
           1
           1
           1
           1
           1
           1
           1
           1
           1
           1
           1
           1
           1
           1
           1
           1
           1
           1
           1
           1
           1
           1
           1
           1
           1
           1
           1
           1
           1
           1
           1
           1
           1
           1
           1
           1
           1
           1
           1
           1
           1
           1
           1
           1
           1
           1
           1
           1
           1
           1
           1
           1
           1
           1
           1
           1
           1
           1
           1
           1
           1
           1
           1
           1
           1
           1
           1
           1
           1
           1
           1
           1
           1
           1
           1
           1
           1
           1
           1
           1
           1
           1
           1
           1
           1
           1
           1
           1
           1
           1
           1
           1
           1
           1
           1
           1
           1
           1
           1
           1
           1
           1
           1
           1
           1
           1
           1
           1
           1
           1
           1
           1
           1
           1
           1
           1
           1
           1
           1
           1
           1
           1
           1
           1
           1
           1
           1
           1
           1
           1
           1
           1
           1
           1
           1
           1
           1
           1
           1
           1
           1
           1
           1
           1
           1
           1
           1
           1
           1
           1
           1
           1
           1
           1
           1
           1
           1
           1
           1
           1
           1
           1
           1
           1
           1
           1
           1
           1
           1
           1
           1
           1
           1
           1
           1
           1
           1
           1
           1
           1
           1
           1
           1
           1
           1
           1
           1
           1
           1
           1
           1
           1
           1
           1
           1
           1
           1
           1
           1
           1
           1
           1
           1
           1
           1
           1
           1
           1
           1
           1
           1
           1
           1
           1
           1
           1
           1
           1
           1
           1
           1
           1
           1
           1
           1
           1
           1
           1
           1
           1
           1
           1
           1
           1
           1
           1
           1
           1
           1
           1
           1
           1
           1
           1
           1
           1
           1
           1
           1
           1
           1
           1
           1
           1
           1
           1
           1
           1
           1
           1
           1
           1
           1
           1
           1
           1
           1
           1
           1
           1
           1
           1
           1
           1
           1
           1
           1
           1
           1
           1
           1
           1
           1
           1
           1
           1
           1
           1
           1
           1
           1
           1
           1
           1
           1
           1
           1
           1
           1
           1
           1
           1
           1
           1
           1
           1
           1
           1
           1
           1
           1
           1
           1
           1
           1
           1
           1
           2
           2
           2
           2
           2
           2
           2
           2
           2
           2
           2
           2
           2
           2
           2
           2
           2
           2
           2
           2
           2
           2
           2
           2
           2
           2
           2
           2
           2
           2
           2
           2
           2
           2
           2
           2
           2
           2
           2
           2
           2
           2
           2
           2
           2
           2
           2
           2
           2
           2
           2
           2
           2
           2
           2
           2
           2
           2
           2
           2
           2
           2
           2
           2
           2
           2
           2
           2
           2
           2
           2
           2
           2
           2
           2
           2
           2
           2
           2
           2
           2
           2
           2
           2
           2
           2
           2
           2
           2
           2
           2
           2
           2
           2
           2
           2
           2
           2
           2
           2
           2
           2
           2
           2
           2
           2
           2
           2
           2
           2
           2
           2
           2
           2
           2
           2
           2
           2
           2
           2
           2
           2
           2
           2
           2
           2
           2
           2
           2
           2
           2
           2
           2
           2
           2
           2
           2
           2
           2
           2
           2
           2
           2
           2
           2
           2
           2
           2
           2
           2
           2
           2
           2
           2
           2
           2
           2
           2
           2
           2
           2
           2
           2
           2
           2
           2
           2
           2
           2
           2
           2
           2
           2
           2
           2
           2
           2
           2
           2
           2
           2
           2
           2
           2
           2
           2
           2
           2
           2
           2
           2
           2
           2
           2
           2
           2
           2
           2
           2
           2
           2
           2
           2
           2
           2
           2
           2
           2
           2
           2
           2
           2
           2
           2
           2
           2
           2
           2
           2
           2
           2
           2
           2
           2
           2
           2
           2
           2
           2
           2
           2
           2
           2
           2
           2
           2
           2
           2
           2
           2
           2
           2
           2
           2
           2
           2
           2
           2
           2
           2
           2
           2
           2
           2
           2
           2
           2
           2
           2
           2
           2
           2
           2
           2
           2
           2
           2
           2
           2
           2
           2
           2
           2
           2
           2
           2
           2
           2
           2
           2
           2
           2
           2
           2
           2
           2
           2
           2
           2
           2
           2
           2
           2
           2
           2
           2
           2
           2
           2
           2
           2
           2
           2
           2
           2
           2
           2
           2
           2
           2
           2
           2
           2
           2
           2
           2
           2
           2
           2
           2
           2
           2
           2
           2
           2
           2
           2
           2
           2
           2
           2
           2
           2
           2
           2
           2
           2
           2
           2
           2
           2
           2
           2
           2
           2
           2
           2
           2
           2
           2
           2
           2
           2
           2
           2
           2
           2
           2
           2
           2
           2
           2
           2
           2
           2
           2
           2
           2
           2
           2
           2
           2
           2
           2
           2
           2
           2
           2
           2
           2
           2
           2
           2
           2
           2
           2
           2
           2
           2
           2
           2
           2
           2
           2
           2
           2
           2
           2
           2
           2
           2
           2
           2
           2
           2
           2
           2
           2
           2
           2
           2
           2
           2
           2
           2
           2
           2
           2
           2
           2
           2
           2
           2
           2
           2
           2
           2
           2
           2
           2
           2
           2
           2
           2
           2
           2
           2
           2
           2
           2
           2
           2
           2
           2
           2
           2
           2
           2
           2
           2
           2
           2
           2
           2
           2
           2
           2
           2
           2
           2
           2
           2
           2
           2
           2
           2
           2
           2
           2
           2
           2
           2
           2
           2
           2
           2
           2
           2
           2
           2
           2
           2
           2
           2
           2
           2
           2
           2
           2
           2
           2
           2
           2
           2
           2
           2
           2
           2
           2
           2
           2
           2
           2
           2
           2
           2
           2
           2
           2
           2
           2
           2
           2
           2
           2
           2
           2
           2
           2
           2
           2
           2
           2
           2
           2
           2
           2
           2
           2
           2
           2
           2
           2
           2
           2
           2
           2
           2
           2
           2
           2
           2
           2
           2
           2
           2
           2
           2
           2
           2
           2
           2
           2
           2
           2
           2
           2
           2
           2
           2
           2
           2
           2
           2
           2
           2
           2
           2
           2
           2
           2
           2
           2
           2
           2
           2
           2
           2
           2
           2
           2
           2
           2
           2
           2
           2
           2
           2
           2
           2
           2
           2
           2
           2
           2
           2
           2
           2
           2
           2
</DataArray>
</CellData>
</Piece>
</UnstructuredGrid>
</VTKFile>
