<VTKFile type="UnstructuredGrid" version="1,0" byte_order="LittleEndian">
<UnstructuredGrid>
<Piece NumberOfPoints="5802" NumberOfCells="5680">
<Points>
<DataArray type="Float64" NumberOfComponents="3" format="ascii">
-0.1100000000000E+01 -0.4731587125634E+01  0.0000000000000E+00
 0.0000000000000E+00 -0.4731587125634E+01  0.0000000000000E+00
 0.1100000000000E+01 -0.4731587125634E+01  0.0000000000000E+00
-0.1191315091097E+01 -0.1825930012610E+01  0.0000000000000E+00
-0.5956575398395E+00 -0.1755172846926E+01  0.0000000000000E+00
 0.5956575512579E+00 -0.1755172847830E+01  0.0000000000000E+00
 0.1191315091097E+01 -0.1825930012610E+01  0.0000000000000E+00
-0.1487255332335E+01  0.3711246317436E+00  0.0000000000000E+00
 0.1487255329206E+01  0.3711246337271E+00  0.0000000000000E+00
-0.6187500000000E+00 -0.4973806884503E+00  0.0000000000000E+00
 0.6187500000000E+00 -0.4973806884503E+00  0.0000000000000E+00
-0.1072500000000E+01 -0.4731587125634E+01  0.0000000000000E+00
-0.1045000000000E+01 -0.4731587125634E+01  0.0000000000000E+00
-0.1017500000000E+01 -0.4731587125634E+01  0.0000000000000E+00
-0.9900000000000E+00 -0.4731587125634E+01  0.0000000000000E+00
-0.9625000000000E+00 -0.4731587125634E+01  0.0000000000000E+00
-0.9350000000000E+00 -0.4731587125634E+01  0.0000000000000E+00
-0.9075000000000E+00 -0.4731587125634E+01  0.0000000000000E+00
-0.8800000000000E+00 -0.4731587125634E+01  0.0000000000000E+00
-0.8525000000000E+00 -0.4731587125634E+01  0.0000000000000E+00
-0.8250000000000E+00 -0.4731587125634E+01  0.0000000000000E+00
-0.7975000000000E+00 -0.4731587125634E+01  0.0000000000000E+00
-0.7700000000000E+00 -0.4731587125634E+01  0.0000000000000E+00
-0.7425000000000E+00 -0.4731587125634E+01  0.0000000000000E+00
-0.7150000000000E+00 -0.4731587125634E+01  0.0000000000000E+00
-0.6875000000000E+00 -0.4731587125634E+01  0.0000000000000E+00
-0.6600000000000E+00 -0.4731587125634E+01  0.0000000000000E+00
-0.6325000000000E+00 -0.4731587125634E+01  0.0000000000000E+00
-0.6050000000000E+00 -0.4731587125634E+01  0.0000000000000E+00
-0.5775000000000E+00 -0.4731587125634E+01  0.0000000000000E+00
-0.5500000000000E+00 -0.4731587125634E+01  0.0000000000000E+00
-0.5225000000000E+00 -0.4731587125634E+01  0.0000000000000E+00
-0.4950000000000E+00 -0.4731587125634E+01  0.0000000000000E+00
-0.4675000000000E+00 -0.4731587125634E+01  0.0000000000000E+00
-0.4400000000000E+00 -0.4731587125634E+01  0.0000000000000E+00
-0.4125000000000E+00 -0.4731587125634E+01  0.0000000000000E+00
-0.3850000000000E+00 -0.4731587125634E+01  0.0000000000000E+00
-0.3575000000000E+00 -0.4731587125634E+01  0.0000000000000E+00
-0.3300000000000E+00 -0.4731587125634E+01  0.0000000000000E+00
-0.3025000000000E+00 -0.4731587125634E+01  0.0000000000000E+00
-0.2750000000000E+00 -0.4731587125634E+01  0.0000000000000E+00
-0.2475000000000E+00 -0.4731587125634E+01  0.0000000000000E+00
-0.2200000000000E+00 -0.4731587125634E+01  0.0000000000000E+00
-0.1925000000000E+00 -0.4731587125634E+01  0.0000000000000E+00
-0.1650000000000E+00 -0.4731587125634E+01  0.0000000000000E+00
-0.1375000000000E+00 -0.4731587125634E+01  0.0000000000000E+00
-0.1100000000000E+00 -0.4731587125634E+01  0.0000000000000E+00
-0.8250000000000E-01 -0.4731587125634E+01  0.0000000000000E+00
-0.5500000000000E-01 -0.4731587125634E+01  0.0000000000000E+00
-0.2750000000000E-01 -0.4731587125634E+01  0.0000000000000E+00
 0.2750000000000E-01 -0.4731587125634E+01  0.0000000000000E+00
 0.5500000000000E-01 -0.4731587125634E+01  0.0000000000000E+00
 0.8250000000000E-01 -0.4731587125634E+01  0.0000000000000E+00
 0.1100000000000E+00 -0.4731587125634E+01  0.0000000000000E+00
 0.1375000000000E+00 -0.4731587125634E+01  0.0000000000000E+00
 0.1650000000000E+00 -0.4731587125634E+01  0.0000000000000E+00
 0.1925000000000E+00 -0.4731587125634E+01  0.0000000000000E+00
 0.2200000000000E+00 -0.4731587125634E+01  0.0000000000000E+00
 0.2475000000000E+00 -0.4731587125634E+01  0.0000000000000E+00
 0.2750000000000E+00 -0.4731587125634E+01  0.0000000000000E+00
 0.3025000000000E+00 -0.4731587125634E+01  0.0000000000000E+00
 0.3300000000000E+00 -0.4731587125634E+01  0.0000000000000E+00
 0.3575000000000E+00 -0.4731587125634E+01  0.0000000000000E+00
 0.3850000000000E+00 -0.4731587125634E+01  0.0000000000000E+00
 0.4125000000000E+00 -0.4731587125634E+01  0.0000000000000E+00
 0.4400000000000E+00 -0.4731587125634E+01  0.0000000000000E+00
 0.4675000000000E+00 -0.4731587125634E+01  0.0000000000000E+00
 0.4950000000000E+00 -0.4731587125634E+01  0.0000000000000E+00
 0.5225000000000E+00 -0.4731587125634E+01  0.0000000000000E+00
 0.5500000000000E+00 -0.4731587125634E+01  0.0000000000000E+00
 0.5775000000000E+00 -0.4731587125634E+01  0.0000000000000E+00
 0.6050000000000E+00 -0.4731587125634E+01  0.0000000000000E+00
 0.6325000000000E+00 -0.4731587125634E+01  0.0000000000000E+00
 0.6600000000000E+00 -0.4731587125634E+01  0.0000000000000E+00
 0.6875000000000E+00 -0.4731587125634E+01  0.0000000000000E+00
 0.7150000000000E+00 -0.4731587125634E+01  0.0000000000000E+00
 0.7425000000000E+00 -0.4731587125634E+01  0.0000000000000E+00
 0.7700000000000E+00 -0.4731587125634E+01  0.0000000000000E+00
 0.7975000000000E+00 -0.4731587125634E+01  0.0000000000000E+00
 0.8250000000000E+00 -0.4731587125634E+01  0.0000000000000E+00
 0.8525000000000E+00 -0.4731587125634E+01  0.0000000000000E+00
 0.8800000000000E+00 -0.4731587125634E+01  0.0000000000000E+00
 0.9075000000000E+00 -0.4731587125634E+01  0.0000000000000E+00
 0.9350000000000E+00 -0.4731587125634E+01  0.0000000000000E+00
 0.9625000000000E+00 -0.4731587125634E+01  0.0000000000000E+00
 0.9900000000000E+00 -0.4731587125634E+01  0.0000000000000E+00
 0.1017500000000E+01 -0.4731587125634E+01  0.0000000000000E+00
 0.1045000000000E+01 -0.4731587125634E+01  0.0000000000000E+00
 0.1072500000000E+01 -0.4731587125634E+01  0.0000000000000E+00
-0.1161675590434E+01 -0.1821293974842E+01  0.0000000000000E+00
-0.1132018469080E+01 -0.1816772081031E+01  0.0000000000000E+00
-0.1102344135527E+01 -0.1812364599475E+01  0.0000000000000E+00
-0.1072653001422E+01 -0.1808071792594E+01  0.0000000000000E+00
-0.1042945459471E+01 -0.1803893913795E+01  0.0000000000000E+00
-0.1013221952450E+01 -0.1799831217138E+01  0.0000000000000E+00
-0.9834829017084E+00 -0.1795883946982E+01  0.0000000000000E+00
-0.9537287316532E+00 -0.1792052341512E+01  0.0000000000000E+00
-0.9239598612408E+00 -0.1788336631619E+01  0.0000000000000E+00
-0.8941767210493E+00 -0.1784737043031E+01  0.0000000000000E+00
-0.8643797539566E+00 -0.1781253796152E+01  0.0000000000000E+00
-0.8345693957871E+00 -0.1777887103664E+01  0.0000000000000E+00
-0.8047460850418E+00 -0.1774637171701E+01  0.0000000000000E+00
-0.7749102599775E+00 -0.1771504199483E+01  0.0000000000000E+00
-0.7450623578572E+00 -0.1768488379244E+01  0.0000000000000E+00
-0.7152028352234E+00 -0.1765589898169E+01  0.0000000000000E+00
-0.6853321404180E+00 -0.1762808935500E+01  0.0000000000000E+00
-0.6554507240472E+00 -0.1760145663610E+01  0.0000000000000E+00
-0.6255590388957E+00 -0.1757600247935E+01  0.0000000000000E+00
-0.5659320403842E+00 -0.1752877555980E+01  0.0000000000000E+00
-0.5361977827764E+00 -0.1750699115345E+01  0.0000000000000E+00
-0.5064551822954E+00 -0.1748637656849E+01  0.0000000000000E+00
-0.4767046834532E+00 -0.1746693307634E+01  0.0000000000000E+00
-0.4469467825907E+00 -0.1744866190914E+01  0.0000000000000E+00
-0.4171818756954E+00 -0.1743156416506E+01  0.0000000000000E+00
-0.3874104734057E+00 -0.1741564093885E+01  0.0000000000000E+00
-0.3576330176963E+00 -0.1740089321191E+01  0.0000000000000E+00
-0.3278499563594E+00 -0.1738732189839E+01  0.0000000000000E+00
-0.2980617833702E+00 -0.1737492785992E+01  0.0000000000000E+00
-0.2682689204519E+00 -0.1736371185422E+01  0.0000000000000E+00
-0.2384718656336E+00 -0.1735367459648E+01  0.0000000000000E+00
-0.2086710716336E+00 -0.1734481671049E+01  0.0000000000000E+00
-0.1788669979735E+00 -0.1733713874997E+01  0.0000000000000E+00
-0.1490601279746E+00 -0.1733064120054E+01  0.0000000000000E+00
-0.1192509059245E+00 -0.1732532446511E+01  0.0000000000000E+00
-0.8943981808141E-01 -0.1732118888112E+01  0.0000000000000E+00
-0.5962732433722E-01 -0.1731823470688E+01  0.0000000000000E+00
-0.2981389296327E-01 -0.1731646212812E+01  0.0000000000000E+00
 0.5727055524263E-08 -0.1731587125634E+01  0.0000000000000E+00
 0.2981390441730E-01 -0.1731646212857E+01  0.0000000000000E+00
 0.5962733579097E-01 -0.1731823470779E+01  0.0000000000000E+00
 0.8943982953471E-01 -0.1732118888248E+01  0.0000000000000E+00
 0.1192509173772E+00 -0.1732532446692E+01  0.0000000000000E+00
 0.1490601394265E+00 -0.1733064120281E+01  0.0000000000000E+00
 0.1788670094244E+00 -0.1733713875269E+01  0.0000000000000E+00
 0.2086710830833E+00 -0.1734481671367E+01  0.0000000000000E+00
 0.2384718770819E+00 -0.1735367460011E+01  0.0000000000000E+00
 0.2682689318987E+00 -0.1736371185830E+01  0.0000000000000E+00
 0.2980617948153E+00 -0.1737492786445E+01  0.0000000000000E+00
 0.3278499678026E+00 -0.1738732190338E+01  0.0000000000000E+00
 0.3576330291375E+00 -0.1740089321735E+01  0.0000000000000E+00
 0.3874104848446E+00 -0.1741564094474E+01  0.0000000000000E+00
 0.4171818871319E+00 -0.1743156417141E+01  0.0000000000000E+00
 0.4469467940246E+00 -0.1744866191594E+01  0.0000000000000E+00
 0.4767046948843E+00 -0.1746693308359E+01  0.0000000000000E+00
 0.5064551937236E+00 -0.1748637657619E+01  0.0000000000000E+00
 0.5361977942015E+00 -0.1750699116160E+01  0.0000000000000E+00
 0.5659320518060E+00 -0.1752877556840E+01  0.0000000000000E+00
 0.6255590497397E+00 -0.1757600248837E+01  0.0000000000000E+00
 0.6554507343169E+00 -0.1760145664505E+01  0.0000000000000E+00
 0.6853321501138E+00 -0.1762808936384E+01  0.0000000000000E+00
 0.7152028443456E+00 -0.1765589899036E+01  0.0000000000000E+00
 0.7450623664059E+00 -0.1768488380091E+01  0.0000000000000E+00
 0.7749102679531E+00 -0.1771504200305E+01  0.0000000000000E+00
 0.8047460924447E+00 -0.1774637172493E+01  0.0000000000000E+00
 0.8345694026177E+00 -0.1777887104422E+01  0.0000000000000E+00
 0.8643797602152E+00 -0.1781253796871E+01  0.0000000000000E+00
 0.8941767267363E+00 -0.1784737043707E+01  0.0000000000000E+00
 0.9239598663567E+00 -0.1788336632248E+01  0.0000000000000E+00
 0.9537287361985E+00 -0.1792052342089E+01  0.0000000000000E+00
 0.9834829056835E+00 -0.1795883947502E+01  0.0000000000000E+00
 0.1013221955855E+01 -0.1799831217596E+01  0.0000000000000E+00
 0.1042945462307E+01 -0.1803893914188E+01  0.0000000000000E+00
 0.1072653003690E+01 -0.1808071792917E+01  0.0000000000000E+00
 0.1102344137227E+01 -0.1812364599724E+01  0.0000000000000E+00
 0.1132018470213E+01 -0.1816772081202E+01  0.0000000000000E+00
 0.1161675591000E+01 -0.1821293974929E+01  0.0000000000000E+00
-0.1213355268613E+01 -0.1711966308233E+01  0.0000000000000E+00
-0.1238854526170E+01 -0.1598727811073E+01  0.0000000000000E+00
-0.1268466688037E+01 -0.1486497481512E+01  0.0000000000000E+00
-0.1303342965295E+01 -0.1375796643044E+01  0.0000000000000E+00
-0.1345040310075E+01 -0.1267489592785E+01  0.0000000000000E+00
-0.1392581470401E+01 -0.1161597043208E+01  0.0000000000000E+00
-0.1439083524730E+01 -0.1055246799568E+01  0.0000000000000E+00
-0.1480944100518E+01 -0.9469891138312E+00  0.0000000000000E+00
-0.1518131836329E+01 -0.8370360644333E+00  0.0000000000000E+00
-0.1551041415331E+01 -0.7257267337723E+00  0.0000000000000E+00
-0.1579720048034E+01 -0.6132533876738E+00  0.0000000000000E+00
-0.1603836412081E+01 -0.4997150980206E+00  0.0000000000000E+00
-0.1623384157755E+01 -0.3853015140723E+00  0.0000000000000E+00
-0.1638101487121E+01 -0.2701686503839E+00  0.0000000000000E+00
-0.1647164985397E+01 -0.1544579176162E+00  0.0000000000000E+00
-0.1649971232607E+01 -0.3842453929912E-01  0.0000000000000E+00
-0.1647980696334E+01  0.7761284988695E-01  0.0000000000000E+00
-0.1626874369891E+01  0.1914362508587E+00  0.0000000000000E+00
-0.1572796829836E+01  0.2935193328390E+00  0.0000000000000E+00
-0.1418305908641E+01  0.4022416062919E+00  0.0000000000000E+00
-0.1345676864211E+01  0.4236315892164E+00  0.0000000000000E+00
-0.1271121572232E+01  0.4368480112286E+00  0.0000000000000E+00
-0.1195563418735E+01  0.4416990799735E+00  0.0000000000000E+00
-0.1119906317278E+01  0.4384406277265E+00  0.0000000000000E+00
-0.1044756289719E+01  0.4290110284082E+00  0.0000000000000E+00
-0.9703274447726E+00  0.4149459401020E+00  0.0000000000000E+00
-0.8965853652262E+00  0.3976148229097E+00  0.0000000000000E+00
-0.8232882160705E+00  0.3784769972153E+00  0.0000000000000E+00
-0.7500778072402E+00  0.3590082550316E+00  0.0000000000000E+00
-0.6765282087393E+00  0.3408715871599E+00  0.0000000000000E+00
-0.6024721689929E+00  0.3249314759684E+00  0.0000000000000E+00
-0.5279626734789E+00  0.3112660660816E+00  0.0000000000000E+00
-0.4530942500529E+00  0.2997252351383E+00  0.0000000000000E+00
-0.3779502175627E+00  0.2901382908398E+00  0.0000000000000E+00
-0.3025960047097E+00  0.2823699994777E+00  0.0000000000000E+00
-0.2270833670538E+00  0.2763314545000E+00  0.0000000000000E+00
-0.1514548639988E+00  0.2719804032214E+00  0.0000000000000E+00
-0.7574795049362E-01  0.2693218404769E+00  0.0000000000000E+00
-0.1822076423075E-08  0.2684128743665E+00  0.0000000000000E+00
 0.7574794685078E-01  0.2693218403904E+00  0.0000000000000E+00
 0.1514548603582E+00  0.2719804030525E+00  0.0000000000000E+00
 0.2270833634172E+00  0.2763314542500E+00  0.0000000000000E+00
 0.3025960010827E+00  0.2823699991460E+00  0.0000000000000E+00
 0.3779502139414E+00  0.2901382904224E+00  0.0000000000000E+00
 0.4530942464462E+00  0.2997252346305E+00  0.0000000000000E+00
 0.5279626698826E+00  0.3112660654745E+00  0.0000000000000E+00
 0.6024721654224E+00  0.3249314752557E+00  0.0000000000000E+00
 0.6765282051910E+00  0.3408715863362E+00  0.0000000000000E+00
 0.7500778037128E+00  0.3590082541141E+00  0.0000000000000E+00
 0.8232882125500E+00  0.3784769962749E+00  0.0000000000000E+00
 0.8965853616918E+00  0.3976148220208E+00  0.0000000000000E+00
 0.9703274412081E+00  0.4149459393403E+00  0.0000000000000E+00
 0.1044756286115E+01  0.4290110278460E+00  0.0000000000000E+00
 0.1119906313643E+01  0.4384406274322E+00  0.0000000000000E+00
 0.1195563415086E+01  0.4416990800252E+00  0.0000000000000E+00
 0.1271121568610E+01  0.4368480116963E+00  0.0000000000000E+00
 0.1345676860666E+01  0.4236315901228E+00  0.0000000000000E+00
 0.1418305905243E+01  0.4022416076848E+00  0.0000000000000E+00
 0.1572796827692E+01  0.2935193356292E+00  0.0000000000000E+00
 0.1626874368892E+01  0.1914362540528E+00  0.0000000000000E+00
 0.1647980696148E+01  0.7761285305478E-01  0.0000000000000E+00
 0.1649971232614E+01 -0.3842453631130E-01  0.0000000000000E+00
 0.1647164985510E+01 -0.1544579148168E+00  0.0000000000000E+00
 0.1638101487343E+01 -0.2701686477783E+00  0.0000000000000E+00
 0.1623384158054E+01 -0.3853015116666E+00  0.0000000000000E+00
 0.1603836412438E+01 -0.4997150958130E+00  0.0000000000000E+00
 0.1579720048441E+01 -0.6132533856674E+00  0.0000000000000E+00
 0.1551041415774E+01 -0.7257267319674E+00  0.0000000000000E+00
 0.1518131836796E+01 -0.8370360628288E+00  0.0000000000000E+00
 0.1480944100999E+01 -0.9469891124298E+00  0.0000000000000E+00
 0.1439083525216E+01 -0.1055246798366E+01  0.0000000000000E+00
 0.1392581470861E+01 -0.1161597042198E+01  0.0000000000000E+00
 0.1345040310428E+01 -0.1267489591933E+01  0.0000000000000E+00
 0.1303342965506E+01 -0.1375796642335E+01  0.0000000000000E+00
 0.1268466688140E+01 -0.1486497480965E+01  0.0000000000000E+00
 0.1238854526204E+01 -0.1598727810699E+01  0.0000000000000E+00
 0.1213355268613E+01 -0.1711966308043E+01  0.0000000000000E+00
-0.1100000000000E+01 -0.4660595750534E+01  0.0000000000000E+00
-0.1100000000000E+01 -0.4589604523337E+01  0.0000000000000E+00
-0.1100000000000E+01 -0.4518612860194E+01  0.0000000000000E+00
-0.1100000000000E+01 -0.4447621396074E+01  0.0000000000000E+00
-0.1100000000000E+01 -0.4376629946073E+01  0.0000000000000E+00
-0.1100000000000E+01 -0.4305638469395E+01  0.0000000000000E+00
-0.1100000000000E+01 -0.4234647034675E+01  0.0000000000000E+00
-0.1100000000000E+01 -0.4163655573930E+01  0.0000000000000E+00
-0.1100000000000E+01 -0.4092664118400E+01  0.0000000000000E+00
-0.1100000000000E+01 -0.4021672670707E+01  0.0000000000000E+00
-0.1100000000000E+01 -0.3950681208157E+01  0.0000000000000E+00
-0.1100000000000E+01 -0.3879689768887E+01  0.0000000000000E+00
-0.1100000000000E+01 -0.3808698298634E+01  0.0000000000000E+00
-0.1100000000000E+01 -0.3737706770464E+01  0.0000000000000E+00
-0.1100000000000E+01 -0.3666715262498E+01  0.0000000000000E+00
-0.1100000000000E+01 -0.3595723839456E+01  0.0000000000000E+00
-0.1100000000000E+01 -0.3524731789668E+01  0.0000000000000E+00
-0.1100000000000E+01 -0.3453740926047E+01  0.0000000000000E+00
-0.1100000000000E+01 -0.3382749460249E+01  0.0000000000000E+00
-0.1100000000000E+01 -0.3311758072240E+01  0.0000000000000E+00
-0.1100000000000E+01 -0.3240766774652E+01  0.0000000000000E+00
-0.1100000000000E+01 -0.3169775441240E+01  0.0000000000000E+00
-0.1100000000000E+01 -0.3098784076079E+01  0.0000000000000E+00
-0.1100019380481E+01 -0.3027792649889E+01  0.0000000000000E+00
-0.1100182969515E+01 -0.2956801452749E+01  0.0000000000000E+00
-0.1100664097718E+01 -0.2885811820573E+01  0.0000000000000E+00
-0.1101620767933E+01 -0.2814827030427E+01  0.0000000000000E+00
-0.1103169283693E+01 -0.2743852764288E+01  0.0000000000000E+00
-0.1105384238767E+01 -0.2672896168192E+01  0.0000000000000E+00
-0.1108313328915E+01 -0.2601965572023E+01  0.0000000000000E+00
-0.1111994457710E+01 -0.2531069964563E+01  0.0000000000000E+00
-0.1116470504631E+01 -0.2460220060781E+01  0.0000000000000E+00
-0.1121800458045E+01 -0.2389429442476E+01  0.0000000000000E+00
-0.1127980999498E+01 -0.2318707927775E+01  0.0000000000000E+00
-0.1134925652832E+01 -0.2248057274554E+01  0.0000000000000E+00
-0.1142572685777E+01 -0.2177479159635E+01  0.0000000000000E+00
-0.1150886195216E+01 -0.2106976362838E+01  0.0000000000000E+00
-0.1159854464778E+01 -0.2036553785977E+01  0.0000000000000E+00
-0.1169495475345E+01 -0.1966220321347E+01  0.0000000000000E+00
-0.1179881536539E+01 -0.1895993177716E+01  0.0000000000000E+00
 0.1179881536541E+01 -0.1895993177715E+01  0.0000000000000E+00
 0.1169495475345E+01 -0.1966220321347E+01  0.0000000000000E+00
 0.1159854464777E+01 -0.2036553785977E+01  0.0000000000000E+00
 0.1150886195214E+01 -0.2106976362838E+01  0.0000000000000E+00
 0.1142572685775E+01 -0.2177479159635E+01  0.0000000000000E+00
 0.1134925652830E+01 -0.2248057274554E+01  0.0000000000000E+00
 0.1127980999496E+01 -0.2318707927775E+01  0.0000000000000E+00
 0.1121800458043E+01 -0.2389429442476E+01  0.0000000000000E+00
 0.1116470504629E+01 -0.2460220060781E+01  0.0000000000000E+00
 0.1111994457707E+01 -0.2531069964563E+01  0.0000000000000E+00
 0.1108313328912E+01 -0.2601965572023E+01  0.0000000000000E+00
 0.1105384238765E+01 -0.2672896168191E+01  0.0000000000000E+00
 0.1103169283691E+01 -0.2743852764287E+01  0.0000000000000E+00
 0.1101620767933E+01 -0.2814827030427E+01  0.0000000000000E+00
 0.1100664097717E+01 -0.2885811820573E+01  0.0000000000000E+00
 0.1100182969515E+01 -0.2956801452748E+01  0.0000000000000E+00
 0.1100019380481E+01 -0.3027792649889E+01  0.0000000000000E+00
 0.1100000000000E+01 -0.3098784076079E+01  0.0000000000000E+00
 0.1100000000000E+01 -0.3169775441240E+01  0.0000000000000E+00
 0.1100000000000E+01 -0.3240766774652E+01  0.0000000000000E+00
 0.1100000000000E+01 -0.3311758072240E+01  0.0000000000000E+00
 0.1100000000000E+01 -0.3382749460249E+01  0.0000000000000E+00
 0.1100000000000E+01 -0.3453740926047E+01  0.0000000000000E+00
 0.1100000000000E+01 -0.3524731789668E+01  0.0000000000000E+00
 0.1100000000000E+01 -0.3595723839456E+01  0.0000000000000E+00
 0.1100000000000E+01 -0.3666715262498E+01  0.0000000000000E+00
 0.1100000000000E+01 -0.3737706770464E+01  0.0000000000000E+00
 0.1100000000000E+01 -0.3808698298633E+01  0.0000000000000E+00
 0.1100000000000E+01 -0.3879689768887E+01  0.0000000000000E+00
 0.1100000000000E+01 -0.3950681208157E+01  0.0000000000000E+00
 0.1100000000000E+01 -0.4021672670707E+01  0.0000000000000E+00
 0.1100000000000E+01 -0.4092664118399E+01  0.0000000000000E+00
 0.1100000000000E+01 -0.4163655573930E+01  0.0000000000000E+00
 0.1100000000000E+01 -0.4234647034675E+01  0.0000000000000E+00
 0.1100000000000E+01 -0.4305638469395E+01  0.0000000000000E+00
 0.1100000000000E+01 -0.4376629946073E+01  0.0000000000000E+00
 0.1100000000000E+01 -0.4447621396074E+01  0.0000000000000E+00
 0.1100000000000E+01 -0.4518612860194E+01  0.0000000000000E+00
 0.1100000000000E+01 -0.4589604523337E+01  0.0000000000000E+00
 0.1100000000000E+01 -0.4660595750534E+01  0.0000000000000E+00
-0.5884638695905E+00 -0.4894641513885E+00  0.0000000000000E+00
-0.5580825246164E+00 -0.4819218154218E+00  0.0000000000000E+00
-0.5276095633171E+00 -0.4747582607812E+00  0.0000000000000E+00
-0.4970490688930E+00 -0.4679779933456E+00  0.0000000000000E+00
-0.4664052113280E+00 -0.4615853306416E+00  0.0000000000000E+00
-0.4356821841498E+00 -0.4555843826271E+00  0.0000000000000E+00
-0.4048845338533E+00 -0.4499791064130E+00  0.0000000000000E+00
-0.3740168397343E+00 -0.4447732294152E+00  0.0000000000000E+00
-0.3430839130773E+00 -0.4399702753278E+00  0.0000000000000E+00
-0.3120906320172E+00 -0.4355735248917E+00  0.0000000000000E+00
-0.2810420500145E+00 -0.4315860232937E+00  0.0000000000000E+00
-0.2499433335888E+00 -0.4280105603977E+00  0.0000000000000E+00
-0.2187997508610E+00 -0.4248496608797E+00  0.0000000000000E+00
-0.1876166729319E+00 -0.4221055764161E+00  0.0000000000000E+00
-0.1563995773423E+00 -0.4197802779940E+00  0.0000000000000E+00
-0.1251540094126E+00 -0.4178754457584E+00  0.0000000000000E+00
-0.9388558172344E-01 -0.4163924636598E+00  0.0000000000000E+00
-0.6259996113275E-01 -0.4153324139295E+00  0.0000000000000E+00
-0.3130285547239E-01 -0.4146960727333E+00  0.0000000000000E+00
-0.2220446049250E-15 -0.4144839070419E+00  0.0000000000000E+00
 0.3130285547239E-01 -0.4146960727333E+00  0.0000000000000E+00
 0.6259996113275E-01 -0.4153324139295E+00  0.0000000000000E+00
 0.9388558172344E-01 -0.4163924636598E+00  0.0000000000000E+00
 0.1251540094126E+00 -0.4178754457584E+00  0.0000000000000E+00
 0.1563995773423E+00 -0.4197802779940E+00  0.0000000000000E+00
 0.1876166729319E+00 -0.4221055764161E+00  0.0000000000000E+00
 0.2187997508610E+00 -0.4248496608797E+00  0.0000000000000E+00
 0.2499433335888E+00 -0.4280105603977E+00  0.0000000000000E+00
 0.2810420500145E+00 -0.4315860232937E+00  0.0000000000000E+00
 0.3120906320172E+00 -0.4355735248917E+00  0.0000000000000E+00
 0.3430839130773E+00 -0.4399702753278E+00  0.0000000000000E+00
 0.3740168397343E+00 -0.4447732294152E+00  0.0000000000000E+00
 0.4048845338533E+00 -0.4499791064130E+00  0.0000000000000E+00
 0.4356821841498E+00 -0.4555843826271E+00  0.0000000000000E+00
 0.4664052113280E+00 -0.4615853306416E+00  0.0000000000000E+00
 0.4970490688930E+00 -0.4679779933456E+00  0.0000000000000E+00
 0.5276095633171E+00 -0.4747582607812E+00  0.0000000000000E+00
 0.5580825246164E+00 -0.4819218154218E+00  0.0000000000000E+00
 0.5884638695905E+00 -0.4894641513885E+00  0.0000000000000E+00
-0.6186694182519E+00 -0.5602854202626E+00  0.0000000000000E+00
-0.6184121778050E+00 -0.6231895804302E+00  0.0000000000000E+00
-0.6179522181120E+00 -0.6860925653381E+00  0.0000000000000E+00
-0.6172599449830E+00 -0.7489933811583E+00  0.0000000000000E+00
-0.6163035973388E+00 -0.8118907743073E+00  0.0000000000000E+00
-0.6150531470475E+00 -0.8747829429232E+00  0.0000000000000E+00
-0.6134887983150E+00 -0.9376681601377E+00  0.0000000000000E+00
-0.6116160329111E+00 -0.1000544889820E+01  0.0000000000000E+00
-0.6094851916442E+00 -0.1063413466424E+01  0.0000000000000E+00
-0.6072037720657E+00 -0.1126276767718E+01  0.0000000000000E+00
-0.6049223524117E+00 -0.1189140069010E+01  0.0000000000000E+00
-0.6027915109277E+00 -0.1252008645607E+01  0.0000000000000E+00
-0.6009187451903E+00 -0.1314885375279E+01  0.0000000000000E+00
-0.5993543960372E+00 -0.1377770592483E+01  0.0000000000000E+00
-0.5981039452651E+00 -0.1440662761090E+01  0.0000000000000E+00
-0.5971475971003E+00 -0.1503560154231E+01  0.0000000000000E+00
-0.5964553234260E+00 -0.1566460970045E+01  0.0000000000000E+00
-0.5959953631729E+00 -0.1629363954949E+01  0.0000000000000E+00
-0.5957381221583E+00 -0.1692268115114E+01  0.0000000000000E+00
 0.6186694182523E+00 -0.5602854202973E+00  0.0000000000000E+00
 0.6184121778088E+00 -0.6231895804997E+00  0.0000000000000E+00
 0.6179522181269E+00 -0.6860925654424E+00  0.0000000000000E+00
 0.6172599450237E+00 -0.7489933812976E+00  0.0000000000000E+00
 0.6163035974300E+00 -0.8118907744820E+00  0.0000000000000E+00
 0.6150531472289E+00 -0.8747829431345E+00  0.0000000000000E+00
 0.6134887986468E+00 -0.9376681603875E+00  0.0000000000000E+00
 0.6116160334801E+00 -0.1000544890112E+01  0.0000000000000E+00
 0.6094851925666E+00 -0.1063413466762E+01  0.0000000000000E+00
 0.6072037734828E+00 -0.1126276768110E+01  0.0000000000000E+00
 0.6049223544747E+00 -0.1189140069460E+01  0.0000000000000E+00
 0.6027915137782E+00 -0.1252008646118E+01  0.0000000000000E+00
 0.6009187489451E+00 -0.1314885375852E+01  0.0000000000000E+00
 0.5993544007835E+00 -0.1377770593115E+01  0.0000000000000E+00
 0.5981039510633E+00 -0.1440662761777E+01  0.0000000000000E+00
 0.5971476039902E+00 -0.1503560154969E+01  0.0000000000000E+00
 0.5964553314325E+00 -0.1566460970831E+01  0.0000000000000E+00
 0.5959953723106E+00 -0.1629363955777E+01  0.0000000000000E+00
 0.5957381324349E+00 -0.1692268115982E+01  0.0000000000000E+00
-0.6621752666167E+00 -0.4539554224406E+00  0.0000000000000E+00
-0.7056005332335E+00 -0.4105301564309E+00  0.0000000000000E+00
-0.7490257998502E+00 -0.3671048904212E+00  0.0000000000000E+00
-0.7924510664670E+00 -0.3236796244115E+00  0.0000000000000E+00
-0.8358763330837E+00 -0.2802543584018E+00  0.0000000000000E+00
-0.8793015997004E+00 -0.2368290923921E+00  0.0000000000000E+00
-0.9227268663172E+00 -0.1934038263824E+00  0.0000000000000E+00
-0.9661521329339E+00 -0.1499785603727E+00  0.0000000000000E+00
-0.1009577399551E+01 -0.1065532943630E+00  0.0000000000000E+00
-0.1053002666167E+01 -0.6312802835334E-01  0.0000000000000E+00
-0.1096427932784E+01 -0.1970276234365E-01  0.0000000000000E+00
-0.1139853199401E+01  0.2372250366604E-01  0.0000000000000E+00
-0.1183278466018E+01  0.6714776967573E-01  0.0000000000000E+00
-0.1226703732634E+01  0.1105730356854E+00  0.0000000000000E+00
-0.1270128999251E+01  0.1539983016951E+00  0.0000000000000E+00
-0.1313554265868E+01  0.1974235677048E+00  0.0000000000000E+00
-0.1356979532485E+01  0.2408488337145E+00  0.0000000000000E+00
-0.1400404799101E+01  0.2842740997242E+00  0.0000000000000E+00
-0.1443830065718E+01  0.3276993657339E+00  0.0000000000000E+00
 0.6621752664603E+00 -0.4539554223414E+00  0.0000000000000E+00
 0.7056005329206E+00 -0.4105301562325E+00  0.0000000000000E+00
 0.7490257993809E+00 -0.3671048901237E+00  0.0000000000000E+00
 0.7924510658412E+00 -0.3236796240148E+00  0.0000000000000E+00
 0.8358763323015E+00 -0.2802543579059E+00  0.0000000000000E+00
 0.8793015987618E+00 -0.2368290917971E+00  0.0000000000000E+00
 0.9227268652221E+00 -0.1934038256882E+00  0.0000000000000E+00
 0.9661521316824E+00 -0.1499785595793E+00  0.0000000000000E+00
 0.1009577398143E+01 -0.1065532934705E+00  0.0000000000000E+00
 0.1053002664603E+01 -0.6312802736160E-01  0.0000000000000E+00
 0.1096427931063E+01 -0.1970276125273E-01  0.0000000000000E+00
 0.1139853197524E+01  0.2372250485614E-01  0.0000000000000E+00
 0.1183278463984E+01  0.6714777096501E-01  0.0000000000000E+00
 0.1226703730444E+01  0.1105730370739E+00  0.0000000000000E+00
 0.1270128996905E+01  0.1539983031827E+00  0.0000000000000E+00
 0.1313554263365E+01  0.1974235692916E+00  0.0000000000000E+00
 0.1356979529825E+01  0.2408488354005E+00  0.0000000000000E+00
 0.1400404796285E+01  0.2842741015093E+00  0.0000000000000E+00
 0.1443830062746E+01  0.3276993676182E+00  0.0000000000000E+00
-0.1072503587165E+01 -0.4660482676314E+01  0.0000000000000E+00
-0.1072507174322E+01 -0.4589378375132E+01  0.0000000000000E+00
-0.1072510761501E+01 -0.4518273637310E+01  0.0000000000000E+00
-0.1072514348670E+01 -0.4447169098828E+01  0.0000000000000E+00
-0.1072517935839E+01 -0.4376064574487E+01  0.0000000000000E+00
-0.1072521523008E+01 -0.4304960023427E+01  0.0000000000000E+00
-0.1072525110176E+01 -0.4233855514392E+01  0.0000000000000E+00
-0.1072528697345E+01 -0.4162750979291E+01  0.0000000000000E+00
-0.1072532284514E+01 -0.4091646449412E+01  0.0000000000000E+00
-0.1072535871682E+01 -0.4020541927384E+01  0.0000000000000E+00
-0.1072539458851E+01 -0.3949437390474E+01  0.0000000000000E+00
-0.1072543046019E+01 -0.3878332876881E+01  0.0000000000000E+00
-0.1072546633189E+01 -0.3807228332256E+01  0.0000000000000E+00
-0.1072550220361E+01 -0.3736123729622E+01  0.0000000000000E+00
-0.1072553807532E+01 -0.3665019147225E+01  0.0000000000000E+00
-0.1072557394699E+01 -0.3593914649887E+01  0.0000000000000E+00
-0.1072560981898E+01 -0.3522809524803E+01  0.0000000000000E+00
-0.1072564569037E+01 -0.3451705587777E+01  0.0000000000000E+00
-0.1072568156206E+01 -0.3380601047615E+01  0.0000000000000E+00
-0.1072571743371E+01 -0.3309496585365E+01  0.0000000000000E+00
-0.1072575330532E+01 -0.3238392213680E+01  0.0000000000000E+00
-0.1072578917695E+01 -0.3167287806114E+01  0.0000000000000E+00
-0.1072582504859E+01 -0.3096183366749E+01  0.0000000000000E+00
-0.1072604987210E+01 -0.3025078866253E+01  0.0000000000000E+00
-0.1072768067061E+01 -0.2953974594875E+01  0.0000000000000E+00
-0.1073240734738E+01 -0.2882871888659E+01  0.0000000000000E+00
-0.1074177036625E+01 -0.2811774024513E+01  0.0000000000000E+00
-0.1075690363951E+01 -0.2740686684501E+01  0.0000000000000E+00
-0.1077853442627E+01 -0.2669617014531E+01  0.0000000000000E+00
-0.1080712774083E+01 -0.2598573344661E+01  0.0000000000000E+00
-0.1084305312776E+01 -0.2527564663401E+01  0.0000000000000E+00
-0.1088672864462E+01 -0.2456601685752E+01  0.0000000000000E+00
-0.1093872940397E+01 -0.2385697993847E+01  0.0000000000000E+00
-0.1099902305238E+01 -0.2314863405415E+01  0.0000000000000E+00
-0.1106676648231E+01 -0.2244099678337E+01  0.0000000000000E+00
-0.1114135782912E+01 -0.2173408489510E+01  0.0000000000000E+00
-0.1122244705194E+01 -0.2102792618679E+01  0.0000000000000E+00
-0.1130991992091E+01 -0.2032256967667E+01  0.0000000000000E+00
-0.1140395174223E+01 -0.1961810429153E+01  0.0000000000000E+00
-0.1150524750544E+01 -0.1891470211900E+01  0.0000000000000E+00
-0.1045006744548E+01 -0.4660372386096E+01  0.0000000000000E+00
-0.1045013489082E+01 -0.4589157794926E+01  0.0000000000000E+00
-0.1045020233658E+01 -0.4517942766438E+01  0.0000000000000E+00
-0.1045026978215E+01 -0.4446727937600E+01  0.0000000000000E+00
-0.1045033722770E+01 -0.4375513122924E+01  0.0000000000000E+00
-0.1045040467328E+01 -0.4304298281489E+01  0.0000000000000E+00
-0.1045047211882E+01 -0.4233083482143E+01  0.0000000000000E+00
-0.1045053956438E+01 -0.4161868656690E+01  0.0000000000000E+00
-0.1045060700994E+01 -0.4090653836468E+01  0.0000000000000E+00
-0.1045067445549E+01 -0.4019439024110E+01  0.0000000000000E+00
-0.1045074190105E+01 -0.3948224196846E+01  0.0000000000000E+00
-0.1045080934660E+01 -0.3877009392935E+01  0.0000000000000E+00
-0.1045087679217E+01 -0.3805794557944E+01  0.0000000000000E+00
-0.1045094423780E+01 -0.3734579664855E+01  0.0000000000000E+00
-0.1045101168341E+01 -0.3663364792032E+01  0.0000000000000E+00
-0.1045107912893E+01 -0.3592150004402E+01  0.0000000000000E+00
-0.1045114657506E+01 -0.3520934588052E+01  0.0000000000000E+00
-0.1045121402005E+01 -0.3449720361602E+01  0.0000000000000E+00
-0.1045128146562E+01 -0.3378505531081E+01  0.0000000000000E+00
-0.1045134891112E+01 -0.3307290778593E+01  0.0000000000000E+00
-0.1045141635652E+01 -0.3236076116811E+01  0.0000000000000E+00
-0.1045148380197E+01 -0.3164861419091E+01  0.0000000000000E+00
-0.1045155124744E+01 -0.3093646689524E+01  0.0000000000000E+00
-0.1045180279185E+01 -0.3022431898726E+01  0.0000000000000E+00
-0.1045342420071E+01 -0.2951217337114E+01  0.0000000000000E+00
-0.1045806197445E+01 -0.2880004340854E+01  0.0000000000000E+00
-0.1046721701225E+01 -0.2808796186706E+01  0.0000000000000E+00
-0.1048199410343E+01 -0.2737598556815E+01  0.0000000000000E+00
-0.1050310182850E+01 -0.2666418596963E+01  0.0000000000000E+00
-0.1053099325844E+01 -0.2595264637382E+01  0.0000000000000E+00
-0.1056602844668E+01 -0.2524145666314E+01  0.0000000000000E+00
-0.1060861471353E+01 -0.2453072398792E+01  0.0000000000000E+00
-0.1065931240050E+01 -0.2382058417274E+01  0.0000000000000E+00
-0.1071808998522E+01 -0.2311113539101E+01  0.0000000000000E+00
-0.1078412601419E+01 -0.2240239522158E+01  0.0000000000000E+00
-0.1085683408080E+01 -0.2169438043419E+01  0.0000000000000E+00
-0.1093587313453E+01 -0.2098711882551E+01  0.0000000000000E+00
-0.1102113187936E+01 -0.2028065941388E+01  0.0000000000000E+00
-0.1111278111887E+01 -0.1957509112984E+01  0.0000000000000E+00
-0.1121150773592E+01 -0.1887058606097E+01  0.0000000000000E+00
-0.1017509482115E+01 -0.4660264886424E+01  0.0000000000000E+00
-0.1017518964210E+01 -0.4588942795806E+01  0.0000000000000E+00
-0.1017528446364E+01 -0.4517620267209E+01  0.0000000000000E+00
-0.1017537928491E+01 -0.4446297938565E+01  0.0000000000000E+00
-0.1017547410616E+01 -0.4374975624103E+01  0.0000000000000E+00
-0.1017556892744E+01 -0.4303653282842E+01  0.0000000000000E+00
-0.1017566374867E+01 -0.4232330983734E+01  0.0000000000000E+00
-0.1017575856993E+01 -0.4161008658479E+01  0.0000000000000E+00
-0.1017585339119E+01 -0.4089686338463E+01  0.0000000000000E+00
-0.1017594821244E+01 -0.4018364026323E+01  0.0000000000000E+00
-0.1017604303371E+01 -0.3947041699254E+01  0.0000000000000E+00
-0.1017613785494E+01 -0.3875719395574E+01  0.0000000000000E+00
-0.1017623267622E+01 -0.3804397060767E+01  0.0000000000000E+00
-0.1017632749757E+01 -0.3733074667774E+01  0.0000000000000E+00
-0.1017642231890E+01 -0.3661752295078E+01  0.0000000000000E+00
-0.1017651714011E+01 -0.3590430007703E+01  0.0000000000000E+00
-0.1017661196216E+01 -0.3519107090659E+01  0.0000000000000E+00
-0.1017670678263E+01 -0.3447785365312E+01  0.0000000000000E+00
-0.1017680160390E+01 -0.3376463034981E+01  0.0000000000000E+00
-0.1017689642507E+01 -0.3305140782802E+01  0.0000000000000E+00
-0.1017699124612E+01 -0.3233818621464E+01  0.0000000000000E+00
-0.1017708606721E+01 -0.3162496424136E+01  0.0000000000000E+00
-0.1017718088835E+01 -0.3091174194911E+01  0.0000000000000E+00
-0.1017745495548E+01 -0.3019851904360E+01  0.0000000000000E+00
-0.1017906277653E+01 -0.2948529843060E+01  0.0000000000000E+00
-0.1018360744909E+01 -0.2877209347299E+01  0.0000000000000E+00
-0.1019255030769E+01 -0.2805893693688E+01  0.0000000000000E+00
-0.1020696701869E+01 -0.2734588564456E+01  0.0000000000000E+00
-0.1022754748397E+01 -0.2663301105260E+01  0.0000000000000E+00
-0.1025473283124E+01 -0.2592039646501E+01  0.0000000000000E+00
-0.1028887362274E+01 -0.2520813176160E+01  0.0000000000000E+00
-0.1033036644157E+01 -0.2449632409301E+01  0.0000000000000E+00
-0.1037975685816E+01 -0.2378510928701E+01  0.0000000000000E+00
-0.1043701418122E+01 -0.2307458551321E+01  0.0000000000000E+00
-0.1050133861127E+01 -0.2236477035050E+01  0.0000000000000E+00
-0.1057215919976E+01 -0.2165568056937E+01  0.0000000000000E+00
-0.1064914388649E+01 -0.2094734396573E+01  0.0000000000000E+00
-0.1073218430927E+01 -0.2023980955804E+01  0.0000000000000E+00
-0.1082144676909E+01 -0.1953316628048E+01  0.0000000000000E+00
-0.1091760004215E+01 -0.1882758622058E+01  0.0000000000000E+00
-0.9900118099064E+00 -0.4660160183698E+01  0.0000000000000E+00
-0.9900236197882E+00 -0.4588733390572E+01  0.0000000000000E+00
-0.9900354297426E+00 -0.4517306158826E+01  0.0000000000000E+00
-0.9900472396638E+00 -0.4445879127324E+01  0.0000000000000E+00
-0.9900590495827E+00 -0.4374452110027E+01  0.0000000000000E+00
-0.9900708595060E+00 -0.4303025065890E+01  0.0000000000000E+00
-0.9900826694223E+00 -0.4231598063968E+01  0.0000000000000E+00
-0.9900944793430E+00 -0.4160171035861E+01  0.0000000000000E+00
-0.9901062892628E+00 -0.4088744013001E+01  0.0000000000000E+00
-0.9901180991813E+00 -0.4017316998028E+01  0.0000000000000E+00
-0.9901299091023E+00 -0.3945889968104E+01  0.0000000000000E+00
-0.9901417190194E+00 -0.3874462961605E+01  0.0000000000000E+00
-0.9901535289416E+00 -0.3803035923932E+01  0.0000000000000E+00
-0.9901653388735E+00 -0.3731608827986E+01  0.0000000000000E+00
-0.9901771488020E+00 -0.3660181752369E+01  0.0000000000000E+00
-0.9901889587164E+00 -0.3588754762198E+01  0.0000000000000E+00
-0.9902007687351E+00 -0.3517327141434E+01  0.0000000000000E+00
-0.9902125785564E+00 -0.3445900714115E+01  0.0000000000000E+00
-0.9902243884779E+00 -0.3374473680925E+01  0.0000000000000E+00
-0.9902361983865E+00 -0.3303046726000E+01  0.0000000000000E+00
-0.9902480082800E+00 -0.3231619862052E+01  0.0000000000000E+00
-0.9902598181795E+00 -0.3160192962059E+01  0.0000000000000E+00
-0.9902716280843E+00 -0.3088766030123E+01  0.0000000000000E+00
-0.9903008772941E+00 -0.3017339036768E+01  0.0000000000000E+00
-0.9904598908441E+00 -0.2945912272726E+01  0.0000000000000E+00
-0.9909046382074E+00 -0.2874487074405E+01  0.0000000000000E+00
-0.9917772963762E+00 -0.2803066718274E+01  0.0000000000000E+00
-0.9931825196868E+00 -0.2731656886637E+01  0.0000000000000E+00
-0.9951874304676E+00 -0.2660264725035E+01  0.0000000000000E+00
-0.9978349471605E+00 -0.2588898564031E+01  0.0000000000000E+00
-0.1001159176873E+01 -0.2517567391354E+01  0.0000000000000E+00
-0.1005198704189E+01 -0.2446281922097E+01  0.0000000000000E+00
-0.1010006609051E+01 -0.2375055739345E+01  0.0000000000000E+00
-0.1015579905431E+01 -0.2303898659692E+01  0.0000000000000E+00
-0.1021840778788E+01 -0.2232812441032E+01  0.0000000000000E+00
-0.1028733680069E+01 -0.2161798760483E+01  0.0000000000000E+00
-0.1036226302287E+01 -0.2090860397566E+01  0.0000000000000E+00
-0.1044308102607E+01 -0.2020002254134E+01  0.0000000000000E+00
-0.1052995260869E+01 -0.1949233223964E+01  0.0000000000000E+00
-0.1062352844026E+01 -0.1878570515803E+01  0.0000000000000E+00
-0.9625137375235E+00 -0.4660058284100E+01  0.0000000000000E+00
-0.9625274750185E+00 -0.4588529591588E+01  0.0000000000000E+00
-0.9625412125977E+00 -0.4517000459829E+01  0.0000000000000E+00
-0.9625549501385E+00 -0.4445471528601E+01  0.0000000000000E+00
-0.9625686876766E+00 -0.4373942611598E+01  0.0000000000000E+00
-0.9625824252198E+00 -0.4302413667716E+01  0.0000000000000E+00
-0.9625961627548E+00 -0.4230884766111E+01  0.0000000000000E+00
-0.9626099002950E+00 -0.4159355838283E+01  0.0000000000000E+00
-0.9626236378341E+00 -0.4087826915708E+01  0.0000000000000E+00
-0.9626373753717E+00 -0.4016298001032E+01  0.0000000000000E+00
-0.9626511129121E+00 -0.3944769071385E+01  0.0000000000000E+00
-0.9626648504481E+00 -0.3873240165195E+01  0.0000000000000E+00
-0.9626785879900E+00 -0.3801711227786E+01  0.0000000000000E+00
-0.9626923255432E+00 -0.3730182232023E+01  0.0000000000000E+00
-0.9627060630925E+00 -0.3658653256616E+01  0.0000000000000E+00
-0.9627198006253E+00 -0.3587124366778E+01  0.0000000000000E+00
-0.9627335382794E+00 -0.3515594845447E+01  0.0000000000000E+00
-0.9627472757039E+00 -0.3444066519263E+01  0.0000000000000E+00
-0.9627610132450E+00 -0.3372537586345E+01  0.0000000000000E+00
-0.9627747507711E+00 -0.3301008731803E+01  0.0000000000000E+00
-0.9627884882796E+00 -0.3229479968367E+01  0.0000000000000E+00
-0.9628022257951E+00 -0.3157951168836E+01  0.0000000000000E+00
-0.9628159633167E+00 -0.3086422337316E+01  0.0000000000000E+00
-0.9628466548485E+00 -0.3014893444285E+01  0.0000000000000E+00
-0.9630034996671E+00 -0.2943364780630E+01  0.0000000000000E+00
-0.9634381269610E+00 -0.2871837682872E+01  0.0000000000000E+00
-0.9642887572571E+00 -0.2800315427341E+01  0.0000000000000E+00
-0.9656571325932E+00 -0.2728803696419E+01  0.0000000000000E+00
-0.9676085074361E+00 -0.2657309635530E+01  0.0000000000000E+00
-0.9701846058996E+00 -0.2585841575395E+01  0.0000000000000E+00
-0.9734185859714E+00 -0.2514408503499E+01  0.0000000000000E+00
-0.9773479585130E+00 -0.2443021134961E+01  0.0000000000000E+00
-0.9820243263633E+00 -0.2371693053170E+01  0.0000000000000E+00
-0.9874447865971E+00 -0.2300434074359E+01  0.0000000000000E+00
-0.9935336900779E+00 -0.2229245956427E+01  0.0000000000000E+00
-0.1000237033557E+01 -0.2158130376562E+01  0.0000000000000E+00
-0.1007523409081E+01 -0.2087090114213E+01  0.0000000000000E+00
-0.1015382567198E+01 -0.2016130071245E+01  0.0000000000000E+00
-0.1023830237492E+01 -0.1945259141781E+01  0.0000000000000E+00
-0.1032929676247E+01 -0.1874494534560E+01  0.0000000000000E+00
-0.9350152757427E+00 -0.4659959193825E+01  0.0000000000000E+00
-0.9350305514535E+00 -0.4588331411245E+01  0.0000000000000E+00
-0.9350458272582E+00 -0.4516703188809E+01  0.0000000000000E+00
-0.9350611030201E+00 -0.4445075167182E+01  0.0000000000000E+00
-0.9350763787789E+00 -0.4373447159799E+01  0.0000000000000E+00
-0.9350916545434E+00 -0.4301819125501E+01  0.0000000000000E+00
-0.9351069302989E+00 -0.4230191133537E+01  0.0000000000000E+00
-0.9351222060600E+00 -0.4158563115315E+01  0.0000000000000E+00
-0.9351374818200E+00 -0.4086935102354E+01  0.0000000000000E+00
-0.9351527575783E+00 -0.4015307097302E+01  0.0000000000000E+00
-0.9351680333398E+00 -0.3943679077257E+01  0.0000000000000E+00
-0.9351833090963E+00 -0.3872051080703E+01  0.0000000000000E+00
-0.9351985848595E+00 -0.3800423052887E+01  0.0000000000000E+00
-0.9352138606351E+00 -0.3728794966635E+01  0.0000000000000E+00
-0.9352291364064E+00 -0.3657166900768E+01  0.0000000000000E+00
-0.9352444121594E+00 -0.3585538920588E+01  0.0000000000000E+00
-0.9352596880473E+00 -0.3513910308040E+01  0.0000000000000E+00
-0.9352749636799E+00 -0.3442282892296E+01  0.0000000000000E+00
-0.9352902394421E+00 -0.3370654868976E+01  0.0000000000000E+00
-0.9353055151876E+00 -0.3299026924142E+01  0.0000000000000E+00
-0.9353207909136E+00 -0.3227399070539E+01  0.0000000000000E+00
-0.9353360666473E+00 -0.3155771180791E+01  0.0000000000000E+00
-0.9353513423878E+00 -0.3084143259010E+01  0.0000000000000E+00
-0.9353830868434E+00 -0.3012515275629E+01  0.0000000000000E+00
-0.9355373735330E+00 -0.2940887521685E+01  0.0000000000000E+00
-0.9359614913613E+00 -0.2869261333809E+01  0.0000000000000E+00
-0.9367897043898E+00 -0.2797639988196E+01  0.0000000000000E+00
-0.9381208423587E+00 -0.2726029167304E+01  0.0000000000000E+00
-0.9400182918724E+00 -0.2654436016443E+01  0.0000000000000E+00
-0.9425225827175E+00 -0.2582868866489E+01  0.0000000000000E+00
-0.9456659237619E+00 -0.2511336704686E+01  0.0000000000000E+00
-0.9494847521435E+00 -0.2439850246183E+01  0.0000000000000E+00
-0.9540291935997E+00 -0.2368423074660E+01  0.0000000000000E+00
-0.9592964283062E+00 -0.2297065006004E+01  0.0000000000000E+00
-0.9652129725315E+00 -0.2225777798115E+01  0.0000000000000E+00
-0.9717263688312E+00 -0.2154563128249E+01  0.0000000000000E+00
-0.9788061082853E+00 -0.2083423775788E+01  0.0000000000000E+00
-0.9864422348236E+00 -0.2012364642606E+01  0.0000000000000E+00
-0.9946500277763E+00 -0.1941394623162E+01  0.0000000000000E+00
-0.1003490932759E+01 -0.1870530926191E+01  0.0000000000000E+00
-0.9075164348415E+00 -0.4659862918834E+01  0.0000000000000E+00
-0.9075328696488E+00 -0.4588138861463E+01  0.0000000000000E+00
-0.9075493045571E+00 -0.4516414363646E+01  0.0000000000000E+00
-0.9075657394192E+00 -0.4444690066907E+01  0.0000000000000E+00
-0.9075821742781E+00 -0.4372965784431E+01  0.0000000000000E+00
-0.9075986091431E+00 -0.4301241475005E+01  0.0000000000000E+00
-0.9076150439985E+00 -0.4229517207969E+01  0.0000000000000E+00
-0.9076314788598E+00 -0.4157792914640E+01  0.0000000000000E+00
-0.9076479137200E+00 -0.4086068626578E+01  0.0000000000000E+00
-0.9076643485783E+00 -0.4014344346436E+01  0.0000000000000E+00
-0.9076807834401E+00 -0.3942620051282E+01  0.0000000000000E+00
-0.9076972182965E+00 -0.3870895779649E+01  0.0000000000000E+00
-0.9077136531601E+00 -0.3799171476713E+01  0.0000000000000E+00
-0.9077300880371E+00 -0.3727447115263E+01  0.0000000000000E+00
-0.9077465229094E+00 -0.3655722774225E+01  0.0000000000000E+00
-0.9077629577620E+00 -0.3583998518988E+01  0.0000000000000E+00
-0.9077793927597E+00 -0.3512273630535E+01  0.0000000000000E+00
-0.9077958274829E+00 -0.3440549940493E+01  0.0000000000000E+00
-0.9078122623454E+00 -0.3368825642059E+01  0.0000000000000E+00
-0.9078286971899E+00 -0.3297101422216E+01  0.0000000000000E+00
-0.9078451320135E+00 -0.3225377293728E+01  0.0000000000000E+00
-0.9078615668454E+00 -0.3153653129045E+01  0.0000000000000E+00
-0.9078780016846E+00 -0.3081928932287E+01  0.0000000000000E+00
-0.9079104199434E+00 -0.3010204673842E+01  0.0000000000000E+00
-0.9080617693840E+00 -0.2938480644892E+01  0.0000000000000E+00
-0.9084749986280E+00 -0.2866758182177E+01  0.0000000000000E+00
-0.9092804152714E+00 -0.2795040561762E+01  0.0000000000000E+00
-0.9105739367573E+00 -0.2723333466175E+01  0.0000000000000E+00
-0.9124170818274E+00 -0.2651644040617E+01  0.0000000000000E+00
-0.9148491859419E+00 -0.2579980616114E+01  0.0000000000000E+00
-0.9179015088477E+00 -0.2508352179677E+01  0.0000000000000E+00
-0.9216094139598E+00 -0.2436769446484E+01  0.0000000000000E+00
-0.9260215499149E+00 -0.2365246000499E+01  0.0000000000000E+00
-0.9311351799888E+00 -0.2293791657267E+01  0.0000000000000E+00
-0.9368789858541E+00 -0.2222408174696E+01  0.0000000000000E+00
-0.9432020558717E+00 -0.2151097230106E+01  0.0000000000000E+00
-0.9500747801533E+00 -0.2079861602812E+01  0.0000000000000E+00
-0.9574874960124E+00 -0.2008706194698E+01  0.0000000000000E+00
-0.9654550325253E+00 -0.1937639900549E+01  0.0000000000000E+00
-0.9740370246404E+00 -0.1866679929097E+01  0.0000000000000E+00
-0.8800172251723E+00 -0.4659769464936E+01  0.0000000000000E+00
-0.8800344503086E+00 -0.4587951953862E+01  0.0000000000000E+00
-0.8800516755508E+00 -0.4516134001767E+01  0.0000000000000E+00
-0.8800689007447E+00 -0.4444316251013E+01  0.0000000000000E+00
-0.8800861259351E+00 -0.4372498514541E+01  0.0000000000000E+00
-0.8801033511320E+00 -0.4300680751083E+01  0.0000000000000E+00
-0.8801205763187E+00 -0.4228863030071E+01  0.0000000000000E+00
-0.8801378015118E+00 -0.4157045282730E+01  0.0000000000000E+00
-0.8801550267036E+00 -0.4085227540665E+01  0.0000000000000E+00
-0.8801722518934E+00 -0.4013409806530E+01  0.0000000000000E+00
-0.8801894770869E+00 -0.3941592057363E+01  0.0000000000000E+00
-0.8802067022748E+00 -0.3869774331747E+01  0.0000000000000E+00
-0.8802239274701E+00 -0.3797956574788E+01  0.0000000000000E+00
-0.8802411526795E+00 -0.3726138759238E+01  0.0000000000000E+00
-0.8802583778840E+00 -0.3654320964127E+01  0.0000000000000E+00
-0.8802756030679E+00 -0.3582503254930E+01  0.0000000000000E+00
-0.8802928284039E+00 -0.3510684911690E+01  0.0000000000000E+00
-0.8803100534520E+00 -0.3438867768424E+01  0.0000000000000E+00
-0.8803272786463E+00 -0.3367050015972E+01  0.0000000000000E+00
-0.8803445038217E+00 -0.3295232342214E+01  0.0000000000000E+00
-0.8803617289752E+00 -0.3223414759930E+01  0.0000000000000E+00
-0.8803789541373E+00 -0.3151597141404E+01  0.0000000000000E+00
-0.8803961793072E+00 -0.3079779490761E+01  0.0000000000000E+00
-0.8804289026007E+00 -0.3007961778347E+01  0.0000000000000E+00
-0.8805769460245E+00 -0.2936144295485E+01  0.0000000000000E+00
-0.8809789179176E+00 -0.2864328379021E+01  0.0000000000000E+00
-0.8817611694101E+00 -0.2792517304890E+01  0.0000000000000E+00
-0.8830167056487E+00 -0.2720716755693E+01  0.0000000000000E+00
-0.8848051775121E+00 -0.2648933876522E+01  0.0000000000000E+00
-0.8871647261348E+00 -0.2577176998550E+01  0.0000000000000E+00
-0.8901256621418E+00 -0.2505455108563E+01  0.0000000000000E+00
-0.8937222752253E+00 -0.2433778921763E+01  0.0000000000000E+00
-0.8980017369228E+00 -0.2362162022393E+01  0.0000000000000E+00
-0.9029613936084E+00 -0.2290614225668E+01  0.0000000000000E+00
-0.9085320923593E+00 -0.2219137289498E+01  0.0000000000000E+00
-0.9146644673410E+00 -0.2147732891269E+01  0.0000000000000E+00
-0.9213298076975E+00 -0.2076403810231E+01  0.0000000000000E+00
-0.9285187441254E+00 -0.2005154948275E+01  0.0000000000000E+00
-0.9362456554485E+00 -0.1933995200506E+01  0.0000000000000E+00
-0.9445683659478E+00 -0.1862941775651E+01  0.0000000000000E+00
-0.8525176569623E+00 -0.4659678837762E+01  0.0000000000000E+00
-0.8525353138878E+00 -0.4587770699704E+01  0.0000000000000E+00
-0.8525529709217E+00 -0.4515862120068E+01  0.0000000000000E+00
-0.8525706279061E+00 -0.4443953742027E+01  0.0000000000000E+00
-0.8525882848871E+00 -0.4372045378286E+01  0.0000000000000E+00
-0.8526059418746E+00 -0.4300136987525E+01  0.0000000000000E+00
-0.8526235988517E+00 -0.4228228639263E+01  0.0000000000000E+00
-0.8526412558353E+00 -0.4156320264640E+01  0.0000000000000E+00
-0.8526589128176E+00 -0.4084411895299E+01  0.0000000000000E+00
-0.8526765697980E+00 -0.4012503533897E+01  0.0000000000000E+00
-0.8526942267820E+00 -0.3940595157445E+01  0.0000000000000E+00
-0.8527118837602E+00 -0.3868686804574E+01  0.0000000000000E+00
-0.8527295407462E+00 -0.3796778420320E+01  0.0000000000000E+00
-0.8527471977466E+00 -0.3724869977402E+01  0.0000000000000E+00
-0.8527648547419E+00 -0.3652961554948E+01  0.0000000000000E+00
-0.8527825117161E+00 -0.3581053218515E+01  0.0000000000000E+00
-0.8528001688462E+00 -0.3509144247241E+01  0.0000000000000E+00
-0.8528178256813E+00 -0.3437236477454E+01  0.0000000000000E+00
-0.8528354826661E+00 -0.3365328097713E+01  0.0000000000000E+00
-0.8528531396316E+00 -0.3293419796766E+01  0.0000000000000E+00
-0.8528707965746E+00 -0.3221511587407E+01  0.0000000000000E+00
-0.8528884535265E+00 -0.3149603341761E+01  0.0000000000000E+00
-0.8529061104864E+00 -0.3077695063957E+01  0.0000000000000E+00
-0.8529387802737E+00 -0.3005786724301E+01  0.0000000000000E+00
-0.8530831591395E+00 -0.2933878614253E+01  0.0000000000000E+00
-0.8534735151404E+00 -0.2861972070759E+01  0.0000000000000E+00
-0.8542322429400E+00 -0.2790070369632E+01  0.0000000000000E+00
-0.8554494353881E+00 -0.2718179193539E+01  0.0000000000000E+00
-0.8571828755004E+00 -0.2646305687471E+01  0.0000000000000E+00
-0.8594695100855E+00 -0.2574458182743E+01  0.0000000000000E+00
-0.8623387006461E+00 -0.2502645665919E+01  0.0000000000000E+00
-0.8658236631514E+00 -0.2430878852229E+01  0.0000000000000E+00
-0.8699700920406E+00 -0.2359171326182E+01  0.0000000000000E+00
-0.8747754167849E+00 -0.2287532902676E+01  0.0000000000000E+00
-0.8801726498660E+00 -0.2215965339624E+01  0.0000000000000E+00
-0.8861139712552E+00 -0.2144470314473E+01  0.0000000000000E+00
-0.8925715691276E+00 -0.2073050606409E+01  0.0000000000000E+00
-0.8995363675637E+00 -0.2001711117336E+01  0.0000000000000E+00
-0.9070222951358E+00 -0.1930460742663E+01  0.0000000000000E+00
-0.9150853654571E+00 -0.1859316691115E+01  0.0000000000000E+00
-0.8250177407139E+00 -0.4659591042819E+01  0.0000000000000E+00
-0.8250354813908E+00 -0.4587595110000E+01  0.0000000000000E+00
-0.8250532221767E+00 -0.4515598735065E+01  0.0000000000000E+00
-0.8250709629128E+00 -0.4443602561971E+01  0.0000000000000E+00
-0.8250887036454E+00 -0.4371606403194E+01  0.0000000000000E+00
-0.8251064443847E+00 -0.4299610217364E+01  0.0000000000000E+00
-0.8251241851135E+00 -0.4227614074085E+01  0.0000000000000E+00
-0.8251419258488E+00 -0.4155617904413E+01  0.0000000000000E+00
-0.8251596665828E+00 -0.4083621740029E+01  0.0000000000000E+00
-0.8251774073148E+00 -0.4011625583594E+01  0.0000000000000E+00
-0.8251951480505E+00 -0.3939629412091E+01  0.0000000000000E+00
-0.8252128887805E+00 -0.3867633264198E+01  0.0000000000000E+00
-0.8252306295181E+00 -0.3795637084882E+01  0.0000000000000E+00
-0.8252483702703E+00 -0.3723640846831E+01  0.0000000000000E+00
-0.8252661110174E+00 -0.3651644629270E+01  0.0000000000000E+00
-0.8252838517432E+00 -0.3579648497835E+01  0.0000000000000E+00
-0.8253015926257E+00 -0.3507651730783E+01  0.0000000000000E+00
-0.8253193332118E+00 -0.3435656166686E+01  0.0000000000000E+00
-0.8253370739484E+00 -0.3363659991889E+01  0.0000000000000E+00
-0.8253548146655E+00 -0.3291663895982E+01  0.0000000000000E+00
-0.8253725553600E+00 -0.3219667891776E+01  0.0000000000000E+00
-0.8253902960635E+00 -0.3147671851239E+01  0.0000000000000E+00
-0.8254080367749E+00 -0.3075675778504E+01  0.0000000000000E+00
-0.8254403050173E+00 -0.3003679643838E+01  0.0000000000000E+00
-0.8255806712862E+00 -0.2931683738833E+01  0.0000000000000E+00
-0.8259590633559E+00 -0.2859689400535E+01  0.0000000000000E+00
-0.8266939194225E+00 -0.2787699904637E+01  0.0000000000000E+00
-0.8278724200392E+00 -0.2715720933871E+01  0.0000000000000E+00
-0.8295504803575E+00 -0.2643759633128E+01  0.0000000000000E+00
-0.8317638528612E+00 -0.2571824333859E+01  0.0000000000000E+00
-0.8345409499295E+00 -0.2499924022419E+01  0.0000000000000E+00
-0.8379139138084E+00 -0.2428069414060E+01  0.0000000000000E+00
-0.8419269618398E+00 -0.2356274093551E+01  0.0000000000000E+00
-0.8465776065910E+00 -0.2284547875482E+01  0.0000000000000E+00
-0.8518010259485E+00 -0.2212892517768E+01  0.0000000000000E+00
-0.8575509456891E+00 -0.2141309697916E+01  0.0000000000000E+00
-0.8638004530197E+00 -0.2069802195054E+01  0.0000000000000E+00
-0.8705407654042E+00 -0.1998374911091E+01  0.0000000000000E+00
-0.8777853611645E+00 -0.1927036741736E+01  0.0000000000000E+00
-0.8855884432463E+00 -0.1855804895709E+01  0.0000000000000E+00
-0.7975174872200E+00 -0.4659506085482E+01  0.0000000000000E+00
-0.7975349744037E+00 -0.4587425195502E+01  0.0000000000000E+00
-0.7975524616947E+00 -0.4515343862885E+01  0.0000000000000E+00
-0.7975699489366E+00 -0.4443262732347E+01  0.0000000000000E+00
-0.7975874361751E+00 -0.4371181616143E+01  0.0000000000000E+00
-0.7976049234202E+00 -0.4299100472854E+01  0.0000000000000E+00
-0.7976224106549E+00 -0.4227019372167E+01  0.0000000000000E+00
-0.7976398978961E+00 -0.4154938245055E+01  0.0000000000000E+00
-0.7976573851359E+00 -0.4082857123237E+01  0.0000000000000E+00
-0.7976748723739E+00 -0.4010776009378E+01  0.0000000000000E+00
-0.7976923596155E+00 -0.3938694880433E+01  0.0000000000000E+00
-0.7977098468513E+00 -0.3866613775126E+01  0.0000000000000E+00
-0.7977273340948E+00 -0.3794532638359E+01  0.0000000000000E+00
-0.7977448213526E+00 -0.3722451442787E+01  0.0000000000000E+00
-0.7977623086053E+00 -0.3650370267730E+01  0.0000000000000E+00
-0.7977797958372E+00 -0.3578289178900E+01  0.0000000000000E+00
-0.7977972832234E+00 -0.3506207453703E+01  0.0000000000000E+00
-0.7978147703175E+00 -0.3434126932881E+01  0.0000000000000E+00
-0.7978322575599E+00 -0.3362045800638E+01  0.0000000000000E+00
-0.7978497447831E+00 -0.3289964747379E+01  0.0000000000000E+00
-0.7978672319841E+00 -0.3217883785928E+01  0.0000000000000E+00
-0.7978847191938E+00 -0.3145802788103E+01  0.0000000000000E+00
-0.7979022064114E+00 -0.3073721758043E+01  0.0000000000000E+00
-0.7979337358632E+00 -0.3001640665976E+01  0.0000000000000E+00
-0.7980697522901E+00 -0.2929559803621E+01  0.0000000000000E+00
-0.7984358431845E+00 -0.2857480508120E+01  0.0000000000000E+00
-0.7991464902748E+00 -0.2785406055050E+01  0.0000000000000E+00
-0.8002859618180E+00 -0.2713342127208E+01  0.0000000000000E+00
-0.8019083051015E+00 -0.2641295869387E+01  0.0000000000000E+00
-0.8040480782847E+00 -0.2569275613171E+01  0.0000000000000E+00
-0.8067327446223E+00 -0.2497290344709E+01  0.0000000000000E+00
-0.8099933726376E+00 -0.2425350779278E+01  0.0000000000000E+00
-0.8138727025763E+00 -0.2353470501899E+01  0.0000000000000E+00
-0.8183683301003E+00 -0.2281659326859E+01  0.0000000000000E+00
-0.8234175985009E+00 -0.2209919012080E+01  0.0000000000000E+00
-0.8289757793607E+00 -0.2138251235127E+01  0.0000000000000E+00
-0.8350168589179E+00 -0.2066658775066E+01  0.0000000000000E+00
-0.8415323480198E+00 -0.1995146533818E+01  0.0000000000000E+00
-0.8485352747396E+00 -0.1923723407379E+01  0.0000000000000E+00
-0.8560780313548E+00 -0.1852406604464E+01  0.0000000000000E+00
-0.7700169071112E+00 -0.4659423970938E+01  0.0000000000000E+00
-0.7700338141872E+00 -0.4587260966585E+01  0.0000000000000E+00
-0.7700507213671E+00 -0.4515097519091E+01  0.0000000000000E+00
-0.7700676284995E+00 -0.4442934273906E+01  0.0000000000000E+00
-0.7700845356285E+00 -0.4370771043071E+01  0.0000000000000E+00
-0.7701014427640E+00 -0.4298607785120E+01  0.0000000000000E+00
-0.7701183498894E+00 -0.4226444569820E+01  0.0000000000000E+00
-0.7701352570210E+00 -0.4154281328065E+01  0.0000000000000E+00
-0.7701521641514E+00 -0.4082118091610E+01  0.0000000000000E+00
-0.7701690712799E+00 -0.4009954863123E+01  0.0000000000000E+00
-0.7701859784119E+00 -0.3937791619533E+01  0.0000000000000E+00
-0.7702028855385E+00 -0.3865628399607E+01  0.0000000000000E+00
-0.7702197926723E+00 -0.3793465148187E+01  0.0000000000000E+00
-0.7702366998200E+00 -0.3721301837894E+01  0.0000000000000E+00
-0.7702536069629E+00 -0.3649138548138E+01  0.0000000000000E+00
-0.7702705140855E+00 -0.3576975344709E+01  0.0000000000000E+00
-0.7702874213574E+00 -0.3504811504187E+01  0.0000000000000E+00
-0.7703043283468E+00 -0.3432648869413E+01  0.0000000000000E+00
-0.7703212354797E+00 -0.3360485622521E+01  0.0000000000000E+00
-0.7703381425940E+00 -0.3288322454703E+01  0.0000000000000E+00
-0.7703550496867E+00 -0.3216159378797E+01  0.0000000000000E+00
-0.7703719567880E+00 -0.3143996266477E+01  0.0000000000000E+00
-0.7703888638969E+00 -0.3071833121884E+01  0.0000000000000E+00
-0.7704193279429E+00 -0.2999669915210E+01  0.0000000000000E+00
-0.7705506679129E+00 -0.2927506938299E+01  0.0000000000000E+00
-0.7709041310181E+00 -0.2855345528385E+01  0.0000000000000E+00
-0.7715902425191E+00 -0.2783188960931E+01  0.0000000000000E+00
-0.7726903583770E+00 -0.2711042918797E+01  0.0000000000000E+00
-0.7742566580147E+00 -0.2638914546683E+01  0.0000000000000E+00
-0.7763225052677E+00 -0.2566812176300E+01  0.0000000000000E+00
-0.7789144142657E+00 -0.2494744793600E+01  0.0000000000000E+00
-0.7820623798096E+00 -0.2422723113881E+01  0.0000000000000E+00
-0.7858076650495E+00 -0.2350760722408E+01  0.0000000000000E+00
-0.7901479487410E+00 -0.2278867433179E+01  0.0000000000000E+00
-0.7950227395800E+00 -0.2207045004120E+01  0.0000000000000E+00
-0.8003888549551E+00 -0.2135295112850E+01  0.0000000000000E+00
-0.8062211801355E+00 -0.2063620538380E+01  0.0000000000000E+00
-0.8125115193522E+00 -0.1992026182637E+01  0.0000000000000E+00
-0.8192724504302E+00 -0.1920520941899E+01  0.0000000000000E+00
-0.8265545549795E+00 -0.1849122024875E+01  0.0000000000000E+00
-0.7425160110831E+00 -0.4659344704214E+01  0.0000000000000E+00
-0.7425320221329E+00 -0.4587102433304E+01  0.0000000000000E+00
-0.7425480332810E+00 -0.4514859718765E+01  0.0000000000000E+00
-0.7425640443842E+00 -0.4442617206757E+01  0.0000000000000E+00
-0.7425800554842E+00 -0.4370374709116E+01  0.0000000000000E+00
-0.7425960665902E+00 -0.4298132184328E+01  0.0000000000000E+00
-0.7426120776868E+00 -0.4225889702238E+01  0.0000000000000E+00
-0.7426280887892E+00 -0.4153647193664E+01  0.0000000000000E+00
-0.7426440998905E+00 -0.4081404690396E+01  0.0000000000000E+00
-0.7426601109900E+00 -0.4009162195105E+01  0.0000000000000E+00
-0.7426761220928E+00 -0.3936919684694E+01  0.0000000000000E+00
-0.7426921331904E+00 -0.3864677197973E+01  0.0000000000000E+00
-0.7427081442950E+00 -0.3792434679724E+01  0.0000000000000E+00
-0.7427241554126E+00 -0.3720192102536E+01  0.0000000000000E+00
-0.7427401665257E+00 -0.3647949545909E+01  0.0000000000000E+00
-0.7427561776197E+00 -0.3575707075704E+01  0.0000000000000E+00
-0.7427721888549E+00 -0.3503463967706E+01  0.0000000000000E+00
-0.7427881998227E+00 -0.3431222066779E+01  0.0000000000000E+00
-0.7428042109263E+00 -0.3358979553063E+01  0.0000000000000E+00
-0.7428202220123E+00 -0.3286737118507E+01  0.0000000000000E+00
-0.7428362330780E+00 -0.3214494775965E+01  0.0000000000000E+00
-0.7428522441517E+00 -0.3142252396968E+01  0.0000000000000E+00
-0.7428682552326E+00 -0.3070009985662E+01  0.0000000000000E+00
-0.7428973379532E+00 -0.2997767512206E+01  0.0000000000000E+00
-0.7430236855472E+00 -0.2925525268560E+01  0.0000000000000E+00
-0.7433642049450E+00 -0.2853284592048E+01  0.0000000000000E+00
-0.7440254649391E+00 -0.2781048758026E+01  0.0000000000000E+00
-0.7450859091951E+00 -0.2708823449412E+01  0.0000000000000E+00
-0.7465958492710E+00 -0.2636615810817E+01  0.0000000000000E+00
-0.7485874546793E+00 -0.2564434174075E+01  0.0000000000000E+00
-0.7510862904237E+00 -0.2492287524946E+01  0.0000000000000E+00
-0.7541212775826E+00 -0.2420186578752E+01  0.0000000000000E+00
-0.7577322022120E+00 -0.2348144920990E+01  0.0000000000000E+00
-0.7619168261599E+00 -0.2276172365381E+01  0.0000000000000E+00
-0.7666168235266E+00 -0.2204270669853E+01  0.0000000000000E+00
-0.7717905575071E+00 -0.2132441512079E+01  0.0000000000000E+00
-0.7774138124011E+00 -0.2060687671016E+01  0.0000000000000E+00
-0.7834786858233E+00 -0.1989014048599E+01  0.0000000000000E+00
-0.7899973053517E+00 -0.1917429541373E+01  0.0000000000000E+00
-0.7970184419288E+00 -0.1845951358046E+01  0.0000000000000E+00
-0.7150148098282E+00 -0.4659268290171E+01  0.0000000000000E+00
-0.7150296196255E+00 -0.4586949605377E+01  0.0000000000000E+00
-0.7150444295138E+00 -0.4514630476484E+01  0.0000000000000E+00
-0.7150592393606E+00 -0.4442311550338E+01  0.0000000000000E+00
-0.7150740492044E+00 -0.4369992638572E+01  0.0000000000000E+00
-0.7150888590538E+00 -0.4297673699632E+01  0.0000000000000E+00
-0.7151036688944E+00 -0.4225354803435E+01  0.0000000000000E+00
-0.7151184787405E+00 -0.4153035880725E+01  0.0000000000000E+00
-0.7151332885855E+00 -0.4080716963328E+01  0.0000000000000E+00
-0.7151480984288E+00 -0.4008398053915E+01  0.0000000000000E+00
-0.7151629082753E+00 -0.3936079129367E+01  0.0000000000000E+00
-0.7151777181168E+00 -0.3863760228534E+01  0.0000000000000E+00
-0.7151925279649E+00 -0.3791441296138E+01  0.0000000000000E+00
-0.7152073378250E+00 -0.3719122304743E+01  0.0000000000000E+00
-0.7152221476809E+00 -0.3646803333930E+01  0.0000000000000E+00
-0.7152369575191E+00 -0.3574484449629E+01  0.0000000000000E+00
-0.7152517674881E+00 -0.3502164926862E+01  0.0000000000000E+00
-0.7152665772096E+00 -0.3429846612442E+01  0.0000000000000E+00
-0.7152813870567E+00 -0.3357527684586E+01  0.0000000000000E+00
-0.7152961968876E+00 -0.3285208835972E+01  0.0000000000000E+00
-0.7153110066996E+00 -0.3212890079470E+01  0.0000000000000E+00
-0.7153258165191E+00 -0.3140571286475E+01  0.0000000000000E+00
-0.7153406263452E+00 -0.3068252461137E+01  0.0000000000000E+00
-0.7153680225135E+00 -0.2995933573580E+01  0.0000000000000E+00
-0.7154890725045E+00 -0.2923614915879E+01  0.0000000000000E+00
-0.7158163429684E+00 -0.2851297825445E+01  0.0000000000000E+00
-0.7164524462290E+00 -0.2778985577529E+01  0.0000000000000E+00
-0.7174729136566E+00 -0.2706683855107E+01  0.0000000000000E+00
-0.7189261889441E+00 -0.2634399802702E+01  0.0000000000000E+00
-0.7208432472812E+00 -0.2562141752268E+01  0.0000000000000E+00
-0.7232487045449E+00 -0.2489918689380E+01  0.0000000000000E+00
-0.7261704080913E+00 -0.2417741329381E+01  0.0000000000000E+00
-0.7296466668831E+00 -0.2345623257995E+01  0.0000000000000E+00
-0.7336753258596E+00 -0.2273574288674E+01  0.0000000000000E+00
-0.7382002245257E+00 -0.2201596179347E+01  0.0000000000000E+00
-0.7431812718828E+00 -0.2129690607742E+01  0.0000000000000E+00
-0.7485951512610E+00 -0.2057860352761E+01  0.0000000000000E+00
-0.7544342536587E+00 -0.1986110316347E+01  0.0000000000000E+00
-0.7607102564081E+00 -0.1914449395305E+01  0.0000000000000E+00
-0.7674701197840E+00 -0.1842894798340E+01  0.0000000000000E+00
-0.6875133140180E+00 -0.4659194733497E+01  0.0000000000000E+00
-0.6875266280083E+00 -0.4586802492181E+01  0.0000000000000E+00
-0.6875399420804E+00 -0.4514409806315E+01  0.0000000000000E+00
-0.6875532561151E+00 -0.4442017323401E+01  0.0000000000000E+00
-0.6875665701472E+00 -0.4369624854884E+01  0.0000000000000E+00
-0.6875798841843E+00 -0.4297232359164E+01  0.0000000000000E+00
-0.6875931982135E+00 -0.4224839906230E+01  0.0000000000000E+00
-0.6876065122476E+00 -0.4152447426757E+01  0.0000000000000E+00
-0.6876198262808E+00 -0.4080054952602E+01  0.0000000000000E+00
-0.6876331403124E+00 -0.4007662486439E+01  0.0000000000000E+00
-0.6876464543469E+00 -0.3935270005125E+01  0.0000000000000E+00
-0.6876597683769E+00 -0.3862877547551E+01  0.0000000000000E+00
-0.6876730824128E+00 -0.3790485058383E+01  0.0000000000000E+00
-0.6876863964596E+00 -0.3718092510154E+01  0.0000000000000E+00
-0.6876997105025E+00 -0.3645699982529E+01  0.0000000000000E+00
-0.6877130245296E+00 -0.3573307541504E+01  0.0000000000000E+00
-0.6877263386741E+00 -0.3500914461363E+01  0.0000000000000E+00
-0.6877396525963E+00 -0.3428522590798E+01  0.0000000000000E+00
-0.6877529666313E+00 -0.3356130106173E+01  0.0000000000000E+00
-0.6877662806518E+00 -0.3283737700872E+01  0.0000000000000E+00
-0.6877795946553E+00 -0.3211345387775E+01  0.0000000000000E+00
-0.6877929086655E+00 -0.3138953038149E+01  0.0000000000000E+00
-0.6878062226817E+00 -0.3066560656146E+01  0.0000000000000E+00
-0.6878316377421E+00 -0.2994168211858E+01  0.0000000000000E+00
-0.6879470955743E+00 -0.2921775997472E+01  0.0000000000000E+00
-0.6882608225479E+00 -0.2849385350480E+01  0.0000000000000E+00
-0.6888714745171E+00 -0.2776999546033E+01  0.0000000000000E+00
-0.6898516705568E+00 -0.2704624267162E+01  0.0000000000000E+00
-0.6912479864942E+00 -0.2632266658308E+01  0.0000000000000E+00
-0.6930902031963E+00 -0.2559935051537E+01  0.0000000000000E+00
-0.6954019874130E+00 -0.2487638432247E+01  0.0000000000000E+00
-0.6982101127777E+00 -0.2415387515803E+01  0.0000000000000E+00
-0.7015514111604E+00 -0.2343195888146E+01  0.0000000000000E+00
-0.7054238105909E+00 -0.2271073362469E+01  0.0000000000000E+00
-0.7097733159789E+00 -0.2199021696703E+01  0.0000000000000E+00
-0.7145613821325E+00 -0.2127042568627E+01  0.0000000000000E+00
-0.7197655914124E+00 -0.2055138757093E+01  0.0000000000000E+00
-0.7253786282006E+00 -0.1983315164049E+01  0.0000000000000E+00
-0.7314117195845E+00 -0.1911580686551E+01  0.0000000000000E+00
-0.7379100151708E+00 -0.1839952533300E+01  0.0000000000000E+00
-0.6600115347780E+00 -0.4659124038756E+01  0.0000000000000E+00
-0.6600230695320E+00 -0.4586661102847E+01  0.0000000000000E+00
-0.6600346043568E+00 -0.4514197721954E+01  0.0000000000000E+00
-0.6600461391493E+00 -0.4441734544211E+01  0.0000000000000E+00
-0.6600576739395E+00 -0.4369271380878E+01  0.0000000000000E+00
-0.6600692087340E+00 -0.4296808190316E+01  0.0000000000000E+00
-0.6600807435217E+00 -0.4224345042582E+01  0.0000000000000E+00
-0.6600922783136E+00 -0.4151881868284E+01  0.0000000000000E+00
-0.6601038131047E+00 -0.4079418699308E+01  0.0000000000000E+00
-0.6601153478945E+00 -0.4006955538333E+01  0.0000000000000E+00
-0.6601268826867E+00 -0.3934492362191E+01  0.0000000000000E+00
-0.6601384174751E+00 -0.3862029209812E+01  0.0000000000000E+00
-0.6601499522686E+00 -0.3789566025808E+01  0.0000000000000E+00
-0.6601614870715E+00 -0.3717102782687E+01  0.0000000000000E+00
-0.6601730218711E+00 -0.3644639560188E+01  0.0000000000000E+00
-0.6601845566569E+00 -0.3572176424375E+01  0.0000000000000E+00
-0.6601960915445E+00 -0.3499712648821E+01  0.0000000000000E+00
-0.6602076262394E+00 -0.3427250084026E+01  0.0000000000000E+00
-0.6602191610322E+00 -0.3354786904570E+01  0.0000000000000E+00
-0.6602306958123E+00 -0.3282323804515E+01  0.0000000000000E+00
-0.6602422305777E+00 -0.3209860796755E+01  0.0000000000000E+00
-0.6602537653490E+00 -0.3137397752429E+01  0.0000000000000E+00
-0.6602653001253E+00 -0.3064934675696E+01  0.0000000000000E+00
-0.6602884506478E+00 -0.2992471536614E+01  0.0000000000000E+00
-0.6603980328915E+00 -0.2920008627477E+01  0.0000000000000E+00
-0.6606979329459E+00 -0.2847547285856E+01  0.0000000000000E+00
-0.6612828501955E+00 -0.2775090786807E+01  0.0000000000000E+00
-0.6622224914199E+00 -0.2702644813413E+01  0.0000000000000E+00
-0.6635615645806E+00 -0.2630216510033E+01  0.0000000000000E+00
-0.6653286562223E+00 -0.2557814208847E+01  0.0000000000000E+00
-0.6675464839670E+00 -0.2485446895079E+01  0.0000000000000E+00
-0.6702407477259E+00 -0.2413125284116E+01  0.0000000000000E+00
-0.6734468022770E+00 -0.2340862962106E+01  0.0000000000000E+00
-0.6771626587394E+00 -0.2268669741993E+01  0.0000000000000E+00
-0.6813364874278E+00 -0.2196547381714E+01  0.0000000000000E+00
-0.6859312889571E+00 -0.2124497559093E+01  0.0000000000000E+00
-0.6909255447183E+00 -0.2052523052934E+01  0.0000000000000E+00
-0.6963122324769E+00 -0.1980628765193E+01  0.0000000000000E+00
-0.7021021290765E+00 -0.1908823593166E+01  0.0000000000000E+00
-0.7083385734561E+00 -0.1837124745548E+01  0.0000000000000E+00
-0.6325094830437E+00 -0.4659056210321E+01  0.0000000000000E+00
-0.6325189660676E+00 -0.4586525446119E+01  0.0000000000000E+00
-0.6325284491498E+00 -0.4513994236516E+01  0.0000000000000E+00
-0.6325379322054E+00 -0.4441463230253E+01  0.0000000000000E+00
-0.6325474152591E+00 -0.4368932238414E+01  0.0000000000000E+00
-0.6325568983163E+00 -0.4296401219321E+01  0.0000000000000E+00
-0.6325663813680E+00 -0.4223870243095E+01  0.0000000000000E+00
-0.6325758644231E+00 -0.4151339240280E+01  0.0000000000000E+00
-0.6325853474776E+00 -0.4078808242792E+01  0.0000000000000E+00
-0.6325948305309E+00 -0.4006277253313E+01  0.0000000000000E+00
-0.6326043135863E+00 -0.3933746248653E+01  0.0000000000000E+00
-0.6326137966386E+00 -0.3861215267778E+01  0.0000000000000E+00
-0.6326232796950E+00 -0.3788684255248E+01  0.0000000000000E+00
-0.6326327627591E+00 -0.3716153183546E+01  0.0000000000000E+00
-0.6326422458206E+00 -0.3643622132486E+01  0.0000000000000E+00
-0.6326517288707E+00 -0.3571091168192E+01  0.0000000000000E+00
-0.6326612120045E+00 -0.3498559563559E+01  0.0000000000000E+00
-0.6326706949798E+00 -0.3426029170817E+01  0.0000000000000E+00
-0.6326801780356E+00 -0.3353498162840E+01  0.0000000000000E+00
-0.6326896610811E+00 -0.3280967234338E+01  0.0000000000000E+00
-0.6326991441144E+00 -0.3208436398218E+01  0.0000000000000E+00
-0.6327086271525E+00 -0.3135905525497E+01  0.0000000000000E+00
-0.6327181101949E+00 -0.3063374620339E+01  0.0000000000000E+00
-0.6327387236849E+00 -0.2990843652771E+01  0.0000000000000E+00
-0.6328421578459E+00 -0.2918312915189E+01  0.0000000000000E+00
-0.6331279584877E+00 -0.2845783745241E+01  0.0000000000000E+00
-0.6336868685247E+00 -0.2773259417889E+01  0.0000000000000E+00
-0.6345856824418E+00 -0.2700745616269E+01  0.0000000000000E+00
-0.6358672403342E+00 -0.2628249484662E+01  0.0000000000000E+00
-0.6375589344252E+00 -0.2555779355352E+01  0.0000000000000E+00
-0.6396825332080E+00 -0.2483344213402E+01  0.0000000000000E+00
-0.6422626628715E+00 -0.2410954774215E+01  0.0000000000000E+00
-0.6453332011029E+00 -0.2338624624143E+01  0.0000000000000E+00
-0.6488922421098E+00 -0.2266363575889E+01  0.0000000000000E+00
-0.6528901216113E+00 -0.2194173387393E+01  0.0000000000000E+00
-0.6572913860296E+00 -0.2122055736525E+01  0.0000000000000E+00
-0.6620754157856E+00 -0.2050013402043E+01  0.0000000000000E+00
-0.6672354820285E+00 -0.1978051285908E+01  0.0000000000000E+00
-0.6727819113590E+00 -0.1906178285648E+01  0.0000000000000E+00
-0.6787562320482E+00 -0.1834411609955E+01  0.0000000000000E+00
-0.6050071698059E+00 -0.4658991252397E+01  0.0000000000000E+00
-0.6050143395968E+00 -0.4586395530405E+01  0.0000000000000E+00
-0.6050215094317E+00 -0.4513799362613E+01  0.0000000000000E+00
-0.6050286792466E+00 -0.4441203398345E+01  0.0000000000000E+00
-0.6050358490600E+00 -0.4368607448512E+01  0.0000000000000E+00
-0.6050430188761E+00 -0.4296011471401E+01  0.0000000000000E+00
-0.6050501886880E+00 -0.4223415537196E+01  0.0000000000000E+00
-0.6050573585025E+00 -0.4150819576378E+01  0.0000000000000E+00
-0.6050645283165E+00 -0.4078223620892E+01  0.0000000000000E+00
-0.6050716981297E+00 -0.4005627673422E+01  0.0000000000000E+00
-0.6050788679444E+00 -0.3933031710757E+01  0.0000000000000E+00
-0.6050860377568E+00 -0.3860435771899E+01  0.0000000000000E+00
-0.6050932075722E+00 -0.3787839801358E+01  0.0000000000000E+00
-0.6051003773936E+00 -0.3715243771590E+01  0.0000000000000E+00
-0.6051075472128E+00 -0.3642647762484E+01  0.0000000000000E+00
-0.6051147170235E+00 -0.3570051840222E+01  0.0000000000000E+00
-0.6051218868976E+00 -0.3497455277047E+01  0.0000000000000E+00
-0.6051290566518E+00 -0.3424859926848E+01  0.0000000000000E+00
-0.6051362264668E+00 -0.3352263960863E+01  0.0000000000000E+00
-0.6051433962740E+00 -0.3279668074425E+01  0.0000000000000E+00
-0.6051505660720E+00 -0.3207072280451E+01  0.0000000000000E+00
-0.6051577358736E+00 -0.3134476449843E+01  0.0000000000000E+00
-0.6051649056785E+00 -0.3061880586770E+01  0.0000000000000E+00
-0.6051827206324E+00 -0.2989284661228E+01  0.0000000000000E+00
-0.6052797452072E+00 -0.2916688965711E+01  0.0000000000000E+00
-0.6055511849337E+00 -0.2844094837942E+01  0.0000000000000E+00
-0.6060838262558E+00 -0.2771505552792E+01  0.0000000000000E+00
-0.6069415513641E+00 -0.2698926793447E+01  0.0000000000000E+00
-0.6081653324871E+00 -0.2626365704114E+01  0.0000000000000E+00
-0.6097813675272E+00 -0.2553830617177E+01  0.0000000000000E+00
-0.6118104758481E+00 -0.2481330517544E+01  0.0000000000000E+00
-0.6142762099169E+00 -0.2408876120636E+01  0.0000000000000E+00
-0.6172109703304E+00 -0.2336481012995E+01  0.0000000000000E+00
-0.6206129343837E+00 -0.2264155007098E+01  0.0000000000000E+00
-0.6244346032008E+00 -0.2191899860885E+01  0.0000000000000E+00
-0.6286420690109E+00 -0.2119717252272E+01  0.0000000000000E+00
-0.6332156112646E+00 -0.2047609959972E+01  0.0000000000000E+00
-0.6381487944950E+00 -0.1975582885952E+01  0.0000000000000E+00
-0.6434514950607E+00 -0.1903644927961E+01  0.0000000000000E+00
-0.6491634305650E+00 -0.1831813294687E+01  0.0000000000000E+00
-0.5775046061084E+00 -0.4658929169017E+01  0.0000000000000E+00
-0.5775092122072E+00 -0.4586271363775E+01  0.0000000000000E+00
-0.5775138183343E+00 -0.4513613112352E+01  0.0000000000000E+00
-0.5775184244485E+00 -0.4440955064626E+01  0.0000000000000E+00
-0.5775230305618E+00 -0.4368297031349E+01  0.0000000000000E+00
-0.5775276366768E+00 -0.4295638970769E+01  0.0000000000000E+00
-0.5775322427890E+00 -0.4222980953132E+01  0.0000000000000E+00
-0.5775368489030E+00 -0.4150322908860E+01  0.0000000000000E+00
-0.5775414550166E+00 -0.4077664869924E+01  0.0000000000000E+00
-0.5775460611297E+00 -0.4005006839010E+01  0.0000000000000E+00
-0.5775506672438E+00 -0.3932348792890E+01  0.0000000000000E+00
-0.5775552733564E+00 -0.3859690770596E+01  0.0000000000000E+00
-0.5775598794710E+00 -0.3787032716592E+01  0.0000000000000E+00
-0.5775644855893E+00 -0.3714374603311E+01  0.0000000000000E+00
-0.5775690917063E+00 -0.3641716510709E+01  0.0000000000000E+00
-0.5775736978178E+00 -0.3569058505025E+01  0.0000000000000E+00
-0.5775783039700E+00 -0.3496399857880E+01  0.0000000000000E+00
-0.5775829100452E+00 -0.3423742424750E+01  0.0000000000000E+00
-0.5775875161595E+00 -0.3351084375306E+01  0.0000000000000E+00
-0.5775921222688E+00 -0.3278426405476E+01  0.0000000000000E+00
-0.5775967283721E+00 -0.3205768528191E+01  0.0000000000000E+00
-0.5776013344778E+00 -0.3133110614240E+01  0.0000000000000E+00
-0.5776059405856E+00 -0.3060452667796E+01  0.0000000000000E+00
-0.5776207065436E+00 -0.2987794658827E+01  0.0000000000000E+00
-0.5777110710727E+00 -0.2915136879922E+01  0.0000000000000E+00
-0.5779678994248E+00 -0.2842480668871E+01  0.0000000000000E+00
-0.5784740215735E+00 -0.2769829300463E+01  0.0000000000000E+00
-0.5792904074149E+00 -0.2697188457929E+01  0.0000000000000E+00
-0.5804561613110E+00 -0.2624565285406E+01  0.0000000000000E+00
-0.5819962868433E+00 -0.2551968115375E+01  0.0000000000000E+00
-0.5839306542459E+00 -0.2479405932593E+01  0.0000000000000E+00
-0.5862817422636E+00 -0.2406889452499E+01  0.0000000000000E+00
-0.5890804744040E+00 -0.2334432261820E+01  0.0000000000000E+00
-0.5923251110489E+00 -0.2262044172811E+01  0.0000000000000E+00
-0.5959703187267E+00 -0.2189726943418E+01  0.0000000000000E+00
-0.5999837354740E+00 -0.2117482251598E+01  0.0000000000000E+00
-0.6043465397710E+00 -0.2045312876019E+01  0.0000000000000E+00
-0.6090525895346E+00 -0.1973223718658E+01  0.0000000000000E+00
-0.6141113108821E+00 -0.1901223677472E+01  0.0000000000000E+00
-0.6195606107491E+00 -0.1829329961147E+01  0.0000000000000E+00
-0.5500018030462E+00 -0.4658869964047E+01  0.0000000000000E+00
-0.5500036060886E+00 -0.4586152953959E+01  0.0000000000000E+00
-0.5500054091420E+00 -0.4513435497326E+01  0.0000000000000E+00
-0.5500072121905E+00 -0.4440718244555E+01  0.0000000000000E+00
-0.5500090152385E+00 -0.4368001006246E+01  0.0000000000000E+00
-0.5500108182873E+00 -0.4295283740612E+01  0.0000000000000E+00
-0.5500126213350E+00 -0.4222566517955E+01  0.0000000000000E+00
-0.5500144243833E+00 -0.4149849268642E+01  0.0000000000000E+00
-0.5500162274315E+00 -0.4077132024669E+01  0.0000000000000E+00
-0.5500180304795E+00 -0.4004414788725E+01  0.0000000000000E+00
-0.5500198335279E+00 -0.3931697537561E+01  0.0000000000000E+00
-0.5500216365757E+00 -0.3858980310244E+01  0.0000000000000E+00
-0.5500234396243E+00 -0.3786263051191E+01  0.0000000000000E+00
-0.5500252426743E+00 -0.3713545732813E+01  0.0000000000000E+00
-0.5500270457239E+00 -0.3640828435130E+01  0.0000000000000E+00
-0.5500288487712E+00 -0.3568111224436E+01  0.0000000000000E+00
-0.5500306518345E+00 -0.3495393371759E+01  0.0000000000000E+00
-0.5500324548677E+00 -0.3422676734085E+01  0.0000000000000E+00
-0.5500342579162E+00 -0.3349959479596E+01  0.0000000000000E+00
-0.5500360609627E+00 -0.3277242304786E+01  0.0000000000000E+00
-0.5500378640069E+00 -0.3204525222595E+01  0.0000000000000E+00
-0.5500396670520E+00 -0.3131808103709E+01  0.0000000000000E+00
-0.5500414700979E+00 -0.3059090952303E+01  0.0000000000000E+00
-0.5500529476950E+00 -0.2986373738320E+01  0.0000000000000E+00
-0.5501364128136E+00 -0.2913656754436E+01  0.0000000000000E+00
-0.5503783904272E+00 -0.2840941338509E+01  0.0000000000000E+00
-0.5508577540385E+00 -0.2768230765247E+01  0.0000000000000E+00
-0.5516325612498E+00 -0.2695530717925E+01  0.0000000000000E+00
-0.5527400485558E+00 -0.2622848340613E+01  0.0000000000000E+00
-0.5542040252180E+00 -0.2550191965884E+01  0.0000000000000E+00
-0.5560434123399E+00 -0.2477570578353E+01  0.0000000000000E+00
-0.5582796149445E+00 -0.2404994893474E+01  0.0000000000000E+00
-0.5609420794508E+00 -0.2332478498149E+01  0.0000000000000E+00
-0.5640291493261E+00 -0.2260031204427E+01  0.0000000000000E+00
-0.5674976565036E+00 -0.2187654770253E+01  0.0000000000000E+00
-0.5713167848275E+00 -0.2115350873628E+01  0.0000000000000E+00
-0.5754686118071E+00 -0.2043122293177E+01  0.0000000000000E+00
-0.5799472887431E+00 -0.1970973930881E+01  0.0000000000000E+00
-0.5847617915126E+00 -0.1898914684902E+01  0.0000000000000E+00
-0.5899482163835E+00 -0.1826961763921E+01  0.0000000000000E+00
-0.5225031123729E+00 -0.4658813981278E+01  0.0000000000000E+00
-0.5225062247393E+00 -0.4586040988536E+01  0.0000000000000E+00
-0.5225093371249E+00 -0.4513267548907E+01  0.0000000000000E+00
-0.5225124495017E+00 -0.4440494313297E+01  0.0000000000000E+00
-0.5225155618779E+00 -0.4367721092158E+01  0.0000000000000E+00
-0.5225186742552E+00 -0.4294947843675E+01  0.0000000000000E+00
-0.5225217866308E+00 -0.4222174638202E+01  0.0000000000000E+00
-0.5225248990074E+00 -0.4149401406051E+01  0.0000000000000E+00
-0.5225280113839E+00 -0.4076628179245E+01  0.0000000000000E+00
-0.5225311237600E+00 -0.4003854960475E+01  0.0000000000000E+00
-0.5225342361367E+00 -0.3931081726473E+01  0.0000000000000E+00
-0.5225373485124E+00 -0.3858308516336E+01  0.0000000000000E+00
-0.5225404608895E+00 -0.3785535274437E+01  0.0000000000000E+00
-0.5225435732691E+00 -0.3712761973169E+01  0.0000000000000E+00
-0.5225466856479E+00 -0.3639988692612E+01  0.0000000000000E+00
-0.5225497980229E+00 -0.3567215499111E+01  0.0000000000000E+00
-0.5225529104254E+00 -0.3494441663132E+01  0.0000000000000E+00
-0.5225560227759E+00 -0.3421669043092E+01  0.0000000000000E+00
-0.5225591351527E+00 -0.3348895805762E+01  0.0000000000000E+00
-0.5225622475262E+00 -0.3276122648172E+01  0.0000000000000E+00
-0.5225653598957E+00 -0.3203349583273E+01  0.0000000000000E+00
-0.5225684722668E+00 -0.3130576481651E+01  0.0000000000000E+00
-0.5225715846393E+00 -0.3057803347483E+01  0.0000000000000E+00
-0.5225838878364E+00 -0.2985030150688E+01  0.0000000000000E+00
-0.5226645791765E+00 -0.2912257184026E+01  0.0000000000000E+00
-0.5228958573808E+00 -0.2839485785418E+01  0.0000000000000E+00
-0.5233526522770E+00 -0.2766719229496E+01  0.0000000000000E+00
-0.5240901185848E+00 -0.2693963199577E+01  0.0000000000000E+00
-0.5251436309752E+00 -0.2621224839666E+01  0.0000000000000E+00
-0.5265358082435E+00 -0.2548512482425E+01  0.0000000000000E+00
-0.5282846254413E+00 -0.2475835112332E+01  0.0000000000000E+00
-0.5304104173394E+00 -0.2403203444858E+01  0.0000000000000E+00
-0.5329411580310E+00 -0.2330631067071E+01  0.0000000000000E+00
-0.5358752738152E+00 -0.2258127790822E+01  0.0000000000000E+00
-0.5391717550294E+00 -0.2185695374059E+01  0.0000000000000E+00
-0.5428013263252E+00 -0.2113335494818E+01  0.0000000000000E+00
-0.5467469613379E+00 -0.2041050931690E+01  0.0000000000000E+00
-0.5510031038032E+00 -0.1968846586659E+01  0.0000000000000E+00
-0.5555782807994E+00 -0.1896731358076E+01  0.0000000000000E+00
-0.5605067837800E+00 -0.1824722454622E+01  0.0000000000000E+00
-0.4950042080534E+00 -0.4658760848519E+01  0.0000000000000E+00
-0.4950084160981E+00 -0.4585934723130E+01  0.0000000000000E+00
-0.4950126241686E+00 -0.4513108150526E+01  0.0000000000000E+00
-0.4950168322273E+00 -0.4440281782090E+01  0.0000000000000E+00
-0.4950210402851E+00 -0.4367455428137E+01  0.0000000000000E+00
-0.4950252483446E+00 -0.4294629046819E+01  0.0000000000000E+00
-0.4950294564015E+00 -0.4221802708543E+01  0.0000000000000E+00
-0.4950336644600E+00 -0.4148976343569E+01  0.0000000000000E+00
-0.4950378725182E+00 -0.4076149983944E+01  0.0000000000000E+00
-0.4950420805759E+00 -0.4003323632361E+01  0.0000000000000E+00
-0.4950462886345E+00 -0.3930497265535E+01  0.0000000000000E+00
-0.4950504966917E+00 -0.3857670922591E+01  0.0000000000000E+00
-0.4950547047508E+00 -0.3784844547863E+01  0.0000000000000E+00
-0.4950589128133E+00 -0.3712018113721E+01  0.0000000000000E+00
-0.4950631208746E+00 -0.3639191700306E+01  0.0000000000000E+00
-0.4950673289308E+00 -0.3566365374010E+01  0.0000000000000E+00
-0.4950715370242E+00 -0.3493538404768E+01  0.0000000000000E+00
-0.4950757450473E+00 -0.3420712652352E+01  0.0000000000000E+00
-0.4950799531061E+00 -0.3347886282195E+01  0.0000000000000E+00
-0.4950841611603E+00 -0.3275059991837E+01  0.0000000000000E+00
-0.4950883692091E+00 -0.3202233794237E+01  0.0000000000000E+00
-0.4950925772601E+00 -0.3129407559887E+01  0.0000000000000E+00
-0.4950967853129E+00 -0.3056581292968E+01  0.0000000000000E+00
-0.4951097004640E+00 -0.2983754963374E+01  0.0000000000000E+00
-0.4951874043817E+00 -0.2910928863946E+01  0.0000000000000E+00
-0.4954077695377E+00 -0.2838104332664E+01  0.0000000000000E+00
-0.4958417820870E+00 -0.2765284644087E+01  0.0000000000000E+00
-0.4965416938684E+00 -0.2692475481572E+01  0.0000000000000E+00
-0.4975410177298E+00 -0.2619683989065E+01  0.0000000000000E+00
-0.4988611820019E+00 -0.2546918499309E+01  0.0000000000000E+00
-0.5005192156838E+00 -0.2474187996655E+01  0.0000000000000E+00
-0.5025343832951E+00 -0.2401503196589E+01  0.0000000000000E+00
-0.5049331866049E+00 -0.2328877686334E+01  0.0000000000000E+00
-0.5077141347430E+00 -0.2256321277556E+01  0.0000000000000E+00
-0.5108383764496E+00 -0.2183835728204E+01  0.0000000000000E+00
-0.5142781771833E+00 -0.2111422716353E+01  0.0000000000000E+00
-0.5180174067047E+00 -0.2039085020552E+01  0.0000000000000E+00
-0.5220508011842E+00 -0.1966827542795E+01  0.0000000000000E+00
-0.5263864389021E+00 -0.1894659181612E+01  0.0000000000000E+00
-0.5310568064991E+00 -0.1822597145681E+01  0.0000000000000E+00
-0.4675051002525E+00 -0.4658710568986E+01  0.0000000000000E+00
-0.4675102004944E+00 -0.4585834164169E+01  0.0000000000000E+00
-0.4675153007675E+00 -0.4512957311829E+01  0.0000000000000E+00
-0.4675204010264E+00 -0.4440080663798E+01  0.0000000000000E+00
-0.4675255012843E+00 -0.4367204030259E+01  0.0000000000000E+00
-0.4675306015441E+00 -0.4294327369336E+01  0.0000000000000E+00
-0.4675357018008E+00 -0.4221450751485E+01  0.0000000000000E+00
-0.4675408020595E+00 -0.4148574106919E+01  0.0000000000000E+00
-0.4675459023178E+00 -0.4075697467704E+01  0.0000000000000E+00
-0.4675510025755E+00 -0.4002820836537E+01  0.0000000000000E+00
-0.4675561028342E+00 -0.3929944190116E+01  0.0000000000000E+00
-0.4675612030913E+00 -0.3857067567594E+01  0.0000000000000E+00
-0.4675663033506E+00 -0.3784190913266E+01  0.0000000000000E+00
-0.4675714036141E+00 -0.3711314199484E+01  0.0000000000000E+00
-0.4675765038762E+00 -0.3638437506442E+01  0.0000000000000E+00
-0.4675816041321E+00 -0.3565560900580E+01  0.0000000000000E+00
-0.4675867044331E+00 -0.3492683651327E+01  0.0000000000000E+00
-0.4675918046488E+00 -0.3419807619741E+01  0.0000000000000E+00
-0.4675969049078E+00 -0.3346930969987E+01  0.0000000000000E+00
-0.4676020051612E+00 -0.3274054400087E+01  0.0000000000000E+00
-0.4676071054081E+00 -0.3201177923009E+01  0.0000000000000E+00
-0.4676122056576E+00 -0.3128301409157E+01  0.0000000000000E+00
-0.4676173059094E+00 -0.3055424862712E+01  0.0000000000000E+00
-0.4676306295327E+00 -0.2982548253547E+01  0.0000000000000E+00
-0.4677051425463E+00 -0.2909671874579E+01  0.0000000000000E+00
-0.4679143911723E+00 -0.2836797063844E+01  0.0000000000000E+00
-0.4683254178920E+00 -0.2763927095833E+01  0.0000000000000E+00
-0.4689875716638E+00 -0.2691067653940E+01  0.0000000000000E+00
-0.4699325035119E+00 -0.2618225882054E+01  0.0000000000000E+00
-0.4711804513026E+00 -0.2545410112997E+01  0.0000000000000E+00
-0.4727474979822E+00 -0.2472629330997E+01  0.0000000000000E+00
-0.4746518378190E+00 -0.2399894251555E+01  0.0000000000000E+00
-0.4769185002582E+00 -0.2327218462044E+01  0.0000000000000E+00
-0.4795460772598E+00 -0.2254611773950E+01  0.0000000000000E+00
-0.4824978759672E+00 -0.2182075945228E+01  0.0000000000000E+00
-0.4857477026460E+00 -0.2109612653982E+01  0.0000000000000E+00
-0.4892803231818E+00 -0.2037224678732E+01  0.0000000000000E+00
-0.4930907661800E+00 -0.1964916921473E+01  0.0000000000000E+00
-0.4971866611237E+00 -0.1892698280907E+01  0.0000000000000E+00
-0.5015986898404E+00 -0.1820585965710E+01  0.0000000000000E+00
-0.4400057998211E+00 -0.4658663145781E+01  0.0000000000000E+00
-0.4400115996301E+00 -0.4585739317857E+01  0.0000000000000E+00
-0.4400173994747E+00 -0.4512815042119E+01  0.0000000000000E+00
-0.4400231993031E+00 -0.4439890970823E+01  0.0000000000000E+00
-0.4400289991303E+00 -0.4366966914029E+01  0.0000000000000E+00
-0.4400347989596E+00 -0.4294042829833E+01  0.0000000000000E+00
-0.4400405987856E+00 -0.4221118788737E+01  0.0000000000000E+00
-0.4400463986137E+00 -0.4148194720907E+01  0.0000000000000E+00
-0.4400521984413E+00 -0.4075270658434E+01  0.0000000000000E+00
-0.4400579982683E+00 -0.4002346604013E+01  0.0000000000000E+00
-0.4400637980966E+00 -0.3929422534328E+01  0.0000000000000E+00
-0.4400695979229E+00 -0.3856498488558E+01  0.0000000000000E+00
-0.4400753977517E+00 -0.3783574410961E+01  0.0000000000000E+00
-0.4400811975853E+00 -0.3710650273871E+01  0.0000000000000E+00
-0.4400869974173E+00 -0.3637726157535E+01  0.0000000000000E+00
-0.4400927972423E+00 -0.3564802128435E+01  0.0000000000000E+00
-0.4400985971185E+00 -0.3491877455526E+01  0.0000000000000E+00
-0.4401043968978E+00 -0.3418954001076E+01  0.0000000000000E+00
-0.4401101967263E+00 -0.3346029928056E+01  0.0000000000000E+00
-0.4401159965484E+00 -0.3273105934943E+01  0.0000000000000E+00
-0.4401217963631E+00 -0.3200182034711E+01  0.0000000000000E+00
-0.4401275961808E+00 -0.3127258097681E+01  0.0000000000000E+00
-0.4401333960011E+00 -0.3054334128038E+01  0.0000000000000E+00
-0.4401469354660E+00 -0.2981410095632E+01  0.0000000000000E+00
-0.4402180649440E+00 -0.2908486293451E+01  0.0000000000000E+00
-0.4404160044070E+00 -0.2835564059586E+01  0.0000000000000E+00
-0.4408038526617E+00 -0.2762646668462E+01  0.0000000000000E+00
-0.4414280557851E+00 -0.2689739803510E+01  0.0000000000000E+00
-0.4423184029774E+00 -0.2616850608563E+01  0.0000000000000E+00
-0.4434939416404E+00 -0.2543987416518E+01  0.0000000000000E+00
-0.4449698086669E+00 -0.2471159211489E+01  0.0000000000000E+00
-0.4467631280738E+00 -0.2398376708990E+01  0.0000000000000E+00
-0.4488974569826E+00 -0.2325653496533E+01  0.0000000000000E+00
-0.4513714701828E+00 -0.2252999385440E+01  0.0000000000000E+00
-0.4541506332215E+00 -0.2180416133664E+01  0.0000000000000E+00
-0.4572102931718E+00 -0.2107905419345E+01  0.0000000000000E+00
-0.4605361120445E+00 -0.2035470020967E+01  0.0000000000000E+00
-0.4641234108799E+00 -0.1963114840532E+01  0.0000000000000E+00
-0.4679793703646E+00 -0.1890848776901E+01  0.0000000000000E+00
-0.4721328675123E+00 -0.1818689038749E+01  0.0000000000000E+00
-0.4125063188255E+00 -0.4658618581908E+01  0.0000000000000E+00
-0.4125126376377E+00 -0.4585650190204E+01  0.0000000000000E+00
-0.4125189564888E+00 -0.4512681350412E+01  0.0000000000000E+00
-0.4125252753222E+00 -0.4439712715187E+01  0.0000000000000E+00
-0.4125315941543E+00 -0.4366744094473E+01  0.0000000000000E+00
-0.4125379129888E+00 -0.4293775446340E+01  0.0000000000000E+00
-0.4125442318196E+00 -0.4220806841334E+01  0.0000000000000E+00
-0.4125505506527E+00 -0.4147838209578E+01  0.0000000000000E+00
-0.4125568694853E+00 -0.4074869583181E+01  0.0000000000000E+00
-0.4125631883172E+00 -0.4001900964841E+01  0.0000000000000E+00
-0.4125695071504E+00 -0.3928932331228E+01  0.0000000000000E+00
-0.4125758259816E+00 -0.3855963721545E+01  0.0000000000000E+00
-0.4125821448155E+00 -0.3782995080015E+01  0.0000000000000E+00
-0.4125884636546E+00 -0.3710026378956E+01  0.0000000000000E+00
-0.4125947824919E+00 -0.3637057698663E+01  0.0000000000000E+00
-0.4126011013216E+00 -0.3564089105661E+01  0.0000000000000E+00
-0.4126074202071E+00 -0.3491119868455E+01  0.0000000000000E+00
-0.4126137389871E+00 -0.3418151850454E+01  0.0000000000000E+00
-0.4126200578206E+00 -0.3345183213504E+01  0.0000000000000E+00
-0.4126263766472E+00 -0.3272214656509E+01  0.0000000000000E+00
-0.4126326954657E+00 -0.3199246192453E+01  0.0000000000000E+00
-0.4126390142875E+00 -0.3126277691576E+01  0.0000000000000E+00
-0.4126453331121E+00 -0.3053309158066E+01  0.0000000000000E+00
-0.4126589078544E+00 -0.2980340561753E+01  0.0000000000000E+00
-0.4127264732346E+00 -0.2907372195693E+01  0.0000000000000E+00
-0.4129129229765E+00 -0.2834405398026E+01  0.0000000000000E+00
-0.4132774122137E+00 -0.2761443443115E+01  0.0000000000000E+00
-0.4138634841439E+00 -0.2688492014427E+01  0.0000000000000E+00
-0.4146990661436E+00 -0.2615558255743E+01  0.0000000000000E+00
-0.4158020151508E+00 -0.2542650500030E+01  0.0000000000000E+00
-0.4171865220053E+00 -0.2469777731294E+01  0.0000000000000E+00
-0.4188686404727E+00 -0.2396950665061E+01  0.0000000000000E+00
-0.4208704553524E+00 -0.2324182888976E+01  0.0000000000000E+00
-0.4231907242625E+00 -0.2251484214202E+01  0.0000000000000E+00
-0.4257970711529E+00 -0.2178856398696E+01  0.0000000000000E+00
-0.4286663839034E+00 -0.2106301120627E+01  0.0000000000000E+00
-0.4317852206497E+00 -0.2033821158450E+01  0.0000000000000E+00
-0.4351491948666E+00 -0.1961421414169E+01  0.0000000000000E+00
-0.4387650384451E+00 -0.1889110786798E+01  0.0000000000000E+00
-0.4426598235861E+00 -0.1816906485009E+01  0.0000000000000E+00
-0.3850066669832E+00 -0.4658576880046E+01  0.0000000000000E+00
-0.3850133339525E+00 -0.4585566786567E+01  0.0000000000000E+00
-0.3850200009627E+00 -0.4512556244743E+01  0.0000000000000E+00
-0.3850266679543E+00 -0.4439545907604E+01  0.0000000000000E+00
-0.3850333349445E+00 -0.4366535584984E+01  0.0000000000000E+00
-0.3850400019372E+00 -0.4293525234929E+01  0.0000000000000E+00
-0.3850466689260E+00 -0.4220514928026E+01  0.0000000000000E+00
-0.3850533359172E+00 -0.4147504594357E+01  0.0000000000000E+00
-0.3850600029079E+00 -0.4074494266050E+01  0.0000000000000E+00
-0.3850666698979E+00 -0.4001483945806E+01  0.0000000000000E+00
-0.3850733368893E+00 -0.3928473610280E+01  0.0000000000000E+00
-0.3850800038785E+00 -0.3855463298697E+01  0.0000000000000E+00
-0.3850866708707E+00 -0.3782452955249E+01  0.0000000000000E+00
-0.3850933378682E+00 -0.3709442552238E+01  0.0000000000000E+00
-0.3851000048639E+00 -0.3636432170005E+01  0.0000000000000E+00
-0.3851066718516E+00 -0.3563421875112E+01  0.0000000000000E+00
-0.3851133388981E+00 -0.3490410935648E+01  0.0000000000000E+00
-0.3851200058333E+00 -0.3417401216084E+01  0.0000000000000E+00
-0.3851266728250E+00 -0.3344390877219E+01  0.0000000000000E+00
-0.3851333398094E+00 -0.3271380618355E+01  0.0000000000000E+00
-0.3851400067853E+00 -0.3198370452482E+01  0.0000000000000E+00
-0.3851466737645E+00 -0.3125360249768E+01  0.0000000000000E+00
-0.3851533407468E+00 -0.3052350014401E+01  0.0000000000000E+00
-0.3851667799195E+00 -0.2979339716195E+01  0.0000000000000E+00
-0.3852306103528E+00 -0.2906329648266E+01  0.0000000000000E+00
-0.3854053995203E+00 -0.2833321148803E+01  0.0000000000000E+00
-0.3857463588799E+00 -0.2760317492112E+01  0.0000000000000E+00
-0.3862941287481E+00 -0.2687324361690E+01  0.0000000000000E+00
-0.3870747746768E+00 -0.2614348901271E+01  0.0000000000000E+00
-0.3881049631399E+00 -0.2541399443887E+01  0.0000000000000E+00
-0.3893979389227E+00 -0.2468484973444E+01  0.0000000000000E+00
-0.3909686855394E+00 -0.2395616205479E+01  0.0000000000000E+00
-0.3928378154667E+00 -0.2322806727761E+01  0.0000000000000E+00
-0.3950041691510E+00 -0.2250066351305E+01  0.0000000000000E+00
-0.3974375289459E+00 -0.2177396834071E+01  0.0000000000000E+00
-0.4001163235393E+00 -0.2104799854255E+01  0.0000000000000E+00
-0.4030280071917E+00 -0.2032278190284E+01  0.0000000000000E+00
-0.4061684858133E+00 -0.1959836744166E+01  0.0000000000000E+00
-0.4095440424992E+00 -0.1887484415058E+01  0.0000000000000E+00
-0.4131799446368E+00 -0.1815238411627E+01  0.0000000000000E+00
-0.3575068566982E+00 -0.4658538042865E+01  0.0000000000000E+00
-0.3575137133821E+00 -0.4585489112285E+01  0.0000000000000E+00
-0.3575205701081E+00 -0.4512439733123E+01  0.0000000000000E+00
-0.3575274268148E+00 -0.4439390558754E+01  0.0000000000000E+00
-0.3575342835202E+00 -0.4366341398912E+01  0.0000000000000E+00
-0.3575411402282E+00 -0.4293292211620E+01  0.0000000000000E+00
-0.3575479969321E+00 -0.4220243067503E+01  0.0000000000000E+00
-0.3575548536386E+00 -0.4147193896606E+01  0.0000000000000E+00
-0.3575617103445E+00 -0.4074144731074E+01  0.0000000000000E+00
-0.3575685670497E+00 -0.4001095573609E+01  0.0000000000000E+00
-0.3575754237563E+00 -0.3928046400854E+01  0.0000000000000E+00
-0.3575822804607E+00 -0.3854997252054E+01  0.0000000000000E+00
-0.3575891371681E+00 -0.3781948071373E+01  0.0000000000000E+00
-0.3575959938810E+00 -0.3708898831097E+01  0.0000000000000E+00
-0.3576028505920E+00 -0.3635849611611E+01  0.0000000000000E+00
-0.3576097072948E+00 -0.3562800479510E+01  0.0000000000000E+00
-0.3576165640582E+00 -0.3489750702496E+01  0.0000000000000E+00
-0.3576234207069E+00 -0.3416702146031E+01  0.0000000000000E+00
-0.3576302774139E+00 -0.3343652969935E+01  0.0000000000000E+00
-0.3576371341133E+00 -0.3270603873882E+01  0.0000000000000E+00
-0.3576439908040E+00 -0.3197554870871E+01  0.0000000000000E+00
-0.3576508474981E+00 -0.3124505830998E+01  0.0000000000000E+00
-0.3576577041953E+00 -0.3051456758456E+01  0.0000000000000E+00
-0.3576708493558E+00 -0.2978407623039E+01  0.0000000000000E+00
-0.3577307864007E+00 -0.2905358717923E+01  0.0000000000000E+00
-0.3578937565552E+00 -0.2832311381340E+01  0.0000000000000E+00
-0.3582110276026E+00 -0.2759268887544E+01  0.0000000000000E+00
-0.3587203369794E+00 -0.2686236920060E+01  0.0000000000000E+00
-0.3594458884130E+00 -0.2613222622579E+01  0.0000000000000E+00
-0.3604031579141E+00 -0.2540234328192E+01  0.0000000000000E+00
-0.3616044442134E+00 -0.2467281020712E+01  0.0000000000000E+00
-0.3630636605739E+00 -0.2394373415687E+01  0.0000000000000E+00
-0.3647999471507E+00 -0.2321525101001E+01  0.0000000000000E+00
-0.3668122272178E+00 -0.2248745887532E+01  0.0000000000000E+00
-0.3690724415322E+00 -0.2176037533241E+01  0.0000000000000E+00
-0.3715605595890E+00 -0.2103401716352E+01  0.0000000000000E+00
-0.3742649317735E+00 -0.2030841215263E+01  0.0000000000000E+00
-0.3771817564307E+00 -0.1958360931988E+01  0.0000000000000E+00
-0.3803168678611E+00 -0.1885969765814E+01  0.0000000000000E+00
-0.3836937286386E+00 -0.1813684925408E+01  0.0000000000000E+00
-0.3300068987676E+00 -0.4658502072758E+01  0.0000000000000E+00
-0.3300137975208E+00 -0.4585417172147E+01  0.0000000000000E+00
-0.3300206963164E+00 -0.4512331822732E+01  0.0000000000000E+00
-0.3300275950926E+00 -0.4439246678212E+01  0.0000000000000E+00
-0.3300344938675E+00 -0.4366161548225E+01  0.0000000000000E+00
-0.3300413926450E+00 -0.4293076390776E+01  0.0000000000000E+00
-0.3300482914184E+00 -0.4219991276521E+01  0.0000000000000E+00
-0.3300551901943E+00 -0.4146906135475E+01  0.0000000000000E+00
-0.3300620889697E+00 -0.4073820999796E+01  0.0000000000000E+00
-0.3300689877443E+00 -0.4000735872187E+01  0.0000000000000E+00
-0.3300758865204E+00 -0.3927650729281E+01  0.0000000000000E+00
-0.3300827852943E+00 -0.3854565610343E+01  0.0000000000000E+00
-0.3300896840711E+00 -0.3781480459507E+01  0.0000000000000E+00
-0.3300965828536E+00 -0.3708395249047E+01  0.0000000000000E+00
-0.3301034816341E+00 -0.3635310059386E+01  0.0000000000000E+00
-0.3301103804063E+00 -0.3562224957155E+01  0.0000000000000E+00
-0.3301172792395E+00 -0.3489139209693E+01  0.0000000000000E+00
-0.3301241779574E+00 -0.3416054683381E+01  0.0000000000000E+00
-0.3301310767338E+00 -0.3342969537132E+01  0.0000000000000E+00
-0.3301379755026E+00 -0.3269884470966E+01  0.0000000000000E+00
-0.3301448742627E+00 -0.3196799497888E+01  0.0000000000000E+00
-0.3301517730262E+00 -0.3123714487929E+01  0.0000000000000E+00
-0.3301586717929E+00 -0.3050629445286E+01  0.0000000000000E+00
-0.3301713752953E+00 -0.2977544339735E+01  0.0000000000000E+00
-0.3302272713064E+00 -0.2904459464508E+01  0.0000000000000E+00
-0.3303782748028E+00 -0.2831376157875E+01  0.0000000000000E+00
-0.3306717098932E+00 -0.2758297694042E+01  0.0000000000000E+00
-0.3311424111341E+00 -0.2685229756563E+01  0.0000000000000E+00
-0.3318127204285E+00 -0.2612179489085E+01  0.0000000000000E+00
-0.3326969233240E+00 -0.2539155224757E+01  0.0000000000000E+00
-0.3338063724964E+00 -0.2466165947304E+01  0.0000000000000E+00
-0.3351539109577E+00 -0.2393222372285E+01  0.0000000000000E+00
-0.3367572065418E+00 -0.2320338087689E+01  0.0000000000000E+00
-0.3386152653497E+00 -0.2247522904270E+01  0.0000000000000E+00
-0.3407021865415E+00 -0.2174778579988E+01  0.0000000000000E+00
-0.3429994804201E+00 -0.2102106793092E+01  0.0000000000000E+00
-0.3454963934951E+00 -0.2029510321956E+01  0.0000000000000E+00
-0.3481894165466E+00 -0.1956994068596E+01  0.0000000000000E+00
-0.3510839350807E+00 -0.1884566932422E+01  0.0000000000000E+00
-0.3542016068581E+00 -0.1812246122100E+01  0.0000000000000E+00
-0.3025068041260E+00 -0.4658468971956E+01  0.0000000000000E+00
-0.3025136082379E+00 -0.4585350970612E+01  0.0000000000000E+00
-0.3025204123915E+00 -0.4512232520260E+01  0.0000000000000E+00
-0.3025272165261E+00 -0.4439114274896E+01  0.0000000000000E+00
-0.3025340206593E+00 -0.4365996044072E+01  0.0000000000000E+00
-0.3025408247951E+00 -0.4292877785773E+01  0.0000000000000E+00
-0.3025476289268E+00 -0.4219759570689E+01  0.0000000000000E+00
-0.3025544330610E+00 -0.4146641328800E+01  0.0000000000000E+00
-0.3025612371948E+00 -0.4073523092281E+01  0.0000000000000E+00
-0.3025680413278E+00 -0.4000404863836E+01  0.0000000000000E+00
-0.3025748454622E+00 -0.3927286620088E+01  0.0000000000000E+00
-0.3025816495944E+00 -0.3854168400317E+01  0.0000000000000E+00
-0.3025884537295E+00 -0.3781050148635E+01  0.0000000000000E+00
-0.3025952578702E+00 -0.3707931837301E+01  0.0000000000000E+00
-0.3026020620090E+00 -0.3634813546776E+01  0.0000000000000E+00
-0.3026088661396E+00 -0.3561695343720E+01  0.0000000000000E+00
-0.3026156703303E+00 -0.3488576495141E+01  0.0000000000000E+00
-0.3026224744073E+00 -0.3415458868265E+01  0.0000000000000E+00
-0.3026292785420E+00 -0.3342340621172E+01  0.0000000000000E+00
-0.3026360826693E+00 -0.3269222454198E+01  0.0000000000000E+00
-0.3026428867879E+00 -0.3196104380354E+01  0.0000000000000E+00
-0.3026496909099E+00 -0.3122986269612E+01  0.0000000000000E+00
-0.3026564950350E+00 -0.3049868126171E+01  0.0000000000000E+00
-0.3026686201683E+00 -0.2976749919793E+01  0.0000000000000E+00
-0.3027203384337E+00 -0.2903631943759E+01  0.0000000000000E+00
-0.3028592385586E+00 -0.2830515536376E+01  0.0000000000000E+00
-0.3031287009763E+00 -0.2757403971806E+01  0.0000000000000E+00
-0.3035606573625E+00 -0.2684302933626E+01  0.0000000000000E+00
-0.3041755877955E+00 -0.2611219565447E+01  0.0000000000000E+00
-0.3049865873595E+00 -0.2538162200469E+01  0.0000000000000E+00
-0.3060040626750E+00 -0.2465139822337E+01  0.0000000000000E+00
-0.3072397865029E+00 -0.2392163146619E+01  0.0000000000000E+00
-0.3087099543557E+00 -0.2319245761402E+01  0.0000000000000E+00
-0.3104136551612E+00 -0.2246397477324E+01  0.0000000000000E+00
-0.3123271464832E+00 -0.2173620052345E+01  0.0000000000000E+00
-0.3144334794324E+00 -0.2100915164739E+01  0.0000000000000E+00
-0.3167227966432E+00 -0.2028285592855E+01  0.0000000000000E+00
-0.3191918813306E+00 -0.1955736238713E+01  0.0000000000000E+00
-0.3218456702067E+00 -0.1883276001836E+01  0.0000000000000E+00
-0.3247040162189E+00 -0.1810922090887E+01  0.0000000000000E+00
-0.2750065847907E+00 -0.4658438742560E+01  0.0000000000000E+00
-0.2750131695678E+00 -0.4585290511882E+01  0.0000000000000E+00
-0.2750197543852E+00 -0.4512141832011E+01  0.0000000000000E+00
-0.2750263391843E+00 -0.4438993357213E+01  0.0000000000000E+00
-0.2750329239819E+00 -0.4365844896960E+01  0.0000000000000E+00
-0.2750395087821E+00 -0.4292696409222E+01  0.0000000000000E+00
-0.2750460935784E+00 -0.4219547964716E+01  0.0000000000000E+00
-0.2750526783771E+00 -0.4146399493394E+01  0.0000000000000E+00
-0.2750592631753E+00 -0.4073251027445E+01  0.0000000000000E+00
-0.2750658479728E+00 -0.4000102569572E+01  0.0000000000000E+00
-0.2750724327716E+00 -0.3926954096390E+01  0.0000000000000E+00
-0.2750790175683E+00 -0.3853805647195E+01  0.0000000000000E+00
-0.2750856023679E+00 -0.3780657166076E+01  0.0000000000000E+00
-0.2750921871729E+00 -0.3707508625281E+01  0.0000000000000E+00
-0.2750987719759E+00 -0.3634360105303E+01  0.0000000000000E+00
-0.2751053567711E+00 -0.3561211672831E+01  0.0000000000000E+00
-0.2751119416245E+00 -0.3488062594568E+01  0.0000000000000E+00
-0.2751185263678E+00 -0.3414914738513E+01  0.0000000000000E+00
-0.2751251111669E+00 -0.3341766261985E+01  0.0000000000000E+00
-0.2751316959589E+00 -0.3268617865609E+01  0.0000000000000E+00
-0.2751382807424E+00 -0.3195469562401E+01  0.0000000000000E+00
-0.2751448655293E+00 -0.3122321222281E+01  0.0000000000000E+00
-0.2751514503191E+00 -0.3049172849447E+01  0.0000000000000E+00
-0.2751628723896E+00 -0.2976024413650E+01  0.0000000000000E+00
-0.2752102882170E+00 -0.2902876208215E+01  0.0000000000000E+00
-0.2753369602811E+00 -0.2829729571484E+01  0.0000000000000E+00
-0.2755823253407E+00 -0.2756587777576E+01  0.0000000000000E+00
-0.2759754121923E+00 -0.2683456510093E+01  0.0000000000000E+00
-0.2765348390895E+00 -0.2610342912610E+01  0.0000000000000E+00
-0.2772725106540E+00 -0.2537255318374E+01  0.0000000000000E+00
-0.2781978874511E+00 -0.2464202710958E+01  0.0000000000000E+00
-0.2793216719906E+00 -0.2391195805938E+01  0.0000000000000E+00
-0.2806585874648E+00 -0.2318248191491E+01  0.0000000000000E+00
-0.2822078056280E+00 -0.2245369678147E+01  0.0000000000000E+00
-0.2839477424465E+00 -0.2172562023869E+01  0.0000000000000E+00
-0.2858629898386E+00 -0.2099826906950E+01  0.0000000000000E+00
-0.2879445865631E+00 -0.2027167105719E+01  0.0000000000000E+00
-0.2901896082697E+00 -0.1954587522199E+01  0.0000000000000E+00
-0.2926025428774E+00 -0.1882097056015E+01  0.0000000000000E+00
-0.2952014385204E+00 -0.1809712915830E+01  0.0000000000000E+00
-0.2475062510879E+00 -0.4658411386417E+01  0.0000000000000E+00
-0.2475125021628E+00 -0.4585235799654E+01  0.0000000000000E+00
-0.2475187532761E+00 -0.4512059763530E+01  0.0000000000000E+00
-0.2475250043718E+00 -0.4438883932554E+01  0.0000000000000E+00
-0.2475312554664E+00 -0.4365708116131E+01  0.0000000000000E+00
-0.2475375065632E+00 -0.4292532272210E+01  0.0000000000000E+00
-0.2475437576564E+00 -0.4219356471539E+01  0.0000000000000E+00
-0.2475500087518E+00 -0.4146180644042E+01  0.0000000000000E+00
-0.2475562598468E+00 -0.4073004821919E+01  0.0000000000000E+00
-0.2475625109411E+00 -0.3999829007876E+01  0.0000000000000E+00
-0.2475687620368E+00 -0.3926653178517E+01  0.0000000000000E+00
-0.2475750131303E+00 -0.3853477373156E+01  0.0000000000000E+00
-0.2475812642266E+00 -0.3780301535857E+01  0.0000000000000E+00
-0.2475875153280E+00 -0.3707125638860E+01  0.0000000000000E+00
-0.2475937664276E+00 -0.3633949762689E+01  0.0000000000000E+00
-0.2476000175198E+00 -0.3560773974055E+01  0.0000000000000E+00
-0.2476062686671E+00 -0.3487597539390E+01  0.0000000000000E+00
-0.2476125197100E+00 -0.3414422327390E+01  0.0000000000000E+00
-0.2476187708059E+00 -0.3341246494684E+01  0.0000000000000E+00
-0.2476250218949E+00 -0.3268070742161E+01  0.0000000000000E+00
-0.2476312729760E+00 -0.3194895082840E+01  0.0000000000000E+00
-0.2476375240603E+00 -0.3121719386594E+01  0.0000000000000E+00
-0.2476437751473E+00 -0.3048543657622E+01  0.0000000000000E+00
-0.2476543797871E+00 -0.2975367865661E+01  0.0000000000000E+00
-0.2476973788073E+00 -0.2902192304079E+01  0.0000000000000E+00
-0.2478117084387E+00 -0.2829018311249E+01  0.0000000000000E+00
-0.2480328617639E+00 -0.2755849161253E+01  0.0000000000000E+00
-0.2483869646989E+00 -0.2682690537711E+01  0.0000000000000E+00
-0.2488907736722E+00 -0.2609549584168E+01  0.0000000000000E+00
-0.2495550028424E+00 -0.2536434633916E+01  0.0000000000000E+00
-0.2503881667191E+00 -0.2463354670459E+01  0.0000000000000E+00
-0.2513998975606E+00 -0.2390320409382E+01  0.0000000000000E+00
-0.2526034462390E+00 -0.2317345438943E+01  0.0000000000000E+00
-0.2539980673341E+00 -0.2244439569574E+01  0.0000000000000E+00
-0.2555643352162E+00 -0.2171604559242E+01  0.0000000000000E+00
-0.2572883826116E+00 -0.2098842086256E+01  0.0000000000000E+00
-0.2591621444036E+00 -0.2026154928927E+01  0.0000000000000E+00
-0.2611829886770E+00 -0.1953547989281E+01  0.0000000000000E+00
-0.2633549545578E+00 -0.1881030167037E+01  0.0000000000000E+00
-0.2656942853663E+00 -0.1808618670854E+01  0.0000000000000E+00
-0.2200058151317E+00 -0.4658386905273E+01  0.0000000000000E+00
-0.2200116302512E+00 -0.4585186837416E+01  0.0000000000000E+00
-0.2200174454065E+00 -0.4511986320049E+01  0.0000000000000E+00
-0.2200232605455E+00 -0.4438786007899E+01  0.0000000000000E+00
-0.2200290756833E+00 -0.4365585710305E+01  0.0000000000000E+00
-0.2200348908233E+00 -0.4292385385205E+01  0.0000000000000E+00
-0.2200407059598E+00 -0.4219185103369E+01  0.0000000000000E+00
-0.2200465210985E+00 -0.4145984794698E+01  0.0000000000000E+00
-0.2200523362367E+00 -0.4072784491403E+01  0.0000000000000E+00
-0.2200581513744E+00 -0.3999584196191E+01  0.0000000000000E+00
-0.2200639665132E+00 -0.3926383885658E+01  0.0000000000000E+00
-0.2200697816501E+00 -0.3853183599130E+01  0.0000000000000E+00
-0.2200755967896E+00 -0.3779983280655E+01  0.0000000000000E+00
-0.2200814119338E+00 -0.3706782902461E+01  0.0000000000000E+00
-0.2200872270764E+00 -0.3633582545100E+01  0.0000000000000E+00
-0.2200930422120E+00 -0.3560382275305E+01  0.0000000000000E+00
-0.2200988573989E+00 -0.3487181359263E+01  0.0000000000000E+00
-0.2201046724887E+00 -0.3413981666295E+01  0.0000000000000E+00
-0.2201104876278E+00 -0.3340781352414E+01  0.0000000000000E+00
-0.2201163027605E+00 -0.3267581118742E+01  0.0000000000000E+00
-0.2201221178858E+00 -0.3194380978304E+01  0.0000000000000E+00
-0.2201279330141E+00 -0.3121180800927E+01  0.0000000000000E+00
-0.2201337481449E+00 -0.3047980590815E+01  0.0000000000000E+00
-0.2201434331007E+00 -0.2974780317691E+01  0.0000000000000E+00
-0.2201819130612E+00 -0.2901580274962E+01  0.0000000000000E+00
-0.2202837980092E+00 -0.2828381801026E+01  0.0000000000000E+00
-0.2204806373518E+00 -0.2755188169933E+01  0.0000000000000E+00
-0.2207956541254E+00 -0.2682005065322E+01  0.0000000000000E+00
-0.2212437429334E+00 -0.2608839630710E+01  0.0000000000000E+00
-0.2218344274720E+00 -0.2535700199426E+01  0.0000000000000E+00
-0.2225752761947E+00 -0.2462595754916E+01  0.0000000000000E+00
-0.2234748511090E+00 -0.2389537012771E+01  0.0000000000000E+00
-0.2245449307669E+00 -0.2316537561322E+01  0.0000000000000E+00
-0.2257848525739E+00 -0.2243607210915E+01  0.0000000000000E+00
-0.2271773493033E+00 -0.2170747719517E+01  0.0000000000000E+00
-0.2287100944895E+00 -0.2097960765455E+01  0.0000000000000E+00
-0.2303759191400E+00 -0.2025249127022E+01  0.0000000000000E+00
-0.2321724837746E+00 -0.1952617706247E+01  0.0000000000000E+00
-0.2341033787265E+00 -0.1880075402931E+01  0.0000000000000E+00
-0.2361830425028E+00 -0.1807639425734E+01  0.0000000000000E+00
-0.1925052879758E+00 -0.4658365300648E+01  0.0000000000000E+00
-0.1925105759406E+00 -0.4585143628212E+01  0.0000000000000E+00
-0.1925158639379E+00 -0.4511921506133E+01  0.0000000000000E+00
-0.1925211519204E+00 -0.4438699589331E+01  0.0000000000000E+00
-0.1925264399018E+00 -0.4365477687090E+01  0.0000000000000E+00
-0.1925317278851E+00 -0.4292255757335E+01  0.0000000000000E+00
-0.1925370158654E+00 -0.4219033870856E+01  0.0000000000000E+00
-0.1925423038476E+00 -0.4145811957534E+01  0.0000000000000E+00
-0.1925475918294E+00 -0.4072590049591E+01  0.0000000000000E+00
-0.1925528798106E+00 -0.3999368149732E+01  0.0000000000000E+00
-0.1925581677930E+00 -0.3926146234548E+01  0.0000000000000E+00
-0.1925634557736E+00 -0.3852924343376E+01  0.0000000000000E+00
-0.1925687437565E+00 -0.3779702420247E+01  0.0000000000000E+00
-0.1925740317437E+00 -0.3706480437382E+01  0.0000000000000E+00
-0.1925793197294E+00 -0.3633258475356E+01  0.0000000000000E+00
-0.1925846077088E+00 -0.3560036600922E+01  0.0000000000000E+00
-0.1925898957349E+00 -0.3486814080050E+01  0.0000000000000E+00
-0.1925951836726E+00 -0.3413592782614E+01  0.0000000000000E+00
-0.1926004716552E+00 -0.3340370864080E+01  0.0000000000000E+00
-0.1926057596320E+00 -0.3267149025780E+01  0.0000000000000E+00
-0.1926110476020E+00 -0.3193927280741E+01  0.0000000000000E+00
-0.1926163355748E+00 -0.3120705498753E+01  0.0000000000000E+00
-0.1926216235498E+00 -0.3047483684019E+01  0.0000000000000E+00
-0.1926302976219E+00 -0.2974261806254E+01  0.0000000000000E+00
-0.1926641673231E+00 -0.2901040158897E+01  0.0000000000000E+00
-0.1927535163882E+00 -0.2827820080371E+01  0.0000000000000E+00
-0.1929259505487E+00 -0.2754604844696E+01  0.0000000000000E+00
-0.1932017899616E+00 -0.2681400135527E+01  0.0000000000000E+00
-0.1935940674049E+00 -0.2608213096357E+01  0.0000000000000E+00
-0.1941111161126E+00 -0.2535052060547E+01  0.0000000000000E+00
-0.1947595584820E+00 -0.2461926011493E+01  0.0000000000000E+00
-0.1955468862697E+00 -0.2388845664791E+01  0.0000000000000E+00
-0.1964834057080E+00 -0.2315824608836E+01  0.0000000000000E+00
-0.1975685370274E+00 -0.2242872653898E+01  0.0000000000000E+00
-0.1987871714047E+00 -0.2169991557945E+01  0.0000000000000E+00
-0.2001285231822E+00 -0.2097182999318E+01  0.0000000000000E+00
-0.2015863194915E+00 -0.2024449756296E+01  0.0000000000000E+00
-0.2031585132875E+00 -0.1951796730910E+01  0.0000000000000E+00
-0.2048482461110E+00 -0.1879232823034E+01  0.0000000000000E+00
-0.2066681516558E+00 -0.1806775241326E+01  0.0000000000000E+00
-0.1650046808342E+00 -0.4658346573894E+01  0.0000000000000E+00
-0.1650093616587E+00 -0.4585106174743E+01  0.0000000000000E+00
-0.1650140425120E+00 -0.4511865325833E+01  0.0000000000000E+00
-0.1650187233521E+00 -0.4438624682253E+01  0.0000000000000E+00
-0.1650234041912E+00 -0.4365384053239E+01  0.0000000000000E+00
-0.1650280850322E+00 -0.4292143396702E+01  0.0000000000000E+00
-0.1650327658704E+00 -0.4218902783454E+01  0.0000000000000E+00
-0.1650374467102E+00 -0.4145662143355E+01  0.0000000000000E+00
-0.1650421275498E+00 -0.4072421508636E+01  0.0000000000000E+00
-0.1650468083888E+00 -0.3999180882004E+01  0.0000000000000E+00
-0.1650514892288E+00 -0.3925940240043E+01  0.0000000000000E+00
-0.1650561700673E+00 -0.3852699622099E+01  0.0000000000000E+00
-0.1650608509078E+00 -0.3779458972191E+01  0.0000000000000E+00
-0.1650655317521E+00 -0.3706218262532E+01  0.0000000000000E+00
-0.1650702125951E+00 -0.3632977573716E+01  0.0000000000000E+00
-0.1650748934325E+00 -0.3559736972516E+01  0.0000000000000E+00
-0.1650795743113E+00 -0.3486495724711E+01  0.0000000000000E+00
-0.1650842551118E+00 -0.3413255700655E+01  0.0000000000000E+00
-0.1650889359520E+00 -0.3340015055344E+01  0.0000000000000E+00
-0.1650936167871E+00 -0.3266774490286E+01  0.0000000000000E+00
-0.1650982976162E+00 -0.3193534018513E+01  0.0000000000000E+00
-0.1651029784477E+00 -0.3120293509782E+01  0.0000000000000E+00
-0.1651076592813E+00 -0.3047052968296E+01  0.0000000000000E+00
-0.1651152424838E+00 -0.2973812363763E+01  0.0000000000000E+00
-0.1651444219395E+00 -0.2900571989649E+01  0.0000000000000E+00
-0.1652211551347E+00 -0.2827333184399E+01  0.0000000000000E+00
-0.1653691041251E+00 -0.2754099222006E+01  0.0000000000000E+00
-0.1656056861875E+00 -0.2680875786140E+01  0.0000000000000E+00
-0.1659420722746E+00 -0.2607670020273E+01  0.0000000000000E+00
-0.1663854051581E+00 -0.2534490257795E+01  0.0000000000000E+00
-0.1669413611788E+00 -0.2461345482056E+01  0.0000000000000E+00
-0.1676163618420E+00 -0.2388246408658E+01  0.0000000000000E+00
-0.1684192410609E+00 -0.2315206626052E+01  0.0000000000000E+00
-0.1693495018906E+00 -0.2242235944441E+01  0.0000000000000E+00
-0.1703941939114E+00 -0.2169336121793E+01  0.0000000000000E+00
-0.1715440722738E+00 -0.2096508836464E+01  0.0000000000000E+00
-0.1727937602337E+00 -0.2023756866719E+01  0.0000000000000E+00
-0.1741415031809E+00 -0.1951085114590E+01  0.0000000000000E+00
-0.1755899938642E+00 -0.1878502480015E+01  0.0000000000000E+00
-0.1771500611639E+00 -0.1806026171652E+01  0.0000000000000E+00
-0.1375040054788E+00 -0.4658330726195E+01  0.0000000000000E+00
-0.1375080109493E+00 -0.4585074479377E+01  0.0000000000000E+00
-0.1375120164444E+00 -0.4511817782703E+01  0.0000000000000E+00
-0.1375160219283E+00 -0.4438561291404E+01  0.0000000000000E+00
-0.1375200274113E+00 -0.4365304814673E+01  0.0000000000000E+00
-0.1375240328959E+00 -0.4292048310415E+01  0.0000000000000E+00
-0.1375280383781E+00 -0.4218791849453E+01  0.0000000000000E+00
-0.1375320438618E+00 -0.4145535361636E+01  0.0000000000000E+00
-0.1375360493451E+00 -0.4072278879200E+01  0.0000000000000E+00
-0.1375400548281E+00 -0.3999022404852E+01  0.0000000000000E+00
-0.1375440603118E+00 -0.3925765915171E+01  0.0000000000000E+00
-0.1375480657943E+00 -0.3852509449514E+01  0.0000000000000E+00
-0.1375520712785E+00 -0.3779252951886E+01  0.0000000000000E+00
-0.1375560767660E+00 -0.3705996394492E+01  0.0000000000000E+00
-0.1375600822523E+00 -0.3632739857948E+01  0.0000000000000E+00
-0.1375640877338E+00 -0.3559483409037E+01  0.0000000000000E+00
-0.1375680932507E+00 -0.3486226313383E+01  0.0000000000000E+00
-0.1375720987007E+00 -0.3412970441741E+01  0.0000000000000E+00
-0.1375761041846E+00 -0.3339713948710E+01  0.0000000000000E+00
-0.1375801096642E+00 -0.3266457535950E+01  0.0000000000000E+00
-0.1375841151387E+00 -0.3193201216495E+01  0.0000000000000E+00
-0.1375881206152E+00 -0.3119944860073E+01  0.0000000000000E+00
-0.1375921260934E+00 -0.3046688470890E+01  0.0000000000000E+00
-0.1375985502126E+00 -0.2973432018646E+01  0.0000000000000E+00
-0.1376229712097E+00 -0.2900175796830E+01  0.0000000000000E+00
-0.1376870203236E+00 -0.2826921143905E+01  0.0000000000000E+00
-0.1378104159346E+00 -0.2753671333843E+01  0.0000000000000E+00
-0.1380076724401E+00 -0.2680432050327E+01  0.0000000000000E+00
-0.1382880989677E+00 -0.2607210436809E+01  0.0000000000000E+00
-0.1386576478271E+00 -0.2534014826704E+01  0.0000000000000E+00
-0.1391210493026E+00 -0.2460854203325E+01  0.0000000000000E+00
-0.1396836546487E+00 -0.2387739282277E+01  0.0000000000000E+00
-0.1403528254594E+00 -0.2314683652058E+01  0.0000000000000E+00
-0.1411281476146E+00 -0.2241697122816E+01  0.0000000000000E+00
-0.1419988290975E+00 -0.2168781452520E+01  0.0000000000000E+00
-0.1429571658668E+00 -0.2095938319535E+01  0.0000000000000E+00
-0.1439986773022E+00 -0.2023170502116E+01  0.0000000000000E+00
-0.1451219012286E+00 -0.1950482902297E+01  0.0000000000000E+00
-0.1463290816030E+00 -0.1877884420070E+01  0.0000000000000E+00
-0.1476292424924E+00 -0.1805392264092E+01  0.0000000000000E+00
-0.1100032727679E+00 -0.4658317758532E+01  0.0000000000000E+00
-0.1100065455290E+00 -0.4585048544080E+01  0.0000000000000E+00
-0.1100098183102E+00 -0.4511778879691E+01  0.0000000000000E+00
-0.1100130910822E+00 -0.4438509420714E+01  0.0000000000000E+00
-0.1100163638535E+00 -0.4365239976307E+01  0.0000000000000E+00
-0.1100196366261E+00 -0.4291970504368E+01  0.0000000000000E+00
-0.1100229093967E+00 -0.4218701075733E+01  0.0000000000000E+00
-0.1100261821686E+00 -0.4145431620239E+01  0.0000000000000E+00
-0.1100294549402E+00 -0.4072162170125E+01  0.0000000000000E+00
-0.1100327277114E+00 -0.3998892728102E+01  0.0000000000000E+00
-0.1100360004834E+00 -0.3925623270744E+01  0.0000000000000E+00
-0.1100392732542E+00 -0.3852353837413E+01  0.0000000000000E+00
-0.1100425460265E+00 -0.3779084372104E+01  0.0000000000000E+00
-0.1100458188015E+00 -0.3705814847021E+01  0.0000000000000E+00
-0.1100490915755E+00 -0.3632545342790E+01  0.0000000000000E+00
-0.1100523643456E+00 -0.3559275926208E+01  0.0000000000000E+00
-0.1100556371446E+00 -0.3486005862769E+01  0.0000000000000E+00
-0.1100589098889E+00 -0.3412737023558E+01  0.0000000000000E+00
-0.1100621826610E+00 -0.3339467562849E+01  0.0000000000000E+00
-0.1100654554295E+00 -0.3266198182424E+01  0.0000000000000E+00
-0.1100687281938E+00 -0.3192928895321E+01  0.0000000000000E+00
-0.1100720009598E+00 -0.3119659571245E+01  0.0000000000000E+00
-0.1100752737272E+00 -0.3046390214401E+01  0.0000000000000E+00
-0.1100804814074E+00 -0.2973120794485E+01  0.0000000000000E+00
-0.1101000865895E+00 -0.2899851605005E+01  0.0000000000000E+00
-0.1101513942642E+00 -0.2826583984439E+01  0.0000000000000E+00
-0.1102501791352E+00 -0.2753321206740E+01  0.0000000000000E+00
-0.1104080527204E+00 -0.2680068955602E+01  0.0000000000000E+00
-0.1106324623216E+00 -0.2606834374461E+01  0.0000000000000E+00
-0.1109281697863E+00 -0.2533625796754E+01  0.0000000000000E+00
-0.1112989593421E+00 -0.2460452205761E+01  0.0000000000000E+00
-0.1117491119923E+00 -0.2387324317091E+01  0.0000000000000E+00
-0.1122845170118E+00 -0.2314255719281E+01  0.0000000000000E+00
-0.1129048431049E+00 -0.2241256222433E+01  0.0000000000000E+00
-0.1136014566584E+00 -0.2168327584516E+01  0.0000000000000E+00
-0.1143681944392E+00 -0.2095471483905E+01  0.0000000000000E+00
-0.1152014719513E+00 -0.2022690698846E+01  0.0000000000000E+00
-0.1161001194546E+00 -0.1949990131373E+01  0.0000000000000E+00
-0.1170659321143E+00 -0.1877378681522E+01  0.0000000000000E+00
-0.1181061291839E+00 -0.1804873557950E+01  0.0000000000000E+00
-0.8250249454314E-01 -0.4658307671731E+01  0.0000000000000E+00
-0.8250498908109E-01 -0.4585028370497E+01  0.0000000000000E+00
-0.8250748363435E-01 -0.4511748619267E+01  0.0000000000000E+00
-0.8250997818062E-01 -0.4438469073475E+01  0.0000000000000E+00
-0.8251247272640E-01 -0.4365189542255E+01  0.0000000000000E+00
-0.8251496727311E-01 -0.4291909983500E+01  0.0000000000000E+00
-0.8251746181835E-01 -0.4218630468056E+01  0.0000000000000E+00
-0.8251995636450E-01 -0.4145350925747E+01  0.0000000000000E+00
-0.8252245091047E-01 -0.4072071388821E+01  0.0000000000000E+00
-0.8252494545616E-01 -0.3998791859985E+01  0.0000000000000E+00
-0.8252744000238E-01 -0.3925512315813E+01  0.0000000000000E+00
-0.8252993454778E-01 -0.3852232795671E+01  0.0000000000000E+00
-0.8253242909426E-01 -0.3778953243548E+01  0.0000000000000E+00
-0.8253492364278E-01 -0.3705673631641E+01  0.0000000000000E+00
-0.8253741819059E-01 -0.3632394040589E+01  0.0000000000000E+00
-0.8253991273542E-01 -0.3559114537199E+01  0.0000000000000E+00
-0.8254240730227E-01 -0.3485834386862E+01  0.0000000000000E+00
-0.8254490182744E-01 -0.3412555460923E+01  0.0000000000000E+00
-0.8254739637377E-01 -0.3339275913399E+01  0.0000000000000E+00
-0.8254989091737E-01 -0.3265996446170E+01  0.0000000000000E+00
-0.8255238545779E-01 -0.3192717072277E+01  0.0000000000000E+00
-0.8255487999946E-01 -0.3119437661405E+01  0.0000000000000E+00
-0.8255737454226E-01 -0.3046158217761E+01  0.0000000000000E+00
-0.8256132026964E-01 -0.2972878711036E+01  0.0000000000000E+00
-0.8257606412342E-01 -0.2899599434752E+01  0.0000000000000E+00
-0.8261458484651E-01 -0.2826321727400E+01  0.0000000000000E+00
-0.8268871346684E-01 -0.2753048862920E+01  0.0000000000000E+00
-0.8280715862262E-01 -0.2679786525011E+01  0.0000000000000E+00
-0.8297550579031E-01 -0.2606541857099E+01  0.0000000000000E+00
-0.8319732635544E-01 -0.2533323192637E+01  0.0000000000000E+00
-0.8347545848869E-01 -0.2460139514879E+01  0.0000000000000E+00
-0.8381311294265E-01 -0.2387001539440E+01  0.0000000000000E+00
-0.8421470667327E-01 -0.2313922854883E+01  0.0000000000000E+00
-0.8467999120903E-01 -0.2240913271277E+01  0.0000000000000E+00
-0.8520249134003E-01 -0.2167974546591E+01  0.0000000000000E+00
-0.8577758464144E-01 -0.2095108359206E+01  0.0000000000000E+00
-0.8640258274117E-01 -0.2022317487362E+01  0.0000000000000E+00
-0.8707660833415E-01 -0.1949606833093E+01  0.0000000000000E+00
-0.8780100779414E-01 -0.1876985296471E+01  0.0000000000000E+00
-0.8858119556126E-01 -0.1804470086151E+01  0.0000000000000E+00
-0.5500168202915E-01 -0.4658300466420E+01  0.0000000000000E+00
-0.5500336405479E-01 -0.4585013959890E+01  0.0000000000000E+00
-0.5500504609076E-01 -0.4511727003319E+01  0.0000000000000E+00
-0.5500672812202E-01 -0.4438440252207E+01  0.0000000000000E+00
-0.5500841015294E-01 -0.4365153515669E+01  0.0000000000000E+00
-0.5501009218450E-01 -0.4291866751592E+01  0.0000000000000E+00
-0.5501177421506E-01 -0.4218580030830E+01  0.0000000000000E+00
-0.5501345624623E-01 -0.4145293283201E+01  0.0000000000000E+00
-0.5501513827729E-01 -0.4072006540956E+01  0.0000000000000E+00
-0.5501682030815E-01 -0.3998719806802E+01  0.0000000000000E+00
-0.5501850233937E-01 -0.3925433057309E+01  0.0000000000000E+00
-0.5502018437004E-01 -0.3852146331850E+01  0.0000000000000E+00
-0.5502186640144E-01 -0.3778859574406E+01  0.0000000000000E+00
-0.5502354843422E-01 -0.3705572757172E+01  0.0000000000000E+00
-0.5502523046651E-01 -0.3632285960796E+01  0.0000000000000E+00
-0.5502691249680E-01 -0.3558999252090E+01  0.0000000000000E+00
-0.5502859454193E-01 -0.3485711896373E+01  0.0000000000000E+00
-0.5503027655896E-01 -0.3412425765174E+01  0.0000000000000E+00
-0.5503195859026E-01 -0.3339139012330E+01  0.0000000000000E+00
-0.5503364061971E-01 -0.3265852339789E+01  0.0000000000000E+00
-0.5503532264702E-01 -0.3192565760592E+01  0.0000000000000E+00
-0.5503700467518E-01 -0.3119279144413E+01  0.0000000000000E+00
-0.5503868670409E-01 -0.3045992495459E+01  0.0000000000000E+00
-0.5504133618940E-01 -0.2972705783417E+01  0.0000000000000E+00
-0.5505118442552E-01 -0.2899419301821E+01  0.0000000000000E+00
-0.5507688390763E-01 -0.2826134389170E+01  0.0000000000000E+00
-0.5512632198758E-01 -0.2752854319392E+01  0.0000000000000E+00
-0.5520530442408E-01 -0.2679584776194E+01  0.0000000000000E+00
-0.5531755486806E-01 -0.2606332902993E+01  0.0000000000000E+00
-0.5546545424311E-01 -0.2533107033253E+01  0.0000000000000E+00
-0.5565089466302E-01 -0.2459916150211E+01  0.0000000000000E+00
-0.5587601662944E-01 -0.2386770969482E+01  0.0000000000000E+00
-0.5614376477954E-01 -0.2313685079654E+01  0.0000000000000E+00
-0.5645397346590E-01 -0.2240668290768E+01  0.0000000000000E+00
-0.5680232588196E-01 -0.2167722360794E+01  0.0000000000000E+00
-0.5718574041112E-01 -0.2094848968118E+01  0.0000000000000E+00
-0.5760242480531E-01 -0.2022050890974E+01  0.0000000000000E+00
-0.5805179419448E-01 -0.1949333031399E+01  0.0000000000000E+00
-0.5853474616100E-01 -0.1876704289487E+01  0.0000000000000E+00
-0.5905489033159E-01 -0.1804181873893E+01  0.0000000000000E+00
-0.2750084664702E-01 -0.4658296143052E+01  0.0000000000000E+00
-0.2750169329227E-01 -0.4585005313163E+01  0.0000000000000E+00
-0.2750253994273E-01 -0.4511714033207E+01  0.0000000000000E+00
-0.2750338659081E-01 -0.4438422958722E+01  0.0000000000000E+00
-0.2750423323872E-01 -0.4365131898811E+01  0.0000000000000E+00
-0.2750507988695E-01 -0.4291840811361E+01  0.0000000000000E+00
-0.2750592653468E-01 -0.4218549767228E+01  0.0000000000000E+00
-0.2750677318272E-01 -0.4145258696226E+01  0.0000000000000E+00
-0.2750761983069E-01 -0.4071967630608E+01  0.0000000000000E+00
-0.2750846647858E-01 -0.3998676573082E+01  0.0000000000000E+00
-0.2750931312664E-01 -0.3925385500216E+01  0.0000000000000E+00
-0.2751015977442E-01 -0.3852094451385E+01  0.0000000000000E+00
-0.2751100642257E-01 -0.3778803370567E+01  0.0000000000000E+00
-0.2751185307142E-01 -0.3705512229957E+01  0.0000000000000E+00
-0.2751269972002E-01 -0.3632221110204E+01  0.0000000000000E+00
-0.2751354636761E-01 -0.3558930078128E+01  0.0000000000000E+00
-0.2751439302267E-01 -0.3485638399002E+01  0.0000000000000E+00
-0.2751523966359E-01 -0.3412347944467E+01  0.0000000000000E+00
-0.2751608631169E-01 -0.3339056868249E+01  0.0000000000000E+00
-0.2751693295887E-01 -0.3265765872339E+01  0.0000000000000E+00
-0.2751777960496E-01 -0.3192474969780E+01  0.0000000000000E+00
-0.2751862625148E-01 -0.3119184030236E+01  0.0000000000000E+00
-0.2751947289838E-01 -0.3045893057915E+01  0.0000000000000E+00
-0.2752080327345E-01 -0.2972602022502E+01  0.0000000000000E+00
-0.2752573302372E-01 -0.2899311217538E+01  0.0000000000000E+00
-0.2753858839655E-01 -0.2826021981525E+01  0.0000000000000E+00
-0.2756331306764E-01 -0.2752737588388E+01  0.0000000000000E+00
-0.2760280991616E-01 -0.2679463721835E+01  0.0000000000000E+00
-0.2765894076745E-01 -0.2606207525280E+01  0.0000000000000E+00
-0.2773289608320E-01 -0.2532977332192E+01  0.0000000000000E+00
-0.2782562192022E-01 -0.2459782125798E+01  0.0000000000000E+00
-0.2793818852921E-01 -0.2386632621716E+01  0.0000000000000E+00
-0.2807206822860E-01 -0.2313542408544E+01  0.0000000000000E+00
-0.2822717819500E-01 -0.2240521296308E+01  0.0000000000000E+00
-0.2840136002521E-01 -0.2167571042980E+01  0.0000000000000E+00
-0.2859307291094E-01 -0.2094693326949E+01  0.0000000000000E+00
-0.2880142072809E-01 -0.2021890926444E+01  0.0000000000000E+00
-0.2902611104167E-01 -0.1949168743503E+01  0.0000000000000E+00
-0.2926759264271E-01 -0.1876535678237E+01  0.0000000000000E+00
-0.2952767034453E-01 -0.1804008939299E+01  0.0000000000000E+00
 0.1341298349319E-09 -0.4658294701900E+01  0.0000000000000E+00
 0.2682591914974E-09 -0.4585002430862E+01  0.0000000000000E+00
 0.4023890727755E-09 -0.4511709709747E+01  0.0000000000000E+00
 0.5365191106208E-09 -0.4438417194108E+01  0.0000000000000E+00
 0.6706488917047E-09 -0.4365124693044E+01  0.0000000000000E+00
 0.8047786975213E-09 -0.4291832164439E+01  0.0000000000000E+00
 0.9389087816031E-09 -0.4218539679152E+01  0.0000000000000E+00
 0.1073038417292E-08 -0.4145247166996E+01  0.0000000000000E+00
 0.1207168223132E-08 -0.4071954660224E+01  0.0000000000000E+00
 0.1341298166205E-08 -0.3998662161544E+01  0.0000000000000E+00
 0.1475427971981E-08 -0.3925369647524E+01  0.0000000000000E+00
 0.1609557676437E-08 -0.3852077157540E+01  0.0000000000000E+00
 0.1743687719413E-08 -0.3778784635568E+01  0.0000000000000E+00
 0.1877817404503E-08 -0.3705492053802E+01  0.0000000000000E+00
 0.2011947688216E-08 -0.3632199492894E+01  0.0000000000000E+00
 0.2146077332986E-08 -0.3558907019664E+01  0.0000000000000E+00
 0.2280208460759E-08 -0.3485613899373E+01  0.0000000000000E+00
 0.2414336866020E-08 -0.3412322003696E+01  0.0000000000000E+00
 0.2548466983496E-08 -0.3339029486324E+01  0.0000000000000E+00
 0.2682596670357E-08 -0.3265737049261E+01  0.0000000000000E+00
 0.2816726179303E-08 -0.3192444705551E+01  0.0000000000000E+00
 0.2950855647716E-08 -0.3119152324855E+01  0.0000000000000E+00
 0.3084985400642E-08 -0.3045859911382E+01  0.0000000000000E+00
 0.3219175563967E-08 -0.2972567434816E+01  0.0000000000000E+00
 0.3353698875709E-08 -0.2899275188699E+01  0.0000000000000E+00
 0.3488929101874E-08 -0.2825984511537E+01  0.0000000000000E+00
 0.3625244852689E-08 -0.2752698677250E+01  0.0000000000000E+00
 0.3762956718963E-08 -0.2679423369550E+01  0.0000000000000E+00
 0.3902297562747E-08 -0.2606165731846E+01  0.0000000000000E+00
 0.4043435531594E-08 -0.2532934097612E+01  0.0000000000000E+00
 0.4186557924346E-08 -0.2459737450072E+01  0.0000000000000E+00
 0.4331879640973E-08 -0.2386586504841E+01  0.0000000000000E+00
 0.4479654786937E-08 -0.2313494850525E+01  0.0000000000000E+00
 0.4629287886613E-08 -0.2240472297144E+01  0.0000000000000E+00
 0.4780639212689E-08 -0.2167520602668E+01  0.0000000000000E+00
 0.4933757186728E-08 -0.2094641445488E+01  0.0000000000000E+00
 0.5088733054618E-08 -0.2021837603833E+01  0.0000000000000E+00
 0.5245556699726E-08 -0.1949113979741E+01  0.0000000000000E+00
 0.5404454798979E-08 -0.1876479473326E+01  0.0000000000000E+00
 0.5565504075676E-08 -0.1803951293244E+01  0.0000000000000E+00
 0.2750084691528E-01 -0.4658296143053E+01  0.0000000000000E+00
 0.2750169382879E-01 -0.4585005313166E+01  0.0000000000000E+00
 0.2750254074750E-01 -0.4511714033210E+01  0.0000000000000E+00
 0.2750338766384E-01 -0.4438422958726E+01  0.0000000000000E+00
 0.2750423458000E-01 -0.4365131898817E+01  0.0000000000000E+00
 0.2750508149649E-01 -0.4291840811368E+01  0.0000000000000E+00
 0.2750592841248E-01 -0.4218549767235E+01  0.0000000000000E+00
 0.2750677532877E-01 -0.4145258696235E+01  0.0000000000000E+00
 0.2750762224501E-01 -0.4071967630618E+01  0.0000000000000E+00
 0.2750846916115E-01 -0.3998676573093E+01  0.0000000000000E+00
 0.2750931607747E-01 -0.3925385500228E+01  0.0000000000000E+00
 0.2751016299351E-01 -0.3852094451398E+01  0.0000000000000E+00
 0.2751100990992E-01 -0.3778803370582E+01  0.0000000000000E+00
 0.2751185682702E-01 -0.3705512229972E+01  0.0000000000000E+00
 0.2751270374388E-01 -0.3632221110221E+01  0.0000000000000E+00
 0.2751355065973E-01 -0.3558930078145E+01  0.0000000000000E+00
 0.2751439758305E-01 -0.3485638399021E+01  0.0000000000000E+00
 0.2751524449223E-01 -0.3412347944487E+01  0.0000000000000E+00
 0.2751609140859E-01 -0.3339056868270E+01  0.0000000000000E+00
 0.2751693832401E-01 -0.3265765872362E+01  0.0000000000000E+00
 0.2751778523836E-01 -0.3192474969803E+01  0.0000000000000E+00
 0.2751863215314E-01 -0.3119184030260E+01  0.0000000000000E+00
 0.2751947906830E-01 -0.3045893057940E+01  0.0000000000000E+00
 0.2752080971174E-01 -0.2972602022528E+01  0.0000000000000E+00
 0.2752573973106E-01 -0.2899311217565E+01  0.0000000000000E+00
 0.2753859537435E-01 -0.2826021981554E+01  0.0000000000000E+00
 0.2756332031807E-01 -0.2752737588418E+01  0.0000000000000E+00
 0.2760281744201E-01 -0.2679463721866E+01  0.0000000000000E+00
 0.2765894857198E-01 -0.2606207525312E+01  0.0000000000000E+00
 0.2773290417001E-01 -0.2532977332225E+01  0.0000000000000E+00
 0.2782563029327E-01 -0.2459782125833E+01  0.0000000000000E+00
 0.2793819719290E-01 -0.2386632621751E+01  0.0000000000000E+00
 0.2807207718784E-01 -0.2313542408580E+01  0.0000000000000E+00
 0.2822718745350E-01 -0.2240521296346E+01  0.0000000000000E+00
 0.2840136958642E-01 -0.2167571043019E+01  0.0000000000000E+00
 0.2859308277837E-01 -0.2094693326988E+01  0.0000000000000E+00
 0.2880143090548E-01 -0.2021890926485E+01  0.0000000000000E+00
 0.2902612153270E-01 -0.1949168743545E+01  0.0000000000000E+00
 0.2926760345153E-01 -0.1876535678280E+01  0.0000000000000E+00
 0.2952768147545E-01 -0.1804008939343E+01  0.0000000000000E+00
 0.5500168229740E-01 -0.4658300466422E+01  0.0000000000000E+00
 0.5500336459129E-01 -0.4585013959894E+01  0.0000000000000E+00
 0.5500504689552E-01 -0.4511727003325E+01  0.0000000000000E+00
 0.5500672919502E-01 -0.4438440252216E+01  0.0000000000000E+00
 0.5500841149420E-01 -0.4365153515680E+01  0.0000000000000E+00
 0.5501009379400E-01 -0.4291866751605E+01  0.0000000000000E+00
 0.5501177609281E-01 -0.4218580030846E+01  0.0000000000000E+00
 0.5501345839224E-01 -0.4145293283219E+01  0.0000000000000E+00
 0.5501514069154E-01 -0.4072006540976E+01  0.0000000000000E+00
 0.5501682299066E-01 -0.3998719806824E+01  0.0000000000000E+00
 0.5501850529013E-01 -0.3925433057334E+01  0.0000000000000E+00
 0.5502018758905E-01 -0.3852146331877E+01  0.0000000000000E+00
 0.5502186988871E-01 -0.3778859574434E+01  0.0000000000000E+00
 0.5502355218973E-01 -0.3705572757203E+01  0.0000000000000E+00
 0.5502523449028E-01 -0.3632285960829E+01  0.0000000000000E+00
 0.5502691678881E-01 -0.3558999252125E+01  0.0000000000000E+00
 0.5502859910220E-01 -0.3485711896410E+01  0.0000000000000E+00
 0.5503028138748E-01 -0.3412425765214E+01  0.0000000000000E+00
 0.5503196368702E-01 -0.3339139012372E+01  0.0000000000000E+00
 0.5503364598473E-01 -0.3265852339833E+01  0.0000000000000E+00
 0.5503532828029E-01 -0.3192565760638E+01  0.0000000000000E+00
 0.5503701057670E-01 -0.3119279144462E+01  0.0000000000000E+00
 0.5503869287386E-01 -0.3045992495510E+01  0.0000000000000E+00
 0.5504134262754E-01 -0.2972705783470E+01  0.0000000000000E+00
 0.5505119113270E-01 -0.2899419301877E+01  0.0000000000000E+00
 0.5507689088526E-01 -0.2826134389227E+01  0.0000000000000E+00
 0.5512632923783E-01 -0.2752854319452E+01  0.0000000000000E+00
 0.5520531194975E-01 -0.2679584776256E+01  0.0000000000000E+00
 0.5531756267240E-01 -0.2606332903057E+01  0.0000000000000E+00
 0.5546546232972E-01 -0.2533107033319E+01  0.0000000000000E+00
 0.5565090303586E-01 -0.2459916150279E+01  0.0000000000000E+00
 0.5587602529292E-01 -0.2386770969553E+01  0.0000000000000E+00
 0.5614377373856E-01 -0.2313685079727E+01  0.0000000000000E+00
 0.5645398272418E-01 -0.2240668290843E+01  0.0000000000000E+00
 0.5680233544293E-01 -0.2167722360871E+01  0.0000000000000E+00
 0.5718575027832E-01 -0.2094848968198E+01  0.0000000000000E+00
 0.5760243498245E-01 -0.2022050891056E+01  0.0000000000000E+00
 0.5805180468526E-01 -0.1949333031483E+01  0.0000000000000E+00
 0.5853475696956E-01 -0.1876704289573E+01  0.0000000000000E+00
 0.5905490146225E-01 -0.1804181873982E+01  0.0000000000000E+00
 0.8250249481138E-01 -0.4658307671734E+01  0.0000000000000E+00
 0.8250498961757E-01 -0.4585028370504E+01  0.0000000000000E+00
 0.8250748443907E-01 -0.4511748619277E+01  0.0000000000000E+00
 0.8250997925358E-01 -0.4438469073488E+01  0.0000000000000E+00
 0.8251247406760E-01 -0.4365189542272E+01  0.0000000000000E+00
 0.8251496888255E-01 -0.4291909983520E+01  0.0000000000000E+00
 0.8251746369603E-01 -0.4218630468079E+01  0.0000000000000E+00
 0.8251995851042E-01 -0.4145350925774E+01  0.0000000000000E+00
 0.8252245332463E-01 -0.4072071388851E+01  0.0000000000000E+00
 0.8252494813856E-01 -0.3998791860019E+01  0.0000000000000E+00
 0.8252744295302E-01 -0.3925512315849E+01  0.0000000000000E+00
 0.8252993776665E-01 -0.3852232795711E+01  0.0000000000000E+00
 0.8253243258138E-01 -0.3778953243591E+01  0.0000000000000E+00
 0.8253492739814E-01 -0.3705673631687E+01  0.0000000000000E+00
 0.8253742221419E-01 -0.3632394040639E+01  0.0000000000000E+00
 0.8253991702726E-01 -0.3559114537252E+01  0.0000000000000E+00
 0.8254241186235E-01 -0.3485834386918E+01  0.0000000000000E+00
 0.8254490665576E-01 -0.3412555460983E+01  0.0000000000000E+00
 0.8254740147033E-01 -0.3339275913462E+01  0.0000000000000E+00
 0.8254989628217E-01 -0.3265996446236E+01  0.0000000000000E+00
 0.8255239109082E-01 -0.3192717072346E+01  0.0000000000000E+00
 0.8255488590074E-01 -0.3119437661478E+01  0.0000000000000E+00
 0.8255738071177E-01 -0.3046158217837E+01  0.0000000000000E+00
 0.8256132670752E-01 -0.2972878711115E+01  0.0000000000000E+00
 0.8257607083032E-01 -0.2899599434835E+01  0.0000000000000E+00
 0.8261459182386E-01 -0.2826321727487E+01  0.0000000000000E+00
 0.8268872071680E-01 -0.2753048863010E+01  0.0000000000000E+00
 0.8280716614798E-01 -0.2679786525104E+01  0.0000000000000E+00
 0.8297551359434E-01 -0.2606541857195E+01  0.0000000000000E+00
 0.8319733444172E-01 -0.2533323192736E+01  0.0000000000000E+00
 0.8347546686119E-01 -0.2460139514982E+01  0.0000000000000E+00
 0.8381312160577E-01 -0.2387001539546E+01  0.0000000000000E+00
 0.8421471563193E-01 -0.2313922854993E+01  0.0000000000000E+00
 0.8468000046694E-01 -0.2240913271390E+01  0.0000000000000E+00
 0.8520250090062E-01 -0.2167974546707E+01  0.0000000000000E+00
 0.8577759450824E-01 -0.2095108359326E+01  0.0000000000000E+00
 0.8640259291791E-01 -0.2022317487484E+01  0.0000000000000E+00
 0.8707661882451E-01 -0.1949606833219E+01  0.0000000000000E+00
 0.8780101860228E-01 -0.1876985296600E+01  0.0000000000000E+00
 0.8858120669148E-01 -0.1804470086283E+01  0.0000000000000E+00
 0.1100032730361E+00 -0.4658317758537E+01  0.0000000000000E+00
 0.1100065460654E+00 -0.4585048544088E+01  0.0000000000000E+00
 0.1100098191148E+00 -0.4511778879705E+01  0.0000000000000E+00
 0.1100130921551E+00 -0.4438509420732E+01  0.0000000000000E+00
 0.1100163651946E+00 -0.4365239976329E+01  0.0000000000000E+00
 0.1100196382354E+00 -0.4291970504395E+01  0.0000000000000E+00
 0.1100229112743E+00 -0.4218701075764E+01  0.0000000000000E+00
 0.1100261843144E+00 -0.4145431620274E+01  0.0000000000000E+00
 0.1100294573542E+00 -0.4072162170165E+01  0.0000000000000E+00
 0.1100327303937E+00 -0.3998892728146E+01  0.0000000000000E+00
 0.1100360034338E+00 -0.3925623270792E+01  0.0000000000000E+00
 0.1100392764729E+00 -0.3852353837466E+01  0.0000000000000E+00
 0.1100425495134E+00 -0.3779084372162E+01  0.0000000000000E+00
 0.1100458225566E+00 -0.3705814847083E+01  0.0000000000000E+00
 0.1100490955988E+00 -0.3632545342856E+01  0.0000000000000E+00
 0.1100523686372E+00 -0.3559275926279E+01  0.0000000000000E+00
 0.1100556417044E+00 -0.3486005862844E+01  0.0000000000000E+00
 0.1100589147169E+00 -0.3412737023638E+01  0.0000000000000E+00
 0.1100621877573E+00 -0.3339467562933E+01  0.0000000000000E+00
 0.1100654607940E+00 -0.3266198182512E+01  0.0000000000000E+00
 0.1100687338265E+00 -0.3192928895414E+01  0.0000000000000E+00
 0.1100720068607E+00 -0.3119659571342E+01  0.0000000000000E+00
 0.1100752798964E+00 -0.3046390214503E+01  0.0000000000000E+00
 0.1100804878449E+00 -0.2973120794592E+01  0.0000000000000E+00
 0.1101000932960E+00 -0.2899851605116E+01  0.0000000000000E+00
 0.1101514012411E+00 -0.2826583984554E+01  0.0000000000000E+00
 0.1102501863848E+00 -0.2753321206860E+01  0.0000000000000E+00
 0.1104080602454E+00 -0.2680068955726E+01  0.0000000000000E+00
 0.1106324701252E+00 -0.2606834374589E+01  0.0000000000000E+00
 0.1109281778722E+00 -0.2533625796887E+01  0.0000000000000E+00
 0.1112989677141E+00 -0.2460452205898E+01  0.0000000000000E+00
 0.1117491206549E+00 -0.2387324317233E+01  0.0000000000000E+00
 0.1122845259700E+00 -0.2314255719427E+01  0.0000000000000E+00
 0.1129048523623E+00 -0.2241256222584E+01  0.0000000000000E+00
 0.1136014662184E+00 -0.2168327584671E+01  0.0000000000000E+00
 0.1143682043055E+00 -0.2095471484065E+01  0.0000000000000E+00
 0.1152014821275E+00 -0.2022690699009E+01  0.0000000000000E+00
 0.1161001299444E+00 -0.1949990131541E+01  0.0000000000000E+00
 0.1170659429218E+00 -0.1877378681695E+01  0.0000000000000E+00
 0.1181061403135E+00 -0.1804873558127E+01  0.0000000000000E+00
 0.1375040057470E+00 -0.4658330726200E+01  0.0000000000000E+00
 0.1375080114857E+00 -0.4585074479388E+01  0.0000000000000E+00
 0.1375120172490E+00 -0.4511817782720E+01  0.0000000000000E+00
 0.1375160230011E+00 -0.4438561291426E+01  0.0000000000000E+00
 0.1375200287523E+00 -0.4365304814701E+01  0.0000000000000E+00
 0.1375240345051E+00 -0.4292048310448E+01  0.0000000000000E+00
 0.1375280402555E+00 -0.4218791849492E+01  0.0000000000000E+00
 0.1375320460074E+00 -0.4145535361680E+01  0.0000000000000E+00
 0.1375360517590E+00 -0.4072278879250E+01  0.0000000000000E+00
 0.1375400575101E+00 -0.3999022404907E+01  0.0000000000000E+00
 0.1375440632621E+00 -0.3925765915232E+01  0.0000000000000E+00
 0.1375480690127E+00 -0.3852509449581E+01  0.0000000000000E+00
 0.1375520747651E+00 -0.3779252951958E+01  0.0000000000000E+00
 0.1375560805208E+00 -0.3705996394570E+01  0.0000000000000E+00
 0.1375600862754E+00 -0.3632739858031E+01  0.0000000000000E+00
 0.1375640920251E+00 -0.3559483409126E+01  0.0000000000000E+00
 0.1375680978102E+00 -0.3486226313477E+01  0.0000000000000E+00
 0.1375721035284E+00 -0.3412970441841E+01  0.0000000000000E+00
 0.1375761092805E+00 -0.3339713948815E+01  0.0000000000000E+00
 0.1375801150283E+00 -0.3266457536060E+01  0.0000000000000E+00
 0.1375841207710E+00 -0.3193201216611E+01  0.0000000000000E+00
 0.1375881265157E+00 -0.3119944860195E+01  0.0000000000000E+00
 0.1375921322621E+00 -0.3046688471017E+01  0.0000000000000E+00
 0.1375985566497E+00 -0.2973432018779E+01  0.0000000000000E+00
 0.1376229779157E+00 -0.2900175796968E+01  0.0000000000000E+00
 0.1376870273001E+00 -0.2826921144049E+01  0.0000000000000E+00
 0.1378104231836E+00 -0.2753671333993E+01  0.0000000000000E+00
 0.1380076799644E+00 -0.2680432050482E+01  0.0000000000000E+00
 0.1382881067707E+00 -0.2607210436969E+01  0.0000000000000E+00
 0.1386576559123E+00 -0.2534014826870E+01  0.0000000000000E+00
 0.1391210576740E+00 -0.2460854203496E+01  0.0000000000000E+00
 0.1396836633107E+00 -0.2387739282454E+01  0.0000000000000E+00
 0.1403528344169E+00 -0.2314683652241E+01  0.0000000000000E+00
 0.1411281568713E+00 -0.2241697123004E+01  0.0000000000000E+00
 0.1419988386569E+00 -0.2168781452713E+01  0.0000000000000E+00
 0.1429571757323E+00 -0.2095938319734E+01  0.0000000000000E+00
 0.1439986874777E+00 -0.2023170502321E+01  0.0000000000000E+00
 0.1451219117177E+00 -0.1950482902508E+01  0.0000000000000E+00
 0.1463290924098E+00 -0.1877884420286E+01  0.0000000000000E+00
 0.1476292536212E+00 -0.1805392264313E+01  0.0000000000000E+00
 0.1650046811024E+00 -0.4658346573901E+01  0.0000000000000E+00
 0.1650093621951E+00 -0.4585106174756E+01  0.0000000000000E+00
 0.1650140433165E+00 -0.4511865325853E+01  0.0000000000000E+00
 0.1650187244248E+00 -0.4438624682280E+01  0.0000000000000E+00
 0.1650234055322E+00 -0.4365384053272E+01  0.0000000000000E+00
 0.1650280866413E+00 -0.4292143396742E+01  0.0000000000000E+00
 0.1650327677476E+00 -0.4218902783500E+01  0.0000000000000E+00
 0.1650374488557E+00 -0.4145662143408E+01  0.0000000000000E+00
 0.1650421299634E+00 -0.4072421508696E+01  0.0000000000000E+00
 0.1650468110706E+00 -0.3999180882070E+01  0.0000000000000E+00
 0.1650514921788E+00 -0.3925940240116E+01  0.0000000000000E+00
 0.1650561732855E+00 -0.3852699622179E+01  0.0000000000000E+00
 0.1650608543942E+00 -0.3779458972278E+01  0.0000000000000E+00
 0.1650655355067E+00 -0.3706218262625E+01  0.0000000000000E+00
 0.1650702166179E+00 -0.3632977573816E+01  0.0000000000000E+00
 0.1650748977234E+00 -0.3559736972622E+01  0.0000000000000E+00
 0.1650795788703E+00 -0.3486495724824E+01  0.0000000000000E+00
 0.1650842599390E+00 -0.3413255700775E+01  0.0000000000000E+00
 0.1650889410474E+00 -0.3340015055470E+01  0.0000000000000E+00
 0.1650936221507E+00 -0.3266774490419E+01  0.0000000000000E+00
 0.1650983032480E+00 -0.3193534018653E+01  0.0000000000000E+00
 0.1651029843477E+00 -0.3120293509928E+01  0.0000000000000E+00
 0.1651076654495E+00 -0.3047052968449E+01  0.0000000000000E+00
 0.1651152489203E+00 -0.2973812363923E+01  0.0000000000000E+00
 0.1651444286449E+00 -0.2900571989815E+01  0.0000000000000E+00
 0.1652211621105E+00 -0.2827333184571E+01  0.0000000000000E+00
 0.1653691113735E+00 -0.2754099222185E+01  0.0000000000000E+00
 0.1656056937112E+00 -0.2680875786326E+01  0.0000000000000E+00
 0.1659420800769E+00 -0.2607670020465E+01  0.0000000000000E+00
 0.1663854132426E+00 -0.2534490257994E+01  0.0000000000000E+00
 0.1669413695495E+00 -0.2461345482262E+01  0.0000000000000E+00
 0.1676163705033E+00 -0.2388246408871E+01  0.0000000000000E+00
 0.1684192500176E+00 -0.2315206626271E+01  0.0000000000000E+00
 0.1693495111465E+00 -0.2242235944667E+01  0.0000000000000E+00
 0.1703942034699E+00 -0.2169336122026E+01  0.0000000000000E+00
 0.1715440821385E+00 -0.2096508836703E+01  0.0000000000000E+00
 0.1727937704082E+00 -0.2023756866964E+01  0.0000000000000E+00
 0.1741415136690E+00 -0.1951085114842E+01  0.0000000000000E+00
 0.1755900046701E+00 -0.1878502480274E+01  0.0000000000000E+00
 0.1771500722917E+00 -0.1806026171918E+01  0.0000000000000E+00
 0.1925052882440E+00 -0.4658365300656E+01  0.0000000000000E+00
 0.1925105764769E+00 -0.4585143628228E+01  0.0000000000000E+00
 0.1925158647424E+00 -0.4511921506156E+01  0.0000000000000E+00
 0.1925211529930E+00 -0.4438699589362E+01  0.0000000000000E+00
 0.1925264412425E+00 -0.4365477687129E+01  0.0000000000000E+00
 0.1925317294941E+00 -0.4292255757381E+01  0.0000000000000E+00
 0.1925370177425E+00 -0.4219033870910E+01  0.0000000000000E+00
 0.1925423059928E+00 -0.4145811957596E+01  0.0000000000000E+00
 0.1925475942428E+00 -0.4072590049661E+01  0.0000000000000E+00
 0.1925528824922E+00 -0.3999368149810E+01  0.0000000000000E+00
 0.1925581707427E+00 -0.3926146234633E+01  0.0000000000000E+00
 0.1925634589914E+00 -0.3852924343469E+01  0.0000000000000E+00
 0.1925687472425E+00 -0.3779702420348E+01  0.0000000000000E+00
 0.1925740354978E+00 -0.3706480437491E+01  0.0000000000000E+00
 0.1925793237517E+00 -0.3633258475472E+01  0.0000000000000E+00
 0.1925846119993E+00 -0.3560036601046E+01  0.0000000000000E+00
 0.1925899002935E+00 -0.3486814080182E+01  0.0000000000000E+00
 0.1925951884994E+00 -0.3413592782753E+01  0.0000000000000E+00
 0.1926004767501E+00 -0.3340370864228E+01  0.0000000000000E+00
 0.1926057649950E+00 -0.3267149025935E+01  0.0000000000000E+00
 0.1926110532332E+00 -0.3193927280904E+01  0.0000000000000E+00
 0.1926163414741E+00 -0.3120705498923E+01  0.0000000000000E+00
 0.1926216297173E+00 -0.3047483684197E+01  0.0000000000000E+00
 0.1926303040577E+00 -0.2974261806440E+01  0.0000000000000E+00
 0.1926641740278E+00 -0.2901040159091E+01  0.0000000000000E+00
 0.1927535233632E+00 -0.2827820080573E+01  0.0000000000000E+00
 0.1929259577963E+00 -0.2754604844905E+01  0.0000000000000E+00
 0.1932017974845E+00 -0.2681400135744E+01  0.0000000000000E+00
 0.1935940752064E+00 -0.2608213096582E+01  0.0000000000000E+00
 0.1941111241963E+00 -0.2535052060780E+01  0.0000000000000E+00
 0.1947595668518E+00 -0.2461926011733E+01  0.0000000000000E+00
 0.1955468949300E+00 -0.2388845665039E+01  0.0000000000000E+00
 0.1964834146637E+00 -0.2315824609092E+01  0.0000000000000E+00
 0.1975685462823E+00 -0.2242872654162E+01  0.0000000000000E+00
 0.1987871809622E+00 -0.2169991558216E+01  0.0000000000000E+00
 0.2001285330459E+00 -0.2097182999597E+01  0.0000000000000E+00
 0.2015863296650E+00 -0.2024449756583E+01  0.0000000000000E+00
 0.2031585237745E+00 -0.1951796731204E+01  0.0000000000000E+00
 0.2048482569157E+00 -0.1879232823336E+01  0.0000000000000E+00
 0.2066681627825E+00 -0.1806775241636E+01  0.0000000000000E+00
 0.2200058153998E+00 -0.4658386905282E+01  0.0000000000000E+00
 0.2200116307875E+00 -0.4585186837434E+01  0.0000000000000E+00
 0.2200174462108E+00 -0.4511986320076E+01  0.0000000000000E+00
 0.2200232616179E+00 -0.4438786007934E+01  0.0000000000000E+00
 0.2200290770239E+00 -0.4365585710349E+01  0.0000000000000E+00
 0.2200348924320E+00 -0.4292385385258E+01  0.0000000000000E+00
 0.2200407078366E+00 -0.4219185103431E+01  0.0000000000000E+00
 0.2200465232434E+00 -0.4145984794769E+01  0.0000000000000E+00
 0.2200523386498E+00 -0.4072784491483E+01  0.0000000000000E+00
 0.2200581540556E+00 -0.3999584196280E+01  0.0000000000000E+00
 0.2200639694625E+00 -0.3926383885756E+01  0.0000000000000E+00
 0.2200697848676E+00 -0.3853183599236E+01  0.0000000000000E+00
 0.2200756002751E+00 -0.3779983280770E+01  0.0000000000000E+00
 0.2200814156875E+00 -0.3706782902585E+01  0.0000000000000E+00
 0.2200872310981E+00 -0.3633582545232E+01  0.0000000000000E+00
 0.2200930465019E+00 -0.3560382275447E+01  0.0000000000000E+00
 0.2200988619569E+00 -0.3487181359413E+01  0.0000000000000E+00
 0.2201046773148E+00 -0.3413981666454E+01  0.0000000000000E+00
 0.2201104927220E+00 -0.3340781352582E+01  0.0000000000000E+00
 0.2201163081229E+00 -0.3267581118919E+01  0.0000000000000E+00
 0.2201221235163E+00 -0.3194380978490E+01  0.0000000000000E+00
 0.2201279389127E+00 -0.3121180801122E+01  0.0000000000000E+00
 0.2201337543117E+00 -0.3047980591018E+01  0.0000000000000E+00
 0.2201434395357E+00 -0.2974780317904E+01  0.0000000000000E+00
 0.2201819197651E+00 -0.2901580275183E+01  0.0000000000000E+00
 0.2202838049834E+00 -0.2828381801256E+01  0.0000000000000E+00
 0.2204806445985E+00 -0.2755188170172E+01  0.0000000000000E+00
 0.2207956616474E+00 -0.2682005065570E+01  0.0000000000000E+00
 0.2212437507339E+00 -0.2608839630967E+01  0.0000000000000E+00
 0.2218344355546E+00 -0.2535700199692E+01  0.0000000000000E+00
 0.2225752845634E+00 -0.2462595755191E+01  0.0000000000000E+00
 0.2234748597682E+00 -0.2389537013054E+01  0.0000000000000E+00
 0.2245449397216E+00 -0.2316537561614E+01  0.0000000000000E+00
 0.2257848618277E+00 -0.2243607211216E+01  0.0000000000000E+00
 0.2271773588597E+00 -0.2170747719827E+01  0.0000000000000E+00
 0.2287101043520E+00 -0.2097960765773E+01  0.0000000000000E+00
 0.2303759293123E+00 -0.2025249127350E+01  0.0000000000000E+00
 0.2321724942604E+00 -0.1952617706584E+01  0.0000000000000E+00
 0.2341033895299E+00 -0.1880075403276E+01  0.0000000000000E+00
 0.2361830536282E+00 -0.1807639426087E+01  0.0000000000000E+00
 0.2475062513560E+00 -0.4658411386427E+01  0.0000000000000E+00
 0.2475125026990E+00 -0.4585235799674E+01  0.0000000000000E+00
 0.2475187540803E+00 -0.4512059763560E+01  0.0000000000000E+00
 0.2475250054442E+00 -0.4438883932594E+01  0.0000000000000E+00
 0.2475312568068E+00 -0.4365708116181E+01  0.0000000000000E+00
 0.2475375081717E+00 -0.4292532272270E+01  0.0000000000000E+00
 0.2475437595330E+00 -0.4219356471609E+01  0.0000000000000E+00
 0.2475500108965E+00 -0.4146180644121E+01  0.0000000000000E+00
 0.2475562622596E+00 -0.4073004822009E+01  0.0000000000000E+00
 0.2475625136220E+00 -0.3999829007976E+01  0.0000000000000E+00
 0.2475687649857E+00 -0.3926653178627E+01  0.0000000000000E+00
 0.2475750163473E+00 -0.3853477373275E+01  0.0000000000000E+00
 0.2475812677117E+00 -0.3780301535987E+01  0.0000000000000E+00
 0.2475875190812E+00 -0.3707125639000E+01  0.0000000000000E+00
 0.2475937704489E+00 -0.3633949762838E+01  0.0000000000000E+00
 0.2476000218091E+00 -0.3560773974215E+01  0.0000000000000E+00
 0.2476062732245E+00 -0.3487597539559E+01  0.0000000000000E+00
 0.2476125245354E+00 -0.3414422327569E+01  0.0000000000000E+00
 0.2476187758994E+00 -0.3341246494873E+01  0.0000000000000E+00
 0.2476250272566E+00 -0.3268070742360E+01  0.0000000000000E+00
 0.2476312786057E+00 -0.3194895083049E+01  0.0000000000000E+00
 0.2476375299581E+00 -0.3121719386813E+01  0.0000000000000E+00
 0.2476437813132E+00 -0.3048543657851E+01  0.0000000000000E+00
 0.2476543862212E+00 -0.2975367865900E+01  0.0000000000000E+00
 0.2476973855103E+00 -0.2902192304328E+01  0.0000000000000E+00
 0.2478117154120E+00 -0.2829018311508E+01  0.0000000000000E+00
 0.2480328690096E+00 -0.2755849161521E+01  0.0000000000000E+00
 0.2483869722199E+00 -0.2682690537989E+01  0.0000000000000E+00
 0.2488907814716E+00 -0.2609549584457E+01  0.0000000000000E+00
 0.2495550109240E+00 -0.2536434634215E+01  0.0000000000000E+00
 0.2503881750867E+00 -0.2463354670768E+01  0.0000000000000E+00
 0.2513999062187E+00 -0.2390320409700E+01  0.0000000000000E+00
 0.2526034551925E+00 -0.2317345439271E+01  0.0000000000000E+00
 0.2539980765867E+00 -0.2244439569913E+01  0.0000000000000E+00
 0.2555643447712E+00 -0.2171604559590E+01  0.0000000000000E+00
 0.2572883924727E+00 -0.2098842086614E+01  0.0000000000000E+00
 0.2591621545745E+00 -0.2026154929295E+01  0.0000000000000E+00
 0.2611829991614E+00 -0.1953547989660E+01  0.0000000000000E+00
 0.2633549653598E+00 -0.1881030167425E+01  0.0000000000000E+00
 0.2656942964902E+00 -0.1808618671252E+01  0.0000000000000E+00
 0.2750065850588E+00 -0.4658438742571E+01  0.0000000000000E+00
 0.2750131701039E+00 -0.4585290511904E+01  0.0000000000000E+00
 0.2750197551894E+00 -0.4512141832045E+01  0.0000000000000E+00
 0.2750263402564E+00 -0.4438993357257E+01  0.0000000000000E+00
 0.2750329253222E+00 -0.4365844897016E+01  0.0000000000000E+00
 0.2750395103904E+00 -0.4292696409288E+01  0.0000000000000E+00
 0.2750460954547E+00 -0.4219547964793E+01  0.0000000000000E+00
 0.2750526805214E+00 -0.4146399493482E+01  0.0000000000000E+00
 0.2750592655877E+00 -0.4073251027544E+01  0.0000000000000E+00
 0.2750658506532E+00 -0.4000102569683E+01  0.0000000000000E+00
 0.2750724357201E+00 -0.3926954096512E+01  0.0000000000000E+00
 0.2750790207848E+00 -0.3853805647328E+01  0.0000000000000E+00
 0.2750856058524E+00 -0.3780657166220E+01  0.0000000000000E+00
 0.2750921909254E+00 -0.3707508625436E+01  0.0000000000000E+00
 0.2750987759965E+00 -0.3634360105469E+01  0.0000000000000E+00
 0.2751053610598E+00 -0.3561211673007E+01  0.0000000000000E+00
 0.2751119461812E+00 -0.3488062594756E+01  0.0000000000000E+00
 0.2751185311925E+00 -0.3414914738712E+01  0.0000000000000E+00
 0.2751251162597E+00 -0.3341766262195E+01  0.0000000000000E+00
 0.2751317013197E+00 -0.3268617865830E+01  0.0000000000000E+00
 0.2751382863713E+00 -0.3195469562633E+01  0.0000000000000E+00
 0.2751448714262E+00 -0.3122321222524E+01  0.0000000000000E+00
 0.2751514564841E+00 -0.3049172849702E+01  0.0000000000000E+00
 0.2751628788227E+00 -0.2976024413916E+01  0.0000000000000E+00
 0.2752102949189E+00 -0.2902876208491E+01  0.0000000000000E+00
 0.2753369672533E+00 -0.2829729571771E+01  0.0000000000000E+00
 0.2755823325853E+00 -0.2756587777875E+01  0.0000000000000E+00
 0.2759754197121E+00 -0.2683456510402E+01  0.0000000000000E+00
 0.2765348468877E+00 -0.2610342912930E+01  0.0000000000000E+00
 0.2772725187343E+00 -0.2537255318706E+01  0.0000000000000E+00
 0.2781978958174E+00 -0.2464202711301E+01  0.0000000000000E+00
 0.2793216806473E+00 -0.2391195806292E+01  0.0000000000000E+00
 0.2806585964169E+00 -0.2318248191856E+01  0.0000000000000E+00
 0.2822078148791E+00 -0.2245369678523E+01  0.0000000000000E+00
 0.2839477520001E+00 -0.2172562024256E+01  0.0000000000000E+00
 0.2858629996983E+00 -0.2099826907348E+01  0.0000000000000E+00
 0.2879445967325E+00 -0.2027167106128E+01  0.0000000000000E+00
 0.2901896187525E+00 -0.1954587522619E+01  0.0000000000000E+00
 0.2926025536778E+00 -0.1882097056446E+01  0.0000000000000E+00
 0.2952014496426E+00 -0.1809712916272E+01  0.0000000000000E+00
 0.3025068043940E+00 -0.4658468971968E+01  0.0000000000000E+00
 0.3025136087739E+00 -0.4585350970636E+01  0.0000000000000E+00
 0.3025204131955E+00 -0.4512232520297E+01  0.0000000000000E+00
 0.3025272175981E+00 -0.4439114274945E+01  0.0000000000000E+00
 0.3025340219993E+00 -0.4365996044133E+01  0.0000000000000E+00
 0.3025408264030E+00 -0.4292877785846E+01  0.0000000000000E+00
 0.3025476308028E+00 -0.4219759570774E+01  0.0000000000000E+00
 0.3025544352050E+00 -0.4146641328897E+01  0.0000000000000E+00
 0.3025612396067E+00 -0.4073523092391E+01  0.0000000000000E+00
 0.3025680440077E+00 -0.4000404863958E+01  0.0000000000000E+00
 0.3025748484101E+00 -0.3927286620221E+01  0.0000000000000E+00
 0.3025816528103E+00 -0.3854168400463E+01  0.0000000000000E+00
 0.3025884572134E+00 -0.3781050148793E+01  0.0000000000000E+00
 0.3025952616221E+00 -0.3707931837471E+01  0.0000000000000E+00
 0.3026020660289E+00 -0.3634813546959E+01  0.0000000000000E+00
 0.3026088704275E+00 -0.3561695343915E+01  0.0000000000000E+00
 0.3026156748862E+00 -0.3488576495348E+01  0.0000000000000E+00
 0.3026224792312E+00 -0.3415458868484E+01  0.0000000000000E+00
 0.3026292836339E+00 -0.3342340621403E+01  0.0000000000000E+00
 0.3026360880292E+00 -0.3269222454441E+01  0.0000000000000E+00
 0.3026428924158E+00 -0.3196104380609E+01  0.0000000000000E+00
 0.3026496968058E+00 -0.3122986269880E+01  0.0000000000000E+00
 0.3026565011989E+00 -0.3049868126451E+01  0.0000000000000E+00
 0.3026686266003E+00 -0.2976749920085E+01  0.0000000000000E+00
 0.3027203451345E+00 -0.2903631944063E+01  0.0000000000000E+00
 0.3028592455296E+00 -0.2830515536692E+01  0.0000000000000E+00
 0.3031287082196E+00 -0.2757403972134E+01  0.0000000000000E+00
 0.3035606648810E+00 -0.2684302933966E+01  0.0000000000000E+00
 0.3041755955924E+00 -0.2611219565799E+01  0.0000000000000E+00
 0.3049865954384E+00 -0.2538162200834E+01  0.0000000000000E+00
 0.3060040710399E+00 -0.2465139822714E+01  0.0000000000000E+00
 0.3072397951582E+00 -0.2392163147008E+01  0.0000000000000E+00
 0.3087099633062E+00 -0.2319245761804E+01  0.0000000000000E+00
 0.3104136644108E+00 -0.2246397477737E+01  0.0000000000000E+00
 0.3123271560352E+00 -0.2173620052771E+01  0.0000000000000E+00
 0.3144334892904E+00 -0.2100915165177E+01  0.0000000000000E+00
 0.3167228068109E+00 -0.2028285593305E+01  0.0000000000000E+00
 0.3191918918116E+00 -0.1955736239175E+01  0.0000000000000E+00
 0.3218456810053E+00 -0.1883276002310E+01  0.0000000000000E+00
 0.3247040273393E+00 -0.1810922091373E+01  0.0000000000000E+00
 0.3300068990355E+00 -0.4658502072771E+01  0.0000000000000E+00
 0.3300137980567E+00 -0.4585417172174E+01  0.0000000000000E+00
 0.3300206971202E+00 -0.4512331822772E+01  0.0000000000000E+00
 0.3300275961644E+00 -0.4439246678265E+01  0.0000000000000E+00
 0.3300344952072E+00 -0.4366161548291E+01  0.0000000000000E+00
 0.3300413942526E+00 -0.4293076390855E+01  0.0000000000000E+00
 0.3300482932940E+00 -0.4219991276614E+01  0.0000000000000E+00
 0.3300551923378E+00 -0.4146906135581E+01  0.0000000000000E+00
 0.3300620913812E+00 -0.4073820999915E+01  0.0000000000000E+00
 0.3300689904238E+00 -0.4000735872320E+01  0.0000000000000E+00
 0.3300758894678E+00 -0.3927650729427E+01  0.0000000000000E+00
 0.3300827885096E+00 -0.3854565610502E+01  0.0000000000000E+00
 0.3300896875544E+00 -0.3781480459680E+01  0.0000000000000E+00
 0.3300965866048E+00 -0.3708395249233E+01  0.0000000000000E+00
 0.3301034856532E+00 -0.3635310059585E+01  0.0000000000000E+00
 0.3301103846934E+00 -0.3562224957367E+01  0.0000000000000E+00
 0.3301172837945E+00 -0.3489139209918E+01  0.0000000000000E+00
 0.3301241827804E+00 -0.3416054683619E+01  0.0000000000000E+00
 0.3301310818247E+00 -0.3342969537384E+01  0.0000000000000E+00
 0.3301379808615E+00 -0.3269884471232E+01  0.0000000000000E+00
 0.3301448798895E+00 -0.3196799498167E+01  0.0000000000000E+00
 0.3301517789210E+00 -0.3123714488221E+01  0.0000000000000E+00
 0.3301586779556E+00 -0.3050629445591E+01  0.0000000000000E+00
 0.3301713817261E+00 -0.2977544340053E+01  0.0000000000000E+00
 0.3302272780059E+00 -0.2904459464839E+01  0.0000000000000E+00
 0.3303782817725E+00 -0.2831376158220E+01  0.0000000000000E+00
 0.3306717171352E+00 -0.2758297694401E+01  0.0000000000000E+00
 0.3311424186512E+00 -0.2685229756934E+01  0.0000000000000E+00
 0.3318127282240E+00 -0.2612179489470E+01  0.0000000000000E+00
 0.3326969314014E+00 -0.2539155225155E+01  0.0000000000000E+00
 0.3338063808598E+00 -0.2466165947716E+01  0.0000000000000E+00
 0.3351539196114E+00 -0.2393222372710E+01  0.0000000000000E+00
 0.3367572154907E+00 -0.2320338088127E+01  0.0000000000000E+00
 0.3386152745975E+00 -0.2247522904721E+01  0.0000000000000E+00
 0.3407021960918E+00 -0.2174778580452E+01  0.0000000000000E+00
 0.3429994902762E+00 -0.2102106793569E+01  0.0000000000000E+00
 0.3454964036609E+00 -0.2029510322446E+01  0.0000000000000E+00
 0.3481894270257E+00 -0.1956994069100E+01  0.0000000000000E+00
 0.3510839458773E+00 -0.1884566932939E+01  0.0000000000000E+00
 0.3542016179765E+00 -0.1812246122631E+01  0.0000000000000E+00
 0.3575068569661E+00 -0.4658538042879E+01  0.0000000000000E+00
 0.3575137139178E+00 -0.4585489112314E+01  0.0000000000000E+00
 0.3575205709117E+00 -0.4512439733166E+01  0.0000000000000E+00
 0.3575274278864E+00 -0.4439390558811E+01  0.0000000000000E+00
 0.3575342848597E+00 -0.4366341398983E+01  0.0000000000000E+00
 0.3575411418356E+00 -0.4293292211706E+01  0.0000000000000E+00
 0.3575479988074E+00 -0.4220243067603E+01  0.0000000000000E+00
 0.3575548557817E+00 -0.4147193896721E+01  0.0000000000000E+00
 0.3575617127555E+00 -0.4074144731204E+01  0.0000000000000E+00
 0.3575685697286E+00 -0.4001095573752E+01  0.0000000000000E+00
 0.3575754267031E+00 -0.3928046401012E+01  0.0000000000000E+00
 0.3575822836754E+00 -0.3854997252227E+01  0.0000000000000E+00
 0.3575891406506E+00 -0.3781948071560E+01  0.0000000000000E+00
 0.3575959976315E+00 -0.3708898831298E+01  0.0000000000000E+00
 0.3576028546104E+00 -0.3635849611826E+01  0.0000000000000E+00
 0.3576097115811E+00 -0.3562800479740E+01  0.0000000000000E+00
 0.3576165686123E+00 -0.3489750702740E+01  0.0000000000000E+00
 0.3576234255290E+00 -0.3416702146290E+01  0.0000000000000E+00
 0.3576302825038E+00 -0.3343652970208E+01  0.0000000000000E+00
 0.3576371394711E+00 -0.3270603874170E+01  0.0000000000000E+00
 0.3576439964297E+00 -0.3197554871173E+01  0.0000000000000E+00
 0.3576508533917E+00 -0.3124505831314E+01  0.0000000000000E+00
 0.3576577103568E+00 -0.3051456758786E+01  0.0000000000000E+00
 0.3576708557852E+00 -0.2978407623384E+01  0.0000000000000E+00
 0.3577307930988E+00 -0.2905358718283E+01  0.0000000000000E+00
 0.3578937635234E+00 -0.2832311381714E+01  0.0000000000000E+00
 0.3582110348432E+00 -0.2759268887932E+01  0.0000000000000E+00
 0.3587203444949E+00 -0.2686236920463E+01  0.0000000000000E+00
 0.3594458962068E+00 -0.2613222622996E+01  0.0000000000000E+00
 0.3604031659898E+00 -0.2540234328623E+01  0.0000000000000E+00
 0.3616044525750E+00 -0.2467281021158E+01  0.0000000000000E+00
 0.3630636692258E+00 -0.2394373416147E+01  0.0000000000000E+00
 0.3647999560978E+00 -0.2321525101475E+01  0.0000000000000E+00
 0.3668122364638E+00 -0.2248745888021E+01  0.0000000000000E+00
 0.3690724510805E+00 -0.2176037533744E+01  0.0000000000000E+00
 0.3715605694432E+00 -0.2103401716869E+01  0.0000000000000E+00
 0.3742649419373E+00 -0.2030841215795E+01  0.0000000000000E+00
 0.3771817669077E+00 -0.1958360932534E+01  0.0000000000000E+00
 0.3803168786556E+00 -0.1885969766374E+01  0.0000000000000E+00
 0.3836937397548E+00 -0.1813684925983E+01  0.0000000000000E+00
 0.3850066672510E+00 -0.4658576880061E+01  0.0000000000000E+00
 0.3850133344881E+00 -0.4585566786598E+01  0.0000000000000E+00
 0.3850200017662E+00 -0.4512556244790E+01  0.0000000000000E+00
 0.3850266690256E+00 -0.4439545907666E+01  0.0000000000000E+00
 0.3850333362836E+00 -0.4366535585061E+01  0.0000000000000E+00
 0.3850400035442E+00 -0.4293525235022E+01  0.0000000000000E+00
 0.3850466708008E+00 -0.4220514928134E+01  0.0000000000000E+00
 0.3850533380599E+00 -0.4147504594480E+01  0.0000000000000E+00
 0.3850600053184E+00 -0.4074494266190E+01  0.0000000000000E+00
 0.3850666725763E+00 -0.4001483945960E+01  0.0000000000000E+00
 0.3850733398355E+00 -0.3928473610450E+01  0.0000000000000E+00
 0.3850800070925E+00 -0.3855463298882E+01  0.0000000000000E+00
 0.3850866743525E+00 -0.3782452955450E+01  0.0000000000000E+00
 0.3850933416179E+00 -0.3709442552454E+01  0.0000000000000E+00
 0.3851000088814E+00 -0.3636432170237E+01  0.0000000000000E+00
 0.3851066761369E+00 -0.3563421875359E+01  0.0000000000000E+00
 0.3851133434512E+00 -0.3490410935911E+01  0.0000000000000E+00
 0.3851200106542E+00 -0.3417401216363E+01  0.0000000000000E+00
 0.3851266779138E+00 -0.3344390877513E+01  0.0000000000000E+00
 0.3851333451660E+00 -0.3271380618664E+01  0.0000000000000E+00
 0.3851400124097E+00 -0.3198370452807E+01  0.0000000000000E+00
 0.3851466796568E+00 -0.3125360250108E+01  0.0000000000000E+00
 0.3851533469069E+00 -0.3052350014757E+01  0.0000000000000E+00
 0.3851667863476E+00 -0.2979339716566E+01  0.0000000000000E+00
 0.3852306170495E+00 -0.2906329648653E+01  0.0000000000000E+00
 0.3854054064870E+00 -0.2833321149205E+01  0.0000000000000E+00
 0.3857463661188E+00 -0.2760317492529E+01  0.0000000000000E+00
 0.3862941362620E+00 -0.2687324362123E+01  0.0000000000000E+00
 0.3870747824689E+00 -0.2614348901720E+01  0.0000000000000E+00
 0.3881049712139E+00 -0.2541399444351E+01  0.0000000000000E+00
 0.3893979472826E+00 -0.2468484973924E+01  0.0000000000000E+00
 0.3909686941895E+00 -0.2395616205974E+01  0.0000000000000E+00
 0.3928378244118E+00 -0.2322806728271E+01  0.0000000000000E+00
 0.3950041783950E+00 -0.2250066351831E+01  0.0000000000000E+00
 0.3974375384922E+00 -0.2177396834612E+01  0.0000000000000E+00
 0.4001163333914E+00 -0.2104799854812E+01  0.0000000000000E+00
 0.4030280173533E+00 -0.2032278190856E+01  0.0000000000000E+00
 0.4061684962881E+00 -0.1959836744754E+01  0.0000000000000E+00
 0.4095440532914E+00 -0.1887484415661E+01  0.0000000000000E+00
 0.4131799557506E+00 -0.1815238412246E+01  0.0000000000000E+00
 0.4125063190932E+00 -0.4658618581925E+01  0.0000000000000E+00
 0.4125126381733E+00 -0.4585650190237E+01  0.0000000000000E+00
 0.4125189572921E+00 -0.4512681350462E+01  0.0000000000000E+00
 0.4125252763933E+00 -0.4439712715254E+01  0.0000000000000E+00
 0.4125315954932E+00 -0.4366744094556E+01  0.0000000000000E+00
 0.4125379145954E+00 -0.4293775446440E+01  0.0000000000000E+00
 0.4125442336940E+00 -0.4220806841450E+01  0.0000000000000E+00
 0.4125505527948E+00 -0.4147838209710E+01  0.0000000000000E+00
 0.4125568718952E+00 -0.4074869583330E+01  0.0000000000000E+00
 0.4125631909949E+00 -0.4001900965006E+01  0.0000000000000E+00
 0.4125695100959E+00 -0.3928932331410E+01  0.0000000000000E+00
 0.4125758291948E+00 -0.3855963721744E+01  0.0000000000000E+00
 0.4125821482965E+00 -0.3782995080231E+01  0.0000000000000E+00
 0.4125884674034E+00 -0.3710026379188E+01  0.0000000000000E+00
 0.4125947865084E+00 -0.3637057698912E+01  0.0000000000000E+00
 0.4126011056059E+00 -0.3564089105926E+01  0.0000000000000E+00
 0.4126074247592E+00 -0.3491119868737E+01  0.0000000000000E+00
 0.4126137438069E+00 -0.3418151850752E+01  0.0000000000000E+00
 0.4126200629082E+00 -0.3345183213819E+01  0.0000000000000E+00
 0.4126263820025E+00 -0.3272214656840E+01  0.0000000000000E+00
 0.4126327010889E+00 -0.3199246192801E+01  0.0000000000000E+00
 0.4126390201784E+00 -0.3126277691941E+01  0.0000000000000E+00
 0.4126453392707E+00 -0.3053309158447E+01  0.0000000000000E+00
 0.4126589142810E+00 -0.2980340562151E+01  0.0000000000000E+00
 0.4127264799297E+00 -0.2907372196107E+01  0.0000000000000E+00
 0.4129129299416E+00 -0.2834405398456E+01  0.0000000000000E+00
 0.4132774194510E+00 -0.2761443443563E+01  0.0000000000000E+00
 0.4138634916560E+00 -0.2688492014891E+01  0.0000000000000E+00
 0.4146990739339E+00 -0.2615558256224E+01  0.0000000000000E+00
 0.4158020232230E+00 -0.2542650500527E+01  0.0000000000000E+00
 0.4171865303632E+00 -0.2469777731808E+01  0.0000000000000E+00
 0.4188686491207E+00 -0.2396950665591E+01  0.0000000000000E+00
 0.4208704642954E+00 -0.2324182889523E+01  0.0000000000000E+00
 0.4231907335043E+00 -0.2251484214766E+01  0.0000000000000E+00
 0.4257970806970E+00 -0.2178856399276E+01  0.0000000000000E+00
 0.4286663937532E+00 -0.2106301121224E+01  0.0000000000000E+00
 0.4317852308089E+00 -0.2033821159063E+01  0.0000000000000E+00
 0.4351492053391E+00 -0.1961421414798E+01  0.0000000000000E+00
 0.4387650492349E+00 -0.1889110787444E+01  0.0000000000000E+00
 0.4426598346975E+00 -0.1816906485672E+01  0.0000000000000E+00
 0.4400058000888E+00 -0.4658663145799E+01  0.0000000000000E+00
 0.4400116001655E+00 -0.4585739317892E+01  0.0000000000000E+00
 0.4400174002778E+00 -0.4512815042172E+01  0.0000000000000E+00
 0.4400232003739E+00 -0.4439890970894E+01  0.0000000000000E+00
 0.4400290004688E+00 -0.4366966914117E+01  0.0000000000000E+00
 0.4400348005658E+00 -0.4294042829939E+01  0.0000000000000E+00
 0.4400406006595E+00 -0.4221118788861E+01  0.0000000000000E+00
 0.4400464007553E+00 -0.4148194721049E+01  0.0000000000000E+00
 0.4400522008506E+00 -0.4075270658593E+01  0.0000000000000E+00
 0.4400580009453E+00 -0.4002346604189E+01  0.0000000000000E+00
 0.4400638010413E+00 -0.3929422534522E+01  0.0000000000000E+00
 0.4400696011353E+00 -0.3856498488770E+01  0.0000000000000E+00
 0.4400754012318E+00 -0.3783574411191E+01  0.0000000000000E+00
 0.4400812013331E+00 -0.3710650274118E+01  0.0000000000000E+00
 0.4400870014328E+00 -0.3637726157800E+01  0.0000000000000E+00
 0.4400928015255E+00 -0.3564802128718E+01  0.0000000000000E+00
 0.4400986016694E+00 -0.3491877455827E+01  0.0000000000000E+00
 0.4401044017164E+00 -0.3418954001394E+01  0.0000000000000E+00
 0.4401102018126E+00 -0.3346029928392E+01  0.0000000000000E+00
 0.4401160019024E+00 -0.3273105935296E+01  0.0000000000000E+00
 0.4401218019848E+00 -0.3200182035083E+01  0.0000000000000E+00
 0.4401276020702E+00 -0.3127258098070E+01  0.0000000000000E+00
 0.4401334021582E+00 -0.3054334128444E+01  0.0000000000000E+00
 0.4401469418909E+00 -0.2981410096056E+01  0.0000000000000E+00
 0.4402180716374E+00 -0.2908486293893E+01  0.0000000000000E+00
 0.4404160113703E+00 -0.2835564060045E+01  0.0000000000000E+00
 0.4408038598970E+00 -0.2762646668939E+01  0.0000000000000E+00
 0.4414280632953E+00 -0.2689739804004E+01  0.0000000000000E+00
 0.4423184107658E+00 -0.2616850609075E+01  0.0000000000000E+00
 0.4434939497105E+00 -0.2543987417048E+01  0.0000000000000E+00
 0.4449698170227E+00 -0.2471159212037E+01  0.0000000000000E+00
 0.4467631367197E+00 -0.2398376709555E+01  0.0000000000000E+00
 0.4488974659235E+00 -0.2325653497116E+01  0.0000000000000E+00
 0.4513714794224E+00 -0.2252999386040E+01  0.0000000000000E+00
 0.4541506427632E+00 -0.2180416134282E+01  0.0000000000000E+00
 0.4572103030192E+00 -0.2107905419981E+01  0.0000000000000E+00
 0.4605361222013E+00 -0.2035470021620E+01  0.0000000000000E+00
 0.4641234213498E+00 -0.1963114841203E+01  0.0000000000000E+00
 0.4679793811517E+00 -0.1890848777590E+01  0.0000000000000E+00
 0.4721328786209E+00 -0.1818689039456E+01  0.0000000000000E+00
 0.4675051005201E+00 -0.4658710569005E+01  0.0000000000000E+00
 0.4675102010296E+00 -0.4585834164207E+01  0.0000000000000E+00
 0.4675153015704E+00 -0.4512957311885E+01  0.0000000000000E+00
 0.4675204020969E+00 -0.4440080663873E+01  0.0000000000000E+00
 0.4675255026224E+00 -0.4367204030353E+01  0.0000000000000E+00
 0.4675306031498E+00 -0.4294327369449E+01  0.0000000000000E+00
 0.4675357036742E+00 -0.4221450751617E+01  0.0000000000000E+00
 0.4675408042005E+00 -0.4148574107069E+01  0.0000000000000E+00
 0.4675459047264E+00 -0.4075697467873E+01  0.0000000000000E+00
 0.4675510052517E+00 -0.4002820836724E+01  0.0000000000000E+00
 0.4675561057781E+00 -0.3929944190322E+01  0.0000000000000E+00
 0.4675612063029E+00 -0.3857067567819E+01  0.0000000000000E+00
 0.4675663068298E+00 -0.3784190913510E+01  0.0000000000000E+00
 0.4675714073609E+00 -0.3711314199746E+01  0.0000000000000E+00
 0.4675765078906E+00 -0.3638437506723E+01  0.0000000000000E+00
 0.4675816084142E+00 -0.3565560900880E+01  0.0000000000000E+00
 0.4675867089827E+00 -0.3492683651646E+01  0.0000000000000E+00
 0.4675918094661E+00 -0.3419807620078E+01  0.0000000000000E+00
 0.4675969099927E+00 -0.3346930970343E+01  0.0000000000000E+00
 0.4676020105138E+00 -0.3274054400462E+01  0.0000000000000E+00
 0.4676071110283E+00 -0.3201177923403E+01  0.0000000000000E+00
 0.4676122115455E+00 -0.3128301409569E+01  0.0000000000000E+00
 0.4676173120649E+00 -0.3055424863144E+01  0.0000000000000E+00
 0.4676306359560E+00 -0.2982548253998E+01  0.0000000000000E+00
 0.4677051492379E+00 -0.2909671875048E+01  0.0000000000000E+00
 0.4679143981338E+00 -0.2836797064332E+01  0.0000000000000E+00
 0.4683254251255E+00 -0.2763927096339E+01  0.0000000000000E+00
 0.4689875791721E+00 -0.2691067654466E+01  0.0000000000000E+00
 0.4699325112982E+00 -0.2618225882598E+01  0.0000000000000E+00
 0.4711804593705E+00 -0.2545410113560E+01  0.0000000000000E+00
 0.4727475063358E+00 -0.2472629331579E+01  0.0000000000000E+00
 0.4746518464626E+00 -0.2399894252155E+01  0.0000000000000E+00
 0.4769185091967E+00 -0.2327218462663E+01  0.0000000000000E+00
 0.4795460864969E+00 -0.2254611774588E+01  0.0000000000000E+00
 0.4824978855064E+00 -0.2182075945884E+01  0.0000000000000E+00
 0.4857477124908E+00 -0.2109612654658E+01  0.0000000000000E+00
 0.4892803333359E+00 -0.2037224679426E+01  0.0000000000000E+00
 0.4930907766471E+00 -0.1964916922187E+01  0.0000000000000E+00
 0.4971866719080E+00 -0.1892698281639E+01  0.0000000000000E+00
 0.5015987009462E+00 -0.1820585966460E+01  0.0000000000000E+00
 0.4950042083210E+00 -0.4658760848539E+01  0.0000000000000E+00
 0.4950084166332E+00 -0.4585934723169E+01  0.0000000000000E+00
 0.4950126249712E+00 -0.4513108150585E+01  0.0000000000000E+00
 0.4950168332975E+00 -0.4440281782170E+01  0.0000000000000E+00
 0.4950210416229E+00 -0.4367455428237E+01  0.0000000000000E+00
 0.4950252499499E+00 -0.4294629046938E+01  0.0000000000000E+00
 0.4950294582744E+00 -0.4221802708682E+01  0.0000000000000E+00
 0.4950336666004E+00 -0.4148976343728E+01  0.0000000000000E+00
 0.4950378749262E+00 -0.4076149984123E+01  0.0000000000000E+00
 0.4950420832514E+00 -0.4003323632559E+01  0.0000000000000E+00
 0.4950462915776E+00 -0.3930497265753E+01  0.0000000000000E+00
 0.4950504999024E+00 -0.3857670922829E+01  0.0000000000000E+00
 0.4950547082290E+00 -0.3784844548121E+01  0.0000000000000E+00
 0.4950589165590E+00 -0.3712018113999E+01  0.0000000000000E+00
 0.4950631248879E+00 -0.3639191700604E+01  0.0000000000000E+00
 0.4950673332117E+00 -0.3566365374328E+01  0.0000000000000E+00
 0.4950715415726E+00 -0.3493538405106E+01  0.0000000000000E+00
 0.4950757498633E+00 -0.3420712652710E+01  0.0000000000000E+00
 0.4950799581896E+00 -0.3347886282572E+01  0.0000000000000E+00
 0.4950841665114E+00 -0.3275059992234E+01  0.0000000000000E+00
 0.4950883748277E+00 -0.3202233794654E+01  0.0000000000000E+00
 0.4950925831462E+00 -0.3129407560324E+01  0.0000000000000E+00
 0.4950967914666E+00 -0.3056581293425E+01  0.0000000000000E+00
 0.4951097068853E+00 -0.2983754963851E+01  0.0000000000000E+00
 0.4951874110714E+00 -0.2910928864443E+01  0.0000000000000E+00
 0.4954077764972E+00 -0.2838104333180E+01  0.0000000000000E+00
 0.4958417893184E+00 -0.2765284644623E+01  0.0000000000000E+00
 0.4965417013745E+00 -0.2692475482128E+01  0.0000000000000E+00
 0.4975410255139E+00 -0.2619683989641E+01  0.0000000000000E+00
 0.4988611900675E+00 -0.2546918499905E+01  0.0000000000000E+00
 0.5005192240350E+00 -0.2474187997271E+01  0.0000000000000E+00
 0.5025343919363E+00 -0.2401503197224E+01  0.0000000000000E+00
 0.5049331955409E+00 -0.2328877686990E+01  0.0000000000000E+00
 0.5077141439775E+00 -0.2256321278231E+01  0.0000000000000E+00
 0.5108383859861E+00 -0.2183835728900E+01  0.0000000000000E+00
 0.5142781870254E+00 -0.2111422717068E+01  0.0000000000000E+00
 0.5180174168560E+00 -0.2039085021287E+01  0.0000000000000E+00
 0.5220508116484E+00 -0.1966827543550E+01  0.0000000000000E+00
 0.5263864496834E+00 -0.1894659182387E+01  0.0000000000000E+00
 0.5310568176018E+00 -0.1822597146475E+01  0.0000000000000E+00
 0.5225031126404E+00 -0.4658813981299E+01  0.0000000000000E+00
 0.5225062252743E+00 -0.4586040988578E+01  0.0000000000000E+00
 0.5225093379273E+00 -0.4513267548970E+01  0.0000000000000E+00
 0.5225124505716E+00 -0.4440494313380E+01  0.0000000000000E+00
 0.5225155632152E+00 -0.4367721092263E+01  0.0000000000000E+00
 0.5225186758601E+00 -0.4294947843801E+01  0.0000000000000E+00
 0.5225217885031E+00 -0.4222174638349E+01  0.0000000000000E+00
 0.5225249011472E+00 -0.4149401406219E+01  0.0000000000000E+00
 0.5225280137911E+00 -0.4076628179434E+01  0.0000000000000E+00
 0.5225311264347E+00 -0.4003854960684E+01  0.0000000000000E+00
 0.5225342390789E+00 -0.3931081726703E+01  0.0000000000000E+00
 0.5225373517221E+00 -0.3858308516587E+01  0.0000000000000E+00
 0.5225404643666E+00 -0.3785535274710E+01  0.0000000000000E+00
 0.5225435770137E+00 -0.3712761973463E+01  0.0000000000000E+00
 0.5225466896599E+00 -0.3639988692926E+01  0.0000000000000E+00
 0.5225498023024E+00 -0.3567215499446E+01  0.0000000000000E+00
 0.5225529149724E+00 -0.3494441663489E+01  0.0000000000000E+00
 0.5225560275903E+00 -0.3421669043470E+01  0.0000000000000E+00
 0.5225591402347E+00 -0.3348895806160E+01  0.0000000000000E+00
 0.5225622528757E+00 -0.3276122648591E+01  0.0000000000000E+00
 0.5225653655126E+00 -0.3203349583713E+01  0.0000000000000E+00
 0.5225684781512E+00 -0.3130576482112E+01  0.0000000000000E+00
 0.5225715907911E+00 -0.3057803347965E+01  0.0000000000000E+00
 0.5225838942559E+00 -0.2985030151191E+01  0.0000000000000E+00
 0.5226645858642E+00 -0.2912257184550E+01  0.0000000000000E+00
 0.5228958643382E+00 -0.2839485785963E+01  0.0000000000000E+00
 0.5233526595062E+00 -0.2766719230062E+01  0.0000000000000E+00
 0.5240901260887E+00 -0.2693963200164E+01  0.0000000000000E+00
 0.5251436387569E+00 -0.2621224840274E+01  0.0000000000000E+00
 0.5265358163068E+00 -0.2548512483054E+01  0.0000000000000E+00
 0.5282846337900E+00 -0.2475835112982E+01  0.0000000000000E+00
 0.5304104259779E+00 -0.2403203445529E+01  0.0000000000000E+00
 0.5329411669643E+00 -0.2330631067763E+01  0.0000000000000E+00
 0.5358752830470E+00 -0.2258127791534E+01  0.0000000000000E+00
 0.5391717645631E+00 -0.2185695374792E+01  0.0000000000000E+00
 0.5428013361643E+00 -0.2113335495573E+01  0.0000000000000E+00
 0.5467469714862E+00 -0.2041050932465E+01  0.0000000000000E+00
 0.5510031142644E+00 -0.1968846587455E+01  0.0000000000000E+00
 0.5555782915776E+00 -0.1896731358894E+01  0.0000000000000E+00
 0.5605067948795E+00 -0.1824722455461E+01  0.0000000000000E+00
 0.5500018033136E+00 -0.4658869964069E+01  0.0000000000000E+00
 0.5500036066233E+00 -0.4586152954003E+01  0.0000000000000E+00
 0.5500054099442E+00 -0.4513435497392E+01  0.0000000000000E+00
 0.5500072132600E+00 -0.4440718244644E+01  0.0000000000000E+00
 0.5500090165755E+00 -0.4368001006356E+01  0.0000000000000E+00
 0.5500108198916E+00 -0.4295283740744E+01  0.0000000000000E+00
 0.5500126232067E+00 -0.4222566518110E+01  0.0000000000000E+00
 0.5500144265224E+00 -0.4149849268818E+01  0.0000000000000E+00
 0.5500162298380E+00 -0.4077132024867E+01  0.0000000000000E+00
 0.5500180331534E+00 -0.4004414788945E+01  0.0000000000000E+00
 0.5500198364692E+00 -0.3931697537804E+01  0.0000000000000E+00
 0.5500216397843E+00 -0.3858980310509E+01  0.0000000000000E+00
 0.5500234431003E+00 -0.3786263051477E+01  0.0000000000000E+00
 0.5500252464177E+00 -0.3713545733121E+01  0.0000000000000E+00
 0.5500270497347E+00 -0.3640828435461E+01  0.0000000000000E+00
 0.5500288530494E+00 -0.3568111224789E+01  0.0000000000000E+00
 0.5500306563801E+00 -0.3495393372134E+01  0.0000000000000E+00
 0.5500324596807E+00 -0.3422676734482E+01  0.0000000000000E+00
 0.5500342629965E+00 -0.3349959480015E+01  0.0000000000000E+00
 0.5500360663104E+00 -0.3277242305227E+01  0.0000000000000E+00
 0.5500378696220E+00 -0.3204525223058E+01  0.0000000000000E+00
 0.5500396729345E+00 -0.3131808104194E+01  0.0000000000000E+00
 0.5500414762478E+00 -0.3059090952810E+01  0.0000000000000E+00
 0.5500529541124E+00 -0.2986373738849E+01  0.0000000000000E+00
 0.5501364194992E+00 -0.2913656754987E+01  0.0000000000000E+00
 0.5503783973824E+00 -0.2840941339082E+01  0.0000000000000E+00
 0.5508577612655E+00 -0.2768230765842E+01  0.0000000000000E+00
 0.5516325687513E+00 -0.2695530718543E+01  0.0000000000000E+00
 0.5527400563351E+00 -0.2622848341252E+01  0.0000000000000E+00
 0.5542040332787E+00 -0.2550191966546E+01  0.0000000000000E+00
 0.5560434206860E+00 -0.2477570579036E+01  0.0000000000000E+00
 0.5582796235804E+00 -0.2404994894179E+01  0.0000000000000E+00
 0.5609420883813E+00 -0.2332478498877E+01  0.0000000000000E+00
 0.5640291585551E+00 -0.2260031205176E+01  0.0000000000000E+00
 0.5674976660344E+00 -0.2187654771025E+01  0.0000000000000E+00
 0.5713167946636E+00 -0.2115350874421E+01  0.0000000000000E+00
 0.5754686219523E+00 -0.2043122293992E+01  0.0000000000000E+00
 0.5799472992011E+00 -0.1970973931719E+01  0.0000000000000E+00
 0.5847618022875E+00 -0.1898914685761E+01  0.0000000000000E+00
 0.5899482274796E+00 -0.1826961764802E+01  0.0000000000000E+00
 0.5775046063623E+00 -0.4658929169039E+01  0.0000000000000E+00
 0.5775092127151E+00 -0.4586271363819E+01  0.0000000000000E+00
 0.5775138190961E+00 -0.4513613112418E+01  0.0000000000000E+00
 0.5775184254642E+00 -0.4440955064714E+01  0.0000000000000E+00
 0.5775230318314E+00 -0.4368297031459E+01  0.0000000000000E+00
 0.5775276382004E+00 -0.4295638970901E+01  0.0000000000000E+00
 0.5775322445666E+00 -0.4222980953286E+01  0.0000000000000E+00
 0.5775368509345E+00 -0.4150322909036E+01  0.0000000000000E+00
 0.5775414573020E+00 -0.4077664870122E+01  0.0000000000000E+00
 0.5775460636691E+00 -0.4005006839230E+01  0.0000000000000E+00
 0.5775506700371E+00 -0.3932348793131E+01  0.0000000000000E+00
 0.5775552764036E+00 -0.3859690770860E+01  0.0000000000000E+00
 0.5775598827721E+00 -0.3787032716878E+01  0.0000000000000E+00
 0.5775644891444E+00 -0.3714374603619E+01  0.0000000000000E+00
 0.5775690955153E+00 -0.3641716511039E+01  0.0000000000000E+00
 0.5775737018808E+00 -0.3569058505377E+01  0.0000000000000E+00
 0.5775783082869E+00 -0.3496399858254E+01  0.0000000000000E+00
 0.5775829146160E+00 -0.3423742425146E+01  0.0000000000000E+00
 0.5775875209843E+00 -0.3351084375724E+01  0.0000000000000E+00
 0.5775921273474E+00 -0.3278426405916E+01  0.0000000000000E+00
 0.5775967337047E+00 -0.3205768528653E+01  0.0000000000000E+00
 0.5776013400644E+00 -0.3133110614724E+01  0.0000000000000E+00
 0.5776059464261E+00 -0.3060452668301E+01  0.0000000000000E+00
 0.5776207126381E+00 -0.2987794659355E+01  0.0000000000000E+00
 0.5777110774219E+00 -0.2915136880472E+01  0.0000000000000E+00
 0.5779679060300E+00 -0.2842480669443E+01  0.0000000000000E+00
 0.5784740284367E+00 -0.2769829301057E+01  0.0000000000000E+00
 0.5792904145389E+00 -0.2697188458545E+01  0.0000000000000E+00
 0.5804561686988E+00 -0.2624565286044E+01  0.0000000000000E+00
 0.5819962944983E+00 -0.2551968116035E+01  0.0000000000000E+00
 0.5839306621719E+00 -0.2479405933275E+01  0.0000000000000E+00
 0.5862817504648E+00 -0.2406889453203E+01  0.0000000000000E+00
 0.5890804828851E+00 -0.2334432262545E+01  0.0000000000000E+00
 0.5923251198134E+00 -0.2262044173559E+01  0.0000000000000E+00
 0.5959703277778E+00 -0.2189726944188E+01  0.0000000000000E+00
 0.5999837448152E+00 -0.2117482252390E+01  0.0000000000000E+00
 0.6043465494057E+00 -0.2045312876833E+01  0.0000000000000E+00
 0.6090525994664E+00 -0.1973223719494E+01  0.0000000000000E+00
 0.6141113211150E+00 -0.1901223678329E+01  0.0000000000000E+00
 0.6195606212872E+00 -0.1829329962027E+01  0.0000000000000E+00
 0.6050071700463E+00 -0.4658991252418E+01  0.0000000000000E+00
 0.6050143400778E+00 -0.4586395530448E+01  0.0000000000000E+00
 0.6050215101532E+00 -0.4513799362679E+01  0.0000000000000E+00
 0.6050286802085E+00 -0.4441203398432E+01  0.0000000000000E+00
 0.6050358502624E+00 -0.4368607448621E+01  0.0000000000000E+00
 0.6050430203191E+00 -0.4296011471532E+01  0.0000000000000E+00
 0.6050501903714E+00 -0.4223415537349E+01  0.0000000000000E+00
 0.6050573604264E+00 -0.4150819576553E+01  0.0000000000000E+00
 0.6050645304809E+00 -0.4078223621089E+01  0.0000000000000E+00
 0.6050717005346E+00 -0.4005627673640E+01  0.0000000000000E+00
 0.6050788705898E+00 -0.3933031710997E+01  0.0000000000000E+00
 0.6050860406426E+00 -0.3860435772161E+01  0.0000000000000E+00
 0.6050932106985E+00 -0.3787839801641E+01  0.0000000000000E+00
 0.6051003807603E+00 -0.3715243771896E+01  0.0000000000000E+00
 0.6051075508201E+00 -0.3642647762811E+01  0.0000000000000E+00
 0.6051147208713E+00 -0.3570051840571E+01  0.0000000000000E+00
 0.6051218909858E+00 -0.3497455277418E+01  0.0000000000000E+00
 0.6051290609805E+00 -0.3424859927241E+01  0.0000000000000E+00
 0.6051362310360E+00 -0.3352263961278E+01  0.0000000000000E+00
 0.6051434010836E+00 -0.3279668074861E+01  0.0000000000000E+00
 0.6051505711222E+00 -0.3207072280909E+01  0.0000000000000E+00
 0.6051577411643E+00 -0.3134476450324E+01  0.0000000000000E+00
 0.6051649112096E+00 -0.3061880587272E+01  0.0000000000000E+00
 0.6051827264041E+00 -0.2989284661751E+01  0.0000000000000E+00
 0.6052797512201E+00 -0.2916688966257E+01  0.0000000000000E+00
 0.6055511911890E+00 -0.2844094838509E+01  0.0000000000000E+00
 0.6060838327555E+00 -0.2771505553381E+01  0.0000000000000E+00
 0.6069415581107E+00 -0.2698926794058E+01  0.0000000000000E+00
 0.6081653394835E+00 -0.2626365704746E+01  0.0000000000000E+00
 0.6097813747766E+00 -0.2553830617832E+01  0.0000000000000E+00
 0.6118104833542E+00 -0.2481330518221E+01  0.0000000000000E+00
 0.6142762176836E+00 -0.2408876121334E+01  0.0000000000000E+00
 0.6172109783622E+00 -0.2336481013715E+01  0.0000000000000E+00
 0.6206129426840E+00 -0.2264155007840E+01  0.0000000000000E+00
 0.6244346117725E+00 -0.2191899861649E+01  0.0000000000000E+00
 0.6286420778573E+00 -0.2119717253058E+01  0.0000000000000E+00
 0.6332156203890E+00 -0.2047609960779E+01  0.0000000000000E+00
 0.6381488039008E+00 -0.1975582886781E+01  0.0000000000000E+00
 0.6434515047517E+00 -0.1903644928812E+01  0.0000000000000E+00
 0.6491634405451E+00 -0.1831813295560E+01  0.0000000000000E+00
 0.6325094832707E+00 -0.4659056210343E+01  0.0000000000000E+00
 0.6325189665217E+00 -0.4586525446162E+01  0.0000000000000E+00
 0.6325284498309E+00 -0.4513994236580E+01  0.0000000000000E+00
 0.6325379331135E+00 -0.4441463230339E+01  0.0000000000000E+00
 0.6325474163943E+00 -0.4368932238522E+01  0.0000000000000E+00
 0.6325568996786E+00 -0.4296401219450E+01  0.0000000000000E+00
 0.6325663829573E+00 -0.4223870243246E+01  0.0000000000000E+00
 0.6325758662394E+00 -0.4151339240452E+01  0.0000000000000E+00
 0.6325853495209E+00 -0.4078808242986E+01  0.0000000000000E+00
 0.6325948328014E+00 -0.4006277253528E+01  0.0000000000000E+00
 0.6326043160838E+00 -0.3933746248890E+01  0.0000000000000E+00
 0.6326137993631E+00 -0.3861215268037E+01  0.0000000000000E+00
 0.6326232826465E+00 -0.3788684255529E+01  0.0000000000000E+00
 0.6326327659377E+00 -0.3716153183848E+01  0.0000000000000E+00
 0.6326422492262E+00 -0.3643622132809E+01  0.0000000000000E+00
 0.6326517325033E+00 -0.3571091168537E+01  0.0000000000000E+00
 0.6326612158642E+00 -0.3498559563925E+01  0.0000000000000E+00
 0.6326706990666E+00 -0.3426029171205E+01  0.0000000000000E+00
 0.6326801823494E+00 -0.3353498163249E+01  0.0000000000000E+00
 0.6326896656219E+00 -0.3280967234769E+01  0.0000000000000E+00
 0.6326991488823E+00 -0.3208436398670E+01  0.0000000000000E+00
 0.6327086321474E+00 -0.3135905525971E+01  0.0000000000000E+00
 0.6327181154168E+00 -0.3063374620834E+01  0.0000000000000E+00
 0.6327387291340E+00 -0.2990843653288E+01  0.0000000000000E+00
 0.6328421635227E+00 -0.2918312915727E+01  0.0000000000000E+00
 0.6331279643934E+00 -0.2845783745801E+01  0.0000000000000E+00
 0.6336868746610E+00 -0.2773259418471E+01  0.0000000000000E+00
 0.6345856888113E+00 -0.2700745616872E+01  0.0000000000000E+00
 0.6358672469395E+00 -0.2628249485287E+01  0.0000000000000E+00
 0.6375589412693E+00 -0.2555779355998E+01  0.0000000000000E+00
 0.6396825402943E+00 -0.2483344214070E+01  0.0000000000000E+00
 0.6422626702039E+00 -0.2410954774905E+01  0.0000000000000E+00
 0.6453332086857E+00 -0.2338624624854E+01  0.0000000000000E+00
 0.6488922499460E+00 -0.2266363576622E+01  0.0000000000000E+00
 0.6528901297038E+00 -0.2194173388147E+01  0.0000000000000E+00
 0.6572913943814E+00 -0.2122055737301E+01  0.0000000000000E+00
 0.6620754243999E+00 -0.2050013402840E+01  0.0000000000000E+00
 0.6672354909085E+00 -0.1978051286727E+01  0.0000000000000E+00
 0.6727819205084E+00 -0.1906178286488E+01  0.0000000000000E+00
 0.6787562414707E+00 -0.1834411610816E+01  0.0000000000000E+00
 0.6600115349916E+00 -0.4659124038777E+01  0.0000000000000E+00
 0.6600230699592E+00 -0.4586661102889E+01  0.0000000000000E+00
 0.6600346049976E+00 -0.4514197722017E+01  0.0000000000000E+00
 0.6600461400037E+00 -0.4441734544296E+01  0.0000000000000E+00
 0.6600576750075E+00 -0.4369271380984E+01  0.0000000000000E+00
 0.6600692100156E+00 -0.4296808190443E+01  0.0000000000000E+00
 0.6600807450169E+00 -0.4224345042731E+01  0.0000000000000E+00
 0.6600922800224E+00 -0.4151881868453E+01  0.0000000000000E+00
 0.6601038150271E+00 -0.4079418699498E+01  0.0000000000000E+00
 0.6601153500305E+00 -0.4006955538544E+01  0.0000000000000E+00
 0.6601268850364E+00 -0.3934492362423E+01  0.0000000000000E+00
 0.6601384200384E+00 -0.3862029210066E+01  0.0000000000000E+00
 0.6601499550455E+00 -0.3789566026083E+01  0.0000000000000E+00
 0.6601614900620E+00 -0.3717102782983E+01  0.0000000000000E+00
 0.6601730250752E+00 -0.3644639560506E+01  0.0000000000000E+00
 0.6601845600746E+00 -0.3572176424713E+01  0.0000000000000E+00
 0.6601960951758E+00 -0.3499712649181E+01  0.0000000000000E+00
 0.6602076300843E+00 -0.3427250084407E+01  0.0000000000000E+00
 0.6602191650907E+00 -0.3354786904972E+01  0.0000000000000E+00
 0.6602307000844E+00 -0.3282323804938E+01  0.0000000000000E+00
 0.6602422350634E+00 -0.3209860797199E+01  0.0000000000000E+00
 0.6602537700482E+00 -0.3137397752895E+01  0.0000000000000E+00
 0.6602653050382E+00 -0.3064934676183E+01  0.0000000000000E+00
 0.6602884557744E+00 -0.2992471537122E+01  0.0000000000000E+00
 0.6603980382323E+00 -0.2920008628006E+01  0.0000000000000E+00
 0.6606979385021E+00 -0.2847547286406E+01  0.0000000000000E+00
 0.6612828559686E+00 -0.2775090787378E+01  0.0000000000000E+00
 0.6622224974123E+00 -0.2702644814005E+01  0.0000000000000E+00
 0.6635615707948E+00 -0.2630216510647E+01  0.0000000000000E+00
 0.6653286626613E+00 -0.2557814209481E+01  0.0000000000000E+00
 0.6675464906339E+00 -0.2485446895735E+01  0.0000000000000E+00
 0.6702407546242E+00 -0.2413125284793E+01  0.0000000000000E+00
 0.6734468094109E+00 -0.2340862962804E+01  0.0000000000000E+00
 0.6771626661118E+00 -0.2268669742713E+01  0.0000000000000E+00
 0.6813364950413E+00 -0.2196547382455E+01  0.0000000000000E+00
 0.6859312968146E+00 -0.2124497559855E+01  0.0000000000000E+00
 0.6909255528227E+00 -0.2052523053717E+01  0.0000000000000E+00
 0.6963122408314E+00 -0.1980628765997E+01  0.0000000000000E+00
 0.7021021376845E+00 -0.1908823593990E+01  0.0000000000000E+00
 0.7083385823212E+00 -0.1837124746394E+01  0.0000000000000E+00
 0.6875133142182E+00 -0.4659194733517E+01  0.0000000000000E+00
 0.6875266284087E+00 -0.4586802492222E+01  0.0000000000000E+00
 0.6875399426809E+00 -0.4514409806377E+01  0.0000000000000E+00
 0.6875532569158E+00 -0.4442017323484E+01  0.0000000000000E+00
 0.6875665711481E+00 -0.4369624854987E+01  0.0000000000000E+00
 0.6875798853854E+00 -0.4297232359288E+01  0.0000000000000E+00
 0.6875931996148E+00 -0.4224839906374E+01  0.0000000000000E+00
 0.6876065138490E+00 -0.4152447426922E+01  0.0000000000000E+00
 0.6876198280823E+00 -0.4080054952788E+01  0.0000000000000E+00
 0.6876331423142E+00 -0.4007662486646E+01  0.0000000000000E+00
 0.6876464565488E+00 -0.3935270005352E+01  0.0000000000000E+00
 0.6876597707790E+00 -0.3862877547799E+01  0.0000000000000E+00
 0.6876730850151E+00 -0.3790485058651E+01  0.0000000000000E+00
 0.6876863992620E+00 -0.3718092510443E+01  0.0000000000000E+00
 0.6876997135052E+00 -0.3645699982838E+01  0.0000000000000E+00
 0.6877130277324E+00 -0.3573307541834E+01  0.0000000000000E+00
 0.6877263420771E+00 -0.3500914461714E+01  0.0000000000000E+00
 0.6877396561994E+00 -0.3428522591170E+01  0.0000000000000E+00
 0.6877529704346E+00 -0.3356130106565E+01  0.0000000000000E+00
 0.6877662846553E+00 -0.3283737701285E+01  0.0000000000000E+00
 0.6877795988589E+00 -0.3211345388209E+01  0.0000000000000E+00
 0.6877929130693E+00 -0.3138953038603E+01  0.0000000000000E+00
 0.6878062272857E+00 -0.3066560656621E+01  0.0000000000000E+00
 0.6878316425464E+00 -0.2994168212354E+01  0.0000000000000E+00
 0.6879471005793E+00 -0.2921775997988E+01  0.0000000000000E+00
 0.6882608277547E+00 -0.2849385351017E+01  0.0000000000000E+00
 0.6888714799273E+00 -0.2776999546590E+01  0.0000000000000E+00
 0.6898516761724E+00 -0.2704624267741E+01  0.0000000000000E+00
 0.6912479923176E+00 -0.2632266658906E+01  0.0000000000000E+00
 0.6930902092303E+00 -0.2559935052156E+01  0.0000000000000E+00
 0.6954019936605E+00 -0.2487638432887E+01  0.0000000000000E+00
 0.6982101192422E+00 -0.2415387516464E+01  0.0000000000000E+00
 0.7015514178457E+00 -0.2343195888828E+01  0.0000000000000E+00
 0.7054238174997E+00 -0.2271073363171E+01  0.0000000000000E+00
 0.7097733231136E+00 -0.2199021697426E+01  0.0000000000000E+00
 0.7145613894959E+00 -0.2127042569371E+01  0.0000000000000E+00
 0.7197655990073E+00 -0.2055138757856E+01  0.0000000000000E+00
 0.7253786360298E+00 -0.1983315164833E+01  0.0000000000000E+00
 0.7314117276514E+00 -0.1911580687357E+01  0.0000000000000E+00
 0.7379100234788E+00 -0.1839952534126E+01  0.0000000000000E+00
 0.7150148100149E+00 -0.4659268290191E+01  0.0000000000000E+00
 0.7150296199990E+00 -0.4586949605417E+01  0.0000000000000E+00
 0.7150444300741E+00 -0.4514630476544E+01  0.0000000000000E+00
 0.7150592401076E+00 -0.4442311550418E+01  0.0000000000000E+00
 0.7150740501382E+00 -0.4369992638672E+01  0.0000000000000E+00
 0.7150888601743E+00 -0.4297673699752E+01  0.0000000000000E+00
 0.7151036702017E+00 -0.4225354803575E+01  0.0000000000000E+00
 0.7151184802345E+00 -0.4153035880886E+01  0.0000000000000E+00
 0.7151332902662E+00 -0.4080716963508E+01  0.0000000000000E+00
 0.7151481002963E+00 -0.4008398054116E+01  0.0000000000000E+00
 0.7151629103295E+00 -0.3936079129587E+01  0.0000000000000E+00
 0.7151777203579E+00 -0.3863760228774E+01  0.0000000000000E+00
 0.7151925303927E+00 -0.3791441296399E+01  0.0000000000000E+00
 0.7152073404395E+00 -0.3719122305024E+01  0.0000000000000E+00
 0.7152221504822E+00 -0.3646803334230E+01  0.0000000000000E+00
 0.7152369605072E+00 -0.3574484449950E+01  0.0000000000000E+00
 0.7152517706629E+00 -0.3502164927202E+01  0.0000000000000E+00
 0.7152665805711E+00 -0.3429846612803E+01  0.0000000000000E+00
 0.7152813906050E+00 -0.3357527684966E+01  0.0000000000000E+00
 0.7152962006226E+00 -0.3285208836373E+01  0.0000000000000E+00
 0.7153110106214E+00 -0.3212890079891E+01  0.0000000000000E+00
 0.7153258206276E+00 -0.3140571286916E+01  0.0000000000000E+00
 0.7153406306405E+00 -0.3068252461598E+01  0.0000000000000E+00
 0.7153680269957E+00 -0.2995933574060E+01  0.0000000000000E+00
 0.7154890771739E+00 -0.2923614916380E+01  0.0000000000000E+00
 0.7158163478261E+00 -0.2851297825966E+01  0.0000000000000E+00
 0.7164524512764E+00 -0.2778985578070E+01  0.0000000000000E+00
 0.7174729188955E+00 -0.2706683855668E+01  0.0000000000000E+00
 0.7189261943769E+00 -0.2634399803283E+01  0.0000000000000E+00
 0.7208432529104E+00 -0.2562141752869E+01  0.0000000000000E+00
 0.7232487103733E+00 -0.2489918690001E+01  0.0000000000000E+00
 0.7261704141222E+00 -0.2417741330022E+01  0.0000000000000E+00
 0.7296466731201E+00 -0.2345623258656E+01  0.0000000000000E+00
 0.7336753323051E+00 -0.2273574289355E+01  0.0000000000000E+00
 0.7382002311820E+00 -0.2201596180048E+01  0.0000000000000E+00
 0.7431812787523E+00 -0.2129690608463E+01  0.0000000000000E+00
 0.7485951583465E+00 -0.2057860353502E+01  0.0000000000000E+00
 0.7544342609629E+00 -0.1986110317108E+01  0.0000000000000E+00
 0.7607102639342E+00 -0.1914449396087E+01  0.0000000000000E+00
 0.7674701275352E+00 -0.1842894799141E+01  0.0000000000000E+00
 0.7425160112565E+00 -0.4659344704234E+01  0.0000000000000E+00
 0.7425320224796E+00 -0.4587102433343E+01  0.0000000000000E+00
 0.7425480338010E+00 -0.4514859718823E+01  0.0000000000000E+00
 0.7425640450775E+00 -0.4442617206834E+01  0.0000000000000E+00
 0.7425800563509E+00 -0.4370374709212E+01  0.0000000000000E+00
 0.7425960676302E+00 -0.4298132184444E+01  0.0000000000000E+00
 0.7426120789002E+00 -0.4225889702373E+01  0.0000000000000E+00
 0.7426280901759E+00 -0.4153647193819E+01  0.0000000000000E+00
 0.7426441014505E+00 -0.4081404690570E+01  0.0000000000000E+00
 0.7426601127234E+00 -0.4009162195299E+01  0.0000000000000E+00
 0.7426761239995E+00 -0.3936919684906E+01  0.0000000000000E+00
 0.7426921352705E+00 -0.3864677198205E+01  0.0000000000000E+00
 0.7427081465484E+00 -0.3792434679975E+01  0.0000000000000E+00
 0.7427241578394E+00 -0.3720192102807E+01  0.0000000000000E+00
 0.7427401691258E+00 -0.3647949546199E+01  0.0000000000000E+00
 0.7427561803931E+00 -0.3575707076013E+01  0.0000000000000E+00
 0.7427721918017E+00 -0.3503463968034E+01  0.0000000000000E+00
 0.7427882029428E+00 -0.3431222067126E+01  0.0000000000000E+00
 0.7428042142197E+00 -0.3358979553430E+01  0.0000000000000E+00
 0.7428202254791E+00 -0.3286737118893E+01  0.0000000000000E+00
 0.7428362367181E+00 -0.3214494776370E+01  0.0000000000000E+00
 0.7428522479651E+00 -0.3142252397393E+01  0.0000000000000E+00
 0.7428682592193E+00 -0.3070009986107E+01  0.0000000000000E+00
 0.7428973421134E+00 -0.2997767512669E+01  0.0000000000000E+00
 0.7430236898812E+00 -0.2925525269043E+01  0.0000000000000E+00
 0.7433642094537E+00 -0.2853284592550E+01  0.0000000000000E+00
 0.7440254696239E+00 -0.2781048758547E+01  0.0000000000000E+00
 0.7450859140576E+00 -0.2708823449953E+01  0.0000000000000E+00
 0.7465958543135E+00 -0.2636615811377E+01  0.0000000000000E+00
 0.7485874599040E+00 -0.2564434174655E+01  0.0000000000000E+00
 0.7510862958333E+00 -0.2492287525545E+01  0.0000000000000E+00
 0.7541212831801E+00 -0.2420186579370E+01  0.0000000000000E+00
 0.7577322080008E+00 -0.2348144921627E+01  0.0000000000000E+00
 0.7619168321423E+00 -0.2276172366038E+01  0.0000000000000E+00
 0.7666168297047E+00 -0.2204270670529E+01  0.0000000000000E+00
 0.7717905638831E+00 -0.2132441512775E+01  0.0000000000000E+00
 0.7774138189777E+00 -0.2060687671731E+01  0.0000000000000E+00
 0.7834786926029E+00 -0.1989014049333E+01  0.0000000000000E+00
 0.7899973123374E+00 -0.1917429542126E+01  0.0000000000000E+00
 0.7970184491235E+00 -0.1845951358818E+01  0.0000000000000E+00
 0.7700169072712E+00 -0.4659423970956E+01  0.0000000000000E+00
 0.7700338145071E+00 -0.4587260966622E+01  0.0000000000000E+00
 0.7700507218468E+00 -0.4515097519146E+01  0.0000000000000E+00
 0.7700676291392E+00 -0.4442934273980E+01  0.0000000000000E+00
 0.7700845364282E+00 -0.4370771043164E+01  0.0000000000000E+00
 0.7701014437236E+00 -0.4298607785231E+01  0.0000000000000E+00
 0.7701183510089E+00 -0.4226444569949E+01  0.0000000000000E+00
 0.7701352583005E+00 -0.4154281328213E+01  0.0000000000000E+00
 0.7701521655908E+00 -0.4082118091776E+01  0.0000000000000E+00
 0.7701690728792E+00 -0.4009954863308E+01  0.0000000000000E+00
 0.7701859801712E+00 -0.3937791619736E+01  0.0000000000000E+00
 0.7702028874577E+00 -0.3865628399829E+01  0.0000000000000E+00
 0.7702197947515E+00 -0.3793465148427E+01  0.0000000000000E+00
 0.7702367020591E+00 -0.3721301838152E+01  0.0000000000000E+00
 0.7702536093619E+00 -0.3649138548415E+01  0.0000000000000E+00
 0.7702705166445E+00 -0.3576975345005E+01  0.0000000000000E+00
 0.7702874240763E+00 -0.3504811504502E+01  0.0000000000000E+00
 0.7703043312257E+00 -0.3432648869745E+01  0.0000000000000E+00
 0.7703212385184E+00 -0.3360485622873E+01  0.0000000000000E+00
 0.7703381457926E+00 -0.3288322455072E+01  0.0000000000000E+00
 0.7703550530453E+00 -0.3216159379186E+01  0.0000000000000E+00
 0.7703719603066E+00 -0.3143996266884E+01  0.0000000000000E+00
 0.7703888675754E+00 -0.3071833122309E+01  0.0000000000000E+00
 0.7704193317813E+00 -0.2999669915654E+01  0.0000000000000E+00
 0.7705506719117E+00 -0.2927506938761E+01  0.0000000000000E+00
 0.7709041351781E+00 -0.2855345528865E+01  0.0000000000000E+00
 0.7715902468416E+00 -0.2783188961430E+01  0.0000000000000E+00
 0.7726903628635E+00 -0.2711042919314E+01  0.0000000000000E+00
 0.7742566626671E+00 -0.2638914547219E+01  0.0000000000000E+00
 0.7763225100882E+00 -0.2566812176855E+01  0.0000000000000E+00
 0.7789144192568E+00 -0.2494744794173E+01  0.0000000000000E+00
 0.7820623849740E+00 -0.2422723114472E+01  0.0000000000000E+00
 0.7858076703905E+00 -0.2350760723017E+01  0.0000000000000E+00
 0.7901479542606E+00 -0.2278867433808E+01  0.0000000000000E+00
 0.7950227452801E+00 -0.2207045004767E+01  0.0000000000000E+00
 0.8003888608380E+00 -0.2135295113515E+01  0.0000000000000E+00
 0.8062211862034E+00 -0.2063620539063E+01  0.0000000000000E+00
 0.8125115256075E+00 -0.1992026183340E+01  0.0000000000000E+00
 0.8192724568757E+00 -0.1920520942619E+01  0.0000000000000E+00
 0.8265545616180E+00 -0.1849122025614E+01  0.0000000000000E+00
 0.7975174873666E+00 -0.4659506085499E+01  0.0000000000000E+00
 0.7975349746967E+00 -0.4587425195538E+01  0.0000000000000E+00
 0.7975524621343E+00 -0.4515343862938E+01  0.0000000000000E+00
 0.7975699495228E+00 -0.4443262732417E+01  0.0000000000000E+00
 0.7975874369078E+00 -0.4371181616231E+01  0.0000000000000E+00
 0.7976049242994E+00 -0.4299100472959E+01  0.0000000000000E+00
 0.7976224116807E+00 -0.4227019372289E+01  0.0000000000000E+00
 0.7976398990684E+00 -0.4154938245195E+01  0.0000000000000E+00
 0.7976573864548E+00 -0.4082857123395E+01  0.0000000000000E+00
 0.7976748738393E+00 -0.4010776009554E+01  0.0000000000000E+00
 0.7976923612274E+00 -0.3938694880626E+01  0.0000000000000E+00
 0.7977098486098E+00 -0.3866613775336E+01  0.0000000000000E+00
 0.7977273359998E+00 -0.3794532638587E+01  0.0000000000000E+00
 0.7977448234041E+00 -0.3722451443033E+01  0.0000000000000E+00
 0.7977623108034E+00 -0.3650370267993E+01  0.0000000000000E+00
 0.7977797981818E+00 -0.3578289179181E+01  0.0000000000000E+00
 0.7977972857146E+00 -0.3506207454001E+01  0.0000000000000E+00
 0.7978147729552E+00 -0.3434126933196E+01  0.0000000000000E+00
 0.7978322603441E+00 -0.3362045800972E+01  0.0000000000000E+00
 0.7978497477139E+00 -0.3289964747730E+01  0.0000000000000E+00
 0.7978672350614E+00 -0.3217883786296E+01  0.0000000000000E+00
 0.7978847224177E+00 -0.3145802788489E+01  0.0000000000000E+00
 0.7979022097818E+00 -0.3073721758446E+01  0.0000000000000E+00
 0.7979337393802E+00 -0.3001640666396E+01  0.0000000000000E+00
 0.7980697559540E+00 -0.2929559804059E+01  0.0000000000000E+00
 0.7984358469961E+00 -0.2857480508576E+01  0.0000000000000E+00
 0.7991464942352E+00 -0.2785406055523E+01  0.0000000000000E+00
 0.8002859659286E+00 -0.2713342127699E+01  0.0000000000000E+00
 0.8019083093641E+00 -0.2641295869896E+01  0.0000000000000E+00
 0.8040480827013E+00 -0.2569275613697E+01  0.0000000000000E+00
 0.8067327491951E+00 -0.2497290345253E+01  0.0000000000000E+00
 0.8099933773693E+00 -0.2425350779840E+01  0.0000000000000E+00
 0.8138727074699E+00 -0.2353470502477E+01  0.0000000000000E+00
 0.8183683351576E+00 -0.2281659327455E+01  0.0000000000000E+00
 0.8234176037235E+00 -0.2209919012694E+01  0.0000000000000E+00
 0.8289757847507E+00 -0.2138251235758E+01  0.0000000000000E+00
 0.8350168644774E+00 -0.2066658775715E+01  0.0000000000000E+00
 0.8415323537512E+00 -0.1995146534484E+01  0.0000000000000E+00
 0.8485352806454E+00 -0.1923723408063E+01  0.0000000000000E+00
 0.8560780374376E+00 -0.1852406605166E+01  0.0000000000000E+00
 0.8250177408470E+00 -0.4659591042836E+01  0.0000000000000E+00
 0.8250354816571E+00 -0.4587595110033E+01  0.0000000000000E+00
 0.8250532225761E+00 -0.4515598735114E+01  0.0000000000000E+00
 0.8250709634454E+00 -0.4443602562037E+01  0.0000000000000E+00
 0.8250887043112E+00 -0.4371606403276E+01  0.0000000000000E+00
 0.8251064451836E+00 -0.4299610217462E+01  0.0000000000000E+00
 0.8251241860456E+00 -0.4227614074200E+01  0.0000000000000E+00
 0.8251419269140E+00 -0.4155617904545E+01  0.0000000000000E+00
 0.8251596677812E+00 -0.4083621740177E+01  0.0000000000000E+00
 0.8251774086463E+00 -0.4011625583759E+01  0.0000000000000E+00
 0.8251951495152E+00 -0.3939629412272E+01  0.0000000000000E+00
 0.8252128903783E+00 -0.3867633264395E+01  0.0000000000000E+00
 0.8252306312491E+00 -0.3795637085097E+01  0.0000000000000E+00
 0.8252483721344E+00 -0.3723640847062E+01  0.0000000000000E+00
 0.8252661130147E+00 -0.3651644629517E+01  0.0000000000000E+00
 0.8252838538737E+00 -0.3579648498099E+01  0.0000000000000E+00
 0.8253015948893E+00 -0.3507651731063E+01  0.0000000000000E+00
 0.8253193356086E+00 -0.3435656166982E+01  0.0000000000000E+00
 0.8253370764783E+00 -0.3363659992202E+01  0.0000000000000E+00
 0.8253548173285E+00 -0.3291663896312E+01  0.0000000000000E+00
 0.8253725581562E+00 -0.3219667892122E+01  0.0000000000000E+00
 0.8253902989928E+00 -0.3147671851602E+01  0.0000000000000E+00
 0.8254080398374E+00 -0.3075675778883E+01  0.0000000000000E+00
 0.8254403082130E+00 -0.3003679644234E+01  0.0000000000000E+00
 0.8255806746155E+00 -0.2931683739246E+01  0.0000000000000E+00
 0.8259590668194E+00 -0.2859689400964E+01  0.0000000000000E+00
 0.8266939230211E+00 -0.2787699905082E+01  0.0000000000000E+00
 0.8278724237742E+00 -0.2715720934332E+01  0.0000000000000E+00
 0.8295504842306E+00 -0.2643759633606E+01  0.0000000000000E+00
 0.8317638568742E+00 -0.2571824334354E+01  0.0000000000000E+00
 0.8345409540844E+00 -0.2499924022930E+01  0.0000000000000E+00
 0.8379139181077E+00 -0.2428069414587E+01  0.0000000000000E+00
 0.8419269662863E+00 -0.2356274094095E+01  0.0000000000000E+00
 0.8465776111862E+00 -0.2284547876042E+01  0.0000000000000E+00
 0.8518010306940E+00 -0.2212892518345E+01  0.0000000000000E+00
 0.8575509505866E+00 -0.2141309698510E+01  0.0000000000000E+00
 0.8638004580713E+00 -0.2069802195663E+01  0.0000000000000E+00
 0.8705407706120E+00 -0.1998374911717E+01  0.0000000000000E+00
 0.8777853665310E+00 -0.1927036742379E+01  0.0000000000000E+00
 0.8855884487738E+00 -0.1855804896368E+01  0.0000000000000E+00
 0.8525176570821E+00 -0.4659678837778E+01  0.0000000000000E+00
 0.8525353141273E+00 -0.4587770699734E+01  0.0000000000000E+00
 0.8525529712811E+00 -0.4515862120114E+01  0.0000000000000E+00
 0.8525706283853E+00 -0.4443953742088E+01  0.0000000000000E+00
 0.8525882854860E+00 -0.4372045378363E+01  0.0000000000000E+00
 0.8526059425933E+00 -0.4300136987617E+01  0.0000000000000E+00
 0.8526235996902E+00 -0.4228228639370E+01  0.0000000000000E+00
 0.8526412567936E+00 -0.4156320264763E+01  0.0000000000000E+00
 0.8526589138956E+00 -0.4084411895437E+01  0.0000000000000E+00
 0.8526765709957E+00 -0.4012503534050E+01  0.0000000000000E+00
 0.8526942280996E+00 -0.3940595157614E+01  0.0000000000000E+00
 0.8527118851976E+00 -0.3868686804758E+01  0.0000000000000E+00
 0.8527295423033E+00 -0.3796778420520E+01  0.0000000000000E+00
 0.8527471994235E+00 -0.3724869977616E+01  0.0000000000000E+00
 0.8527648565386E+00 -0.3652961555178E+01  0.0000000000000E+00
 0.8527825136326E+00 -0.3581053218760E+01  0.0000000000000E+00
 0.8528001708824E+00 -0.3509144247501E+01  0.0000000000000E+00
 0.8528178278373E+00 -0.3437236477730E+01  0.0000000000000E+00
 0.8528354849419E+00 -0.3365328098005E+01  0.0000000000000E+00
 0.8528531420272E+00 -0.3293419797072E+01  0.0000000000000E+00
 0.8528707990900E+00 -0.3221511587729E+01  0.0000000000000E+00
 0.8528884561617E+00 -0.3149603342098E+01  0.0000000000000E+00
 0.8529061132413E+00 -0.3077695064310E+01  0.0000000000000E+00
 0.8529387831484E+00 -0.3005786724669E+01  0.0000000000000E+00
 0.8530831621344E+00 -0.2933878614636E+01  0.0000000000000E+00
 0.8534735182559E+00 -0.2861972071157E+01  0.0000000000000E+00
 0.8542322461771E+00 -0.2790070370046E+01  0.0000000000000E+00
 0.8554494387479E+00 -0.2718179193968E+01  0.0000000000000E+00
 0.8571828789842E+00 -0.2646305687916E+01  0.0000000000000E+00
 0.8594695136951E+00 -0.2574458183202E+01  0.0000000000000E+00
 0.8623387043834E+00 -0.2502645666394E+01  0.0000000000000E+00
 0.8658236670186E+00 -0.2430878852720E+01  0.0000000000000E+00
 0.8699700960402E+00 -0.2359171326688E+01  0.0000000000000E+00
 0.8747754209183E+00 -0.2287532903197E+01  0.0000000000000E+00
 0.8801726541347E+00 -0.2215965340160E+01  0.0000000000000E+00
 0.8861139756606E+00 -0.2144470315024E+01  0.0000000000000E+00
 0.8925715736717E+00 -0.2073050606976E+01  0.0000000000000E+00
 0.8995363722484E+00 -0.2001711117918E+01  0.0000000000000E+00
 0.9070222999633E+00 -0.1930460743261E+01  0.0000000000000E+00
 0.9150853704297E+00 -0.1859316691727E+01  0.0000000000000E+00
 0.8800172252787E+00 -0.4659769464950E+01  0.0000000000000E+00
 0.8800344505215E+00 -0.4587951953890E+01  0.0000000000000E+00
 0.8800516758700E+00 -0.4516134001809E+01  0.0000000000000E+00
 0.8800689011703E+00 -0.4444316251069E+01  0.0000000000000E+00
 0.8800861264672E+00 -0.4372498514612E+01  0.0000000000000E+00
 0.8801033517705E+00 -0.4300680751167E+01  0.0000000000000E+00
 0.8801205770637E+00 -0.4228863030169E+01  0.0000000000000E+00
 0.8801378023631E+00 -0.4157045282843E+01  0.0000000000000E+00
 0.8801550276613E+00 -0.4085227540792E+01  0.0000000000000E+00
 0.8801722529576E+00 -0.4013409806670E+01  0.0000000000000E+00
 0.8801894782575E+00 -0.3941592057517E+01  0.0000000000000E+00
 0.8802067035518E+00 -0.3869774331916E+01  0.0000000000000E+00
 0.8802239288535E+00 -0.3797956574971E+01  0.0000000000000E+00
 0.8802411541693E+00 -0.3726138759435E+01  0.0000000000000E+00
 0.8802583794803E+00 -0.3654320964338E+01  0.0000000000000E+00
 0.8802756047706E+00 -0.3582503255154E+01  0.0000000000000E+00
 0.8802928302130E+00 -0.3510684911929E+01  0.0000000000000E+00
 0.8803100553675E+00 -0.3438867768677E+01  0.0000000000000E+00
 0.8803272806682E+00 -0.3367050016239E+01  0.0000000000000E+00
 0.8803445059500E+00 -0.3295232342495E+01  0.0000000000000E+00
 0.8803617312099E+00 -0.3223414760225E+01  0.0000000000000E+00
 0.8803789564785E+00 -0.3151597141714E+01  0.0000000000000E+00
 0.8803961817547E+00 -0.3079779491084E+01  0.0000000000000E+00
 0.8804289051548E+00 -0.3007961778684E+01  0.0000000000000E+00
 0.8805769486853E+00 -0.2936144295837E+01  0.0000000000000E+00
 0.8809789206855E+00 -0.2864328379386E+01  0.0000000000000E+00
 0.8817611722860E+00 -0.2792517305270E+01  0.0000000000000E+00
 0.8830167086335E+00 -0.2720716756086E+01  0.0000000000000E+00
 0.8848051806072E+00 -0.2648933876929E+01  0.0000000000000E+00
 0.8871647293415E+00 -0.2577176998972E+01  0.0000000000000E+00
 0.8901256654619E+00 -0.2505455108999E+01  0.0000000000000E+00
 0.8937222786608E+00 -0.2433778922213E+01  0.0000000000000E+00
 0.8980017404761E+00 -0.2362162022856E+01  0.0000000000000E+00
 0.9029613972806E+00 -0.2290614226146E+01  0.0000000000000E+00
 0.9085320961515E+00 -0.2219137289990E+01  0.0000000000000E+00
 0.9146644712548E+00 -0.2147732891775E+01  0.0000000000000E+00
 0.9213298117345E+00 -0.2076403810750E+01  0.0000000000000E+00
 0.9285187482873E+00 -0.2005154948809E+01  0.0000000000000E+00
 0.9362456597375E+00 -0.1933995201054E+01  0.0000000000000E+00
 0.9445683703660E+00 -0.1862941776213E+01  0.0000000000000E+00
 0.9075164349346E+00 -0.4659862918846E+01  0.0000000000000E+00
 0.9075328698350E+00 -0.4588138861488E+01  0.0000000000000E+00
 0.9075493048363E+00 -0.4516414363684E+01  0.0000000000000E+00
 0.9075657397915E+00 -0.4444690066958E+01  0.0000000000000E+00
 0.9075821747434E+00 -0.4372965784495E+01  0.0000000000000E+00
 0.9075986097015E+00 -0.4301241475081E+01  0.0000000000000E+00
 0.9076150446499E+00 -0.4229517208058E+01  0.0000000000000E+00
 0.9076314796044E+00 -0.4157792914741E+01  0.0000000000000E+00
 0.9076479145576E+00 -0.4086068626692E+01  0.0000000000000E+00
 0.9076643495090E+00 -0.4014344346563E+01  0.0000000000000E+00
 0.9076807844639E+00 -0.3942620051422E+01  0.0000000000000E+00
 0.9076972194133E+00 -0.3870895779802E+01  0.0000000000000E+00
 0.9077136543699E+00 -0.3799171476878E+01  0.0000000000000E+00
 0.9077300893400E+00 -0.3727447115440E+01  0.0000000000000E+00
 0.9077465243053E+00 -0.3655722774415E+01  0.0000000000000E+00
 0.9077629592511E+00 -0.3583998519191E+01  0.0000000000000E+00
 0.9077793943419E+00 -0.3512273630750E+01  0.0000000000000E+00
 0.9077958291580E+00 -0.3440549940721E+01  0.0000000000000E+00
 0.9078122641136E+00 -0.3368825642300E+01  0.0000000000000E+00
 0.9078286990512E+00 -0.3297101422470E+01  0.0000000000000E+00
 0.9078451339679E+00 -0.3225377293994E+01  0.0000000000000E+00
 0.9078615688929E+00 -0.3153653129324E+01  0.0000000000000E+00
 0.9078780038252E+00 -0.3081928932578E+01  0.0000000000000E+00
 0.9079104221770E+00 -0.3010204674146E+01  0.0000000000000E+00
 0.9080617717110E+00 -0.2938480645209E+01  0.0000000000000E+00
 0.9084750010487E+00 -0.2866758182507E+01  0.0000000000000E+00
 0.9092804177864E+00 -0.2795040562104E+01  0.0000000000000E+00
 0.9105739393675E+00 -0.2723333466530E+01  0.0000000000000E+00
 0.9124170845339E+00 -0.2651644040984E+01  0.0000000000000E+00
 0.9148491887460E+00 -0.2579980616494E+01  0.0000000000000E+00
 0.9179015117509E+00 -0.2508352180070E+01  0.0000000000000E+00
 0.9216094169639E+00 -0.2436769446890E+01  0.0000000000000E+00
 0.9260215530222E+00 -0.2365246000917E+01  0.0000000000000E+00
 0.9311351832001E+00 -0.2293791657698E+01  0.0000000000000E+00
 0.9368789891704E+00 -0.2222408175140E+01  0.0000000000000E+00
 0.9432020592942E+00 -0.2151097230562E+01  0.0000000000000E+00
 0.9500747836836E+00 -0.2079861603281E+01  0.0000000000000E+00
 0.9574874996521E+00 -0.2008706195179E+01  0.0000000000000E+00
 0.9654550362763E+00 -0.1937639901043E+01  0.0000000000000E+00
 0.9740370285046E+00 -0.1866679929603E+01  0.0000000000000E+00
 0.9350152758224E+00 -0.4659959193836E+01  0.0000000000000E+00
 0.9350305516130E+00 -0.4588331411267E+01  0.0000000000000E+00
 0.9350458274974E+00 -0.4516703188842E+01  0.0000000000000E+00
 0.9350611033390E+00 -0.4445075167227E+01  0.0000000000000E+00
 0.9350763791775E+00 -0.4373447159855E+01  0.0000000000000E+00
 0.9350916550218E+00 -0.4301819125568E+01  0.0000000000000E+00
 0.9351069308570E+00 -0.4230191133616E+01  0.0000000000000E+00
 0.9351222066979E+00 -0.4158563115405E+01  0.0000000000000E+00
 0.9351374825376E+00 -0.4086935102455E+01  0.0000000000000E+00
 0.9351527583756E+00 -0.4015307097413E+01  0.0000000000000E+00
 0.9351680342168E+00 -0.3943679077380E+01  0.0000000000000E+00
 0.9351833100531E+00 -0.3872051080837E+01  0.0000000000000E+00
 0.9351985858960E+00 -0.3800423053032E+01  0.0000000000000E+00
 0.9352138617513E+00 -0.3728794966791E+01  0.0000000000000E+00
 0.9352291376023E+00 -0.3657166900936E+01  0.0000000000000E+00
 0.9352444134350E+00 -0.3585538920767E+01  0.0000000000000E+00
 0.9352596894026E+00 -0.3513910308230E+01  0.0000000000000E+00
 0.9352749651150E+00 -0.3442282892497E+01  0.0000000000000E+00
 0.9352902409569E+00 -0.3370654869188E+01  0.0000000000000E+00
 0.9353055167821E+00 -0.3299026924365E+01  0.0000000000000E+00
 0.9353207925879E+00 -0.3227399070774E+01  0.0000000000000E+00
 0.9353360684013E+00 -0.3155771181037E+01  0.0000000000000E+00
 0.9353513442216E+00 -0.3084143259268E+01  0.0000000000000E+00
 0.9353830887569E+00 -0.3012515275898E+01  0.0000000000000E+00
 0.9355373755264E+00 -0.2940887521964E+01  0.0000000000000E+00
 0.9359614934350E+00 -0.2869261334099E+01  0.0000000000000E+00
 0.9367897065442E+00 -0.2797639988499E+01  0.0000000000000E+00
 0.9381208445946E+00 -0.2726029167618E+01  0.0000000000000E+00
 0.9400182941908E+00 -0.2654436016767E+01  0.0000000000000E+00
 0.9425225851194E+00 -0.2582868866825E+01  0.0000000000000E+00
 0.9456659262486E+00 -0.2511336705033E+01  0.0000000000000E+00
 0.9494847547168E+00 -0.2439850246541E+01  0.0000000000000E+00
 0.9540291962613E+00 -0.2368423075029E+01  0.0000000000000E+00
 0.9592964310570E+00 -0.2297065006384E+01  0.0000000000000E+00
 0.9652129753722E+00 -0.2225777798506E+01  0.0000000000000E+00
 0.9717263717630E+00 -0.2154563128652E+01  0.0000000000000E+00
 0.9788061113094E+00 -0.2083423776202E+01  0.0000000000000E+00
 0.9864422379415E+00 -0.2012364643031E+01  0.0000000000000E+00
 0.9946500309898E+00 -0.1941394623598E+01  0.0000000000000E+00
 0.1003490936070E+01 -0.1870530926638E+01  0.0000000000000E+00
 0.9625137375899E+00 -0.4660058284109E+01  0.0000000000000E+00
 0.9625274751513E+00 -0.4588529591607E+01  0.0000000000000E+00
 0.9625412127970E+00 -0.4517000459858E+01  0.0000000000000E+00
 0.9625549504041E+00 -0.4445471528639E+01  0.0000000000000E+00
 0.9625686880086E+00 -0.4373942611646E+01  0.0000000000000E+00
 0.9625824256182E+00 -0.4302413667774E+01  0.0000000000000E+00
 0.9625961632197E+00 -0.4230884766178E+01  0.0000000000000E+00
 0.9626099008262E+00 -0.4159355838359E+01  0.0000000000000E+00
 0.9626236384317E+00 -0.4087826915795E+01  0.0000000000000E+00
 0.9626373760357E+00 -0.4016298001128E+01  0.0000000000000E+00
 0.9626511136426E+00 -0.3944769071490E+01  0.0000000000000E+00
 0.9626648512449E+00 -0.3873240165310E+01  0.0000000000000E+00
 0.9626785888533E+00 -0.3801711227911E+01  0.0000000000000E+00
 0.9626923264728E+00 -0.3730182232157E+01  0.0000000000000E+00
 0.9627060640885E+00 -0.3658653256760E+01  0.0000000000000E+00
 0.9627198016877E+00 -0.3587124366931E+01  0.0000000000000E+00
 0.9627335394082E+00 -0.3515594845610E+01  0.0000000000000E+00
 0.9627472768992E+00 -0.3444066519436E+01  0.0000000000000E+00
 0.9627610145067E+00 -0.3372537586527E+01  0.0000000000000E+00
 0.9627747520991E+00 -0.3301008731995E+01  0.0000000000000E+00
 0.9627884896741E+00 -0.3229479968569E+01  0.0000000000000E+00
 0.9628022272560E+00 -0.3157951169047E+01  0.0000000000000E+00
 0.9628159648440E+00 -0.3086422337537E+01  0.0000000000000E+00
 0.9628466564423E+00 -0.3014893444515E+01  0.0000000000000E+00
 0.9630035013274E+00 -0.2943364780869E+01  0.0000000000000E+00
 0.9634381286881E+00 -0.2871837683121E+01  0.0000000000000E+00
 0.9642887590514E+00 -0.2800315427600E+01  0.0000000000000E+00
 0.9656571344553E+00 -0.2728803696687E+01  0.0000000000000E+00
 0.9676085093668E+00 -0.2657309635808E+01  0.0000000000000E+00
 0.9701846078996E+00 -0.2585841575683E+01  0.0000000000000E+00
 0.9734185880421E+00 -0.2514408503796E+01  0.0000000000000E+00
 0.9773479606558E+00 -0.2443021135268E+01  0.0000000000000E+00
 0.9820243285798E+00 -0.2371693053486E+01  0.0000000000000E+00
 0.9874447888878E+00 -0.2300434074685E+01  0.0000000000000E+00
 0.9935336924435E+00 -0.2229245956763E+01  0.0000000000000E+00
 0.1000237035998E+01 -0.2158130376907E+01  0.0000000000000E+00
 0.1007523411600E+01 -0.2087090114568E+01  0.0000000000000E+00
 0.1015382569795E+01 -0.2016130071610E+01  0.0000000000000E+00
 0.1023830240168E+01 -0.1945259142154E+01  0.0000000000000E+00
 0.1032929679005E+01 -0.1874494534943E+01  0.0000000000000E+00
 0.9900118099595E+00 -0.4660160183706E+01  0.0000000000000E+00
 0.9900236198944E+00 -0.4588733390588E+01  0.0000000000000E+00
 0.9900354299019E+00 -0.4517306158849E+01  0.0000000000000E+00
 0.9900472398762E+00 -0.4445879127356E+01  0.0000000000000E+00
 0.9900590498481E+00 -0.4374452110066E+01  0.0000000000000E+00
 0.9900708598246E+00 -0.4303025065937E+01  0.0000000000000E+00
 0.9900826697940E+00 -0.4231598064023E+01  0.0000000000000E+00
 0.9900944797677E+00 -0.4160171035925E+01  0.0000000000000E+00
 0.9901062897406E+00 -0.4088744013072E+01  0.0000000000000E+00
 0.9901180997122E+00 -0.4017316998107E+01  0.0000000000000E+00
 0.9901299096863E+00 -0.3945889968191E+01  0.0000000000000E+00
 0.9901417196565E+00 -0.3874462961699E+01  0.0000000000000E+00
 0.9901535296318E+00 -0.3803035924034E+01  0.0000000000000E+00
 0.9901653396168E+00 -0.3731608828097E+01  0.0000000000000E+00
 0.9901771495984E+00 -0.3660181752487E+01  0.0000000000000E+00
 0.9901889595659E+00 -0.3588754762324E+01  0.0000000000000E+00
 0.9902007696377E+00 -0.3517327141568E+01  0.0000000000000E+00
 0.9902125795121E+00 -0.3445900714257E+01  0.0000000000000E+00
 0.9902243894867E+00 -0.3374473681074E+01  0.0000000000000E+00
 0.9902361994483E+00 -0.3303046726158E+01  0.0000000000000E+00
 0.9902480093950E+00 -0.3231619862217E+01  0.0000000000000E+00
 0.9902598193475E+00 -0.3160192962233E+01  0.0000000000000E+00
 0.9902716293054E+00 -0.3088766030305E+01  0.0000000000000E+00
 0.9903008785684E+00 -0.3017339036957E+01  0.0000000000000E+00
 0.9904598921716E+00 -0.2945912272923E+01  0.0000000000000E+00
 0.9909046395882E+00 -0.2874487074610E+01  0.0000000000000E+00
 0.9917772978107E+00 -0.2803066718486E+01  0.0000000000000E+00
 0.9931825211753E+00 -0.2731656886858E+01  0.0000000000000E+00
 0.9951874320109E+00 -0.2660264725264E+01  0.0000000000000E+00
 0.9978349487592E+00 -0.2588898564268E+01  0.0000000000000E+00
 0.1001159178528E+01 -0.2517567391599E+01  0.0000000000000E+00
 0.1005198705901E+01 -0.2446281922349E+01  0.0000000000000E+00
 0.1010006610822E+01 -0.2375055739605E+01  0.0000000000000E+00
 0.1015579907262E+01 -0.2303898659960E+01  0.0000000000000E+00
 0.1021840780679E+01 -0.2232812441308E+01  0.0000000000000E+00
 0.1028733682020E+01 -0.2161798760767E+01  0.0000000000000E+00
 0.1036226304300E+01 -0.2090860397857E+01  0.0000000000000E+00
 0.1044308104682E+01 -0.2020002254434E+01  0.0000000000000E+00
 0.1052995263009E+01 -0.1949233224272E+01  0.0000000000000E+00
 0.1062352846232E+01 -0.1878570516118E+01  0.0000000000000E+00
 0.1017509482155E+01 -0.4660264886430E+01  0.0000000000000E+00
 0.1017518964290E+01 -0.4588942795818E+01  0.0000000000000E+00
 0.1017528446483E+01 -0.4517620267227E+01  0.0000000000000E+00
 0.1017537928650E+01 -0.4446297938589E+01  0.0000000000000E+00
 0.1017547410815E+01 -0.4374975624134E+01  0.0000000000000E+00
 0.1017556892983E+01 -0.4303653282878E+01  0.0000000000000E+00
 0.1017566375146E+01 -0.4232330983776E+01  0.0000000000000E+00
 0.1017575857312E+01 -0.4161008658528E+01  0.0000000000000E+00
 0.1017585339477E+01 -0.4089686338518E+01  0.0000000000000E+00
 0.1017594821642E+01 -0.4018364026383E+01  0.0000000000000E+00
 0.1017604303808E+01 -0.3947041699321E+01  0.0000000000000E+00
 0.1017613785972E+01 -0.3875719395647E+01  0.0000000000000E+00
 0.1017623268139E+01 -0.3804397060846E+01  0.0000000000000E+00
 0.1017632750314E+01 -0.3733074667859E+01  0.0000000000000E+00
 0.1017642232487E+01 -0.3661752295169E+01  0.0000000000000E+00
 0.1017651714648E+01 -0.3590430007800E+01  0.0000000000000E+00
 0.1017661196893E+01 -0.3519107090763E+01  0.0000000000000E+00
 0.1017670678979E+01 -0.3447785365421E+01  0.0000000000000E+00
 0.1017680161146E+01 -0.3376463035097E+01  0.0000000000000E+00
 0.1017689643303E+01 -0.3305140782923E+01  0.0000000000000E+00
 0.1017699125447E+01 -0.3233818621592E+01  0.0000000000000E+00
 0.1017708607596E+01 -0.3162496424270E+01  0.0000000000000E+00
 0.1017718089750E+01 -0.3091174195051E+01  0.0000000000000E+00
 0.1017745496503E+01 -0.3019851904506E+01  0.0000000000000E+00
 0.1017906278648E+01 -0.2948529843212E+01  0.0000000000000E+00
 0.1018360745944E+01 -0.2877209347457E+01  0.0000000000000E+00
 0.1019255031844E+01 -0.2805893693852E+01  0.0000000000000E+00
 0.1020696702984E+01 -0.2734588564626E+01  0.0000000000000E+00
 0.1022754749553E+01 -0.2663301105436E+01  0.0000000000000E+00
 0.1025473284322E+01 -0.2592039646683E+01  0.0000000000000E+00
 0.1028887363514E+01 -0.2520813176348E+01  0.0000000000000E+00
 0.1033036645440E+01 -0.2449632409496E+01  0.0000000000000E+00
 0.1037975687144E+01 -0.2378510928901E+01  0.0000000000000E+00
 0.1043701419494E+01 -0.2307458551527E+01  0.0000000000000E+00
 0.1050133862544E+01 -0.2236477035263E+01  0.0000000000000E+00
 0.1057215921438E+01 -0.2165568057156E+01  0.0000000000000E+00
 0.1064914390158E+01 -0.2094734396797E+01  0.0000000000000E+00
 0.1073218432483E+01 -0.2023980956034E+01  0.0000000000000E+00
 0.1082144678514E+01 -0.1953316628284E+01  0.0000000000000E+00
 0.1091760005868E+01 -0.1882758622300E+01  0.0000000000000E+00
 0.1045006744575E+01 -0.4660372386100E+01  0.0000000000000E+00
 0.1045013489135E+01 -0.4589157794934E+01  0.0000000000000E+00
 0.1045020233737E+01 -0.4517942766450E+01  0.0000000000000E+00
 0.1045026978321E+01 -0.4446727937617E+01  0.0000000000000E+00
 0.1045033722903E+01 -0.4375513122945E+01  0.0000000000000E+00
 0.1045040467487E+01 -0.4304298281514E+01  0.0000000000000E+00
 0.1045047212067E+01 -0.4233083482172E+01  0.0000000000000E+00
 0.1045053956650E+01 -0.4161868656724E+01  0.0000000000000E+00
 0.1045060701232E+01 -0.4090653836506E+01  0.0000000000000E+00
 0.1045067445814E+01 -0.4019439024151E+01  0.0000000000000E+00
 0.1045074190397E+01 -0.3948224196891E+01  0.0000000000000E+00
 0.1045080934978E+01 -0.3877009392985E+01  0.0000000000000E+00
 0.1045087679562E+01 -0.3805794557998E+01  0.0000000000000E+00
 0.1045094424151E+01 -0.3734579664913E+01  0.0000000000000E+00
 0.1045101168738E+01 -0.3663364792095E+01  0.0000000000000E+00
 0.1045107913318E+01 -0.3592150004468E+01  0.0000000000000E+00
 0.1045114657956E+01 -0.3520934588123E+01  0.0000000000000E+00
 0.1045121402483E+01 -0.3449720361677E+01  0.0000000000000E+00
 0.1045128147066E+01 -0.3378505531160E+01  0.0000000000000E+00
 0.1045134891642E+01 -0.3307290778676E+01  0.0000000000000E+00
 0.1045141636209E+01 -0.3236076116898E+01  0.0000000000000E+00
 0.1045148380780E+01 -0.3164861419183E+01  0.0000000000000E+00
 0.1045155125354E+01 -0.3093646689619E+01  0.0000000000000E+00
 0.1045180279821E+01 -0.3022431898826E+01  0.0000000000000E+00
 0.1045342420734E+01 -0.2951217337218E+01  0.0000000000000E+00
 0.1045806198134E+01 -0.2880004340962E+01  0.0000000000000E+00
 0.1046721701941E+01 -0.2808796186818E+01  0.0000000000000E+00
 0.1048199411086E+01 -0.2737598556931E+01  0.0000000000000E+00
 0.1050310183620E+01 -0.2666418597083E+01  0.0000000000000E+00
 0.1053099326642E+01 -0.2595264637507E+01  0.0000000000000E+00
 0.1056602845493E+01 -0.2524145666443E+01  0.0000000000000E+00
 0.1060861472207E+01 -0.2453072398925E+01  0.0000000000000E+00
 0.1065931240934E+01 -0.2382058417411E+01  0.0000000000000E+00
 0.1071808999436E+01 -0.2311113539242E+01  0.0000000000000E+00
 0.1078412602362E+01 -0.2240239522303E+01  0.0000000000000E+00
 0.1085683409054E+01 -0.2169438043568E+01  0.0000000000000E+00
 0.1093587314458E+01 -0.2098711882704E+01  0.0000000000000E+00
 0.1102113188972E+01 -0.2028065941545E+01  0.0000000000000E+00
 0.1111278112956E+01 -0.1957509113146E+01  0.0000000000000E+00
 0.1121150774694E+01 -0.1887058606262E+01  0.0000000000000E+00
 0.1072503587178E+01 -0.4660482676316E+01  0.0000000000000E+00
 0.1072507174348E+01 -0.4589378375137E+01  0.0000000000000E+00
 0.1072510761541E+01 -0.4518273637316E+01  0.0000000000000E+00
 0.1072514348723E+01 -0.4447169098837E+01  0.0000000000000E+00
 0.1072517935905E+01 -0.4376064574498E+01  0.0000000000000E+00
 0.1072521523088E+01 -0.4304960023440E+01  0.0000000000000E+00
 0.1072525110269E+01 -0.4233855514407E+01  0.0000000000000E+00
 0.1072528697451E+01 -0.4162750979308E+01  0.0000000000000E+00
 0.1072532284633E+01 -0.4091646449431E+01  0.0000000000000E+00
 0.1072535871815E+01 -0.4020541927405E+01  0.0000000000000E+00
 0.1072539458997E+01 -0.3949437390497E+01  0.0000000000000E+00
 0.1072543046178E+01 -0.3878332876907E+01  0.0000000000000E+00
 0.1072546633361E+01 -0.3807228332284E+01  0.0000000000000E+00
 0.1072550220546E+01 -0.3736123729652E+01  0.0000000000000E+00
 0.1072553807731E+01 -0.3665019147257E+01  0.0000000000000E+00
 0.1072557394911E+01 -0.3593914649921E+01  0.0000000000000E+00
 0.1072560982123E+01 -0.3522809524840E+01  0.0000000000000E+00
 0.1072564569275E+01 -0.3451705587815E+01  0.0000000000000E+00
 0.1072568156458E+01 -0.3380601047655E+01  0.0000000000000E+00
 0.1072571743636E+01 -0.3309496585407E+01  0.0000000000000E+00
 0.1072575330810E+01 -0.3238392213725E+01  0.0000000000000E+00
 0.1072578917986E+01 -0.3167287806161E+01  0.0000000000000E+00
 0.1072582505164E+01 -0.3096183366798E+01  0.0000000000000E+00
 0.1072604987528E+01 -0.3025078866304E+01  0.0000000000000E+00
 0.1072768067392E+01 -0.2953974594929E+01  0.0000000000000E+00
 0.1073240735083E+01 -0.2882871888714E+01  0.0000000000000E+00
 0.1074177036982E+01 -0.2811774024571E+01  0.0000000000000E+00
 0.1075690364322E+01 -0.2740686684561E+01  0.0000000000000E+00
 0.1077853443011E+01 -0.2669617014592E+01  0.0000000000000E+00
 0.1080712774480E+01 -0.2598573344725E+01  0.0000000000000E+00
 0.1084305313187E+01 -0.2527564663467E+01  0.0000000000000E+00
 0.1088672864887E+01 -0.2456601685821E+01  0.0000000000000E+00
 0.1093872940837E+01 -0.2385697993918E+01  0.0000000000000E+00
 0.1099902305694E+01 -0.2314863405488E+01  0.0000000000000E+00
 0.1106676648702E+01 -0.2244099678411E+01  0.0000000000000E+00
 0.1114135783397E+01 -0.2173408489587E+01  0.0000000000000E+00
 0.1122244705695E+01 -0.2102792618758E+01  0.0000000000000E+00
 0.1130991992608E+01 -0.2032256967748E+01  0.0000000000000E+00
 0.1140395174757E+01 -0.1961810429236E+01  0.0000000000000E+00
 0.1150524751096E+01 -0.1891470211985E+01  0.0000000000000E+00
-0.5660382933727E+00 -0.1689691761343E+01  0.0000000000000E+00
-0.5663123720575E+00 -0.1626506538788E+01  0.0000000000000E+00
-0.5667790339879E+00 -0.1563322491581E+01  0.0000000000000E+00
-0.5674663936241E+00 -0.1500140613648E+01  0.0000000000000E+00
-0.5684046240156E+00 -0.1436962158218E+01  0.0000000000000E+00
-0.5696222518212E+00 -0.1373788927613E+01  0.0000000000000E+00
-0.5711380830886E+00 -0.1310622648082E+01  0.0000000000000E+00
-0.5729469100487E+00 -0.1247464856343E+01  0.0000000000000E+00
-0.5750009089678E+00 -0.1184315217396E+01  0.0000000000000E+00
-0.5771979571333E+00 -0.1121170853713E+01  0.0000000000000E+00
-0.5793950052231E+00 -0.1058026490028E+01  0.0000000000000E+00
-0.5814490039253E+00 -0.9948768510738E+00  0.0000000000000E+00
-0.5832578305519E+00 -0.9317190593259E+00  0.0000000000000E+00
-0.5847736613987E+00 -0.8685527797851E+00  0.0000000000000E+00
-0.5859912887235E+00 -0.8053795491707E+00  0.0000000000000E+00
-0.5869295185944E+00 -0.7422010937332E+00  0.0000000000000E+00
-0.5876168776851E+00 -0.6790192157949E+00  0.0000000000000E+00
-0.5880835390555E+00 -0.6158351685841E+00  0.0000000000000E+00
-0.5883576171726E+00 -0.5526499460259E+00  0.0000000000000E+00
-0.5363253834601E+00 -0.1687245125446E+01  0.0000000000000E+00
-0.5366119768712E+00 -0.1623791708043E+01  0.0000000000000E+00
-0.5370810175640E+00 -0.1560339466072E+01  0.0000000000000E+00
-0.5377591402814E+00 -0.1496889393551E+01  0.0000000000000E+00
-0.5386749300523E+00 -0.1433442743371E+01  0.0000000000000E+00
-0.5398554120886E+00 -0.1370001318292E+01  0.0000000000000E+00
-0.5413184027050E+00 -0.1306566843974E+01  0.0000000000000E+00
-0.5430589681685E+00 -0.1243140857698E+01  0.0000000000000E+00
-0.5450318018343E+00 -0.1179723023941E+01  0.0000000000000E+00
-0.5471401558424E+00 -0.1116310465411E+01  0.0000000000000E+00
-0.5492485097748E+00 -0.1052897906879E+01  0.0000000000000E+00
-0.5512213432236E+00 -0.9894800731148E+00  0.0000000000000E+00
-0.5529619083535E+00 -0.9260540868295E+00  0.0000000000000E+00
-0.5544248985495E+00 -0.8626196125025E+00  0.0000000000000E+00
-0.5556053801049E+00 -0.7991781874149E+00  0.0000000000000E+00
-0.5565211693552E+00 -0.7357315372274E+00  0.0000000000000E+00
-0.5571992915272E+00 -0.6722814647015E+00  0.0000000000000E+00
-0.5576683316600E+00 -0.6088292227269E+00  0.0000000000000E+00
-0.5579549245034E+00 -0.5453758053214E+00  0.0000000000000E+00
-0.5065999670663E+00 -0.1684928561672E+01  0.0000000000000E+00
-0.5068949115904E+00 -0.1621220039384E+01  0.0000000000000E+00
-0.5073621674199E+00 -0.1557512692609E+01  0.0000000000000E+00
-0.5080268895799E+00 -0.1493807515451E+01  0.0000000000000E+00
-0.5089160750712E+00 -0.1430105760479E+01  0.0000000000000E+00
-0.5100552476636E+00 -0.1366409230871E+01  0.0000000000000E+00
-0.5114612339286E+00 -0.1302719651727E+01  0.0000000000000E+00
-0.5131293741780E+00 -0.1239038560861E+01  0.0000000000000E+00
-0.5150168788513E+00 -0.1175365622255E+01  0.0000000000000E+00
-0.5170323749522E+00 -0.1111697958841E+01  0.0000000000000E+00
-0.5190478709775E+00 -0.1048030295425E+01  0.0000000000000E+00
-0.5209353754338E+00 -0.9843573568131E+00  0.0000000000000E+00
-0.5226035153497E+00 -0.9206762659386E+00  0.0000000000000E+00
-0.5240095011942E+00 -0.8569866867857E+00  0.0000000000000E+00
-0.5251486733057E+00 -0.7932901571698E+00  0.0000000000000E+00
-0.5260378582764E+00 -0.7295884021909E+00  0.0000000000000E+00
-0.5267025798910E+00 -0.6658832250280E+00  0.0000000000000E+00
-0.5271698351604E+00 -0.6021758782489E+00  0.0000000000000E+00
-0.5274647791169E+00 -0.5384673559593E+00  0.0000000000000E+00
-0.4768626705487E+00 -0.1682742416099E+01  0.0000000000000E+00
-0.4771619844321E+00 -0.1618792097827E+01  0.0000000000000E+00
-0.4776234736490E+00 -0.1554842955143E+01  0.0000000000000E+00
-0.4782708135087E+00 -0.1490895982235E+01  0.0000000000000E+00
-0.4791294129793E+00 -0.1426952431367E+01  0.0000000000000E+00
-0.4802232943955E+00 -0.1363014106112E+01  0.0000000000000E+00
-0.4815682945772E+00 -0.1299082731039E+01  0.0000000000000E+00
-0.4831600278892E+00 -0.1235159844468E+01  0.0000000000000E+00
-0.4849582218467E+00 -0.1171245109912E+01  0.0000000000000E+00
-0.4868768783191E+00 -0.1107335650514E+01  0.0000000000000E+00
-0.4887955347158E+00 -0.1043426191114E+01  0.0000000000000E+00
-0.4905937284563E+00 -0.9795114565527E+00  0.0000000000000E+00
-0.4921854614348E+00 -0.9155885699739E+00  0.0000000000000E+00
-0.4935304611959E+00 -0.8516571948924E+00  0.0000000000000E+00
-0.4946243421312E+00 -0.7877188696299E+00  0.0000000000000E+00
-0.4954829410813E+00 -0.7237753187550E+00  0.0000000000000E+00
-0.4961302803955E+00 -0.6598283458425E+00  0.0000000000000E+00
-0.4965917690524E+00 -0.5958792031548E+00  0.0000000000000E+00
-0.4968910823681E+00 -0.5319288848814E+00  0.0000000000000E+00
-0.4471141738714E+00 -0.1680687021658E+01  0.0000000000000E+00
-0.4474140589931E+00 -0.1616508426019E+01  0.0000000000000E+00
-0.4478659834921E+00 -0.1552331006037E+01  0.0000000000000E+00
-0.4484921429651E+00 -0.1488155755982E+01  0.0000000000000E+00
-0.4493163583450E+00 -0.1423983927828E+01  0.0000000000000E+00
-0.4503611505400E+00 -0.1359817325524E+01  0.0000000000000E+00
-0.4516413666112E+00 -0.1295657673134E+01  0.0000000000000E+00
-0.4531528949840E+00 -0.1231506509458E+01  0.0000000000000E+00
-0.4548579802386E+00 -0.1167363497567E+01  0.0000000000000E+00
-0.4566759991053E+00 -0.1103225760801E+01  0.0000000000000E+00
-0.4584940178964E+00 -0.1039088024033E+01  0.0000000000000E+00
-0.4601991029340E+00 -0.9749450121357E+00  0.0000000000000E+00
-0.4617106309733E+00 -0.9107938484529E+00  0.0000000000000E+00
-0.4629908466239E+00 -0.8466341960555E+00  0.0000000000000E+00
-0.4640356383381E+00 -0.7824675937435E+00  0.0000000000000E+00
-0.4648598531975E+00 -0.7182957655835E+00  0.0000000000000E+00
-0.4654860121251E+00 -0.6541205155242E+00  0.0000000000000E+00
-0.4659379360640E+00 -0.5899430955397E+00  0.0000000000000E+00
-0.4662378206180E+00 -0.5257644998984E+00  0.0000000000000E+00
-0.4173550630559E+00 -0.1678762688173E+01  0.0000000000000E+00
-0.4176519113029E+00 -0.1614369533789E+01  0.0000000000000E+00
-0.4180906629569E+00 -0.1549977555129E+01  0.0000000000000E+00
-0.4186920339012E+00 -0.1485587746537E+01  0.0000000000000E+00
-0.4194782570266E+00 -0.1421201359716E+01  0.0000000000000E+00
-0.4204703518181E+00 -0.1356820198965E+01  0.0000000000000E+00
-0.4216821755688E+00 -0.1292445987879E+01  0.0000000000000E+00
-0.4231098907729E+00 -0.1228080265706E+01  0.0000000000000E+00
-0.4247182590719E+00 -0.1163722695099E+01  0.0000000000000E+00
-0.4264320320686E+00 -0.1099370399588E+01  0.0000000000000E+00
-0.4281458049896E+00 -0.1035018104075E+01  0.0000000000000E+00
-0.4297541730716E+00 -0.9706605334635E+00  0.0000000000000E+00
-0.4311818879422E+00 -0.9062948112837E+00  0.0000000000000E+00
-0.4323937112723E+00 -0.8419206001903E+00  0.0000000000000E+00
-0.4333858055829E+00 -0.7775394394327E+00  0.0000000000000E+00
-0.4341720281878E+00 -0.7131530526057E+00  0.0000000000000E+00
-0.4347733985867E+00 -0.6487632440093E+00  0.0000000000000E+00
-0.4352121496806E+00 -0.5843712653468E+00  0.0000000000000E+00
-0.4355089973599E+00 -0.5199781109607E+00  0.0000000000000E+00
-0.3875860504174E+00 -0.1676969717501E+01  0.0000000000000E+00
-0.3878764553724E+00 -0.1612375915377E+01  0.0000000000000E+00
-0.3882986277719E+00 -0.1547783289039E+01  0.0000000000000E+00
-0.3888718037880E+00 -0.1483192832901E+01  0.0000000000000E+00
-0.3896166282662E+00 -0.1418605798412E+01  0.0000000000000E+00
-0.3905526192750E+00 -0.1354023990201E+01  0.0000000000000E+00
-0.3916926443324E+00 -0.1289449131420E+01  0.0000000000000E+00
-0.3930331400086E+00 -0.1224882761738E+01  0.0000000000000E+00
-0.3945413849981E+00 -0.1160324543420E+01  0.0000000000000E+00
-0.3961475057755E+00 -0.1095771600169E+01  0.0000000000000E+00
-0.3977536264772E+00 -0.1031218656915E+01  0.0000000000000E+00
-0.3992618712497E+00 -0.9666604385923E+00  0.0000000000000E+00
-0.4006023665923E+00 -0.9020940689044E+00  0.0000000000000E+00
-0.4017423912293E+00 -0.8375192101168E+00  0.0000000000000E+00
-0.4026783817572E+00 -0.7729374018990E+00  0.0000000000000E+00
-0.4034232057148E+00 -0.7083503674049E+00  0.0000000000000E+00
-0.4039963811855E+00 -0.6437599112629E+00  0.0000000000000E+00
-0.4044185530250E+00 -0.5791672849229E+00  0.0000000000000E+00
-0.4047089574122E+00 -0.5145734827967E+00  0.0000000000000E+00
-0.3578077848507E+00 -0.1675308389248E+01  0.0000000000000E+00
-0.3580885470070E+00 -0.1610528031852E+01  0.0000000000000E+00
-0.3584909406433E+00 -0.1545748850301E+01  0.0000000000000E+00
-0.3590327222207E+00 -0.1480971839072E+01  0.0000000000000E+00
-0.3597329485350E+00 -0.1416198249379E+01  0.0000000000000E+00
-0.3606096362428E+00 -0.1351429886156E+01  0.0000000000000E+00
-0.3616746630801E+00 -0.1286668472146E+01  0.0000000000000E+00
-0.3629247396993E+00 -0.1221915547408E+01  0.0000000000000E+00
-0.3643296618428E+00 -0.1157170773845E+01  0.0000000000000E+00
-0.3658249308613E+00 -0.1092431275322E+01  0.0000000000000E+00
-0.3673201998042E+00 -0.1027691776797E+01  0.0000000000000E+00
-0.3687251217307E+00 -0.9629470032288E+00  0.0000000000000E+00
-0.3699751980164E+00 -0.8981940784852E+00  0.0000000000000E+00
-0.3710402244331E+00 -0.8334326644688E+00  0.0000000000000E+00
-0.3719169116601E+00 -0.7686643012399E+00  0.0000000000000E+00
-0.3726171374538E+00 -0.7038907115421E+00  0.0000000000000E+00
-0.3731589184858E+00 -0.6391137003095E+00  0.0000000000000E+00
-0.3735613115620E+00 -0.5743345187563E+00  0.0000000000000E+00
-0.3738420731506E+00 -0.5095541613588E+00  0.0000000000000E+00
-0.3280209322967E+00 -0.1673778966441E+01  0.0000000000000E+00
-0.3282890703009E+00 -0.1608826317856E+01  0.0000000000000E+00
-0.3286687038227E+00 -0.1543874845170E+01  0.0000000000000E+00
-0.3291761096142E+00 -0.1478925542919E+01  0.0000000000000E+00
-0.3298287564176E+00 -0.1413979662100E+01  0.0000000000000E+00
-0.3306431594830E+00 -0.1349039007928E+01  0.0000000000000E+00
-0.3316302067577E+00 -0.1284105302768E+01  0.0000000000000E+00
-0.3327868829826E+00 -0.1219180087040E+01  0.0000000000000E+00
-0.3340855009420E+00 -0.1154263022312E+01  0.0000000000000E+00
-0.3354669368643E+00 -0.1089351232600E+01  0.0000000000000E+00
-0.3368483727111E+00 -0.1024439442887E+01  0.0000000000000E+00
-0.3381469904534E+00 -0.9595223781546E+00  0.0000000000000E+00
-0.3393036663448E+00 -0.8945971624215E+00  0.0000000000000E+00
-0.3402907131989E+00 -0.8296634572558E+00  0.0000000000000E+00
-0.3411051157835E+00 -0.7647228030786E+00  0.0000000000000E+00
-0.3417577620663E+00 -0.6997769222548E+00  0.0000000000000E+00
-0.3422651673124E+00 -0.6348276200005E+00  0.0000000000000E+00
-0.3426448002742E+00 -0.5698761473125E+00  0.0000000000000E+00
-0.3429129377106E+00 -0.5049234987264E+00  0.0000000000000E+00
-0.2982262059385E+00 -0.1672381694973E+01  0.0000000000000E+00
-0.2984789576442E+00 -0.1607271179011E+01  0.0000000000000E+00
-0.2988330689080E+00 -0.1542161838997E+01  0.0000000000000E+00
-0.2993033367739E+00 -0.1477054669522E+01  0.0000000000000E+00
-0.2999056419273E+00 -0.1411950921383E+01  0.0000000000000E+00
-0.3006549982166E+00 -0.1346852400053E+01  0.0000000000000E+00
-0.3015613037944E+00 -0.1281760827552E+01  0.0000000000000E+00
-0.3026218174963E+00 -0.1216677744629E+01  0.0000000000000E+00
-0.3038113691420E+00 -0.1151602812546E+01  0.0000000000000E+00
-0.3050762098397E+00 -0.1086533155457E+01  0.0000000000000E+00
-0.3063410504618E+00 -0.1021463498367E+01  0.0000000000000E+00
-0.3075306018905E+00 -0.9563885662797E+00  0.0000000000000E+00
-0.3085911152588E+00 -0.8913054833521E+00  0.0000000000000E+00
-0.3094974204161E+00 -0.8262139108455E+00  0.0000000000000E+00
-0.3102467762245E+00 -0.7611153895116E+00  0.0000000000000E+00
-0.3108490808573E+00 -0.6960116413682E+00  0.0000000000000E+00
-0.3113193481778E+00 -0.6309044718900E+00  0.0000000000000E+00
-0.3116734588816E+00 -0.5657951318742E+00  0.0000000000000E+00
-0.3119262100196E+00 -0.5006846159113E+00  0.0000000000000E+00
-0.2684242591111E+00 -0.1671116799086E+01  0.0000000000000E+00
-0.2686590939796E+00 -0.1605862988030E+01  0.0000000000000E+00
-0.2689851524448E+00 -0.1540610352966E+01  0.0000000000000E+00
-0.2694157518426E+00 -0.1475359888535E+01  0.0000000000000E+00
-0.2699651847983E+00 -0.1410112845353E+01  0.0000000000000E+00
-0.2706469637623E+00 -0.1344871029129E+01  0.0000000000000E+00
-0.2714699970866E+00 -0.1279636161565E+01  0.0000000000000E+00
-0.2724318177065E+00 -0.1214409783713E+01  0.0000000000000E+00
-0.2735097724737E+00 -0.1149191556555E+01  0.0000000000000E+00
-0.2746554873792E+00 -0.1083978604371E+01  0.0000000000000E+00
-0.2758012022091E+00 -0.1018765652186E+01  0.0000000000000E+00
-0.2768791567593E+00 -0.9535474250252E+00  0.0000000000000E+00
-0.2778409770457E+00 -0.8883210471688E+00  0.0000000000000E+00
-0.2786640099495E+00 -0.8230861796004E+00  0.0000000000000E+00
-0.2793457884325E+00 -0.7578443633719E+00  0.0000000000000E+00
-0.2798952208677E+00 -0.6925973201861E+00  0.0000000000000E+00
-0.2803258197201E+00 -0.6273468557523E+00  0.0000000000000E+00
-0.2806518776252E+00 -0.5620942206867E+00  0.0000000000000E+00
-0.2808867119260E+00 -0.4968404096294E+00  0.0000000000000E+00
-0.2386158232353E+00 -0.1669984486219E+01  0.0000000000000E+00
-0.2388304441249E+00 -0.1604602088268E+01  0.0000000000000E+00
-0.2391261526536E+00 -0.1539220866350E+01  0.0000000000000E+00
-0.2395147864510E+00 -0.1473841815148E+01  0.0000000000000E+00
-0.2400090500797E+00 -0.1408466185117E+01  0.0000000000000E+00
-0.2406209545962E+00 -0.1343095782177E+01  0.0000000000000E+00
-0.2413584185475E+00 -0.1277732327748E+01  0.0000000000000E+00
-0.2422192489735E+00 -0.1212377363149E+01  0.0000000000000E+00
-0.2431833097518E+00 -0.1147030549114E+01  0.0000000000000E+00
-0.2442076017572E+00 -0.1081689010035E+01  0.0000000000000E+00
-0.2452318936869E+00 -0.1016347470955E+01  0.0000000000000E+00
-0.2461959542483E+00 -0.9510006569173E+00  0.0000000000000E+00
-0.2470567843406E+00 -0.8856456923147E+00  0.0000000000000E+00
-0.2477942478714E+00 -0.8202822378808E+00  0.0000000000000E+00
-0.2484061519071E+00 -0.7549118349370E+00  0.0000000000000E+00
-0.2489004150152E+00 -0.6895362049032E+00  0.0000000000000E+00
-0.2492890482672E+00 -0.6241571536992E+00  0.0000000000000E+00
-0.2495847562358E+00 -0.5587759317790E+00  0.0000000000000E+00
-0.2497993765577E+00 -0.4933935338269E+00  0.0000000000000E+00
-0.2088015918171E+00 -0.1668984941864E+01  0.0000000000000E+00
-0.2089939423704E+00 -0.1603488788333E+01  0.0000000000000E+00
-0.2092572446060E+00 -0.1537993810870E+01  0.0000000000000E+00
-0.2096018564480E+00 -0.1472501004198E+01  0.0000000000000E+00
-0.2100388943936E+00 -0.1407011618628E+01  0.0000000000000E+00
-0.2105788681090E+00 -0.1341527460266E+01  0.0000000000000E+00
-0.2112287063315E+00 -0.1276050250282E+01  0.0000000000000E+00
-0.2119864902098E+00 -0.1210581530234E+01  0.0000000000000E+00
-0.2128346006438E+00 -0.1145120960635E+01  0.0000000000000E+00
-0.2137354133933E+00 -0.1079665665975E+01  0.0000000000000E+00
-0.2146362260672E+00 -0.1014210371315E+01  0.0000000000000E+00
-0.2154843362842E+00 -0.9487498017129E+00  0.0000000000000E+00
-0.2162421198289E+00 -0.8832810816616E+00  0.0000000000000E+00
-0.2168919576308E+00 -0.8178038716736E+00  0.0000000000000E+00
-0.2174319308654E+00 -0.7523197133084E+00  0.0000000000000E+00
-0.2178689682905E+00 -0.6868303277357E+00  0.0000000000000E+00
-0.2182135795869E+00 -0.6213375210618E+00  0.0000000000000E+00
-0.2184768812625E+00 -0.5558425435970E+00  0.0000000000000E+00
-0.2186692312481E+00 -0.4903463900649E+00  0.0000000000000E+00
-0.1789822699684E+00 -0.1668118331209E+01  0.0000000000000E+00
-0.1791505394161E+00 -0.1602523363227E+01  0.0000000000000E+00
-0.1793796245881E+00 -0.1536929571344E+01  0.0000000000000E+00
-0.1796784037030E+00 -0.1471337950318E+01  0.0000000000000E+00
-0.1800564051905E+00 -0.1405749750333E+01  0.0000000000000E+00
-0.1805226373288E+00 -0.1340166777658E+01  0.0000000000000E+00
-0.1810830390415E+00 -0.1274590753246E+01  0.0000000000000E+00
-0.1817359655899E+00 -0.1209023218861E+01  0.0000000000000E+00
-0.1824663148931E+00 -0.1143463834825E+01  0.0000000000000E+00
-0.1832418375987E+00 -0.1077909725716E+01  0.0000000000000E+00
-0.1840173602287E+00 -0.1012355616605E+01  0.0000000000000E+00
-0.1847477093150E+00 -0.9467962325665E+00  0.0000000000000E+00
-0.1854006355298E+00 -0.8812286981792E+00  0.0000000000000E+00
-0.1859610368220E+00 -0.8156526737635E+00  0.0000000000000E+00
-0.1864272684794E+00 -0.7500697010859E+00  0.0000000000000E+00
-0.1868052694463E+00 -0.6844815010990E+00  0.0000000000000E+00
-0.1871040480158E+00 -0.6188898800707E+00  0.0000000000000E+00
-0.1873331326277E+00 -0.5532960881865E+00  0.0000000000000E+00
-0.1875014015077E+00 -0.4877011202043E+00  0.0000000000000E+00
-0.1491585906986E+00 -0.1667384798938E+01  0.0000000000000E+00
-0.1493012179629E+00 -0.1601706053757E+01  0.0000000000000E+00
-0.1494945249966E+00 -0.1536028484701E+01  0.0000000000000E+00
-0.1497459103137E+00 -0.1470353086556E+01  0.0000000000000E+00
-0.1500633142746E+00 -0.1404681109403E+01  0.0000000000000E+00
-0.1504542437727E+00 -0.1339014359645E+01  0.0000000000000E+00
-0.1509236479144E+00 -0.1273354558052E+01  0.0000000000000E+00
-0.1514701560771E+00 -0.1207703246565E+01  0.0000000000000E+00
-0.1520811831954E+00 -0.1142060085341E+01  0.0000000000000E+00
-0.1527298548045E+00 -0.1076422199032E+01  0.0000000000000E+00
-0.1533785263379E+00 -0.1010784312722E+01  0.0000000000000E+00
-0.1539895532392E+00 -0.9451411514961E+00  0.0000000000000E+00
-0.1545360610683E+00 -0.8794898400065E+00  0.0000000000000E+00
-0.1550054647896E+00 -0.8138300384108E+00  0.0000000000000E+00
-0.1553963938067E+00 -0.7481632886510E+00  0.0000000000000E+00
-0.1557137972470E+00 -0.6824913114955E+00  0.0000000000000E+00
-0.1559651820187E+00 -0.6168159133492E+00  0.0000000000000E+00
-0.1561584884923E+00 -0.5511383442921E+00  0.0000000000000E+00
-0.1563011151890E+00 -0.4854595991108E+00  0.0000000000000E+00
-0.1193312533689E+00 -0.1666784467333E+01  0.0000000000000E+00
-0.1194469324420E+00 -0.1601037064197E+01  0.0000000000000E+00
-0.1196031553282E+00 -0.1535290837207E+01  0.0000000000000E+00
-0.1198058408375E+00 -0.1469546781173E+01  0.0000000000000E+00
-0.1200613412589E+00 -0.1403806146089E+01  0.0000000000000E+00
-0.1203756621029E+00 -0.1338070738472E+01  0.0000000000000E+00
-0.1207527626561E+00 -0.1272342278939E+01  0.0000000000000E+00
-0.1211915464142E+00 -0.1206622309575E+01  0.0000000000000E+00
-0.1216819453254E+00 -0.1140910490406E+01  0.0000000000000E+00
-0.1222024598146E+00 -0.1075203946141E+01  0.0000000000000E+00
-0.1227229742282E+00 -0.1009497401875E+01  0.0000000000000E+00
-0.1232133729224E+00 -0.9437855827039E+00  0.0000000000000E+00
-0.1236521563469E+00 -0.8780656133384E+00  0.0000000000000E+00
-0.1240292564796E+00 -0.8123371538032E+00  0.0000000000000E+00
-0.1243435768427E+00 -0.7466017461841E+00  0.0000000000000E+00
-0.1245990767436E+00 -0.6808611110984E+00  0.0000000000000E+00
-0.1248017617074E+00 -0.6151170550636E+00  0.0000000000000E+00
-0.1249579840336E+00 -0.5493708280728E+00  0.0000000000000E+00
-0.1250736625389E+00 -0.4836234249364E+00  0.0000000000000E+00
-0.8950100053862E-01 -0.1666317437650E+01  0.0000000000000E+00
-0.8958868171560E-01 -0.1600516563313E+01  0.0000000000000E+00
-0.8970677075129E-01 -0.1534716865139E+01  0.0000000000000E+00
-0.8985970675196E-01 -0.1468919337956E+01  0.0000000000000E+00
-0.9005225393426E-01 -0.1403125231690E+01  0.0000000000000E+00
-0.9028891642774E-01 -0.1337336352946E+01  0.0000000000000E+00
-0.9057266369673E-01 -0.1271554422224E+01  0.0000000000000E+00
-0.9090267335780E-01 -0.1205780981720E+01  0.0000000000000E+00
-0.9127139437015E-01 -0.1140015691357E+01  0.0000000000000E+00
-0.9166270204846E-01 -0.1074255675890E+01  0.0000000000000E+00
-0.9205400965113E-01 -0.1008495660424E+01  0.0000000000000E+00
-0.9242273044648E-01 -0.9427303700588E+00  0.0000000000000E+00
-0.9275273977399E-01 -0.8769569295541E+00  0.0000000000000E+00
-0.9303648662245E-01 -0.8111749988302E+00  0.0000000000000E+00
-0.9327314863504E-01 -0.7453861200848E+00  0.0000000000000E+00
-0.9346569529677E-01 -0.6795920138176E+00  0.0000000000000E+00
-0.9361863075200E-01 -0.6137944866337E+00  0.0000000000000E+00
-0.9373671922766E-01 -0.5479947884587E+00  0.0000000000000E+00
-0.9382439983693E-01 -0.4821939141214E+00  0.0000000000000E+00
-0.5966855245610E-01 -0.1665983788540E+01  0.0000000000000E+00
-0.5972744638703E-01 -0.1600144682577E+01  0.0000000000000E+00
-0.5980661222241E-01 -0.1534306752788E+01  0.0000000000000E+00
-0.5990900936510E-01 -0.1468470994015E+01  0.0000000000000E+00
-0.6003781395841E-01 -0.1402638656136E+01  0.0000000000000E+00
-0.6019602875215E-01 -0.1336811545818E+01  0.0000000000000E+00
-0.6038563338675E-01 -0.1270991383477E+01  0.0000000000000E+00
-0.6060607960119E-01 -0.1205179711391E+01  0.0000000000000E+00
-0.6085233336420E-01 -0.1139376189405E+01  0.0000000000000E+00
-0.6111364488103E-01 -0.1073577942312E+01  0.0000000000000E+00
-0.6137495632221E-01 -0.1007779695218E+01  0.0000000000000E+00
-0.6162120986821E-01 -0.9419761732318E+00  0.0000000000000E+00
-0.6184165574910E-01 -0.8761645011445E+00  0.0000000000000E+00
-0.6203125996316E-01 -0.8103443388026E+00  0.0000000000000E+00
-0.6218947427602E-01 -0.7445172284838E+00  0.0000000000000E+00
-0.6231827834875E-01 -0.6786848906039E+00  0.0000000000000E+00
-0.6242067494601E-01 -0.6128491318304E+00  0.0000000000000E+00
-0.6249984022135E-01 -0.5470112020407E+00  0.0000000000000E+00
-0.6255873358457E-01 -0.4811720960768E+00  0.0000000000000E+00
-0.2983463937156E-01 -0.1665783576456E+01  0.0000000000000E+00
-0.2986421868488E-01 -0.1599921516320E+01  0.0000000000000E+00
-0.2990393394841E-01 -0.1534060632365E+01  0.0000000000000E+00
-0.2995526486180E-01 -0.1468201919441E+01  0.0000000000000E+00
-0.3001979949427E-01 -0.1402346627397E+01  0.0000000000000E+00
-0.3009903921680E-01 -0.1336496562938E+01  0.0000000000000E+00
-0.3019397384468E-01 -0.1270653446429E+01  0.0000000000000E+00
-0.3030432924049E-01 -0.1204818820196E+01  0.0000000000000E+00
-0.3042758838143E-01 -0.1138992344041E+01  0.0000000000000E+00
-0.3055837636388E-01 -0.1073171142774E+01  0.0000000000000E+00
-0.3068916427068E-01 -0.1007349941507E+01  0.0000000000000E+00
-0.3081242319462E-01 -0.9415234653514E+00  0.0000000000000E+00
-0.3092277825687E-01 -0.8756888391178E+00  0.0000000000000E+00
-0.3101771246422E-01 -0.8098457226084E+00  0.0000000000000E+00
-0.3109695170586E-01 -0.7439956581489E+00  0.0000000000000E+00
-0.3116148581776E-01 -0.6781403661046E+00  0.0000000000000E+00
-0.3121281618571E-01 -0.6122816531806E+00  0.0000000000000E+00
-0.3125253088920E-01 -0.5464207692254E+00  0.0000000000000E+00
-0.3128210963481E-01 -0.4805587090888E+00  0.0000000000000E+00
 0.5155270009526E-08 -0.1665716835338E+01  0.0000000000000E+00
 0.4584959176113E-08 -0.1599847121274E+01  0.0000000000000E+00
 0.4018463728957E-08 -0.1533978583394E+01  0.0000000000000E+00
 0.3459266843676E-08 -0.1468112216549E+01  0.0000000000000E+00
 0.2912509056810E-08 -0.1402249270580E+01  0.0000000000000E+00
 0.2385636992076E-08 -0.1336391552204E+01  0.0000000000000E+00
 0.1889014992709E-08 -0.1270540781768E+01  0.0000000000000E+00
 0.1435985985768E-08 -0.1204698501615E+01  0.0000000000000E+00
 0.1041351324883E-08 -0.1138864371533E+01  0.0000000000000E+00
 0.7174784089279E-09 -0.1073035516338E+01  0.0000000000000E+00
 0.4692479852428E-09 -0.1007206661143E+01  0.0000000000000E+00
 0.2916178775732E-09 -0.9413725310599E+00  0.0000000000000E+00
 0.1721481202976E-09 -0.8755302509073E+00  0.0000000000000E+00
 0.9605798026668E-10 -0.8096794804718E+00  0.0000000000000E+00
 0.5007317610023E-10 -0.7438217620953E+00  0.0000000000000E+00
 0.2389664789049E-10 -0.6779588161260E+00  0.0000000000000E+00
 0.1013572289531E-10 -0.6120924492818E+00  0.0000000000000E+00
 0.3684762219914E-11 -0.5462239114012E+00  0.0000000000000E+00
 0.1082633505902E-11 -0.4803541973369E+00  0.0000000000000E+00
 0.2983464968201E-01 -0.1665783576500E+01  0.0000000000000E+00
 0.2986422785471E-01 -0.1599921516362E+01  0.0000000000000E+00
 0.2990394198526E-01 -0.1534060632404E+01  0.0000000000000E+00
 0.2995527178026E-01 -0.1468201919478E+01  0.0000000000000E+00
 0.3001980531922E-01 -0.1402346627432E+01  0.0000000000000E+00
 0.3009904398801E-01 -0.1336496562970E+01  0.0000000000000E+00
 0.3019397762265E-01 -0.1270653446458E+01  0.0000000000000E+00
 0.3030433211240E-01 -0.1204818820222E+01  0.0000000000000E+00
 0.3042759046408E-01 -0.1138992344063E+01  0.0000000000000E+00
 0.3055837779879E-01 -0.1073171142794E+01  0.0000000000000E+00
 0.3068916520914E-01 -0.1007349941524E+01  0.0000000000000E+00
 0.3081242377782E-01 -0.9415234653661E+00  0.0000000000000E+00
 0.3092277860113E-01 -0.8756888391304E+00  0.0000000000000E+00
 0.3101771265631E-01 -0.8098457226190E+00  0.0000000000000E+00
 0.3109695180599E-01 -0.7439956581577E+00  0.0000000000000E+00
 0.3116148586553E-01 -0.6781403661116E+00  0.0000000000000E+00
 0.3121281620596E-01 -0.6122816531859E+00  0.0000000000000E+00
 0.3125253089656E-01 -0.5464207692289E+00  0.0000000000000E+00
 0.3128210963697E-01 -0.4805587090906E+00  0.0000000000000E+00
 0.5966856276630E-01 -0.1665983788628E+01  0.0000000000000E+00
 0.5972745555662E-01 -0.1600144682660E+01  0.0000000000000E+00
 0.5980662025903E-01 -0.1534306752866E+01  0.0000000000000E+00
 0.5990901628335E-01 -0.1468470994089E+01  0.0000000000000E+00
 0.6003781978316E-01 -0.1402638656205E+01  0.0000000000000E+00
 0.6019603352318E-01 -0.1336811545881E+01  0.0000000000000E+00
 0.6038563716454E-01 -0.1270991383534E+01  0.0000000000000E+00
 0.6060608247295E-01 -0.1205179711442E+01  0.0000000000000E+00
 0.6085233544670E-01 -0.1139376189450E+01  0.0000000000000E+00
 0.6111364631580E-01 -0.1073577942351E+01  0.0000000000000E+00
 0.6137495726055E-01 -0.1007779695252E+01  0.0000000000000E+00
 0.6162121045131E-01 -0.9419761732611E+00  0.0000000000000E+00
 0.6184165609327E-01 -0.8761645011696E+00  0.0000000000000E+00
 0.6203126015517E-01 -0.8103443388238E+00  0.0000000000000E+00
 0.6218947437608E-01 -0.7445172285014E+00  0.0000000000000E+00
 0.6231827839647E-01 -0.6786848906179E+00  0.0000000000000E+00
 0.6242067496623E-01 -0.6128491318409E+00  0.0000000000000E+00
 0.6249984022868E-01 -0.5470112020477E+00  0.0000000000000E+00
 0.6255873358672E-01 -0.4811720960803E+00  0.0000000000000E+00
 0.8950101084839E-01 -0.1666317437781E+01  0.0000000000000E+00
 0.8958869088479E-01 -0.1600516563438E+01  0.0000000000000E+00
 0.8970677878753E-01 -0.1534716865257E+01  0.0000000000000E+00
 0.8985971366985E-01 -0.1468919338067E+01  0.0000000000000E+00
 0.9005225975868E-01 -0.1403125231793E+01  0.0000000000000E+00
 0.9028892119845E-01 -0.1337336353041E+01  0.0000000000000E+00
 0.9057266747424E-01 -0.1271554422310E+01  0.0000000000000E+00
 0.9090267622929E-01 -0.1205780981797E+01  0.0000000000000E+00
 0.9127139645241E-01 -0.1140015691424E+01  0.0000000000000E+00
 0.9166270348301E-01 -0.1074255675949E+01  0.0000000000000E+00
 0.9205401058927E-01 -0.1008495660475E+01  0.0000000000000E+00
 0.9242273102939E-01 -0.9427303701028E+00  0.0000000000000E+00
 0.9275274011800E-01 -0.8769569295918E+00  0.0000000000000E+00
 0.9303648681432E-01 -0.8111749988621E+00  0.0000000000000E+00
 0.9327314873499E-01 -0.7453861201111E+00  0.0000000000000E+00
 0.9346569534440E-01 -0.6795920138386E+00  0.0000000000000E+00
 0.9361863077215E-01 -0.6137944866494E+00  0.0000000000000E+00
 0.9373671923494E-01 -0.5479947884691E+00  0.0000000000000E+00
 0.9382439983905E-01 -0.4821939141266E+00  0.0000000000000E+00
 0.1193312636781E+00 -0.1666784467507E+01  0.0000000000000E+00
 0.1194469416106E+00 -0.1601037064363E+01  0.0000000000000E+00
 0.1196031633639E+00 -0.1535290837365E+01  0.0000000000000E+00
 0.1198058477548E+00 -0.1469546781322E+01  0.0000000000000E+00
 0.1200613470828E+00 -0.1403806146227E+01  0.0000000000000E+00
 0.1203756668731E+00 -0.1338070738599E+01  0.0000000000000E+00
 0.1207527664332E+00 -0.1272342279054E+01  0.0000000000000E+00
 0.1211915492853E+00 -0.1206622309678E+01  0.0000000000000E+00
 0.1216819474073E+00 -0.1140910490496E+01  0.0000000000000E+00
 0.1222024612488E+00 -0.1075203946219E+01  0.0000000000000E+00
 0.1227229751660E+00 -0.1009497401943E+01  0.0000000000000E+00
 0.1232133735050E+00 -0.9437855827625E+00  0.0000000000000E+00
 0.1236521566907E+00 -0.8780656133886E+00  0.0000000000000E+00
 0.1240292566713E+00 -0.8123371538457E+00  0.0000000000000E+00
 0.1243435769425E+00 -0.7466017462192E+00  0.0000000000000E+00
 0.1245990767911E+00 -0.6808611111264E+00  0.0000000000000E+00
 0.1248017617275E+00 -0.6151170550845E+00  0.0000000000000E+00
 0.1249579840408E+00 -0.5493708280868E+00  0.0000000000000E+00
 0.1250736625410E+00 -0.4836234249434E+00  0.0000000000000E+00
 0.1491586010070E+00 -0.1667384799156E+01  0.0000000000000E+00
 0.1493012271308E+00 -0.1601706053965E+01  0.0000000000000E+00
 0.1494945330316E+00 -0.1536028484898E+01  0.0000000000000E+00
 0.1497459172305E+00 -0.1470353086742E+01  0.0000000000000E+00
 0.1500633200979E+00 -0.1404681109575E+01  0.0000000000000E+00
 0.1504542485424E+00 -0.1339014359804E+01  0.0000000000000E+00
 0.1509236516910E+00 -0.1273354558196E+01  0.0000000000000E+00
 0.1514701589477E+00 -0.1207703246693E+01  0.0000000000000E+00
 0.1520811852768E+00 -0.1142060085454E+01  0.0000000000000E+00
 0.1527298562383E+00 -0.1076422199130E+01  0.0000000000000E+00
 0.1533785272754E+00 -0.1010784312807E+01  0.0000000000000E+00
 0.1539895538216E+00 -0.9451411515694E+00  0.0000000000000E+00
 0.1545360614118E+00 -0.8794898400693E+00  0.0000000000000E+00
 0.1550054649810E+00 -0.8138300384639E+00  0.0000000000000E+00
 0.1553963939063E+00 -0.7481632886949E+00  0.0000000000000E+00
 0.1557137972944E+00 -0.6824913115305E+00  0.0000000000000E+00
 0.1559651820386E+00 -0.6168159133754E+00  0.0000000000000E+00
 0.1561584884995E+00 -0.5511383443096E+00  0.0000000000000E+00
 0.1563011151911E+00 -0.4854595991195E+00  0.0000000000000E+00
 0.1789822802759E+00 -0.1668118331470E+01  0.0000000000000E+00
 0.1791505485831E+00 -0.1602523363477E+01  0.0000000000000E+00
 0.1793796326223E+00 -0.1536929571581E+01  0.0000000000000E+00
 0.1796784106189E+00 -0.1471337950540E+01  0.0000000000000E+00
 0.1800564110131E+00 -0.1405749750540E+01  0.0000000000000E+00
 0.1805226420978E+00 -0.1340166777849E+01  0.0000000000000E+00
 0.1810830428174E+00 -0.1274590753418E+01  0.0000000000000E+00
 0.1817359684599E+00 -0.1209023219015E+01  0.0000000000000E+00
 0.1824663169740E+00 -0.1143463834961E+01  0.0000000000000E+00
 0.1832418390321E+00 -0.1077909725833E+01  0.0000000000000E+00
 0.1840173611658E+00 -0.1012355616707E+01  0.0000000000000E+00
 0.1847477098969E+00 -0.9467962326544E+00  0.0000000000000E+00
 0.1854006358730E+00 -0.8812286982545E+00  0.0000000000000E+00
 0.1859610370131E+00 -0.8156526738272E+00  0.0000000000000E+00
 0.1864272685787E+00 -0.7500697011386E+00  0.0000000000000E+00
 0.1868052694934E+00 -0.6844815011410E+00  0.0000000000000E+00
 0.1871040480356E+00 -0.6188898801021E+00  0.0000000000000E+00
 0.1873331326348E+00 -0.5532960882075E+00  0.0000000000000E+00
 0.1875014015097E+00 -0.4877011202147E+00  0.0000000000000E+00
 0.2088016021235E+00 -0.1668984942169E+01  0.0000000000000E+00
 0.2089939515364E+00 -0.1603488788624E+01  0.0000000000000E+00
 0.2092572526392E+00 -0.1537993811146E+01  0.0000000000000E+00
 0.2096018633630E+00 -0.1472501004457E+01  0.0000000000000E+00
 0.2100389002153E+00 -0.1407011618869E+01  0.0000000000000E+00
 0.2105788728772E+00 -0.1341527460488E+01  0.0000000000000E+00
 0.2112287101067E+00 -0.1276050250483E+01  0.0000000000000E+00
 0.2119864930791E+00 -0.1210581530413E+01  0.0000000000000E+00
 0.2128346027241E+00 -0.1145120960792E+01  0.0000000000000E+00
 0.2137354148261E+00 -0.1079665666113E+01  0.0000000000000E+00
 0.2146362270037E+00 -0.1014210371434E+01  0.0000000000000E+00
 0.2154843368657E+00 -0.9487498018155E+00  0.0000000000000E+00
 0.2162421201716E+00 -0.8832810817495E+00  0.0000000000000E+00
 0.2168919578216E+00 -0.8178038717479E+00  0.0000000000000E+00
 0.2174319309644E+00 -0.7523197133698E+00  0.0000000000000E+00
 0.2178689683374E+00 -0.6868303277847E+00  0.0000000000000E+00
 0.2182135796066E+00 -0.6213375210985E+00  0.0000000000000E+00
 0.2184768812695E+00 -0.5558425436214E+00  0.0000000000000E+00
 0.2186692312501E+00 -0.4903463900771E+00  0.0000000000000E+00
 0.2386158335404E+00 -0.1669984486568E+01  0.0000000000000E+00
 0.2388304532896E+00 -0.1604602088601E+01  0.0000000000000E+00
 0.2391261606856E+00 -0.1539220866665E+01  0.0000000000000E+00
 0.2395147933649E+00 -0.1473841815444E+01  0.0000000000000E+00
 0.2400090559004E+00 -0.1408466185393E+01  0.0000000000000E+00
 0.2406209593635E+00 -0.1343095782431E+01  0.0000000000000E+00
 0.2413584223218E+00 -0.1277732327977E+01  0.0000000000000E+00
 0.2422192518420E+00 -0.1212377363354E+01  0.0000000000000E+00
 0.2431833118313E+00 -0.1147030549294E+01  0.0000000000000E+00
 0.2442076031893E+00 -0.1081689010192E+01  0.0000000000000E+00
 0.2452318946228E+00 -0.1016347471091E+01  0.0000000000000E+00
 0.2461959548292E+00 -0.9510006570345E+00  0.0000000000000E+00
 0.2470567846829E+00 -0.8856456924151E+00  0.0000000000000E+00
 0.2477942480618E+00 -0.8202822379657E+00  0.0000000000000E+00
 0.2484061520058E+00 -0.7549118350073E+00  0.0000000000000E+00
 0.2489004150619E+00 -0.6895362049592E+00  0.0000000000000E+00
 0.2492890482866E+00 -0.6241571537411E+00  0.0000000000000E+00
 0.2495847562426E+00 -0.5587759318069E+00  0.0000000000000E+00
 0.2497993765596E+00 -0.4933935338409E+00  0.0000000000000E+00
 0.2684242694147E+00 -0.1671116799478E+01  0.0000000000000E+00
 0.2686591031430E+00 -0.1605862988404E+01  0.0000000000000E+00
 0.2689851604755E+00 -0.1540610353321E+01  0.0000000000000E+00
 0.2694157587553E+00 -0.1475359888869E+01  0.0000000000000E+00
 0.2699651906179E+00 -0.1410112845663E+01  0.0000000000000E+00
 0.2706469685284E+00 -0.1344871029414E+01  0.0000000000000E+00
 0.2714700008599E+00 -0.1279636161824E+01  0.0000000000000E+00
 0.2724318205741E+00 -0.1214409783944E+01  0.0000000000000E+00
 0.2735097745524E+00 -0.1149191556758E+01  0.0000000000000E+00
 0.2746554888105E+00 -0.1083978604548E+01  0.0000000000000E+00
 0.2758012031444E+00 -0.1018765652339E+01  0.0000000000000E+00
 0.2768791573396E+00 -0.9535474251570E+00  0.0000000000000E+00
 0.2778409773874E+00 -0.8883210472817E+00  0.0000000000000E+00
 0.2786640101394E+00 -0.8230861796958E+00  0.0000000000000E+00
 0.2793457885309E+00 -0.7578443634509E+00  0.0000000000000E+00
 0.2798952209140E+00 -0.6925973202491E+00  0.0000000000000E+00
 0.2803258197392E+00 -0.6273468557994E+00  0.0000000000000E+00
 0.2806518776318E+00 -0.5620942207181E+00  0.0000000000000E+00
 0.2808867119278E+00 -0.4968404096451E+00  0.0000000000000E+00
 0.2982262162405E+00 -0.1672381695408E+01  0.0000000000000E+00
 0.2984789668060E+00 -0.1607271179427E+01  0.0000000000000E+00
 0.2988330769373E+00 -0.1542161839391E+01  0.0000000000000E+00
 0.2993033436852E+00 -0.1477054669892E+01  0.0000000000000E+00
 0.2999056477456E+00 -0.1411950921727E+01  0.0000000000000E+00
 0.3006550029816E+00 -0.1346852400370E+01  0.0000000000000E+00
 0.3015613075666E+00 -0.1281760827839E+01  0.0000000000000E+00
 0.3026218203629E+00 -0.1216677744886E+01  0.0000000000000E+00
 0.3038113712198E+00 -0.1151602812772E+01  0.0000000000000E+00
 0.3050762112702E+00 -0.1086533155653E+01  0.0000000000000E+00
 0.3063410513962E+00 -0.1021463498536E+01  0.0000000000000E+00
 0.3075306024701E+00 -0.9563885664261E+00  0.0000000000000E+00
 0.3085911155999E+00 -0.8913054834775E+00  0.0000000000000E+00
 0.3094974206055E+00 -0.8262139109515E+00  0.0000000000000E+00
 0.3102467763224E+00 -0.7611153895993E+00  0.0000000000000E+00
 0.3108490809033E+00 -0.6960116414382E+00  0.0000000000000E+00
 0.3113193481967E+00 -0.6309044719423E+00  0.0000000000000E+00
 0.3116734588881E+00 -0.5657951319091E+00  0.0000000000000E+00
 0.3119262100213E+00 -0.5006846159287E+00  0.0000000000000E+00
 0.3280209425970E+00 -0.1673778966920E+01  0.0000000000000E+00
 0.3282890794610E+00 -0.1608826318313E+01  0.0000000000000E+00
 0.3286687118504E+00 -0.1543874845604E+01  0.0000000000000E+00
 0.3291761165241E+00 -0.1478925543327E+01  0.0000000000000E+00
 0.3298287622345E+00 -0.1413979662479E+01  0.0000000000000E+00
 0.3306431642467E+00 -0.1349039008277E+01  0.0000000000000E+00
 0.3316302105286E+00 -0.1284105303084E+01  0.0000000000000E+00
 0.3327868858481E+00 -0.1219180087322E+01  0.0000000000000E+00
 0.3340855030187E+00 -0.1154263022560E+01  0.0000000000000E+00
 0.3354669382939E+00 -0.1089351232816E+01  0.0000000000000E+00
 0.3368483736447E+00 -0.1024439443074E+01  0.0000000000000E+00
 0.3381469910323E+00 -0.9595223783156E+00  0.0000000000000E+00
 0.3393036666853E+00 -0.8945971625594E+00  0.0000000000000E+00
 0.3402907133878E+00 -0.8296634573724E+00  0.0000000000000E+00
 0.3411051158809E+00 -0.7647228031751E+00  0.0000000000000E+00
 0.3417577621119E+00 -0.6997769223317E+00  0.0000000000000E+00
 0.3422651673310E+00 -0.6348276200581E+00  0.0000000000000E+00
 0.3426448002805E+00 -0.5698761473508E+00  0.0000000000000E+00
 0.3429129377122E+00 -0.5049234987456E+00  0.0000000000000E+00
 0.3578077951490E+00 -0.1675308389770E+01  0.0000000000000E+00
 0.3580885561653E+00 -0.1610528032351E+01  0.0000000000000E+00
 0.3584909486692E+00 -0.1545748850774E+01  0.0000000000000E+00
 0.3590327291289E+00 -0.1480971839517E+01  0.0000000000000E+00
 0.3597329543503E+00 -0.1416198249793E+01  0.0000000000000E+00
 0.3606096410050E+00 -0.1351429886536E+01  0.0000000000000E+00
 0.3616746668497E+00 -0.1286668472490E+01  0.0000000000000E+00
 0.3629247425635E+00 -0.1221915547716E+01  0.0000000000000E+00
 0.3643296639184E+00 -0.1157170774115E+01  0.0000000000000E+00
 0.3658249322898E+00 -0.1092431275557E+01  0.0000000000000E+00
 0.3673202007369E+00 -0.1027691777001E+01  0.0000000000000E+00
 0.3687251223088E+00 -0.9629470034044E+00  0.0000000000000E+00
 0.3699751983561E+00 -0.8981940786356E+00  0.0000000000000E+00
 0.3710402246213E+00 -0.8334326645960E+00  0.0000000000000E+00
 0.3719169117570E+00 -0.7686643013451E+00  0.0000000000000E+00
 0.3726171374990E+00 -0.7038907116260E+00  0.0000000000000E+00
 0.3731589185041E+00 -0.6391137003723E+00  0.0000000000000E+00
 0.3735613115680E+00 -0.5743345187982E+00  0.0000000000000E+00
 0.3738420731521E+00 -0.5095541613797E+00  0.0000000000000E+00
 0.3875860607136E+00 -0.1676969718067E+01  0.0000000000000E+00
 0.3878764645286E+00 -0.1612375915917E+01  0.0000000000000E+00
 0.3882986357959E+00 -0.1547783289551E+01  0.0000000000000E+00
 0.3888718106944E+00 -0.1483192833383E+01  0.0000000000000E+00
 0.3896166340798E+00 -0.1418605798860E+01  0.0000000000000E+00
 0.3905526240356E+00 -0.1354023990612E+01  0.0000000000000E+00
 0.3916926481006E+00 -0.1289449131793E+01  0.0000000000000E+00
 0.3930331428715E+00 -0.1224882762071E+01  0.0000000000000E+00
 0.3945413870725E+00 -0.1160324543713E+01  0.0000000000000E+00
 0.3961475072028E+00 -0.1095771600424E+01  0.0000000000000E+00
 0.3977536274088E+00 -0.1031218657136E+01  0.0000000000000E+00
 0.3992618718269E+00 -0.9666604387825E+00  0.0000000000000E+00
 0.4006023669313E+00 -0.9020940690673E+00  0.0000000000000E+00
 0.4017423914168E+00 -0.8375192102545E+00  0.0000000000000E+00
 0.4026783818535E+00 -0.7729374020130E+00  0.0000000000000E+00
 0.4034232057596E+00 -0.7083503674957E+00  0.0000000000000E+00
 0.4039963812035E+00 -0.6437599113309E+00  0.0000000000000E+00
 0.4044185530308E+00 -0.5791672849682E+00  0.0000000000000E+00
 0.4047089574136E+00 -0.5145734828194E+00  0.0000000000000E+00
 0.4173550733497E+00 -0.1678762688782E+01  0.0000000000000E+00
 0.4176519204570E+00 -0.1614369534370E+01  0.0000000000000E+00
 0.4180906709789E+00 -0.1549977555680E+01  0.0000000000000E+00
 0.4186920408057E+00 -0.1485587747055E+01  0.0000000000000E+00
 0.4194782628384E+00 -0.1421201360198E+01  0.0000000000000E+00
 0.4204703565771E+00 -0.1356820199408E+01  0.0000000000000E+00
 0.4216821793354E+00 -0.1292445988280E+01  0.0000000000000E+00
 0.4231098936343E+00 -0.1228080266064E+01  0.0000000000000E+00
 0.4247182611449E+00 -0.1163722695415E+01  0.0000000000000E+00
 0.4264320334947E+00 -0.1099370399863E+01  0.0000000000000E+00
 0.4281458059202E+00 -0.1035018104312E+01  0.0000000000000E+00
 0.4297541736479E+00 -0.9706605336683E+00  0.0000000000000E+00
 0.4311818882803E+00 -0.9062948114591E+00  0.0000000000000E+00
 0.4323937114591E+00 -0.8419206003386E+00  0.0000000000000E+00
 0.4333858056787E+00 -0.7775394395554E+00  0.0000000000000E+00
 0.4341720282321E+00 -0.7131530527035E+00  0.0000000000000E+00
 0.4347733986043E+00 -0.6487632440825E+00  0.0000000000000E+00
 0.4352121496862E+00 -0.5843712653956E+00  0.0000000000000E+00
 0.4355089973612E+00 -0.5199781109850E+00  0.0000000000000E+00
 0.4471141841628E+00 -0.1680687022310E+01  0.0000000000000E+00
 0.4474140681449E+00 -0.1616508426641E+01  0.0000000000000E+00
 0.4478659915118E+00 -0.1552331006628E+01  0.0000000000000E+00
 0.4484921498675E+00 -0.1488155756537E+01  0.0000000000000E+00
 0.4493163641549E+00 -0.1423983928345E+01  0.0000000000000E+00
 0.4503611552972E+00 -0.1359817325998E+01  0.0000000000000E+00
 0.4516413703761E+00 -0.1295657673564E+01  0.0000000000000E+00
 0.4531528978439E+00 -0.1231506509842E+01  0.0000000000000E+00
 0.4548579823102E+00 -0.1167363497905E+01  0.0000000000000E+00
 0.4566760005302E+00 -0.1103225761095E+01  0.0000000000000E+00
 0.4584940188258E+00 -0.1039088024287E+01  0.0000000000000E+00
 0.4601991035092E+00 -0.9749450123550E+00  0.0000000000000E+00
 0.4617106313106E+00 -0.9107938486407E+00  0.0000000000000E+00
 0.4629908468100E+00 -0.8466341962143E+00  0.0000000000000E+00
 0.4640356384332E+00 -0.7824675938748E+00  0.0000000000000E+00
 0.4648598532412E+00 -0.7182957656882E+00  0.0000000000000E+00
 0.4654860121423E+00 -0.6541205156026E+00  0.0000000000000E+00
 0.4659379360693E+00 -0.5899430955919E+00  0.0000000000000E+00
 0.4662378206191E+00 -0.5257644999245E+00  0.0000000000000E+00
 0.4768626808375E+00 -0.1682742416794E+01  0.0000000000000E+00
 0.4771619935814E+00 -0.1618792098491E+01  0.0000000000000E+00
 0.4776234816665E+00 -0.1554842955773E+01  0.0000000000000E+00
 0.4782708204089E+00 -0.1490895982827E+01  0.0000000000000E+00
 0.4791294187871E+00 -0.1426952431917E+01  0.0000000000000E+00
 0.4802232991507E+00 -0.1363014106618E+01  0.0000000000000E+00
 0.4815682983403E+00 -0.1299082731497E+01  0.0000000000000E+00
 0.4831600307474E+00 -0.1235159844877E+01  0.0000000000000E+00
 0.4849582239168E+00 -0.1171245110272E+01  0.0000000000000E+00
 0.4868768797426E+00 -0.1107335650828E+01  0.0000000000000E+00
 0.4887955356439E+00 -0.1043426191385E+01  0.0000000000000E+00
 0.4905937290304E+00 -0.9795114567866E+00  0.0000000000000E+00
 0.4921854617710E+00 -0.9155885701742E+00  0.0000000000000E+00
 0.4935304613811E+00 -0.8516571950617E+00  0.0000000000000E+00
 0.4946243422257E+00 -0.7877188697700E+00  0.0000000000000E+00
 0.4954829411245E+00 -0.7237753188667E+00  0.0000000000000E+00
 0.4961302804124E+00 -0.6598283459261E+00  0.0000000000000E+00
 0.4965917690575E+00 -0.5958792032105E+00  0.0000000000000E+00
 0.4968910823691E+00 -0.5319288849093E+00  0.0000000000000E+00
 0.5065999773523E+00 -0.1684928562411E+01  0.0000000000000E+00
 0.5068949207371E+00 -0.1621220040089E+01  0.0000000000000E+00
 0.5073621754349E+00 -0.1557512693277E+01  0.0000000000000E+00
 0.5080268964777E+00 -0.1493807516079E+01  0.0000000000000E+00
 0.5089160808768E+00 -0.1430105761064E+01  0.0000000000000E+00
 0.5100552524167E+00 -0.1366409231408E+01  0.0000000000000E+00
 0.5114612376898E+00 -0.1302719652214E+01  0.0000000000000E+00
 0.5131293770345E+00 -0.1239038561295E+01  0.0000000000000E+00
 0.5150168809198E+00 -0.1175365622638E+01  0.0000000000000E+00
 0.5170323763743E+00 -0.1111697959174E+01  0.0000000000000E+00
 0.5190478719044E+00 -0.1048030295713E+01  0.0000000000000E+00
 0.5209353760067E+00 -0.9843573570614E+00  0.0000000000000E+00
 0.5226035156849E+00 -0.9206762661513E+00  0.0000000000000E+00
 0.5240095013785E+00 -0.8569866869656E+00  0.0000000000000E+00
 0.5251486733994E+00 -0.7932901573186E+00  0.0000000000000E+00
 0.5260378583190E+00 -0.7295884023095E+00  0.0000000000000E+00
 0.5267025799074E+00 -0.6658832251168E+00  0.0000000000000E+00
 0.5271698351652E+00 -0.6021758783080E+00  0.0000000000000E+00
 0.5274647791177E+00 -0.5384673559889E+00  0.0000000000000E+00
 0.5363253937430E+00 -0.1687245126228E+01  0.0000000000000E+00
 0.5366119860150E+00 -0.1623791708789E+01  0.0000000000000E+00
 0.5370810255763E+00 -0.1560339466780E+01  0.0000000000000E+00
 0.5377591471768E+00 -0.1496889394217E+01  0.0000000000000E+00
 0.5386749358556E+00 -0.1433442743990E+01  0.0000000000000E+00
 0.5398554168395E+00 -0.1370001318861E+01  0.0000000000000E+00
 0.5413184064642E+00 -0.1306566844490E+01  0.0000000000000E+00
 0.5430589710231E+00 -0.1243140858158E+01  0.0000000000000E+00
 0.5450318039010E+00 -0.1179723024346E+01  0.0000000000000E+00
 0.5471401572628E+00 -0.1116310465763E+01  0.0000000000000E+00
 0.5492485107003E+00 -0.1052897907183E+01  0.0000000000000E+00
 0.5512213437952E+00 -0.9894800733776E+00  0.0000000000000E+00
 0.5529619086877E+00 -0.9260540870546E+00  0.0000000000000E+00
 0.5544248987329E+00 -0.8626196126929E+00  0.0000000000000E+00
 0.5556053801978E+00 -0.7991781875723E+00  0.0000000000000E+00
 0.5565211693972E+00 -0.7357315373529E+00  0.0000000000000E+00
 0.5571992915431E+00 -0.6722814647954E+00  0.0000000000000E+00
 0.5576683316644E+00 -0.6088292227895E+00  0.0000000000000E+00
 0.5579549245041E+00 -0.5453758053527E+00  0.0000000000000E+00
 0.5660383036526E+00 -0.1689691762168E+01  0.0000000000000E+00
 0.5663123811983E+00 -0.1626506539575E+01  0.0000000000000E+00
 0.5667790419974E+00 -0.1563322492327E+01  0.0000000000000E+00
 0.5674664005168E+00 -0.1500140614350E+01  0.0000000000000E+00
 0.5684046298164E+00 -0.1436962158871E+01  0.0000000000000E+00
 0.5696222565698E+00 -0.1373788928213E+01  0.0000000000000E+00
 0.5711380868456E+00 -0.1310622648626E+01  0.0000000000000E+00
 0.5729469129013E+00 -0.1247464856829E+01  0.0000000000000E+00
 0.5750009110328E+00 -0.1184315217823E+01  0.0000000000000E+00
 0.5771979585521E+00 -0.1121170854085E+01  0.0000000000000E+00
 0.5793950061471E+00 -0.1058026490350E+01  0.0000000000000E+00
 0.5814490044956E+00 -0.9948768513511E+00  0.0000000000000E+00
 0.5832578308849E+00 -0.9317190595634E+00  0.0000000000000E+00
 0.5847736615812E+00 -0.8685527799859E+00  0.0000000000000E+00
 0.5859912888156E+00 -0.8053795493368E+00  0.0000000000000E+00
 0.5869295186357E+00 -0.7422010938657E+00  0.0000000000000E+00
 0.5876168777006E+00 -0.6790192158940E+00  0.0000000000000E+00
 0.5880835390597E+00 -0.6158351686501E+00  0.0000000000000E+00
 0.5883576171732E+00 -0.5526499460589E+00  0.0000000000000E+00
-0.1182610616184E+01 -0.1709938151910E+01  0.0000000000000E+00
-0.1206840600949E+01 -0.1599271303952E+01  0.0000000000000E+00
-0.1234987980858E+01 -0.1489562273115E+01  0.0000000000000E+00
-0.1268147886288E+01 -0.1381306365269E+01  0.0000000000000E+00
-0.1307801009883E+01 -0.1275324724782E+01  0.0000000000000E+00
-0.1353020462603E+01 -0.1171637126831E+01  0.0000000000000E+00
-0.1397268459649E+01 -0.1067515066351E+01  0.0000000000000E+00
-0.1437122473078E+01 -0.9615813592161E+00  0.0000000000000E+00
-0.1472550192246E+01 -0.8540374650362E+00  0.0000000000000E+00
-0.1503921191345E+01 -0.7452053677059E+00  0.0000000000000E+00
-0.1531272791497E+01 -0.6352674555980E+00  0.0000000000000E+00
-0.1554282707568E+01 -0.5243175831196E+00  0.0000000000000E+00
-0.1572939532414E+01 -0.4125357734460E+00  0.0000000000000E+00
-0.1586992041029E+01 -0.3000702231276E+00  0.0000000000000E+00
-0.1595657715404E+01 -0.1870553481994E+00  0.0000000000000E+00
-0.1598364296081E+01 -0.7373369945448E-01  0.0000000000000E+00
-0.1596500729268E+01  0.3959193470411E-01  0.0000000000000E+00
-0.1576465557885E+01  0.1508144777421E+00  0.0000000000000E+00
-0.1525097607493E+01  0.2508838507572E+00  0.0000000000000E+00
-0.1151849224518E+01 -0.1708018429854E+01  0.0000000000000E+00
-0.1174810817950E+01 -0.1599917521458E+01  0.0000000000000E+00
-0.1201494297363E+01 -0.1492724079797E+01  0.0000000000000E+00
-0.1232938712419E+01 -0.1386907393241E+01  0.0000000000000E+00
-0.1270548496269E+01 -0.1283245453469E+01  0.0000000000000E+00
-0.1313447122937E+01 -0.1181757097507E+01  0.0000000000000E+00
-0.1355441944237E+01 -0.1079857510625E+01  0.0000000000000E+00
-0.1393290276807E+01 -0.9762420726324E+00  0.0000000000000E+00
-0.1426958860821E+01 -0.8711016241228E+00  0.0000000000000E+00
-0.1456792161492E+01 -0.7647410505408E+00  0.0000000000000E+00
-0.1482817610549E+01 -0.6573328628486E+00  0.0000000000000E+00
-0.1504721960076E+01 -0.5489656979899E+00  0.0000000000000E+00
-0.1522488745507E+01 -0.4398099530286E+00  0.0000000000000E+00
-0.1535877314757E+01 -0.3300060065687E+00  0.0000000000000E+00
-0.1544146046571E+01 -0.2196812801132E+00  0.0000000000000E+00
-0.1546753842042E+01 -0.1090656515018E+00  0.0000000000000E+00
-0.1545018125930E+01  0.1553936656996E-02  0.0000000000000E+00
-0.1526054989336E+01  0.1101813215066E+00  0.0000000000000E+00
-0.1477397507004E+01  0.2082426775406E+00  0.0000000000000E+00
-0.1121071481666E+01 -0.1706207396943E+01  0.0000000000000E+00
-0.1142765544784E+01 -0.1600666705050E+01  0.0000000000000E+00
-0.1167985984722E+01 -0.1495983129601E+01  0.0000000000000E+00
-0.1197715770410E+01 -0.1392599941581E+01  0.0000000000000E+00
-0.1233283075506E+01 -0.1291251980047E+01  0.0000000000000E+00
-0.1273861737223E+01 -0.1191957143015E+01  0.0000000000000E+00
-0.1313604243862E+01 -0.1092274306747E+01  0.0000000000000E+00
-0.1349447756621E+01 -0.9909714150146E+00  0.0000000000000E+00
-0.1381358066526E+01 -0.8882286892072E+00  0.0000000000000E+00
-0.1409654529800E+01 -0.7843339163719E+00  0.0000000000000E+00
-0.1434354688775E+01 -0.6794497301018E+00  0.0000000000000E+00
-0.1455154332752E+01 -0.5736595498896E+00  0.0000000000000E+00
-0.1472031939748E+01 -0.4671241466607E+00  0.0000000000000E+00
-0.1484757430585E+01 -0.3599760811308E+00  0.0000000000000E+00
-0.1492630080751E+01 -0.2523357803654E+00  0.0000000000000E+00
-0.1495139951914E+01 -0.1444204490327E+00  0.0000000000000E+00
-0.1493532947327E+01 -0.3650118443096E-01  0.0000000000000E+00
-0.1475642704875E+01  0.6953675537040E-01  0.0000000000000E+00
-0.1429696548673E+01  0.1655957997913E+00  0.0000000000000E+00
-0.1090277778680E+01 -0.1704505302474E+01  0.0000000000000E+00
-0.1110705151904E+01 -0.1601519090901E+01  0.0000000000000E+00
-0.1134463392784E+01 -0.1499339645572E+01  0.0000000000000E+00
-0.1162479389508E+01 -0.1398384220211E+01  0.0000000000000E+00
-0.1196005056235E+01 -0.1299344501311E+01  0.0000000000000E+00
-0.1234264593488E+01 -0.1202237447020E+01  0.0000000000000E+00
-0.1271755625938E+01 -0.1104765625254E+01  0.0000000000000E+00
-0.1305595159327E+01 -0.1005769543773E+01  0.0000000000000E+00
-0.1335748035559E+01 -0.9054188045732E+00  0.0000000000000E+00
-0.1362508501866E+01 -0.8039840963573E+00  0.0000000000000E+00
-0.1385884211173E+01 -0.7016181753908E+00  0.0000000000000E+00
-0.1405579989997E+01 -0.5983992437282E+00  0.0000000000000E+00
-0.1421569258942E+01 -0.4944784461285E+00  0.0000000000000E+00
-0.1433632511731E+01 -0.3899805254777E+00  0.0000000000000E+00
-0.1441109920573E+01 -0.2850189144976E+00  0.0000000000000E+00
-0.1443522707747E+01 -0.1797981444669E+00  0.0000000000000E+00
-0.1442045254927E+01 -0.7457346785855E-01  0.0000000000000E+00
-0.1425228745440E+01  0.2888075313570E-01  0.0000000000000E+00
-0.1381994752957E+01  0.1229432044031E+00  0.0000000000000E+00
-0.1059468488513E+01 -0.1702912387231E+01  0.0000000000000E+00
-0.1078629992469E+01 -0.1602474907163E+01  0.0000000000000E+00
-0.1100926854868E+01 -0.1502793843219E+01  0.0000000000000E+00
-0.1127229883123E+01 -0.1404260431974E+01  0.0000000000000E+00
-0.1158714731872E+01 -0.1307523207410E+01  0.0000000000000E+00
-0.1194655965084E+01 -0.1212598186943E+01  0.0000000000000E+00
-0.1229896343770E+01 -0.1117331630845E+01  0.0000000000000E+00
-0.1261732718247E+01 -0.1020636610909E+01  0.0000000000000E+00
-0.1290128981326E+01 -0.9226721095494E+00  0.0000000000000E+00
-0.1315354271230E+01 -0.8236917171689E+00  0.0000000000000E+00
-0.1337406351476E+01 -0.7238383127460E+00  0.0000000000000E+00
-0.1355999085795E+01 -0.6231848809079E+00  0.0000000000000E+00
-0.1371100837377E+01 -0.5218729402175E+00  0.0000000000000E+00
-0.1382502672845E+01 -0.4200194157871E+00  0.0000000000000E+00
-0.1389585661121E+01 -0.3177307460877E+00  0.0000000000000E+00
-0.1391902185134E+01 -0.2151987887865E+00  0.0000000000000E+00
-0.1390555104895E+01 -0.1126629520127E+00  0.0000000000000E+00
-0.1374813148038E+01 -0.1178671098245E-01  0.0000000000000E+00
-0.1334292138156E+01  0.8028487832643E-01  0.0000000000000E+00
-0.1028644031902E+01 -0.1701428892511E+01  0.0000000000000E+00
-0.1046540465220E+01 -0.1603534382381E+01  0.0000000000000E+00
-0.1067376747767E+01 -0.1506345938346E+01  0.0000000000000E+00
-0.1091967606169E+01 -0.1410228779957E+01  0.0000000000000E+00
-0.1121412435542E+01 -0.1315788288743E+01  0.0000000000000E+00
-0.1155036163413E+01 -0.1223039540529E+01  0.0000000000000E+00
-0.1188026687019E+01 -0.1129972488601E+01  0.0000000000000E+00
-0.1217860701239E+01 -0.1035572768820E+01  0.0000000000000E+00
-0.1244501149814E+01 -0.9399887438216E+00  0.0000000000000E+00
-0.1268192061956E+01 -0.8434569057652E+00  0.0000000000000E+00
-0.1288921311765E+01 -0.7461102563833E+00  0.0000000000000E+00
-0.1306411800184E+01 -0.6480165628883E+00  0.0000000000000E+00
-0.1320626833000E+01 -0.5493077176197E+00  0.0000000000000E+00
-0.1331368049718E+01 -0.4500928279743E+00  0.0000000000000E+00
-0.1338057415963E+01 -0.3504713382674E+00  0.0000000000000E+00
-0.1340278475341E+01 -0.2506224323349E+00  0.0000000000000E+00
-0.1339062566136E+01 -0.1507696744498E+00  0.0000000000000E+00
-0.1324395959008E+01 -0.5246566180157E-01  0.0000000000000E+00
-0.1286588727643E+01  0.3762080931293E-01  0.0000000000000E+00
-0.9978048091164E+00 -0.1700055050454E+01  0.0000000000000E+00
-0.1014436949344E+01 -0.1604697736472E+01  0.0000000000000E+00
-0.1033813429585E+01 -0.1509996138651E+01  0.0000000000000E+00
-0.1056692895666E+01 -0.1416289459633E+01  0.0000000000000E+00
-0.1084098483174E+01 -0.1324139928563E+01  0.0000000000000E+00
-0.1115405483312E+01 -0.1233561678802E+01  0.0000000000000E+00
-0.1146146929431E+01 -0.1142688357325E+01  0.0000000000000E+00
-0.1173979360959E+01 -0.1050578164083E+01  0.0000000000000E+00
-0.1198864772593E+01 -0.9573688417442E+00  0.0000000000000E+00
-0.1221022084529E+01 -0.8632797842780E+00  0.0000000000000E+00
-0.1240429281443E+01 -0.7684341162128E+00  0.0000000000000E+00
-0.1256818301491E+01 -0.6728943873585E+00  0.0000000000000E+00
-0.1270147393055E+01 -0.5767828638030E+00  0.0000000000000E+00
-0.1280228768520E+01 -0.4802008352871E+00  0.0000000000000E+00
-0.1286525290197E+01 -0.3832407520642E+00  0.0000000000000E+00
-0.1288651662395E+01 -0.2860691239199E+00  0.0000000000000E+00
-0.1287567701612E+01 -0.1888936717586E+00  0.0000000000000E+00
-0.1273977220288E+01 -0.9315612371048E-01  0.0000000000000E+00
-0.1238884542376E+01 -0.5049014836915E-02  0.0000000000000E+00
-0.9669512233292E+00 -0.1698791087330E+01  0.0000000000000E+00
-0.9823198267800E+00 -0.1605965183794E+01  0.0000000000000E+00
-0.1000237261024E+01 -0.1513744646577E+01  0.0000000000000E+00
-0.1021406091078E+01 -0.1422442661535E+01  0.0000000000000E+00
-0.1046773192995E+01 -0.1332578305487E+01  0.0000000000000E+00
-0.1075764221763E+01 -0.1244164768467E+01  0.0000000000000E+00
-0.1104257346747E+01 -0.1155479391803E+01  0.0000000000000E+00
-0.1130088951907E+01 -0.1065652939568E+01  0.0000000000000E+00
-0.1153220082925E+01 -0.9748125342746E+00  0.0000000000000E+00
-0.1173844550973E+01 -0.8831604717515E+00  0.0000000000000E+00
-0.1191930451300E+01 -0.7908099993657E+00  0.0000000000000E+00
-0.1207218759270E+01 -0.6978184495369E+00  0.0000000000000E+00
-0.1219662665868E+01 -0.6042984620743E+00  0.0000000000000E+00
-0.1229084956349E+01 -0.5103435091204E+00  0.0000000000000E+00
-0.1234989389694E+01 -0.4160390469624E+00  0.0000000000000E+00
-0.1237021830944E+01 -0.3215389111147E+00  0.0000000000000E+00
-0.1236070574753E+01 -0.2270349796020E+00  0.0000000000000E+00
-0.1223556974129E+01 -0.1338581204802E+00  0.0000000000000E+00
-0.1191179603475E+01 -0.4772460601326E-01  0.0000000000000E+00
-0.9360836724979E+00 -0.1697637222502E+01  0.0000000000000E+00
-0.9501894744693E+00 -0.1607336932178E+01  0.0000000000000E+00
-0.9666485979921E+00 -0.1517591658418E+01  0.0000000000000E+00
-0.9861075272542E+00 -0.1428688570411E+01  0.0000000000000E+00
-0.1009436878761E+01 -0.1341103592706E+01  0.0000000000000E+00
-0.1036112671401E+01 -0.1254848971143E+01  0.0000000000000E+00
-0.1062358210486E+01 -0.1168345742088E+01  0.0000000000000E+00
-0.1086189724515E+01 -0.1080797233774E+01  0.0000000000000E+00
-0.1107567310176E+01 -0.9923199483614E+00  0.0000000000000E+00
-0.1126659669612E+01 -0.9030990835921E+00  0.0000000000000E+00
-0.1143425008638E+01 -0.8132380097123E+00  0.0000000000000E+00
-0.1157613339827E+01 -0.7227888417635E+00  0.0000000000000E+00
-0.1169172796767E+01 -0.6318545932468E+00  0.0000000000000E+00
-0.1177936737578E+01 -0.5405209187650E+00  0.0000000000000E+00
-0.1183449817901E+01 -0.4488662807332E+00  0.0000000000000E+00
-0.1185389063541E+01 -0.3570318401726E+00  0.0000000000000E+00
-0.1184571247236E+01 -0.2651936327164E+00  0.0000000000000E+00
-0.1173135261469E+01 -0.1745716753379E+00  0.0000000000000E+00
-0.1143473931327E+01 -0.9040597589074E-01  0.0000000000000E+00
-0.9052025656608E+00 -0.1696593670407E+01  0.0000000000000E+00
-0.9180462799102E+00 -0.1608813184770E+01  0.0000000000000E+00
-0.9330478064465E+00 -0.1521537366029E+01  0.0000000000000E+00
-0.9507975486092E+00 -0.1435027366826E+01  0.0000000000000E+00
-0.9720898633460E+00 -0.1349715959497E+01  0.0000000000000E+00
-0.9964511335561E+00 -0.1265614444814E+01  0.0000000000000E+00
-0.1020449800433E+01 -0.1181287554874E+01  0.0000000000000E+00
-0.1042281937024E+01 -0.1096011182100E+01  0.0000000000000E+00
-0.1061906691047E+01 -0.1009891208114E+01  0.0000000000000E+00
-0.1079467655605E+01 -0.9230957326186E+00  0.0000000000000E+00
-0.1094913147077E+01 -0.8357182487808E+00  0.0000000000000E+00
-0.1108002215241E+01 -0.7478056542760E+00  0.0000000000000E+00
-0.1118677936293E+01 -0.6594513362685E+00  0.0000000000000E+00
-0.1126784241210E+01 -0.5707331318790E+00  0.0000000000000E+00
-0.1131906682287E+01 -0.4817225097452E+00  0.0000000000000E+00
-0.1133753446117E+01 -0.3925479561725E+00  0.0000000000000E+00
-0.1133069783463E+01 -0.3033696648919E+00  0.0000000000000E+00
-0.1122712125213E+01 -0.2152968108032E+00  0.0000000000000E+00
-0.1095767547380E+01 -0.1330931357309E+00  0.0000000000000E+00
-0.8743083235843E+00 -0.1695660640404E+01  0.0000000000000E+00
-0.8858906417741E+00 -0.1610394139888E+01  0.0000000000000E+00
-0.8994352629835E+00 -0.1525581956693E+01  0.0000000000000E+00
-0.9154765096915E+00 -0.1441459227032E+01  0.0000000000000E+00
-0.9347324792844E+00 -0.1358415571095E+01  0.0000000000000E+00
-0.9567799187723E+00 -0.1276461343713E+01  0.0000000000000E+00
-0.9785324051374E+00 -0.1194304973383E+01  0.0000000000000E+00
-0.9983658559628E+00 -0.1111294916756E+01  0.0000000000000E+00
-0.1016238470020E+01 -0.1027526434715E+01  0.0000000000000E+00
-0.1032268731369E+01 -0.9431505289813E+00  0.0000000000000E+00
-0.1046395066944E+01 -0.8582508156835E+00  0.0000000000000E+00
-0.1058385563728E+01 -0.7728689751435E+00  0.0000000000000E+00
-0.1068178240529E+01 -0.6870887681605E+00  0.0000000000000E+00
-0.1075627601174E+01 -0.6009802144323E+00  0.0000000000000E+00
-0.1080360094597E+01 -0.5146077889146E+00  0.0000000000000E+00
-0.1082115068208E+01 -0.4280873029753E+00  0.0000000000000E+00
-0.1081566250735E+01 -0.3415631089346E+00  0.0000000000000E+00
-0.1072287610372E+01 -0.2560335486556E+00  0.0000000000000E+00
-0.1048060474216E+01 -0.1757860963612E+00  0.0000000000000E+00
-0.8434013602891E+00 -0.1694838334539E+01  0.0000000000000E+00
-0.8537229522776E+00 -0.1612079988939E+01  0.0000000000000E+00
-0.8658113380143E+00 -0.1529725611177E+01  0.0000000000000E+00
-0.8801447591061E+00 -0.1447984321162E+01  0.0000000000000E+00
-0.8973650533733E+00 -0.1367202586994E+01  0.0000000000000E+00
-0.9170993320358E+00 -0.1287389816692E+01  0.0000000000000E+00
-0.9366063077746E+00 -0.1207398135830E+01  0.0000000000000E+00
-0.9544417426990E+00 -0.1126648565315E+01  0.0000000000000E+00
-0.9705628866563E+00 -0.1045225745102E+01  0.0000000000000E+00
-0.9850631146560E+00 -0.9632635789787E+00  0.0000000000000E+00
-0.9978709641868E+00 -0.8808358060813E+00  0.0000000000000E+00
-0.1008763559434E+01 -0.7979788893896E+00  0.0000000000000E+00
-0.1017673861820E+01 -0.7147669633096E+00  0.0000000000000E+00
-0.1024466948015E+01 -0.6312622301750E+00  0.0000000000000E+00
-0.1028810163580E+01 -0.5475221713554E+00  0.0000000000000E+00
-0.1030474016764E+01 -0.4636499230587E+00  0.0000000000000E+00
-0.1030060714210E+01 -0.3797739966868E+00  0.0000000000000E+00
-0.1021861760353E+01 -0.2967819101190E+00  0.0000000000000E+00
-0.1000352733534E+01 -0.2184848683968E+00  0.0000000000000E+00
-0.8124820923393E+00 -0.1694126948634E+01  0.0000000000000E+00
-0.8215436060466E+00 -0.1613870917436E+01  0.0000000000000E+00
-0.8321764042262E+00 -0.1533968504685E+01  0.0000000000000E+00
-0.8448026476007E+00 -0.1454602814107E+01  0.0000000000000E+00
-0.8599879144201E+00 -0.1376077161776E+01  0.0000000000000E+00
-0.8774096802096E+00 -0.1298400008021E+01  0.0000000000000E+00
-0.8946717932639E+00 -0.1220567176174E+01  0.0000000000000E+00
-0.9105098602098E+00 -0.1142072251424E+01  0.0000000000000E+00
-0.9248801819917E+00 -0.1062989252608E+01  0.0000000000000E+00
-0.9378510245649E+00 -0.9834349856361E+00  0.0000000000000E+00
-0.9493410359662E+00 -0.9034733126893E+00  0.0000000000000E+00
-0.9591363775820E+00 -0.8231354794195E+00  0.0000000000000E+00
-0.9671649534541E+00 -0.7424859938115E+00  0.0000000000000E+00
-0.9733024130866E+00 -0.6615792408938E+00  0.0000000000000E+00
-0.9772569986568E+00 -0.5804657085455E+00  0.0000000000000E+00
-0.9788303792791E+00 -0.4992358575917E+00  0.0000000000000E+00
-0.9785532394554E+00 -0.4180023590096E+00  0.0000000000000E+00
-0.9714346188367E+00 -0.3375419157624E+00  0.0000000000000E+00
-0.9526443471667E+00 -0.2611894621254E+00  0.0000000000000E+00
-0.7815509360540E+00 -0.1693526671952E+01  0.0000000000000E+00
-0.7893529974569E+00 -0.1615767104683E+01  0.0000000000000E+00
-0.7985308340446E+00 -0.1538310806561E+01  0.0000000000000E+00
-0.8094505256421E+00 -0.1461314865248E+01  0.0000000000000E+00
-0.8226013909215E+00 -0.1385039444855E+01  0.0000000000000E+00
-0.8377112698082E+00 -0.1309492057141E+01  0.0000000000000E+00
-0.8527291461403E+00 -0.1233812223881E+01  0.0000000000000E+00
-0.8665704710604E+00 -0.1157566094584E+01  0.0000000000000E+00
-0.8791905966306E+00 -0.1080817066771E+01  0.0000000000000E+00
-0.8906326797461E+00 -0.1003664848526E+01  0.0000000000000E+00
-0.9008054789872E+00 -0.9261634251201E+00  0.0000000000000E+00
-0.9095041929406E+00 -0.8483388248877E+00  0.0000000000000E+00
-0.9166516682694E+00 -0.7702459293638E+00  0.0000000000000E+00
-0.9221341273071E+00 -0.6919313063309E+00  0.0000000000000E+00
-0.9257007088365E+00 -0.6134384502728E+00  0.0000000000000E+00
-0.9271842428608E+00 -0.5348451464090E+00  0.0000000000000E+00
-0.9270438916883E+00 -0.4562482257846E+00  0.0000000000000E+00
-0.9210062292211E+00 -0.3783135855268E+00  0.0000000000000E+00
-0.9049353367833E+00 -0.3038998875393E+00  0.0000000000000E+00
-0.7506083067926E+00 -0.1693037687126E+01  0.0000000000000E+00
-0.7571515199521E+00 -0.1617768723708E+01  0.0000000000000E+00
-0.7648749989831E+00 -0.1542752680226E+01  0.0000000000000E+00
-0.7740887427956E+00 -0.1468120628396E+01  0.0000000000000E+00
-0.7852058104717E+00 -0.1394089580419E+01  0.0000000000000E+00
-0.7980044064311E+00 -0.1320666098610E+01  0.0000000000000E+00
-0.8107786500141E+00 -0.1247133403882E+01  0.0000000000000E+00
-0.8226238368907E+00 -0.1173130210103E+01  0.0000000000000E+00
-0.8334943702607E+00 -0.1098709293284E+01  0.0000000000000E+00
-0.8434082979516E+00 -0.1023953263733E+01  0.0000000000000E+00
-0.8522644890822E+00 -0.9489062298512E+00  0.0000000000000E+00
-0.8598671794387E+00 -0.8735890026696E+00  0.0000000000000E+00
-0.8661341583082E+00 -0.7980468372435E+00  0.0000000000000E+00
-0.8709622208482E+00 -0.7223184841673E+00  0.0000000000000E+00
-0.8741414024410E+00 -0.6464404446253E+00  0.0000000000000E+00
-0.8755356940038E+00 -0.5704778280057E+00  0.0000000000000E+00
-0.8755327355947E+00 -0.4945116259155E+00  0.0000000000000E+00
-0.8705766344891E+00 -0.4190969387318E+00  0.0000000000000E+00
-0.8572257238154E+00 -0.3466161543434E+00  0.0000000000000E+00
-0.7196546383067E+00 -0.1692660171955E+01  0.0000000000000E+00
-0.7249395845113E+00 -0.1619875942931E+01  0.0000000000000E+00
-0.7312092872703E+00 -0.1547294284722E+01  0.0000000000000E+00
-0.7387176645684E+00 -0.1475020253223E+01  0.0000000000000E+00
-0.7478015158933E+00 -0.1403227708788E+01  0.0000000000000E+00
-0.7582894102453E+00 -0.1331922263408E+01  0.0000000000000E+00
-0.7688206023893E+00 -0.1260530837814E+01  0.0000000000000E+00
-0.7786702325147E+00 -0.1188764710264E+01  0.0000000000000E+00
-0.7877917549782E+00 -0.1116666035064E+01  0.0000000000000E+00
-0.7961781085352E+00 -0.1044300324802E+01  0.0000000000000E+00
-0.8037182728390E+00 -0.9717018110512E+00  0.0000000000000E+00
-0.8102255208740E+00 -0.8988860875506E+00  0.0000000000000E+00
-0.8156125845540E+00 -0.8258887828474E+00  0.0000000000000E+00
-0.8197868318547E+00 -0.7527408304077E+00  0.0000000000000E+00
-0.8225791947468E+00 -0.6794717382122E+00  0.0000000000000E+00
-0.8238848250832E+00 -0.6061339395944E+00  0.0000000000000E+00
-0.8240198406246E+00 -0.5327925872182E+00  0.0000000000000E+00
-0.8201458810983E+00 -0.4598919938240E+00  0.0000000000000E+00
-0.8095155315770E+00 -0.3893382716925E+00  0.0000000000000E+00
-0.6886903565093E+00 -0.1692394296717E+01  0.0000000000000E+00
-0.6927175946182E+00 -0.1622088923663E+01  0.0000000000000E+00
-0.6975340799601E+00 -0.1551935772397E+01  0.0000000000000E+00
-0.7033376495840E+00 -0.1482013883113E+01  0.0000000000000E+00
-0.7103888433793E+00 -0.1412453964381E+01  0.0000000000000E+00
-0.7185665950094E+00 -0.1343260676984E+01  0.0000000000000E+00
-0.7268552945909E+00 -0.1274004642159E+01  0.0000000000000E+00
-0.7347099268254E+00 -0.1204469702582E+01  0.0000000000000E+00
-0.7420829972449E+00 -0.1134687390663E+01  0.0000000000000E+00
-0.7489423355285E+00 -0.1064706121319E+01  0.0000000000000E+00
-0.7551670318599E+00 -0.9945502493410E+00  0.0000000000000E+00
-0.7605793964204E+00 -0.9242301511863E+00  0.0000000000000E+00
-0.7650871037535E+00 -0.8537718288664E+00  0.0000000000000E+00
-0.7686080946470E+00 -0.7831983987784E+00  0.0000000000000E+00
-0.7710141976503E+00 -0.7125323757957E+00  0.0000000000000E+00
-0.7722317255725E+00 -0.6418135169728E+00  0.0000000000000E+00
-0.7725052738312E+00 -0.5710911365270E+00  0.0000000000000E+00
-0.7697140137222E+00 -0.5006987686882E+00  0.0000000000000E+00
-0.7618047823999E+00 -0.4320662485312E+00  0.0000000000000E+00
-0.6577158894649E+00 -0.1692240225162E+01  0.0000000000000E+00
-0.6604859557950E+00 -0.1624407821033E+01  0.0000000000000E+00
-0.6638497600319E+00 -0.1556677289756E+01  0.0000000000000E+00
-0.6679490582789E+00 -0.1489101655950E+01  0.0000000000000E+00
-0.6729681308228E+00 -0.1421768476460E+01  0.0000000000000E+00
-0.6788362760697E+00 -0.1354681459979E+01  0.0000000000000E+00
-0.6848830194189E+00 -0.1287554928934E+01  0.0000000000000E+00
-0.6907431900779E+00 -0.1220245290453E+01  0.0000000000000E+00
-0.6963683447720E+00 -0.1152773454854E+01  0.0000000000000E+00
-0.7017012040992E+00 -0.1085170739436E+01  0.0000000000000E+00
-0.7066109687703E+00 -0.1017451622250E+01  0.0000000000000E+00
-0.7109289861621E+00 -0.9496212624844E+00  0.0000000000000E+00
-0.7145578734505E+00 -0.8816960355872E+00  0.0000000000000E+00
-0.7174261442299E+00 -0.8136912409452E+00  0.0000000000000E+00
-0.7194465236187E+00 -0.7456224004210E+00  0.0000000000000E+00
-0.7205764854021E+00 -0.6775165945656E+00  0.0000000000000E+00
-0.7209891026108E+00 -0.6094072996466E+00  0.0000000000000E+00
-0.7192810772636E+00 -0.5415172805228E+00  0.0000000000000E+00
-0.7140934987308E+00 -0.4748000934607E+00  0.0000000000000E+00
-0.6267316673077E+00 -0.1692198114453E+01  0.0000000000000E+00
-0.6282450755248E+00 -0.1626832783928E+01  0.0000000000000E+00
-0.6301567123173E+00 -0.1561518977415E+01  0.0000000000000E+00
-0.6325522528331E+00 -0.1496283704073E+01  0.0000000000000E+00
-0.6355397177521E+00 -0.1431171369089E+01  0.0000000000000E+00
-0.6390987702994E+00 -0.1366184728180E+01  0.0000000000000E+00
-0.6429040710920E+00 -0.1301181805651E+01  0.0000000000000E+00
-0.6467702938377E+00 -0.1236091573113E+01  0.0000000000000E+00
-0.6506480464722E+00 -0.1170924318597E+01  0.0000000000000E+00
-0.6544549405083E+00 -0.1105694261838E+01  0.0000000000000E+00
-0.6580502871802E+00 -0.1040406004188E+01  0.0000000000000E+00
-0.6612744710591E+00 -0.9750594875815E+00  0.0000000000000E+00
-0.6640250519556E+00 -0.9096614608717E+00  0.0000000000000E+00
-0.6662411162656E+00 -0.8442194064959E+00  0.0000000000000E+00
-0.6678762856675E+00 -0.7787418534021E+00  0.0000000000000E+00
-0.6689191949418E+00 -0.7132432054128E+00  0.0000000000000E+00
-0.6694713946900E+00 -0.6477411013437E+00  0.0000000000000E+00
-0.6688471168461E+00 -0.5823475458340E+00  0.0000000000000E+00
-0.6663817031269E+00 -0.5175398147359E+00  0.0000000000000E+00
 0.6267316770671E+00 -0.1692198115309E+01  0.0000000000000E+00
 0.6282450842043E+00 -0.1626832784735E+01  0.0000000000000E+00
 0.6301567199257E+00 -0.1561518978170E+01  0.0000000000000E+00
 0.6325522593862E+00 -0.1496283704774E+01  0.0000000000000E+00
 0.6355397232755E+00 -0.1431171369731E+01  0.0000000000000E+00
 0.6390987748289E+00 -0.1366184728759E+01  0.0000000000000E+00
 0.6429040746811E+00 -0.1301181806162E+01  0.0000000000000E+00
 0.6467702965677E+00 -0.1236091573554E+01  0.0000000000000E+00
 0.6506480484535E+00 -0.1170924318967E+01  0.0000000000000E+00
 0.6544549418750E+00 -0.1105694262141E+01  0.0000000000000E+00
 0.6580502880753E+00 -0.1040406004428E+01  0.0000000000000E+00
 0.6612744716160E+00 -0.9750594877654E+00  0.0000000000000E+00
 0.6640250522846E+00 -0.9096614610038E+00  0.0000000000000E+00
 0.6662411164480E+00 -0.8442194065791E+00  0.0000000000000E+00
 0.6678762857589E+00 -0.7787418534389E+00  0.0000000000000E+00
 0.6689191949800E+00 -0.7132432054044E+00  0.0000000000000E+00
 0.6694713946944E+00 -0.6477411012908E+00  0.0000000000000E+00
 0.6688471167994E+00 -0.5823475457445E+00  0.0000000000000E+00
 0.6663817030200E+00 -0.5175398146315E+00  0.0000000000000E+00
 0.6577158987074E+00 -0.1692240226002E+01  0.0000000000000E+00
 0.6604859640163E+00 -0.1624407821814E+01  0.0000000000000E+00
 0.6638497672423E+00 -0.1556677290478E+01  0.0000000000000E+00
 0.6679490644955E+00 -0.1489101656609E+01  0.0000000000000E+00
 0.6729681360715E+00 -0.1421768477054E+01  0.0000000000000E+00
 0.6788362803826E+00 -0.1354681460503E+01  0.0000000000000E+00
 0.6848830228425E+00 -0.1287554929381E+01  0.0000000000000E+00
 0.6907431926874E+00 -0.1220245290822E+01  0.0000000000000E+00
 0.6963683466717E+00 -0.1152773455142E+01  0.0000000000000E+00
 0.7017012054155E+00 -0.1085170739648E+01  0.0000000000000E+00
 0.7066109696382E+00 -0.1017451622390E+01  0.0000000000000E+00
 0.7109289867072E+00 -0.9496212625587E+00  0.0000000000000E+00
 0.7145578737767E+00 -0.8816960355999E+00  0.0000000000000E+00
 0.7174261444133E+00 -0.8136912408991E+00  0.0000000000000E+00
 0.7194465237104E+00 -0.7456224003186E+00  0.0000000000000E+00
 0.7205764854380E+00 -0.6775165944084E+00  0.0000000000000E+00
 0.7209891026047E+00 -0.6094072994359E+00  0.0000000000000E+00
 0.7192810771664E+00 -0.5415172802740E+00  0.0000000000000E+00
 0.7140934985165E+00 -0.4748000932170E+00  0.0000000000000E+00
 0.6886903652351E+00 -0.1692394297536E+01  0.0000000000000E+00
 0.6927176023816E+00 -0.1622088924415E+01  0.0000000000000E+00
 0.6975340867727E+00 -0.1551935773080E+01  0.0000000000000E+00
 0.7033376554643E+00 -0.1482013883727E+01  0.0000000000000E+00
 0.7103888483534E+00 -0.1412453964924E+01  0.0000000000000E+00
 0.7185665991058E+00 -0.1343260677450E+01  0.0000000000000E+00
 0.7268552978490E+00 -0.1274004642540E+01  0.0000000000000E+00
 0.7347099293146E+00 -0.1204469702875E+01  0.0000000000000E+00
 0.7420829990631E+00 -0.1134687390868E+01  0.0000000000000E+00
 0.7489423367946E+00 -0.1064706121439E+01  0.0000000000000E+00
 0.7551670327006E+00 -0.9945502493794E+00  0.0000000000000E+00
 0.7605793969537E+00 -0.9242301511490E+00  0.0000000000000E+00
 0.7650871040769E+00 -0.8537718287581E+00  0.0000000000000E+00
 0.7686080948315E+00 -0.7831983986016E+00  0.0000000000000E+00
 0.7710141977424E+00 -0.7125323755530E+00  0.0000000000000E+00
 0.7722317256061E+00 -0.6418135166660E+00  0.0000000000000E+00
 0.7725052738146E+00 -0.5710911361576E+00  0.0000000000000E+00
 0.7697140135745E+00 -0.5006987682796E+00  0.0000000000000E+00
 0.7618047820783E+00 -0.4320662481480E+00  0.0000000000000E+00
 0.7196546465161E+00 -0.1692660172748E+01  0.0000000000000E+00
 0.7249395918170E+00 -0.1619875943648E+01  0.0000000000000E+00
 0.7312092936854E+00 -0.1547294285363E+01  0.0000000000000E+00
 0.7387176701125E+00 -0.1475020253788E+01  0.0000000000000E+00
 0.7478015205931E+00 -0.1403227709276E+01  0.0000000000000E+00
 0.7582894141255E+00 -0.1331922263812E+01  0.0000000000000E+00
 0.7688206054822E+00 -0.1260530838125E+01  0.0000000000000E+00
 0.7786702348837E+00 -0.1188764710478E+01  0.0000000000000E+00
 0.7877917567151E+00 -0.1116666035182E+01  0.0000000000000E+00
 0.7961781097513E+00 -0.1044300324826E+01  0.0000000000000E+00
 0.8037182736528E+00 -0.9717018109855E+00  0.0000000000000E+00
 0.8102255213957E+00 -0.8988860874001E+00  0.0000000000000E+00
 0.8156125848748E+00 -0.8258887826165E+00  0.0000000000000E+00
 0.8197868320404E+00 -0.7527408300988E+00  0.0000000000000E+00
 0.8225791948393E+00 -0.6794717378281E+00  0.0000000000000E+00
 0.8238848251146E+00 -0.6061339391370E+00  0.0000000000000E+00
 0.8240198405976E+00 -0.5327925866896E+00  0.0000000000000E+00
 0.8201458809002E+00 -0.4598919932551E+00  0.0000000000000E+00
 0.8095155311481E+00 -0.3893382711694E+00  0.0000000000000E+00
 0.7506083144858E+00 -0.1693037687890E+01  0.0000000000000E+00
 0.7571515268004E+00 -0.1617768724388E+01  0.0000000000000E+00
 0.7648750050008E+00 -0.1542752680822E+01  0.0000000000000E+00
 0.7740887480037E+00 -0.1468120628908E+01  0.0000000000000E+00
 0.7852058148974E+00 -0.1394089580847E+01  0.0000000000000E+00
 0.7980044100952E+00 -0.1320666098949E+01  0.0000000000000E+00
 0.8107786529419E+00 -0.1247133404121E+01  0.0000000000000E+00
 0.8226238391398E+00 -0.1173130210237E+01  0.0000000000000E+00
 0.8334943719163E+00 -0.1098709293313E+01  0.0000000000000E+00
 0.8434082991177E+00 -0.1023953263659E+01  0.0000000000000E+00
 0.8522644898690E+00 -0.9489062296793E+00  0.0000000000000E+00
 0.8598671799488E+00 -0.8735890024040E+00  0.0000000000000E+00
 0.8661341586265E+00 -0.7980468368884E+00  0.0000000000000E+00
 0.8709622210352E+00 -0.7223184837249E+00  0.0000000000000E+00
 0.8741414025340E+00 -0.6464404440986E+00  0.0000000000000E+00
 0.8755356940330E+00 -0.5704778273969E+00  0.0000000000000E+00
 0.8755327355573E+00 -0.4945116252270E+00  0.0000000000000E+00
 0.8705766342406E+00 -0.4190969380022E+00  0.0000000000000E+00
 0.8572257232791E+00 -0.3466161536803E+00  0.0000000000000E+00
 0.7815509432313E+00 -0.1693526672682E+01  0.0000000000000E+00
 0.7893530038481E+00 -0.1615767105320E+01  0.0000000000000E+00
 0.7985308396653E+00 -0.1538310807107E+01  0.0000000000000E+00
 0.8094505305145E+00 -0.1461314865704E+01  0.0000000000000E+00
 0.8226013950733E+00 -0.1385039445222E+01  0.0000000000000E+00
 0.8377112732565E+00 -0.1309492057412E+01  0.0000000000000E+00
 0.8527291489033E+00 -0.1233812224044E+01  0.0000000000000E+00
 0.8665704731897E+00 -0.1157566094634E+01  0.0000000000000E+00
 0.8791905982052E+00 -0.1080817066708E+01  0.0000000000000E+00
 0.8906326808624E+00 -0.1003664848353E+01  0.0000000000000E+00
 0.9008054797473E+00 -0.9261634248400E+00  0.0000000000000E+00
 0.9095041934393E+00 -0.8483388245051E+00  0.0000000000000E+00
 0.9166516685853E+00 -0.7702459288830E+00  0.0000000000000E+00
 0.9221341274954E+00 -0.6919313057536E+00  0.0000000000000E+00
 0.9257007089301E+00 -0.6134384496025E+00  0.0000000000000E+00
 0.9271842428878E+00 -0.5348451456479E+00  0.0000000000000E+00
 0.9270438916406E+00 -0.4562482249355E+00  0.0000000000000E+00
 0.9210062289222E+00 -0.3783135846360E+00  0.0000000000000E+00
 0.9049353361397E+00 -0.3038998867360E+00  0.0000000000000E+00
 0.8124820990011E+00 -0.1694126949326E+01  0.0000000000000E+00
 0.8215436119809E+00 -0.1613870918028E+01  0.0000000000000E+00
 0.8321764094502E+00 -0.1533968505178E+01  0.0000000000000E+00
 0.8448026521377E+00 -0.1454602814503E+01  0.0000000000000E+00
 0.8599879182983E+00 -0.1376077162078E+01  0.0000000000000E+00
 0.8774096834423E+00 -0.1298400008221E+01  0.0000000000000E+00
 0.8946717958622E+00 -0.1220567176258E+01  0.0000000000000E+00
 0.9105098622195E+00 -0.1142072251388E+01  0.0000000000000E+00
 0.9248801834856E+00 -0.1062989252451E+01  0.0000000000000E+00
 0.9378510256317E+00 -0.9834349853607E+00  0.0000000000000E+00
 0.9493410366997E+00 -0.9034733122990E+00  0.0000000000000E+00
 0.9591363780693E+00 -0.8231354789182E+00  0.0000000000000E+00
 0.9671649537677E+00 -0.7424859932034E+00  0.0000000000000E+00
 0.9733024132764E+00 -0.6615792401804E+00  0.0000000000000E+00
 0.9772569987510E+00 -0.5804657077303E+00  0.0000000000000E+00
 0.9788303793041E+00 -0.4992358566774E+00  0.0000000000000E+00
 0.9785532393974E+00 -0.4180023579992E+00  0.0000000000000E+00
 0.9714346184875E+00 -0.3375419147100E+00  0.0000000000000E+00
 0.9526443464158E+00 -0.2611894611816E+00  0.0000000000000E+00
 0.8434013664357E+00 -0.1694838335189E+01  0.0000000000000E+00
 0.8537229577554E+00 -0.1612079989481E+01  0.0000000000000E+00
 0.8658113428418E+00 -0.1529725611613E+01  0.0000000000000E+00
 0.8801447633080E+00 -0.1447984321494E+01  0.0000000000000E+00
 0.8973650569782E+00 -0.1367202587227E+01  0.0000000000000E+00
 0.9170993350532E+00 -0.1287389816818E+01  0.0000000000000E+00
 0.9366063102086E+00 -0.1207398135833E+01  0.0000000000000E+00
 0.9544417445893E+00 -0.1126648565190E+01  0.0000000000000E+00
 0.9705628880695E+00 -0.1045225744848E+01  0.0000000000000E+00
 0.9850631156734E+00 -0.9632635785991E+00  0.0000000000000E+00
 0.9978709648940E+00 -0.8808358055787E+00  0.0000000000000E+00
 0.1008763559910E+01 -0.7979788887677E+00  0.0000000000000E+00
 0.1017673862132E+01 -0.7147669625726E+00  0.0000000000000E+00
 0.1024466948207E+01 -0.6312622293241E+00  0.0000000000000E+00
 0.1028810163675E+01 -0.5475221703943E+00  0.0000000000000E+00
 0.1030474016787E+01 -0.4636499219902E+00  0.0000000000000E+00
 0.1030060714142E+01 -0.3797739955145E+00  0.0000000000000E+00
 0.1021861759954E+01 -0.2967819089046E+00  0.0000000000000E+00
 0.1000352732676E+01 -0.2184848673123E+00  0.0000000000000E+00
 0.8743083292160E+00 -0.1695660641007E+01  0.0000000000000E+00
 0.8858906467958E+00 -0.1610394140375E+01  0.0000000000000E+00
 0.8994352674149E+00 -0.1525581957067E+01  0.0000000000000E+00
 0.9154765135586E+00 -0.1441459227297E+01  0.0000000000000E+00
 0.9347324826162E+00 -0.1358415571256E+01  0.0000000000000E+00
 0.9567799215746E+00 -0.1276461343761E+01  0.0000000000000E+00
 0.9785324074072E+00 -0.1194304973301E+01  0.0000000000000E+00
 0.9983658577340E+00 -0.1111294916539E+01  0.0000000000000E+00
 0.1016238471353E+01 -0.1027526434362E+01  0.0000000000000E+00
 0.1032268732337E+01 -0.9431505284951E+00  0.0000000000000E+00
 0.1046395067625E+01 -0.8582508150666E+00  0.0000000000000E+00
 0.1058385564193E+01 -0.7728689743992E+00  0.0000000000000E+00
 0.1068178240839E+01 -0.6870887672930E+00  0.0000000000000E+00
 0.1075627601367E+01 -0.6009802134425E+00  0.0000000000000E+00
 0.1080360094693E+01 -0.5146077878065E+00  0.0000000000000E+00
 0.1082115068229E+01 -0.4280873017517E+00  0.0000000000000E+00
 0.1081566250656E+01 -0.3415631075997E+00  0.0000000000000E+00
 0.1072287609923E+01 -0.2560335472787E+00  0.0000000000000E+00
 0.1048060473251E+01 -0.1757860951357E+00  0.0000000000000E+00
 0.9052025707781E+00 -0.1696593670959E+01  0.0000000000000E+00
 0.9180462844761E+00 -0.1608813185199E+01  0.0000000000000E+00
 0.9330478104822E+00 -0.1521537366339E+01  0.0000000000000E+00
 0.9507975521418E+00 -0.1435027367020E+01  0.0000000000000E+00
 0.9720898664051E+00 -0.1349715959582E+01  0.0000000000000E+00
 0.9964511361435E+00 -0.1265614444782E+01  0.0000000000000E+00
 0.1020449802539E+01 -0.1181287554705E+01  0.0000000000000E+00
 0.1042281938676E+01 -0.1096011181789E+01  0.0000000000000E+00
 0.1061906692299E+01 -0.1009891207660E+01  0.0000000000000E+00
 0.1079467656524E+01 -0.9230957320237E+00  0.0000000000000E+00
 0.1094913147732E+01 -0.8357182480476E+00  0.0000000000000E+00
 0.1108002215695E+01 -0.7478056534076E+00  0.0000000000000E+00
 0.1118677936601E+01 -0.6594513352690E+00  0.0000000000000E+00
 0.1126784241405E+01 -0.5707331307489E+00  0.0000000000000E+00
 0.1131906682383E+01 -0.4817225084889E+00  0.0000000000000E+00
 0.1133753446136E+01 -0.3925479547930E+00  0.0000000000000E+00
 0.1133069783374E+01 -0.3033696633937E+00  0.0000000000000E+00
 0.1122712124713E+01 -0.2152968092632E+00  0.0000000000000E+00
 0.1095767546307E+01 -0.1330931343643E+00  0.0000000000000E+00
 0.9360836771012E+00 -0.1697637222998E+01  0.0000000000000E+00
 0.9501894785799E+00 -0.1607336932545E+01  0.0000000000000E+00
 0.9666486016325E+00 -0.1517591658659E+01  0.0000000000000E+00
 0.9861075304526E+00 -0.1428688570531E+01  0.0000000000000E+00
 0.1009436881547E+01 -0.1341103592713E+01  0.0000000000000E+00
 0.1036112673774E+01 -0.1254848971027E+01  0.0000000000000E+00
 0.1062358212428E+01 -0.1168345741829E+01  0.0000000000000E+00
 0.1086189726049E+01 -0.1080797233366E+01  0.0000000000000E+00
 0.1107567311349E+01 -0.9923199478029E+00  0.0000000000000E+00
 0.1126659670482E+01 -0.9030990828862E+00  0.0000000000000E+00
 0.1143425009267E+01 -0.8132380088607E+00  0.0000000000000E+00
 0.1157613340271E+01 -0.7227888407692E+00  0.0000000000000E+00
 0.1169172797073E+01 -0.6318545921137E+00  0.0000000000000E+00
 0.1177936737775E+01 -0.5405209174934E+00  0.0000000000000E+00
 0.1183449817999E+01 -0.4488662793275E+00  0.0000000000000E+00
 0.1185389063559E+01 -0.3570318386362E+00  0.0000000000000E+00
 0.1184571247138E+01 -0.2651936310542E+00  0.0000000000000E+00
 0.1173135260919E+01 -0.1745716736346E+00  0.0000000000000E+00
 0.1143473930147E+01 -0.9040597438278E-01  0.0000000000000E+00
 0.9669512274189E+00 -0.1698791087767E+01  0.0000000000000E+00
 0.9823198304356E+00 -0.1605965184095E+01  0.0000000000000E+00
 0.1000237264269E+01 -0.1513744646745E+01  0.0000000000000E+00
 0.1021406093943E+01 -0.1422442661578E+01  0.0000000000000E+00
 0.1046773195509E+01 -0.1332578305411E+01  0.0000000000000E+00
 0.1075764223922E+01 -0.1244164768264E+01  0.0000000000000E+00
 0.1104257348526E+01 -0.1155479391450E+01  0.0000000000000E+00
 0.1130088953323E+01 -0.1065652939060E+01  0.0000000000000E+00
 0.1153220084018E+01 -0.9748125336096E+00  0.0000000000000E+00
 0.1173844551794E+01 -0.8831604709323E+00  0.0000000000000E+00
 0.1191930451903E+01 -0.7908099983938E+00  0.0000000000000E+00
 0.1207218759703E+01 -0.6978184484149E+00  0.0000000000000E+00
 0.1219662666172E+01 -0.6042984608059E+00  0.0000000000000E+00
 0.1229084956548E+01 -0.5103435077058E+00  0.0000000000000E+00
 0.1234989389793E+01 -0.4160390454063E+00  0.0000000000000E+00
 0.1237021830960E+01 -0.3215389094206E+00  0.0000000000000E+00
 0.1236070574644E+01 -0.2270349777752E+00  0.0000000000000E+00
 0.1223556973529E+01 -0.1338581186130E+00  0.0000000000000E+00
 0.1191179602188E+01 -0.4772460436371E-01  0.0000000000000E+00
 0.9978048126931E+00 -0.1700055050828E+01  0.0000000000000E+00
 0.1014436952546E+01 -0.1604697736702E+01  0.0000000000000E+00
 0.1033813432435E+01 -0.1509996138743E+01  0.0000000000000E+00
 0.1056692898198E+01 -0.1416289459594E+01  0.0000000000000E+00
 0.1084098485417E+01 -0.1324139928402E+01  0.0000000000000E+00
 0.1115405485257E+01 -0.1233561678510E+01  0.0000000000000E+00
 0.1146146931048E+01 -0.1142688356877E+01  0.0000000000000E+00
 0.1173979362256E+01 -0.1050578163472E+01  0.0000000000000E+00
 0.1198864773607E+01 -0.9573688409702E+00  0.0000000000000E+00
 0.1221022085302E+01 -0.8632797833433E+00  0.0000000000000E+00
 0.1240429282021E+01 -0.7684341151186E+00  0.0000000000000E+00
 0.1256818301914E+01 -0.6728943861069E+00  0.0000000000000E+00
 0.1270147393358E+01 -0.5767828623979E+00  0.0000000000000E+00
 0.1280228768722E+01 -0.4802008337283E+00  0.0000000000000E+00
 0.1286525290297E+01 -0.3832407503566E+00  0.0000000000000E+00
 0.1288651662409E+01 -0.2860691220672E+00  0.0000000000000E+00
 0.1287567701494E+01 -0.1888936697665E+00  0.0000000000000E+00
 0.1273977219637E+01 -0.9315612167893E-01  0.0000000000000E+00
 0.1238884540982E+01 -0.5049013045556E-02  0.0000000000000E+00
 0.1028644034966E+01 -0.1701428892817E+01  0.0000000000000E+00
 0.1046540467967E+01 -0.1603534382536E+01  0.0000000000000E+00
 0.1067376750223E+01 -0.1506345938358E+01  0.0000000000000E+00
 0.1091967608368E+01 -0.1410228779832E+01  0.0000000000000E+00
 0.1121412437513E+01 -0.1315788288493E+01  0.0000000000000E+00
 0.1155036165145E+01 -0.1223039540143E+01  0.0000000000000E+00
 0.1188026688472E+01 -0.1129972488054E+01  0.0000000000000E+00
 0.1217860702418E+01 -0.1035572768105E+01  0.0000000000000E+00
 0.1244501150748E+01 -0.9399887429363E+00  0.0000000000000E+00
 0.1268192062681E+01 -0.8434569047128E+00  0.0000000000000E+00
 0.1288921312318E+01 -0.7461102551647E+00  0.0000000000000E+00
 0.1306411800597E+01 -0.6480165615055E+00  0.0000000000000E+00
 0.1320626833301E+01 -0.5493077160762E+00  0.0000000000000E+00
 0.1331368049922E+01 -0.4500928262700E+00  0.0000000000000E+00
 0.1338057416065E+01 -0.3504713364071E+00  0.0000000000000E+00
 0.1340278475353E+01 -0.2506224303227E+00  0.0000000000000E+00
 0.1339062566007E+01 -0.1507696722917E+00  0.0000000000000E+00
 0.1324395958307E+01 -0.5246565960526E-01  0.0000000000000E+00
 0.1286588726141E+01  0.3762081124632E-01  0.0000000000000E+00
 0.1059468491065E+01 -0.1702912387465E+01  0.0000000000000E+00
 0.1078629994763E+01 -0.1602474907241E+01  0.0000000000000E+00
 0.1100926856931E+01 -0.1502793843147E+01  0.0000000000000E+00
 0.1127229884989E+01 -0.1404260431761E+01  0.0000000000000E+00
 0.1158714733573E+01 -0.1307523207068E+01  0.0000000000000E+00
 0.1194655966603E+01 -0.1212598186461E+01  0.0000000000000E+00
 0.1229896345061E+01 -0.1117331630195E+01  0.0000000000000E+00
 0.1261732719309E+01 -0.1020636610086E+01  0.0000000000000E+00
 0.1290128982182E+01 -0.9226721085503E+00  0.0000000000000E+00
 0.1315354271908E+01 -0.8236917159966E+00  0.0000000000000E+00
 0.1337406352004E+01 -0.7238383114011E+00  0.0000000000000E+00
 0.1355999086198E+01 -0.6231848793920E+00  0.0000000000000E+00
 0.1371100837678E+01 -0.5218729385342E+00  0.0000000000000E+00
 0.1382502673051E+01 -0.4200194139358E+00  0.0000000000000E+00
 0.1389585661224E+01 -0.3177307440737E+00  0.0000000000000E+00
 0.1391902185146E+01 -0.2151987866139E+00  0.0000000000000E+00
 0.1390555104757E+01 -0.1126629496880E+00  0.0000000000000E+00
 0.1374813147288E+01 -0.1178670862095E-01  0.0000000000000E+00
 0.1334292136548E+01  0.8028488040208E-01  0.0000000000000E+00
 0.1090277780720E+01 -0.1704505302632E+01  0.0000000000000E+00
 0.1110705153744E+01 -0.1601519090897E+01  0.0000000000000E+00
 0.1134463394454E+01 -0.1499339645413E+01  0.0000000000000E+00
 0.1162479391042E+01 -0.1398384219907E+01  0.0000000000000E+00
 0.1196005057665E+01 -0.1299344500874E+01  0.0000000000000E+00
 0.1234264594794E+01 -0.1202237446439E+01  0.0000000000000E+00
 0.1271755627067E+01 -0.1104765624500E+01  0.0000000000000E+00
 0.1305595160272E+01 -0.1005769542839E+01  0.0000000000000E+00
 0.1335748036337E+01 -0.9054188034578E+00  0.0000000000000E+00
 0.1362508502496E+01 -0.8039840950629E+00  0.0000000000000E+00
 0.1385884211676E+01 -0.7016181739175E+00  0.0000000000000E+00
 0.1405579990391E+01 -0.5983992420775E+00  0.0000000000000E+00
 0.1421569259242E+01 -0.4944784443039E+00  0.0000000000000E+00
 0.1433632511940E+01 -0.3899805234782E+00  0.0000000000000E+00
 0.1441109920678E+01 -0.2850189123287E+00  0.0000000000000E+00
 0.1443522707758E+01 -0.1797981421330E+00  0.0000000000000E+00
 0.1442045254780E+01 -0.7457346536650E-01  0.0000000000000E+00
 0.1425228744639E+01  0.2888075566284E-01  0.0000000000000E+00
 0.1381994751242E+01  0.1229432066213E+00  0.0000000000000E+00
 0.1121071483195E+01 -0.1706207397020E+01  0.0000000000000E+00
 0.1142765546172E+01 -0.1600666704959E+01  0.0000000000000E+00
 0.1167985985999E+01 -0.1495983129350E+01  0.0000000000000E+00
 0.1197715771612E+01 -0.1392599941181E+01  0.0000000000000E+00
 0.1233283076667E+01 -0.1291251979511E+01  0.0000000000000E+00
 0.1273861738317E+01 -0.1191957142331E+01  0.0000000000000E+00
 0.1313604244830E+01 -0.1092274305885E+01  0.0000000000000E+00
 0.1349447757450E+01 -0.9909714139681E+00  0.0000000000000E+00
 0.1381358067225E+01 -0.8882286879731E+00  0.0000000000000E+00
 0.1409654530383E+01 -0.7843339149532E+00  0.0000000000000E+00
 0.1434354689253E+01 -0.6794497284982E+00  0.0000000000000E+00
 0.1455154333136E+01 -0.5736595481023E+00  0.0000000000000E+00
 0.1472031940047E+01 -0.4671241446931E+00  0.0000000000000E+00
 0.1484757430797E+01 -0.3599760789818E+00  0.0000000000000E+00
 0.1492630080857E+01 -0.2523357780405E+00  0.0000000000000E+00
 0.1495139951924E+01 -0.1444204465366E+00  0.0000000000000E+00
 0.1493532947170E+01 -0.3650118177095E-01  0.0000000000000E+00
 0.1475642704025E+01  0.6953675806361E-01  0.0000000000000E+00
 0.1429696546851E+01  0.1655958021522E+00  0.0000000000000E+00
 0.1151849225537E+01 -0.1708018429846E+01  0.0000000000000E+00
 0.1174810818886E+01 -0.1599917521276E+01  0.0000000000000E+00
 0.1201494298248E+01 -0.1492724079452E+01  0.0000000000000E+00
 0.1232938713290E+01 -0.1386907392741E+01  0.0000000000000E+00
 0.1270548497160E+01 -0.1283245452831E+01  0.0000000000000E+00
 0.1313447123819E+01 -0.1181757096718E+01  0.0000000000000E+00
 0.1355441945044E+01 -0.1079857509653E+01  0.0000000000000E+00
 0.1393290277519E+01 -0.9762420714703E+00  0.0000000000000E+00
 0.1426958861442E+01 -0.8711016227676E+00  0.0000000000000E+00
 0.1456792162028E+01 -0.7647410489956E+00  0.0000000000000E+00
 0.1482817611003E+01 -0.6573328611127E+00  0.0000000000000E+00
 0.1504721960451E+01 -0.5489656960643E+00  0.0000000000000E+00
 0.1522488745806E+01 -0.4398099509165E+00  0.0000000000000E+00
 0.1535877314972E+01 -0.3300060042687E+00  0.0000000000000E+00
 0.1544146046680E+01 -0.2196812776312E+00  0.0000000000000E+00
 0.1546753842050E+01 -0.1090656488427E+00  0.0000000000000E+00
 0.1545018125764E+01  0.1553939485621E-02  0.0000000000000E+00
 0.1526054988436E+01  0.1101813243664E+00  0.0000000000000E+00
 0.1477397505075E+01  0.2082426800443E+00  0.0000000000000E+00
 0.1182610616693E+01 -0.1709938151813E+01  0.0000000000000E+00
 0.1206840601434E+01 -0.1599271303676E+01  0.0000000000000E+00
 0.1234987981351E+01 -0.1489562272670E+01  0.0000000000000E+00
 0.1268147886829E+01 -0.1381306364667E+01  0.0000000000000E+00
 0.1307801010505E+01 -0.1275324724039E+01  0.0000000000000E+00
 0.1353020463274E+01 -0.1171637125933E+01  0.0000000000000E+00
 0.1397268460295E+01 -0.1067515065265E+01  0.0000000000000E+00
 0.1437122473674E+01 -0.9615813579356E+00  0.0000000000000E+00
 0.1472550192790E+01 -0.8540374635575E+00  0.0000000000000E+00
 0.1503921191834E+01 -0.7452053660319E+00  0.0000000000000E+00
 0.1531272791928E+01 -0.6352674537278E+00  0.0000000000000E+00
 0.1554282707934E+01 -0.5243175810539E+00  0.0000000000000E+00
 0.1572939532713E+01 -0.4125357711880E+00  0.0000000000000E+00
 0.1586992041247E+01 -0.3000702206755E+00  0.0000000000000E+00
 0.1595657715515E+01 -0.1870553455593E+00  0.0000000000000E+00
 0.1598364296089E+01 -0.7373369663145E-01  0.0000000000000E+00
 0.1596500729092E+01  0.3959193770200E-01  0.0000000000000E+00
 0.1576465556935E+01  0.1508144807688E+00  0.0000000000000E+00
 0.1525097605457E+01  0.2508838534040E+00  0.0000000000000E+00
-0.6299559715430E+00 -0.4448788635045E+00  0.0000000000000E+00
-0.6714480734955E+00 -0.4002935756204E+00  0.0000000000000E+00
-0.7129401754481E+00 -0.3557082877364E+00  0.0000000000000E+00
-0.7544322774006E+00 -0.3111229998524E+00  0.0000000000000E+00
-0.7959243793531E+00 -0.2665377119684E+00  0.0000000000000E+00
-0.8374164813057E+00 -0.2219524240844E+00  0.0000000000000E+00
-0.8789085832582E+00 -0.1773671362004E+00  0.0000000000000E+00
-0.9204006852108E+00 -0.1327818483163E+00  0.0000000000000E+00
-0.9618927871633E+00 -0.8819656043232E-01  0.0000000000000E+00
-0.1003384889116E+01 -0.4361127254831E-01  0.0000000000000E+00
-0.1044876991068E+01  0.9740153357094E-03  0.0000000000000E+00
-0.1086369093021E+01  0.4555930321973E-01  0.0000000000000E+00
-0.1127861194973E+01  0.9014459110374E-01  0.0000000000000E+00
-0.1169353296926E+01  0.1347298789878E+00  0.0000000000000E+00
-0.1210845398879E+01  0.1793151668718E+00  0.0000000000000E+00
-0.1252337500831E+01  0.2239004547558E+00  0.0000000000000E+00
-0.1293829602784E+01  0.2684857426398E+00  0.0000000000000E+00
-0.1335321704736E+01  0.3130710305238E+00  0.0000000000000E+00
-0.1376813806689E+01  0.3576563184078E+00  0.0000000000000E+00
-0.5974622415961E+00 -0.4366441451899E+00  0.0000000000000E+00
-0.6368419585758E+00 -0.3913664749580E+00  0.0000000000000E+00
-0.6762216755556E+00 -0.3460888047261E+00  0.0000000000000E+00
-0.7156013925353E+00 -0.3008111344942E+00  0.0000000000000E+00
-0.7549811095150E+00 -0.2555334642623E+00  0.0000000000000E+00
-0.7943608264947E+00 -0.2102557940303E+00  0.0000000000000E+00
-0.8337405434744E+00 -0.1649781237984E+00  0.0000000000000E+00
-0.8731202604541E+00 -0.1197004535665E+00  0.0000000000000E+00
-0.9124999774338E+00 -0.7442278333461E-01  0.0000000000000E+00
-0.9518796944135E+00 -0.2914511310269E-01  0.0000000000000E+00
-0.9912594113932E+00  0.1613255712922E-01  0.0000000000000E+00
-0.1030639128373E+01  0.6141022736114E-01  0.0000000000000E+00
-0.1070018845353E+01  0.1066878975930E+00  0.0000000000000E+00
-0.1109398562332E+01  0.1519655678250E+00  0.0000000000000E+00
-0.1148778279312E+01  0.1972432380569E+00  0.0000000000000E+00
-0.1188157996292E+01  0.2425209082888E+00  0.0000000000000E+00
-0.1227537713272E+01  0.2877985785207E+00  0.0000000000000E+00
-0.1266917430251E+01  0.3330762487526E+00  0.0000000000000E+00
-0.1306297147231E+01  0.3783539189845E+00  0.0000000000000E+00
-0.5647851637629E+00 -0.4291779471807E+00  0.0000000000000E+00
-0.6019607642087E+00 -0.3835976335802E+00  0.0000000000000E+00
-0.6391363646544E+00 -0.3380173199797E+00  0.0000000000000E+00
-0.6763119651002E+00 -0.2924370063792E+00  0.0000000000000E+00
-0.7134875655459E+00 -0.2468566927788E+00  0.0000000000000E+00
-0.7506631659917E+00 -0.2012763791783E+00  0.0000000000000E+00
-0.7878387664375E+00 -0.1556960655778E+00  0.0000000000000E+00
-0.8250143668832E+00 -0.1101157519773E+00  0.0000000000000E+00
-0.8621899673290E+00 -0.6453543837680E-01  0.0000000000000E+00
-0.8993655677748E+00 -0.1895512477632E-01  0.0000000000000E+00
-0.9365411682205E+00  0.2662518882417E-01  0.0000000000000E+00
-0.9737167686663E+00  0.7220550242466E-01  0.0000000000000E+00
-0.1010892369112E+01  0.1177858160251E+00  0.0000000000000E+00
-0.1048067969558E+01  0.1633661296256E+00  0.0000000000000E+00
-0.1085243570004E+01  0.2089464432261E+00  0.0000000000000E+00
-0.1122419170449E+01  0.2545267568266E+00  0.0000000000000E+00
-0.1159594770895E+01  0.3001070704271E+00  0.0000000000000E+00
-0.1196770371341E+01  0.3456873840276E+00  0.0000000000000E+00
-0.1233945971787E+01  0.3912676976281E+00  0.0000000000000E+00
-0.5319747863850E+00 -0.4224941396796E+00  0.0000000000000E+00
-0.5669005038771E+00 -0.3770102860137E+00  0.0000000000000E+00
-0.6018262213692E+00 -0.3315264323477E+00  0.0000000000000E+00
-0.6367519388613E+00 -0.2860425786818E+00  0.0000000000000E+00
-0.6716776563534E+00 -0.2405587250158E+00  0.0000000000000E+00
-0.7066033738455E+00 -0.1950748713499E+00  0.0000000000000E+00
-0.7415290913375E+00 -0.1495910176839E+00  0.0000000000000E+00
-0.7764548088296E+00 -0.1041071640180E+00  0.0000000000000E+00
-0.8113805263217E+00 -0.5862331035200E-01  0.0000000000000E+00
-0.8463062438138E+00 -0.1313945668605E-01  0.0000000000000E+00
-0.8812319613059E+00  0.3234439697990E-01  0.0000000000000E+00
-0.9161576787979E+00  0.7782825064585E-01  0.0000000000000E+00
-0.9510833962900E+00  0.1233121043118E+00  0.0000000000000E+00
-0.9860091137821E+00  0.1687959579778E+00  0.0000000000000E+00
-0.1020934831274E+01  0.2142798116437E+00  0.0000000000000E+00
-0.1055860548766E+01  0.2597636653097E+00  0.0000000000000E+00
-0.1090786266258E+01  0.3052475189756E+00  0.0000000000000E+00
-0.1125711983750E+01  0.3507313726416E+00  0.0000000000000E+00
-0.1160637701243E+01  0.3962152263075E+00  0.0000000000000E+00
-0.4990802666255E+00 -0.4165840327232E+00  0.0000000000000E+00
-0.5317553219230E+00 -0.3715827348048E+00  0.0000000000000E+00
-0.5644303772205E+00 -0.3265814368864E+00  0.0000000000000E+00
-0.5971054325179E+00 -0.2815801389680E+00  0.0000000000000E+00
-0.6297804878154E+00 -0.2365788410496E+00  0.0000000000000E+00
-0.6624555431129E+00 -0.1915775431312E+00  0.0000000000000E+00
-0.6951305984104E+00 -0.1465762452128E+00  0.0000000000000E+00
-0.7278056537078E+00 -0.1015749472944E+00  0.0000000000000E+00
-0.7604807090053E+00 -0.5657364937598E-01  0.0000000000000E+00
-0.7931557643028E+00 -0.1157235145757E-01  0.0000000000000E+00
-0.8258308196003E+00  0.3342894646083E-01  0.0000000000000E+00
-0.8585058748978E+00  0.7843024437923E-01  0.0000000000000E+00
-0.8911809301952E+00  0.1234315422976E+00  0.0000000000000E+00
-0.9238559854927E+00  0.1684328402160E+00  0.0000000000000E+00
-0.9565310407902E+00  0.2134341381344E+00  0.0000000000000E+00
-0.9892060960877E+00  0.2584354360528E+00  0.0000000000000E+00
-0.1021881151385E+01  0.3034367339713E+00  0.0000000000000E+00
-0.1054556206683E+01  0.3484380318897E+00  0.0000000000000E+00
-0.1087231261980E+01  0.3934393298081E+00  0.0000000000000E+00
-0.4661358894282E+00 -0.4113546120754E+00  0.0000000000000E+00
-0.4965895947067E+00 -0.3671248415236E+00  0.0000000000000E+00
-0.5270432999851E+00 -0.3228950709718E+00  0.0000000000000E+00
-0.5574970052636E+00 -0.2786653004201E+00  0.0000000000000E+00
-0.5879507105420E+00 -0.2344355298683E+00  0.0000000000000E+00
-0.6184044158205E+00 -0.1902057593165E+00  0.0000000000000E+00
-0.6488581210989E+00 -0.1459759887648E+00  0.0000000000000E+00
-0.6793118263774E+00 -0.1017462182130E+00  0.0000000000000E+00
-0.7097655316558E+00 -0.5751644766124E-01  0.0000000000000E+00
-0.7402192369343E+00 -0.1328667710947E-01  0.0000000000000E+00
-0.7706729422127E+00  0.3094309344230E-01  0.0000000000000E+00
-0.8011266474912E+00  0.7517286399407E-01  0.0000000000000E+00
-0.8315803527696E+00  0.1194026345458E+00  0.0000000000000E+00
-0.8620340580481E+00  0.1636324050976E+00  0.0000000000000E+00
-0.8924877633265E+00  0.2078621756494E+00  0.0000000000000E+00
-0.9229414686050E+00  0.2520919462011E+00  0.0000000000000E+00
-0.9533951738834E+00  0.2963217167529E+00  0.0000000000000E+00
-0.9838488791619E+00  0.3405514873047E+00  0.0000000000000E+00
-0.1014302584440E+01  0.3847812578564E+00  0.0000000000000E+00
-0.4331566793992E+00 -0.4067328540872E+00  0.0000000000000E+00
-0.4614288249452E+00 -0.3634866017615E+00  0.0000000000000E+00
-0.4897009704912E+00 -0.3202403494357E+00  0.0000000000000E+00
-0.5179731160371E+00 -0.2769940971100E+00  0.0000000000000E+00
-0.5462452615831E+00 -0.2337478447842E+00  0.0000000000000E+00
-0.5745174071291E+00 -0.1905015924585E+00  0.0000000000000E+00
-0.6027895526750E+00 -0.1472553401327E+00  0.0000000000000E+00
-0.6310616982210E+00 -0.1040090878070E+00  0.0000000000000E+00
-0.6593338437670E+00 -0.6076283548125E-01  0.0000000000000E+00
-0.6876059893129E+00 -0.1751658315551E-01  0.0000000000000E+00
-0.7158781348589E+00  0.2572966917024E-01  0.0000000000000E+00
-0.7441502804048E+00  0.6897592149599E-01  0.0000000000000E+00
-0.7724224259508E+00  0.1122221738217E+00  0.0000000000000E+00
-0.8006945714968E+00  0.1554684261475E+00  0.0000000000000E+00
-0.8289667170427E+00  0.1987146784732E+00  0.0000000000000E+00
-0.8572388625887E+00  0.2419609307990E+00  0.0000000000000E+00
-0.8855110081347E+00  0.2852071831247E+00  0.0000000000000E+00
-0.9137831536806E+00  0.3284534354505E+00  0.0000000000000E+00
-0.9420552992266E+00  0.3716996877762E+00  0.0000000000000E+00
-0.4001452660089E+00 -0.4026538267990E+00  0.0000000000000E+00
-0.4262736922835E+00 -0.3605344241827E+00  0.0000000000000E+00
-0.4524021185581E+00 -0.3184150215665E+00  0.0000000000000E+00
-0.4785305448327E+00 -0.2762956189502E+00  0.0000000000000E+00
-0.5046589711073E+00 -0.2341762163340E+00  0.0000000000000E+00
-0.5307873973819E+00 -0.1920568137177E+00  0.0000000000000E+00
-0.5569158236565E+00 -0.1499374111015E+00  0.0000000000000E+00
-0.5830442499311E+00 -0.1078180084852E+00  0.0000000000000E+00
-0.6091726762057E+00 -0.6569860586900E-01  0.0000000000000E+00
-0.6353011024803E+00 -0.2357920325275E-01  0.0000000000000E+00
-0.6614295287548E+00  0.1854019936350E-01  0.0000000000000E+00
-0.6875579550294E+00  0.6065960197974E-01  0.0000000000000E+00
-0.7136863813040E+00  0.1027790045960E+00  0.0000000000000E+00
-0.7398148075786E+00  0.1448984072122E+00  0.0000000000000E+00
-0.7659432338532E+00  0.1870178098285E+00  0.0000000000000E+00
-0.7920716601278E+00  0.2291372124447E+00  0.0000000000000E+00
-0.8182000864024E+00  0.2712566150610E+00  0.0000000000000E+00
-0.8443285126770E+00  0.3133760176772E+00  0.0000000000000E+00
-0.8704569389516E+00  0.3554954202935E+00  0.0000000000000E+00
-0.3670941282270E+00 -0.3990479117006E+00  0.0000000000000E+00
-0.3911043433766E+00 -0.3581255480735E+00  0.0000000000000E+00
-0.4151145585263E+00 -0.3172031844463E+00  0.0000000000000E+00
-0.4391247736759E+00 -0.2762808208192E+00  0.0000000000000E+00
-0.4631349888256E+00 -0.2353584571920E+00  0.0000000000000E+00
-0.4871452039753E+00 -0.1944360935648E+00  0.0000000000000E+00
-0.5111554191249E+00 -0.1535137299377E+00  0.0000000000000E+00
-0.5351656342746E+00 -0.1125913663105E+00  0.0000000000000E+00
-0.5591758494243E+00 -0.7166900268338E-01  0.0000000000000E+00
-0.5831860645739E+00 -0.3074663905622E-01  0.0000000000000E+00
-0.6071962797236E+00  0.1017572457094E-01  0.0000000000000E+00
-0.6312064948732E+00  0.5109808819809E-01  0.0000000000000E+00
-0.6552167100229E+00  0.9202045182525E-01  0.0000000000000E+00
-0.6792269251726E+00  0.1329428154524E+00  0.0000000000000E+00
-0.7032371403222E+00  0.1738651790796E+00  0.0000000000000E+00
-0.7272473554719E+00  0.2147875427067E+00  0.0000000000000E+00
-0.7512575706216E+00  0.2557099063339E+00  0.0000000000000E+00
-0.7752677857712E+00  0.2966322699610E+00  0.0000000000000E+00
-0.7992780009209E+00  0.3375546335882E+00  0.0000000000000E+00
-0.3339899907783E+00 -0.3958444358955E+00  0.0000000000000E+00
-0.3558893495395E+00 -0.3561153468993E+00  0.0000000000000E+00
-0.3777887083006E+00 -0.3163862579032E+00  0.0000000000000E+00
-0.3996880670618E+00 -0.2766571689070E+00  0.0000000000000E+00
-0.4215874258230E+00 -0.2369280799109E+00  0.0000000000000E+00
-0.4434867845841E+00 -0.1971989909147E+00  0.0000000000000E+00
-0.4653861433453E+00 -0.1574699019185E+00  0.0000000000000E+00
-0.4872855021064E+00 -0.1177408129224E+00  0.0000000000000E+00
-0.5091848608676E+00 -0.7801172392620E-01  0.0000000000000E+00
-0.5310842196287E+00 -0.3828263493003E-01  0.0000000000000E+00
-0.5529835783899E+00  0.1446454066132E-02  0.0000000000000E+00
-0.5748829371510E+00  0.4117554306230E-01  0.0000000000000E+00
-0.5967822959122E+00  0.8090463205846E-01  0.0000000000000E+00
-0.6186816546733E+00  0.1206337210546E+00  0.0000000000000E+00
-0.6405810134345E+00  0.1603628100508E+00  0.0000000000000E+00
-0.6624803721956E+00  0.2000918990470E+00  0.0000000000000E+00
-0.6843797309568E+00  0.2398209880431E+00  0.0000000000000E+00
-0.7062790897179E+00  0.2795500770393E+00  0.0000000000000E+00
-0.7281784484791E+00  0.3192791660354E+00  0.0000000000000E+00
-0.3008163579508E+00 -0.3929631427710E+00  0.0000000000000E+00
-0.3205906658870E+00 -0.3543402622484E+00  0.0000000000000E+00
-0.3403649738232E+00 -0.3157173817257E+00  0.0000000000000E+00
-0.3601392817595E+00 -0.2770945012030E+00  0.0000000000000E+00
-0.3799135896957E+00 -0.2384716206803E+00  0.0000000000000E+00
-0.3996878976320E+00 -0.1998487401576E+00  0.0000000000000E+00
-0.4194622055682E+00 -0.1612258596350E+00  0.0000000000000E+00
-0.4392365135044E+00 -0.1226029791123E+00  0.0000000000000E+00
-0.4590108214407E+00 -0.8398009858960E-01  0.0000000000000E+00
-0.4787851293769E+00 -0.4535721806692E-01  0.0000000000000E+00
-0.4985594373131E+00 -0.6734337544235E-02  0.0000000000000E+00
-0.5183337452494E+00  0.3188854297845E-01  0.0000000000000E+00
-0.5381080531856E+00  0.7051142350113E-01  0.0000000000000E+00
-0.5578823611218E+00  0.1091343040238E+00  0.0000000000000E+00
-0.5776566690581E+00  0.1477571845465E+00  0.0000000000000E+00
-0.5974309769943E+00  0.1863800650692E+00  0.0000000000000E+00
-0.6172052849306E+00  0.2250029455919E+00  0.0000000000000E+00
-0.6369795928668E+00  0.2636258261145E+00  0.0000000000000E+00
-0.6567539008030E+00  0.3022487066372E+00  0.0000000000000E+00
-0.2675697753590E+00 -0.3903634585794E+00  0.0000000000000E+00
-0.2851962171292E+00 -0.3527163567611E+00  0.0000000000000E+00
-0.3028226588994E+00 -0.3150692549428E+00  0.0000000000000E+00
-0.3204491006696E+00 -0.2774221531245E+00  0.0000000000000E+00
-0.3380755424398E+00 -0.2397750513062E+00  0.0000000000000E+00
-0.3557019842100E+00 -0.2021279494878E+00  0.0000000000000E+00
-0.3733284259802E+00 -0.1644808476695E+00  0.0000000000000E+00
-0.3909548677504E+00 -0.1268337458512E+00  0.0000000000000E+00
-0.4085813095206E+00 -0.8918664403293E-01  0.0000000000000E+00
-0.4262077512908E+00 -0.5153954221463E-01  0.0000000000000E+00
-0.4438341930610E+00 -0.1389244039632E-01  0.0000000000000E+00
-0.4614606348312E+00  0.2375466142199E-01  0.0000000000000E+00
-0.4790870766014E+00  0.6140176324029E-01  0.0000000000000E+00
-0.4967135183717E+00  0.9904886505860E-01  0.0000000000000E+00
-0.5143399601419E+00  0.1366959668769E+00  0.0000000000000E+00
-0.5319664019121E+00  0.1743430686952E+00  0.0000000000000E+00
-0.5495928436823E+00  0.2119901705135E+00  0.0000000000000E+00
-0.5672192854525E+00  0.2496372723318E+00  0.0000000000000E+00
-0.5848457272227E+00  0.2872843741501E+00  0.0000000000000E+00
-0.2342578969919E+00 -0.3880438745316E+00  0.0000000000000E+00
-0.2497160431228E+00 -0.3512380881835E+00  0.0000000000000E+00
-0.2651741892537E+00 -0.3144323018355E+00  0.0000000000000E+00
-0.2806323353846E+00 -0.2776265154874E+00  0.0000000000000E+00
-0.2960904815155E+00 -0.2408207291393E+00  0.0000000000000E+00
-0.3115486276463E+00 -0.2040149427913E+00  0.0000000000000E+00
-0.3270067737772E+00 -0.1672091564432E+00  0.0000000000000E+00
-0.3424649199081E+00 -0.1304033700952E+00  0.0000000000000E+00
-0.3579230660390E+00 -0.9359758374711E-01  0.0000000000000E+00
-0.3733812121699E+00 -0.5679179739905E-01  0.0000000000000E+00
-0.3888393583008E+00 -0.1998601105098E-01  0.0000000000000E+00
-0.4042975044317E+00  0.1681977529708E-01  0.0000000000000E+00
-0.4197556505626E+00  0.5362556164514E-01  0.0000000000000E+00
-0.4352137966935E+00  0.9043134799320E-01  0.0000000000000E+00
-0.4506719428244E+00  0.1272371343413E+00  0.0000000000000E+00
-0.4661300889553E+00  0.1640429206893E+00  0.0000000000000E+00
-0.4815882350862E+00  0.2008487070374E+00  0.0000000000000E+00
-0.4970463812171E+00  0.2376544933854E+00  0.0000000000000E+00
-0.5125045273480E+00  0.2744602797335E+00  0.0000000000000E+00
-0.2008905517879E+00 -0.3860140358384E+00  0.0000000000000E+00
-0.2141644306440E+00 -0.3499224952607E+00  0.0000000000000E+00
-0.2274383095000E+00 -0.3138309546829E+00  0.0000000000000E+00
-0.2407121883561E+00 -0.2777394141052E+00  0.0000000000000E+00
-0.2539860672121E+00 -0.2416478735275E+00  0.0000000000000E+00
-0.2672599460682E+00 -0.2055563329498E+00  0.0000000000000E+00
-0.2805338249242E+00 -0.1694647923721E+00  0.0000000000000E+00
-0.2938077037803E+00 -0.1333732517943E+00  0.0000000000000E+00
-0.3070815826363E+00 -0.9728171121661E-01  0.0000000000000E+00
-0.3203554614924E+00 -0.6119017063889E-01  0.0000000000000E+00
-0.3336293403484E+00 -0.2509863006116E-01  0.0000000000000E+00
-0.3469032192045E+00  0.1099291051656E-01  0.0000000000000E+00
-0.3601770980605E+00  0.4708445109428E-01  0.0000000000000E+00
-0.3734509769166E+00  0.8317599167200E-01  0.0000000000000E+00
-0.3867248557726E+00  0.1192675322497E+00  0.0000000000000E+00
-0.3999987346287E+00  0.1553590728274E+00  0.0000000000000E+00
-0.4132726134847E+00  0.1914506134052E+00  0.0000000000000E+00
-0.4265464923408E+00  0.2275421539829E+00  0.0000000000000E+00
-0.4398203711968E+00  0.2636336945606E+00  0.0000000000000E+00
-0.1674771093533E+00 -0.3842843495524E+00  0.0000000000000E+00
-0.1785546413643E+00 -0.3487884211107E+00  0.0000000000000E+00
-0.1896321733754E+00 -0.3132924926690E+00  0.0000000000000E+00
-0.2007097053864E+00 -0.2777965642273E+00  0.0000000000000E+00
-0.2117872373974E+00 -0.2423006357856E+00  0.0000000000000E+00
-0.2228647694084E+00 -0.2068047073439E+00  0.0000000000000E+00
-0.2339423014194E+00 -0.1713087789022E+00  0.0000000000000E+00
-0.2450198334305E+00 -0.1358128504605E+00  0.0000000000000E+00
-0.2560973654415E+00 -0.1003169220188E+00  0.0000000000000E+00
-0.2671748974525E+00 -0.6482099357711E-01  0.0000000000000E+00
-0.2782524294635E+00 -0.2932506513542E-01  0.0000000000000E+00
-0.2893299614745E+00  0.6170863306275E-02  0.0000000000000E+00
-0.3004074934856E+00  0.4166679174797E-01  0.0000000000000E+00
-0.3114850254966E+00  0.7716272018966E-01  0.0000000000000E+00
-0.3225625575076E+00  0.1126586486314E+00  0.0000000000000E+00
-0.3336400895186E+00  0.1481545770730E+00  0.0000000000000E+00
-0.3447176215296E+00  0.1836505055147E+00  0.0000000000000E+00
-0.3557951535407E+00  0.2191464339564E+00  0.0000000000000E+00
-0.3668726855517E+00  0.2546423623981E+00  0.0000000000000E+00
-0.1340261091775E+00 -0.3828631734966E+00  0.0000000000000E+00
-0.1428982089424E+00 -0.3478509012348E+00  0.0000000000000E+00
-0.1517703087072E+00 -0.3128386289729E+00  0.0000000000000E+00
-0.1606424084721E+00 -0.2778263567111E+00  0.0000000000000E+00
-0.1695145082369E+00 -0.2428140844493E+00  0.0000000000000E+00
-0.1783866080018E+00 -0.2078018121875E+00  0.0000000000000E+00
-0.1872587077666E+00 -0.1727895399257E+00  0.0000000000000E+00
-0.1961308075315E+00 -0.1377772676639E+00  0.0000000000000E+00
-0.2050029072963E+00 -0.1027649954021E+00  0.0000000000000E+00
-0.2138750070612E+00 -0.6775272314032E-01  0.0000000000000E+00
-0.2227471068260E+00 -0.3274045087851E-01  0.0000000000000E+00
-0.2316192065909E+00  0.2271821383293E-02  0.0000000000000E+00
-0.2404913063557E+00  0.3728409364510E-01  0.0000000000000E+00
-0.2493634061206E+00  0.7229636590690E-01  0.0000000000000E+00
-0.2582355058855E+00  0.1073086381687E+00  0.0000000000000E+00
-0.2671076056503E+00  0.1423209104305E+00  0.0000000000000E+00
-0.2759797054152E+00  0.1773331826923E+00  0.0000000000000E+00
-0.2848518051800E+00  0.2123454549541E+00  0.0000000000000E+00
-0.2937239049449E+00  0.2473577272159E+00  0.0000000000000E+00
-0.1005454709900E+00 -0.3817562677518E+00  0.0000000000000E+00
-0.1072053602565E+00 -0.3471200718438E+00  0.0000000000000E+00
-0.1138652495230E+00 -0.3124838759358E+00  0.0000000000000E+00
-0.1205251387895E+00 -0.2778476800278E+00  0.0000000000000E+00
-0.1271850280560E+00 -0.2432114841198E+00  0.0000000000000E+00
-0.1338449173226E+00 -0.2085752882118E+00  0.0000000000000E+00
-0.1405048065891E+00 -0.1739390923039E+00  0.0000000000000E+00
-0.1471646958556E+00 -0.1393028963959E+00  0.0000000000000E+00
-0.1538245851221E+00 -0.1046667004879E+00  0.0000000000000E+00
-0.1604844743886E+00 -0.7003050457989E-01  0.0000000000000E+00
-0.1671443636552E+00 -0.3539430867190E-01  0.0000000000000E+00
-0.1738042529217E+00 -0.7581127639062E-03  0.0000000000000E+00
-0.1804641421882E+00  0.3387808314408E-01  0.0000000000000E+00
-0.1871240314547E+00  0.6851427905207E-01  0.0000000000000E+00
-0.1937839207212E+00  0.1031504749601E+00  0.0000000000000E+00
-0.2004438099878E+00  0.1377866708681E+00  0.0000000000000E+00
-0.2071036992543E+00  0.1724228667760E+00  0.0000000000000E+00
-0.2137635885208E+00  0.2070590626840E+00  0.0000000000000E+00
-0.2204234777873E+00  0.2416952585920E+00  0.0000000000000E+00
-0.6704270627605E-01 -0.3809667730720E+00  0.0000000000000E+00
-0.7148545141935E-01 -0.3466011322144E+00  0.0000000000000E+00
-0.7592819656265E-01 -0.3122354913569E+00  0.0000000000000E+00
-0.8037094170595E-01 -0.2778698504993E+00  0.0000000000000E+00
-0.8481368684925E-01 -0.2435042096418E+00  0.0000000000000E+00
-0.8925643199255E-01 -0.2091385687842E+00  0.0000000000000E+00
-0.9369917713585E-01 -0.1747729279267E+00  0.0000000000000E+00
-0.9814192227916E-01 -0.1404072870692E+00  0.0000000000000E+00
-0.1025846674225E+00 -0.1060416462116E+00  0.0000000000000E+00
-0.1070274125658E+00 -0.7167600535407E-01  0.0000000000000E+00
-0.1114701577091E+00 -0.3731036449652E-01  0.0000000000000E+00
-0.1159129028524E+00 -0.2944723638973E-02  0.0000000000000E+00
-0.1203556479957E+00  0.3142091721857E-01  0.0000000000000E+00
-0.1247983931390E+00  0.6578655807612E-01  0.0000000000000E+00
-0.1292411382823E+00  0.1001521989337E+00  0.0000000000000E+00
-0.1336838834256E+00  0.1345178397912E+00  0.0000000000000E+00
-0.1381266285689E+00  0.1688834806488E+00  0.0000000000000E+00
-0.1425693737122E+00  0.2032491215063E+00  0.0000000000000E+00
-0.1470121188555E+00  0.2376147623638E+00  0.0000000000000E+00
-0.3352511022345E-01 -0.3804951770728E+00  0.0000000000000E+00
-0.3574736497451E-01 -0.3462942814123E+00  0.0000000000000E+00
-0.3796961972557E-01 -0.3120933857518E+00  0.0000000000000E+00
-0.4019187447663E-01 -0.2778924900913E+00  0.0000000000000E+00
-0.4241412922770E-01 -0.2436915944307E+00  0.0000000000000E+00
-0.4463638397876E-01 -0.2094906987702E+00  0.0000000000000E+00
-0.4685863872982E-01 -0.1752898031097E+00  0.0000000000000E+00
-0.4908089348088E-01 -0.1410889074492E+00  0.0000000000000E+00
-0.5130314823194E-01 -0.1068880117887E+00  0.0000000000000E+00
-0.5352540298300E-01 -0.7268711612818E-01  0.0000000000000E+00
-0.5574765773406E-01 -0.3848622046767E-01  0.0000000000000E+00
-0.5796991248513E-01 -0.4285324807157E-02  0.0000000000000E+00
-0.6019216723619E-01  0.2991557085336E-01  0.0000000000000E+00
-0.6241442198725E-01  0.6411646651387E-01  0.0000000000000E+00
-0.6463667673831E-01  0.9831736217438E-01  0.0000000000000E+00
-0.6685893148937E-01  0.1325182578349E+00  0.0000000000000E+00
-0.6908118624043E-01  0.1667191534954E+00  0.0000000000000E+00
-0.7130344099149E-01  0.2009200491559E+00  0.0000000000000E+00
-0.7352569574256E-01  0.2351209448164E+00  0.0000000000000E+00
-0.9110398056435E-10 -0.3803390679715E+00  0.0000000000000E+00
-0.1822079030259E-09 -0.3461942289011E+00  0.0000000000000E+00
-0.2733118393653E-09 -0.3120493898306E+00  0.0000000000000E+00
-0.3644157479491E-09 -0.2779045507602E+00  0.0000000000000E+00
-0.4555194483661E-09 -0.2437597116898E+00  0.0000000000000E+00
-0.5466233153165E-09 -0.2096148726194E+00  0.0000000000000E+00
-0.6377270712447E-09 -0.1754700335490E+00  0.0000000000000E+00
-0.7288309381951E-09 -0.1413251944785E+00  0.0000000000000E+00
-0.8199346941232E-09 -0.1071803554081E+00  0.0000000000000E+00
-0.9110384500514E-09 -0.7303551633770E-01  0.0000000000000E+00
-0.1002142205980E-08 -0.3889067726728E-01  0.0000000000000E+00
-0.1093246128441E-08 -0.4745838196866E-02  0.0000000000000E+00
-0.1184349828858E-08  0.2939900087355E-01  0.0000000000000E+00
-0.1275453529275E-08  0.6354383994397E-01  0.0000000000000E+00
-0.1366557229692E-08  0.9768867901439E-01  0.0000000000000E+00
-0.1457661263176E-08  0.1318335180848E+00  0.0000000000000E+00
-0.1548765074615E-08  0.1659783571552E+00  0.0000000000000E+00
-0.1639868886055E-08  0.2001231962256E+00  0.0000000000000E+00
-0.1730972586471E-08  0.2342680352961E+00  0.0000000000000E+00
 0.3352511004131E-01 -0.3804951770771E+00  0.0000000000000E+00
 0.3574736461023E-01 -0.3462942814209E+00  0.0000000000000E+00
 0.3796961917915E-01 -0.3120933857647E+00  0.0000000000000E+00
 0.4019187374807E-01 -0.2778924901086E+00  0.0000000000000E+00
 0.4241412831699E-01 -0.2436915944524E+00  0.0000000000000E+00
 0.4463638288591E-01 -0.2094906987962E+00  0.0000000000000E+00
 0.4685863745483E-01 -0.1752898031400E+00  0.0000000000000E+00
 0.4908089202375E-01 -0.1410889074838E+00  0.0000000000000E+00
 0.5130314659267E-01 -0.1068880118276E+00  0.0000000000000E+00
 0.5352540116158E-01 -0.7268711617143E-01  0.0000000000000E+00
 0.5574765573050E-01 -0.3848622051524E-01  0.0000000000000E+00
 0.5796991029942E-01 -0.4285324859053E-02  0.0000000000000E+00
 0.6019216486834E-01  0.2991557079713E-01  0.0000000000000E+00
 0.6241441943726E-01  0.6411646645332E-01  0.0000000000000E+00
 0.6463667400618E-01  0.9831736210951E-01  0.0000000000000E+00
 0.6685892857510E-01  0.1325182577657E+00  0.0000000000000E+00
 0.6908118314402E-01  0.1667191534219E+00  0.0000000000000E+00
 0.7130343771294E-01  0.2009200490781E+00  0.0000000000000E+00
 0.7352569228186E-01  0.2351209447343E+00  0.0000000000000E+00
 0.6704270609402E-01 -0.3809667730804E+00  0.0000000000000E+00
 0.7148545105530E-01 -0.3466011322313E+00  0.0000000000000E+00
 0.7592819601657E-01 -0.3122354913822E+00  0.0000000000000E+00
 0.8037094097785E-01 -0.2778698505331E+00  0.0000000000000E+00
 0.8481368593912E-01 -0.2435042096840E+00  0.0000000000000E+00
 0.8925643090040E-01 -0.2091385688349E+00  0.0000000000000E+00
 0.9369917586167E-01 -0.1747729279858E+00  0.0000000000000E+00
 0.9814192082294E-01 -0.1404072871367E+00  0.0000000000000E+00
 0.1025846657842E+00 -0.1060416462876E+00  0.0000000000000E+00
 0.1070274107455E+00 -0.7167600543851E-01  0.0000000000000E+00
 0.1114701557068E+00 -0.3731036458941E-01  0.0000000000000E+00
 0.1159129006680E+00 -0.2944723740310E-02  0.0000000000000E+00
 0.1203556456293E+00  0.3142091710879E-01  0.0000000000000E+00
 0.1247983905906E+00  0.6578655795789E-01  0.0000000000000E+00
 0.1292411355519E+00  0.1001521988070E+00  0.0000000000000E+00
 0.1336838805131E+00  0.1345178396561E+00  0.0000000000000E+00
 0.1381266254744E+00  0.1688834805052E+00  0.0000000000000E+00
 0.1425693704357E+00  0.2032491213543E+00  0.0000000000000E+00
 0.1470121153970E+00  0.2376147622034E+00  0.0000000000000E+00
 0.1005454708081E+00 -0.3817562677643E+00  0.0000000000000E+00
 0.1072053598928E+00 -0.3471200718688E+00  0.0000000000000E+00
 0.1138652489775E+00 -0.3124838759733E+00  0.0000000000000E+00
 0.1205251380622E+00 -0.2778476800778E+00  0.0000000000000E+00
 0.1271850271469E+00 -0.2432114841823E+00  0.0000000000000E+00
 0.1338449162316E+00 -0.2085752882868E+00  0.0000000000000E+00
 0.1405048053163E+00 -0.1739390923913E+00  0.0000000000000E+00
 0.1471646944009E+00 -0.1393028964959E+00  0.0000000000000E+00
 0.1538245834856E+00 -0.1046667006004E+00  0.0000000000000E+00
 0.1604844725703E+00 -0.7003050470487E-01  0.0000000000000E+00
 0.1671443616550E+00 -0.3539430880938E-01  0.0000000000000E+00
 0.1738042507397E+00 -0.7581129138917E-03  0.0000000000000E+00
 0.1804641398244E+00  0.3387808298160E-01  0.0000000000000E+00
 0.1871240289091E+00  0.6851427887709E-01  0.0000000000000E+00
 0.1937839179937E+00  0.1031504747726E+00  0.0000000000000E+00
 0.2004438070784E+00  0.1377866706681E+00  0.0000000000000E+00
 0.2071036961631E+00  0.1724228665636E+00  0.0000000000000E+00
 0.2137635852478E+00  0.2070590624591E+00  0.0000000000000E+00
 0.2204234743325E+00  0.2416952583545E+00  0.0000000000000E+00
 0.1340261089962E+00 -0.3828631735131E+00  0.0000000000000E+00
 0.1428982085797E+00 -0.3478509012679E+00  0.0000000000000E+00
 0.1517703081632E+00 -0.3128386290227E+00  0.0000000000000E+00
 0.1606424077467E+00 -0.2778263567775E+00  0.0000000000000E+00
 0.1695145073302E+00 -0.2428140845323E+00  0.0000000000000E+00
 0.1783866069137E+00 -0.2078018122871E+00  0.0000000000000E+00
 0.1872587064972E+00 -0.1727895400418E+00  0.0000000000000E+00
 0.1961308060807E+00 -0.1377772677966E+00  0.0000000000000E+00
 0.2050029056642E+00 -0.1027649955514E+00  0.0000000000000E+00
 0.2138750052477E+00 -0.6775272330619E-01  0.0000000000000E+00
 0.2227471048312E+00 -0.3274045106098E-01  0.0000000000000E+00
 0.2316192044147E+00  0.2271821184241E-02  0.0000000000000E+00
 0.2404913039982E+00  0.3728409342946E-01  0.0000000000000E+00
 0.2493634035817E+00  0.7229636567468E-01  0.0000000000000E+00
 0.2582355031652E+00  0.1073086379199E+00  0.0000000000000E+00
 0.2671076027487E+00  0.1423209101651E+00  0.0000000000000E+00
 0.2759797023322E+00  0.1773331824103E+00  0.0000000000000E+00
 0.2848518019157E+00  0.2123454546555E+00  0.0000000000000E+00
 0.2937239014992E+00  0.2473577269008E+00  0.0000000000000E+00
 0.1674771091722E+00 -0.3842843495732E+00  0.0000000000000E+00
 0.1785546410022E+00 -0.3487884211524E+00  0.0000000000000E+00
 0.1896321728322E+00 -0.3132924927316E+00  0.0000000000000E+00
 0.2007097046621E+00 -0.2777965643107E+00  0.0000000000000E+00
 0.2117872364921E+00 -0.2423006358899E+00  0.0000000000000E+00
 0.2228647683220E+00 -0.2068047074691E+00  0.0000000000000E+00
 0.2339423001520E+00 -0.1713087790483E+00  0.0000000000000E+00
 0.2450198319819E+00 -0.1358128506275E+00  0.0000000000000E+00
 0.2560973638119E+00 -0.1003169222066E+00  0.0000000000000E+00
 0.2671748956418E+00 -0.6482099378580E-01  0.0000000000000E+00
 0.2782524274718E+00 -0.2932506536498E-01  0.0000000000000E+00
 0.2893299593017E+00  0.6170863055847E-02  0.0000000000000E+00
 0.3004074911317E+00  0.4166679147667E-01  0.0000000000000E+00
 0.3114850229616E+00  0.7716271989750E-01  0.0000000000000E+00
 0.3225625547916E+00  0.1126586483183E+00  0.0000000000000E+00
 0.3336400866215E+00  0.1481545767391E+00  0.0000000000000E+00
 0.3447176184515E+00  0.1836505051600E+00  0.0000000000000E+00
 0.3557951502814E+00  0.2191464335808E+00  0.0000000000000E+00
 0.3668726821114E+00  0.2546423620016E+00  0.0000000000000E+00
 0.2008905516076E+00 -0.3860140358638E+00  0.0000000000000E+00
 0.2141644302833E+00 -0.3499224953114E+00  0.0000000000000E+00
 0.2274383089590E+00 -0.3138309547591E+00  0.0000000000000E+00
 0.2407121876348E+00 -0.2777394142068E+00  0.0000000000000E+00
 0.2539860663105E+00 -0.2416478736544E+00  0.0000000000000E+00
 0.2672599449862E+00 -0.2055563331021E+00  0.0000000000000E+00
 0.2805338236619E+00 -0.1694647925498E+00  0.0000000000000E+00
 0.2938077023376E+00 -0.1333732519975E+00  0.0000000000000E+00
 0.3070815810133E+00 -0.9728171144512E-01  0.0000000000000E+00
 0.3203554596891E+00 -0.6119017089279E-01  0.0000000000000E+00
 0.3336293383648E+00 -0.2509863034046E-01  0.0000000000000E+00
 0.3469032170405E+00  0.1099291021187E-01  0.0000000000000E+00
 0.3601770957162E+00  0.4708445076420E-01  0.0000000000000E+00
 0.3734509743919E+00  0.8317599131653E-01  0.0000000000000E+00
 0.3867248530677E+00  0.1192675318689E+00  0.0000000000000E+00
 0.3999987317434E+00  0.1553590724212E+00  0.0000000000000E+00
 0.4132726104191E+00  0.1914506129735E+00  0.0000000000000E+00
 0.4265464890948E+00  0.2275421535259E+00  0.0000000000000E+00
 0.4398203677705E+00  0.2636336940782E+00  0.0000000000000E+00
 0.2342578968120E+00 -0.3880438745619E+00  0.0000000000000E+00
 0.2497160427631E+00 -0.3512380882442E+00  0.0000000000000E+00
 0.2651741887142E+00 -0.3144323019265E+00  0.0000000000000E+00
 0.2806323346653E+00 -0.2776265156088E+00  0.0000000000000E+00
 0.2960904806164E+00 -0.2408207292911E+00  0.0000000000000E+00
 0.3115486265674E+00 -0.2040149429734E+00  0.0000000000000E+00
 0.3270067725185E+00 -0.1672091566557E+00  0.0000000000000E+00
 0.3424649184696E+00 -0.1304033703380E+00  0.0000000000000E+00
 0.3579230644207E+00 -0.9359758402027E-01  0.0000000000000E+00
 0.3733812103718E+00 -0.5679179770256E-01  0.0000000000000E+00
 0.3888393563228E+00 -0.1998601138485E-01  0.0000000000000E+00
 0.4042975022739E+00  0.1681977493285E-01  0.0000000000000E+00
 0.4197556482250E+00  0.5362556125056E-01  0.0000000000000E+00
 0.4352137941761E+00  0.9043134756827E-01  0.0000000000000E+00
 0.4506719401272E+00  0.1272371338860E+00  0.0000000000000E+00
 0.4661300860782E+00  0.1640429202037E+00  0.0000000000000E+00
 0.4815882320293E+00  0.2008487065214E+00  0.0000000000000E+00
 0.4970463779804E+00  0.2376544928391E+00  0.0000000000000E+00
 0.5125045239315E+00  0.2744602791568E+00  0.0000000000000E+00
 0.2675697751805E+00 -0.3903634586150E+00  0.0000000000000E+00
 0.2851962167721E+00 -0.3527163568323E+00  0.0000000000000E+00
 0.3028226583638E+00 -0.3150692550497E+00  0.0000000000000E+00
 0.3204490999555E+00 -0.2774221532670E+00  0.0000000000000E+00
 0.3380755415472E+00 -0.2397750514843E+00  0.0000000000000E+00
 0.3557019831389E+00 -0.2021279497017E+00  0.0000000000000E+00
 0.3733284247305E+00 -0.1644808479190E+00  0.0000000000000E+00
 0.3909548663222E+00 -0.1268337461363E+00  0.0000000000000E+00
 0.4085813079139E+00 -0.8918664435365E-01  0.0000000000000E+00
 0.4262077495056E+00 -0.5153954257098E-01  0.0000000000000E+00
 0.4438341910973E+00 -0.1389244078831E-01  0.0000000000000E+00
 0.4614606326889E+00  0.2375466099436E-01  0.0000000000000E+00
 0.4790870742806E+00  0.6140176277703E-01  0.0000000000000E+00
 0.4967135158723E+00  0.9904886455970E-01  0.0000000000000E+00
 0.5143399574640E+00  0.1366959663424E+00  0.0000000000000E+00
 0.5319663990557E+00  0.1743430681250E+00  0.0000000000000E+00
 0.5495928406473E+00  0.2119901699077E+00  0.0000000000000E+00
 0.5672192822390E+00  0.2496372716904E+00  0.0000000000000E+00
 0.5848457238307E+00  0.2872843734730E+00  0.0000000000000E+00
 0.3008163577734E+00 -0.3929631428122E+00  0.0000000000000E+00
 0.3205906655322E+00 -0.3543402623307E+00  0.0000000000000E+00
 0.3403649732910E+00 -0.3157173818492E+00  0.0000000000000E+00
 0.3601392810498E+00 -0.2770945013677E+00  0.0000000000000E+00
 0.3799135888087E+00 -0.2384716208863E+00  0.0000000000000E+00
 0.3996878965675E+00 -0.1998487404048E+00  0.0000000000000E+00
 0.4194622043263E+00 -0.1612258599233E+00  0.0000000000000E+00
 0.4392365120851E+00 -0.1226029794418E+00  0.0000000000000E+00
 0.4590108198439E+00 -0.8398009896027E-01  0.0000000000000E+00
 0.4787851276028E+00 -0.4535721847878E-01  0.0000000000000E+00
 0.4985594353616E+00 -0.6734337997284E-02  0.0000000000000E+00
 0.5183337431204E+00  0.3188854248421E-01  0.0000000000000E+00
 0.5381080508792E+00  0.7051142296571E-01  0.0000000000000E+00
 0.5578823586381E+00  0.1091343034472E+00  0.0000000000000E+00
 0.5776566663969E+00  0.1477571839287E+00  0.0000000000000E+00
 0.5974309741557E+00  0.1863800644102E+00  0.0000000000000E+00
 0.6172052819145E+00  0.2250029448917E+00  0.0000000000000E+00
 0.6369795896734E+00  0.2636258253732E+00  0.0000000000000E+00
 0.6567538974322E+00  0.3022487058547E+00  0.0000000000000E+00
 0.3339899906020E+00 -0.3958444359414E+00  0.0000000000000E+00
 0.3558893491867E+00 -0.3561153469911E+00  0.0000000000000E+00
 0.3777887077715E+00 -0.3163862580408E+00  0.0000000000000E+00
 0.3996880663563E+00 -0.2766571690905E+00  0.0000000000000E+00
 0.4215874249411E+00 -0.2369280801402E+00  0.0000000000000E+00
 0.4434867835259E+00 -0.1971989911899E+00  0.0000000000000E+00
 0.4653861421107E+00 -0.1574699022396E+00  0.0000000000000E+00
 0.4872855006954E+00 -0.1177408132894E+00  0.0000000000000E+00
 0.5091848592802E+00 -0.7801172433906E-01  0.0000000000000E+00
 0.5310842178650E+00 -0.3828263538877E-01  0.0000000000000E+00
 0.5529835764498E+00  0.1446453561517E-02  0.0000000000000E+00
 0.5748829350346E+00  0.4117554251181E-01  0.0000000000000E+00
 0.5967822936193E+00  0.8090463146210E-01  0.0000000000000E+00
 0.6186816522041E+00  0.1206337204124E+00  0.0000000000000E+00
 0.6405810107889E+00  0.1603628093627E+00  0.0000000000000E+00
 0.6624803693737E+00  0.2000918983130E+00  0.0000000000000E+00
 0.6843797279585E+00  0.2398209872633E+00  0.0000000000000E+00
 0.7062790865433E+00  0.2795500762135E+00  0.0000000000000E+00
 0.7281784451280E+00  0.3192791651638E+00  0.0000000000000E+00
 0.3670941280509E+00 -0.3990479117477E+00  0.0000000000000E+00
 0.3911043430246E+00 -0.3581255481675E+00  0.0000000000000E+00
 0.4151145579982E+00 -0.3172031845874E+00  0.0000000000000E+00
 0.4391247729718E+00 -0.2762808210073E+00  0.0000000000000E+00
 0.4631349879455E+00 -0.2353584574271E+00  0.0000000000000E+00
 0.4871452029191E+00 -0.1944360938470E+00  0.0000000000000E+00
 0.5111554178927E+00 -0.1535137302669E+00  0.0000000000000E+00
 0.5351656328664E+00 -0.1125913666867E+00  0.0000000000000E+00
 0.5591758478400E+00 -0.7166900310660E-01  0.0000000000000E+00
 0.5831860628136E+00 -0.3074663952647E-01  0.0000000000000E+00
 0.6071962777873E+00  0.1017572405366E-01  0.0000000000000E+00
 0.6312064927609E+00  0.5109808763380E-01  0.0000000000000E+00
 0.6552167077345E+00  0.9202045121393E-01  0.0000000000000E+00
 0.6792269227082E+00  0.1329428147941E+00  0.0000000000000E+00
 0.7032371376818E+00  0.1738651783742E+00  0.0000000000000E+00
 0.7272473526555E+00  0.2147875419543E+00  0.0000000000000E+00
 0.7512575676291E+00  0.2557099055345E+00  0.0000000000000E+00
 0.7752677826027E+00  0.2966322691146E+00  0.0000000000000E+00
 0.7992779975764E+00  0.3375546326947E+00  0.0000000000000E+00
 0.4001452658322E+00 -0.4026538268434E+00  0.0000000000000E+00
 0.4262736919301E+00 -0.3605344242716E+00  0.0000000000000E+00
 0.4524021180279E+00 -0.3184150216998E+00  0.0000000000000E+00
 0.4785305441258E+00 -0.2762956191280E+00  0.0000000000000E+00
 0.5046589702237E+00 -0.2341762165562E+00  0.0000000000000E+00
 0.5307873963216E+00 -0.1920568139844E+00  0.0000000000000E+00
 0.5569158224194E+00 -0.1499374114126E+00  0.0000000000000E+00
 0.5830442485173E+00 -0.1078180088408E+00  0.0000000000000E+00
 0.6091726746152E+00 -0.6569860626900E-01  0.0000000000000E+00
 0.6353011007131E+00 -0.2357920369720E-01  0.0000000000000E+00
 0.6614295268109E+00  0.1854019887460E-01  0.0000000000000E+00
 0.6875579529088E+00  0.6065960144641E-01  0.0000000000000E+00
 0.7136863790067E+00  0.1027790040182E+00  0.0000000000000E+00
 0.7398148051046E+00  0.1448984065900E+00  0.0000000000000E+00
 0.7659432312024E+00  0.1870178091618E+00  0.0000000000000E+00
 0.7920716573003E+00  0.2291372117336E+00  0.0000000000000E+00
 0.8182000833982E+00  0.2712566143054E+00  0.0000000000000E+00
 0.8443285094961E+00  0.3133760168772E+00  0.0000000000000E+00
 0.8704569355939E+00  0.3554954194490E+00  0.0000000000000E+00
 0.4331566792210E+00 -0.4067328541253E+00  0.0000000000000E+00
 0.4614288245888E+00 -0.3634866018376E+00  0.0000000000000E+00
 0.4897009699565E+00 -0.3202403495500E+00  0.0000000000000E+00
 0.5179731153242E+00 -0.2769940972623E+00  0.0000000000000E+00
 0.5462452606920E+00 -0.2337478449747E+00  0.0000000000000E+00
 0.5745174060597E+00 -0.1905015926870E+00  0.0000000000000E+00
 0.6027895514275E+00 -0.1472553403993E+00  0.0000000000000E+00
 0.6310616967952E+00 -0.1040090881117E+00  0.0000000000000E+00
 0.6593338421629E+00 -0.6076283582400E-01  0.0000000000000E+00
 0.6876059875307E+00 -0.1751658353633E-01  0.0000000000000E+00
 0.7158781328984E+00  0.2572966875133E-01  0.0000000000000E+00
 0.7441502782662E+00  0.6897592103899E-01  0.0000000000000E+00
 0.7724224236339E+00  0.1122221733267E+00  0.0000000000000E+00
 0.8006945690017E+00  0.1554684256143E+00  0.0000000000000E+00
 0.8289667143694E+00  0.1987146779020E+00  0.0000000000000E+00
 0.8572388597371E+00  0.2419609301896E+00  0.0000000000000E+00
 0.8855110051049E+00  0.2852071824773E+00  0.0000000000000E+00
 0.9137831504726E+00  0.3284534347650E+00  0.0000000000000E+00
 0.9420552958404E+00  0.3716996870526E+00  0.0000000000000E+00
 0.4661358892480E+00 -0.4113546121035E+00  0.0000000000000E+00
 0.4965895943463E+00 -0.3671248415798E+00  0.0000000000000E+00
 0.5270432994446E+00 -0.3228950710562E+00  0.0000000000000E+00
 0.5574970045428E+00 -0.2786653005325E+00  0.0000000000000E+00
 0.5879507096411E+00 -0.2344355300089E+00  0.0000000000000E+00
 0.6184044147394E+00 -0.1902057594852E+00  0.0000000000000E+00
 0.6488581198376E+00 -0.1459759889615E+00  0.0000000000000E+00
 0.6793118249359E+00 -0.1017462184379E+00  0.0000000000000E+00
 0.7097655300342E+00 -0.5751644791423E-01  0.0000000000000E+00
 0.7402192351324E+00 -0.1328667739058E-01  0.0000000000000E+00
 0.7706729402307E+00  0.3094309313308E-01  0.0000000000000E+00
 0.8011266453290E+00  0.7517286365674E-01  0.0000000000000E+00
 0.8315803504272E+00  0.1194026341804E+00  0.0000000000000E+00
 0.8620340555255E+00  0.1636324047041E+00  0.0000000000000E+00
 0.8924877606238E+00  0.2078621752277E+00  0.0000000000000E+00
 0.9229414657220E+00  0.2520919457514E+00  0.0000000000000E+00
 0.9533951708203E+00  0.2963217162750E+00  0.0000000000000E+00
 0.9838488759186E+00  0.3405514867987E+00  0.0000000000000E+00
 0.1014302581017E+01  0.3847812573223E+00  0.0000000000000E+00
 0.4990802664438E+00 -0.4165840327379E+00  0.0000000000000E+00
 0.5317553215595E+00 -0.3715827348342E+00  0.0000000000000E+00
 0.5644303766752E+00 -0.3265814369305E+00  0.0000000000000E+00
 0.5971054317909E+00 -0.2815801390268E+00  0.0000000000000E+00
 0.6297804869067E+00 -0.2365788411232E+00  0.0000000000000E+00
 0.6624555420224E+00 -0.1915775432195E+00  0.0000000000000E+00
 0.6951305971381E+00 -0.1465762453158E+00  0.0000000000000E+00
 0.7278056522539E+00 -0.1015749474121E+00  0.0000000000000E+00
 0.7604807073696E+00 -0.5657364950839E-01  0.0000000000000E+00
 0.7931557624853E+00 -0.1157235160470E-01  0.0000000000000E+00
 0.8258308176011E+00  0.3342894629900E-01  0.0000000000000E+00
 0.8585058727168E+00  0.7843024420269E-01  0.0000000000000E+00
 0.8911809278325E+00  0.1234315421064E+00  0.0000000000000E+00
 0.9238559829483E+00  0.1684328400101E+00  0.0000000000000E+00
 0.9565310380640E+00  0.2134341379138E+00  0.0000000000000E+00
 0.9892060931797E+00  0.2584354358175E+00  0.0000000000000E+00
 0.1021881148295E+01  0.3034367337211E+00  0.0000000000000E+00
 0.1054556203411E+01  0.3484380316248E+00  0.0000000000000E+00
 0.1087231258527E+01  0.3934393295285E+00  0.0000000000000E+00
 0.5319747862026E+00 -0.4224941396770E+00  0.0000000000000E+00
 0.5669005035122E+00 -0.3770102860085E+00  0.0000000000000E+00
 0.6018262208219E+00 -0.3315264323400E+00  0.0000000000000E+00
 0.6367519381315E+00 -0.2860425786714E+00  0.0000000000000E+00
 0.6716776554412E+00 -0.2405587250029E+00  0.0000000000000E+00
 0.7066033727508E+00 -0.1950748713344E+00  0.0000000000000E+00
 0.7415290900604E+00 -0.1495910176658E+00  0.0000000000000E+00
 0.7764548073701E+00 -0.1041071639973E+00  0.0000000000000E+00
 0.8113805246797E+00 -0.5862331032874E-01  0.0000000000000E+00
 0.8463062419894E+00 -0.1313945666021E-01  0.0000000000000E+00
 0.8812319592990E+00  0.3234439700833E-01  0.0000000000000E+00
 0.9161576766086E+00  0.7782825067687E-01  0.0000000000000E+00
 0.9510833939183E+00  0.1233121043454E+00  0.0000000000000E+00
 0.9860091112279E+00  0.1687959580139E+00  0.0000000000000E+00
 0.1020934828538E+01  0.2142798116825E+00  0.0000000000000E+00
 0.1055860545847E+01  0.2597636653510E+00  0.0000000000000E+00
 0.1090786263157E+01  0.3052475190195E+00  0.0000000000000E+00
 0.1125711980466E+01  0.3507313726881E+00  0.0000000000000E+00
 0.1160637697776E+01  0.3962152263566E+00  0.0000000000000E+00
 0.5647851635818E+00 -0.4291779471573E+00  0.0000000000000E+00
 0.6019607638464E+00 -0.3835976335334E+00  0.0000000000000E+00
 0.6391363641111E+00 -0.3380173199096E+00  0.0000000000000E+00
 0.6763119643757E+00 -0.2924370062857E+00  0.0000000000000E+00
 0.7134875646404E+00 -0.2468566926618E+00  0.0000000000000E+00
 0.7506631649050E+00 -0.2012763790380E+00  0.0000000000000E+00
 0.7878387651697E+00 -0.1556960654141E+00  0.0000000000000E+00
 0.8250143654344E+00 -0.1101157517902E+00  0.0000000000000E+00
 0.8621899656990E+00 -0.6453543816633E-01  0.0000000000000E+00
 0.8993655659637E+00 -0.1895512454246E-01  0.0000000000000E+00
 0.9365411662283E+00  0.2662518908141E-01  0.0000000000000E+00
 0.9737167664930E+00  0.7220550270529E-01  0.0000000000000E+00
 0.1010892366758E+01  0.1177858163292E+00  0.0000000000000E+00
 0.1048067967022E+01  0.1633661299530E+00  0.0000000000000E+00
 0.1085243567287E+01  0.2089464435769E+00  0.0000000000000E+00
 0.1122419167552E+01  0.2545267572008E+00  0.0000000000000E+00
 0.1159594767816E+01  0.3001070708247E+00  0.0000000000000E+00
 0.1196770368081E+01  0.3456873844485E+00  0.0000000000000E+00
 0.1233945968346E+01  0.3912676980724E+00  0.0000000000000E+00
 0.5974622414189E+00 -0.4366441451446E+00  0.0000000000000E+00
 0.6368419582214E+00 -0.3913664748674E+00  0.0000000000000E+00
 0.6762216750239E+00 -0.3460888045901E+00  0.0000000000000E+00
 0.7156013918264E+00 -0.3008111343129E+00  0.0000000000000E+00
 0.7549811086289E+00 -0.2555334640357E+00  0.0000000000000E+00
 0.7943608254314E+00 -0.2102557937584E+00  0.0000000000000E+00
 0.8337405422339E+00 -0.1649781234812E+00  0.0000000000000E+00
 0.8731202590364E+00 -0.1197004532040E+00  0.0000000000000E+00
 0.9124999758389E+00 -0.7442278292673E-01  0.0000000000000E+00
 0.9518796926414E+00 -0.2914511264950E-01  0.0000000000000E+00
 0.9912594094439E+00  0.1613255762773E-01  0.0000000000000E+00
 0.1030639126246E+01  0.6141022790496E-01  0.0000000000000E+00
 0.1070018843049E+01  0.1066878981822E+00  0.0000000000000E+00
 0.1109398559851E+01  0.1519655684594E+00  0.0000000000000E+00
 0.1148778276654E+01  0.1972432387367E+00  0.0000000000000E+00
 0.1188157993456E+01  0.2425209090139E+00  0.0000000000000E+00
 0.1227537710259E+01  0.2877985792911E+00  0.0000000000000E+00
 0.1266917427061E+01  0.3330762495684E+00  0.0000000000000E+00
 0.1306297143864E+01  0.3783539198456E+00  0.0000000000000E+00
 0.6299559713731E+00 -0.4448788634348E+00  0.0000000000000E+00
 0.6714480731557E+00 -0.4002935754811E+00  0.0000000000000E+00
 0.7129401749383E+00 -0.3557082875275E+00  0.0000000000000E+00
 0.7544322767209E+00 -0.3111229995738E+00  0.0000000000000E+00
 0.7959243785035E+00 -0.2665377116201E+00  0.0000000000000E+00
 0.8374164802861E+00 -0.2219524236665E+00  0.0000000000000E+00
 0.8789085820687E+00 -0.1773671357128E+00  0.0000000000000E+00
 0.9204006838513E+00 -0.1327818477591E+00  0.0000000000000E+00
 0.9618927856339E+00 -0.8819655980548E-01  0.0000000000000E+00
 0.1003384887417E+01 -0.4361127185182E-01  0.0000000000000E+00
 0.1044876989199E+01  0.9740161018481E-03  0.0000000000000E+00
 0.1086369090982E+01  0.4555930405551E-01  0.0000000000000E+00
 0.1127861192764E+01  0.9014459200918E-01  0.0000000000000E+00
 0.1169353294547E+01  0.1347298799628E+00  0.0000000000000E+00
 0.1210845396330E+01  0.1793151679165E+00  0.0000000000000E+00
 0.1252337498112E+01  0.2239004558702E+00  0.0000000000000E+00
 0.1293829599895E+01  0.2684857438238E+00  0.0000000000000E+00
 0.1335321701677E+01  0.3130710317775E+00  0.0000000000000E+00
 0.1376813803460E+01  0.3576563197312E+00  0.0000000000000E+00
</DataArray>
</Points>
<Cells>
<DataArray type="Int64" Name="connectivity" format="ascii">
0 11 438 243
243 438 439 244
244 439 440 245
245 440 441 246
246 441 442 247
247 442 443 248
248 443 444 249
249 444 445 250
250 445 446 251
251 446 447 252
252 447 448 253
253 448 449 254
254 449 450 255
255 450 451 256
256 451 452 257
257 452 453 258
258 453 454 259
259 454 455 260
260 455 456 261
261 456 457 262
262 457 458 263
263 458 459 264
264 459 460 265
265 460 461 266
266 461 462 267
267 462 463 268
268 463 464 269
269 464 465 270
270 465 466 271
271 466 467 272
272 467 468 273
273 468 469 274
274 469 470 275
275 470 471 276
276 471 472 277
277 472 473 278
278 473 474 279
279 474 475 280
280 475 476 281
281 476 477 282
282 477 89 3
11 12 478 438
438 478 479 439
439 479 480 440
440 480 481 441
441 481 482 442
442 482 483 443
443 483 484 444
444 484 485 445
445 485 486 446
446 486 487 447
447 487 488 448
448 488 489 449
449 489 490 450
450 490 491 451
451 491 492 452
452 492 493 453
453 493 494 454
454 494 495 455
455 495 496 456
456 496 497 457
457 497 498 458
458 498 499 459
459 499 500 460
460 500 501 461
461 501 502 462
462 502 503 463
463 503 504 464
464 504 505 465
465 505 506 466
466 506 507 467
467 507 508 468
468 508 509 469
469 509 510 470
470 510 511 471
471 511 512 472
472 512 513 473
473 513 514 474
474 514 515 475
475 515 516 476
476 516 517 477
477 517 90 89
12 13 518 478
478 518 519 479
479 519 520 480
480 520 521 481
481 521 522 482
482 522 523 483
483 523 524 484
484 524 525 485
485 525 526 486
486 526 527 487
487 527 528 488
488 528 529 489
489 529 530 490
490 530 531 491
491 531 532 492
492 532 533 493
493 533 534 494
494 534 535 495
495 535 536 496
496 536 537 497
497 537 538 498
498 538 539 499
499 539 540 500
500 540 541 501
501 541 542 502
502 542 543 503
503 543 544 504
504 544 545 505
505 545 546 506
506 546 547 507
507 547 548 508
508 548 549 509
509 549 550 510
510 550 551 511
511 551 552 512
512 552 553 513
513 553 554 514
514 554 555 515
515 555 556 516
516 556 557 517
517 557 91 90
13 14 558 518
518 558 559 519
519 559 560 520
520 560 561 521
521 561 562 522
522 562 563 523
523 563 564 524
524 564 565 525
525 565 566 526
526 566 567 527
527 567 568 528
528 568 569 529
529 569 570 530
530 570 571 531
531 571 572 532
532 572 573 533
533 573 574 534
534 574 575 535
535 575 576 536
536 576 577 537
537 577 578 538
538 578 579 539
539 579 580 540
540 580 581 541
541 581 582 542
542 582 583 543
543 583 584 544
544 584 585 545
545 585 586 546
546 586 587 547
547 587 588 548
548 588 589 549
549 589 590 550
550 590 591 551
551 591 592 552
552 592 593 553
553 593 594 554
554 594 595 555
555 595 596 556
556 596 597 557
557 597 92 91
14 15 598 558
558 598 599 559
559 599 600 560
560 600 601 561
561 601 602 562
562 602 603 563
563 603 604 564
564 604 605 565
565 605 606 566
566 606 607 567
567 607 608 568
568 608 609 569
569 609 610 570
570 610 611 571
571 611 612 572
572 612 613 573
573 613 614 574
574 614 615 575
575 615 616 576
576 616 617 577
577 617 618 578
578 618 619 579
579 619 620 580
580 620 621 581
581 621 622 582
582 622 623 583
583 623 624 584
584 624 625 585
585 625 626 586
586 626 627 587
587 627 628 588
588 628 629 589
589 629 630 590
590 630 631 591
591 631 632 592
592 632 633 593
593 633 634 594
594 634 635 595
595 635 636 596
596 636 637 597
597 637 93 92
15 16 638 598
598 638 639 599
599 639 640 600
600 640 641 601
601 641 642 602
602 642 643 603
603 643 644 604
604 644 645 605
605 645 646 606
606 646 647 607
607 647 648 608
608 648 649 609
609 649 650 610
610 650 651 611
611 651 652 612
612 652 653 613
613 653 654 614
614 654 655 615
615 655 656 616
616 656 657 617
617 657 658 618
618 658 659 619
619 659 660 620
620 660 661 621
621 661 662 622
622 662 663 623
623 663 664 624
624 664 665 625
625 665 666 626
626 666 667 627
627 667 668 628
628 668 669 629
629 669 670 630
630 670 671 631
631 671 672 632
632 672 673 633
633 673 674 634
634 674 675 635
635 675 676 636
636 676 677 637
637 677 94 93
16 17 678 638
638 678 679 639
639 679 680 640
640 680 681 641
641 681 682 642
642 682 683 643
643 683 684 644
644 684 685 645
645 685 686 646
646 686 687 647
647 687 688 648
648 688 689 649
649 689 690 650
650 690 691 651
651 691 692 652
652 692 693 653
653 693 694 654
654 694 695 655
655 695 696 656
656 696 697 657
657 697 698 658
658 698 699 659
659 699 700 660
660 700 701 661
661 701 702 662
662 702 703 663
663 703 704 664
664 704 705 665
665 705 706 666
666 706 707 667
667 707 708 668
668 708 709 669
669 709 710 670
670 710 711 671
671 711 712 672
672 712 713 673
673 713 714 674
674 714 715 675
675 715 716 676
676 716 717 677
677 717 95 94
17 18 718 678
678 718 719 679
679 719 720 680
680 720 721 681
681 721 722 682
682 722 723 683
683 723 724 684
684 724 725 685
685 725 726 686
686 726 727 687
687 727 728 688
688 728 729 689
689 729 730 690
690 730 731 691
691 731 732 692
692 732 733 693
693 733 734 694
694 734 735 695
695 735 736 696
696 736 737 697
697 737 738 698
698 738 739 699
699 739 740 700
700 740 741 701
701 741 742 702
702 742 743 703
703 743 744 704
704 744 745 705
705 745 746 706
706 746 747 707
707 747 748 708
708 748 749 709
709 749 750 710
710 750 751 711
711 751 752 712
712 752 753 713
713 753 754 714
714 754 755 715
715 755 756 716
716 756 757 717
717 757 96 95
18 19 758 718
718 758 759 719
719 759 760 720
720 760 761 721
721 761 762 722
722 762 763 723
723 763 764 724
724 764 765 725
725 765 766 726
726 766 767 727
727 767 768 728
728 768 769 729
729 769 770 730
730 770 771 731
731 771 772 732
732 772 773 733
733 773 774 734
734 774 775 735
735 775 776 736
736 776 777 737
737 777 778 738
738 778 779 739
739 779 780 740
740 780 781 741
741 781 782 742
742 782 783 743
743 783 784 744
744 784 785 745
745 785 786 746
746 786 787 747
747 787 788 748
748 788 789 749
749 789 790 750
750 790 791 751
751 791 792 752
752 792 793 753
753 793 794 754
754 794 795 755
755 795 796 756
756 796 797 757
757 797 97 96
19 20 798 758
758 798 799 759
759 799 800 760
760 800 801 761
761 801 802 762
762 802 803 763
763 803 804 764
764 804 805 765
765 805 806 766
766 806 807 767
767 807 808 768
768 808 809 769
769 809 810 770
770 810 811 771
771 811 812 772
772 812 813 773
773 813 814 774
774 814 815 775
775 815 816 776
776 816 817 777
777 817 818 778
778 818 819 779
779 819 820 780
780 820 821 781
781 821 822 782
782 822 823 783
783 823 824 784
784 824 825 785
785 825 826 786
786 826 827 787
787 827 828 788
788 828 829 789
789 829 830 790
790 830 831 791
791 831 832 792
792 832 833 793
793 833 834 794
794 834 835 795
795 835 836 796
796 836 837 797
797 837 98 97
20 21 838 798
798 838 839 799
799 839 840 800
800 840 841 801
801 841 842 802
802 842 843 803
803 843 844 804
804 844 845 805
805 845 846 806
806 846 847 807
807 847 848 808
808 848 849 809
809 849 850 810
810 850 851 811
811 851 852 812
812 852 853 813
813 853 854 814
814 854 855 815
815 855 856 816
816 856 857 817
817 857 858 818
818 858 859 819
819 859 860 820
820 860 861 821
821 861 862 822
822 862 863 823
823 863 864 824
824 864 865 825
825 865 866 826
826 866 867 827
827 867 868 828
828 868 869 829
829 869 870 830
830 870 871 831
831 871 872 832
832 872 873 833
833 873 874 834
834 874 875 835
835 875 876 836
836 876 877 837
837 877 99 98
21 22 878 838
838 878 879 839
839 879 880 840
840 880 881 841
841 881 882 842
842 882 883 843
843 883 884 844
844 884 885 845
845 885 886 846
846 886 887 847
847 887 888 848
848 888 889 849
849 889 890 850
850 890 891 851
851 891 892 852
852 892 893 853
853 893 894 854
854 894 895 855
855 895 896 856
856 896 897 857
857 897 898 858
858 898 899 859
859 899 900 860
860 900 901 861
861 901 902 862
862 902 903 863
863 903 904 864
864 904 905 865
865 905 906 866
866 906 907 867
867 907 908 868
868 908 909 869
869 909 910 870
870 910 911 871
871 911 912 872
872 912 913 873
873 913 914 874
874 914 915 875
875 915 916 876
876 916 917 877
877 917 100 99
22 23 918 878
878 918 919 879
879 919 920 880
880 920 921 881
881 921 922 882
882 922 923 883
883 923 924 884
884 924 925 885
885 925 926 886
886 926 927 887
887 927 928 888
888 928 929 889
889 929 930 890
890 930 931 891
891 931 932 892
892 932 933 893
893 933 934 894
894 934 935 895
895 935 936 896
896 936 937 897
897 937 938 898
898 938 939 899
899 939 940 900
900 940 941 901
901 941 942 902
902 942 943 903
903 943 944 904
904 944 945 905
905 945 946 906
906 946 947 907
907 947 948 908
908 948 949 909
909 949 950 910
910 950 951 911
911 951 952 912
912 952 953 913
913 953 954 914
914 954 955 915
915 955 956 916
916 956 957 917
917 957 101 100
23 24 958 918
918 958 959 919
919 959 960 920
920 960 961 921
921 961 962 922
922 962 963 923
923 963 964 924
924 964 965 925
925 965 966 926
926 966 967 927
927 967 968 928
928 968 969 929
929 969 970 930
930 970 971 931
931 971 972 932
932 972 973 933
933 973 974 934
934 974 975 935
935 975 976 936
936 976 977 937
937 977 978 938
938 978 979 939
939 979 980 940
940 980 981 941
941 981 982 942
942 982 983 943
943 983 984 944
944 984 985 945
945 985 986 946
946 986 987 947
947 987 988 948
948 988 989 949
949 989 990 950
950 990 991 951
951 991 992 952
952 992 993 953
953 993 994 954
954 994 995 955
955 995 996 956
956 996 997 957
957 997 102 101
24 25 998 958
958 998 999 959
959 999 1000 960
960 1000 1001 961
961 1001 1002 962
962 1002 1003 963
963 1003 1004 964
964 1004 1005 965
965 1005 1006 966
966 1006 1007 967
967 1007 1008 968
968 1008 1009 969
969 1009 1010 970
970 1010 1011 971
971 1011 1012 972
972 1012 1013 973
973 1013 1014 974
974 1014 1015 975
975 1015 1016 976
976 1016 1017 977
977 1017 1018 978
978 1018 1019 979
979 1019 1020 980
980 1020 1021 981
981 1021 1022 982
982 1022 1023 983
983 1023 1024 984
984 1024 1025 985
985 1025 1026 986
986 1026 1027 987
987 1027 1028 988
988 1028 1029 989
989 1029 1030 990
990 1030 1031 991
991 1031 1032 992
992 1032 1033 993
993 1033 1034 994
994 1034 1035 995
995 1035 1036 996
996 1036 1037 997
997 1037 103 102
25 26 1038 998
998 1038 1039 999
999 1039 1040 1000
1000 1040 1041 1001
1001 1041 1042 1002
1002 1042 1043 1003
1003 1043 1044 1004
1004 1044 1045 1005
1005 1045 1046 1006
1006 1046 1047 1007
1007 1047 1048 1008
1008 1048 1049 1009
1009 1049 1050 1010
1010 1050 1051 1011
1011 1051 1052 1012
1012 1052 1053 1013
1013 1053 1054 1014
1014 1054 1055 1015
1015 1055 1056 1016
1016 1056 1057 1017
1017 1057 1058 1018
1018 1058 1059 1019
1019 1059 1060 1020
1020 1060 1061 1021
1021 1061 1062 1022
1022 1062 1063 1023
1023 1063 1064 1024
1024 1064 1065 1025
1025 1065 1066 1026
1026 1066 1067 1027
1027 1067 1068 1028
1028 1068 1069 1029
1029 1069 1070 1030
1030 1070 1071 1031
1031 1071 1072 1032
1032 1072 1073 1033
1033 1073 1074 1034
1034 1074 1075 1035
1035 1075 1076 1036
1036 1076 1077 1037
1037 1077 104 103
26 27 1078 1038
1038 1078 1079 1039
1039 1079 1080 1040
1040 1080 1081 1041
1041 1081 1082 1042
1042 1082 1083 1043
1043 1083 1084 1044
1044 1084 1085 1045
1045 1085 1086 1046
1046 1086 1087 1047
1047 1087 1088 1048
1048 1088 1089 1049
1049 1089 1090 1050
1050 1090 1091 1051
1051 1091 1092 1052
1052 1092 1093 1053
1053 1093 1094 1054
1054 1094 1095 1055
1055 1095 1096 1056
1056 1096 1097 1057
1057 1097 1098 1058
1058 1098 1099 1059
1059 1099 1100 1060
1060 1100 1101 1061
1061 1101 1102 1062
1062 1102 1103 1063
1063 1103 1104 1064
1064 1104 1105 1065
1065 1105 1106 1066
1066 1106 1107 1067
1067 1107 1108 1068
1068 1108 1109 1069
1069 1109 1110 1070
1070 1110 1111 1071
1071 1111 1112 1072
1072 1112 1113 1073
1073 1113 1114 1074
1074 1114 1115 1075
1075 1115 1116 1076
1076 1116 1117 1077
1077 1117 105 104
27 28 1118 1078
1078 1118 1119 1079
1079 1119 1120 1080
1080 1120 1121 1081
1081 1121 1122 1082
1082 1122 1123 1083
1083 1123 1124 1084
1084 1124 1125 1085
1085 1125 1126 1086
1086 1126 1127 1087
1087 1127 1128 1088
1088 1128 1129 1089
1089 1129 1130 1090
1090 1130 1131 1091
1091 1131 1132 1092
1092 1132 1133 1093
1093 1133 1134 1094
1094 1134 1135 1095
1095 1135 1136 1096
1096 1136 1137 1097
1097 1137 1138 1098
1098 1138 1139 1099
1099 1139 1140 1100
1100 1140 1141 1101
1101 1141 1142 1102
1102 1142 1143 1103
1103 1143 1144 1104
1104 1144 1145 1105
1105 1145 1146 1106
1106 1146 1147 1107
1107 1147 1148 1108
1108 1148 1149 1109
1109 1149 1150 1110
1110 1150 1151 1111
1111 1151 1152 1112
1112 1152 1153 1113
1113 1153 1154 1114
1114 1154 1155 1115
1115 1155 1156 1116
1116 1156 1157 1117
1117 1157 106 105
28 29 1158 1118
1118 1158 1159 1119
1119 1159 1160 1120
1120 1160 1161 1121
1121 1161 1162 1122
1122 1162 1163 1123
1123 1163 1164 1124
1124 1164 1165 1125
1125 1165 1166 1126
1126 1166 1167 1127
1127 1167 1168 1128
1128 1168 1169 1129
1129 1169 1170 1130
1130 1170 1171 1131
1131 1171 1172 1132
1132 1172 1173 1133
1133 1173 1174 1134
1134 1174 1175 1135
1135 1175 1176 1136
1136 1176 1177 1137
1137 1177 1178 1138
1138 1178 1179 1139
1139 1179 1180 1140
1140 1180 1181 1141
1141 1181 1182 1142
1142 1182 1183 1143
1143 1183 1184 1144
1144 1184 1185 1145
1145 1185 1186 1146
1146 1186 1187 1147
1147 1187 1188 1148
1148 1188 1189 1149
1149 1189 1190 1150
1150 1190 1191 1151
1151 1191 1192 1152
1152 1192 1193 1153
1153 1193 1194 1154
1154 1194 1195 1155
1155 1195 1196 1156
1156 1196 1197 1157
1157 1197 107 106
29 30 1198 1158
1158 1198 1199 1159
1159 1199 1200 1160
1160 1200 1201 1161
1161 1201 1202 1162
1162 1202 1203 1163
1163 1203 1204 1164
1164 1204 1205 1165
1165 1205 1206 1166
1166 1206 1207 1167
1167 1207 1208 1168
1168 1208 1209 1169
1169 1209 1210 1170
1170 1210 1211 1171
1171 1211 1212 1172
1172 1212 1213 1173
1173 1213 1214 1174
1174 1214 1215 1175
1175 1215 1216 1176
1176 1216 1217 1177
1177 1217 1218 1178
1178 1218 1219 1179
1179 1219 1220 1180
1180 1220 1221 1181
1181 1221 1222 1182
1182 1222 1223 1183
1183 1223 1224 1184
1184 1224 1225 1185
1185 1225 1226 1186
1186 1226 1227 1187
1187 1227 1228 1188
1188 1228 1229 1189
1189 1229 1230 1190
1190 1230 1231 1191
1191 1231 1232 1192
1192 1232 1233 1193
1193 1233 1234 1194
1194 1234 1235 1195
1195 1235 1236 1196
1196 1236 1237 1197
1197 1237 4 107
30 31 1238 1198
1198 1238 1239 1199
1199 1239 1240 1200
1200 1240 1241 1201
1201 1241 1242 1202
1202 1242 1243 1203
1203 1243 1244 1204
1204 1244 1245 1205
1205 1245 1246 1206
1206 1246 1247 1207
1207 1247 1248 1208
1208 1248 1249 1209
1209 1249 1250 1210
1210 1250 1251 1211
1211 1251 1252 1212
1212 1252 1253 1213
1213 1253 1254 1214
1214 1254 1255 1215
1215 1255 1256 1216
1216 1256 1257 1217
1217 1257 1258 1218
1218 1258 1259 1219
1219 1259 1260 1220
1220 1260 1261 1221
1221 1261 1262 1222
1222 1262 1263 1223
1223 1263 1264 1224
1224 1264 1265 1225
1225 1265 1266 1226
1226 1266 1267 1227
1227 1267 1268 1228
1228 1268 1269 1229
1229 1269 1270 1230
1230 1270 1271 1231
1231 1271 1272 1232
1232 1272 1273 1233
1233 1273 1274 1234
1234 1274 1275 1235
1235 1275 1276 1236
1236 1276 1277 1237
1237 1277 108 4
31 32 1278 1238
1238 1278 1279 1239
1239 1279 1280 1240
1240 1280 1281 1241
1241 1281 1282 1242
1242 1282 1283 1243
1243 1283 1284 1244
1244 1284 1285 1245
1245 1285 1286 1246
1246 1286 1287 1247
1247 1287 1288 1248
1248 1288 1289 1249
1249 1289 1290 1250
1250 1290 1291 1251
1251 1291 1292 1252
1252 1292 1293 1253
1253 1293 1294 1254
1254 1294 1295 1255
1255 1295 1296 1256
1256 1296 1297 1257
1257 1297 1298 1258
1258 1298 1299 1259
1259 1299 1300 1260
1260 1300 1301 1261
1261 1301 1302 1262
1262 1302 1303 1263
1263 1303 1304 1264
1264 1304 1305 1265
1265 1305 1306 1266
1266 1306 1307 1267
1267 1307 1308 1268
1268 1308 1309 1269
1269 1309 1310 1270
1270 1310 1311 1271
1271 1311 1312 1272
1272 1312 1313 1273
1273 1313 1314 1274
1274 1314 1315 1275
1275 1315 1316 1276
1276 1316 1317 1277
1277 1317 109 108
32 33 1318 1278
1278 1318 1319 1279
1279 1319 1320 1280
1280 1320 1321 1281
1281 1321 1322 1282
1282 1322 1323 1283
1283 1323 1324 1284
1284 1324 1325 1285
1285 1325 1326 1286
1286 1326 1327 1287
1287 1327 1328 1288
1288 1328 1329 1289
1289 1329 1330 1290
1290 1330 1331 1291
1291 1331 1332 1292
1292 1332 1333 1293
1293 1333 1334 1294
1294 1334 1335 1295
1295 1335 1336 1296
1296 1336 1337 1297
1297 1337 1338 1298
1298 1338 1339 1299
1299 1339 1340 1300
1300 1340 1341 1301
1301 1341 1342 1302
1302 1342 1343 1303
1303 1343 1344 1304
1304 1344 1345 1305
1305 1345 1346 1306
1306 1346 1347 1307
1307 1347 1348 1308
1308 1348 1349 1309
1309 1349 1350 1310
1310 1350 1351 1311
1311 1351 1352 1312
1312 1352 1353 1313
1313 1353 1354 1314
1314 1354 1355 1315
1315 1355 1356 1316
1316 1356 1357 1317
1317 1357 110 109
33 34 1358 1318
1318 1358 1359 1319
1319 1359 1360 1320
1320 1360 1361 1321
1321 1361 1362 1322
1322 1362 1363 1323
1323 1363 1364 1324
1324 1364 1365 1325
1325 1365 1366 1326
1326 1366 1367 1327
1327 1367 1368 1328
1328 1368 1369 1329
1329 1369 1370 1330
1330 1370 1371 1331
1331 1371 1372 1332
1332 1372 1373 1333
1333 1373 1374 1334
1334 1374 1375 1335
1335 1375 1376 1336
1336 1376 1377 1337
1337 1377 1378 1338
1338 1378 1379 1339
1339 1379 1380 1340
1340 1380 1381 1341
1341 1381 1382 1342
1342 1382 1383 1343
1343 1383 1384 1344
1344 1384 1385 1345
1345 1385 1386 1346
1346 1386 1387 1347
1347 1387 1388 1348
1348 1388 1389 1349
1349 1389 1390 1350
1350 1390 1391 1351
1351 1391 1392 1352
1352 1392 1393 1353
1353 1393 1394 1354
1354 1394 1395 1355
1355 1395 1396 1356
1356 1396 1397 1357
1357 1397 111 110
34 35 1398 1358
1358 1398 1399 1359
1359 1399 1400 1360
1360 1400 1401 1361
1361 1401 1402 1362
1362 1402 1403 1363
1363 1403 1404 1364
1364 1404 1405 1365
1365 1405 1406 1366
1366 1406 1407 1367
1367 1407 1408 1368
1368 1408 1409 1369
1369 1409 1410 1370
1370 1410 1411 1371
1371 1411 1412 1372
1372 1412 1413 1373
1373 1413 1414 1374
1374 1414 1415 1375
1375 1415 1416 1376
1376 1416 1417 1377
1377 1417 1418 1378
1378 1418 1419 1379
1379 1419 1420 1380
1380 1420 1421 1381
1381 1421 1422 1382
1382 1422 1423 1383
1383 1423 1424 1384
1384 1424 1425 1385
1385 1425 1426 1386
1386 1426 1427 1387
1387 1427 1428 1388
1388 1428 1429 1389
1389 1429 1430 1390
1390 1430 1431 1391
1391 1431 1432 1392
1392 1432 1433 1393
1393 1433 1434 1394
1394 1434 1435 1395
1395 1435 1436 1396
1396 1436 1437 1397
1397 1437 112 111
35 36 1438 1398
1398 1438 1439 1399
1399 1439 1440 1400
1400 1440 1441 1401
1401 1441 1442 1402
1402 1442 1443 1403
1403 1443 1444 1404
1404 1444 1445 1405
1405 1445 1446 1406
1406 1446 1447 1407
1407 1447 1448 1408
1408 1448 1449 1409
1409 1449 1450 1410
1410 1450 1451 1411
1411 1451 1452 1412
1412 1452 1453 1413
1413 1453 1454 1414
1414 1454 1455 1415
1415 1455 1456 1416
1416 1456 1457 1417
1417 1457 1458 1418
1418 1458 1459 1419
1419 1459 1460 1420
1420 1460 1461 1421
1421 1461 1462 1422
1422 1462 1463 1423
1423 1463 1464 1424
1424 1464 1465 1425
1425 1465 1466 1426
1426 1466 1467 1427
1427 1467 1468 1428
1428 1468 1469 1429
1429 1469 1470 1430
1430 1470 1471 1431
1431 1471 1472 1432
1432 1472 1473 1433
1433 1473 1474 1434
1434 1474 1475 1435
1435 1475 1476 1436
1436 1476 1477 1437
1437 1477 113 112
36 37 1478 1438
1438 1478 1479 1439
1439 1479 1480 1440
1440 1480 1481 1441
1441 1481 1482 1442
1442 1482 1483 1443
1443 1483 1484 1444
1444 1484 1485 1445
1445 1485 1486 1446
1446 1486 1487 1447
1447 1487 1488 1448
1448 1488 1489 1449
1449 1489 1490 1450
1450 1490 1491 1451
1451 1491 1492 1452
1452 1492 1493 1453
1453 1493 1494 1454
1454 1494 1495 1455
1455 1495 1496 1456
1456 1496 1497 1457
1457 1497 1498 1458
1458 1498 1499 1459
1459 1499 1500 1460
1460 1500 1501 1461
1461 1501 1502 1462
1462 1502 1503 1463
1463 1503 1504 1464
1464 1504 1505 1465
1465 1505 1506 1466
1466 1506 1507 1467
1467 1507 1508 1468
1468 1508 1509 1469
1469 1509 1510 1470
1470 1510 1511 1471
1471 1511 1512 1472
1472 1512 1513 1473
1473 1513 1514 1474
1474 1514 1515 1475
1475 1515 1516 1476
1476 1516 1517 1477
1477 1517 114 113
37 38 1518 1478
1478 1518 1519 1479
1479 1519 1520 1480
1480 1520 1521 1481
1481 1521 1522 1482
1482 1522 1523 1483
1483 1523 1524 1484
1484 1524 1525 1485
1485 1525 1526 1486
1486 1526 1527 1487
1487 1527 1528 1488
1488 1528 1529 1489
1489 1529 1530 1490
1490 1530 1531 1491
1491 1531 1532 1492
1492 1532 1533 1493
1493 1533 1534 1494
1494 1534 1535 1495
1495 1535 1536 1496
1496 1536 1537 1497
1497 1537 1538 1498
1498 1538 1539 1499
1499 1539 1540 1500
1500 1540 1541 1501
1501 1541 1542 1502
1502 1542 1543 1503
1503 1543 1544 1504
1504 1544 1545 1505
1505 1545 1546 1506
1506 1546 1547 1507
1507 1547 1548 1508
1508 1548 1549 1509
1509 1549 1550 1510
1510 1550 1551 1511
1511 1551 1552 1512
1512 1552 1553 1513
1513 1553 1554 1514
1514 1554 1555 1515
1515 1555 1556 1516
1516 1556 1557 1517
1517 1557 115 114
38 39 1558 1518
1518 1558 1559 1519
1519 1559 1560 1520
1520 1560 1561 1521
1521 1561 1562 1522
1522 1562 1563 1523
1523 1563 1564 1524
1524 1564 1565 1525
1525 1565 1566 1526
1526 1566 1567 1527
1527 1567 1568 1528
1528 1568 1569 1529
1529 1569 1570 1530
1530 1570 1571 1531
1531 1571 1572 1532
1532 1572 1573 1533
1533 1573 1574 1534
1534 1574 1575 1535
1535 1575 1576 1536
1536 1576 1577 1537
1537 1577 1578 1538
1538 1578 1579 1539
1539 1579 1580 1540
1540 1580 1581 1541
1541 1581 1582 1542
1542 1582 1583 1543
1543 1583 1584 1544
1544 1584 1585 1545
1545 1585 1586 1546
1546 1586 1587 1547
1547 1587 1588 1548
1548 1588 1589 1549
1549 1589 1590 1550
1550 1590 1591 1551
1551 1591 1592 1552
1552 1592 1593 1553
1553 1593 1594 1554
1554 1594 1595 1555
1555 1595 1596 1556
1556 1596 1597 1557
1557 1597 116 115
39 40 1598 1558
1558 1598 1599 1559
1559 1599 1600 1560
1560 1600 1601 1561
1561 1601 1602 1562
1562 1602 1603 1563
1563 1603 1604 1564
1564 1604 1605 1565
1565 1605 1606 1566
1566 1606 1607 1567
1567 1607 1608 1568
1568 1608 1609 1569
1569 1609 1610 1570
1570 1610 1611 1571
1571 1611 1612 1572
1572 1612 1613 1573
1573 1613 1614 1574
1574 1614 1615 1575
1575 1615 1616 1576
1576 1616 1617 1577
1577 1617 1618 1578
1578 1618 1619 1579
1579 1619 1620 1580
1580 1620 1621 1581
1581 1621 1622 1582
1582 1622 1623 1583
1583 1623 1624 1584
1584 1624 1625 1585
1585 1625 1626 1586
1586 1626 1627 1587
1587 1627 1628 1588
1588 1628 1629 1589
1589 1629 1630 1590
1590 1630 1631 1591
1591 1631 1632 1592
1592 1632 1633 1593
1593 1633 1634 1594
1594 1634 1635 1595
1595 1635 1636 1596
1596 1636 1637 1597
1597 1637 117 116
40 41 1638 1598
1598 1638 1639 1599
1599 1639 1640 1600
1600 1640 1641 1601
1601 1641 1642 1602
1602 1642 1643 1603
1603 1643 1644 1604
1604 1644 1645 1605
1605 1645 1646 1606
1606 1646 1647 1607
1607 1647 1648 1608
1608 1648 1649 1609
1609 1649 1650 1610
1610 1650 1651 1611
1611 1651 1652 1612
1612 1652 1653 1613
1613 1653 1654 1614
1614 1654 1655 1615
1615 1655 1656 1616
1616 1656 1657 1617
1617 1657 1658 1618
1618 1658 1659 1619
1619 1659 1660 1620
1620 1660 1661 1621
1621 1661 1662 1622
1622 1662 1663 1623
1623 1663 1664 1624
1624 1664 1665 1625
1625 1665 1666 1626
1626 1666 1667 1627
1627 1667 1668 1628
1628 1668 1669 1629
1629 1669 1670 1630
1630 1670 1671 1631
1631 1671 1672 1632
1632 1672 1673 1633
1633 1673 1674 1634
1634 1674 1675 1635
1635 1675 1676 1636
1636 1676 1677 1637
1637 1677 118 117
41 42 1678 1638
1638 1678 1679 1639
1639 1679 1680 1640
1640 1680 1681 1641
1641 1681 1682 1642
1642 1682 1683 1643
1643 1683 1684 1644
1644 1684 1685 1645
1645 1685 1686 1646
1646 1686 1687 1647
1647 1687 1688 1648
1648 1688 1689 1649
1649 1689 1690 1650
1650 1690 1691 1651
1651 1691 1692 1652
1652 1692 1693 1653
1653 1693 1694 1654
1654 1694 1695 1655
1655 1695 1696 1656
1656 1696 1697 1657
1657 1697 1698 1658
1658 1698 1699 1659
1659 1699 1700 1660
1660 1700 1701 1661
1661 1701 1702 1662
1662 1702 1703 1663
1663 1703 1704 1664
1664 1704 1705 1665
1665 1705 1706 1666
1666 1706 1707 1667
1667 1707 1708 1668
1668 1708 1709 1669
1669 1709 1710 1670
1670 1710 1711 1671
1671 1711 1712 1672
1672 1712 1713 1673
1673 1713 1714 1674
1674 1714 1715 1675
1675 1715 1716 1676
1676 1716 1717 1677
1677 1717 119 118
42 43 1718 1678
1678 1718 1719 1679
1679 1719 1720 1680
1680 1720 1721 1681
1681 1721 1722 1682
1682 1722 1723 1683
1683 1723 1724 1684
1684 1724 1725 1685
1685 1725 1726 1686
1686 1726 1727 1687
1687 1727 1728 1688
1688 1728 1729 1689
1689 1729 1730 1690
1690 1730 1731 1691
1691 1731 1732 1692
1692 1732 1733 1693
1693 1733 1734 1694
1694 1734 1735 1695
1695 1735 1736 1696
1696 1736 1737 1697
1697 1737 1738 1698
1698 1738 1739 1699
1699 1739 1740 1700
1700 1740 1741 1701
1701 1741 1742 1702
1702 1742 1743 1703
1703 1743 1744 1704
1704 1744 1745 1705
1705 1745 1746 1706
1706 1746 1747 1707
1707 1747 1748 1708
1708 1748 1749 1709
1709 1749 1750 1710
1710 1750 1751 1711
1711 1751 1752 1712
1712 1752 1753 1713
1713 1753 1754 1714
1714 1754 1755 1715
1715 1755 1756 1716
1716 1756 1757 1717
1717 1757 120 119
43 44 1758 1718
1718 1758 1759 1719
1719 1759 1760 1720
1720 1760 1761 1721
1721 1761 1762 1722
1722 1762 1763 1723
1723 1763 1764 1724
1724 1764 1765 1725
1725 1765 1766 1726
1726 1766 1767 1727
1727 1767 1768 1728
1728 1768 1769 1729
1729 1769 1770 1730
1730 1770 1771 1731
1731 1771 1772 1732
1732 1772 1773 1733
1733 1773 1774 1734
1734 1774 1775 1735
1735 1775 1776 1736
1736 1776 1777 1737
1737 1777 1778 1738
1738 1778 1779 1739
1739 1779 1780 1740
1740 1780 1781 1741
1741 1781 1782 1742
1742 1782 1783 1743
1743 1783 1784 1744
1744 1784 1785 1745
1745 1785 1786 1746
1746 1786 1787 1747
1747 1787 1788 1748
1748 1788 1789 1749
1749 1789 1790 1750
1750 1790 1791 1751
1751 1791 1792 1752
1752 1792 1793 1753
1753 1793 1794 1754
1754 1794 1795 1755
1755 1795 1796 1756
1756 1796 1797 1757
1757 1797 121 120
44 45 1798 1758
1758 1798 1799 1759
1759 1799 1800 1760
1760 1800 1801 1761
1761 1801 1802 1762
1762 1802 1803 1763
1763 1803 1804 1764
1764 1804 1805 1765
1765 1805 1806 1766
1766 1806 1807 1767
1767 1807 1808 1768
1768 1808 1809 1769
1769 1809 1810 1770
1770 1810 1811 1771
1771 1811 1812 1772
1772 1812 1813 1773
1773 1813 1814 1774
1774 1814 1815 1775
1775 1815 1816 1776
1776 1816 1817 1777
1777 1817 1818 1778
1778 1818 1819 1779
1779 1819 1820 1780
1780 1820 1821 1781
1781 1821 1822 1782
1782 1822 1823 1783
1783 1823 1824 1784
1784 1824 1825 1785
1785 1825 1826 1786
1786 1826 1827 1787
1787 1827 1828 1788
1788 1828 1829 1789
1789 1829 1830 1790
1790 1830 1831 1791
1791 1831 1832 1792
1792 1832 1833 1793
1793 1833 1834 1794
1794 1834 1835 1795
1795 1835 1836 1796
1796 1836 1837 1797
1797 1837 122 121
45 46 1838 1798
1798 1838 1839 1799
1799 1839 1840 1800
1800 1840 1841 1801
1801 1841 1842 1802
1802 1842 1843 1803
1803 1843 1844 1804
1804 1844 1845 1805
1805 1845 1846 1806
1806 1846 1847 1807
1807 1847 1848 1808
1808 1848 1849 1809
1809 1849 1850 1810
1810 1850 1851 1811
1811 1851 1852 1812
1812 1852 1853 1813
1813 1853 1854 1814
1814 1854 1855 1815
1815 1855 1856 1816
1816 1856 1857 1817
1817 1857 1858 1818
1818 1858 1859 1819
1819 1859 1860 1820
1820 1860 1861 1821
1821 1861 1862 1822
1822 1862 1863 1823
1823 1863 1864 1824
1824 1864 1865 1825
1825 1865 1866 1826
1826 1866 1867 1827
1827 1867 1868 1828
1828 1868 1869 1829
1829 1869 1870 1830
1830 1870 1871 1831
1831 1871 1872 1832
1832 1872 1873 1833
1833 1873 1874 1834
1834 1874 1875 1835
1835 1875 1876 1836
1836 1876 1877 1837
1837 1877 123 122
46 47 1878 1838
1838 1878 1879 1839
1839 1879 1880 1840
1840 1880 1881 1841
1841 1881 1882 1842
1842 1882 1883 1843
1843 1883 1884 1844
1844 1884 1885 1845
1845 1885 1886 1846
1846 1886 1887 1847
1847 1887 1888 1848
1848 1888 1889 1849
1849 1889 1890 1850
1850 1890 1891 1851
1851 1891 1892 1852
1852 1892 1893 1853
1853 1893 1894 1854
1854 1894 1895 1855
1855 1895 1896 1856
1856 1896 1897 1857
1857 1897 1898 1858
1858 1898 1899 1859
1859 1899 1900 1860
1860 1900 1901 1861
1861 1901 1902 1862
1862 1902 1903 1863
1863 1903 1904 1864
1864 1904 1905 1865
1865 1905 1906 1866
1866 1906 1907 1867
1867 1907 1908 1868
1868 1908 1909 1869
1869 1909 1910 1870
1870 1910 1911 1871
1871 1911 1912 1872
1872 1912 1913 1873
1873 1913 1914 1874
1874 1914 1915 1875
1875 1915 1916 1876
1876 1916 1917 1877
1877 1917 124 123
47 48 1918 1878
1878 1918 1919 1879
1879 1919 1920 1880
1880 1920 1921 1881
1881 1921 1922 1882
1882 1922 1923 1883
1883 1923 1924 1884
1884 1924 1925 1885
1885 1925 1926 1886
1886 1926 1927 1887
1887 1927 1928 1888
1888 1928 1929 1889
1889 1929 1930 1890
1890 1930 1931 1891
1891 1931 1932 1892
1892 1932 1933 1893
1893 1933 1934 1894
1894 1934 1935 1895
1895 1935 1936 1896
1896 1936 1937 1897
1897 1937 1938 1898
1898 1938 1939 1899
1899 1939 1940 1900
1900 1940 1941 1901
1901 1941 1942 1902
1902 1942 1943 1903
1903 1943 1944 1904
1904 1944 1945 1905
1905 1945 1946 1906
1906 1946 1947 1907
1907 1947 1948 1908
1908 1948 1949 1909
1909 1949 1950 1910
1910 1950 1951 1911
1911 1951 1952 1912
1912 1952 1953 1913
1913 1953 1954 1914
1914 1954 1955 1915
1915 1955 1956 1916
1916 1956 1957 1917
1917 1957 125 124
48 49 1958 1918
1918 1958 1959 1919
1919 1959 1960 1920
1920 1960 1961 1921
1921 1961 1962 1922
1922 1962 1963 1923
1923 1963 1964 1924
1924 1964 1965 1925
1925 1965 1966 1926
1926 1966 1967 1927
1927 1967 1968 1928
1928 1968 1969 1929
1929 1969 1970 1930
1930 1970 1971 1931
1931 1971 1972 1932
1932 1972 1973 1933
1933 1973 1974 1934
1934 1974 1975 1935
1935 1975 1976 1936
1936 1976 1977 1937
1937 1977 1978 1938
1938 1978 1979 1939
1939 1979 1980 1940
1940 1980 1981 1941
1941 1981 1982 1942
1942 1982 1983 1943
1943 1983 1984 1944
1944 1984 1985 1945
1945 1985 1986 1946
1946 1986 1987 1947
1947 1987 1988 1948
1948 1988 1989 1949
1949 1989 1990 1950
1950 1990 1991 1951
1951 1991 1992 1952
1952 1992 1993 1953
1953 1993 1994 1954
1954 1994 1995 1955
1955 1995 1996 1956
1956 1996 1997 1957
1957 1997 126 125
49 1 1998 1958
1958 1998 1999 1959
1959 1999 2000 1960
1960 2000 2001 1961
1961 2001 2002 1962
1962 2002 2003 1963
1963 2003 2004 1964
1964 2004 2005 1965
1965 2005 2006 1966
1966 2006 2007 1967
1967 2007 2008 1968
1968 2008 2009 1969
1969 2009 2010 1970
1970 2010 2011 1971
1971 2011 2012 1972
1972 2012 2013 1973
1973 2013 2014 1974
1974 2014 2015 1975
1975 2015 2016 1976
1976 2016 2017 1977
1977 2017 2018 1978
1978 2018 2019 1979
1979 2019 2020 1980
1980 2020 2021 1981
1981 2021 2022 1982
1982 2022 2023 1983
1983 2023 2024 1984
1984 2024 2025 1985
1985 2025 2026 1986
1986 2026 2027 1987
1987 2027 2028 1988
1988 2028 2029 1989
1989 2029 2030 1990
1990 2030 2031 1991
1991 2031 2032 1992
1992 2032 2033 1993
1993 2033 2034 1994
1994 2034 2035 1995
1995 2035 2036 1996
1996 2036 2037 1997
1997 2037 127 126
1 50 2038 1998
1998 2038 2039 1999
1999 2039 2040 2000
2000 2040 2041 2001
2001 2041 2042 2002
2002 2042 2043 2003
2003 2043 2044 2004
2004 2044 2045 2005
2005 2045 2046 2006
2006 2046 2047 2007
2007 2047 2048 2008
2008 2048 2049 2009
2009 2049 2050 2010
2010 2050 2051 2011
2011 2051 2052 2012
2012 2052 2053 2013
2013 2053 2054 2014
2014 2054 2055 2015
2015 2055 2056 2016
2016 2056 2057 2017
2017 2057 2058 2018
2018 2058 2059 2019
2019 2059 2060 2020
2020 2060 2061 2021
2021 2061 2062 2022
2022 2062 2063 2023
2023 2063 2064 2024
2024 2064 2065 2025
2025 2065 2066 2026
2026 2066 2067 2027
2027 2067 2068 2028
2028 2068 2069 2029
2029 2069 2070 2030
2030 2070 2071 2031
2031 2071 2072 2032
2032 2072 2073 2033
2033 2073 2074 2034
2034 2074 2075 2035
2035 2075 2076 2036
2036 2076 2077 2037
2037 2077 128 127
50 51 2078 2038
2038 2078 2079 2039
2039 2079 2080 2040
2040 2080 2081 2041
2041 2081 2082 2042
2042 2082 2083 2043
2043 2083 2084 2044
2044 2084 2085 2045
2045 2085 2086 2046
2046 2086 2087 2047
2047 2087 2088 2048
2048 2088 2089 2049
2049 2089 2090 2050
2050 2090 2091 2051
2051 2091 2092 2052
2052 2092 2093 2053
2053 2093 2094 2054
2054 2094 2095 2055
2055 2095 2096 2056
2056 2096 2097 2057
2057 2097 2098 2058
2058 2098 2099 2059
2059 2099 2100 2060
2060 2100 2101 2061
2061 2101 2102 2062
2062 2102 2103 2063
2063 2103 2104 2064
2064 2104 2105 2065
2065 2105 2106 2066
2066 2106 2107 2067
2067 2107 2108 2068
2068 2108 2109 2069
2069 2109 2110 2070
2070 2110 2111 2071
2071 2111 2112 2072
2072 2112 2113 2073
2073 2113 2114 2074
2074 2114 2115 2075
2075 2115 2116 2076
2076 2116 2117 2077
2077 2117 129 128
51 52 2118 2078
2078 2118 2119 2079
2079 2119 2120 2080
2080 2120 2121 2081
2081 2121 2122 2082
2082 2122 2123 2083
2083 2123 2124 2084
2084 2124 2125 2085
2085 2125 2126 2086
2086 2126 2127 2087
2087 2127 2128 2088
2088 2128 2129 2089
2089 2129 2130 2090
2090 2130 2131 2091
2091 2131 2132 2092
2092 2132 2133 2093
2093 2133 2134 2094
2094 2134 2135 2095
2095 2135 2136 2096
2096 2136 2137 2097
2097 2137 2138 2098
2098 2138 2139 2099
2099 2139 2140 2100
2100 2140 2141 2101
2101 2141 2142 2102
2102 2142 2143 2103
2103 2143 2144 2104
2104 2144 2145 2105
2105 2145 2146 2106
2106 2146 2147 2107
2107 2147 2148 2108
2108 2148 2149 2109
2109 2149 2150 2110
2110 2150 2151 2111
2111 2151 2152 2112
2112 2152 2153 2113
2113 2153 2154 2114
2114 2154 2155 2115
2115 2155 2156 2116
2116 2156 2157 2117
2117 2157 130 129
52 53 2158 2118
2118 2158 2159 2119
2119 2159 2160 2120
2120 2160 2161 2121
2121 2161 2162 2122
2122 2162 2163 2123
2123 2163 2164 2124
2124 2164 2165 2125
2125 2165 2166 2126
2126 2166 2167 2127
2127 2167 2168 2128
2128 2168 2169 2129
2129 2169 2170 2130
2130 2170 2171 2131
2131 2171 2172 2132
2132 2172 2173 2133
2133 2173 2174 2134
2134 2174 2175 2135
2135 2175 2176 2136
2136 2176 2177 2137
2137 2177 2178 2138
2138 2178 2179 2139
2139 2179 2180 2140
2140 2180 2181 2141
2141 2181 2182 2142
2142 2182 2183 2143
2143 2183 2184 2144
2144 2184 2185 2145
2145 2185 2186 2146
2146 2186 2187 2147
2147 2187 2188 2148
2148 2188 2189 2149
2149 2189 2190 2150
2150 2190 2191 2151
2151 2191 2192 2152
2152 2192 2193 2153
2153 2193 2194 2154
2154 2194 2195 2155
2155 2195 2196 2156
2156 2196 2197 2157
2157 2197 131 130
53 54 2198 2158
2158 2198 2199 2159
2159 2199 2200 2160
2160 2200 2201 2161
2161 2201 2202 2162
2162 2202 2203 2163
2163 2203 2204 2164
2164 2204 2205 2165
2165 2205 2206 2166
2166 2206 2207 2167
2167 2207 2208 2168
2168 2208 2209 2169
2169 2209 2210 2170
2170 2210 2211 2171
2171 2211 2212 2172
2172 2212 2213 2173
2173 2213 2214 2174
2174 2214 2215 2175
2175 2215 2216 2176
2176 2216 2217 2177
2177 2217 2218 2178
2178 2218 2219 2179
2179 2219 2220 2180
2180 2220 2221 2181
2181 2221 2222 2182
2182 2222 2223 2183
2183 2223 2224 2184
2184 2224 2225 2185
2185 2225 2226 2186
2186 2226 2227 2187
2187 2227 2228 2188
2188 2228 2229 2189
2189 2229 2230 2190
2190 2230 2231 2191
2191 2231 2232 2192
2192 2232 2233 2193
2193 2233 2234 2194
2194 2234 2235 2195
2195 2235 2236 2196
2196 2236 2237 2197
2197 2237 132 131
54 55 2238 2198
2198 2238 2239 2199
2199 2239 2240 2200
2200 2240 2241 2201
2201 2241 2242 2202
2202 2242 2243 2203
2203 2243 2244 2204
2204 2244 2245 2205
2205 2245 2246 2206
2206 2246 2247 2207
2207 2247 2248 2208
2208 2248 2249 2209
2209 2249 2250 2210
2210 2250 2251 2211
2211 2251 2252 2212
2212 2252 2253 2213
2213 2253 2254 2214
2214 2254 2255 2215
2215 2255 2256 2216
2216 2256 2257 2217
2217 2257 2258 2218
2218 2258 2259 2219
2219 2259 2260 2220
2220 2260 2261 2221
2221 2261 2262 2222
2222 2262 2263 2223
2223 2263 2264 2224
2224 2264 2265 2225
2225 2265 2266 2226
2226 2266 2267 2227
2227 2267 2268 2228
2228 2268 2269 2229
2229 2269 2270 2230
2230 2270 2271 2231
2231 2271 2272 2232
2232 2272 2273 2233
2233 2273 2274 2234
2234 2274 2275 2235
2235 2275 2276 2236
2236 2276 2277 2237
2237 2277 133 132
55 56 2278 2238
2238 2278 2279 2239
2239 2279 2280 2240
2240 2280 2281 2241
2241 2281 2282 2242
2242 2282 2283 2243
2243 2283 2284 2244
2244 2284 2285 2245
2245 2285 2286 2246
2246 2286 2287 2247
2247 2287 2288 2248
2248 2288 2289 2249
2249 2289 2290 2250
2250 2290 2291 2251
2251 2291 2292 2252
2252 2292 2293 2253
2253 2293 2294 2254
2254 2294 2295 2255
2255 2295 2296 2256
2256 2296 2297 2257
2257 2297 2298 2258
2258 2298 2299 2259
2259 2299 2300 2260
2260 2300 2301 2261
2261 2301 2302 2262
2262 2302 2303 2263
2263 2303 2304 2264
2264 2304 2305 2265
2265 2305 2306 2266
2266 2306 2307 2267
2267 2307 2308 2268
2268 2308 2309 2269
2269 2309 2310 2270
2270 2310 2311 2271
2271 2311 2312 2272
2272 2312 2313 2273
2273 2313 2314 2274
2274 2314 2315 2275
2275 2315 2316 2276
2276 2316 2317 2277
2277 2317 134 133
56 57 2318 2278
2278 2318 2319 2279
2279 2319 2320 2280
2280 2320 2321 2281
2281 2321 2322 2282
2282 2322 2323 2283
2283 2323 2324 2284
2284 2324 2325 2285
2285 2325 2326 2286
2286 2326 2327 2287
2287 2327 2328 2288
2288 2328 2329 2289
2289 2329 2330 2290
2290 2330 2331 2291
2291 2331 2332 2292
2292 2332 2333 2293
2293 2333 2334 2294
2294 2334 2335 2295
2295 2335 2336 2296
2296 2336 2337 2297
2297 2337 2338 2298
2298 2338 2339 2299
2299 2339 2340 2300
2300 2340 2341 2301
2301 2341 2342 2302
2302 2342 2343 2303
2303 2343 2344 2304
2304 2344 2345 2305
2305 2345 2346 2306
2306 2346 2347 2307
2307 2347 2348 2308
2308 2348 2349 2309
2309 2349 2350 2310
2310 2350 2351 2311
2311 2351 2352 2312
2312 2352 2353 2313
2313 2353 2354 2314
2314 2354 2355 2315
2315 2355 2356 2316
2316 2356 2357 2317
2317 2357 135 134
57 58 2358 2318
2318 2358 2359 2319
2319 2359 2360 2320
2320 2360 2361 2321
2321 2361 2362 2322
2322 2362 2363 2323
2323 2363 2364 2324
2324 2364 2365 2325
2325 2365 2366 2326
2326 2366 2367 2327
2327 2367 2368 2328
2328 2368 2369 2329
2329 2369 2370 2330
2330 2370 2371 2331
2331 2371 2372 2332
2332 2372 2373 2333
2333 2373 2374 2334
2334 2374 2375 2335
2335 2375 2376 2336
2336 2376 2377 2337
2337 2377 2378 2338
2338 2378 2379 2339
2339 2379 2380 2340
2340 2380 2381 2341
2341 2381 2382 2342
2342 2382 2383 2343
2343 2383 2384 2344
2344 2384 2385 2345
2345 2385 2386 2346
2346 2386 2387 2347
2347 2387 2388 2348
2348 2388 2389 2349
2349 2389 2390 2350
2350 2390 2391 2351
2351 2391 2392 2352
2352 2392 2393 2353
2353 2393 2394 2354
2354 2394 2395 2355
2355 2395 2396 2356
2356 2396 2397 2357
2357 2397 136 135
58 59 2398 2358
2358 2398 2399 2359
2359 2399 2400 2360
2360 2400 2401 2361
2361 2401 2402 2362
2362 2402 2403 2363
2363 2403 2404 2364
2364 2404 2405 2365
2365 2405 2406 2366
2366 2406 2407 2367
2367 2407 2408 2368
2368 2408 2409 2369
2369 2409 2410 2370
2370 2410 2411 2371
2371 2411 2412 2372
2372 2412 2413 2373
2373 2413 2414 2374
2374 2414 2415 2375
2375 2415 2416 2376
2376 2416 2417 2377
2377 2417 2418 2378
2378 2418 2419 2379
2379 2419 2420 2380
2380 2420 2421 2381
2381 2421 2422 2382
2382 2422 2423 2383
2383 2423 2424 2384
2384 2424 2425 2385
2385 2425 2426 2386
2386 2426 2427 2387
2387 2427 2428 2388
2388 2428 2429 2389
2389 2429 2430 2390
2390 2430 2431 2391
2391 2431 2432 2392
2392 2432 2433 2393
2393 2433 2434 2394
2394 2434 2435 2395
2395 2435 2436 2396
2396 2436 2437 2397
2397 2437 137 136
59 60 2438 2398
2398 2438 2439 2399
2399 2439 2440 2400
2400 2440 2441 2401
2401 2441 2442 2402
2402 2442 2443 2403
2403 2443 2444 2404
2404 2444 2445 2405
2405 2445 2446 2406
2406 2446 2447 2407
2407 2447 2448 2408
2408 2448 2449 2409
2409 2449 2450 2410
2410 2450 2451 2411
2411 2451 2452 2412
2412 2452 2453 2413
2413 2453 2454 2414
2414 2454 2455 2415
2415 2455 2456 2416
2416 2456 2457 2417
2417 2457 2458 2418
2418 2458 2459 2419
2419 2459 2460 2420
2420 2460 2461 2421
2421 2461 2462 2422
2422 2462 2463 2423
2423 2463 2464 2424
2424 2464 2465 2425
2425 2465 2466 2426
2426 2466 2467 2427
2427 2467 2468 2428
2428 2468 2469 2429
2429 2469 2470 2430
2430 2470 2471 2431
2431 2471 2472 2432
2432 2472 2473 2433
2433 2473 2474 2434
2434 2474 2475 2435
2435 2475 2476 2436
2436 2476 2477 2437
2437 2477 138 137
60 61 2478 2438
2438 2478 2479 2439
2439 2479 2480 2440
2440 2480 2481 2441
2441 2481 2482 2442
2442 2482 2483 2443
2443 2483 2484 2444
2444 2484 2485 2445
2445 2485 2486 2446
2446 2486 2487 2447
2447 2487 2488 2448
2448 2488 2489 2449
2449 2489 2490 2450
2450 2490 2491 2451
2451 2491 2492 2452
2452 2492 2493 2453
2453 2493 2494 2454
2454 2494 2495 2455
2455 2495 2496 2456
2456 2496 2497 2457
2457 2497 2498 2458
2458 2498 2499 2459
2459 2499 2500 2460
2460 2500 2501 2461
2461 2501 2502 2462
2462 2502 2503 2463
2463 2503 2504 2464
2464 2504 2505 2465
2465 2505 2506 2466
2466 2506 2507 2467
2467 2507 2508 2468
2468 2508 2509 2469
2469 2509 2510 2470
2470 2510 2511 2471
2471 2511 2512 2472
2472 2512 2513 2473
2473 2513 2514 2474
2474 2514 2515 2475
2475 2515 2516 2476
2476 2516 2517 2477
2477 2517 139 138
61 62 2518 2478
2478 2518 2519 2479
2479 2519 2520 2480
2480 2520 2521 2481
2481 2521 2522 2482
2482 2522 2523 2483
2483 2523 2524 2484
2484 2524 2525 2485
2485 2525 2526 2486
2486 2526 2527 2487
2487 2527 2528 2488
2488 2528 2529 2489
2489 2529 2530 2490
2490 2530 2531 2491
2491 2531 2532 2492
2492 2532 2533 2493
2493 2533 2534 2494
2494 2534 2535 2495
2495 2535 2536 2496
2496 2536 2537 2497
2497 2537 2538 2498
2498 2538 2539 2499
2499 2539 2540 2500
2500 2540 2541 2501
2501 2541 2542 2502
2502 2542 2543 2503
2503 2543 2544 2504
2504 2544 2545 2505
2505 2545 2546 2506
2506 2546 2547 2507
2507 2547 2548 2508
2508 2548 2549 2509
2509 2549 2550 2510
2510 2550 2551 2511
2511 2551 2552 2512
2512 2552 2553 2513
2513 2553 2554 2514
2514 2554 2555 2515
2515 2555 2556 2516
2516 2556 2557 2517
2517 2557 140 139
62 63 2558 2518
2518 2558 2559 2519
2519 2559 2560 2520
2520 2560 2561 2521
2521 2561 2562 2522
2522 2562 2563 2523
2523 2563 2564 2524
2524 2564 2565 2525
2525 2565 2566 2526
2526 2566 2567 2527
2527 2567 2568 2528
2528 2568 2569 2529
2529 2569 2570 2530
2530 2570 2571 2531
2531 2571 2572 2532
2532 2572 2573 2533
2533 2573 2574 2534
2534 2574 2575 2535
2535 2575 2576 2536
2536 2576 2577 2537
2537 2577 2578 2538
2538 2578 2579 2539
2539 2579 2580 2540
2540 2580 2581 2541
2541 2581 2582 2542
2542 2582 2583 2543
2543 2583 2584 2544
2544 2584 2585 2545
2545 2585 2586 2546
2546 2586 2587 2547
2547 2587 2588 2548
2548 2588 2589 2549
2549 2589 2590 2550
2550 2590 2591 2551
2551 2591 2592 2552
2552 2592 2593 2553
2553 2593 2594 2554
2554 2594 2595 2555
2555 2595 2596 2556
2556 2596 2597 2557
2557 2597 141 140
63 64 2598 2558
2558 2598 2599 2559
2559 2599 2600 2560
2560 2600 2601 2561
2561 2601 2602 2562
2562 2602 2603 2563
2563 2603 2604 2564
2564 2604 2605 2565
2565 2605 2606 2566
2566 2606 2607 2567
2567 2607 2608 2568
2568 2608 2609 2569
2569 2609 2610 2570
2570 2610 2611 2571
2571 2611 2612 2572
2572 2612 2613 2573
2573 2613 2614 2574
2574 2614 2615 2575
2575 2615 2616 2576
2576 2616 2617 2577
2577 2617 2618 2578
2578 2618 2619 2579
2579 2619 2620 2580
2580 2620 2621 2581
2581 2621 2622 2582
2582 2622 2623 2583
2583 2623 2624 2584
2584 2624 2625 2585
2585 2625 2626 2586
2586 2626 2627 2587
2587 2627 2628 2588
2588 2628 2629 2589
2589 2629 2630 2590
2590 2630 2631 2591
2591 2631 2632 2592
2592 2632 2633 2593
2593 2633 2634 2594
2594 2634 2635 2595
2595 2635 2636 2596
2596 2636 2637 2597
2597 2637 142 141
64 65 2638 2598
2598 2638 2639 2599
2599 2639 2640 2600
2600 2640 2641 2601
2601 2641 2642 2602
2602 2642 2643 2603
2603 2643 2644 2604
2604 2644 2645 2605
2605 2645 2646 2606
2606 2646 2647 2607
2607 2647 2648 2608
2608 2648 2649 2609
2609 2649 2650 2610
2610 2650 2651 2611
2611 2651 2652 2612
2612 2652 2653 2613
2613 2653 2654 2614
2614 2654 2655 2615
2615 2655 2656 2616
2616 2656 2657 2617
2617 2657 2658 2618
2618 2658 2659 2619
2619 2659 2660 2620
2620 2660 2661 2621
2621 2661 2662 2622
2622 2662 2663 2623
2623 2663 2664 2624
2624 2664 2665 2625
2625 2665 2666 2626
2626 2666 2667 2627
2627 2667 2668 2628
2628 2668 2669 2629
2629 2669 2670 2630
2630 2670 2671 2631
2631 2671 2672 2632
2632 2672 2673 2633
2633 2673 2674 2634
2634 2674 2675 2635
2635 2675 2676 2636
2636 2676 2677 2637
2637 2677 143 142
65 66 2678 2638
2638 2678 2679 2639
2639 2679 2680 2640
2640 2680 2681 2641
2641 2681 2682 2642
2642 2682 2683 2643
2643 2683 2684 2644
2644 2684 2685 2645
2645 2685 2686 2646
2646 2686 2687 2647
2647 2687 2688 2648
2648 2688 2689 2649
2649 2689 2690 2650
2650 2690 2691 2651
2651 2691 2692 2652
2652 2692 2693 2653
2653 2693 2694 2654
2654 2694 2695 2655
2655 2695 2696 2656
2656 2696 2697 2657
2657 2697 2698 2658
2658 2698 2699 2659
2659 2699 2700 2660
2660 2700 2701 2661
2661 2701 2702 2662
2662 2702 2703 2663
2663 2703 2704 2664
2664 2704 2705 2665
2665 2705 2706 2666
2666 2706 2707 2667
2667 2707 2708 2668
2668 2708 2709 2669
2669 2709 2710 2670
2670 2710 2711 2671
2671 2711 2712 2672
2672 2712 2713 2673
2673 2713 2714 2674
2674 2714 2715 2675
2675 2715 2716 2676
2676 2716 2717 2677
2677 2717 144 143
66 67 2718 2678
2678 2718 2719 2679
2679 2719 2720 2680
2680 2720 2721 2681
2681 2721 2722 2682
2682 2722 2723 2683
2683 2723 2724 2684
2684 2724 2725 2685
2685 2725 2726 2686
2686 2726 2727 2687
2687 2727 2728 2688
2688 2728 2729 2689
2689 2729 2730 2690
2690 2730 2731 2691
2691 2731 2732 2692
2692 2732 2733 2693
2693 2733 2734 2694
2694 2734 2735 2695
2695 2735 2736 2696
2696 2736 2737 2697
2697 2737 2738 2698
2698 2738 2739 2699
2699 2739 2740 2700
2700 2740 2741 2701
2701 2741 2742 2702
2702 2742 2743 2703
2703 2743 2744 2704
2704 2744 2745 2705
2705 2745 2746 2706
2706 2746 2747 2707
2707 2747 2748 2708
2708 2748 2749 2709
2709 2749 2750 2710
2710 2750 2751 2711
2711 2751 2752 2712
2712 2752 2753 2713
2713 2753 2754 2714
2714 2754 2755 2715
2715 2755 2756 2716
2716 2756 2757 2717
2717 2757 145 144
67 68 2758 2718
2718 2758 2759 2719
2719 2759 2760 2720
2720 2760 2761 2721
2721 2761 2762 2722
2722 2762 2763 2723
2723 2763 2764 2724
2724 2764 2765 2725
2725 2765 2766 2726
2726 2766 2767 2727
2727 2767 2768 2728
2728 2768 2769 2729
2729 2769 2770 2730
2730 2770 2771 2731
2731 2771 2772 2732
2732 2772 2773 2733
2733 2773 2774 2734
2734 2774 2775 2735
2735 2775 2776 2736
2736 2776 2777 2737
2737 2777 2778 2738
2738 2778 2779 2739
2739 2779 2780 2740
2740 2780 2781 2741
2741 2781 2782 2742
2742 2782 2783 2743
2743 2783 2784 2744
2744 2784 2785 2745
2745 2785 2786 2746
2746 2786 2787 2747
2747 2787 2788 2748
2748 2788 2789 2749
2749 2789 2790 2750
2750 2790 2791 2751
2751 2791 2792 2752
2752 2792 2793 2753
2753 2793 2794 2754
2754 2794 2795 2755
2755 2795 2796 2756
2756 2796 2797 2757
2757 2797 146 145
68 69 2798 2758
2758 2798 2799 2759
2759 2799 2800 2760
2760 2800 2801 2761
2761 2801 2802 2762
2762 2802 2803 2763
2763 2803 2804 2764
2764 2804 2805 2765
2765 2805 2806 2766
2766 2806 2807 2767
2767 2807 2808 2768
2768 2808 2809 2769
2769 2809 2810 2770
2770 2810 2811 2771
2771 2811 2812 2772
2772 2812 2813 2773
2773 2813 2814 2774
2774 2814 2815 2775
2775 2815 2816 2776
2776 2816 2817 2777
2777 2817 2818 2778
2778 2818 2819 2779
2779 2819 2820 2780
2780 2820 2821 2781
2781 2821 2822 2782
2782 2822 2823 2783
2783 2823 2824 2784
2784 2824 2825 2785
2785 2825 2826 2786
2786 2826 2827 2787
2787 2827 2828 2788
2788 2828 2829 2789
2789 2829 2830 2790
2790 2830 2831 2791
2791 2831 2832 2792
2792 2832 2833 2793
2793 2833 2834 2794
2794 2834 2835 2795
2795 2835 2836 2796
2796 2836 2837 2797
2797 2837 5 146
69 70 2838 2798
2798 2838 2839 2799
2799 2839 2840 2800
2800 2840 2841 2801
2801 2841 2842 2802
2802 2842 2843 2803
2803 2843 2844 2804
2804 2844 2845 2805
2805 2845 2846 2806
2806 2846 2847 2807
2807 2847 2848 2808
2808 2848 2849 2809
2809 2849 2850 2810
2810 2850 2851 2811
2811 2851 2852 2812
2812 2852 2853 2813
2813 2853 2854 2814
2814 2854 2855 2815
2815 2855 2856 2816
2816 2856 2857 2817
2817 2857 2858 2818
2818 2858 2859 2819
2819 2859 2860 2820
2820 2860 2861 2821
2821 2861 2862 2822
2822 2862 2863 2823
2823 2863 2864 2824
2824 2864 2865 2825
2825 2865 2866 2826
2826 2866 2867 2827
2827 2867 2868 2828
2828 2868 2869 2829
2829 2869 2870 2830
2830 2870 2871 2831
2831 2871 2872 2832
2832 2872 2873 2833
2833 2873 2874 2834
2834 2874 2875 2835
2835 2875 2876 2836
2836 2876 2877 2837
2837 2877 147 5
70 71 2878 2838
2838 2878 2879 2839
2839 2879 2880 2840
2840 2880 2881 2841
2841 2881 2882 2842
2842 2882 2883 2843
2843 2883 2884 2844
2844 2884 2885 2845
2845 2885 2886 2846
2846 2886 2887 2847
2847 2887 2888 2848
2848 2888 2889 2849
2849 2889 2890 2850
2850 2890 2891 2851
2851 2891 2892 2852
2852 2892 2893 2853
2853 2893 2894 2854
2854 2894 2895 2855
2855 2895 2896 2856
2856 2896 2897 2857
2857 2897 2898 2858
2858 2898 2899 2859
2859 2899 2900 2860
2860 2900 2901 2861
2861 2901 2902 2862
2862 2902 2903 2863
2863 2903 2904 2864
2864 2904 2905 2865
2865 2905 2906 2866
2866 2906 2907 2867
2867 2907 2908 2868
2868 2908 2909 2869
2869 2909 2910 2870
2870 2910 2911 2871
2871 2911 2912 2872
2872 2912 2913 2873
2873 2913 2914 2874
2874 2914 2915 2875
2875 2915 2916 2876
2876 2916 2917 2877
2877 2917 148 147
71 72 2918 2878
2878 2918 2919 2879
2879 2919 2920 2880
2880 2920 2921 2881
2881 2921 2922 2882
2882 2922 2923 2883
2883 2923 2924 2884
2884 2924 2925 2885
2885 2925 2926 2886
2886 2926 2927 2887
2887 2927 2928 2888
2888 2928 2929 2889
2889 2929 2930 2890
2890 2930 2931 2891
2891 2931 2932 2892
2892 2932 2933 2893
2893 2933 2934 2894
2894 2934 2935 2895
2895 2935 2936 2896
2896 2936 2937 2897
2897 2937 2938 2898
2898 2938 2939 2899
2899 2939 2940 2900
2900 2940 2941 2901
2901 2941 2942 2902
2902 2942 2943 2903
2903 2943 2944 2904
2904 2944 2945 2905
2905 2945 2946 2906
2906 2946 2947 2907
2907 2947 2948 2908
2908 2948 2949 2909
2909 2949 2950 2910
2910 2950 2951 2911
2911 2951 2952 2912
2912 2952 2953 2913
2913 2953 2954 2914
2914 2954 2955 2915
2915 2955 2956 2916
2916 2956 2957 2917
2917 2957 149 148
72 73 2958 2918
2918 2958 2959 2919
2919 2959 2960 2920
2920 2960 2961 2921
2921 2961 2962 2922
2922 2962 2963 2923
2923 2963 2964 2924
2924 2964 2965 2925
2925 2965 2966 2926
2926 2966 2967 2927
2927 2967 2968 2928
2928 2968 2969 2929
2929 2969 2970 2930
2930 2970 2971 2931
2931 2971 2972 2932
2932 2972 2973 2933
2933 2973 2974 2934
2934 2974 2975 2935
2935 2975 2976 2936
2936 2976 2977 2937
2937 2977 2978 2938
2938 2978 2979 2939
2939 2979 2980 2940
2940 2980 2981 2941
2941 2981 2982 2942
2942 2982 2983 2943
2943 2983 2984 2944
2944 2984 2985 2945
2945 2985 2986 2946
2946 2986 2987 2947
2947 2987 2988 2948
2948 2988 2989 2949
2949 2989 2990 2950
2950 2990 2991 2951
2951 2991 2992 2952
2952 2992 2993 2953
2953 2993 2994 2954
2954 2994 2995 2955
2955 2995 2996 2956
2956 2996 2997 2957
2957 2997 150 149
73 74 2998 2958
2958 2998 2999 2959
2959 2999 3000 2960
2960 3000 3001 2961
2961 3001 3002 2962
2962 3002 3003 2963
2963 3003 3004 2964
2964 3004 3005 2965
2965 3005 3006 2966
2966 3006 3007 2967
2967 3007 3008 2968
2968 3008 3009 2969
2969 3009 3010 2970
2970 3010 3011 2971
2971 3011 3012 2972
2972 3012 3013 2973
2973 3013 3014 2974
2974 3014 3015 2975
2975 3015 3016 2976
2976 3016 3017 2977
2977 3017 3018 2978
2978 3018 3019 2979
2979 3019 3020 2980
2980 3020 3021 2981
2981 3021 3022 2982
2982 3022 3023 2983
2983 3023 3024 2984
2984 3024 3025 2985
2985 3025 3026 2986
2986 3026 3027 2987
2987 3027 3028 2988
2988 3028 3029 2989
2989 3029 3030 2990
2990 3030 3031 2991
2991 3031 3032 2992
2992 3032 3033 2993
2993 3033 3034 2994
2994 3034 3035 2995
2995 3035 3036 2996
2996 3036 3037 2997
2997 3037 151 150
74 75 3038 2998
2998 3038 3039 2999
2999 3039 3040 3000
3000 3040 3041 3001
3001 3041 3042 3002
3002 3042 3043 3003
3003 3043 3044 3004
3004 3044 3045 3005
3005 3045 3046 3006
3006 3046 3047 3007
3007 3047 3048 3008
3008 3048 3049 3009
3009 3049 3050 3010
3010 3050 3051 3011
3011 3051 3052 3012
3012 3052 3053 3013
3013 3053 3054 3014
3014 3054 3055 3015
3015 3055 3056 3016
3016 3056 3057 3017
3017 3057 3058 3018
3018 3058 3059 3019
3019 3059 3060 3020
3020 3060 3061 3021
3021 3061 3062 3022
3022 3062 3063 3023
3023 3063 3064 3024
3024 3064 3065 3025
3025 3065 3066 3026
3026 3066 3067 3027
3027 3067 3068 3028
3028 3068 3069 3029
3029 3069 3070 3030
3030 3070 3071 3031
3031 3071 3072 3032
3032 3072 3073 3033
3033 3073 3074 3034
3034 3074 3075 3035
3035 3075 3076 3036
3036 3076 3077 3037
3037 3077 152 151
75 76 3078 3038
3038 3078 3079 3039
3039 3079 3080 3040
3040 3080 3081 3041
3041 3081 3082 3042
3042 3082 3083 3043
3043 3083 3084 3044
3044 3084 3085 3045
3045 3085 3086 3046
3046 3086 3087 3047
3047 3087 3088 3048
3048 3088 3089 3049
3049 3089 3090 3050
3050 3090 3091 3051
3051 3091 3092 3052
3052 3092 3093 3053
3053 3093 3094 3054
3054 3094 3095 3055
3055 3095 3096 3056
3056 3096 3097 3057
3057 3097 3098 3058
3058 3098 3099 3059
3059 3099 3100 3060
3060 3100 3101 3061
3061 3101 3102 3062
3062 3102 3103 3063
3063 3103 3104 3064
3064 3104 3105 3065
3065 3105 3106 3066
3066 3106 3107 3067
3067 3107 3108 3068
3068 3108 3109 3069
3069 3109 3110 3070
3070 3110 3111 3071
3071 3111 3112 3072
3072 3112 3113 3073
3073 3113 3114 3074
3074 3114 3115 3075
3075 3115 3116 3076
3076 3116 3117 3077
3077 3117 153 152
76 77 3118 3078
3078 3118 3119 3079
3079 3119 3120 3080
3080 3120 3121 3081
3081 3121 3122 3082
3082 3122 3123 3083
3083 3123 3124 3084
3084 3124 3125 3085
3085 3125 3126 3086
3086 3126 3127 3087
3087 3127 3128 3088
3088 3128 3129 3089
3089 3129 3130 3090
3090 3130 3131 3091
3091 3131 3132 3092
3092 3132 3133 3093
3093 3133 3134 3094
3094 3134 3135 3095
3095 3135 3136 3096
3096 3136 3137 3097
3097 3137 3138 3098
3098 3138 3139 3099
3099 3139 3140 3100
3100 3140 3141 3101
3101 3141 3142 3102
3102 3142 3143 3103
3103 3143 3144 3104
3104 3144 3145 3105
3105 3145 3146 3106
3106 3146 3147 3107
3107 3147 3148 3108
3108 3148 3149 3109
3109 3149 3150 3110
3110 3150 3151 3111
3111 3151 3152 3112
3112 3152 3153 3113
3113 3153 3154 3114
3114 3154 3155 3115
3115 3155 3156 3116
3116 3156 3157 3117
3117 3157 154 153
77 78 3158 3118
3118 3158 3159 3119
3119 3159 3160 3120
3120 3160 3161 3121
3121 3161 3162 3122
3122 3162 3163 3123
3123 3163 3164 3124
3124 3164 3165 3125
3125 3165 3166 3126
3126 3166 3167 3127
3127 3167 3168 3128
3128 3168 3169 3129
3129 3169 3170 3130
3130 3170 3171 3131
3131 3171 3172 3132
3132 3172 3173 3133
3133 3173 3174 3134
3134 3174 3175 3135
3135 3175 3176 3136
3136 3176 3177 3137
3137 3177 3178 3138
3138 3178 3179 3139
3139 3179 3180 3140
3140 3180 3181 3141
3141 3181 3182 3142
3142 3182 3183 3143
3143 3183 3184 3144
3144 3184 3185 3145
3145 3185 3186 3146
3146 3186 3187 3147
3147 3187 3188 3148
3148 3188 3189 3149
3149 3189 3190 3150
3150 3190 3191 3151
3151 3191 3192 3152
3152 3192 3193 3153
3153 3193 3194 3154
3154 3194 3195 3155
3155 3195 3196 3156
3156 3196 3197 3157
3157 3197 155 154
78 79 3198 3158
3158 3198 3199 3159
3159 3199 3200 3160
3160 3200 3201 3161
3161 3201 3202 3162
3162 3202 3203 3163
3163 3203 3204 3164
3164 3204 3205 3165
3165 3205 3206 3166
3166 3206 3207 3167
3167 3207 3208 3168
3168 3208 3209 3169
3169 3209 3210 3170
3170 3210 3211 3171
3171 3211 3212 3172
3172 3212 3213 3173
3173 3213 3214 3174
3174 3214 3215 3175
3175 3215 3216 3176
3176 3216 3217 3177
3177 3217 3218 3178
3178 3218 3219 3179
3179 3219 3220 3180
3180 3220 3221 3181
3181 3221 3222 3182
3182 3222 3223 3183
3183 3223 3224 3184
3184 3224 3225 3185
3185 3225 3226 3186
3186 3226 3227 3187
3187 3227 3228 3188
3188 3228 3229 3189
3189 3229 3230 3190
3190 3230 3231 3191
3191 3231 3232 3192
3192 3232 3233 3193
3193 3233 3234 3194
3194 3234 3235 3195
3195 3235 3236 3196
3196 3236 3237 3197
3197 3237 156 155
79 80 3238 3198
3198 3238 3239 3199
3199 3239 3240 3200
3200 3240 3241 3201
3201 3241 3242 3202
3202 3242 3243 3203
3203 3243 3244 3204
3204 3244 3245 3205
3205 3245 3246 3206
3206 3246 3247 3207
3207 3247 3248 3208
3208 3248 3249 3209
3209 3249 3250 3210
3210 3250 3251 3211
3211 3251 3252 3212
3212 3252 3253 3213
3213 3253 3254 3214
3214 3254 3255 3215
3215 3255 3256 3216
3216 3256 3257 3217
3217 3257 3258 3218
3218 3258 3259 3219
3219 3259 3260 3220
3220 3260 3261 3221
3221 3261 3262 3222
3222 3262 3263 3223
3223 3263 3264 3224
3224 3264 3265 3225
3225 3265 3266 3226
3226 3266 3267 3227
3227 3267 3268 3228
3228 3268 3269 3229
3229 3269 3270 3230
3230 3270 3271 3231
3231 3271 3272 3232
3232 3272 3273 3233
3233 3273 3274 3234
3234 3274 3275 3235
3235 3275 3276 3236
3236 3276 3277 3237
3237 3277 157 156
80 81 3278 3238
3238 3278 3279 3239
3239 3279 3280 3240
3240 3280 3281 3241
3241 3281 3282 3242
3242 3282 3283 3243
3243 3283 3284 3244
3244 3284 3285 3245
3245 3285 3286 3246
3246 3286 3287 3247
3247 3287 3288 3248
3248 3288 3289 3249
3249 3289 3290 3250
3250 3290 3291 3251
3251 3291 3292 3252
3252 3292 3293 3253
3253 3293 3294 3254
3254 3294 3295 3255
3255 3295 3296 3256
3256 3296 3297 3257
3257 3297 3298 3258
3258 3298 3299 3259
3259 3299 3300 3260
3260 3300 3301 3261
3261 3301 3302 3262
3262 3302 3303 3263
3263 3303 3304 3264
3264 3304 3305 3265
3265 3305 3306 3266
3266 3306 3307 3267
3267 3307 3308 3268
3268 3308 3309 3269
3269 3309 3310 3270
3270 3310 3311 3271
3271 3311 3312 3272
3272 3312 3313 3273
3273 3313 3314 3274
3274 3314 3315 3275
3275 3315 3316 3276
3276 3316 3317 3277
3277 3317 158 157
81 82 3318 3278
3278 3318 3319 3279
3279 3319 3320 3280
3280 3320 3321 3281
3281 3321 3322 3282
3282 3322 3323 3283
3283 3323 3324 3284
3284 3324 3325 3285
3285 3325 3326 3286
3286 3326 3327 3287
3287 3327 3328 3288
3288 3328 3329 3289
3289 3329 3330 3290
3290 3330 3331 3291
3291 3331 3332 3292
3292 3332 3333 3293
3293 3333 3334 3294
3294 3334 3335 3295
3295 3335 3336 3296
3296 3336 3337 3297
3297 3337 3338 3298
3298 3338 3339 3299
3299 3339 3340 3300
3300 3340 3341 3301
3301 3341 3342 3302
3302 3342 3343 3303
3303 3343 3344 3304
3304 3344 3345 3305
3305 3345 3346 3306
3306 3346 3347 3307
3307 3347 3348 3308
3308 3348 3349 3309
3309 3349 3350 3310
3310 3350 3351 3311
3311 3351 3352 3312
3312 3352 3353 3313
3313 3353 3354 3314
3314 3354 3355 3315
3315 3355 3356 3316
3316 3356 3357 3317
3317 3357 159 158
82 83 3358 3318
3318 3358 3359 3319
3319 3359 3360 3320
3320 3360 3361 3321
3321 3361 3362 3322
3322 3362 3363 3323
3323 3363 3364 3324
3324 3364 3365 3325
3325 3365 3366 3326
3326 3366 3367 3327
3327 3367 3368 3328
3328 3368 3369 3329
3329 3369 3370 3330
3330 3370 3371 3331
3331 3371 3372 3332
3332 3372 3373 3333
3333 3373 3374 3334
3334 3374 3375 3335
3335 3375 3376 3336
3336 3376 3377 3337
3337 3377 3378 3338
3338 3378 3379 3339
3339 3379 3380 3340
3340 3380 3381 3341
3341 3381 3382 3342
3342 3382 3383 3343
3343 3383 3384 3344
3344 3384 3385 3345
3345 3385 3386 3346
3346 3386 3387 3347
3347 3387 3388 3348
3348 3388 3389 3349
3349 3389 3390 3350
3350 3390 3391 3351
3351 3391 3392 3352
3352 3392 3393 3353
3353 3393 3394 3354
3354 3394 3395 3355
3355 3395 3396 3356
3356 3396 3397 3357
3357 3397 160 159
83 84 3398 3358
3358 3398 3399 3359
3359 3399 3400 3360
3360 3400 3401 3361
3361 3401 3402 3362
3362 3402 3403 3363
3363 3403 3404 3364
3364 3404 3405 3365
3365 3405 3406 3366
3366 3406 3407 3367
3367 3407 3408 3368
3368 3408 3409 3369
3369 3409 3410 3370
3370 3410 3411 3371
3371 3411 3412 3372
3372 3412 3413 3373
3373 3413 3414 3374
3374 3414 3415 3375
3375 3415 3416 3376
3376 3416 3417 3377
3377 3417 3418 3378
3378 3418 3419 3379
3379 3419 3420 3380
3380 3420 3421 3381
3381 3421 3422 3382
3382 3422 3423 3383
3383 3423 3424 3384
3384 3424 3425 3385
3385 3425 3426 3386
3386 3426 3427 3387
3387 3427 3428 3388
3388 3428 3429 3389
3389 3429 3430 3390
3390 3430 3431 3391
3391 3431 3432 3392
3392 3432 3433 3393
3393 3433 3434 3394
3394 3434 3435 3395
3395 3435 3436 3396
3396 3436 3437 3397
3397 3437 161 160
84 85 3438 3398
3398 3438 3439 3399
3399 3439 3440 3400
3400 3440 3441 3401
3401 3441 3442 3402
3402 3442 3443 3403
3403 3443 3444 3404
3404 3444 3445 3405
3405 3445 3446 3406
3406 3446 3447 3407
3407 3447 3448 3408
3408 3448 3449 3409
3409 3449 3450 3410
3410 3450 3451 3411
3411 3451 3452 3412
3412 3452 3453 3413
3413 3453 3454 3414
3414 3454 3455 3415
3415 3455 3456 3416
3416 3456 3457 3417
3417 3457 3458 3418
3418 3458 3459 3419
3419 3459 3460 3420
3420 3460 3461 3421
3421 3461 3462 3422
3422 3462 3463 3423
3423 3463 3464 3424
3424 3464 3465 3425
3425 3465 3466 3426
3426 3466 3467 3427
3427 3467 3468 3428
3428 3468 3469 3429
3429 3469 3470 3430
3430 3470 3471 3431
3431 3471 3472 3432
3432 3472 3473 3433
3433 3473 3474 3434
3434 3474 3475 3435
3435 3475 3476 3436
3436 3476 3477 3437
3437 3477 162 161
85 86 3478 3438
3438 3478 3479 3439
3439 3479 3480 3440
3440 3480 3481 3441
3441 3481 3482 3442
3442 3482 3483 3443
3443 3483 3484 3444
3444 3484 3485 3445
3445 3485 3486 3446
3446 3486 3487 3447
3447 3487 3488 3448
3448 3488 3489 3449
3449 3489 3490 3450
3450 3490 3491 3451
3451 3491 3492 3452
3452 3492 3493 3453
3453 3493 3494 3454
3454 3494 3495 3455
3455 3495 3496 3456
3456 3496 3497 3457
3457 3497 3498 3458
3458 3498 3499 3459
3459 3499 3500 3460
3460 3500 3501 3461
3461 3501 3502 3462
3462 3502 3503 3463
3463 3503 3504 3464
3464 3504 3505 3465
3465 3505 3506 3466
3466 3506 3507 3467
3467 3507 3508 3468
3468 3508 3509 3469
3469 3509 3510 3470
3470 3510 3511 3471
3471 3511 3512 3472
3472 3512 3513 3473
3473 3513 3514 3474
3474 3514 3515 3475
3475 3515 3516 3476
3476 3516 3517 3477
3477 3517 163 162
86 87 3518 3478
3478 3518 3519 3479
3479 3519 3520 3480
3480 3520 3521 3481
3481 3521 3522 3482
3482 3522 3523 3483
3483 3523 3524 3484
3484 3524 3525 3485
3485 3525 3526 3486
3486 3526 3527 3487
3487 3527 3528 3488
3488 3528 3529 3489
3489 3529 3530 3490
3490 3530 3531 3491
3491 3531 3532 3492
3492 3532 3533 3493
3493 3533 3534 3494
3494 3534 3535 3495
3495 3535 3536 3496
3496 3536 3537 3497
3497 3537 3538 3498
3498 3538 3539 3499
3499 3539 3540 3500
3500 3540 3541 3501
3501 3541 3542 3502
3502 3542 3543 3503
3503 3543 3544 3504
3504 3544 3545 3505
3505 3545 3546 3506
3506 3546 3547 3507
3507 3547 3548 3508
3508 3548 3549 3509
3509 3549 3550 3510
3510 3550 3551 3511
3511 3551 3552 3512
3512 3552 3553 3513
3513 3553 3554 3514
3514 3554 3555 3515
3515 3555 3556 3516
3516 3556 3557 3517
3517 3557 164 163
87 88 3558 3518
3518 3558 3559 3519
3519 3559 3560 3520
3520 3560 3561 3521
3521 3561 3562 3522
3522 3562 3563 3523
3523 3563 3564 3524
3524 3564 3565 3525
3525 3565 3566 3526
3526 3566 3567 3527
3527 3567 3568 3528
3528 3568 3569 3529
3529 3569 3570 3530
3530 3570 3571 3531
3531 3571 3572 3532
3532 3572 3573 3533
3533 3573 3574 3534
3534 3574 3575 3535
3535 3575 3576 3536
3536 3576 3577 3537
3537 3577 3578 3538
3538 3578 3579 3539
3539 3579 3580 3540
3540 3580 3581 3541
3541 3581 3582 3542
3542 3582 3583 3543
3543 3583 3584 3544
3544 3584 3585 3545
3545 3585 3586 3546
3546 3586 3587 3547
3547 3587 3588 3548
3548 3588 3589 3549
3549 3589 3590 3550
3550 3590 3591 3551
3551 3591 3592 3552
3552 3592 3593 3553
3553 3593 3594 3554
3554 3594 3595 3555
3555 3595 3596 3556
3556 3596 3597 3557
3557 3597 165 164
88 2 322 3558
3558 322 321 3559
3559 321 320 3560
3560 320 319 3561
3561 319 318 3562
3562 318 317 3563
3563 317 316 3564
3564 316 315 3565
3565 315 314 3566
3566 314 313 3567
3567 313 312 3568
3568 312 311 3569
3569 311 310 3570
3570 310 309 3571
3571 309 308 3572
3572 308 307 3573
3573 307 306 3574
3574 306 305 3575
3575 305 304 3576
3576 304 303 3577
3577 303 302 3578
3578 302 301 3579
3579 301 300 3580
3580 300 299 3581
3581 299 298 3582
3582 298 297 3583
3583 297 296 3584
3584 296 295 3585
3585 295 294 3586
3586 294 293 3587
3587 293 292 3588
3588 292 291 3589
3589 291 290 3590
3590 290 289 3591
3591 289 288 3592
3592 288 287 3593
3593 287 286 3594
3594 286 285 3595
3595 285 284 3596
3596 284 283 3597
3597 283 6 165
4 108 3598 380
380 3598 3599 379
379 3599 3600 378
378 3600 3601 377
377 3601 3602 376
376 3602 3603 375
375 3603 3604 374
374 3604 3605 373
373 3605 3606 372
372 3606 3607 371
371 3607 3608 370
370 3608 3609 369
369 3609 3610 368
368 3610 3611 367
367 3611 3612 366
366 3612 3613 365
365 3613 3614 364
364 3614 3615 363
363 3615 3616 362
362 3616 323 9
108 109 3617 3598
3598 3617 3618 3599
3599 3618 3619 3600
3600 3619 3620 3601
3601 3620 3621 3602
3602 3621 3622 3603
3603 3622 3623 3604
3604 3623 3624 3605
3605 3624 3625 3606
3606 3625 3626 3607
3607 3626 3627 3608
3608 3627 3628 3609
3609 3628 3629 3610
3610 3629 3630 3611
3611 3630 3631 3612
3612 3631 3632 3613
3613 3632 3633 3614
3614 3633 3634 3615
3615 3634 3635 3616
3616 3635 324 323
109 110 3636 3617
3617 3636 3637 3618
3618 3637 3638 3619
3619 3638 3639 3620
3620 3639 3640 3621
3621 3640 3641 3622
3622 3641 3642 3623
3623 3642 3643 3624
3624 3643 3644 3625
3625 3644 3645 3626
3626 3645 3646 3627
3627 3646 3647 3628
3628 3647 3648 3629
3629 3648 3649 3630
3630 3649 3650 3631
3631 3650 3651 3632
3632 3651 3652 3633
3633 3652 3653 3634
3634 3653 3654 3635
3635 3654 325 324
110 111 3655 3636
3636 3655 3656 3637
3637 3656 3657 3638
3638 3657 3658 3639
3639 3658 3659 3640
3640 3659 3660 3641
3641 3660 3661 3642
3642 3661 3662 3643
3643 3662 3663 3644
3644 3663 3664 3645
3645 3664 3665 3646
3646 3665 3666 3647
3647 3666 3667 3648
3648 3667 3668 3649
3649 3668 3669 3650
3650 3669 3670 3651
3651 3670 3671 3652
3652 3671 3672 3653
3653 3672 3673 3654
3654 3673 326 325
111 112 3674 3655
3655 3674 3675 3656
3656 3675 3676 3657
3657 3676 3677 3658
3658 3677 3678 3659
3659 3678 3679 3660
3660 3679 3680 3661
3661 3680 3681 3662
3662 3681 3682 3663
3663 3682 3683 3664
3664 3683 3684 3665
3665 3684 3685 3666
3666 3685 3686 3667
3667 3686 3687 3668
3668 3687 3688 3669
3669 3688 3689 3670
3670 3689 3690 3671
3671 3690 3691 3672
3672 3691 3692 3673
3673 3692 327 326
112 113 3693 3674
3674 3693 3694 3675
3675 3694 3695 3676
3676 3695 3696 3677
3677 3696 3697 3678
3678 3697 3698 3679
3679 3698 3699 3680
3680 3699 3700 3681
3681 3700 3701 3682
3682 3701 3702 3683
3683 3702 3703 3684
3684 3703 3704 3685
3685 3704 3705 3686
3686 3705 3706 3687
3687 3706 3707 3688
3688 3707 3708 3689
3689 3708 3709 3690
3690 3709 3710 3691
3691 3710 3711 3692
3692 3711 328 327
113 114 3712 3693
3693 3712 3713 3694
3694 3713 3714 3695
3695 3714 3715 3696
3696 3715 3716 3697
3697 3716 3717 3698
3698 3717 3718 3699
3699 3718 3719 3700
3700 3719 3720 3701
3701 3720 3721 3702
3702 3721 3722 3703
3703 3722 3723 3704
3704 3723 3724 3705
3705 3724 3725 3706
3706 3725 3726 3707
3707 3726 3727 3708
3708 3727 3728 3709
3709 3728 3729 3710
3710 3729 3730 3711
3711 3730 329 328
114 115 3731 3712
3712 3731 3732 3713
3713 3732 3733 3714
3714 3733 3734 3715
3715 3734 3735 3716
3716 3735 3736 3717
3717 3736 3737 3718
3718 3737 3738 3719
3719 3738 3739 3720
3720 3739 3740 3721
3721 3740 3741 3722
3722 3741 3742 3723
3723 3742 3743 3724
3724 3743 3744 3725
3725 3744 3745 3726
3726 3745 3746 3727
3727 3746 3747 3728
3728 3747 3748 3729
3729 3748 3749 3730
3730 3749 330 329
115 116 3750 3731
3731 3750 3751 3732
3732 3751 3752 3733
3733 3752 3753 3734
3734 3753 3754 3735
3735 3754 3755 3736
3736 3755 3756 3737
3737 3756 3757 3738
3738 3757 3758 3739
3739 3758 3759 3740
3740 3759 3760 3741
3741 3760 3761 3742
3742 3761 3762 3743
3743 3762 3763 3744
3744 3763 3764 3745
3745 3764 3765 3746
3746 3765 3766 3747
3747 3766 3767 3748
3748 3767 3768 3749
3749 3768 331 330
116 117 3769 3750
3750 3769 3770 3751
3751 3770 3771 3752
3752 3771 3772 3753
3753 3772 3773 3754
3754 3773 3774 3755
3755 3774 3775 3756
3756 3775 3776 3757
3757 3776 3777 3758
3758 3777 3778 3759
3759 3778 3779 3760
3760 3779 3780 3761
3761 3780 3781 3762
3762 3781 3782 3763
3763 3782 3783 3764
3764 3783 3784 3765
3765 3784 3785 3766
3766 3785 3786 3767
3767 3786 3787 3768
3768 3787 332 331
117 118 3788 3769
3769 3788 3789 3770
3770 3789 3790 3771
3771 3790 3791 3772
3772 3791 3792 3773
3773 3792 3793 3774
3774 3793 3794 3775
3775 3794 3795 3776
3776 3795 3796 3777
3777 3796 3797 3778
3778 3797 3798 3779
3779 3798 3799 3780
3780 3799 3800 3781
3781 3800 3801 3782
3782 3801 3802 3783
3783 3802 3803 3784
3784 3803 3804 3785
3785 3804 3805 3786
3786 3805 3806 3787
3787 3806 333 332
118 119 3807 3788
3788 3807 3808 3789
3789 3808 3809 3790
3790 3809 3810 3791
3791 3810 3811 3792
3792 3811 3812 3793
3793 3812 3813 3794
3794 3813 3814 3795
3795 3814 3815 3796
3796 3815 3816 3797
3797 3816 3817 3798
3798 3817 3818 3799
3799 3818 3819 3800
3800 3819 3820 3801
3801 3820 3821 3802
3802 3821 3822 3803
3803 3822 3823 3804
3804 3823 3824 3805
3805 3824 3825 3806
3806 3825 334 333
119 120 3826 3807
3807 3826 3827 3808
3808 3827 3828 3809
3809 3828 3829 3810
3810 3829 3830 3811
3811 3830 3831 3812
3812 3831 3832 3813
3813 3832 3833 3814
3814 3833 3834 3815
3815 3834 3835 3816
3816 3835 3836 3817
3817 3836 3837 3818
3818 3837 3838 3819
3819 3838 3839 3820
3820 3839 3840 3821
3821 3840 3841 3822
3822 3841 3842 3823
3823 3842 3843 3824
3824 3843 3844 3825
3825 3844 335 334
120 121 3845 3826
3826 3845 3846 3827
3827 3846 3847 3828
3828 3847 3848 3829
3829 3848 3849 3830
3830 3849 3850 3831
3831 3850 3851 3832
3832 3851 3852 3833
3833 3852 3853 3834
3834 3853 3854 3835
3835 3854 3855 3836
3836 3855 3856 3837
3837 3856 3857 3838
3838 3857 3858 3839
3839 3858 3859 3840
3840 3859 3860 3841
3841 3860 3861 3842
3842 3861 3862 3843
3843 3862 3863 3844
3844 3863 336 335
121 122 3864 3845
3845 3864 3865 3846
3846 3865 3866 3847
3847 3866 3867 3848
3848 3867 3868 3849
3849 3868 3869 3850
3850 3869 3870 3851
3851 3870 3871 3852
3852 3871 3872 3853
3853 3872 3873 3854
3854 3873 3874 3855
3855 3874 3875 3856
3856 3875 3876 3857
3857 3876 3877 3858
3858 3877 3878 3859
3859 3878 3879 3860
3860 3879 3880 3861
3861 3880 3881 3862
3862 3881 3882 3863
3863 3882 337 336
122 123 3883 3864
3864 3883 3884 3865
3865 3884 3885 3866
3866 3885 3886 3867
3867 3886 3887 3868
3868 3887 3888 3869
3869 3888 3889 3870
3870 3889 3890 3871
3871 3890 3891 3872
3872 3891 3892 3873
3873 3892 3893 3874
3874 3893 3894 3875
3875 3894 3895 3876
3876 3895 3896 3877
3877 3896 3897 3878
3878 3897 3898 3879
3879 3898 3899 3880
3880 3899 3900 3881
3881 3900 3901 3882
3882 3901 338 337
123 124 3902 3883
3883 3902 3903 3884
3884 3903 3904 3885
3885 3904 3905 3886
3886 3905 3906 3887
3887 3906 3907 3888
3888 3907 3908 3889
3889 3908 3909 3890
3890 3909 3910 3891
3891 3910 3911 3892
3892 3911 3912 3893
3893 3912 3913 3894
3894 3913 3914 3895
3895 3914 3915 3896
3896 3915 3916 3897
3897 3916 3917 3898
3898 3917 3918 3899
3899 3918 3919 3900
3900 3919 3920 3901
3901 3920 339 338
124 125 3921 3902
3902 3921 3922 3903
3903 3922 3923 3904
3904 3923 3924 3905
3905 3924 3925 3906
3906 3925 3926 3907
3907 3926 3927 3908
3908 3927 3928 3909
3909 3928 3929 3910
3910 3929 3930 3911
3911 3930 3931 3912
3912 3931 3932 3913
3913 3932 3933 3914
3914 3933 3934 3915
3915 3934 3935 3916
3916 3935 3936 3917
3917 3936 3937 3918
3918 3937 3938 3919
3919 3938 3939 3920
3920 3939 340 339
125 126 3940 3921
3921 3940 3941 3922
3922 3941 3942 3923
3923 3942 3943 3924
3924 3943 3944 3925
3925 3944 3945 3926
3926 3945 3946 3927
3927 3946 3947 3928
3928 3947 3948 3929
3929 3948 3949 3930
3930 3949 3950 3931
3931 3950 3951 3932
3932 3951 3952 3933
3933 3952 3953 3934
3934 3953 3954 3935
3935 3954 3955 3936
3936 3955 3956 3937
3937 3956 3957 3938
3938 3957 3958 3939
3939 3958 341 340
126 127 3959 3940
3940 3959 3960 3941
3941 3960 3961 3942
3942 3961 3962 3943
3943 3962 3963 3944
3944 3963 3964 3945
3945 3964 3965 3946
3946 3965 3966 3947
3947 3966 3967 3948
3948 3967 3968 3949
3949 3968 3969 3950
3950 3969 3970 3951
3951 3970 3971 3952
3952 3971 3972 3953
3953 3972 3973 3954
3954 3973 3974 3955
3955 3974 3975 3956
3956 3975 3976 3957
3957 3976 3977 3958
3958 3977 342 341
127 128 3978 3959
3959 3978 3979 3960
3960 3979 3980 3961
3961 3980 3981 3962
3962 3981 3982 3963
3963 3982 3983 3964
3964 3983 3984 3965
3965 3984 3985 3966
3966 3985 3986 3967
3967 3986 3987 3968
3968 3987 3988 3969
3969 3988 3989 3970
3970 3989 3990 3971
3971 3990 3991 3972
3972 3991 3992 3973
3973 3992 3993 3974
3974 3993 3994 3975
3975 3994 3995 3976
3976 3995 3996 3977
3977 3996 343 342
128 129 3997 3978
3978 3997 3998 3979
3979 3998 3999 3980
3980 3999 4000 3981
3981 4000 4001 3982
3982 4001 4002 3983
3983 4002 4003 3984
3984 4003 4004 3985
3985 4004 4005 3986
3986 4005 4006 3987
3987 4006 4007 3988
3988 4007 4008 3989
3989 4008 4009 3990
3990 4009 4010 3991
3991 4010 4011 3992
3992 4011 4012 3993
3993 4012 4013 3994
3994 4013 4014 3995
3995 4014 4015 3996
3996 4015 344 343
129 130 4016 3997
3997 4016 4017 3998
3998 4017 4018 3999
3999 4018 4019 4000
4000 4019 4020 4001
4001 4020 4021 4002
4002 4021 4022 4003
4003 4022 4023 4004
4004 4023 4024 4005
4005 4024 4025 4006
4006 4025 4026 4007
4007 4026 4027 4008
4008 4027 4028 4009
4009 4028 4029 4010
4010 4029 4030 4011
4011 4030 4031 4012
4012 4031 4032 4013
4013 4032 4033 4014
4014 4033 4034 4015
4015 4034 345 344
130 131 4035 4016
4016 4035 4036 4017
4017 4036 4037 4018
4018 4037 4038 4019
4019 4038 4039 4020
4020 4039 4040 4021
4021 4040 4041 4022
4022 4041 4042 4023
4023 4042 4043 4024
4024 4043 4044 4025
4025 4044 4045 4026
4026 4045 4046 4027
4027 4046 4047 4028
4028 4047 4048 4029
4029 4048 4049 4030
4030 4049 4050 4031
4031 4050 4051 4032
4032 4051 4052 4033
4033 4052 4053 4034
4034 4053 346 345
131 132 4054 4035
4035 4054 4055 4036
4036 4055 4056 4037
4037 4056 4057 4038
4038 4057 4058 4039
4039 4058 4059 4040
4040 4059 4060 4041
4041 4060 4061 4042
4042 4061 4062 4043
4043 4062 4063 4044
4044 4063 4064 4045
4045 4064 4065 4046
4046 4065 4066 4047
4047 4066 4067 4048
4048 4067 4068 4049
4049 4068 4069 4050
4050 4069 4070 4051
4051 4070 4071 4052
4052 4071 4072 4053
4053 4072 347 346
132 133 4073 4054
4054 4073 4074 4055
4055 4074 4075 4056
4056 4075 4076 4057
4057 4076 4077 4058
4058 4077 4078 4059
4059 4078 4079 4060
4060 4079 4080 4061
4061 4080 4081 4062
4062 4081 4082 4063
4063 4082 4083 4064
4064 4083 4084 4065
4065 4084 4085 4066
4066 4085 4086 4067
4067 4086 4087 4068
4068 4087 4088 4069
4069 4088 4089 4070
4070 4089 4090 4071
4071 4090 4091 4072
4072 4091 348 347
133 134 4092 4073
4073 4092 4093 4074
4074 4093 4094 4075
4075 4094 4095 4076
4076 4095 4096 4077
4077 4096 4097 4078
4078 4097 4098 4079
4079 4098 4099 4080
4080 4099 4100 4081
4081 4100 4101 4082
4082 4101 4102 4083
4083 4102 4103 4084
4084 4103 4104 4085
4085 4104 4105 4086
4086 4105 4106 4087
4087 4106 4107 4088
4088 4107 4108 4089
4089 4108 4109 4090
4090 4109 4110 4091
4091 4110 349 348
134 135 4111 4092
4092 4111 4112 4093
4093 4112 4113 4094
4094 4113 4114 4095
4095 4114 4115 4096
4096 4115 4116 4097
4097 4116 4117 4098
4098 4117 4118 4099
4099 4118 4119 4100
4100 4119 4120 4101
4101 4120 4121 4102
4102 4121 4122 4103
4103 4122 4123 4104
4104 4123 4124 4105
4105 4124 4125 4106
4106 4125 4126 4107
4107 4126 4127 4108
4108 4127 4128 4109
4109 4128 4129 4110
4110 4129 350 349
135 136 4130 4111
4111 4130 4131 4112
4112 4131 4132 4113
4113 4132 4133 4114
4114 4133 4134 4115
4115 4134 4135 4116
4116 4135 4136 4117
4117 4136 4137 4118
4118 4137 4138 4119
4119 4138 4139 4120
4120 4139 4140 4121
4121 4140 4141 4122
4122 4141 4142 4123
4123 4142 4143 4124
4124 4143 4144 4125
4125 4144 4145 4126
4126 4145 4146 4127
4127 4146 4147 4128
4128 4147 4148 4129
4129 4148 351 350
136 137 4149 4130
4130 4149 4150 4131
4131 4150 4151 4132
4132 4151 4152 4133
4133 4152 4153 4134
4134 4153 4154 4135
4135 4154 4155 4136
4136 4155 4156 4137
4137 4156 4157 4138
4138 4157 4158 4139
4139 4158 4159 4140
4140 4159 4160 4141
4141 4160 4161 4142
4142 4161 4162 4143
4143 4162 4163 4144
4144 4163 4164 4145
4145 4164 4165 4146
4146 4165 4166 4147
4147 4166 4167 4148
4148 4167 352 351
137 138 4168 4149
4149 4168 4169 4150
4150 4169 4170 4151
4151 4170 4171 4152
4152 4171 4172 4153
4153 4172 4173 4154
4154 4173 4174 4155
4155 4174 4175 4156
4156 4175 4176 4157
4157 4176 4177 4158
4158 4177 4178 4159
4159 4178 4179 4160
4160 4179 4180 4161
4161 4180 4181 4162
4162 4181 4182 4163
4163 4182 4183 4164
4164 4183 4184 4165
4165 4184 4185 4166
4166 4185 4186 4167
4167 4186 353 352
138 139 4187 4168
4168 4187 4188 4169
4169 4188 4189 4170
4170 4189 4190 4171
4171 4190 4191 4172
4172 4191 4192 4173
4173 4192 4193 4174
4174 4193 4194 4175
4175 4194 4195 4176
4176 4195 4196 4177
4177 4196 4197 4178
4178 4197 4198 4179
4179 4198 4199 4180
4180 4199 4200 4181
4181 4200 4201 4182
4182 4201 4202 4183
4183 4202 4203 4184
4184 4203 4204 4185
4185 4204 4205 4186
4186 4205 354 353
139 140 4206 4187
4187 4206 4207 4188
4188 4207 4208 4189
4189 4208 4209 4190
4190 4209 4210 4191
4191 4210 4211 4192
4192 4211 4212 4193
4193 4212 4213 4194
4194 4213 4214 4195
4195 4214 4215 4196
4196 4215 4216 4197
4197 4216 4217 4198
4198 4217 4218 4199
4199 4218 4219 4200
4200 4219 4220 4201
4201 4220 4221 4202
4202 4221 4222 4203
4203 4222 4223 4204
4204 4223 4224 4205
4205 4224 355 354
140 141 4225 4206
4206 4225 4226 4207
4207 4226 4227 4208
4208 4227 4228 4209
4209 4228 4229 4210
4210 4229 4230 4211
4211 4230 4231 4212
4212 4231 4232 4213
4213 4232 4233 4214
4214 4233 4234 4215
4215 4234 4235 4216
4216 4235 4236 4217
4217 4236 4237 4218
4218 4237 4238 4219
4219 4238 4239 4220
4220 4239 4240 4221
4221 4240 4241 4222
4222 4241 4242 4223
4223 4242 4243 4224
4224 4243 356 355
141 142 4244 4225
4225 4244 4245 4226
4226 4245 4246 4227
4227 4246 4247 4228
4228 4247 4248 4229
4229 4248 4249 4230
4230 4249 4250 4231
4231 4250 4251 4232
4232 4251 4252 4233
4233 4252 4253 4234
4234 4253 4254 4235
4235 4254 4255 4236
4236 4255 4256 4237
4237 4256 4257 4238
4238 4257 4258 4239
4239 4258 4259 4240
4240 4259 4260 4241
4241 4260 4261 4242
4242 4261 4262 4243
4243 4262 357 356
142 143 4263 4244
4244 4263 4264 4245
4245 4264 4265 4246
4246 4265 4266 4247
4247 4266 4267 4248
4248 4267 4268 4249
4249 4268 4269 4250
4250 4269 4270 4251
4251 4270 4271 4252
4252 4271 4272 4253
4253 4272 4273 4254
4254 4273 4274 4255
4255 4274 4275 4256
4256 4275 4276 4257
4257 4276 4277 4258
4258 4277 4278 4259
4259 4278 4279 4260
4260 4279 4280 4261
4261 4280 4281 4262
4262 4281 358 357
143 144 4282 4263
4263 4282 4283 4264
4264 4283 4284 4265
4265 4284 4285 4266
4266 4285 4286 4267
4267 4286 4287 4268
4268 4287 4288 4269
4269 4288 4289 4270
4270 4289 4290 4271
4271 4290 4291 4272
4272 4291 4292 4273
4273 4292 4293 4274
4274 4293 4294 4275
4275 4294 4295 4276
4276 4295 4296 4277
4277 4296 4297 4278
4278 4297 4298 4279
4279 4298 4299 4280
4280 4299 4300 4281
4281 4300 359 358
144 145 4301 4282
4282 4301 4302 4283
4283 4302 4303 4284
4284 4303 4304 4285
4285 4304 4305 4286
4286 4305 4306 4287
4287 4306 4307 4288
4288 4307 4308 4289
4289 4308 4309 4290
4290 4309 4310 4291
4291 4310 4311 4292
4292 4311 4312 4293
4293 4312 4313 4294
4294 4313 4314 4295
4295 4314 4315 4296
4296 4315 4316 4297
4297 4316 4317 4298
4298 4317 4318 4299
4299 4318 4319 4300
4300 4319 360 359
145 146 4320 4301
4301 4320 4321 4302
4302 4321 4322 4303
4303 4322 4323 4304
4304 4323 4324 4305
4305 4324 4325 4306
4306 4325 4326 4307
4307 4326 4327 4308
4308 4327 4328 4309
4309 4328 4329 4310
4310 4329 4330 4311
4311 4330 4331 4312
4312 4331 4332 4313
4313 4332 4333 4314
4314 4333 4334 4315
4315 4334 4335 4316
4316 4335 4336 4317
4317 4336 4337 4318
4318 4337 4338 4319
4319 4338 361 360
146 5 399 4320
4320 399 398 4321
4321 398 397 4322
4322 397 396 4323
4323 396 395 4324
4324 395 394 4325
4325 394 393 4326
4326 393 392 4327
4327 392 391 4328
4328 391 390 4329
4329 390 389 4330
4330 389 388 4331
4331 388 387 4332
4332 387 386 4333
4333 386 385 4334
4334 385 384 4335
4335 384 383 4336
4336 383 382 4337
4337 382 381 4338
4338 381 10 361
3 89 4339 166
166 4339 4340 167
167 4340 4341 168
168 4341 4342 169
169 4342 4343 170
170 4343 4344 171
171 4344 4345 172
172 4345 4346 173
173 4346 4347 174
174 4347 4348 175
175 4348 4349 176
176 4349 4350 177
177 4350 4351 178
178 4351 4352 179
179 4352 4353 180
180 4353 4354 181
181 4354 4355 182
182 4355 4356 183
183 4356 4357 184
184 4357 418 7
89 90 4358 4339
4339 4358 4359 4340
4340 4359 4360 4341
4341 4360 4361 4342
4342 4361 4362 4343
4343 4362 4363 4344
4344 4363 4364 4345
4345 4364 4365 4346
4346 4365 4366 4347
4347 4366 4367 4348
4348 4367 4368 4349
4349 4368 4369 4350
4350 4369 4370 4351
4351 4370 4371 4352
4352 4371 4372 4353
4353 4372 4373 4354
4354 4373 4374 4355
4355 4374 4375 4356
4356 4375 4376 4357
4357 4376 417 418
90 91 4377 4358
4358 4377 4378 4359
4359 4378 4379 4360
4360 4379 4380 4361
4361 4380 4381 4362
4362 4381 4382 4363
4363 4382 4383 4364
4364 4383 4384 4365
4365 4384 4385 4366
4366 4385 4386 4367
4367 4386 4387 4368
4368 4387 4388 4369
4369 4388 4389 4370
4370 4389 4390 4371
4371 4390 4391 4372
4372 4391 4392 4373
4373 4392 4393 4374
4374 4393 4394 4375
4375 4394 4395 4376
4376 4395 416 417
91 92 4396 4377
4377 4396 4397 4378
4378 4397 4398 4379
4379 4398 4399 4380
4380 4399 4400 4381
4381 4400 4401 4382
4382 4401 4402 4383
4383 4402 4403 4384
4384 4403 4404 4385
4385 4404 4405 4386
4386 4405 4406 4387
4387 4406 4407 4388
4388 4407 4408 4389
4389 4408 4409 4390
4390 4409 4410 4391
4391 4410 4411 4392
4392 4411 4412 4393
4393 4412 4413 4394
4394 4413 4414 4395
4395 4414 415 416
92 93 4415 4396
4396 4415 4416 4397
4397 4416 4417 4398
4398 4417 4418 4399
4399 4418 4419 4400
4400 4419 4420 4401
4401 4420 4421 4402
4402 4421 4422 4403
4403 4422 4423 4404
4404 4423 4424 4405
4405 4424 4425 4406
4406 4425 4426 4407
4407 4426 4427 4408
4408 4427 4428 4409
4409 4428 4429 4410
4410 4429 4430 4411
4411 4430 4431 4412
4412 4431 4432 4413
4413 4432 4433 4414
4414 4433 414 415
93 94 4434 4415
4415 4434 4435 4416
4416 4435 4436 4417
4417 4436 4437 4418
4418 4437 4438 4419
4419 4438 4439 4420
4420 4439 4440 4421
4421 4440 4441 4422
4422 4441 4442 4423
4423 4442 4443 4424
4424 4443 4444 4425
4425 4444 4445 4426
4426 4445 4446 4427
4427 4446 4447 4428
4428 4447 4448 4429
4429 4448 4449 4430
4430 4449 4450 4431
4431 4450 4451 4432
4432 4451 4452 4433
4433 4452 413 414
94 95 4453 4434
4434 4453 4454 4435
4435 4454 4455 4436
4436 4455 4456 4437
4437 4456 4457 4438
4438 4457 4458 4439
4439 4458 4459 4440
4440 4459 4460 4441
4441 4460 4461 4442
4442 4461 4462 4443
4443 4462 4463 4444
4444 4463 4464 4445
4445 4464 4465 4446
4446 4465 4466 4447
4447 4466 4467 4448
4448 4467 4468 4449
4449 4468 4469 4450
4450 4469 4470 4451
4451 4470 4471 4452
4452 4471 412 413
95 96 4472 4453
4453 4472 4473 4454
4454 4473 4474 4455
4455 4474 4475 4456
4456 4475 4476 4457
4457 4476 4477 4458
4458 4477 4478 4459
4459 4478 4479 4460
4460 4479 4480 4461
4461 4480 4481 4462
4462 4481 4482 4463
4463 4482 4483 4464
4464 4483 4484 4465
4465 4484 4485 4466
4466 4485 4486 4467
4467 4486 4487 4468
4468 4487 4488 4469
4469 4488 4489 4470
4470 4489 4490 4471
4471 4490 411 412
96 97 4491 4472
4472 4491 4492 4473
4473 4492 4493 4474
4474 4493 4494 4475
4475 4494 4495 4476
4476 4495 4496 4477
4477 4496 4497 4478
4478 4497 4498 4479
4479 4498 4499 4480
4480 4499 4500 4481
4481 4500 4501 4482
4482 4501 4502 4483
4483 4502 4503 4484
4484 4503 4504 4485
4485 4504 4505 4486
4486 4505 4506 4487
4487 4506 4507 4488
4488 4507 4508 4489
4489 4508 4509 4490
4490 4509 410 411
97 98 4510 4491
4491 4510 4511 4492
4492 4511 4512 4493
4493 4512 4513 4494
4494 4513 4514 4495
4495 4514 4515 4496
4496 4515 4516 4497
4497 4516 4517 4498
4498 4517 4518 4499
4499 4518 4519 4500
4500 4519 4520 4501
4501 4520 4521 4502
4502 4521 4522 4503
4503 4522 4523 4504
4504 4523 4524 4505
4505 4524 4525 4506
4506 4525 4526 4507
4507 4526 4527 4508
4508 4527 4528 4509
4509 4528 409 410
98 99 4529 4510
4510 4529 4530 4511
4511 4530 4531 4512
4512 4531 4532 4513
4513 4532 4533 4514
4514 4533 4534 4515
4515 4534 4535 4516
4516 4535 4536 4517
4517 4536 4537 4518
4518 4537 4538 4519
4519 4538 4539 4520
4520 4539 4540 4521
4521 4540 4541 4522
4522 4541 4542 4523
4523 4542 4543 4524
4524 4543 4544 4525
4525 4544 4545 4526
4526 4545 4546 4527
4527 4546 4547 4528
4528 4547 408 409
99 100 4548 4529
4529 4548 4549 4530
4530 4549 4550 4531
4531 4550 4551 4532
4532 4551 4552 4533
4533 4552 4553 4534
4534 4553 4554 4535
4535 4554 4555 4536
4536 4555 4556 4537
4537 4556 4557 4538
4538 4557 4558 4539
4539 4558 4559 4540
4540 4559 4560 4541
4541 4560 4561 4542
4542 4561 4562 4543
4543 4562 4563 4544
4544 4563 4564 4545
4545 4564 4565 4546
4546 4565 4566 4547
4547 4566 407 408
100 101 4567 4548
4548 4567 4568 4549
4549 4568 4569 4550
4550 4569 4570 4551
4551 4570 4571 4552
4552 4571 4572 4553
4553 4572 4573 4554
4554 4573 4574 4555
4555 4574 4575 4556
4556 4575 4576 4557
4557 4576 4577 4558
4558 4577 4578 4559
4559 4578 4579 4560
4560 4579 4580 4561
4561 4580 4581 4562
4562 4581 4582 4563
4563 4582 4583 4564
4564 4583 4584 4565
4565 4584 4585 4566
4566 4585 406 407
101 102 4586 4567
4567 4586 4587 4568
4568 4587 4588 4569
4569 4588 4589 4570
4570 4589 4590 4571
4571 4590 4591 4572
4572 4591 4592 4573
4573 4592 4593 4574
4574 4593 4594 4575
4575 4594 4595 4576
4576 4595 4596 4577
4577 4596 4597 4578
4578 4597 4598 4579
4579 4598 4599 4580
4580 4599 4600 4581
4581 4600 4601 4582
4582 4601 4602 4583
4583 4602 4603 4584
4584 4603 4604 4585
4585 4604 405 406
102 103 4605 4586
4586 4605 4606 4587
4587 4606 4607 4588
4588 4607 4608 4589
4589 4608 4609 4590
4590 4609 4610 4591
4591 4610 4611 4592
4592 4611 4612 4593
4593 4612 4613 4594
4594 4613 4614 4595
4595 4614 4615 4596
4596 4615 4616 4597
4597 4616 4617 4598
4598 4617 4618 4599
4599 4618 4619 4600
4600 4619 4620 4601
4601 4620 4621 4602
4602 4621 4622 4603
4603 4622 4623 4604
4604 4623 404 405
103 104 4624 4605
4605 4624 4625 4606
4606 4625 4626 4607
4607 4626 4627 4608
4608 4627 4628 4609
4609 4628 4629 4610
4610 4629 4630 4611
4611 4630 4631 4612
4612 4631 4632 4613
4613 4632 4633 4614
4614 4633 4634 4615
4615 4634 4635 4616
4616 4635 4636 4617
4617 4636 4637 4618
4618 4637 4638 4619
4619 4638 4639 4620
4620 4639 4640 4621
4621 4640 4641 4622
4622 4641 4642 4623
4623 4642 403 404
104 105 4643 4624
4624 4643 4644 4625
4625 4644 4645 4626
4626 4645 4646 4627
4627 4646 4647 4628
4628 4647 4648 4629
4629 4648 4649 4630
4630 4649 4650 4631
4631 4650 4651 4632
4632 4651 4652 4633
4633 4652 4653 4634
4634 4653 4654 4635
4635 4654 4655 4636
4636 4655 4656 4637
4637 4656 4657 4638
4638 4657 4658 4639
4639 4658 4659 4640
4640 4659 4660 4641
4641 4660 4661 4642
4642 4661 402 403
105 106 4662 4643
4643 4662 4663 4644
4644 4663 4664 4645
4645 4664 4665 4646
4646 4665 4666 4647
4647 4666 4667 4648
4648 4667 4668 4649
4649 4668 4669 4650
4650 4669 4670 4651
4651 4670 4671 4652
4652 4671 4672 4653
4653 4672 4673 4654
4654 4673 4674 4655
4655 4674 4675 4656
4656 4675 4676 4657
4657 4676 4677 4658
4658 4677 4678 4659
4659 4678 4679 4660
4660 4679 4680 4661
4661 4680 401 402
106 107 4681 4662
4662 4681 4682 4663
4663 4682 4683 4664
4664 4683 4684 4665
4665 4684 4685 4666
4666 4685 4686 4667
4667 4686 4687 4668
4668 4687 4688 4669
4669 4688 4689 4670
4670 4689 4690 4671
4671 4690 4691 4672
4672 4691 4692 4673
4673 4692 4693 4674
4674 4693 4694 4675
4675 4694 4695 4676
4676 4695 4696 4677
4677 4696 4697 4678
4678 4697 4698 4679
4679 4698 4699 4680
4680 4699 400 401
107 4 380 4681
4681 380 379 4682
4682 379 378 4683
4683 378 377 4684
4684 377 376 4685
4685 376 375 4686
4686 375 374 4687
4687 374 373 4688
4688 373 372 4689
4689 372 371 4690
4690 371 370 4691
4691 370 369 4692
4692 369 368 4693
4693 368 367 4694
4694 367 366 4695
4695 366 365 4696
4696 365 364 4697
4697 364 363 4698
4698 363 362 4699
4699 362 9 400
5 147 4700 399
399 4700 4701 398
398 4701 4702 397
397 4702 4703 396
396 4703 4704 395
395 4704 4705 394
394 4705 4706 393
393 4706 4707 392
392 4707 4708 391
391 4708 4709 390
390 4709 4710 389
389 4710 4711 388
388 4711 4712 387
387 4712 4713 386
386 4713 4714 385
385 4714 4715 384
384 4715 4716 383
383 4716 4717 382
382 4717 4718 381
381 4718 419 10
147 148 4719 4700
4700 4719 4720 4701
4701 4720 4721 4702
4702 4721 4722 4703
4703 4722 4723 4704
4704 4723 4724 4705
4705 4724 4725 4706
4706 4725 4726 4707
4707 4726 4727 4708
4708 4727 4728 4709
4709 4728 4729 4710
4710 4729 4730 4711
4711 4730 4731 4712
4712 4731 4732 4713
4713 4732 4733 4714
4714 4733 4734 4715
4715 4734 4735 4716
4716 4735 4736 4717
4717 4736 4737 4718
4718 4737 420 419
148 149 4738 4719
4719 4738 4739 4720
4720 4739 4740 4721
4721 4740 4741 4722
4722 4741 4742 4723
4723 4742 4743 4724
4724 4743 4744 4725
4725 4744 4745 4726
4726 4745 4746 4727
4727 4746 4747 4728
4728 4747 4748 4729
4729 4748 4749 4730
4730 4749 4750 4731
4731 4750 4751 4732
4732 4751 4752 4733
4733 4752 4753 4734
4734 4753 4754 4735
4735 4754 4755 4736
4736 4755 4756 4737
4737 4756 421 420
149 150 4757 4738
4738 4757 4758 4739
4739 4758 4759 4740
4740 4759 4760 4741
4741 4760 4761 4742
4742 4761 4762 4743
4743 4762 4763 4744
4744 4763 4764 4745
4745 4764 4765 4746
4746 4765 4766 4747
4747 4766 4767 4748
4748 4767 4768 4749
4749 4768 4769 4750
4750 4769 4770 4751
4751 4770 4771 4752
4752 4771 4772 4753
4753 4772 4773 4754
4754 4773 4774 4755
4755 4774 4775 4756
4756 4775 422 421
150 151 4776 4757
4757 4776 4777 4758
4758 4777 4778 4759
4759 4778 4779 4760
4760 4779 4780 4761
4761 4780 4781 4762
4762 4781 4782 4763
4763 4782 4783 4764
4764 4783 4784 4765
4765 4784 4785 4766
4766 4785 4786 4767
4767 4786 4787 4768
4768 4787 4788 4769
4769 4788 4789 4770
4770 4789 4790 4771
4771 4790 4791 4772
4772 4791 4792 4773
4773 4792 4793 4774
4774 4793 4794 4775
4775 4794 423 422
151 152 4795 4776
4776 4795 4796 4777
4777 4796 4797 4778
4778 4797 4798 4779
4779 4798 4799 4780
4780 4799 4800 4781
4781 4800 4801 4782
4782 4801 4802 4783
4783 4802 4803 4784
4784 4803 4804 4785
4785 4804 4805 4786
4786 4805 4806 4787
4787 4806 4807 4788
4788 4807 4808 4789
4789 4808 4809 4790
4790 4809 4810 4791
4791 4810 4811 4792
4792 4811 4812 4793
4793 4812 4813 4794
4794 4813 424 423
152 153 4814 4795
4795 4814 4815 4796
4796 4815 4816 4797
4797 4816 4817 4798
4798 4817 4818 4799
4799 4818 4819 4800
4800 4819 4820 4801
4801 4820 4821 4802
4802 4821 4822 4803
4803 4822 4823 4804
4804 4823 4824 4805
4805 4824 4825 4806
4806 4825 4826 4807
4807 4826 4827 4808
4808 4827 4828 4809
4809 4828 4829 4810
4810 4829 4830 4811
4811 4830 4831 4812
4812 4831 4832 4813
4813 4832 425 424
153 154 4833 4814
4814 4833 4834 4815
4815 4834 4835 4816
4816 4835 4836 4817
4817 4836 4837 4818
4818 4837 4838 4819
4819 4838 4839 4820
4820 4839 4840 4821
4821 4840 4841 4822
4822 4841 4842 4823
4823 4842 4843 4824
4824 4843 4844 4825
4825 4844 4845 4826
4826 4845 4846 4827
4827 4846 4847 4828
4828 4847 4848 4829
4829 4848 4849 4830
4830 4849 4850 4831
4831 4850 4851 4832
4832 4851 426 425
154 155 4852 4833
4833 4852 4853 4834
4834 4853 4854 4835
4835 4854 4855 4836
4836 4855 4856 4837
4837 4856 4857 4838
4838 4857 4858 4839
4839 4858 4859 4840
4840 4859 4860 4841
4841 4860 4861 4842
4842 4861 4862 4843
4843 4862 4863 4844
4844 4863 4864 4845
4845 4864 4865 4846
4846 4865 4866 4847
4847 4866 4867 4848
4848 4867 4868 4849
4849 4868 4869 4850
4850 4869 4870 4851
4851 4870 427 426
155 156 4871 4852
4852 4871 4872 4853
4853 4872 4873 4854
4854 4873 4874 4855
4855 4874 4875 4856
4856 4875 4876 4857
4857 4876 4877 4858
4858 4877 4878 4859
4859 4878 4879 4860
4860 4879 4880 4861
4861 4880 4881 4862
4862 4881 4882 4863
4863 4882 4883 4864
4864 4883 4884 4865
4865 4884 4885 4866
4866 4885 4886 4867
4867 4886 4887 4868
4868 4887 4888 4869
4869 4888 4889 4870
4870 4889 428 427
156 157 4890 4871
4871 4890 4891 4872
4872 4891 4892 4873
4873 4892 4893 4874
4874 4893 4894 4875
4875 4894 4895 4876
4876 4895 4896 4877
4877 4896 4897 4878
4878 4897 4898 4879
4879 4898 4899 4880
4880 4899 4900 4881
4881 4900 4901 4882
4882 4901 4902 4883
4883 4902 4903 4884
4884 4903 4904 4885
4885 4904 4905 4886
4886 4905 4906 4887
4887 4906 4907 4888
4888 4907 4908 4889
4889 4908 429 428
157 158 4909 4890
4890 4909 4910 4891
4891 4910 4911 4892
4892 4911 4912 4893
4893 4912 4913 4894
4894 4913 4914 4895
4895 4914 4915 4896
4896 4915 4916 4897
4897 4916 4917 4898
4898 4917 4918 4899
4899 4918 4919 4900
4900 4919 4920 4901
4901 4920 4921 4902
4902 4921 4922 4903
4903 4922 4923 4904
4904 4923 4924 4905
4905 4924 4925 4906
4906 4925 4926 4907
4907 4926 4927 4908
4908 4927 430 429
158 159 4928 4909
4909 4928 4929 4910
4910 4929 4930 4911
4911 4930 4931 4912
4912 4931 4932 4913
4913 4932 4933 4914
4914 4933 4934 4915
4915 4934 4935 4916
4916 4935 4936 4917
4917 4936 4937 4918
4918 4937 4938 4919
4919 4938 4939 4920
4920 4939 4940 4921
4921 4940 4941 4922
4922 4941 4942 4923
4923 4942 4943 4924
4924 4943 4944 4925
4925 4944 4945 4926
4926 4945 4946 4927
4927 4946 431 430
159 160 4947 4928
4928 4947 4948 4929
4929 4948 4949 4930
4930 4949 4950 4931
4931 4950 4951 4932
4932 4951 4952 4933
4933 4952 4953 4934
4934 4953 4954 4935
4935 4954 4955 4936
4936 4955 4956 4937
4937 4956 4957 4938
4938 4957 4958 4939
4939 4958 4959 4940
4940 4959 4960 4941
4941 4960 4961 4942
4942 4961 4962 4943
4943 4962 4963 4944
4944 4963 4964 4945
4945 4964 4965 4946
4946 4965 432 431
160 161 4966 4947
4947 4966 4967 4948
4948 4967 4968 4949
4949 4968 4969 4950
4950 4969 4970 4951
4951 4970 4971 4952
4952 4971 4972 4953
4953 4972 4973 4954
4954 4973 4974 4955
4955 4974 4975 4956
4956 4975 4976 4957
4957 4976 4977 4958
4958 4977 4978 4959
4959 4978 4979 4960
4960 4979 4980 4961
4961 4980 4981 4962
4962 4981 4982 4963
4963 4982 4983 4964
4964 4983 4984 4965
4965 4984 433 432
161 162 4985 4966
4966 4985 4986 4967
4967 4986 4987 4968
4968 4987 4988 4969
4969 4988 4989 4970
4970 4989 4990 4971
4971 4990 4991 4972
4972 4991 4992 4973
4973 4992 4993 4974
4974 4993 4994 4975
4975 4994 4995 4976
4976 4995 4996 4977
4977 4996 4997 4978
4978 4997 4998 4979
4979 4998 4999 4980
4980 4999 5000 4981
4981 5000 5001 4982
4982 5001 5002 4983
4983 5002 5003 4984
4984 5003 434 433
162 163 5004 4985
4985 5004 5005 4986
4986 5005 5006 4987
4987 5006 5007 4988
4988 5007 5008 4989
4989 5008 5009 4990
4990 5009 5010 4991
4991 5010 5011 4992
4992 5011 5012 4993
4993 5012 5013 4994
4994 5013 5014 4995
4995 5014 5015 4996
4996 5015 5016 4997
4997 5016 5017 4998
4998 5017 5018 4999
4999 5018 5019 5000
5000 5019 5020 5001
5001 5020 5021 5002
5002 5021 5022 5003
5003 5022 435 434
163 164 5023 5004
5004 5023 5024 5005
5005 5024 5025 5006
5006 5025 5026 5007
5007 5026 5027 5008
5008 5027 5028 5009
5009 5028 5029 5010
5010 5029 5030 5011
5011 5030 5031 5012
5012 5031 5032 5013
5013 5032 5033 5014
5014 5033 5034 5015
5015 5034 5035 5016
5016 5035 5036 5017
5017 5036 5037 5018
5018 5037 5038 5019
5019 5038 5039 5020
5020 5039 5040 5021
5021 5040 5041 5022
5022 5041 436 435
164 165 5042 5023
5023 5042 5043 5024
5024 5043 5044 5025
5025 5044 5045 5026
5026 5045 5046 5027
5027 5046 5047 5028
5028 5047 5048 5029
5029 5048 5049 5030
5030 5049 5050 5031
5031 5050 5051 5032
5032 5051 5052 5033
5033 5052 5053 5034
5034 5053 5054 5035
5035 5054 5055 5036
5036 5055 5056 5037
5037 5056 5057 5038
5038 5057 5058 5039
5039 5058 5059 5040
5040 5059 5060 5041
5041 5060 437 436
165 6 242 5042
5042 242 241 5043
5043 241 240 5044
5044 240 239 5045
5045 239 238 5046
5046 238 237 5047
5047 237 236 5048
5048 236 235 5049
5049 235 234 5050
5050 234 233 5051
5051 233 232 5052
5052 232 231 5053
5053 231 230 5054
5054 230 229 5055
5055 229 228 5056
5056 228 227 5057
5057 227 226 5058
5058 226 225 5059
5059 225 224 5060
5060 224 8 437
9 323 5061 400
400 5061 5062 401
401 5062 5063 402
402 5063 5064 403
403 5064 5065 404
404 5065 5066 405
405 5066 5067 406
406 5067 5068 407
407 5068 5069 408
408 5069 5070 409
409 5070 5071 410
410 5071 5072 411
411 5072 5073 412
412 5073 5074 413
413 5074 5075 414
414 5075 5076 415
415 5076 5077 416
416 5077 5078 417
417 5078 5079 418
418 5079 185 7
323 324 5080 5061
5061 5080 5081 5062
5062 5081 5082 5063
5063 5082 5083 5064
5064 5083 5084 5065
5065 5084 5085 5066
5066 5085 5086 5067
5067 5086 5087 5068
5068 5087 5088 5069
5069 5088 5089 5070
5070 5089 5090 5071
5071 5090 5091 5072
5072 5091 5092 5073
5073 5092 5093 5074
5074 5093 5094 5075
5075 5094 5095 5076
5076 5095 5096 5077
5077 5096 5097 5078
5078 5097 5098 5079
5079 5098 186 185
324 325 5099 5080
5080 5099 5100 5081
5081 5100 5101 5082
5082 5101 5102 5083
5083 5102 5103 5084
5084 5103 5104 5085
5085 5104 5105 5086
5086 5105 5106 5087
5087 5106 5107 5088
5088 5107 5108 5089
5089 5108 5109 5090
5090 5109 5110 5091
5091 5110 5111 5092
5092 5111 5112 5093
5093 5112 5113 5094
5094 5113 5114 5095
5095 5114 5115 5096
5096 5115 5116 5097
5097 5116 5117 5098
5098 5117 187 186
325 326 5118 5099
5099 5118 5119 5100
5100 5119 5120 5101
5101 5120 5121 5102
5102 5121 5122 5103
5103 5122 5123 5104
5104 5123 5124 5105
5105 5124 5125 5106
5106 5125 5126 5107
5107 5126 5127 5108
5108 5127 5128 5109
5109 5128 5129 5110
5110 5129 5130 5111
5111 5130 5131 5112
5112 5131 5132 5113
5113 5132 5133 5114
5114 5133 5134 5115
5115 5134 5135 5116
5116 5135 5136 5117
5117 5136 188 187
326 327 5137 5118
5118 5137 5138 5119
5119 5138 5139 5120
5120 5139 5140 5121
5121 5140 5141 5122
5122 5141 5142 5123
5123 5142 5143 5124
5124 5143 5144 5125
5125 5144 5145 5126
5126 5145 5146 5127
5127 5146 5147 5128
5128 5147 5148 5129
5129 5148 5149 5130
5130 5149 5150 5131
5131 5150 5151 5132
5132 5151 5152 5133
5133 5152 5153 5134
5134 5153 5154 5135
5135 5154 5155 5136
5136 5155 189 188
327 328 5156 5137
5137 5156 5157 5138
5138 5157 5158 5139
5139 5158 5159 5140
5140 5159 5160 5141
5141 5160 5161 5142
5142 5161 5162 5143
5143 5162 5163 5144
5144 5163 5164 5145
5145 5164 5165 5146
5146 5165 5166 5147
5147 5166 5167 5148
5148 5167 5168 5149
5149 5168 5169 5150
5150 5169 5170 5151
5151 5170 5171 5152
5152 5171 5172 5153
5153 5172 5173 5154
5154 5173 5174 5155
5155 5174 190 189
328 329 5175 5156
5156 5175 5176 5157
5157 5176 5177 5158
5158 5177 5178 5159
5159 5178 5179 5160
5160 5179 5180 5161
5161 5180 5181 5162
5162 5181 5182 5163
5163 5182 5183 5164
5164 5183 5184 5165
5165 5184 5185 5166
5166 5185 5186 5167
5167 5186 5187 5168
5168 5187 5188 5169
5169 5188 5189 5170
5170 5189 5190 5171
5171 5190 5191 5172
5172 5191 5192 5173
5173 5192 5193 5174
5174 5193 191 190
329 330 5194 5175
5175 5194 5195 5176
5176 5195 5196 5177
5177 5196 5197 5178
5178 5197 5198 5179
5179 5198 5199 5180
5180 5199 5200 5181
5181 5200 5201 5182
5182 5201 5202 5183
5183 5202 5203 5184
5184 5203 5204 5185
5185 5204 5205 5186
5186 5205 5206 5187
5187 5206 5207 5188
5188 5207 5208 5189
5189 5208 5209 5190
5190 5209 5210 5191
5191 5210 5211 5192
5192 5211 5212 5193
5193 5212 192 191
330 331 5213 5194
5194 5213 5214 5195
5195 5214 5215 5196
5196 5215 5216 5197
5197 5216 5217 5198
5198 5217 5218 5199
5199 5218 5219 5200
5200 5219 5220 5201
5201 5220 5221 5202
5202 5221 5222 5203
5203 5222 5223 5204
5204 5223 5224 5205
5205 5224 5225 5206
5206 5225 5226 5207
5207 5226 5227 5208
5208 5227 5228 5209
5209 5228 5229 5210
5210 5229 5230 5211
5211 5230 5231 5212
5212 5231 193 192
331 332 5232 5213
5213 5232 5233 5214
5214 5233 5234 5215
5215 5234 5235 5216
5216 5235 5236 5217
5217 5236 5237 5218
5218 5237 5238 5219
5219 5238 5239 5220
5220 5239 5240 5221
5221 5240 5241 5222
5222 5241 5242 5223
5223 5242 5243 5224
5224 5243 5244 5225
5225 5244 5245 5226
5226 5245 5246 5227
5227 5246 5247 5228
5228 5247 5248 5229
5229 5248 5249 5230
5230 5249 5250 5231
5231 5250 194 193
332 333 5251 5232
5232 5251 5252 5233
5233 5252 5253 5234
5234 5253 5254 5235
5235 5254 5255 5236
5236 5255 5256 5237
5237 5256 5257 5238
5238 5257 5258 5239
5239 5258 5259 5240
5240 5259 5260 5241
5241 5260 5261 5242
5242 5261 5262 5243
5243 5262 5263 5244
5244 5263 5264 5245
5245 5264 5265 5246
5246 5265 5266 5247
5247 5266 5267 5248
5248 5267 5268 5249
5249 5268 5269 5250
5250 5269 195 194
333 334 5270 5251
5251 5270 5271 5252
5252 5271 5272 5253
5253 5272 5273 5254
5254 5273 5274 5255
5255 5274 5275 5256
5256 5275 5276 5257
5257 5276 5277 5258
5258 5277 5278 5259
5259 5278 5279 5260
5260 5279 5280 5261
5261 5280 5281 5262
5262 5281 5282 5263
5263 5282 5283 5264
5264 5283 5284 5265
5265 5284 5285 5266
5266 5285 5286 5267
5267 5286 5287 5268
5268 5287 5288 5269
5269 5288 196 195
334 335 5289 5270
5270 5289 5290 5271
5271 5290 5291 5272
5272 5291 5292 5273
5273 5292 5293 5274
5274 5293 5294 5275
5275 5294 5295 5276
5276 5295 5296 5277
5277 5296 5297 5278
5278 5297 5298 5279
5279 5298 5299 5280
5280 5299 5300 5281
5281 5300 5301 5282
5282 5301 5302 5283
5283 5302 5303 5284
5284 5303 5304 5285
5285 5304 5305 5286
5286 5305 5306 5287
5287 5306 5307 5288
5288 5307 197 196
335 336 5308 5289
5289 5308 5309 5290
5290 5309 5310 5291
5291 5310 5311 5292
5292 5311 5312 5293
5293 5312 5313 5294
5294 5313 5314 5295
5295 5314 5315 5296
5296 5315 5316 5297
5297 5316 5317 5298
5298 5317 5318 5299
5299 5318 5319 5300
5300 5319 5320 5301
5301 5320 5321 5302
5302 5321 5322 5303
5303 5322 5323 5304
5304 5323 5324 5305
5305 5324 5325 5306
5306 5325 5326 5307
5307 5326 198 197
336 337 5327 5308
5308 5327 5328 5309
5309 5328 5329 5310
5310 5329 5330 5311
5311 5330 5331 5312
5312 5331 5332 5313
5313 5332 5333 5314
5314 5333 5334 5315
5315 5334 5335 5316
5316 5335 5336 5317
5317 5336 5337 5318
5318 5337 5338 5319
5319 5338 5339 5320
5320 5339 5340 5321
5321 5340 5341 5322
5322 5341 5342 5323
5323 5342 5343 5324
5324 5343 5344 5325
5325 5344 5345 5326
5326 5345 199 198
337 338 5346 5327
5327 5346 5347 5328
5328 5347 5348 5329
5329 5348 5349 5330
5330 5349 5350 5331
5331 5350 5351 5332
5332 5351 5352 5333
5333 5352 5353 5334
5334 5353 5354 5335
5335 5354 5355 5336
5336 5355 5356 5337
5337 5356 5357 5338
5338 5357 5358 5339
5339 5358 5359 5340
5340 5359 5360 5341
5341 5360 5361 5342
5342 5361 5362 5343
5343 5362 5363 5344
5344 5363 5364 5345
5345 5364 200 199
338 339 5365 5346
5346 5365 5366 5347
5347 5366 5367 5348
5348 5367 5368 5349
5349 5368 5369 5350
5350 5369 5370 5351
5351 5370 5371 5352
5352 5371 5372 5353
5353 5372 5373 5354
5354 5373 5374 5355
5355 5374 5375 5356
5356 5375 5376 5357
5357 5376 5377 5358
5358 5377 5378 5359
5359 5378 5379 5360
5360 5379 5380 5361
5361 5380 5381 5362
5362 5381 5382 5363
5363 5382 5383 5364
5364 5383 201 200
339 340 5384 5365
5365 5384 5385 5366
5366 5385 5386 5367
5367 5386 5387 5368
5368 5387 5388 5369
5369 5388 5389 5370
5370 5389 5390 5371
5371 5390 5391 5372
5372 5391 5392 5373
5373 5392 5393 5374
5374 5393 5394 5375
5375 5394 5395 5376
5376 5395 5396 5377
5377 5396 5397 5378
5378 5397 5398 5379
5379 5398 5399 5380
5380 5399 5400 5381
5381 5400 5401 5382
5382 5401 5402 5383
5383 5402 202 201
340 341 5403 5384
5384 5403 5404 5385
5385 5404 5405 5386
5386 5405 5406 5387
5387 5406 5407 5388
5388 5407 5408 5389
5389 5408 5409 5390
5390 5409 5410 5391
5391 5410 5411 5392
5392 5411 5412 5393
5393 5412 5413 5394
5394 5413 5414 5395
5395 5414 5415 5396
5396 5415 5416 5397
5397 5416 5417 5398
5398 5417 5418 5399
5399 5418 5419 5400
5400 5419 5420 5401
5401 5420 5421 5402
5402 5421 203 202
341 342 5422 5403
5403 5422 5423 5404
5404 5423 5424 5405
5405 5424 5425 5406
5406 5425 5426 5407
5407 5426 5427 5408
5408 5427 5428 5409
5409 5428 5429 5410
5410 5429 5430 5411
5411 5430 5431 5412
5412 5431 5432 5413
5413 5432 5433 5414
5414 5433 5434 5415
5415 5434 5435 5416
5416 5435 5436 5417
5417 5436 5437 5418
5418 5437 5438 5419
5419 5438 5439 5420
5420 5439 5440 5421
5421 5440 204 203
342 343 5441 5422
5422 5441 5442 5423
5423 5442 5443 5424
5424 5443 5444 5425
5425 5444 5445 5426
5426 5445 5446 5427
5427 5446 5447 5428
5428 5447 5448 5429
5429 5448 5449 5430
5430 5449 5450 5431
5431 5450 5451 5432
5432 5451 5452 5433
5433 5452 5453 5434
5434 5453 5454 5435
5435 5454 5455 5436
5436 5455 5456 5437
5437 5456 5457 5438
5438 5457 5458 5439
5439 5458 5459 5440
5440 5459 205 204
343 344 5460 5441
5441 5460 5461 5442
5442 5461 5462 5443
5443 5462 5463 5444
5444 5463 5464 5445
5445 5464 5465 5446
5446 5465 5466 5447
5447 5466 5467 5448
5448 5467 5468 5449
5449 5468 5469 5450
5450 5469 5470 5451
5451 5470 5471 5452
5452 5471 5472 5453
5453 5472 5473 5454
5454 5473 5474 5455
5455 5474 5475 5456
5456 5475 5476 5457
5457 5476 5477 5458
5458 5477 5478 5459
5459 5478 206 205
344 345 5479 5460
5460 5479 5480 5461
5461 5480 5481 5462
5462 5481 5482 5463
5463 5482 5483 5464
5464 5483 5484 5465
5465 5484 5485 5466
5466 5485 5486 5467
5467 5486 5487 5468
5468 5487 5488 5469
5469 5488 5489 5470
5470 5489 5490 5471
5471 5490 5491 5472
5472 5491 5492 5473
5473 5492 5493 5474
5474 5493 5494 5475
5475 5494 5495 5476
5476 5495 5496 5477
5477 5496 5497 5478
5478 5497 207 206
345 346 5498 5479
5479 5498 5499 5480
5480 5499 5500 5481
5481 5500 5501 5482
5482 5501 5502 5483
5483 5502 5503 5484
5484 5503 5504 5485
5485 5504 5505 5486
5486 5505 5506 5487
5487 5506 5507 5488
5488 5507 5508 5489
5489 5508 5509 5490
5490 5509 5510 5491
5491 5510 5511 5492
5492 5511 5512 5493
5493 5512 5513 5494
5494 5513 5514 5495
5495 5514 5515 5496
5496 5515 5516 5497
5497 5516 208 207
346 347 5517 5498
5498 5517 5518 5499
5499 5518 5519 5500
5500 5519 5520 5501
5501 5520 5521 5502
5502 5521 5522 5503
5503 5522 5523 5504
5504 5523 5524 5505
5505 5524 5525 5506
5506 5525 5526 5507
5507 5526 5527 5508
5508 5527 5528 5509
5509 5528 5529 5510
5510 5529 5530 5511
5511 5530 5531 5512
5512 5531 5532 5513
5513 5532 5533 5514
5514 5533 5534 5515
5515 5534 5535 5516
5516 5535 209 208
347 348 5536 5517
5517 5536 5537 5518
5518 5537 5538 5519
5519 5538 5539 5520
5520 5539 5540 5521
5521 5540 5541 5522
5522 5541 5542 5523
5523 5542 5543 5524
5524 5543 5544 5525
5525 5544 5545 5526
5526 5545 5546 5527
5527 5546 5547 5528
5528 5547 5548 5529
5529 5548 5549 5530
5530 5549 5550 5531
5531 5550 5551 5532
5532 5551 5552 5533
5533 5552 5553 5534
5534 5553 5554 5535
5535 5554 210 209
348 349 5555 5536
5536 5555 5556 5537
5537 5556 5557 5538
5538 5557 5558 5539
5539 5558 5559 5540
5540 5559 5560 5541
5541 5560 5561 5542
5542 5561 5562 5543
5543 5562 5563 5544
5544 5563 5564 5545
5545 5564 5565 5546
5546 5565 5566 5547
5547 5566 5567 5548
5548 5567 5568 5549
5549 5568 5569 5550
5550 5569 5570 5551
5551 5570 5571 5552
5552 5571 5572 5553
5553 5572 5573 5554
5554 5573 211 210
349 350 5574 5555
5555 5574 5575 5556
5556 5575 5576 5557
5557 5576 5577 5558
5558 5577 5578 5559
5559 5578 5579 5560
5560 5579 5580 5561
5561 5580 5581 5562
5562 5581 5582 5563
5563 5582 5583 5564
5564 5583 5584 5565
5565 5584 5585 5566
5566 5585 5586 5567
5567 5586 5587 5568
5568 5587 5588 5569
5569 5588 5589 5570
5570 5589 5590 5571
5571 5590 5591 5572
5572 5591 5592 5573
5573 5592 212 211
350 351 5593 5574
5574 5593 5594 5575
5575 5594 5595 5576
5576 5595 5596 5577
5577 5596 5597 5578
5578 5597 5598 5579
5579 5598 5599 5580
5580 5599 5600 5581
5581 5600 5601 5582
5582 5601 5602 5583
5583 5602 5603 5584
5584 5603 5604 5585
5585 5604 5605 5586
5586 5605 5606 5587
5587 5606 5607 5588
5588 5607 5608 5589
5589 5608 5609 5590
5590 5609 5610 5591
5591 5610 5611 5592
5592 5611 213 212
351 352 5612 5593
5593 5612 5613 5594
5594 5613 5614 5595
5595 5614 5615 5596
5596 5615 5616 5597
5597 5616 5617 5598
5598 5617 5618 5599
5599 5618 5619 5600
5600 5619 5620 5601
5601 5620 5621 5602
5602 5621 5622 5603
5603 5622 5623 5604
5604 5623 5624 5605
5605 5624 5625 5606
5606 5625 5626 5607
5607 5626 5627 5608
5608 5627 5628 5609
5609 5628 5629 5610
5610 5629 5630 5611
5611 5630 214 213
352 353 5631 5612
5612 5631 5632 5613
5613 5632 5633 5614
5614 5633 5634 5615
5615 5634 5635 5616
5616 5635 5636 5617
5617 5636 5637 5618
5618 5637 5638 5619
5619 5638 5639 5620
5620 5639 5640 5621
5621 5640 5641 5622
5622 5641 5642 5623
5623 5642 5643 5624
5624 5643 5644 5625
5625 5644 5645 5626
5626 5645 5646 5627
5627 5646 5647 5628
5628 5647 5648 5629
5629 5648 5649 5630
5630 5649 215 214
353 354 5650 5631
5631 5650 5651 5632
5632 5651 5652 5633
5633 5652 5653 5634
5634 5653 5654 5635
5635 5654 5655 5636
5636 5655 5656 5637
5637 5656 5657 5638
5638 5657 5658 5639
5639 5658 5659 5640
5640 5659 5660 5641
5641 5660 5661 5642
5642 5661 5662 5643
5643 5662 5663 5644
5644 5663 5664 5645
5645 5664 5665 5646
5646 5665 5666 5647
5647 5666 5667 5648
5648 5667 5668 5649
5649 5668 216 215
354 355 5669 5650
5650 5669 5670 5651
5651 5670 5671 5652
5652 5671 5672 5653
5653 5672 5673 5654
5654 5673 5674 5655
5655 5674 5675 5656
5656 5675 5676 5657
5657 5676 5677 5658
5658 5677 5678 5659
5659 5678 5679 5660
5660 5679 5680 5661
5661 5680 5681 5662
5662 5681 5682 5663
5663 5682 5683 5664
5664 5683 5684 5665
5665 5684 5685 5666
5666 5685 5686 5667
5667 5686 5687 5668
5668 5687 217 216
355 356 5688 5669
5669 5688 5689 5670
5670 5689 5690 5671
5671 5690 5691 5672
5672 5691 5692 5673
5673 5692 5693 5674
5674 5693 5694 5675
5675 5694 5695 5676
5676 5695 5696 5677
5677 5696 5697 5678
5678 5697 5698 5679
5679 5698 5699 5680
5680 5699 5700 5681
5681 5700 5701 5682
5682 5701 5702 5683
5683 5702 5703 5684
5684 5703 5704 5685
5685 5704 5705 5686
5686 5705 5706 5687
5687 5706 218 217
356 357 5707 5688
5688 5707 5708 5689
5689 5708 5709 5690
5690 5709 5710 5691
5691 5710 5711 5692
5692 5711 5712 5693
5693 5712 5713 5694
5694 5713 5714 5695
5695 5714 5715 5696
5696 5715 5716 5697
5697 5716 5717 5698
5698 5717 5718 5699
5699 5718 5719 5700
5700 5719 5720 5701
5701 5720 5721 5702
5702 5721 5722 5703
5703 5722 5723 5704
5704 5723 5724 5705
5705 5724 5725 5706
5706 5725 219 218
357 358 5726 5707
5707 5726 5727 5708
5708 5727 5728 5709
5709 5728 5729 5710
5710 5729 5730 5711
5711 5730 5731 5712
5712 5731 5732 5713
5713 5732 5733 5714
5714 5733 5734 5715
5715 5734 5735 5716
5716 5735 5736 5717
5717 5736 5737 5718
5718 5737 5738 5719
5719 5738 5739 5720
5720 5739 5740 5721
5721 5740 5741 5722
5722 5741 5742 5723
5723 5742 5743 5724
5724 5743 5744 5725
5725 5744 220 219
358 359 5745 5726
5726 5745 5746 5727
5727 5746 5747 5728
5728 5747 5748 5729
5729 5748 5749 5730
5730 5749 5750 5731
5731 5750 5751 5732
5732 5751 5752 5733
5733 5752 5753 5734
5734 5753 5754 5735
5735 5754 5755 5736
5736 5755 5756 5737
5737 5756 5757 5738
5738 5757 5758 5739
5739 5758 5759 5740
5740 5759 5760 5741
5741 5760 5761 5742
5742 5761 5762 5743
5743 5762 5763 5744
5744 5763 221 220
359 360 5764 5745
5745 5764 5765 5746
5746 5765 5766 5747
5747 5766 5767 5748
5748 5767 5768 5749
5749 5768 5769 5750
5750 5769 5770 5751
5751 5770 5771 5752
5752 5771 5772 5753
5753 5772 5773 5754
5754 5773 5774 5755
5755 5774 5775 5756
5756 5775 5776 5757
5757 5776 5777 5758
5758 5777 5778 5759
5759 5778 5779 5760
5760 5779 5780 5761
5761 5780 5781 5762
5762 5781 5782 5763
5763 5782 222 221
360 361 5783 5764
5764 5783 5784 5765
5765 5784 5785 5766
5766 5785 5786 5767
5767 5786 5787 5768
5768 5787 5788 5769
5769 5788 5789 5770
5770 5789 5790 5771
5771 5790 5791 5772
5772 5791 5792 5773
5773 5792 5793 5774
5774 5793 5794 5775
5775 5794 5795 5776
5776 5795 5796 5777
5777 5796 5797 5778
5778 5797 5798 5779
5779 5798 5799 5780
5780 5799 5800 5781
5781 5800 5801 5782
5782 5801 223 222
361 10 419 5783
5783 419 420 5784
5784 420 421 5785
5785 421 422 5786
5786 422 423 5787
5787 423 424 5788
5788 424 425 5789
5789 425 426 5790
5790 426 427 5791
5791 427 428 5792
5792 428 429 5793
5793 429 430 5794
5794 430 431 5795
5795 431 432 5796
5796 432 433 5797
5797 433 434 5798
5798 434 435 5799
5799 435 436 5800
5800 436 437 5801
5801 437 8 223
</DataArray>
<DataArray type="Int64" Name="offsets" format="ascii">
4
8
12
16
20
24
28
32
36
40
44
48
52
56
60
64
68
72
76
80
84
88
92
96
100
104
108
112
116
120
124
128
132
136
140
144
148
152
156
160
164
168
172
176
180
184
188
192
196
200
204
208
212
216
220
224
228
232
236
240
244
248
252
256
260
264
268
272
276
280
284
288
292
296
300
304
308
312
316
320
324
328
332
336
340
344
348
352
356
360
364
368
372
376
380
384
388
392
396
400
404
408
412
416
420
424
428
432
436
440
444
448
452
456
460
464
468
472
476
480
484
488
492
496
500
504
508
512
516
520
524
528
532
536
540
544
548
552
556
560
564
568
572
576
580
584
588
592
596
600
604
608
612
616
620
624
628
632
636
640
644
648
652
656
660
664
668
672
676
680
684
688
692
696
700
704
708
712
716
720
724
728
732
736
740
744
748
752
756
760
764
768
772
776
780
784
788
792
796
800
804
808
812
816
820
824
828
832
836
840
844
848
852
856
860
864
868
872
876
880
884
888
892
896
900
904
908
912
916
920
924
928
932
936
940
944
948
952
956
960
964
968
972
976
980
984
988
992
996
1000
1004
1008
1012
1016
1020
1024
1028
1032
1036
1040
1044
1048
1052
1056
1060
1064
1068
1072
1076
1080
1084
1088
1092
1096
1100
1104
1108
1112
1116
1120
1124
1128
1132
1136
1140
1144
1148
1152
1156
1160
1164
1168
1172
1176
1180
1184
1188
1192
1196
1200
1204
1208
1212
1216
1220
1224
1228
1232
1236
1240
1244
1248
1252
1256
1260
1264
1268
1272
1276
1280
1284
1288
1292
1296
1300
1304
1308
1312
1316
1320
1324
1328
1332
1336
1340
1344
1348
1352
1356
1360
1364
1368
1372
1376
1380
1384
1388
1392
1396
1400
1404
1408
1412
1416
1420
1424
1428
1432
1436
1440
1444
1448
1452
1456
1460
1464
1468
1472
1476
1480
1484
1488
1492
1496
1500
1504
1508
1512
1516
1520
1524
1528
1532
1536
1540
1544
1548
1552
1556
1560
1564
1568
1572
1576
1580
1584
1588
1592
1596
1600
1604
1608
1612
1616
1620
1624
1628
1632
1636
1640
1644
1648
1652
1656
1660
1664
1668
1672
1676
1680
1684
1688
1692
1696
1700
1704
1708
1712
1716
1720
1724
1728
1732
1736
1740
1744
1748
1752
1756
1760
1764
1768
1772
1776
1780
1784
1788
1792
1796
1800
1804
1808
1812
1816
1820
1824
1828
1832
1836
1840
1844
1848
1852
1856
1860
1864
1868
1872
1876
1880
1884
1888
1892
1896
1900
1904
1908
1912
1916
1920
1924
1928
1932
1936
1940
1944
1948
1952
1956
1960
1964
1968
1972
1976
1980
1984
1988
1992
1996
2000
2004
2008
2012
2016
2020
2024
2028
2032
2036
2040
2044
2048
2052
2056
2060
2064
2068
2072
2076
2080
2084
2088
2092
2096
2100
2104
2108
2112
2116
2120
2124
2128
2132
2136
2140
2144
2148
2152
2156
2160
2164
2168
2172
2176
2180
2184
2188
2192
2196
2200
2204
2208
2212
2216
2220
2224
2228
2232
2236
2240
2244
2248
2252
2256
2260
2264
2268
2272
2276
2280
2284
2288
2292
2296
2300
2304
2308
2312
2316
2320
2324
2328
2332
2336
2340
2344
2348
2352
2356
2360
2364
2368
2372
2376
2380
2384
2388
2392
2396
2400
2404
2408
2412
2416
2420
2424
2428
2432
2436
2440
2444
2448
2452
2456
2460
2464
2468
2472
2476
2480
2484
2488
2492
2496
2500
2504
2508
2512
2516
2520
2524
2528
2532
2536
2540
2544
2548
2552
2556
2560
2564
2568
2572
2576
2580
2584
2588
2592
2596
2600
2604
2608
2612
2616
2620
2624
2628
2632
2636
2640
2644
2648
2652
2656
2660
2664
2668
2672
2676
2680
2684
2688
2692
2696
2700
2704
2708
2712
2716
2720
2724
2728
2732
2736
2740
2744
2748
2752
2756
2760
2764
2768
2772
2776
2780
2784
2788
2792
2796
2800
2804
2808
2812
2816
2820
2824
2828
2832
2836
2840
2844
2848
2852
2856
2860
2864
2868
2872
2876
2880
2884
2888
2892
2896
2900
2904
2908
2912
2916
2920
2924
2928
2932
2936
2940
2944
2948
2952
2956
2960
2964
2968
2972
2976
2980
2984
2988
2992
2996
3000
3004
3008
3012
3016
3020
3024
3028
3032
3036
3040
3044
3048
3052
3056
3060
3064
3068
3072
3076
3080
3084
3088
3092
3096
3100
3104
3108
3112
3116
3120
3124
3128
3132
3136
3140
3144
3148
3152
3156
3160
3164
3168
3172
3176
3180
3184
3188
3192
3196
3200
3204
3208
3212
3216
3220
3224
3228
3232
3236
3240
3244
3248
3252
3256
3260
3264
3268
3272
3276
3280
3284
3288
3292
3296
3300
3304
3308
3312
3316
3320
3324
3328
3332
3336
3340
3344
3348
3352
3356
3360
3364
3368
3372
3376
3380
3384
3388
3392
3396
3400
3404
3408
3412
3416
3420
3424
3428
3432
3436
3440
3444
3448
3452
3456
3460
3464
3468
3472
3476
3480
3484
3488
3492
3496
3500
3504
3508
3512
3516
3520
3524
3528
3532
3536
3540
3544
3548
3552
3556
3560
3564
3568
3572
3576
3580
3584
3588
3592
3596
3600
3604
3608
3612
3616
3620
3624
3628
3632
3636
3640
3644
3648
3652
3656
3660
3664
3668
3672
3676
3680
3684
3688
3692
3696
3700
3704
3708
3712
3716
3720
3724
3728
3732
3736
3740
3744
3748
3752
3756
3760
3764
3768
3772
3776
3780
3784
3788
3792
3796
3800
3804
3808
3812
3816
3820
3824
3828
3832
3836
3840
3844
3848
3852
3856
3860
3864
3868
3872
3876
3880
3884
3888
3892
3896
3900
3904
3908
3912
3916
3920
3924
3928
3932
3936
3940
3944
3948
3952
3956
3960
3964
3968
3972
3976
3980
3984
3988
3992
3996
4000
4004
4008
4012
4016
4020
4024
4028
4032
4036
4040
4044
4048
4052
4056
4060
4064
4068
4072
4076
4080
4084
4088
4092
4096
4100
4104
4108
4112
4116
4120
4124
4128
4132
4136
4140
4144
4148
4152
4156
4160
4164
4168
4172
4176
4180
4184
4188
4192
4196
4200
4204
4208
4212
4216
4220
4224
4228
4232
4236
4240
4244
4248
4252
4256
4260
4264
4268
4272
4276
4280
4284
4288
4292
4296
4300
4304
4308
4312
4316
4320
4324
4328
4332
4336
4340
4344
4348
4352
4356
4360
4364
4368
4372
4376
4380
4384
4388
4392
4396
4400
4404
4408
4412
4416
4420
4424
4428
4432
4436
4440
4444
4448
4452
4456
4460
4464
4468
4472
4476
4480
4484
4488
4492
4496
4500
4504
4508
4512
4516
4520
4524
4528
4532
4536
4540
4544
4548
4552
4556
4560
4564
4568
4572
4576
4580
4584
4588
4592
4596
4600
4604
4608
4612
4616
4620
4624
4628
4632
4636
4640
4644
4648
4652
4656
4660
4664
4668
4672
4676
4680
4684
4688
4692
4696
4700
4704
4708
4712
4716
4720
4724
4728
4732
4736
4740
4744
4748
4752
4756
4760
4764
4768
4772
4776
4780
4784
4788
4792
4796
4800
4804
4808
4812
4816
4820
4824
4828
4832
4836
4840
4844
4848
4852
4856
4860
4864
4868
4872
4876
4880
4884
4888
4892
4896
4900
4904
4908
4912
4916
4920
4924
4928
4932
4936
4940
4944
4948
4952
4956
4960
4964
4968
4972
4976
4980
4984
4988
4992
4996
5000
5004
5008
5012
5016
5020
5024
5028
5032
5036
5040
5044
5048
5052
5056
5060
5064
5068
5072
5076
5080
5084
5088
5092
5096
5100
5104
5108
5112
5116
5120
5124
5128
5132
5136
5140
5144
5148
5152
5156
5160
5164
5168
5172
5176
5180
5184
5188
5192
5196
5200
5204
5208
5212
5216
5220
5224
5228
5232
5236
5240
5244
5248
5252
5256
5260
5264
5268
5272
5276
5280
5284
5288
5292
5296
5300
5304
5308
5312
5316
5320
5324
5328
5332
5336
5340
5344
5348
5352
5356
5360
5364
5368
5372
5376
5380
5384
5388
5392
5396
5400
5404
5408
5412
5416
5420
5424
5428
5432
5436
5440
5444
5448
5452
5456
5460
5464
5468
5472
5476
5480
5484
5488
5492
5496
5500
5504
5508
5512
5516
5520
5524
5528
5532
5536
5540
5544
5548
5552
5556
5560
5564
5568
5572
5576
5580
5584
5588
5592
5596
5600
5604
5608
5612
5616
5620
5624
5628
5632
5636
5640
5644
5648
5652
5656
5660
5664
5668
5672
5676
5680
5684
5688
5692
5696
5700
5704
5708
5712
5716
5720
5724
5728
5732
5736
5740
5744
5748
5752
5756
5760
5764
5768
5772
5776
5780
5784
5788
5792
5796
5800
5804
5808
5812
5816
5820
5824
5828
5832
5836
5840
5844
5848
5852
5856
5860
5864
5868
5872
5876
5880
5884
5888
5892
5896
5900
5904
5908
5912
5916
5920
5924
5928
5932
5936
5940
5944
5948
5952
5956
5960
5964
5968
5972
5976
5980
5984
5988
5992
5996
6000
6004
6008
6012
6016
6020
6024
6028
6032
6036
6040
6044
6048
6052
6056
6060
6064
6068
6072
6076
6080
6084
6088
6092
6096
6100
6104
6108
6112
6116
6120
6124
6128
6132
6136
6140
6144
6148
6152
6156
6160
6164
6168
6172
6176
6180
6184
6188
6192
6196
6200
6204
6208
6212
6216
6220
6224
6228
6232
6236
6240
6244
6248
6252
6256
6260
6264
6268
6272
6276
6280
6284
6288
6292
6296
6300
6304
6308
6312
6316
6320
6324
6328
6332
6336
6340
6344
6348
6352
6356
6360
6364
6368
6372
6376
6380
6384
6388
6392
6396
6400
6404
6408
6412
6416
6420
6424
6428
6432
6436
6440
6444
6448
6452
6456
6460
6464
6468
6472
6476
6480
6484
6488
6492
6496
6500
6504
6508
6512
6516
6520
6524
6528
6532
6536
6540
6544
6548
6552
6556
6560
6564
6568
6572
6576
6580
6584
6588
6592
6596
6600
6604
6608
6612
6616
6620
6624
6628
6632
6636
6640
6644
6648
6652
6656
6660
6664
6668
6672
6676
6680
6684
6688
6692
6696
6700
6704
6708
6712
6716
6720
6724
6728
6732
6736
6740
6744
6748
6752
6756
6760
6764
6768
6772
6776
6780
6784
6788
6792
6796
6800
6804
6808
6812
6816
6820
6824
6828
6832
6836
6840
6844
6848
6852
6856
6860
6864
6868
6872
6876
6880
6884
6888
6892
6896
6900
6904
6908
6912
6916
6920
6924
6928
6932
6936
6940
6944
6948
6952
6956
6960
6964
6968
6972
6976
6980
6984
6988
6992
6996
7000
7004
7008
7012
7016
7020
7024
7028
7032
7036
7040
7044
7048
7052
7056
7060
7064
7068
7072
7076
7080
7084
7088
7092
7096
7100
7104
7108
7112
7116
7120
7124
7128
7132
7136
7140
7144
7148
7152
7156
7160
7164
7168
7172
7176
7180
7184
7188
7192
7196
7200
7204
7208
7212
7216
7220
7224
7228
7232
7236
7240
7244
7248
7252
7256
7260
7264
7268
7272
7276
7280
7284
7288
7292
7296
7300
7304
7308
7312
7316
7320
7324
7328
7332
7336
7340
7344
7348
7352
7356
7360
7364
7368
7372
7376
7380
7384
7388
7392
7396
7400
7404
7408
7412
7416
7420
7424
7428
7432
7436
7440
7444
7448
7452
7456
7460
7464
7468
7472
7476
7480
7484
7488
7492
7496
7500
7504
7508
7512
7516
7520
7524
7528
7532
7536
7540
7544
7548
7552
7556
7560
7564
7568
7572
7576
7580
7584
7588
7592
7596
7600
7604
7608
7612
7616
7620
7624
7628
7632
7636
7640
7644
7648
7652
7656
7660
7664
7668
7672
7676
7680
7684
7688
7692
7696
7700
7704
7708
7712
7716
7720
7724
7728
7732
7736
7740
7744
7748
7752
7756
7760
7764
7768
7772
7776
7780
7784
7788
7792
7796
7800
7804
7808
7812
7816
7820
7824
7828
7832
7836
7840
7844
7848
7852
7856
7860
7864
7868
7872
7876
7880
7884
7888
7892
7896
7900
7904
7908
7912
7916
7920
7924
7928
7932
7936
7940
7944
7948
7952
7956
7960
7964
7968
7972
7976
7980
7984
7988
7992
7996
8000
8004
8008
8012
8016
8020
8024
8028
8032
8036
8040
8044
8048
8052
8056
8060
8064
8068
8072
8076
8080
8084
8088
8092
8096
8100
8104
8108
8112
8116
8120
8124
8128
8132
8136
8140
8144
8148
8152
8156
8160
8164
8168
8172
8176
8180
8184
8188
8192
8196
8200
8204
8208
8212
8216
8220
8224
8228
8232
8236
8240
8244
8248
8252
8256
8260
8264
8268
8272
8276
8280
8284
8288
8292
8296
8300
8304
8308
8312
8316
8320
8324
8328
8332
8336
8340
8344
8348
8352
8356
8360
8364
8368
8372
8376
8380
8384
8388
8392
8396
8400
8404
8408
8412
8416
8420
8424
8428
8432
8436
8440
8444
8448
8452
8456
8460
8464
8468
8472
8476
8480
8484
8488
8492
8496
8500
8504
8508
8512
8516
8520
8524
8528
8532
8536
8540
8544
8548
8552
8556
8560
8564
8568
8572
8576
8580
8584
8588
8592
8596
8600
8604
8608
8612
8616
8620
8624
8628
8632
8636
8640
8644
8648
8652
8656
8660
8664
8668
8672
8676
8680
8684
8688
8692
8696
8700
8704
8708
8712
8716
8720
8724
8728
8732
8736
8740
8744
8748
8752
8756
8760
8764
8768
8772
8776
8780
8784
8788
8792
8796
8800
8804
8808
8812
8816
8820
8824
8828
8832
8836
8840
8844
8848
8852
8856
8860
8864
8868
8872
8876
8880
8884
8888
8892
8896
8900
8904
8908
8912
8916
8920
8924
8928
8932
8936
8940
8944
8948
8952
8956
8960
8964
8968
8972
8976
8980
8984
8988
8992
8996
9000
9004
9008
9012
9016
9020
9024
9028
9032
9036
9040
9044
9048
9052
9056
9060
9064
9068
9072
9076
9080
9084
9088
9092
9096
9100
9104
9108
9112
9116
9120
9124
9128
9132
9136
9140
9144
9148
9152
9156
9160
9164
9168
9172
9176
9180
9184
9188
9192
9196
9200
9204
9208
9212
9216
9220
9224
9228
9232
9236
9240
9244
9248
9252
9256
9260
9264
9268
9272
9276
9280
9284
9288
9292
9296
9300
9304
9308
9312
9316
9320
9324
9328
9332
9336
9340
9344
9348
9352
9356
9360
9364
9368
9372
9376
9380
9384
9388
9392
9396
9400
9404
9408
9412
9416
9420
9424
9428
9432
9436
9440
9444
9448
9452
9456
9460
9464
9468
9472
9476
9480
9484
9488
9492
9496
9500
9504
9508
9512
9516
9520
9524
9528
9532
9536
9540
9544
9548
9552
9556
9560
9564
9568
9572
9576
9580
9584
9588
9592
9596
9600
9604
9608
9612
9616
9620
9624
9628
9632
9636
9640
9644
9648
9652
9656
9660
9664
9668
9672
9676
9680
9684
9688
9692
9696
9700
9704
9708
9712
9716
9720
9724
9728
9732
9736
9740
9744
9748
9752
9756
9760
9764
9768
9772
9776
9780
9784
9788
9792
9796
9800
9804
9808
9812
9816
9820
9824
9828
9832
9836
9840
9844
9848
9852
9856
9860
9864
9868
9872
9876
9880
9884
9888
9892
9896
9900
9904
9908
9912
9916
9920
9924
9928
9932
9936
9940
9944
9948
9952
9956
9960
9964
9968
9972
9976
9980
9984
9988
9992
9996
10000
10004
10008
10012
10016
10020
10024
10028
10032
10036
10040
10044
10048
10052
10056
10060
10064
10068
10072
10076
10080
10084
10088
10092
10096
10100
10104
10108
10112
10116
10120
10124
10128
10132
10136
10140
10144
10148
10152
10156
10160
10164
10168
10172
10176
10180
10184
10188
10192
10196
10200
10204
10208
10212
10216
10220
10224
10228
10232
10236
10240
10244
10248
10252
10256
10260
10264
10268
10272
10276
10280
10284
10288
10292
10296
10300
10304
10308
10312
10316
10320
10324
10328
10332
10336
10340
10344
10348
10352
10356
10360
10364
10368
10372
10376
10380
10384
10388
10392
10396
10400
10404
10408
10412
10416
10420
10424
10428
10432
10436
10440
10444
10448
10452
10456
10460
10464
10468
10472
10476
10480
10484
10488
10492
10496
10500
10504
10508
10512
10516
10520
10524
10528
10532
10536
10540
10544
10548
10552
10556
10560
10564
10568
10572
10576
10580
10584
10588
10592
10596
10600
10604
10608
10612
10616
10620
10624
10628
10632
10636
10640
10644
10648
10652
10656
10660
10664
10668
10672
10676
10680
10684
10688
10692
10696
10700
10704
10708
10712
10716
10720
10724
10728
10732
10736
10740
10744
10748
10752
10756
10760
10764
10768
10772
10776
10780
10784
10788
10792
10796
10800
10804
10808
10812
10816
10820
10824
10828
10832
10836
10840
10844
10848
10852
10856
10860
10864
10868
10872
10876
10880
10884
10888
10892
10896
10900
10904
10908
10912
10916
10920
10924
10928
10932
10936
10940
10944
10948
10952
10956
10960
10964
10968
10972
10976
10980
10984
10988
10992
10996
11000
11004
11008
11012
11016
11020
11024
11028
11032
11036
11040
11044
11048
11052
11056
11060
11064
11068
11072
11076
11080
11084
11088
11092
11096
11100
11104
11108
11112
11116
11120
11124
11128
11132
11136
11140
11144
11148
11152
11156
11160
11164
11168
11172
11176
11180
11184
11188
11192
11196
11200
11204
11208
11212
11216
11220
11224
11228
11232
11236
11240
11244
11248
11252
11256
11260
11264
11268
11272
11276
11280
11284
11288
11292
11296
11300
11304
11308
11312
11316
11320
11324
11328
11332
11336
11340
11344
11348
11352
11356
11360
11364
11368
11372
11376
11380
11384
11388
11392
11396
11400
11404
11408
11412
11416
11420
11424
11428
11432
11436
11440
11444
11448
11452
11456
11460
11464
11468
11472
11476
11480
11484
11488
11492
11496
11500
11504
11508
11512
11516
11520
11524
11528
11532
11536
11540
11544
11548
11552
11556
11560
11564
11568
11572
11576
11580
11584
11588
11592
11596
11600
11604
11608
11612
11616
11620
11624
11628
11632
11636
11640
11644
11648
11652
11656
11660
11664
11668
11672
11676
11680
11684
11688
11692
11696
11700
11704
11708
11712
11716
11720
11724
11728
11732
11736
11740
11744
11748
11752
11756
11760
11764
11768
11772
11776
11780
11784
11788
11792
11796
11800
11804
11808
11812
11816
11820
11824
11828
11832
11836
11840
11844
11848
11852
11856
11860
11864
11868
11872
11876
11880
11884
11888
11892
11896
11900
11904
11908
11912
11916
11920
11924
11928
11932
11936
11940
11944
11948
11952
11956
11960
11964
11968
11972
11976
11980
11984
11988
11992
11996
12000
12004
12008
12012
12016
12020
12024
12028
12032
12036
12040
12044
12048
12052
12056
12060
12064
12068
12072
12076
12080
12084
12088
12092
12096
12100
12104
12108
12112
12116
12120
12124
12128
12132
12136
12140
12144
12148
12152
12156
12160
12164
12168
12172
12176
12180
12184
12188
12192
12196
12200
12204
12208
12212
12216
12220
12224
12228
12232
12236
12240
12244
12248
12252
12256
12260
12264
12268
12272
12276
12280
12284
12288
12292
12296
12300
12304
12308
12312
12316
12320
12324
12328
12332
12336
12340
12344
12348
12352
12356
12360
12364
12368
12372
12376
12380
12384
12388
12392
12396
12400
12404
12408
12412
12416
12420
12424
12428
12432
12436
12440
12444
12448
12452
12456
12460
12464
12468
12472
12476
12480
12484
12488
12492
12496
12500
12504
12508
12512
12516
12520
12524
12528
12532
12536
12540
12544
12548
12552
12556
12560
12564
12568
12572
12576
12580
12584
12588
12592
12596
12600
12604
12608
12612
12616
12620
12624
12628
12632
12636
12640
12644
12648
12652
12656
12660
12664
12668
12672
12676
12680
12684
12688
12692
12696
12700
12704
12708
12712
12716
12720
12724
12728
12732
12736
12740
12744
12748
12752
12756
12760
12764
12768
12772
12776
12780
12784
12788
12792
12796
12800
12804
12808
12812
12816
12820
12824
12828
12832
12836
12840
12844
12848
12852
12856
12860
12864
12868
12872
12876
12880
12884
12888
12892
12896
12900
12904
12908
12912
12916
12920
12924
12928
12932
12936
12940
12944
12948
12952
12956
12960
12964
12968
12972
12976
12980
12984
12988
12992
12996
13000
13004
13008
13012
13016
13020
13024
13028
13032
13036
13040
13044
13048
13052
13056
13060
13064
13068
13072
13076
13080
13084
13088
13092
13096
13100
13104
13108
13112
13116
13120
13124
13128
13132
13136
13140
13144
13148
13152
13156
13160
13164
13168
13172
13176
13180
13184
13188
13192
13196
13200
13204
13208
13212
13216
13220
13224
13228
13232
13236
13240
13244
13248
13252
13256
13260
13264
13268
13272
13276
13280
13284
13288
13292
13296
13300
13304
13308
13312
13316
13320
13324
13328
13332
13336
13340
13344
13348
13352
13356
13360
13364
13368
13372
13376
13380
13384
13388
13392
13396
13400
13404
13408
13412
13416
13420
13424
13428
13432
13436
13440
13444
13448
13452
13456
13460
13464
13468
13472
13476
13480
13484
13488
13492
13496
13500
13504
13508
13512
13516
13520
13524
13528
13532
13536
13540
13544
13548
13552
13556
13560
13564
13568
13572
13576
13580
13584
13588
13592
13596
13600
13604
13608
13612
13616
13620
13624
13628
13632
13636
13640
13644
13648
13652
13656
13660
13664
13668
13672
13676
13680
13684
13688
13692
13696
13700
13704
13708
13712
13716
13720
13724
13728
13732
13736
13740
13744
13748
13752
13756
13760
13764
13768
13772
13776
13780
13784
13788
13792
13796
13800
13804
13808
13812
13816
13820
13824
13828
13832
13836
13840
13844
13848
13852
13856
13860
13864
13868
13872
13876
13880
13884
13888
13892
13896
13900
13904
13908
13912
13916
13920
13924
13928
13932
13936
13940
13944
13948
13952
13956
13960
13964
13968
13972
13976
13980
13984
13988
13992
13996
14000
14004
14008
14012
14016
14020
14024
14028
14032
14036
14040
14044
14048
14052
14056
14060
14064
14068
14072
14076
14080
14084
14088
14092
14096
14100
14104
14108
14112
14116
14120
14124
14128
14132
14136
14140
14144
14148
14152
14156
14160
14164
14168
14172
14176
14180
14184
14188
14192
14196
14200
14204
14208
14212
14216
14220
14224
14228
14232
14236
14240
14244
14248
14252
14256
14260
14264
14268
14272
14276
14280
14284
14288
14292
14296
14300
14304
14308
14312
14316
14320
14324
14328
14332
14336
14340
14344
14348
14352
14356
14360
14364
14368
14372
14376
14380
14384
14388
14392
14396
14400
14404
14408
14412
14416
14420
14424
14428
14432
14436
14440
14444
14448
14452
14456
14460
14464
14468
14472
14476
14480
14484
14488
14492
14496
14500
14504
14508
14512
14516
14520
14524
14528
14532
14536
14540
14544
14548
14552
14556
14560
14564
14568
14572
14576
14580
14584
14588
14592
14596
14600
14604
14608
14612
14616
14620
14624
14628
14632
14636
14640
14644
14648
14652
14656
14660
14664
14668
14672
14676
14680
14684
14688
14692
14696
14700
14704
14708
14712
14716
14720
14724
14728
14732
14736
14740
14744
14748
14752
14756
14760
14764
14768
14772
14776
14780
14784
14788
14792
14796
14800
14804
14808
14812
14816
14820
14824
14828
14832
14836
14840
14844
14848
14852
14856
14860
14864
14868
14872
14876
14880
14884
14888
14892
14896
14900
14904
14908
14912
14916
14920
14924
14928
14932
14936
14940
14944
14948
14952
14956
14960
14964
14968
14972
14976
14980
14984
14988
14992
14996
15000
15004
15008
15012
15016
15020
15024
15028
15032
15036
15040
15044
15048
15052
15056
15060
15064
15068
15072
15076
15080
15084
15088
15092
15096
15100
15104
15108
15112
15116
15120
15124
15128
15132
15136
15140
15144
15148
15152
15156
15160
15164
15168
15172
15176
15180
15184
15188
15192
15196
15200
15204
15208
15212
15216
15220
15224
15228
15232
15236
15240
15244
15248
15252
15256
15260
15264
15268
15272
15276
15280
15284
15288
15292
15296
15300
15304
15308
15312
15316
15320
15324
15328
15332
15336
15340
15344
15348
15352
15356
15360
15364
15368
15372
15376
15380
15384
15388
15392
15396
15400
15404
15408
15412
15416
15420
15424
15428
15432
15436
15440
15444
15448
15452
15456
15460
15464
15468
15472
15476
15480
15484
15488
15492
15496
15500
15504
15508
15512
15516
15520
15524
15528
15532
15536
15540
15544
15548
15552
15556
15560
15564
15568
15572
15576
15580
15584
15588
15592
15596
15600
15604
15608
15612
15616
15620
15624
15628
15632
15636
15640
15644
15648
15652
15656
15660
15664
15668
15672
15676
15680
15684
15688
15692
15696
15700
15704
15708
15712
15716
15720
15724
15728
15732
15736
15740
15744
15748
15752
15756
15760
15764
15768
15772
15776
15780
15784
15788
15792
15796
15800
15804
15808
15812
15816
15820
15824
15828
15832
15836
15840
15844
15848
15852
15856
15860
15864
15868
15872
15876
15880
15884
15888
15892
15896
15900
15904
15908
15912
15916
15920
15924
15928
15932
15936
15940
15944
15948
15952
15956
15960
15964
15968
15972
15976
15980
15984
15988
15992
15996
16000
16004
16008
16012
16016
16020
16024
16028
16032
16036
16040
16044
16048
16052
16056
16060
16064
16068
16072
16076
16080
16084
16088
16092
16096
16100
16104
16108
16112
16116
16120
16124
16128
16132
16136
16140
16144
16148
16152
16156
16160
16164
16168
16172
16176
16180
16184
16188
16192
16196
16200
16204
16208
16212
16216
16220
16224
16228
16232
16236
16240
16244
16248
16252
16256
16260
16264
16268
16272
16276
16280
16284
16288
16292
16296
16300
16304
16308
16312
16316
16320
16324
16328
16332
16336
16340
16344
16348
16352
16356
16360
16364
16368
16372
16376
16380
16384
16388
16392
16396
16400
16404
16408
16412
16416
16420
16424
16428
16432
16436
16440
16444
16448
16452
16456
16460
16464
16468
16472
16476
16480
16484
16488
16492
16496
16500
16504
16508
16512
16516
16520
16524
16528
16532
16536
16540
16544
16548
16552
16556
16560
16564
16568
16572
16576
16580
16584
16588
16592
16596
16600
16604
16608
16612
16616
16620
16624
16628
16632
16636
16640
16644
16648
16652
16656
16660
16664
16668
16672
16676
16680
16684
16688
16692
16696
16700
16704
16708
16712
16716
16720
16724
16728
16732
16736
16740
16744
16748
16752
16756
16760
16764
16768
16772
16776
16780
16784
16788
16792
16796
16800
16804
16808
16812
16816
16820
16824
16828
16832
16836
16840
16844
16848
16852
16856
16860
16864
16868
16872
16876
16880
16884
16888
16892
16896
16900
16904
16908
16912
16916
16920
16924
16928
16932
16936
16940
16944
16948
16952
16956
16960
16964
16968
16972
16976
16980
16984
16988
16992
16996
17000
17004
17008
17012
17016
17020
17024
17028
17032
17036
17040
17044
17048
17052
17056
17060
17064
17068
17072
17076
17080
17084
17088
17092
17096
17100
17104
17108
17112
17116
17120
17124
17128
17132
17136
17140
17144
17148
17152
17156
17160
17164
17168
17172
17176
17180
17184
17188
17192
17196
17200
17204
17208
17212
17216
17220
17224
17228
17232
17236
17240
17244
17248
17252
17256
17260
17264
17268
17272
17276
17280
17284
17288
17292
17296
17300
17304
17308
17312
17316
17320
17324
17328
17332
17336
17340
17344
17348
17352
17356
17360
17364
17368
17372
17376
17380
17384
17388
17392
17396
17400
17404
17408
17412
17416
17420
17424
17428
17432
17436
17440
17444
17448
17452
17456
17460
17464
17468
17472
17476
17480
17484
17488
17492
17496
17500
17504
17508
17512
17516
17520
17524
17528
17532
17536
17540
17544
17548
17552
17556
17560
17564
17568
17572
17576
17580
17584
17588
17592
17596
17600
17604
17608
17612
17616
17620
17624
17628
17632
17636
17640
17644
17648
17652
17656
17660
17664
17668
17672
17676
17680
17684
17688
17692
17696
17700
17704
17708
17712
17716
17720
17724
17728
17732
17736
17740
17744
17748
17752
17756
17760
17764
17768
17772
17776
17780
17784
17788
17792
17796
17800
17804
17808
17812
17816
17820
17824
17828
17832
17836
17840
17844
17848
17852
17856
17860
17864
17868
17872
17876
17880
17884
17888
17892
17896
17900
17904
17908
17912
17916
17920
17924
17928
17932
17936
17940
17944
17948
17952
17956
17960
17964
17968
17972
17976
17980
17984
17988
17992
17996
18000
18004
18008
18012
18016
18020
18024
18028
18032
18036
18040
18044
18048
18052
18056
18060
18064
18068
18072
18076
18080
18084
18088
18092
18096
18100
18104
18108
18112
18116
18120
18124
18128
18132
18136
18140
18144
18148
18152
18156
18160
18164
18168
18172
18176
18180
18184
18188
18192
18196
18200
18204
18208
18212
18216
18220
18224
18228
18232
18236
18240
18244
18248
18252
18256
18260
18264
18268
18272
18276
18280
18284
18288
18292
18296
18300
18304
18308
18312
18316
18320
18324
18328
18332
18336
18340
18344
18348
18352
18356
18360
18364
18368
18372
18376
18380
18384
18388
18392
18396
18400
18404
18408
18412
18416
18420
18424
18428
18432
18436
18440
18444
18448
18452
18456
18460
18464
18468
18472
18476
18480
18484
18488
18492
18496
18500
18504
18508
18512
18516
18520
18524
18528
18532
18536
18540
18544
18548
18552
18556
18560
18564
18568
18572
18576
18580
18584
18588
18592
18596
18600
18604
18608
18612
18616
18620
18624
18628
18632
18636
18640
18644
18648
18652
18656
18660
18664
18668
18672
18676
18680
18684
18688
18692
18696
18700
18704
18708
18712
18716
18720
18724
18728
18732
18736
18740
18744
18748
18752
18756
18760
18764
18768
18772
18776
18780
18784
18788
18792
18796
18800
18804
18808
18812
18816
18820
18824
18828
18832
18836
18840
18844
18848
18852
18856
18860
18864
18868
18872
18876
18880
18884
18888
18892
18896
18900
18904
18908
18912
18916
18920
18924
18928
18932
18936
18940
18944
18948
18952
18956
18960
18964
18968
18972
18976
18980
18984
18988
18992
18996
19000
19004
19008
19012
19016
19020
19024
19028
19032
19036
19040
19044
19048
19052
19056
19060
19064
19068
19072
19076
19080
19084
19088
19092
19096
19100
19104
19108
19112
19116
19120
19124
19128
19132
19136
19140
19144
19148
19152
19156
19160
19164
19168
19172
19176
19180
19184
19188
19192
19196
19200
19204
19208
19212
19216
19220
19224
19228
19232
19236
19240
19244
19248
19252
19256
19260
19264
19268
19272
19276
19280
19284
19288
19292
19296
19300
19304
19308
19312
19316
19320
19324
19328
19332
19336
19340
19344
19348
19352
19356
19360
19364
19368
19372
19376
19380
19384
19388
19392
19396
19400
19404
19408
19412
19416
19420
19424
19428
19432
19436
19440
19444
19448
19452
19456
19460
19464
19468
19472
19476
19480
19484
19488
19492
19496
19500
19504
19508
19512
19516
19520
19524
19528
19532
19536
19540
19544
19548
19552
19556
19560
19564
19568
19572
19576
19580
19584
19588
19592
19596
19600
19604
19608
19612
19616
19620
19624
19628
19632
19636
19640
19644
19648
19652
19656
19660
19664
19668
19672
19676
19680
19684
19688
19692
19696
19700
19704
19708
19712
19716
19720
19724
19728
19732
19736
19740
19744
19748
19752
19756
19760
19764
19768
19772
19776
19780
19784
19788
19792
19796
19800
19804
19808
19812
19816
19820
19824
19828
19832
19836
19840
19844
19848
19852
19856
19860
19864
19868
19872
19876
19880
19884
19888
19892
19896
19900
19904
19908
19912
19916
19920
19924
19928
19932
19936
19940
19944
19948
19952
19956
19960
19964
19968
19972
19976
19980
19984
19988
19992
19996
20000
20004
20008
20012
20016
20020
20024
20028
20032
20036
20040
20044
20048
20052
20056
20060
20064
20068
20072
20076
20080
20084
20088
20092
20096
20100
20104
20108
20112
20116
20120
20124
20128
20132
20136
20140
20144
20148
20152
20156
20160
20164
20168
20172
20176
20180
20184
20188
20192
20196
20200
20204
20208
20212
20216
20220
20224
20228
20232
20236
20240
20244
20248
20252
20256
20260
20264
20268
20272
20276
20280
20284
20288
20292
20296
20300
20304
20308
20312
20316
20320
20324
20328
20332
20336
20340
20344
20348
20352
20356
20360
20364
20368
20372
20376
20380
20384
20388
20392
20396
20400
20404
20408
20412
20416
20420
20424
20428
20432
20436
20440
20444
20448
20452
20456
20460
20464
20468
20472
20476
20480
20484
20488
20492
20496
20500
20504
20508
20512
20516
20520
20524
20528
20532
20536
20540
20544
20548
20552
20556
20560
20564
20568
20572
20576
20580
20584
20588
20592
20596
20600
20604
20608
20612
20616
20620
20624
20628
20632
20636
20640
20644
20648
20652
20656
20660
20664
20668
20672
20676
20680
20684
20688
20692
20696
20700
20704
20708
20712
20716
20720
20724
20728
20732
20736
20740
20744
20748
20752
20756
20760
20764
20768
20772
20776
20780
20784
20788
20792
20796
20800
20804
20808
20812
20816
20820
20824
20828
20832
20836
20840
20844
20848
20852
20856
20860
20864
20868
20872
20876
20880
20884
20888
20892
20896
20900
20904
20908
20912
20916
20920
20924
20928
20932
20936
20940
20944
20948
20952
20956
20960
20964
20968
20972
20976
20980
20984
20988
20992
20996
21000
21004
21008
21012
21016
21020
21024
21028
21032
21036
21040
21044
21048
21052
21056
21060
21064
21068
21072
21076
21080
21084
21088
21092
21096
21100
21104
21108
21112
21116
21120
21124
21128
21132
21136
21140
21144
21148
21152
21156
21160
21164
21168
21172
21176
21180
21184
21188
21192
21196
21200
21204
21208
21212
21216
21220
21224
21228
21232
21236
21240
21244
21248
21252
21256
21260
21264
21268
21272
21276
21280
21284
21288
21292
21296
21300
21304
21308
21312
21316
21320
21324
21328
21332
21336
21340
21344
21348
21352
21356
21360
21364
21368
21372
21376
21380
21384
21388
21392
21396
21400
21404
21408
21412
21416
21420
21424
21428
21432
21436
21440
21444
21448
21452
21456
21460
21464
21468
21472
21476
21480
21484
21488
21492
21496
21500
21504
21508
21512
21516
21520
21524
21528
21532
21536
21540
21544
21548
21552
21556
21560
21564
21568
21572
21576
21580
21584
21588
21592
21596
21600
21604
21608
21612
21616
21620
21624
21628
21632
21636
21640
21644
21648
21652
21656
21660
21664
21668
21672
21676
21680
21684
21688
21692
21696
21700
21704
21708
21712
21716
21720
21724
21728
21732
21736
21740
21744
21748
21752
21756
21760
21764
21768
21772
21776
21780
21784
21788
21792
21796
21800
21804
21808
21812
21816
21820
21824
21828
21832
21836
21840
21844
21848
21852
21856
21860
21864
21868
21872
21876
21880
21884
21888
21892
21896
21900
21904
21908
21912
21916
21920
21924
21928
21932
21936
21940
21944
21948
21952
21956
21960
21964
21968
21972
21976
21980
21984
21988
21992
21996
22000
22004
22008
22012
22016
22020
22024
22028
22032
22036
22040
22044
22048
22052
22056
22060
22064
22068
22072
22076
22080
22084
22088
22092
22096
22100
22104
22108
22112
22116
22120
22124
22128
22132
22136
22140
22144
22148
22152
22156
22160
22164
22168
22172
22176
22180
22184
22188
22192
22196
22200
22204
22208
22212
22216
22220
22224
22228
22232
22236
22240
22244
22248
22252
22256
22260
22264
22268
22272
22276
22280
22284
22288
22292
22296
22300
22304
22308
22312
22316
22320
22324
22328
22332
22336
22340
22344
22348
22352
22356
22360
22364
22368
22372
22376
22380
22384
22388
22392
22396
22400
22404
22408
22412
22416
22420
22424
22428
22432
22436
22440
22444
22448
22452
22456
22460
22464
22468
22472
22476
22480
22484
22488
22492
22496
22500
22504
22508
22512
22516
22520
22524
22528
22532
22536
22540
22544
22548
22552
22556
22560
22564
22568
22572
22576
22580
22584
22588
22592
22596
22600
22604
22608
22612
22616
22620
22624
22628
22632
22636
22640
22644
22648
22652
22656
22660
22664
22668
22672
22676
22680
22684
22688
22692
22696
22700
22704
22708
22712
22716
22720
</DataArray>
<DataArray type="Int64" Name="types" format="ascii">
9
9
9
9
9
9
9
9
9
9
9
9
9
9
9
9
9
9
9
9
9
9
9
9
9
9
9
9
9
9
9
9
9
9
9
9
9
9
9
9
9
9
9
9
9
9
9
9
9
9
9
9
9
9
9
9
9
9
9
9
9
9
9
9
9
9
9
9
9
9
9
9
9
9
9
9
9
9
9
9
9
9
9
9
9
9
9
9
9
9
9
9
9
9
9
9
9
9
9
9
9
9
9
9
9
9
9
9
9
9
9
9
9
9
9
9
9
9
9
9
9
9
9
9
9
9
9
9
9
9
9
9
9
9
9
9
9
9
9
9
9
9
9
9
9
9
9
9
9
9
9
9
9
9
9
9
9
9
9
9
9
9
9
9
9
9
9
9
9
9
9
9
9
9
9
9
9
9
9
9
9
9
9
9
9
9
9
9
9
9
9
9
9
9
9
9
9
9
9
9
9
9
9
9
9
9
9
9
9
9
9
9
9
9
9
9
9
9
9
9
9
9
9
9
9
9
9
9
9
9
9
9
9
9
9
9
9
9
9
9
9
9
9
9
9
9
9
9
9
9
9
9
9
9
9
9
9
9
9
9
9
9
9
9
9
9
9
9
9
9
9
9
9
9
9
9
9
9
9
9
9
9
9
9
9
9
9
9
9
9
9
9
9
9
9
9
9
9
9
9
9
9
9
9
9
9
9
9
9
9
9
9
9
9
9
9
9
9
9
9
9
9
9
9
9
9
9
9
9
9
9
9
9
9
9
9
9
9
9
9
9
9
9
9
9
9
9
9
9
9
9
9
9
9
9
9
9
9
9
9
9
9
9
9
9
9
9
9
9
9
9
9
9
9
9
9
9
9
9
9
9
9
9
9
9
9
9
9
9
9
9
9
9
9
9
9
9
9
9
9
9
9
9
9
9
9
9
9
9
9
9
9
9
9
9
9
9
9
9
9
9
9
9
9
9
9
9
9
9
9
9
9
9
9
9
9
9
9
9
9
9
9
9
9
9
9
9
9
9
9
9
9
9
9
9
9
9
9
9
9
9
9
9
9
9
9
9
9
9
9
9
9
9
9
9
9
9
9
9
9
9
9
9
9
9
9
9
9
9
9
9
9
9
9
9
9
9
9
9
9
9
9
9
9
9
9
9
9
9
9
9
9
9
9
9
9
9
9
9
9
9
9
9
9
9
9
9
9
9
9
9
9
9
9
9
9
9
9
9
9
9
9
9
9
9
9
9
9
9
9
9
9
9
9
9
9
9
9
9
9
9
9
9
9
9
9
9
9
9
9
9
9
9
9
9
9
9
9
9
9
9
9
9
9
9
9
9
9
9
9
9
9
9
9
9
9
9
9
9
9
9
9
9
9
9
9
9
9
9
9
9
9
9
9
9
9
9
9
9
9
9
9
9
9
9
9
9
9
9
9
9
9
9
9
9
9
9
9
9
9
9
9
9
9
9
9
9
9
9
9
9
9
9
9
9
9
9
9
9
9
9
9
9
9
9
9
9
9
9
9
9
9
9
9
9
9
9
9
9
9
9
9
9
9
9
9
9
9
9
9
9
9
9
9
9
9
9
9
9
9
9
9
9
9
9
9
9
9
9
9
9
9
9
9
9
9
9
9
9
9
9
9
9
9
9
9
9
9
9
9
9
9
9
9
9
9
9
9
9
9
9
9
9
9
9
9
9
9
9
9
9
9
9
9
9
9
9
9
9
9
9
9
9
9
9
9
9
9
9
9
9
9
9
9
9
9
9
9
9
9
9
9
9
9
9
9
9
9
9
9
9
9
9
9
9
9
9
9
9
9
9
9
9
9
9
9
9
9
9
9
9
9
9
9
9
9
9
9
9
9
9
9
9
9
9
9
9
9
9
9
9
9
9
9
9
9
9
9
9
9
9
9
9
9
9
9
9
9
9
9
9
9
9
9
9
9
9
9
9
9
9
9
9
9
9
9
9
9
9
9
9
9
9
9
9
9
9
9
9
9
9
9
9
9
9
9
9
9
9
9
9
9
9
9
9
9
9
9
9
9
9
9
9
9
9
9
9
9
9
9
9
9
9
9
9
9
9
9
9
9
9
9
9
9
9
9
9
9
9
9
9
9
9
9
9
9
9
9
9
9
9
9
9
9
9
9
9
9
9
9
9
9
9
9
9
9
9
9
9
9
9
9
9
9
9
9
9
9
9
9
9
9
9
9
9
9
9
9
9
9
9
9
9
9
9
9
9
9
9
9
9
9
9
9
9
9
9
9
9
9
9
9
9
9
9
9
9
9
9
9
9
9
9
9
9
9
9
9
9
9
9
9
9
9
9
9
9
9
9
9
9
9
9
9
9
9
9
9
9
9
9
9
9
9
9
9
9
9
9
9
9
9
9
9
9
9
9
9
9
9
9
9
9
9
9
9
9
9
9
9
9
9
9
9
9
9
9
9
9
9
9
9
9
9
9
9
9
9
9
9
9
9
9
9
9
9
9
9
9
9
9
9
9
9
9
9
9
9
9
9
9
9
9
9
9
9
9
9
9
9
9
9
9
9
9
9
9
9
9
9
9
9
9
9
9
9
9
9
9
9
9
9
9
9
9
9
9
9
9
9
9
9
9
9
9
9
9
9
9
9
9
9
9
9
9
9
9
9
9
9
9
9
9
9
9
9
9
9
9
9
9
9
9
9
9
9
9
9
9
9
9
9
9
9
9
9
9
9
9
9
9
9
9
9
9
9
9
9
9
9
9
9
9
9
9
9
9
9
9
9
9
9
9
9
9
9
9
9
9
9
9
9
9
9
9
9
9
9
9
9
9
9
9
9
9
9
9
9
9
9
9
9
9
9
9
9
9
9
9
9
9
9
9
9
9
9
9
9
9
9
9
9
9
9
9
9
9
9
9
9
9
9
9
9
9
9
9
9
9
9
9
9
9
9
9
9
9
9
9
9
9
9
9
9
9
9
9
9
9
9
9
9
9
9
9
9
9
9
9
9
9
9
9
9
9
9
9
9
9
9
9
9
9
9
9
9
9
9
9
9
9
9
9
9
9
9
9
9
9
9
9
9
9
9
9
9
9
9
9
9
9
9
9
9
9
9
9
9
9
9
9
9
9
9
9
9
9
9
9
9
9
9
9
9
9
9
9
9
9
9
9
9
9
9
9
9
9
9
9
9
9
9
9
9
9
9
9
9
9
9
9
9
9
9
9
9
9
9
9
9
9
9
9
9
9
9
9
9
9
9
9
9
9
9
9
9
9
9
9
9
9
9
9
9
9
9
9
9
9
9
9
9
9
9
9
9
9
9
9
9
9
9
9
9
9
9
9
9
9
9
9
9
9
9
9
9
9
9
9
9
9
9
9
9
9
9
9
9
9
9
9
9
9
9
9
9
9
9
9
9
9
9
9
9
9
9
9
9
9
9
9
9
9
9
9
9
9
9
9
9
9
9
9
9
9
9
9
9
9
9
9
9
9
9
9
9
9
9
9
9
9
9
9
9
9
9
9
9
9
9
9
9
9
9
9
9
9
9
9
9
9
9
9
9
9
9
9
9
9
9
9
9
9
9
9
9
9
9
9
9
9
9
9
9
9
9
9
9
9
9
9
9
9
9
9
9
9
9
9
9
9
9
9
9
9
9
9
9
9
9
9
9
9
9
9
9
9
9
9
9
9
9
9
9
9
9
9
9
9
9
9
9
9
9
9
9
9
9
9
9
9
9
9
9
9
9
9
9
9
9
9
9
9
9
9
9
9
9
9
9
9
9
9
9
9
9
9
9
9
9
9
9
9
9
9
9
9
9
9
9
9
9
9
9
9
9
9
9
9
9
9
9
9
9
9
9
9
9
9
9
9
9
9
9
9
9
9
9
9
9
9
9
9
9
9
9
9
9
9
9
9
9
9
9
9
9
9
9
9
9
9
9
9
9
9
9
9
9
9
9
9
9
9
9
9
9
9
9
9
9
9
9
9
9
9
9
9
9
9
9
9
9
9
9
9
9
9
9
9
9
9
9
9
9
9
9
9
9
9
9
9
9
9
9
9
9
9
9
9
9
9
9
9
9
9
9
9
9
9
9
9
9
9
9
9
9
9
9
9
9
9
9
9
9
9
9
9
9
9
9
9
9
9
9
9
9
9
9
9
9
9
9
9
9
9
9
9
9
9
9
9
9
9
9
9
9
9
9
9
9
9
9
9
9
9
9
9
9
9
9
9
9
9
9
9
9
9
9
9
9
9
9
9
9
9
9
9
9
9
9
9
9
9
9
9
9
9
9
9
9
9
9
9
9
9
9
9
9
9
9
9
9
9
9
9
9
9
9
9
9
9
9
9
9
9
9
9
9
9
9
9
9
9
9
9
9
9
9
9
9
9
9
9
9
9
9
9
9
9
9
9
9
9
9
9
9
9
9
9
9
9
9
9
9
9
9
9
9
9
9
9
9
9
9
9
9
9
9
9
9
9
9
9
9
9
9
9
9
9
9
9
9
9
9
9
9
9
9
9
9
9
9
9
9
9
9
9
9
9
9
9
9
9
9
9
9
9
9
9
9
9
9
9
9
9
9
9
9
9
9
9
9
9
9
9
9
9
9
9
9
9
9
9
9
9
9
9
9
9
9
9
9
9
9
9
9
9
9
9
9
9
9
9
9
9
9
9
9
9
9
9
9
9
9
9
9
9
9
9
9
9
9
9
9
9
9
9
9
9
9
9
9
9
9
9
9
9
9
9
9
9
9
9
9
9
9
9
9
9
9
9
9
9
9
9
9
9
9
9
9
9
9
9
9
9
9
9
9
9
9
9
9
9
9
9
9
9
9
9
9
9
9
9
9
9
9
9
9
9
9
9
9
9
9
9
9
9
9
9
9
9
9
9
9
9
9
9
9
9
9
9
9
9
9
9
9
9
9
9
9
9
9
9
9
9
9
9
9
9
9
9
9
9
9
9
9
9
9
9
9
9
9
9
9
9
9
9
9
9
9
9
9
9
9
9
9
9
9
9
9
9
9
9
9
9
9
9
9
9
9
9
9
9
9
9
9
9
9
9
9
9
9
9
9
9
9
9
9
9
9
9
9
9
9
9
9
9
9
9
9
9
9
9
9
9
9
9
9
9
9
9
9
9
9
9
9
9
9
9
9
9
9
9
9
9
9
9
9
9
9
9
9
9
9
9
9
9
9
9
9
9
9
9
9
9
9
9
9
9
9
9
9
9
9
9
9
9
9
9
9
9
9
9
9
9
9
9
9
9
9
9
9
9
9
9
9
9
9
9
9
9
9
9
9
9
9
9
9
9
9
9
9
9
9
9
9
9
9
9
9
9
9
9
9
9
9
9
9
9
9
9
9
9
9
9
9
9
9
9
9
9
9
9
9
9
9
9
9
9
9
9
9
9
9
9
9
9
9
9
9
9
9
9
9
9
9
9
9
9
9
9
9
9
9
9
9
9
9
9
9
9
9
9
9
9
9
9
9
9
9
9
9
9
9
9
9
9
9
9
9
9
9
9
9
9
9
9
9
9
9
9
9
9
9
9
9
9
9
9
9
9
9
9
9
9
9
9
9
9
9
9
9
9
9
9
9
9
9
9
9
9
9
9
9
9
9
9
9
9
9
9
9
9
9
9
9
9
9
9
9
9
9
9
9
9
9
9
9
9
9
9
9
9
9
9
9
9
9
9
9
9
9
9
9
9
9
9
9
9
9
9
9
9
9
9
9
9
9
9
9
9
9
9
9
9
9
9
9
9
9
9
9
9
9
9
9
9
9
9
9
9
9
9
9
9
9
9
9
9
9
9
9
9
9
9
9
9
9
9
9
9
9
9
9
9
9
9
9
9
9
9
9
9
9
9
9
9
9
9
9
9
9
9
9
9
9
9
9
9
9
9
9
9
9
9
9
9
9
9
9
9
9
9
9
9
9
9
9
9
9
9
9
9
9
9
9
9
9
9
9
9
9
9
9
9
9
9
9
9
9
9
9
9
9
9
9
9
9
9
9
9
9
9
9
9
9
9
9
9
9
9
9
9
9
9
9
9
9
9
9
9
9
9
9
9
9
9
9
9
9
9
9
9
9
9
9
9
9
9
9
9
9
9
9
9
9
9
9
9
9
9
9
9
9
9
9
9
9
9
9
9
9
9
9
9
9
9
9
9
9
9
9
9
9
9
9
9
9
9
9
9
9
9
9
9
9
9
9
9
9
9
9
9
9
9
9
9
9
9
9
9
9
9
9
9
9
9
9
9
9
9
9
9
9
9
9
9
9
9
9
9
9
9
9
9
9
9
9
9
9
9
9
9
9
9
9
9
9
9
9
9
9
9
9
9
9
9
9
9
9
9
9
9
9
9
9
9
9
9
9
9
9
9
9
9
9
9
9
9
9
9
9
9
9
9
9
9
9
9
9
9
9
9
9
9
9
9
9
9
9
9
9
9
9
9
9
9
9
9
9
9
9
9
9
9
9
9
9
9
9
9
9
9
9
9
9
9
9
9
9
9
9
9
9
9
9
9
9
9
9
9
9
9
9
9
9
9
9
9
9
9
9
9
9
9
9
9
9
9
9
9
9
9
9
9
9
9
9
9
9
9
9
9
9
9
9
9
9
9
9
9
9
9
9
9
9
9
9
9
9
9
9
9
9
9
9
9
9
9
9
9
9
9
9
9
9
9
9
9
9
9
9
9
9
9
9
9
9
9
9
9
9
9
9
9
9
9
9
9
9
9
9
9
9
9
9
9
9
9
9
9
9
9
9
9
9
9
9
9
9
9
9
9
9
9
9
9
9
9
9
9
9
9
9
9
9
9
9
9
9
9
9
9
9
9
9
9
9
9
9
9
9
9
9
9
9
9
9
9
9
9
9
9
9
9
9
9
9
9
9
9
9
9
9
9
9
9
9
9
9
9
9
9
9
9
9
9
9
9
9
9
9
9
9
9
9
9
9
9
9
9
9
9
9
9
9
9
9
9
9
9
9
9
9
9
9
9
9
9
9
9
9
9
9
9
9
9
9
9
9
9
9
9
9
9
9
9
9
9
9
9
9
9
9
9
9
9
9
9
9
9
9
9
9
9
9
9
9
9
9
9
9
9
9
9
9
9
9
9
9
9
9
9
9
9
9
9
9
9
9
9
9
9
9
9
9
9
9
9
9
9
9
9
9
9
9
9
9
9
9
9
9
9
9
9
9
9
9
9
9
9
9
9
9
9
9
9
9
9
9
9
9
9
9
9
9
9
9
9
9
9
9
9
9
9
9
9
9
9
9
9
9
9
9
9
9
9
9
9
9
9
9
9
9
9
9
9
9
9
9
9
9
9
9
9
9
9
9
9
9
9
9
9
9
9
9
9
9
9
9
9
9
9
9
9
9
9
9
9
9
9
9
9
9
9
9
9
9
9
9
9
9
9
9
9
9
9
9
9
9
9
9
9
9
9
9
9
9
9
9
9
9
9
9
9
9
9
9
9
9
9
9
9
9
9
9
9
9
9
9
9
9
9
9
9
9
9
9
9
9
9
9
9
9
9
9
9
9
9
9
9
9
9
9
9
9
9
9
9
9
9
9
9
9
9
9
9
9
9
9
9
9
9
9
9
9
9
9
9
9
9
9
9
9
9
9
9
9
9
9
9
9
9
9
9
9
9
9
9
9
9
9
9
9
9
9
9
9
9
9
9
9
9
9
9
9
9
9
9
9
9
9
9
9
9
9
9
9
9
9
9
9
9
9
9
9
9
9
9
9
9
9
9
9
9
9
9
9
9
9
9
9
9
9
9
9
9
9
9
9
9
9
9
9
9
9
9
9
9
9
9
9
9
9
9
9
9
9
9
9
9
9
9
9
9
9
9
9
9
9
9
9
9
9
9
9
9
9
9
9
9
9
9
9
9
9
9
9
9
9
9
9
9
9
9
9
9
9
9
9
9
9
9
9
9
9
9
9
9
9
9
9
9
9
9
9
9
9
9
9
9
9
9
9
9
9
9
9
9
9
9
9
9
9
9
9
9
9
9
9
9
9
9
9
9
9
9
9
9
9
9
9
9
9
9
9
9
9
9
9
9
9
9
9
9
9
9
9
9
9
9
9
9
9
9
9
9
9
9
9
9
9
9
9
9
9
9
9
9
9
9
9
9
9
9
9
9
9
9
9
9
9
9
9
9
9
9
9
9
9
9
9
9
9
9
9
9
9
9
9
9
9
9
9
9
9
9
9
9
9
9
9
9
9
9
9
9
9
9
9
9
9
9
9
9
9
9
9
9
9
9
9
9
9
9
9
9
9
9
9
9
9
9
9
9
9
9
9
9
9
9
9
9
9
9
9
9
9
9
9
9
9
9
9
9
9
9
9
9
9
9
9
9
9
9
9
9
9
9
9
9
9
9
9
9
9
9
9
9
9
9
9
9
9
9
9
9
9
9
9
9
9
9
9
9
9
9
9
9
9
9
9
9
9
9
9
9
9
9
9
9
9
9
9
9
9
9
9
9
9
9
9
9
9
9
9
9
9
9
9
9
9
9
9
9
9
9
9
9
9
9
9
9
9
9
9
9
9
9
9
9
9
9
9
9
9
9
9
9
9
9
9
9
9
9
9
9
9
9
9
9
9
9
9
9
9
9
9
9
9
9
9
9
9
9
9
9
9
9
9
9
9
9
9
9
9
9
9
9
9
9
9
9
9
9
9
9
9
9
9
9
9
9
9
9
9
9
9
9
9
9
9
9
9
9
9
9
9
9
9
9
9
9
9
9
9
9
9
9
9
9
9
9
9
9
9
9
9
9
9
9
9
9
9
9
9
9
9
9
9
9
9
9
9
9
9
9
9
9
9
9
9
9
9
9
9
9
9
9
9
9
9
9
9
9
9
9
9
9
9
9
9
9
9
9
9
9
9
9
9
9
9
9
9
9
9
9
9
9
9
9
9
9
9
9
9
9
9
9
9
9
9
9
9
9
9
9
9
9
9
9
9
9
9
9
9
9
9
9
9
9
9
9
9
9
9
9
9
9
9
9
9
9
9
9
9
9
9
9
9
9
9
9
9
9
9
9
9
9
9
9
9
9
9
9
9
9
9
9
9
9
9
9
9
9
9
9
9
9
9
9
9
9
9
9
9
9
9
9
9
9
9
9
9
9
9
9
9
9
9
9
9
9
9
9
9
9
9
9
9
9
9
9
9
9
9
9
9
9
9
9
9
9
9
9
9
9
9
9
9
9
9
9
9
9
9
9
9
9
9
9
9
9
9
9
9
9
9
9
9
9
9
9
9
9
9
9
9
9
9
9
9
9
9
9
9
9
9
9
9
9
9
9
9
9
9
9
9
9
9
9
9
9
9
9
9
9
9
9
9
9
9
9
9
9
9
9
9
9
9
9
9
9
9
9
9
9
9
9
9
9
9
9
9
9
9
9
9
9
9
9
9
9
9
9
9
9
9
9
9
9
9
9
9
9
9
9
9
9
9
9
9
9
9
9
9
9
9
9
9
9
9
9
9
9
9
9
9
9
9
9
9
9
9
9
9
9
9
9
9
9
9
9
9
9
9
9
9
9
9
9
9
9
9
9
9
9
9
9
9
9
9
9
9
9
9
9
9
9
9
9
9
9
9
9
9
9
9
9
9
9
9
9
9
9
9
9
9
9
9
9
9
9
9
9
9
9
9
9
9
9
9
9
9
9
9
9
9
9
9
9
9
9
9
9
9
9
9
9
9
9
9
9
9
9
9
9
9
9
9
9
9
9
9
9
9
9
9
9
9
9
9
9
9
9
9
9
9
9
9
9
9
9
9
9
9
9
9
9
9
9
9
9
9
9
9
9
9
9
9
9
9
9
9
9
9
9
9
9
9
9
9
9
9
9
9
9
9
9
9
9
9
9
9
9
9
9
9
9
9
9
9
9
9
9
9
9
9
9
9
9
9
9
9
9
9
9
9
9
9
9
9
9
9
9
9
9
9
9
9
9
9
9
9
9
9
9
9
9
9
9
9
9
9
9
9
9
9
9
9
9
9
9
9
9
9
9
9
9
9
9
9
9
9
9
9
9
9
9
9
9
9
9
9
9
9
9
9
9
9
9
9
9
9
9
9
9
9
9
9
9
9
9
9
9
9
9
9
9
9
9
9
9
9
9
9
9
9
9
9
9
9
9
9
9
9
9
9
9
9
9
9
9
9
9
9
9
9
9
9
9
9
9
9
9
9
9
9
9
9
9
9
9
9
9
9
9
9
9
9
9
9
9
9
9
9
9
9
9
9
9
9
9
9
9
9
9
9
9
9
9
9
9
9
9
9
9
9
9
9
9
9
9
9
9
9
9
9
9
9
9
9
9
9
9
9
9
9
9
9
9
9
9
9
9
9
9
9
9
9
9
9
9
9
9
9
9
9
9
9
9
9
9
9
9
9
9
9
9
9
9
9
9
9
9
9
9
9
9
9
9
9
9
9
9
9
9
9
9
9
9
9
9
9
9
9
9
9
9
9
9
9
9
9
9
9
9
9
9
9
9
9
9
9
9
9
9
9
9
9
9
9
9
9
9
9
9
9
9
9
9
9
9
9
9
9
9
9
9
9
9
9
9
9
9
9
9
9
9
9
9
9
9
9
9
9
9
9
9
9
9
9
9
9
9
9
9
9
9
9
9
9
9
9
9
9
9
9
9
9
9
9
9
9
9
9
9
9
9
9
9
9
9
9
9
9
9
9
9
9
9
9
9
9
9
9
9
9
9
9
9
9
9
9
9
9
9
9
9
9
9
9
9
9
9
9
9
9
9
9
9
9
9
9
9
9
9
9
9
9
9
9
9
9
9
9
9
9
9
9
9
9
9
9
9
9
9
9
9
9
9
9
9
9
9
9
9
9
9
9
9
9
9
9
9
9
9
9
9
9
9
9
9
9
9
9
9
9
9
9
9
9
9
9
9
9
9
9
9
9
9
9
9
9
9
9
9
9
9
9
9
9
9
9
9
9
9
9
9
9
9
9
9
9
9
9
9
9
9
9
9
9
9
9
9
9
9
9
9
9
9
9
9
9
9
9
9
9
9
9
9
9
9
9
9
9
9
9
9
9
9
9
9
9
9
9
9
9
9
9
9
9
9
9
9
9
9
9
9
9
9
9
9
9
9
9
9
9
9
9
9
9
9
9
9
9
9
9
9
9
9
9
9
9
9
9
9
9
9
9
9
9
9
9
9
9
9
9
9
9
9
9
9
9
9
9
9
9
9
9
9
9
9
9
9
9
9
9
9
9
9
9
9
9
9
9
9
9
9
9
9
9
9
9
9
9
9
9
9
9
9
9
9
9
9
9
9
9
9
9
9
9
9
9
9
9
9
9
9
9
9
9
9
9
9
9
9
9
9
9
9
9
9
9
9
9
9
9
9
9
9
9
9
9
9
9
9
9
9
9
9
9
9
9
9
9
9
9
9
9
9
9
9
9
9
9
9
9
9
9
9
9
9
9
9
9
9
9
9
9
9
9
9
9
9
9
9
9
9
9
9
9
9
9
9
9
9
9
9
9
9
9
9
9
9
9
9
9
9
9
9
9
9
9
9
9
9
9
9
9
9
9
9
9
9
9
9
9
9
9
9
9
9
9
9
9
9
9
9
9
9
9
9
9
9
9
9
9
9
9
9
9
9
9
9
9
9
9
9
9
9
9
9
9
9
9
9
9
9
9
9
9
9
9
9
9
9
9
9
9
9
9
9
9
9
9
9
9
9
9
9
9
9
9
9
9
9
9
9
9
9
9
9
9
9
9
9
9
9
9
9
9
9
9
9
9
9
9
9
9
9
9
9
9
9
9
9
9
9
9
9
9
9
9
9
9
9
9
9
9
9
9
9
9
9
9
9
9
9
9
9
9
9
9
9
9
9
9
9
9
9
9
9
9
9
9
9
9
9
9
9
9
9
9
9
9
9
9
9
9
9
9
9
9
9
9
9
9
9
9
9
9
9
9
9
9
9
9
9
9
9
9
9
9
9
9
9
9
9
9
9
9
9
9
9
9
9
9
9
9
9
9
9
9
9
9
9
9
9
9
9
9
9
9
9
9
9
9
9
9
9
9
9
9
9
9
9
9
9
9
9
9
9
9
9
9
9
9
9
9
9
9
9
9
9
9
9
9
9
9
9
9
9
9
9
9
9
9
9
9
9
9
9
9
9
9
9
9
9
9
9
9
9
9
9
9
9
9
9
9
9
9
9
9
9
9
9
9
9
9
9
9
9
9
9
9
9
9
9
9
9
9
9
9
9
9
9
9
9
9
9
9
9
9
9
9
9
9
9
9
9
9
9
9
9
9
9
9
9
9
9
9
9
9
9
9
9
9
9
9
9
9
9
9
9
9
9
9
9
9
9
9
9
9
9
9
9
9
9
9
9
9
9
9
9
9
9
9
9
9
9
9
9
9
9
9
9
9
9
9
9
9
9
9
9
9
9
9
9
9
9
9
9
9
9
9
9
9
9
9
9
9
9
9
9
9
9
9
9
9
9
9
9
9
9
9
9
9
9
9
9
9
9
9
9
9
9
9
9
9
9
9
9
9
9
9
9
9
9
9
9
9
9
9
9
9
9
9
9
9
9
9
9
9
9
9
9
9
9
9
9
9
9
9
9
9
9
9
9
9
9
9
9
9
9
9
9
9
9
9
9
9
9
9
9
9
9
9
9
9
9
9
9
9
9
9
9
9
9
9
9
9
9
9
9
9
9
9
9
9
9
9
9
9
9
9
9
9
9
9
9
9
9
9
9
9
9
9
9
9
9
9
9
9
9
9
9
9
9
9
9
9
9
9
9
9
9
9
9
9
9
9
9
9
9
9
9
9
9
9
9
9
9
9
9
9
9
9
9
9
</DataArray>
</Cells>
<PointData Vectors="'U'">
<DataArray type="Float64" Name="U" NumberOfComponents="2" ComponentName0="U1" ComponentName1="U2" format="ascii">
 0.2878071603157E-37  0.7276675674795E-37
-0.2166146530229E-37 -0.5527829263720E-37
 0.4816650842373E-37 -0.1214256741819E-36
-0.1287421367434E-01 -0.3133933176629E-01
-0.5481703814869E-02 -0.1832959579684E-01
 0.5481703932045E-02 -0.1832959585439E-01
 0.1287421368753E-01 -0.3133933177748E-01
-0.2720680809648E+00 -0.3140004243907E+00
 0.2720680805704E+00 -0.3140004255014E+00
-0.3159100202259E+00 -0.4640541523365E+00
 0.3159100204041E+00 -0.4640541524432E+00
-0.5557525606596E-37 -0.5526240736052E-37
-0.5398500753992E-37 -0.5337788556339E-37
-0.5351940795609E-37 -0.5034139356915E-37
-0.5303758667621E-37 -0.4770149124323E-37
-0.5244070010329E-37 -0.4559881583194E-37
-0.5175567936826E-37 -0.4396091686194E-37
-0.5101301402876E-37 -0.4269749620864E-37
-0.5023335310797E-37 -0.4173320804163E-37
-0.4942941417314E-37 -0.4100982132884E-37
-0.4860888990936E-37 -0.4048296685190E-37
-0.4777646931903E-37 -0.4011868223050E-37
-0.4693506493978E-37 -0.3989068828047E-37
-0.4608653105262E-37 -0.3977839563811E-37
-0.4523208139434E-37 -0.3976547038388E-37
-0.4437253367525E-37 -0.3983880120640E-37
-0.4350845440712E-37 -0.3998775007107E-37
-0.4264024569351E-37 -0.4020359875468E-37
-0.4176819810151E-37 -0.4047913822241E-37
-0.4089252297884E-37 -0.4080835782704E-37
-0.4001343341668E-37 -0.4118624604733E-37
-0.3913135075485E-37 -0.4161756527783E-37
-0.3824597686908E-37 -0.4208916769800E-37
-0.3735728315991E-37 -0.4259797830068E-37
-0.3646528242456E-37 -0.4314132541758E-37
-0.3556996190444E-37 -0.4371689686195E-37
-0.3467128356051E-37 -0.4432267656796E-37
-0.3376918521584E-37 -0.4495690719896E-37
-0.3286358119114E-37 -0.4561804326016E-37
-0.3195436293157E-37 -0.4630472271863E-37
-0.3104139948020E-37 -0.4701574234556E-37
-0.3012453778139E-37 -0.4775003140689E-37
-0.2920360299711E-37 -0.4850663979874E-37
-0.2827839872413E-37 -0.4928471866917E-37
-0.2734870717344E-37 -0.5008351061471E-37
-0.2641428933268E-37 -0.5090234059528E-37
-0.2547488508596E-37 -0.5174060612466E-37
-0.2453021326625E-37 -0.5259777414963E-37
-0.2357997170623E-37 -0.5347337434586E-37
-0.2262383717839E-37 -0.5436699731503E-37
-0.2069249035186E-37 -0.5620696820619E-37
-0.1971652496070E-37 -0.5715279096096E-37
-0.1873315970561E-37 -0.5811558873000E-37
-0.1774196254522E-37 -0.5909525300785E-37
-0.1674247809224E-37 -0.6009174293169E-37
-0.1573422663539E-37 -0.6110509146943E-37
-0.1471670301792E-37 -0.6213541058271E-37
-0.1368937506814E-37 -0.6318290139154E-37
-0.1265168185165E-37 -0.6424786278171E-37
-0.1160303140965E-37 -0.6533070392280E-37
-0.1054279797342E-37 -0.6643195960758E-37
-0.9470318817280E-38 -0.6755230532636E-37
-0.8384890042484E-38 -0.6869258059896E-37
-0.7285761925475E-38 -0.6985381175517E-37
-0.6172132989952E-38 -0.7103724276800E-37
-0.5043142816961E-38 -0.7224437260695E-37
-0.3897863766395E-38 -0.7347699756320E-37
-0.2735290223833E-38 -0.7473726917216E-37
-0.1554326611503E-38 -0.7602776148652E-37
-0.3537115603786E-39 -0.7735152158792E-37
 0.8675731102321E-39 -0.7871107460170E-37
 0.2111370546981E-38 -0.8011255848313E-37
 0.3379213482795E-38 -0.8156130016678E-37
 0.4672973232510E-38 -0.8306387716496E-37
 0.5994786198402E-38 -0.8462837500682E-37
 0.7347113787473E-38 -0.8626482811528E-37
 0.8732821094348E-38 -0.8798583541180E-37
 0.1015527962695E-37 -0.8980743696355E-37
 0.1161850197012E-37 -0.9175039371032E-37
 0.1312731681712E-37 -0.9384210982910E-37
 0.1468758913223E-37 -0.9611961945227E-37
 0.1630646784727E-37 -0.9863441634974E-37
 0.1799255569197E-37 -0.1014606540219E-36
 0.1975557453402E-37 -0.1047099458368E-36
 0.2160389617432E-37 -0.1085602904788E-36
 0.2353345949981E-37 -0.1133190525821E-36
 0.2547946709400E-37 -0.1195827220568E-36
 0.2708114741668E-37 -0.1287428614011E-36
 0.2626736462653E-37 -0.1451823546702E-36
-0.1198686684855E-01 -0.2834777120211E-01
-0.1136746951526E-01 -0.2653375205584E-01
-0.1085022485611E-01 -0.2524463941796E-01
-0.1040275508489E-01 -0.2424235741706E-01
-0.1000246313984E-01 -0.2342272051919E-01
-0.9634552787617E-02 -0.2273082926999E-01
-0.9289260102772E-02 -0.2213445538195E-01
-0.8960159596373E-02 -0.2161302399032E-01
-0.8642968025939E-02 -0.2115249798198E-01
-0.8334768526599E-02 -0.2074277477282E-01
-0.8033521226107E-02 -0.2037626581725E-01
-0.7737758868436E-02 -0.2004707308492E-01
-0.7446398047024E-02 -0.1975048591320E-01
-0.7158621386150E-02 -0.1948265828955E-01
-0.6873803975923E-02 -0.1924039292076E-01
-0.6591468577946E-02 -0.1902099078579E-01
-0.6311260513375E-02 -0.1882214030977E-01
-0.6032940149589E-02 -0.1864182807368E-01
-0.5756393506014E-02 -0.1847824340865E-01
-0.5209656783306E-02 -0.1819625887503E-01
-0.4936961142529E-02 -0.1807531262483E-01
-0.4664050758629E-02 -0.1796571412683E-01
-0.4391008187132E-02 -0.1786660355272E-01
-0.4117854257453E-02 -0.1777715491615E-01
-0.3844576331722E-02 -0.1769661309739E-01
-0.3571152260709E-02 -0.1762429461964E-01
-0.3297558046342E-02 -0.1755958387355E-01
-0.3023773363133E-02 -0.1750192844990E-01
-0.2749784165723E-02 -0.1745083448503E-01
-0.2475582476788E-02 -0.1740586225758E-01
-0.2201167895895E-02 -0.1736662286656E-01
-0.1926546206796E-02 -0.1733277503325E-01
-0.1651729354381E-02 -0.1730402269479E-01
-0.1376734967635E-02 -0.1728011295971E-01
-0.1101585068864E-02 -0.1726083438217E-01
-0.8263060677985E-03 -0.1724601568848E-01
-0.5509273492499E-03 -0.1723552468168E-01
-0.2754807991257E-03 -0.1722926748080E-01
 0.5828570959210E-10 -0.1722718797109E-01
 0.2754809156932E-03 -0.1722926748257E-01
 0.5509274658057E-03 -0.1723552468522E-01
 0.8263061843353E-03 -0.1724601569383E-01
 0.1101585185375E-02 -0.1726083438937E-01
 0.1376735084116E-02 -0.1728011296883E-01
 0.1651729470827E-02 -0.1730402270589E-01
 0.1926546323207E-02 -0.1733277504643E-01
 0.2201168012269E-02 -0.1736662288192E-01
 0.2475582593129E-02 -0.1740586227524E-01
 0.2749784282037E-02 -0.1745083450514E-01
 0.3023773479428E-02 -0.1750192847261E-01
 0.3297558162632E-02 -0.1755958389906E-01
 0.3571152377010E-02 -0.1762429464813E-01
 0.3844576448055E-02 -0.1769661312909E-01
 0.4117854373843E-02 -0.1777715495132E-01
 0.4391008303610E-02 -0.1786660359165E-01
 0.4664050875228E-02 -0.1796571416982E-01
 0.4936961259286E-02 -0.1807531267225E-01
 0.5209656900257E-02 -0.1819625892727E-01
 0.5756393618252E-02 -0.1847824346900E-01
 0.6032940256902E-02 -0.1864182813676E-01
 0.6311260615794E-02 -0.1882214037549E-01
 0.6591468675510E-02 -0.1902099085405E-01
 0.6873804068670E-02 -0.1924039299144E-01
 0.7158621474121E-02 -0.1948265836248E-01
 0.7446398130256E-02 -0.1975048598820E-01
 0.7737758946968E-02 -0.2004707316177E-01
 0.8033521299977E-02 -0.2037626589569E-01
 0.8334768595844E-02 -0.2074277485252E-01
 0.8642968090602E-02 -0.2115249806256E-01
 0.8960159656500E-02 -0.2161302407133E-01
 0.9289260158414E-02 -0.2213445546286E-01
 0.9634552838822E-02 -0.2273082935016E-01
 0.1000246318662E-01 -0.2342272059784E-01
 0.1040275512716E-01 -0.2424235749320E-01
 0.1085022489352E-01 -0.2524463949014E-01
 0.1136746954691E-01 -0.2653375212155E-01
 0.1198686687329E-01 -0.2834777125485E-01
-0.1516926636527E+00 -0.1161646847419E+00
-0.2292742191181E+00 -0.1801908390679E+00
-0.2896994138014E+00 -0.2246657021087E+00
-0.3377616328764E+00 -0.2594382337383E+00
-0.3767324555983E+00 -0.2873075762265E+00
-0.4085214582558E+00 -0.3086938884515E+00
-0.4340270117484E+00 -0.3222984920501E+00
-0.4534034173294E+00 -0.3290503994375E+00
-0.4667395763154E+00 -0.3306396672483E+00
-0.4741384022063E+00 -0.3283046660934E+00
-0.4756455689299E+00 -0.3229573442256E+00
-0.4712758157758E+00 -0.3154082718072E+00
-0.4610732267679E+00 -0.3064641002726E+00
-0.4451235113756E+00 -0.2969923356575E+00
-0.4236337281547E+00 -0.2879983050717E+00
-0.3970502961077E+00 -0.2805419514533E+00
-0.3658842049644E+00 -0.2754022974891E+00
-0.3317416305273E+00 -0.2772213303200E+00
-0.2988953782588E+00 -0.2902217576778E+00
-0.2598349674765E+00 -0.3341639348773E+00
-0.2496398190497E+00 -0.3565410133965E+00
-0.2411313672230E+00 -0.3811512709174E+00
-0.2347122339291E+00 -0.4084119129710E+00
-0.2307604217631E+00 -0.4389429465620E+00
-0.2290917038810E+00 -0.4737624599801E+00
-0.2292821448980E+00 -0.5147051898173E+00
-0.2296467481403E+00 -0.5639347011810E+00
-0.2285687643292E+00 -0.6199975824535E+00
-0.2250367346597E+00 -0.6789706736403E+00
-0.2176515908550E+00 -0.7385695018022E+00
-0.2058655581821E+00 -0.7968534371228E+00
-0.1898978928822E+00 -0.8519387785710E+00
-0.1701844762440E+00 -0.9022455971662E+00
-0.1471926723827E+00 -0.9465307010425E+00
-0.1213894365164E+00 -0.9838466699170E+00
-0.9324910790527E-01 -0.1013492211606E+01
-0.6326786384397E-01 -0.1034971221975E+01
-0.3198232921660E-01 -0.1047962575902E+01
-0.6135703056742E-09 -0.1052302401967E+01
 0.3198232800706E-01 -0.1047962576342E+01
 0.6326786268350E-01 -0.1034971222852E+01
 0.9324910682118E-01 -0.1013492212907E+01
 0.1213894355346E+00 -0.9838466716207E+00
 0.1471926715241E+00 -0.9465307031211E+00
 0.1701844755325E+00 -0.9022455995754E+00
 0.1898978923378E+00 -0.8519387812593E+00
 0.2058655578289E+00 -0.7968534400117E+00
 0.2176515907098E+00 -0.7385695048070E+00
 0.2250367347207E+00 -0.6789706766615E+00
 0.2285687645437E+00 -0.6199975853920E+00
 0.2296467484485E+00 -0.5639347038875E+00
 0.2292821452484E+00 -0.5147051921313E+00
 0.2290917041835E+00 -0.4737624619343E+00
 0.2307604219576E+00 -0.4389429482876E+00
 0.2347122340135E+00 -0.4084119145312E+00
 0.2411313671949E+00 -0.3811512723486E+00
 0.2496398189169E+00 -0.3565410147197E+00
 0.2598349672307E+00 -0.3341639361008E+00
 0.2988953776627E+00 -0.2902217584633E+00
 0.3317416298490E+00 -0.2772213307374E+00
 0.3658842043595E+00 -0.2754022976331E+00
 0.3970502956434E+00 -0.2805419515127E+00
 0.4236337278330E+00 -0.2879983050963E+00
 0.4451235111927E+00 -0.2969923356702E+00
 0.4610732267145E+00 -0.3064641002959E+00
 0.4712758158374E+00 -0.3154082718558E+00
 0.4756455690908E+00 -0.3229573443093E+00
 0.4741384024505E+00 -0.3283046662191E+00
 0.4667395766271E+00 -0.3306396674208E+00
 0.4534034176923E+00 -0.3290503996613E+00
 0.4340270121457E+00 -0.3222984923308E+00
 0.4085214586658E+00 -0.3086938887882E+00
 0.3767324560017E+00 -0.2873075765865E+00
 0.3377616332623E+00 -0.2594382340809E+00
 0.2896994141597E+00 -0.2246657024148E+00
 0.2292742194295E+00 -0.1801908393305E+00
 0.1516926638759E+00 -0.1161646849527E+00
-0.3989407998697E-03 -0.7008750014541E-03
-0.6480601602524E-03 -0.1203752790894E-02
-0.8408336030994E-03 -0.1673168153720E-02
-0.9932856213082E-03 -0.2123193597533E-02
-0.1116302698917E-02 -0.2563128781432E-02
-0.1215543983082E-02 -0.2997809228153E-02
-0.1295184574986E-02 -0.3430172190375E-02
-0.1358207466516E-02 -0.3862199764559E-02
-0.1406934361918E-02 -0.4295312648336E-02
-0.1443213862631E-02 -0.4730603853429E-02
-0.1468566277711E-02 -0.5168970294471E-02
-0.1484271964801E-02 -0.5611198778441E-02
-0.1491436491155E-02 -0.6058026854387E-02
-0.1491040012807E-02 -0.6510187187414E-02
-0.1483978102475E-02 -0.6968443446784E-02
-0.1471097580752E-02 -0.7433622592898E-02
-0.1453229607199E-02 -0.7906649411334E-02
-0.1431223155885E-02 -0.8388553814995E-02
-0.1405975971447E-02 -0.8880544432542E-02
-0.1378470320954E-02 -0.9384006912797E-02
-0.1349807623539E-02 -0.9900579309511E-02
-0.1321244193293E-02 -0.1043223663827E-01
-0.1294240763530E-02 -0.1098151226630E-01
-0.1270763565922E-02 -0.1155194292678E-01
-0.1253808503772E-02 -0.1214748273723E-01
-0.1247298062446E-02 -0.1277142817949E-01
-0.1255759887695E-02 -0.1342635662878E-01
-0.1284204955688E-02 -0.1411455665426E-01
-0.1338216559825E-02 -0.1483852368009E-01
-0.1424199073881E-02 -0.1560135426479E-01
-0.1549740858862E-02 -0.1640702088517E-01
-0.1724127883290E-02 -0.1726053942619E-01
-0.1958864972906E-02 -0.1816762484677E-01
-0.2267803963111E-02 -0.1913478718193E-01
-0.2668285436669E-02 -0.2017190727253E-01
-0.3183651603407E-02 -0.2129534120580E-01
-0.3850689433398E-02 -0.2253219801682E-01
-0.4720119526704E-02 -0.2392904269691E-01
-0.5938254208449E-02 -0.2557498936876E-01
-0.7535926327504E-02 -0.2778775398299E-01
 0.7535926335504E-02 -0.2778775398922E-01
 0.5938254218567E-02 -0.2557498937496E-01
 0.4720119536244E-02 -0.2392904270362E-01
 0.3850689442560E-02 -0.2253219802341E-01
 0.3183651612144E-02 -0.2129534121228E-01
 0.2668285444983E-02 -0.2017190727886E-01
 0.2267803971004E-02 -0.1913478718811E-01
 0.1958864980383E-02 -0.1816762485277E-01
 0.1724127890358E-02 -0.1726053943200E-01
 0.1549740865541E-02 -0.1640702089079E-01
 0.1424199080188E-02 -0.1560135427022E-01
 0.1338216565772E-02 -0.1483852368534E-01
 0.1284204961286E-02 -0.1411455665933E-01
 0.1255759892955E-02 -0.1342635663368E-01
 0.1247298067378E-02 -0.1277142818423E-01
 0.1253808508387E-02 -0.1214748274180E-01
 0.1270763570227E-02 -0.1155194293119E-01
 0.1294240767537E-02 -0.1098151227054E-01
 0.1321244197012E-02 -0.1043223664235E-01
 0.1349807626980E-02 -0.9900579313423E-02
 0.1378470324128E-02 -0.9384006916540E-02
 0.1405975974366E-02 -0.8880544436115E-02
 0.1431223158558E-02 -0.8388553818397E-02
 0.1453229609639E-02 -0.7906649414562E-02
 0.1471097582970E-02 -0.7433622595952E-02
 0.1483978104482E-02 -0.6968443449662E-02
 0.1491040014614E-02 -0.6510187190115E-02
 0.1491436492773E-02 -0.6058026856909E-02
 0.1484271966242E-02 -0.5611198780782E-02
 0.1468566278987E-02 -0.5168970296631E-02
 0.1443213863752E-02 -0.4730603855406E-02
 0.1406934362896E-02 -0.4295312650130E-02
 0.1358207467362E-02 -0.3862199766168E-02
 0.1295184575709E-02 -0.3430172191797E-02
 0.1215543983693E-02 -0.2997809229389E-02
 0.1116302699424E-02 -0.2563128782480E-02
 0.9932856217202E-03 -0.2123193598390E-02
 0.8408336034211E-03 -0.1673168154385E-02
 0.6480601604870E-03 -0.1203752791363E-02
 0.3989408000048E-03 -0.7008750017199E-03
-0.3042936767201E+00 -0.4747145877655E+00
-0.2922519618516E+00 -0.4854258441876E+00
-0.2797052855953E+00 -0.4960965664097E+00
-0.2666345852348E+00 -0.5066532125413E+00
-0.2530356512052E+00 -0.5170220540901E+00
-0.2389132729573E+00 -0.5271304594671E+00
-0.2242787710038E+00 -0.5369076457193E+00
-0.2091487451898E+00 -0.5462847088152E+00
-0.1935444449011E+00 -0.5551948910732E+00
-0.1774911413981E+00 -0.5635741031996E+00
-0.1610177016169E+00 -0.5713613260027E+00
-0.1441562342225E+00 -0.5784989620950E+00
-0.1269417974229E+00 -0.5849332966198E+00
-0.1094121435600E+00 -0.5906151587797E+00
-0.9160748166431E-01 -0.5955005855788E+00
-0.7357018778247E-01 -0.5995514193445E+00
-0.5534449975051E-01 -0.6027358007285E+00
-0.3697617337902E-01 -0.6050285652681E+00
-0.1851211514359E-01 -0.6064115416619E+00
 0.8095968340172E-10 -0.6068737558628E+00
 0.1851211530558E-01 -0.6064115416672E+00
 0.3697617354120E-01 -0.6050285652785E+00
 0.5534449991301E-01 -0.6027358007443E+00
 0.7357018794543E-01 -0.5995514193656E+00
 0.9160748182785E-01 -0.5955005856052E+00
 0.1094121437242E+00 -0.5906151588116E+00
 0.1269417975879E+00 -0.5849332966572E+00
 0.1441562343885E+00 -0.5784989621379E+00
 0.1610177017839E+00 -0.5713613260513E+00
 0.1774911415662E+00 -0.5635741032540E+00
 0.1935444450705E+00 -0.5551948911334E+00
 0.2091487453605E+00 -0.5462847088815E+00
 0.2242787711759E+00 -0.5369076457915E+00
 0.2389132731307E+00 -0.5271304595453E+00
 0.2530356513800E+00 -0.5170220541741E+00
 0.2666345854109E+00 -0.5066532126310E+00
 0.2797052857724E+00 -0.4960965665047E+00
 0.2922519620294E+00 -0.4854258442873E+00
 0.3042936768983E+00 -0.4747145878692E+00
-0.3127357966323E+00 -0.4368342990195E+00
-0.3086192905168E+00 -0.4096470715490E+00
-0.3034842241650E+00 -0.3823685881522E+00
-0.2972673734630E+00 -0.3550676940919E+00
-0.2899265763376E+00 -0.3278426455765E+00
-0.2814289257734E+00 -0.3007911573841E+00
-0.2717174844510E+00 -0.2740116606935E+00
-0.2607298048611E+00 -0.2476072695736E+00
-0.2484091225758E+00 -0.2216905887430E+00
-0.2347086047452E+00 -0.1963902534975E+00
-0.2195850778932E+00 -0.1718567278369E+00
-0.2029838515236E+00 -0.1482643286479E+00
-0.1848260689228E+00 -0.1258089986144E+00
-0.1650113511308E+00 -0.1047037265335E+00
-0.1434318366618E+00 -0.8517352644491E-01
-0.1199825169616E+00 -0.6744609550177E-01
-0.9456230375931E-01 -0.5173554336834E-01
-0.6707310131235E-01 -0.3823051022805E-01
-0.3741694033500E-01 -0.2707587126823E-01
 0.3127357967950E+00 -0.4368342991065E+00
 0.3086192906680E+00 -0.4096470716158E+00
 0.3034842243095E+00 -0.3823685881981E+00
 0.2972673736057E+00 -0.3550676941157E+00
 0.2899265764855E+00 -0.3278426455768E+00
 0.2814289259382E+00 -0.3007911573601E+00
 0.2717174846508E+00 -0.2740116606452E+00
 0.2607298051213E+00 -0.2476072695030E+00
 0.2484091229281E+00 -0.2216905886549E+00
 0.2347086052236E+00 -0.1963902534001E+00
 0.2195850785257E+00 -0.1718567277419E+00
 0.2029838523231E+00 -0.1482643285689E+00
 0.1848260698807E+00 -0.1258089985641E+00
 0.1650113522139E+00 -0.1047037265209E+00
 0.1434318378141E+00 -0.8517352647304E-01
 0.1199825181069E+00 -0.6744609556754E-01
 0.9456230480543E-01 -0.5173554346254E-01
 0.6707310215521E-01 -0.3823051033542E-01
 0.3741694086604E-01 -0.2707587136673E-01
-0.3345017053192E+00 -0.4720368802188E+00
-0.3513471681704E+00 -0.4776245586683E+00
-0.3661307278967E+00 -0.4807936178479E+00
-0.3786441451320E+00 -0.4815574371780E+00
-0.3887091028210E+00 -0.4799572196106E+00
-0.3961772207392E+00 -0.4760809128925E+00
-0.4009373972230E+00 -0.4700669250633E+00
-0.4029251095789E+00 -0.4621047984639E+00
-0.4021313628165E+00 -0.4524322725935E+00
-0.3986107086883E+00 -0.4413290810681E+00
-0.3924877079363E+00 -0.4291072955882E+00
-0.3839609949185E+00 -0.4160980490754E+00
-0.3733037919191E+00 -0.4026345457413E+00
-0.3608593815958E+00 -0.3890314765068E+00
-0.3470297458566E+00 -0.3755613986569E+00
-0.3322554724834E+00 -0.3624295233445E+00
-0.3169860906353E+00 -0.3497503767226E+00
-0.3016424713733E+00 -0.3375323424096E+00
-0.2865829393680E+00 -0.3256808787614E+00
 0.3345017054558E+00 -0.4720368804118E+00
 0.3513471682710E+00 -0.4776245589478E+00
 0.3661307279669E+00 -0.4807936182129E+00
 0.3786441451771E+00 -0.4815574376260E+00
 0.3887091028457E+00 -0.4799572201374E+00
 0.3961772207475E+00 -0.4760809134928E+00
 0.4009373972175E+00 -0.4700669257303E+00
 0.4029251095607E+00 -0.4621047991897E+00
 0.4021313627847E+00 -0.4524322733696E+00
 0.3986107086402E+00 -0.4413290818857E+00
 0.3924877078673E+00 -0.4291072964389E+00
 0.3839609948227E+00 -0.4160980499517E+00
 0.3733037917899E+00 -0.4026345466375E+00
 0.3608593814267E+00 -0.3890314774195E+00
 0.3470297456426E+00 -0.3755613995859E+00
 0.3322554722222E+00 -0.3624295242929E+00
 0.3169860903286E+00 -0.3497503776967E+00
 0.3016424710270E+00 -0.3375323434185E+00
 0.2865829389920E+00 -0.3256808798159E+00
-0.3354036170583E-03 -0.5877131777503E-03
-0.6035081788211E-03 -0.1129259489047E-02
-0.7964610549031E-03 -0.1612435662150E-02
-0.9508644768889E-03 -0.2074951117963E-02
-0.1074538421901E-02 -0.2524893313136E-02
-0.1174175532800E-02 -0.2968043110617E-02
-0.1253911875766E-02 -0.3407706947856E-02
-0.1316848039509E-02 -0.3846132600712E-02
-0.1365342863922E-02 -0.4284921478034E-02
-0.1401276485990E-02 -0.4725296653075E-02
-0.1426186911294E-02 -0.5168250906247E-02
-0.1441365538577E-02 -0.5614642490995E-02
-0.1447923591703E-02 -0.6065261860887E-02
-0.1446843034953E-02 -0.6520879562002E-02
-0.1439018212821E-02 -0.6982284187021E-02
-0.1425292256068E-02 -0.7450315779781E-02
-0.1406490542977E-02 -0.7925900783907E-02
-0.1383454315773E-02 -0.8410059233400E-02
-0.1357071534482E-02 -0.8903977878952E-02
-0.1328312075450E-02 -0.9409007250984E-02
-0.1298260909581E-02 -0.9926734556725E-02
-0.1268149076298E-02 -0.1045906549712E-01
-0.1239406510117E-02 -0.1100836275295E-01
-0.1213994459185E-02 -0.1157748317796E-01
-0.1194961546314E-02 -0.1216944119459E-01
-0.1186326618165E-02 -0.1278697356183E-01
-0.1192715049702E-02 -0.1343243693591E-01
-0.1219218511770E-02 -0.1410801276936E-01
-0.1271486487686E-02 -0.1481600152619E-01
-0.1355991530497E-02 -0.1555907609542E-01
-0.1480417219297E-02 -0.1634047128950E-01
-0.1654203255717E-02 -0.1716406898044E-01
-0.1889005167765E-02 -0.1803454176447E-01
-0.2198781375779E-02 -0.1895758379858E-01
-0.2600801827971E-02 -0.1994082513599E-01
-0.3119387735629E-02 -0.2099577955388E-01
-0.3788725706429E-02 -0.2214115437451E-01
-0.4676878664467E-02 -0.2340029005504E-01
-0.5854075016018E-02 -0.2485162783062E-01
-0.7808800285059E-02 -0.2639615975058E-01
-0.2919852891316E-03 -0.5334112387143E-03
-0.5551225050887E-03 -0.1063905335322E-02
-0.7525025081992E-03 -0.1559439494654E-02
-0.9076728357675E-03 -0.2030563248557E-02
-0.1032237917241E-02 -0.2488899408814E-02
-0.1132255403423E-02 -0.2939405825286E-02
-0.1212145719078E-02 -0.3385630307480E-02
-0.1275039136137E-02 -0.3829910850072E-02
-0.1323347231780E-02 -0.4273954464059E-02
-0.1358976740201E-02 -0.4719065404250E-02
-0.1383484588113E-02 -0.5166301513682E-02
-0.1398173486891E-02 -0.5616570863869E-02
-0.1404161035887E-02 -0.6070700648190E-02
-0.1402431728548E-02 -0.6529486266159E-02
-0.1393879484570E-02 -0.6993729957905E-02
-0.1379344636061E-02 -0.7464274332901E-02
-0.1359647783550E-02 -0.7942036948128E-02
-0.1335623673472E-02 -0.8428016401399E-02
-0.1308152069326E-02 -0.8923363752250E-02
-0.1278192865014E-02 -0.9429375816990E-02
-0.1246818544875E-02 -0.9947561090325E-02
-0.1215247039274E-02 -0.1047969662266E-01
-0.1184930952876E-02 -0.1102786171268E-01
-0.1157892574485E-02 -0.1159436391587E-01
-0.1137222527991E-02 -0.1218156791123E-01
-0.1126973368935E-02 -0.1279172504969E-01
-0.1131825208730E-02 -0.1342690771603E-01
-0.1156941129426E-02 -0.1408908283355E-01
-0.1208057817558E-02 -0.1478026116133E-01
-0.1291755856213E-02 -0.1550264015845E-01
-0.1415866033933E-02 -0.1625871695022E-01
-0.1589982693450E-02 -0.1705139253763E-01
-0.1825881257890E-02 -0.1788423723302E-01
-0.2137685655500E-02 -0.1876147506502E-01
-0.2543257299237E-02 -0.1968791128623E-01
-0.3067088181786E-02 -0.2067022763779E-01
-0.3747868439113E-02 -0.2171533165891E-01
-0.4645838225069E-02 -0.2283737612218E-01
-0.5886011091484E-02 -0.2401384172309E-01
-0.7969854152189E-02 -0.2515411067644E-01
-0.2607927509619E-03 -0.5021087325371E-03
-0.5105391800430E-03 -0.1015663028775E-02
-0.7085992318390E-03 -0.1513219949356E-02
-0.8646158735094E-03 -0.1990763373854E-02
-0.9896705336343E-03 -0.2455464019947E-02
-0.1090031708651E-02 -0.2912203997996E-02
-0.1170044494212E-02 -0.3364182315347E-02
-0.1232903969951E-02 -0.3813735258750E-02
-0.1281044572581E-02 -0.4262580092546E-02
-0.1316396992335E-02 -0.4712054255980E-02
-0.1340533183694E-02 -0.5163247495944E-02
-0.1354766068849E-02 -0.5617095127424E-02
-0.1360219144407E-02 -0.6074444200296E-02
-0.1357879542786E-02 -0.6536101549039E-02
-0.1348641211951E-02 -0.7002871594193E-02
-0.1333342447400E-02 -0.7475588984465E-02
-0.1312800167405E-02 -0.7955151947369E-02
-0.1287844195646E-02 -0.8442526400840E-02
-0.1259348460821E-02 -0.8938814377396E-02
-0.1228266771220E-02 -0.9445241579158E-02
-0.1195666649657E-02 -0.9963211405067E-02
-0.1162774920364E-02 -0.1049432672438E-01
-0.1131098461699E-02 -0.1104036256423E-01
-0.1102739267852E-02 -0.1160317385644E-01
-0.1080825881363E-02 -0.1218463092349E-01
-0.1069420537276E-02 -0.1278656948176E-01
-0.1073233915399E-02 -0.1341075038470E-01
-0.1097494685624E-02 -0.1405886144399E-01
-0.1148039690466E-02 -0.1473256655507E-01
-0.1231585157889E-02 -0.1543356323852E-01
-0.1356130699466E-02 -0.1616364517623E-01
-0.1531435636179E-02 -0.1692479982201E-01
-0.1769426377418E-02 -0.1771942886446E-01
-0.2084586566120E-02 -0.1855000635898E-01
-0.2495375672955E-02 -0.1941853158326E-01
-0.3027881583603E-02 -0.2032622388976E-01
-0.3722168964925E-02 -0.2127278720491E-01
-0.4644676321986E-02 -0.2224972419259E-01
-0.5953940860704E-02 -0.2320612108590E-01
-0.8019747664330E-02 -0.2412748292535E-01
-0.2370482240298E-03 -0.4821288363757E-03
-0.4712580358600E-03 -0.9804901658421E-03
-0.6661559856939E-03 -0.1474722349137E-02
-0.8220649123205E-03 -0.1955468243173E-02
-0.9472345263007E-03 -0.2424875356962E-02
-0.1047726330435E-02 -0.2886641025178E-02
-0.1127780166862E-02 -0.3343559781391E-02
-0.1190569306650E-02 -0.3797775726630E-02
-0.1238536936755E-02 -0.4250948417864E-02
-0.1273623100343E-02 -0.4704396063096E-02
-0.1297409350984E-02 -0.5159208242615E-02
-0.1311215494417E-02 -0.5616324505025E-02
-0.1316169433749E-02 -0.6076594766697E-02
-0.1313260361464E-02 -0.6540823801247E-02
-0.1303382336925E-02 -0.7009806797311E-02
-0.1287372221208E-02 -0.7484360095960E-02
-0.1266044390802E-02 -0.7965352493886E-02
-0.1240225594672E-02 -0.8453706565319E-02
-0.1210786915776E-02 -0.8950463020995E-02
-0.1178681119211E-02 -0.9456761004453E-02
-0.1144981219716E-02 -0.9973877100679E-02
-0.1110942175593E-02 -0.1050321791068E-01
-0.1078140479617E-02 -0.1104626459147E-01
-0.1048760062588E-02 -0.1160449074220E-01
-0.1025965019939E-02 -0.1217936727415E-01
-0.1013820001652E-02 -0.1277236748205E-01
-0.1017055724392E-02 -0.1338493599321E-01
-0.1040963121894E-02 -0.1401844867883E-01
-0.1091486746452E-02 -0.1467419488185E-01
-0.1175492483660E-02 -0.1535337382970E-01
-0.1301159023072E-02 -0.1605711683536E-01
-0.1478425548713E-02 -0.1678654867238E-01
-0.1719441091664E-02 -0.1754289434788E-01
-0.2039116165203E-02 -0.1832691049320E-01
-0.2456779465380E-02 -0.1913783425875E-01
-0.2999921488028E-02 -0.1997274231113E-01
-0.3710661237467E-02 -0.2082431188291E-01
-0.4663215011538E-02 -0.2167130800970E-01
-0.6012378849394E-02 -0.2247527608290E-01
-0.7984395071184E-02 -0.2327493616744E-01
-0.2180558095365E-03 -0.4685257098936E-03
-0.4369373290191E-03 -0.9545028414453E-03
-0.6260681644707E-03 -0.1443350688532E-02
-0.7804966327799E-03 -0.1924695846452E-02
-0.9052410662743E-03 -0.2397193014414E-02
-0.1005573139303E-02 -0.2862864556088E-02
-0.1085518817067E-02 -0.3323906060898E-02
-0.1148164548645E-02 -0.3782172976378E-02
-0.1195927903376E-02 -0.4239189948134E-02
-0.1230742784279E-02 -0.4696211875276E-02
-0.1254191126819E-02 -0.5154296534015E-02
-0.1267594869820E-02 -0.5614365633584E-02
-0.1272083707684E-02 -0.6077255265801E-02
-0.1268647677576E-02 -0.6543754927943E-02
-0.1258180642026E-02 -0.7014639448181E-02
-0.1241518443932E-02 -0.7490696892166E-02
-0.1219474046673E-02 -0.7972757073287E-02
-0.1192873148895E-02 -0.8461689413432E-02
-0.1162587359458E-02 -0.8958462473082E-02
-0.1129574244307E-02 -0.9464116056078E-02
-0.1094922819125E-02 -0.9979785746264E-02
-0.1059929706401E-02 -0.1050667588042E-01
-0.1026246600349E-02 -0.1104599451057E-01
-0.9961356849258E-03 -0.1159888800094E-01
-0.9727949603377E-03 -0.1216649153332E-01
-0.9602913423226E-03 -0.1274995719553E-01
-0.9633726399442E-03 -0.1335042152171E-01
-0.9873903328873E-03 -0.1396893872779E-01
-0.1038399174418E-02 -0.1460641958998E-01
-0.1123419007268E-02 -0.1526358534169E-01
-0.1250810447772E-02 -0.1594095434914E-01
-0.1430711158346E-02 -0.1663885089662E-01
-0.1675534498398E-02 -0.1735740758772E-01
-0.2000678323847E-02 -0.1809581192066E-01
-0.2426335288864E-02 -0.1885105647482E-01
-0.2981199132595E-02 -0.1961711774985E-01
-0.3709439590260E-02 -0.2038214496849E-01
-0.4686956568144E-02 -0.2112409108775E-01
-0.6042682033451E-02 -0.2182711473715E-01
-0.7891438184277E-02 -0.2255288733332E-01
-0.2022501973412E-03 -0.4588398818847E-03
-0.4068082043958E-03 -0.9349614079427E-03
-0.5886714943603E-03 -0.1417971722181E-02
-0.7403119804478E-03 -0.1898220880378E-02
-0.8639653130565E-03 -0.2372390293619E-02
-0.9637836254816E-03 -0.2840937848381E-02
-0.1043421691610E-02 -0.3305321887441E-02
-0.1105815950968E-02 -0.3767037070385E-02
-0.1153320618044E-02 -0.4227416171085E-02
-0.1187843757009E-02 -0.4687610575103E-02
-0.1210956691878E-02 -0.5148618186456E-02
-0.1223977189738E-02 -0.5611322087879E-02
-0.1228033224571E-02 -0.6076528742168E-02
-0.1224113845315E-02 -0.6544999723038E-02
-0.1213112031843E-02 -0.7017478883113E-02
-0.1195862811861E-02 -0.7494716607992E-02
-0.1173178790587E-02 -0.7977494910669E-02
-0.1145886681596E-02 -0.8466621339744E-02
-0.1114862137871E-02 -0.8962983228197E-02
-0.1081073404808E-02 -0.9467511637260E-02
-0.1045634317867E-02 -0.9981194052318E-02
-0.1009891331802E-02 -0.1050503603764E-01
-0.9755714057410E-03 -0.1103999593392E-01
-0.9450092890596E-03 -0.1158693546733E-01
-0.9214354888530E-03 -0.1214670045801E-01
-0.9089215812033E-03 -0.1272015574113E-01
-0.9122328859254E-03 -0.1330814576910E-01
-0.9367798885918E-03 -0.1391140999793E-01
-0.9887256000845E-03 -0.1453049457617E-01
-0.1075240601657E-02 -0.1516567757107E-01
-0.1204864724969E-02 -0.1581692469279E-01
-0.1387941000631E-02 -0.1648384969583E-01
-0.1637162527114E-02 -0.1716563520154E-01
-0.1968398272568E-02 -0.1786019039889E-01
-0.2402551537042E-02 -0.1856289790125E-01
-0.2969170028830E-02 -0.1926585902675E-01
-0.3713002982387E-02 -0.1995615882292E-01
-0.4704836975832E-02 -0.2061772209877E-01
-0.6040730770953E-02 -0.2125390385432E-01
-0.7760307088588E-02 -0.2193049151094E-01
-0.1886820453099E-03 -0.4517128872521E-03
-0.3801070101398E-03 -0.9200138192594E-03
-0.5539641703073E-03 -0.1397441249692E-02
-0.7017638295273E-03 -0.1875628574663E-02
-0.8236366675114E-03 -0.2350352484367E-02
-0.9225427452987E-03 -0.2820861690226E-02
-0.1001637941399E-02 -0.3287864992835E-02
-0.1063644036521E-02 -0.3752450370579E-02
-0.1110815217622E-02 -0.4215719838193E-02
-0.1145012133116E-02 -0.4678689092473E-02
-0.1167783087105E-02 -0.5142271879829E-02
-0.1180434330512E-02 -0.5607294066977E-02
-0.1184087833399E-02 -0.6074517918811E-02
-0.1179729298979E-02 -0.6544665305332E-02
-0.1168249778875E-02 -0.7018439199745E-02
-0.1150483456592E-02 -0.7496543631715E-02
-0.1127243491673E-02 -0.7979704889040E-02
-0.1099359581616E-02 -0.8468661175816E-02
-0.1067714796885E-02 -0.8964211486864E-02
-0.1033293285015E-02 -0.9467172216634E-02
-0.9972401754330E-03 -0.9978381202000E-02
-0.9609556985058E-03 -0.1049865396935E-01
-0.9262390742789E-03 -0.1102872232556E-01
-0.8954913568224E-03 -0.1156919826374E-01
-0.8719740188231E-03 -0.1212067466874E-01
-0.8597659416136E-03 -0.1268375901979E-01
-0.8636510596354E-03 -0.1325902500286E-01
-0.8890962927583E-03 -0.1384691598374E-01
-0.9423668857886E-03 -0.1444764075459E-01
-0.1030774842480E-02 -0.1506108062694E-01
-0.1163028634805E-02 -0.1568672206027E-01
-0.1349667564893E-02 -0.1632358214190E-01
-0.1603643295297E-02 -0.1697008498390E-01
-0.1941204422627E-02 -0.1762322327034E-01
-0.2383708550795E-02 -0.1827744364146E-01
-0.2960914669031E-02 -0.1892431839827E-01
-0.3716061995229E-02 -0.1955262688517E-01
-0.4710295029688E-02 -0.2015432283725E-01
-0.6008422715049E-02 -0.2074535933138E-01
-0.7603562265204E-02 -0.2138652493247E-01
-0.1767498537422E-03 -0.4463360647832E-03
-0.3561880208477E-03 -0.9084022672094E-03
-0.5217781411207E-03 -0.1380773946839E-02
-0.6649685557078E-03 -0.1856427679314E-02
-0.7844253972254E-03 -0.2330891078315E-02
-0.8820060382082E-03 -0.2802586982444E-02
-0.9603005353771E-03 -0.3271556076926E-02
-0.1021760752808E-02 -0.3738469674991E-02
-0.1068506898833E-02 -0.4204176245324E-02
-0.1102330934002E-02 -0.4669532787259E-02
-0.1124745096171E-02 -0.5135349201698E-02
-0.1137036144665E-02 -0.5602378171671E-02
-0.1140315213254E-02 -0.6071324796470E-02
-0.1135561874242E-02 -0.6542860556601E-02
-0.1123663882757E-02 -0.7017638529077E-02
-0.1105454302508E-02 -0.7496308577585E-02
-0.1081747552130E-02 -0.7979534350522E-02
-0.1053378048464E-02 -0.8467978589762E-02
-0.1021239226546E-02 -0.8962346869673E-02
-0.9863352682046E-03 -0.9463338130535E-02
-0.9498466903762E-03 -0.9971642993943E-02
-0.9132283244712E-03 -0.1048789842648E-01
-0.8783469354113E-03 -0.1101263173325E-01
-0.8476634856363E-03 -0.1154623491332E-01
-0.8244683842510E-03 -0.1208907850756E-01
-0.8128495145157E-03 -0.1264154041302E-01
-0.8176096228817E-03 -0.1320394860995E-01
-0.8442675928602E-03 -0.1377647728948E-01
-0.8991810363918E-03 -0.1435903479285E-01
-0.9897882405301E-03 -0.1495116144505E-01
-0.1124946520667E-02 -0.1555194912432E-01
-0.1315363708131E-02 -0.1615995041839E-01
-0.1574191216416E-02 -0.1677305050948E-01
-0.1917906643602E-02 -0.1738770655888E-01
-0.2367973245332E-02 -0.1799809231216E-01
-0.2953532734738E-02 -0.1859642497997E-01
-0.3714434329542E-02 -0.1917470385394E-01
-0.4700201586160E-02 -0.1973231533642E-01
-0.5949601797724E-02 -0.2029197673960E-01
-0.7429148421340E-02 -0.2090610701183E-01
-0.1660567578027E-03 -0.4421998234022E-03
-0.3345345848170E-03 -0.8992582057733E-03
-0.4918796653691E-03 -0.1367171030491E-02
-0.6299424257671E-03 -0.1840127539164E-02
-0.7464415442060E-03 -0.2313772358062E-02
-0.8422970782763E-03 -0.2786025648983E-02
-0.9195240559586E-03 -0.3256385507916E-02
-0.9802672863346E-03 -0.3725129274028E-02
-0.1026484284949E-02 -0.4192844763472E-02
-0.1059878805798E-02 -0.4660216152094E-02
-0.1081914226273E-02 -0.5127934845874E-02
-0.1093849627504E-02 -0.5596667297849E-02
-0.1096780161244E-02 -0.6067050319599E-02
-0.1091676172815E-02 -0.6539695596495E-02
-0.1079420475565E-02 -0.7015198317366E-02
-0.1060844484454E-02 -0.7494147342192E-02
-0.1036764316202E-02 -0.7977137854624E-02
-0.1008020483764E-02 -0.8464752409527E-02
-0.9755190919740E-03 -0.8957600018328E-02
-0.9402872027190E-03 -0.9456261991058E-02
-0.9035426711889E-03 -0.9961286890602E-02
-0.8667935055874E-03 -0.1047314592545E-01
-0.8319683035041E-03 -0.1099218260182E-01
-0.8015814452995E-03 -0.1151859515670E-01
-0.7789494818794E-03 -0.1205255888192E-01
-0.7681694245899E-03 -0.1259424880712E-01
-0.7740612335534E-03 -0.1314377490103E-01
-0.8021888686104E-03 -0.1370107469976E-01
-0.8589886867639E-03 -0.1426579971223E-01
-0.9520043730372E-03 -0.1483721185489E-01
-0.1090212536257E-02 -0.1541410092220E-01
-0.1284443152537E-02 -0.1599469712427E-01
-0.1547956806064E-02 -0.1657657295297E-01
-0.1897266120339E-02 -0.1715601555918E-01
-0.2353533756827E-02 -0.1772750764481E-01
-0.2944459294706E-02 -0.1828472711576E-01
-0.3705217417397E-02 -0.1882336646764E-01
-0.4673613102698E-02 -0.1934860240972E-01
-0.5868327755176E-02 -0.1988578065478E-01
-0.7242125314281E-02 -0.2047846228243E-01
-0.1563311635746E-03 -0.4389681788813E-03
-0.3147413765705E-03 -0.8919701091803E-03
-0.4640221387680E-03 -0.1356000928407E-02
-0.5966370529619E-03 -0.1826277473985E-02
-0.7097426400841E-03 -0.2298744730268E-02
-0.8035073243061E-03 -0.2771062571600E-02
-0.8794036122766E-03 -0.3242319801823E-02
-0.9392526774159E-03 -0.3712444486823E-02
-0.9848281591168E-03 -0.4181770642120E-02
-0.1017728970705E-02 -0.4650803707854E-02
-0.1039357838103E-02 -0.5120106950577E-02
-0.1050938189478E-02 -0.5590250615611E-02
-0.1053543967621E-02 -0.6061794095114E-02
-0.1048133008300E-02 -0.6535281282186E-02
-0.1035581313645E-02 -0.7011242610507E-02
-0.1016717868418E-02 -0.7490200143483E-02
-0.9923606137983E-03 -0.7972675902458E-02
-0.9633570781207E-03 -0.8459168899953E-02
-0.9306275669493E-03 -0.8950190193940E-02
-0.8952235523534E-03 -0.9446205354741E-02
-0.8584003575856E-03 -0.9947627839454E-02
-0.8217161177978E-03 -0.1045477643179E-01
-0.7871549126523E-03 -0.1096783029348E-01
-0.7572778567442E-03 -0.1148681769543E-01
-0.7354238827830E-03 -0.1201174360294E-01
-0.7256973912015E-03 -0.1254260633643E-01
-0.7329317278035E-03 -0.1307932727401E-01
-0.7627263768054E-03 -0.1362164338550E-01
-0.8215791632934E-03 -0.1416899720616E-01
-0.9171127616303E-03 -0.1472043887214E-01
-0.1058384193937E-02 -0.1527455210909E-01
-0.1256283120005E-02 -0.1582938767017E-01
-0.1524065563704E-02 -0.1638242095981E-01
-0.1878060317326E-02 -0.1693009143822E-01
-0.2338718748871E-02 -0.1746763646601E-01
-0.2931620535555E-02 -0.1799062631337E-01
-0.3686626096454E-02 -0.1849824512950E-01
-0.4630832405617E-02 -0.1899966449968E-01
-0.5768242884791E-02 -0.1952026929538E-01
-0.7045782406609E-02 -0.2009552242837E-01
-0.1473810496280E-03 -0.4364112917782E-03
-0.2964917658787E-03 -0.8860990214052E-03
-0.4379713523418E-03 -0.1346768952584E-02
-0.5649666341264E-03 -0.1814482060473E-02
-0.6743447880279E-03 -0.2285558704540E-02
-0.7656984538680E-03 -0.2757567122997E-02
-0.8400147907610E-03 -0.3229307909914E-02
-0.8987931030068E-03 -0.3700415277748E-02
-0.9436105836898E-03 -0.4170986995563E-02
-0.9759484003714E-03 -0.4641351034303E-02
-0.9971384182622E-03 -0.5111937544201E-02
-0.1008361024328E-02 -0.5583213624922E-02
-0.1010663863776E-02 -0.6055654162860E-02
-0.1004988916172E-02 -0.6529728740384E-02
-0.9922033358542E-03 -0.7005897355251E-02
-0.9731326519476E-03 -0.7484610565218E-02
-0.9485964115191E-03 -0.7966313661019E-02
-0.9194495549941E-03 -0.8451420052851E-02
-0.8866272883782E-03 -0.8940342972053E-02
-0.8512057773779E-03 -0.9433435718645E-02
-0.8144764388550E-03 -0.9930984738494E-02
-0.7780432893006E-03 -0.1043316981625E-01
-0.7439390667260E-03 -0.1094002411978E-01
-0.7147646151402E-03 -0.1145142798516E-01
-0.6938764013321E-03 -0.1196723952042E-01
-0.6853825171634E-03 -0.1248730608829E-01
-0.6941234959379E-03 -0.1301139082960E-01
-0.7257220969616E-03 -0.1353906816549E-01
-0.7867168999076E-03 -0.1406962158777E-01
-0.8847781546255E-03 -0.1460195733505E-01
-0.1028996452469E-02 -0.1513454806797E-01
-0.1230246753090E-02 -0.1566540062293E-01
-0.1501653424601E-02 -0.1619208521076E-01
-0.1859138652216E-02 -0.1671145291610E-01
-0.2322076585317E-02 -0.1721978553599E-01
-0.2913462289667E-02 -0.1771466233848E-01
-0.3657732625130E-02 -0.1819821759931E-01
-0.4572799616074E-02 -0.1868206139409E-01
-0.5652410126281E-02 -0.1919016176382E-01
-0.6842318020030E-02 -0.1975105779210E-01
-0.1390666671026E-03 -0.4343670631018E-03
-0.2795376037902E-03 -0.8813241023228E-03
-0.4135158912506E-03 -0.1339088331076E-02
-0.5348267238092E-03 -0.1804403420716E-02
-0.6402336938201E-03 -0.2273979292797E-02
-0.7289062723552E-03 -0.2745402844800E-02
-0.8014145470948E-03 -0.3217287079815E-02
-0.8589517256065E-03 -0.3689029760215E-02
-0.9028943817643E-03 -0.4160516841771E-02
-0.9345972108915E-03 -0.4631905880998E-02
-0.9553129948901E-03 -0.5103493063438E-02
-0.9661725762856E-03 -0.5575638269587E-02
-0.9681925456455E-03 -0.6048726808786E-02
-0.9622957296491E-03 -0.6523148929003E-02
-0.9493382889020E-03 -0.6999289720270E-02
-0.9301410431765E-03 -0.7477524616402E-02
-0.9055245658765E-03 -0.7958219707140E-02
-0.8763510529231E-03 -0.8441701927429E-02
-0.8435704803142E-03 -0.8928288082071E-02
-0.8082828622522E-03 -0.9418223842101E-02
-0.7718131075763E-03 -0.9911677422808E-02
-0.7358059635214E-03 -0.1040870288102E-01
-0.7023355980625E-03 -0.1090920476808E-01
-0.6740351496343E-03 -0.1141293615046E-01
-0.6542726326030E-03 -0.1191963064678E-01
-0.6471542109297E-03 -0.1242900994374E-01
-0.6575190894384E-03 -0.1294070951187E-01
-0.6909984991645E-03 -0.1345417980146E-01
-0.7541480054130E-03 -0.1396859534865E-01
-0.8546498664634E-03 -0.1448278498015E-01
-0.1001575501919E-02 -0.1499520014923E-01
-0.1205703766629E-02 -0.1550392549527E-01
-0.1479896971353E-02 -0.1600678535658E-01
-0.1839463687787E-02 -0.1650122960457E-01
-0.2302411954054E-02 -0.1698472918175E-01
-0.2888905175910E-02 -0.1745677275218E-01
-0.3618217269605E-02 -0.1792179163701E-01
-0.4500728077095E-02 -0.1839263334241E-01
-0.5523334592673E-02 -0.1889113944934E-01
-0.6633246279619E-02 -0.1944012849105E-01
-0.1312836588765E-03 -0.4327182188369E-03
-0.2636830135295E-03 -0.8774069400565E-03
-0.3904699336411E-03 -0.1332656044014E-02
-0.5061063103567E-03 -0.1795757339476E-02
-0.6073741131574E-03 -0.2263792549657E-02
-0.6931452376029E-03 -0.2734434711293E-02
-0.7636428071074E-03 -0.3206187972199E-02
-0.8197790266863E-03 -0.3678267450655E-02
-0.8627329520341E-03 -0.4150375087982E-02
-0.8937282849236E-03 -0.4622509299238E-02
-0.9139327129493E-03 -0.5094834909190E-02
-0.9244221282006E-03 -0.5567603088183E-02
-0.9261777974890E-03 -0.6041106408529E-02
-0.9201002482004E-03 -0.6515652222406E-02
-0.9070324475223E-03 -0.6991547436776E-02
-0.8877890458965E-03 -0.7469089812163E-02
-0.8631907026099E-03 -0.7948564807282E-02
-0.8341061584216E-03 -0.8430213068701E-02
-0.8014992394994E-03 -0.8914257416395E-02
-0.7664919711992E-03 -0.9400841378038E-02
-0.7304391554735E-03 -0.9890024087517E-02
-0.6950204121023E-03 -0.1038174684530E-01
-0.6623437319406E-03 -0.1087580208080E-01
-0.6350666104668E-03 -0.1137183510570E-01
-0.6165614950396E-03 -0.1186947644377E-01
-0.6109252057018E-03 -0.1236834673392E-01
-0.6229849675115E-03 -0.1286798390322E-01
-0.6583634107603E-03 -0.1336775241013E-01
-0.7236068071068E-03 -0.1386676641937E-01
-0.8263708343850E-03 -0.1436384010316E-01
-0.9756515578353E-03 -0.1485748506284E-01
-0.1182048335161E-02 -0.1534596719016E-01
-0.1458036968963E-02 -0.1582748720392E-01
-0.1818136148795E-02 -0.1630020989010E-01
-0.2278789274114E-02 -0.1676282307103E-01
-0.2857268218949E-02 -0.1721650020239E-01
-0.3568166360483E-02 -0.1766733648291E-01
-0.4415899911626E-02 -0.1812855932614E-01
-0.5383043742027E-02 -0.1861963185782E-01
-0.6419642000714E-02 -0.1915872842052E-01
-0.1239522832201E-03 -0.4313780815379E-03
-0.2487719424690E-03 -0.8741677311558E-03
-0.3686724036944E-03 -0.1327233742375E-02
-0.4786951242195E-03 -0.1788306960754E-02
-0.5757172845641E-03 -0.2254808151844E-02
-0.6584129048144E-03 -0.2724534080436E-02
-0.7267244708457E-03 -0.3195938837878E-02
-0.7813135037336E-03 -0.3668102162711E-02
-0.8231703526279E-03 -0.4140570388896E-02
-0.8533870851228E-03 -0.4613196748074E-02
-0.8730425449349E-03 -0.5086020015267E-02
-0.8831534896018E-03 -0.5559183390168E-02
-0.8846621951905E-03 -0.6032885298848E-02
-0.8784439761484E-03 -0.6507348024621E-02
-0.8653264040041E-03 -0.6982798169063E-02
-0.8461163205736E-03 -0.7459454292484E-02
-0.8216331840277E-03 -0.7937520755995E-02
-0.7927510381326E-03 -0.8417153029917E-02
-0.7604459153038E-03 -0.8898483223561E-02
-0.7258591599828E-03 -0.9381558791494E-02
-0.6903710580724E-03 -0.9866339078678E-02
-0.6556896739745E-03 -0.1035266520683E-01
-0.6239488491079E-03 -0.1084023314347E-01
-0.5978219648128E-03 -0.1132859890377E-01
-0.5806777206071E-03 -0.1181731033357E-01
-0.5765945653954E-03 -0.1230591075541E-01
-0.5903752287451E-03 -0.1279386965313E-01
-0.6276147922842E-03 -0.1328050189858E-01
-0.6948221231293E-03 -0.1376490697653E-01
-0.7995860127392E-03 -0.1424594155172E-01
-0.9507701026338E-03 -0.1472224782656E-01
-0.1158713539095E-02 -0.1519235568859E-01
-0.1435394587310E-02 -0.1565492699481E-01
-0.1794405321449E-02 -0.1610889502606E-01
-0.2250514781838E-02 -0.1655410852926E-01
-0.2818186354548E-02 -0.1699314568341E-01
-0.3507922298635E-02 -0.1743321525084E-01
-0.4319558699999E-02 -0.1788735142896E-01
-0.5233175559298E-02 -0.1837265049760E-01
-0.6202289933201E-02 -0.1890354676630E-01
-0.1170103303652E-03 -0.4302814268753E-03
-0.2346787697050E-03 -0.8714690837881E-03
-0.3479845681150E-03 -0.1322633041394E-02
-0.4524877523956E-03 -0.1781855973245E-02
-0.5452064602134E-03 -0.2246859530865E-02
-0.6246939096188E-03 -0.2715581732100E-02
-0.6906715603493E-03 -0.3186468716080E-02
-0.7435826166170E-03 -0.3658504467546E-02
-0.7842416029766E-03 -0.4131106821726E-02
-0.8136116375894E-03 -0.4603999133982E-02
-0.8326811309777E-03 -0.5077101403813E-02
-0.8424047857424E-03 -0.5550451441415E-02
-0.8436828933322E-03 -0.6024153668267E-02
-0.8373629367970E-03 -0.6498344407363E-02
-0.8242549321125E-03 -0.6973168916509E-02
-0.8051561241323E-03 -0.7448765984965E-02
-0.7808831621855E-03 -0.7925259283312E-02
-0.7523136599481E-03 -0.8402721009072E-02
-0.7204335665299E-03 -0.8881196483882E-02
-0.6864001287176E-03 -0.9360643538707E-02
-0.6516140488608E-03 -0.9840931001053E-02
-0.6178049402905E-03 -0.1032181192812E-01
-0.5871241740547E-03 -0.1080290066322E-01
-0.5622520192326E-03 -0.1128368134314E-01
-0.5465442827828E-03 -0.1176363849666E-01
-0.5440506305439E-03 -0.1224226070306E-01
-0.5595352453068E-03 -0.1271897656470E-01
-0.5985453054112E-03 -0.1319308539947E-01
-0.6675230932846E-03 -0.1366371371490E-01
-0.7739498497197E-03 -0.1412981083783E-01
-0.9265012503576E-03 -0.1459020771040E-01
-0.1135182103209E-02 -0.1504375967095E-01
-0.1411380651232E-02 -0.1548963976057E-01
-0.1767668117607E-02 -0.1592755312470E-01
-0.2217107445557E-02 -0.1635840070970E-01
-0.2771534710942E-02 -0.1678587646348E-01
-0.3437978013049E-02 -0.1721785615955E-01
-0.4212858749031E-02 -0.1766682411127E-01
-0.5075056884875E-02 -0.1814766278533E-01
-0.5981777251896E-02 -0.1867180298510E-01
-0.1104083408298E-03 -0.4293784283739E-03
-0.2213012574568E-03 -0.8692048025527E-03
-0.3282871413576E-03 -0.1318704297408E-02
-0.4273857016045E-03 -0.1776242175568E-02
-0.5157808486244E-03 -0.2239802620433E-02
-0.5919633315820E-03 -0.2707469459865E-02
-0.6554853223615E-03 -0.3177709728851E-02
-0.7066038768881E-03 -0.3649443691861E-02
-0.7459731525404E-03 -0.4121985341936E-02
-0.7744326623653E-03 -0.4594943754620E-02
-0.7928807404943E-03 -0.5068128706738E-02
-0.8022083475902E-03 -0.5541476646400E-02
-0.8032714997984E-03 -0.6014999460401E-02
-0.7968875672956E-03 -0.6488747771380E-02
-0.7838469303491E-03 -0.6962785450014E-02
-0.7649353313519E-03 -0.7437171818594E-02
-0.7409647164643E-03 -0.7911951040662E-02
-0.7128140959109E-03 -0.8387114607278E-02
-0.6814764842422E-03 -0.8862625465390E-02
-0.6481210084685E-03 -0.9338358487749E-02
-0.6141631868756E-03 -0.9814101110625E-02
-0.5813468999419E-03 -0.1028952991937E-01
-0.5518324057670E-03 -0.1076419163426E-01
-0.5282973757750E-03 -0.1123751486171E-01
-0.5140747485865E-03 -0.1170893900481E-01
-0.5131738627200E-03 -0.1217791906293E-01
-0.5303051300216E-03 -0.1264386835117E-01
-0.5709465741606E-03 -0.1310610167029E-01
-0.6414444328140E-03 -0.1356380947076E-01
-0.7491326760225E-03 -0.1401607609148E-01
-0.9024470881116E-03 -0.1446196654817E-01
-0.1110993512449E-02 -0.1490070274004E-01
-0.1385498934858E-02 -0.1533198908896E-01
-0.1737460426514E-02 -0.1575626903414E-01
-0.2178265915135E-02 -0.1617535930072E-01
-0.2717364795468E-02 -0.1659379944477E-01
-0.3358905648689E-02 -0.1701978756439E-01
-0.4096846311812E-02 -0.1746505671214E-01
-0.4909767731658E-02 -0.1794249639679E-01
-0.5758551417863E-02 -0.1846112852950E-01
-0.1041062986231E-03 -0.4286305401917E-03
-0.2085552548722E-03 -0.8672919882657E-03
-0.3094774120764E-03 -0.1315328065634E-02
-0.4032981863439E-03 -0.1771331779199E-02
-0.4873783096042E-03 -0.2233513912817E-02
-0.5601894056000E-03 -0.2700100641361E-02
-0.6211581520612E-03 -0.3169598609155E-02
-0.6703859713850E-03 -0.3640889468804E-02
-0.7083834433014E-03 -0.4113205005667E-02
-0.7358737987451E-03 -0.4586055130311E-02
-0.7536673135604E-03 -0.5059148640857E-02
-0.7625906652080E-03 -0.5532325719928E-02
-0.7634540009433E-03 -0.6005508287323E-02
-0.7570426556530E-03 -0.6478662531923E-02
-0.7441254027310E-03 -0.6951771786027E-02
-0.7254744913380E-03 -0.7424816992626E-02
-0.7018950229456E-03 -0.7897764667691E-02
-0.6742648480242E-03 -0.8370528704661E-02
-0.6435807180917E-03 -0.8842994442094E-02
-0.6110191209033E-03 -0.9314960544272E-02
-0.5780043631326E-03 -0.9786141939516E-02
-0.5462869958944E-03 -0.1025614975965E-01
-0.5180272398367E-03 -0.1072447623515E-01
-0.4958902620681E-03 -0.1119050966595E-01
-0.4831754800013E-03 -0.1165366122860E-01
-0.4838394939143E-03 -0.1211337187298E-01
-0.5025229235312E-03 -0.1256906291386E-01
-0.5446130083244E-03 -0.1302009222562E-01
-0.6163309634459E-03 -0.1346574584129E-01
-0.7248258694499E-03 -0.1390527729068E-01
-0.8782469558896E-03 -0.1433801848487E-01
-0.1085747814843E-02 -0.1476358069359E-01
-0.1357344775625E-02 -0.1518219591806E-01
-0.1703443872201E-02 -0.1559498767408E-01
-0.2133835900857E-02 -0.1600454278756E-01
-0.2655853351945E-02 -0.1641600910181E-01
-0.3271309853606E-02 -0.1683765188263E-01
-0.3972457993933E-02 -0.1728035714242E-01
-0.4738192467601E-02 -0.1775526576816E-01
-0.5532954907050E-02 -0.1826947777440E-01
-0.9807129403967E-04 -0.4280076298345E-03
-0.1963707011601E-03 -0.8656653792023E-03
-0.2914666209658E-03 -0.1312408584509E-02
-0.3801421642431E-03 -0.1767014533139E-02
-0.4599371253628E-03 -0.2227888247224E-02
-0.5293356469919E-03 -0.2693390123639E-02
-0.5876752939396E-03 -0.3162077612074E-02
-0.6349298731798E-03 -0.3632812879014E-02
-0.6714835443869E-03 -0.4104763955302E-02
-0.6979519258299E-03 -0.4577355709463E-02
-0.7150605975534E-03 -0.5050205422467E-02
-0.7235724301336E-03 -0.5523062836677E-02
-0.7242507696359E-03 -0.5995763344521E-02
-0.7178473566357E-03 -0.6468190823190E-02
-0.7051075165199E-03 -0.6940249696239E-02
-0.6867879597039E-03 -0.7411844301526E-02
-0.6636845963139E-03 -0.7882865942685E-02
-0.6366712378049E-03 -0.8353154455875E-02
-0.6067446490310E-03 -0.8822522573569E-02
-0.5750837591873E-03 -0.9290699478468E-02
-0.5431153009602E-03 -0.9757336152165E-02
-0.5125886517458E-03 -0.1022198866787E-01
-0.4856548402916E-03 -0.1068410699158E-01
-0.4649562871113E-03 -0.1114305315438E-01
-0.4537477250378E-03 -0.1159822559813E-01
-0.4559200065281E-03 -0.1204906893850E-01
-0.4760275122353E-03 -0.1249503322184E-01
-0.5193451880295E-03 -0.1293554325710E-01
-0.5919414207534E-03 -0.1337000679417E-01
-0.7007458335135E-03 -0.1379787263573E-01
-0.8535808462475E-03 -0.1421876079337E-01
-0.1059106681155E-02 -0.1463267912411E-01
-0.1326600402300E-02 -0.1504036537990E-01
-0.1665390474475E-02 -0.1544355063072E-01
-0.2083780470518E-02 -0.1584544928873E-01
-0.2587262880624E-02 -0.1625161809149E-01
-0.3175798209801E-02 -0.1667020822486E-01
-0.3840528007241E-02 -0.1711123107894E-01
-0.4561061915768E-02 -0.1758431693351E-01
-0.5305243297866E-02 -0.1809505728380E-01
-0.9227583901773E-04 -0.4274859386052E-03
-0.1846885888646E-03 -0.8642732356793E-03
-0.2741776670142E-03 -0.1309868785103E-02
-0.3578419463981E-03 -0.1763199633902E-02
-0.4333970986982E-03 -0.2222836580521E-02
-0.4993624661853E-03 -0.2687263679836E-02
-0.5550162899256E-03 -0.3155094955849E-02
-0.6002298822166E-03 -0.3625187239142E-02
-0.6352778066187E-03 -0.4096660182854E-02
-0.6606775364586E-03 -0.4568866447834E-02
-0.6770743444576E-03 -0.5041341117935E-02
-0.6851686359222E-03 -0.5513749755884E-02
-0.6856766264700E-03 -0.5985845326690E-02
-0.6793152560717E-03 -0.6457432222869E-02
-0.6668047042563E-03 -0.6928338255215E-02
-0.6488840706036E-03 -0.7398393518030E-02
-0.6263375646950E-03 -0.7867417016144E-02
-0.6000318167863E-03 -0.8335178399035E-02
-0.5709595643118E-03 -0.8801422930642E-02
-0.5402969471057E-03 -0.9265816927769E-02
-0.5094665092316E-03 -0.9727955598885E-02
-0.4802084277466E-03 -0.1018734968506E-01
-0.4546552174194E-03 -0.1064341816333E-01
-0.4354160732453E-03 -0.1109550958792E-01
-0.4256895412064E-03 -0.1154302365438E-01
-0.4292873785580E-03 -0.1198542440931E-01
-0.4506612056475E-03 -0.1242220865077E-01
-0.4949527394177E-03 -0.1285288812325E-01
-0.5680514883786E-03 -0.1327701293702E-01
-0.6766368080839E-03 -0.1369424556757E-01
-0.8281711148556E-03 -0.1410450502175E-01
-0.1030792280488E-02 -0.1450819034779E-01
-0.1293028148534E-02 -0.1490651071603E-01
-0.1623166886716E-02 -0.1530172596052E-01
-0.2028154288599E-02 -0.1569754642212E-01
-0.2511911918964E-02 -0.1609977575395E-01
-0.3072963150724E-02 -0.1651632874550E-01
-0.3701798407445E-02 -0.1695635674199E-01
-0.4378990497872E-02 -0.1742818997167E-01
-0.5075589583976E-02 -0.1793626958689E-01
-0.8669663115141E-04 -0.4270466002574E-03
-0.1734586388758E-03 -0.8630743059525E-03
-0.2575431500007E-03 -0.1307646444315E-02
-0.3363285912962E-03 -0.1759812332572E-02
-0.4077001784201E-03 -0.2218283874893E-02
-0.4702283657606E-03 -0.2681657218687E-02
-0.5231561834601E-03 -0.3148604918026E-02
-0.5662745718734E-03 -0.3617988597918E-02
-0.5997645113231E-03 -0.4088892091983E-02
-0.6240551461066E-03 -0.4560607265131E-02
-0.6397165576939E-03 -0.5032595927779E-02
-0.6473887309084E-03 -0.5504445917482E-02
-0.6477409513586E-03 -0.5975832341317E-02
-0.6414544823219E-03 -0.6446483494819E-02
-0.6292228091504E-03 -0.6916153424883E-02
-0.6117653470696E-03 -0.7384600833313E-02
-0.5898519749410E-03 -0.7851575725098E-02
-0.5643387950268E-03 -0.8316781672413E-02
-0.5362102326954E-03 -0.8779901656923E-02
-0.5066341765792E-03 -0.9240545560639E-02
-0.4770221909471E-03 -0.9698260550303E-02
-0.4490971092546E-03 -0.1015252105282E-01
-0.4249635125923E-03 -0.1060272534371E-01
-0.4071867614275E-03 -0.1104821999736E-01
-0.3988975436897E-03 -0.1148841837683E-01
-0.4038150818919E-03 -0.1192281768945E-01
-0.4262719601107E-03 -0.1235097672260E-01
-0.4712566969344E-03 -0.1277251030269E-01
-0.5444560854357E-03 -0.1318712626399E-01
-0.6522726178783E-03 -0.1359471213715E-01
-0.8017827776411E-03 -0.1399548804334E-01
-0.1000584559331E-02 -0.1439022917129E-01
-0.1256462516628E-02 -0.1478057400711E-01
-0.1576719340107E-02 -0.1516923200630E-01
-0.1967081947324E-02 -0.1556029254130E-01
-0.2430153314664E-02 -0.1595967908961E-01
-0.2963371376340E-02 -0.1637499060471E-01
-0.3556928681137E-02 -0.1681456646099E-01
-0.4192511220178E-02 -0.1728559073728E-01
-0.4844071210267E-02 -0.1779170715347E-01
-0.8131391586126E-04 -0.4266726572797E-03
-0.1626400207155E-03 -0.8620319436770E-03
-0.2415100542602E-03 -0.1305686275666E-02
-0.3155508086566E-03 -0.1756785304113E-02
-0.3828087211118E-03 -0.2214160870480E-02
-0.4419158801198E-03 -0.2676509492046E-02
-0.4920991194810E-03 -0.3142561539016E-02
-0.5330879621501E-03 -0.3611190327247E-02
-0.5649845079868E-03 -0.4081453917794E-02
-0.5881392326191E-03 -0.4552593375892E-02
-0.6030524893071E-03 -0.5024005678005E-02
-0.6103063388300E-03 -0.5495207524013E-02
-0.6105237098356E-03 -0.5965801213520E-02
-0.6043495458076E-03 -0.6435442981267E-02
-0.5924491786880E-03 -0.6903816665489E-02
-0.5755202285502E-03 -0.7370613121995E-02
-0.5543154765424E-03 -0.7835517287856E-02
-0.5296769488767E-03 -0.8298171287550E-02
-0.5025762532052E-03 -0.8758201366987E-02
-0.4741673757804E-03 -0.9215167555624E-02
-0.4458439966465E-03 -0.9668576615629E-02
-0.4193034456255E-03 -0.1011787530565E-01
-0.3966130252982E-03 -0.1056245079030E-01
-0.3802838234510E-03 -0.1100165808121E-01
-0.3733673232365E-03 -0.1143493517518E-01
-0.3794774020996E-03 -0.1186182415187E-01
-0.4028125557865E-03 -0.1228195812921E-01
-0.4481903830605E-03 -0.1269506706021E-01
-0.5210749840436E-03 -0.1310102625679E-01
-0.6275716503787E-03 -0.1349995240465E-01
-0.7743546171669E-03 -0.1389236015862E-01
-0.9684782274240E-03 -0.1427937690336E-01
-0.1217007168953E-02 -0.1466302215084E-01
-0.1526331247874E-02 -0.1504637713075E-01
-0.1901106541468E-02 -0.1543380798293E-01
-0.2342854638714E-02 -0.1583126006361E-01
-0.2848229269650E-02 -0.1624597429655E-01
-0.3407388551732E-02 -0.1668553208030E-01
-0.4003223214378E-02 -0.1715617476094E-01
-0.4612258715040E-02 -0.1766067195344E-01
-0.7610996694422E-04 -0.4263541811706E-03
-0.1521923833127E-03 -0.8611235476929E-03
-0.2260191204931E-03 -0.1303952840756E-02
-0.2954389322679E-03 -0.1754074326808E-02
-0.3586508749151E-03 -0.2210421739595E-02
-0.4143558719054E-03 -0.2671780758432E-02
-0.4617799581845E-03 -0.3136937265372E-02
-0.5006077471326E-03 -0.3604780795927E-02
-0.5308760759448E-03 -0.4074351586041E-02
-0.5528662744212E-03 -0.4544848487162E-02
-0.5670147593500E-03 -0.5015611333829E-02
-0.5738486257313E-03 -0.5486091989240E-02
-0.5739454404862E-03 -0.5955824961867E-02
-0.5679135001924E-03 -0.6424398523606E-02
-0.5563887226236E-03 -0.6891429912702E-02
-0.5400449163434E-03 -0.7356545661234E-02
-0.5196150129330E-03 -0.7819369417475E-02
-0.4959233825860E-03 -0.8279486163807E-02
-0.4699242661522E-03 -0.8736470427994E-02
-0.4427520760353E-03 -0.9189838211152E-02
-0.4157757242299E-03 -0.9639062513353E-02
-0.3906589278155E-03 -0.1008356984174E-01
-0.3694224113830E-03 -0.1052274437366E-01
-0.3545125553856E-03 -0.1095595826069E-01
-0.3488902349823E-03 -0.1138268317036E-01
-0.3560511584883E-03 -0.1180251551059E-01
-0.3800449215966E-03 -0.1221517234136E-01
-0.4255012579404E-03 -0.1262050748239E-01
-0.4976432394980E-03 -0.1301856959312E-01
-0.6022614776325E-03 -0.1340970435335E-01
-0.7456159596634E-03 -0.1379471036042E-01
-0.9342191203594E-03 -0.1417504089120E-01
-0.1174444301127E-02 -0.1455304993821E-01
-0.1471841557258E-02 -0.1493212183648E-01
-0.1830132176720E-02 -0.1531681635102E-01
-0.2249959971899E-02 -0.1571302978501E-01
-0.2727433846835E-02 -0.1612762470589E-01
-0.3252877883075E-02 -0.1656749069698E-01
-0.3810389728763E-02 -0.1703805149623E-01
-0.4379022067073E-02 -0.1754140112213E-01
-0.7106932384537E-04 -0.4260814735138E-03
-0.1420823938766E-03 -0.8603277443614E-03
-0.2110232387065E-03 -0.1302413050460E-02
-0.2759401501415E-03 -0.1751637977524E-02
-0.3351761290530E-03 -0.2207022790486E-02
-0.3875054350047E-03 -0.2667431842213E-02
-0.4321654712166E-03 -0.3131703167526E-02
-0.4688100091412E-03 -0.3598745189254E-02
-0.4974229157887E-03 -0.4067586477121E-02
-0.5182254499202E-03 -0.4537390979921E-02
-0.5315959377280E-03 -0.5007448385435E-02
-0.5380097238908E-03 -0.5477151779414E-02
-0.5380002911689E-03 -0.5945972944502E-02
-0.5321391860647E-03 -0.6413436487297E-02
-0.5210317899279E-03 -0.6879096902623E-02
-0.5053261390102E-03 -0.7342520144609E-02
-0.4857325539438E-03 -0.7803272496360E-02
-0.4630541218178E-03 -0.8260886123344E-02
-0.4382231152582E-03 -0.8714888711267E-02
-0.4123486765510E-03 -0.9164757723390E-02
-0.3867680907307E-03 -0.9609938494178E-02
-0.3631034330700E-03 -0.1004984391927E-01
-0.3433196806719E-03 -0.1048386227579E-01
-0.3297882586503E-03 -0.1091139023018E-01
-0.3253683077443E-03 -0.1133194056498E-01
-0.3334250328970E-03 -0.1174517149126E-01
-0.3578452421970E-03 -0.1215089109089E-01
-0.4030555171058E-03 -0.1254908259511E-01
-0.4740223153623E-03 -0.1293997002323E-01
-0.5762082939712E-03 -0.1332412359846E-01
-0.7154530792500E-03 -0.1370261120162E-01
-0.8977361999106E-03 -0.1407718318828E-01
-0.1128775253509E-02 -0.1445048266201E-01
-0.1413356899762E-02 -0.1482613578139E-01
-0.1754396868168E-02 -0.1520882798152E-01
-0.2151840170434E-02 -0.1560435611638E-01
-0.2601448561338E-02 -0.1601920168730E-01
-0.3093850927933E-02 -0.1645963169225E-01
-0.3614370913352E-02 -0.1693035893661E-01
-0.4144258235140E-02 -0.1743305800780E-01
-0.6617814676014E-04 -0.4258467357016E-03
-0.1322803051440E-03 -0.8596272924501E-03
-0.1964798774439E-03 -0.1301040054686E-02
-0.2570056829615E-03 -0.1749442314937E-02
-0.3123363071410E-03 -0.2203927823400E-02
-0.3613219099210E-03 -0.2663429980251E-02
-0.4032208168180E-03 -0.3126835023276E-02
-0.4376678626354E-03 -0.3593071545886E-02
-0.4646049184554E-03 -0.4061161136354E-02
-0.4842016757662E-03 -0.4530239005817E-02
-0.4967841240113E-03 -0.4999550991559E-02
-0.5027792120546E-03 -0.5468437151201E-02
-0.5026778213885E-03 -0.5936311565846E-02
-0.4970148295199E-03 -0.6402639584229E-02
-0.4863640873501E-03 -0.6866916980589E-02
-0.4713459659218E-03 -0.7328653028086E-02
-0.4526454340356E-03 -0.7787360649383E-02
-0.4310406650818E-03 -0.8242523483740E-02
-0.4074373624749E-03 -0.8693627066084E-02
-0.3829137344705E-03 -0.9140115447618E-02
-0.3587686635734E-03 -0.9581411828970E-02
-0.3365746956451E-03 -0.1001692134952E-01
-0.3182320928627E-03 -0.1044604243960E-01
-0.3060273557331E-03 -0.1086820234569E-01
-0.3027071564696E-03 -0.1128296085540E-01
-0.3114944855253E-03 -0.1169004355878E-01
-0.3361005295754E-03 -0.1208935427426E-01
-0.3807351725788E-03 -0.1248100830654E-01
-0.4500953820163E-03 -0.1286540373155E-01
-0.5493064964095E-03 -0.1324332744224E-01
-0.6837867884332E-03 -0.1361609912667E-01
-0.8589976497465E-03 -0.1398573643997E-01
-0.1080041241881E-02 -0.1435512884111E-01
-0.1351017516046E-02 -0.1472809092648E-01
-0.1674156670519E-02 -0.1510937958107E-01
-0.2048860964856E-02 -0.1550465819535E-01
-0.2470703901229E-02 -0.1592003793595E-01
-0.2930724344128E-02 -0.1636122667442E-01
-0.3415439666133E-02 -0.1683235324850E-01
-0.3908021295983E-02 -0.1733478407772E-01
-0.6142389245367E-04 -0.4256436917666E-03
-0.1227592730556E-03 -0.8590082850868E-03
-0.1823502987414E-03 -0.1299812081288E-02
-0.2385902207795E-03 -0.1747459596026E-02
-0.2900853833434E-03 -0.2201106989078E-02
-0.3357630469200E-03 -0.2659747992845E-02
-0.3749099165215E-03 -0.3122312830307E-02
-0.4071519087818E-03 -0.3587750541490E-02
-0.4323986074959E-03 -0.4055079222006E-02
-0.4507759965301E-03 -0.4523410501821E-02
-0.4625632791165E-03 -0.4991951990280E-02
-0.4681424021627E-03 -0.5459996115886E-02
-0.4679632643113E-03 -0.5926904173061E-02
-0.4625243009596E-03 -0.6392086695426E-02
-0.4523669551495E-03 -0.6854984854893E-02
-0.4380821176400E-03 -0.7315055228165E-02
-0.4203267119288E-03 -0.7771761407962E-02
-0.3998504033848E-03 -0.8224542717729E-02
-0.3775277740640E-03 -0.8672847013074E-02
-0.3544005195320E-03 -0.9116089671323E-02
-0.3317224825667E-03 -0.9553676715475E-02
-0.3110089921443E-03 -0.9985010600025E-02
-0.2940868979902E-03 -0.1040950494266E-01
-0.2831481680658E-03 -0.1082662235932E-01
-0.2808167614687E-03 -0.1123597403803E-01
-0.2901624690082E-03 -0.1163735673250E-01
-0.3147091594906E-03 -0.1203077254191E-01
-0.3584382340866E-03 -0.1241646895782E-01
-0.4257668800661E-03 -0.1279501403151E-01
-0.5214772746020E-03 -0.1316740082736E-01
-0.6505696438223E-03 -0.1353518160814E-01
-0.8180063586552E-03 -0.1390061176390E-01
-0.1028317150505E-02 -0.1426678786430E-01
-0.1284990055889E-02 -0.1463766743410E-01
-0.1589679510124E-02 -0.1501803653747E-01
-0.1941379177552E-02 -0.1541340444905E-01
-0.2335602712999E-02 -0.1582953000192E-01
-0.2763870714402E-02 -0.1627162780394E-01
-0.3213842970108E-02 -0.1674334673614E-01
-0.3670393607714E-02 -0.1724581195086E-01
-0.5679505813588E-04 -0.4254672956772E-03
-0.1134948082233E-03 -0.8584595176027E-03
-0.1685989027202E-03 -0.1298711507717E-02
-0.2206514121249E-03 -0.1745667217896E-02
-0.2683792610339E-03 -0.2198535808942E-02
-0.3107870718905E-03 -0.2656363529454E-02
-0.3471957159896E-03 -0.3118120321589E-02
-0.3772305830974E-03 -0.3582775233978E-02
-0.4007774933636E-03 -0.4049345401767E-02
-0.4179259037438E-03 -0.4516923157982E-02
-0.4289134975565E-03 -0.4984682875546E-02
-0.4340805714509E-03 -0.5451874383799E-02
-0.4338377338777E-03 -0.5917810946200E-02
-0.4286473150294E-03 -0.6381852698979E-02
-0.4190175772823E-03 -0.6843390365230E-02
-0.4055082018528E-03 -0.7301831842247E-02
-0.3887454448947E-03 -0.7756595401641E-02
-0.3694469418336E-03 -0.8207080142965E-02
-0.3484516943311E-03 -0.8652700466705E-02
-0.3267594406554E-03 -0.9092847411285E-02
-0.3055725364121E-03 -0.9526914199329E-02
-0.2863416613228E-03 -0.9954304897332E-02
-0.2708118871150E-03 -0.1037445235041E-01
-0.2610714741231E-03 -0.1078685810563E-01
-0.2596119912185E-03 -0.1119118772871E-01
-0.2693398431782E-03 -0.1158731125782E-01
-0.2935810624318E-03 -0.1197532965879E-01
-0.3360785034208E-03 -0.1235562051465E-01
-0.4009616778373E-03 -0.1272891550489E-01
-0.4926668309762E-03 -0.1309640145215E-01
-0.6157829184432E-03 -0.1345984307475E-01
-0.7747954607199E-03 -0.1382170500495E-01
-0.9737057931713E-03 -0.1418525568085E-01
-0.1215461392928E-02 -0.1455455750596E-01
-0.1501239886645E-02 -0.1493439377143E-01
-0.1829740900303E-02 -0.1533010901214E-01
-0.2196520600976E-02 -0.1574713339263E-01
-0.2593628055708E-02 -0.1619025052151E-01
-0.3009808400570E-02 -0.1666271210849E-01
-0.3431467925005E-02 -0.1716544659588E-01
-0.5228097863811E-04 -0.4253134962987E-03
-0.1044643389340E-03 -0.8579719769354E-03
-0.1551926949872E-03 -0.1297724102049E-02
-0.2031494352384E-03 -0.1744046830798E-02
-0.2471755787709E-03 -0.2196194321952E-02
-0.2863527455603E-03 -0.2653258375884E-02
-0.3200404372195E-03 -0.3114244483883E-02
-0.3478705167919E-03 -0.3578140775621E-02
-0.3697124746004E-03 -0.4043965202943E-02
-0.3856257355212E-03 -0.4510794342427E-02
-0.3958113891738E-03 -0.4977773743925E-02
-0.4005713266381E-03 -0.5444115296286E-02
-0.4002785805553E-03 -0.5909088795049E-02
-0.3953597904028E-03 -0.6372008324836E-02
-0.3862893578585E-03 -0.6832218299358E-02
-0.3735941175266E-03 -0.7289081940234E-02
-0.3578671288928E-03 -0.7741976145997E-02
-0.3397905805429E-03 -0.8190263735553E-02
-0.3201635681734E-03 -0.8633329611446E-02
-0.2999386071003E-03 -0.9070544396912E-02
-0.2802603557815E-03 -0.9501292316803E-02
-0.2625077183743E-03 -0.9924982589950E-02
-0.2483360109496E-03 -0.1034107037037E-01
-0.2397211046619E-03 -0.1074909852997E-01
-0.2390131287983E-03 -0.1114878866165E-01
-0.2489457609300E-03 -0.1154008468467E-01
-0.2726378612685E-03 -0.1192318527796E-01
-0.3135853120996E-03 -0.1229859414260E-01
-0.3756242119711E-03 -0.1266719844281E-01
-0.4628447002862E-03 -0.1303036504040E-01
-0.5794339098124E-03 -0.1339005078749E-01
-0.7294245943545E-03 -0.1374890272320E-01
-0.9163334329847E-03 -0.1411033008586E-01
-0.1142634196200E-02 -0.1447846897381E-01
-0.1409115923045E-02 -0.1485807657504E-01
-0.1714281267110E-02 -0.1525432978128E-01
-0.2053809718286E-02 -0.1567235689021E-01
-0.2420307726158E-02 -0.1611656685115E-01
-0.2803549912674E-02 -0.1658987996955E-01
-0.3191339169336E-02 -0.1709306176179E-01
-0.4787166355340E-04 -0.4251790519346E-03
-0.9564685311924E-04 -0.8575384362058E-03
-0.1421008328434E-03 -0.1296838412640E-02
-0.1860466029319E-03 -0.1742583609514E-02
-0.2264334857163E-03 -0.2194066362315E-02
-0.2624193373107E-03 -0.2650417843972E-02
-0.2934057123435E-03 -0.3110675110620E-02
-0.3190367660951E-03 -0.3573844125108E-02
-0.3391721041293E-03 -0.4038944844890E-02
-0.3538469412938E-03 -0.4505041003977E-02
-0.3632303244112E-03 -0.4971253221891E-02
-0.3675888269631E-03 -0.5436759744063E-02
-0.3672595982491E-03 -0.5900791248074E-02
-0.3626340507002E-03 -0.6362620005624E-02
-0.3541521270644E-03 -0.6821548206919E-02
-0.3423062757196E-03 -0.7276898350864E-02
-0.3276539417843E-03 -0.7728009818520E-02
-0.3108385845276E-03 -0.8174212919501E-02
-0.2926152382108E-03 -0.8614866735527E-02
-0.2738841495107E-03 -0.9049324985589E-02
-0.2557263509359E-03 -0.9476966135769E-02
-0.2394421969629E-03 -0.9897207366487E-02
-0.2265897069294E-03 -0.1030952830761E-01
-0.2190242237695E-03 -0.1071351445126E-01
-0.2189460580485E-03 -0.1110894383870E-01
-0.2289076855625E-03 -0.1149583348968E-01
-0.2518126136705E-03 -0.1187447712128E-01
-0.2909028463570E-03 -0.1224549901359E-01
-0.3497172205642E-03 -0.1260993229488E-01
-0.4320017090546E-03 -0.1296930934877E-01
-0.5415529953831E-03 -0.1332575915591E-01
-0.6819760819835E-03 -0.1368208634738E-01
-0.8563454045981E-03 -0.1404181402504E-01
-0.1066722722243E-02 -0.1440912694354E-01
-0.1313586375414E-02 -0.1478873998311E-01
-0.1595323723883E-02 -0.1518566523833E-01
-0.1907800947660E-02 -0.1560475711975E-01
-0.2244198520205E-02 -0.1605009982696E-01
-0.2595268622787E-02 -0.1652433538205E-01
-0.2950099781489E-02 -0.1702809414230E-01
-0.4355766673317E-04 -0.4250613785578E-03
-0.8702261050893E-04 -0.8571531225620E-03
-0.1292942552032E-03 -0.1296045263422E-02
-0.1693070336920E-03 -0.1741265639451E-02
-0.2061134515139E-03 -0.2192138933282E-02
-0.2389466082396E-03 -0.2647830221400E-02
-0.2672527187474E-03 -0.3107404377245E-02
-0.2906930515113E-03 -0.3569883754052E-02
-0.3091228840928E-03 -0.4034291051436E-02
-0.3225583968811E-03 -0.4499679552310E-02
-0.3311407502731E-03 -0.4965148376528E-02
-0.3351040946133E-03 -0.5429846079691E-02
-0.3347513309851E-03 -0.5892968348761E-02
-0.3304391332977E-03 -0.6353749749540E-02
-0.3225724590763E-03 -0.6811454251010E-02
-0.3116079327090E-03 -0.7265367502408E-02
-0.2980650956008E-03 -0.7714795106412E-02
-0.2825455560021E-03 -0.8159038446653E-02
-0.2657563344734E-03 -0.8597434174720E-02
-0.2485406206036E-03 -0.9029322208541E-02
-0.2319102130336E-03 -0.9454077948538E-02
-0.2170805359217E-03 -0.9871128647431E-02
-0.2055052490748E-03 -0.1027997971505E-01
-0.1989116089730E-03 -0.1068025953768E-01
-0.1993424256109E-03 -0.1107180190344E-01
-0.2091613658813E-03 -0.1145469492334E-01
-0.2310495068419E-03 -0.1182932336635E-01
-0.2679894436219E-03 -0.1219642527302E-01
-0.3232205088868E-03 -0.1255716920039E-01
-0.4001480917620E-03 -0.1291323814690E-01
-0.5021910513875E-03 -0.1326691390526E-01
-0.6325517624812E-03 -0.1362113609181E-01
-0.7939027297571E-03 -0.1397951867125E-01
-0.9879498930920E-03 -0.1434627540870E-01
-0.1214929062293E-02 -0.1472606847644E-01
-0.1473180632180E-02 -0.1512375215228E-01
-0.1758806932947E-02 -0.1554393483677E-01
-0.2065570789745E-02 -0.1599041989393E-01
-0.2385154716605E-02 -0.1646561486125E-01
-0.2707839533537E-02 -0.1697003866648E-01
-0.3932998087615E-04 -0.4249584266463E-03
-0.7857290764615E-04 -0.8568114469132E-03
-0.1167453736508E-03 -0.1295337339584E-02
-0.1528963663536E-03 -0.1740083404303E-02
-0.1861770877464E-03 -0.2190401671837E-02
-0.2158947756488E-03 -0.2645486286233E-02
-0.2415422772066E-03 -0.3104426451114E-02
-0.2628019546617E-03 -0.3566259363346E-02
-0.2795295218222E-03 -0.4030010858166E-02
-0.2917266881157E-03 -0.4494725727360E-02
-0.2995104823041E-03 -0.4959484616674E-02
-0.3030853065827E-03 -0.5423410025709E-02
-0.3027213636198E-03 -0.5885666554635E-02
-0.2987410818827E-03 -0.6345455023291E-02
-0.2915139707802E-03 -0.6802005076620E-02
-0.2814594985884E-03 -0.7254569285937E-02
-0.2690571568009E-03 -0.7702423081080E-02
-0.2548637652677E-03 -0.8144842305330E-02
-0.2395346115579E-03 -0.8581144284258E-02
-0.2238513305902E-03 -0.9010657841174E-02
-0.2087512358097E-03 -0.9432757481759E-02
-0.1953588702625E-03 -0.9846881981979E-02
-0.1850169845623E-03 -0.1025256303075E-01
-0.1793177997297E-03 -0.1064947124309E-01
-0.1801396542368E-03 -0.1103749443834E-01
-0.1896506503293E-03 -0.1141678872698E-01
-0.2103033899660E-03 -0.1178782482953E-01
-0.2448167454404E-03 -0.1215144670442E-01
-0.2961296224383E-03 -0.1250894709264E-01
-0.3673116103272E-03 -0.1286214462768E-01
-0.4614170226939E-03 -0.1321345553513E-01
-0.5812701630960E-03 -0.1356593407108E-01
-0.7291792574436E-03 -0.1392326570696E-01
-0.9065449970971E-03 -0.1428967822765E-01
-0.1113419837995E-02 -0.1466977535768E-01
-0.1348154081568E-02 -0.1506826341479E-01
-0.1607124672697E-02 -0.1548953183415E-01
-0.1884679553684E-02 -0.1593714182239E-01
-0.2173389014651E-02 -0.1641330324054E-01
-0.2464646151472E-02 -0.1691844405599E-01
-0.3517995174154E-04 -0.4248685812999E-03
-0.7027988366486E-04 -0.8565097841596E-03
-0.1044278102412E-03 -0.1294708847890E-02
-0.1367815065582E-03 -0.1739029359853E-02
-0.1665869729432E-03 -0.2188846393949E-02
-0.1932244520226E-03 -0.2643378883124E-02
-0.2162349032933E-03 -0.3101737139232E-02
-0.2353250572412E-03 -0.3562971616275E-02
-0.2503551245567E-03 -0.4026111422158E-02
-0.2613163339243E-03 -0.4490194464191E-02
-0.2683049376588E-03 -0.4954285588283E-02
-0.2714980282961E-03 -0.5417484579257E-02
-0.2711345532166E-03 -0.5878928636620E-02
-0.2675031766535E-03 -0.6337788639380E-02
-0.2609375533317E-03 -0.6793263686607E-02
-0.2518187723533E-03 -0.7244576927748E-02
-0.2405842853437E-03 -0.7690977081215E-02
-0.2277433916123E-03 -0.8131717634235E-02
-0.2138961859682E-03 -0.8566099409338E-02
-0.1997585719311E-03 -0.8993442461338E-02
-0.1861885145673E-03 -0.9413122078982E-02
-0.1742141861214E-03 -0.9824589396687E-02
-0.1650614195016E-03 -0.1022740213925E-01
-0.1601810796132E-03 -0.1062127163114E-01
-0.1612807750148E-03 -0.1100613710180E-01
-0.1703271088913E-03 -0.1138221862746E-01
-0.1895391116517E-03 -0.1175006684710E-01
-0.2213686678028E-03 -0.1211062299343E-01
-0.2684543732092E-03 -0.1246529228651E-01
-0.3335355928710E-03 -0.1281601417781E-01
-0.4193155077193E-03 -0.1316532203053E-01
-0.5282637944595E-03 -0.1351636660977E-01
-0.6623590035641E-03 -0.1387288883713E-01
-0.8227415658957E-03 -0.1423911948745E-01
-0.1009331546047E-02 -0.1461960179165E-01
-0.1220536258556E-02 -0.1501890590177E-01
-0.1453037068684E-02 -0.1544122814188E-01
-0.1701766148588E-02 -0.1588992179746E-01
-0.1960143427049E-02 -0.1636703045939E-01
-0.2220604999794E-02 -0.1687290870016E-01
-0.3109920896262E-04 -0.4247905788074E-03
-0.6212636395613E-04 -0.8562452898091E-03
-0.9231618588527E-04 -0.1294155231879E-02
-0.1209304226292E-03 -0.1738097572347E-02
-0.1473065165813E-03 -0.2187466701446E-02
-0.1708966122228E-03 -0.2641502547652E-02
-0.1912908826075E-03 -0.3099333566076E-02
-0.2082231078046E-03 -0.3560021885265E-02
-0.2215614326970E-03 -0.4022599834316E-02
-0.2312900621447E-03 -0.4486099755838E-02
-0.2374874355968E-03 -0.4949573068776E-02
-0.2403055277359E-03 -0.5412099920873E-02
-0.2399533512236E-03 -0.5872793590513E-02
-0.2366862623254E-03 -0.6330798665170E-02
-0.2308017050942E-03 -0.6785287350153E-02
-0.2226412785433E-03 -0.7235456905627E-02
-0.2125985722407E-03 -0.7680532651428E-02
-0.2011328565548E-03 -0.8119748703790E-02
-0.1887858568577E-03 -0.8552391934901E-02
-0.1762039160341E-03 -0.8977775598444E-02
-0.1641612035445E-03 -0.9395276984920E-02
-0.1535845190498E-03 -0.9804359855292E-02
-0.1455773327666E-03 -0.1020460705105E-01
-0.1414434731273E-03 -0.1059576832000E-01
-0.1427142661246E-03 -0.1097783088187E-01
-0.1511496639328E-03 -0.1135107393537E-01
-0.1687308864700E-03 -0.1171612123487E-01
-0.1976404477230E-03 -0.1207400203213E-01
-0.2402175266667E-03 -0.1242622205818E-01
-0.2988772635039E-03 -0.1277482709088E-01
-0.3759848118668E-03 -0.1312245148311E-01
-0.4736771257558E-03 -0.1347232647448E-01
-0.5936343836381E-03 -0.1382823530929E-01
-0.7367763092189E-03 -0.1419440404884E-01
-0.9029340968063E-03 -0.1457531628068E-01
-0.1090610887852E-02 -0.1497541904610E-01
-0.1296815464233E-02 -0.1539874009557E-01
-0.1517061031166E-02 -0.1584845530522E-01
-0.1745583185187E-02 -0.1632646910281E-01
-0.1975800922914E-02 -0.1683307757714E-01
-0.2707960909597E-04 -0.4247234393916E-03
-0.5409572825642E-04 -0.8560157516001E-03
-0.8038593580713E-04 -0.1293672939758E-02
-0.1053119572959E-03 -0.1737283420338E-02
-0.1282998172604E-03 -0.2186257652631E-02
-0.1488725299939E-03 -0.2639853185122E-02
-0.1666702934790E-03 -0.3097213891387E-02
-0.1814561200060E-03 -0.3557412023726E-02
-0.1931089740361E-03 -0.4019482944869E-02
-0.2016089995747E-03 -0.4482454521562E-02
-0.2070194072092E-03 -0.4945366862819E-02
-0.2094689940982E-03 -0.5407283323295E-02
-0.2091380249937E-03 -0.5867296548211E-02
-0.2062489695294E-03 -0.6324528331357E-02
-0.2010627512798E-03 -0.6778127509132E-02
-0.1938804833060E-03 -0.7227268859464E-02
-0.1850502488300E-03 -0.7671157468858E-02
-0.1749790208297E-03 -0.8109010875470E-02
-0.1641472823075E-03 -0.8540104299106E-02
-0.1531283570146E-03 -0.8963745826922E-02
-0.1426086114495E-03 -0.9379315548879E-02
-0.1334089810208E-03 -0.9786289605761E-02
-0.1265057085640E-03 -0.1018427442953E-01
-0.1230505512434E-03 -0.1057305522565E-01
-0.1243936913917E-03 -0.1095266308909E-01
-0.1320840149934E-03 -0.1132343081111E-01
-0.1478614555600E-03 -0.1168604783246E-01
-0.1736374933914E-03 -0.1204162171451E-01
-0.2114533138897E-03 -0.1239174661753E-01
-0.2634059300890E-03 -0.1273856058188E-01
-0.3315348942454E-03 -0.1308478394807E-01
-0.4176644692042E-03 -0.1343371432481E-01
-0.5232043146976E-03 -0.1378916670636E-01
-0.6488877759841E-03 -0.1415535749652E-01
-0.7944939852500E-03 -0.1453671373859E-01
-0.9586536844731E-03 -0.1493757320244E-01
-0.1138720714254E-02 -0.1536181829312E-01
-0.1330784777079E-02 -0.1581247487851E-01
-0.1529867148706E-02 -0.1629133183150E-01
-0.1730317825973E-02 -0.1679863926204E-01
-0.2311318942930E-04 -0.4246664110628E-03
-0.4617180349719E-04 -0.8558194658247E-03
-0.6861315917585E-04 -0.1293259230333E-02
-0.8989567459342E-04 -0.1736583343240E-02
-0.1095315504252E-03 -0.2185215480648E-02
-0.1271137367298E-03 -0.2638427790841E-02
-0.1423330475295E-03 -0.3095377058835E-02
-0.1549834892682E-03 -0.3555144157676E-02
-0.1649572416250E-03 -0.4016767199956E-02
-0.1722328937813E-03 -0.4479270481288E-02
-0.1768606459790E-03 -0.4941684703232E-02
-0.1789478056915E-03 -0.5403059067490E-02
-0.1786469352376E-03 -0.5862468700499E-02
-0.1761479965626E-03 -0.6319015957697E-02
-0.1716751258544E-03 -0.6771829708118E-02
-0.1654880721085E-03 -0.7220065532067E-02
-0.1578879546412E-03 -0.7662911306256E-02
-0.1492274346210E-03 -0.8099570603283E-02
-0.1399232014340E-03 -0.8529309053689E-02
-0.1304724920635E-03 -0.8951430909966E-02
-0.1214703229957E-03 -0.9365319480089E-02
-0.1136278021208E-03 -0.9770462578429E-02
-0.1077896728702E-03 -0.1016648816474E-01
-0.1049512324629E-03 -0.1055321334358E-01
-0.1062773314971E-03 -0.1093070837354E-01
-0.1131020630315E-03 -0.1129935353444E-01
-0.1269212685431E-03 -0.1165989602334E-01
-0.1493742986804E-03 -0.1201351167501E-01
-0.1822060778771E-03 -0.1236187099056E-01
-0.2272014053301E-03 -0.1270719068745E-01
-0.2860856721179E-03 -0.1305226318552E-01
-0.3603883576728E-03 -0.1340044008674E-01
-0.4512729316243E-03 -0.1375555975177E-01
-0.5593157064466E-03 -0.1412182624382E-01
-0.6842745105927E-03 -0.1450361489166E-01
-0.8249334683796E-03 -0.1490516849098E-01
-0.9790049094047E-03 -0.1533024610397E-01
-0.1143149875881E-02 -0.1578174840172E-01
-0.1313149197825E-02 -0.1626136943029E-01
-0.1484239513843E-02 -0.1676932369194E-01
-0.1919213006059E-04 -0.4246189238500E-03
-0.3833877442549E-04 -0.8556551363771E-03
-0.5697449145812E-04 -0.1292912013927E-02
-0.7465172677794E-04 -0.1735994633533E-02
-0.9096686696605E-04 -0.2184337357932E-02
-0.1055819794643E-03 -0.2637224212529E-02
-0.1182389191705E-03 -0.3093822578608E-02
-0.1287640916270E-03 -0.3553220501754E-02
-0.1370648507926E-03 -0.4014458494245E-02
-0.1431203137793E-03 -0.4476558040230E-02
-0.1469695382532E-03 -0.4938542158970E-02
-0.1486997789019E-03 -0.5399448364904E-02
-0.1484367949897E-03 -0.5858337226660E-02
-0.1463383719378E-03 -0.6314294886748E-02
-0.1425916322159E-03 -0.6766433533378E-02
-0.1374142028821E-03 -0.7213892718988E-02
-0.1310589761261E-03 -0.7655846002562E-02
-0.1238225529910E-03 -0.8091485439098E-02
-0.1160556150540E-03 -0.8520068921827E-02
-0.1081766529136E-03 -0.8940897931234E-02
-0.1006862634616E-03 -0.9353359077596E-02
-0.9418230696971E-04 -0.9756950740806E-02
-0.8937435680097E-04 -0.1015131988083E-01
-0.8709750479790E-04 -0.1053631143485E-01
-0.8832773382442E-04 -0.1091202961071E-01
-0.9418125745170E-04 -0.1127889560063E-01
-0.1059076020800E-03 -0.1163770603389E-01
-0.1248733211834E-03 -0.1198969475544E-01
-0.1525289253549E-03 -0.1233659658284E-01
-0.1903524889949E-03 -0.1268069381234E-01
-0.2397654481396E-03 -0.1302483803825E-01
-0.3020180966954E-03 -0.1337242399059E-01
-0.3780484956309E-03 -0.1372730685317E-01
-0.4683005348031E-03 -0.1409367749184E-01
-0.5725360318100E-03 -0.1447586566892E-01
-0.6897131473545E-03 -0.1487803374419E-01
-0.8179128129904E-03 -0.1530383833916E-01
-0.9543621719747E-03 -0.1575607759849E-01
-0.1095579276903E-02 -0.1623636909776E-01
-0.1237650120675E-02 -0.1674490025957E-01
-0.1530872247702E-04 -0.4245805528271E-03
-0.3058110788708E-04 -0.8555217931182E-03
-0.4544699388576E-04 -0.1292629723259E-02
-0.5955073556496E-04 -0.1735515266895E-02
-0.7257129786379E-04 -0.2183621201665E-02
-0.8423917408484E-04 -0.2636240951500E-02
-0.9434756011893E-04 -0.3092550342623E-02
-0.1027563599391E-03 -0.3551643200101E-02
-0.1093896688664E-03 -0.4012562041162E-02
-0.1142288211169E-03 -0.4474326185612E-02
-0.1173032631762E-03 -0.4935952551870E-02
-0.1186813860464E-03 -0.5396469287052E-02
-0.1184628965722E-03 -0.5854925231235E-02
-0.1167736833480E-03 -0.6310393425091E-02
-0.1137636678474E-03 -0.6761972559438E-02
-0.1096077198395E-03 -0.7208789225107E-02
-0.1045094419608E-03 -0.7650005437896E-02
-0.9870790306471E-04 -0.8084804037920E-02
-0.9248591264762E-04 -0.8512436848831E-02
-0.8618097758820E-04 -0.8932203409046E-02
-0.8019669708306E-04 -0.9343493428613E-02
-0.7501481834395E-04 -0.9745814402481E-02
-0.7120668092115E-04 -0.1013882937037E-01
-0.6944406375718E-04 -0.1052240661076E-01
-0.7051117616886E-04 -0.1089667865206E-01
-0.7530385961620E-04 -0.1126210064264E-01
-0.8482360457685E-04 -0.1161951001626E-01
-0.1001638050924E-03 -0.1197018821397E-01
-0.1224823516416E-03 -0.1231592244907E-01
-0.1529554581683E-03 -0.1265904796042E-01
-0.1927093792407E-03 -0.1300246349684E-01
-0.2427283757284E-03 -0.1334959733268E-01
-0.3037423438219E-03 -0.1370431644316E-01
-0.3760828600690E-03 -0.1407079908912E-01
-0.4595360576802E-03 -0.1445333660553E-01
-0.5532503603497E-03 -0.1485602555748E-01
-0.6556827943906E-03 -0.1528244007624E-01
-0.7646216967256E-03 -0.1573529670396E-01
-0.8773037657637E-03 -0.1621615297055E-01
-0.9906337767169E-03 -0.1672517620220E-01
-0.1145534382352E-04 -0.4245509880919E-03
-0.2288349060133E-04 -0.8554187256931E-03
-0.3400806271321E-04 -0.1292411208634E-02
-0.4456369584507E-04 -0.1735143763683E-02
-0.5431068061387E-04 -0.2183065513858E-02
-0.6304737820272E-04 -0.2635476997460E-02
-0.7061853223179E-04 -0.3091560469015E-02
-0.7691837924213E-04 -0.3550414190604E-02
-0.8188896727715E-04 -0.4011082260730E-02
-0.8551516834120E-04 -0.4472582396714E-02
-0.8781802575032E-04 -0.4933926884349E-02
-0.8884801187501E-04 -0.5394136705523E-02
-0.8867938174302E-04 -0.5852251692141E-02
-0.8740635287132E-04 -0.6307334797708E-02
-0.8514149654450E-04 -0.6758474310861E-02
-0.8201641439323E-04 -0.7204786838191E-02
-0.7818456320258E-04 -0.7645425526440E-02
-0.7382629217028E-04 -0.8079566180668E-02
-0.6915503493656E-04 -0.8506456068224E-02
-0.6442551128458E-04 -0.8925393421667E-02
-0.5994224743731E-04 -0.9335770610988E-02
-0.5606857574288E-04 -0.9737102514137E-02
-0.5323514871713E-04 -0.1012906500917E-01
-0.5194795673368E-04 -0.1051154488082E-01
-0.5279713950780E-04 -0.1088469701820E-01
-0.5645622653490E-04 -0.1124900327229E-01
-0.6367738411051E-04 -0.1160533302587E-01
-0.7528068559482E-04 -0.1195500480634E-01
-0.9213300274866E-04 -0.1229984642002E-01
-0.1151127673336E-03 -0.1264223382260E-01
-0.1450582400024E-03 -0.1298510164327E-01
-0.1826982608822E-03 -0.1333190316437E-01
-0.2285682963699E-03 -0.1368651332428E-01
-0.2829034284585E-03 -0.1405309949159E-01
-0.3455298791993E-03 -0.1443592244322E-01
-0.4157986898441E-03 -0.1483902761264E-01
-0.4925483899092E-03 -0.1526592580153E-01
-0.5741242459232E-03 -0.1571927148427E-01
-0.6584667575652E-03 -0.1620057703464E-01
-0.7432753459825E-03 -0.1670999541777E-01
-0.7624434971732E-05 -0.4245300116651E-03
-0.1523077422246E-04 -0.8553454324801E-03
-0.2263534654957E-04 -0.1292255656794E-02
-0.2966188398699E-04 -0.1734879081084E-02
-0.3615108278148E-04 -0.2182669255918E-02
-0.4196875141787E-04 -0.2634931697740E-02
-0.4701131774857E-04 -0.3090853177715E-02
-0.5120795074696E-04 -0.3549535094967E-02
-0.5451953532177E-04 -0.4010022687580E-02
-0.5693545383358E-04 -0.4471332570060E-02
-0.5846924218265E-04 -0.4932473778417E-02
-0.5915415893397E-04 -0.5392462240686E-02
-0.5903945752388E-04 -0.5850331415665E-02
-0.5818785467398E-04 -0.6305137107622E-02
-0.5667445984920E-04 -0.6755960227257E-02
-0.5458722187232E-04 -0.7201910302502E-02
-0.5202880575414E-04 -0.7642134204424E-02
-0.4911994474630E-04 -0.8075802784753E-02
-0.4600356164532E-04 -0.8502160145313E-02
-0.4285022880647E-04 -0.8920503696305E-02
-0.3986383568311E-04 -0.9330227841657E-02
-0.3728756811350E-04 -0.9730852890414E-02
-0.3540955072430E-04 -0.1012206406845E-01
-0.3456813514478E-04 -0.1050376156672E-01
-0.3515768683902E-04 -0.1087611642303E-01
-0.3762800091460E-04 -0.1123962971484E-01
-0.4248100564026E-04 -0.1159519375438E-01
-0.5026340815302E-04 -0.1194415358881E-01
-0.6155235916215E-04 -0.1228836592671E-01
-0.7693167404086E-04 -0.1263023555342E-01
-0.9695710489941E-04 -0.1297272229667E-01
-0.1221100777250E-03 -0.1331929672326E-01
-0.1527418896914E-03 -0.1367383882081E-01
-0.1890028321553E-03 -0.1404050760962E-01
-0.2307707630722E-03 -0.1442354169775E-01
-0.2776082498995E-03 -0.1482695003119E-01
-0.3287390516251E-03 -0.1525419862249E-01
-0.3830619766215E-03 -0.1570789835473E-01
-0.4392102013329E-03 -0.1618953016649E-01
-0.4956598771585E-03 -0.1669923743938E-01
-0.3808482020014E-05 -0.4245174799202E-03
-0.7607928659993E-05 -0.8553015818371E-03
-0.1130667613232E-04 -0.1292162529312E-02
-0.1481678084821E-04 -0.1734720531024E-02
-0.1805874057455E-04 -0.2182431752701E-02
-0.2096552994058E-04 -0.2634604656603E-02
-0.2348534350653E-04 -0.3090428693880E-02
-0.2558267056956E-04 -0.3549007132678E-02
-0.2723781082421E-04 -0.4009385898419E-02
-0.2844529679224E-04 -0.4470580960214E-02
-0.2921174914020E-04 -0.4931599427609E-02
-0.2955368049989E-04 -0.5391454221886E-02
-0.2949564265147E-04 -0.5849175002556E-02
-0.2906896543006E-04 -0.6303813306873E-02
-0.2831122214518E-04 -0.6754445639900E-02
-0.2726645162030E-04 -0.7200177303825E-02
-0.2598609471787E-04 -0.7640151428345E-02
-0.2453066852111E-04 -0.8073535922138E-02
-0.2297182494123E-04 -0.8499573023559E-02
-0.2139507834069E-04 -0.8917559693766E-02
-0.1990263543969E-04 -0.9326891610806E-02
-0.1861637871484E-04 -0.9727092405471E-02
-0.1768067737718E-04 -0.1011785298328E-01
-0.1726501422187E-04 -0.1049908165362E-01
-0.1756685260860E-04 -0.1087095921362E-01
-0.1881132078152E-04 -0.1123399833695E-01
-0.2124952501645E-04 -0.1158910513557E-01
-0.2515481197619E-04 -0.1193764057844E-01
-0.3081552234569E-04 -0.1228147867626E-01
-0.3852301604023E-04 -0.1262304140874E-01
-0.4855423741833E-04 -0.1296530354945E-01
-0.6114855685776E-04 -0.1331174580493E-01
-0.7647992147958E-04 -0.1366625093931E-01
-0.9462155730719E-04 -0.1403297274089E-01
-0.1155105222961E-03 -0.1441613638458E-01
-0.1389266820005E-03 -0.1481972894143E-01
-0.1644813558147E-03 -0.1524718972950E-01
-0.1916245475326E-03 -0.1570110377215E-01
-0.2196746979730E-03 -0.1618293347206E-01
-0.2478728334858E-03 -0.1669281672869E-01
 0.2209413275706E-13 -0.4245133114526E-03
 0.9036532373080E-13 -0.8552869853125E-03
 0.2030162875918E-12 -0.1292131519919E-02
 0.3565273618868E-12 -0.1734667723136E-02
 0.5458769287287E-12 -0.2182352625569E-02
 0.7648789370970E-12 -0.2634495664612E-02
 0.1006578934787E-11 -0.3090287179740E-02
 0.1263680783278E-11 -0.3548831059880E-02
 0.1528911329138E-11 -0.4009173460118E-02
 0.1795342954164E-11 -0.4470330137106E-02
 0.2056616162094E-11 -0.4931307562111E-02
 0.2307086379577E-11 -0.5391117658409E-02
 0.2541967070863E-11 -0.5848788823185E-02
 0.2757449650559E-11 -0.6303371175128E-02
 0.2950795857659E-11 -0.6753939754300E-02
 0.3120483038632E-11 -0.7199598457914E-02
 0.3266553694203E-11 -0.7639489172573E-02
 0.3390777242318E-11 -0.8072778830793E-02
 0.3497212068548E-11 -0.8498709055771E-02
 0.3592636604877E-11 -0.8916576666401E-02
 0.3687248423256E-11 -0.9325777774415E-02
 0.3795342512491E-11 -0.9725837128372E-02
 0.3936092771162E-11 -0.1011644753883E-01
 0.4134470543704E-11 -0.1049752003373E-01
 0.4422059940445E-11 -0.1086923867495E-01
 0.4837744788100E-11 -0.1123212001149E-01
 0.5428083330039E-11 -0.1158707476211E-01
 0.6247200673437E-11 -0.1193546920450E-01
 0.7356251024992E-11 -0.1227918311000E-01
 0.8821634395195E-11 -0.1262064417230E-01
 0.1071235808392E-10 -0.1296283211798E-01
 0.1309537894789E-10 -0.1330923099502E-01
 0.1603008351059E-10 -0.1366372445113E-01
 0.1955833064948E-10 -0.1403046449386E-01
 0.2369957702308E-10 -0.1441367179892E-01
 0.2844320959317E-10 -0.1481732614895E-01
 0.3374266838163E-10 -0.1524485799376E-01
 0.3951221294596E-10 -0.1569884378578E-01
 0.4563176225769E-10 -0.1618073980298E-01
 0.5195126273616E-10 -0.1669068216196E-01
 0.3808482064207E-05 -0.4245174799183E-03
 0.7607928840811E-05 -0.8553015818340E-03
 0.1130667653860E-04 -0.1292162529308E-02
 0.1481678156173E-04 -0.1734720531022E-02
 0.1805874166704E-04 -0.2182431752701E-02
 0.2096553147136E-04 -0.2634604656608E-02
 0.2348534552102E-04 -0.3090428693891E-02
 0.2558267309855E-04 -0.3549007132698E-02
 0.2723781388397E-04 -0.4009385898450E-02
 0.2844530038516E-04 -0.4470580960257E-02
 0.2921175325597E-04 -0.4931599427668E-02
 0.2955368511693E-04 -0.5391454221963E-02
 0.2949564773863E-04 -0.5849175002654E-02
 0.2906897094859E-04 -0.6303813306997E-02
 0.2831122805084E-04 -0.6754445640054E-02
 0.2726645786579E-04 -0.7200177304016E-02
 0.2598610125599E-04 -0.7640151428579E-02
 0.2453067530814E-04 -0.8073535922423E-02
 0.2297183194153E-04 -0.8499573023904E-02
 0.2139508553214E-04 -0.8917559694179E-02
 0.1990264282046E-04 -0.9326891611298E-02
 0.1861638631161E-04 -0.9727092406052E-02
 0.1768068525490E-04 -0.1011785298396E-01
 0.1726502249528E-04 -0.1049908165441E-01
 0.1756686145551E-04 -0.1087095921452E-01
 0.1881133045740E-04 -0.1123399833797E-01
 0.2124953586972E-04 -0.1158910513671E-01
 0.2515482446355E-04 -0.1193764057970E-01
 0.3081553704610E-04 -0.1228147867764E-01
 0.3852303366562E-04 -0.1262304141023E-01
 0.4855425881882E-04 -0.1296530355104E-01
 0.6114858301786E-04 -0.1331174580660E-01
 0.7647995350318E-04 -0.1366625094103E-01
 0.9462159638263E-04 -0.1403297274265E-01
 0.1155105696514E-03 -0.1441613638635E-01
 0.1389267388433E-03 -0.1481972894321E-01
 0.1644814232598E-03 -0.1524718973127E-01
 0.1916246265232E-03 -0.1570110377392E-01
 0.2196747892117E-03 -0.1618293347382E-01
 0.2478729373739E-03 -0.1669281673045E-01
 0.7624435015940E-05 -0.4245300116614E-03
 0.1523077440354E-04 -0.8553454324739E-03
 0.2263534695657E-04 -0.1292255656787E-02
 0.2966188470190E-04 -0.1734879081079E-02
 0.3615108387615E-04 -0.2182669255920E-02
 0.4196875295171E-04 -0.2634931697750E-02
 0.4701131976703E-04 -0.3090853177738E-02
 0.5120795328083E-04 -0.3549535095007E-02
 0.5451953838730E-04 -0.4010022687641E-02
 0.5693545743318E-04 -0.4471332570146E-02
 0.5846924630603E-04 -0.4932473778534E-02
 0.5915416355961E-04 -0.5392462240838E-02
 0.5903946262073E-04 -0.5850331415861E-02
 0.5818786020339E-04 -0.6305137107869E-02
 0.5667446576702E-04 -0.6755960227565E-02
 0.5458722813139E-04 -0.7201910302882E-02
 0.5202881230726E-04 -0.7642134204891E-02
 0.4911995154972E-04 -0.8075802785322E-02
 0.4600356866325E-04 -0.8502160146001E-02
 0.4285023601642E-04 -0.8920503697130E-02
 0.3986384308269E-04 -0.9330227842639E-02
 0.3728757572857E-04 -0.9730852891573E-02
 0.3540955861864E-04 -0.1012206406981E-01
 0.3456814343164E-04 -0.1050376156829E-01
 0.3515769569437E-04 -0.1087611642482E-01
 0.3762801059170E-04 -0.1123962971688E-01
 0.4248101648502E-04 -0.1159519375667E-01
 0.5026342061943E-04 -0.1194415359134E-01
 0.6155237382650E-04 -0.1228836592947E-01
 0.7693169161275E-04 -0.1263023555641E-01
 0.9695712622738E-04 -0.1297272229984E-01
 0.1221101037933E-03 -0.1331929672659E-01
 0.1527419216054E-03 -0.1367383882426E-01
 0.1890028711072E-03 -0.1404050761314E-01
 0.2307708102961E-03 -0.1442354170130E-01
 0.2776083066113E-03 -0.1482695003476E-01
 0.3287391189490E-03 -0.1525419862604E-01
 0.3830620555103E-03 -0.1570789835827E-01
 0.4392102924969E-03 -0.1618953017003E-01
 0.4956599810036E-03 -0.1669923744292E-01
 0.1145534386775E-04 -0.4245509880863E-03
 0.2288349078284E-04 -0.8554187256838E-03
 0.3400806312144E-04 -0.1292411208624E-02
 0.4456369656230E-04 -0.1735143763676E-02
 0.5431068171219E-04 -0.2183065513860E-02
 0.6304737974167E-04 -0.2635476997475E-02
 0.7061853425686E-04 -0.3091560469050E-02
 0.7691838178412E-04 -0.3550414190664E-02
 0.8188897035229E-04 -0.4011082260820E-02
 0.8551517195191E-04 -0.4472582396842E-02
 0.8781802988634E-04 -0.4933926884523E-02
 0.8884801651493E-04 -0.5394136705750E-02
 0.8867938685595E-04 -0.5852251692433E-02
 0.8740635841878E-04 -0.6307334798076E-02
 0.8514150248255E-04 -0.6758474311321E-02
 0.8201642067486E-04 -0.7204786838759E-02
 0.7818456978066E-04 -0.7645425527136E-02
 0.7382629900098E-04 -0.8079566181517E-02
 0.6915504198383E-04 -0.8506456069250E-02
 0.6442551852537E-04 -0.8925393422899E-02
 0.5994225486828E-04 -0.9335770612455E-02
 0.5606858338851E-04 -0.9737102515869E-02
 0.5323515663931E-04 -0.1012906501120E-01
 0.5194796504318E-04 -0.1051154488316E-01
 0.5279714837751E-04 -0.1088469702089E-01
 0.5645623621442E-04 -0.1124900327535E-01
 0.6367739494154E-04 -0.1160533302930E-01
 0.7528069802684E-04 -0.1195500481013E-01
 0.9213301735348E-04 -0.1229984642417E-01
 0.1151127848169E-03 -0.1264223382708E-01
 0.1450582612100E-03 -0.1298510164803E-01
 0.1826982867978E-03 -0.1333190316937E-01
 0.2285683281015E-03 -0.1368651332946E-01
 0.2829034672043E-03 -0.1405309949689E-01
 0.3455299262037E-03 -0.1443592244857E-01
 0.4157987463369E-03 -0.1483902761801E-01
 0.4925484570306E-03 -0.1526592580689E-01
 0.5741243246418E-03 -0.1571927148961E-01
 0.6584668486046E-03 -0.1620057703998E-01
 0.7432754497559E-03 -0.1670999542311E-01
 0.1530872252129E-04 -0.4245805528197E-03
 0.3058110806921E-04 -0.8555217931059E-03
 0.4544699429571E-04 -0.1292629723246E-02
 0.5955073628544E-04 -0.1735515266887E-02
 0.7257129896723E-04 -0.2183621201668E-02
 0.8423917563095E-04 -0.2636240951520E-02
 0.9434756215326E-04 -0.3092550342669E-02
 0.1027563624924E-03 -0.3551643200180E-02
 0.1093896719550E-03 -0.4012562041282E-02
 0.1142288247431E-03 -0.4474326185782E-02
 0.1173032673298E-03 -0.4935952552100E-02
 0.1186813907062E-03 -0.5396469287354E-02
 0.1184629017076E-03 -0.5854925231621E-02
 0.1167736889206E-03 -0.6310393425579E-02
 0.1137636738137E-03 -0.6761972560046E-02
 0.1096077261526E-03 -0.7208789225859E-02
 0.1045094485737E-03 -0.7650005438819E-02
 0.9870790993354E-04 -0.8084804039044E-02
 0.9248591973592E-04 -0.8512436850191E-02
 0.8618098487215E-04 -0.8932203410679E-02
 0.8019670455803E-04 -0.9343493430558E-02
 0.7501482603254E-04 -0.9745814404779E-02
 0.7120668888258E-04 -0.1013882937306E-01
 0.6944407209880E-04 -0.1052240661388E-01
 0.7051118505929E-04 -0.1089667865564E-01
 0.7530386929988E-04 -0.1126210064670E-01
 0.8482361538963E-04 -0.1161951002082E-01
 0.1001638174774E-03 -0.1197018821902E-01
 0.1224823661644E-03 -0.1231592245460E-01
 0.1529554755289E-03 -0.1265904796639E-01
 0.1927094002811E-03 -0.1300246350321E-01
 0.2427284014313E-03 -0.1334959733937E-01
 0.3037423752985E-03 -0.1370431645009E-01
 0.3760828985262E-03 -0.1407079909621E-01
 0.4595361043768E-03 -0.1445333661271E-01
 0.5532504165349E-03 -0.1485602556468E-01
 0.6556828612272E-03 -0.1528244008343E-01
 0.7646217752050E-03 -0.1573529671112E-01
 0.8773038566279E-03 -0.1621615297772E-01
 0.9906338803901E-03 -0.1672517620938E-01
 0.1919213010490E-04 -0.4246189238407E-03
 0.3833877460841E-04 -0.8556551363617E-03
 0.5697449187027E-04 -0.1292912013910E-02
 0.7465172750262E-04 -0.1735994633523E-02
 0.9096686807607E-04 -0.2184337357935E-02
 0.1055819810196E-03 -0.2637224212555E-02
 0.1182389212167E-03 -0.3093822578665E-02
 0.1287640941949E-03 -0.3553220501852E-02
 0.1370648538983E-03 -0.4014458494395E-02
 0.1431203174253E-03 -0.4476558040442E-02
 0.1469695424294E-03 -0.4938542159255E-02
 0.1486997835872E-03 -0.5399448365278E-02
 0.1484368001537E-03 -0.5858337227139E-02
 0.1463383775426E-03 -0.6314294887352E-02
 0.1425916382182E-03 -0.6766433534131E-02
 0.1374142092354E-03 -0.7213892719919E-02
 0.1310589827836E-03 -0.7655846003704E-02
 0.1238225599087E-03 -0.8091485440491E-02
 0.1160556221950E-03 -0.8520068923512E-02
 0.1081766602531E-03 -0.8940897933259E-02
 0.1006862709933E-03 -0.9353359080010E-02
 0.9418231471378E-04 -0.9756950743659E-02
 0.8937436481336E-04 -0.1015131988418E-01
 0.8709751318156E-04 -0.1053631143873E-01
 0.8832774274250E-04 -0.1091202961517E-01
 0.9418126714207E-04 -0.1127889560569E-01
 0.1059076128710E-03 -0.1163770603957E-01
 0.1248733335100E-03 -0.1198969476175E-01
 0.1525289397744E-03 -0.1233659658976E-01
 0.1903525061999E-03 -0.1268069381982E-01
 0.2397654689669E-03 -0.1302483804622E-01
 0.3020181221263E-03 -0.1337242399898E-01
 0.3780485267806E-03 -0.1372730686188E-01
 0.4683005728893E-03 -0.1409367750075E-01
 0.5725360781098E-03 -0.1447586567795E-01
 0.6897132031423E-03 -0.1487803375326E-01
 0.8179128794585E-03 -0.1530383834822E-01
 0.9543622501442E-03 -0.1575607760753E-01
 0.1095579367541E-02 -0.1623636910680E-01
 0.1237650224220E-02 -0.1674490026864E-01
 0.2311318947367E-04 -0.4246664110516E-03
 0.4617180368107E-04 -0.8558194658063E-03
 0.6861315959071E-04 -0.1293259230313E-02
 0.8989567532325E-04 -0.1736583343228E-02
 0.1095315515432E-03 -0.2185215480652E-02
 0.1271137382964E-03 -0.2638427790871E-02
 0.1423330495903E-03 -0.3095377058904E-02
 0.1549834918538E-03 -0.3555144157794E-02
 0.1649572447516E-03 -0.4016767200134E-02
 0.1722328974514E-03 -0.4479270481540E-02
 0.1768606501825E-03 -0.4941684703572E-02
 0.1789478104076E-03 -0.5403059067933E-02
 0.1786469404363E-03 -0.5862468701067E-02
 0.1761480022064E-03 -0.6319015958413E-02
 0.1716751319004E-03 -0.6771829709011E-02
 0.1654880785107E-03 -0.7220065533172E-02
 0.1578879613529E-03 -0.7662911307612E-02
 0.1492274415981E-03 -0.8099570604936E-02
 0.1399232086391E-03 -0.8529309055690E-02
 0.1304724994707E-03 -0.8951430912373E-02
 0.1214703305968E-03 -0.9365319482960E-02
 0.1136278099331E-03 -0.9770462581826E-02
 0.1077896809456E-03 -0.1016648816872E-01
 0.1049512408990E-03 -0.1055321334820E-01
 0.1062773404505E-03 -0.1093070837886E-01
 0.1131020727321E-03 -0.1129935354049E-01
 0.1269212793100E-03 -0.1165989603014E-01
 0.1493743109385E-03 -0.1201351168257E-01
 0.1822060921736E-03 -0.1236187099886E-01
 0.2272014223484E-03 -0.1270719069644E-01
 0.2860856926880E-03 -0.1305226319513E-01
 0.3603883827739E-03 -0.1340044009686E-01
 0.4512729623759E-03 -0.1375555976228E-01
 0.5593157440793E-03 -0.1412182625459E-01
 0.6842745564059E-03 -0.1450361490259E-01
 0.8249335236787E-03 -0.1490516850197E-01
 0.9790049754189E-03 -0.1533024611496E-01
 0.1143149953669E-02 -0.1578174841270E-01
 0.1313149288184E-02 -0.1626136944127E-01
 0.1484239617231E-02 -0.1676932370297E-01
 0.2707960914040E-04 -0.4247234393786E-03
 0.5409572844145E-04 -0.8560157515786E-03
 0.8038593622520E-04 -0.1293672939736E-02
 0.1053119580318E-03 -0.1737283420323E-02
 0.1282998183881E-03 -0.2186257652635E-02
 0.1488725315737E-03 -0.2639853185157E-02
 0.1666702955569E-03 -0.3097213891467E-02
 0.1814561226126E-03 -0.3557412023862E-02
 0.1931089771874E-03 -0.4019482945075E-02
 0.2016090032730E-03 -0.4482454521853E-02
 0.2070194114448E-03 -0.4945366863210E-02
 0.2094689988505E-03 -0.5407283323807E-02
 0.2091380302330E-03 -0.5867296548865E-02
 0.2062489752189E-03 -0.6324528332182E-02
 0.2010627573771E-03 -0.6778127510160E-02
 0.1938804897655E-03 -0.7227268860735E-02
 0.1850502556053E-03 -0.7671157470419E-02
 0.1749790278768E-03 -0.8109010877374E-02
 0.1641472895883E-03 -0.8540104301413E-02
 0.1531283645018E-03 -0.8963745829698E-02
 0.1426086191329E-03 -0.9379315552194E-02
 0.1334089889142E-03 -0.9786289609687E-02
 0.1265057167148E-03 -0.1018427443414E-01
 0.1230505597431E-03 -0.1057305523101E-01
 0.1243937003890E-03 -0.1095266309526E-01
 0.1320840247089E-03 -0.1132343081814E-01
 0.1478614663020E-03 -0.1168604784037E-01
 0.1736375055730E-03 -0.1204162172332E-01
 0.2114533280456E-03 -0.1239174662721E-01
 0.2634059468915E-03 -0.1273856059239E-01
 0.3315349145162E-03 -0.1308478395931E-01
 0.4176644939191E-03 -0.1343371433668E-01
 0.5232043449807E-03 -0.1378916671870E-01
 0.6488878130808E-03 -0.1415535750919E-01
 0.7944940304860E-03 -0.1453671375146E-01
 0.9586537391905E-03 -0.1493757321539E-01
 0.1138720779727E-02 -0.1536181830609E-01
 0.1330784854410E-02 -0.1581247489148E-01
 0.1529867238733E-02 -0.1629133184450E-01
 0.1730317929177E-02 -0.1679863927511E-01
 0.3109920900711E-04 -0.4247905787925E-03
 0.6212636414250E-04 -0.8562452897846E-03
 0.9231618630709E-04 -0.1294155231853E-02
 0.1209304233722E-03 -0.1738097572330E-02
 0.1473065177200E-03 -0.2187466701451E-02
 0.1708966138181E-03 -0.2641502547693E-02
 0.1912908847051E-03 -0.3099333566167E-02
 0.2082231104352E-03 -0.3560021885420E-02
 0.2215614358764E-03 -0.4022599834550E-02
 0.2312900658754E-03 -0.4486099756167E-02
 0.2374874398690E-03 -0.4949573069218E-02
 0.2403055325293E-03 -0.5412099921450E-02
 0.2399533565093E-03 -0.5872793591249E-02
 0.2366862680669E-03 -0.6330798666097E-02
 0.2308017112500E-03 -0.6785287351309E-02
 0.2226412850684E-03 -0.7235456907056E-02
 0.2125985790889E-03 -0.7680532653183E-02
 0.2011328636821E-03 -0.8119748705933E-02
 0.1887858642254E-03 -0.8552391937500E-02
 0.1762039236136E-03 -0.8977775601574E-02
 0.1641612113230E-03 -0.9395276988662E-02
 0.1535845270377E-03 -0.9804359859729E-02
 0.1455773410057E-03 -0.1020460705627E-01
 0.1414434817024E-03 -0.1059576832607E-01
 0.1427142751755E-03 -0.1097783088887E-01
 0.1511496736694E-03 -0.1135107394335E-01
 0.1687308971882E-03 -0.1171612124388E-01
 0.1976404598219E-03 -0.1207400204218E-01
 0.2402175406669E-03 -0.1242622206925E-01
 0.2988772800641E-03 -0.1277482710291E-01
 0.3759848317985E-03 -0.1312245149600E-01
 0.4736771500302E-03 -0.1347232648811E-01
 0.5936344133837E-03 -0.1382823532350E-01
 0.7367763456973E-03 -0.1419440406346E-01
 0.9029341413732E-03 -0.1457531629555E-01
 0.1090610941893E-02 -0.1497541906109E-01
 0.1296815529073E-02 -0.1539874011059E-01
 0.1517061107965E-02 -0.1584845532026E-01
 0.1745583274828E-02 -0.1632646911791E-01
 0.1975801025905E-02 -0.1683307759235E-01
 0.3517995178610E-04 -0.4248685812832E-03
 0.7027988385274E-04 -0.8565097841321E-03
 0.1044278106673E-03 -0.1294708847861E-02
 0.1367815073093E-03 -0.1739029359835E-02
 0.1665869740945E-03 -0.2188846393955E-02
 0.1932244536353E-03 -0.2643378883171E-02
 0.2162349054133E-03 -0.3101737139334E-02
 0.2353250598988E-03 -0.3562971616449E-02
 0.2503551277679E-03 -0.4026111422419E-02
 0.2613163376912E-03 -0.4490194464556E-02
 0.2683049419720E-03 -0.4954285588773E-02
 0.2714980331357E-03 -0.5417484579895E-02
 0.2711345585540E-03 -0.5878928637434E-02
 0.2675031824534E-03 -0.6337788640404E-02
 0.2609375595530E-03 -0.6793263687884E-02
 0.2518187789517E-03 -0.7244576929327E-02
 0.2405842922737E-03 -0.7690977083154E-02
 0.2277433988299E-03 -0.8131717636604E-02
 0.2138961934340E-03 -0.8566099412214E-02
 0.1997585796150E-03 -0.8993442464805E-02
 0.1861885224540E-03 -0.9413122083131E-02
 0.1742141942171E-03 -0.9824589401614E-02
 0.1650614278424E-03 -0.1022740214505E-01
 0.1601810882762E-03 -0.1062127163790E-01
 0.1612807841301E-03 -0.1100613710961E-01
 0.1703271186567E-03 -0.1138221863638E-01
 0.1895391223490E-03 -0.1175006685719E-01
 0.2213686798154E-03 -0.1211062300471E-01
 0.2684543870413E-03 -0.1246529229896E-01
 0.3335356091655E-03 -0.1281601419137E-01
 0.4193155272751E-03 -0.1316532204510E-01
 0.5282638182416E-03 -0.1351636662521E-01
 0.6623590327048E-03 -0.1387288885326E-01
 0.8227416016739E-03 -0.1423911950408E-01
 0.1009331589852E-02 -0.1461960180859E-01
 0.1220536311822E-02 -0.1501890591887E-01
 0.1453037132799E-02 -0.1544122815905E-01
 0.1701766224775E-02 -0.1588992181467E-01
 0.1960143516246E-02 -0.1636703047668E-01
 0.2220605102545E-02 -0.1687290871761E-01
 0.3932998092080E-04 -0.4249584266278E-03
 0.7857290783573E-04 -0.8568114468827E-03
 0.1167453740817E-03 -0.1295337339552E-02
 0.1528963671138E-03 -0.1740083404284E-02
 0.1861770889119E-03 -0.2190401671845E-02
 0.2158947772811E-03 -0.2645486286285E-02
 0.2415422793515E-03 -0.3104426451227E-02
 0.2628019573495E-03 -0.3566259363537E-02
 0.2795295250684E-03 -0.4030010858453E-02
 0.2917266919226E-03 -0.4494725727761E-02
 0.2995104866625E-03 -0.4959484617210E-02
 0.3030853114731E-03 -0.5423410026405E-02
 0.3027213690143E-03 -0.5885666555522E-02
 0.2987410877467E-03 -0.6345455024405E-02
 0.2915139770737E-03 -0.6802005078009E-02
 0.2814595052679E-03 -0.7254569287654E-02
 0.2690571638214E-03 -0.7702423083191E-02
 0.2548637725853E-03 -0.8144842307910E-02
 0.2395346191327E-03 -0.8581144287393E-02
 0.2238513383906E-03 -0.9010657844959E-02
 0.2087512438175E-03 -0.9432757486295E-02
 0.1953588784797E-03 -0.9846881987373E-02
 0.1850169930188E-03 -0.1025256303711E-01
 0.1793178084941E-03 -0.1064947125052E-01
 0.1801396634284E-03 -0.1103749444694E-01
 0.1896506601329E-03 -0.1141678873683E-01
 0.2103034006477E-03 -0.1178782484069E-01
 0.2448167573660E-03 -0.1215144671692E-01
 0.2961296360931E-03 -0.1250894710646E-01
 0.3673116263360E-03 -0.1286214464278E-01
 0.4614170418404E-03 -0.1321345555140E-01
 0.5812701863369E-03 -0.1356593408835E-01
 0.7291792859138E-03 -0.1392326572505E-01
 0.9065450320938E-03 -0.1428967824635E-01
 0.1113419880944E-02 -0.1466977537677E-01
 0.1348154133960E-02 -0.1506826343409E-01
 0.1607124735989E-02 -0.1548953185356E-01
 0.1884679629174E-02 -0.1593714184187E-01
 0.2173389103345E-02 -0.1641330326015E-01
 0.2464646253955E-02 -0.1691844407581E-01
 0.4355766677790E-04 -0.4250613785374E-03
 0.8702261070041E-04 -0.8571531225287E-03
 0.1292942556395E-03 -0.1296045263387E-02
 0.1693070344623E-03 -0.1741265639430E-02
 0.2061134526951E-03 -0.2192138933291E-02
 0.2389466098935E-03 -0.2647830221458E-02
 0.2672527209198E-03 -0.3107404377369E-02
 0.2906930542322E-03 -0.3569883754261E-02
 0.3091228873774E-03 -0.4034291051749E-02
 0.3225584007318E-03 -0.4499679552744E-02
 0.3311407546807E-03 -0.4965148377107E-02
 0.3351040995589E-03 -0.5429846080442E-02
 0.3347513364416E-03 -0.5892968349715E-02
 0.3304391392314E-03 -0.6353749750737E-02
 0.3225724654483E-03 -0.6811454252501E-02
 0.3116079394768E-03 -0.7265367504253E-02
 0.2980651027201E-03 -0.7714795108680E-02
 0.2825455634292E-03 -0.8159038449428E-02
 0.2657563421680E-03 -0.8597434178095E-02
 0.2485406285325E-03 -0.9029322212622E-02
 0.2319102211757E-03 -0.9454077953437E-02
 0.2170805442743E-03 -0.9871128653266E-02
 0.2055052576614E-03 -0.1027997972194E-01
 0.1989116178531E-03 -0.1068025954575E-01
 0.1993424348924E-03 -0.1107180191280E-01
 0.2091613757345E-03 -0.1145469493408E-01
 0.2310495175158E-03 -0.1182932337855E-01
 0.2679894554628E-03 -0.1219642528671E-01
 0.3232205223588E-03 -0.1255716921559E-01
 0.4001481074691E-03 -0.1291323816354E-01
 0.5021910700955E-03 -0.1326691392324E-01
 0.6325517851357E-03 -0.1362113611096E-01
 0.7939027574941E-03 -0.1397951869136E-01
 0.9879499272267E-03 -0.1434627542953E-01
 0.1214929104291E-02 -0.1472606849775E-01
 0.1473180683594E-02 -0.1512375217388E-01
 0.1758806995315E-02 -0.1554393485852E-01
 0.2065570864452E-02 -0.1599041991580E-01
 0.2385154804734E-02 -0.1646561488330E-01
 0.2707839635724E-02 -0.1697003868882E-01
 0.4787166359822E-04 -0.4251790519124E-03
 0.9564685331282E-04 -0.8575384361697E-03
 0.1421008332856E-03 -0.1296838412602E-02
 0.1860466037135E-03 -0.1742583609492E-02
 0.2264334869150E-03 -0.2194066362326E-02
 0.2624193389885E-03 -0.2650417844036E-02
 0.2934057145459E-03 -0.3110675110756E-02
 0.3190367688519E-03 -0.3573844125335E-02
 0.3391721074555E-03 -0.4038944845227E-02
 0.3538469451916E-03 -0.4505041004444E-02
 0.3632303288716E-03 -0.4971253222510E-02
 0.3675888319679E-03 -0.5436759744863E-02
 0.3672596037721E-03 -0.5900791249089E-02
 0.3626340567088E-03 -0.6362620006897E-02
 0.3541521335209E-03 -0.6821548208503E-02
 0.3423062825826E-03 -0.7276898352823E-02
 0.3276539490103E-03 -0.7728009820930E-02
 0.3108385920733E-03 -0.8174212922453E-02
 0.2926152460354E-03 -0.8614866739123E-02
 0.2738841575797E-03 -0.9049324989941E-02
 0.2557263592252E-03 -0.9476966141004E-02
 0.2394422054651E-03 -0.9897207372735E-02
 0.2265897156610E-03 -0.1030952831500E-01
 0.2190242327805E-03 -0.1071351445994E-01
 0.2189460674346E-03 -0.1110894384879E-01
 0.2289076954786E-03 -0.1149583350128E-01
 0.2518126243470E-03 -0.1187447713449E-01
 0.2909028581188E-03 -0.1224549902847E-01
 0.3497172338519E-03 -0.1260993231143E-01
 0.4320017244485E-03 -0.1296930936695E-01
 0.5415530136279E-03 -0.1332575917562E-01
 0.6819761040107E-03 -0.1368208636844E-01
 0.8563454315421E-03 -0.1404181404722E-01
 0.1066722755436E-02 -0.1440912696658E-01
 0.1313586416365E-02 -0.1478874000675E-01
 0.1595323774212E-02 -0.1518566526233E-01
 0.1907801008997E-02 -0.1560475714397E-01
 0.2244198594034E-02 -0.1605009985135E-01
 0.2595268710284E-02 -0.1652433540669E-01
 0.2950099883351E-02 -0.1702809416731E-01
 0.5228097868302E-04 -0.4253134962748E-03
 0.1044643391299E-03 -0.8579719768965E-03
 0.1551926954360E-03 -0.1297724102009E-02
 0.2031494360324E-03 -0.1744046830775E-02
 0.2471755799886E-03 -0.2196194321966E-02
 0.2863527472641E-03 -0.2653258375955E-02
 0.3200404394546E-03 -0.3114244484032E-02
 0.3478705195875E-03 -0.3578140775866E-02
 0.3697124779712E-03 -0.4043965203304E-02
 0.3856257394694E-03 -0.4510794342924E-02
 0.3958113936906E-03 -0.4977773744582E-02
 0.4005713317060E-03 -0.5444115297131E-02
 0.4002785861491E-03 -0.5909088796119E-02
 0.3953597964911E-03 -0.6372008326176E-02
 0.3862893644049E-03 -0.6832218301024E-02
 0.3735941244911E-03 -0.7289081942294E-02
 0.3578671362330E-03 -0.7741976148534E-02
 0.3397905882158E-03 -0.8190263738663E-02
 0.3201635761382E-03 -0.8633329615239E-02
 0.2999386153208E-03 -0.9070544401511E-02
 0.2802603642310E-03 -0.9501292322344E-02
 0.2625077270404E-03 -0.9924982596578E-02
 0.2483360198417E-03 -0.1034107037824E-01
 0.2397211138202E-03 -0.1074909853922E-01
 0.2390131383054E-03 -0.1114878867243E-01
 0.2489457709245E-03 -0.1154008469710E-01
 0.2726378719609E-03 -0.1192318529216E-01
 0.3135853237916E-03 -0.1229859415864E-01
 0.3756242250776E-03 -0.1266719846071E-01
 0.4628447153604E-03 -0.1303036506012E-01
 0.5794339275746E-03 -0.1339005080894E-01
 0.7294246157184E-03 -0.1374890274620E-01
 0.9163334590799E-03 -0.1411033011017E-01
 0.1142634228375E-02 -0.1447846899915E-01
 0.1409115962852E-02 -0.1485807660111E-01
 0.1714281316245E-02 -0.1525432980782E-01
 0.2053809778479E-02 -0.1567235691704E-01
 0.2420307799011E-02 -0.1611656687822E-01
 0.2803549999469E-02 -0.1658987999694E-01
 0.3191339270844E-02 -0.1709306178966E-01
 0.5679505818089E-04 -0.4254672956515E-03
 0.1134948084217E-03 -0.8584595175612E-03
 0.1685989031763E-03 -0.1298711507675E-02
 0.2206514129325E-03 -0.1745667217873E-02
 0.2683792622725E-03 -0.2198535808959E-02
 0.3107870736224E-03 -0.2656363529533E-02
 0.3471957182597E-03 -0.3118120321750E-02
 0.3772305859345E-03 -0.3582775234241E-02
 0.4007774967819E-03 -0.4049345402151E-02
 0.4179259077453E-03 -0.4516923158507E-02
 0.4289135021329E-03 -0.4984682876237E-02
 0.4340805765853E-03 -0.5451874384686E-02
 0.4338377395460E-03 -0.5917810947319E-02
 0.4286473212017E-03 -0.6381852700377E-02
 0.4190175839237E-03 -0.6843390366966E-02
 0.4055082089247E-03 -0.7301831844394E-02
 0.3887454523559E-03 -0.7756595404286E-02
 0.3694469496420E-03 -0.8207080146211E-02
 0.3484517024457E-03 -0.8652700470670E-02
 0.3267594490388E-03 -0.9092847416102E-02
 0.3055725450346E-03 -0.9526914205144E-02
 0.2863416701672E-03 -0.9954304904304E-02
 0.2708118961835E-03 -0.1037445235871E-01
 0.2610714834457E-03 -0.1078685811541E-01
 0.2596120008643E-03 -0.1119118774013E-01
 0.2693398532687E-03 -0.1158731127104E-01
 0.2935810731565E-03 -0.1197532967394E-01
 0.3360785150563E-03 -0.1235562053181E-01
 0.4009616907703E-03 -0.1272891552411E-01
 0.4926668457302E-03 -0.1309640147341E-01
 0.6157829357096E-03 -0.1345984309796E-01
 0.7747954813904E-03 -0.1382170502993E-01
 0.9737058183667E-03 -0.1418525570736E-01
 0.1215461424011E-02 -0.1455455753368E-01
 0.1501239925211E-02 -0.1493439380004E-01
 0.1829740948130E-02 -0.1533010904134E-01
 0.2196520659908E-02 -0.1574713342222E-01
 0.2593628127478E-02 -0.1619025055142E-01
 0.3009808486588E-02 -0.1666271213883E-01
 0.3431468026130E-02 -0.1716544662681E-01
 0.6142389249878E-04 -0.4256436917392E-03
 0.1227592732568E-03 -0.8590082850428E-03
 0.1823502992054E-03 -0.1299812081244E-02
 0.2385902216020E-03 -0.1747459596003E-02
 0.2900853846046E-03 -0.2201106989099E-02
 0.3357630486822E-03 -0.2659747992932E-02
 0.3749099188293E-03 -0.3122312830481E-02
 0.4071519116630E-03 -0.3587750541771E-02
 0.4323986109644E-03 -0.4055079222413E-02
 0.4507760005877E-03 -0.4523410502373E-02
 0.4625632837553E-03 -0.4991951991002E-02
 0.4681424073667E-03 -0.5459996116808E-02
 0.4679632700576E-03 -0.5926904174220E-02
 0.4625243072197E-03 -0.6392086696872E-02
 0.4523669618904E-03 -0.6854984856687E-02
 0.4380821248247E-03 -0.7315055230383E-02
 0.4203267195176E-03 -0.7771761410696E-02
 0.3998504113364E-03 -0.8224542721088E-02
 0.3775277823375E-03 -0.8672847017184E-02
 0.3544005280890E-03 -0.9116089676327E-02
 0.3317224913748E-03 -0.9553676721531E-02
 0.3110090011815E-03 -0.9985010607304E-02
 0.2940869072514E-03 -0.1040950495134E-01
 0.2831481775707E-03 -0.1082662236959E-01
 0.2808167712725E-03 -0.1123597405006E-01
 0.2901624792146E-03 -0.1163735674647E-01
 0.3147091702670E-03 -0.1203077255796E-01
 0.3584382456830E-03 -0.1241646897607E-01
 0.4257668928387E-03 -0.1279501405203E-01
 0.5214772890410E-03 -0.1316740085015E-01
 0.6505696605866E-03 -0.1353518163312E-01
 0.8180063786090E-03 -0.1390061179090E-01
 0.1028317174755E-02 -0.1426678789307E-01
 0.1284990085809E-02 -0.1463766746430E-01
 0.1589679547353E-02 -0.1501803656874E-01
 0.1941379223953E-02 -0.1541340448107E-01
 0.2335602770543E-02 -0.1582953003444E-01
 0.2763870784976E-02 -0.1627162783689E-01
 0.3213843055267E-02 -0.1674334676962E-01
 0.3670393708422E-02 -0.1724581198508E-01
 0.6617814680534E-04 -0.4258467356725E-03
 0.1322803053483E-03 -0.8596272924038E-03
 0.1964798779166E-03 -0.1301040054641E-02
 0.2570056838002E-03 -0.1749442314915E-02
 0.3123363084267E-03 -0.2203927823425E-02
 0.3613219117159E-03 -0.2663429980347E-02
 0.4032208191658E-03 -0.3126835023464E-02
 0.4376678655633E-03 -0.3593071546185E-02
 0.4646049219766E-03 -0.4061161136783E-02
 0.4842016798824E-03 -0.4530239006395E-02
 0.4967841287151E-03 -0.4999550992309E-02
 0.5027792173308E-03 -0.5468437152152E-02
 0.5026778272157E-03 -0.5936311567039E-02
 0.4970148358713E-03 -0.6402639585713E-02
 0.4863640941945E-03 -0.6866916982428E-02
 0.4713459732240E-03 -0.7328653030358E-02
 0.4526454417577E-03 -0.7787360652186E-02
 0.4310406731837E-03 -0.8242523487188E-02
 0.4074373709160E-03 -0.8693627070311E-02
 0.3829137432116E-03 -0.9140115452775E-02
 0.3587686725795E-03 -0.9581411835228E-02
 0.3365747048896E-03 -0.1001692135706E-01
 0.3182321023332E-03 -0.1044604244862E-01
 0.3060273654390E-03 -0.1086820235639E-01
 0.3027071664519E-03 -0.1128296086799E-01
 0.3114944958696E-03 -0.1169004357345E-01
 0.3361005404260E-03 -0.1208935429118E-01
 0.3807351841579E-03 -0.1248100832585E-01
 0.4500953946472E-03 -0.1286540375335E-01
 0.5493065105459E-03 -0.1324332746654E-01
 0.6837868046966E-03 -0.1361609915343E-01
 0.8589976689685E-03 -0.1398573646902E-01
 0.1080041265149E-02 -0.1435512887220E-01
 0.1351017544736E-02 -0.1472809095926E-01
 0.1674156706314E-02 -0.1510937961515E-01
 0.2048861009710E-02 -0.1550465823034E-01
 0.2470703957253E-02 -0.1592003797159E-01
 0.2930724413381E-02 -0.1636122671061E-01
 0.3415439750343E-02 -0.1683235328535E-01
 0.3908021396239E-02 -0.1733478411548E-01
 0.7106932389067E-04 -0.4260814734830E-03
 0.1420823940843E-03 -0.8603277443130E-03
 0.2110232391888E-03 -0.1302413050413E-02
 0.2759401509978E-03 -0.1751637977503E-02
 0.3351761303651E-03 -0.2207022790517E-02
 0.3875054368344E-03 -0.2667431842320E-02
 0.4321654736068E-03 -0.3131703167730E-02
 0.4688100121181E-03 -0.3598745189573E-02
 0.4974229193648E-03 -0.4067586477571E-02
 0.5182254540972E-03 -0.4537390980523E-02
 0.5315959424988E-03 -0.5007448386210E-02
 0.5380097292413E-03 -0.5477151780391E-02
 0.5380002970792E-03 -0.5945972945720E-02
 0.5321391925101E-03 -0.6413436488808E-02
 0.5210317968790E-03 -0.6879096904492E-02
 0.5053261464342E-03 -0.7342520146918E-02
 0.4857325618045E-03 -0.7803272499211E-02
 0.4630541300765E-03 -0.8260886126856E-02
 0.4382231238749E-03 -0.8714888715581E-02
 0.4123486854859E-03 -0.9164757728667E-02
 0.3867680999466E-03 -0.9609938500599E-02
 0.3631034425360E-03 -0.1004984392703E-01
 0.3433196903686E-03 -0.1048386228510E-01
 0.3297882685765E-03 -0.1091139024127E-01
 0.3253683179272E-03 -0.1133194057807E-01
 0.3334250434033E-03 -0.1174517150656E-01
 0.3578452531477E-03 -0.1215089110861E-01
 0.4030555286938E-03 -0.1254908261542E-01
 0.4740223278758E-03 -0.1293997004626E-01
 0.5762083078245E-03 -0.1332412362426E-01
 0.7154530950225E-03 -0.1370261123015E-01
 0.8977362183948E-03 -0.1407718321941E-01
 0.1128775275764E-02 -0.1445048269549E-01
 0.1413356927163E-02 -0.1482613581685E-01
 0.1754396902436E-02 -0.1520882801853E-01
 0.2151840213615E-02 -0.1560435615454E-01
 0.2601448615699E-02 -0.1601920172627E-01
 0.3093850995730E-02 -0.1645963173191E-01
 0.3614370996514E-02 -0.1693035897710E-01
 0.4144258334905E-02 -0.1743305804939E-01
 0.7610996698960E-04 -0.4263541811382E-03
 0.1521923835241E-03 -0.8611235476426E-03
 0.2260191209858E-03 -0.1303952840709E-02
 0.2954389331435E-03 -0.1754074326791E-02
 0.3586508762557E-03 -0.2210421739634E-02
 0.4143558737724E-03 -0.2671780758552E-02
 0.4617799606195E-03 -0.3136937265592E-02
 0.5006077501608E-03 -0.3604780796266E-02
 0.5308760795779E-03 -0.4074351586514E-02
 0.5528662786608E-03 -0.4544848487785E-02
 0.5670147641895E-03 -0.5015611334624E-02
 0.5738486311578E-03 -0.5486091990236E-02
 0.5739454464816E-03 -0.5955824963102E-02
 0.5679135067339E-03 -0.6424398525132E-02
 0.5563887296842E-03 -0.6891429914587E-02
 0.5400449238925E-03 -0.7356545663562E-02
 0.5196150209366E-03 -0.7819369420351E-02
 0.4959233910071E-03 -0.8279486167356E-02
 0.4699242749517E-03 -0.8736470432362E-02
 0.4427520851732E-03 -0.9189838216511E-02
 0.4157757336671E-03 -0.9639062519893E-02
 0.3906589375171E-03 -0.1008356984967E-01
 0.3694224213227E-03 -0.1052274438321E-01
 0.3545125655522E-03 -0.1095595827210E-01
 0.3488902453889E-03 -0.1138268318388E-01
 0.3560511691830E-03 -0.1180251552647E-01
 0.3800449326763E-03 -0.1221517235982E-01
 0.4255012695678E-03 -0.1262050750365E-01
 0.4976432519249E-03 -0.1301856961733E-01
 0.6022614912301E-03 -0.1340970438061E-01
 0.7456159749644E-03 -0.1379471039073E-01
 0.9342191381102E-03 -0.1417504092444E-01
 0.1174444322351E-02 -0.1455304997414E-01
 0.1471841583318E-02 -0.1493212187473E-01
 0.1830132209370E-02 -0.1531681639113E-01
 0.2249960013280E-02 -0.1571302982651E-01
 0.2727433899382E-02 -0.1612762474842E-01
 0.3252877949268E-02 -0.1656749074038E-01
 0.3810389810769E-02 -0.1703805154062E-01
 0.4379022166305E-02 -0.1754140116785E-01
 0.8131391590671E-04 -0.4266726572458E-03
 0.1626400209309E-03 -0.8620319436251E-03
 0.2415100547644E-03 -0.1305686275619E-02
 0.3155508095531E-03 -0.1756785304100E-02
 0.3828087224832E-03 -0.2214160870528E-02
 0.4419158820264E-03 -0.2676509492180E-02
 0.4920991219631E-03 -0.3142561539255E-02
 0.5330879652315E-03 -0.3611190327607E-02
 0.5649845116786E-03 -0.4081453918288E-02
 0.5881392369226E-03 -0.4552593376535E-02
 0.6030524942165E-03 -0.5024005678817E-02
 0.6103063443338E-03 -0.5495207525022E-02
 0.6105237159173E-03 -0.5965801214764E-02
 0.6043495524467E-03 -0.6435442982798E-02
 0.5924491858600E-03 -0.6903816667375E-02
 0.5755202362270E-03 -0.7370613124324E-02
 0.5543154846925E-03 -0.7835517290734E-02
 0.5296769574651E-03 -0.8298171291107E-02
 0.5025762621940E-03 -0.8758201371377E-02
 0.4741673851297E-03 -0.9215167561025E-02
 0.4458440063158E-03 -0.9668576622243E-02
 0.4193034555762E-03 -0.1011787531370E-01
 0.3966130354976E-03 -0.1056245080003E-01
 0.3802838338782E-03 -0.1100165809289E-01
 0.3733673338907E-03 -0.1143493518907E-01
 0.3794774130107E-03 -0.1186182416825E-01
 0.4028125670271E-03 -0.1228195814834E-01
 0.4481903947626E-03 -0.1269506708235E-01
 0.5210749964207E-03 -0.1310102628213E-01
 0.6275716637563E-03 -0.1349995243333E-01
 0.7743546320260E-03 -0.1389236019068E-01
 0.9684782444576E-03 -0.1427937693871E-01
 0.1217007189139E-02 -0.1466302218928E-01
 0.1526331272553E-02 -0.1504637717190E-01
 0.1901106572414E-02 -0.1543380802630E-01
 0.2342854678165E-02 -0.1583126010869E-01
 0.2848229320220E-02 -0.1624597434289E-01
 0.3407388616159E-02 -0.1668553212771E-01
 0.4003223295108E-02 -0.1715617480955E-01
 0.4612258813694E-02 -0.1766067200365E-01
 0.8669663119690E-04 -0.4270466002221E-03
 0.1734586390958E-03 -0.8630743058995E-03
 0.2575431505176E-03 -0.1307646444271E-02
 0.3363285922154E-03 -0.1759812332565E-02
 0.4077001798245E-03 -0.2218283874954E-02
 0.4702283677093E-03 -0.2681657218838E-02
 0.5231561859916E-03 -0.3148604918286E-02
 0.5662745750099E-03 -0.3617988598300E-02
 0.5997645150749E-03 -0.4088892092498E-02
 0.6240551504751E-03 -0.4560607265792E-02
 0.6397165626740E-03 -0.5032595928605E-02
 0.6473887364900E-03 -0.5504445918497E-02
 0.6477409575272E-03 -0.5975832342560E-02
 0.6414544890594E-03 -0.6446483496342E-02
 0.6292228164351E-03 -0.6916153426754E-02
 0.6117653548762E-03 -0.7384600835621E-02
 0.5898519832404E-03 -0.7851575727954E-02
 0.5643388037865E-03 -0.8316781675949E-02
 0.5362102418791E-03 -0.8779901661299E-02
 0.5066341861476E-03 -0.9240545566041E-02
 0.4770222008586E-03 -0.9698260556943E-02
 0.4490971194673E-03 -0.1015252106094E-01
 0.4249635230678E-03 -0.1060272535357E-01
 0.4071867721356E-03 -0.1104822000923E-01
 0.3988975546165E-03 -0.1148841839102E-01
 0.4038150930491E-03 -0.1192281770625E-01
 0.4262719715470E-03 -0.1235097674233E-01
 0.4712567087506E-03 -0.1277251032563E-01
 0.5444560978061E-03 -0.1318712629039E-01
 0.6522726310802E-03 -0.1359471216718E-01
 0.8017827920992E-03 -0.1399548807711E-01
 0.1000584575677E-02 -0.1439022920877E-01
 0.1256462535783E-02 -0.1478057404810E-01
 0.1576719363375E-02 -0.1516923205045E-01
 0.1967081976491E-02 -0.1556029258810E-01
 0.2430153352054E-02 -0.1595967913847E-01
 0.2963371424761E-02 -0.1637499065514E-01
 0.3556928743616E-02 -0.1681456651273E-01
 0.4192511299492E-02 -0.1728559079046E-01
 0.4844071308303E-02 -0.1779170720856E-01
 0.9227583906248E-04 -0.4274859385749E-03
 0.1846885890817E-03 -0.8642732356377E-03
 0.2741776675246E-03 -0.1309868785077E-02
 0.3578419473046E-03 -0.1763199633922E-02
 0.4333971000799E-03 -0.2222836580616E-02
 0.4993624680975E-03 -0.2687263680027E-02
 0.5550162924037E-03 -0.3155094956152E-02
 0.6002298852806E-03 -0.3625187239567E-02
 0.6352778102783E-03 -0.4096660183409E-02
 0.6606775407159E-03 -0.4568866448528E-02
 0.6770743493091E-03 -0.5041341118782E-02
 0.6851686413605E-03 -0.5513749756908E-02
 0.6856766324839E-03 -0.5985845327926E-02
 0.6793152626472E-03 -0.6457432224366E-02
 0.6668047113760E-03 -0.6928338257037E-02
 0.6488840782469E-03 -0.7398393520263E-02
 0.6263375728377E-03 -0.7867417018894E-02
 0.6000318254006E-03 -0.8335178402432E-02
 0.5709595733658E-03 -0.8801422934843E-02
 0.5402969565635E-03 -0.9265816932957E-02
 0.5094665190537E-03 -0.9727955605271E-02
 0.4802084378916E-03 -0.1018734969288E-01
 0.4546552278461E-03 -0.1064341817285E-01
 0.4354160839174E-03 -0.1109550959943E-01
 0.4256895520993E-03 -0.1154302366819E-01
 0.4292873896665E-03 -0.1198542442573E-01
 0.4506612169962E-03 -0.1242220867013E-01
 0.4949527510735E-03 -0.1285288814585E-01
 0.5680515004695E-03 -0.1327701296316E-01
 0.6766368208257E-03 -0.1369424559748E-01
 0.8281711285943E-03 -0.1410450505558E-01
 0.1030792295758E-02 -0.1450819038556E-01
 0.1293028166147E-02 -0.1490651075760E-01
 0.1623166907859E-02 -0.1530172600559E-01
 0.2028154314962E-02 -0.1569754647018E-01
 0.2511911952834E-02 -0.1609977580440E-01
 0.3072963194959E-02 -0.1651632879778E-01
 0.3701798465237E-02 -0.1695635679579E-01
 0.4378990572239E-02 -0.1742819002711E-01
 0.5075589677023E-02 -0.1793626964447E-01
 0.9807129408385E-04 -0.4280076298101E-03
 0.1963707013747E-03 -0.8656653791737E-03
 0.2914666214702E-03 -0.1312408584505E-02
 0.3801421651370E-03 -0.1767014533190E-02
 0.4599371267214E-03 -0.2227888247357E-02
 0.5293356488662E-03 -0.2693390123875E-02
 0.5876752963616E-03 -0.3162077612424E-02
 0.6349298761677E-03 -0.3632812879486E-02
 0.6714835479496E-03 -0.4104763955898E-02
 0.6979519299703E-03 -0.4577355710191E-02
 0.7150606022698E-03 -0.5050205423338E-02
 0.7235724354210E-03 -0.5523062837710E-02
 0.7242507754867E-03 -0.5995763345748E-02
 0.7178473630394E-03 -0.6468190824657E-02
 0.7051075234635E-03 -0.6940249698007E-02
 0.6867879671715E-03 -0.7411844303676E-02
 0.6636846042862E-03 -0.7882865945319E-02
 0.6366712462586E-03 -0.8353154459119E-02
 0.6067446579388E-03 -0.8822522577574E-02
 0.5750837685172E-03 -0.9290699483414E-02
 0.5431153106755E-03 -0.9757336158259E-02
 0.5125886618059E-03 -0.1022198867535E-01
 0.4856548506542E-03 -0.1068410700071E-01
 0.4649562977354E-03 -0.1114305316545E-01
 0.4537477358900E-03 -0.1159822561146E-01
 0.4559200175894E-03 -0.1204906895442E-01
 0.4760275235090E-03 -0.1249503324068E-01
 0.5193451995522E-03 -0.1293554327921E-01
 0.5919414326106E-03 -0.1337000681988E-01
 0.7007458458636E-03 -0.1379787266532E-01
 0.8535808593606E-03 -0.1421876082704E-01
 0.1059106695470E-02 -0.1463267916195E-01
 0.1326600418509E-02 -0.1504036542184E-01
 0.1665390493641E-02 -0.1544355067650E-01
 0.2083780494217E-02 -0.1584544933787E-01
 0.2587262911078E-02 -0.1625161814338E-01
 0.3175798249905E-02 -0.1667020827887E-01
 0.3840528060354E-02 -0.1711123113471E-01
 0.4561061985175E-02 -0.1758431699112E-01
 0.5305243385931E-02 -0.1809505734380E-01
 0.1041062986669E-03 -0.4286305401738E-03
 0.2085552550848E-03 -0.8672919882518E-03
 0.3094774125752E-03 -0.1315328065654E-02
 0.4032981872254E-03 -0.1771331779284E-02
 0.4873783109388E-03 -0.2233513912993E-02
 0.5601894074345E-03 -0.2700100641646E-02
 0.6211581544241E-03 -0.3169598609557E-02
 0.6703859742926E-03 -0.3640889469326E-02
 0.7083834467621E-03 -0.4113205006308E-02
 0.7358738027625E-03 -0.4586055131075E-02
 0.7536673181345E-03 -0.5059148641752E-02
 0.7625906703366E-03 -0.5532325720971E-02
 0.7634540066218E-03 -0.6005508288542E-02
 0.7570426618748E-03 -0.6478662533359E-02
 0.7441254094871E-03 -0.6951771787738E-02
 0.7254744986169E-03 -0.7424816994689E-02
 0.7018950307326E-03 -0.7897764670202E-02
 0.6742648563010E-03 -0.8370528707740E-02
 0.6435807268355E-03 -0.8842994445889E-02
 0.6110191300862E-03 -0.9314960548955E-02
 0.5780043727212E-03 -0.9786141945291E-02
 0.5462870058500E-03 -0.1025614976675E-01
 0.5180272501166E-03 -0.1072447624384E-01
 0.4958902726286E-03 -0.1119050967652E-01
 0.4831754908023E-03 -0.1165366124137E-01
 0.4838395049252E-03 -0.1211337188829E-01
 0.5025229347377E-03 -0.1256906293207E-01
 0.5446130197367E-03 -0.1302009224710E-01
 0.6163309751119E-03 -0.1346574586640E-01
 0.7248258814752E-03 -0.1390527731974E-01
 0.8782469684721E-03 -0.1433801851815E-01
 0.1085747828327E-02 -0.1476358073125E-01
 0.1357344790584E-02 -0.1518219596011E-01
 0.1703443889559E-02 -0.1559498772032E-01
 0.2133835922057E-02 -0.1600454283758E-01
 0.2655853379115E-02 -0.1641600915496E-01
 0.3271309889657E-02 -0.1683765193825E-01
 0.3972458042386E-02 -0.1728035720005E-01
 0.4738192532039E-02 -0.1775526582784E-01
 0.5532954990133E-02 -0.1826947783672E-01
 0.1104083408735E-03 -0.4293784283634E-03
 0.2213012576679E-03 -0.8692048025552E-03
 0.3282871418514E-03 -0.1318704297454E-02
 0.4273857024736E-03 -0.1776242175691E-02
 0.5157808499342E-03 -0.2239802620656E-02
 0.5919633333745E-03 -0.2707469460203E-02
 0.6554853246618E-03 -0.3177709729307E-02
 0.7066038797108E-03 -0.3649443692435E-02
 0.7459731558935E-03 -0.4121985342625E-02
 0.7744326662532E-03 -0.4594943755423E-02
 0.7928807449190E-03 -0.5068128707659E-02
 0.8022083525518E-03 -0.5541476647454E-02
 0.8032715052954E-03 -0.6014999461612E-02
 0.7968875733248E-03 -0.6488747772786E-02
 0.7838469369056E-03 -0.6962785451669E-02
 0.7649353384284E-03 -0.7437171820568E-02
 0.7409647240506E-03 -0.7911951043046E-02
 0.7128141039933E-03 -0.8387114610186E-02
 0.6814764928027E-03 -0.8862625468962E-02
 0.6481210174835E-03 -0.9338358492152E-02
 0.6141631963154E-03 -0.9814101116057E-02
 0.5813469097706E-03 -0.1028952992606E-01
 0.5518324159427E-03 -0.1076419164247E-01
 0.5282973862526E-03 -0.1123751487172E-01
 0.5140747593212E-03 -0.1170893901695E-01
 0.5131738736726E-03 -0.1217791907755E-01
 0.5303051411635E-03 -0.1264386836864E-01
 0.5709465854799E-03 -0.1310610169100E-01
 0.6414444443259E-03 -0.1356380949510E-01
 0.7491326877855E-03 -0.1401607611982E-01
 0.9024471002571E-03 -0.1446196658084E-01
 0.1110993525229E-02 -0.1490070277727E-01
 0.1385498948728E-02 -0.1533198913086E-01
 0.1737460442253E-02 -0.1575626908060E-01
 0.2178265934026E-02 -0.1617535935136E-01
 0.2717364819518E-02 -0.1659379949898E-01
 0.3358905680788E-02 -0.1701978762145E-01
 0.4096846355635E-02 -0.1746505677149E-01
 0.4909767791112E-02 -0.1794249645843E-01
 0.5758551495959E-02 -0.1846112859402E-01
 0.1170103304090E-03 -0.4302814268730E-03
 0.2346787699152E-03 -0.8714690838088E-03
 0.3479845686043E-03 -0.1322633041471E-02
 0.4524877532522E-03 -0.1781855973409E-02
 0.5452064614972E-03 -0.2246859531139E-02
 0.6246939113668E-03 -0.2715581732495E-02
 0.6906715625833E-03 -0.3186468716596E-02
 0.7435826193498E-03 -0.3658504468177E-02
 0.7842416062163E-03 -0.4131106822465E-02
 0.8136116413412E-03 -0.4603999134826E-02
 0.8326811352454E-03 -0.5077101404764E-02
 0.8424047905285E-03 -0.5550451442483E-02
 0.8436828986381E-03 -0.6024153669474E-02
 0.8373629426229E-03 -0.6498344408742E-02
 0.8242549384570E-03 -0.6973168918109E-02
 0.8051561309921E-03 -0.7448765986852E-02
 0.7808831695548E-03 -0.7925259285570E-02
 0.7523136678178E-03 -0.8402721011808E-02
 0.7204335748865E-03 -0.8881196487228E-02
 0.6864001375423E-03 -0.9360643542821E-02
 0.6516140581280E-03 -0.9840931006125E-02
 0.6178049499674E-03 -0.1032181193437E-01
 0.5871241841015E-03 -0.1080290067090E-01
 0.5622520296040E-03 -0.1128368135255E-01
 0.5465442934317E-03 -0.1176363850811E-01
 0.5440506414251E-03 -0.1224226071691E-01
 0.5595352563807E-03 -0.1271897658132E-01
 0.5985453166485E-03 -0.1319308541928E-01
 0.6675231046731E-03 -0.1366371373831E-01
 0.7739498612769E-03 -0.1412981086525E-01
 0.9265012621555E-03 -0.1459020774223E-01
 0.1135182115414E-02 -0.1504375970750E-01
 0.1411380664183E-02 -0.1548963980203E-01
 0.1767668131929E-02 -0.1592755317107E-01
 0.2217107462358E-02 -0.1635840076068E-01
 0.2771534732069E-02 -0.1678587651850E-01
 0.3437978041330E-02 -0.1721785621785E-01
 0.4212858788272E-02 -0.1766682417219E-01
 0.5075056939335E-02 -0.1814766284876E-01
 0.5981777324995E-02 -0.1867180305167E-01
 0.1239522832645E-03 -0.4313780815445E-03
 0.2487719426789E-03 -0.8741677311967E-03
 0.3686724041798E-03 -0.1327233742484E-02
 0.4786951250633E-03 -0.1788306960964E-02
 0.5757172858203E-03 -0.2254808152173E-02
 0.6584129065150E-03 -0.2724534080892E-02
 0.7267244730092E-03 -0.3195938838456E-02
 0.7813135063714E-03 -0.3668102163401E-02
 0.8231703557481E-03 -0.4140570389689E-02
 0.8533870887318E-03 -0.4613196748962E-02
 0.8730425490381E-03 -0.5086020016250E-02
 0.8831534942039E-03 -0.5559183391254E-02
 0.8846622002958E-03 -0.6032885300055E-02
 0.8784439817601E-03 -0.6507348025978E-02
 0.8653264101241E-03 -0.6982798170614E-02
 0.8461163272024E-03 -0.7459454294288E-02
 0.8216331911635E-03 -0.7937520758130E-02
 0.7927510457706E-03 -0.8417153032483E-02
 0.7604459234352E-03 -0.8898483226680E-02
 0.7258591685933E-03 -0.9381558795316E-02
 0.6903710671410E-03 -0.9866339083383E-02
 0.6556896834723E-03 -0.1035266521263E-01
 0.6239488589980E-03 -0.1084023315061E-01
 0.5978219750512E-03 -0.1132859891253E-01
 0.5806777311461E-03 -0.1181731034428E-01
 0.5765945761863E-03 -0.1230591076841E-01
 0.5903752397411E-03 -0.1279386966881E-01
 0.6276148034426E-03 -0.1328050191736E-01
 0.6948221344164E-03 -0.1376490699885E-01
 0.7995860241387E-03 -0.1424594157804E-01
 0.9507701141661E-03 -0.1472224785731E-01
 0.1158713550850E-02 -0.1519235572417E-01
 0.1435394599514E-02 -0.1565492703552E-01
 0.1794405334572E-02 -0.1610889507200E-01
 0.2250514796795E-02 -0.1655410858026E-01
 0.2818186372986E-02 -0.1699314573895E-01
 0.3507922323268E-02 -0.1743321531014E-01
 0.4319558734726E-02 -0.1788735149125E-01
 0.5233175608752E-02 -0.1837265056266E-01
 0.6202290001291E-02 -0.1890354683477E-01
 0.1312836589218E-03 -0.4327182188533E-03
 0.2636830137398E-03 -0.8774069401196E-03
 0.3904699341232E-03 -0.1332656044159E-02
 0.5061063111875E-03 -0.1795757339736E-02
 0.6073741143842E-03 -0.2263792550046E-02
 0.6931452392526E-03 -0.2734434711813E-02
 0.7636428091957E-03 -0.3206187972841E-02
 0.8197790292235E-03 -0.3678267451407E-02
 0.8627329550286E-03 -0.4150375088830E-02
 0.8937282883828E-03 -0.4622509300174E-02
 0.9139327168805E-03 -0.5094834910209E-02
 0.9244221326105E-03 -0.5567603089291E-02
 0.9261778023843E-03 -0.6041106409741E-02
 0.9201002535870E-03 -0.6515652223747E-02
 0.9070324534054E-03 -0.6991547438285E-02
 0.8877890522797E-03 -0.7469089813893E-02
 0.8631907094953E-03 -0.7948564809303E-02
 0.8341061658084E-03 -0.8430213071106E-02
 0.8014992473833E-03 -0.8914257419294E-02
 0.7664919795706E-03 -0.9400841381573E-02
 0.7304391643161E-03 -0.9890024091855E-02
 0.6950204213916E-03 -0.1038174685064E-01
 0.6623437416433E-03 -0.1087580208738E-01
 0.6350666205416E-03 -0.1137183511380E-01
 0.6165615054398E-03 -0.1186947645369E-01
 0.6109252163778E-03 -0.1236834674601E-01
 0.6229849784123E-03 -0.1286798391787E-01
 0.6583634218345E-03 -0.1336775242777E-01
 0.7236068183049E-03 -0.1386676644046E-01
 0.8263708456643E-03 -0.1436384012819E-01
 0.9756515691733E-03 -0.1485748509228E-01
 0.1182048346581E-02 -0.1534596722450E-01
 0.1458036980589E-02 -0.1582748724355E-01
 0.1818136160945E-02 -0.1630020993525E-01
 0.2278789287496E-02 -0.1676282312167E-01
 0.2857268234972E-02 -0.1721650025811E-01
 0.3568166381680E-02 -0.1766733654293E-01
 0.4415899941937E-02 -0.1812855938958E-01
 0.5383043786466E-02 -0.1861963192431E-01
 0.6419642063777E-02 -0.1915872849067E-01
 0.1390666671493E-03 -0.4343670631289E-03
 0.2795376040019E-03 -0.8813241024100E-03
 0.4135158917299E-03 -0.1339088331262E-02
 0.5348267246261E-03 -0.1804403421029E-02
 0.6402336950151E-03 -0.2273979293248E-02
 0.7289062739501E-03 -0.2745402845388E-02
 0.8014145491029E-03 -0.3217287080525E-02
 0.8589517280375E-03 -0.3689029761031E-02
 0.9028943846269E-03 -0.4160516842678E-02
 0.9345972141942E-03 -0.4631905881984E-02
 0.9553129986418E-03 -0.5103493064498E-02
 0.9661725804952E-03 -0.5575638270724E-02
 0.9681925503216E-03 -0.6048726810011E-02
 0.9622957348001E-03 -0.6523148930338E-02
 0.9493382945357E-03 -0.6999289721748E-02
 0.9301410492998E-03 -0.7477524618069E-02
 0.9055245724946E-03 -0.7958219709061E-02
 0.8763510600392E-03 -0.8441701929685E-02
 0.8435704879280E-03 -0.8928288084764E-02
 0.8082828703588E-03 -0.9418223845360E-02
 0.7718131161641E-03 -0.9911677426788E-02
 0.7358059725708E-03 -0.1040870288591E-01
 0.7023356075444E-03 -0.1090920477410E-01
 0.6740351595113E-03 -0.1141293615788E-01
 0.6542726428310E-03 -0.1191963065589E-01
 0.6471542214603E-03 -0.1242900995488E-01
 0.6575191002195E-03 -0.1294070952544E-01
 0.6909985101401E-03 -0.1345417981787E-01
 0.7541480165234E-03 -0.1396859536838E-01
 0.8546498776468E-03 -0.1448278500371E-01
 0.1001575513120E-02 -0.1499520017715E-01
 0.1205703777816E-02 -0.1550392552808E-01
 0.1479896982561E-02 -0.1600678539479E-01
 0.1839463699192E-02 -0.1650122964854E-01
 0.2302411966150E-02 -0.1698472923161E-01
 0.2888905189834E-02 -0.1745677280767E-01
 0.3618217287636E-02 -0.1792179169739E-01
 0.4500728103127E-02 -0.1839263340671E-01
 0.5523334632097E-02 -0.1889113951701E-01
 0.6633246337628E-02 -0.1944012856265E-01
 0.1473810496767E-03 -0.4364112918169E-03
 0.2964917660927E-03 -0.8860990215189E-03
 0.4379713528188E-03 -0.1346768952812E-02
 0.5649666349285E-03 -0.1814482060842E-02
 0.6743447891883E-03 -0.2285558705057E-02
 0.7656984554040E-03 -0.2757567123654E-02
 0.8400147926838E-03 -0.3229307910693E-02
 0.8987931053257E-03 -0.3700415278630E-02
 0.9436105864142E-03 -0.4170986996530E-02
 0.9759484035112E-03 -0.4641351035343E-02
 0.9971384218276E-03 -0.5111937545307E-02
 0.1008361028329E-02 -0.5583213626094E-02
 0.1010663868225E-02 -0.6055654164106E-02
 0.1004988921077E-02 -0.6529728741722E-02
 0.9922033412268E-03 -0.7005897356710E-02
 0.9731326577970E-03 -0.7484610566838E-02
 0.9485964178534E-03 -0.7966313662856E-02
 0.9194495618199E-03 -0.8451420054977E-02
 0.8866272956992E-03 -0.8940342974559E-02
 0.8512057851934E-03 -0.9433435721648E-02
 0.8144764471583E-03 -0.9930984742134E-02
 0.7780432980771E-03 -0.1043316982070E-01
 0.7439390759517E-03 -0.1094002412525E-01
 0.7147646247820E-03 -0.1145142799190E-01
 0.6938764113500E-03 -0.1196723952872E-01
 0.6853825275121E-03 -0.1248730609846E-01
 0.6941235065670E-03 -0.1301139084204E-01
 0.7257221078144E-03 -0.1353906818061E-01
 0.7867169109194E-03 -0.1406962160604E-01
 0.8847781657228E-03 -0.1460195735699E-01
 0.1028996463574E-02 -0.1513454809416E-01
 0.1230246764130E-02 -0.1566540065394E-01
 0.1501653435535E-02 -0.1619208524719E-01
 0.1859138663096E-02 -0.1671145295846E-01
 0.2322076596431E-02 -0.1721978558458E-01
 0.2913462301850E-02 -0.1771466239324E-01
 0.3657732640324E-02 -0.1819821765963E-01
 0.4572799638017E-02 -0.1868206145891E-01
 0.5652410160703E-02 -0.1919016183237E-01
 0.6842318072945E-02 -0.1975105786487E-01
 0.1563311636259E-03 -0.4389681789327E-03
 0.3147413767878E-03 -0.8919701093228E-03
 0.4640221392429E-03 -0.1356000928682E-02
 0.5966370537476E-03 -0.1826277474414E-02
 0.7097426412064E-03 -0.2298744730854E-02
 0.8035073257784E-03 -0.2771062572328E-02
 0.8794036141086E-03 -0.3242319802672E-02
 0.9392526796171E-03 -0.3712444487772E-02
 0.9848281616972E-03 -0.4181770643150E-02
 0.1017728973675E-02 -0.4650803708952E-02
 0.1039357841476E-02 -0.5120106951734E-02
 0.1050938193264E-02 -0.5590250616826E-02
 0.1053543971833E-02 -0.6061794096392E-02
 0.1048133012950E-02 -0.6535281283541E-02
 0.1035581318745E-02 -0.7011242611962E-02
 0.1016717873980E-02 -0.7490200145074E-02
 0.9923606198329E-03 -0.7972675904232E-02
 0.9633570846372E-03 -0.8459168901973E-02
 0.9306275739547E-03 -0.8950190196286E-02
 0.8952235598514E-03 -0.9446205357514E-02
 0.8584003655742E-03 -0.9947627842783E-02
 0.8217161262674E-03 -0.1045477643584E-01
 0.7871549215842E-03 -0.1096783029842E-01
 0.7572778661106E-03 -0.1148681770151E-01
 0.7354238925489E-03 -0.1201174361043E-01
 0.7256974013264E-03 -0.1254260634563E-01
 0.7329317382410E-03 -0.1307932728530E-01
 0.7627263875014E-03 -0.1362164339928E-01
 0.8215791741831E-03 -0.1416899722288E-01
 0.9171127726352E-03 -0.1472043889235E-01
 0.1058384204966E-02 -0.1527455213336E-01
 0.1256283130958E-02 -0.1582938769913E-01
 0.1524065574486E-02 -0.1638242099413E-01
 0.1878060327884E-02 -0.1693009147853E-01
 0.2338718759306E-02 -0.1746763651282E-01
 0.2931620546387E-02 -0.1799062636684E-01
 0.3686626109212E-02 -0.1849824518923E-01
 0.4630832423735E-02 -0.1899966456460E-01
 0.5768242914246E-02 -0.1952026936447E-01
 0.7045782454376E-02 -0.2009552250195E-01
 0.1660567578574E-03 -0.4421998234673E-03
 0.3345345850388E-03 -0.8992582059472E-03
 0.4918796658419E-03 -0.1367171030814E-02
 0.6299424265343E-03 -0.1840127539656E-02
 0.7464415452862E-03 -0.2313772358717E-02
 0.8422970796798E-03 -0.2786025649782E-02
 0.9195240576944E-03 -0.3256385508836E-02
 0.9802672884124E-03 -0.3725129275046E-02
 0.1026484287380E-02 -0.4192844764567E-02
 0.1059878808594E-02 -0.4660216153253E-02
 0.1081914229446E-02 -0.5127934847089E-02
 0.1093849631068E-02 -0.5596667299116E-02
 0.1096780165213E-02 -0.6067050320921E-02
 0.1091676177201E-02 -0.6539695597882E-02
 0.1079420480383E-02 -0.7015198318837E-02
 0.1060844489716E-02 -0.7494147343777E-02
 0.1036764321921E-02 -0.7977137856361E-02
 0.1008020489952E-02 -0.8464752411470E-02
 0.9755190986419E-03 -0.8957600020546E-02
 0.9402872098735E-03 -0.9456261993639E-02
 0.9035426788324E-03 -0.9961286893658E-02
 0.8667935137154E-03 -0.1047314592912E-01
 0.8319683121034E-03 -0.1099218260628E-01
 0.8015814543479E-03 -0.1151859516216E-01
 0.7789494913478E-03 -0.1205255888862E-01
 0.7681694344438E-03 -0.1259424881537E-01
 0.7740612437524E-03 -0.1314377491116E-01
 0.8021888791057E-03 -0.1370107471217E-01
 0.8589886974946E-03 -0.1426579972736E-01
 0.9520043839261E-03 -0.1483721187327E-01
 0.1090212547209E-02 -0.1541410094440E-01
 0.1284443163438E-02 -0.1599469715094E-01
 0.1547956816784E-02 -0.1657657298483E-01
 0.1897266130750E-02 -0.1715601559699E-01
 0.2353533766871E-02 -0.1772750768924E-01
 0.2944459304602E-02 -0.1828472716728E-01
 0.3705217428196E-02 -0.1882336652613E-01
 0.4673613117351E-02 -0.1934860247420E-01
 0.5868327779742E-02 -0.1988578072398E-01
 0.7242125356825E-02 -0.2047846235644E-01
 0.1767498538012E-03 -0.4463360648632E-03
 0.3561880210752E-03 -0.9084022674174E-03
 0.5217781415911E-03 -0.1380773947215E-02
 0.6649685564534E-03 -0.1856427679871E-02
 0.7844253982589E-03 -0.2330891079039E-02
 0.8820060395376E-03 -0.2802586983314E-02
 0.9603005370112E-03 -0.3271556077915E-02
 0.1021760754757E-02 -0.3738469676076E-02
 0.1068506901110E-02 -0.4204176246487E-02
 0.1102330936618E-02 -0.4669532788484E-02
 0.1124745099141E-02 -0.5135349202977E-02
 0.1137036148001E-02 -0.5602378172999E-02
 0.1140315216972E-02 -0.6071324797849E-02
 0.1135561878356E-02 -0.6542860558037E-02
 0.1123663887282E-02 -0.7017638530586E-02
 0.1105454307458E-02 -0.7496308579189E-02
 0.1081747557520E-02 -0.7979534352253E-02
 0.1053378054307E-02 -0.8467978591663E-02
 0.1021239232855E-02 -0.8962346871802E-02
 0.9863352749900E-03 -0.9463338132967E-02
 0.9498466976445E-03 -0.9971642996773E-02
 0.9132283322227E-03 -0.1048789842983E-01
 0.8783469436383E-03 -0.1101263173728E-01
 0.8476634943225E-03 -0.1154623491820E-01
 0.8244683933738E-03 -0.1208907851353E-01
 0.8128495240472E-03 -0.1264154042036E-01
 0.8176096327890E-03 -0.1320394861896E-01
 0.8442676031017E-03 -0.1377647730053E-01
 0.8991810469140E-03 -0.1435903480637E-01
 0.9897882512617E-03 -0.1495116146154E-01
 0.1124946531516E-02 -0.1555194914433E-01
 0.1315363718982E-02 -0.1615995044258E-01
 0.1574191227127E-02 -0.1677305053860E-01
 0.1917906653997E-02 -0.1738770659374E-01
 0.2367973255237E-02 -0.1799809235363E-01
 0.2953532744114E-02 -0.1859642502879E-01
 0.3714434338929E-02 -0.1917470391039E-01
 0.4700201597833E-02 -0.1973231539977E-01
 0.5949601817551E-02 -0.2029197680838E-01
 0.7429148458559E-02 -0.2090610708576E-01
 0.1886820453742E-03 -0.4517128873484E-03
 0.3801070103740E-03 -0.9200138195042E-03
 0.5539641707739E-03 -0.1397441250123E-02
 0.7017638302476E-03 -0.1875628575285E-02
 0.8236366684929E-03 -0.2350352485159E-02
 0.9225427465486E-03 -0.2820861691164E-02
 0.1001637942927E-02 -0.3287864993891E-02
 0.1063644038338E-02 -0.3752450371731E-02
 0.1110815219739E-02 -0.4215719839424E-02
 0.1145012135549E-02 -0.4678689093769E-02
 0.1167783089866E-02 -0.5142271881180E-02
 0.1180434333616E-02 -0.5607294068378E-02
 0.1184087836861E-02 -0.6074517920261E-02
 0.1179729302815E-02 -0.6544665306837E-02
 0.1168249783099E-02 -0.7018439201316E-02
 0.1150483461220E-02 -0.7496543633367E-02
 0.1127243496721E-02 -0.7979704890799E-02
 0.1099359587098E-02 -0.8468661177716E-02
 0.1067714802815E-02 -0.8964211488951E-02
 0.1033293291408E-02 -0.9467172218970E-02
 0.9972401822971E-03 -0.9978381204663E-02
 0.9609557058464E-03 -0.1049865397244E-01
 0.9262390820938E-03 -0.1102872232921E-01
 0.8954913651012E-03 -0.1156919826812E-01
 0.8719740275497E-03 -0.1212067467405E-01
 0.8597659507676E-03 -0.1268375902627E-01
 0.8636510691918E-03 -0.1325902501080E-01
 0.8890963026845E-03 -0.1384691599348E-01
 0.9423668960403E-03 -0.1444764076651E-01
 0.1030774852996E-02 -0.1506108064151E-01
 0.1163028645504E-02 -0.1568672207803E-01
 0.1349667575668E-02 -0.1632358216346E-01
 0.1603643306007E-02 -0.1697008501002E-01
 0.1941204433082E-02 -0.1762322330186E-01
 0.2383708560757E-02 -0.1827744367937E-01
 0.2960914678267E-02 -0.1892431844357E-01
 0.3716062003803E-02 -0.1955262693861E-01
 0.4710295039018E-02 -0.2015432289858E-01
 0.6008422730406E-02 -0.2074535939904E-01
 0.7603562296969E-02 -0.2138652500573E-01
 0.2022501974121E-03 -0.4588398819989E-03
 0.4068082046376E-03 -0.9349614082274E-03
 0.5886714948209E-03 -0.1417971722669E-02
 0.7403119811378E-03 -0.1898220881063E-02
 0.8639653139805E-03 -0.2372390294475E-02
 0.9637836266469E-03 -0.2840937849382E-02
 0.1043421693026E-02 -0.3305321888561E-02
 0.1105815952648E-02 -0.3767037071604E-02
 0.1153320619999E-02 -0.4227416172387E-02
 0.1187843759255E-02 -0.4687610576474E-02
 0.1210956694428E-02 -0.5148618187887E-02
 0.1223977192606E-02 -0.5611322089366E-02
 0.1228033227773E-02 -0.6076528743708E-02
 0.1224113848866E-02 -0.6544999724634E-02
 0.1213112035760E-02 -0.7017478884771E-02
 0.1195862816158E-02 -0.7494716609725E-02
 0.1173178795281E-02 -0.7977494912495E-02
 0.1145886686702E-02 -0.8466621341689E-02
 0.1114862143405E-02 -0.8962983230295E-02
 0.1081073410784E-02 -0.9467511639560E-02
 0.1045634324299E-02 -0.9981194054882E-02
 0.1009891338699E-02 -0.1050503604056E-01
 0.9755714131047E-03 -0.1103999593729E-01
 0.9450092968858E-03 -0.1158693547130E-01
 0.9214354971321E-03 -0.1214670046275E-01
 0.9089215899223E-03 -0.1272015574685E-01
 0.9122328950675E-03 -0.1330814577606E-01
 0.9367798981337E-03 -0.1391141000643E-01
 0.9887256099927E-03 -0.1453049458657E-01
 0.1075240611883E-02 -0.1516567758377E-01
 0.1204864735446E-02 -0.1581692470828E-01
 0.1387941011268E-02 -0.1648384971469E-01
 0.1637162537786E-02 -0.1716563522448E-01
 0.1968398283097E-02 -0.1786019042675E-01
 0.2402551547174E-02 -0.1856289793505E-01
 0.2969170038233E-02 -0.1926585906768E-01
 0.3713002990752E-02 -0.1995615887221E-01
 0.4704836983627E-02 -0.2061772215689E-01
 0.6040730782307E-02 -0.2125390391995E-01
 0.7760307114747E-02 -0.2193049158277E-01
 0.2180558096156E-03 -0.4685257100275E-03
 0.4369373292688E-03 -0.9545028417724E-03
 0.6260681649216E-03 -0.1443350689076E-02
 0.7804966334341E-03 -0.1924695847196E-02
 0.9052410671354E-03 -0.2397193015328E-02
 0.1005573140379E-02 -0.2862864557146E-02
 0.1085518818369E-02 -0.3323906062079E-02
 0.1148164550184E-02 -0.3782172977663E-02
 0.1195927905167E-02 -0.4239189949509E-02
 0.1230742786335E-02 -0.4696211876728E-02
 0.1254191129155E-02 -0.5154296535538E-02
 0.1267594872449E-02 -0.5614365635170E-02
 0.1272083710622E-02 -0.6077255267449E-02
 0.1268647680838E-02 -0.6543754929652E-02
 0.1258180645629E-02 -0.7014639449956E-02
 0.1241518447890E-02 -0.7490696894014E-02
 0.1219474051003E-02 -0.7972757075221E-02
 0.1192873153612E-02 -0.8461689415471E-02
 0.1162587364579E-02 -0.8958462475250E-02
 0.1129574249848E-02 -0.9464116058411E-02
 0.1094922825100E-02 -0.9979785748809E-02
 0.1059929712823E-02 -0.1050667588324E-01
 0.1026246607224E-02 -0.1104599451375E-01
 0.9961356922552E-03 -0.1159888800460E-01
 0.9727949681179E-03 -0.1216649153760E-01
 0.9602913505475E-03 -0.1274995720061E-01
 0.9633726486051E-03 -0.1335042152782E-01
 0.9873903419700E-03 -0.1396893873518E-01
 0.1038399183900E-02 -0.1460641959895E-01
 0.1123419017115E-02 -0.1526358535259E-01
 0.1250810457932E-02 -0.1594095436241E-01
 0.1430711168751E-02 -0.1663885091278E-01
 0.1675534508950E-02 -0.1735740760739E-01
 0.2000678334397E-02 -0.1809581194462E-01
 0.2426335299181E-02 -0.1885105650405E-01
 0.2981199142339E-02 -0.1961711778560E-01
 0.3709439598938E-02 -0.2038214501236E-01
 0.4686956575358E-02 -0.2112409114111E-01
 0.6042682041583E-02 -0.2182711479945E-01
 0.7891438204696E-02 -0.2255288740273E-01
 0.2370482241188E-03 -0.4821288365317E-03
 0.4712580361167E-03 -0.9804901662136E-03
 0.6661559861297E-03 -0.1474722349734E-02
 0.8220649129326E-03 -0.1955468243967E-02
 0.9472345270941E-03 -0.2424875357924E-02
 0.1047726331419E-02 -0.2886641026286E-02
 0.1127780168047E-02 -0.3343559782628E-02
 0.1190569308049E-02 -0.3797775727979E-02
 0.1238536938380E-02 -0.4250948419313E-02
 0.1273623102209E-02 -0.4704396064636E-02
 0.1297409353105E-02 -0.5159208244238E-02
 0.1311215496807E-02 -0.5616324506726E-02
 0.1316169436422E-02 -0.6076594768473E-02
 0.1313260364435E-02 -0.6540823803096E-02
 0.1303382340210E-02 -0.7009806799235E-02
 0.1287372224822E-02 -0.7484360097963E-02
 0.1266044394761E-02 -0.7965352495976E-02
 0.1240225598990E-02 -0.8453706567507E-02
 0.1210786920471E-02 -0.8950463023297E-02
 0.1178681124298E-02 -0.9456761006894E-02
 0.1144981225212E-02 -0.9973877103291E-02
 0.1110942181512E-02 -0.1050321791351E-01
 0.1078140485968E-02 -0.1104626459458E-01
 0.1048760069378E-02 -0.1160449074568E-01
 0.1025965027170E-02 -0.1217936727812E-01
 0.1013820009324E-02 -0.1277236748665E-01
 0.1017055732504E-02 -0.1338493599861E-01
 0.1040963130439E-02 -0.1401844868525E-01
 0.1091486755418E-02 -0.1467419488955E-01
 0.1175492493026E-02 -0.1535337383896E-01
 0.1301159032804E-02 -0.1605711684654E-01
 0.1478425558765E-02 -0.1678654868591E-01
 0.1719441101970E-02 -0.1754289436429E-01
 0.2039116175654E-02 -0.1832691051316E-01
 0.2456779475796E-02 -0.1913783428311E-01
 0.2999921498125E-02 -0.1997274234107E-01
 0.3710661246779E-02 -0.2082431192011E-01
 0.4663215019156E-02 -0.2167130805639E-01
 0.6012378855525E-02 -0.2247527613998E-01
 0.7984395085868E-02 -0.2327493623301E-01
 0.2607927510628E-03 -0.5021087327179E-03
 0.5105391803038E-03 -0.1015663029191E-02
 0.7085992322530E-03 -0.1513219949996E-02
 0.8646158740741E-03 -0.1990763374686E-02
 0.9896705343565E-03 -0.2455464020947E-02
 0.1090031709540E-02 -0.2912203999147E-02
 0.1170044495279E-02 -0.3364182316635E-02
 0.1232903971208E-02 -0.3813735260162E-02
 0.1281044574040E-02 -0.4262580094073E-02
 0.1316396994011E-02 -0.4712054257615E-02
 0.1340533185599E-02 -0.5163247497680E-02
 0.1354766070998E-02 -0.5617095129256E-02
 0.1360219146814E-02 -0.6074444202221E-02
 0.1357879545464E-02 -0.6536101551055E-02
 0.1348641214916E-02 -0.7002871596300E-02
 0.1333342450666E-02 -0.7475588986664E-02
 0.1312800170987E-02 -0.7955151949663E-02
 0.1287844199558E-02 -0.8442526403235E-02
 0.1259348465079E-02 -0.8938814379902E-02
 0.1228266775840E-02 -0.9445241581788E-02
 0.1195666654655E-02 -0.9963211407842E-02
 0.1162774925755E-02 -0.1049432672733E-01
 0.1131098467496E-02 -0.1104036256740E-01
 0.1102739274065E-02 -0.1160317385988E-01
 0.1080825887998E-02 -0.1218463092730E-01
 0.1069420544339E-02 -0.1278656948605E-01
 0.1073233922893E-02 -0.1341075038960E-01
 0.1097494693550E-02 -0.1405886144966E-01
 0.1148039698822E-02 -0.1473256656171E-01
 0.1231585166664E-02 -0.1543356324635E-01
 0.1356130708644E-02 -0.1616364518552E-01
 0.1531435645734E-02 -0.1692479983309E-01
 0.1769426387315E-02 -0.1771942887774E-01
 0.2084586576292E-02 -0.1855000637497E-01
 0.2495375683286E-02 -0.1941853160264E-01
 0.3027881593893E-02 -0.2032622391350E-01
 0.3722168974864E-02 -0.2127278723442E-01
 0.4644676330753E-02 -0.2224972423042E-01
 0.5953940866557E-02 -0.2320612113494E-01
 0.8019747673719E-02 -0.2412748298486E-01
 0.2919852892460E-03 -0.5334112389234E-03
 0.5551225053475E-03 -0.1063905335777E-02
 0.7525025085846E-03 -0.1559439495322E-02
 0.9076728362814E-03 -0.2030563249413E-02
 0.1032237917891E-02 -0.2488899409841E-02
 0.1132255404217E-02 -0.2939405826472E-02
 0.1212145720027E-02 -0.3385630308815E-02
 0.1275039137253E-02 -0.3829910851548E-02
 0.1323347233076E-02 -0.4273954465670E-02
 0.1358976741688E-02 -0.4719065405988E-02
 0.1383484589806E-02 -0.5166301515544E-02
 0.1398173488802E-02 -0.5616570865851E-02
 0.1404161038029E-02 -0.6070700650288E-02
 0.1402431730934E-02 -0.6529486268372E-02
 0.1393879487214E-02 -0.6993729960231E-02
 0.1379344638977E-02 -0.7464274335338E-02
 0.1359647786751E-02 -0.7942036950678E-02
 0.1335623676973E-02 -0.8428016404064E-02
 0.1308152073141E-02 -0.8923363755033E-02
 0.1278192869157E-02 -0.9429375819898E-02
 0.1246818549361E-02 -0.9947561093367E-02
 0.1215247044118E-02 -0.1047969662585E-01
 0.1184930958092E-02 -0.1102786171604E-01
 0.1157892580085E-02 -0.1159436391945E-01
 0.1137222533986E-02 -0.1218156791507E-01
 0.1126973375334E-02 -0.1279172505388E-01
 0.1131825215540E-02 -0.1342690772065E-01
 0.1156941136652E-02 -0.1408908283872E-01
 0.1208057825206E-02 -0.1478026116717E-01
 0.1291755864281E-02 -0.1550264016512E-01
 0.1415866042419E-02 -0.1625871695790E-01
 0.1589982702348E-02 -0.1705139254653E-01
 0.1825881267189E-02 -0.1788423724343E-01
 0.2137685665167E-02 -0.1876147507727E-01
 0.2543257309217E-02 -0.1968791130076E-01
 0.3067088191977E-02 -0.2067022765527E-01
 0.3747868449325E-02 -0.2171533168033E-01
 0.4645838235043E-02 -0.2283737614933E-01
 0.5886011098970E-02 -0.2401384176022E-01
 0.7969854157790E-02 -0.2515411072587E-01
 0.3354036171858E-03 -0.5877131779917E-03
 0.6035081790693E-03 -0.1129259489524E-02
 0.7964610552563E-03 -0.1612435662826E-02
 0.9508644773508E-03 -0.2074951118827E-02
 0.1074538422477E-02 -0.2524893314179E-02
 0.1174175533500E-02 -0.2968043111831E-02
 0.1253911876600E-02 -0.3407706949235E-02
 0.1316848040487E-02 -0.3846132602253E-02
 0.1365342865057E-02 -0.4284921479732E-02
 0.1401276487292E-02 -0.4725296654927E-02
 0.1426186912776E-02 -0.5168250908250E-02
 0.1441365540251E-02 -0.5614642493146E-02
 0.1447923593581E-02 -0.6065261863183E-02
 0.1446843037048E-02 -0.6520879564442E-02
 0.1439018215144E-02 -0.6982284189603E-02
 0.1425292258633E-02 -0.7450315782503E-02
 0.1406490545797E-02 -0.7925900786768E-02
 0.1383454318859E-02 -0.8410059236399E-02
 0.1357071537848E-02 -0.8903977882090E-02
 0.1328312079110E-02 -0.9409007254262E-02
 0.1298260913546E-02 -0.9926734560145E-02
 0.1268149080583E-02 -0.1045906550068E-01
 0.1239406514734E-02 -0.1100836275667E-01
 0.1213994464147E-02 -0.1157748318184E-01
 0.1194961551633E-02 -0.1216944119868E-01
 0.1186326623852E-02 -0.1278697356615E-01
 0.1192715055765E-02 -0.1343243694052E-01
 0.1219218518219E-02 -0.1410801277431E-01
 0.1271486494529E-02 -0.1481600153155E-01
 0.1355991537742E-02 -0.1555907610126E-01
 0.1480417226951E-02 -0.1634047129592E-01
 0.1654203263787E-02 -0.1716406898756E-01
 0.1889005176259E-02 -0.1803454177241E-01
 0.2198781384689E-02 -0.1895758380750E-01
 0.2600801837281E-02 -0.1994082514609E-01
 0.3119387745316E-02 -0.2099577956546E-01
 0.3788725716414E-02 -0.2214115438808E-01
 0.4676878674718E-02 -0.2340029007126E-01
 0.5854075025994E-02 -0.2485162785192E-01
 0.7808800290047E-02 -0.2639615978249E-01
-0.3597860974061E-01 -0.2686784238514E-01
-0.6444945519669E-01 -0.3800869074935E-01
-0.9079457888275E-01 -0.5155636210449E-01
-0.1151379005980E+00 -0.6736523857500E-01
-0.1375920166357E+00 -0.8524745881806E-01
-0.1582656078865E+00 -0.1049924814111E+00
-0.1772658368867E+00 -0.1263797836070E+00
-0.1946977705396E+00 -0.1491888528912E+00
-0.2106568205782E+00 -0.1732087144192E+00
-0.2252168593252E+00 -0.1982443034132E+00
-0.2384283541543E+00 -0.2241211763350E+00
-0.2503306199840E+00 -0.2506878672806E+00
-0.2609668180554E+00 -0.2778140667505E+00
-0.2703902039235E+00 -0.3053859085881E+00
-0.2786597046325E+00 -0.3333009911938E+00
-0.2858282145887E+00 -0.3614649003267E+00
-0.2919302241160E+00 -0.3897813359189E+00
-0.2970083249075E+00 -0.4181574322749E+00
-0.3010996252286E+00 -0.4465131808278E+00
-0.3448240293590E-01 -0.2666306306586E-01
-0.6173856593284E-01 -0.3780747388576E-01
-0.8691300119284E-01 -0.5141644959085E-01
-0.1101550244174E+00 -0.6734144015995E-01
-0.1315898353203E+00 -0.8539510898208E-01
-0.1513321647459E+00 -0.1053699224228E+00
-0.1694907778557E+00 -0.1270495260196E+00
-0.1861687705148E+00 -0.1502175483062E+00
-0.2014573095687E+00 -0.1746658154433E+00
-0.2154258138023E+00 -0.2002008980760E+00
-0.2281208787432E+00 -0.2266491577992E+00
-0.2395781592806E+00 -0.2538590691869E+00
-0.2498370650864E+00 -0.2816996827966E+00
-0.2589468794494E+00 -0.3100566352278E+00
-0.2669621921196E+00 -0.3388277375736E+00
-0.2739326681958E+00 -0.3679180681665E+00
-0.2798950954096E+00 -0.3972315656198E+00
-0.2848902353214E+00 -0.4266703113687E+00
-0.2889717219884E+00 -0.4561146282994E+00
-0.3293075509462E-01 -0.2647294744569E-01
-0.5893674381979E-01 -0.3762667622061E-01
-0.8291396295926E-01 -0.5131042386645E-01
-0.1050304549729E+00 -0.6736555386222E-01
-0.1254223904364E+00 -0.8560356375389E-01
-0.1442093483210E+00 -0.1058185440206E+00
-0.1615011458542E+00 -0.1277972669513E+00
-0.1773989690077E+00 -0.1513268403995E+00
-0.1919902308014E+00 -0.1762021120512E+00
-0.2053403279798E+00 -0.2022318902737E+00
-0.2174922768296E+00 -0.2292440041280E+00
-0.2284782553917E+00 -0.2570875690633E+00
-0.2383339223730E+00 -0.2856315702847E+00
-0.2471044315427E+00 -0.3147612224761E+00
-0.2548403097616E+00 -0.3443733716145E+00
-0.2615890096964E+00 -0.3743712288452E+00
-0.2673895577329E+00 -0.4046559025273E+00
-0.2722890798330E+00 -0.4351197685013E+00
-0.2763553186467E+00 -0.4656411952750E+00
-0.3132500601019E-01 -0.2629749829040E-01
-0.5604364852307E-01 -0.3746662222116E-01
-0.7879567037612E-01 -0.5123387575865E-01
-0.9976260817681E-01 -0.6742930978431E-01
-0.1190888078632E+00 -0.8586069000606E-01
-0.1368974817945E+00 -0.1063224895612E+00
-0.1532988010194E+00 -0.1286037241053E+00
-0.1683918713096E+00 -0.1524945404487E+00
-0.1822605603852E+00 -0.1777928058834E+00
-0.1949665509979E+00 -0.2043099072287E+00
-0.2065495346918E+00 -0.2318755940888E+00
-0.2170384204654E+00 -0.2603400501511E+00
-0.2264652576156E+00 -0.2895724482411E+00
-0.2348712874351E+00 -0.3194573855210E+00
-0.2423035586311E+00 -0.3498901929650E+00
-0.2488081271681E+00 -0.3807715140246E+00
-0.2544275637778E+00 -0.4119990559797E+00
-0.2592151435648E+00 -0.4434638067757E+00
-0.2632459004926E+00 -0.4750507961960E+00
-0.2966623989987E-01 -0.2613640751449E-01
-0.5305992019706E-01 -0.3732594881108E-01
-0.7455823003115E-01 -0.5118293989470E-01
-0.9435167347879E-01 -0.6752518689981E-01
-0.1125900313777E+00 -0.8615538073821E-01
-0.1293986320071E+00 -0.1068671490762E+00
-0.1448871902142E+00 -0.1294510173813E+00
-0.1591523962412E+00 -0.1536997633251E+00
-0.1722746075977E+00 -0.1794141966020E+00
-0.1843119819912E+00 -0.2064084393963E+00
-0.1953011120645E+00 -0.2345144136697E+00
-0.2052678871842E+00 -0.2635835987159E+00
-0.2142410249910E+00 -0.2934854459597E+00
-0.2222582452447E+00 -0.3241038512289E+00
-0.2293637016650E+00 -0.3553325174782E+00
-0.2356027788141E+00 -0.3870698062857E+00
-0.2410211252359E+00 -0.4192123468453E+00
-0.2456759300026E+00 -0.4516535570289E+00
-0.2496445612725E+00 -0.4842874846486E+00
-0.2795569853902E-01 -0.2598901891524E-01
-0.4998701887929E-01 -0.3720303782904E-01
-0.7020313066312E-01 -0.5115375432983E-01
-0.8879947778830E-01 -0.6764631970600E-01
-0.1059286387509E+00 -0.8647744004884E-01
-0.1217164573497E+00 -0.1074390341208E+00
-0.1362712550645E+00 -0.1303224883960E+00
-0.1496868599445E+00 -0.1549228356816E+00
-0.1620400294229E+00 -0.1810436885006E+00
-0.1733854993671E+00 -0.2085019365750E+00
-0.1837569651635E+00 -0.2371317777407E+00
-0.1931775780826E+00 -0.2667860890044E+00
-0.2016730701277E+00 -0.2973346686483E+00
-0.2092780563626E+00 -0.3286607904602E+00
-0.2160342659764E+00 -0.3606568292981E+00
-0.2219865210620E+00 -0.3932199213284E+00
-0.2271823837447E+00 -0.4262473629879E+00
-0.2316806360244E+00 -0.4596367855662E+00
-0.2355575307997E+00 -0.4932911099836E+00
-0.2619490908915E-01 -0.2585464488333E-01
-0.4682719187585E-01 -0.3709619001094E-01
-0.6573308759542E-01 -0.5114263535443E-01
-0.8310932272505E-01 -0.6778634169746E-01
-0.9910876857719E-01 -0.8681748637083E-01
-0.1138561673398E+00 -0.1080256592931E+00
-0.1274574470337E+00 -0.1312025941089E+00
-0.1400030437134E+00 -0.1561452273872E+00
-0.1515659378738E+00 -0.1826597944607E+00
-0.1621974833304E+00 -0.2105658963683E+00
-0.1719286573120E+00 -0.2397000137770E+00
-0.1807801601646E+00 -0.2699164636252E+00
-0.1887750878683E+00 -0.3010854864242E+00
-0.1959453118096E+00 -0.3330899644650E+00
-0.2023303680391E+00 -0.3658215096588E+00
-0.2079742423169E+00 -0.3991770482920E+00
-0.2129251045141E+00 -0.4330556926557E+00
-0.2172413663347E+00 -0.4673598845087E+00
-0.2209958284287E+00 -0.5020005560016E+00
-0.2438572582592E-01 -0.2573262189430E-01
-0.4358341555609E-01 -0.3700376115521E-01
-0.6115188840610E-01 -0.5114611869620E-01
-0.7728579906380E-01 -0.6793936697907E-01
-0.9213594363741E-01 -0.8716686915351E-01
-0.1058243732103E+00 -0.1086154710947E+00
-0.1184535997865E+00 -0.1320768531938E+00
-0.1301100889014E+00 -0.1573495416753E+00
-0.1408628064549E+00 -0.1842421896546E+00
-0.1507597163045E+00 -0.2125769955008E+00
-0.1598292299942E+00 -0.2421926719178E+00
-0.1680898641419E+00 -0.2729449938100E+00
-0.1755623893831E+00 -0.3047047732835E+00
-0.1822761890914E+00 -0.3373548213831E+00
-0.1882686441875E+00 -0.3707865785624E+00
-0.1935824468288E+00 -0.4048975739341E+00
-0.1982651648993E+00 -0.4395893904548E+00
-0.2023733001986E+00 -0.4747693168144E+00
-0.2059746360165E+00 -0.5103552428447E+00
-0.2253034782583E-01 -0.2562234172844E-01
-0.4025936309774E-01 -0.3692421149431E-01
-0.5646430953625E-01 -0.5116099166873E-01
-0.7133468317820E-01 -0.6809997090479E-01
-0.8501697856872E-01 -0.8751762106583E-01
-0.9762902096285E-01 -0.1091977910099E+00
-0.1092688919082E+00 -0.1329318070483E+00
-0.1200184857033E+00 -0.1585195089326E+00
-0.1299424768212E+00 -0.1857717526097E+00
-0.1390853936452E+00 -0.2145131842213E+00
-0.1474732030680E+00 -0.2445846643490E+00
-0.1551224676246E+00 -0.2758434330144E+00
-0.1620518811927E+00 -0.3081610196563E+00
-0.1682884919897E+00 -0.3414204934513E+00
-0.1738674363494E+00 -0.3755136408124E+00
-0.1788295995622E+00 -0.4103391749423E+00
-0.1832209140846E+00 -0.4458014756816E+00
-0.1870948126202E+00 -0.4818124412394E+00
-0.1905130902521E+00 -0.5182958513703E+00
-0.2063131707391E-01 -0.2552326064714E-01
-0.3685936347077E-01 -0.3685612912779E-01
-0.5167603565517E-01 -0.5118430601109E-01
-0.6526283417850E-01 -0.6826318132298E-01
-0.7775987372030E-01 -0.8786243081333E-01
-0.8927929374754E-01 -0.1097627875156E+00
-0.9991376136459E-01 -0.1337550076225E+00
-0.1097399975935E+00 -0.1596400057550E+00
-0.1188180861854E+00 -0.1872306251460E+00
-0.1271890447753E+00 -0.2163537895837E+00
-0.1348764826497E+00 -0.2468524025263E+00
-0.1418951917256E+00 -0.2785851652631E+00
-0.1482619722828E+00 -0.3114244605045E+00
-0.1540016073973E+00 -0.3452539055433E+00
-0.1591468278461E+00 -0.3799660367553E+00
-0.1637362116542E+00 -0.4154611318661E+00
-0.1678132113294E+00 -0.4516464762216E+00
-0.1714273569664E+00 -0.4884382112103E+00
-0.1746339442501E+00 -0.5257650172232E+00
-0.1869149647983E-01 -0.2543490022831E-01
-0.3338834280010E-01 -0.3679823727531E-01
-0.4679356797335E-01 -0.5121338094236E-01
-0.5907808304310E-01 -0.6842446996873E-01
-0.7037370004785E-01 -0.8819462594489E-01
-0.8078550308266E-01 -0.1103014600424E+00
-0.9039980824455E-01 -0.1345350151679E+00
-0.9928757592241E-01 -0.1606970771819E+00
-0.1075039904836E+00 -0.1886022657775E+00
-0.1150864606174E+00 -0.2180795999999E+00
-0.1220562915964E+00 -0.2489739050871E+00
-0.1284266414185E+00 -0.2811453226108E+00
-0.1342125412107E+00 -0.3144671948936E+00
-0.1394365191465E+00 -0.3488239127894E+00
-0.1441287071892E+00 -0.3841090475076E+00
-0.1483249220301E+00 -0.4202246575385E+00
-0.1520654681963E+00 -0.4570808961951E+00
-0.1553954044107E+00 -0.4945977300540E+00
-0.1583633666153E+00 -0.5327078822825E+00
-0.1671405838238E-01 -0.2535684530376E-01
-0.2985179025186E-01 -0.3674939578301E-01
-0.4182416937275E-01 -0.5124580285853E-01
-0.5278916498120E-01 -0.6857974699754E-01
-0.6286852740727E-01 -0.8850816430760E-01
-0.7215901920267E-01 -0.1108056343030E+00
-0.8073972985940E-01 -0.1352614062577E+00
-0.8867529924524E-01 -0.1616779654934E+00
-0.9601570512798E-01 -0.1898715041938E+00
-0.1027946329524E+00 -0.2196729458300E+00
-0.1090311076815E+00 -0.2509289007649E+00
-0.1147367479003E+00 -0.2835009065338E+00
-0.1199248921584E+00 -0.3172633298705E+00
-0.1246157845422E+00 -0.3521014870265E+00
-0.1288367582527E+00 -0.3879101573534E+00
-0.1326204750678E+00 -0.4245932644428E+00
-0.1360035773910E+00 -0.4620636907514E+00
-0.1390262916433E+00 -0.5002447939896E+00
-0.1417306764176E+00 -0.5390726178747E+00
-0.1470245235024E-01 -0.2528873950605E-01
-0.2625569402271E-01 -0.3670859837636E-01
-0.3677577380511E-01 -0.5127942239106E-01
-0.4640561083551E-01 -0.6872535680222E-01
-0.5525530648020E-01 -0.8879763076635E-01
-0.6341214997331E-01 -0.1112679649196E+00
-0.7094720057026E-01 -0.1359247886849E+00
-0.7791825557955E-01 -0.1625711432232E+00
-0.8436978956212E-01 -0.1910245961882E+00
-0.9033164118159E-01 -0.2211177773380E+00
-0.9582055436918E-01 -0.2526989290058E+00
-0.1008466676743E+00 -0.2856309127498E+00
-0.1054216672086E+00 -0.3197891377122E+00
-0.1095634605120E+00 -0.3550599237447E+00
-0.1132963913095E+00 -0.3913393325219E+00
-0.1166496368028E+00 -0.4285331313071E+00
-0.1196557926607E+00 -0.4665567194457E+00
-0.1223500489332E+00 -0.5053364081768E+00
-0.1247681285002E+00 -0.5448109411147E+00
-0.1266038142314E-01 -0.2523028088072E-01
-0.2260649445080E-01 -0.3667496905785E-01
-0.3165692060650E-01 -0.5131235119952E-01
-0.3993766883093E-01 -0.6885807519865E-01
-0.4754578387307E-01 -0.8905823670285E-01
-0.5455805371899E-01 -0.1116819409695E+00
-0.6103678494063E-01 -0.1365168176873E+00
-0.6703245683885E-01 -0.1633663444847E+00
-0.7258376283270E-01 -0.1920492733893E+00
-0.7771656889681E-01 -0.2223997349471E+00
-0.8244531920672E-01 -0.2542674328987E+00
-0.8677870440587E-01 -0.2875164513978E+00
-0.9072677239470E-01 -0.3220232126970E+00
-0.9430503066282E-01 -0.3576750497656E+00
-0.9753466139003E-01 -0.3943692954073E+00
-0.1004410893612E+00 -0.4320134544711E+00
-0.1030525851372E+00 -0.4705251766681E+00
-0.1053992134921E+00 -0.5098332905876E+00
-0.1075106937396E+00 -0.5498787045556E+00
-0.1059177454292E-01 -0.2518121743002E-01
-0.1891103244852E-01 -0.3664775802545E-01
-0.2647668394130E-01 -0.5134295878010E-01
-0.3339622087814E-01 -0.6897510779942E-01
-0.3975241053823E-01 -0.8928582176661E-01
-0.4561064368409E-01 -0.1120418940446E+00
-0.5102384074144E-01 -0.1370302138617E+00
-0.5603474160278E-01 -0.1640545962729E+00
-0.6067600642500E-01 -0.1929347910474E+00
-0.6496940680902E-01 -0.2235062163474E+00
-0.6892705703368E-01 -0.2556198491645E+00
-0.7255621237294E-01 -0.2891408656436E+00
-0.7586527983325E-01 -0.3239466272538E+00
-0.7886730125235E-01 -0.3599254284725E+00
-0.8158014893037E-01 -0.3969757903592E+00
-0.8402528418146E-01 -0.4350067823232E+00
-0.8622645902699E-01 -0.4739379986886E+00
-0.8820860343058E-01 -0.5137003576990E+00
-0.8999579598475E-01 -0.5542364739558E+00
-0.8500752235652E-02 -0.2514134299263E-01
-0.1517648742502E-01 -0.3662633773613E-01
-0.2124458880238E-01 -0.5136986974431E-01
-0.2679268259272E-01 -0.6907408951361E-01
-0.3188823092334E-01 -0.8947685727616E-01
-0.3658447016272E-01 -0.1123430079357E+00
-0.4092439665789E-01 -0.1374587819540E+00
-0.4494264986711E-01 -0.1646282493276E+00
-0.4866563661203E-01 -0.1936719739362E+00
-0.5211092269784E-01 -0.2244264406527E+00
-0.5528825712659E-01 -0.2567436947312E+00
-0.5820345960338E-01 -0.2904898465885E+00
-0.6086328398223E-01 -0.3255430831892E+00
-0.6327824507844E-01 -0.3617925566578E+00
-0.6546278291394E-01 -0.3991378349293E+00
-0.6743423452589E-01 -0.4374893273089E+00
-0.6921170541793E-01 -0.4767682406002E+00
-0.7081502901605E-01 -0.5169071695700E+00
-0.7226299259903E-01 -0.5578500405301E+00
-0.6391601009665E-02 -0.2511049381560E-01
-0.1141033082164E-01 -0.3661019956119E-01
-0.1597054852799E-01 -0.5139196158028E-01
-0.2013892939729E-01 -0.6915308437829E-01
-0.2396680144119E-01 -0.8962844951541E-01
-0.2749463402232E-01 -0.1125813272629E+00
-0.3075506249256E-01 -0.1377974270526E+00
-0.3377433057238E-01 -0.1650810043603E+00
-0.3657240908307E-01 -0.1942532553291E+00
-0.3916256220475E-01 -0.2251515033277E+00
-0.4155213851864E-01 -0.2576286417502E+00
-0.4374551505815E-01 -0.2915515338552E+00
-0.4574777646658E-01 -0.3267990446508E+00
-0.4756685773223E-01 -0.3632610372815E+00
-0.4921367050194E-01 -0.4008379391178E+00
-0.5070130990951E-01 -0.4394412363297E+00
-0.5204415497290E-01 -0.4789933999216E+00
-0.5325700277180E-01 -0.5194283050447E+00
-0.5435365532004E-01 -0.5606908458665E+00
-0.4268736976930E-02 -0.2508854554508E-01
-0.7620261932205E-02 -0.3659895084567E-01
-0.1066477918709E-01 -0.5140836287405E-01
-0.1344719512007E-01 -0.6921058592277E-01
-0.1600207786067E-01 -0.8973834345697E-01
-0.1835666627211E-01 -0.1127537660791E+00
-0.2053290316416E-01 -0.1380421698722E+00
-0.2254841122038E-01 -0.1654079360867E+00
-0.2441658435276E-01 -0.1946727121833E+00
-0.2614630926821E-01 -0.2256744254543E+00
-0.2774250372155E-01 -0.2582665846815E+00
-0.2920809271335E-01 -0.2923166052061E+00
-0.3054647613434E-01 -0.3277038558080E+00
-0.3176296769995E-01 -0.3643187309279E+00
-0.3286488015688E-01 -0.4020622954469E+00
-0.3386098546859E-01 -0.4408468222313E+00
-0.3476088953566E-01 -0.4805956892647E+00
-0.3557441514965E-01 -0.5212436723431E+00
-0.3631062246818E-01 -0.5627363283878E+00
-0.2136675827555E-02 -0.2507541100021E-01
-0.3814154705547E-02 -0.3659231272036E-01
-0.5337728690405E-02 -0.5141845204867E-01
-0.6729988059567E-02 -0.6924551761402E-01
-0.8008321943122E-02 -0.8980492585105E-01
-0.9186427785215E-02 -0.1128581147584E+00
-0.1027533297963E-01 -0.1381901588278E+00
-0.1128388714387E-01 -0.1656055121358E+00
-0.1221881146378E-01 -0.1949260928743E+00
-0.1308456269427E-01 -0.2259901927672E+00
-0.1388360555245E-01 -0.2586516937503E+00
-0.1461740485760E-01 -0.2927783482351E+00
-0.1528766378120E-01 -0.3282498350891E+00
-0.1589704637972E-01 -0.3649568768544E+00
-0.1644922039853E-01 -0.4028009301900E+00
-0.1694858394909E-01 -0.4416947466599E+00
-0.1739994516909E-01 -0.4815622496208E+00
-0.1780820191862E-01 -0.5223387492844E+00
-0.1817784111358E-01 -0.5639701882648E+00
 0.3711613585922E-09 -0.2507103852380E-01
 0.5860431029348E-09 -0.3659011849872E-01
 0.7177354544030E-09 -0.5142185649050E-01
 0.7788451480972E-09 -0.6925723331579E-01
 0.7809027730010E-09 -0.8982722770509E-01
 0.7353240794039E-09 -0.1128930453249E+00
 0.6542461294945E-09 -0.1382396792097E+00
 0.5510475548087E-09 -0.1656716072765E+00
 0.4400731307141E-09 -0.1950108379572E+00
 0.3349911736894E-09 -0.2260957848073E+00
 0.2460517622982E-09 -0.2587804548095E+00
 0.1780334490942E-09 -0.2929327137106E+00
 0.1305675290109E-09 -0.3284323450488E+00
 0.1002861960142E-09 -0.3651701822816E+00
 0.8296771603078E-10 -0.4030478141871E+00
 0.7475370322751E-10 -0.4419781529756E+00
 0.7253905809357E-10 -0.4818853039509E+00
 0.7396278034477E-10 -0.5227047544182E+00
 0.7723144346272E-10 -0.5643825733970E+00
 0.2136676569173E-02 -0.2507541100396E-01
 0.3814155876534E-02 -0.3659231272311E-01
 0.5337730124587E-02 -0.5141845204881E-01
 0.6729989615912E-02 -0.6924551761092E-01
 0.8008323503615E-02 -0.8980492584472E-01
 0.9186429254644E-02 -0.1128581147494E+00
 0.1027533428704E-01 -0.1381901588167E+00
 0.1128388824503E-01 -0.1656055121238E+00
 0.1221881234317E-01 -0.1949260928623E+00
 0.1308456336366E-01 -0.2259901927562E+00
 0.1388360604411E-01 -0.2586516937407E+00
 0.1461740521336E-01 -0.2927783482272E+00
 0.1528766404212E-01 -0.3282498350832E+00
 0.1589704658016E-01 -0.3649568768503E+00
 0.1644922056438E-01 -0.4028009301877E+00
 0.1694858409855E-01 -0.4416947466592E+00
 0.1739994531415E-01 -0.4815622496216E+00
 0.1780820206655E-01 -0.5223387492867E+00
 0.1817784126807E-01 -0.5639701882685E+00
 0.4268737716440E-02 -0.2508854555259E-01
 0.7620263099905E-02 -0.3659895085119E-01
 0.1066478061742E-01 -0.5140836287440E-01
 0.1344719667239E-01 -0.6921058591665E-01
 0.1600207941724E-01 -0.8973834344442E-01
 0.1835666773789E-01 -0.1127537660611E+00
 0.2053290446832E-01 -0.1380421698502E+00
 0.2254841231877E-01 -0.1654079360628E+00
 0.2441658522989E-01 -0.1946727121595E+00
 0.2614630993584E-01 -0.2256744254323E+00
 0.2774250421191E-01 -0.2582665846624E+00
 0.2920809306819E-01 -0.2923166051906E+00
 0.3054647639464E-01 -0.3277038557962E+00
 0.3176296789998E-01 -0.3643187309197E+00
 0.3286488032249E-01 -0.4020622954422E+00
 0.3386098561792E-01 -0.4408468222300E+00
 0.3476088968067E-01 -0.4805956892664E+00
 0.3557441529760E-01 -0.5212436723477E+00
 0.3631062262278E-01 -0.5627363283952E+00
 0.6391601745680E-02 -0.2511049382690E-01
 0.1141033198389E-01 -0.3661019956955E-01
 0.1597054995192E-01 -0.5139196158096E-01
 0.2013893094294E-01 -0.6915308436934E-01
 0.2396680299124E-01 -0.8962844949687E-01
 0.2749463548204E-01 -0.1125813272362E+00
 0.3075506379132E-01 -0.1377974270201E+00
 0.3377433166616E-01 -0.1650810043249E+00
 0.3657240995644E-01 -0.1942532552937E+00
 0.3916256286946E-01 -0.2251515032949E+00
 0.4155213900684E-01 -0.2576286417218E+00
 0.4374551541145E-01 -0.2915515338321E+00
 0.4574777672584E-01 -0.3267990446332E+00
 0.4756685793160E-01 -0.3632610372694E+00
 0.4921367066714E-01 -0.4008379391109E+00
 0.5070131005862E-01 -0.4394412363277E+00
 0.5204415511783E-01 -0.4789933999241E+00
 0.5325700291979E-01 -0.5194283050516E+00
 0.5435365547481E-01 -0.5606908458777E+00
 0.8500752966812E-02 -0.2514134300775E-01
 0.1517648857970E-01 -0.3662633774744E-01
 0.2124459021743E-01 -0.5136986974551E-01
 0.2679268412909E-01 -0.6907408950212E-01
 0.3188823246434E-01 -0.8947685725199E-01
 0.3658447161402E-01 -0.1123430079007E+00
 0.4092439794913E-01 -0.1374587819112E+00
 0.4494265095448E-01 -0.1646282492809E+00
 0.4866563748017E-01 -0.1936719738895E+00
 0.5211092335848E-01 -0.2244264406094E+00
 0.5528825761177E-01 -0.2567436946937E+00
 0.5820345995456E-01 -0.2904898465579E+00
 0.6086328424006E-01 -0.3255430831661E+00
 0.6327824527689E-01 -0.3617925566420E+00
 0.6546278307860E-01 -0.3991378349203E+00
 0.6743423467470E-01 -0.4374893273064E+00
 0.6921170556274E-01 -0.4767682406038E+00
 0.7081502916410E-01 -0.5169071695794E+00
 0.7226299275403E-01 -0.5578500405452E+00
 0.1059177526791E-01 -0.2518121744900E-01
 0.1891103359357E-01 -0.3664775803982E-01
 0.2647668534504E-01 -0.5134295878207E-01
 0.3339622240271E-01 -0.6897510778576E-01
 0.3975241206769E-01 -0.8928582173728E-01
 0.4561064512465E-01 -0.1120418940018E+00
 0.5102384202311E-01 -0.1370302138093E+00
 0.5603474268196E-01 -0.1640545962155E+00
 0.6067600728646E-01 -0.1929347909900E+00
 0.6496940746448E-01 -0.2235062162941E+00
 0.6892705751502E-01 -0.2556198491182E+00
 0.7255621272140E-01 -0.2891408656059E+00
 0.7586528008927E-01 -0.3239466272253E+00
 0.7886730144964E-01 -0.3599254284531E+00
 0.8158014909433E-01 -0.3969757903484E+00
 0.8402528432989E-01 -0.4350067823204E+00
 0.8622645917167E-01 -0.4739379986933E+00
 0.8820860357870E-01 -0.5137003577109E+00
 0.8999579614005E-01 -0.5542364739748E+00
 0.1266038214067E-01 -0.2523028090364E-01
 0.2260649558423E-01 -0.3667496907547E-01
 0.3165692199660E-01 -0.5131235120259E-01
 0.3993767034123E-01 -0.6885807518329E-01
 0.4754578538859E-01 -0.8905823666895E-01
 0.5455805514656E-01 -0.1116819409196E+00
 0.6103678621070E-01 -0.1365168176259E+00
 0.6703245790812E-01 -0.1633663444172E+00
 0.7258376368608E-01 -0.1920492733216E+00
 0.7771656954599E-01 -0.2223997348841E+00
 0.8244531968343E-01 -0.2542674328441E+00
 0.8677870475107E-01 -0.2875164513534E+00
 0.9072677264854E-01 -0.3220232126634E+00
 0.9430503085873E-01 -0.3576750497428E+00
 0.9753466155317E-01 -0.3943692953948E+00
 0.1004410895092E+00 -0.4320134544682E+00
 0.1030525852817E+00 -0.4705251766742E+00
 0.1053992136403E+00 -0.5098332906023E+00
 0.1075106938952E+00 -0.5498787045787E+00
 0.1470245305911E-01 -0.2528873953298E-01
 0.2625569514262E-01 -0.3670859839743E-01
 0.3677577517934E-01 -0.5127942239561E-01
 0.4640561232922E-01 -0.6872535678572E-01
 0.5525530797948E-01 -0.8879763072858E-01
 0.6341215138574E-01 -0.1112679648634E+00
 0.7094720182680E-01 -0.1359247886152E+00
 0.7791825663726E-01 -0.1625711431464E+00
 0.8436979040606E-01 -0.1910245961110E+00
 0.9033164182344E-01 -0.2211177772661E+00
 0.9582055484048E-01 -0.2526989289433E+00
 0.1008466680157E+00 -0.2856309126990E+00
 0.1054216674599E+00 -0.3197891376739E+00
 0.1095634607063E+00 -0.3550599237189E+00
 0.1132963914717E+00 -0.3913393325080E+00
 0.1166496369503E+00 -0.4285331313043E+00
 0.1196557928050E+00 -0.4665567194533E+00
 0.1223500490815E+00 -0.5053364081943E+00
 0.1247681286563E+00 -0.5448109411420E+00
 0.1671405908144E-01 -0.2535684533480E-01
 0.2985179135647E-01 -0.3674939580776E-01
 0.4182417072900E-01 -0.5124580286501E-01
 0.5278916645609E-01 -0.6857974698057E-01
 0.6286852888812E-01 -0.8850816426678E-01
 0.7215902059788E-01 -0.1108056342413E+00
 0.8073973110054E-01 -0.1352614061808E+00
 0.8867530028977E-01 -0.1616779654082E+00
 0.9601570596117E-01 -0.1898715041078E+00
 0.1027946335859E+00 -0.2196729457498E+00
 0.1090311081466E+00 -0.2509289006951E+00
 0.1147367482375E+00 -0.2835009064770E+00
 0.1199248924069E+00 -0.3172633298280E+00
 0.1246157847347E+00 -0.3521014869980E+00
 0.1288367584139E+00 -0.3879101573384E+00
 0.1326204752148E+00 -0.4245932644404E+00
 0.1360035775352E+00 -0.4620636907608E+00
 0.1390262917917E+00 -0.5002447940102E+00
 0.1417306765742E+00 -0.5390726179063E+00
 0.1869149716802E-01 -0.2543490026358E-01
 0.3338834388775E-01 -0.3679823730404E-01
 0.4679356930965E-01 -0.5121338095130E-01
 0.5907808449710E-01 -0.6842446995204E-01
 0.7037370150821E-01 -0.8819462590197E-01
 0.8078550445872E-01 -0.1103014599764E+00
 0.9039980946854E-01 -0.1345350150848E+00
 0.9928757695225E-01 -0.1606970770893E+00
 0.1075039913047E+00 -0.1886022656837E+00
 0.1150864612416E+00 -0.2180795999121E+00
 0.1220562920547E+00 -0.2489739050106E+00
 0.1284266417508E+00 -0.2811453225487E+00
 0.1342125414560E+00 -0.3144671948471E+00
 0.1394365193372E+00 -0.3488239127586E+00
 0.1441287073492E+00 -0.3841090474918E+00
 0.1483249221766E+00 -0.4202246575367E+00
 0.1520654683403E+00 -0.4570808962065E+00
 0.1553954045593E+00 -0.4945977300778E+00
 0.1583633667724E+00 -0.5327078823185E+00
 0.2063131775025E-01 -0.2552326068677E-01
 0.3685936453993E-01 -0.3685612916081E-01
 0.5167603696973E-01 -0.5118430602308E-01
 0.6526283560970E-01 -0.6826318130743E-01
 0.7775987515825E-01 -0.8786243076936E-01
 0.8927929510262E-01 -0.1097627874464E+00
 0.9991376256976E-01 -0.1337550075343E+00
 0.1097399986072E+00 -0.1596400056561E+00
 0.1188180869934E+00 -0.1872306250453E+00
 0.1271890453893E+00 -0.2163537894892E+00
 0.1348764831005E+00 -0.2468524024439E+00
 0.1418951920528E+00 -0.2785851651962E+00
 0.1482619725248E+00 -0.3114244604546E+00
 0.1540016075858E+00 -0.3452539055105E+00
 0.1591468280051E+00 -0.3799660367390E+00
 0.1637362118001E+00 -0.4154611318653E+00
 0.1678132114733E+00 -0.4516464762353E+00
 0.1714273571151E+00 -0.4884382112376E+00
 0.1746339444077E+00 -0.5257650172638E+00
 0.2253034848945E-01 -0.2562234177259E-01
 0.4025936414706E-01 -0.3692421153201E-01
 0.5646431082745E-01 -0.5116099168444E-01
 0.7133468458486E-01 -0.6809997089133E-01
 0.8501697998252E-01 -0.8751762102197E-01
 0.9762902229528E-01 -0.1091977909388E+00
 0.1092688930931E+00 -0.1329318069563E+00
 0.1200184866995E+00 -0.1585195088286E+00
 0.1299424776150E+00 -0.1857717525032E+00
 0.1390853942482E+00 -0.2145131841210E+00
 0.1474732035107E+00 -0.2445846642613E+00
 0.1551224679462E+00 -0.2758434329433E+00
 0.1620518814310E+00 -0.3081610196036E+00
 0.1682884921762E+00 -0.3414204934171E+00
 0.1738674365071E+00 -0.3755136407961E+00
 0.1788295997075E+00 -0.4103391749428E+00
 0.1832209142282E+00 -0.4458014756977E+00
 0.1870948127691E+00 -0.4818124412702E+00
 0.1905130904103E+00 -0.5182958514156E+00
 0.2438572647605E-01 -0.2573262194317E-01
 0.4358341658437E-01 -0.3700376119801E-01
 0.6115188967252E-01 -0.5114611871638E-01
 0.7728580044438E-01 -0.6793936696877E-01
 0.9213594502550E-01 -0.8716686911105E-01
 0.1058243745186E+00 -0.1086154710230E+00
 0.1184536009495E+00 -0.1320768530995E+00
 0.1301100898789E+00 -0.1573495415676E+00
 0.1408628072334E+00 -0.1842421895435E+00
 0.1507597168956E+00 -0.2125769953957E+00
 0.1598292304283E+00 -0.2421926718257E+00
 0.1680898644576E+00 -0.2729449937354E+00
 0.1755623896176E+00 -0.3047047732284E+00
 0.1822761892756E+00 -0.3373548213478E+00
 0.1882686443441E+00 -0.3707865785464E+00
 0.1935824469736E+00 -0.4048975739362E+00
 0.1982651650428E+00 -0.4395893904737E+00
 0.2023733003477E+00 -0.4747693168491E+00
 0.2059746361753E+00 -0.5103552428949E+00
 0.2619490972515E-01 -0.2585464493714E-01
 0.4682719288210E-01 -0.3709619005931E-01
 0.6573308883585E-01 -0.5114263537991E-01
 0.8310932407823E-01 -0.6778634169147E-01
 0.9910876993819E-01 -0.8681748633118E-01
 0.1138561686225E+00 -0.1080256592224E+00
 0.1274574481738E+00 -0.1312025940138E+00
 0.1400030446710E+00 -0.1561452272771E+00
 0.1515659386360E+00 -0.1826597943463E+00
 0.1621974839089E+00 -0.2105658962595E+00
 0.1719286577370E+00 -0.2397000136815E+00
 0.1807801604739E+00 -0.2699164635479E+00
 0.1887750880989E+00 -0.3010854863673E+00
 0.1959453119914E+00 -0.3330899644292E+00
 0.2023303681946E+00 -0.3658215096435E+00
 0.2079742424612E+00 -0.3991770482960E+00
 0.2129251046576E+00 -0.4330556926777E+00
 0.2172413664840E+00 -0.4673598845475E+00
 0.2209958285882E+00 -0.5020005560568E+00
 0.2795569916038E-01 -0.2598901897424E-01
 0.4998701986271E-01 -0.3720303788353E-01
 0.7020313187659E-01 -0.5115375436153E-01
 0.8879947911299E-01 -0.6764631970558E-01
 0.1059286400837E+00 -0.8647744001350E-01
 0.1217164586057E+00 -0.1074390340528E+00
 0.1362712561804E+00 -0.1303224883018E+00
 0.1496868608813E+00 -0.1549228355707E+00
 0.1620400301681E+00 -0.1810436883842E+00
 0.1733854999325E+00 -0.2085019364636E+00
 0.1837569655788E+00 -0.2371317776427E+00
 0.1931775783854E+00 -0.2667860889251E+00
 0.2016730703541E+00 -0.2973346685903E+00
 0.2092780565421E+00 -0.3286607904243E+00
 0.2160342661307E+00 -0.3606568292839E+00
 0.2219865212059E+00 -0.3932199213346E+00
 0.2271823838882E+00 -0.4262473630132E+00
 0.2316806361739E+00 -0.4596367856092E+00
 0.2355575309597E+00 -0.4932911100439E+00
 0.2966624050622E-01 -0.2613640757897E-01
 0.5305992115708E-01 -0.3732594887229E-01
 0.7455823121694E-01 -0.5118293993362E-01
 0.9435167477415E-01 -0.6752518690634E-01
 0.1125900326812E+00 -0.8615538070882E-01
 0.1293986332354E+00 -0.1068671490126E+00
 0.1448871913049E+00 -0.1294510172896E+00
 0.1591523971564E+00 -0.1536997632151E+00
 0.1722746083251E+00 -0.1794141964851E+00
 0.1843119825428E+00 -0.2064084392836E+00
 0.1953011124699E+00 -0.2345144135701E+00
 0.2052678874803E+00 -0.2635835986353E+00
 0.2142410252133E+00 -0.2934854459012E+00
 0.2222582454219E+00 -0.3241038511935E+00
 0.2293637018183E+00 -0.3553325174654E+00
 0.2356027789578E+00 -0.3870698062945E+00
 0.2410211253795E+00 -0.4192123468741E+00
 0.2456759301524E+00 -0.4516535570763E+00
 0.2496445614332E+00 -0.4842874847140E+00
 0.3132500660130E-01 -0.2629749836071E-01
 0.5604364945934E-01 -0.3746662228977E-01
 0.7879567153378E-01 -0.5123387580590E-01
 0.9976260944225E-01 -0.6742930979928E-01
 0.1190888091369E+00 -0.8586068998435E-01
 0.1368974829943E+00 -0.1063224895038E+00
 0.1532988020843E+00 -0.1286037240180E+00
 0.1683918722023E+00 -0.1524945403412E+00
 0.1822605610942E+00 -0.1777928057675E+00
 0.1949665515353E+00 -0.2043099071160E+00
 0.2065495350869E+00 -0.2318755939888E+00
 0.2170384207546E+00 -0.2603400500703E+00
 0.2264652578336E+00 -0.2895724481828E+00
 0.2348712876099E+00 -0.3194573854866E+00
 0.2423035587833E+00 -0.3498901929541E+00
 0.2488081273115E+00 -0.3807715140361E+00
 0.2544275639215E+00 -0.4119990560120E+00
 0.2592151437149E+00 -0.4434638068275E+00
 0.2632459006539E+00 -0.4750507962665E+00
 0.3293075567042E-01 -0.2647294752222E-01
 0.5893674473222E-01 -0.3762667629739E-01
 0.8291396408860E-01 -0.5131042392327E-01
 0.1050304562081E+00 -0.6736555388723E-01
 0.1254223916798E+00 -0.8560356374170E-01
 0.1442093494918E+00 -0.1058185439714E+00
 0.1615011468926E+00 -0.1277972668704E+00
 0.1773989698774E+00 -0.1513268402963E+00
 0.1919902314915E+00 -0.1762021119379E+00
 0.2053403285027E+00 -0.2022318901624E+00
 0.2174922772141E+00 -0.2292440040289E+00
 0.2284782556737E+00 -0.2570875689832E+00
 0.2383339225865E+00 -0.2856315702275E+00
 0.2471044317151E+00 -0.3147612224432E+00
 0.2548403099128E+00 -0.3443733716058E+00
 0.2615890098396E+00 -0.3743712288596E+00
 0.2673895578767E+00 -0.4046559025633E+00
 0.2722890799835E+00 -0.4351197685574E+00
 0.2763553188084E+00 -0.4656411953503E+00
 0.3448240349649E-01 -0.2666306314908E-01
 0.6173856682160E-01 -0.3780747397161E-01
 0.8691300229398E-01 -0.5141644965858E-01
 0.1101550256223E+00 -0.6734144019672E-01
 0.1315898365331E+00 -0.8539510898134E-01
 0.1513321658875E+00 -0.1053699223837E+00
 0.1694907788672E+00 -0.1270495259469E+00
 0.1861687713612E+00 -0.1502175482092E+00
 0.2014573102397E+00 -0.1746658153343E+00
 0.2154258143103E+00 -0.2002008979677E+00
 0.2281208791170E+00 -0.2266491577022E+00
 0.2395781595554E+00 -0.2538590691087E+00
 0.2498370652954E+00 -0.2816996827413E+00
 0.2589468796194E+00 -0.3100566351971E+00
 0.2669621922698E+00 -0.3388277375675E+00
 0.2739326683389E+00 -0.3679180681840E+00
 0.2798950955537E+00 -0.3972315656595E+00
 0.2848902354722E+00 -0.4266703114288E+00
 0.2889717221506E+00 -0.4561146283792E+00
 0.3597861028627E-01 -0.2686784247563E-01
 0.6444945606218E-01 -0.3800869084532E-01
 0.9079457995606E-01 -0.5155636218465E-01
 0.1151379017729E+00 -0.6736523862533E-01
 0.1375920178181E+00 -0.8524745883075E-01
 0.1582656089987E+00 -0.1049924813843E+00
 0.1772658378713E+00 -0.1263797835445E+00
 0.1946977713625E+00 -0.1491888528022E+00
 0.2106568212298E+00 -0.1732087143162E+00
 0.2252168598184E+00 -0.1982443033094E+00
 0.2384283545174E+00 -0.2241211762417E+00
 0.2503306202515E+00 -0.2506878672055E+00
 0.2609668182599E+00 -0.2778140666982E+00
 0.2703902040910E+00 -0.3053859085604E+00
 0.2786597047817E+00 -0.3333009911907E+00
 0.2858282147317E+00 -0.3614649003474E+00
 0.2919302242603E+00 -0.3897813359619E+00
 0.2970083250585E+00 -0.4181574323386E+00
 0.3010996253911E+00 -0.4465131809115E+00
-0.1387415429084E+00 -0.8828799743827E-01
-0.2207428551980E+00 -0.1547642256981E+00
-0.2826595133431E+00 -0.2033369071267E+00
-0.3318791511996E+00 -0.2410044547414E+00
-0.3718033842393E+00 -0.2715908167644E+00
-0.4044708897601E+00 -0.2957819615360E+00
-0.4308157642667E+00 -0.3125670148154E+00
-0.4511124734962E+00 -0.3225834683765E+00
-0.4655206641608E+00 -0.3273182293140E+00
-0.4741805569853E+00 -0.3280036661401E+00
-0.4771563994605E+00 -0.3255641938320E+00
-0.4744543136738E+00 -0.3208022209364E+00
-0.4660857336533E+00 -0.3144717545412E+00
-0.4520948630697E+00 -0.3073534404004E+00
-0.4326159758162E+00 -0.3003644370930E+00
-0.4079431314351E+00 -0.2944821231193E+00
-0.3785045568902E+00 -0.2901817471260E+00
-0.3457648934647E+00 -0.2917517209009E+00
-0.3135825931938E+00 -0.3035387039813E+00
-0.1266169055845E+00 -0.7446221826081E-01
-0.2100685078607E+00 -0.1326947227866E+00
-0.2741324643936E+00 -0.1827329979948E+00
-0.3246197756181E+00 -0.2227764584804E+00
-0.3655837902742E+00 -0.2556956689809E+00
-0.3991618153374E+00 -0.2823823835493E+00
-0.4264057483233E+00 -0.3019912032248E+00
-0.4476719232414E+00 -0.3150626753765E+00
-0.4631702391253E+00 -0.3228856472586E+00
-0.4730855033917E+00 -0.3265876746412E+00
-0.4775127250674E+00 -0.3270619207916E+00
-0.4764665753774E+00 -0.3250832612239E+00
-0.4699440774824E+00 -0.3213633428264E+00
-0.4579567191141E+00 -0.3166108355550E+00
-0.4405744141628E+00 -0.3116490609288E+00
-0.4179994350282E+00 -0.3073241130633E+00
-0.3905690306935E+00 -0.3040350247370E+00
-0.3595301922341E+00 -0.3056903183248E+00
-0.3283744091349E+00 -0.3166340746846E+00
-0.1163247177835E+00 -0.6519462632486E-01
-0.1987556129825E+00 -0.1159152725166E+00
-0.2641622654397E+00 -0.1638488386780E+00
-0.3160242999048E+00 -0.2050517971932E+00
-0.3580636564497E+00 -0.2397964522984E+00
-0.3925900505980E+00 -0.2686101901542E+00
-0.4207528948843E+00 -0.2907377272055E+00
-0.4430036300773E+00 -0.3066276011493E+00
-0.4596019297565E+00 -0.3174061353233E+00
-0.4707694899596E+00 -0.3240730578131E+00
-0.4766347191794E+00 -0.3274474673451E+00
-0.4772312714842E+00 -0.3282555425228E+00
-0.4725573505843E+00 -0.3271618300867E+00
-0.4626046639478E+00 -0.3248099441206E+00
-0.4473978695242E+00 -0.3219297119416E+00
-0.4270666916475E+00 -0.3192666711691E+00
-0.4018685092644E+00 -0.3171524019402E+00
-0.3728159860210E+00 -0.3191977126217E+00
-0.3430498761980E+00 -0.3296959187947E+00
-0.1075004449428E+00 -0.5842946933618E-01
-0.1876346069400E+00 -0.1027701821775E+00
-0.2532586040588E+00 -0.1474795302931E+00
-0.3061725851225E+00 -0.1883174078241E+00
-0.3492683896473E+00 -0.2241365518672E+00
-0.3847472223209E+00 -0.2546318943256E+00
-0.4138285056159E+00 -0.2789527892970E+00
-0.4370546262810E+00 -0.2974127498945E+00
-0.4547442362082E+00 -0.3109733025274E+00
-0.4671528224156E+00 -0.3205055012765E+00
-0.4744390643915E+00 -0.3267361529870E+00
-0.4766599821850E+00 -0.3303235763983E+00
-0.4738263111055E+00 -0.3318762915847E+00
-0.4659236925254E+00 -0.3319737407938E+00
-0.4529464489296E+00 -0.3312626998665E+00
-0.4349698535282E+00 -0.3304002816900E+00
-0.4121868986946E+00 -0.3296624352356E+00
-0.3853707255584E+00 -0.3324043469551E+00
-0.3573170588970E+00 -0.3428491227980E+00
-0.9983917831893E-01 -0.5322097201897E-01
-0.1769830114737E+00 -0.9225392274601E-01
-0.2418996811104E+00 -0.1334636516064E+00
-0.2953043794603E+00 -0.1729868229998E+00
-0.3392653927372E+00 -0.2090299452509E+00
-0.3756464161418E+00 -0.2406613216422E+00
-0.4056169160642E+00 -0.2668015072536E+00
-0.4297893279254E+00 -0.2875551461298E+00
-0.4485427168004E+00 -0.3036934883727E+00
-0.4621663329392E+00 -0.3159530745829E+00
-0.4708461535241E+00 -0.3249615240190E+00
-0.4746632166736E+00 -0.3312987985215E+00
-0.4736479249288E+00 -0.3355089242390E+00
-0.4677906351431E+00 -0.3381071206177E+00
-0.4570687705756E+00 -0.3396639883172E+00
-0.4415194844915E+00 -0.3407587964877E+00
-0.4212889920917E+00 -0.3416184769316E+00
-0.3969126926484E+00 -0.3453696213010E+00
-0.3708343166777E+00 -0.3561326115769E+00
-0.9309803774348E-01 -0.4907352947353E-01
-0.1668874144222E+00 -0.8368956617381E-01
-0.2304012478130E+00 -0.1214919158047E+00
-0.2837048183202E+00 -0.1591774277042E+00
-0.3281972258307E+00 -0.1947593747083E+00
-0.3653367200611E+00 -0.2269447857762E+00
-0.3961251539221E+00 -0.2544760125297E+00
-0.4211900344771E+00 -0.2772067945803E+00
-0.4409598815356E+00 -0.2956851097575E+00
-0.4557549604670E+00 -0.3104996528754E+00
-0.4657857904811E+00 -0.3221731696386E+00
-0.4711565255905E+00 -0.3312020178584E+00
-0.4719208244095E+00 -0.3380606121589E+00
-0.4680814935418E+00 -0.3431995933782E+00
-0.4596101853931E+00 -0.3471185728867E+00
-0.4465204885783E+00 -0.3503264990539E+00
-0.4289290797888E+00 -0.3530078939944E+00
-0.4071397153008E+00 -0.3580720883009E+00
-0.3832310457103E+00 -0.3694913099876E+00
-0.8708967541133E-01 -0.4568916115149E-01
-0.1573524764350E+00 -0.7661339616035E-01
-0.2189620621334E+00 -0.1112478325611E+00
-0.2716264728295E+00 -0.1468554585610E+00
-0.3162512155862E+00 -0.1814913120384E+00
-0.3539151338251E+00 -0.2137121492999E+00
-0.3853923651205E+00 -0.2421838379660E+00
-0.4112625123044E+00 -0.2665369782404E+00
-0.4319776215014E+00 -0.2870811592907E+00
-0.4478804397801E+00 -0.3042433352319E+00
-0.4592015230436E+00 -0.3184346025621E+00
-0.4660659072706E+00 -0.3300642185584E+00
-0.4685514442495E+00 -0.3395342570492E+00
-0.4666782451789E+00 -0.3472311500913E+00
-0.4604208373053E+00 -0.3535875310086E+00
-0.4497814284080E+00 -0.3590476819669E+00
-0.4348624883368E+00 -0.3637596018032E+00
-0.4157458833829E+00 -0.3704149901336E+00
-0.3941321723881E+00 -0.3827818231399E+00
-0.8166854647456E-01 -0.4287419886585E-01
-0.1483482697020E+00 -0.7069449261261E-01
-0.2077026342625E+00 -0.1024508064135E+00
-0.2592725936831E+00 -0.1359143748651E+00
-0.3036218930447E+00 -0.1692936557565E+00
-0.3415162958326E+00 -0.2011345922687E+00
-0.3734943981642E+00 -0.2301210141563E+00
-0.4000415235778E+00 -0.2557228279003E+00
-0.4216013801910E+00 -0.2780273695693E+00
-0.4385246521301E+00 -0.2972957256615E+00
-0.4510544510692E+00 -0.3138223874392E+00
-0.4593325911276E+00 -0.3279268920296E+00
-0.4634596868924E+00 -0.3399375381057E+00
-0.4634754215681E+00 -0.3501774835298E+00
-0.4593633501728E+00 -0.3590157949720E+00
-0.4511238832175E+00 -0.3668362956358E+00
-0.4388577947733E+00 -0.3737553589820E+00
-0.4224387890205E+00 -0.3822384944468E+00
-0.4031823341091E+00 -0.3957890043980E+00
-0.7672067088662E-01 -0.4049541205302E-01
-0.1398311391880E+00 -0.6568908433964E-01
-0.1966927898392E+00 -0.9486215292214E-01
-0.2467991408851E+00 -0.1262186663018E+00
-0.2904902542466E+00 -0.1581646783813E+00
-0.3282937393243E+00 -0.1893182951291E+00
-0.3605384697318E+00 -0.2184483618400E+00
-0.3875925790525E+00 -0.2449327441835E+00
-0.4098635628274E+00 -0.2686742589459E+00
-0.4276931503491E+00 -0.2897786705378E+00
-0.4413269311184E+00 -0.3084248744556E+00
-0.4509173379700E+00 -0.3248422815779E+00
-0.4565840276365E+00 -0.3392851815796E+00
-0.4583861090071E+00 -0.3520148059097E+00
-0.4563199392428E+00 -0.3633396596263E+00
-0.4503911360351E+00 -0.3735862621472E+00
-0.4407081087009E+00 -0.3828430225336E+00
-0.4269549093025E+00 -0.3933364035957E+00
-0.4100654900804E+00 -0.4082471111038E+00
-0.7215618154457E-01 -0.3845733950267E-01
-0.1317536270909E+00 -0.6141287266036E-01
-0.1859697038742E+00 -0.8828168109325E-01
-0.2343224882295E+00 -0.1176260720444E+00
-0.2770147668192E+00 -0.1480583235297E+00
-0.3144043832823E+00 -0.1783127626281E+00
-0.3466526414654E+00 -0.2072821600011E+00
-0.3740084170557E+00 -0.2343115416303E+00
-0.3968241787369E+00 -0.2591658559865E+00
-0.4154175323389E+00 -0.2818177247518E+00
-0.4300257297633E+00 -0.3023391119472E+00
-0.4408042134595E+00 -0.3208727582150E+00
-0.4478859847756E+00 -0.3376006434685E+00
-0.4513472286503E+00 -0.3527240831342E+00
-0.4511986638985E+00 -0.3664938830713E+00
-0.4474557153279E+00 -0.3791817546531E+00
-0.4402405846557E+00 -0.3908506316553E+00
-0.4290718321288E+00 -0.4034744018799E+00
-0.4145189196700E+00 -0.4198618315603E+00
-0.6790393218232E-01 -0.3668947786716E-01
-0.1240693187821E+00 -0.5772366202462E-01
-0.1755496835116E+00 -0.8254210329327E-01
-0.2219276845525E+00 -0.1099986203007E+00
-0.2633291634523E+00 -0.1389025363475E+00
-0.2999982705582E+00 -0.1681235098006E+00
-0.3319751838460E+00 -0.1966946432350E+00
-0.3594022709486E+00 -0.2239722718805E+00
-0.3825682477927E+00 -0.2496294797759E+00
-0.4017556540686E+00 -0.2735340244257E+00
-0.4171838502817E+00 -0.2956658396138E+00
-0.4290034238261E+00 -0.3160887624007E+00
-0.4373537470848E+00 -0.3349167755047E+00
-0.4423239271172E+00 -0.3522944515795E+00
-0.4439386334570E+00 -0.3684180595728E+00
-0.4422255319819E+00 -0.3835068870360E+00
-0.4373238170430E+00 -0.3976000884322E+00
-0.4286170196171E+00 -0.4124078748043E+00
-0.4163418262140E+00 -0.4303309237683E+00
-0.6390753047027E-01 -0.3513856025111E-01
-0.1167352113255E+00 -0.5451000674594E-01
-0.1654359438766E+00 -0.7750362615493E-01
-0.2096757390200E+00 -0.1032078208038E+00
-0.2495436308223E+00 -0.1306117462161E+00
-0.2852128385446E+00 -0.1587243235057E+00
-0.3166459891550E+00 -0.1867195730423E+00
-0.3439003663619E+00 -0.2139941088455E+00
-0.3672010167800E+00 -0.2401691300614E+00
-0.3867895616774E+00 -0.2650368842270E+00
-0.4028605213797E+00 -0.2885036388406E+00
-0.4155527247839E+00 -0.3105654678193E+00
-0.4250046059483E+00 -0.3312752774903E+00
-0.4313128383581E+00 -0.3507255541414E+00
-0.4345140034162E+00 -0.3690619603312E+00
-0.4346485199257E+00 -0.3864542947197E+00
-0.4318731079451E+00 -0.4029195237794E+00
-0.4254732961744E+00 -0.4198979837021E+00
-0.4153993097669E+00 -0.4393622788088E+00
-0.6012236778989E-01 -0.3376364943550E-01
-0.1097128184838E+00 -0.5168352525148E-01
-0.1556238248650E+00 -0.7304931773387E-01
-0.1976096208026E+00 -0.9713683209294E-01
-0.2357475068115E+00 -0.1230951103579E+00
-0.2701704138963E+00 -0.1500675480126E+00
-0.3008005295029E+00 -0.1773596204266E+00
-0.3276351496868E+00 -0.2044243067001E+00
-0.3508423322897E+00 -0.2308627043611E+00
-0.3706217652698E+00 -0.2564185625256E+00
-0.3871393583521E+00 -0.2809435602601E+00
-0.4005171295539E+00 -0.3043788877078E+00
-0.4108858568241E+00 -0.3267251600830E+00
-0.4183439332492E+00 -0.3480287651866E+00
-0.4229365919092E+00 -0.3683896696543E+00
-0.4247157800136E+00 -0.3879322693511E+00
-0.4238538084262E+00 -0.4066537275358E+00
-0.4195815177047E+00 -0.4257251893237E+00
-0.4116226020979E+00 -0.4466887931401E+00
-0.5651335063726E-01 -0.3253287783977E-01
-0.1029686027043E+00 -0.4917352377426E-01
-0.1461043372188E+00 -0.6908129757977E-01
-0.1857590562918E+00 -0.9168106180232E-01
-0.2220124806314E+00 -0.1162618560776E+00
-0.2549777867944E+00 -0.1420921638916E+00
-0.2845660925391E+00 -0.1685938061731E+00
-0.3107398896629E+00 -0.1952823488381E+00
-0.3336211745152E+00 -0.2217622101783E+00
-0.3533706806549E+00 -0.2477514971377E+00
-0.3701251046174E+00 -0.2730650649597E+00
-0.3839869445594E+00 -0.2976021951262E+00
-0.3950739711665E+00 -0.3213207135447E+00
-0.4034806794410E+00 -0.3442275577974E+00
-0.4092569137674E+00 -0.3663826423639E+00
-0.4124632467794E+00 -0.3878704111594E+00
-0.4132830768098E+00 -0.4086723837276E+00
-0.4109410659691E+00 -0.4296997542591E+00
-0.4050064683273E+00 -0.4520797497094E+00
-0.5305313866406E-01 -0.3142119866816E-01
-0.9647404294845E-01 -0.4692312497621E-01
-0.1368666002608E+00 -0.6551764390699E-01
-0.1741443214182E+00 -0.8674797187588E-01
-0.2083958028345E+00 -0.1100246865886E+00
-0.2397270429680E+00 -0.1347299253847E+00
-0.2680598178946E+00 -0.1603842154979E+00
-0.2933447841327E+00 -0.1865649825092E+00
-0.3156709463321E+00 -0.2128959291753E+00
-0.3351659745507E+00 -0.2390876381312E+00
-0.3519395409645E+00 -0.2649334676636E+00
-0.3660744261702E+00 -0.2903026728041E+00
-0.3776720132679E+00 -0.3151193817922E+00
-0.3868182740557E+00 -0.3393574027282E+00
-0.3935633401911E+00 -0.3630420609526E+00
-0.3979718344927E+00 -0.3862242699120E+00
-0.4002304991826E+00 -0.4088762732430E+00
-0.3996090862097E+00 -0.4316691050568E+00
-0.3956047458081E+00 -0.4553484755223E+00
-0.4972075640309E-01 -0.3040878172217E-01
-0.9020550290697E-01 -0.4488640544201E-01
-0.1278995273061E+00 -0.6228988429133E-01
-0.1627792272403E+00 -0.8225649736024E-01
-0.1949432790659E+00 -0.1043019035615E+00
-0.2244971038708E+00 -0.1279099347484E+00
-0.2513880617153E+00 -0.1526817338444E+00
-0.2755744531563E+00 -0.1782513737490E+00
-0.2971257951285E+00 -0.2042716796201E+00
-0.3161443673963E+00 -0.2304592876021E+00
-0.3327171917635E+00 -0.2565986260503E+00
-0.3469095423425E+00 -0.2825392151770E+00
-0.3588054790072E+00 -0.3081795062290E+00
-0.3684796666699E+00 -0.3334652623906E+00
-0.3759788956042E+00 -0.3583911088458E+00
-0.3813656377273E+00 -0.3829797982135E+00
-0.3848180044715E+00 -0.4072027232147E+00
-0.3856998359337E+00 -0.4315221836608E+00
-0.3835254168193E+00 -0.4563562908167E+00
-0.4650048308646E-01 -0.2947982883423E-01
-0.8414397930820E-01 -0.4302621928926E-01
-0.1191929727951E+00 -0.5934095134757E-01
-0.1516734529355E+00 -0.7813629903597E-01
-0.1816919443346E+00 -0.9901867474174E-01
-0.2093556048023E+00 -0.1215619988360E+00
-0.2346466719569E+00 -0.1454307956820E+00
-0.2575465755470E+00 -0.1703080045943E+00
-0.2781180154972E+00 -0.1958806370371E+00
-0.2964462575543E+00 -0.2218809773320E+00
-0.3126014445216E+00 -0.2480945305740E+00
-0.3266355499157E+00 -0.2743599706819E+00
-0.3386170224868E+00 -0.3005572352164E+00
-0.3486093112717E+00 -0.3266078111511E+00
-0.3566543993673E+00 -0.3524767953987E+00
-0.3628069836427E+00 -0.3781599113830E+00
-0.3672185576877E+00 -0.4036321137994E+00
-0.3693863356050E+00 -0.4291935843979E+00
-0.3689279236246E+00 -0.4550114141245E+00
-0.4338096732644E-01 -0.2862163559750E-01
-0.7827477628162E-01 -0.4131249471655E-01
-0.1107384891184E+00 -0.5662351715798E-01
-0.1408343697790E+00 -0.7432699931233E-01
-0.1686724237699E+00 -0.9410774345427E-01
-0.1943609106752E+00 -0.1156190270094E+00
-0.2179218649837E+00 -0.1385732230855E+00
-0.2393714100320E+00 -0.1626931547354E+00
-0.2587764463367E+00 -0.1877014616739E+00
-0.2762133682121E+00 -0.2133522296639E+00
-0.2917416815394E+00 -0.2394397821217E+00
-0.3054054233639E+00 -0.2657999366752E+00
-0.3172613744162E+00 -0.2923014797991E+00
-0.3273652683089E+00 -0.3188458329823E+00
-0.3357574288179E+00 -0.3453680020338E+00
-0.3424827597938E+00 -0.3718318439656E+00
-0.3476511368352E+00 -0.3982064658837E+00
-0.3509057708927E+00 -0.4246688686647E+00
-0.3520290949319E+00 -0.4512692642029E+00
-0.4035455585964E-01 -0.2782380097892E-01
-0.7258709743099E-01 -0.3972067846916E-01
-0.1025296953358E+00 -0.5409873277125E-01
-0.1302684759631E+00 -0.7077758580186E-01
-0.1559110352736E+00 -0.8950973332351E-01
-0.1795641463415E+00 -0.1100186480145E+00
-0.2012914463498E+00 -0.1320511541002E+00
-0.2211518749195E+00 -0.1553608707725E+00
-0.2392255922220E+00 -0.1797046262918E+00
-0.2555873145002E+00 -0.2048613367381E+00
-0.2702917190929E+00 -0.2306396203155E+00
-0.2833802525831E+00 -0.2568795481591E+00
-0.2949028132481E+00 -0.2834471596357E+00
-0.3049131887427E+00 -0.3102313920090E+00
-0.3134584087003E+00 -0.3371410500112E+00
-0.3205815100999E+00 -0.3641020792884E+00
-0.3263447120521E+00 -0.3910565823146E+00
-0.3305679650991E+00 -0.4180487942124E+00
-0.3331373998804E+00 -0.4451092369922E+00
 0.4035455637794E-01 -0.2782380108552E-01
 0.7258709825619E-01 -0.3972067859196E-01
 0.1025296963605E+00 -0.5409873288852E-01
 0.1302684770844E+00 -0.7077758589760E-01
 0.1559110364010E+00 -0.8950973338713E-01
 0.1795641474011E+00 -0.1100186480417E+00
 0.2012914472882E+00 -0.1320511540931E+00
 0.2211518757066E+00 -0.1553608707391E+00
 0.2392255928509E+00 -0.1797046262446E+00
 0.2555873149842E+00 -0.2048613366911E+00
 0.2702917194590E+00 -0.2306396202809E+00
 0.2833802528630E+00 -0.2568795481457E+00
 0.2949028134713E+00 -0.2834471596486E+00
 0.3049131889319E+00 -0.3102313920503E+00
 0.3134584088715E+00 -0.3371410500810E+00
 0.3205815102635E+00 -0.3641020793860E+00
 0.3263447122129E+00 -0.3910565824398E+00
 0.3305679652512E+00 -0.4180487943663E+00
 0.3331374000223E+00 -0.4451092371697E+00
 0.4338096783255E-01 -0.2862163571325E-01
 0.7827477708997E-01 -0.4131249485731E-01
 0.1107384901223E+00 -0.5662351730235E-01
 0.1408343708766E+00 -0.7432699944321E-01
 0.1686724248724E+00 -0.9410774355925E-01
 0.1943609117112E+00 -0.1156190270824E+00
 0.2179218659025E+00 -0.1385732231271E+00
 0.2393714108063E+00 -0.1626931547523E+00
 0.2587764469616E+00 -0.1877014616781E+00
 0.2762133687010E+00 -0.2133522296693E+00
 0.2917416819182E+00 -0.2394397821413E+00
 0.3054054236620E+00 -0.2657999367181E+00
 0.3172613746605E+00 -0.2923014798706E+00
 0.3273652685201E+00 -0.3188458330850E+00
 0.3357574290097E+00 -0.3453680021681E+00
 0.3424827599755E+00 -0.3718318441308E+00
 0.3476511370101E+00 -0.3982064660803E+00
 0.3509057710453E+00 -0.4246688688973E+00
 0.3520290950552E+00 -0.4512692644653E+00
 0.4650048358160E-01 -0.2947982896003E-01
 0.8414398010107E-01 -0.4302621945071E-01
 0.1191929737793E+00 -0.5934095152335E-01
 0.1516734540099E+00 -0.7813629920742E-01
 0.1816919454123E+00 -0.9901867489408E-01
 0.2093556058144E+00 -0.1215619989609E+00
 0.2346466728557E+00 -0.1454307957777E+00
 0.2575465763078E+00 -0.1703080046656E+00
 0.2781180161171E+00 -0.1958806370953E+00
 0.2964462580468E+00 -0.2218809773910E+00
 0.3126014449110E+00 -0.2480945306471E+00
 0.3266355502294E+00 -0.2743599707790E+00
 0.3386170227493E+00 -0.3005572353432E+00
 0.3486093115014E+00 -0.3266078113103E+00
 0.3566543995760E+00 -0.3524767955909E+00
 0.3628069838389E+00 -0.3781599116077E+00
 0.3672185578730E+00 -0.4036321140574E+00
 0.3693863357560E+00 -0.4291935846992E+00
 0.3689279237308E+00 -0.4550114144649E+00
 0.4972075688900E-01 -0.3040878185906E-01
 0.9020550368621E-01 -0.4488640562709E-01
 0.1278995282719E+00 -0.6228988450311E-01
 0.1627792282921E+00 -0.8225649757785E-01
 0.1949432801187E+00 -0.1043019037671E+00
 0.2244971048584E+00 -0.1279099349306E+00
 0.2513880625930E+00 -0.1526817339987E+00
 0.2755744539023E+00 -0.1782513738778E+00
 0.2971257957417E+00 -0.2042716797339E+00
 0.3161443678902E+00 -0.2304592877148E+00
 0.3327171921610E+00 -0.2565986261755E+00
 0.3469095426687E+00 -0.2825392153251E+00
 0.3588054792842E+00 -0.3081795064062E+00
 0.3684796669140E+00 -0.3334652625999E+00
 0.3759788958256E+00 -0.3583911090879E+00
 0.3813656379334E+00 -0.3829797984878E+00
 0.3848180046623E+00 -0.4072027235227E+00
 0.3856998360799E+00 -0.4315221840195E+00
 0.3835254169090E+00 -0.4563562912273E+00
 0.5305313914297E-01 -0.3142119881730E-01
 0.9647404371630E-01 -0.4692312518817E-01
 0.1368666012096E+00 -0.6551764415958E-01
 0.1741443224478E+00 -0.8674797214525E-01
 0.2083958038619E+00 -0.1100246868531E+00
 0.2397270439299E+00 -0.1347299256293E+00
 0.2680598187496E+00 -0.1603842157145E+00
 0.2933447848619E+00 -0.1865649826977E+00
 0.3156709469361E+00 -0.2128959293451E+00
 0.3351659750432E+00 -0.2390876382962E+00
 0.3519395413668E+00 -0.2649334678381E+00
 0.3660744265051E+00 -0.2903026729988E+00
 0.3776720135553E+00 -0.3151193820137E+00
 0.3868182743097E+00 -0.3393574029798E+00
 0.3935633404199E+00 -0.3630420612353E+00
 0.3979718347028E+00 -0.3862242702250E+00
 0.4002304993724E+00 -0.4088762735886E+00
 0.3996090863464E+00 -0.4316691054608E+00
 0.3956047458809E+00 -0.4553484759940E+00
 0.5651335111183E-01 -0.3253287800251E-01
 0.1029686034632E+00 -0.4917352401661E-01
 0.1461043381520E+00 -0.6908129787816E-01
 0.1857590572991E+00 -0.9168106212890E-01
 0.2220124816322E+00 -0.1162618564062E+00
 0.2549777877286E+00 -0.1420921642026E+00
 0.2845660933689E+00 -0.1685938064543E+00
 0.3107398903726E+00 -0.1952823490868E+00
 0.3336211751072E+00 -0.2217622104029E+00
 0.3533706811427E+00 -0.2477514973522E+00
 0.3701251050207E+00 -0.2730650651789E+00
 0.3839869448987E+00 -0.2976021953617E+00
 0.3950739714595E+00 -0.3213207138032E+00
 0.4034806796995E+00 -0.3442275580827E+00
 0.4092569139979E+00 -0.3663826426771E+00
 0.4124632469871E+00 -0.3878704114998E+00
 0.4132830769915E+00 -0.4086723840982E+00
 0.4109410660906E+00 -0.4296997546960E+00
 0.4050064683816E+00 -0.4520797502325E+00
 0.6012236826312E-01 -0.3376364961335E-01
 0.1097128192362E+00 -0.5168352552797E-01
 0.1556238257834E+00 -0.7304931808304E-01
 0.1976096217870E+00 -0.9713683248183E-01
 0.2357475077837E+00 -0.1230951107547E+00
 0.2701704148000E+00 -0.1500675483927E+00
 0.3008005303044E+00 -0.1773596207732E+00
 0.3276351503738E+00 -0.2044243070077E+00
 0.3508423328662E+00 -0.2308627046374E+00
 0.3706217657491E+00 -0.2564185627851E+00
 0.3871393587524E+00 -0.2809435605184E+00
 0.4005171298932E+00 -0.3043788879769E+00
 0.4108858571177E+00 -0.3267251603703E+00
 0.4183439335067E+00 -0.3480287654962E+00
 0.4229365921353E+00 -0.3683896699876E+00
 0.4247157802117E+00 -0.3879322697073E+00
 0.4238538085917E+00 -0.4066537279192E+00
 0.4195815178043E+00 -0.4257251897815E+00
 0.4116226021309E+00 -0.4466887937043E+00
 0.6390753094541E-01 -0.3513856044575E-01
 0.1167352120738E+00 -0.5451000706050E-01
 0.1654359447807E+00 -0.7750362655976E-01
 0.2096757399800E+00 -0.1032078212593E+00
 0.2495436317631E+00 -0.1306117466841E+00
 0.2852128394143E+00 -0.1587243239558E+00
 0.3166459899244E+00 -0.1867195734527E+00
 0.3439003670226E+00 -0.2139941092085E+00
 0.3672010173375E+00 -0.2401691303846E+00
 0.3867895621445E+00 -0.2650368845254E+00
 0.4028605217729E+00 -0.2885036391308E+00
 0.4155527251188E+00 -0.3105654681141E+00
 0.4250046062374E+00 -0.3312752777976E+00
 0.4313128386089E+00 -0.3507255544656E+00
 0.4345140036311E+00 -0.3690619606743E+00
 0.4346485201065E+00 -0.3864542950809E+00
 0.4318731080859E+00 -0.4029195241640E+00
 0.4254732962447E+00 -0.4198979841693E+00
 0.4153993097745E+00 -0.4393622794041E+00
 0.6790393266270E-01 -0.3668947808040E-01
 0.1240693195280E+00 -0.5772366238130E-01
 0.1755496844008E+00 -0.8254210375824E-01
 0.2219276854854E+00 -0.1099986208262E+00
 0.2633291643577E+00 -0.1389025368878E+00
 0.2999982713894E+00 -0.1681235103193E+00
 0.3319751845793E+00 -0.1966946437053E+00
 0.3594022715793E+00 -0.2239722722929E+00
 0.3825682483276E+00 -0.2496294801387E+00
 0.4017556545199E+00 -0.2735340247552E+00
 0.4171838506639E+00 -0.2956658399276E+00
 0.4290034241521E+00 -0.3160887627125E+00
 0.4373537473646E+00 -0.3349167758229E+00
 0.4423239273554E+00 -0.3522944519089E+00
 0.4439386336541E+00 -0.3684180599157E+00
 0.4422255321378E+00 -0.3835068873921E+00
 0.4373238171504E+00 -0.3976000888080E+00
 0.4286170196500E+00 -0.4124078752709E+00
 0.4163418261910E+00 -0.4303309243850E+00
 0.7215618203343E-01 -0.3845733973645E-01
 0.1317536278355E+00 -0.6141287306313E-01
 0.1859697047468E+00 -0.8828168162208E-01
 0.2343224891314E+00 -0.1176260726415E+00
 0.2770147676841E+00 -0.1480583241409E+00
 0.3144043840701E+00 -0.1783127632107E+00
 0.3466526421585E+00 -0.2072821605242E+00
 0.3740084176529E+00 -0.2343115420837E+00
 0.3968241792461E+00 -0.2591658563800E+00
 0.4154175327713E+00 -0.2818177251033E+00
 0.4300257301311E+00 -0.3023391122756E+00
 0.4408042137728E+00 -0.3208727585348E+00
 0.4478859850412E+00 -0.3376006437887E+00
 0.4513472288705E+00 -0.3527240834598E+00
 0.4511986640713E+00 -0.3664938834053E+00
 0.4474557154511E+00 -0.3791817549954E+00
 0.4402405847209E+00 -0.3908506320137E+00
 0.4290718321161E+00 -0.4034744023374E+00
 0.4145189196101E+00 -0.4198618321897E+00
 0.7672067138681E-01 -0.4049541230938E-01
 0.1398311399313E+00 -0.6568908479222E-01
 0.1966927906917E+00 -0.9486215351730E-01
 0.2467991417505E+00 -0.1262186669696E+00
 0.2904902550651E+00 -0.1581646790587E+00
 0.3282937400636E+00 -0.1893182957675E+00
 0.3605384703810E+00 -0.2184483624053E+00
 0.3875925796137E+00 -0.2449327446668E+00
 0.4098635633088E+00 -0.2686742593594E+00
 0.4276931507604E+00 -0.2897786709014E+00
 0.4413269314690E+00 -0.3084248747894E+00
 0.4509173382669E+00 -0.3248422818970E+00
 0.4565840278836E+00 -0.3392851818932E+00
 0.4583861092037E+00 -0.3520148062234E+00
 0.4563199393848E+00 -0.3633396599437E+00
 0.4503911361182E+00 -0.3735862624685E+00
 0.4407081087156E+00 -0.3828430228682E+00
 0.4269549092360E+00 -0.3933364040379E+00
 0.4100654899769E+00 -0.4082471117391E+00
 0.8166854698815E-01 -0.4287419914680E-01
 0.1483482704421E+00 -0.7069449311810E-01
 0.2077026350897E+00 -0.1024508070755E+00
 0.2592725945052E+00 -0.1359143755993E+00
 0.3036218938104E+00 -0.1692936564913E+00
 0.3415162965190E+00 -0.2011345929507E+00
 0.3734943987671E+00 -0.2301210147504E+00
 0.4000415241016E+00 -0.2557228284003E+00
 0.4216013806435E+00 -0.2780273699912E+00
 0.4385246525188E+00 -0.2972957260270E+00
 0.4510544514006E+00 -0.3138223877693E+00
 0.4593325914053E+00 -0.3279268923396E+00
 0.4634596871171E+00 -0.3399375384052E+00
 0.4634754217363E+00 -0.3501774838246E+00
 0.4593633502780E+00 -0.3590157952664E+00
 0.4511238832534E+00 -0.3668362959309E+00
 0.4388577947298E+00 -0.3737553592887E+00
 0.4224387888928E+00 -0.3822384948701E+00
 0.4031823339548E+00 -0.3957890050341E+00
 0.8708967593912E-01 -0.4568916145893E-01
 0.1573524771678E+00 -0.7661339672071E-01
 0.2189620629278E+00 -0.1112478332874E+00
 0.2716264736001E+00 -0.1468554593527E+00
 0.3162512162928E+00 -0.1814913128162E+00
 0.3539151344554E+00 -0.2137121500087E+00
 0.3853923656763E+00 -0.2421838385722E+00
 0.4112625127912E+00 -0.2665369787430E+00
 0.4319776219254E+00 -0.2870811597091E+00
 0.4478804401460E+00 -0.3042433355895E+00
 0.4592015233544E+00 -0.3184346028800E+00
 0.4660659075266E+00 -0.3300642188520E+00
 0.4685514444481E+00 -0.3395342573279E+00
 0.4666782453139E+00 -0.3472311503613E+00
 0.4604208373682E+00 -0.3535875312753E+00
 0.4497814283906E+00 -0.3590476822322E+00
 0.4348624882288E+00 -0.3637596020800E+00
 0.4157458831874E+00 -0.3704149905369E+00
 0.3941321721768E+00 -0.3827818237745E+00
 0.9309803828420E-01 -0.4907352980905E-01
 0.1668874151406E+00 -0.8368956678902E-01
 0.2304012485645E+00 -0.1214919165881E+00
 0.2837048190305E+00 -0.1591774285381E+00
 0.3281972264735E+00 -0.1947593755091E+00
 0.3653367206347E+00 -0.2269447864908E+00
 0.3961251544326E+00 -0.2544760131299E+00
 0.4211900349292E+00 -0.2772067950711E+00
 0.4409598819328E+00 -0.2956851101614E+00
 0.4557549608105E+00 -0.3104996532163E+00
 0.4657857907706E+00 -0.3221731699369E+00
 0.4711565258228E+00 -0.3312020181290E+00
 0.4719208245790E+00 -0.3380606124112E+00
 0.4680814936396E+00 -0.3431995936188E+00
 0.4596101854087E+00 -0.3471185731223E+00
 0.4465204885023E+00 -0.3503264992876E+00
 0.4289290796109E+00 -0.3530078942416E+00
 0.4071397150330E+00 -0.3580720886858E+00
 0.3832310454371E+00 -0.3694913106214E+00
 0.9983917886811E-01 -0.5322097238352E-01
 0.1769830121669E+00 -0.9225392341266E-01
 0.2418996818068E+00 -0.1334636524324E+00
 0.2953043801021E+00 -0.1729868238519E+00
 0.3392653933143E+00 -0.2090299460479E+00
 0.3756464166617E+00 -0.2406613223389E+00
 0.4056169165342E+00 -0.2668015078296E+00
 0.4297893283469E+00 -0.2875551465957E+00
 0.4485427171734E+00 -0.3036934887524E+00
 0.4621663332615E+00 -0.3159530748994E+00
 0.4708461537919E+00 -0.3249615242914E+00
 0.4746632168805E+00 -0.3312987987638E+00
 0.4736479250663E+00 -0.3355089244604E+00
 0.4677906351999E+00 -0.3381071208255E+00
 0.4570687705400E+00 -0.3396639885196E+00
 0.4415194843528E+00 -0.3407587966895E+00
 0.4212889918406E+00 -0.3416184771511E+00
 0.3969126923055E+00 -0.3453696216716E+00
 0.3708343163399E+00 -0.3561326122133E+00
 0.1075004454911E+00 -0.5842946972946E-01
 0.1876346075919E+00 -0.1027701828862E+00
 0.2532586046863E+00 -0.1474795311366E+00
 0.3061725856908E+00 -0.1883174086603E+00
 0.3492683901620E+00 -0.2241365526285E+00
 0.3847472227941E+00 -0.2546318949805E+00
 0.4138285060522E+00 -0.2789527898329E+00
 0.4370546266774E+00 -0.2974127503248E+00
 0.4547442365607E+00 -0.3109733028749E+00
 0.4671528227185E+00 -0.3205055015623E+00
 0.4744390646377E+00 -0.3267361532282E+00
 0.4766599823652E+00 -0.3303235766077E+00
 0.4738263112085E+00 -0.3318762917715E+00
 0.4659236925382E+00 -0.3319737409661E+00
 0.4529464488395E+00 -0.3312627000346E+00
 0.4349698533240E+00 -0.3304002818608E+00
 0.4121868983687E+00 -0.3296624354309E+00
 0.3853707251402E+00 -0.3324043473176E+00
 0.3573170584948E+00 -0.3428491234435E+00
 0.1163247183140E+00 -0.6519462674423E-01
 0.1987556135715E+00 -0.1159152732465E+00
 0.2641622659859E+00 -0.1638488394965E+00
 0.3160243004012E+00 -0.2050517979676E+00
 0.3580636569116E+00 -0.2397964529911E+00
 0.3925900510352E+00 -0.2686101907473E+00
 0.4207528952957E+00 -0.2907377276888E+00
 0.4430036304548E+00 -0.3066276015355E+00
 0.4596019300924E+00 -0.3174061356324E+00
 0.4707694902449E+00 -0.3240730580632E+00
 0.4766347194040E+00 -0.3274474675509E+00
 0.4772312716364E+00 -0.3282555426959E+00
 0.4725573506507E+00 -0.3271618302360E+00
 0.4626046639142E+00 -0.3248099442555E+00
 0.4473978693772E+00 -0.3219297120749E+00
 0.4270666913765E+00 -0.3192666713103E+00
 0.4018685088638E+00 -0.3171524021154E+00
 0.3728159855294E+00 -0.3191977129838E+00
 0.3430498757351E+00 -0.3296959194584E+00
 0.1266169060680E+00 -0.7446221869693E-01
 0.2100685083596E+00 -0.1326947234948E+00
 0.2741324648545E+00 -0.1827329987184E+00
 0.3246197760553E+00 -0.2227764591428E+00
 0.3655837906984E+00 -0.2556956695783E+00
 0.3991618157513E+00 -0.2823823840659E+00
 0.4264057487196E+00 -0.3019912036466E+00
 0.4476719236070E+00 -0.3150626757123E+00
 0.4631702394490E+00 -0.3228856475246E+00
 0.4730855036615E+00 -0.3265876748518E+00
 0.4775127252708E+00 -0.3270619209589E+00
 0.4764665755005E+00 -0.3250832613578E+00
 0.4699440775104E+00 -0.3213633429360E+00
 0.4579567190320E+00 -0.3166108356510E+00
 0.4405744139577E+00 -0.3116490610271E+00
 0.4179994346904E+00 -0.3073241131767E+00
 0.3905690302204E+00 -0.3040350248966E+00
 0.3595301916736E+00 -0.3056903186951E+00
 0.3283744086181E+00 -0.3166340753771E+00
 0.1387415432904E+00 -0.8828799787513E-01
 0.2207428555868E+00 -0.1547642262709E+00
 0.2826595137362E+00 -0.2033369076688E+00
 0.3318791515989E+00 -0.2410044552542E+00
 0.3718033846436E+00 -0.2715908172489E+00
 0.4044708901647E+00 -0.2957819619663E+00
 0.4308157646581E+00 -0.3125670151691E+00
 0.4511124738569E+00 -0.3225834686574E+00
 0.4655206644765E+00 -0.3273182295338E+00
 0.4741805572415E+00 -0.3280036663090E+00
 0.4771563996427E+00 -0.3255641939584E+00
 0.4744543137666E+00 -0.3208022210288E+00
 0.4660857336412E+00 -0.3144717546088E+00
 0.4520948629377E+00 -0.3073534404558E+00
 0.4326159755525E+00 -0.3003644371555E+00
 0.4079431310322E+00 -0.2944821232061E+00
 0.3785045563483E+00 -0.2901817472744E+00
 0.3457648928416E+00 -0.2917517212893E+00
 0.3135825926321E+00 -0.3035387047143E+00
-0.3229362503517E+00 -0.4838733440519E+00
-0.3399230432751E+00 -0.4909707612386E+00
-0.3549449906718E+00 -0.4956338581525E+00
-0.3678175127028E+00 -0.4977982823530E+00
-0.3783355961364E+00 -0.4974717092449E+00
-0.3863188715528E+00 -0.4947132329433E+00
-0.3916171067673E+00 -0.4896344283774E+00
-0.3941217451572E+00 -0.4824021641968E+00
-0.3937764524700E+00 -0.4732387573765E+00
-0.3905880152225E+00 -0.4624187816821E+00
-0.3846367781917E+00 -0.4502621339636E+00
-0.3760858316020E+00 -0.4371229743229E+00
-0.3651876408004E+00 -0.4233741430571E+00
-0.3522862714832E+00 -0.4093867386275E+00
-0.3378126134661E+00 -0.3955047798545E+00
-0.3222690765486E+00 -0.3820155029164E+00
-0.3061991768842E+00 -0.3691174225139E+00
-0.2901394172772E+00 -0.3568923665057E+00
-0.2745570985102E+00 -0.3452927331247E+00
-0.3106133062228E+00 -0.4959655017007E+00
-0.3275975011793E+00 -0.5044692072328E+00
-0.3427938811364E+00 -0.5106621697915E+00
-0.3559834610728E+00 -0.5143686171631E+00
-0.3669584070666E+00 -0.5155345951277E+00
-0.3755180866419E+00 -0.5141727232793E+00
-0.3814825400279E+00 -0.5103535137938E+00
-0.3847037774378E+00 -0.5042056229299E+00
-0.3850779803350E+00 -0.4959176968014E+00
-0.3825582448021E+00 -0.4857383084572E+00
-0.3771680421149E+00 -0.4739727551744E+00
-0.3690148497593E+00 -0.4609758436417E+00
-0.3583029390016E+00 -0.4471398584230E+00
-0.3453436116263E+00 -0.4328768867583E+00
-0.3305601990856E+00 -0.4185946881339E+00
-0.3144835018339E+00 -0.4046654512576E+00
-0.2977307805435E+00 -0.3913874989540E+00
-0.2809568118872E+00 -0.3789428820773E+00
-0.2647723662369E+00 -0.3673637860413E+00
-0.2976625980744E+00 -0.5080485725613E+00
-0.3144649210385E+00 -0.5180102006905E+00
-0.3297151819078E+00 -0.5257547060089E+00
-0.3431510844492E+00 -0.5310967800195E+00
-0.3545494015638E+00 -0.5339248754191E+00
-0.3636977825002E+00 -0.5341986280278E+00
-0.3703958626408E+00 -0.5319375908954E+00
-0.3744650479030E+00 -0.5272202573838E+00
-0.3757599442522E+00 -0.5201863108313E+00
-0.3741814627994E+00 -0.5110390947515E+00
-0.3696915041510E+00 -0.5000462962461E+00
-0.3623291944954E+00 -0.4875375420894E+00
-0.3522282033200E+00 -0.4738976950429E+00
-0.3396341107951E+00 -0.4595545379140E+00
-0.3249198850176E+00 -0.4449593320190E+00
-0.3085959741462E+00 -0.4305584510781E+00
-0.2913082135261E+00 -0.4167539705049E+00
-0.2738096094358E+00 -0.4038512711969E+00
-0.2568742739615E+00 -0.3919989255101E+00
-0.2840854653200E+00 -0.5199607609607E+00
-0.3005732222563E+00 -0.5313628866671E+00
-0.3157409467926E+00 -0.5406679943845E+00
-0.3293186415412E+00 -0.5476918231036E+00
-0.3410719839974E+00 -0.5522952983679E+00
-0.3507807143124E+00 -0.5543926230683E+00
-0.3582332147219E+00 -0.5539523281056E+00
-0.3632310319786E+00 -0.5509976193517E+00
-0.3655978469411E+00 -0.5456094864443E+00
-0.3651909283503E+00 -0.5379308951942E+00
-0.3619149142641E+00 -0.5281706806393E+00
-0.3557380208407E+00 -0.5166058514338E+00
-0.3467107809701E+00 -0.5035810297069E+00
-0.3349871671972E+00 -0.4895035224018E+00
-0.3208475150303E+00 -0.4748321042056E+00
-0.3047218227210E+00 -0.4600569296505E+00
-0.2872102183956E+00 -0.4456668136914E+00
-0.2690918683570E+00 -0.4320979318541E+00
-0.2512917454045E+00 -0.4196545932936E+00
-0.2698949289423E+00 -0.5315631827524E+00
-0.2859565938684E+00 -0.5443263374413E+00
-0.3009159881306E+00 -0.5551442107546E+00
-0.3145158651376E+00 -0.5638414631038E+00
-0.3265247751629E+00 -0.5702661313328E+00
-0.3367225575978E+00 -0.5743027850258E+00
-0.3448949030283E+00 -0.5758779572228E+00
-0.3508345769622E+00 -0.5749638293090E+00
-0.3543471228068E+00 -0.5715822596042E+00
-0.3552596207729E+00 -0.5658098667835E+00
-0.3534320126057E+00 -0.5577836443405E+00
-0.3487711032694E+00 -0.5477064030014E+00
-0.3412475616155E+00 -0.5358511812238E+00
-0.3309163434852E+00 -0.5225635157796E+00
-0.3179410095635E+00 -0.5082600106459E+00
-0.3026225113588E+00 -0.4934208632130E+00
-0.2854332556931E+00 -0.4785725694329E+00
-0.2670576893850E+00 -0.4642537480986E+00
-0.2484385101834E+00 -0.4509473119098E+00
-0.2551097748010E+00 -0.5427724123009E+00
-0.2706511868475E+00 -0.5567957258729E+00
-0.2852859125138E+00 -0.5690516830430E+00
-0.2987817830058E+00 -0.5793771508962E+00
-0.3109208038631E+00 -0.5876184429802E+00
-0.3214914575721E+00 -0.5936441639101E+00
-0.3302845877250E+00 -0.5973524429056E+00
-0.3370933514066E+00 -0.5986759017244E+00
-0.3417165199170E+00 -0.5975863157879E+00
-0.3439645368039E+00 -0.5940997292754E+00
-0.3436680382325E+00 -0.5882822305520E+00
-0.3406888751460E+00 -0.5802562166984E+00
-0.3349339417193E+00 -0.5702068318714E+00
-0.3263723076846E+00 -0.5583881246753E+00
-0.3150563784607E+00 -0.5451282539851E+00
-0.3011482167765E+00 -0.5308326936162E+00
-0.2849532188886E+00 -0.5159836576741E+00
-0.2669664832254E+00 -0.5011322629094E+00
-0.2479492043275E+00 -0.4868741683648E+00
-0.2397468844130E+00 -0.5535134592598E+00
-0.2546826558237E+00 -0.5686810080315E+00
-0.2688832189712E+00 -0.5822770212505E+00
-0.2821469571261E+00 -0.5941526187033E+00
-0.2942763632108E+00 -0.6041599714672E+00
-0.3050751019585E+00 -0.6121631466381E+00
-0.3143455663447E+00 -0.6180451601813E+00
-0.3218884441603E+00 -0.6217131880407E+00
-0.3275044935043E+00 -0.6231031781828E+00
-0.3309984409310E+00 -0.6221845781572E+00
-0.3321849612248E+00 -0.6189654814018E+00
-0.3308968385601E+00 -0.6134982697990E+00
-0.3269955744931E+00 -0.6058856912957E+00
-0.3203848755085E+00 -0.5962872428603E+00
-0.3110276343804E+00 -0.5849256826349E+00
-0.2989672877223E+00 -0.5720934674746E+00
-0.2843549903025E+00 -0.5581589648428E+00
-0.2674857424177E+00 -0.5435725990725E+00
-0.2488524760792E+00 -0.5288746046873E+00
-0.2238236790668E+00 -0.5637219051577E+00
-0.2380720386178E+00 -0.5799121246304E+00
-0.2517330398130E+00 -0.5947360569383E+00
-0.2646366574880E+00 -0.6080600970858E+00
-0.2766094770739E+00 -0.6197472446258E+00
-0.2874746064245E+00 -0.6296653983105E+00
-0.2970505442696E+00 -0.6376934267912E+00
-0.3051507215482E+00 -0.6437259490697E+00
-0.3115842805320E+00 -0.6476775969904E+00
-0.3161582946074E+00 -0.6494872621584E+00
-0.3186815519209E+00 -0.6491226170234E+00
-0.3189700675845E+00 -0.6465850362547E+00
-0.3168545834342E+00 -0.6419149386651E+00
-0.3121904324725E+00 -0.6351974986354E+00
-0.3048702720428E+00 -0.6265686350390E+00
-0.2948403057777E+00 -0.6162211904433E+00
-0.2821206363281E+00 -0.6044113610236E+00
-0.2668300149012E+00 -0.5914661599410E+00
-0.2492130610999E+00 -0.5777955235041E+00
-0.2073584131550E+00 -0.5733490349620E+00
-0.2208367288090E+00 -0.5904498957281E+00
-0.2338534683187E+00 -0.6063913978668E+00
-0.2462684200029E+00 -0.6210554870122E+00
-0.2579331613577E+00 -0.6343187938570E+00
-0.2686923078070E+00 -0.6460585250788E+00
-0.2783831954060E+00 -0.6561572508586E+00
-0.2868354583923E+00 -0.6645069396964E+00
-0.2938711366825E+00 -0.6710126646231E+00
-0.2993056140136E+00 -0.6755963254360E+00
-0.3029495726746E+00 -0.6782006287644E+00
-0.3046121384877E+00 -0.6787934827680E+00
-0.3041054316657E+00 -0.6773728977833E+00
-0.3012508109797E+00 -0.6739724383212E+00
-0.2958871816914E+00 -0.6686672398353E+00
-0.2878817936063E+00 -0.6615805880115E+00
-0.2771438884985E+00 -0.6528910784416E+00
-0.2636408611291E+00 -0.6428405060120E+00
-0.2474138559465E+00 -0.6317432023453E+00
-0.1903709551106E+00 -0.5823581974681E+00
-0.2029927554237E+00 -0.6002786164483E+00
-0.2152586618883E+00 -0.6172420494385E+00
-0.2270549389994E+00 -0.6331457148607E+00
-0.2382571061473E+00 -0.6478810888487E+00
-0.2487315193168E+00 -0.6613377997645E+00
-0.2583354146034E+00 -0.6734071455624E+00
-0.2669164800950E+00 -0.6839852643182E+00
-0.2743125027913E+00 -0.6929761591390E+00
-0.2803513825902E+00 -0.7002947942393E+00
-0.2848516933757E+00 -0.7058704514571E+00
-0.2876239353800E+00 -0.7096505030750E+00
-0.2884726308502E+00 -0.7116047307016E+00
-0.2871994513112E+00 -0.7117303020556E+00
-0.2836076196332E+00 -0.7100575042589E+00
-0.2775078977160E+00 -0.7066563110959E+00
-0.2687265201144E+00 -0.7016438002174E+00
-0.2571155717038E+00 -0.6951921795370E+00
-0.2425661444439E+00 -0.6875361769088E+00
-0.1728833096470E+00 -0.5907283571614E+00
-0.1845564140689E+00 -0.6094125134410E+00
-0.1959610841480E+00 -0.6273327767124E+00
-0.2070060318381E+00 -0.6444009395327E+00
-0.2175883813211E+00 -0.6605233843033E+00
-0.2275950221637E+00 -0.6756034685925E+00
-0.2369026831619E+00 -0.6895439465305E+00
-0.2453774248070E+00 -0.7022493117130E+00
-0.2528739546191E+00 -0.7136281268975E+00
-0.2592349982332E+00 -0.7235954639342E+00
-0.2642908679616E+00 -0.7320755884762E+00
-0.2678593277944E+00 -0.7390050221143E+00
-0.2697458413303E+00 -0.7443361130086E+00
-0.2697442984752E+00 -0.7480412495754E+00
-0.2676383475500E+00 -0.7501178589706E+00
-0.2632035175508E+00 -0.7505943357362E+00
-0.2562104540745E+00 -0.7495370197656E+00
-0.2464298775515E+00 -0.7470582479571E+00
-0.2336416259789E+00 -0.7433250125213E+00
-0.1549266465748E+00 -0.5984205579096E+00
-0.1655587760406E+00 -0.6178279407520E+00
-0.1759936230590E+00 -0.6366519120620E+00
-0.1861584207204E+00 -0.6548179350340E+00
-0.1959690840819E+00 -0.6722467046227E+00
-0.2053311062085E+00 -0.6888554560483E+00
-0.2141394800078E+00 -0.7045595118502E+00
-0.2222780615996E+00 -0.7192739034839E+00
-0.2296186414979E+00 -0.7329150591380E+00
-0.2360198854409E+00 -0.7454026163087E+00
-0.2413262399806E+00 -0.7566614447558E+00
-0.2453668573138E+00 -0.7666239777028E+00
-0.2479545703556E+00 -0.7752329590992E+00
-0.2488849382490E+00 -0.7824447285261E+00
-0.2479353843870E+00 -0.7882331860840E+00
-0.2448644733706E+00 -0.7925946083329E+00
-0.2394114262349E+00 -0.7955535316921E+00
-0.2312961496807E+00 -0.7971699977699E+00
-0.2202199155432E+00 -0.7975489445396E+00
-0.1365411609470E+00 -0.6053761580640E+00
-0.1460458694207E+00 -0.6254587779341E+00
-0.1554100367553E+00 -0.6451232303214E+00
-0.1645760316311E+00 -0.6643076362083E+00
-0.1734758440802E+00 -0.6829460453236E+00
-0.1820315022831E+00 -0.7009690072256E+00
-0.1901547866433E+00 -0.7183044478629E+00
-0.1977464622987E+00 -0.7348786894404E+00
-0.2046951877207E+00 -0.7506175705356E+00
-0.2108761988876E+00 -0.7654476829897E+00
-0.2161498235758E+00 -0.7792977711452E+00
-0.2203598463419E+00 -0.7921003544096E+00
-0.2233317177499E+00 -0.8037936456030E+00
-0.2248705778617E+00 -0.8143238512205E+00
-0.2247590423551E+00 -0.8236479604319E+00
-0.2227546777717E+00 -0.8317371637575E+00
-0.2185870723496E+00 -0.8385810970680E+00
-0.2119543028975E+00 -0.8441932213272E+00
-0.2025182754207E+00 -0.8486177778870E+00
-0.1177721270199E+00 -0.6115344276446E+00
-0.1260712450560E+00 -0.6322306511419E+00
-0.1342739377073E+00 -0.6526564348122E+00
-0.1423349700772E+00 -0.6727614116853E+00
-0.1502000293235E+00 -0.6924917628508E+00
-0.1578057522467E+00 -0.7117903001774E+00
-0.1650792592825E+00 -0.7305968408869E+00
-0.1719372968471E+00 -0.7488487371398E+00
-0.1782850707712E+00 -0.7664815060423E+00
-0.1840148247265E+00 -0.7834295515568E+00
-0.1890041898336E+00 -0.7996269941218E+00
-0.1931143066098E+00 -0.8150086364542E+00
-0.1961876963191E+00 -0.8295111014691E+00
-0.1980458325949E+00 -0.8430741849512E+00
-0.1984863317784E+00 -0.8556424755349E+00
-0.1972796372298E+00 -0.8671673118697E+00
-0.1941650090893E+00 -0.8776091777444E+00
-0.1888455522637E+00 -0.8869406597608E+00
-0.1809819461468E+00 -0.8951500584901E+00
-0.9866827463686E-01 -0.6168397817055E+00
-0.1056930746423E+00 -0.6380746390114E+00
-0.1126546496304E+00 -0.6591672851538E+00
-0.1195180344731E+00 -0.6800775457171E+00
-0.1262406530214E+00 -0.7007622853283E+00
-0.1327720908407E+00 -0.7211751719436E+00
-0.1390535224639E+00 -0.7412666812807E+00
-0.1450168312259E+00 -0.7609842341933E+00
-0.1505834591727E+00 -0.7802724129464E+00
-0.1556630124207E+00 -0.7990732348085E+00
-0.1601516323722E+00 -0.8173264791570E+00
-0.1639301277976E+00 -0.8349700725518E+00
-0.1668618464911E+00 -0.8519405384788E+00
-0.1687902457572E+00 -0.8681735169076E+00
-0.1695360944893E+00 -0.8836043549178E+00
-0.1688942002593E+00 -0.8981687651097E+00
-0.1666294974289E+00 -0.9118035439019E+00
-0.1624722833870E+00 -0.9244473440170E+00
-0.1561124383561E+00 -0.9360414851126E+00
-0.7928108058247E-01 -0.6212442898467E+00
-0.8497305952563E-01 -0.6429316568662E+00
-0.9062579565120E-01 -0.6645838754796E+00
-0.9621299459350E-01 -0.6861694494463E+00
-0.1017022758257E+00 -0.7076542813427E+00
-0.1070548256561E+00 -0.7290012280241E+00
-0.1122248070171E+00 -0.7501698348624E+00
-0.1171585352157E+00 -0.7711161659681E+00
-0.1217934335552E+00 -0.7917926814232E+00
-0.1260567791393E+00 -0.8121481346059E+00
-0.1298642429219E+00 -0.8321274750462E+00
-0.1331182213977E+00 -0.8516717472371E+00
-0.1357059507284E+00 -0.8707179749669E+00
-0.1374973868809E+00 -0.8891990144934E+00
-0.1383428256841E+00 -0.9070433476852E+00
-0.1380702204130E+00 -0.9241747665966E+00
-0.1364821267190E+00 -0.9405118736881E+00
-0.1333521316888E+00 -0.9559672958983E+00
-0.1284205569692E+00 -0.9704465580230E+00
-0.5966432775898E-01 -0.6247086552668E+00
-0.6397584536189E-01 -0.6467538946679E+00
-0.6826461536671E-01 -0.6688485479416E+00
-0.7251184884597E-01 -0.6909680928403E+00
-0.7669420388616E-01 -0.7130856533832E+00
-0.8078343170083E-01 -0.7351714162474E+00
-0.8474585368472E-01 -0.7571921711283E+00
-0.8854166853808E-01 -0.7791109086221E+00
-0.9212409315428E-01 -0.8008864320587E+00
-0.9543834106149E-01 -0.8224729553436E+00
-0.9842044117158E-01 -0.8438196680777E+00
-0.1009958992279E+00 -0.8648702531996E+00
-0.1030782058516E+00 -0.8855623418371E+00
-0.1045671994732E+00 -0.9058268848461E+00
-0.1053473006106E+00 -0.9255874094207E+00
-0.1052856469086E+00 -0.9447591093519E+00
-0.1042301693525E+00 -0.9632476839365E+00
-0.1020076527693E+00 -0.9809477834488E+00
-0.9842157701765E-01 -0.9977408306472E+00
-0.3987366861729E-01 -0.6272027402597E+00
-0.4276846048186E-01 -0.6495054487345E+00
-0.4565130152805E-01 -0.6719186325993E+00
-0.4851009571744E-01 -0.6944228767741E+00
-0.5132971933787E-01 -0.7169965710475E+00
-0.5409174257689E-01 -0.7396152350581E+00
-0.5677404212329E-01 -0.7622509264649E+00
-0.5935030237146E-01 -0.7848716749172E+00
-0.6178940553168E-01 -0.8074409022217E+00
-0.6405471212813E-01 -0.8299168015519E+00
-0.6610323457174E-01 -0.8522516566268E+00
-0.6788470907549E-01 -0.8743910865825E+00
-0.6934057653570E-01 -0.8962732045588E+00
-0.7040289300214E-01 -0.9178276781815E+00
-0.7099320800037E-01 -0.9389746779145E+00
-0.7102147867806E-01 -0.9596236933109E+00
-0.7038514061687E-01 -0.9796721823054E+00
-0.6896853180355E-01 -0.9990039806336E+00
-0.6664309901441E-01 -0.1017487255446E+01
-0.1996618802316E-01 -0.6287059600051E+00
-0.2141976798277E-01 -0.6511627897516E+00
-0.2286834510955E-01 -0.6737669778354E+00
-0.2430599859046E-01 -0.6965022270754E+00
-0.2572529645629E-01 -0.7193501336725E+00
-0.2711714415905E-01 -0.7422894590363E+00
-0.2847057926621E-01 -0.7652954602850E+00
-0.2977251080915E-01 -0.7883392260310E+00
-0.3100740302758E-01 -0.8113869800440E+00
-0.3215690411865E-01 -0.8343993266059E+00
-0.3319942181511E-01 -0.8573304193896E+00
-0.3410964989659E-01 -0.8801270418399E+00
-0.3485805402469E-01 -0.9027275925108E+00
-0.3541033303361E-01 -0.9250609748658E+00
-0.3572688546458E-01 -0.9470453991174E+00
-0.3576233592111E-01 -0.9685871156156E+00
-0.3546522223994E-01 -0.9895791185937E+00
-0.3477805801109E-01 -0.1009899886334E+01
-0.3363823801464E-01 -0.1029412289093E+01
 0.2955230504753E-10 -0.6292076765943E+00
-0.2240968521861E-10 -0.6517153270978E+00
-0.7480288610751E-10 -0.6743826658246E+00
-0.1274715888400E-09 -0.6971944453990E+00
-0.1802199500744E-09 -0.7201333406255E+00
-0.2328057746581E-09 -0.7431792027518E+00
-0.2849323554877E-09 -0.7663083642492E+00
-0.3362380929239E-09 -0.7894929417950E+00
-0.3862904995877E-09 -0.8127001006922E+00
-0.4345724891053E-09 -0.8358912549097E+00
-0.4804663888969E-09 -0.8590211850320E+00
-0.5232386190990E-09 -0.8820370631626E+00
-0.5620249265981E-09 -0.9048773806480E+00
-0.5958105120385E-09 -0.9274707830372E+00
-0.6234056604271E-09 -0.9497348291935E+00
-0.6434375809938E-09 -0.9715747118209E+00
-0.6543288133543E-09 -0.9928820119289E+00
-0.6542972830204E-09 -0.1013533634747E+01
-0.6413776176828E-09 -0.1033391231195E+01
 0.1996618808253E-01 -0.6287059600125E+00
 0.2141976793846E-01 -0.6511627897625E+00
 0.2286834496077E-01 -0.6737669778511E+00
 0.2430599833670E-01 -0.6965022270974E+00
 0.2572529609746E-01 -0.7193501337026E+00
 0.2711714369556E-01 -0.7422894590764E+00
 0.2847057869906E-01 -0.7652954603372E+00
 0.2977251014008E-01 -0.7883392260974E+00
 0.3100740225919E-01 -0.8113869801270E+00
 0.3215690325459E-01 -0.8343993267079E+00
 0.3319942086024E-01 -0.8573304195134E+00
 0.3410964885725E-01 -0.8801270419882E+00
 0.3485805290892E-01 -0.9027275926863E+00
 0.3541033185149E-01 -0.9250609750714E+00
 0.3572688422850E-01 -0.9470453993559E+00
 0.3576233464621E-01 -0.9685871158896E+00
 0.3546522094450E-01 -0.9895791189058E+00
 0.3477805671694E-01 -0.1009899886687E+01
 0.3363823674765E-01 -0.1029412289488E+01
 0.3987366867741E-01 -0.6272027402747E+00
 0.4276846043901E-01 -0.6495054487564E+00
 0.4565130138157E-01 -0.6719186326310E+00
 0.4851009546700E-01 -0.6944228768187E+00
 0.5132971898361E-01 -0.7169965711083E+00
 0.5409174211943E-01 -0.7396152351389E+00
 0.5677404156390E-01 -0.7622509265699E+00
 0.5935030171215E-01 -0.7848716750506E+00
 0.6178940477536E-01 -0.8074409023883E+00
 0.6405471127873E-01 -0.8299168017566E+00
 0.6610323363442E-01 -0.8522516568748E+00
 0.6788470805684E-01 -0.8743910868794E+00
 0.6934057544399E-01 -0.8962732049099E+00
 0.7040289184761E-01 -0.9178276785925E+00
 0.7099320679551E-01 -0.9389746783910E+00
 0.7102147743799E-01 -0.9596236938583E+00
 0.7038513935978E-01 -0.9796721829286E+00
 0.6896853055117E-01 -0.9990039813374E+00
 0.6664309779258E-01 -0.1017487256234E+01
 0.5966432782036E-01 -0.6247086552893E+00
 0.6397584532144E-01 -0.6467538947009E+00
 0.6826461522403E-01 -0.6688485479893E+00
 0.7251184860104E-01 -0.6909680929074E+00
 0.7669420353944E-01 -0.7130856534746E+00
 0.8078343125335E-01 -0.7351714163688E+00
 0.8474585313816E-01 -0.7571921712857E+00
 0.8854166789493E-01 -0.7791109088220E+00
 0.9212409241792E-01 -0.8008864323080E+00
 0.9543834023634E-01 -0.8224729556498E+00
 0.9842044026329E-01 -0.8438196684484E+00
 0.1009958982435E+00 -0.8648702536428E+00
 0.1030782047997E+00 -0.8855623423612E+00
 0.1045671983643E+00 -0.9058268854591E+00
 0.1053472994573E+00 -0.9255874101310E+00
 0.1052856457260E+00 -0.9447591101673E+00
 0.1042301681585E+00 -0.9632476848645E+00
 0.1020076515851E+00 -0.9809477844959E+00
 0.9842157586850E-01 -0.9977408318191E+00
 0.7928108064572E-01 -0.6212442898768E+00
 0.8497305948875E-01 -0.6429316569102E+00
 0.9062579551416E-01 -0.6645838755431E+00
 0.9621299435669E-01 -0.6861694495354E+00
 0.1017022754900E+00 -0.7076542814640E+00
 0.1070548252232E+00 -0.7290012281850E+00
 0.1122248064892E+00 -0.7501698350707E+00
 0.1171585345960E+00 -0.7711161662324E+00
 0.1217934328476E+00 -0.7917926817526E+00
 0.1260567783490E+00 -0.8121481350100E+00
 0.1298642420552E+00 -0.8321274755352E+00
 0.1331182204623E+00 -0.8516717478213E+00
 0.1357059497333E+00 -0.8707179756571E+00
 0.1374973858369E+00 -0.8891990153004E+00
 0.1383428246040E+00 -0.9070433486197E+00
 0.1380702193117E+00 -0.9241747676688E+00
 0.1364821256138E+00 -0.9405118749074E+00
 0.1333521305998E+00 -0.9559672972732E+00
 0.1284205559201E+00 -0.9704465595601E+00
 0.9866827470227E-01 -0.6168397817430E+00
 0.1056930746096E+00 -0.6380746390662E+00
 0.1126546494999E+00 -0.6591672852326E+00
 0.1195180342458E+00 -0.6800775458274E+00
 0.1262406526987E+00 -0.7007622854784E+00
 0.1327720904250E+00 -0.7211751721425E+00
 0.1390535219583E+00 -0.7412666815380E+00
 0.1450168306342E+00 -0.7609842345194E+00
 0.1505834585000E+00 -0.7802724133526E+00
 0.1556630116728E+00 -0.7990732353065E+00
 0.1601516315564E+00 -0.8173264797590E+00
 0.1639301269223E+00 -0.8349700732706E+00
 0.1668618455662E+00 -0.8519405393274E+00
 0.1687902447938E+00 -0.8681735178989E+00
 0.1695360935002E+00 -0.8836043560647E+00
 0.1688941992592E+00 -0.8981687664244E+00
 0.1666294964341E+00 -0.9118035453956E+00
 0.1624722824160E+00 -0.9244473456993E+00
 0.1561124374297E+00 -0.9360414869910E+00
 0.1177721270881E+00 -0.6115344276894E+00
 0.1260712450287E+00 -0.6322306512069E+00
 0.1342739375853E+00 -0.6526564349053E+00
 0.1423349698621E+00 -0.6727614118155E+00
 0.1502000290175E+00 -0.6924917630277E+00
 0.1578057518530E+00 -0.7117903004115E+00
 0.1650792588051E+00 -0.7305968411896E+00
 0.1719372962910E+00 -0.7488487375232E+00
 0.1782850701423E+00 -0.7664815065194E+00
 0.1840148240319E+00 -0.7834295521411E+00
 0.1890041890817E+00 -0.7996269948276E+00
 0.1931143058098E+00 -0.8150086372960E+00
 0.1961876954816E+00 -0.8295111024620E+00
 0.1980458317316E+00 -0.8430741861098E+00
 0.1984863309024E+00 -0.8556424768737E+00
 0.1972796363550E+00 -0.8671673134025E+00
 0.1941650082308E+00 -0.8776091794836E+00
 0.1888455514374E+00 -0.8869406617169E+00
 0.1809819453694E+00 -0.8951500606709E+00
 0.1365411610183E+00 -0.6053761581158E+00
 0.1460458693992E+00 -0.6254587780087E+00
 0.1554100366424E+00 -0.6451232304280E+00
 0.1645760314292E+00 -0.6643076363570E+00
 0.1734758437924E+00 -0.6829460455253E+00
 0.1820315019136E+00 -0.7009690074924E+00
 0.1901547861972E+00 -0.7183044482075E+00
 0.1977464617822E+00 -0.7348786898767E+00
 0.2046951871411E+00 -0.7506175710779E+00
 0.2108761982533E+00 -0.7654476836533E+00
 0.2161498228961E+00 -0.7792977719458E+00
 0.2203598456275E+00 -0.7921003553634E+00
 0.2233317170123E+00 -0.8037936467262E+00
 0.2248705771133E+00 -0.8143238525291E+00
 0.2247590416089E+00 -0.8236479619414E+00
 0.2227546770411E+00 -0.8317371654825E+00
 0.2185870716479E+00 -0.8385810990213E+00
 0.2119543022377E+00 -0.8441932235195E+00
 0.2025182748141E+00 -0.8486177803257E+00
 0.1549266466499E+00 -0.5984205579681E+00
 0.1655587760263E+00 -0.6178279408354E+00
 0.1759936229575E+00 -0.6366519121806E+00
 0.1861584205348E+00 -0.6548179351989E+00
 0.1959690838165E+00 -0.6722467048461E+00
 0.2053311058685E+00 -0.6888554563435E+00
 0.2141394795996E+00 -0.7045595122312E+00
 0.2222780611308E+00 -0.7192739039657E+00
 0.2296186409771E+00 -0.7329150597363E+00
 0.2360198848780E+00 -0.7454026170399E+00
 0.2413262393865E+00 -0.7566614456367E+00
 0.2453668567003E+00 -0.7666239787502E+00
 0.2479545697352E+00 -0.7752329603301E+00
 0.2488849376347E+00 -0.7824447299569E+00
 0.2479353837918E+00 -0.7882331877301E+00
 0.2448644728071E+00 -0.7925946102087E+00
 0.2394114257146E+00 -0.7955535338099E+00
 0.2312961492125E+00 -0.7971700001395E+00
 0.2202199151328E+00 -0.7975489471675E+00
 0.1728833097261E+00 -0.5907283572265E+00
 0.1845564140621E+00 -0.6094125135329E+00
 0.1959610840584E+00 -0.6273327768422E+00
 0.2070060316697E+00 -0.6444009397127E+00
 0.2175883810792E+00 -0.6605233845468E+00
 0.2275950218550E+00 -0.6756034689137E+00
 0.2369026827941E+00 -0.6895439469444E+00
 0.2453774243893E+00 -0.7022493122357E+00
 0.2528739541617E+00 -0.7136281275456E+00
 0.2592349977476E+00 -0.7235954647247E+00
 0.2642908674600E+00 -0.7320755894263E+00
 0.2678593272902E+00 -0.7390050232411E+00
 0.2697458408369E+00 -0.7443361143287E+00
 0.2697442980063E+00 -0.7480412511045E+00
 0.2676383471186E+00 -0.7501178607232E+00
 0.2632035171684E+00 -0.7505943377249E+00
 0.2562104537502E+00 -0.7495370220005E+00
 0.2464298772905E+00 -0.7470582504457E+00
 0.2336416257805E+00 -0.7433250152676E+00
 0.1903709551939E+00 -0.5823581975404E+00
 0.2029927554249E+00 -0.6002786165494E+00
 0.2152586618111E+00 -0.6172420495807E+00
 0.2270549388490E+00 -0.6331457150569E+00
 0.2382571059304E+00 -0.6478810891132E+00
 0.2487315190412E+00 -0.6613378001122E+00
 0.2583354142786E+00 -0.6734071460094E+00
 0.2669164797316E+00 -0.6839852648809E+00
 0.2743125024013E+00 -0.6929761598344E+00
 0.2803513821865E+00 -0.7002947950844E+00
 0.2848516929722E+00 -0.7058704524687E+00
 0.2876239349909E+00 -0.7096505042694E+00
 0.2884726304901E+00 -0.7116047320941E+00
 0.2871994509941E+00 -0.7117303036599E+00
 0.2836076193715E+00 -0.7100575060868E+00
 0.2775078975197E+00 -0.7066563131566E+00
 0.2687265199897E+00 -0.7016438025175E+00
 0.2571155716512E+00 -0.6951921820793E+00
 0.2425661444563E+00 -0.6875361796927E+00
 0.2073584132425E+00 -0.5733490350435E+00
 0.2208367288180E+00 -0.5904498958424E+00
 0.2338534682538E+00 -0.6063913980269E+00
 0.2462684198704E+00 -0.6210554872317E+00
 0.2579331611655E+00 -0.6343187941506E+00
 0.2686923075644E+00 -0.6460585254622E+00
 0.2783831951239E+00 -0.6561572513478E+00
 0.2868354580828E+00 -0.6645069403080E+00
 0.2938711363590E+00 -0.6710126653736E+00
 0.2993056136903E+00 -0.6755963263417E+00
 0.3029495723665E+00 -0.6782006298407E+00
 0.3046121382098E+00 -0.6787934840291E+00
 0.3041054314328E+00 -0.6773728992416E+00
 0.3012508108051E+00 -0.6739724399870E+00
 0.2958871815861E+00 -0.6686672417160E+00
 0.2878817935779E+00 -0.6615805901114E+00
 0.2771438885489E+00 -0.6528910807611E+00
 0.2636408612529E+00 -0.6428405085477E+00
 0.2474138561284E+00 -0.6317432050893E+00
 0.2238236791582E+00 -0.5637219052504E+00
 0.2380720386339E+00 -0.5799121247619E+00
 0.2517330397596E+00 -0.5947360571216E+00
 0.2646366573724E+00 -0.6080600973351E+00
 0.2766094769053E+00 -0.6197472449560E+00
 0.2874746062135E+00 -0.6296653987371E+00
 0.2970505440284E+00 -0.6376934273300E+00
 0.3051507212902E+00 -0.6437259497365E+00
 0.3115842802716E+00 -0.6476775978005E+00
 0.3161582943598E+00 -0.6494872631260E+00
 0.3186815517015E+00 -0.6491226181615E+00
 0.3189700674085E+00 -0.6465850375738E+00
 0.3168545833158E+00 -0.6419149401732E+00
 0.3121904324236E+00 -0.6351975003371E+00
 0.3048702720724E+00 -0.6265686369353E+00
 0.2948403058898E+00 -0.6162211925303E+00
 0.2821206365202E+00 -0.6044113632926E+00
 0.2668300151619E+00 -0.5914661623779E+00
 0.2492130614057E+00 -0.5777955260889E+00
 0.2397468845083E+00 -0.5535134593656E+00
 0.2546826558468E+00 -0.5686810081831E+00
 0.2688832189289E+00 -0.5822770214612E+00
 0.2821469570269E+00 -0.5941526189871E+00
 0.2942763630651E+00 -0.6041599718387E+00
 0.3050751017780E+00 -0.6121631471122E+00
 0.3143455661426E+00 -0.6180451607727E+00
 0.3218884439509E+00 -0.6217131887634E+00
 0.3275044933026E+00 -0.6231031790497E+00
 0.3309984407526E+00 -0.6221845791795E+00
 0.3321849610851E+00 -0.6189654825880E+00
 0.3308968384734E+00 -0.6134982711548E+00
 0.3269955744721E+00 -0.6058856928227E+00
 0.3203848755632E+00 -0.5962872445557E+00
 0.3110276345165E+00 -0.5849256844903E+00
 0.2989672879398E+00 -0.5720934694758E+00
 0.2843549905941E+00 -0.5581589669690E+00
 0.2674857427664E+00 -0.5435726012960E+00
 0.2488524764547E+00 -0.5288746069743E+00
 0.2551097749000E+00 -0.5427724124208E+00
 0.2706511868776E+00 -0.5567957260467E+00
 0.2852859124827E+00 -0.5690516832835E+00
 0.2987817829231E+00 -0.5793771512167E+00
 0.3109208037400E+00 -0.5876184433944E+00
 0.3214914574213E+00 -0.5936441644313E+00
 0.3302845875602E+00 -0.5973524435467E+00
 0.3370933512425E+00 -0.5986759024967E+00
 0.3417165197687E+00 -0.5975863167008E+00
 0.3439645366865E+00 -0.5940997303357E+00
 0.3436680381601E+00 -0.5882822317633E+00
 0.3406888751314E+00 -0.5802562180600E+00
 0.3349339417726E+00 -0.5702068333780E+00
 0.3263723078120E+00 -0.5583881263163E+00
 0.3150563786633E+00 -0.5451282557442E+00
 0.3011482170487E+00 -0.5308326954714E+00
 0.2849532192164E+00 -0.5159836595982E+00
 0.2669664835844E+00 -0.5011322648715E+00
 0.2479492046816E+00 -0.4868741703342E+00
 0.2698949290454E+00 -0.5315631828871E+00
 0.2859565939062E+00 -0.5443263376378E+00
 0.3009159881117E+00 -0.5551442110247E+00
 0.3145158650723E+00 -0.5638414634598E+00
 0.3265247750631E+00 -0.5702661317866E+00
 0.3367225574764E+00 -0.5743027855886E+00
 0.3448949028992E+00 -0.5758779579044E+00
 0.3508345768398E+00 -0.5749638301173E+00
 0.3543471227052E+00 -0.5715822605444E+00
 0.3552596207057E+00 -0.5658098678577E+00
 0.3534320125849E+00 -0.5577836455467E+00
 0.3487711033046E+00 -0.5477064043335E+00
 0.3412475617127E+00 -0.5358511826710E+00
 0.3309163436457E+00 -0.5225635173265E+00
 0.3179410097825E+00 -0.5082600122729E+00
 0.3026225116242E+00 -0.4934208648975E+00
 0.2854332559848E+00 -0.4785725711512E+00
 0.2670576896749E+00 -0.4642537498293E+00
 0.2484385104381E+00 -0.4509473136387E+00
 0.2840854654277E+00 -0.5199607611101E+00
 0.3005732223028E+00 -0.5313628868861E+00
 0.3157409467872E+00 -0.5406679946834E+00
 0.3293186414945E+00 -0.5476918234926E+00
 0.3410719839214E+00 -0.5522952988566E+00
 0.3507807142196E+00 -0.5543926236648E+00
 0.3582332146255E+00 -0.5539523288164E+00
 0.3632310318916E+00 -0.5509976201805E+00
 0.3655978468758E+00 -0.5456094873921E+00
 0.3651909283177E+00 -0.5379308962585E+00
 0.3619149142729E+00 -0.5281706818139E+00
 0.3557380208962E+00 -0.5166058527087E+00
 0.3467107810737E+00 -0.5035810310686E+00
 0.3349871673449E+00 -0.4895035238340E+00
 0.3208475152126E+00 -0.4748321056901E+00
 0.3047218229223E+00 -0.4600569311693E+00
 0.2872102185953E+00 -0.4456668152286E+00
 0.2690918685321E+00 -0.4320979333989E+00
 0.2512917455363E+00 -0.4196545948436E+00
 0.2976625981874E+00 -0.5080485727246E+00
 0.3144649210953E+00 -0.5180102009302E+00
 0.3297151819180E+00 -0.5257547063330E+00
 0.3431510844230E+00 -0.5310967804359E+00
 0.3545494015124E+00 -0.5339248759340E+00
 0.3636977824350E+00 -0.5341986286461E+00
 0.3703958625734E+00 -0.5319375916196E+00
 0.3744650478441E+00 -0.5272202582138E+00
 0.3757599442113E+00 -0.5201863117641E+00
 0.3741814627840E+00 -0.5110390957812E+00
 0.3696915041658E+00 -0.5000462973639E+00
 0.3623291945415E+00 -0.4875375432838E+00
 0.3522282033946E+00 -0.4738976963005E+00
 0.3396341108907E+00 -0.4595545392202E+00
 0.3249198851229E+00 -0.4449593333599E+00
 0.3085959742465E+00 -0.4305584524417E+00
 0.2913082136055E+00 -0.4167539718831E+00
 0.2738096094811E+00 -0.4038512725875E+00
 0.2568742739673E+00 -0.3919989269169E+00
 0.3106133063420E+00 -0.4959655018757E+00
 0.3275975012482E+00 -0.5044692074888E+00
 0.3427938811640E+00 -0.5106621701341E+00
 0.3559834610685E+00 -0.5143686175971E+00
 0.3669584070401E+00 -0.5155345956562E+00
 0.3755180866029E+00 -0.5141727239035E+00
 0.3814825399856E+00 -0.5103535145127E+00
 0.3847037774001E+00 -0.5042056237401E+00
 0.3850779803082E+00 -0.4959176976972E+00
 0.3825582447901E+00 -0.4857383094307E+00
 0.3771680421186E+00 -0.4739727562157E+00
 0.3690148497766E+00 -0.4609758447397E+00
 0.3583029390269E+00 -0.4471398595661E+00
 0.3453436116512E+00 -0.4328768879354E+00
 0.3305601990995E+00 -0.4185946893357E+00
 0.3144835018257E+00 -0.4046654524782E+00
 0.2977307805040E+00 -0.3913875001916E+00
 0.2809568118118E+00 -0.3789428833352E+00
 0.2647723661282E+00 -0.3673637873271E+00
 0.3229362504782E+00 -0.4838733442365E+00
 0.3399230433581E+00 -0.4909707615073E+00
 0.3549449907188E+00 -0.4956338585083E+00
 0.3678175127217E+00 -0.4977982827971E+00
 0.3783355961347E+00 -0.4974717097769E+00
 0.3863188715378E+00 -0.4947132335611E+00
 0.3916171067454E+00 -0.4896344290768E+00
 0.3941217451330E+00 -0.4824021649720E+00
 0.3937764524463E+00 -0.4732387582199E+00
 0.3905880151998E+00 -0.4624187825849E+00
 0.3846367781679E+00 -0.4502621349164E+00
 0.3760858315726E+00 -0.4371229753160E+00
 0.3651876407589E+00 -0.4233741440817E+00
 0.3522862714215E+00 -0.4093867396762E+00
 0.3378126133762E+00 -0.3955047809230E+00
 0.3222690764239E+00 -0.3820155040035E+00
 0.3061991767215E+00 -0.3691174236228E+00
 0.2901394170784E+00 -0.3568923676432E+00
 0.2745570982824E+00 -0.3452927343002E+00
</DataArray>
</PointData>
   <DataArray type="Float64" Name="Load" NumberOfComponents="1"    ComponentName0="Load" format="ascii">
 0.4043345023122E+01
 0.3549957421575E+01
 0.3191700598016E+01
 0.3066726724045E+01
 0.2988871656677E+01
 0.2948887193271E+01
 0.2929338313307E+01
 0.2924097459634E+01
 0.2928973108581E+01
 0.2941630414964E+01
 0.2960629458322E+01
 0.2985153944231E+01
 0.3014806781815E+01
 0.3049506145788E+01
 0.3089421362208E+01
 0.3134937383360E+01
 0.3186638105048E+01
 0.3245304472338E+01
 0.3311933165798E+01
 0.3387780494892E+01
 0.3474456979750E+01
 0.3574155298762E+01
 0.3690214867897E+01
 0.3827387156378E+01
 0.3987445967899E+01
 0.4166740177643E+01
 0.4360236251640E+01
 0.4564481819778E+01
 0.4778409605093E+01
 0.5002895939897E+01
 0.5239747822069E+01
 0.5490481741235E+01
 0.5754808216971E+01
 0.6035429651421E+01
 0.6348275121364E+01
 0.6715154618833E+01
 0.7187311543599E+01
 0.7745869026599E+01
 0.8921693588765E+01
 0.8874166959272E+01
 0.1702654772459E+02
 0.3460600821271E+01
 0.3544005940519E+01
 0.3279269466170E+01
 0.3124829925441E+01
 0.3044001458637E+01
 0.2995563705184E+01
 0.2970170633527E+01
 0.2959801552247E+01
 0.2960427400492E+01
 0.2969446479611E+01
 0.2985293326233E+01
 0.3007030163627E+01
 0.3034163425103E+01
 0.3066525692446E+01
 0.3104207750093E+01
 0.3147518250298E+01
 0.3196963290166E+01
 0.3253240870847E+01
 0.3317253772437E+01
 0.3390144261990E+01
 0.3473367853647E+01
 0.3568832212836E+01
 0.3678810207097E+01
 0.3805200122036E+01
 0.3948272748321E+01
 0.4106176902417E+01
 0.4275981028928E+01
 0.4455123885833E+01
 0.4642111862692E+01
 0.4836392362328E+01
 0.5037720630097E+01
 0.5245646237791E+01
 0.5460057448892E+01
 0.5682948516133E+01
 0.5918248107745E+01
 0.6174931218884E+01
 0.6442608013600E+01
 0.6761496954513E+01
 0.6885020150455E+01
 0.5928241652378E+01
 0.1111304239555E+02
 0.3153588549585E+01
 0.3381285036025E+01
 0.3297138249886E+01
 0.3162731729003E+01
 0.3082811866269E+01
 0.3033233401489E+01
 0.3004540772006E+01
 0.2990887025063E+01
 0.2988299909017E+01
 0.2994336635647E+01
 0.3007415110585E+01
 0.3026565342282E+01
 0.3051242380038E+01
 0.3081221429731E+01
 0.3116530426603E+01
 0.3157409290866E+01
 0.3204287037794E+01
 0.3257771732732E+01
 0.3318654924195E+01
 0.3387928961401E+01
 0.3466818383649E+01
 0.3556738897959E+01
 0.3658886413273E+01
 0.3773699206627E+01
 0.3900789036329E+01
 0.4039021338071E+01
 0.4186606410110E+01
 0.4341534581733E+01
 0.4501988071614E+01
 0.4666344197521E+01
 0.4832889565257E+01
 0.4999851511150E+01
 0.5165949578299E+01
 0.5329511440883E+01
 0.5486862806646E+01
 0.5626884118509E+01
 0.5726729691966E+01
 0.5732783801564E+01
 0.5235334354729E+01
 0.4731566588109E+01
 0.9265248509328E+01
 0.2968386857122E+01
 0.3223937726380E+01
 0.3255957429311E+01
 0.3176395136566E+01
 0.3107232683810E+01
 0.3061149052831E+01
 0.3032323572399E+01
 0.3017095401109E+01
 0.3012412097865E+01
 0.3016151150035E+01
 0.3026881564139E+01
 0.3043676275386E+01
 0.3065988797804E+01
 0.3093565598356E+01
 0.3126388858771E+01
 0.3164638468362E+01
 0.3208668284694E+01
 0.3258991365929E+01
 0.3316273703898E+01
 0.3381329301839E+01
 0.3455090109788E+01
 0.3538428617238E+01
 0.3631726477728E+01
 0.3734639671090E+01
 0.3846453022016E+01
 0.3966308917634E+01
 0.4092965581300E+01
 0.4224698710857E+01
 0.4359430112151E+01
 0.4494767363225E+01
 0.4627964120175E+01
 0.4756107858427E+01
 0.4876063413528E+01
 0.4982683508174E+01
 0.5065217706274E+01
 0.5102313397682E+01
 0.5057627622523E+01
 0.4819486213520E+01
 0.4235261289612E+01
 0.4434854226895E+01
 0.8387745514118E+01
 0.2846804718674E+01
 0.3095152033895E+01
 0.3191305497147E+01
 0.3166742559769E+01
 0.3118428235250E+01
 0.3079727414093E+01
 0.3053482491464E+01
 0.3038375656429E+01
 0.3032671018641E+01
 0.3034808451796E+01
 0.3043624755068E+01
 0.3058314836754E+01
 0.3078376052265E+01
 0.3103555000016E+01
 0.3133805397292E+01
 0.3169256662548E+01
 0.3210190806922E+01
 0.3257023209823E+01
 0.3310284880576E+01
 0.3370592257894E+01
 0.3438561088975E+01
 0.3514574777141E+01
 0.3598447634785E+01
 0.3689402656920E+01
 0.3786542417691E+01
 0.3889084015412E+01
 0.3996004053356E+01
 0.4105685976802E+01
 0.4215846164926E+01
 0.4323565620618E+01
 0.4425366439593E+01
 0.4517313529885E+01
 0.4594539142323E+01
 0.4649025189907E+01
 0.4665746840099E+01
 0.4619540382724E+01
 0.4466223950518E+01
 0.4128524545691E+01
 0.3725642818285E+01
 0.4477449638306E+01
 0.7847483071544E+01
 0.2762132324916E+01
 0.2993347722141E+01
 0.3122067694696E+01
 0.3141373944107E+01
 0.3117700247919E+01
 0.3089806835915E+01
 0.3068272742930E+01
 0.3054805272842E+01
 0.3049083801157E+01
 0.3050288368836E+01
 0.3057622361262E+01
 0.3070466994462E+01
 0.3088405192029E+01
 0.3111210265608E+01
 0.3138824393949E+01
 0.3171336547966E+01
 0.3208961633072E+01
 0.3252017579689E+01
 0.3300896535680E+01
 0.3356011293416E+01
 0.3417674408289E+01
 0.3485870744124E+01
 0.3560033633770E+01
 0.3639142225908E+01
 0.3722186384653E+01
 0.3808364695270E+01
 0.3896702203892E+01
 0.3985593752480E+01
 0.4072609027349E+01
 0.4154498158204E+01
 0.4227285488293E+01
 0.4286250924550E+01
 0.4325255832568E+01
 0.4334592026389E+01
 0.4298079812473E+01
 0.4191278609111E+01
 0.3980180330870E+01
 0.3661282653448E+01
 0.3523377766620E+01
 0.4609166143945E+01
 0.7463857858625E+01
 0.2700510607196E+01
 0.2913075031593E+01
 0.3056413397324E+01
 0.3107423734638E+01
 0.3107485311991E+01
 0.3092369404461E+01
 0.3077181227232E+01
 0.3066588371526E+01
 0.3061742143160E+01
 0.3062630268963E+01
 0.3068894701690E+01
 0.3080151533918E+01
 0.3096103742715E+01
 0.3116574779983E+01
 0.3141510999783E+01
 0.3170971114089E+01
 0.3205109044996E+01
 0.3244148554260E+01
 0.3288345105783E+01
 0.3337915479195E+01
 0.3392904560744E+01
 0.3452991448748E+01
 0.3517361146667E+01
 0.3584857014359E+01
 0.3654395793639E+01
 0.3725121763845E+01
 0.3796033285150E+01
 0.3865501692011E+01
 0.3931016600535E+01
 0.3989162066510E+01
 0.4035689010090E+01
 0.4065425836846E+01
 0.4071619141009E+01
 0.4044301153596E+01
 0.3968717202846E+01
 0.3826354546847E+01
 0.3606652884049E+01
 0.3376330813434E+01
 0.3494750484753E+01
 0.4741693553984E+01
 0.7170510699652E+01
 0.2654105070052E+01
 0.2849271950967E+01
 0.2997283444360E+01
 0.3069892252132E+01
 0.3090509900312E+01
 0.3088613394230E+01
 0.3080819998628E+01
 0.3074039419574E+01
 0.3070810032616E+01
 0.3071926651448E+01
 0.3077501504016E+01
 0.3087417810128E+01
 0.3101524115156E+01
 0.3119713246730E+01
 0.3141949679522E+01
 0.3168271890540E+01
 0.3198780184643E+01
 0.3233610404867E+01
 0.3272889468565E+01
 0.3316656541426E+01
 0.3364734330255E+01
 0.3416578347491E+01
 0.3471218828749E+01
 0.3527429646301E+01
 0.3584083232105E+01
 0.3640266683023E+01
 0.3694932996145E+01
 0.3746437129319E+01
 0.3792262959899E+01
 0.3828978854306E+01
 0.3852292784795E+01
 0.3856968317831E+01
 0.3836372725071E+01
 0.3781604182649E+01
 0.3681530966493E+01
 0.3527799531698E+01
 0.3337111213957E+01
 0.3225956097579E+01
 0.3554415515663E+01
 0.4850913592011E+01
 0.6936943151081E+01
 0.2618190424959E+01
 0.2797965435577E+01
 0.2945262342485E+01
 0.3031872296073E+01
 0.3069185012725E+01
 0.3079833855263E+01
 0.3079882985866E+01
 0.3077548417633E+01
 0.3076511659601E+01
 0.3078315265150E+01
 0.3083537625882E+01
 0.3092342978569E+01
 0.3104741578438E+01
 0.3120709960392E+01
 0.3140242472044E+01
 0.3163366924678E+01
 0.3190138387351E+01
 0.3220613719852E+01
 0.3254804453233E+01
 0.3292597328624E+01
 0.3333640303028E+01
 0.3377233937594E+01
 0.3422320741394E+01
 0.3467649822412E+01
 0.3512075359110E+01
 0.3554643996501E+01
 0.3594278020217E+01
 0.3629349814644E+01
 0.3657417921941E+01
 0.3675178756999E+01
 0.3678529623983E+01
 0.3662568168413E+01
 0.3621477442278E+01
 0.3548519391494E+01
 0.3437848241009E+01
 0.3293269131719E+01
 0.3155765092323E+01
 0.3168953653167E+01
 0.3652780797080E+01
 0.4934764805824E+01
 0.6746487225753E+01
 0.2589765992171E+01
 0.2756181272956E+01
 0.2899949486808E+01
 0.2995115029669E+01
 0.3045397850634E+01
 0.3067272150231E+01
 0.3075100229740E+01
 0.3077552017971E+01
 0.3079115991008E+01
 0.3081970980687E+01
 0.3087128023509E+01
 0.3095028794752E+01
 0.3105851914930E+01
 0.3119666838075E+01
 0.3136507057027E+01
 0.3156398583620E+01
 0.3179360361764E+01
 0.3205381386155E+01
 0.3234374568935E+01
 0.3266102700710E+01
 0.3300084058110E+01
 0.3335520286445E+01
 0.3371315745842E+01
 0.3406228384050E+01
 0.3439120405378E+01
 0.3469026300343E+01
 0.3494871248087E+01
 0.3515094356478E+01
 0.3527412426308E+01
 0.3528787395824E+01
 0.3515529046618E+01
 0.3483439414865E+01
 0.3428099680973E+01
 0.3345744216956E+01
 0.3236732755996E+01
 0.3116854518564E+01
 0.3045219594955E+01
 0.3173410538443E+01
 0.3763308931137E+01
 0.4997479297937E+01
 0.6588799542536E+01
 0.2566844184792E+01
 0.2721719439765E+01
 0.2860592943637E+01
 0.2960514417101E+01
 0.3020519548426E+01
 0.3052019527901E+01
 0.3067189532023E+01
 0.3074508590609E+01
 0.3078921565668E+01
 0.3083097159361E+01
 0.3088422443928E+01
 0.3095598092450E+01
 0.3104968848599E+01
 0.3116701271112E+01
 0.3130874681417E+01
 0.3147521251459E+01
 0.3166633315659E+01
 0.3188144652917E+01
 0.3211888448064E+01
 0.3237532730417E+01
 0.3264506895239E+01
 0.3291959228677E+01
 0.3318794120218E+01
 0.3343806191657E+01
 0.3365892845221E+01
 0.3384111013247E+01
 0.3397432131248E+01
 0.3404418820639E+01
 0.3403029139157E+01
 0.3390618332234E+01
 0.3364109691190E+01
 0.3320321031318E+01
 0.3256665474137E+01
 0.3172831076419E+01
 0.3075538000256E+01
 0.2990904949960E+01
 0.2989268475731E+01
 0.3216181388589E+01
 0.3872892345960E+01
 0.5044188375007E+01
 0.6456888531881E+01
 0.2548061463341E+01
 0.2692950098981E+01
 0.2826372828695E+01
 0.2928446536077E+01
 0.2995493718528E+01
 0.3034979014263E+01
 0.3056818187898E+01
 0.3068876149736E+01
 0.3076242770301E+01
 0.3081917123856E+01
 0.3087590030135E+01
 0.3094191117628E+01
 0.3102221329041E+01
 0.3111943861628E+01
 0.3123488001700E+01
 0.3136898986941E+01
 0.3152152123987E+01
 0.3169139463046E+01
 0.3187634179695E+01
 0.3207237775194E+01
 0.3227326724817E+01
 0.3247033202999E+01
 0.3265292292390E+01
 0.3280959964563E+01
 0.3292996529537E+01
 0.3300518613305E+01
 0.3302590991801E+01
 0.3297958281211E+01
 0.3284898199174E+01
 0.3261272555779E+01
 0.3224785968105E+01
 0.3173507229495E+01
 0.3106953668798E+01
 0.3028424216968E+01
 0.2950535659563E+01
 0.2907326622029E+01
 0.2974004126719E+01
 0.3281301715860E+01
 0.3975719574656E+01
 0.5079321143210E+01
 0.6345746776560E+01
 0.2532454464359E+01
 0.2668657128652E+01
 0.2796519987359E+01
 0.2898988982162E+01
 0.2970939104351E+01
 0.3016866084778E+01
 0.3044579875338E+01
 0.3061094451083E+01
 0.3071397938254E+01
 0.3078666252056E+01
 0.3084814056723E+01
 0.3090961853780E+01
 0.3097750759661E+01
 0.3105536105225E+01
 0.3114498898168E+01
 0.3124703205048E+01
 0.3136116629650E+01
 0.3148603173333E+01
 0.3161895533365E+01
 0.3175554982937E+01
 0.3188936305464E+01
 0.3201186325716E+01
 0.3211296366771E+01
 0.3218206406195E+01
 0.3220967156024E+01
 0.3218792245316E+01
 0.3210886544056E+01
 0.3196232602055E+01
 0.3173497953846E+01
 0.3141145188539E+01
 0.3097787708574E+01
 0.3042898026332E+01
 0.2978213127092E+01
 0.2910521084403E+01
 0.2857459808985E+01
 0.2858357711612E+01
 0.2988089121079E+01
 0.3358198704668E+01
 0.4069741902773E+01
 0.5106312126572E+01
 0.6251636227539E+01
 0.2519325471363E+01
 0.2647924478486E+01
 0.2770358292328E+01
 0.2872056862611E+01
 0.2947240162056E+01
 0.2998229252984E+01
 0.3030985269640E+01
 0.3051572317860E+01
 0.3064699566692E+01
 0.3073584989615E+01
 0.3080287002991E+01
 0.3086074456990E+01
 0.3091708251675E+01
 0.3097628079363E+01
 0.3104066313362E+01
 0.3111110438418E+01
 0.3118729144070E+01
 0.3126771713320E+01
 0.3134948983557E+01
 0.3142805867794E+01
 0.3149702340497E+01
 0.3154825550941E+01
 0.3157244915059E+01
 0.3156005415387E+01
 0.3150274602112E+01
 0.3139398602790E+01
 0.3122766060862E+01
 0.3099647820107E+01
 0.3069160241017E+01
 0.3030438712776E+01
 0.2983089688042E+01
 0.2928061891937E+01
 0.2869289347613E+01
 0.2816717009629E+01
 0.2791908920746E+01
 0.2836973547960E+01
 0.3022621893420E+01
 0.3440105268548E+01
 0.4154749916188E+01
 0.5127712743171E+01
 0.6171675078321E+01
 0.2508158482497E+01
 0.2630055101876E+01
 0.2747312562697E+01
 0.2847484667664E+01
 0.2924618552824E+01
 0.2979477977560E+01
 0.3016462493557E+01
 0.3040680163935E+01
 0.3056446852543E+01
 0.3066912944925E+01
 0.3074206113328E+01
 0.3079699901709E+01
 0.3084251973998E+01
 0.3088376190537E+01
 0.3092354159821E+01
 0.3096300222384E+01
 0.3100192187094E+01
 0.3103877182217E+01
 0.3107061413451E+01
 0.3109294675142E+01
 0.3109965136415E+01
 0.3108321870264E+01
 0.3103531343529E+01
 0.3094762860214E+01
 0.3081325406271E+01
 0.3062729956266E+01
 0.3038587704298E+01
 0.3008500512191E+01
 0.2972079503878E+01
 0.2929181311782E+01
 0.2880447416429E+01
 0.2828303328501E+01
 0.2778746667422E+01
 0.2744408269147E+01
 0.2749613121604E+01
 0.2837061403424E+01
 0.3070815232001E+01
 0.3522823391303E+01
 0.4231360597615E+01
 0.5145390894996E+01
 0.6103581220746E+01
 0.2498565093375E+01
 0.2614513283042E+01
 0.2726902027517E+01
 0.2825074239424E+01
 0.2903186312008E+01
 0.2960910876177E+01
 0.3001363493458E+01
 0.3028746888585E+01
 0.3046920526994E+01
 0.3058884140498E+01
 0.3066769536931E+01
 0.3072012914991E+01
 0.3075544657641E+01
 0.3077941026951E+01
 0.3079529337400E+01
 0.3080453139913E+01
 0.3080706490177E+01
 0.3080145864270E+01
 0.3078488390388E+01
 0.3075307345798E+01
 0.3070038664339E+01
 0.3062011574003E+01
 0.3050506075315E+01
 0.3034833234724E+01
 0.3014465584086E+01
 0.2989107235149E+01
 0.2958624662230E+01
 0.2922984608279E+01
 0.2882324938879E+01
 0.2837248717531E+01
 0.2789435891281E+01
 0.2742729466730E+01
 0.2704976278231E+01
 0.2690946554566E+01
 0.2726597178775E+01
 0.2853456737314E+01
 0.3127612967431E+01
 0.3603831993587E+01
 0.4300493913776E+01
 0.5160717782406E+01
 0.6045504494274E+01
 0.2490248573397E+01
 0.2600883422006E+01
 0.2708728659118E+01
 0.2804621951071E+01
 0.2882983959717E+01
 0.2942740944192E+01
 0.2985973315086E+01
 0.3016060006917E+01
 0.3036379751697E+01
 0.3049723409173E+01
 0.3058173088423E+01
 0.3063189248915E+01
 0.3065751296956E+01
 0.3066485350383E+01
 0.3065759886495E+01
 0.3063749043618E+01
 0.3060469260179E+01
 0.3055796616364E+01
 0.3049472901935E+01
 0.3041110924363E+01
 0.3030210905839E+01
 0.3016197574023E+01
 0.2998478667304E+01
 0.2976522342564E+01
 0.2949983809753E+01
 0.2918783981058E+01
 0.2883070681182E+01
 0.2843200022835E+01
 0.2799854697966E+01
 0.2754387850648E+01
 0.2709488380342E+01
 0.2670311202834E+01
 0.2646285252305E+01
 0.2653748863282E+01
 0.2719269439160E+01
 0.2881897522394E+01
 0.3189318887261E+01
 0.3681675367496E+01
 0.4363101919812E+01
 0.5174714060553E+01
 0.5995909845814E+01
 0.2482979391736E+01
 0.2588840339882E+01
 0.2692464600601E+01
 0.2785933342667E+01
 0.2864007118453E+01
 0.2925116621597E+01
 0.2970520254375E+01
 0.3002867913532E+01
 0.3025060710187E+01
 0.3039643851243E+01
 0.3048607631703E+01
 0.3053403318816E+01
 0.3055037078871E+01
 0.3054172255227E+01
 0.3051213300019E+01
 0.3046365468883E+01
 0.3039672699157E+01
 0.3031039589425E+01
 0.3020244473694E+01
 0.3006953316955E+01
 0.2990744427849E+01
 0.2971150816029E+01
 0.2947719961165E+01
 0.2920090110962E+01
 0.2888114979777E+01
 0.2851951032240E+01
 0.2812046668920E+01
 0.2769162561530E+01
 0.2724531265277E+01
 0.2680240807764E+01
 0.2639933051021E+01
 0.2609936281395E+01
 0.2600965992821E+01
 0.2630371108160E+01
 0.2724459800782E+01
 0.2918933404946E+01
 0.3253274906967E+01
 0.3755562548532E+01
 0.4420024155924E+01
 0.5188144482838E+01
 0.5953476778438E+01
 0.2476578151447E+01
 0.2578127673802E+01
 0.2677840466481E+01
 0.2768830311544E+01
 0.2846224721039E+01
 0.2908138660470E+01
 0.2955185678393E+01
 0.2989383372243E+01
 0.3013176488431E+01
 0.3028845217722E+01
 0.3038257057620E+01
 0.3042826215377E+01
 0.3043565559513E+01
 0.3041163515172E+01
 0.3036055010947E+01
 0.3028476246265E+01
 0.3018502771604E+01
 0.3006075249429E+01
 0.2991018609933E+01
 0.2973063336843E+01
 0.2951877158972E+01
 0.2927111809092E+01
 0.2898464335759E+01
 0.2865753592638E+01
 0.2829044144709E+01
 0.2788741800703E+01
 0.2745608070418E+01
 0.2700814608914E+01
 0.2656137232875E+01
 0.2614368049245E+01
 0.2580026012719E+01
 0.2560453350684E+01
 0.2567347997706E+01
 0.2618553809770E+01
 0.2739423235213E+01
 0.2961814668152E+01
 0.3317599576557E+01
 0.3825119496780E+01
 0.4471918826478E+01
 0.5201554273897E+01
 0.5916930217692E+01
 0.2470903430256E+01
 0.2568542006502E+01
 0.2664635124736E+01
 0.2753153976851E+01
 0.2829591220759E+01
 0.2891873239438E+01
 0.2940112886449E+01
 0.2975787556893E+01
 0.3000917859223E+01
 0.3017513056171E+01
 0.3027296799582E+01
 0.3031624079166E+01
 0.3031497093032E+01
 0.3027618125601E+01
 0.3020447059852E+01
 0.3010250307949E+01
 0.2997138197259E+01
 0.2981093654280E+01
 0.2961996495063E+01
 0.2939650974717E+01
 0.2913823324978E+01
 0.2884292259626E+01
 0.2850912060595E+01
 0.2813690130781E+01
 0.2772910715017E+01
 0.2729237939152E+01
 0.2683752673827E+01
 0.2638036080474E+01
 0.2594390750444E+01
 0.2556269873481E+01
 0.2528979936448E+01
 0.2520707088245E+01
 0.2543834694866E+01
 0.2616246841207E+01
 0.2761820301506E+01
 0.3008379421335E+01
 0.3380978918950E+01
 0.3890254568990E+01
 0.4519235102286E+01
 0.5215410772549E+01
 0.5884250420641E+01
 0.2465842135671E+01
 0.2559921057593E+01
 0.2652668076806E+01
 0.2738767496214E+01
 0.2814058486071E+01
 0.2876367167472E+01
 0.2925421044243E+01
 0.2962241281036E+01
 0.2988462413346E+01
 0.3005826938334E+01
 0.3015902249550E+01
 0.3019967597051E+01
 0.3019000200212E+01
 0.3013706334652E+01
 0.3004565635452E+01
 0.2991873668818E+01
 0.2975777892975E+01
 0.2956308448034E+01
 0.2933406653913E+01
 0.2906957777507E+01
 0.2876833437355E+01
 0.2842945317039E+01
 0.2805310150416E+01
 0.2764128831156E+01
 0.2719910137018E+01
 0.2673580261157E+01
 0.2626539102407E+01
 0.2580767863003E+01
 0.2539069970297E+01
 0.2505506025599E+01
 0.2486070234445E+01
 0.2489618591525E+01
 0.2528940628746E+01
 0.2621579474084E+01
 0.2789585949342E+01
 0.3056797964563E+01
 0.3442331175258E+01
 0.3950838101912E+01
 0.4562464132272E+01
 0.5228400721213E+01
 0.5863164196108E+01
 0.2461306801379E+01
 0.2552135560751E+01
 0.2641791550609E+01
 0.2725551216960E+01
 0.2799573788864E+01
 0.2861645364890E+01
 0.2911199418427E+01
 0.2948875186285E+01
 0.2975961192876E+01
 0.2993944199979E+01
 0.3004229799553E+01
 0.3008009932614E+01
 0.3006225452634E+01
 0.2999578150046E+01
 0.2988562582610E+01
 0.2973502105201E+01
 0.2954582851461E+01
 0.2931885894705E+01
 0.2905419091424E+01
 0.2875154126255E+01
 0.2841072945099E+01
 0.2803224218011E+01
 0.2761790241840E+01
 0.2717167803178E+01
 0.2670091804057E+01
 0.2621750137626E+01
 0.2573856470790E+01
 0.2528777028375E+01
 0.2489784256730E+01
 0.2461487011596E+01
 0.2450464483028E+01
 0.2466074176393E+01
 0.2521261706091E+01
 0.2632926590305E+01
 0.2821089937567E+01
 0.3105800432229E+01
 0.3501114129004E+01
 0.4007036632740E+01
 0.4602284880155E+01
 0.5240073307979E+01
 0.5856025974230E+01
 0.2457224663920E+01
 0.2545079515495E+01
 0.2631880656700E+01
 0.2713397669345E+01
 0.2786079849895E+01
 0.2847713678105E+01
 0.2897510251414E+01
 0.2935791236581E+01
 0.2963538626522E+01
 0.2981998767337E+01
 0.2992415112103E+01
 0.2995884876164E+01
 0.2993303796093E+01
 0.2985362032790E+01
 0.2972564618055E+01
 0.2955261040104E+01
 0.2933676866841E+01
 0.2907946650579E+01
 0.2878148350738E+01
 0.2844343836202E+01
 0.2806628636383E+01
 0.2765190755626E+01
 0.2720379423726E+01
 0.2672787695143E+01
 0.2623375699771E+01
 0.2573589685823E+01
 0.2525448522169E+01
 0.2481685159692E+01
 0.2446006536404E+01
 0.2423509466142E+01
 0.2421258219873E+01
 0.2448956282672E+01
 0.2519490706337E+01
 0.2648890725884E+01
 0.2855057477050E+01
 0.3154536000204E+01
 0.3557106518736E+01
 0.4059290551485E+01
 0.4638873566869E+01
 0.5253157627852E+01
 0.5849424998854E+01
 0.2453538066542E+01
 0.2538668495543E+01
 0.2622835144304E+01
 0.2702219050670E+01
 0.2773528802167E+01
 0.2834577251592E+01
 0.2884408855208E+01
 0.2923082682322E+01
 0.2951311765601E+01
 0.2970120024805E+01
 0.2980592545495E+01
 0.2983728072296E+01
 0.2980371041388E+01
 0.2971194299945E+01
 0.2956709475842E+01
 0.2937290436299E+01
 0.2913202332562E+01
 0.2884634731188E+01
 0.2851737944966E+01
 0.2814666274158E+01
 0.2773630456687E+01
 0.2728958462413E+01
 0.2681165935245E+01
 0.2631040347628E+01
 0.2579763486303E+01
 0.2529033498043E+01
 0.2481162503983E+01
 0.2439228578142E+01
 0.2407335965752E+01
 0.2391008237010E+01
 0.2397698294346E+01
 0.2437313991944E+01
 0.2522505098084E+01
 0.2668273329852E+01
 0.2890402336575E+01
 0.3202265359712E+01
 0.3610091701060E+01
 0.4107763440895E+01
 0.4672885897892E+01
 0.5266917846985E+01
 0.5844311332153E+01
 0.2450200637858E+01
 0.2532834223145E+01
 0.2614572759314E+01
 0.2691941085974E+01
 0.2761877301818E+01
 0.2822236419088E+01
 0.2871939287275E+01
 0.2910828801410E+01
 0.2939383822163E+01
 0.2958425124162E+01
 0.2968886183908E+01
 0.2971666543808E+01
 0.2967555438633E+01
 0.2957204109664E+01
 0.2941127504441E+01
 0.2919722083426E+01
 0.2893292203128E+01
 0.2862083065904E+01
 0.2826318386169E+01
 0.2786245748388E+01
 0.2742191215012E+01
 0.2694621747395E+01
 0.2644217117427E+01
 0.2591955327486E+01
 0.2539233892561E+01
 0.2487993788548E+01
 0.2440825779721E+01
 0.2401129153849E+01
 0.2373366975873E+01
 0.2363429298870E+01
 0.2379067096539E+01
 0.2430267667705E+01
 0.2529301350794E+01
 0.2690046892690E+01
 0.2926239960323E+01
 0.3248434985208E+01
 0.3659935986300E+01
 0.4152687377937E+01
 0.4704637856197E+01
 0.5280870831456E+01
 0.5840831600547E+01
 0.2447175054540E+01
 0.2527521451792E+01
 0.2607026043612E+01
 0.2682501280008E+01
 0.2751086886117E+01
 0.2810688691322E+01
 0.2860136931082E+01
 0.2899097191765E+01
 0.2927845749764E+01
 0.2947019817348E+01
 0.2957410082043E+01
 0.2959818553160E+01
 0.2954977333967E+01
 0.2943513049151E+01
 0.2925941288506E+01
 0.2902679337061E+01
 0.2874069925837E+01
 0.2840413694342E+01
 0.2802007714599E+01
 0.2759192433423E+01
 0.2712407964165E+01
 0.2662257798300E+01
 0.2609581921292E+01
 0.2555543147100E+01
 0.2501746759479E+01
 0.2450365363969E+01
 0.2404251766465E+01
 0.2367101131820E+01
 0.2343696694959E+01
 0.2340237132173E+01
 0.2364688684565E+01
 0.2427011516565E+01
 0.2538989895975E+01
 0.2713336202747E+01
 0.2961854597114E+01
 0.3292628903070E+01
 0.3706576878281E+01
 0.4194267290512E+01
 0.4734269747350E+01
 0.5294715817877E+01
 0.5838886471617E+01
 0.2444431287679E+01
 0.2522685479822E+01
 0.2600139732844E+01
 0.2673847303392E+01
 0.2741123970877E+01
 0.2799930122606E+01
 0.2849030494554E+01
 0.2887945688512E+01
 0.2916777672295E+01
 0.2935999298132E+01
 0.2946268606234E+01
 0.2948293595951E+01
 0.2942748966322E+01
 0.2930234860058E+01
 0.2911265403099E+01
 0.2886276985198E+01
 0.2855649493878E+01
 0.2819738075113E+01
 0.2778912127192E+01
 0.2733603377313E+01
 0.2684363443926E+01
 0.2631928522895E+01
 0.2577293421187E+01
 0.2521798433106E+01
 0.2467246942086E+01
 0.2416030303343E+01
 0.2371245362967E+01
 0.2336857147166E+01
 0.2317931183567E+01
 0.2320920499068E+01
 0.2353932891812E+01
 0.2426813878724E+01
 0.2550787960253E+01
 0.2737400077592E+01
 0.2996668680195E+01
 0.3334536866720E+01
 0.3749994685660E+01
 0.4232661727432E+01
 0.4761849827549E+01
 0.5308246656183E+01
 0.5838288392994E+01
 0.2441945214813E+01
 0.2518290167542E+01
 0.2593868625936E+01
 0.2665935545129E+01
 0.2731959626916E+01
 0.2789956222514E+01
 0.2838643539348E+01
 0.2877423944788E+01
 0.2906250145953E+01
 0.2925449013040E+01
 0.2935556827731E+01
 0.2937192485649E+01
 0.2930974367712E+01
 0.2917475266412E+01
 0.2897206263808E+01
 0.2870621201157E+01
 0.2838135573499E+01
 0.2800157452409E+01
 0.2757126643173E+01
 0.2709563521150E+01
 0.2658127507611E+01
 0.2603682438936E+01
 0.2547371230269E+01
 0.2490702929768E+01
 0.2435667946361E+01
 0.2384862229399E+01
 0.2341607773722E+01
 0.2310113390177E+01
 0.2295690539526E+01
 0.2304996803564E+01
 0.2346217782626E+01
 0.2429015781279E+01
 0.2564011330777E+01
 0.2761613775882E+01
 0.3030217367699E+01
 0.3373928487866E+01
 0.3790191928267E+01
 0.4267991815808E+01
 0.4787414776831E+01
 0.5321312304087E+01
 0.5838822071123E+01
 0.2439697505752E+01
 0.2514306343746E+01
 0.2588175830647E+01
 0.2658729828870E+01
 0.2723569225650E+01
 0.2780762532548E+01
 0.2828995632457E+01
 0.2867574715624E+01
 0.2896325250676E+01
 0.2915445414695E+01
 0.2925360934435E+01
 0.2926607497320E+01
 0.2919749338307E+01
 0.2905331878759E+01
 0.2883862046786E+01
 0.2855809555305E+01
 0.2821623674615E+01
 0.2781763246035E+01
 0.2736735768307E+01
 0.2687146687687E+01
 0.2633758483122E+01
 0.2577556456591E+01
 0.2519823754007E+01
 0.2462228266019E+01
 0.2406935227540E+01
 0.2356730104999E+01
 0.2315140686508E+01
 0.2286593925419E+01
 0.2276612947972E+01
 0.2292015206730E+01
 0.2341010733551E+01
 0.2433028221478E+01
 0.2578065577332E+01
 0.2785452843812E+01
 0.3062127340795E+01
 0.3410632744450E+01
 0.3827182483573E+01
 0.4300351724661E+01
 0.4810987263928E+01
 0.5333793815772E+01
 0.5840265976772E+01
 0.2437672724643E+01
 0.2510710519764E+01
 0.2583031319311E+01
 0.2652200292622E+01
 0.2715932026566E+01
 0.2772344973615E+01
 0.2820103213782E+01
 0.2858434903739E+01
 0.2887057536655E+01
 0.2906056663200E+01
 0.2915758659930E+01
 0.2916622570784E+01
 0.2909161502150E+01
 0.2893894186997E+01
 0.2871322698021E+01
 0.2841931112021E+01
 0.2806200399190E+01
 0.2764637508333E+01
 0.2717814211627E+01
 0.2666416604333E+01
 0.2611304545563E+01
 0.2553577642186E+01
 0.2494650382341E+01
 0.2436338599726E+01
 0.2380969279428E+01
 0.2331501706208E+01
 0.2291649985698E+01
 0.2266034388191E+01
 0.2260357948586E+01
 0.2281558817980E+01
 0.2337828519638E+01
 0.2438328621148E+01
 0.2592437210766E+01
 0.2808478591670E+01
 0.3092099114086E+01
 0.3444522579087E+01
 0.3860985843954E+01
 0.4329816556307E+01
 0.4832582810149E+01
 0.5345590874752E+01
 0.5842403378073E+01
 0.2435858601353E+01
 0.2507483845314E+01
 0.2578410735329E+01
 0.2646322414987E+01
 0.2709030741008E+01
 0.2764700025087E+01
 0.2811980233286E+01
 0.2850036393965E+01
 0.2878494823643E+01
 0.2897343252288E+01
 0.2906819694950E+01
 0.2907313532998E+01
 0.2899290400397E+01
 0.2883243595606E+01
 0.2859669980783E+01
 0.2829066554117E+01
 0.2791943700972E+01
 0.2748853371396E+01
 0.2700427566601E+01
 0.2647427859858E+01
 0.2590804987234E+01
 0.2531764835357E+01
 0.2471843480312E+01
 0.2412992990774E+01
 0.2357688365813E+01
 0.2309046634608E+01
 0.2270948891927E+01
 0.2248184996091E+01
 0.2246608923979E+01
 0.2273246052679E+01
 0.2336236609590E+01
 0.2444456793654E+01
 0.2606685205580E+01
 0.2830325388886E+01
 0.3119892704345E+01
 0.3475503717704E+01
 0.3891624129837E+01
 0.4356447635103E+01
 0.4852212269513E+01
 0.5356614568760E+01
 0.5845028461968E+01
 0.2434245435390E+01
 0.2504611256630E+01
 0.2574294405321E+01
 0.2641076175544E+01
 0.2702851102092E+01
 0.2757824792090E+01
 0.2804638616500E+01
 0.2842406720002E+01
 0.2870678877415E+01
 0.2889358569842E+01
 0.2898606083371E+01
 0.2898748340277E+01
 0.2890207624891E+01
 0.2873453508069E+01
 0.2848977572771E+01
 0.2817288351412E+01
 0.2778923179020E+01
 0.2734475513403E+01
 0.2684632992585E+01
 0.2630226838185E+01
 0.2572291436194E+01
 0.2512130178907E+01
 0.2451390245277E+01
 0.2392147581676E+01
 0.2337010986324E+01
 0.2289238979205E+01
 0.2252860661154E+01
 0.2232813034576E+01
 0.2235074993910E+01
 0.2266731365697E+01
 0.2335847906406E+01
 0.2451010677106E+01
 0.2620433049990E+01
 0.2850689638070E+01
 0.3145316046120E+01
 0.3503506413803E+01
 0.3919120287124E+01
 0.4380295742221E+01
 0.4869882660153E+01
 0.5366783911694E+01
 0.5847949887619E+01
 0.2432825610123E+01
 0.2502080781153E+01
 0.2570666523281E+01
 0.2636445337117E+01
 0.2697381458731E+01
 0.2751716999713E+01
 0.2798088599738E+01
 0.2835569593379E+01
 0.2863645976731E+01
 0.2882149391674E+01
 0.2891172592151E+01
 0.2890987324834E+01
 0.2881976974392E+01
 0.2864589441772E+01
 0.2839311193397E+01
 0.2806660952758E+01
 0.2767200382780E+01
 0.2721560620032E+01
 0.2670479870624E+01
 0.2614852601414E+01
 0.2555788993833E+01
 0.2494680530968E+01
 0.2433274401510E+01
 0.2373757561277E+01
 0.2318858062609E+01
 0.2271959631355E+01
 0.2237220872270E+01
 0.2219704879107E+01
 0.2225492418262E+01
 0.2261705512578E+01
 0.2336321143643E+01
 0.2457642086394E+01
 0.2633361521375E+01
 0.2869320404701E+01
 0.3168215760910E+01
 0.3528479351161E+01
 0.3943496920004E+01
 0.4401403135512E+01
 0.4885597640047E+01
 0.5376024504664E+01
 0.5850993020595E+01
 0.2431593193229E+01
 0.2499882967903E+01
 0.2567514475115E+01
 0.2632416833605E+01
 0.2692612400264E+01
 0.2746374938040E+01
 0.2792338963413E+01
 0.2829545316169E+01
 0.2857427380266E+01
 0.2875756306546E+01
 0.2884567045012E+01
 0.2884083430723E+01
 0.2874654616250E+01
 0.2856709155065E+01
 0.2830728741939E+01
 0.2797240981054E+01
 0.2756829106712E+01
 0.2710157817070E+01
 0.2658010407492E+01
 0.2601337693594E+01
 0.2541317260772E+01
 0.2479418727310E+01
 0.2417477700242E+01
 0.2357778882880E+01
 0.2303154823831E+01
 0.2257098244789E+01
 0.2223879314007E+01
 0.2208667588308E+01
 0.2217625571723E+01
 0.2257895436075E+01
 0.2337359072895E+01
 0.2464052630443E+01
 0.2645202253824E+01
 0.2886011557917E+01
 0.3188469843689E+01
 0.3550385100901E+01
 0.3964775484584E+01
 0.4419804895929E+01
 0.4899358029814E+01
 0.5384268347706E+01
 0.5854001254673E+01
 0.2430543610699E+01
 0.2498010422943E+01
 0.2564828283522E+01
 0.2628980254970E+01
 0.2688536421820E+01
 0.2741797383611E+01
 0.2787397195254E+01
 0.2824351106222E+01
 0.2852049714415E+01
 0.2870214085085E+01
 0.2878830626594E+01
 0.2878082443049E+01
 0.2868289257047E+01
 0.2849862791347E+01
 0.2823280453929E+01
 0.2789077441847E+01
 0.2747855688870E+01
 0.2700309092957E+01
 0.2647260211662E+01
 0.2589708894411E+01
 0.2528891286384E+01
 0.2466344736145E+01
 0.2403981275931E+01
 0.2344169797904E+01
 0.2289832465133E+01
 0.2244554928962E+01
 0.2212701575090E+01
 0.2199530187507E+01
 0.2211267623957E+01
 0.2255063925209E+01
 0.2338706594621E+01
 0.2469989914058E+01
 0.2655732100678E+01
 0.2900595213377E+01
 0.3205981829757E+01
 0.3569196636861E+01
 0.3982975646288E+01
 0.4435529853836E+01
 0.4911162420435E+01
 0.5391454180192E+01
 0.5856836811990E+01
 0.2429673381826E+01
 0.2496457432103E+01
 0.2562600153958E+01
 0.2626127417079E+01
 0.2685147630393E+01
 0.2737983508079E+01
 0.2783269598278E+01
 0.2820001346781E+01
 0.2847535286497E+01
 0.2865551988813E+01
 0.2873998146234E+01
 0.2873023194381E+01
 0.2862922302469E+01
 0.2844093017641E+01
 0.2817009050578E+01
 0.2782211917456E+01
 0.2740319282088E+01
 0.2692049676259E+01
 0.2638258802192E+01
 0.2579987879806E+01
 0.2518522395352E+01
 0.2455456656381E+01
 0.2392766809331E+01
 0.2332892158447E+01
 0.2278829539394E+01
 0.2234241647744E+01
 0.2203570326239E+01
 0.2192144653143E+01
 0.2206240963877E+01
 0.2253009119605E+01
 0.2340148935841E+01
 0.2475244127072E+01
 0.2664768328004E+01
 0.2912936384034E+01
 0.3220676230303E+01
 0.3584894722046E+01
 0.3998114843078E+01
 0.4448601350634E+01
 0.4921007889212E+01
 0.5397528057219E+01
 0.5859381223531E+01
 0.2428979905078E+01
 0.2495219657423E+01
 0.2560824107320E+01
 0.2623852007994E+01
 0.2682441493751E+01
 0.2734932786142E+01
 0.2779961360956E+01
 0.2816507777746E+01
 0.2843902336677E+01
 0.2861794027548E+01
 0.2870098265358E+01
 0.2868937749760E+01
 0.2858588006860E+01
 0.2839435158425E+01
 0.2811949883210E+01
 0.2776678750304E+01
 0.2734252103611E+01
 0.2685408376368E+01
 0.2631030061651E+01
 0.2572191803784E+01
 0.2510218909275E+01
 0.2446751581860E+01
 0.2383817525548E+01
 0.2323912523934E+01
 0.2270093125736E+01
 0.2226083376068E+01
 0.2196386355979E+01
 0.2186386668935E+01
 0.2202397447414E+01
 0.2251563944544E+01
 0.2341509953025E+01
 0.2479645055926E+01
 0.2672164575681E+01
 0.2922928641207E+01
 0.3232494942042E+01
 0.3597465900572E+01
 0.4010207950659E+01
 0.4459037850756E+01
 0.4928890706255E+01
 0.5402443959431E+01
 0.5861535576282E+01
 0.2428461289810E+01
 0.2494293898024E+01
 0.2559495689412E+01
 0.2622149304393E+01
 0.2680414633092E+01
 0.2732644910842E+01
 0.2777476601494E+01
 0.2813879640055E+01
 0.2841165236551E+01
 0.2858959168373E+01
 0.2867153687275E+01
 0.2865851565750E+01
 0.2855313605746E+01
 0.2835917316710E+01
 0.2808131063908E+01
 0.2772505206215E+01
 0.2729679653546E+01
 0.2680407877519E+01
 0.2625592623030E+01
 0.2566333791594E+01
 0.2503986754272E+01
 0.2440226324337E+01
 0.2377119023122E+01
 0.2317203073062E+01
 0.2263579783301E+01
 0.2220019032345E+01
 0.2191069389271E+01
 0.2182156196203E+01
 0.2199618527010E+01
 0.2250595550746E+01
 0.2342650639249E+01
 0.2483059572084E+01
 0.2677807575366E+01
 0.2930490691354E+01
 0.3241394489927E+01
 0.3606900996170E+01
 0.4019267060438E+01
 0.4466853466280E+01
 0.4934807003497E+01
 0.5406164355858E+01
 0.5863220674513E+01
 0.2428116226461E+01
 0.2493677906640E+01
 0.2558611747185E+01
 0.2621015950757E+01
 0.2679064657478E+01
 0.2731119719837E+01
 0.2775818393148E+01
 0.2812123780290E+01
 0.2839334639178E+01
 0.2857061497503E+01
 0.2865181307322E+01
 0.2863783618877E+01
 0.2853119424873E+01
 0.2833560474829E+01
 0.2805573574184E+01
 0.2769711608929E+01
 0.2726620892950E+01
 0.2677064976532E+01
 0.2621960180694E+01
 0.2562423334142E+01
 0.2499829944706E+01
 0.2435877986292E+01
 0.2372659927252E+01
 0.2312742317506E+01
 0.2259256291414E+01
 0.2216002193683E+01
 0.2187558703011E+01
 0.2179377880852E+01
 0.2197815295287E+01
 0.2250004799853E+01
 0.2343467873861E+01
 0.2485389607523E+01
 0.2681614578387E+01
 0.2935563757619E+01
 0.3247343963550E+01
 0.3613194013386E+01
 0.4025301338898E+01
 0.4472058391356E+01
 0.4938753349614E+01
 0.5408660679072E+01
 0.5864377092879E+01
 0.2427943892806E+01
 0.2493370256901E+01
 0.2558170266552E+01
 0.2620449798102E+01
 0.2678390040988E+01
 0.2730357138074E+01
 0.2774988778972E+01
 0.2811244724522E+01
 0.2838417588243E+01
 0.2856110340459E+01
 0.2864192326517E+01
 0.2862746504894E+01
 0.2852018966325E+01
 0.2832378575295E+01
 0.2804291352349E+01
 0.2768311447328E+01
 0.2725088384088E+01
 0.2675390768093E+01
 0.2620141730769E+01
 0.2560466590955E+01
 0.2497750952746E+01
 0.2433704396308E+01
 0.2370432383703E+01
 0.2310515638496E+01
 0.2257100202440E+01
 0.2214001625675E+01
 0.2185813575809E+01
 0.2178001340281E+01
 0.2196928492011E+01
 0.2249725847405E+01
 0.2343893457858E+01
 0.2486570630761E+01
 0.2683531456848E+01
 0.2938109678939E+01
 0.3250323540021E+01
 0.3616341360152E+01
 0.4028316935177E+01
 0.4474659231096E+01
 0.4940727198184E+01
 0.5409913682430E+01
 0.5864965207776E+01
 0.2427943892818E+01
 0.2493370256915E+01
 0.2558170266570E+01
 0.2620449798124E+01
 0.2678390041015E+01
 0.2730357138108E+01
 0.2774988779012E+01
 0.2811244724567E+01
 0.2838417588295E+01
 0.2856110340518E+01
 0.2864192326583E+01
 0.2862746504968E+01
 0.2852018966408E+01
 0.2832378575389E+01
 0.2804291352457E+01
 0.2768311447452E+01
 0.2725088384229E+01
 0.2675390768255E+01
 0.2620141730952E+01
 0.2560466591160E+01
 0.2497750952972E+01
 0.2433704396554E+01
 0.2370432383965E+01
 0.2310515638767E+01
 0.2257100202713E+01
 0.2214001625937E+01
 0.2185813576046E+01
 0.2178001340474E+01
 0.2196928492139E+01
 0.2249725847447E+01
 0.2343893457793E+01
 0.2486570630576E+01
 0.2683531456538E+01
 0.2938109678517E+01
 0.3250323539515E+01
 0.3616341359608E+01
 0.4028316934649E+01
 0.4474659230640E+01
 0.4940727197844E+01
 0.5409913682230E+01
 0.5864965207711E+01
 0.2428116226499E+01
 0.2493677906683E+01
 0.2558611747238E+01
 0.2621015950824E+01
 0.2679064657560E+01
 0.2731119719937E+01
 0.2775818393266E+01
 0.2812123780427E+01
 0.2839334639334E+01
 0.2857061497678E+01
 0.2865181307519E+01
 0.2863783619098E+01
 0.2853119425122E+01
 0.2833560475112E+01
 0.2805573574507E+01
 0.2769711609300E+01
 0.2726620893374E+01
 0.2677064977015E+01
 0.2621960181241E+01
 0.2562423334756E+01
 0.2499829945386E+01
 0.2435877987030E+01
 0.2372659928039E+01
 0.2312742318322E+01
 0.2259256292235E+01
 0.2216002194473E+01
 0.2187558703725E+01
 0.2179377881436E+01
 0.2197815295678E+01
 0.2250004799985E+01
 0.2343467873673E+01
 0.2485389606972E+01
 0.2681614577462E+01
 0.2935563756356E+01
 0.3247343962035E+01
 0.3613194011754E+01
 0.4025301337314E+01
 0.4472058389985E+01
 0.4938753348595E+01
 0.5408660678475E+01
 0.5864377092687E+01
 0.2428461289874E+01
 0.2494293898097E+01
 0.2559495689500E+01
 0.2622149304504E+01
 0.2680414633229E+01
 0.2732644911009E+01
 0.2777476601691E+01
 0.2813879640283E+01
 0.2841165236810E+01
 0.2858959168664E+01
 0.2867153687602E+01
 0.2865851566117E+01
 0.2855313606160E+01
 0.2835917317180E+01
 0.2808131064445E+01
 0.2772505206830E+01
 0.2729679654250E+01
 0.2680407878323E+01
 0.2625592623941E+01
 0.2566333792617E+01
 0.2503986755403E+01
 0.2440226325568E+01
 0.2377119024434E+01
 0.2317203074425E+01
 0.2263579784673E+01
 0.2220019033667E+01
 0.2191069390470E+01
 0.2182156197188E+01
 0.2199618527676E+01
 0.2250595550983E+01
 0.2342650638954E+01
 0.2483059571182E+01
 0.2677807573839E+01
 0.2930490689259E+01
 0.3241394487409E+01
 0.3606900993452E+01
 0.4019267057795E+01
 0.4466853463994E+01
 0.4934807001799E+01
 0.5406164354871E+01
 0.5863220674206E+01
 0.2428979905167E+01
 0.2495219657524E+01
 0.2560824107444E+01
 0.2623852008149E+01
 0.2682441493943E+01
 0.2734932786375E+01
 0.2779961361231E+01
 0.2816507778065E+01
 0.2843902337039E+01
 0.2861794027955E+01
 0.2870098265814E+01
 0.2868937750271E+01
 0.2858588007437E+01
 0.2839435159080E+01
 0.2811949883958E+01
 0.2776678751162E+01
 0.2734252104594E+01
 0.2685408377490E+01
 0.2631030062924E+01
 0.2572191805213E+01
 0.2510218910858E+01
 0.2446751583584E+01
 0.2383817527388E+01
 0.2323912525849E+01
 0.2270093127666E+01
 0.2226083377933E+01
 0.2196386357676E+01
 0.2186386670338E+01
 0.2202397448377E+01
 0.2251563944910E+01
 0.2341509952648E+01
 0.2479645054700E+01
 0.2672164573575E+01
 0.2922928638297E+01
 0.3232494938528E+01
 0.3597465896767E+01
 0.4010207946952E+01
 0.4459037847549E+01
 0.4928890703878E+01
 0.5402443958061E+01
 0.5861535575881E+01
 0.2429673381940E+01
 0.2496457432234E+01
 0.2562600154118E+01
 0.2626127417278E+01
 0.2685147630640E+01
 0.2737983508379E+01
 0.2783269598631E+01
 0.2820001347189E+01
 0.2847535286960E+01
 0.2865551989333E+01
 0.2873998146816E+01
 0.2873023195034E+01
 0.2862922303205E+01
 0.2844093018478E+01
 0.2817009051534E+01
 0.2782211918551E+01
 0.2740319283344E+01
 0.2692049677695E+01
 0.2638258803824E+01
 0.2579987881640E+01
 0.2518522397386E+01
 0.2455456658599E+01
 0.2392766811702E+01
 0.2332892160919E+01
 0.2278829541891E+01
 0.2234241650166E+01
 0.2203570328453E+01
 0.2192144654989E+01
 0.2206240965166E+01
 0.2253009120135E+01
 0.2340148935420E+01
 0.2475244125559E+01
 0.2664768325350E+01
 0.2912936380333E+01
 0.3220676225806E+01
 0.3584894717156E+01
 0.3998114838303E+01
 0.4448601346499E+01
 0.4921007886156E+01
 0.5397528055479E+01
 0.5859381223062E+01
 0.2430543610839E+01
 0.2498010423103E+01
 0.2564828283718E+01
 0.2628980255214E+01
 0.2688536422122E+01
 0.2741797383977E+01
 0.2787397195686E+01
 0.2824351106719E+01
 0.2852049714978E+01
 0.2870214085717E+01
 0.2878830627300E+01
 0.2878082443841E+01
 0.2868289257940E+01
 0.2849862792361E+01
 0.2823280455087E+01
 0.2789077443176E+01
 0.2747855690396E+01
 0.2700309094703E+01
 0.2647260213647E+01
 0.2589708896646E+01
 0.2528891288866E+01
 0.2466344738857E+01
 0.2403981278836E+01
 0.2344169800940E+01
 0.2289832468211E+01
 0.2244554931958E+01
 0.2212701577846E+01
 0.2199530189827E+01
 0.2211267625611E+01
 0.2255063925948E+01
 0.2338706594205E+01
 0.2469989912305E+01
 0.2655732097520E+01
 0.2900595208915E+01
 0.3205981824294E+01
 0.3569196630890E+01
 0.3982975640436E+01
 0.4435529848765E+01
 0.4911162416698E+01
 0.5391454178098E+01
 0.5856836811490E+01
 0.2431593193395E+01
 0.2499882968093E+01
 0.2567514475346E+01
 0.2632416833894E+01
 0.2692612400621E+01
 0.2746374938472E+01
 0.2792338963922E+01
 0.2829545316755E+01
 0.2857427380928E+01
 0.2875756307286E+01
 0.2884567045839E+01
 0.2884083431649E+01
 0.2874654617293E+01
 0.2856709156250E+01
 0.2830728743295E+01
 0.2797240982611E+01
 0.2756829108501E+01
 0.2710157819120E+01
 0.2658010409826E+01
 0.2601337696225E+01
 0.2541317263701E+01
 0.2479418730517E+01
 0.2417477703685E+01
 0.2357778886489E+01
 0.2303154827502E+01
 0.2257098248380E+01
 0.2223879317334E+01
 0.2208667591139E+01
 0.2217625573789E+01
 0.2257895437078E+01
 0.2337359072544E+01
 0.2464052628511E+01
 0.2645202250215E+01
 0.2886011552735E+01
 0.3188469837281E+01
 0.3550385093851E+01
 0.3964775477648E+01
 0.4419804889910E+01
 0.4899358025395E+01
 0.5384268345276E+01
 0.5854001254185E+01
 0.2432825610314E+01
 0.2502080781372E+01
 0.2570666523549E+01
 0.2636445337451E+01
 0.2697381459144E+01
 0.2751717000212E+01
 0.2798088600324E+01
 0.2835569594051E+01
 0.2863645977490E+01
 0.2882149392521E+01
 0.2891172593095E+01
 0.2890987325889E+01
 0.2881976975580E+01
 0.2864589443122E+01
 0.2839311194943E+01
 0.2806660954536E+01
 0.2767200384825E+01
 0.2721560622379E+01
 0.2670479873300E+01
 0.2614852604438E+01
 0.2555788997205E+01
 0.2494680534669E+01
 0.2433274405494E+01
 0.2373757565467E+01
 0.2318858066889E+01
 0.2271959635566E+01
 0.2237220876200E+01
 0.2219704882495E+01
 0.2225492420795E+01
 0.2261705513909E+01
 0.2336321143429E+01
 0.2457642084356E+01
 0.2633361517381E+01
 0.2869320398850E+01
 0.3168215753587E+01
 0.3528479343040E+01
 0.3943496911973E+01
 0.4401403128531E+01
 0.4885597634942E+01
 0.5376024501919E+01
 0.5850993020171E+01
 0.2434245435607E+01
 0.2504611256879E+01
 0.2574294405624E+01
 0.2641076175923E+01
 0.2702851102561E+01
 0.2757824792655E+01
 0.2804638617164E+01
 0.2842406720760E+01
 0.2870678878268E+01
 0.2889358570791E+01
 0.2898606084426E+01
 0.2898748341456E+01
 0.2890207626218E+01
 0.2873453509577E+01
 0.2848977574499E+01
 0.2817288353401E+01
 0.2778923181313E+01
 0.2734475516039E+01
 0.2684632995597E+01
 0.2630226841594E+01
 0.2572291440005E+01
 0.2512130183102E+01
 0.2451390249807E+01
 0.2392147586458E+01
 0.2337010991232E+01
 0.2289238984061E+01
 0.2252860665727E+01
 0.2232813038571E+01
 0.2235074996974E+01
 0.2266731367434E+01
 0.2335847906415E+01
 0.2451010675051E+01
 0.2620433045693E+01
 0.2850689631614E+01
 0.3145316037920E+01
 0.3503506404620E+01
 0.3919120277988E+01
 0.4380295734259E+01
 0.4869882654357E+01
 0.5366783908656E+01
 0.5847949887320E+01
 0.2435858601596E+01
 0.2507483845593E+01
 0.2578410735669E+01
 0.2646322415413E+01
 0.2709030741533E+01
 0.2764700025719E+01
 0.2811980234025E+01
 0.2850036394808E+01
 0.2878494824587E+01
 0.2897343253336E+01
 0.2906819696113E+01
 0.2907313534294E+01
 0.2899290401855E+01
 0.2883243597264E+01
 0.2859669982684E+01
 0.2829066556308E+01
 0.2791943703502E+01
 0.2748853374311E+01
 0.2700427569939E+01
 0.2647427863645E+01
 0.2590804991480E+01
 0.2531764840044E+01
 0.2471843485392E+01
 0.2412992996158E+01
 0.2357688371367E+01
 0.2309046640140E+01
 0.2270948897183E+01
 0.2248185000748E+01
 0.2246608927646E+01
 0.2273246054908E+01
 0.2336236609920E+01
 0.2444456791684E+01
 0.2606685201075E+01
 0.2830325381901E+01
 0.3119892695315E+01
 0.3475503707474E+01
 0.3891624119584E+01
 0.4356447626141E+01
 0.4852212263017E+01
 0.5356614565454E+01
 0.5845028461862E+01
 0.2437672724912E+01
 0.2510710520072E+01
 0.2583031319689E+01
 0.2652200293094E+01
 0.2715932027148E+01
 0.2772344974315E+01
 0.2820103214597E+01
 0.2858434904664E+01
 0.2887057537688E+01
 0.2906056664343E+01
 0.2915758661194E+01
 0.2916622572190E+01
 0.2909161503732E+01
 0.2893894188795E+01
 0.2871322700084E+01
 0.2841931114403E+01
 0.2806200401946E+01
 0.2764637511515E+01
 0.2717814215280E+01
 0.2666416608490E+01
 0.2611304550236E+01
 0.2553577647362E+01
 0.2494650387973E+01
 0.2436338605723E+01
 0.2380969285647E+01
 0.2331501712447E+01
 0.2291649991684E+01
 0.2266034393573E+01
 0.2260357952935E+01
 0.2281558820797E+01
 0.2337828520400E+01
 0.2438328619382E+01
 0.2592437206168E+01
 0.2808478584249E+01
 0.3092099104286E+01
 0.3444522567831E+01
 0.3860985832572E+01
 0.4329816546318E+01
 0.4832582802940E+01
 0.5345590871204E+01
 0.5842403378237E+01
 0.2439697506047E+01
 0.2514306344085E+01
 0.2588175831062E+01
 0.2658729829389E+01
 0.2723569226291E+01
 0.2780762533314E+01
 0.2828995633347E+01
 0.2867574716630E+01
 0.2896325251793E+01
 0.2915445415927E+01
 0.2925360935793E+01
 0.2926607498828E+01
 0.2919749340002E+01
 0.2905331880687E+01
 0.2883862049001E+01
 0.2855809557866E+01
 0.2821623677585E+01
 0.2781763249473E+01
 0.2736735772264E+01
 0.2687146692203E+01
 0.2633758488215E+01
 0.2577556462253E+01
 0.2519823760192E+01
 0.2462228272637E+01
 0.2406935234444E+01
 0.2356730111977E+01
 0.2315140693272E+01
 0.2286593931593E+01
 0.2276612953090E+01
 0.2292015210245E+01
 0.2341010734872E+01
 0.2433028220052E+01
 0.2578065572774E+01
 0.2785452836069E+01
 0.3062127330301E+01
 0.3410632732198E+01
 0.3827182471051E+01
 0.4300351713617E+01
 0.4810987255990E+01
 0.5333793812006E+01
 0.5840265977292E+01
 0.2441945215134E+01
 0.2518290167912E+01
 0.2593868626390E+01
 0.2665935545697E+01
 0.2731959627615E+01
 0.2789956223348E+01
 0.2838643540311E+01
 0.2877423945872E+01
 0.2906250147151E+01
 0.2925449014354E+01
 0.2935556829175E+01
 0.2937192487250E+01
 0.2930974369510E+01
 0.2917475268457E+01
 0.2897206266161E+01
 0.2870621203883E+01
 0.2838135576668E+01
 0.2800157456088E+01
 0.2757126647421E+01
 0.2709563526013E+01
 0.2658127513115E+01
 0.2603682445078E+01
 0.2547371237009E+01
 0.2490702937016E+01
 0.2435667953969E+01
 0.2384862237149E+01
 0.2341607781313E+01
 0.2310113397212E+01
 0.2295690545506E+01
 0.2304996807894E+01
 0.2346217784646E+01
 0.2429015780348E+01
 0.2564011326415E+01
 0.2761613767953E+01
 0.3030217356606E+01
 0.3373928474659E+01
 0.3790191914596E+01
 0.4267991803674E+01
 0.4787414768142E+01
 0.5321312300129E+01
 0.5838822072092E+01
 0.2444431288027E+01
 0.2522685480223E+01
 0.2600139733337E+01
 0.2673847304010E+01
 0.2741123971636E+01
 0.2799930123509E+01
 0.2849030495591E+01
 0.2887945689672E+01
 0.2916777673569E+01
 0.2935999299523E+01
 0.2946268607757E+01
 0.2948293597636E+01
 0.2942748968212E+01
 0.2930234862209E+01
 0.2911265405576E+01
 0.2886276988075E+01
 0.2855649497231E+01
 0.2819738079017E+01
 0.2778912131714E+01
 0.2733603382508E+01
 0.2684363449828E+01
 0.2631928529509E+01
 0.2577293428479E+01
 0.2521798440991E+01
 0.2467246950416E+01
 0.2416030311899E+01
 0.2371245371437E+01
 0.2336857155137E+01
 0.2317931190511E+01
 0.2320920504341E+01
 0.2353932894686E+01
 0.2426813878465E+01
 0.2550787956267E+01
 0.2737400069638E+01
 0.2996668668619E+01
 0.3334536852612E+01
 0.3749994670837E+01
 0.4232661714172E+01
 0.4761849818080E+01
 0.5308246652055E+01
 0.5838288394515E+01
 0.2447175054914E+01
 0.2527521452224E+01
 0.2607026044146E+01
 0.2682501280677E+01
 0.2751086886937E+01
 0.2810688692293E+01
 0.2860136932191E+01
 0.2899097192997E+01
 0.2927845751109E+01
 0.2947019818808E+01
 0.2957410083635E+01
 0.2959818554916E+01
 0.2954977335935E+01
 0.2943513051392E+01
 0.2925941291093E+01
 0.2902679340073E+01
 0.2874069929357E+01
 0.2840413698453E+01
 0.2802007719378E+01
 0.2759192438934E+01
 0.2712407970452E+01
 0.2662257805376E+01
 0.2609581929133E+01
 0.2555543155626E+01
 0.2501746768549E+01
 0.2450365373362E+01
 0.2404251775867E+01
 0.2367101140803E+01
 0.2343696702971E+01
 0.2340237138527E+01
 0.2364688688463E+01
 0.2427011517174E+01
 0.2538989892573E+01
 0.2713336194962E+01
 0.2961854585203E+01
 0.3292628888137E+01
 0.3706576862307E+01
 0.4194267276083E+01
 0.4734269737069E+01
 0.5294715813603E+01
 0.5838886473798E+01
 0.2450200638259E+01
 0.2532834223610E+01
 0.2614572759889E+01
 0.2691941086695E+01
 0.2761877302700E+01
 0.2822236420127E+01
 0.2871939288455E+01
 0.2910828802711E+01
 0.2939383823573E+01
 0.2958425125683E+01
 0.2968886185559E+01
 0.2971666545624E+01
 0.2967555440667E+01
 0.2957204111982E+01
 0.2941127507121E+01
 0.2919722086554E+01
 0.2893292206796E+01
 0.2862083070203E+01
 0.2826318391186E+01
 0.2786245754197E+01
 0.2742191221667E+01
 0.2694621754921E+01
 0.2644217125809E+01
 0.2591955336655E+01
 0.2539233902383E+01
 0.2487993798809E+01
 0.2440825790105E+01
 0.2401129163923E+01
 0.2373366985062E+01
 0.2363429306450E+01
 0.2379067101645E+01
 0.2430267669400E+01
 0.2529301348214E+01
 0.2690046885304E+01
 0.2926239948257E+01
 0.3248434969548E+01
 0.3659935969187E+01
 0.4152687362295E+01
 0.4704637845061E+01
 0.5280870827055E+01
 0.5840831603505E+01
 0.2453538066970E+01
 0.2538668496040E+01
 0.2622835144923E+01
 0.2702219051446E+01
 0.2773528803114E+01
 0.2834577252701E+01
 0.2884408856457E+01
 0.2923082683687E+01
 0.2951311767070E+01
 0.2970120026378E+01
 0.2980592547194E+01
 0.2983728074160E+01
 0.2980371043473E+01
 0.2971194302323E+01
 0.2956709478597E+01
 0.2937290439525E+01
 0.2913202336358E+01
 0.2884634735654E+01
 0.2851737950199E+01
 0.2814666280242E+01
 0.2773630463690E+01
 0.2728958470372E+01
 0.2681165944157E+01
 0.2631040357438E+01
 0.2579763496888E+01
 0.2529033509198E+01
 0.2481162515399E+01
 0.2439228589383E+01
 0.2407335976232E+01
 0.2391008245969E+01
 0.2397698300859E+01
 0.2437313994966E+01
 0.2522505096598E+01
 0.2668273323133E+01
 0.2890402324578E+01
 0.3202265343460E+01
 0.3610091682834E+01
 0.4107763423990E+01
 0.4672885885853E+01
 0.5266917842480E+01
 0.5844311336010E+01
 0.2457224664375E+01
 0.2545079516026E+01
 0.2631880657363E+01
 0.2713397670178E+01
 0.2786079850908E+01
 0.2847713679284E+01
 0.2897510252730E+01
 0.2935791238006E+01
 0.2963538628041E+01
 0.2981998768953E+01
 0.2992415113838E+01
 0.2995884878061E+01
 0.2993303798214E+01
 0.2985362035212E+01
 0.2972564620868E+01
 0.2955261043407E+01
 0.2933676870743E+01
 0.2907946655188E+01
 0.2878148356162E+01
 0.2844343842539E+01
 0.2806628643712E+01
 0.2765190763999E+01
 0.2720379433154E+01
 0.2672787705588E+01
 0.2623375711126E+01
 0.2573589697896E+01
 0.2525448534663E+01
 0.2481685172177E+01
 0.2446006548287E+01
 0.2423509476639E+01
 0.2421258228002E+01
 0.2448956287285E+01
 0.2519490706249E+01
 0.2648890720149E+01
 0.2855057465397E+01
 0.3154535983535E+01
 0.3557106499440E+01
 0.4059290533262E+01
 0.4638873553871E+01
 0.5253157623276E+01
 0.5849425003738E+01
 0.2461306801862E+01
 0.2552135561318E+01
 0.2641791551320E+01
 0.2725551217853E+01
 0.2799573789946E+01
 0.2861645366139E+01
 0.2911199419807E+01
 0.2948875187765E+01
 0.2975961194438E+01
 0.2993944201626E+01
 0.3004229801310E+01
 0.3008009934530E+01
 0.3006225454774E+01
 0.2999578152492E+01
 0.2988562585460E+01
 0.2973502108560E+01
 0.2954582855445E+01
 0.2931885899433E+01
 0.2905419097014E+01
 0.2875154132817E+01
 0.2841072952727E+01
 0.2803224226773E+01
 0.2761790251766E+01
 0.2717167814247E+01
 0.2670091816181E+01
 0.2621750150634E+01
 0.2573856484403E+01
 0.2528777042176E+01
 0.2489784270129E+01
 0.2461487023795E+01
 0.2450464492995E+01
 0.2466074182880E+01
 0.2521261707743E+01
 0.2632926585925E+01
 0.2821089926597E+01
 0.3105800415373E+01
 0.3501114108714E+01
 0.4007036613139E+01
 0.4602284866118E+01
 0.5240073303391E+01
 0.5856025980282E+01
 0.2465842136182E+01
 0.2559921058196E+01
 0.2652668077567E+01
 0.2738767497170E+01
 0.2814058487224E+01
 0.2876367168791E+01
 0.2925421045685E+01
 0.2962241282564E+01
 0.2988462414940E+01
 0.3005826940000E+01
 0.3015902251316E+01
 0.3019967598970E+01
 0.3019000202354E+01
 0.3013706337105E+01
 0.3004565638317E+01
 0.2991873672210E+01
 0.2975777897016E+01
 0.2956308452853E+01
 0.2933406659639E+01
 0.2906957784264E+01
 0.2876833445252E+01
 0.2842945326162E+01
 0.2805310160815E+01
 0.2764128842832E+01
 0.2719910149907E+01
 0.2673580275112E+01
 0.2626539117173E+01
 0.2580767878186E+01
 0.2539069985321E+01
 0.2505506039662E+01
 0.2486070246480E+01
 0.2489618600194E+01
 0.2528940632518E+01
 0.2621579471484E+01
 0.2789585939466E+01
 0.3056797947823E+01
 0.3442331154090E+01
 0.3950838080877E+01
 0.4562464117074E+01
 0.5228400716686E+01
 0.5863164203616E+01
 0.2470903430791E+01
 0.2568542007140E+01
 0.2664635125541E+01
 0.2753153977862E+01
 0.2829591221969E+01
 0.2891873240807E+01
 0.2940112887926E+01
 0.2975787558436E+01
 0.3000917860814E+01
 0.3017513057816E+01
 0.3027296801314E+01
 0.3031624081039E+01
 0.3031497095120E+01
 0.3027618127995E+01
 0.3020447062656E+01
 0.3010250311281E+01
 0.2997138201246E+01
 0.2981093659055E+01
 0.2961996500764E+01
 0.2939650981477E+01
 0.2913823332920E+01
 0.2884292268853E+01
 0.2850912071176E+01
 0.2813690142742E+01
 0.2772910728322E+01
 0.2729237953686E+01
 0.2683752689375E+01
 0.2638036096679E+01
 0.2594390766770E+01
 0.2556269889154E+01
 0.2528979950408E+01
 0.2520707099113E+01
 0.2543834700986E+01
 0.2616246840853E+01
 0.2761820293392E+01
 0.3008379405472E+01
 0.3380978897593E+01
 0.3890254546997E+01
 0.4519235086175E+01
 0.5215410768102E+01
 0.5884250429857E+01
 0.2476578152010E+01
 0.2578127674474E+01
 0.2677840467330E+01
 0.2768830312603E+01
 0.2846224722291E+01
 0.2908138661867E+01
 0.2955185679877E+01
 0.2989383373771E+01
 0.3013176489984E+01
 0.3028845219310E+01
 0.3038257059277E+01
 0.3042826217160E+01
 0.3043565561497E+01
 0.3041163517446E+01
 0.3036055013615E+01
 0.3028476249445E+01
 0.3018502775422E+01
 0.3006075254021E+01
 0.2991018615440E+01
 0.2973063343405E+01
 0.2951877166722E+01
 0.2927111818146E+01
 0.2898464346208E+01
 0.2865753604530E+01
 0.2829044158040E+01
 0.2788741815398E+01
 0.2745608086309E+01
 0.2700814625701E+01
 0.2656137250085E+01
 0.2614368066169E+01
 0.2580026028350E+01
 0.2560453363661E+01
 0.2567348006313E+01
 0.2618553812085E+01
 0.2739423229569E+01
 0.2961814654057E+01
 0.3317599555891E+01
 0.3825119474499E+01
 0.4471918809816E+01
 0.5201554269625E+01
 0.5916930228235E+01
 0.2482979392328E+01
 0.2588840340591E+01
 0.2692464601496E+01
 0.2785933343775E+01
 0.2864007119748E+01
 0.2925116623018E+01
 0.2970520255859E+01
 0.3002867915035E+01
 0.3025060711694E+01
 0.3039643852764E+01
 0.3048607633276E+01
 0.3053403320499E+01
 0.3055037080738E+01
 0.3054172257369E+01
 0.3051213302537E+01
 0.3046365471892E+01
 0.3039672702784E+01
 0.3031039593805E+01
 0.3020244478971E+01
 0.3006953323274E+01
 0.2990744435352E+01
 0.2971150824847E+01
 0.2947719971404E+01
 0.2920090122697E+01
 0.2888114993036E+01
 0.2851951046988E+01
 0.2812046685040E+01
 0.2769162578785E+01
 0.2724531283264E+01
 0.2680240825852E+01
 0.2639933068276E+01
 0.2609936296505E+01
 0.2600966004048E+01
 0.2630371113417E+01
 0.2724459798025E+01
 0.2918933393101E+01
 0.3253274887379E+01
 0.3755562526123E+01
 0.4420024138660E+01
 0.5188144478610E+01
 0.5953476790366E+01
 0.2490248574019E+01
 0.2600883422753E+01
 0.2708728660061E+01
 0.2804621952228E+01
 0.2882983961051E+01
 0.2942740945631E+01
 0.2985973316562E+01
 0.3016060008386E+01
 0.3036379753147E+01
 0.3049723410619E+01
 0.3058173089904E+01
 0.3063189250490E+01
 0.3065751298700E+01
 0.3066485352382E+01
 0.3065759888851E+01
 0.3063749046442E+01
 0.3060469263595E+01
 0.3055796620506E+01
 0.3049472906949E+01
 0.3041110930397E+01
 0.3030210913044E+01
 0.3016197582541E+01
 0.2998478677258E+01
 0.2976522354054E+01
 0.2949983822837E+01
 0.2918783995745E+01
 0.2883070697405E+01
 0.2843200040423E+01
 0.2799854716595E+01
 0.2754387869776E+01
 0.2709488399131E+01
 0.2670311220050E+01
 0.2646285266230E+01
 0.2653748871718E+01
 0.2719269439704E+01
 0.2881897513330E+01
 0.3189318869221E+01
 0.3681675345172E+01
 0.4363101901882E+01
 0.5174714056239E+01
 0.5995909859199E+01
 0.2498565094027E+01
 0.2614513283830E+01
 0.2726902028510E+01
 0.2825074240632E+01
 0.2903186313379E+01
 0.2960910877628E+01
 0.3001363494918E+01
 0.3028746890012E+01
 0.3046920528379E+01
 0.3058884141861E+01
 0.3066769538314E+01
 0.3072012916453E+01
 0.3075544659255E+01
 0.3077941028802E+01
 0.3079529339585E+01
 0.3080453142539E+01
 0.3080706493366E+01
 0.3080145868153E+01
 0.3078488395109E+01
 0.3075307351510E+01
 0.3070038671197E+01
 0.3062011582160E+01
 0.3050506084911E+01
 0.3034833245880E+01
 0.3014465596891E+01
 0.2989107249652E+01
 0.2958624678419E+01
 0.2922984626049E+01
 0.2882324957990E+01
 0.2837248737542E+01
 0.2789435911466E+01
 0.2742729485965E+01
 0.2704976294869E+01
 0.2690946566357E+01
 0.2726597183012E+01
 0.2853456731605E+01
 0.3127612951504E+01
 0.3603831971641E+01
 0.4300493895127E+01
 0.5160717777872E+01
 0.6045504509181E+01
 0.2508158483181E+01
 0.2630055102706E+01
 0.2747312563742E+01
 0.2847484668923E+01
 0.2924618554228E+01
 0.2979477979016E+01
 0.3016462494991E+01
 0.3040680165310E+01
 0.3056446853856E+01
 0.3066912946201E+01
 0.3074206114610E+01
 0.3079699903057E+01
 0.3084251975482E+01
 0.3088376192237E+01
 0.3092354161830E+01
 0.3096300224806E+01
 0.3100192190043E+01
 0.3103877185823E+01
 0.3107061417855E+01
 0.3109294680497E+01
 0.3109965142881E+01
 0.3108321878002E+01
 0.3103531352695E+01
 0.3094762870948E+01
 0.3081325418691E+01
 0.3062729970459E+01
 0.3038587720305E+01
 0.3008500529976E+01
 0.2972079523285E+01
 0.2929181332480E+01
 0.2880447437820E+01
 0.2828303349603E+01
 0.2778746686709E+01
 0.2744408284394E+01
 0.2749613129880E+01
 0.2837061401673E+01
 0.3070815218865E+01
 0.3522823370143E+01
 0.4231360578228E+01
 0.5145390890089E+01
 0.6103581237229E+01
 0.2519325472080E+01
 0.2647924479362E+01
 0.2770358293429E+01
 0.2872056863921E+01
 0.2947240163487E+01
 0.2998229254435E+01
 0.3030985271038E+01
 0.3051572319175E+01
 0.3064699567928E+01
 0.3073584990800E+01
 0.3080287004171E+01
 0.3086074458223E+01
 0.3091708253028E+01
 0.3097628080912E+01
 0.3104066315195E+01
 0.3111110440631E+01
 0.3118729146774E+01
 0.3126771716636E+01
 0.3134948987624E+01
 0.3142805872764E+01
 0.3149702346532E+01
 0.3154825558209E+01
 0.3157244923728E+01
 0.3156005425614E+01
 0.3150274614042E+01
 0.3139398616547E+01
 0.3122766076534E+01
 0.3099647837724E+01
 0.3069160260513E+01
 0.3030438733930E+01
 0.2983089710398E+01
 0.2928061914680E+01
 0.2869289369393E+01
 0.2816717028331E+01
 0.2791908933325E+01
 0.2836973550768E+01
 0.3022621883869E+01
 0.3440105248737E+01
 0.4154749896104E+01
 0.5127712737707E+01
 0.6171675096421E+01
 0.2532454465109E+01
 0.2668657129576E+01
 0.2796519988518E+01
 0.2898988983520E+01
 0.2970939105802E+01
 0.3016866086214E+01
 0.3044579876691E+01
 0.3061094452332E+01
 0.3071397939409E+01
 0.3078666253150E+01
 0.3084814057802E+01
 0.3090961854901E+01
 0.3097750760887E+01
 0.3105536106627E+01
 0.3114498899827E+01
 0.3124703207054E+01
 0.3136116632104E+01
 0.3148603176352E+01
 0.3161895537081E+01
 0.3175554987500E+01
 0.3188936311035E+01
 0.3201186332468E+01
 0.3211296374881E+01
 0.3218206415835E+01
 0.3220967167362E+01
 0.3218792258507E+01
 0.3210886559235E+01
 0.3196232619314E+01
 0.3173497973202E+01
 0.3141145209884E+01
 0.3097787731599E+01
 0.3042898050415E+01
 0.2978213151105E+01
 0.2910521106430E+01
 0.2857459826014E+01
 0.2858357719536E+01
 0.2988089116018E+01
 0.3358198686973E+01
 0.4069741882133E+01
 0.5106312120325E+01
 0.6251636247284E+01
 0.2548061464127E+01
 0.2692950099956E+01
 0.2826372829914E+01
 0.2928446537481E+01
 0.2995493719991E+01
 0.3034979015673E+01
 0.3056818189197E+01
 0.3068876150913E+01
 0.3076242771374E+01
 0.3081917124862E+01
 0.3087590031120E+01
 0.3094191118644E+01
 0.3102221330148E+01
 0.3111943862890E+01
 0.3123488003192E+01
 0.3136898988743E+01
 0.3152152126194E+01
 0.3169139465766E+01
 0.3187634183053E+01
 0.3207237779334E+01
 0.3227326729898E+01
 0.3247033209197E+01
 0.3265292299887E+01
 0.3280959973543E+01
 0.3292996540186E+01
 0.3300518625808E+01
 0.3302591006331E+01
 0.3297958297915E+01
 0.3284898218148E+01
 0.3261272577021E+01
 0.3224785991458E+01
 0.3173507254539E+01
 0.3106953694669E+01
 0.3028424242042E+01
 0.2950535681018E+01
 0.2907326635517E+01
 0.2974004127129E+01
 0.3281301701309E+01
 0.3975719553759E+01
 0.5079321135916E+01
 0.6345746797972E+01
 0.2566844185615E+01
 0.2721719440797E+01
 0.2860592944918E+01
 0.2960514418545E+01
 0.3020519549889E+01
 0.3052019529274E+01
 0.3067189533259E+01
 0.3074508591711E+01
 0.3078921566662E+01
 0.3083097160284E+01
 0.3088422444826E+01
 0.3095598093371E+01
 0.3104968849597E+01
 0.3116701272246E+01
 0.3130874682752E+01
 0.3147521253068E+01
 0.3166633317627E+01
 0.3188144655343E+01
 0.3211888451064E+01
 0.3237532734126E+01
 0.3264506899813E+01
 0.3291959234290E+01
 0.3318794127055E+01
 0.3343806199913E+01
 0.3365892855094E+01
 0.3384111024944E+01
 0.3397432144975E+01
 0.3404418836591E+01
 0.3403029157496E+01
 0.3390618353059E+01
 0.3364109714485E+01
 0.3320321056871E+01
 0.3256665501372E+01
 0.3172831104086E+01
 0.3075538025898E+01
 0.2990904969271E+01
 0.2989268482601E+01
 0.3216181378510E+01
 0.3872892325363E+01
 0.5044188366366E+01
 0.6456888554979E+01
 0.2589765993034E+01
 0.2756181274048E+01
 0.2899949488153E+01
 0.2995115031146E+01
 0.3045397852083E+01
 0.3067272151553E+01
 0.3075100230908E+01
 0.3077552019000E+01
 0.3079115991928E+01
 0.3081970981537E+01
 0.3087128024332E+01
 0.3095028795593E+01
 0.3105851915835E+01
 0.3119666839096E+01
 0.3136507058221E+01
 0.3156398585050E+01
 0.3179360363506E+01
 0.3205381388298E+01
 0.3234374571583E+01
 0.3266102703989E+01
 0.3300084062169E+01
 0.3335520291453E+01
 0.3371315751986E+01
 0.3406228391527E+01
 0.3439120414399E+01
 0.3469026311127E+01
 0.3494871260866E+01
 0.3515094371485E+01
 0.3527412443760E+01
 0.3528787415903E+01
 0.3515529069437E+01
 0.3483439440410E+01
 0.3428099708966E+01
 0.3345744246573E+01
 0.3236732785314E+01
 0.3116854543663E+01
 0.3045219609155E+01
 0.3173410534478E+01
 0.3763308911804E+01
 0.4997479287652E+01
 0.6588799567340E+01
 0.2618190425865E+01
 0.2797965436734E+01
 0.2945262343892E+01
 0.3031872297569E+01
 0.3069185014143E+01
 0.3079833856524E+01
 0.3079882986963E+01
 0.3077548418592E+01
 0.3076511660457E+01
 0.3078315265941E+01
 0.3083537626646E+01
 0.3092342979345E+01
 0.3104741579266E+01
 0.3120709961317E+01
 0.3140242473114E+01
 0.3163366925948E+01
 0.3190138388886E+01
 0.3220613721728E+01
 0.3254804455544E+01
 0.3292597331484E+01
 0.3333640306574E+01
 0.3377233941989E+01
 0.3422320746822E+01
 0.3467649829071E+01
 0.3512075367214E+01
 0.3554644006280E+01
 0.3594278031919E+01
 0.3629349828526E+01
 0.3657417938261E+01
 0.3675178776003E+01
 0.3678529645892E+01
 0.3662568193386E+01
 0.3621477470322E+01
 0.3548519422231E+01
 0.3437848273179E+01
 0.3293269162157E+01
 0.3155765114419E+01
 0.3168953657195E+01
 0.3652780780585E+01
 0.4934764793676E+01
 0.6746487252303E+01
 0.2654105071006E+01
 0.2849271952194E+01
 0.2997283445823E+01
 0.3069892253630E+01
 0.3090509901681E+01
 0.3088613395421E+01
 0.3080819999656E+01
 0.3074039420473E+01
 0.3070810033421E+01
 0.3071926652195E+01
 0.3077501504738E+01
 0.3087417810858E+01
 0.3101524115928E+01
 0.3119713247581E+01
 0.3141949680492E+01
 0.3168271891674E+01
 0.3198780185995E+01
 0.3233610406502E+01
 0.3272889470562E+01
 0.3316656543886E+01
 0.3364734333303E+01
 0.3416578351278E+01
 0.3471218833453E+01
 0.3527429652118E+01
 0.3584083239247E+01
 0.3640266691725E+01
 0.3694933006657E+01
 0.3746437141913E+01
 0.3792262974854E+01
 0.3828978871914E+01
 0.3852292805355E+01
 0.3856968341640E+01
 0.3836372752382E+01
 0.3781604213509E+01
 0.3681531000356E+01
 0.3527799566486E+01
 0.3337111243959E+01
 0.3225956111495E+01
 0.3554415504442E+01
 0.4850913578037E+01
 0.6936943179464E+01
 0.2700510608201E+01
 0.2913075032895E+01
 0.3056413398833E+01
 0.3107423736114E+01
 0.3107485313294E+01
 0.3092369405581E+01
 0.3077181228200E+01
 0.3066588372380E+01
 0.3061742143933E+01
 0.3062630269687E+01
 0.3068894702392E+01
 0.3080151534626E+01
 0.3096103743455E+01
 0.3116574780784E+01
 0.3141511000677E+01
 0.3170971115113E+01
 0.3205109046193E+01
 0.3244148555683E+01
 0.3288345107497E+01
 0.3337915481285E+01
 0.3392904563319E+01
 0.3452991451947E+01
 0.3517361150657E+01
 0.3584857019327E+01
 0.3654395799795E+01
 0.3725121771417E+01
 0.3796033294386E+01
 0.3865501703178E+01
 0.3931016613920E+01
 0.3989162082424E+01
 0.4035689028878E+01
 0.4065425858901E+01
 0.4071619166768E+01
 0.4044301183459E+01
 0.3968717236938E+01
 0.3826354584358E+01
 0.3606652921075E+01
 0.3376330838699E+01
 0.3494750482278E+01
 0.4741693538842E+01
 0.7170510730068E+01
 0.2762132325979E+01
 0.2993347723520E+01
 0.3122067696231E+01
 0.3141373945532E+01
 0.3117700249145E+01
 0.3089806836969E+01
 0.3068272743854E+01
 0.3054805273672E+01
 0.3049083801921E+01
 0.3050288369561E+01
 0.3057622361969E+01
 0.3070466995172E+01
 0.3088405192762E+01
 0.3111210266387E+01
 0.3138824394797E+01
 0.3171336548911E+01
 0.3208961634148E+01
 0.3252017580936E+01
 0.3300896537151E+01
 0.3356011295179E+01
 0.3417674410435E+01
 0.3485870746772E+01
 0.3560033637073E+01
 0.3639142230044E+01
 0.3722186389821E+01
 0.3808364701688E+01
 0.3896702211793E+01
 0.3985593762115E+01
 0.4072609038991E+01
 0.4154498172162E+01
 0.4227285504926E+01
 0.4286250944293E+01
 0.4325255855964E+01
 0.4334592054085E+01
 0.4298079845121E+01
 0.4191278647079E+01
 0.3980180372772E+01
 0.3661282690363E+01
 0.3523377777206E+01
 0.4609166129618E+01
 0.7463857891555E+01
 0.2846804719804E+01
 0.3095152035348E+01
 0.3191305498677E+01
 0.3166742561116E+01
 0.3118428236400E+01
 0.3079727415099E+01
 0.3053482492367E+01
 0.3038375657260E+01
 0.3032671019423E+01
 0.3034808452548E+01
 0.3043624755807E+01
 0.3058314837493E+01
 0.3078376053019E+01
 0.3103555000801E+01
 0.3133805398125E+01
 0.3169256663449E+01
 0.3210190807916E+01
 0.3257023210938E+01
 0.3310284881852E+01
 0.3370592259382E+01
 0.3438561090745E+01
 0.3514574779293E+01
 0.3598447637450E+01
 0.3689402660262E+01
 0.3786542421896E+01
 0.3889084020680E+01
 0.3996004059896E+01
 0.4105685984834E+01
 0.4215846174696E+01
 0.4323565632407E+01
 0.4425366453741E+01
 0.4517313546821E+01
 0.4594539162609E+01
 0.4649025214296E+01
 0.4665746869574E+01
 0.4619540418456E+01
 0.4466223993615E+01
 0.4128524592309E+01
 0.3725642845989E+01
 0.4477449629285E+01
 0.7847483108169E+01
 0.2968386858330E+01
 0.3223937727896E+01
 0.3255957430791E+01
 0.3176395137819E+01
 0.3107232684903E+01
 0.3061149053818E+01
 0.3032323573313E+01
 0.3017095401973E+01
 0.3012412098695E+01
 0.3016151150843E+01
 0.3026881564937E+01
 0.3043676276183E+01
 0.3065988798609E+01
 0.3093565599179E+01
 0.3126388859623E+01
 0.3164638469256E+01
 0.3208668285647E+01
 0.3258991366960E+01
 0.3316273705034E+01
 0.3381329303115E+01
 0.3455090111254E+01
 0.3538428618967E+01
 0.3631726479829E+01
 0.3734639673706E+01
 0.3846453025315E+01
 0.3966308921791E+01
 0.4092965586492E+01
 0.4224698717260E+01
 0.4359430119967E+01
 0.4494767372691E+01
 0.4627964131584E+01
 0.4756107872154E+01
 0.4876063430076E+01
 0.4982683528252E+01
 0.5065217730952E+01
 0.5102313428489E+01
 0.5057627661910E+01
 0.4819486264214E+01
 0.4235261335693E+01
 0.4434854231400E+01
 0.8387745557411E+01
 0.3153588550884E+01
 0.3381285037570E+01
 0.3297138251265E+01
 0.3162731730179E+01
 0.3082811867344E+01
 0.3033233402497E+01
 0.3004540772968E+01
 0.2990887025993E+01
 0.2988299909925E+01
 0.2994336636541E+01
 0.3007415111471E+01
 0.3026565343165E+01
 0.3051242380923E+01
 0.3081221430623E+01
 0.3116530427509E+01
 0.3157409291793E+01
 0.3204287038752E+01
 0.3257771733732E+01
 0.3318654925254E+01
 0.3387928962539E+01
 0.3466818384896E+01
 0.3556738899362E+01
 0.3658886414911E+01
 0.3773699208616E+01
 0.3900789038812E+01
 0.4039021341193E+01
 0.4186606414003E+01
 0.4341534586527E+01
 0.4501988077450E+01
 0.4666344204577E+01
 0.4832889573761E+01
 0.4999851521387E+01
 0.5165949590646E+01
 0.5329511455881E+01
 0.5486862825184E+01
 0.5626884142128E+01
 0.5726729722920E+01
 0.5732783846364E+01
 0.5235334413254E+01
 0.4731566615913E+01
 0.9265248566739E+01
 0.3460600822678E+01
 0.3544005942020E+01
 0.3279269467442E+01
 0.3124829926605E+01
 0.3044001459749E+01
 0.2995563706259E+01
 0.2970170634578E+01
 0.2959801553280E+01
 0.2960427401512E+01
 0.2969446480621E+01
 0.2985293327236E+01
 0.3007030164625E+01
 0.3034163426098E+01
 0.3066525693440E+01
 0.3104207751089E+01
 0.3147518251299E+01
 0.3196963291176E+01
 0.3253240871873E+01
 0.3317253773485E+01
 0.3390144263071E+01
 0.3473367854774E+01
 0.3568832214032E+01
 0.3678810208404E+01
 0.3805200123536E+01
 0.3948272750120E+01
 0.4106176904618E+01
 0.4275981031614E+01
 0.4455123889079E+01
 0.4642111866582E+01
 0.4836392366969E+01
 0.5037720635632E+01
 0.5245646244393E+01
 0.5460057456768E+01
 0.5682948525585E+01
 0.5918248119309E+01
 0.6174931233666E+01
 0.6442608033245E+01
 0.6761496982935E+01
 0.6885020202437E+01
 0.5928241700076E+01
 0.1111304248288E+02
 0.4043345024632E+01
 0.3549957422999E+01
 0.3191700599278E+01
 0.3066726725281E+01
 0.2988871657885E+01
 0.2948887194464E+01
 0.2929338314489E+01
 0.2924097460806E+01
 0.2928973109744E+01
 0.2941630416120E+01
 0.2960629459471E+01
 0.2985153945372E+01
 0.3014806782950E+01
 0.3049506146916E+01
 0.3089421363331E+01
 0.3134937384478E+01
 0.3186638106161E+01
 0.3245304473448E+01
 0.3311933166906E+01
 0.3387780496002E+01
 0.3474456980865E+01
 0.3574155299887E+01
 0.3690214869044E+01
 0.3827387157578E+01
 0.3987445969196E+01
 0.4166740179077E+01
 0.4360236253244E+01
 0.4564481821583E+01
 0.4778409607127E+01
 0.5002895942199E+01
 0.5239747824684E+01
 0.5490481744207E+01
 0.5754808220303E+01
 0.6035429655177E+01
 0.6348275125777E+01
 0.6715154624169E+01
 0.7187311550852E+01
 0.7745869035221E+01
 0.8921693610127E+01
 0.8874166986482E+01
 0.1702654780099E+02
 0.7472351776048E+00
 0.1024377343327E+01
 0.1296849736696E+01
 0.1553660278188E+01
 0.1789530005735E+01
 0.2001628731744E+01
 0.2188743966630E+01
 0.2351217280204E+01
 0.2490442617495E+01
 0.2608269151424E+01
 0.2706683688025E+01
 0.2787658648581E+01
 0.2852980048167E+01
 0.2904084991357E+01
 0.2942036874342E+01
 0.2967566072224E+01
 0.2980531185836E+01
 0.2980987196260E+01
 0.2971701158196E+01
 0.2957808167286E+01
 0.7316305338760E+00
 0.1016182444897E+01
 0.1293907069469E+01
 0.1555944319691E+01
 0.1797240889939E+01
 0.2015277140902E+01
 0.2209046776798E+01
 0.2378722423164E+01
 0.2525422626291E+01
 0.2650800783641E+01
 0.2756716156154E+01
 0.2845074211405E+01
 0.2917661024400E+01
 0.2976004840898E+01
 0.3021345287501E+01
 0.3054502560616E+01
 0.3075280679000E+01
 0.3083755242806E+01
 0.3078871674270E+01
 0.3057063801176E+01
 0.7163060489568E+00
 0.1009470092005E+01
 0.1293091563039E+01
 0.1560340832367E+01
 0.1806932765696E+01
 0.2030623075724E+01
 0.2230539314806E+01
 0.2406832619762E+01
 0.2560471743704E+01
 0.2692949952773E+01
 0.2806017716754E+01
 0.2901517489899E+01
 0.2981223959229E+01
 0.3046704074801E+01
 0.3099219287018E+01
 0.3139501634334E+01
 0.3167366506129E+01
 0.3182087119288E+01
 0.3181698497226E+01
 0.3165245357275E+01
 0.7017618277006E+00
 0.1003765655882E+01
 0.1293821205147E+01
 0.1566426706287E+01
 0.1818180104179E+01
 0.2047228999572E+01
 0.2252869416226E+01
 0.2435285733446E+01
 0.2595374991740E+01
 0.2734521345103E+01
 0.2854383894671E+01
 0.2956742504780E+01
 0.3043337984832E+01
 0.3115715552306E+01
 0.3175076747225E+01
 0.3222053981141E+01
 0.3256355700583E+01
 0.3277103319183E+01
 0.3283230307195E+01
 0.3275179405378E+01
 0.6880717086851E+00
 0.9990117182114E+00
 0.1295724813993E+01
 0.1573786420893E+01
 0.1830583788599E+01
 0.2064716809140E+01
 0.2275702394238E+01
 0.2463803168351E+01
 0.2629894518082E+01
 0.2775291714246E+01
 0.2901580607224E+01
 0.3010476601963E+01
 0.3103665179171E+01
 0.3182632791844E+01
 0.3248501457363E+01
 0.3301816061318E+01
 0.3342336539050E+01
 0.3369513492392E+01
 0.3383087921529E+01
 0.3384313315970E+01
 0.6752618391865E+00
 0.9951044149050E+00
 0.1298548485150E+01
 0.1582068377379E+01
 0.1843779038728E+01
 0.2082738653743E+01
 0.2298721304968E+01
 0.2492104373592E+01
 0.2663778537480E+01
 0.2815020198558E+01
 0.2947357004737E+01
 0.3062439753468E+01
 0.3161886695253E+01
 0.3247113948751E+01
 0.3319173224271E+01
 0.3378591568457E+01
 0.3425312057120E+01
 0.3459179607953E+01
 0.3480540302756E+01
 0.3491110980270E+01
 0.6633354500189E+00
 0.9919419878021E+00
 0.1302072482639E+01
 0.1590976084468E+01
 0.1857439366839E+01
 0.2100972928372E+01
 0.2321624796678E+01
 0.2519912746257E+01
 0.2696770198752E+01
 0.2853457438143E+01
 0.2991456594259E+01
 0.3112357102422E+01
 0.3217708899783E+01
 0.3308862707218E+01
 0.3386829157480E+01
 0.3452178595295E+01
 0.3505073022283E+01
 0.3545711866688E+01
 0.3574859242150E+01
 0.3594493756185E+01
 0.6522883198461E+00
 0.9894242336215E+00
 0.1306102417602E+01
 0.1600248826076E+01
 0.1871272837048E+01
 0.2119123266339E+01
 0.2344127681917E+01
 0.2546959459531E+01
 0.2728614226959E+01
 0.2890353527210E+01
 0.3033625415086E+01
 0.3159964742675E+01
 0.3270859841627E+01
 0.3367610589382E+01
 0.3451215976360E+01
 0.3522321732217E+01
 0.3581300708751E+01
 0.3628638211872E+01
 0.3665376940469E+01
 0.3693613712542E+01
 0.6421137171220E+00
 0.9874566404800E+00
 0.1310463123595E+01
 0.1609654135777E+01
 0.1885016195374E+01
 0.2136917289083E+01
 0.2365962012102E+01
 0.2572986718794E+01
 0.2759062040766E+01
 0.2925463996675E+01
 0.3073617235630E+01
 0.3205011261291E+01
 0.3321083893885E+01
 0.3423100797124E+01
 0.3512070526823E+01
 0.3588725778629E+01
 0.3653623776486E+01
 0.3707468900332E+01
 0.3751477271924E+01
 0.3787753620370E+01
 0.6328047538694E+00
 0.9859517629649E+00
 0.1314996357051E+01
 0.1618983071531E+01
 0.1898431249695E+01
 0.2154105116271E+01
 0.2386877927377E+01
 0.2597750342150E+01
 0.2787875550871E+01
 0.2958553890830E+01
 0.3111196405336E+01
 0.3247257540688E+01
 0.3368136887324E+01
 0.3475080483159E+01
 0.3569119392037E+01
 0.3651072574667E+01
 0.3721650561762E+01
 0.3781718995305E+01
 0.3832588209697E+01
 0.3876288483730E+01
 0.6243552868631E+00
 0.9848298807211E+00
 0.1319559351367E+01
 0.1628047562695E+01
 0.1911302491447E+01
 0.2170458406862E+01
 0.2406644309095E+01
 0.2621021803495E+01
 0.2814830020887E+01
 0.2989400615177E+01
 0.3146139634202E+01
 0.3286476511887E+01
 0.3411784043553E+01
 0.3523299930880E+01
 0.3622084281770E+01
 0.3709035321253E+01
 0.3784986950409E+01
 0.3850919048141E+01
 0.3908178361767E+01
 0.3958665666703E+01
 0.6167602535254E+00
 0.9840191808275E+00
 0.1324023915164E+01
 0.1636678775886E+01
 0.1923435638082E+01
 0.2185769762612E+01
 0.2425049314460E+01
 0.2642589751530E+01
 0.2839716140233E+01
 0.3017795933650E+01
 0.3178237284441E+01
 0.3322453519504E+01
 0.3451800275272E+01
 0.3567514916134E+01
 0.3670688729365E+01
 0.3762289403898E+01
 0.3843247686443E+01
 0.3914620968029E+01
 0.3977753288719E+01
 0.4034382438901E+01
 0.6100156762674E+00
 0.9834557063748E+00
 0.1328275786049E+01
 0.1644726084524E+01
 0.1934656736522E+01
 0.2199852416972E+01
 0.2441900844229E+01
 0.2662261182006E+01
 0.2862341601412E+01
 0.3043547552174E+01
 0.3207294678006E+01
 0.3354987499597E+01
 0.3487972043327E+01
 0.3607490527106E+01
 0.3714664700688E+01
 0.3810521077457E+01
 0.3896064707093E+01
 0.3972402639246E+01
 0.4040851261299E+01
 0.4102972891403E+01
 0.6041185459241E+00
 0.9830832052435E+00
 0.1332214173091E+01
 0.1652056421182E+01
 0.1944811642723E+01
 0.2212540124308E+01
 0.2457026977555E+01
 0.2679862378916E+01
 0.2882532367817E+01
 0.3066480500991E+01
 0.3233133526268E+01
 0.3383892704813E+01
 0.3520099979265E+01
 0.3643005375541E+01
 0.3753758630733E+01
 0.3853434638849E+01
 0.3943094058012E+01
 0.4023872888226E+01
 0.4097045529934E+01
 0.4164005510014E+01
 0.5990666628711E+00
 0.9828529439551E+00
 0.1335751412241E+01
 0.1658553846636E+01
 0.1953765703640E+01
 0.2223687137239E+01
 0.2470276339092E+01
 0.2695239660971E+01
 0.2900133710784E+01
 0.3086438379574E+01
 0.3255593422511E+01
 0.3409000685563E+01
 0.3548001757096E+01
 0.3673855715104E+01
 0.3787736791966E+01
 0.3890758544364E+01
 0.3984022046478E+01
 0.4068677426897E+01
 0.4145951345484E+01
 0.4217087394077E+01
 0.5948584638465E+00
 0.9827235194578E+00
 0.1338812714474E+01
 0.1664119278763E+01
 0.1961403593066E+01
 0.2233168267985E+01
 0.2481518453940E+01
 0.2708260039650E+01
 0.2915011143029E+01
 0.3103284557777E+01
 0.3274533391668E+01
 0.3430162384395E+01
 0.3571514987554E+01
 0.3699859306646E+01
 0.3816390056300E+01
 0.3922250720804E+01
 0.4018570748550E+01
 0.4106504595442E+01
 0.4187231901730E+01
 0.4261870840526E+01
 0.5914928765190E+00
 0.9826606925462E+00
 0.1341335983163E+01
 0.1668670318942E+01
 0.1967629230231E+01
 0.2240878979330E+01
 0.2490644063480E+01
 0.2718811782568E+01
 0.2927051238063E+01
 0.3116903281500E+01
 0.3289833370286E+01
 0.3447250138347E+01
 0.3590499900181E+01
 0.3720858852783E+01
 0.3839537983414E+01
 0.3947703042344E+01
 0.4046502596755E+01
 0.4137089768734E+01
 0.4220602402989E+01
 0.4298059436632E+01
 0.5889691865314E+00
 0.9826372419777E+00
 0.1343271674773E+01
 0.1672141136036E+01
 0.1972365741792E+01
 0.2246735480355E+01
 0.2497565396698E+01
 0.2726804889113E+01
 0.2936162336273E+01
 0.3127200653482E+01
 0.3301395541423E+01
 0.3460159474803E+01
 0.3604841694122E+01
 0.3736724922641E+01
 0.3857032210253E+01
 0.3966944945870E+01
 0.4067623900566E+01
 0.4160218437469E+01
 0.4245832824494E+01
 0.4325412638106E+01
 0.5872869416782E+00
 0.9826328514345E+00
 0.1344582706608E+01
 0.1674482402150E+01
 0.1975555461868E+01
 0.2250674829613E+01
 0.2502216409764E+01
 0.2732171495427E+01
 0.2942275146645E+01
 0.3134105476439E+01
 0.3309145483899E+01
 0.3468810641193E+01
 0.3614452501834E+01
 0.3747358339462E+01
 0.3868759150608E+01
 0.3979846215450E+01
 0.4081787408974E+01
 0.4175728284438E+01
 0.4262749696665E+01
 0.4343748819385E+01
 0.5864458794235E+00
 0.9826340235445E+00
 0.1345244389920E+01
 0.1675661249665E+01
 0.1977159936915E+01
 0.2252655015053E+01
 0.2504552966506E+01
 0.2734866180720E+01
 0.2945343207724E+01
 0.3137569906457E+01
 0.3313033066478E+01
 0.3473149789413E+01
 0.3619272892164E+01
 0.3752691979642E+01
 0.3874641987587E+01
 0.3986318975726E+01
 0.4088894058440E+01
 0.4183510493205E+01
 0.4271237107731E+01
 0.4352946957352E+01
 0.5864458795887E+00
 0.9826340235642E+00
 0.1345244389847E+01
 0.1675661249539E+01
 0.1977159936761E+01
 0.2252655014891E+01
 0.2504552966348E+01
 0.2734866180577E+01
 0.2945343207602E+01
 0.3137569906359E+01
 0.3313033066405E+01
 0.3473149789364E+01
 0.3619272892134E+01
 0.3752691979626E+01
 0.3874641987582E+01
 0.3986318975728E+01
 0.4088894058446E+01
 0.4183510493215E+01
 0.4271237107745E+01
 0.4352946957370E+01
 0.5872869421737E+00
 0.9826328514946E+00
 0.1344582706390E+01
 0.1674482401772E+01
 0.1975555461409E+01
 0.2250674829128E+01
 0.2502216409293E+01
 0.2732171494999E+01
 0.2942275146280E+01
 0.3134105476147E+01
 0.3309145483683E+01
 0.3468810641046E+01
 0.3614452501743E+01
 0.3747358339415E+01
 0.3868759150592E+01
 0.3979846215455E+01
 0.4081787408993E+01
 0.4175728284468E+01
 0.4262749696706E+01
 0.4343748819439E+01
 0.5889691873574E+00
 0.9826372420815E+00
 0.1343271674417E+01
 0.1672141135413E+01
 0.1972365741034E+01
 0.2246735479553E+01
 0.2497565395918E+01
 0.2726804888404E+01
 0.2936162335667E+01
 0.3127200652998E+01
 0.3301395541064E+01
 0.3460159474559E+01
 0.3604841693973E+01
 0.3736724922564E+01
 0.3857032210228E+01
 0.3966944945880E+01
 0.4067623900598E+01
 0.4160218437520E+01
 0.4245832824563E+01
 0.4325412638196E+01
 0.5914928776755E+00
 0.9826606926989E+00
 0.1341335982676E+01
 0.1668670318083E+01
 0.1967629229184E+01
 0.2240878978220E+01
 0.2490644062398E+01
 0.2718811781582E+01
 0.2927051237221E+01
 0.3116903280829E+01
 0.3289833369789E+01
 0.3447250138009E+01
 0.3590499899976E+01
 0.3720858852679E+01
 0.3839537983381E+01
 0.3947703042359E+01
 0.4046502596801E+01
 0.4137089768806E+01
 0.4220602403085E+01
 0.4298059436758E+01
 0.5948584653336E+00
 0.9827235196670E+00
 0.1338812713869E+01
 0.1664119277683E+01
 0.1961403591742E+01
 0.2233168266578E+01
 0.2481518452567E+01
 0.2708260038397E+01
 0.2915011141959E+01
 0.3103284556923E+01
 0.3274533391037E+01
 0.3430162383967E+01
 0.3571514987295E+01
 0.3699859306517E+01
 0.3816390056262E+01
 0.3922250720827E+01
 0.4018570748612E+01
 0.4106504595535E+01
 0.4187231901854E+01
 0.4261870840689E+01
 0.5990666646891E+00
 0.9828529442306E+00
 0.1335751411533E+01
 0.1658553845351E+01
 0.1953765702058E+01
 0.2223687135552E+01
 0.2470276337441E+01
 0.2695239659462E+01
 0.2900133709494E+01
 0.3086438378545E+01
 0.3255593421751E+01
 0.3409000685051E+01
 0.3548001756789E+01
 0.3673855714954E+01
 0.3787736791926E+01
 0.3890758544396E+01
 0.3984022046557E+01
 0.4068677427011E+01
 0.4145951345635E+01
 0.4217087394276E+01
 0.6041185480734E+00
 0.9830832055974E+00
 0.1332214172299E+01
 0.1652056419716E+01
 0.1944811640904E+01
 0.2212540122359E+01
 0.2457026975642E+01
 0.2679862377164E+01
 0.2882532366317E+01
 0.3066480499795E+01
 0.3233133525387E+01
 0.3383892704221E+01
 0.3520099978915E+01
 0.3643005375374E+01
 0.3753758630694E+01
 0.3853434638894E+01
 0.3943094058109E+01
 0.4023872888363E+01
 0.4097045530114E+01
 0.4164005510249E+01
 0.6100156787488E+00
 0.9834557068215E+00
 0.1328275785195E+01
 0.1644726082901E+01
 0.1934656734491E+01
 0.2199852414784E+01
 0.2441900842072E+01
 0.2662261180026E+01
 0.2862341599715E+01
 0.3043547550820E+01
 0.3207294677012E+01
 0.3354987498934E+01
 0.3487972042939E+01
 0.3607490526927E+01
 0.3714664700655E+01
 0.3810521077517E+01
 0.3896064707210E+01
 0.3972402639406E+01
 0.4040851261506E+01
 0.4102972891676E+01
 0.6167602563399E+00
 0.9840191813840E+00
 0.1324023914276E+01
 0.1636678774136E+01
 0.1923435635867E+01
 0.2185769760211E+01
 0.2425049312082E+01
 0.2642589749340E+01
 0.2839716138353E+01
 0.3017795932151E+01
 0.3178237283343E+01
 0.3322453518776E+01
 0.3451800274853E+01
 0.3567514915949E+01
 0.3670688729341E+01
 0.3762289403977E+01
 0.3843247686583E+01
 0.3914620968214E+01
 0.3977753288955E+01
 0.4034382439211E+01
 0.6243552900121E+00
 0.9848298814069E+00
 0.1319559350475E+01
 0.1628047560852E+01
 0.1911302489081E+01
 0.2170458404277E+01
 0.2406644306521E+01
 0.2621021801114E+01
 0.2814830018839E+01
 0.2989400613545E+01
 0.3146139633010E+01
 0.3286476511103E+01
 0.3411784043110E+01
 0.3523299930694E+01
 0.3622084281761E+01
 0.3709035321354E+01
 0.3784986950574E+01
 0.3850919048350E+01
 0.3908178362030E+01
 0.3958665667051E+01
 0.6328047573552E+00
 0.9859517638022E+00
 0.1314996356187E+01
 0.1618983069633E+01
 0.1898431247215E+01
 0.2154105113534E+01
 0.2386877924633E+01
 0.2597750339602E+01
 0.2787875548673E+01
 0.2958553889078E+01
 0.3111196404060E+01
 0.3247257539856E+01
 0.3368136886864E+01
 0.3475080482979E+01
 0.3569119392049E+01
 0.3651072574795E+01
 0.3721650561954E+01
 0.3781718995540E+01
 0.3832588209988E+01
 0.3876288484117E+01
 0.6421137209473E+00
 0.9874566414942E+00
 0.1310463122799E+01
 0.1609654133866E+01
 0.1885016192820E+01
 0.2136917286229E+01
 0.2365962009218E+01
 0.2572986716101E+01
 0.2759062038437E+01
 0.2925463994820E+01
 0.3073617234283E+01
 0.3205011260422E+01
 0.3321083893415E+01
 0.3423100796957E+01
 0.3512070526860E+01
 0.3588725778788E+01
 0.3653623776708E+01
 0.3707468900594E+01
 0.3751477272242E+01
 0.3787753620796E+01
 0.6522883240150E+00
 0.9894242348408E+00
 0.1306102416915E+01
 0.1600248824198E+01
 0.1871272834464E+01
 0.2119123263408E+01
 0.2344127678926E+01
 0.2546959456721E+01
 0.2728614224521E+01
 0.2890353525268E+01
 0.3033625413683E+01
 0.3159964741778E+01
 0.3270859841155E+01
 0.3367610589232E+01
 0.3451215976426E+01
 0.3522321732410E+01
 0.3581300709006E+01
 0.3628638212162E+01
 0.3665376940815E+01
 0.3693613713007E+01
 0.6633354545362E+00
 0.9919419892580E+00
 0.1302072482107E+01
 0.1590976082672E+01
 0.1857439364274E+01
 0.2100972925406E+01
 0.2321624793616E+01
 0.2519912743360E+01
 0.2696770196229E+01
 0.2853457436133E+01
 0.2991456592812E+01
 0.3112357101509E+01
 0.3217708899317E+01
 0.3308862707090E+01
 0.3386829157580E+01
 0.3452178595525E+01
 0.3505073022573E+01
 0.3545711867008E+01
 0.3574859242522E+01
 0.3594493756685E+01
 0.6752618440589E+00
 0.9951044166327E+00
 0.1298548484823E+01
 0.1582068375721E+01
 0.1843779036232E+01
 0.2082738650788E+01
 0.2298721301873E+01
 0.2492104370639E+01
 0.2663778534898E+01
 0.2815020196500E+01
 0.2947357003264E+01
 0.3062439752549E+01
 0.3161886694800E+01
 0.3247113948650E+01
 0.3319173224407E+01
 0.3378591568727E+01
 0.3425312057445E+01
 0.3459179608302E+01
 0.3480540303153E+01
 0.3491110980799E+01
 0.6880717139209E+00
 0.9990117202496E+00
 0.1295724813926E+01
 0.1573786419429E+01
 0.1830583786227E+01
 0.2064716806244E+01
 0.2275702391153E+01
 0.2463803165377E+01
 0.2629894515470E+01
 0.2775291712165E+01
 0.2901580605740E+01
 0.3010476601050E+01
 0.3103665178737E+01
 0.3182632791772E+01
 0.3248501457533E+01
 0.3301816061626E+01
 0.3342336539410E+01
 0.3369513492769E+01
 0.3383087921949E+01
 0.3384313316520E+01
 0.7017618333102E+00
 0.1003765658274E+01
 0.1293821205399E+01
 0.1566426705079E+01
 0.1818180101989E+01
 0.2047228996788E+01
 0.2252869413195E+01
 0.2435285730491E+01
 0.2595374989131E+01
 0.2734521343024E+01
 0.2854383893197E+01
 0.2956742503885E+01
 0.3043337984422E+01
 0.3115715552261E+01
 0.3175076747427E+01
 0.3222053981482E+01
 0.3256355700974E+01
 0.3277103319584E+01
 0.3283230307633E+01
 0.3275179405937E+01
 0.7163060549528E+00
 0.1009470094797E+01
 0.1293091563669E+01
 0.1560340831477E+01
 0.1806932763748E+01
 0.2030623073106E+01
 0.2230539311881E+01
 0.2406832616871E+01
 0.2560471741137E+01
 0.2692949950727E+01
 0.2806017715312E+01
 0.2901517489034E+01
 0.2981223958846E+01
 0.3046704074780E+01
 0.3099219287244E+01
 0.3139501634700E+01
 0.3167366506542E+01
 0.3182087119706E+01
 0.3181698497677E+01
 0.3165245357830E+01
 0.7316305402752E+00
 0.1016182448137E+01
 0.1293907070538E+01
 0.1555944319184E+01
 0.1797240888294E+01
 0.2015277138510E+01
 0.2209046774034E+01
 0.2378722420389E+01
 0.2525422623811E+01
 0.2650800781666E+01
 0.2756716154769E+01
 0.2845074210583E+01
 0.2917661024047E+01
 0.2976004840894E+01
 0.3021345287736E+01
 0.3054502560991E+01
 0.3075280679421E+01
 0.3083755243231E+01
 0.3078871674725E+01
 0.3057063801713E+01
 0.7472351844068E+00
 0.1024377347048E+01
 0.1296849738263E+01
 0.1553660278128E+01
 0.1789530004457E+01
 0.2001628729641E+01
 0.2188743964091E+01
 0.2351217277605E+01
 0.2490442615159E+01
 0.2608269149565E+01
 0.2706683686727E+01
 0.2787658647816E+01
 0.2852980047842E+01
 0.2904084991358E+01
 0.2942036874564E+01
 0.2967566072579E+01
 0.2980531186242E+01
 0.2980987196681E+01
 0.2971701158651E+01
 0.2957808167784E+01
 0.3152357742301E+01
 0.2650056966659E+01
 0.1581871224308E+01
 0.1043738051695E+01
 0.6665581742305E+00
 0.3858357893931E+00
 0.1849601134276E+00
 0.4930203749700E-01
 0.5342755373082E-01
 0.1396014430048E+00
 0.2142480506594E+00
 0.2773290021224E+00
 0.3265958374256E+00
 0.3580348629803E+00
 0.3678587906070E+00
 0.3507970063522E+00
 0.3005234563397E+00
 0.2159369352714E+00
 0.1107904874054E+00
 0.1880378114393E-01
 0.2679776693086E+01
 0.2907402602004E+01
 0.1971601802658E+01
 0.1334620931188E+01
 0.9244656075261E+00
 0.6233236219736E+00
 0.4037575169567E+00
 0.2441000508932E+00
 0.1218289883908E+00
 0.2208928645507E-01
 0.6316428826860E-01
 0.1359799698724E+00
 0.1964441368948E+00
 0.2419435281152E+00
 0.2684248715571E+00
 0.2719177192522E+00
 0.2514065353538E+00
 0.1967150444761E+00
 0.1093661318904E+00
 0.7962388333261E-02
 0.2305315532900E+01
 0.2751959668834E+01
 0.2213784295344E+01
 0.1614226643490E+01
 0.1176853089609E+01
 0.8588364472812E+00
 0.6225632249946E+00
 0.4464794327739E+00
 0.3087220634593E+00
 0.1954561536194E+00
 0.9891991991138E-01
 0.1537598773107E-01
 0.5672469494007E-01
 0.1161506255168E+00
 0.1599334132189E+00
 0.1850995791900E+00
 0.1906875001438E+00
 0.1645125993007E+00
 0.1003084149559E+00
 0.7869559033425E-02
 0.2023209429975E+01
 0.2540588112690E+01
 0.2286509685925E+01
 0.1834429731760E+01
 0.1416060482997E+01
 0.1089353389168E+01
 0.8412136049030E+00
 0.6528502587502E+00
 0.5034649718794E+00
 0.3788895561074E+00
 0.2715171376748E+00
 0.1772529382964E+00
 0.9381119688071E-01
 0.2090818516264E-01
 0.3963257293194E-01
 0.8534430431160E-01
 0.1156798249523E+00
 0.1171471096514E+00
 0.7840173891892E-01
 0.7803866118656E-02
 0.1803707116100E+01
 0.2332641893419E+01
 0.2272176665049E+01
 0.1974309511845E+01
 0.1622814403576E+01
 0.1308959716204E+01
 0.1056836695088E+01
 0.8607278171325E+00
 0.7030606705376E+00
 0.5698453525838E+00
 0.4534043511122E+00
 0.3495713761728E+00
 0.2556509392144E+00
 0.1703742142006E+00
 0.9464197291357E-01
 0.3032580273122E-01
 0.2338803617929E-01
 0.5091134522573E-01
 0.3811488849599E-01
 0.9867992050976E-02
 0.1629079573302E+01
 0.2144159738671E+01
 0.2213661765528E+01
 0.2049983067193E+01
 0.1784432726678E+01
 0.1507550658029E+01
 0.1264328559071E+01
 0.1066742675704E+01
 0.9046651467307E+00
 0.7657974187952E+00
 0.6427037442755E+00
 0.5312321715559E+00
 0.4285215592210E+00
 0.3326767865739E+00
 0.2437879207497E+00
 0.1629995674894E+00
 0.9006179544805E-01
 0.3883671793964E-01
 0.2716979061456E-01
 0.5234948727204E-01
 0.1487624988941E+01
 0.1978163464070E+01
 0.2134366546849E+01
 0.2079418914955E+01
 0.1901525444359E+01
 0.1676951534171E+01
 0.1456895843494E+01
 0.1266336492962E+01
 0.1104894965053E+01
 0.9639723185308E+00
 0.8371566591027E+00
 0.7205782493082E+00
 0.6114069132058E+00
 0.5073959978971E+00
 0.4080368814692E+00
 0.3139270106332E+00
 0.2243526126305E+00
 0.1522849878961E+00
 0.1182959882777E+00
 0.1250038199044E+00
 0.1371342590165E+01
 0.1833732816911E+01
 0.2047100373746E+01
 0.2077244680876E+01
 0.1980034340391E+01
 0.1814348009287E+01
 0.1628617361863E+01
 0.1454334545848E+01
 0.1299741071968E+01
 0.1161155824526E+01
 0.1034102929425E+01
 0.9154436150439E+00
 0.8026380865079E+00
 0.6933421082842E+00
 0.5866458893520E+00
 0.4827121411501E+00
 0.3804935969538E+00
 0.2918066988367E+00
 0.2390782777292E+00
 0.2301878152271E+00
 0.1274528218429E+01
 0.1708721444933E+01
 0.1958968061960E+01
 0.2054272198038E+01
 0.2027295099695E+01
 0.1920776592382E+01
 0.1776168909616E+01
 0.1626188560925E+01
 0.1485012517986E+01
 0.1353773093074E+01
 0.1230487612386E+01
 0.1113201500533E+01
 0.9999726015600E+00
 0.8886237938755E+00
 0.7780450441281E+00
 0.6680870776237E+00
 0.5574925922449E+00
 0.4566206507613E+00
 0.3891243415434E+00
 0.3679234817388E+00
 0.1192982676252E+01
 0.1600717792336E+01
 0.1873866918641E+01
 0.2018224359237E+01
 0.2050284992607E+01
 0.1999377571623E+01
 0.1898713464515E+01
 0.1778836265146E+01
 0.1657012876736E+01
 0.1538227951522E+01
 0.1423011209230E+01
 0.1310854781279E+01
 0.1200680926282E+01
 0.1090737096857E+01
 0.9799176133273E+00
 0.8678891180282E+00
 0.7532971100881E+00
 0.6448258859582E+00
 0.5666914371677E+00
 0.5362241605564E+00
 0.1123534275244E+01
 0.1507389958784E+01
 0.1793831386895E+01
 0.1974518382469E+01
 0.2055004298200E+01
 0.2054141929982E+01
 0.1997217453932E+01
 0.1910832025196E+01
 0.1813014388343E+01
 0.1711318291283E+01
 0.1608401541910E+01
 0.1505209963020E+01
 0.1401676209238E+01
 0.1296679561920E+01
 0.1189310797761E+01
 0.1079177000124E+01
 0.9649144102927E+00
 0.8533885966407E+00
 0.7686612995177E+00
 0.7315325458516E+00
 0.1063738658699E+01
 0.1426603492577E+01
 0.1719784093453E+01
 0.1926894880166E+01
 0.2046349836839E+01
 0.2089166221706E+01
 0.2073735339436E+01
 0.2022090786323E+01
 0.1951397478702E+01
 0.1870535053631E+01
 0.1783704603161E+01
 0.1693109549475E+01
 0.1599696546903E+01
 0.1503102139251E+01
 0.1402774569429E+01
 0.1298376168577E+01
 0.1188590282557E+01
 0.1078369332181E+01
 0.9908471749663E+00
 0.9491601942223E+00
 0.1011682341506E+01
 0.1356450685396E+01
 0.1651971943233E+01
 0.1877881819224E+01
 0.2028185656132E+01
 0.2108256653163E+01
 0.2130848099350E+01
 0.2113506938123E+01
 0.2071558219636E+01
 0.2014182808014E+01
 0.1946501812038E+01
 0.1871664325011E+01
 0.1791518121551E+01
 0.1706496317736E+01
 0.1616527672194E+01
 0.1521439795807E+01
 0.1419997531684E+01
 0.1315170617219E+01
 0.1228321992053E+01
 0.1183697349137E+01
 0.9658495603176E+00
 0.1295245666001E+01
 0.1590228176901E+01
 0.1829128339788E+01
 0.2003478858178E+01
 0.2114745831501E+01
 0.2171274650954E+01
 0.2186586969867E+01
 0.2173703356418E+01
 0.2141355779726E+01
 0.2095020307808E+01
 0.2038437787920E+01
 0.1974166742136E+01
 0.1903402589393E+01
 0.1826645702462E+01
 0.1744014706641E+01
 0.1654409363542E+01
 0.1558768850012E+01
 0.1475738745530E+01
 0.1429383491834E+01
 0.9250290851184E+00
 0.1241507286902E+01
 0.1534134945920E+01
 0.1781644299242E+01
 0.1974445215458E+01
 0.2111430346038E+01
 0.2197624351037E+01
 0.2243147710861E+01
 0.2258615114138E+01
 0.2251824537668E+01
 0.2228145909254E+01
 0.2191562495510E+01
 0.2145104622501E+01
 0.2090629524321E+01
 0.2029270544852E+01
 0.1961608757764E+01
 0.1886829460599E+01
 0.1803891209273E+01
 0.1727622967179E+01
 0.1680444938694E+01
 0.8882470028229E+00
 0.1193938948231E+01
 0.1483127396662E+01
 0.1735973650047E+01
 0.1942683380884E+01
 0.2100573443798E+01
 0.2212251553552E+01
 0.2285089191464E+01
 0.2327428927719E+01
 0.2345877743441E+01
 0.2345359768009E+01
 0.2329783962553E+01
 0.2302378870319E+01
 0.2265485893523E+01
 0.2220865941820E+01
 0.2169779318332E+01
 0.2112065482110E+01
 0.2045056535714E+01
 0.1978598233845E+01
 0.1931410468915E+01
 0.8547165712923E+00
 0.1151408978700E+01
 0.1436563050340E+01
 0.1692321946810E+01
 0.1909290989172E+01
 0.2083940342314E+01
 0.2217180115768E+01
 0.2314235279125E+01
 0.2381443496178E+01
 0.2424147429347E+01
 0.2446614465799E+01
 0.2452422329711E+01
 0.2444708595445E+01
 0.2426018097302E+01
 0.2398588125363E+01
 0.2364463067328E+01
 0.2324762365677E+01
 0.2276385227056E+01
 0.2223354298518E+01
 0.2177464056328E+01
 0.8237981291650E+00
 0.1112933856299E+01
 0.1393772006626E+01
 0.1650653055235E+01
 0.1874960957081E+01
 0.2062845907821E+01
 0.2214074780484E+01
 0.2332232588305E+01
 0.2421973508596E+01
 0.2487439517302E+01
 0.2532162008794E+01
 0.2559229490398E+01
 0.2571438541771E+01
 0.2571181710417E+01
 0.2560765117788E+01
 0.2542786838398E+01
 0.2519827213047E+01
 0.2490869493871E+01
 0.2456095985361E+01
 0.2414624219787E+01
 0.7949629879058E+00
 0.1077660107057E+01
 0.1354110054838E+01
 0.1610767916562E+01
 0.1840050743651E+01
 0.2038200919598E+01
 0.2204241373929E+01
 0.2340502047784E+01
 0.2450256063104E+01
 0.2536596909837E+01
 0.2602365085278E+01
 0.2650135658702E+01
 0.2682249406801E+01
 0.2700672488287E+01
 0.2707240201029E+01
 0.2704241280580E+01
 0.2694987305091E+01
 0.2680599201324E+01
 0.2666390203479E+01
 0.2640004836243E+01
 0.7677033945422E+00
 0.1044914448827E+01
 0.1317048451285E+01
 0.1572363902851E+01
 0.1804622917000E+01
 0.2010514994065E+01
 0.2188653549596E+01
 0.2340247839367E+01
 0.2467418655575E+01
 0.2572432793526E+01
 0.2657566376384E+01
 0.2724977955814E+01
 0.2776625573074E+01
 0.2814066115807E+01
 0.2838513156959E+01
 0.2851144057377E+01
 0.2853813695377E+01
 0.2847648818166E+01
 0.2838900836297E+01
 0.2839748980796E+01
 0.7677034017817E+00
 0.1044914453333E+01
 0.1317048453714E+01
 0.1572363903593E+01
 0.1804622916381E+01
 0.2010514992438E+01
 0.2188653547355E+01
 0.2340247836925E+01
 0.2467418653296E+01
 0.2572432791664E+01
 0.2657566375050E+01
 0.2724977954998E+01
 0.2776625572693E+01
 0.2814066115752E+01
 0.2838513157127E+01
 0.2851144057701E+01
 0.2853813695820E+01
 0.2847648818671E+01
 0.2838900836888E+01
 0.2839748981434E+01
 0.7949629953080E+00
 0.1077660112061E+01
 0.1354110057916E+01
 0.1610767917957E+01
 0.1840050743599E+01
 0.2038200918414E+01
 0.2204241372015E+01
 0.2340502045574E+01
 0.2450256060988E+01
 0.2536596908083E+01
 0.2602365084010E+01
 0.2650135657918E+01
 0.2682249406426E+01
 0.2700672488219E+01
 0.2707240201181E+01
 0.2704241280906E+01
 0.2694987305565E+01
 0.2680599201856E+01
 0.2666390204132E+01
 0.2640004837111E+01
 0.8237981367961E+00
 0.1112933861916E+01
 0.1393772010440E+01
 0.1650653057328E+01
 0.1874960957597E+01
 0.2062845907050E+01
 0.2214074778837E+01
 0.2332232586249E+01
 0.2421973506554E+01
 0.2487439515570E+01
 0.2532162007510E+01
 0.2559229489571E+01
 0.2571438541333E+01
 0.2571181710274E+01
 0.2560765117860E+01
 0.2542786838641E+01
 0.2519827213415E+01
 0.2490869494269E+01
 0.2456095985975E+01
 0.2414624220908E+01
 0.8547165792099E+00
 0.1151408985041E+01
 0.1436563054968E+01
 0.1692321949624E+01
 0.1909290990228E+01
 0.2083940341885E+01
 0.2217180114294E+01
 0.2314235277120E+01
 0.2381443494111E+01
 0.2424147427545E+01
 0.2446614464418E+01
 0.2452422328767E+01
 0.2444708594874E+01
 0.2426018097015E+01
 0.2398588125277E+01
 0.2364463067392E+01
 0.2324762365826E+01
 0.2276385227222E+01
 0.2223354299053E+01
 0.2177464057683E+01
 0.8882470110904E+00
 0.1193938955402E+01
 0.1483127402166E+01
 0.1735973653577E+01
 0.1942683382414E+01
 0.2100573443605E+01
 0.2212251552128E+01
 0.2285089189388E+01
 0.2327428925519E+01
 0.2345877741476E+01
 0.2345359766450E+01
 0.2329783961422E+01
 0.2302378869552E+01
 0.2265485893027E+01
 0.2220865941508E+01
 0.2169779318141E+01
 0.2112065481961E+01
 0.2045056535597E+01
 0.1978598234270E+01
 0.1931410470454E+01
 0.9250290938048E+00
 0.1241507295001E+01
 0.1534134952333E+01
 0.1781644303445E+01
 0.1974445217354E+01
 0.2111430345937E+01
 0.2197624349508E+01
 0.2243147708575E+01
 0.2258615111691E+01
 0.2251824535451E+01
 0.2228145907448E+01
 0.2191562494136E+01
 0.2145104621489E+01
 0.2090629523571E+01
 0.2029270544267E+01
 0.1961608757269E+01
 0.1886829460110E+01
 0.1803891208853E+01
 0.1727622967469E+01
 0.1680444940351E+01
 0.9658495694978E+00
 0.1295245675116E+01
 0.1590228184227E+01
 0.1829128344576E+01
 0.2003478860287E+01
 0.2114745831306E+01
 0.2171274649143E+01
 0.2186586967227E+01
 0.2173703353619E+01
 0.2141355777183E+01
 0.2095020305704E+01
 0.2038437786267E+01
 0.1974166740853E+01
 0.1903402588366E+01
 0.1826645701585E+01
 0.1744014705827E+01
 0.1654409362704E+01
 0.1558768849291E+01
 0.1475738745666E+01
 0.1429383493535E+01
 0.1011682351258E+01
 0.1356450695599E+01
 0.1651971951435E+01
 0.1877881824456E+01
 0.2028185658249E+01
 0.2108256652656E+01
 0.2130848097068E+01
 0.2113506934993E+01
 0.2071558216397E+01
 0.2014182805096E+01
 0.1946501809612E+01
 0.1871664323071E+01
 0.1791518119998E+01
 0.1706496316438E+01
 0.1616527671032E+01
 0.1521439794683E+01
 0.1419997530515E+01
 0.1315170616222E+01
 0.1228321992032E+01
 0.1183697350808E+01
 0.1063738669104E+01
 0.1426603503915E+01
 0.1719784102442E+01
 0.1926894885642E+01
 0.2046349838709E+01
 0.2089166220644E+01
 0.2073735336497E+01
 0.2022090782589E+01
 0.1951397474971E+01
 0.1870535050326E+01
 0.1783704600426E+01
 0.1693109547273E+01
 0.1599696545107E+01
 0.1503102137711E+01
 0.1402774568014E+01
 0.1298376167180E+01
 0.1188590281099E+01
 0.1078369330956E+01
 0.9908471748032E+00
 0.9491601958021E+00
 0.1123534286377E+01
 0.1507389971274E+01
 0.1793831396523E+01
 0.1974518387923E+01
 0.2055004299523E+01
 0.2054141928109E+01
 0.1997217450174E+01
 0.1910832020793E+01
 0.1813014384120E+01
 0.1711318287626E+01
 0.1608401538915E+01
 0.1505209960608E+01
 0.1401676207252E+01
 0.1296679560190E+01
 0.1189310796145E+01
 0.1079176998510E+01
 0.9649144086094E+00
 0.8533885952573E+00
 0.7686612992520E+00
 0.7315325473034E+00
 0.1192982688182E+01
 0.1600717805949E+01
 0.1873866928682E+01
 0.2018224364326E+01
 0.2050284993045E+01
 0.1999377568700E+01
 0.1898713459834E+01
 0.1778836260076E+01
 0.1657012872083E+01
 0.1538227947597E+01
 0.1423011206059E+01
 0.1310854778733E+01
 0.1200680924174E+01
 0.1090737094999E+01
 0.9799176115771E+00
 0.8678891162712E+00
 0.7532971082643E+00
 0.6448258845075E+00
 0.5666914368658E+00
 0.5362241618766E+00
 0.1274528231207E+01
 0.1708721459576E+01
 0.1958968072092E+01
 0.2054272202347E+01
 0.2027295098897E+01
 0.1920776588223E+01
 0.1776168903998E+01
 0.1626188555284E+01
 0.1485012513034E+01
 0.1353773089007E+01
 0.1230487609146E+01
 0.1113201497943E+01
 0.9999725994062E+00
 0.8886237919639E+00
 0.7780450423193E+00
 0.6680870758093E+00
 0.5574925903825E+00
 0.4566206493540E+00
 0.3891243412985E+00
 0.3679234829652E+00
 0.1371342603813E+01
 0.1833732832403E+01
 0.2047100383532E+01
 0.2077244683918E+01
 0.1980034338032E+01
 0.1814348003815E+01
 0.1628617355426E+01
 0.1454334539833E+01
 0.1299741066907E+01
 0.1161155820472E+01
 0.1034102926235E+01
 0.9154436125007E+00
 0.8026380843854E+00
 0.6933421063927E+00
 0.5866458875659E+00
 0.4827121393738E+00
 0.3804935951683E+00
 0.2918066975986E+00
 0.2390782776579E+00
 0.2301878164422E+00
 0.1487625003434E+01
 0.1978163480103E+01
 0.2134366555705E+01
 0.2079418916198E+01
 0.1901525440212E+01
 0.1676951527486E+01
 0.1456895836516E+01
 0.1266336486857E+01
 0.1104894960105E+01
 0.9639723146459E+00
 0.8371566560717E+00
 0.7205782468942E+00
 0.6114069111858E+00
 0.5073959960980E+00
 0.4080368797886E+00
 0.3139270089959E+00
 0.2243526110464E+00
 0.1522849869616E+00
 0.1182959885115E+00
 0.1250038212325E+00
 0.1629079588534E+01
 0.2144159754754E+01
 0.2213661772703E+01
 0.2049983066122E+01
 0.1784432720729E+01
 0.1507550650483E+01
 0.1264328551979E+01
 0.1066742669839E+01
 0.9046651421109E+00
 0.7657974152158E+00
 0.6427037414946E+00
 0.5312321693400E+00
 0.4285215573658E+00
 0.3326767849346E+00
 0.2437879192558E+00
 0.1629995660926E+00
 0.9006179419303E-01
 0.3883671744658E-01
 0.2716979126705E-01
 0.5234948886348E-01
 0.1803707131838E+01
 0.2332641908780E+01
 0.2272176669609E+01
 0.1974309508113E+01
 0.1622814396188E+01
 0.1308959708427E+01
 0.1056836688381E+01
 0.8607278118055E+00
 0.7030606664164E+00
 0.5698453494134E+00
 0.4534043486509E+00
 0.3495713742090E+00
 0.2556509375758E+00
 0.1703742127813E+00
 0.9464197168302E-01
 0.3032580167997E-01
 0.2338803698097E-01
 0.5091134517442E-01
 0.3811488726697E-01
 0.9867994000033E-02
 0.2023209445752E+01
 0.2540588126107E+01
 0.2286509686830E+01
 0.1834429725500E+01
 0.1416060475094E+01
 0.1089353381947E+01
 0.8412135990047E+00
 0.6528502541754E+00
 0.5034649683751E+00
 0.3788895534188E+00
 0.2715171355819E+00
 0.1772529366228E+00
 0.9381119549770E-01
 0.2090818401437E-01
 0.3963257383277E-01
 0.8534430494861E-01
 0.1156798252145E+00
 0.1171471089559E+00
 0.7840173704942E-01
 0.7803863515249E-02
 0.2305315547813E+01
 0.2751959678392E+01
 0.2213784291776E+01
 0.1614226635992E+01
 0.1176853082539E+01
 0.8588364412417E+00
 0.6225632201707E+00
 0.4464794290872E+00
 0.3087220606522E+00
 0.1954561514618E+00
 0.9891991821533E-01
 0.1537598637202E-01
 0.5672469604287E-01
 0.1161506263585E+00
 0.1599334137321E+00
 0.1850995793265E+00
 0.1906874997640E+00
 0.1645125979058E+00
 0.1003084124404E+00
 0.7869556281930E-02
 0.2679776705083E+01
 0.2907402604353E+01
 0.1971601796139E+01
 0.1334620925033E+01
 0.9244656022899E+00
 0.6233236174324E+00
 0.4037575133644E+00
 0.2441000481932E+00
 0.1218289863413E+00
 0.2208928485782E-01
 0.6316428956508E-01
 0.1359799709241E+00
 0.1964441377086E+00
 0.2419435286276E+00
 0.2684248716429E+00
 0.2719177188215E+00
 0.2514065342499E+00
 0.1967150423522E+00
 0.1093661287975E+00
 0.7962390570556E-02
 0.3152357746860E+01
 0.2650056963725E+01
 0.1581871220606E+01
 0.1043738048623E+01
 0.6665581711609E+00
 0.3858357865187E+00
 0.1849601111939E+00
 0.4930203589284E-01
 0.5342755499911E-01
 0.1396014440746E+00
 0.2142480515852E+00
 0.2773290028833E+00
 0.3265958379502E+00
 0.3580348631548E+00
 0.3678587902697E+00
 0.3507970053008E+00
 0.3005234543366E+00
 0.2159369324081E+00
 0.1107904838868E+00
 0.1880378502674E-01
 0.2879899508543E+01
 0.2674131058630E+01
 0.2460283685246E+01
 0.2232874928831E+01
 0.1992573655726E+01
 0.1744235343705E+01
 0.1493254002232E+01
 0.1245527519665E+01
 0.1007268835376E+01
 0.7848228540557E+00
 0.5843820641257E+00
 0.4116109449727E+00
 0.2711752103113E+00
 0.1661793875029E+00
 0.9753971539833E-01
 0.6343082944099E-01
 0.5896401188660E-01
 0.7570254652958E-01
 0.1027926273257E+00
 0.1292507269450E+00
 0.2990062953264E+01
 0.2819774659945E+01
 0.2611880836075E+01
 0.2388613169995E+01
 0.2152460978937E+01
 0.1906075070267E+01
 0.1653737464772E+01
 0.1400760462233E+01
 0.1153226177495E+01
 0.9177477130278E+00
 0.7012074131914E+00
 0.5104055619763E+00
 0.3515880099303E+00
 0.2298285304101E+00
 0.1482638677358E+00
 0.1072578171003E+00
 0.1034950823705E+00
 0.1288048446052E+00
 0.1704088970790E+00
 0.2156725479070E+00
 0.3099403457088E+01
 0.2950275640112E+01
 0.2764347468176E+01
 0.2553522045348E+01
 0.2326244486273E+01
 0.2086134015709E+01
 0.1836843802957E+01
 0.1582936370097E+01
 0.1329931551802E+01
 0.1084204788289E+01
 0.8528164498624E+00
 0.6432568226719E+00
 0.4630602086682E+00
 0.3192391615585E+00
 0.2174958091484E+00
 0.1612004930224E+00
 0.1500488798928E+00
 0.1779512621374E+00
 0.2315870601280E+00
 0.2928613770671E+00
 0.3212494382386E+01
 0.3079302857434E+01
 0.2914032219718E+01
 0.2721958720152E+01
 0.2509346329395E+01
 0.2280755040378E+01
 0.2039782193716E+01
 0.1790366893280E+01
 0.1537256155577E+01
 0.1286139226665E+01
 0.1043648271693E+01
 0.8172671829546E+00
 0.6151261238687E+00
 0.4456258183114E+00
 0.3168153245557E+00
 0.2354362879871E+00
 0.2054489421590E+00
 0.2253793977539E+00
 0.2841590174340E+00
 0.3589867438710E+00
 0.3327008113624E+01
 0.3208218241388E+01
 0.3062437218279E+01
 0.2890819277098E+01
 0.2697188551322E+01
 0.2485203128651E+01
 0.2258174507322E+01
 0.2019479497346E+01
 0.1773039498591E+01
 0.1523587212998E+01
 0.1276806821555E+01
 0.1039397991866E+01
 0.8190691174152E+00
 0.6244288547378E+00
 0.4647117128487E+00
 0.3492335068104E+00
 0.2863736531189E+00
 0.2814108244659E+00
 0.3313580232817E+00
 0.4155782450148E+00
 0.3441163443431E+01
 0.3336182058835E+01
 0.3208807307634E+01
 0.3057940888374E+01
 0.2885360677393E+01
 0.2693550978993E+01
 0.2485114699251E+01
 0.2262823128043E+01
 0.2029839166900E+01
 0.1789948853883E+01
 0.1547733653372E+01
 0.1308695918257E+01
 0.1079350103930E+01
 0.8672791535411E+00
 0.6811394175262E+00
 0.5305779231997E+00
 0.4259807623860E+00
 0.3777541494632E+00
 0.3937986824243E+00
 0.4689768805040E+00
 0.3553447291832E+01
 0.3462085432806E+01
 0.3352190495761E+01
 0.3221620557535E+01
 0.3070746193932E+01
 0.2900968857261E+01
 0.2714125697837E+01
 0.2512355068469E+01
 0.2298169371967E+01
 0.2074590738866E+01
 0.1845289878575E+01
 0.1614704060648E+01
 0.1388132351364E+01
 0.1171810128994E+01
 0.9729654898504E+00
 0.7998657592733E+00
 0.6618833124814E+00
 0.5696478406986E+00
 0.5354059728544E+00
 0.5717529303918E+00
 0.3662500035867E+01
 0.3584671452280E+01
 0.3491434578645E+01
 0.3380348997466E+01
 0.3250927630956E+01
 0.3103737390822E+01
 0.2939921475739E+01
 0.2761026257228E+01
 0.2568996695432E+01
 0.2366253279174E+01
 0.2155799121599E+01
 0.1941331842310E+01
 0.1727347759855E+01
 0.1519232954185E+01
 0.1323339380529E+01
 0.1147052709092E+01
 0.9988903642196E+00
 0.8887837881797E+00
 0.8291302959247E+00
 0.8404107114726E+00
 0.3767134007358E+01
 0.3702721222634E+01
 0.3625385325208E+01
 0.3532800019568E+01
 0.3424037743800E+01
 0.3299086984903E+01
 0.3158525267112E+01
 0.3003368105990E+01
 0.2835040518933E+01
 0.2655422812078E+01
 0.2466939160671E+01
 0.2272670167980E+01
 0.2076479867977E+01
 0.1883153083931E+01
 0.1698542780713E+01
 0.1529731979526E+01
 0.1385227395258E+01
 0.1275248816499E+01
 0.1212333334986E+01
 0.1213500469028E+01
 0.3866332118083E+01
 0.3815132782320E+01
 0.3752976756144E+01
 0.3677847812924E+01
 0.3588661528387E+01
 0.3485048398149E+01
 0.3367160142626E+01
 0.3235562583257E+01
 0.3091206801585E+01
 0.2935458220642E+01
 0.2770166816635E+01
 0.2597767877198E+01
 0.2421407950150E+01
 0.2245094548827E+01
 0.2073870454034E+01
 0.1914013365023E+01
 0.1773256914586E+01
 0.1660996776271E+01
 0.1588337113967E+01
 0.1566396577651E+01
 0.3959242541169E+01
 0.3920946083474E+01
 0.3873246807861E+01
 0.3814509848838E+01
 0.3743665444904E+01
 0.3660152500882E+01
 0.3563825562980E+01
 0.3454892222310E+01
 0.3333894214025E+01
 0.3201728268532E+01
 0.3059700201957E+01
 0.2909607555867E+01
 0.2753848936765E+01
 0.2595560809763E+01
 0.2438784195920E+01
 0.2288663431833E+01
 0.2151672285747E+01
 0.2035841931203E+01
 0.1950843025129E+01
 0.1907775137615E+01
 0.4045088416541E+01
 0.4019211682826E+01
 0.3985187881991E+01
 0.3941753146413E+01
 0.3887936000974E+01
 0.3823092639672E+01
 0.3746880405403E+01
 0.3659230538087E+01
 0.3560340622918E+01
 0.3450691188168E+01
 0.3331085883417E+01
 0.3202714194275E+01
 0.3067236862168E+01
 0.2926895977134E+01
 0.2784653614192E+01
 0.2644364418650E+01
 0.2510989508680E+01
 0.2390861254051E+01
 0.2292063250116E+01
 0.2225248067346E+01
 0.4123152528540E+01
 0.4108973463316E+01
 0.4087698448109E+01
 0.4058376681325E+01
 0.4020161962379E+01
 0.3972389653160E+01
 0.3914588800802E+01
 0.3846478377201E+01
 0.3767968197119E+01
 0.3679172073402E+01
 0.3580435499233E+01
 0.3472378551982E+01
 0.3355954868741E+01
 0.3232528625046E+01
 0.3103973220227E+01
 0.2972798155759E+01
 0.2842315111137E+01
 0.2716867612598E+01
 0.2602180925677E+01
 0.2505886332117E+01
 0.4192804605360E+01
 0.4189358707825E+01
 0.4179716983128E+01
 0.4163168505032E+01
 0.4138987135599E+01
 0.4106516997672E+01
 0.4065202544883E+01
 0.4014597681666E+01
 0.3954371080258E+01
 0.3884315448661E+01
 0.3804363910919E+01
 0.3714614684779E+01
 0.3615364668898E+01
 0.3507152828723E+01
 0.3390815287447E+01
 0.3267555939894E+01
 0.3139039661987E+01
 0.3007517655829E+01
 0.2875984219748E+01
 0.2748335735533E+01
 0.4253500331986E+01
 0.4259611339890E+01
 0.4260301204853E+01
 0.4255029590974E+01
 0.4243169111180E+01
 0.4224081787288E+01
 0.4197153250652E+01
 0.4161806532160E+01
 0.4117508066697E+01
 0.4063772450161E+01
 0.4000168938161E+01
 0.3926330733396E+01
 0.3841967090799E+01
 0.3746877787949E+01
 0.3640969409650E+01
 0.3524273202426E+01
 0.3396964899357E+01
 0.3259386164231E+01
 0.3112060168817E+01
 0.2955675400334E+01
 0.4304777608717E+01
 0.4319095379818E+01
 0.4328648963406E+01
 0.4333012301833E+01
 0.4331630600308E+01
 0.4323881754796E+01
 0.4309107070415E+01
 0.4286624315712E+01
 0.4255731742220E+01
 0.4215708040734E+01
 0.4165810686530E+01
 0.4105273462348E+01
 0.4033302783649E+01
 0.3949071493127E+01
 0.3851707821716E+01
 0.3740276116903E+01
 0.3613744741762E+01
 0.3470937663262E+01
 0.3310473614110E+01
 0.3130698240715E+01
 0.4346253896427E+01
 0.4367290849240E+01
 0.4384100550671E+01
 0.4396330002015E+01
 0.4403472962055E+01
 0.4404917021341E+01
 0.4399967964673E+01
 0.4387859356450E+01
 0.4367753181168E+01
 0.4338735214688E+01
 0.4299807105449E+01
 0.4249875877712E+01
 0.4187740549146E+01
 0.4112074563365E+01
 0.4021401536836E+01
 0.3914060110229E+01
 0.3788151461334E+01
 0.3641459988983E+01
 0.3471344113654E+01
 0.3274634187276E+01
 0.4377624877681E+01
 0.4403788756401E+01
 0.4426135913927E+01
 0.4444358296526E+01
 0.4457979452783E+01
 0.4466390834444E+01
 0.4468869950430E+01
 0.4464585852159E+01
 0.4452596186688E+01
 0.4431838680133E+01
 0.4401118786731E+01
 0.4359094385382E+01
 0.4304257732374E+01
 0.4234914255065E+01
 0.4149157017340E+01
 0.4044834546121E+01
 0.3919507392330E+01
 0.3770384254953E+01
 0.3594209531864E+01
 0.3387074708094E+01
 0.4398663711227E+01
 0.4428286621772E+01
 0.4454370324195E+01
 0.4476632942260E+01
 0.4494614574329E+01
 0.4507707113111E+01
 0.4515167880505E+01
 0.4516121760249E+01
 0.4509555362812E+01
 0.4494305688675E+01
 0.4469044975180E+01
 0.4432262899225E+01
 0.4382247023192E+01
 0.4317062277256E+01
 0.4234530343715E+01
 0.4132209982871E+01
 0.4007379495677E+01
 0.3857020941057E+01
 0.3677801196394E+01
 0.3465938357091E+01
 0.4409220404317E+01
 0.4440585094965E+01
 0.4468550363724E+01
 0.4492846793934E+01
 0.4513021803216E+01
 0.4528466815248E+01
 0.4538428584295E+01
 0.4542009488450E+01
 0.4538160097982E+01
 0.4525666347675E+01
 0.4503133019290E+01
 0.4468964920328E+01
 0.4421347112253E+01
 0.4358225825236E+01
 0.4277292396790E+01
 0.4175973934520E+01
 0.4051436989595E+01
 0.3900616324096E+01
 0.3720294619261E+01
 0.3507338675434E+01
 0.4409220404358E+01
 0.4440585095042E+01
 0.4468550363842E+01
 0.4492846794098E+01
 0.4513021803432E+01
 0.4528466815523E+01
 0.4538428584635E+01
 0.4542009488860E+01
 0.4538160098467E+01
 0.4525666348239E+01
 0.4503133019935E+01
 0.4468964921054E+01
 0.4421347113057E+01
 0.4358225826112E+01
 0.4277292397728E+01
 0.4175973935504E+01
 0.4051436990608E+01
 0.3900616325119E+01
 0.3720294620274E+01
 0.3507338676440E+01
 0.4398663711348E+01
 0.4428286622001E+01
 0.4454370324546E+01
 0.4476632942751E+01
 0.4494614574977E+01
 0.4507707113934E+01
 0.4515167881521E+01
 0.4516121761475E+01
 0.4509555364262E+01
 0.4494305690362E+01
 0.4469044977110E+01
 0.4432262901398E+01
 0.4382247025599E+01
 0.4317062279879E+01
 0.4234530346523E+01
 0.4132209985820E+01
 0.4007379498709E+01
 0.3857020944107E+01
 0.3677801199392E+01
 0.3465938359991E+01
 0.4377624877883E+01
 0.4403788756780E+01
 0.4426135914509E+01
 0.4444358297338E+01
 0.4457979453855E+01
 0.4466390835806E+01
 0.4468869952111E+01
 0.4464585854188E+01
 0.4452596189090E+01
 0.4431838682927E+01
 0.4401118789929E+01
 0.4359094388985E+01
 0.4304257736367E+01
 0.4234914259418E+01
 0.4149157022002E+01
 0.4044834551017E+01
 0.3919507397359E+01
 0.3770384259987E+01
 0.3594209536751E+01
 0.3387074712660E+01
 0.4346253896708E+01
 0.4367290849765E+01
 0.4384100551477E+01
 0.4396330003139E+01
 0.4403472963538E+01
 0.4404917023225E+01
 0.4399967966999E+01
 0.4387859359260E+01
 0.4367753184496E+01
 0.4338735218562E+01
 0.4299807109887E+01
 0.4249875882716E+01
 0.4187740554698E+01
 0.4112074569424E+01
 0.4021401543329E+01
 0.3914060117049E+01
 0.3788151468331E+01
 0.3641459995956E+01
 0.3471344120342E+01
 0.3274634193348E+01
 0.4304777609075E+01
 0.4319095380485E+01
 0.4328648964427E+01
 0.4333012303256E+01
 0.4331630602184E+01
 0.4323881757180E+01
 0.4309107073362E+01
 0.4286624319274E+01
 0.4255731746442E+01
 0.4215708045653E+01
 0.4165810692169E+01
 0.4105273468712E+01
 0.4033302790719E+01
 0.3949071500851E+01
 0.3851707830003E+01
 0.3740276125612E+01
 0.3613744750693E+01
 0.3470937672137E+01
 0.3310473622554E+01
 0.3130698248237E+01
 0.4253500332420E+01
 0.4259611340694E+01
 0.4260301206078E+01
 0.4255029592680E+01
 0.4243169113430E+01
 0.4224081790149E+01
 0.4197153254190E+01
 0.4161806536439E+01
 0.4117508071773E+01
 0.4063772456081E+01
 0.4000168944952E+01
 0.3926330741066E+01
 0.3841967099326E+01
 0.3746877797273E+01
 0.3640969419663E+01
 0.3524273212958E+01
 0.3396964910160E+01
 0.3259386174955E+01
 0.3112060178980E+01
 0.2955675409291E+01
 0.4192804605866E+01
 0.4189358708755E+01
 0.4179716984541E+01
 0.4163168506997E+01
 0.4138987138192E+01
 0.4106517000972E+01
 0.4065202548969E+01
 0.4014597686611E+01
 0.3954371086129E+01
 0.3884315455510E+01
 0.3804363918781E+01
 0.3714614693664E+01
 0.3615364678781E+01
 0.3507152839539E+01
 0.3390815299073E+01
 0.3267555952141E+01
 0.3139039674573E+01
 0.3007517668355E+01
 0.2875984231664E+01
 0.2748335746080E+01
 0.4123152529117E+01
 0.4108973464364E+01
 0.4087698449697E+01
 0.4058376683532E+01
 0.4020161965292E+01
 0.3972389656870E+01
 0.3914588805398E+01
 0.3846478382766E+01
 0.3767968203728E+01
 0.3679172081112E+01
 0.3580435508081E+01
 0.3472378561978E+01
 0.3355954879857E+01
 0.3232528637209E+01
 0.3103973233304E+01
 0.2972798169542E+01
 0.2842315125327E+01
 0.2716867626777E+01
 0.2602180939275E+01
 0.2505886344360E+01
 0.4045088417180E+01
 0.4019211683976E+01
 0.3985187883726E+01
 0.3941753148825E+01
 0.3887936004161E+01
 0.3823092643736E+01
 0.3746880410443E+01
 0.3659230544192E+01
 0.3560340630165E+01
 0.3450691196619E+01
 0.3331085893107E+01
 0.3202714205210E+01
 0.3067236874316E+01
 0.2926895990414E+01
 0.2784653628465E+01
 0.2644364433704E+01
 0.2510989524217E+01
 0.2390861269673E+01
 0.2292063265317E+01
 0.2225248081510E+01
 0.3959242541867E+01
 0.3920946084713E+01
 0.3873246809727E+01
 0.3814509851433E+01
 0.3743665448339E+01
 0.3660152505268E+01
 0.3563825568421E+01
 0.3454892228898E+01
 0.3333894221839E+01
 0.3201728277629E+01
 0.3059700212366E+01
 0.2909607567585E+01
 0.2753848949750E+01
 0.2595560823923E+01
 0.2438784211108E+01
 0.2288663447835E+01
 0.2151672302278E+01
 0.2035841947900E+01
 0.1950843041564E+01
 0.1907775153401E+01
 0.3866332118833E+01
 0.3815132783635E+01
 0.3752976758124E+01
 0.3677847815685E+01
 0.3588661532048E+01
 0.3485048402829E+01
 0.3367160148429E+01
 0.3235562590275E+01
 0.3091206809889E+01
 0.2935458230277E+01
 0.2770166827619E+01
 0.2597767889511E+01
 0.2421407963732E+01
 0.2245094563571E+01
 0.2073870469784E+01
 0.1914013381569E+01
 0.1773256931669E+01
 0.1660996793582E+01
 0.1588337131145E+01
 0.1566396594267E+01
 0.3767134008151E+01
 0.3702721224016E+01
 0.3625385327291E+01
 0.3532800022483E+01
 0.3424037747673E+01
 0.3299086989852E+01
 0.3158525273237E+01
 0.3003368113373E+01
 0.2835040527630E+01
 0.2655422822118E+01
 0.2466939172050E+01
 0.2272670180659E+01
 0.2076479881875E+01
 0.1883153098930E+01
 0.1698542796656E+01
 0.1529731996231E+01
 0.1385227412527E+01
 0.1275248834135E+01
 0.1212333352790E+01
 0.1213500486520E+01
 0.3662500036696E+01
 0.3584671453720E+01
 0.3491434580826E+01
 0.3380349000527E+01
 0.3250927635026E+01
 0.3103737396010E+01
 0.2939921482133E+01
 0.2761026264890E+01
 0.2568996704396E+01
 0.2366253289443E+01
 0.2155799133138E+01
 0.1941331855045E+01
 0.1727347773675E+01
 0.1519232968939E+01
 0.1323339396036E+01
 0.1147052725155E+01
 0.9988903806421E+00
 0.8887838047986E+00
 0.8291303126350E+00
 0.8404107283370E+00
 0.3553447292683E+01
 0.3462085434290E+01
 0.3352190498028E+01
 0.3221620560726E+01
 0.3070746198167E+01
 0.2900968862632E+01
 0.2714125704406E+01
 0.2512355076269E+01
 0.2298169380996E+01
 0.2074590749081E+01
 0.1845289889889E+01
 0.1614704072922E+01
 0.1388132364405E+01
 0.1171810142550E+01
 0.9729655036103E+00
 0.7998657728664E+00
 0.6618833254842E+00
 0.5696478526565E+00
 0.5354059833838E+00
 0.5717529397075E+00
 0.3441163444287E+01
 0.3336182060350E+01
 0.3208807309971E+01
 0.3057940891666E+01
 0.2885360681737E+01
 0.2693550984450E+01
 0.2485114705847E+01
 0.2262823135766E+01
 0.2029839175695E+01
 0.1789948863643E+01
 0.1547733663932E+01
 0.1308695929388E+01
 0.1079350115329E+01
 0.8672791648354E+00
 0.6811394282747E+00
 0.5305779329131E+00
 0.4259807705690E+00
 0.3777541557146E+00
 0.3937986866786E+00
 0.4689768835405E+00
 0.3327008114468E+01
 0.3208218242919E+01
 0.3062437220661E+01
 0.2890819280442E+01
 0.2697188555685E+01
 0.2485203134051E+01
 0.2258174513737E+01
 0.2019479504711E+01
 0.1773039506793E+01
 0.1523587221861E+01
 0.1276806830844E+01
 0.1039398001282E+01
 0.8190691266037E+00
 0.6244288633075E+00
 0.4647117204065E+00
 0.3492335130212E+00
 0.2863736578013E+00
 0.2814108277437E+00
 0.3313580257972E+00
 0.4155782478822E+00
 0.3212494383200E+01
 0.3079302858965E+01
 0.2914032222113E+01
 0.2721958723473E+01
 0.2509346333648E+01
 0.2280755045531E+01
 0.2039782199703E+01
 0.1790366899986E+01
 0.1537256162837E+01
 0.1286139234263E+01
 0.1043648279365E+01
 0.8172671904005E+00
 0.6151261307788E+00
 0.4456258243999E+00
 0.3168153296110E+00
 0.2354362919355E+00
 0.2054489451373E+00
 0.2253794001786E+00
 0.2841590199730E+00
 0.3589867471193E+00
 0.3099403457855E+01
 0.2950275641622E+01
 0.2764347470531E+01
 0.2553522048539E+01
 0.2326244490253E+01
 0.2086134020412E+01
 0.1836843808281E+01
 0.1582936375898E+01
 0.1329931557896E+01
 0.1084204794456E+01
 0.8528164558627E+00
 0.6432568282685E+00
 0.4630602136547E+00
 0.3192391657955E+00
 0.2174958126038E+00
 0.1612004958091E+00
 0.1500488822914E+00
 0.1779512645795E+00
 0.2315870630713E+00
 0.2928613807559E+00
 0.2990062953988E+01
 0.2819774661440E+01
 0.2611880838334E+01
 0.2388613172937E+01
 0.2152460982500E+01
 0.1906075074364E+01
 0.1653737469283E+01
 0.1400760467005E+01
 0.1153226182351E+01
 0.9177477177801E+00
 0.7012074176598E+00
 0.5104055660098E+00
 0.3515880134332E+00
 0.2298285333684E+00
 0.1482638702392E+00
 0.1072578193528E+00
 0.1034950846747E+00
 0.1288048473034E+00
 0.1704089004308E+00
 0.2156725519401E+00
 0.2879899509300E+01
 0.2674131060087E+01
 0.2460283687267E+01
 0.2232874931368E+01
 0.1992573658705E+01
 0.1744235347025E+01
 0.1493254005766E+01
 0.1245527523276E+01
 0.1007268838921E+01
 0.7848228574036E+00
 0.5843820671738E+00
 0.4116109476631E+00
 0.2711752126475E+00
 0.1661793895622E+00
 0.9753971733627E-01
 0.6343083148244E-01
 0.5896401428542E-01
 0.7570254949885E-01
 0.1027926309593E+00
 0.1292507311102E+00
</DataArray>
<CellData Tensors="'E_Centroid','S_Centroid'">
<DataArray type="Float64" Name="E_Centroid" NumberOfComponents="4" ComponentName0="E11" ComponentName1="E22" ComponentName2="E33" ComponentName3="E12" format="ascii">
 0.1165922254443E-02 -0.9068392660822E-02  0.0000000000000E+00 -0.3091655903203E-02
 0.1988096411692E-02 -0.7350067300130E-02  0.0000000000000E+00 -0.1820022318365E-03
 0.1645249769253E-02 -0.6703776166575E-02  0.0000000000000E+00 -0.1861115408169E-03
 0.1609879411418E-02 -0.6421950234468E-02  0.0000000000000E+00 -0.8472280499317E-04
 0.1563684109353E-02 -0.6262466785339E-02  0.0000000000000E+00 -0.4685514372452E-04
 0.1544263048204E-02 -0.6177690666875E-02  0.0000000000000E+00 -0.2247853099809E-04
 0.1533842848773E-02 -0.6136859209868E-02  0.0000000000000E+00 -0.6952329908563E-05
 0.1531235464753E-02 -0.6125788611764E-02  0.0000000000000E+00  0.3972427241150E-05
 0.1533810785416E-02 -0.6135988014631E-02  0.0000000000000E+00  0.1212814573490E-04
 0.1540465559206E-02 -0.6162486467064E-02  0.0000000000000E+00  0.1863626872618E-04
 0.1550425180848E-02 -0.6202281148531E-02  0.0000000000000E+00  0.2418276720802E-04
 0.1563271406378E-02 -0.6253655831992E-02  0.0000000000000E+00  0.2923588966425E-04
 0.1578796276882E-02 -0.6315778650603E-02  0.0000000000000E+00  0.3413656363992E-04
 0.1596958007822E-02 -0.6388477476423E-02  0.0000000000000E+00  0.3915253638613E-04
 0.1617845327473E-02 -0.6472106996976E-02  0.0000000000000E+00  0.4450903460179E-04
 0.1641659658056E-02 -0.6567473769677E-02  0.0000000000000E+00  0.5040906677653E-04
 0.1668705926517E-02 -0.6675801574758E-02  0.0000000000000E+00  0.5704984758051E-04
 0.1699392234361E-02 -0.6798727005749E-02  0.0000000000000E+00  0.6463657593361E-04
 0.1734238608335E-02 -0.6938339305573E-02  0.0000000000000E+00  0.7340634826006E-04
 0.1773899691445E-02 -0.7097272516393E-02  0.0000000000000E+00  0.8366115005909E-04
 0.1819212590363E-02 -0.7278904742881E-02  0.0000000000000E+00  0.9584698363632E-04
 0.1871318427130E-02 -0.7487834230831E-02  0.0000000000000E+00  0.1107311266421E-03
 0.1931722243612E-02 -0.7731219268310E-02  0.0000000000000E+00  0.1308624139779E-03
 0.2001968830876E-02 -0.8019642586126E-02  0.0000000000000E+00  0.1664595074410E-03
 0.2082577910058E-02 -0.8357092309292E-02  0.0000000000000E+00  0.2362579511743E-03
 0.2172199356177E-02 -0.8735544355498E-02  0.0000000000000E+00  0.3558995302899E-03
 0.2268418557615E-02 -0.9144305743286E-02  0.0000000000000E+00  0.5303570228998E-03
 0.2369135951088E-02 -0.9576337367437E-02  0.0000000000000E+00  0.7570711874852E-03
 0.2473166407589E-02 -0.1002981857818E-01  0.0000000000000E+00  0.1031454763599E-02
 0.2580147949478E-02 -0.1050712834527E-01  0.0000000000000E+00  0.1351196891933E-02
 0.2690017710606E-02 -0.1101271779724E-01  0.0000000000000E+00  0.1718545213767E-02
 0.2802344841610E-02 -0.1155056851888E-01  0.0000000000000E+00  0.2140517359056E-02
 0.2916934681022E-02 -0.1212009110488E-01  0.0000000000000E+00  0.2620983080422E-02
 0.3035589904774E-02 -0.1272667851260E-01  0.0000000000000E+00  0.3152777303704E-02
 0.3166910958412E-02 -0.1340352040669E-01  0.0000000000000E+00  0.3737364010504E-02
 0.3310600645881E-02 -0.1420399855086E-01  0.0000000000000E+00  0.4407789912823E-02
 0.3521699153059E-02 -0.1521693366508E-01  0.0000000000000E+00  0.5239803800891E-02
 0.3601638210806E-02 -0.1652573098877E-01  0.0000000000000E+00  0.6416364547970E-02
 0.4659443513991E-02 -0.1869868053312E-01  0.0000000000000E+00  0.8026409966658E-02
 0.6200565253445E-03 -0.2098120194122E-01  0.0000000000000E+00  0.1420442380437E-01
 0.2043919071107E-01 -0.2661140770614E-01  0.0000000000000E+00  0.1386042367269E-01
 0.7983097631536E-03 -0.7877462351246E-02  0.0000000000000E+00 -0.3405102650809E-02
 0.1691909923253E-02 -0.7532502823736E-02  0.0000000000000E+00 -0.1511371629887E-02
 0.1706973374383E-02 -0.6876679232563E-02  0.0000000000000E+00 -0.5211132094860E-03
 0.1615729735643E-02 -0.6560034481917E-02  0.0000000000000E+00 -0.3116368184845E-03
 0.1586699534323E-02 -0.6381859722170E-02  0.0000000000000E+00 -0.1666459424157E-03
 0.1563213325089E-02 -0.6279134682667E-02  0.0000000000000E+00 -0.8830129193143E-04
 0.1551962925237E-02 -0.6224574290526E-02  0.0000000000000E+00 -0.3634934172543E-04
 0.1547469768283E-02 -0.6202227598200E-02  0.0000000000000E+00 -0.3698176190281E-06
 0.1548413314375E-02 -0.6203128326435E-02  0.0000000000000E+00  0.2642506227479E-04
 0.1553491542241E-02 -0.6221785908466E-02  0.0000000000000E+00  0.4762570861024E-04
 0.1561992809321E-02 -0.6254848766044E-02  0.0000000000000E+00  0.6551173072854E-04
 0.1573467351346E-02 -0.6300324794663E-02  0.0000000000000E+00  0.8159818242402E-04
 0.1587684877863E-02 -0.6357161232273E-02  0.0000000000000E+00  0.9697837952186E-04
 0.1604572941381E-02 -0.6424997203213E-02  0.0000000000000E+00  0.1124964473053E-03
 0.1624187720166E-02 -0.6504017136612E-02  0.0000000000000E+00  0.1288514656467E-03
 0.1646694440344E-02 -0.6594865239151E-02  0.0000000000000E+00  0.1466643034600E-03
 0.1672357415988E-02 -0.6698602220635E-02  0.0000000000000E+00  0.1665283480426E-03
 0.1701536718133E-02 -0.6816693972347E-02  0.0000000000000E+00  0.1890580755484E-03
 0.1734692217182E-02 -0.6951040337554E-02  0.0000000000000E+00  0.2149539399232E-03
 0.1772394787538E-02 -0.7104052465978E-02  0.0000000000000E+00  0.2451083251474E-03
 0.1815351076595E-02 -0.7278816565037E-02  0.0000000000000E+00  0.2808172246427E-03
 0.1864389390018E-02 -0.7479442748988E-02  0.0000000000000E+00  0.3244358632359E-03
 0.1919820658292E-02 -0.7711278137073E-02  0.0000000000000E+00  0.3812339242633E-03
 0.1981029804984E-02 -0.7979370124534E-02  0.0000000000000E+00  0.4600392334131E-03
 0.2047534420080E-02 -0.8284697908812E-02  0.0000000000000E+00  0.5710677715351E-03
 0.2119341467700E-02 -0.8622728840253E-02  0.0000000000000E+00  0.7230653118464E-03
 0.2195992688332E-02 -0.8986602401639E-02  0.0000000000000E+00  0.9207684255142E-03
 0.2276361485555E-02 -0.9370808574266E-02  0.0000000000000E+00  0.1164729722350E-02
 0.2359067679823E-02 -0.9772612390008E-02  0.0000000000000E+00  0.1453804915446E-02
 0.2442678832806E-02 -0.1019160811671E-01  0.0000000000000E+00  0.1787675775344E-02
 0.2525550535533E-02 -0.1062827600963E-01  0.0000000000000E+00  0.2168260459982E-02
 0.2606393605312E-02 -0.1108235238629E-01  0.0000000000000E+00  0.2598381928186E-02
 0.2685561325870E-02 -0.1155331373169E-01  0.0000000000000E+00  0.3080063086938E-02
 0.2764351035666E-02 -0.1204515405803E-01  0.0000000000000E+00  0.3618526566578E-02
 0.2838860505312E-02 -0.1256997501365E-01  0.0000000000000E+00  0.4231082851439E-02
 0.2912039779086E-02 -0.1314766206223E-01  0.0000000000000E+00  0.4950377466243E-02
 0.2931010816213E-02 -0.1378698106005E-01  0.0000000000000E+00  0.5880249327690E-02
 0.3015391125431E-02 -0.1450840034478E-01  0.0000000000000E+00  0.6988101117598E-02
 0.2447763317918E-02 -0.1516362933724E-01  0.0000000000000E+00  0.9550416091775E-02
 0.9532971857945E-03 -0.1372715871763E-01  0.0000000000000E+00  0.9053537177738E-02
 0.1555746077457E-01 -0.1523935817850E-01  0.0000000000000E+00  0.2581737966132E-02
 0.5747455105146E-03 -0.7264855157482E-02  0.0000000000000E+00 -0.3294707375639E-02
 0.1399049735069E-02 -0.7324600314473E-02  0.0000000000000E+00 -0.2108657594482E-02
 0.1636364983853E-02 -0.6967020615287E-02  0.0000000000000E+00 -0.9880811709963E-03
 0.1611524283251E-02 -0.6655389583134E-02  0.0000000000000E+00 -0.5273915443499E-03
 0.1588320829247E-02 -0.6475599350018E-02  0.0000000000000E+00 -0.3049708856774E-03
 0.1572737835519E-02 -0.6364839377203E-02  0.0000000000000E+00 -0.1656026637352E-03
 0.1562691741643E-02 -0.6301417995951E-02  0.0000000000000E+00 -0.7632553699112E-04
 0.1558595013877E-02 -0.6270781951898E-02  0.0000000000000E+00 -0.1350782975318E-04
 0.1559029884135E-02 -0.6264170384169E-02  0.0000000000000E+00  0.3317062932143E-04
 0.1563281752334E-02 -0.6276090469745E-02  0.0000000000000E+00  0.7007884251477E-04
 0.1570754021099E-02 -0.6303073598826E-02  0.0000000000000E+00  0.1010833161360E-03
 0.1581083920180E-02 -0.6342991081233E-02  0.0000000000000E+00  0.1287936989394E-03
 0.1594065962577E-02 -0.6394648094941E-02  0.0000000000000E+00  0.1550784213022E-03
 0.1609630269086E-02 -0.6457541848123E-02  0.0000000000000E+00  0.1813736253994E-03
 0.1627818309076E-02 -0.6531712976094E-02  0.0000000000000E+00  0.2088590973576E-03
 0.1648768234861E-02 -0.6617655745610E-02  0.0000000000000E+00  0.2385733110660E-03
 0.1672704901993E-02 -0.6716268766131E-02  0.0000000000000E+00  0.2714994445485E-03
 0.1699933222435E-02 -0.6828834868153E-02  0.0000000000000E+00  0.3086463099000E-03
 0.1730833692411E-02 -0.6957034909856E-02  0.0000000000000E+00  0.3511516371455E-03
 0.1765854066436E-02 -0.7102995627317E-02  0.0000000000000E+00  0.4004446903194E-03
 0.1805482326902E-02 -0.7269384301890E-02  0.0000000000000E+00  0.4585737517822E-03
 0.1850004792647E-02 -0.7459469418327E-02  0.0000000000000E+00  0.5290110727630E-03
 0.1898791712218E-02 -0.7676591256747E-02  0.0000000000000E+00  0.6174466818101E-03
 0.1950336186117E-02 -0.7922819478429E-02  0.0000000000000E+00  0.7305164776392E-03
 0.2003836329504E-02 -0.8197730405655E-02  0.0000000000000E+00  0.8738785572348E-03
 0.2059776077677E-02 -0.8498221225691E-02  0.0000000000000E+00  0.1052267831427E-02
 0.2118607704878E-02 -0.8819614325639E-02  0.0000000000000E+00  0.1269323232123E-02
 0.2179801982947E-02 -0.9157349457603E-02  0.0000000000000E+00  0.1526840303775E-02
 0.2241903426979E-02 -0.9507946947540E-02  0.0000000000000E+00  0.1825331849097E-02
 0.2302805075015E-02 -0.9868828034968E-02  0.0000000000000E+00  0.2165167172946E-02
 0.2360051666306E-02 -0.1023741301693E-01  0.0000000000000E+00  0.2546991355958E-02
 0.2411804413148E-02 -0.1061056289467E-01  0.0000000000000E+00  0.2971116168772E-02
 0.2457663301956E-02 -0.1098539124475E-01  0.0000000000000E+00  0.3439186870214E-02
 0.2495164061918E-02 -0.1135939560462E-01  0.0000000000000E+00  0.3959584157059E-02
 0.2517478221794E-02 -0.1172799835226E-01  0.0000000000000E+00  0.4547010794367E-02
 0.2503198373854E-02 -0.1207778979601E-01  0.0000000000000E+00  0.5233063270584E-02
 0.2433119953341E-02 -0.1236510561652E-01  0.0000000000000E+00  0.6017850999222E-02
 0.2232520600884E-02 -0.1250589797314E-01  0.0000000000000E+00  0.7037876863690E-02
 0.1398978643293E-02 -0.1180676533322E-01  0.0000000000000E+00  0.7857059125480E-02
 0.2212744285861E-02 -0.1008653201909E-01  0.0000000000000E+00  0.3684521505391E-02
 0.1412154844016E-01 -0.1151077997302E-01  0.0000000000000E+00 -0.1214319715771E-02
 0.4383762480270E-03 -0.6894817514453E-02  0.0000000000000E+00 -0.3111044732969E-02
 0.1165430248991E-02 -0.7088625726921E-02  0.0000000000000E+00 -0.2346695601424E-02
 0.1512418009181E-02 -0.6947536494113E-02  0.0000000000000E+00 -0.1346659510508E-02
 0.1574931288548E-02 -0.6712876587402E-02  0.0000000000000E+00 -0.7533280338083E-03
 0.1575846481603E-02 -0.6543497228368E-02  0.0000000000000E+00 -0.4421604327371E-03
 0.1570942971656E-02 -0.6434220543556E-02  0.0000000000000E+00 -0.2505845384979E-03
 0.1566237164385E-02 -0.6366937145468E-02  0.0000000000000E+00 -0.1232251174303E-03
 0.1564284410268E-02 -0.6331032993847E-02  0.0000000000000E+00 -0.3352062873607E-04
 0.1565494763230E-02 -0.6318785506302E-02  0.0000000000000E+00  0.3362748743842E-04
 0.1569674862384E-02 -0.6325139866722E-02  0.0000000000000E+00  0.8676362687469E-04
 0.1576589518333E-02 -0.6346756993925E-02  0.0000000000000E+00  0.1313476460168E-03
 0.1586032140897E-02 -0.6381509471531E-02  0.0000000000000E+00  0.1710381045612E-03
 0.1597881479019E-02 -0.6428142783515E-02  0.0000000000000E+00  0.2084712434593E-03
 0.1612101636889E-02 -0.6486061333005E-02  0.0000000000000E+00  0.2456677804489E-03
 0.1628739089140E-02 -0.6555190621456E-02  0.0000000000000E+00  0.2842810138419E-03
 0.1647915057197E-02 -0.6635889472502E-02  0.0000000000000E+00  0.3257561016385E-03
 0.1669817654990E-02 -0.6728897257565E-02  0.0000000000000E+00  0.3714491822921E-03
 0.1694691698917E-02 -0.6835304587969E-02  0.0000000000000E+00  0.4227364402565E-03
 0.1722823286095E-02 -0.6956548245970E-02  0.0000000000000E+00  0.4811469641030E-03
 0.1754507284299E-02 -0.7094420740975E-02  0.0000000000000E+00  0.5485623139182E-03
 0.1789944759400E-02 -0.7251064952695E-02  0.0000000000000E+00  0.6275897765238E-03
 0.1828891872489E-02 -0.7428773719498E-02  0.0000000000000E+00  0.7221323806728E-03
 0.1870129496234E-02 -0.7629286975852E-02  0.0000000000000E+00  0.8373038837905E-03
 0.1911840373955E-02 -0.7852964134615E-02  0.0000000000000E+00  0.9777530276890E-03
 0.1953157584850E-02 -0.8098620318845E-02  0.0000000000000E+00  0.1146418846529E-02
 0.1994687653707E-02 -0.8363744216776E-02  0.0000000000000E+00  0.1345557898611E-02
 0.2037229335237E-02 -0.8644765088676E-02  0.0000000000000E+00  0.1577548165486E-02
 0.2080567092127E-02 -0.8937610375987E-02  0.0000000000000E+00  0.1844227680586E-02
 0.2123239326703E-02 -0.9238165072972E-02  0.0000000000000E+00  0.2146475474822E-02
 0.2162820108678E-02 -0.9542174805883E-02  0.0000000000000E+00  0.2484293685485E-02
 0.2196476412684E-02 -0.9844777743090E-02  0.0000000000000E+00  0.2856707002816E-02
 0.2221922047397E-02 -0.1014033820590E-01  0.0000000000000E+00  0.3261897078190E-02
 0.2237249383128E-02 -0.1042242226683E-01  0.0000000000000E+00  0.3699773157541E-02
 0.2237884797826E-02 -0.1068140512578E-01  0.0000000000000E+00  0.4174344023686E-02
 0.2211623298131E-02 -0.1089887833849E-01  0.0000000000000E+00  0.4692120592973E-02
 0.2137094610165E-02 -0.1103633469691E-01  0.0000000000000E+00  0.5246343432917E-02
 0.1986856638606E-02 -0.1102230224290E-01  0.0000000000000E+00  0.5803538233628E-02
 0.1656991070899E-02 -0.1064891196427E-01  0.0000000000000E+00  0.6231147593454E-02
 0.1262387310013E-02 -0.9474469519898E-02  0.0000000000000E+00  0.5226732871669E-02
 0.3576733512395E-02 -0.8394585762509E-02  0.0000000000000E+00  0.1144123554239E-03
 0.1323446395002E-01 -0.9932008124857E-02  0.0000000000000E+00 -0.2481629942912E-02
 0.3512270102394E-03 -0.6649943706890E-02  0.0000000000000E+00 -0.2923808133843E-02
 0.9870486185338E-03 -0.6885493670994E-02  0.0000000000000E+00 -0.2411104327565E-02
 0.1378006664828E-02 -0.6876586187617E-02  0.0000000000000E+00 -0.1579302926689E-02
 0.1513178095317E-02 -0.6729764399739E-02  0.0000000000000E+00 -0.9531203933969E-03
 0.1548938492403E-02 -0.6588563937936E-02  0.0000000000000E+00 -0.5748681599994E-03
 0.1559164166408E-02 -0.6487380710280E-02  0.0000000000000E+00 -0.3362774969782E-03
 0.1562471912043E-02 -0.6421113805390E-02  0.0000000000000E+00 -0.1742183990744E-03
 0.1564583235665E-02 -0.6382818648208E-02  0.0000000000000E+00 -0.5831655878323E-04
 0.1567722133050E-02 -0.6366799347058E-02  0.0000000000000E+00  0.2904970415869E-04
 0.1572601671576E-02 -0.6368777942506E-02  0.0000000000000E+00  0.9848853107104E-04
 0.1579434940680E-02 -0.6385773643042E-02  0.0000000000000E+00  0.1567865452632E-03
 0.1588267139668E-02 -0.6415790439326E-02  0.0000000000000E+00  0.2085807305802E-03
 0.1599108288438E-02 -0.6457593967047E-02  0.0000000000000E+00  0.2572249422243E-03
 0.1611989063115E-02 -0.6510544792226E-02  0.0000000000000E+00  0.3052975793185E-03
 0.1626980179619E-02 -0.6574482758446E-02  0.0000000000000E+00  0.3549038151752E-03
 0.1644197017424E-02 -0.6649647211103E-02  0.0000000000000E+00  0.4078741213764E-03
 0.1663795276770E-02 -0.6736623442357E-02  0.0000000000000E+00  0.4659110861957E-03
 0.1685957716372E-02 -0.6836304528170E-02  0.0000000000000E+00  0.5307201750083E-03
 0.1710867483652E-02 -0.6949865673265E-02  0.0000000000000E+00  0.6041603084926E-03
 0.1738647908403E-02 -0.7078730323815E-02  0.0000000000000E+00  0.6884555237516E-03
 0.1769203761217E-02 -0.7224464926700E-02  0.0000000000000E+00  0.7865122712049E-03
 0.1801871460344E-02 -0.7388444425245E-02  0.0000000000000E+00  0.9021586934360E-03
 0.1835117167897E-02 -0.7571227742494E-02  0.0000000000000E+00  0.1039576430067E-02
 0.1867085213024E-02 -0.7772136040937E-02  0.0000000000000E+00  0.1201780425321E-02
 0.1896939283188E-02 -0.7989513379062E-02  0.0000000000000E+00  0.1389934458893E-02
 0.1925264145663E-02 -0.8221042132434E-02  0.0000000000000E+00  0.1604620413346E-02
 0.1952928065527E-02 -0.8463637300748E-02  0.0000000000000E+00  0.1846953667758E-02
 0.1979859734212E-02 -0.8713392416314E-02  0.0000000000000E+00  0.2118094593079E-02
 0.2004656822110E-02 -0.8965648362739E-02  0.0000000000000E+00  0.2418371134126E-02
 0.2024838772700E-02 -0.9214895355351E-02  0.0000000000000E+00  0.2746689248868E-02
 0.2037486401242E-02 -0.9454535552090E-02  0.0000000000000E+00  0.3100145316841E-02
 0.2039931716148E-02 -0.9676681725449E-02  0.0000000000000E+00  0.3474427457865E-02
 0.2029268381333E-02 -0.9871317443440E-02  0.0000000000000E+00  0.3865462742827E-02
 0.1999426126475E-02 -0.1002276890945E-01  0.0000000000000E+00  0.4269468955068E-02
 0.1937831024763E-02 -0.1010240617067E-01  0.0000000000000E+00  0.4674591719804E-02
 0.1827242219007E-02 -0.1005976365991E-01  0.0000000000000E+00  0.5039821988299E-02
 0.1644470661505E-02 -0.9801672070955E-02  0.0000000000000E+00  0.5258189375992E-02
 0.1393290251122E-02 -0.9138069672496E-02  0.0000000000000E+00  0.4927324652567E-02
 0.1622548758454E-02 -0.8019166665270E-02  0.0000000000000E+00  0.2760336572748E-02
 0.4697156486424E-02 -0.7597599897070E-02  0.0000000000000E+00 -0.1971742741053E-02
 0.1256986616573E-01 -0.9084415498281E-02  0.0000000000000E+00 -0.2950261913710E-02
 0.2926724360195E-03 -0.6477934099463E-02  0.0000000000000E+00 -0.2748142630913E-02
 0.8512346217424E-03 -0.6720493669498E-02  0.0000000000000E+00 -0.2389930322669E-02
 0.1251259295088E-02 -0.6788562786372E-02  0.0000000000000E+00 -0.1713249178968E-02
 0.1437810640025E-02 -0.6716855030051E-02  0.0000000000000E+00 -0.1109994755969E-02
 0.1509608279040E-02 -0.6612578588806E-02  0.0000000000000E+00 -0.6950324138468E-03
 0.1538452709005E-02 -0.6525638477102E-02  0.0000000000000E+00 -0.4185536530408E-03
 0.1551877382401E-02 -0.6464234789586E-02  0.0000000000000E+00 -0.2261470610511E-03
 0.1559627122142E-02 -0.6426228609608E-02  0.0000000000000E+00 -0.8604171156851E-04
 0.1565769409271E-02 -0.6408185323964E-02  0.0000000000000E+00  0.2070024909022E-04
 0.1572064577968E-02 -0.6406949887737E-02  0.0000000000000E+00  0.1060560683383E-03
 0.1579283921308E-02 -0.6420070303573E-02  0.0000000000000E+00  0.1778991759454E-03
 0.1587786068643E-02 -0.6445799154509E-02  0.0000000000000E+00  0.2416929860934E-03
 0.1597757606369E-02 -0.6482994502224E-02  0.0000000000000E+00  0.3014350339223E-03
 0.1609323946245E-02 -0.6531019485944E-02  0.0000000000000E+00  0.3602133129739E-03
 0.1622598732786E-02 -0.6589657280839E-02  0.0000000000000E+00  0.4205505982918E-03
 0.1637702888285E-02 -0.6659044657549E-02  0.0000000000000E+00  0.4846314565688E-03
 0.1654765705705E-02 -0.6739620343340E-02  0.0000000000000E+00  0.5544698856837E-03
 0.1673909576902E-02 -0.6832079178040E-02  0.0000000000000E+00  0.6320534483069E-03
 0.1695212958501E-02 -0.6937326237921E-02  0.0000000000000E+00  0.7194989119537E-03
 0.1718627223043E-02 -0.7056400926677E-02  0.0000000000000E+00  0.8192448772502E-03
 0.1743795474223E-02 -0.7190301336469E-02  0.0000000000000E+00  0.9342553473032E-03
 0.1769764208274E-02 -0.7339618466639E-02  0.0000000000000E+00  0.1067979779579E-02
 0.1794873096215E-02 -0.7504059667254E-02  0.0000000000000E+00  0.1223594369184E-02
 0.1817355666246E-02 -0.7682285182412E-02  0.0000000000000E+00  0.1402790121451E-02
 0.1836443703337E-02 -0.7872313628415E-02  0.0000000000000E+00  0.1605462954374E-02
 0.1852653465896E-02 -0.8071824892970E-02  0.0000000000000E+00  0.1830938230843E-02
 0.1866808216735E-02 -0.8277880818556E-02  0.0000000000000E+00  0.2079090219291E-02
 0.1878908116279E-02 -0.8486554334437E-02  0.0000000000000E+00  0.2349973733348E-02
 0.1887680013077E-02 -0.8692740803534E-02  0.0000000000000E+00  0.2642756350399E-02
 0.1890793159098E-02 -0.8890021098816E-02  0.0000000000000E+00  0.2954743681608E-02
 0.1885461515203E-02 -0.9070492801302E-02  0.0000000000000E+00  0.3280774804889E-02
 0.1868944380291E-02 -0.9224400796324E-02  0.0000000000000E+00  0.3613328215547E-02
 0.1838005055880E-02 -0.9338845714992E-02  0.0000000000000E+00  0.3942863290077E-02
 0.1786823742710E-02 -0.9393875881249E-02  0.0000000000000E+00  0.4254879382152E-02
 0.1706104968140E-02 -0.9355973313490E-02  0.0000000000000E+00  0.4517295242132E-02
 0.1587342773791E-02 -0.9171022288055E-02  0.0000000000000E+00  0.4654414054684E-02
 0.1438252971561E-02 -0.8751752250175E-02  0.0000000000000E+00  0.4479480099106E-02
 0.1395811627346E-02 -0.8005629620818E-02  0.0000000000000E+00  0.3487921588564E-02
 0.2183444060190E-02 -0.7150254000406E-02  0.0000000000000E+00  0.7935801483210E-03
 0.5541173163587E-02 -0.7196327024278E-02  0.0000000000000E+00 -0.3135876107675E-02
 0.1203334608426E-01 -0.8553288561004E-02  0.0000000000000E+00 -0.3147237721599E-02
 0.2514724985280E-03 -0.6351829252025E-02  0.0000000000000E+00 -0.2586317558895E-02
 0.7467221858592E-03 -0.6588046817133E-02  0.0000000000000E+00 -0.2326170230586E-02
 0.1138354455112E-02 -0.6699666570802E-02  0.0000000000000E+00 -0.1777416019006E-02
 0.1357709298947E-02 -0.6685689004176E-02  0.0000000000000E+00 -0.1222440984972E-02
 0.1461378448483E-02 -0.6619107932348E-02  0.0000000000000E+00 -0.7965150337472E-03
 0.1510118491008E-02 -0.6550492645678E-02  0.0000000000000E+00 -0.4938861920557E-03
 0.1535149119586E-02 -0.6497009623387E-02  0.0000000000000E+00 -0.2764634145422E-03
 0.1549733071048E-02 -0.6461540020912E-02  0.0000000000000E+00 -0.1149434190267E-03
 0.1559789360678E-02 -0.6443058957186E-02  0.0000000000000E+00  0.9747528389920E-05
 0.1568142134468E-02 -0.6439694843958E-02  0.0000000000000E+00  0.1102490212766E-03
 0.1576182101240E-02 -0.6449662632118E-02  0.0000000000000E+00  0.1951818296768E-03
 0.1584626870714E-02 -0.6471553257392E-02  0.0000000000000E+00  0.2706588943317E-03
 0.1593873289814E-02 -0.6504379710903E-02  0.0000000000000E+00  0.3412181144752E-03
 0.1604165711980E-02 -0.6547549141832E-02  0.0000000000000E+00  0.4103936014756E-03
 0.1615677398941E-02 -0.6600815458539E-02  0.0000000000000E+00  0.4810797624196E-03
 0.1628546228180E-02 -0.6664230154579E-02  0.0000000000000E+00  0.5557756515821E-03
 0.1642882685897E-02 -0.6738095206233E-02  0.0000000000000E+00  0.6367645784473E-03
 0.1658754202900E-02 -0.6822911462270E-02  0.0000000000000E+00  0.7262627488725E-03
 0.1676140487691E-02 -0.6919314951472E-02  0.0000000000000E+00  0.8265666560667E-03
 0.1694837855459E-02 -0.7027967992284E-02  0.0000000000000E+00  0.9402023967462E-03
 0.1714284636553E-02 -0.7149348629193E-02  0.0000000000000E+00  0.1070003892831E-02
 0.1733354868028E-02 -0.7283411810967E-02  0.0000000000000E+00  0.1218883781830E-02
 0.1750384878090E-02 -0.7429255314401E-02  0.0000000000000E+00  0.1389053254551E-02
 0.1763757631438E-02 -0.7585102969782E-02  0.0000000000000E+00  0.1581114123693E-02
 0.1772792399122E-02 -0.7748732713532E-02  0.0000000000000E+00  0.1793972719100E-02
 0.1777940357829E-02 -0.7917733045080E-02  0.0000000000000E+00  0.2025912672183E-02
 0.1779957102763E-02 -0.8089144939798E-02  0.0000000000000E+00  0.2275584234108E-02
 0.1778909105390E-02 -0.8258940246929E-02  0.0000000000000E+00  0.2541690701030E-02
 0.1773731500142E-02 -0.8421682095053E-02  0.0000000000000E+00  0.2821859189747E-02
 0.1762410213117E-02 -0.8570339620883E-02  0.0000000000000E+00  0.3111456559478E-02
 0.1742525489650E-02 -0.8696108382224E-02  0.0000000000000E+00  0.3402739245350E-02
 0.1711675100315E-02 -0.8787922360223E-02  0.0000000000000E+00  0.3684407243232E-02
 0.1667183532603E-02 -0.8831041158404E-02  0.0000000000000E+00  0.3940489058748E-02
 0.1605301656235E-02 -0.8803594905839E-02  0.0000000000000E+00  0.4144946360921E-02
 0.1522759269568E-02 -0.8671808009175E-02  0.0000000000000E+00  0.4246679865986E-02
 0.1425970182293E-02 -0.8386853067798E-02  0.0000000000000E+00  0.4138626055582E-02
 0.1366666984117E-02 -0.7891334416258E-02  0.0000000000000E+00  0.3587272771292E-02
 0.1579482735624E-02 -0.7197165309351E-02  0.0000000000000E+00  0.2131158799460E-02
 0.2785455745476E-02 -0.6640293093428E-02  0.0000000000000E+00 -0.6664591428266E-03
 0.6156334371324E-02 -0.6975714138065E-02  0.0000000000000E+00 -0.3765202777204E-02
 0.1158902429641E-01 -0.8185056401659E-02  0.0000000000000E+00 -0.3245594034874E-02
 0.2212777908377E-03 -0.6256330081243E-02  0.0000000000000E+00 -0.2437376616995E-02
 0.6650377045249E-03 -0.6481436945818E-02  0.0000000000000E+00 -0.2241574412236E-02
 0.1040254688819E-02 -0.6616717983732E-02  0.0000000000000E+00 -0.1794126440171E-02
 0.1278442477702E-02 -0.6644857447278E-02  0.0000000000000E+00 -0.1295654114338E-02
 0.1407824613687E-02 -0.6612420858280E-02  0.0000000000000E+00 -0.8767423271976E-03
 0.1475774813596E-02 -0.6563775084987E-02  0.0000000000000E+00 -0.5595768221927E-03
 0.1513115153230E-02 -0.6520366561211E-02  0.0000000000000E+00 -0.3231499027095E-03
 0.1535347997007E-02 -0.6489212929117E-02  0.0000000000000E+00 -0.1435123027592E-03
 0.1550024073929E-02 -0.6471652369120E-02  0.0000000000000E+00 -0.2745275943031E-05
 0.1560976953899E-02 -0.6467138554626E-02  0.0000000000000E+00  0.1117985632623E-03
 0.1570223777659E-02 -0.6474629673968E-02  0.0000000000000E+00  0.2091152587035E-03
 0.1578864991074E-02 -0.6493119666117E-02  0.0000000000000E+00  0.2957651124275E-03
 0.1587529827413E-02 -0.6521824921776E-02  0.0000000000000E+00  0.3767062253559E-03
 0.1596599941319E-02 -0.6560231786551E-02  0.0000000000000E+00  0.4558420733717E-03
 0.1606322438579E-02 -0.6608089667879E-02  0.0000000000000E+00  0.5363836616602E-03
 0.1616863128905E-02 -0.6665381981050E-02  0.0000000000000E+00  0.6210980626241E-03
 0.1628322696028E-02 -0.6732285861648E-02  0.0000000000000E+00  0.7124906545423E-03
 0.1640722592184E-02 -0.6809117266265E-02  0.0000000000000E+00  0.8129492733180E-03
 0.1653957063095E-02 -0.6896253910803E-02  0.0000000000000E+00  0.9248717407246E-03
 0.1667696468083E-02 -0.6994006185777E-02  0.0000000000000E+00  0.1050759653671E-02
 0.1681237934799E-02 -0.7102400442804E-02  0.0000000000000E+00  0.1193186601119E-02
 0.1693379297537E-02 -0.7220892024332E-02  0.0000000000000E+00  0.1354461448897E-02
 0.1702533287769E-02 -0.7348144929664E-02  0.0000000000000E+00  0.1535908771186E-02
 0.1707262221488E-02 -0.7482089566895E-02  0.0000000000000E+00  0.1737209923322E-02
 0.1706989875288E-02 -0.7620323481592E-02  0.0000000000000E+00  0.1956436049662E-02
 0.1702133163558E-02 -0.7760317544759E-02  0.0000000000000E+00  0.2190938720214E-02
 0.1693408529237E-02 -0.7899028864650E-02  0.0000000000000E+00  0.2438159578036E-02
 0.1680986755827E-02 -0.8032322981672E-02  0.0000000000000E+00  0.2695323055970E-02
 0.1664098090084E-02 -0.8154559420215E-02  0.0000000000000E+00  0.2958302870456E-02
 0.1641199070623E-02 -0.8258368745925E-02  0.0000000000000E+00  0.3220318093921E-02
 0.1610483621628E-02 -0.8334456060215E-02  0.0000000000000E+00  0.3470821839605E-02
 0.1570355039555E-02 -0.8371100530624E-02  0.0000000000000E+00  0.3694426001633E-02
 0.1519622405677E-02 -0.8352945459041E-02  0.0000000000000E+00  0.3868518319385E-02
 0.1458114850522E-02 -0.8258516226171E-02  0.0000000000000E+00  0.3956339125620E-02
 0.1390834411859E-02 -0.8057772258410E-02  0.0000000000000E+00  0.3890969416038E-02
 0.1343066096811E-02 -0.7714911906237E-02  0.0000000000000E+00  0.3544717251735E-02
 0.1407842986302E-02 -0.7211799367131E-02  0.0000000000000E+00  0.2680140095966E-02
 0.1868404013453E-02 -0.6637120620941E-02  0.0000000000000E+00  0.9538622639352E-03
 0.3354240107436E-02 -0.6343658871529E-02  0.0000000000000E+00 -0.1710331807148E-02
 0.6600054660904E-02 -0.6842462923349E-02  0.0000000000000E+00 -0.4090146183108E-02
 0.1121565495088E-01 -0.7913814910542E-02  0.0000000000000E+00 -0.3302190743124E-02
 0.1983515597085E-03 -0.6182132860385E-02  0.0000000000000E+00 -0.2299700801629E-02
 0.6000983920915E-03 -0.6394927174118E-02  0.0000000000000E+00 -0.2147471085871E-02
 0.9558547059848E-03 -0.6542064193761E-02  0.0000000000000E+00 -0.1779141834143E-02
 0.1203081384372E-02 -0.6599973347193E-02  0.0000000000000E+00 -0.1336724222912E-02
 0.1351891243649E-02 -0.6596460959107E-02  0.0000000000000E+00 -0.9358871748051E-03
 0.1437108815518E-02 -0.6567515042813E-02  0.0000000000000E+00 -0.6140504752001E-03
 0.1486694607081E-02 -0.6535376270033E-02  0.0000000000000E+00 -0.3646967596024E-03
 0.1517002021250E-02 -0.6509837277855E-02  0.0000000000000E+00 -0.1705221671134E-03
 0.1536787259770E-02 -0.6494297066504E-02  0.0000000000000E+00 -0.1585214319229E-04
 0.1550766035421E-02 -0.6489480852962E-02  0.0000000000000E+00  0.1113679485733E-03
 0.1561545865096E-02 -0.6495107623589E-02  0.0000000000000E+00  0.2201512908769E-03
 0.1570609841542E-02 -0.6510610304694E-02  0.0000000000000E+00  0.3172930100923E-03
 0.1578829664024E-02 -0.6535442415303E-02  0.0000000000000E+00  0.4080414948325E-03
 0.1586736164739E-02 -0.6569197103756E-02  0.0000000000000E+00  0.4965842143975E-03
 0.1594661510484E-02 -0.6611640733012E-02  0.0000000000000E+00  0.5863870337819E-03
 0.1602809652493E-02 -0.6662705256580E-02  0.0000000000000E+00  0.6804336744179E-03
 0.1611281562342E-02 -0.6722456638875E-02  0.0000000000000E+00  0.7814011601869E-03
 0.1620064851979E-02 -0.6791039501211E-02  0.0000000000000E+00  0.8917911859309E-03
 0.1628987402871E-02 -0.6868592398554E-02  0.0000000000000E+00  0.1014029585525E-02
 0.1637629347313E-02 -0.6955111206562E-02  0.0000000000000E+00  0.1150502902439E-02
 0.1645208071566E-02 -0.7050245276755E-02  0.0000000000000E+00  0.1303442156273E-02
 0.1650520737197E-02 -0.7153067810738E-02  0.0000000000000E+00  0.1474538260680E-02
 0.1652108925296E-02 -0.7261938547332E-02  0.0000000000000E+00  0.1664313402003E-02
 0.1648731822350E-02 -0.7374593275999E-02  0.0000000000000E+00  0.1871648228135E-02
 0.1639937823359E-02 -0.7488500963947E-02  0.0000000000000E+00  0.2093866622791E-02
 0.1626155356643E-02 -0.7601027118604E-02  0.0000000000000E+00  0.2327446980075E-02
 0.1608117530815E-02 -0.7709046162750E-02  0.0000000000000E+00  0.2568643924181E-02
 0.1586162247106E-02 -0.7808362046933E-02  0.0000000000000E+00  0.2813158146734E-02
 0.1559907464943E-02 -0.7893271886488E-02  0.0000000000000E+00  0.3055019652134E-02
 0.1528428444995E-02 -0.7956330387400E-02  0.0000000000000E+00  0.3285211558185E-02
 0.1490782619278E-02 -0.7988169115190E-02  0.0000000000000E+00  0.3490314863400E-02
 0.1446641224952E-02 -0.7977104575234E-02  0.0000000000000E+00  0.3650871921371E-02
 0.1397094206630E-02 -0.7908372535590E-02  0.0000000000000E+00  0.3738137552923E-02
 0.1346659652609E-02 -0.7762886319391E-02  0.0000000000000E+00  0.3706547655548E-02
 0.1309970748282E-02 -0.7517485112781E-02  0.0000000000000E+00  0.3478453511617E-02
 0.1331302535804E-02 -0.7153652137440E-02  0.0000000000000E+00  0.2920001883856E-02
 0.1533448283354E-02 -0.6689776221622E-02  0.0000000000000E+00  0.1823074195107E-02
 0.2207610709156E-02 -0.6257464977302E-02  0.0000000000000E+00 -0.1897227978709E-04
 0.3861287214362E-02 -0.6173208419146E-02  0.0000000000000E+00 -0.2438940956551E-02
 0.6920065651500E-02 -0.6755224609988E-02  0.0000000000000E+00 -0.4241230862655E-02
 0.1089836099876E-01 -0.7707042921815E-02  0.0000000000000E+00 -0.3335834162580E-02
 0.1804053057818E-03 -0.6123271810462E-02  0.0000000000000E+00 -0.2171716711971E-02
 0.5475854728191E-03 -0.6324021722630E-02  0.0000000000000E+00 -0.2049880817382E-02
 0.8833882880479E-03 -0.6476010067635E-02  0.0000000000000E+00 -0.1743241293075E-02
 0.1133079278076E-02 -0.6554444256796E-02  0.0000000000000E+00 -0.1352517594475E-02
 0.1295740399634E-02 -0.6574429555338E-02  0.0000000000000E+00 -0.9757075809578E-03
 0.1395675559647E-02 -0.6563708901385E-02  0.0000000000000E+00 -0.6567881318842E-03
 0.1456833201697E-02 -0.6543184229336E-02  0.0000000000000E+00 -0.4001129763515E-03
 0.1495273323986E-02 -0.6524086568042E-02  0.0000000000000E+00 -0.1950335357014E-03
 0.1520443148632E-02 -0.6511400816383E-02  0.0000000000000E+00 -0.2880317561789E-04
 0.1537750109845E-02 -0.6506983220640E-02  0.0000000000000E+00  0.1095395766505E-03
 0.1550321288261E-02 -0.6511282146230E-02  0.0000000000000E+00  0.2287032237136E-03
 0.1560000587128E-02 -0.6524177248402E-02  0.0000000000000E+00  0.3355118080420E-03
 0.1567900172742E-02 -0.6545377843177E-02  0.0000000000000E+00  0.4353715573590E-03
 0.1574705338630E-02 -0.6574603429507E-02  0.0000000000000E+00  0.5326643870548E-03
 0.1580841220292E-02 -0.6611654964098E-02  0.0000000000000E+00  0.6310452908364E-03
 0.1586559051462E-02 -0.6656428568872E-02  0.0000000000000E+00  0.7336603753240E-03
 0.1591970889410E-02 -0.6708894028677E-02  0.0000000000000E+00  0.8433066842110E-03
 0.1597045072396E-02 -0.6769041919846E-02  0.0000000000000E+00  0.9625438365458E-03
 0.1601565998900E-02 -0.6836797131142E-02  0.0000000000000E+00  0.1093761015836E-02
 0.1605061496237E-02 -0.6911885118640E-02  0.0000000000000E+00  0.1239161332806E-02
 0.1606724499608E-02 -0.6993651485735E-02  0.0000000000000E+00  0.1400587049526E-02
 0.1605409811790E-02 -0.7080885733445E-02  0.0000000000000E+00  0.1579125637222E-02
 0.1599823753401E-02 -0.7171741507432E-02  0.0000000000000E+00  0.1774575038288E-02
 0.1588935930692E-02 -0.7263834528409E-02  0.0000000000000E+00  0.1985101715988E-02
 0.1572443596817E-02 -0.7354555152633E-02  0.0000000000000E+00  0.2207336450119E-02
 0.1550839901370E-02 -0.7441199697683E-02  0.0000000000000E+00  0.2436922941486E-02
 0.1524943230819E-02 -0.7520599776954E-02  0.0000000000000E+00  0.2668963054284E-02
 0.1495333499605E-02 -0.7588573437265E-02  0.0000000000000E+00  0.2897649689743E-02
 0.1462110681977E-02 -0.7639504493980E-02  0.0000000000000E+00  0.3115173700078E-02
 0.1425108996722E-02 -0.7666125577285E-02  0.0000000000000E+00  0.3310308478983E-02
 0.1384482865869E-02 -0.7659400677467E-02  0.0000000000000E+00  0.3466864145619E-02
 0.1341570967942E-02 -0.7608344769575E-02  0.0000000000000E+00  0.3561658503710E-02
 0.1300332941354E-02 -0.7499840116566E-02  0.0000000000000E+00  0.3560871394481E-02
 0.1270616747684E-02 -0.7318723011232E-02  0.0000000000000E+00  0.3412796275890E-02
 0.1276840205863E-02 -0.7050633666849E-02  0.0000000000000E+00  0.3035217804732E-02
 0.1379243989139E-02 -0.6694848848324E-02  0.0000000000000E+00  0.2301634312786E-02
 0.1716614435377E-02 -0.6297424313256E-02  0.0000000000000E+00  0.1051657220160E-02
 0.2561423211202E-02 -0.6005275770454E-02  0.0000000000000E+00 -0.7976377836424E-03
 0.4300509872301E-02 -0.6078060663913E-02  0.0000000000000E+00 -0.2936847917573E-02
 0.7151905760215E-02 -0.6695002668046E-02  0.0000000000000E+00 -0.4291394695080E-02
 0.1062607309366E-01 -0.7546576923637E-02  0.0000000000000E+00 -0.3352941302549E-02
 0.1659846744892E-03 -0.6075756402704E-02  0.0000000000000E+00 -0.2052069330060E-02
 0.5044238906380E-03 -0.6265291123996E-02  0.0000000000000E+00 -0.1952033021430E-02
 0.8210277225302E-03 -0.6417990308825E-02  0.0000000000000E+00 -0.1693716957535E-02
 0.1068922456689E-02 -0.6510211409386E-02  0.0000000000000E+00 -0.1348924999906E-02
 0.1240835036871E-02 -0.6548740550811E-02  0.0000000000000E+00 -0.9986671649344E-03
 0.1352788689916E-02 -0.6554155700598E-02  0.0000000000000E+00 -0.6880710537756E-03
 0.1424438023729E-02 -0.6544936482444E-02  0.0000000000000E+00 -0.4288929377350E-03
 0.1470756407189E-02 -0.6532678666583E-02  0.0000000000000E+00 -0.2163853443611E-03
 0.1501386856823E-02 -0.6523424011130E-02  0.0000000000000E+00 -0.4098951609942E-04
 0.1522202255990E-02 -0.6519955588762E-02  0.0000000000000E+00  0.1068069572935E-03
 0.1536752079214E-02 -0.6523380226546E-02  0.0000000000000E+00  0.2351391698434E-03
 0.1547201561213E-02 -0.6534007340987E-02  0.0000000000000E+00  0.3506732984627E-03
 0.1554890339752E-02 -0.6551806294753E-02  0.0000000000000E+00  0.4588456921877E-03
 0.1560657104446E-02 -0.6576634460771E-02  0.0000000000000E+00  0.5641431143904E-03
 0.1565024496444E-02 -0.6608340973432E-02  0.0000000000000E+00  0.6703426765022E-03
 0.1568298867869E-02 -0.6646800427471E-02  0.0000000000000E+00  0.7806977066463E-03
 0.1570614439739E-02 -0.6691902243546E-02  0.0000000000000E+00  0.8980742925107E-03
 0.1571936370020E-02 -0.6743503003333E-02  0.0000000000000E+00  0.1025037955850E-02
 0.1572030266279E-02 -0.6801343482793E-02  0.0000000000000E+00  0.1163886924090E-02
 0.1570408770100E-02 -0.6864925237432E-02  0.0000000000000E+00  0.1316592461155E-02
 0.1566288171947E-02 -0.6933358144733E-02  0.0000000000000E+00  0.1484587370117E-02
 0.1558625920988E-02 -0.7005229972994E-02  0.0000000000000E+00  0.1668384797433E-02
 0.1546319158687E-02 -0.7078565385600E-02  0.0000000000000E+00  0.1867127580583E-02
 0.1528561104197E-02 -0.7150920996426E-02  0.0000000000000E+00  0.2078333677330E-02
 0.1505225427913E-02 -0.7219658868889E-02  0.0000000000000E+00  0.2297980185557E-02
 0.1476925688950E-02 -0.7282056624084E-02  0.0000000000000E+00  0.2520911061519E-02
 0.1444637933733E-02 -0.7334965064271E-02  0.0000000000000E+00  0.2741126140327E-02
 0.1409262151955E-02 -0.7374309096367E-02  0.0000000000000E+00  0.2951373967378E-02
 0.1371471036649E-02 -0.7394709946035E-02  0.0000000000000E+00  0.3142087151174E-02
 0.1331983631999E-02 -0.7389317665286E-02  0.0000000000000E+00  0.3299960457067E-02
 0.1292248217748E-02 -0.7349802301137E-02  0.0000000000000E+00  0.3406297523289E-02
 0.1255568116251E-02 -0.7266452113306E-02  0.0000000000000E+00  0.3434805966848E-02
 0.1229117323886E-02 -0.7128616689078E-02  0.0000000000000E+00  0.3348013678801E-02
 0.1228200184496E-02 -0.6926041820581E-02  0.0000000000000E+00  0.3091111566958E-02
 0.1286042575131E-02 -0.6653760943671E-02  0.0000000000000E+00  0.2583379859466E-02
 0.1474162487642E-02 -0.6326649039350E-02  0.0000000000000E+00  0.1715540104870E-02
 0.1935167400594E-02 -0.6008169124998E-02  0.0000000000000E+00  0.3806247310935E-03
 0.2908502548124E-02 -0.5842040858495E-02  0.0000000000000E+00 -0.1406449596515E-02
 0.4675761558079E-02 -0.6028652596792E-02  0.0000000000000E+00 -0.3268110771135E-02
 0.7320947214483E-02 -0.6652590781597E-02  0.0000000000000E+00 -0.4281499495545E-02
 0.1039040147886E-01 -0.7421145317158E-02  0.0000000000000E+00 -0.3356034429282E-02
 0.1541337723305E-03 -0.6036823647994E-02  0.0000000000000E+00 -0.1939635663856E-02
 0.4684046722858E-03 -0.6216135186946E-02  0.0000000000000E+00 -0.1855650150403E-02
 0.7671159193809E-03 -0.6367126323840E-02  0.0000000000000E+00 -0.1635492577638E-02
 0.1010556530270E-02 -0.6468292181211E-02  0.0000000000000E+00 -0.1330719073697E-02
 0.1188091585221E-02 -0.6521128760677E-02  0.0000000000000E+00 -0.1007392333140E-02
 0.1309490270112E-02 -0.6540381615871E-02  0.0000000000000E+00 -0.7086986582525E-03
 0.1390330399216E-02 -0.6541717272987E-02  0.0000000000000E+00 -0.4509376979212E-03
 0.1444033871128E-02 -0.6536340980718E-02  0.0000000000000E+00 -0.2341735471148E-03
 0.1480026941165E-02 -0.6530858090114E-02  0.0000000000000E+00 -0.5195889608355E-04
 0.1504416861050E-02 -0.6528743120940E-02  0.0000000000000E+00  0.1035722044412E-03
 0.1521062386978E-02 -0.6531661852671E-02  0.0000000000000E+00  0.2397781553686E-03
 0.1532397533126E-02 -0.6540316557264E-02  0.0000000000000E+00  0.3630081600802E-03
 0.1539967276904E-02 -0.6554928128197E-02  0.0000000000000E+00  0.4786117529546E-03
 0.1544756908565E-02 -0.6575495777846E-02  0.0000000000000E+00  0.5910946611829E-03
 0.1547387866374E-02 -0.6601926352711E-02  0.0000000000000E+00  0.7042903382685E-03
 0.1548227992840E-02 -0.6634085643692E-02  0.0000000000000E+00  0.8215051465766E-03
 0.1547444591093E-02 -0.6671798818913E-02  0.0000000000000E+00  0.9456255103831E-03
 0.1545016339920E-02 -0.6714810208612E-02  0.0000000000000E+00  0.1079176174182E-02
 0.1540714932047E-02 -0.6762708018654E-02  0.0000000000000E+00  0.1224320758384E-02
 0.1534072358492E-02 -0.6814815961101E-02  0.0000000000000E+00  0.1382766948700E-02
 0.1524368676450E-02 -0.6870069527095E-02  0.0000000000000E+00  0.1555534778477E-02
 0.1510699031318E-02 -0.6926923289206E-02  0.0000000000000E+00  0.1742599037957E-02
 0.1492171687301E-02 -0.6983335769516E-02  0.0000000000000E+00  0.1942508388249E-02
 0.1468217493492E-02 -0.7036857441370E-02  0.0000000000000E+00  0.2152186142974E-02
 0.1438915943972E-02 -0.7084872849851E-02  0.0000000000000E+00  0.2366991452086E-02
 0.1405055747201E-02 -0.7124699044327E-02  0.0000000000000E+00  0.2581008923485E-02
 0.1367840991778E-02 -0.7153279028847E-02  0.0000000000000E+00  0.2787205038191E-02
 0.1328566546076E-02 -0.7166744088707E-02  0.0000000000000E+00  0.2976985792927E-02
 0.1288559413436E-02 -0.7160098223518E-02  0.0000000000000E+00  0.3139168544051E-02
 0.1249527107499E-02 -0.7127125778828E-02  0.0000000000000E+00  0.3258591212717E-02
 0.1214355917218E-02 -0.7060524019700E-02  0.0000000000000E+00  0.3314451456717E-02
 0.1188488512682E-02 -0.6952306932179E-02  0.0000000000000E+00  0.3278148792202E-02
 0.1182405494623E-02 -0.6794841264691E-02  0.0000000000000E+00  0.3110165031949E-02
 0.1216513446728E-02 -0.6583201139145E-02  0.0000000000000E+00  0.2755610948622E-02
 0.1331083815519E-02 -0.6321286246949E-02  0.0000000000000E+00  0.2140296626787E-02
 0.1603879582619E-02 -0.6035995199403E-02  0.0000000000000E+00  0.1177757976325E-02
 0.2172238429385E-02 -0.5799119383275E-02  0.0000000000000E+00 -0.1882899215094E-03
 0.3237165466994E-02 -0.5740639371280E-02  0.0000000000000E+00 -0.1872877411787E-02
 0.4994592991146E-02 -0.6007707022177E-02  0.0000000000000E+00 -0.3479155325174E-02
 0.7445052864945E-02 -0.6623174630566E-02  0.0000000000000E+00 -0.4234712383079E-02
 0.1018490877132E-01 -0.7323152669121E-02  0.0000000000000E+00 -0.3346473396393E-02
 0.1442050252288E-03 -0.6004505044522E-02  0.0000000000000E+00 -0.1833494878144E-02
 0.4379226889898E-03 -0.6174577410026E-02  0.0000000000000E+00 -0.1761624102645E-02
 0.7202353787406E-03 -0.6322483932889E-02  0.0000000000000E+00 -0.1571898994838E-02
 0.9576489801085E-03 -0.6429142748381E-02  0.0000000000000E+00 -0.1301651031104E-02
 0.1138030140491E-02 -0.6492796720915E-02  0.0000000000000E+00 -0.1004379490843E-02
 0.1266567023962E-02 -0.6523628297453E-02  0.0000000000000E+00 -0.7197536900764E-03
 0.1355220898142E-02 -0.6534508533506E-02  0.0000000000000E+00 -0.4664563207041E-03
 0.1415654316983E-02 -0.6535781474136E-02  0.0000000000000E+00 -0.2482172115357E-03
 0.1456770444755E-02 -0.6534206634061E-02  0.0000000000000E+00 -0.6140426822170E-04
 0.1484699557355E-02 -0.6533713815381E-02  0.0000000000000E+00  0.1001482219355E-03
 0.1503491722866E-02 -0.6536411839628E-02  0.0000000000000E+00  0.2428888685890E-03
 0.1515788998082E-02 -0.6543344320768E-02  0.0000000000000E+00  0.3727237634716E-03
 0.1523312683993E-02 -0.6554964694653E-02  0.0000000000000E+00  0.4948138858700E-03
 0.1527183065923E-02 -0.6571411269574E-02  0.0000000000000E+00  0.6136049190985E-03
 0.1528118708693E-02 -0.6592654293334E-02  0.0000000000000E+00  0.7329243333913E-03
 0.1526553771878E-02 -0.6618561730195E-02  0.0000000000000E+00  0.8560799738736E-03
 0.1522698991567E-02 -0.6648910391850E-02  0.0000000000000E+00  0.9859334742336E-03
 0.1516563055943E-02 -0.6683354773879E-02  0.0000000000000E+00  0.1124928283379E-02
 0.1507947602318E-02 -0.6721362377480E-02  0.0000000000000E+00  0.1275059857478E-02
 0.1496435011295E-02 -0.6762122886856E-02  0.0000000000000E+00  0.1437753927247E-02
 0.1481402816148E-02 -0.6804451843024E-02  0.0000000000000E+00  0.1613626085662E-02
 0.1462111524001E-02 -0.6846728447737E-02  0.0000000000000E+00  0.1802151601504E-02
 0.1437897310780E-02 -0.6886897982160E-02  0.0000000000000E+00  0.2001339712883E-02
 0.1408443481177E-02 -0.6922552529069E-02  0.0000000000000E+00  0.2207567376820E-02
 0.1374065015764E-02 -0.6951149524280E-02  0.0000000000000E+00  0.2415614031554E-02
 0.1335777122952E-02 -0.6970106356783E-02  0.0000000000000E+00  0.2618855054987E-02
 0.1295076537896E-02 -0.6976534598148E-02  0.0000000000000E+00  0.2809309874133E-02
 0.1253719886203E-02 -0.6966870399949E-02  0.0000000000000E+00  0.2977174845063E-02
 0.1213755993807E-02 -0.6936633899688E-02  0.0000000000000E+00  0.3109844380145E-02
 0.1177955425737E-02 -0.6880429510834E-02  0.0000000000000E+00  0.3190593245136E-02
 0.1150724406729E-02 -0.6792235649311E-02  0.0000000000000E+00  0.3197010898710E-02
 0.1139692608728E-02 -0.6666104318005E-02  0.0000000000000E+00  0.3099091211479E-02
 0.1158506103092E-02 -0.6497693869239E-02  0.0000000000000E+00  0.2856886505197E-02
 0.1231945099489E-02 -0.6287320843767E-02  0.0000000000000E+00  0.2418095421661E-02
 0.1405188930592E-02 -0.6046473934937E-02  0.0000000000000E+00  0.1718607926653E-02
 0.1757719520307E-02 -0.5810177504736E-02  0.0000000000000E+00  0.6966550928659E-03
 0.2415705454033E-02 -0.5651626321360E-02  0.0000000000000E+00 -0.6605950946206E-03
 0.3541842306226E-02 -0.5682259826952E-02  0.0000000000000E+00 -0.2222637336055E-02
 0.5265315284441E-02 -0.6004996253619E-02  0.0000000000000E+00 -0.3602979748184E-02
 0.7536794954685E-02 -0.6603980343580E-02  0.0000000000000E+00 -0.4164406168296E-02
 0.1000458436896E-01 -0.7247158563416E-02  0.0000000000000E+00 -0.3325293692922E-02
 0.1357477502720E-03 -0.5977364282076E-02  0.0000000000000E+00 -0.1732891235629E-02
 0.4117970093485E-03 -0.6139105901157E-02  0.0000000000000E+00 -0.1670382279098E-02
 0.6792081710723E-03 -0.6283185765108E-02  0.0000000000000E+00 -0.1505196321038E-02
 0.9097442639608E-03 -0.6392890090073E-02  0.0000000000000E+00 -0.1264619930486E-02
 0.1090898043751E-02 -0.6464551682951E-02  0.0000000000000E+00 -0.9918602892151E-03
 0.1224587515952E-02 -0.6504876351196E-02  0.0000000000000E+00 -0.7224323697328E-03
 0.1319702480171E-02 -0.6524170635243E-02  0.0000000000000E+00 -0.4758692756791E-03
 0.1386117684287E-02 -0.6531667297339E-02  0.0000000000000E+00 -0.2585170622071E-03
 0.1432010877598E-02 -0.6533969560046E-02  0.0000000000000E+00 -0.6914723013923E-04
 0.1463358466005E-02 -0.6535247419674E-02  0.0000000000000E+00  0.9676452396558E-04
 0.1484288715198E-02 -0.6537932106882E-02  0.0000000000000E+00  0.2446907379472E-03
 0.1497587644532E-02 -0.6543347954965E-02  0.0000000000000E+00  0.3800033411360E-03
 0.1505119366177E-02 -0.6552154078947E-02  0.0000000000000E+00  0.5075909946616E-03
 0.1508123845537E-02 -0.6564619550040E-02  0.0000000000000E+00  0.6317696027773E-03
 0.1507412548932E-02 -0.6580780228010E-02  0.0000000000000E+00  0.7563036056883E-03
 0.1503489227964E-02 -0.6600515404867E-02  0.0000000000000E+00  0.8844547943844E-03
 0.1496617494960E-02 -0.6623568762645E-02  0.0000000000000E+00  0.1019019444324E-02
 0.1486851663931E-02 -0.6649527173214E-02  0.0000000000000E+00  0.1162325687851E-02
 0.1474045354951E-02 -0.6677768388077E-02  0.0000000000000E+00  0.1316176367438E-02
 0.1457858534784E-02 -0.6707388645017E-02  0.0000000000000E+00  0.1481707323168E-02
 0.1437794086463E-02 -0.6737131420356E-02  0.0000000000000E+00  0.1659145787146E-02
 0.1413300002403E-02 -0.6765349820247E-02  0.0000000000000E+00  0.1847507359765E-02
 0.1383954810649E-02 -0.6790021519419E-02  0.0000000000000E+00  0.2044312597388E-02
 0.1349709351944E-02 -0.6808823967046E-02  0.0000000000000E+00  0.2245438907634E-02
 0.1311142549876E-02 -0.6819336376008E-02  0.0000000000000E+00  0.2445129909970E-02
 0.1269542330779E-02 -0.6819136591421E-02  0.0000000000000E+00  0.2636113008169E-02
 0.1226754419484E-02 -0.6805579078776E-02  0.0000000000000E+00  0.2809562843919E-02
 0.1185052846865E-02 -0.6775496462903E-02  0.0000000000000E+00  0.2954623460285E-02
 0.1147257843730E-02 -0.6725040728101E-02  0.0000000000000E+00  0.3057495393403E-02
 0.1117244108312E-02 -0.6649784365149E-02  0.0000000000000E+00  0.3100234010392E-02
 0.1100954732231E-02 -0.6545165733938E-02  0.0000000000000E+00  0.3059372736644E-02
 0.1108135221014E-02 -0.6407444797441E-02  0.0000000000000E+00  0.2904419979584E-02
 0.1155264855721E-02 -0.6235595412588E-02  0.0000000000000E+00  0.2596480590303E-02
 0.1270535229133E-02 -0.6034705319688E-02  0.0000000000000E+00  0.2087939978887E-02
 0.1501867530063E-02 -0.5822199954423E-02  0.0000000000000E+00  0.1326787617056E-02
 0.1926848863587E-02 -0.5637661331552E-02  0.0000000000000E+00  0.2751433771914E-03
 0.2657259558438E-02 -0.5550976990622E-02  0.0000000000000E+00 -0.1045266821254E-02
 0.3820647660858E-02 -0.5653914178607E-02  0.0000000000000E+00 -0.2477887635072E-02
 0.5495734458637E-02 -0.6014352324681E-02  0.0000000000000E+00 -0.3662871488473E-02
 0.7605087137197E-02 -0.6593233974401E-02  0.0000000000000E+00 -0.4078468012933E-02
 0.9845457442254E-02 -0.7189090669583E-02  0.0000000000000E+00 -0.3293450694546E-02
 0.1284407294888E-03 -0.5954332210467E-02  0.0000000000000E+00 -0.1637200618151E-02
 0.3891478738082E-03 -0.6108555176418E-02  0.0000000000000E+00 -0.1582090245903E-02
 0.6430698868490E-03 -0.6248453613887E-02  0.0000000000000E+00 -0.1436922006967E-02
 0.8663518765471E-03 -0.6359476643977E-02  0.0000000000000E+00 -0.1221844959757E-02
 0.1046763209372E-02 -0.6436917449694E-02  0.0000000000000E+00 -0.9717577738448E-03
 0.1183944836963E-02 -0.6484883590323E-02  0.0000000000000E+00 -0.7179329169893E-03
 0.1284255695720E-02 -0.6511439133552E-02  0.0000000000000E+00 -0.4797258694589E-03
 0.1355867614330E-02 -0.6524611303675E-02  0.0000000000000E+00 -0.2652123460465E-03
 0.1406119385281E-02 -0.6530630754189E-02  0.0000000000000E+00 -0.7511816687282E-04
 0.1440696935123E-02 -0.6533725931880E-02  0.0000000000000E+00  0.9357570040230E-04
 0.1463705555157E-02 -0.6536534649838E-02  0.0000000000000E+00  0.2453568916574E-03
 0.1478012127756E-02 -0.6540597423623E-02  0.0000000000000E+00  0.3850063489884E-03
 0.1485587894474E-02 -0.6546746964596E-02  0.0000000000000E+00  0.5170758871047E-03
 0.1487774644451E-02 -0.6555370447945E-02  0.0000000000000E+00  0.6456927541498E-03
 0.1485470454897E-02 -0.6566568562785E-02  0.0000000000000E+00  0.7745079762139E-03
 0.1479250455833E-02 -0.6580239267255E-02  0.0000000000000E+00  0.9066948318637E-03
 0.1469439419823E-02 -0.6596107304609E-02  0.0000000000000E+00  0.1044948890060E-02
 0.1456151549302E-02 -0.6613713230320E-02  0.0000000000000E+00  0.1191455433008E-02
 0.1439312181113E-02 -0.6632374242723E-02  0.0000000000000E+00  0.1347808223234E-02
 0.1418682205512E-02 -0.6651130004937E-02  0.0000000000000E+00  0.1514853353703E-02
 0.1393912725677E-02 -0.6668693825976E-02  0.0000000000000E+00  0.1692450981350E-02
 0.1364657057198E-02 -0.6683435053322E-02  0.0000000000000E+00  0.1879197198268E-02
 0.1330748673605E-02 -0.6693403715353E-02  0.0000000000000E+00  0.2072172441992E-02
 0.1292420545091E-02 -0.6696402775418E-02  0.0000000000000E+00  0.2266802385854E-02
 0.1250541557824E-02 -0.6690179397564E-02  0.0000000000000E+00  0.2456845605970E-02
 0.1206712228782E-02 -0.6672528548500E-02  0.0000000000000E+00  0.2634453583137E-02
 0.1163173784528E-02 -0.6641116070468E-02  0.0000000000000E+00  0.2790071788156E-02
 0.1122759926625E-02 -0.6593251528303E-02  0.0000000000000E+00  0.2911967073472E-02
 0.1089091547636E-02 -0.6525812621556E-02  0.0000000000000E+00  0.2985399313835E-02
 0.1067153504027E-02 -0.6435446277122E-02  0.0000000000000E+00  0.2991575545857E-02
 0.1064380833488E-02 -0.6319153223355E-02  0.0000000000000E+00  0.2906538288546E-02
 0.1092462934421E-02 -0.6175439467706E-02  0.0000000000000E+00  0.2700177869783E-02
 0.1170244882225E-02 -0.6006413778000E-02  0.0000000000000E+00  0.2335895929520E-02
 0.1328271964636E-02 -0.5821217090072E-02  0.0000000000000E+00  0.1772211278719E-02
 0.1615247746817E-02 -0.5641482716512E-02  0.0000000000000E+00  0.9699091706104E-03
 0.2104258060620E-02 -0.5508422623643E-02  0.0000000000000E+00 -0.8746969162676E-04
 0.2891468514162E-02 -0.5485774762797E-02  0.0000000000000E+00 -0.1352469772696E-02
 0.4073801422675E-02 -0.5646610621008E-02  0.0000000000000E+00 -0.2656912612925E-02
 0.5692694484885E-02 -0.6031959954270E-02  0.0000000000000E+00 -0.3675245202518E-02
 0.7656329566574E-02 -0.6589691873259E-02  0.0000000000000E+00 -0.3981648630108E-02
 0.9704313796180E-02 -0.7145803544914E-02  0.0000000000000E+00 -0.3251900957391E-02
 0.1220501723463E-03 -0.5934599530493E-02  0.0000000000000E+00 -0.1545903007998E-02
 0.3693119324746E-03 -0.6082019534494E-02  0.0000000000000E+00 -0.1496766035571E-02
 0.6110366474731E-03 -0.6217617820800E-02  0.0000000000000E+00 -0.1368122599466E-02
 0.8269938621272E-03 -0.6328748775812E-02  0.0000000000000E+00 -0.1175015619418E-02
 0.1005581113152E-02 -0.6410219786267E-02  0.0000000000000E+00 -0.9456905925881E-03
 0.1144896861629E-02 -0.6464226178757E-02  0.0000000000000E+00 -0.7073887699911E-03
 0.1249260554960E-02 -0.6496931654392E-02  0.0000000000000E+00 -0.4786397160967E-03
 0.1325289450518E-02 -0.6515165428665E-02  0.0000000000000E+00 -0.2685405389659E-03
 0.1379439010190E-02 -0.6524649180931E-02  0.0000000000000E+00 -0.7933512872721E-04
 0.1417007851568E-02 -0.6529525820955E-02  0.0000000000000E+00  0.9067158136324E-04
 0.1441993242883E-02 -0.6532535355902E-02  0.0000000000000E+00  0.2450185185246E-03
 0.1457284248664E-02 -0.6535370480916E-02  0.0000000000000E+00  0.3878698013771E-03
 0.1464923485683E-02 -0.6539002711959E-02  0.0000000000000E+00  0.5233950114698E-03
 0.1466335311182E-02 -0.6543921638767E-02  0.0000000000000E+00  0.6554855318072E-03
 0.1462496584015E-02 -0.6550289560089E-02  0.0000000000000E+00  0.7876361758663E-03
 0.1454054232850E-02 -0.6558028703491E-02  0.0000000000000E+00  0.9228950706642E-03
 0.1441401157253E-02 -0.6566857762567E-02  0.0000000000000E+00  0.1063827325645E-02
 0.1424724042086E-02 -0.6576290868525E-02  0.0000000000000E+00  0.1212454090480E-02
 0.1404037128165E-02 -0.6585611565937E-02  0.0000000000000E+00  0.1370150463801E-02
 0.1379221870046E-02 -0.6593835948639E-02  0.0000000000000E+00  0.1537479181607E-02
 0.1350096172837E-02 -0.6599683657077E-02  0.0000000000000E+00  0.1713958189160E-02
 0.1316533048665E-02 -0.6601576829488E-02  0.0000000000000E+00  0.1897804373556E-02
 0.1278631787563E-02 -0.6597673035847E-02  0.0000000000000E+00  0.2085705798468E-02
 0.1236920850504E-02 -0.6585937251390E-02  0.0000000000000E+00  0.2272686544172E-02
 0.1192581704395E-02 -0.6564326984465E-02  0.0000000000000E+00  0.2452077797463E-02
 0.1147560202703E-02 -0.6530905600750E-02  0.0000000000000E+00  0.2615536547371E-02
 0.1104528887540E-02 -0.6483710341614E-02  0.0000000000000E+00  0.2752904784208E-02
 0.1066908891060E-02 -0.6420594164067E-02  0.0000000000000E+00  0.2851758426560E-02
 0.1039129855875E-02 -0.6339230018814E-02  0.0000000000000E+00  0.2896681708171E-02
 0.1027258970258E-02 -0.6237403097275E-02  0.0000000000000E+00  0.2868410020508E-02
 0.1040124234268E-02 -0.6113707047753E-02  0.0000000000000E+00  0.2743036898017E-02
 0.1091110466270E-02 -0.5968819845213E-02  0.0000000000000E+00  0.2491595929081E-02
 0.1200884785691E-02 -0.5807656529839E-02  0.0000000000000E+00  0.2080736169414E-02
 0.1401305480496E-02 -0.5642574448717E-02  0.0000000000000E+00  0.1475925356021E-02
 0.1740231730642E-02 -0.5497807554853E-02  0.0000000000000E+00  0.6504324710270E-03
 0.2284566308700E-02 -0.5413990806120E-02  0.0000000000000E+00 -0.3940800155426E-03
 0.3114980494831E-02 -0.5447278044397E-02  0.0000000000000E+00 -0.1592285297365E-02
 0.4302637530113E-02 -0.5654069636797E-02  0.0000000000000E+00 -0.2774449196586E-02
 0.5861987071895E-02 -0.6055368304296E-02  0.0000000000000E+00 -0.3651679179436E-02
 0.7695202131649E-02 -0.6592419294670E-02  0.0000000000000E+00 -0.3876834614856E-02
 0.9578489177710E-02 -0.7114813857325E-02  0.0000000000000E+00 -0.3201657868769E-02
 0.1164027734322E-03 -0.5917544977317E-02  0.0000000000000E+00 -0.1458560664545E-02
 0.3517832980820E-03 -0.6058789684287E-02  0.0000000000000E+00 -0.1414345524563E-02
 0.5824731723408E-03 -0.6190111963879E-02  0.0000000000000E+00 -0.1299508598570E-02
 0.7912283984305E-03 -0.6300509839550E-02  0.0000000000000E+00 -0.1125413895675E-02
 0.9672411959082E-03 -0.6384649162222E-02  0.0000000000000E+00 -0.9149998685394E-03
 0.1107600747958E-02 -0.6443336715526E-02  0.0000000000000E+00 -0.6918330880176E-03
 0.1215011168035E-02 -0.6481160171148E-02  0.0000000000000E+00 -0.4732416539745E-03
 0.1294712210181E-02 -0.6503819319979E-02  0.0000000000000E+00 -0.2688024990775E-03
 0.1352281648445E-02 -0.6516453180806E-02  0.0000000000000E+00 -0.8188317933838E-04
 0.1392569482320E-02 -0.6523011975914E-02  0.0000000000000E+00  0.8808821613791E-04
 0.1419397672688E-02 -0.6526248741678E-02  0.0000000000000E+00  0.2437701649959E-03
 0.1435625593902E-02 -0.6527948313666E-02  0.0000000000000E+00  0.3887103497647E-03
 0.1443333151441E-02 -0.6529185717255E-02  0.0000000000000E+00  0.5266686845741E-03
 0.1444007658135E-02 -0.6530535473077E-02  0.0000000000000E+00  0.6612652639740E-03
 0.1438695912658E-02 -0.6532216414781E-02  0.0000000000000E+00  0.7958039565637E-03
 0.1428115863574E-02 -0.6534179048596E-02  0.0000000000000E+00  0.9331773479562E-03
 0.1412734116466E-02 -0.6536147440056E-02  0.0000000000000E+00  0.1075796066217E-02
 0.1392820590971E-02 -0.6537627430510E-02  0.0000000000000E+00  0.1225501723850E-02
 0.1368492998039E-02 -0.6537893207086E-02  0.0000000000000E+00  0.1383447052871E-02
 0.1339769545626E-02 -0.6535966461199E-02  0.0000000000000E+00  0.1549922679554E-02
 0.1306649811988E-02 -0.6530604799632E-02  0.0000000000000E+00  0.1724131742077E-02
 0.1269237931358E-02 -0.6520314711541E-02  0.0000000000000E+00  0.1903952419012E-02
 0.1227908089590E-02 -0.6503392203852E-02  0.0000000000000E+00  0.2085728213644E-02
 0.1183495713541E-02 -0.6477996887478E-02  0.0000000000000E+00  0.2264134564179E-02
 0.1137513370735E-02 -0.6442334352386E-02  0.0000000000000E+00  0.2432139024596E-02
 0.1092277454643E-02 -0.6394780902026E-02  0.0000000000000E+00  0.2580992862362E-02
 0.1050916648005E-02 -0.6333795063250E-02  0.0000000000000E+00  0.2700066723796E-02
 0.1017452564627E-02 -0.6257823978391E-02  0.0000000000000E+00  0.2776436445273E-02
 0.9971111255250E-03 -0.6165380251454E-02  0.0000000000000E+00  0.2794275927005E-02
 0.9969836786725E-03 -0.6055410500686E-02  0.0000000000000E+00  0.2734212126824E-02
 0.1027149057424E-02 -0.5928068815318E-02  0.0000000000000E+00  0.2572879774692E-02
 0.1102389065277E-02 -0.5786043874165E-02  0.0000000000000E+00  0.2283077220377E-02
 0.1244625842224E-02 -0.5636637130744E-02  0.0000000000000E+00  0.1835344636068E-02
 0.1486085165388E-02 -0.5494568307028E-02  0.0000000000000E+00  0.1202369419976E-02
 0.1872530187234E-02 -0.5385294731586E-02  0.0000000000000E+00  0.3689087650204E-03
 0.2463761514892E-02 -0.5347338771823E-02  0.0000000000000E+00 -0.6487936195371E-03
 0.3325901756466E-02 -0.5428811386332E-02  0.0000000000000E+00 -0.1774070995496E-02
 0.4508999916911E-02 -0.5671845682933E-02  0.0000000000000E+00 -0.2842242903047E-02
 0.6008406158500E-02 -0.6082900105455E-02  0.0000000000000E+00 -0.3600347745859E-02
 0.7725216639652E-02 -0.6600666768492E-02  0.0000000000000E+00 -0.3765707023187E-02
 0.9465715861825E-02 -0.7094126188032E-02  0.0000000000000E+00 -0.3143861807691E-02
 0.1113679940477E-03 -0.5902686016175E-02  0.0000000000000E+00 -0.1374801045989E-02
 0.3361720956567E-03 -0.6038306191826E-02  0.0000000000000E+00 -0.1334720169966E-02
 0.5568648064553E-03 -0.6165461792112E-02  0.0000000000000E+00 -0.1231558556987E-02
 0.7586596145079E-03 -0.6274551206952E-02  0.0000000000000E+00 -0.1074010151156E-02
 0.9315980838378E-03 -0.6360305690191E-02  0.0000000000000E+00 -0.8807845271118E-03
 0.1072140866177E-02 -0.6422536861246E-02  0.0000000000000E+00 -0.6721837844019E-03
 0.1181730690906E-02 -0.6464545374936E-02  0.0000000000000E+00 -0.4641474687253E-03
 0.1264413018557E-02 -0.6491002564876E-02  0.0000000000000E+00 -0.2663340628198E-03
 0.1324927156806E-02 -0.6506437448499E-02  0.0000000000000E+00 -0.8289545292081E-04
 0.1367642708042E-02 -0.6514533280749E-02  0.0000000000000E+00  0.8581890038209E-04
 0.1396156548686E-02 -0.6517983625955E-02  0.0000000000000E+00  0.2416755382603E-03
 0.1413254667797E-02 -0.6518611722720E-02  0.0000000000000E+00  0.3876268738695E-03
 0.1421023154694E-02 -0.6517562101667E-02  0.0000000000000E+00  0.5270116999479E-03
 0.1420993198233E-02 -0.6515476044265E-02  0.0000000000000E+00  0.6631547275013E-03
 0.1414272175884E-02 -0.6512622558612E-02  0.0000000000000E+00  0.7991422978320E-03
 0.1401647273842E-02 -0.6508983028900E-02  0.0000000000000E+00  0.9376874633807E-03
 0.1383662998118E-02 -0.6504296770695E-02  0.0000000000000E+00  0.1081028020416E-02
 0.1360681352485E-02 -0.6498077511166E-02  0.0000000000000E+00  0.1230816067154E-02
 0.1332935500522E-02 -0.6489611634181E-02  0.0000000000000E+00  0.1387983269814E-02
 0.1300593411986E-02 -0.6477951884174E-02  0.0000000000000E+00  0.1552563201568E-02
 0.1263847951729E-02 -0.6461921059268E-02  0.0000000000000E+00  0.1723473465859E-02
 0.1223043169096E-02 -0.6440137115064E-02  0.0000000000000E+00  0.1898294308040E-02
 0.1178835284420E-02 -0.6411061332959E-02  0.0000000000000E+00  0.2073073025741E-02
 0.1132375759240E-02 -0.6373076442642E-02  0.0000000000000E+00  0.2242192081030E-02
 0.1085522238939E-02 -0.6324668545694E-02  0.0000000000000E+00  0.2398324016309E-02
 0.1040979220406E-02 -0.6264563827009E-02  0.0000000000000E+00  0.2532408129326E-02
 0.1002345559039E-02 -0.6191680948017E-02  0.0000000000000E+00  0.2633478576324E-02
 0.9742422820657E-03 -0.6105095803532E-02  0.0000000000000E+00  0.2688300401994E-02
 0.9626603841969E-03 -0.6004180635587E-02  0.0000000000000E+00  0.2680892620662E-02
 0.9756320238303E-03 -0.5889030054730E-02  0.0000000000000E+00  0.2592108031477E-02
 0.1024314065795E-02 -0.5761274694656E-02  0.0000000000000E+00  0.2399541180482E-02
 0.1124562450671E-02 -0.5625391992373E-02  0.0000000000000E+00  0.2078221603707E-02
 0.1299006382210E-02 -0.5490608843676E-02  0.0000000000000E+00  0.1602936177048E-02
 0.1579434096419E-02 -0.5373206740797E-02  0.0000000000000E+00  0.9534338453964E-03
 0.2008623590404E-02 -0.5298760266375E-02  0.0000000000000E+00  0.1245632831520E-03
 0.2638936347787E-02 -0.5302706956657E-02  0.0000000000000E+00 -0.8562579479131E-03
 0.3523334866241E-02 -0.5425283113598E-02  0.0000000000000E+00 -0.1906190751309E-02
 0.4694891381528E-02 -0.5696743324448E-02  0.0000000000000E+00 -0.2869639026157E-02
 0.6135836950837E-02 -0.6113286414349E-02  0.0000000000000E+00 -0.3527063012219E-02
 0.7749103582954E-02 -0.6613754206272E-02  0.0000000000000E+00 -0.3649028197568E-02
 0.9363993831531E-02 -0.7082079655916E-02  0.0000000000000E+00 -0.3079871944429E-02
 0.1068461346901E-03 -0.5889644213345E-02  0.0000000000000E+00 -0.1294303479313E-02
 0.3221749727158E-03 -0.6020125041726E-02  0.0000000000000E+00 -0.1257758858489E-02
 0.5337941625017E-03 -0.6143272677609E-02  0.0000000000000E+00 -0.1164589579153E-02
 0.7289397522781E-03 -0.6250669729468E-02  0.0000000000000E+00 -0.1021536921995E-02
 0.8984920085379E-03 -0.6337230729028E-02  0.0000000000000E+00 -0.8439375988374E-03
 0.1038550563267E-02 -0.6402064016962E-02  0.0000000000000E+00 -0.6492412663008E-03
 0.1149585200189E-02 -0.6447431096047E-02  0.0000000000000E+00 -0.4519372374030E-03
 0.1234622820025E-02 -0.6477089106960E-02  0.0000000000000E+00 -0.2614840118978E-03
 0.1297624038868E-02 -0.6494962097975E-02  0.0000000000000E+00 -0.8253664187900E-04
 0.1342469448746E-02 -0.6504419629738E-02  0.0000000000000E+00  0.8382465490042E-04
 0.1372497081703E-02 -0.6508039703731E-02  0.0000000000000E+00  0.2387734424173E-03
 0.1390384521864E-02 -0.6507637860440E-02  0.0000000000000E+00  0.3847033722690E-03
 0.1398196796931E-02 -0.6504396762048E-02  0.0000000000000E+00  0.5245342083389E-03
 0.1397491131522E-02 -0.6499006527597E-02  0.0000000000000E+00  0.6612816153182E-03
 0.1389426038448E-02 -0.6491779219439E-02  0.0000000000000E+00  0.7977957235251E-03
 0.1374855363059E-02 -0.6482728498481E-02  0.0000000000000E+00  0.9365923654042E-03
 0.1354404381290E-02 -0.6471617262733E-02  0.0000000000000E+00  0.1079723611969E-02
 0.1328534148739E-02 -0.6457981252836E-02  0.0000000000000E+00  0.1228647008357E-02
 0.1297602787331E-02 -0.6441137837562E-02  0.0000000000000E+00  0.1384078700394E-02
 0.1261938124039E-02 -0.6420192733409E-02  0.0000000000000E+00  0.1545813275726E-02
 0.1221935016488E-02 -0.6394057118984E-02  0.0000000000000E+00  0.1712513480032E-02
 0.1178183779931E-02 -0.6361483459449E-02  0.0000000000000E+00  0.1881502715275E-02
 0.1131627708008E-02 -0.6321121197299E-02  0.0000000000000E+00  0.2048581109332E-02
 0.1083740587768E-02 -0.6271600292697E-02  0.0000000000000E+00  0.2207896050688E-02
 0.1036734361768E-02 -0.6211714057642E-02  0.0000000000000E+00  0.2351897075201E-02
 0.9937117303949E-03 -0.6140567471960E-02  0.0000000000000E+00  0.2471307795910E-02
 0.9587455615956E-03 -0.6057566885630E-02  0.0000000000000E+00  0.2554959852862E-02
 0.9370423417322E-03 -0.5962435629172E-02  0.0000000000000E+00  0.2589489727706E-02
 0.9353109373676E-03 -0.5855403102048E-02  0.0000000000000E+00  0.2558998781115E-02
 0.9624219343085E-03 -0.5737667478438E-02  0.0000000000000E+00  0.2444859680427E-02
 0.1030419346769E-02 -0.5612213464553E-02  0.0000000000000E+00  0.2225962652288E-02
 0.1155908196076E-02 -0.5485049646706E-02  0.0000000000000E+00  0.1879880087628E-02
 0.1361725752738E-02 -0.5366866093199E-02  0.0000000000000E+00  0.1385751778247E-02
 0.1678576974787E-02 -0.5274801081447E-02  0.0000000000000E+00  0.7299218210997E-03
 0.2145684651124E-02 -0.5233709878227E-02  0.0000000000000E+00 -0.8424922379224E-04
 0.2808049618920E-02 -0.5275410567448E-02  0.0000000000000E+00 -0.1021232878595E-02
 0.3707046137056E-02 -0.5432807053855E-02  0.0000000000000E+00 -0.1995948634375E-02
 0.4862293178009E-02 -0.5726441583689E-02  0.0000000000000E+00 -0.2864104784624E-02
 0.6247339536103E-02 -0.6145465905706E-02  0.0000000000000E+00 -0.3436113457432E-02
 0.7769069491826E-02 -0.6630915379299E-02  0.0000000000000E+00 -0.3526770260930E-02
 0.9271444757758E-02 -0.7077014240610E-02  0.0000000000000E+00 -0.3011316932812E-02
 0.1027601321222E-03 -0.5878120394198E-02  0.0000000000000E+00 -0.1216788697152E-02
 0.3095538713517E-03 -0.6003891978538E-02  0.0000000000000E+00 -0.1183320498471E-02
 0.5129220911640E-03 -0.6123217488935E-02  0.0000000000000E+00 -0.1098805466765E-02
 0.7017672792795E-03 -0.6228676947193E-02  0.0000000000000E+00 -0.9685450823589E-03
 0.8677617317538E-03 -0.6315428766742E-02  0.0000000000000E+00 -0.8051799082851E-03
 0.1006828645393E-02 -0.6382092477556E-02  0.0000000000000E+00 -0.6236935135588E-03
 0.1118695845394E-02 -0.6430097645688E-02  0.0000000000000E+00 -0.4371433076524E-03
 0.1205532515582E-02 -0.6462402777073E-02  0.0000000000000E+00 -0.2545977485838E-03
 0.1270591186280E-02 -0.6482353235863E-02  0.0000000000000E+00 -0.8098920494939E-04
 0.1317272046006E-02 -0.6492980149757E-02  0.0000000000000E+00  0.8204374637760E-04
 0.1348634380782E-02 -0.6496704947346E-02  0.0000000000000E+00  0.2350835467349E-03
 0.1367220858466E-02 -0.6495297513942E-02  0.0000000000000E+00  0.3800119675680E-03
 0.1375052536622E-02 -0.6489950795004E-02  0.0000000000000E+00  0.5193427732793E-03
 0.1373696587833E-02 -0.6481386806094E-02  0.0000000000000E+00  0.6557781586027E-03
 0.1364353498872E-02 -0.6469953244550E-02  0.0000000000000E+00  0.7919207432645E-03
 0.1347940603990E-02 -0.6455696464020E-02  0.0000000000000E+00  0.9300774669889E-03
 0.1325165592326E-02 -0.6438409785362E-02  0.0000000000000E+00  0.1072106905654E-02
 0.1296593735789E-02 -0.6417663036525E-02  0.0000000000000E+00  0.1219271445085E-02
 0.1262715290455E-02 -0.6392820645948E-02  0.0000000000000E+00  0.1372080843040E-02
 0.1224025373748E-02 -0.6363059878679E-02  0.0000000000000E+00  0.1530111155245E-02
 0.1181126908287E-02 -0.6327399754006E-02  0.0000000000000E+00  0.1691802000042E-02
 0.1134860503924E-02 -0.6284746479397E-02  0.0000000000000E+00  0.1854261293522E-02
 0.1086459337229E-02 -0.6233956648647E-02  0.0000000000000E+00  0.2013091599860E-02
 0.1037722808361E-02 -0.6173927039517E-02  0.0000000000000E+00  0.2162264659184E-02
 0.9912216041424E-03 -0.6103778934814E-02  0.0000000000000E+00  0.2294080822807E-02
 0.9504596735392E-03 -0.6023016915704E-02  0.0000000000000E+00  0.2399144465026E-02
 0.9199784696037E-03 -0.5931551548444E-02  0.0000000000000E+00  0.2466214526655E-02
 0.9055448092030E-03 -0.5829757465796E-02  0.0000000000000E+00  0.2481969468048E-02
 0.9145255462406E-03 -0.5718699131687E-02  0.0000000000000E+00  0.2430805693843E-02
 0.9565147380415E-03 -0.5600609309104E-02  0.0000000000000E+00  0.2294862403223E-02
 0.1044246211686E-02 -0.5479678473618E-02  0.0000000000000E+00  0.2054575101634E-02
 0.1194764316286E-02 -0.5363174677223E-02  0.0000000000000E+00  0.1690227553393E-02
 0.1430682772867E-02 -0.5262816124654E-02  0.0000000000000E+00  0.1185217947874E-02
 0.1781135831570E-02 -0.5196008490908E-02  0.0000000000000E+00  0.5318186734824E-03
 0.2281485922842E-02 -0.5186293362351E-02  0.0000000000000E+00 -0.2596998248710E-03
 0.2969722909102E-02 -0.5261660381131E-02  0.0000000000000E+00 -0.1148338026560E-02
 0.3877229994982E-02 -0.5448399438381E-02  0.0000000000000E+00 -0.2049614874240E-02
 0.5013096911172E-02 -0.5759281767379E-02  0.0000000000000E+00 -0.2831651760679E-02
 0.6345233344912E-02 -0.6178468279215E-02  0.0000000000000E+00 -0.3330899135386E-02
 0.7787065096161E-02 -0.6651425893825E-02  0.0000000000000E+00 -0.3398518533371E-02
 0.9185576862941E-02 -0.7075778130696E-02  0.0000000000000E+00 -0.2940278865205E-02
 0.9904532817551E-04 -0.5867876826767E-02  0.0000000000000E+00 -0.1142013261318E-02
 0.2981188611571E-03 -0.5989324067993E-02  0.0000000000000E+00 -0.1111270898296E-02
 0.4939719219261E-03 -0.6105028369835E-02  0.0000000000000E+00 -0.1034343646610E-02
 0.6768856678650E-03 -0.6208407597640E-02  0.0000000000000E+00 -0.9154634308604E-03
 0.8392581949111E-03 -0.6294888266235E-02  0.0000000000000E+00 -0.7651070088648E-03
 0.9769606136962E-03 -0.6362756994481E-02  0.0000000000000E+00 -0.5961406858693E-03
 0.1089160855126E-02 -0.6412781518357E-02  0.0000000000000E+00 -0.4202571060810E-03
 0.1177312963111E-02 -0.6447231644045E-02  0.0000000000000E+00 -0.2460148988772E-03
 0.1244036021431E-02 -0.6468913436662E-02  0.0000000000000E+00 -0.7844781863739E-04
 0.1292270713275E-02 -0.6480511970159E-02  0.0000000000000E+00  0.8039777629559E-04
 0.1324789360967E-02 -0.6484264571513E-02  0.0000000000000E+00  0.2306124462961E-03
 0.1343981312501E-02 -0.6481865830230E-02  0.0000000000000E+00  0.3736191439350E-03
 0.1351805416060E-02 -0.6474495404785E-02  0.0000000000000E+00  0.5115471760038E-03
 0.1349824935789E-02 -0.6462892009804E-02  0.0000000000000E+00  0.6467889190422E-03
 0.1339273845708E-02 -0.6447431846063E-02  0.0000000000000E+00  0.7816951004888E-03
 0.1321129457656E-02 -0.6428193790273E-02  0.0000000000000E+00  0.9183579468331E-03
 0.1296182420062E-02 -0.6405007189772E-02  0.0000000000000E+00  0.1058439801481E-02
 0.1265105638149E-02 -0.6377486165781E-02  0.0000000000000E+00  0.1203011595295E-02
 0.1228526373102E-02 -0.6345055755639E-02  0.0000000000000E+00  0.1352389290425E-02
 0.1187111788910E-02 -0.6306980223749E-02  0.0000000000000E+00  0.1505953252653E-02
 0.1141676162824E-02 -0.6262402343058E-02  0.0000000000000E+00  0.1661953014669E-02
 0.1093311685853E-02 -0.6210397487875E-02  0.0000000000000E+00  0.1817323076774E-02
 0.1043541260097E-02 -0.6150044196861E-02  0.0000000000000E+00  0.1967518900793E-02
 0.9944892729719E-03 -0.6080520541564E-02  0.0000000000000E+00  0.2106397219199E-02
 0.9490839978792E-03 -0.6001289849501E-02  0.0000000000000E+00  0.2226183732916E-02
 0.9112260423539E-03 -0.5912268217299E-02  0.0000000000000E+00  0.2317458307023E-02
 0.8859105091255E-03 -0.5813875271034E-02  0.0000000000000E+00  0.2369030124505E-02
 0.8794286058923E-03 -0.5707125836435E-02  0.0000000000000E+00  0.2367774568081E-02
 0.8997342942958E-03 -0.5593878909992E-02  0.0000000000000E+00  0.2298565950448E-02
 0.9570218516811E-03 -0.5477312293531E-02  0.0000000000000E+00  0.2144503659033E-02
 0.1064519312960E-02 -0.5362656760577E-02  0.0000000000000E+00  0.1887729924529E-02
 0.1239427798215E-02 -0.5258168409956E-02  0.0000000000000E+00  0.1511276583307E-02
 0.1503782832366E-02 -0.5176202082678E-02  0.0000000000000E+00  0.1002543683493E-02
 0.1884812373597E-02 -0.5133961364803E-02  0.0000000000000E+00  0.3589412628313E-03
 0.2413928049683E-02 -0.5153289336382E-02  0.0000000000000E+00 -0.4038925283848E-03
 0.3122651816220E-02 -0.5258373789031E-02  0.0000000000000E+00 -0.1241674177701E-02
 0.4033883050638E-02 -0.5469699241370E-02  0.0000000000000E+00 -0.2072572245342E-02
 0.5148673458672E-02 -0.5793871722530E-02  0.0000000000000E+00 -0.2777080219014E-02
 0.6431369854271E-02 -0.6211866544130E-02  0.0000000000000E+00 -0.3215387374125E-02
 0.7802185364581E-02 -0.6672496644882E-02  0.0000000000000E+00 -0.3262227936512E-02
 0.9120702487911E-02 -0.7085220887468E-02  0.0000000000000E+00 -0.2880166903272E-02
 0.9566365944717E-04 -0.5858723516982E-02  0.0000000000000E+00 -0.1069756949043E-02
 0.2877246649452E-03 -0.5976192534605E-02  0.0000000000000E+00 -0.1041465535864E-02
 0.4767234384740E-03 -0.6088482030221E-02  0.0000000000000E+00 -0.9712676023705E-03
 0.6540778187869E-03 -0.6189712000430E-02  0.0000000000000E+00 -0.8625942405106E-03
 0.8128404180678E-03 -0.6275579584834E-02  0.0000000000000E+00 -0.7241776402928E-03
 0.9489116031042E-03 -0.6344150879518E-02  0.0000000000000E+00 -0.5670731191072E-03
 0.1061041757707E-02 -0.6395669680461E-02  0.0000000000000E+00 -0.4017016071500E-03
 0.1150093409432E-02 -0.6431817481872E-02  0.0000000000000E+00 -0.2360431666294E-03
 0.1218126076346E-02 -0.6454907107846E-02  0.0000000000000E+00 -0.7509905297831E-04
 0.1267649651211E-02 -0.6467282222871E-02  0.0000000000000E+00  0.7880494205613E-04
 0.1301150285467E-02 -0.6470979542522E-02  0.0000000000000E+00  0.2253605906428E-03
 0.1320852547618E-02 -0.6467596207677E-02  0.0000000000000E+00  0.3655877293042E-03
 0.1328639167308E-02 -0.6458279212430E-02  0.0000000000000E+00  0.5012587027425E-03
 0.1326057864825E-02 -0.6443770632257E-02  0.0000000000000E+00  0.6344661435693E-03
 0.1314368365410E-02 -0.6424468410594E-02  0.0000000000000E+00  0.7673103267193E-03
 0.1294604190627E-02 -0.6400483182224E-02  0.0000000000000E+00  0.9016679359337E-03
 0.1267638499003E-02 -0.6371684609982E-02  0.0000000000000E+00  0.1039006527288E-02
 0.1234253669391E-02 -0.6337739366545E-02  0.0000000000000E+00  0.1180212633968E-02
 0.1195216828041E-02 -0.6298144115590E-02  0.0000000000000E+00  0.1325423405410E-02
 0.1151369703231E-02 -0.6252262562488E-02  0.0000000000000E+00  0.1473847642999E-02
 0.1103738981925E-02 -0.6199373830602E-02  0.0000000000000E+00  0.1623578085602E-02
 0.1053667581260E-02 -0.6138734373503E-02  0.0000000000000E+00  0.1771417518812E-02
 0.1002965674808E-02 -0.6069655623134E-02  0.0000000000000E+00  0.1912724270070E-02
 0.9540790026072E-03 -0.5991606815248E-02  0.0000000000000E+00  0.2041300065669E-02
 0.9102880278011E-03 -0.5904401549916E-02  0.0000000000000E+00  0.2149368793618E-02
 0.8758798127075E-03 -0.5808371894107E-02  0.0000000000000E+00  0.2227575947441E-02
 0.8562815830656E-03 -0.5704442062293E-02  0.0000000000000E+00  0.2264893771463E-02
 0.8582663511831E-03 -0.5594244839192E-02  0.0000000000000E+00  0.2248530581152E-02
 0.8902993016960E-03 -0.5480380980070E-02  0.0000000000000E+00  0.2163989211591E-02
 0.9630518116939E-03 -0.5366872852352E-02  0.0000000000000E+00  0.1995471147530E-02
 0.1090062999227E-02 -0.5259822760120E-02  0.0000000000000E+00  0.1726909481313E-02
 0.1288445582719E-02 -0.5168220496765E-02  0.0000000000000E+00  0.1344019244807E-02
 0.1579380931937E-02 -0.5104722828635E-02  0.0000000000000E+00  0.8378441447228E-03
 0.1987982716558E-02 -0.5085976218425E-02  0.0000000000000E+00  0.2101063116505E-03
 0.2541776072733E-02 -0.5131905886228E-02  0.0000000000000E+00 -0.5195797352385E-03
 0.3266429916138E-02 -0.5263071420065E-02  0.0000000000000E+00 -0.1305403882304E-02
 0.4177767639303E-02 -0.5494955732049E-02  0.0000000000000E+00 -0.2069503525094E-02
 0.5270625726923E-02 -0.5829314241902E-02  0.0000000000000E+00 -0.2704544361487E-02
 0.6508022255717E-02 -0.6245301783377E-02  0.0000000000000E+00 -0.3090528557859E-02
 0.7813471495015E-02 -0.6693851473748E-02  0.0000000000000E+00 -0.3126301850439E-02
 0.9084342487631E-02 -0.7104027868824E-02  0.0000000000000E+00 -0.2794361499210E-02
 0.9257298958929E-04 -0.5850507754292E-02  0.0000000000000E+00 -0.9998205642311E-03
 0.2782482756729E-03 -0.5964311690584E-02  0.0000000000000E+00 -0.9737560519557E-03
 0.4609864074823E-03 -0.6073391519513E-02  0.0000000000000E+00 -0.9095894091753E-03
 0.6331473592095E-03 -0.6172455411095E-02  0.0000000000000E+00 -0.8101445141732E-03
 0.7883659546845E-03 -0.6257460978850E-02  0.0000000000000E+00 -0.6827406480044E-03
 0.9226235138417E-03 -0.6326334389528E-02  0.0000000000000E+00 -0.5368862942495E-03
 0.1034363167541E-02 -0.6378906296544E-02  0.0000000000000E+00 -0.3818349488909E-03
 0.1123961375198E-02 -0.6416359059880E-02  0.0000000000000E+00 -0.2249555695755E-03
 0.1192988158921E-02 -0.6440560499715E-02  0.0000000000000E+00 -0.7111739970685E-04
 0.1243555688929E-02 -0.6453525759311E-02  0.0000000000000E+00  0.7718164573588E-04
 0.1277871365489E-02 -0.6457083023984E-02  0.0000000000000E+00  0.2193195186546E-03
 0.1297989244158E-02 -0.6452716232341E-02  0.0000000000000E+00  0.3559686748422E-03
 0.1305705889541E-02 -0.6441524182245E-02  0.0000000000000E+00  0.4885757842860E-03
 0.1302543960297E-02 -0.6424240773533E-02  0.0000000000000E+00  0.6189486835158E-03
 0.1289781985597E-02 -0.6401279302338E-02  0.0000000000000E+00  0.7489433452161E-03
 0.1268505763606E-02 -0.6372780778094E-02  0.0000000000000E+00  0.8802241794840E-03
 0.1239669655184E-02 -0.6338658110524E-02  0.0000000000000E+00  0.1014068747375E-02
 0.1204165987243E-02 -0.6298636815975E-02  0.0000000000000E+00  0.1151188743187E-02
 0.1162902917765E-02 -0.6252293730257E-02  0.0000000000000E+00  0.1291559019692E-02
 0.1116897446902E-02 -0.6199101602406E-02  0.0000000000000E+00  0.1434241432740E-02
 0.1067387998669E-02 -0.6138485461186E-02  0.0000000000000E+00  0.1577204789670E-02
 0.1015965772752E-02 -0.6069891594839E-02  0.0000000000000E+00  0.1717160858560E-02
 0.9647241028343E-03 -0.5992871891059E-02  0.0000000000000E+00  0.1849419535549E-02
 0.9164243080373E-03 -0.5907192693653E-02  0.0000000000000E+00  0.1967785810472E-02
 0.8746907027360E-03 -0.5813021332739E-02  0.0000000000000E+00  0.2064551512714E-02
 0.8441828984040E-03 -0.5711104496783E-02  0.0000000000000E+00  0.2130511877942E-02
 0.8307347928616E-03 -0.5602859728896E-02  0.0000000000000E+00  0.2154903769346E-02
 0.8415556068799E-03 -0.5490508265764E-02  0.0000000000000E+00  0.2125385198464E-02
 0.8855457436834E-03 -0.5377333404299E-02  0.0000000000000E+00  0.2028207580258E-02
 0.9737369158338E-03 -0.5268099024630E-02  0.0000000000000E+00  0.1848770937185E-02
 0.1119815323830E-02 -0.5169617682630E-02  0.0000000000000E+00  0.1572821563409E-02
 0.1340601355449E-02 -0.5091386538074E-02  0.0000000000000E+00  0.1188622157112E-02
 0.1656218229664E-02 -0.5046090963365E-02  0.0000000000000E+00  0.6904503728363E-03
 0.2089558568933E-02 -0.5049566628623E-02  0.0000000000000E+00  0.8354134401767E-04
 0.2664419035803E-02 -0.5119724149663E-02  0.0000000000000E+00 -0.6097212027670E-03
 0.3401252474533E-02 -0.5273750607813E-02  0.0000000000000E+00 -0.1343362388686E-02
 0.4309980691201E-02 -0.5522858915641E-02  0.0000000000000E+00 -0.2044340398963E-02
 0.5380886702330E-02 -0.5865075413625E-02  0.0000000000000E+00 -0.2616879498288E-02
 0.6576102105650E-02 -0.6278372194210E-02  0.0000000000000E+00 -0.2958126128701E-02
 0.7826551895712E-02 -0.6717332953828E-02  0.0000000000000E+00 -0.2988494365934E-02
 0.9047634537483E-02 -0.7124705571653E-02  0.0000000000000E+00 -0.2691885516428E-02
 0.8974328684766E-04 -0.5843106810372E-02  0.0000000000000E+00 -0.9320242636679E-03
 0.2695931559435E-03 -0.5953532844653E-02  0.0000000000000E+00 -0.9080072097858E-03
 0.4466096397607E-03 -0.6059605877213E-02  0.0000000000000E+00 -0.8493038480253E-03
 0.6139351039551E-03 -0.6156527067062E-02  0.0000000000000E+00 -0.7582725021173E-03
 0.7657174891887E-03 -0.6240496823386E-02  0.0000000000000E+00 -0.6410810812087E-03
 0.8980493455745E-03 -0.6309358356027E-02  0.0000000000000E+00 -0.5059172058608E-03
 0.1009151194290E-02 -0.6362617558417E-02  0.0000000000000E+00 -0.3609738844177E-03
 0.1099002262202E-02 -0.6401035610985E-02  0.0000000000000E+00 -0.2130022897119E-03
 0.1168747868387E-02 -0.6426083291830E-02  0.0000000000000E+00 -0.6666828014978E-04
 0.1220137690520E-02 -0.6439465814855E-02  0.0000000000000E+00  0.7544596967744E-04
 0.1255112802554E-02 -0.6442801935897E-02  0.0000000000000E+00  0.2124803813357E-03
 0.1275555929896E-02 -0.6437452444246E-02  0.0000000000000E+00  0.3448139944608E-03
 0.1283171061789E-02 -0.6424456272634E-02  0.0000000000000E+00  0.4736013101332E-03
 0.1279448464477E-02 -0.6404529698765E-02  0.0000000000000E+00  0.6003841068233E-03
 0.1265679483416E-02 -0.6378095713663E-02  0.0000000000000E+00  0.7267842543173E-03
 0.1242998271530E-02 -0.6345324052524E-02  0.0000000000000E+00  0.8542608738341E-03
 0.1212438373698E-02 -0.6306172775320E-02  0.0000000000000E+00  0.9839094553007E-03
 0.1175001284561E-02 -0.6260430885597E-02  0.0000000000000E+00  0.1116278817585E-02
 0.1131735728170E-02 -0.6207761777458E-02  0.0000000000000E+00  0.1251199599609E-02
 0.1083832848207E-02 -0.6147754293311E-02  0.0000000000000E+00  0.1387612017447E-02
 0.1032740235350E-02 -0.6079986086163E-02  0.0000000000000E+00  0.1523393720229E-02
 0.9802929846580E-03 -0.6004098942607E-02  0.0000000000000E+00  0.1655205525807E-02
 0.9288613112996E-03 -0.5919889288752E-02  0.0000000000000E+00  0.1778356557998E-02
 0.8815136519064E-03 -0.5827422393697E-02  0.0000000000000E+00  0.1886711550858E-02
 0.8422064418689E-03 -0.5727217783947E-02  0.0000000000000E+00  0.1972696607214E-02
 0.8159539762738E-03 -0.5620429485847E-02  0.0000000000000E+00  0.2027334277017E-02
 0.8089674472347E-03 -0.5508950387460E-02  0.0000000000000E+00  0.2040215823977E-02
 0.8288440154260E-03 -0.5395553814423E-02  0.0000000000000E+00  0.1999546207854E-02
 0.8848439973031E-03 -0.5284140954348E-02  0.0000000000000E+00  0.1892415492182E-02
 0.9882503365066E-03 -0.5180113332293E-02  0.0000000000000E+00  0.1705475970004E-02
 0.1152752619162E-02 -0.5090842070845E-02  0.0000000000000E+00  0.1426254986830E-02
 0.1394715078546E-02 -0.5026133934496E-02  0.0000000000000E+00  0.1045371070109E-02
 0.1733063777442E-02 -0.4998485740062E-02  0.0000000000000E+00  0.5598950554233E-03
 0.2188446127029E-02 -0.5022753266932E-02  0.0000000000000E+00 -0.2218128816073E-04
 0.2781160776240E-02 -0.5114828948354E-02  0.0000000000000E+00 -0.6767393261905E-03
 0.3527064048767E-02 -0.5288829599230E-02  0.0000000000000E+00 -0.1358677998829E-02
 0.4431242683017E-02 -0.5552375583362E-02  0.0000000000000E+00 -0.2000273204385E-02
 0.5480548784771E-02 -0.5900635238403E-02  0.0000000000000E+00 -0.2516438275627E-02
 0.6637417115550E-02 -0.6311093611073E-02  0.0000000000000E+00 -0.2819717096894E-02
 0.7839633849362E-02 -0.6742731860683E-02  0.0000000000000E+00 -0.2845796610344E-02
 0.9013927924066E-02 -0.7146372221547E-02  0.0000000000000E+00 -0.2579189086773E-02
 0.8715047516920E-04 -0.5836421939502E-02  0.0000000000000E+00 -0.8662024197823E-03
 0.2616812928315E-03 -0.5943735697859E-02  0.0000000000000E+00 -0.8440879747191E-03
 0.4334689145172E-03 -0.6047001267680E-02  0.0000000000000E+00 -0.7903837878989E-03
 0.5963065447125E-03 -0.6141833040792E-02  0.0000000000000E+00 -0.7070864490094E-03
 0.7447912015221E-03 -0.6224653001026E-02  0.0000000000000E+00 -0.5994193560269E-03
 0.8751421494907E-03 -0.6293261036192E-02  0.0000000000000E+00 -0.4744408757500E-03
 0.9854216812321E-03 -0.6346908408481E-02  0.0000000000000E+00 -0.3393874354025E-03
 0.1075285907535E-02 -0.6386002360462E-02  0.0000000000000E+00 -0.2004031474313E-03
 0.1145514140276E-02 -0.6411662536816E-02  0.0000000000000E+00 -0.6190132264182E-04
 0.1197529176728E-02 -0.6425306270727E-02  0.0000000000000E+00  0.7352230365132E-04
 0.1233021618320E-02 -0.6428347323921E-02  0.0000000000000E+00  0.2048359974019E-03
 0.1253705970836E-02 -0.6422018275342E-02  0.0000000000000E+00  0.3321762902874E-03
 0.1261190402203E-02 -0.6407290031669E-02  0.0000000000000E+00  0.4564398371650E-03
 0.1256927491915E-02 -0.6384853843633E-02  0.0000000000000E+00  0.5789237334926E-03
 0.1242216383547E-02 -0.6355137548932E-02  0.0000000000000E+00  0.7010291277641E-03
 0.1218235753596E-02 -0.6318337807390E-02  0.0000000000000E+00  0.8240198925032E-03
 0.1186095714551E-02 -0.6274458826163E-02  0.0000000000000E+00  0.9488199624563E-03
 0.1146905030807E-02 -0.6223356225073E-02  0.0000000000000E+00  0.1075829182133E-02
 0.1101851051632E-02 -0.6164784339473E-02  0.0000000000000E+00  0.1204753224824E-02
 0.1052296260975E-02 -0.6098452777495E-02  0.0000000000000E+00  0.1334436332790E-02
 0.9998930879365E-03 -0.6024095875764E-02  0.0000000000000E+00  0.1462697408875E-02
 0.9467143041017E-03 -0.5941553655591E-02  0.0000000000000E+00  0.1586185457188E-02
 0.8953986905291E-03 -0.5850867862758E-02  0.0000000000000E+00  0.1700254997459E-02
 0.8493109078161E-03 -0.5752400654464E-02  0.0000000000000E+00  0.1798884539702E-02
 0.8127248975573E-03 -0.5647017708559E-02  0.0000000000000E+00  0.1874696554281E-02
 0.7909886766370E-03 -0.5536267985921E-02  0.0000000000000E+00  0.1919011143164E-02
 0.7906587369420E-03 -0.5422496329034E-02  0.0000000000000E+00  0.1921851497409E-02
 0.8196710812113E-03 -0.5308986964375E-02  0.0000000000000E+00  0.1872047599794E-02
 0.8875737341740E-03 -0.5200191838704E-02  0.0000000000000E+00  0.1757590341706E-02
 0.1005802117886E-02 -0.5102049298280E-02  0.0000000000000E+00  0.1566400866406E-02
 0.1187927699792E-02 -0.5022350959302E-02  0.0000000000000E+00  0.1287712300737E-02
 0.1449733551882E-02 -0.4971045972315E-02  0.0000000000000E+00  0.9142698180802E-03
 0.1808865832179E-02 -0.4960277455712E-02  0.0000000000000E+00  0.4454903771509E-03
 0.2283767008786E-02 -0.5003821951865E-02  0.0000000000000E+00 -0.1085714127765E-03
 0.2891508106459E-02 -0.5115615960475E-02  0.0000000000000E+00 -0.7229269029474E-03
 0.3643946080978E-02 -0.5307028500756E-02  0.0000000000000E+00 -0.1354126633077E-02
 0.4542217815100E-02 -0.5582689560360E-02  0.0000000000000E+00 -0.1939955453403E-02
 0.5570724480952E-02 -0.5935612006963E-02  0.0000000000000E+00 -0.2405237426244E-02
 0.6692855133301E-02 -0.6343459132305E-02  0.0000000000000E+00 -0.2675601622170E-02
 0.7852273048261E-02 -0.6769138787586E-02  0.0000000000000E+00 -0.2698087872002E-02
 0.8983564755463E-02 -0.7169087298087E-02  0.0000000000000E+00 -0.2458110648001E-02
 0.8477518560315E-04 -0.5830373661773E-02  0.0000000000000E+00 -0.8022010196839E-03
 0.2544494501380E-03 -0.5934822981849E-02  0.0000000000000E+00 -0.7818714007719E-03
 0.4214620221331E-03 -0.6035476311758E-02  0.0000000000000E+00 -0.7327858243409E-03
 0.5801482763941E-03 -0.6128294404062E-02  0.0000000000000E+00 -0.6566553168613E-03
 0.7254961078330E-03 -0.6209898378175E-02  0.0000000000000E+00 -0.5579227861991E-03
 0.8538569131955E-03 -0.6278071841787E-02  0.0000000000000E+00 -0.4426788911165E-03
 0.9631832819946E-03 -0.6331866828221E-02  0.0000000000000E+00 -0.3173009640721E-03
 0.1052869566229E-02 -0.6371394090893E-02  0.0000000000000E+00 -0.1873479247344E-03
 0.1123381440894E-02 -0.6397464966787E-02  0.0000000000000E+00 -0.5694853505413E-04
 0.1175849585438E-02 -0.6411232741795E-02  0.0000000000000E+00  0.7134385883387E-04
 0.1211732139787E-02 -0.6413914530103E-02  0.0000000000000E+00  0.1963831175937E-03
 0.1232581532145E-02 -0.6406613641873E-02  0.0000000000000E+00  0.3181103200858E-03
 0.1239909538509E-02 -0.6390227890062E-02  0.0000000000000E+00  0.4371983211944E-03
 0.1235127594391E-02 -0.6365418013124E-02  0.0000000000000E+00  0.5547225403418E-03
 0.1219538559775E-02 -0.6332612680350E-02  0.0000000000000E+00  0.6718791548714E-03
 0.1194361946601E-02 -0.6292033607415E-02  0.0000000000000E+00  0.7897492376324E-03
 0.1160781318669E-02 -0.6243731350885E-02  0.0000000000000E+00  0.9090977447021E-03
 0.1120009822612E-02 -0.6187629894282E-02  0.0000000000000E+00  0.1030190933949E-02
 0.1073370164356E-02 -0.6123577048739E-02  0.0000000000000E+00  0.1152629546844E-02
 0.1022391840933E-02 -0.6051405654073E-02  0.0000000000000E+00  0.1275187566454E-02
 0.9689261714122E-03 -0.5971008305237E-02  0.0000000000000E+00  0.1395656928885E-02
 0.9152756806619E-03 -0.5882423243871E-02  0.0000000000000E+00  0.1510712730679E-02
 0.8643375272715E-03 -0.5785935225903E-02  0.0000000000000E+00  0.1615799155260E-02
 0.8197595636854E-03 -0.5682197725370E-02  0.0000000000000E+00  0.1705059527596E-02
 0.7861162618106E-03 -0.5572412541555E-02  0.0000000000000E+00  0.1771369947490E-02
 0.7690661376181E-03 -0.5458506887442E-02  0.0000000000000E+00  0.1806410522194E-02
 0.7754775772646E-03 -0.5343250046331E-02  0.0000000000000E+00  0.1800701656986E-02
 0.8135770958758E-03 -0.5230392994047E-02  0.0000000000000E+00  0.1743758259283E-02
 0.8931332209674E-03 -0.5124871329996E-02  0.0000000000000E+00  0.1624509219075E-02
 0.1025647225782E-02 -0.5033065371875E-02  0.0000000000000E+00  0.1432130076090E-02
 0.1224473695781E-02 -0.4963065217264E-02  0.0000000000000E+00  0.1157452224362E-02
 0.1504725481656E-02 -0.4924825658375E-02  0.0000000000000E+00  0.7950970616660E-03
 0.1882733579205E-02 -0.4930017315687E-02  0.0000000000000E+00  0.3463922819808E-03
 0.2374822690797E-02 -0.4991293761024E-02  0.0000000000000E+00 -0.1771647773789E-03
 0.2995128348298E-02 -0.5120742329293E-02  0.0000000000000E+00 -0.7504268023092E-03
 0.3752057164330E-02 -0.5327307028819E-02  0.0000000000000E+00 -0.1332148972606E-02
 0.4643552790377E-02 -0.5613149282840E-02  0.0000000000000E+00 -0.1865647799838E-02
 0.5652328035610E-02 -0.5969721907855E-02  0.0000000000000E+00 -0.2284771923668E-02
 0.6743041983589E-02 -0.6375232574456E-02  0.0000000000000E+00 -0.2526144063229E-02
 0.7864255865027E-02 -0.6795921302062E-02  0.0000000000000E+00 -0.2545556010638E-02
 0.8956620865415E-02 -0.7192488875655E-02  0.0000000000000E+00 -0.2329929541387E-02
 0.8260178534594E-04 -0.5824898060995E-02  0.0000000000000E+00 -0.7398755137902E-03
 0.2478462429881E-03 -0.5926716138564E-02  0.0000000000000E+00 -0.7212343284559E-03
 0.4105047768357E-03 -0.6024948246810E-02  0.0000000000000E+00 -0.6764543724127E-03
 0.5653648790037E-03 -0.6115845381367E-02  0.0000000000000E+00 -0.6070170054540E-03
 0.7077531118368E-03 -0.6196205547162E-02  0.0000000000000E+00 -0.5167149987404E-03
 0.8341517122446E-03 -0.6263814015588E-02  0.0000000000000E+00 -0.4108069493613E-03
 0.9424397717316E-03 -0.6317567215007E-02  0.0000000000000E+00 -0.2949003900250E-03
 0.1031800362904E-02 -0.6357328155638E-02  0.0000000000000E+00 -0.1739974831772E-03
 0.1102431718029E-02 -0.6383639102252E-02  0.0000000000000E+00 -0.5192342420635E-04
 0.1155205508871E-02 -0.6397413707319E-02  0.0000000000000E+00  0.6885438175094E-04
 0.1191366588240E-02 -0.6399683529725E-02  0.0000000000000E+00  0.1871241346498E-03
 0.1212313698851E-02 -0.6391424747615E-02  0.0000000000000E+00  0.3026742426846E-03
 0.1219463854279E-02 -0.6373459671025E-02  0.0000000000000E+00  0.4159867097051E-03
 0.1214185500388E-02 -0.6346414790164E-02  0.0000000000000E+00  0.5279390655202E-03
 0.1197782004186E-02 -0.6310716405688E-02  0.0000000000000E+00  0.6395398918618E-03
 0.1171510197233E-02 -0.6266609411747E-02  0.0000000000000E+00  0.7517017035215E-03
 0.1136623561815E-02 -0.6214190221748E-02  0.0000000000000E+00  0.8650446020231E-03
 0.1094435867073E-02 -0.6153451676708E-02  0.0000000000000E+00  0.9797177014129E-03
 0.1046400716595E-02 -0.6084335900668E-02  0.0000000000000E+00  0.1095237270962E-02
 0.9942089117949E-03 -0.6006799391673E-02  0.0000000000000E+00  0.1210332500515E-02
 0.9399032295896E-03 -0.5920892268148E-02  0.0000000000000E+00  0.1322799242853E-02
 0.8860064600026E-03 -0.5826848415026E-02  0.0000000000000E+00  0.1429375078004E-02
 0.8356622652951E-03 -0.5725190433834E-02  0.0000000000000E+00  0.1525635863597E-02
 0.7927868312251E-03 -0.5616854361130E-02  0.0000000000000E+00  0.1605937365571E-02
 0.7622363388955E-03 -0.5503364649179E-02  0.0000000000000E+00  0.1663461361774E-02
 0.7499550974433E-03 -0.5387006628496E-02  0.0000000000000E+00  0.1690302494723E-02
 0.7630896366870E-03 -0.5270943584730E-02  0.0000000000000E+00  0.1677531863666E-02
 0.8101107427426E-03 -0.5159347762287E-02  0.0000000000000E+00  0.1615392542635E-02
 0.9009466368666E-03 -0.5057573355221E-02  0.0000000000000E+00  0.1493766947974E-02
 0.1047090920768E-02 -0.4972355840921E-02  0.0000000000000E+00  0.1303045749706E-02
 0.1261604762807E-02 -0.4911979011192E-02  0.0000000000000E+00  0.1035528755481E-02
 0.1558874020768E-02 -0.4886295552698E-02  0.0000000000000E+00  0.6874549394713E-03
 0.1953917937197E-02 -0.4906424785997E-02  0.0000000000000E+00  0.2616516088578E-03
 0.2461063948094E-02 -0.4983896583863E-02  0.0000000000000E+00 -0.2294847169824E-03
 0.3091809009658E-02 -0.5129084001005E-02  0.0000000000000E+00 -0.7612204357043E-03
 0.3851607076386E-02 -0.5348814427057E-02  0.0000000000000E+00 -0.1294896745670E-02
 0.4735843419160E-02 -0.5643233709890E-02  0.0000000000000E+00 -0.1779247405146E-02
 0.5726111401941E-02 -0.6002697870693E-02  0.0000000000000E+00 -0.2156242194370E-02
 0.6788448463223E-02 -0.6406130742515E-02  0.0000000000000E+00 -0.2371742819572E-02
 0.7875511789367E-02 -0.6822566401139E-02  0.0000000000000E+00 -0.2388559001985E-02
 0.8932967384975E-02 -0.7216182641946E-02  0.0000000000000E+00 -0.2195482203953E-02
 0.8061764037012E-04 -0.5819943837920E-02  0.0000000000000E+00 -0.6790890563816E-03
 0.2418298507910E-03 -0.5919351843814E-02  0.0000000000000E+00 -0.6620569830518E-03
 0.4005278073295E-03 -0.6015349736450E-02  0.0000000000000E+00 -0.6213246363054E-03
 0.5518762338127E-03 -0.6104431597738E-02  0.0000000000000E+00 -0.5581846898724E-03
 0.6914939317630E-03 -0.6183551076186E-02  0.0000000000000E+00 -0.4758835955616E-03
 0.8159883450105E-03 -0.6250506518784E-02  0.0000000000000E+00 -0.3789614381744E-03
 0.9231917549495E-03 -0.6304073011458E-02  0.0000000000000E+00 -0.2723363260577E-03
 0.1012117276870E-02 -0.6343906988821E-02  0.0000000000000E+00 -0.1604853875429E-03
 0.1082736096451E-02 -0.6370317132483E-02  0.0000000000000E+00 -0.4692082916302E-04
 0.1135691857019E-02 -0.6384001621168E-02  0.0000000000000E+00  0.6600920846483E-04
 0.1172035710603E-02 -0.6385819367846E-02  0.0000000000000E+00  0.1770683026093E-03
 0.1193022696939E-02 -0.6376624039526E-02  0.0000000000000E+00  0.2859305578231E-03
 0.1199978455988E-02 -0.6357162266055E-02  0.0000000000000E+00  0.3929183883428E-03
 0.1194227976057E-02 -0.6328024105681E-02  0.0000000000000E+00  0.4987352945574E-03
 0.1177072709488E-02 -0.6289631056380E-02  0.0000000000000E+00  0.6042206000840E-03
 0.1149803474357E-02 -0.6242249342076E-02  0.0000000000000E+00  0.7101337212712E-03
 0.1113739791277E-02 -0.6186020133255E-02  0.0000000000000E+00  0.8169650900902E-03
 0.1070291526008E-02 -0.6121004489887E-02  0.0000000000000E+00  0.9247637652916E-03
 0.1021037657631E-02 -0.6047238134841E-02  0.0000000000000E+00  0.1032982089234E-02
 0.9678233366891E-03 -0.5964799774930E-02  0.0000000000000E+00  0.1140329393226E-02
 0.9128740178906E-03 -0.5873894183801E-02  0.0000000000000E+00  0.1244635182464E-02
 0.8589218515537E-03 -0.5774945947753E-02  0.0000000000000E+00  0.1342734135927E-02
 0.8093436448624E-03 -0.5668707747339E-02  0.0000000000000E+00  0.1430373243319E-02
 0.7683075475206E-03 -0.5556386610556E-02  0.0000000000000E+00  0.1502164627174E-02
 0.7409312727361E-03 -0.5439813278911E-02  0.0000000000000E+00  0.1551642393524E-02
 0.7334194323381E-03 -0.5321608396369E-02  0.0000000000000E+00  0.1571362457692E-02
 0.7531635092187E-03 -0.5205296963803E-02  0.0000000000000E+00  0.1552989052653E-02
 0.8088354404869E-03 -0.5095427059209E-02  0.0000000000000E+00  0.1487521869947E-02
 0.9104696601244E-03 -0.4997710007922E-02  0.0000000000000E+00  0.1365794332083E-02
 0.1069491991311E-02 -0.4919158975608E-02  0.0000000000000E+00  0.1179354155125E-02
 0.1298614640117E-02 -0.4868164055388E-02  0.0000000000000E+00  0.9218260041163E-03
 0.1611467880317E-02 -0.4854394713527E-02  0.0000000000000E+00  0.5908097377370E-03
 0.2021793334524E-02 -0.4888373763353E-02  0.0000000000000E+00  0.1902532025863E-03
 0.2542063500258E-02 -0.4980538965797E-02  0.0000000000000E+00 -0.2670158912771E-03
 0.3181427810333E-02 -0.5139699135692E-02  0.0000000000000E+00 -0.7571305067071E-03
 0.3942831754051E-02 -0.5370852496348E-02  0.0000000000000E+00 -0.1244264031049E-02
 0.4819625678040E-02 -0.5672513720055E-02  0.0000000000000E+00 -0.1682360551846E-02
 0.5792695908848E-02 -0.6034287518325E-02  0.0000000000000E+00 -0.2020654068772E-02
 0.6829455215600E-02 -0.6435871691884E-02  0.0000000000000E+00 -0.2212824676539E-02
 0.7886027953850E-02 -0.6848657972139E-02  0.0000000000000E+00 -0.2227482778499E-02
 0.8912393064845E-02 -0.7239783763186E-02  0.0000000000000E+00 -0.2055382302354E-02
 0.7881252663598E-04 -0.5815469942569E-02  0.0000000000000E+00 -0.6197110671201E-03
 0.2363662044918E-03 -0.5912679195258E-02  0.0000000000000E+00 -0.6042225377290E-03
 0.3914739478004E-03 -0.6006626212304E-02  0.0000000000000E+00 -0.5673247730072E-03
 0.5396152127966E-03 -0.6094008462099E-02  0.0000000000000E+00 -0.5101517352533E-03
 0.6766599837252E-03 -0.6171915440150E-02  0.0000000000000E+00 -0.4354863937627E-03
 0.7993325938991E-03 -0.6238165328365E-02  0.0000000000000E+00 -0.3472451315855E-03
 0.9054378891473E-03 -0.6291438728716E-02  0.0000000000000E+00 -0.2497280119992E-03
 0.9938527166172E-03 -0.6331220167411E-02  0.0000000000000E+00 -0.1469198351419E-03
 0.1064356316673E-02 -0.6357616557019E-02  0.0000000000000E+00 -0.4201728983785E-04
 0.1117392913145E-02 -0.6371133958089E-02  0.0000000000000E+00  0.6277577509886E-04
 0.1153839408222E-02 -0.6372472643927E-02  0.0000000000000E+00  0.1662325203914E-03
 0.1174818171063E-02 -0.6362370267624E-02  0.0000000000000E+00  0.2679467520058E-03
 0.1181568222017E-02 -0.6341499434119E-02  0.0000000000000E+00  0.3681104665099E-03
 0.1175371772941E-02 -0.6310412930903E-02  0.0000000000000E+00  0.4672764977352E-03
 0.1157526631484E-02 -0.6269525716358E-02  0.0000000000000E+00  0.5661336297061E-03
 0.1129354447889E-02 -0.6219123543822E-02  0.0000000000000E+00  0.6653043319648E-03
 0.1092236610037E-02 -0.6159390709722E-02  0.0000000000000E+00  0.7651651578763E-03
 0.1047673883356E-02 -0.6090454835774E-02  0.0000000000000E+00  0.8656824603483E-03
 0.9973641548602E-03 -0.6012443119084E-02  0.0000000000000E+00  0.9662649657941E-03
 0.9432988506928E-03 -0.5925553309842E-02  0.0000000000000E+00  0.1065626283908E-02
 0.8878761098552E-03 -0.5830140012306E-02  0.0000000000000E+00  0.1161657925617E-02
 0.8340252741817E-03 -0.5726811411840E-02  0.0000000000000E+00  0.1251324279131E-02
 0.7853416574155E-03 -0.5616540161908E-02  0.0000000000000E+00  0.1330580141096E-02
 0.7462277993334E-03 -0.5500790262203E-02  0.0000000000000E+00  0.1394334014646E-02
 0.7220418602238E-03 -0.5381680006011E-02  0.0000000000000E+00  0.1436513573490E-02
 0.7192230849899E-03 -0.5262140592935E-02  0.0000000000000E+00  0.1450175304806E-02
 0.7453760138621E-03 -0.5146025534845E-02  0.0000000000000E+00  0.1427608992970E-02
 0.8093344909811E-03 -0.5038214460216E-02  0.0000000000000E+00  0.1360586690938E-02
 0.9211935281559E-03 -0.4944719058030E-02  0.0000000000000E+00  0.1240875883249E-02
 0.1092264267994E-02 -0.4872762714987E-02  0.0000000000000E+00  0.1061109968470E-02
 0.1334873675045E-02 -0.4830771269401E-02  0.0000000000000E+00  0.8160885061930E-03
 0.1661891884017E-02 -0.4828173630365E-02  0.0000000000000E+00  0.5045250705265E-03
 0.2085840706275E-02 -0.4874878479055E-02  0.0000000000000E+00  0.1311453717647E-03
 0.2617492918375E-02 -0.4980286391613E-02  0.0000000000000E+00 -0.2911886156440E-03
 0.3263928575725E-02 -0.5151798041468E-02  0.0000000000000E+00 -0.7398282670305E-03
 0.4025975714707E-02 -0.5392844609299E-02  0.0000000000000E+00 -0.1181921605058E-02
 0.4895375465073E-02 -0.5700629339315E-02  0.0000000000000E+00 -0.1576363722820E-02
 0.5852600725531E-02 -0.6064257063508E-02  0.0000000000000E+00 -0.1878876985818E-02
 0.6866380375627E-02 -0.6464196495461E-02  0.0000000000000E+00 -0.2049820003485E-02
 0.7895811273464E-02 -0.6873851028741E-02  0.0000000000000E+00 -0.2062696558960E-02
 0.8894646063865E-02 -0.7262933369974E-02  0.0000000000000E+00 -0.1910121080245E-02
 0.7717817061988E-04 -0.5811443657959E-02  0.0000000000000E+00 -0.5616160550521E-03
 0.2314275478089E-03 -0.5906657426617E-02  0.0000000000000E+00 -0.5476166931600E-03
 0.3832961217072E-03 -0.5998733659306E-02  0.0000000000000E+00 -0.5143774970901E-03
 0.5285257142347E-03 -0.6084539710869E-02  0.0000000000000E+00 -0.4628955568129E-03
 0.6632013034311E-03 -0.6161282763719E-02  0.0000000000000E+00 -0.3955565480077E-03
 0.7841542548879E-03 -0.6226804312650E-02  0.0000000000000E+00 -0.3157321262738E-03
 0.8891757611635E-03 -0.6279711501691E-02  0.0000000000000E+00 -0.2271670046279E-03
 0.9770337790497E-03 -0.6319346104796E-02  0.0000000000000E+00 -0.1333857624862E-03
 0.1047345968263E-02 -0.6345641616504E-02  0.0000000000000E+00 -0.3727181197448E-04
 0.1100383303927E-02 -0.6358934195725E-02  0.0000000000000E+00  0.5913369620868E-04
 0.1136867374049E-02 -0.6359780036313E-02  0.0000000000000E+00  0.1546417591842E-03
 0.1157799529714E-02 -0.6348808645553E-02  0.0000000000000E+00  0.2487957096187E-03
 0.1164337949634E-02 -0.6326621730873E-02  0.0000000000000E+00  0.3416839554877E-03
 0.1157723685317E-02 -0.6293735110344E-02  0.0000000000000E+00  0.4337310774973E-03
 0.1139249761450E-02 -0.6250556082416E-02  0.0000000000000E+00  0.5254939197327E-03
 0.1110265670791E-02 -0.6197388184356E-02  0.0000000000000E+00  0.6174743751032E-03
 0.1072210252010E-02 -0.6134456741341E-02  0.0000000000000E+00  0.7099510961730E-03
 0.1026669386986E-02 -0.6061953366990E-02  0.0000000000000E+00  0.8028249826572E-03
 0.9754525663583E-03 -0.5980093332549E-02  0.0000000000000E+00  0.8954809232579E-03
 0.9206884216342E-03 -0.5889188706761E-02  0.0000000000000E+00  0.9866598968972E-03
 0.8649367007472E-03 -0.5789737320272E-02  0.0000000000000E+00  0.1074342176778E-02
 0.8113106570605E-03 -0.5682521902133E-02  0.0000000000000E+00  0.1155652270292E-02
 0.7636083942218E-03 -0.5568722896914E-02  0.0000000000000E+00  0.1226786506288E-02
 0.7264483493757E-03 -0.5450045165045E-02  0.0000000000000E+00  0.1282985823883E-02
 0.7054075317392E-03 -0.5328873924350E-02  0.0000000000000E+00  0.1318607425956E-02
 0.7071344729339E-03 -0.5208424850032E-02  0.0000000000000E+00  0.1327240758579E-02
 0.7394167323449E-03 -0.5092846617187E-02  0.0000000000000E+00  0.1301824739307E-02
 0.8112151874898E-03 -0.4987308114270E-02  0.0000000000000E+00  0.1234908996002E-02
 0.9326478057413E-03 -0.4898070023758E-02  0.0000000000000E+00  0.1119167201823E-02
 0.1114876748241E-02 -0.4832508639713E-02  0.0000000000000E+00  0.9482387447891E-03
 0.1369824735060E-02 -0.4799030766860E-02  0.0000000000000E+00  0.7179476654415E-03
 0.1709617276008E-02 -0.4806788167139E-02  0.0000000000000E+00  0.4278889824317E-03
 0.2145631852284E-02 -0.4865079908469E-02  0.0000000000000E+00  0.8326165546585E-04
 0.2687102873495E-02 -0.4982340465217E-02  0.0000000000000E+00 -0.3033702336928E-03
 0.3339301926682E-02 -0.5164718091651E-02  0.0000000000000E+00 -0.7108445877141E-03
 0.4101280043510E-02 -0.5414311755620E-02  0.0000000000000E+00 -0.1109350023316E-02
 0.4963512142085E-02 -0.5727275550068E-02  0.0000000000000E+00 -0.1462451763403E-02
 0.5906263554978E-02 -0.6092394872720E-02  0.0000000000000E+00 -0.1731677390408E-02
 0.6899493035270E-02 -0.6490875277502E-02  0.0000000000000E+00 -0.1883146390332E-02
 0.7904869155780E-02 -0.6897853543141E-02  0.0000000000000E+00 -0.1894541636095E-02
 0.8879460926224E-02 -0.7285300968756E-02  0.0000000000000E+00 -0.1760128379556E-02
 0.7570788641150E-04 -0.5807839039771E-02  0.0000000000000E+00 -0.5046826524395E-03
 0.2269912869363E-03 -0.5901254039388E-02  0.0000000000000E+00 -0.4921272774188E-03
 0.3759556163464E-03 -0.5991636765621E-02  0.0000000000000E+00 -0.4624012642712E-03
 0.5185609921886E-03 -0.6075996108759E-02  0.0000000000000E+00 -0.4163806512545E-03
 0.6510755286412E-03 -0.6151640450222E-02  0.0000000000000E+00 -0.3561067465519E-03
 0.7704270031626E-03 -0.6216435790124E-02  0.0000000000000E+00 -0.2844720870133E-03
 0.8744024820554E-03 -0.6268932262364E-02  0.0000000000000E+00 -0.2047205699445E-03
 0.9616832265319E-03 -0.6308353416747E-02  0.0000000000000E+00 -0.1199470096587E-03
 0.1031751511912E-02 -0.6334484509082E-02  0.0000000000000E+00 -0.3272690460722E-04
 0.1084728848764E-02 -0.6347512698032E-02  0.0000000000000E+00  0.5507450121228E-04
 0.1121199685607E-02 -0.6347864816355E-02  0.0000000000000E+00  0.1423291781026E-03
 0.1142056297118E-02 -0.6336071054609E-02  0.0000000000000E+00  0.2285558910139E-03
 0.1148382535409E-02 -0.6312666506459E-02  0.0000000000000E+00  0.3137638054013E-03
 0.1141380649433E-02 -0.6278131268500E-02  0.0000000000000E+00  0.3982703625988E-03
 0.1122338236379E-02 -0.6232864390303E-02  0.0000000000000E+00  0.4825185237819E-03
 0.1092629786147E-02 -0.6177185499676E-02  0.0000000000000E+00  0.5669057737002E-03
 0.1053746962865E-02 -0.6111358443714E-02  0.0000000000000E+00  0.6516286475734E-03
 0.1007354470991E-02 -0.6035635444164E-02  0.0000000000000E+00  0.7365394185724E-03
 0.9553653640471E-03 -0.5950315300171E-02  0.0000000000000E+00  0.8210181073801E-03
 0.9000355271098E-03 -0.5855818267562E-02  0.0000000000000E+00  0.9038548783155E-03
 0.8440742874559E-03 -0.5752777194825E-02  0.0000000000000E+00  0.9831437349224E-03
 0.7907645679293E-03 -0.5642138553076E-02  0.0000000000000E+00  0.1056197353746E-02
 0.7440906584994E-03 -0.5525276579452E-02  0.0000000000000E+00  0.1119484264468E-02
 0.7088677397916E-03 -0.5404119130788E-02  0.0000000000000E+00  0.1168609941866E-02
 0.6908698937723E-03 -0.5281296268475E-02  0.0000000000000E+00  0.1198392050199E-02
 0.6969303127279E-03 -0.5160281279543E-02  0.0000000000000E+00  0.1202979120797E-02
 0.7349917925041E-03 -0.5045485124958E-02  0.0000000000000E+00  0.1175975233156E-02
 0.8141120026469E-03 -0.4942326248381E-02  0.0000000000000E+00  0.1110704445194E-02
 0.9444021362437E-03 -0.4857268712659E-02  0.0000000000000E+00  0.1000711076858E-02
 0.1136852794565E-02 -0.4797794312748E-02  0.0000000000000E+00  0.8405567851625E-03
 0.1402978632376E-02 -0.4772250446614E-02  0.0000000000000E+00  0.6269439512571E-03
 0.1754192477326E-02 -0.4789492882469E-02  0.0000000000000E+00  0.3601352420319E-03
 0.2200815677989E-02 -0.4858233001107E-02  0.0000000000000E+00  0.4553607872843E-04
 0.2750706833453E-02 -0.4986020803885E-02  0.0000000000000E+00 -0.3048618679894E-03
 0.3407570521478E-02 -0.5177903139450E-02  0.0000000000000E+00 -0.6715831737369E-03
 0.4168974921020E-02 -0.5434854446542E-02  0.0000000000000E+00 -0.1027869200576E-02
 0.5024403478755E-02 -0.5752193017323E-02  0.0000000000000E+00 -0.1341674148466E-02
 0.5954055552429E-02 -0.6118512930470E-02  0.0000000000000E+00 -0.1579739297960E-02
 0.6929020691640E-02 -0.6515706935242E-02  0.0000000000000E+00 -0.1713200084614E-02
 0.7913201753423E-02 -0.6920413899617E-02  0.0000000000000E+00 -0.1723334475503E-02
 0.8866574382815E-02 -0.7306584847382E-02  0.0000000000000E+00 -0.1605805524532E-02
 0.7439627779033E-04 -0.5804635640125E-02  0.0000000000000E+00 -0.4487928227744E-03
 0.2230390622750E-03 -0.5896443270994E-02  0.0000000000000E+00 -0.4376438891890E-03
 0.3694206688564E-03 -0.5985307378171E-02  0.0000000000000E+00 -0.4113111678599E-03
 0.5096822395566E-03 -0.6068354306043E-02  0.0000000000000E+00 -0.3705610172520E-03
 0.6402469644804E-03 -0.6142978758838E-02  0.0000000000000E+00 -0.3171326891090E-03
 0.7581281628429E-03 -0.6207070867635E-02  0.0000000000000E+00 -0.2534939236031E-03
 0.8611150799857E-03 -0.6259136622651E-02  0.0000000000000E+00 -0.1824347984118E-03
 0.9478202464738E-03 -0.6298302023251E-02  0.0000000000000E+00 -0.1066484924036E-03
 0.1017613131464E-02 -0.6324226424314E-02  0.0000000000000E+00 -0.2840981197551E-04
 0.1070487310178E-02 -0.6336967509579E-02  0.0000000000000E+00  0.5060110530980E-04
 0.1106907365235E-02 -0.6336837351070E-02  0.0000000000000E+00  0.1293359916680E-03
 0.1127668480779E-02 -0.6324276288949E-02  0.0000000000000E+00  0.2073113296632E-03
 0.1133787200193E-02 -0.6299757973980E-02  0.0000000000000E+00  0.2844788482908E-03
 0.1126429900288E-02 -0.6263728799374E-02  0.0000000000000E+00  0.3610683983095E-03
 0.1106878507993E-02 -0.6216579423902E-02  0.0000000000000E+00  0.4374262182421E-03
 0.1076529785701E-02 -0.6158643916091E-02  0.0000000000000E+00  0.5138609835443E-03
 0.1036923418403E-02 -0.6090221777713E-02  0.0000000000000E+00  0.5905023589431E-03
 0.9897961960960E-03 -0.6011621733010E-02  0.0000000000000E+00  0.6671700923316E-03
 0.9371560505238E-03 -0.5923220540480E-02  0.0000000000000E+00  0.7432572455392E-03
 0.8813753955197E-03 -0.5825539253606E-02  0.0000000000000E+00  0.8176235022965E-03
 0.8253002759546E-03 -0.5719336098197E-02  0.0000000000000E+00  0.8884996081684E-03
 0.7723682220196E-03 -0.5605708942428E-02  0.0000000000000E+00  0.9534119735756E-03
 0.7267323954465E-03 -0.5486210249038E-02  0.0000000000000E+00  0.1009128886600E-02
 0.6933851289079E-03 -0.5362971564325E-02  0.0000000000000E+00  0.1051648587503E-02
 0.6782758940483E-03 -0.5238844639187E-02  0.0000000000000E+00  0.1076275439257E-02
 0.6883989305080E-03 -0.5117533165772E-02  0.0000000000000E+00  0.1077737653970E-02
 0.7318269878068E-03 -0.5003678442505E-02  0.0000000000000E+00  0.1050314263951E-02
 0.8176889787610E-03 -0.4902911717941E-02  0.0000000000000E+00  0.9880943437217E-03
 0.9560671391309E-03 -0.4821860653683E-02  0.0000000000000E+00  0.8854526067659E-03
 0.1157768599176E-02 -0.4768074508488E-02  0.0000000000000E+00  0.7377888775663E-03
 0.1433909230299E-02 -0.4749813766688E-02  0.0000000000000E+00  0.5425456435771E-03
 0.1795234318995E-02 -0.4775634263727E-02  0.0000000000000E+00  0.3004600538946E-03
 0.2251106021398E-02 -0.4853695021033E-02  0.0000000000000E+00  0.1691353142630E-04
 0.2808167458451E-02 -0.4990749483068E-02  0.0000000000000E+00 -0.2968988804168E-03
 0.3468777617937E-02 -0.5190886760545E-02  0.0000000000000E+00 -0.6233345809436E-03
 0.4229274832728E-02 -0.5454138942235E-02  0.0000000000000E+00 -0.9386641078609E-03
 0.5078370348156E-02 -0.5775161368277E-02  0.0000000000000E+00 -0.1214962796876E-02
 0.5996291877775E-02 -0.6142446508149E-02  0.0000000000000E+00 -0.1423678912353E-02
 0.6955154322458E-02 -0.6538516537109E-02  0.0000000000000E+00 -0.1540354065937E-02
 0.7920800108249E-02 -0.6941312824761E-02  0.0000000000000E+00 -0.1549374054856E-02
 0.8855734980286E-02 -0.7326511799428E-02  0.0000000000000E+00 -0.1447543611577E-02
 0.7323900806241E-04 -0.5801817460851E-02  0.0000000000000E+00 -0.3938312095541E-03
 0.2195560039873E-03 -0.5892204835864E-02  0.0000000000000E+00 -0.3840575822772E-03
 0.3636653150721E-03 -0.5979723213897E-02  0.0000000000000E+00 -0.3610196221819E-03
 0.5018573984580E-03 -0.6061595842700E-02  0.0000000000000E+00 -0.3253821005962E-03
 0.6306857478272E-03 -0.6135290367178E-02  0.0000000000000E+00 -0.2786159812378E-03
 0.7472384297816E-03 -0.6198719622640E-02  0.0000000000000E+00 -0.2228089758316E-03
 0.8493107481402E-03 -0.6250355530853E-02  0.0000000000000E+00 -0.1603374454988E-03
 0.9354610373420E-03 -0.6289244029792E-02  0.0000000000000E+00 -0.9351833058653E-04
 0.1004965437778E-02 -0.6314938412254E-02  0.0000000000000E+00 -0.2433386805667E-04
 0.1057709046686E-02 -0.6327385057127E-02  0.0000000000000E+00  0.4572708074242E-04
 0.1094052894727E-02 -0.6326795577727E-02  0.0000000000000E+00  0.1157111357272E-03
 0.1114706933715E-02 -0.6313530319178E-02  0.0000000000000E+00  0.1851514730976E-03
 0.1120627733819E-02 -0.6288007323528E-02  0.0000000000000E+00  0.2539616526404E-03
 0.1112949159180E-02 -0.6250641912748E-02  0.0000000000000E+00  0.3223017222103E-03
 0.1092947542460E-02 -0.6201816580237E-02  0.0000000000000E+00  0.3904371690562E-03
 0.1062039290454E-02 -0.6141878217625E-02  0.0000000000000E+00  0.4586025706147E-03
 0.1021807149543E-02 -0.6071158797436E-02  0.0000000000000E+00  0.5268751279866E-03
 0.9740528756287E-03 -0.5990018805159E-02  0.0000000000000E+00  0.5950571707216E-03
 0.9208700354719E-03 -0.5898906486409E-02  0.0000000000000E+00  0.6625714230465E-03
 0.8647361757309E-03 -0.5798435189212E-02  0.0000000000000E+00  0.7283657543583E-03
 0.8086204803041E-03 -0.5689477612290E-02  0.0000000000000E+00  0.7908285634288E-03
 0.7560993367266E-03 -0.5573269328631E-02  0.0000000000000E+00  0.8477229803841E-03
 0.7114769098691E-03 -0.5451524124591E-02  0.0000000000000E+00  0.8961414877978E-03
 0.6799028418012E-03 -0.5326556765228E-02  0.0000000000000E+00  0.9324995926271E-03
 0.6674806102854E-03 -0.5201416785282E-02  0.0000000000000E+00  0.9526102902441E-03
 0.6813430944272E-03 -0.5080011075991E-02  0.0000000000000E+00  0.9517973049779E-03
 0.7296703205247E-03 -0.4967180566750E-02  0.0000000000000E+00  0.9250194694581E-03
 0.8216414790624E-03 -0.4868735687175E-02  0.0000000000000E+00  0.8671171437744E-03
 0.9672946967834E-03 -0.4791433592261E-02  0.0000000000000E+00  0.7732530874777E-03
 0.1177251235750E-02 -0.4742861595642E-02  0.0000000000000E+00  0.6395838317706E-03
 0.1462248585567E-02 -0.4731177028306E-02  0.0000000000000E+00  0.4641643470331E-03
 0.1832420042627E-02 -0.4764644175219E-02  0.0000000000000E+00  0.2480348121146E-03
 0.2296271162675E-02 -0.4850915124899E-02  0.0000000000000E+00 -0.3643747051862E-05
 0.2859385498150E-02 -0.4996037853270E-02  0.0000000000000E+00 -0.2806539311247E-03
 0.3522978407032E-02 -0.5203278734117E-02  0.0000000000000E+00 -0.5672901362635E-03
 0.4282375660915E-02 -0.5471886686593E-02  0.0000000000000E+00 -0.8428067240593E-03
 0.5125690933148E-02 -0.5795993999933E-02  0.0000000000000E+00 -0.1083153768478E-02
 0.6033239511702E-02 -0.6164052865104E-02  0.0000000000000E+00 -0.1264056091260E-02
 0.6978052686899E-02 -0.6559152425738E-02  0.0000000000000E+00 -0.1364959716147E-02
 0.7927647164659E-02 -0.6960358401964E-02  0.0000000000000E+00 -0.1372949026548E-02
 0.8846709229888E-02 -0.7344836841462E-02  0.0000000000000E+00 -0.1285733295291E-02
 0.7223260720037E-04 -0.5799372094246E-02  0.0000000000000E+00 -0.3396846002177E-03
 0.2165301268070E-03 -0.5888522890280E-02  0.0000000000000E+00 -0.3312605888957E-03
 0.3586684432314E-03 -0.5974866785814E-02  0.0000000000000E+00 -0.3114368889876E-03
 0.4950601567730E-03 -0.6055706287293E-02  0.0000000000000E+00 -0.2807823710233E-03
 0.6223671024277E-03 -0.6128569942438E-02  0.0000000000000E+00 -0.2405265587996E-03
 0.7377415677663E-03 -0.6191391175815E-02  0.0000000000000E+00 -0.1924137813419E-03
 0.8389869792745E-03 -0.6242615750409E-02  0.0000000000000E+00 -0.1384405162644E-03
 0.9246192471836E-03 -0.6281224422833E-02  0.0000000000000E+00 -0.8056990675409E-04
 0.9938380363967E-03 -0.6306682102280E-02  0.0000000000000E+00 -0.2049992646547E-04
 0.1046437565589E-02 -0.6318840755101E-02  0.0000000000000E+00  0.4047577478404E-04
 0.1082690671186E-02 -0.6317825434628E-02  0.0000000000000E+00  0.1015107643623E-03
 0.1103233692164E-02 -0.6303926551715E-02  0.0000000000000E+00  0.1621708816819E-03
 0.1108970737619E-02 -0.6277512855800E-02  0.0000000000000E+00  0.2223482850936E-03
 0.1101006829233E-02 -0.6238971709247E-02  0.0000000000000E+00  0.2821491047773E-03
 0.1080613027638E-02 -0.6188677960436E-02  0.0000000000000E+00  0.3417726213324E-03
 0.1049222829618E-02 -0.6126989726667E-02  0.0000000000000E+00  0.4013928665507E-03
 0.1008456949364E-02 -0.6054267990318E-02  0.0000000000000E+00  0.4610478794348E-03
 0.9601746612139E-03 -0.5970919702503E-02  0.0000000000000E+00  0.5205364454410E-03
 0.9065454441460E-03 -0.5877457333782E-02  0.0000000000000E+00  0.5793260822238E-03
 0.8501400059664E-03 -0.5774577049624E-02  0.0000000000000E+00  0.6364696799751E-03
 0.7940364820816E-03 -0.5663254016229E-02  0.0000000000000E+00  0.6905319803367E-03
 0.7419338002666E-03 -0.5544846659374E-02  0.0000000000000E+00  0.7395331744527E-03
 0.6982688416697E-03 -0.5421212067835E-02  0.0000000000000E+00  0.7809112785536E-03
 0.6683286118567E-03 -0.5294826835456E-02  0.0000000000000E+00  0.8115200184730E-03
 0.6583496542676E-03 -0.5168913885529E-02  0.0000000000000E+00  0.8276990737096E-03
 0.6755823855752E-03 -0.5047556353932E-02  0.0000000000000E+00  0.8253795164964E-03
 0.7282940225179E-03 -0.4935765517726E-02  0.0000000000000E+00  0.8002011163223E-03
 0.8256974027083E-03 -0.4839500494866E-02  0.0000000000000E+00  0.7477392453028E-03
 0.9777777860298E-03 -0.4765619170296E-02  0.0000000000000E+00  0.6639025345410E-03
 0.1194976491359E-02 -0.4721725258601E-02  0.0000000000000E+00  0.5455278551251E-03
 0.1487682310773E-02 -0.4715866381862E-02  0.0000000000000E+00  0.3911675925866E-03
 0.1865480161402E-02 -0.4756033680409E-02  0.0000000000000E+00  0.2020155294610E-03
 0.2336124921373E-02 -0.4849425175739E-02  0.0000000000000E+00 -0.1715269929939E-04
 0.2904290836967E-02 -0.5001475465378E-02  0.0000000000000E+00 -0.2572417265745E-03
 0.3570233506375E-02 -0.5214754167153E-02  0.0000000000000E+00 -0.5045551987890E-03
 0.4328453004545E-02 -0.5487866103145E-02  0.0000000000000E+00 -0.7412746489669E-03
 0.5166604371156E-02 -0.5814533907624E-02  0.0000000000000E+00 -0.9470044989563E-03
 0.6065123298886E-02 -0.6183209610631E-02  0.0000000000000E+00 -0.1101383775504E-02
 0.6997846264339E-02 -0.6577483760817E-02  0.0000000000000E+00 -0.1187349863795E-02
 0.7933719999316E-02 -0.6977383096408E-02  0.0000000000000E+00 -0.1194343138988E-02
 0.8839285313098E-02 -0.7361342960897E-02  0.0000000000000E+00 -0.1120769452833E-02
 0.7137431981263E-04 -0.5797290019157E-02  0.0000000000000E+00 -0.2862414858070E-03
 0.2139518432024E-03 -0.5885385183703E-02  0.0000000000000E+00 -0.2791460874055E-03
 0.3544130249258E-03 -0.5970724513339E-02  0.0000000000000E+00 -0.2624715011341E-03
 0.4892691147458E-03 -0.6050674502590E-02  0.0000000000000E+00 -0.2366946306010E-03
 0.6152706945213E-03 -0.6122813742259E-02  0.0000000000000E+00 -0.2028247538529E-03
 0.7296241120846E-03 -0.6185093696622E-02  0.0000000000000E+00 -0.1622925116493E-03
 0.8301416326575E-03 -0.6235940209783E-02  0.0000000000000E+00 -0.1167426336757E-03
 0.9153063088252E-03 -0.6274281621355E-02  0.0000000000000E+00 -0.6780385137373E-04
 0.9842559936530E-03 -0.6299510300393E-02  0.0000000000000E+00 -0.1689783367941E-04
 0.1036709999211E-02 -0.6311399531090E-02  0.0000000000000E+00  0.3487931996271E-04
 0.1072867419023E-02 -0.6310001255952E-02  0.0000000000000E+00  0.8679762711858E-04
 0.1093302298864E-02 -0.6295546088418E-02  0.0000000000000E+00  0.1384688350440E-03
 0.1098873873329E-02 -0.6268360140319E-02  0.0000000000000E+00  0.1897780305986E-03
 0.1090662208158E-02 -0.6228806292452E-02  0.0000000000000E+00  0.2407913102638E-03
 0.1069933599138E-02 -0.6177252499751E-02  0.0000000000000E+00  0.2916546747622E-03
 0.1038136132023E-02 -0.6114066517006E-02  0.0000000000000E+00  0.3424937755165E-03
 0.9969232795039E-03 -0.6039634635572E-02  0.0000000000000E+00  0.3933194570646E-03
 0.9482041089876E-03 -0.5954404499289E-02  0.0000000000000E+00  0.4439393944207E-03
 0.8942138823419E-03 -0.5858944860764E-02  0.0000000000000E+00  0.4938793624071E-03
 0.8376040099422E-03 -0.5754024386777E-02  0.0000000000000E+00  0.5423121346464E-03
 0.7815468819156E-03 -0.5640707761317E-02  0.0000000000000E+00  0.5879951641775E-03
 0.7298471901055E-03 -0.5520460428324E-02  0.0000000000000E+00  0.6292233574913E-03
 0.6870559403349E-03 -0.5395263834964E-02  0.0000000000000E+00  0.6637985560204E-03
 0.6585775622337E-03 -0.5267734303667E-02  0.0000000000000E+00  0.6890303082078E-03
 0.6507612516997E-03 -0.5141243465199E-02  0.0000000000000E+00  0.7017995743552E-03
 0.6709551842549E-03 -0.5020024161719E-02  0.0000000000000E+00  0.6986533524160E-03
 0.7274961516083E-03 -0.4909230222280E-02  0.0000000000000E+00  0.6759109103835E-03
 0.8296179841180E-03 -0.4814941956341E-02  0.0000000000000E+00  0.6298653897356E-03
 0.9872499901137E-03 -0.4744094086765E-02  0.0000000000000E+00  0.5571312126574E-03
 0.1210666604917E-02 -0.4704291879355E-02  0.0000000000000E+00  0.4551562661619E-03
 0.1509945225366E-02 -0.4703474857482E-02  0.0000000000000E+00  0.3228891790380E-03
 0.1894192122198E-02 -0.4749387445317E-02  0.0000000000000E+00  0.1615497300672E-03
 0.2370519083765E-02 -0.4848831813294E-02  0.0000000000000E+00 -0.2460818878949E-04
 0.2942835196143E-02 -0.5006720863409E-02  0.0000000000000E+00 -0.2277248560605E-03
 0.3610603944460E-02 -0.5225044743217E-02  0.0000000000000E+00 -0.4361617208797E-03
 0.4367661126106E-02 -0.5501886115551E-02  0.0000000000000E+00 -0.6349672734145E-03
 0.5201313733170E-02 -0.5830650222741E-02  0.0000000000000E+00 -0.8072082542799E-03
 0.6092130686790E-02 -0.6199813025888E-02  0.0000000000000E+00 -0.9361364843026E-03
 0.7014640853692E-02 -0.6593398605129E-02  0.0000000000000E+00 -0.1007842632670E-02
 0.7938992365930E-02 -0.6992241968080E-02  0.0000000000000E+00 -0.1013839319679E-02
 0.8833275426927E-02 -0.7375840845898E-02  0.0000000000000E+00 -0.9530535959183E-03
 0.7066198399491E-04 -0.5795564027454E-02  0.0000000000000E+00 -0.2333916967280E-03
 0.2118135723016E-03 -0.5882782366542E-02  0.0000000000000E+00 -0.2276080015217E-03
 0.3508854916734E-03 -0.5967285989775E-02  0.0000000000000E+00 -0.2140306010733E-03
 0.4844670960720E-03 -0.6046492025222E-02  0.0000000000000E+00 -0.1930471016849E-03
 0.6093800800634E-03 -0.6118019252436E-02  0.0000000000000E+00 -0.1654630599744E-03
 0.7228750881338E-03 -0.6179834364137E-02  0.0000000000000E+00 -0.1324191183932E-03
 0.8227729490630E-03 -0.6230348249915E-02  0.0000000000000E+00 -0.9523120314013E-04
 0.9075316851425E-03 -0.6268447904397E-02  0.0000000000000E+00 -0.5520994033796E-04
 0.9762402056467E-03 -0.6293467472724E-02  0.0000000000000E+00 -0.1350791737670E-04
 0.1028557498113E-02 -0.6305116266276E-02  0.0000000000000E+00  0.2897756351762E-04
 0.1064622542037E-02 -0.6303386114998E-02  0.0000000000000E+00  0.7164034080259E-04
 0.1084958088805E-02 -0.6288457963206E-02  0.0000000000000E+00  0.1141488409056E-03
 0.1090386090513E-02 -0.6260622169555E-02  0.0000000000000E+00  0.1563930431264E-03
 0.1081965687087E-02 -0.6220220884792E-02  0.0000000000000E+00  0.1984108261949E-03
 0.1060959051376E-02 -0.6167616098734E-02  0.0000000000000E+00  0.2403060685886E-03
 0.1028826393540E-02 -0.6103183615922E-02  0.0000000000000E+00  0.2821666306785E-03
 0.9872486367459E-03 -0.6027331131114E-02  0.0000000000000E+00  0.3239866028683E-03
 0.9381766842284E-03 -0.5940540804382E-02  0.0000000000000E+00  0.3655933647804E-03
 0.8839011128395E-03 -0.5843429151958E-02  0.0000000000000E+00  0.4065825928690E-03
 0.8271411727701E-03 -0.5736826317065E-02  0.0000000000000E+00  0.4462597144999E-03
 0.7711483943635E-03 -0.5621872757958E-02  0.0000000000000E+00  0.4835888614742E-03
 0.7198160935057E-03 -0.5500124285958E-02  0.0000000000000E+00  0.5171545990407E-03
 0.6777905960002E-03 -0.5373667016485E-02  0.0000000000000E+00  0.5451379027163E-03
 0.6505738962919E-03 -0.5245234364977E-02  0.0000000000000E+00  0.5653186055399E-03
 0.6446079868415E-03 -0.5118321852658E-02  0.0000000000000E+00  0.5751305017856E-03
 0.6673202907959E-03 -0.4997285992980E-02  0.0000000000000E+00  0.5717425181399E-03
 0.7271018234878E-03 -0.4887396823176E-02  0.0000000000000E+00  0.5521504244062E-03
 0.8331982850862E-03 -0.4794831094862E-02  0.0000000000000E+00  0.5133482801567E-03
 0.9954848475469E-03 -0.4726580777977E-02  0.0000000000000E+00  0.4526199061334E-03
 0.1224088101137E-02 -0.4690243655841E-02  0.0000000000000E+00  0.3679634415269E-03
 0.1528817481501E-02 -0.4693659502621E-02  0.0000000000000E+00  0.2586373624406E-03
 0.1918374900556E-02 -0.4744358760225E-02  0.0000000000000E+00  0.1257811332088E-03
 0.2399337185466E-02 -0.4848809711728E-02  0.0000000000000E+00 -0.2698346713786E-04
 0.2974986389670E-02 -0.5011494024934E-02  0.0000000000000E+00 -0.1931202461269E-03
 0.3644147461077E-02 -0.5233931743492E-02  0.0000000000000E+00 -0.3630798831187E-03
 0.4400132459313E-02 -0.5513791060416E-02  0.0000000000000E+00 -0.5247196920085E-03
 0.5229988598706E-02 -0.5844235413771E-02  0.0000000000000E+00 -0.6644061300229E-03
 0.6114415643054E-02 -0.6213776618159E-02  0.0000000000000E+00 -0.7687574965150E-03
 0.7028520874038E-02 -0.6606802591854E-02  0.0000000000000E+00 -0.8267447501971E-03
 0.7943437151433E-02 -0.7004811662906E-02  0.0000000000000E+00 -0.8317219764997E-03
 0.8828517230354E-02 -0.7388168675675E-02  0.0000000000000E+00 -0.7829943454124E-03
 0.7009393126299E-04 -0.5794188761632E-02  0.0000000000000E+00 -0.1810261015779E-03
 0.2101094267066E-03 -0.5880707431867E-02  0.0000000000000E+00 -0.1765408333235E-03
 0.3480752328557E-03 -0.5964543387155E-02  0.0000000000000E+00 -0.1660202263220E-03
 0.4806405850257E-03 -0.6043152551445E-02  0.0000000000000E+00 -0.1497643576239E-03
 0.6046822398576E-03 -0.6114184870330E-02  0.0000000000000E+00 -0.1283876733864E-03
 0.7174857572381E-03 -0.6175619306068E-02  0.0000000000000E+00 -0.1027592562103E-03
 0.8168795359246E-03 -0.6225855798183E-02  0.0000000000000E+00 -0.7388441385894E-04
 0.9013030485347E-03 -0.6263749741349E-02  0.0000000000000E+00 -0.4276891622443E-04
 0.9698076904366E-03 -0.6288590134796E-02  0.0000000000000E+00 -0.1030247808172E-04
 0.1022005555590E-02 -0.6300036162101E-02  0.0000000000000E+00  0.2281694232094E-04
 0.1057988424473E-02 -0.6298032120666E-02  0.0000000000000E+00  0.5611258918714E-04
 0.1078238442845E-02 -0.6282719356840E-02  0.0000000000000E+00  0.8931808274018E-04
 0.1083547836484E-02 -0.6254359509067E-02  0.0000000000000E+00  0.1223379654315E-03
 0.1074958939621E-02 -0.6213277948297E-02  0.0000000000000E+00  0.1551916028069E-03
 0.1053730538918E-02 -0.6159831758885E-02  0.0000000000000E+00  0.1879500220071E-03
 0.1021332527559E-02 -0.6094403201735E-02  0.0000000000000E+00  0.2206721526515E-03
 0.9794678887942E-03 -0.6017417299101E-02  0.0000000000000E+00  0.2533440840856E-03
 0.9301212154674E-03 -0.5929384218163E-02  0.0000000000000E+00  0.2858219482317E-03
 0.8756276563737E-03 -0.5830959246427E-02  0.0000000000000E+00  0.3177810210915E-03
 0.8187611116116E-03 -0.5723022395851E-02  0.0000000000000E+00  0.3486699626301E-03
 0.7628368031590E-03 -0.5606775505650E-02  0.0000000000000E+00  0.3776710868979E-03
 0.7118192497901E-03 -0.5483847443271E-02  0.0000000000000E+00  0.4036708399507E-03
 0.6704311504607E-03 -0.5356408713914E-02  0.0000000000000E+00  0.4252417290622E-03
 0.6442523261322E-03 -0.5227286798011E-02  0.0000000000000E+00  0.4406453908188E-03
 0.6397982495629E-03 -0.5100076255471E-02  0.0000000000000E+00  0.4478773406200E-03
 0.6645582298197E-03 -0.4979231759319E-02  0.0000000000000E+00  0.4447324693758E-03
 0.7269641407192E-03 -0.4870114543256E-02  0.0000000000000E+00  0.4288793726736E-03
 0.8362674511662E-03 -0.4778975460884E-02  0.0000000000000E+00  0.3979977106403E-03
 0.1002295108580E-02 -0.4712847798565E-02  0.0000000000000E+00  0.3500092872914E-03
 0.1235049767136E-02 -0.4679317641054E-02  0.0000000000000E+00  0.2834114440153E-03
 0.1544121152135E-02 -0.4686138778278E-02  0.0000000000000E+00  0.1977014267029E-03
 0.1937884412963E-02 -0.4740665248754E-02  0.0000000000000E+00  0.9385269758644E-04
 0.2422489397530E-02 -0.4849095961288E-02  0.0000000000000E+00 -0.2523187587070E-04
 0.3000723750707E-02 -0.5015570228416E-02  0.0000000000000E+00 -0.1544059886271E-03
 0.3670915687045E-02 -0.5241240501241E-02  0.0000000000000E+00 -0.2862289995645E-03
 0.4425977347838E-02 -0.5523456670997E-02  0.0000000000000E+00 -0.4113150569572E-03
 0.5252767146923E-02 -0.5855203011996E-02  0.0000000000000E+00 -0.5191975126720E-03
 0.6132101819822E-02 -0.6225029915060E-02  0.0000000000000E+00 -0.5996652981271E-03
 0.7039552222373E-02 -0.6617618000669E-02  0.0000000000000E+00 -0.6443545569531E-03
 0.7947028531686E-02 -0.7014989827293E-02  0.0000000000000E+00 -0.6482783222770E-03
 0.8824874674168E-02 -0.7398191911993E-02  0.0000000000000E+00 -0.6110072490789E-03
 0.6966891287637E-04 -0.5793160348864E-02  0.0000000000000E+00 -0.1290363555550E-03
 0.2088349693715E-03 -0.5879155273379E-02  0.0000000000000E+00 -0.1258395224506E-03
 0.3459742029928E-03 -0.5962490982246E-02  0.0000000000000E+00 -0.1183455540673E-03
 0.4777792798484E-03 -0.6040651520847E-02  0.0000000000000E+00 -0.1067681303819E-03
 0.6011672022034E-03 -0.6111309637896E-02  0.0000000000000E+00 -0.9153985518785E-04
 0.7134493996992E-03 -0.6172453530342E-02  0.0000000000000E+00 -0.7327202220245E-04
 0.8124603389801E-03 -0.6222475488082E-02  0.0000000000000E+00 -0.5267309988308E-04
 0.8966264112061E-03 -0.6260208042556E-02  0.0000000000000E+00 -0.3045423655718E-04
 0.9649718156182E-03 -0.6284907158153E-02  0.0000000000000E+00 -0.7247272806390E-05
 0.1017074269113E-02 -0.6296195037570E-02  0.0000000000000E+00  0.1644932083009E-04
 0.1052990680351E-02 -0.6293980665229E-02  0.0000000000000E+00  0.4029226667887E-04
 0.1073173003522E-02 -0.6278375783357E-02  0.0000000000000E+00  0.6408681536942E-04
 0.1078391239688E-02 -0.6249620434366E-02  0.0000000000000E+00  0.8775951701236E-04
 0.1069675089988E-02 -0.6208027299287E-02  0.0000000000000E+00  0.1113187903317E-03
 0.1048280755807E-02 -0.6153949710855E-02  0.0000000000000E+00  0.1348101062052E-03
 0.1015685385475E-02 -0.6087774784096E-02  0.0000000000000E+00  0.1582704742819E-03
 0.9736085657114E-03 -0.6009940656497E-02  0.0000000000000E+00  0.1816849204821E-03
 0.9240602842556E-03 -0.5920978729437E-02  0.0000000000000E+00  0.2049454890673E-03
 0.8694093033169E-03 -0.5821573693976E-02  0.0000000000000E+00  0.2278147038759E-03
 0.8124707278026E-03 -0.5712643362130E-02  0.0000000000000E+00  0.2498927654974E-03
 0.7566077650832E-03 -0.5595436049061E-02  0.0000000000000E+00  0.2705891621932E-03
 0.7058385058731E-03 -0.5471635852276E-02  0.0000000000000E+00  0.2891017199691E-03
 0.6649429857591E-03 -0.5343476940417E-02  0.0000000000000E+00  0.3044040342871E-03
 0.6395592468908E-03 -0.5213857553142E-02  0.0000000000000E+00  0.3152483000773E-03
 0.6362574073748E-03 -0.5086446461670E-02  0.0000000000000E+00  0.3201983034145E-03
 0.6625722806248E-03 -0.4965771473459E-02  0.0000000000000E+00  0.3176774830371E-03
 0.7269648856948E-03 -0.4857261151098E-02  0.0000000000000E+00  0.3060236346776E-03
 0.8386888238534E-03 -0.4767220111634E-02  0.0000000000000E+00  0.2835891603127E-03
 0.1007532008965E-02 -0.4702709997898E-02  0.0000000000000E+00  0.2489084196475E-03
 0.1243400882964E-02 -0.4671304805671E-02  0.0000000000000E+00  0.2009374725817E-03
 0.1555717367276E-02 -0.4680690297833E-02  0.0000000000000E+00  0.1393568838639E-03
 0.1952609775307E-02 -0.4738085293747E-02  0.0000000000000E+00  0.6490834963940E-04
 0.2439908465481E-02 -0.4849485515768E-02  0.0000000000000E+00 -0.2028946405547E-04
 0.3020034607417E-02 -0.5018775192592E-02  0.0000000000000E+00 -0.1125283482547E-03
 0.3690952072972E-02 -0.5246836079841E-02  0.0000000000000E+00 -0.2064877330081E-03
 0.4445283979032E-02 -0.5530786965308E-02  0.0000000000000E+00 -0.2954956353524E-03
 0.5269757883704E-02 -0.5863485825415E-02  0.0000000000000E+00 -0.3721492553805E-03
 0.6145285130740E-02 -0.6233517530458E-02  0.0000000000000E+00 -0.4292592331492E-03
 0.7047784702538E-02 -0.6625783156770E-02  0.0000000000000E+00 -0.4609644440510E-03
 0.7949743760473E-02 -0.7022694785549E-02  0.0000000000000E+00 -0.4637988323837E-03
 0.8822238563930E-02 -0.7405803138439E-02  0.0000000000000E+00 -0.4375140101589E-03
 0.6938604002303E-04 -0.5792476120212E-02  0.0000000000000E+00 -0.7731468733819E-04
 0.2079870268816E-03 -0.5878122346126E-02  0.0000000000000E+00 -0.7539932549252E-04
 0.3445766193400E-03 -0.5961124790869E-02  0.0000000000000E+00 -0.7091111537078E-04
 0.4758757457427E-03 -0.6038985790824E-02  0.0000000000000E+00 -0.6397802455334E-04
 0.5988277438201E-03 -0.6109393025915E-02  0.0000000000000E+00 -0.5485715522849E-04
 0.7107611347493E-03 -0.6170340858883E-02  0.0000000000000E+00 -0.4391155040654E-04
 0.8095146062813E-03 -0.6220216738100E-02  0.0000000000000E+00 -0.3156248662619E-04
 0.8935062139205E-03 -0.6257838342726E-02  0.0000000000000E+00 -0.1823375858888E-04
 0.9617424669960E-03 -0.6282440002434E-02  0.0000000000000E+00 -0.4302986855192E-05
 0.1013778540572E-02 -0.6293619559463E-02  0.0000000000000E+00  0.9930802980229E-05
 0.1049648348935E-02 -0.6291262620299E-02  0.0000000000000E+00  0.2426057737216E-04
 0.1069783847776E-02 -0.6275461241010E-02  0.0000000000000E+00  0.3856771536177E-04
 0.1074940259216E-02 -0.6246441044570E-02  0.0000000000000E+00  0.5280604941496E-04
 0.1066138851868E-02 -0.6204506205308E-02  0.0000000000000E+00  0.6697846392627E-04
 0.1044634083891E-02 -0.6150007522252E-02  0.0000000000000E+00  0.8111012783341E-04
 0.1011907937905E-02 -0.6083335352971E-02  0.0000000000000E+00  0.9522120135286E-04
 0.9696910975364E-03 -0.6004936635476E-02  0.0000000000000E+00  0.1093006712228E-03
 0.9200105408365E-03 -0.5915357035897E-02  0.0000000000000E+00  0.1232816738349E-03
 0.8652575260147E-03 -0.5815301001836E-02  0.0000000000000E+00  0.1370195001258E-03
 0.8082747302213E-03 -0.5705711734167E-02  0.0000000000000E+00  0.1502718680118E-03
 0.7524574525563E-03 -0.5587868740185E-02  0.0000000000000E+00  0.1626818858579E-03
 0.7018595765275E-03 -0.5463493143559E-02  0.0000000000000E+00  0.1737655393047E-03
 0.6612993849764E-03 -0.5334861727911E-02  0.0000000000000E+00  0.1829042891046E-03
 0.6364536571535E-03 -0.5204919999666E-02  0.0000000000000E+00  0.1893470286979E-03
 0.6339287116815E-03 -0.5077386163129E-02  0.0000000000000E+00  0.1922302944577E-03
 0.6612892548981E-03 -0.4956836539665E-02  0.0000000000000E+00  0.1906076171536E-03
 0.7270150124508E-03 -0.4848744056333E-02  0.0000000000000E+00  0.1834829907664E-03
 0.8403599555650E-03 -0.4759448297738E-02  0.0000000000000E+00  0.1698718715911E-03
 0.1011084612734E-02 -0.4696028552852E-02  0.0000000000000E+00  0.1489024920161E-03
 0.1249029747403E-02 -0.4666049186465E-02  0.0000000000000E+00  0.1199603187480E-03
 0.1563504007338E-02 -0.4677148950196E-02  0.0000000000000E+00  0.8286956806600E-04
 0.1962470360633E-02 -0.4736455173862E-02  0.0000000000000E+00  0.3809369903685E-04
 0.2451546585863E-02 -0.4849827629741E-02  0.0000000000000E+00 -0.1307825563851E-04
 0.3032911638905E-02 -0.5020981342140E-02  0.0000000000000E+00 -0.6840881671219E-04
 0.3704290396708E-02 -0.5250619997239E-02  0.0000000000000E+00 -0.1247036887347E-03
 0.4458118415235E-02 -0.5535711900130E-02  0.0000000000000E+00 -0.1779728016767E-03
 0.5281041010572E-02 -0.5869034586030E-02  0.0000000000000E+00 -0.2238037839553E-03
 0.6154035774823E-02 -0.6239198477972E-02  0.0000000000000E+00 -0.2579243784196E-03
 0.7053253968952E-02 -0.6631252056410E-02  0.0000000000000E+00 -0.2768626485385E-03
 0.7951564581465E-02 -0.7027865374162E-02  0.0000000000000E+00 -0.2785769639961E-03
 0.8820526818477E-02 -0.7410921920803E-02  0.0000000000000E+00 -0.2629412451271E-03
 0.6924474272611E-04 -0.5792134406755E-02  0.0000000000000E+00 -0.2575371543316E-04
 0.2075635558042E-03 -0.5877606420205E-02  0.0000000000000E+00 -0.2511571429934E-04
 0.3438787444341E-03 -0.5960442301576E-02  0.0000000000000E+00 -0.2362099311878E-04
 0.4749251632102E-03 -0.6038153397329E-02  0.0000000000000E+00 -0.2131217003768E-04
 0.5976591702054E-03 -0.6108434771986E-02  0.0000000000000E+00 -0.1827454114865E-04
 0.7094177850911E-03 -0.6169283872793E-02  0.0000000000000E+00 -0.1462850439684E-04
 0.8080418569609E-03 -0.6219085802901E-02  0.0000000000000E+00 -0.1051385509152E-04
 0.8919453870515E-03 -0.6256650930595E-02  0.0000000000000E+00 -0.6071376709604E-05
 0.9601261706976E-03 -0.6281202883904E-02  0.0000000000000E+00 -0.1426693945830E-05
 0.1012128224598E-02 -0.6292327412976E-02  0.0000000000000E+00  0.3320530245474E-05
 0.1047974042352E-02 -0.6289898485296E-02  0.0000000000000E+00  0.8101109658820E-05
 0.1068085619976E-02 -0.6273998329810E-02  0.0000000000000E+00  0.1287521074332E-04
 0.1073210802217E-02 -0.6244845354051E-02  0.0000000000000E+00  0.1762709561057E-04
 0.1064366638934E-02 -0.6202739465628E-02  0.0000000000000E+00  0.2235736446933E-04
 0.1042806711172E-02 -0.6148030187315E-02  0.0000000000000E+00  0.2707405386668E-04
 0.1010015418141E-02 -0.6081109500059E-02  0.0000000000000E+00  0.3178354171537E-04
 0.9677290003211E-03 -0.6002428759259E-02  0.0000000000000E+00  0.3648181743371E-04
 0.9179829489535E-03 -0.5912540795941E-02  0.0000000000000E+00  0.4114624349338E-04
 0.8631797962071E-03 -0.5812159982093E-02  0.0000000000000E+00  0.4572821186957E-04
 0.8061760358317E-03 -0.5702242269479E-02  0.0000000000000E+00  0.5014656063621E-04
 0.7503830428845E-03 -0.5584082823609E-02  0.0000000000000E+00  0.5428189472995E-04
 0.6998726201749E-03 -0.5459421342569E-02  0.0000000000000E+00  0.5797242454711E-04
 0.6594821801699E-03 -0.5330555968459E-02  0.0000000000000E+00  0.6101152199786E-04
 0.6349078463085E-03 -0.5200455868005E-02  0.0000000000000E+00  0.6314841671140E-04
 0.6327739668827E-03 -0.5072863947930E-02  0.0000000000000E+00  0.6409500240021E-04
 0.6606600597190E-03 -0.4952380711575E-02  0.0000000000000E+00  0.6353570676021E-04
 0.7270549847331E-03 -0.4844501109280E-02  0.0000000000000E+00  0.6113875556696E-04
 0.8412125813435E-03 -0.4755581944783E-02  0.0000000000000E+00  0.5657664682943E-04
 0.1012879276811E-02 -0.4692710951674E-02  0.0000000000000E+00  0.4956007099743E-04
 0.1251862537422E-02 -0.4663447209239E-02  0.0000000000000E+00  0.3988616290618E-04
 0.1567413959695E-02 -0.4675405470642E-02  0.0000000000000E+00  0.2749897477838E-04
 0.1967413613042E-02 -0.4735666926981E-02  0.0000000000000E+00  0.1255605580625E-04
 0.2457373121543E-02 -0.4850023239206E-02  0.0000000000000E+00 -0.4509968664607E-05
 0.3039350972918E-02 -0.5022105094613E-02  0.0000000000000E+00 -0.2295121550991E-04
 0.3710953714816E-02 -0.5252527865329E-02  0.0000000000000E+00 -0.4170263136094E-04
 0.4464524644333E-02 -0.5538185682176E-02  0.0000000000000E+00 -0.5943640320749E-04
 0.5286669431416E-02 -0.5871816969883E-02  0.0000000000000E+00 -0.7468662102778E-04
 0.6158399725904E-02 -0.6242045683389E-02  0.0000000000000E+00 -0.8603605848023E-04
 0.7055982982529E-02 -0.6633994133262E-02  0.0000000000000E+00 -0.9233481228754E-04
 0.7952478259394E-02 -0.7030460850018E-02  0.0000000000000E+00 -0.9290863078903E-04
 0.8819684650696E-02 -0.7413494693369E-02  0.0000000000000E+00 -0.8771927603157E-04
 0.6924474272674E-04 -0.5792134406785E-02  0.0000000000000E+00  0.2575371570012E-04
 0.2075635558075E-03 -0.5877606420238E-02  0.0000000000000E+00  0.2511571513834E-04
 0.3438787444430E-03 -0.5960442301614E-02  0.0000000000000E+00  0.2362099445140E-04
 0.4749251632270E-03 -0.6038153397372E-02  0.0000000000000E+00  0.2131217173836E-04
 0.5976591702320E-03 -0.6108434772037E-02  0.0000000000000E+00  0.1827454305230E-04
 0.7094177851286E-03 -0.6169283872852E-02  0.0000000000000E+00  0.1462850630975E-04
 0.8080418570097E-03 -0.6219085802967E-02  0.0000000000000E+00  0.1051385680320E-04
 0.8919453871115E-03 -0.6256650930670E-02  0.0000000000000E+00  0.6071378004138E-05
 0.9601261707684E-03 -0.6281202883987E-02  0.0000000000000E+00  0.1426694609938E-05
 0.1012128224680E-02 -0.6292327413068E-02  0.0000000000000E+00 -0.3320530417072E-05
 0.1047974042444E-02 -0.6289898485399E-02  0.0000000000000E+00 -0.8101110862399E-05
 0.1068085620078E-02 -0.6273998329925E-02  0.0000000000000E+00 -0.1287521316749E-04
 0.1073210802330E-02 -0.6244845354183E-02  0.0000000000000E+00 -0.1762709943895E-04
 0.1064366639060E-02 -0.6202739465779E-02  0.0000000000000E+00 -0.2235736988335E-04
 0.1042806711311E-02 -0.6148030187491E-02  0.0000000000000E+00 -0.2707406104861E-04
 0.1010015418295E-02 -0.6081109500263E-02  0.0000000000000E+00 -0.3178355084854E-04
 0.9677290004903E-03 -0.6002428759498E-02  0.0000000000000E+00 -0.3648182869800E-04
 0.9179829491383E-03 -0.5912540796219E-02  0.0000000000000E+00 -0.4114625706148E-04
 0.8631797964064E-03 -0.5812159982415E-02  0.0000000000000E+00 -0.4572822789259E-04
 0.8061760360431E-03 -0.5702242269847E-02  0.0000000000000E+00 -0.5014657923033E-04
 0.7503830431033E-03 -0.5584082824026E-02  0.0000000000000E+00 -0.5428191595269E-04
 0.6998726203935E-03 -0.5459421343034E-02  0.0000000000000E+00 -0.5797244837125E-04
 0.6594821803780E-03 -0.5330555968969E-02  0.0000000000000E+00 -0.6101154827939E-04
 0.6349078464925E-03 -0.5200455868553E-02  0.0000000000000E+00 -0.6314844515176E-04
 0.6327739670247E-03 -0.5072863948505E-02  0.0000000000000E+00 -0.6409503250979E-04
 0.6606600597985E-03 -0.4952380712161E-02  0.0000000000000E+00 -0.6353573781881E-04
 0.7270549847253E-03 -0.4844501109857E-02  0.0000000000000E+00 -0.6113878659222E-04
 0.8412125812221E-03 -0.4755581945327E-02  0.0000000000000E+00 -0.5657667655459E-04
 0.1012879276551E-02 -0.4692710952156E-02  0.0000000000000E+00 -0.4956009786769E-04
 0.1251862536999E-02 -0.4663447209630E-02  0.0000000000000E+00 -0.3988618511072E-04
 0.1567413959095E-02 -0.4675405470912E-02  0.0000000000000E+00 -0.2749899032481E-04
 0.1967413612262E-02 -0.4735666927108E-02  0.0000000000000E+00 -0.1255606265951E-04
 0.2457373120598E-02 -0.4850023239177E-02  0.0000000000000E+00  0.4509972395095E-05
 0.3039350971848E-02 -0.5022105094428E-02  0.0000000000000E+00  0.2295123131682E-04
 0.3710953713684E-02 -0.5252527865007E-02  0.0000000000000E+00  0.4170266006298E-04
 0.4464524643225E-02 -0.5538185681749E-02  0.0000000000000E+00  0.5943644468115E-04
 0.5286669430430E-02 -0.5871816969396E-02  0.0000000000000E+00  0.7468667400812E-04
 0.6158399725140E-02 -0.6242045682887E-02  0.0000000000000E+00  0.8603612049263E-04
 0.7055982982069E-02 -0.6633994132779E-02  0.0000000000000E+00  0.9233487977511E-04
 0.7952478259287E-02 -0.7030460849565E-02  0.0000000000000E+00  0.9290869941148E-04
 0.8819684650943E-02 -0.7413494692921E-02  0.0000000000000E+00  0.8771934114732E-04
 0.6938604002491E-04 -0.5792476120302E-02  0.0000000000000E+00  0.7731468760634E-04
 0.2079870268917E-03 -0.5878122346226E-02  0.0000000000000E+00  0.7539932633377E-04
 0.3445766193666E-03 -0.5961124790982E-02  0.0000000000000E+00  0.7091111670656E-04
 0.4758757457932E-03 -0.6038985790955E-02  0.0000000000000E+00  0.6397802625781E-04
 0.5988277438999E-03 -0.6109393026067E-02  0.0000000000000E+00  0.5485715713621E-04
 0.7107611348618E-03 -0.6170340859058E-02  0.0000000000000E+00  0.4391155232354E-04
 0.8095146064277E-03 -0.6220216738299E-02  0.0000000000000E+00  0.3156248834199E-04
 0.8935062141004E-03 -0.6257838342948E-02  0.0000000000000E+00  0.1823375988785E-04
 0.9617424672083E-03 -0.6282440002682E-02  0.0000000000000E+00  0.4302987524768E-05
 0.1013778540816E-02 -0.6293619559738E-02  0.0000000000000E+00 -0.9930803144348E-05
 0.1049648349210E-02 -0.6291262620606E-02  0.0000000000000E+00 -0.2426057856514E-04
 0.1069783848082E-02 -0.6275461241355E-02  0.0000000000000E+00 -0.3856771777103E-04
 0.1074940259556E-02 -0.6246441044964E-02  0.0000000000000E+00 -0.5280605322300E-04
 0.1066138852244E-02 -0.6204506205761E-02  0.0000000000000E+00 -0.6697846931350E-04
 0.1044634084308E-02 -0.6150007522778E-02  0.0000000000000E+00 -0.8111013498155E-04
 0.1011907938366E-02 -0.6083335353584E-02  0.0000000000000E+00 -0.9522121044472E-04
 0.9696910980434E-03 -0.6004936636191E-02  0.0000000000000E+00 -0.1093006824383E-03
 0.9200105413901E-03 -0.5915357036730E-02  0.0000000000000E+00 -0.1232816873470E-03
 0.8652575266122E-03 -0.5815301002799E-02  0.0000000000000E+00 -0.1370195160870E-03
 0.8082747308551E-03 -0.5705711735270E-02  0.0000000000000E+00 -0.1502718865400E-03
 0.7524574532122E-03 -0.5587868741435E-02  0.0000000000000E+00 -0.1626819070133E-03
 0.7018595771838E-03 -0.5463493144954E-02  0.0000000000000E+00 -0.1737655630638E-03
 0.6612993856020E-03 -0.5334861729440E-02  0.0000000000000E+00 -0.1829043153282E-03
 0.6364536577067E-03 -0.5204920001311E-02  0.0000000000000E+00 -0.1893470570933E-03
 0.6339287121101E-03 -0.5077386164856E-02  0.0000000000000E+00 -0.1922303245422E-03
 0.6612892551388E-03 -0.4956836541428E-02  0.0000000000000E+00 -0.1906076482145E-03
 0.7270150124309E-03 -0.4848744058070E-02  0.0000000000000E+00 -0.1834830218299E-03
 0.8403599552056E-03 -0.4759448299376E-02  0.0000000000000E+00 -0.1698719013977E-03
 0.1011084611957E-02 -0.4696028554305E-02  0.0000000000000E+00 -0.1489025190171E-03
 0.1249029746140E-02 -0.4666049187645E-02  0.0000000000000E+00 -0.1199603411349E-03
 0.1563504005543E-02 -0.4677148951016E-02  0.0000000000000E+00 -0.8286958384451E-04
 0.1962470358297E-02 -0.4736455174251E-02  0.0000000000000E+00 -0.3809370616259E-04
 0.2451546583033E-02 -0.4849827629661E-02  0.0000000000000E+00  0.1307825907187E-04
 0.3032911635696E-02 -0.5020981341593E-02  0.0000000000000E+00  0.6840883221887E-04
 0.3704290393311E-02 -0.5250619996278E-02  0.0000000000000E+00  0.1247037171577E-03
 0.4458118411906E-02 -0.5535711898855E-02  0.0000000000000E+00  0.1779728429159E-03
 0.5281041007610E-02 -0.5869034584573E-02  0.0000000000000E+00  0.2238038367566E-03
 0.6154035772527E-02 -0.6239198476469E-02  0.0000000000000E+00  0.2579244403073E-03
 0.7053253967571E-02 -0.6631252054965E-02  0.0000000000000E+00  0.2768627159336E-03
 0.7951564581146E-02 -0.7027865372806E-02  0.0000000000000E+00  0.2785770325200E-03
 0.8820526819223E-02 -0.7410921919465E-02  0.0000000000000E+00  0.2629413100870E-03
 0.6966891287950E-04 -0.5793160349015E-02  0.0000000000000E+00  0.1290363558255E-03
 0.2088349693883E-03 -0.5879155273545E-02  0.0000000000000E+00  0.1258395232964E-03
 0.3459742030372E-03 -0.5962490982435E-02  0.0000000000000E+00  0.1183455554094E-03
 0.4777792799327E-03 -0.6040651521065E-02  0.0000000000000E+00  0.1067681320939E-03
 0.6011672023366E-03 -0.6111309638150E-02  0.0000000000000E+00  0.9153985710363E-04
 0.7134493998868E-03 -0.6172453530634E-02  0.0000000000000E+00  0.7327202412750E-04
 0.8124603392241E-03 -0.6222475488413E-02  0.0000000000000E+00  0.5267310160696E-04
 0.8966264115057E-03 -0.6260208042926E-02  0.0000000000000E+00  0.3045423786492E-04
 0.9649718159715E-03 -0.6284907158565E-02  0.0000000000000E+00  0.7247273486818E-05
 0.1017074269519E-02 -0.6296195038028E-02  0.0000000000000E+00 -0.1644932097934E-04
 0.1052990680807E-02 -0.6293980665739E-02  0.0000000000000E+00 -0.4029226785074E-04
 0.1073173004030E-02 -0.6278375783931E-02  0.0000000000000E+00 -0.6408681774898E-04
 0.1078391240252E-02 -0.6249620435020E-02  0.0000000000000E+00 -0.8775952077972E-04
 0.1069675090613E-02 -0.6208027300040E-02  0.0000000000000E+00 -0.1113187956655E-03
 0.1048280756499E-02 -0.6153949711728E-02  0.0000000000000E+00 -0.1348101132859E-03
 0.1015685386240E-02 -0.6087774785114E-02  0.0000000000000E+00 -0.1582704832911E-03
 0.9736085665544E-03 -0.6009940657686E-02  0.0000000000000E+00 -0.1816849316001E-03
 0.9240602851768E-03 -0.5920978730821E-02  0.0000000000000E+00 -0.2049455024677E-03
 0.8694093043118E-03 -0.5821573695578E-02  0.0000000000000E+00 -0.2278147197133E-03
 0.8124707288586E-03 -0.5712643363966E-02  0.0000000000000E+00 -0.2498927838933E-03
 0.7566077661770E-03 -0.5595436051142E-02  0.0000000000000E+00 -0.2705891832135E-03
 0.7058385069687E-03 -0.5471635854600E-02  0.0000000000000E+00 -0.2891017435973E-03
 0.6649429868051E-03 -0.5343476942968E-02  0.0000000000000E+00 -0.3044040603938E-03
 0.6395592478184E-03 -0.5213857555887E-02  0.0000000000000E+00 -0.3152483283813E-03
 0.6362574080971E-03 -0.5086446464554E-02  0.0000000000000E+00 -0.3201983334468E-03
 0.6625722810369E-03 -0.4965771476406E-02  0.0000000000000E+00 -0.3176775141010E-03
 0.7269648856753E-03 -0.4857261154007E-02  0.0000000000000E+00 -0.3060236658156E-03
 0.8386888232705E-03 -0.4767220114382E-02  0.0000000000000E+00 -0.2835891902804E-03
 0.1007532007687E-02 -0.4702710000343E-02  0.0000000000000E+00 -0.2489084469080E-03
 0.1243400880877E-02 -0.4671304807663E-02  0.0000000000000E+00 -0.2009374953320E-03
 0.1555717364300E-02 -0.4680690299226E-02  0.0000000000000E+00 -0.1393569001057E-03
 0.1952609771427E-02 -0.4738085294425E-02  0.0000000000000E+00 -0.6490835731057E-04
 0.2439908460772E-02 -0.4849485515662E-02  0.0000000000000E+00  0.2028946689267E-04
 0.3020034602072E-02 -0.5018775191704E-02  0.0000000000000E+00  0.1125283631586E-03
 0.3690952067305E-02 -0.5246836078258E-02  0.0000000000000E+00  0.2064877608701E-03
 0.4445283973471E-02 -0.5530786963195E-02  0.0000000000000E+00  0.2954956761185E-03
 0.5269757878750E-02 -0.5863485822995E-02  0.0000000000000E+00  0.3721493078215E-03
 0.6145285126899E-02 -0.6233517527961E-02  0.0000000000000E+00  0.4292592947860E-03
 0.7047784700230E-02 -0.6625783154370E-02  0.0000000000000E+00  0.4609645112615E-03
 0.7949743759947E-02 -0.7022694783301E-02  0.0000000000000E+00  0.4637989007114E-03
 0.8822238565190E-02 -0.7405803136226E-02  0.0000000000000E+00  0.4375140748082E-03
 0.7009393126739E-04 -0.5794188761843E-02  0.0000000000000E+00  0.1810261018520E-03
 0.2101094267302E-03 -0.5880707432100E-02  0.0000000000000E+00  0.1765408341760E-03
 0.3480752329180E-03 -0.5964543387420E-02  0.0000000000000E+00  0.1660202276737E-03
 0.4806405851438E-03 -0.6043152551751E-02  0.0000000000000E+00  0.1497643593472E-03
 0.6046822400444E-03 -0.6114184870685E-02  0.0000000000000E+00  0.1283876753142E-03
 0.7174857575011E-03 -0.6175619306476E-02  0.0000000000000E+00  0.1027592581473E-03
 0.8168795362662E-03 -0.6225855798645E-02  0.0000000000000E+00  0.7388441559467E-04
 0.9013030489538E-03 -0.6263749741867E-02  0.0000000000000E+00  0.4276891754502E-04
 0.9698076909303E-03 -0.6288590135371E-02  0.0000000000000E+00  0.1030247877810E-04
 0.1022005556155E-02 -0.6300036162739E-02  0.0000000000000E+00 -0.2281694244824E-04
 0.1057988425109E-02 -0.6298032121377E-02  0.0000000000000E+00 -0.5611259032763E-04
 0.1078238443554E-02 -0.6282719357639E-02  0.0000000000000E+00 -0.8931808507537E-04
 0.1083547837271E-02 -0.6254359509977E-02  0.0000000000000E+00 -0.1223379691382E-03
 0.1074958940493E-02 -0.6213277949344E-02  0.0000000000000E+00 -0.1551916080609E-03
 0.1053730539884E-02 -0.6159831760101E-02  0.0000000000000E+00 -0.1879500289865E-03
 0.1021332528627E-02 -0.6094403203153E-02  0.0000000000000E+00 -0.2206721615367E-03
 0.9794678899706E-03 -0.6017417300758E-02  0.0000000000000E+00 -0.2533440950569E-03
 0.9301212167539E-03 -0.5929384220094E-02  0.0000000000000E+00 -0.2858219614641E-03
 0.8756276577641E-03 -0.5830959248663E-02  0.0000000000000E+00 -0.3177810367428E-03
 0.8187611130888E-03 -0.5723022398417E-02  0.0000000000000E+00 -0.3486699808270E-03
 0.7628368046914E-03 -0.5606775508560E-02  0.0000000000000E+00 -0.3776711077143E-03
 0.7118192513278E-03 -0.5483847446523E-02  0.0000000000000E+00 -0.4036708633810E-03
 0.6704311519325E-03 -0.5356408717488E-02  0.0000000000000E+00 -0.4252417549908E-03
 0.6442523274425E-03 -0.5227286801860E-02  0.0000000000000E+00 -0.4406454189824E-03
 0.6397982505911E-03 -0.5100076259522E-02  0.0000000000000E+00 -0.4478773705706E-03
 0.6645582304190E-03 -0.4979231763466E-02  0.0000000000000E+00 -0.4447325004398E-03
 0.7269641407196E-03 -0.4870114547358E-02  0.0000000000000E+00 -0.4288794039181E-03
 0.8362674503839E-03 -0.4778975464769E-02  0.0000000000000E+00 -0.3979977408444E-03
 0.1002295106829E-02 -0.4712847802034E-02  0.0000000000000E+00 -0.3500093149363E-03
 0.1235049764253E-02 -0.4679317643896E-02  0.0000000000000E+00 -0.2834114673070E-03
 0.1544121148005E-02 -0.4686138780288E-02  0.0000000000000E+00 -0.1977014436372E-03
 0.1937884407561E-02 -0.4740665249763E-02  0.0000000000000E+00 -0.9385270607587E-04
 0.2422489390956E-02 -0.4849095961197E-02  0.0000000000000E+00  0.2523187781053E-04
 0.3000723743226E-02 -0.5015570227222E-02  0.0000000000000E+00  0.1544060026204E-03
 0.3670915679096E-02 -0.5241240499062E-02  0.0000000000000E+00  0.2862290265774E-03
 0.4425977340024E-02 -0.5523456668066E-02  0.0000000000000E+00  0.4113150970054E-03
 0.5252767139952E-02 -0.5855203008626E-02  0.0000000000000E+00  0.5191975645662E-03
 0.6132101814411E-02 -0.6225029911579E-02  0.0000000000000E+00  0.5996653593844E-03
 0.7039552219125E-02 -0.6617617997327E-02  0.0000000000000E+00  0.6443546238866E-03
 0.7947028530958E-02 -0.7014989824172E-02  0.0000000000000E+00  0.6482783903115E-03
 0.8824874675972E-02 -0.7398191908932E-02  0.0000000000000E+00  0.6110073132643E-03
 0.7066198400055E-04 -0.5795564027726E-02  0.0000000000000E+00  0.2333916970068E-03
 0.2118135723319E-03 -0.5882782366841E-02  0.0000000000000E+00  0.2276080023833E-03
 0.3508854917537E-03 -0.5967285990115E-02  0.0000000000000E+00  0.2140306024376E-03
 0.4844670962243E-03 -0.6046492025616E-02  0.0000000000000E+00  0.1930471034232E-03
 0.6093800803041E-03 -0.6118019252892E-02  0.0000000000000E+00  0.1654630619180E-03
 0.7228750884723E-03 -0.6179834364661E-02  0.0000000000000E+00  0.1324191203458E-03
 0.8227729495022E-03 -0.6230348250508E-02  0.0000000000000E+00  0.9523120489117E-04
 0.9075316856807E-03 -0.6268447905060E-02  0.0000000000000E+00  0.5520994167517E-04
 0.9762402062799E-03 -0.6293467473460E-02  0.0000000000000E+00  0.1350791809379E-04
 0.1028557498837E-02 -0.6305116267091E-02  0.0000000000000E+00 -0.2897756361619E-04
 0.1064622542851E-02 -0.6303386115905E-02  0.0000000000000E+00 -0.7164034190171E-04
 0.1084958089712E-02 -0.6288457964227E-02  0.0000000000000E+00 -0.1141488431821E-03
 0.1090386091519E-02 -0.6260622170715E-02  0.0000000000000E+00 -0.1563930467526E-03
 0.1081965688201E-02 -0.6220220886128E-02  0.0000000000000E+00 -0.1984108313428E-03
 0.1060959052610E-02 -0.6167616100286E-02  0.0000000000000E+00 -0.2403060754332E-03
 0.1028826394906E-02 -0.6103183617734E-02  0.0000000000000E+00 -0.2821666393983E-03
 0.9872486382516E-03 -0.6027331133233E-02  0.0000000000000E+00 -0.3239866136439E-03
 0.9381766858766E-03 -0.5940540806853E-02  0.0000000000000E+00 -0.3655933777883E-03
 0.8839011146229E-03 -0.5843429154822E-02  0.0000000000000E+00 -0.4065826082709E-03
 0.8271411746674E-03 -0.5736826320354E-02  0.0000000000000E+00 -0.4462597324298E-03
 0.7711483963352E-03 -0.5621872761692E-02  0.0000000000000E+00 -0.4835888820163E-03
 0.7198160954890E-03 -0.5500124290136E-02  0.0000000000000E+00 -0.5171546222035E-03
 0.6777905979048E-03 -0.5373667021083E-02  0.0000000000000E+00 -0.5451379284033E-03
 0.6505738979968E-03 -0.5245234369938E-02  0.0000000000000E+00 -0.5653186335111E-03
 0.6446079881923E-03 -0.5118321857889E-02  0.0000000000000E+00 -0.5751305316198E-03
 0.6673202916047E-03 -0.4997285998347E-02  0.0000000000000E+00 -0.5717425491959E-03
 0.7271018235369E-03 -0.4887396828500E-02  0.0000000000000E+00 -0.5521504557836E-03
 0.8331982841379E-03 -0.4794831099922E-02  0.0000000000000E+00 -0.5133483106660E-03
 0.9954848453611E-03 -0.4726580782518E-02  0.0000000000000E+00 -0.4526199342814E-03
 0.1224088097497E-02 -0.4690243659588E-02  0.0000000000000E+00 -0.3679634655331E-03
 0.1528817476255E-02 -0.4693659505307E-02  0.0000000000000E+00 -0.2586373802945E-03
 0.1918374893662E-02 -0.4744358761627E-02  0.0000000000000E+00 -0.1257811427903E-03
 0.2399337177046E-02 -0.4848809711708E-02  0.0000000000000E+00  0.2698346787500E-04
 0.2974986380056E-02 -0.5011494023485E-02  0.0000000000000E+00  0.1931202588947E-03
 0.3644147450833E-02 -0.5233931740758E-02  0.0000000000000E+00  0.3630799089855E-03
 0.4400132449217E-02 -0.5513791056695E-02  0.0000000000000E+00  0.5247197310833E-03
 0.5229988589680E-02 -0.5844235409469E-02  0.0000000000000E+00  0.6644061811760E-03
 0.6114415636040E-02 -0.6213776613708E-02  0.0000000000000E+00  0.7687575572589E-03
 0.7028520869831E-02 -0.6606802587588E-02  0.0000000000000E+00  0.8267448167599E-03
 0.7943437150511E-02 -0.7004811658939E-02  0.0000000000000E+00  0.8317220441464E-03
 0.8828517232740E-02 -0.7388168671802E-02  0.0000000000000E+00  0.7829944089829E-03
 0.7137431981952E-04 -0.5797290019490E-02  0.0000000000000E+00  0.2862414860921E-03
 0.2139518432396E-03 -0.5885385184068E-02  0.0000000000000E+00  0.2791460882784E-03
 0.3544130250243E-03 -0.5970724513755E-02  0.0000000000000E+00  0.2624715025142E-03
 0.4892691149327E-03 -0.6050674503072E-02  0.0000000000000E+00  0.2366946323579E-03
 0.6152706948164E-03 -0.6122813742817E-02  0.0000000000000E+00  0.2028247558159E-03
 0.7296241124990E-03 -0.6185093697261E-02  0.0000000000000E+00  0.1622925136207E-03
 0.8301416331945E-03 -0.6235940210507E-02  0.0000000000000E+00  0.1167426354452E-03
 0.9153063094820E-03 -0.6274281622162E-02  0.0000000000000E+00  0.6780385273079E-04
 0.9842559944243E-03 -0.6299510301286E-02  0.0000000000000E+00  0.1689783442139E-04
 0.1036710000092E-02 -0.6311399532078E-02  0.0000000000000E+00 -0.3487932002640E-04
 0.1072867420012E-02 -0.6310001257051E-02  0.0000000000000E+00 -0.8679762816702E-04
 0.1093302299965E-02 -0.6295546089653E-02  0.0000000000000E+00 -0.1384688372480E-03
 0.1098873874550E-02 -0.6268360141723E-02  0.0000000000000E+00 -0.1897780341247E-03
 0.1090662209510E-02 -0.6228806294069E-02  0.0000000000000E+00 -0.2407913152793E-03
 0.1069933600636E-02 -0.6177252501630E-02  0.0000000000000E+00 -0.2916546814386E-03
 0.1038136133682E-02 -0.6114066519202E-02  0.0000000000000E+00 -0.3424937840298E-03
 0.9969232813336E-03 -0.6039634638142E-02  0.0000000000000E+00 -0.3933194675951E-03
 0.9482041109929E-03 -0.5954404502290E-02  0.0000000000000E+00 -0.4439394071468E-03
 0.8942138845149E-03 -0.5858944864247E-02  0.0000000000000E+00 -0.4938793774958E-03
 0.8376040122582E-03 -0.5754024390783E-02  0.0000000000000E+00 -0.5423121522401E-03
 0.7815468843276E-03 -0.5640707765871E-02  0.0000000000000E+00 -0.5879951843729E-03
 0.7298471925387E-03 -0.5520460433427E-02  0.0000000000000E+00 -0.6292233803147E-03
 0.6870559426812E-03 -0.5395263840589E-02  0.0000000000000E+00 -0.6637985813983E-03
 0.6585775643473E-03 -0.5267734309749E-02  0.0000000000000E+00 -0.6890303359289E-03
 0.6507612533939E-03 -0.5141243471626E-02  0.0000000000000E+00 -0.7017996040330E-03
 0.6709551853015E-03 -0.5020024168330E-02  0.0000000000000E+00 -0.6986533834482E-03
 0.7274961517423E-03 -0.4909230228861E-02  0.0000000000000E+00 -0.6759109419114E-03
 0.8296179830476E-03 -0.4814941962623E-02  0.0000000000000E+00 -0.6298654206105E-03
 0.9872499875417E-03 -0.4744094092437E-02  0.0000000000000E+00 -0.5571312414192E-03
 0.1210666600573E-02 -0.4704291884077E-02  0.0000000000000E+00 -0.4551562910491E-03
 0.1509945219053E-02 -0.4703474860922E-02  0.0000000000000E+00 -0.3228891980340E-03
 0.1894192113854E-02 -0.4749387447191E-02  0.0000000000000E+00 -0.1615497410138E-03
 0.2370519073526E-02 -0.4848831813424E-02  0.0000000000000E+00  0.2460818801403E-04
 0.2942835184402E-02 -0.5006720861771E-02  0.0000000000000E+00  0.2277248672781E-03
 0.3610603931904E-02 -0.5225044739981E-02  0.0000000000000E+00  0.4361617452900E-03
 0.4367661113690E-02 -0.5501886111077E-02  0.0000000000000E+00  0.6349673112475E-03
 0.5201313722041E-02 -0.5830650217533E-02  0.0000000000000E+00  0.8072083044862E-03
 0.6092130678128E-02 -0.6199813020486E-02  0.0000000000000E+00  0.9361365443922E-03
 0.7014640848503E-02 -0.6593398599962E-02  0.0000000000000E+00  0.1007842698768E-02
 0.7938992364824E-02 -0.6992241963301E-02  0.0000000000000E+00  0.1013839386846E-02
 0.8833275429945E-02 -0.7375840841261E-02  0.0000000000000E+00  0.9530536587253E-03
 0.7223260720853E-04 -0.5799372094639E-02  0.0000000000000E+00  0.3396846005100E-03
 0.2165301268511E-03 -0.5888522890712E-02  0.0000000000000E+00  0.3312605897822E-03
 0.3586684433483E-03 -0.5974866786306E-02  0.0000000000000E+00  0.3114368903867E-03
 0.4950601569948E-03 -0.6055706287863E-02  0.0000000000000E+00  0.2807823728024E-03
 0.6223671027776E-03 -0.6128569943098E-02  0.0000000000000E+00  0.2405265607854E-03
 0.7377415682572E-03 -0.6191391176571E-02  0.0000000000000E+00  0.1924137833352E-03
 0.8389869799093E-03 -0.6242615751261E-02  0.0000000000000E+00  0.1384405180548E-03
 0.9246192479583E-03 -0.6281224423782E-02  0.0000000000000E+00  0.8056990813358E-04
 0.9938380373046E-03 -0.6306682103328E-02  0.0000000000000E+00  0.2049992723591E-04
 0.1046437566624E-02 -0.6318840756258E-02  0.0000000000000E+00 -0.4047577480711E-04
 0.1082690672347E-02 -0.6317825435913E-02  0.0000000000000E+00 -0.1015107653510E-03
 0.1103233693454E-02 -0.6303926553157E-02  0.0000000000000E+00 -0.1621708837998E-03
 0.1108970739048E-02 -0.6277512857440E-02  0.0000000000000E+00 -0.2223482885005E-03
 0.1101006830816E-02 -0.6238971711136E-02  0.0000000000000E+00 -0.2821491096346E-03
 0.1080613029392E-02 -0.6188677962632E-02  0.0000000000000E+00 -0.3417726278070E-03
 0.1049222831562E-02 -0.6126989729236E-02  0.0000000000000E+00 -0.4013928748161E-03
 0.1008456951511E-02 -0.6054267993329E-02  0.0000000000000E+00 -0.4610478896708E-03
 0.9601746635708E-03 -0.5970919706024E-02  0.0000000000000E+00 -0.5205364578279E-03
 0.9065454467043E-03 -0.5877457337873E-02  0.0000000000000E+00 -0.5793260969345E-03
 0.8501400086987E-03 -0.5774577054337E-02  0.0000000000000E+00 -0.6364696971616E-03
 0.7940364849349E-03 -0.5663254021595E-02  0.0000000000000E+00 -0.6905320001106E-03
 0.7419338031553E-03 -0.5544846665398E-02  0.0000000000000E+00 -0.7395331968613E-03
 0.6982688444684E-03 -0.5421212074489E-02  0.0000000000000E+00 -0.7809113035502E-03
 0.6683286143962E-03 -0.5294826842667E-02  0.0000000000000E+00 -0.8115200458803E-03
 0.6583496563302E-03 -0.5168913893171E-02  0.0000000000000E+00 -0.8276991031827E-03
 0.6755823868938E-03 -0.5047556361818E-02  0.0000000000000E+00 -0.8253795474799E-03
 0.7282940227802E-03 -0.4935765525608E-02  0.0000000000000E+00 -0.8002011480084E-03
 0.8256974015682E-03 -0.4839500502429E-02  0.0000000000000E+00 -0.7477392765925E-03
 0.9777777831316E-03 -0.4765619177172E-02  0.0000000000000E+00 -0.6639025640165E-03
 0.1194976486374E-02 -0.4721725264384E-02  0.0000000000000E+00 -0.5455278810509E-03
 0.1487682303455E-02 -0.4715866386151E-02  0.0000000000000E+00 -0.3911676129424E-03
 0.1865480151660E-02 -0.4756033682855E-02  0.0000000000000E+00 -0.2020155420462E-03
 0.2336124909348E-02 -0.4849425176114E-02  0.0000000000000E+00  0.1715269669539E-04
 0.2904290823109E-02 -0.5001475463637E-02  0.0000000000000E+00  0.2572417359064E-03
 0.3570233491486E-02 -0.5214754163481E-02  0.0000000000000E+00  0.5045552214163E-03
 0.4328452989764E-02 -0.5487866097966E-02  0.0000000000000E+00  0.7412746852725E-03
 0.5166604357864E-02 -0.5814533901541E-02  0.0000000000000E+00  0.9470045479951E-03
 0.6065123288519E-02 -0.6183209604303E-02  0.0000000000000E+00  0.1101383834791E-02
 0.6997846258133E-02 -0.6577483754776E-02  0.0000000000000E+00  0.1187349929331E-02
 0.7933719998036E-02 -0.6977383090857E-02  0.0000000000000E+00  0.1194343205587E-02
 0.8839285316810E-02 -0.7361342955554E-02  0.0000000000000E+00  0.1120769514732E-02
 0.7323900807182E-04 -0.5801817461306E-02  0.0000000000000E+00  0.3938312098550E-03
 0.2195560040384E-03 -0.5892204836363E-02  0.0000000000000E+00  0.3840575831797E-03
 0.3636653152077E-03 -0.5979723214466E-02  0.0000000000000E+00  0.3610196236030E-03
 0.5018573987154E-03 -0.6061595843359E-02  0.0000000000000E+00  0.3253821024008E-03
 0.6306857482329E-03 -0.6135290367940E-02  0.0000000000000E+00  0.2786159832496E-03
 0.7472384303495E-03 -0.6198719623511E-02  0.0000000000000E+00  0.2228089778493E-03
 0.8493107488728E-03 -0.6250355531833E-02  0.0000000000000E+00  0.1603374473122E-03
 0.9354610382340E-03 -0.6289244030880E-02  0.0000000000000E+00  0.9351833199042E-04
 0.1004965438821E-02 -0.6314938413453E-02  0.0000000000000E+00  0.2433386885842E-04
 0.1057709047873E-02 -0.6327385058447E-02  0.0000000000000E+00 -0.4572708071998E-04
 0.1094052896055E-02 -0.6326795579190E-02  0.0000000000000E+00 -0.1157111366479E-03
 0.1114706935189E-02 -0.6313530320819E-02  0.0000000000000E+00 -0.1851514751165E-03
 0.1120627735450E-02 -0.6288007325394E-02  0.0000000000000E+00 -0.2539616559095E-03
 0.1112949160987E-02 -0.6250641914897E-02  0.0000000000000E+00 -0.3223017268841E-03
 0.1092947544463E-02 -0.6201816582738E-02  0.0000000000000E+00 -0.3904371752962E-03
 0.1062039292676E-02 -0.6141878220555E-02  0.0000000000000E+00 -0.4586025785910E-03
 0.1021807152001E-02 -0.6071158800874E-02  0.0000000000000E+00 -0.5268751378783E-03
 0.9740528783301E-03 -0.5990018809185E-02  0.0000000000000E+00 -0.5950571827113E-03
 0.9208700384101E-03 -0.5898906491095E-02  0.0000000000000E+00 -0.6625714373134E-03
 0.8647361788767E-03 -0.5798435194620E-02  0.0000000000000E+00 -0.7283657710652E-03
 0.8086204835993E-03 -0.5689477618459E-02  0.0000000000000E+00 -0.7908285827039E-03
 0.7560993400755E-03 -0.5573269335573E-02  0.0000000000000E+00 -0.8477230022982E-03
 0.7114769131314E-03 -0.5451524132277E-02  0.0000000000000E+00 -0.8961415123356E-03
 0.6799028447859E-03 -0.5326556773579E-02  0.0000000000000E+00 -0.9324996196502E-03
 0.6674806127452E-03 -0.5201416794159E-02  0.0000000000000E+00 -0.9526103194558E-03
 0.6813430960573E-03 -0.5080011085188E-02  0.0000000000000E+00 -0.9517973358772E-03
 0.7296703209664E-03 -0.4967180575983E-02  0.0000000000000E+00 -0.9250195012975E-03
 0.8216414779156E-03 -0.4868735696087E-02  0.0000000000000E+00 -0.8671171755146E-03
 0.9672946936311E-03 -0.4791433600426E-02  0.0000000000000E+00 -0.7732531177539E-03
 0.1177251230201E-02 -0.4742861602589E-02  0.0000000000000E+00 -0.6395838588806E-03
 0.1462248577320E-02 -0.4731177033559E-02  0.0000000000000E+00 -0.4641643689588E-03
 0.1832420031552E-02 -0.4764644178359E-02  0.0000000000000E+00 -0.2480348266102E-03
 0.2296271148909E-02 -0.4850915125637E-02  0.0000000000000E+00  0.3643742297110E-05
 0.2859385482188E-02 -0.4996037851529E-02  0.0000000000000E+00  0.2806539382202E-03
 0.3522978389790E-02 -0.5203278730094E-02  0.0000000000000E+00  0.5672901567614E-03
 0.4282375643716E-02 -0.5471886680768E-02  0.0000000000000E+00  0.8428067585308E-03
 0.5125690917621E-02 -0.5795993993015E-02  0.0000000000000E+00  0.1083153816109E-02
 0.6033239499560E-02 -0.6164052857880E-02  0.0000000000000E+00  0.1264056149583E-02
 0.6978052679636E-02 -0.6559152418856E-02  0.0000000000000E+00  0.1364959781023E-02
 0.7927647163215E-02 -0.6960358395690E-02  0.0000000000000E+00  0.1372949092495E-02
 0.8846709234367E-02 -0.7344836835482E-02  0.0000000000000E+00  0.1285733356142E-02
 0.7439627780100E-04 -0.5804635640641E-02  0.0000000000000E+00  0.4487928230851E-03
 0.2230390623332E-03 -0.5896443271560E-02  0.0000000000000E+00  0.4376438901099E-03
 0.3694206690112E-03 -0.5985307378817E-02  0.0000000000000E+00  0.4113111693062E-03
 0.5096822398502E-03 -0.6068354306791E-02  0.0000000000000E+00  0.3705610190854E-03
 0.6402469649426E-03 -0.6142978759702E-02  0.0000000000000E+00  0.3171326911495E-03
 0.7581281634886E-03 -0.6207070868620E-02  0.0000000000000E+00  0.2534939256469E-03
 0.8611150808164E-03 -0.6259136623756E-02  0.0000000000000E+00  0.1824348002493E-03
 0.9478202474821E-03 -0.6298302024475E-02  0.0000000000000E+00  0.1066484938329E-03
 0.1017613132640E-02 -0.6324226425659E-02  0.0000000000000E+00  0.2840981281041E-04
 0.1070487311511E-02 -0.6336967511056E-02  0.0000000000000E+00 -0.5060110523786E-04
 0.1106907366725E-02 -0.6336837352704E-02  0.0000000000000E+00 -0.1293359925133E-03
 0.1127668482430E-02 -0.6324276290779E-02  0.0000000000000E+00 -0.2073113315709E-03
 0.1133787202019E-02 -0.6299757976059E-02  0.0000000000000E+00 -0.2844788514039E-03
 0.1126429902310E-02 -0.6263728801770E-02  0.0000000000000E+00 -0.3610684027745E-03
 0.1106878510237E-02 -0.6216579426694E-02  0.0000000000000E+00 -0.4374262242145E-03
 0.1076529788191E-02 -0.6158643919365E-02  0.0000000000000E+00 -0.5138609911906E-03
 0.1036923421162E-02 -0.6090221781562E-02  0.0000000000000E+00 -0.5905023684408E-03
 0.9897961991337E-03 -0.6011621737525E-02  0.0000000000000E+00 -0.6671701038653E-03
 0.9371560538354E-03 -0.5923220545746E-02  0.0000000000000E+00 -0.7432572592952E-03
 0.8813753990753E-03 -0.5825539259696E-02  0.0000000000000E+00 -0.8176235184491E-03
 0.8253002796915E-03 -0.5719336105160E-02  0.0000000000000E+00 -0.8884996268642E-03
 0.7723682258343E-03 -0.5605708950281E-02  0.0000000000000E+00 -0.9534119949116E-03
 0.7267323991852E-03 -0.5486210257756E-02  0.0000000000000E+00 -0.1009128910595E-02
 0.6933851323592E-03 -0.5362971573826E-02  0.0000000000000E+00 -0.1051648614063E-02
 0.6782758969377E-03 -0.5238844649323E-02  0.0000000000000E+00 -0.1076275468140E-02
 0.6883989324944E-03 -0.5117533176316E-02  0.0000000000000E+00 -0.1077737684736E-02
 0.7318269884861E-03 -0.5003678453146E-02  0.0000000000000E+00 -0.1050314295924E-02
 0.8176889776785E-03 -0.4902911728279E-02  0.0000000000000E+00 -0.9880943759324E-03
 0.9560671358074E-03 -0.4821860663237E-02  0.0000000000000E+00 -0.8854526379136E-03
 0.1157768593154E-02 -0.4768074516718E-02  0.0000000000000E+00 -0.7377889059930E-03
 0.1433909221212E-02 -0.4749813773041E-02  0.0000000000000E+00 -0.5425456672731E-03
 0.1795234306665E-02 -0.4775634267703E-02  0.0000000000000E+00 -0.3004600705698E-03
 0.2251106005946E-02 -0.4853695022275E-02  0.0000000000000E+00 -0.1691353866023E-04
 0.2808167440406E-02 -0.4990749481455E-02  0.0000000000000E+00  0.2968988849104E-03
 0.3468777598319E-02 -0.5190886756272E-02  0.0000000000000E+00  0.6233345989419E-03
 0.4229274813050E-02 -0.5454138935837E-02  0.0000000000000E+00  0.9386641401645E-03
 0.5078370330308E-02 -0.5775161360572E-02  0.0000000000000E+00  0.1214962842838E-02
 0.5996291863773E-02 -0.6142446500062E-02  0.0000000000000E+00  0.1423678969536E-02
 0.6955154314084E-02 -0.6538516529423E-02  0.0000000000000E+00  0.1540354130048E-02
 0.7920800106649E-02 -0.6941312817820E-02  0.0000000000000E+00  0.1549374120068E-02
 0.8855734985618E-02 -0.7326511792891E-02  0.0000000000000E+00  0.1447543671243E-02
 0.7570788642343E-04 -0.5807839040348E-02  0.0000000000000E+00  0.5046826527613E-03
 0.2269912870017E-03 -0.5901254040022E-02  0.0000000000000E+00  0.4921272783604E-03
 0.3759556165207E-03 -0.5991636766345E-02  0.0000000000000E+00  0.4624012657458E-03
 0.5185609925193E-03 -0.6075996109597E-02  0.0000000000000E+00  0.4163806531198E-03
 0.6510755291611E-03 -0.6151640451188E-02  0.0000000000000E+00  0.3561067486235E-03
 0.7704270038870E-03 -0.6216435791224E-02  0.0000000000000E+00  0.2844720890846E-03
 0.8744024829843E-03 -0.6268932263595E-02  0.0000000000000E+00  0.2047205718062E-03
 0.9616832276555E-03 -0.6308353418104E-02  0.0000000000000E+00  0.1199470111133E-03
 0.1031751513217E-02 -0.6334484510567E-02  0.0000000000000E+00  0.3272690547614E-04
 0.1084728850240E-02 -0.6347512699659E-02  0.0000000000000E+00 -0.5507450108777E-04
 0.1121199687253E-02 -0.6347864818150E-02  0.0000000000000E+00 -0.1423291788658E-03
 0.1142056298938E-02 -0.6336071056616E-02  0.0000000000000E+00 -0.2285558927988E-03
 0.1148382537421E-02 -0.6312666508739E-02  0.0000000000000E+00 -0.3137638083409E-03
 0.1141380651661E-02 -0.6278131271128E-02  0.0000000000000E+00 -0.3982703668306E-03
 0.1122338238852E-02 -0.6232864393369E-02  0.0000000000000E+00 -0.4825185294545E-03
 0.1092629788894E-02 -0.6177185503278E-02  0.0000000000000E+00 -0.5669057809754E-03
 0.1053746965913E-02 -0.6111358447956E-02  0.0000000000000E+00 -0.6516286566269E-03
 0.1007354474355E-02 -0.6035635449150E-02  0.0000000000000E+00 -0.7365394295912E-03
 0.9553653677241E-03 -0.5950315305999E-02  0.0000000000000E+00 -0.8210181205567E-03
 0.9000355310700E-03 -0.5855818274317E-02  0.0000000000000E+00 -0.9038548938372E-03
 0.8440742916341E-03 -0.5752777202568E-02  0.0000000000000E+00 -0.9831437529551E-03
 0.7907645722151E-03 -0.5642138561832E-02  0.0000000000000E+00 -0.1056197374414E-02
 0.7440906627272E-03 -0.5525276589202E-02  0.0000000000000E+00 -0.1119484287829E-02
 0.7088677437325E-03 -0.5404119141449E-02  0.0000000000000E+00 -0.1168609967875E-02
 0.6908698971263E-03 -0.5281296279893E-02  0.0000000000000E+00 -0.1198392078672E-02
 0.6969303151198E-03 -0.5160281291477E-02  0.0000000000000E+00 -0.1202979151368E-02
 0.7349917934862E-03 -0.5045485137070E-02  0.0000000000000E+00 -0.1175975265225E-02
 0.8141120017101E-03 -0.4942326260232E-02  0.0000000000000E+00 -0.1110704477876E-02
 0.9444021328445E-03 -0.4857268723713E-02  0.0000000000000E+00 -0.1000711108928E-02
 0.1136852788174E-02 -0.4797794322397E-02  0.0000000000000E+00 -0.8405568150200E-03
 0.1402978622556E-02 -0.4772250454222E-02  0.0000000000000E+00 -0.6269439769110E-03
 0.1754192463837E-02 -0.4789492887449E-02  0.0000000000000E+00 -0.3601352611516E-03
 0.2200815660920E-02 -0.4858233003019E-02  0.0000000000000E+00 -0.4553608877642E-04
 0.2750706813355E-02 -0.4986020802551E-02  0.0000000000000E+00  0.3048618694974E-03
 0.3407570499466E-02 -0.5177903135051E-02  0.0000000000000E+00  0.6715831888382E-03
 0.4168974898795E-02 -0.5434854439661E-02  0.0000000000000E+00  0.1027869230346E-02
 0.5024403458487E-02 -0.5752193008888E-02  0.0000000000000E+00  0.1341674192466E-02
 0.5954055536466E-02 -0.6118512921561E-02  0.0000000000000E+00  0.1579739353808E-02
 0.6929020682092E-02 -0.6515706926795E-02  0.0000000000000E+00  0.1713200147850E-02
 0.7913201751672E-02 -0.6920413892071E-02  0.0000000000000E+00  0.1723334539904E-02
 0.8866574389096E-02 -0.7306584840380E-02  0.0000000000000E+00  0.1605805582885E-02
 0.7717817063308E-04 -0.5811443658597E-02  0.0000000000000E+00  0.5616160553864E-03
 0.2314275478816E-03 -0.5906657427320E-02  0.0000000000000E+00  0.5476166941248E-03
 0.3832961219017E-03 -0.5998733660107E-02  0.0000000000000E+00  0.5143774985962E-03
 0.5285257146037E-03 -0.6084539711797E-02  0.0000000000000E+00  0.4628955587130E-03
 0.6632013040100E-03 -0.6161282764789E-02  0.0000000000000E+00  0.3955565501122E-03
 0.7841542556920E-03 -0.6226804313864E-02  0.0000000000000E+00  0.3157321283729E-03
 0.8891757621909E-03 -0.6279711503044E-02  0.0000000000000E+00  0.2271670065132E-03
 0.9770337802875E-03 -0.6319346106282E-02  0.0000000000000E+00  0.1333857639651E-03
 0.1047345969696E-02 -0.6345641618124E-02  0.0000000000000E+00  0.3727181287722E-04
 0.1100383305542E-02 -0.6358934197492E-02  0.0000000000000E+00 -0.5913369602957E-04
 0.1136867375844E-02 -0.6359780038258E-02  0.0000000000000E+00 -0.1546417598596E-03
 0.1157799531696E-02 -0.6348808647724E-02  0.0000000000000E+00 -0.2487957112703E-03
 0.1164337951822E-02 -0.6326621733338E-02  0.0000000000000E+00 -0.3416839582370E-03
 0.1157723687739E-02 -0.6293735113188E-02  0.0000000000000E+00 -0.4337310814720E-03
 0.1139249764140E-02 -0.6250556085738E-02  0.0000000000000E+00 -0.5254939250735E-03
 0.1110265673784E-02 -0.6197388188265E-02  0.0000000000000E+00 -0.6174743819663E-03
 0.1072210255337E-02 -0.6134456745956E-02  0.0000000000000E+00 -0.7099511047320E-03
 0.1026669390666E-02 -0.6061953372426E-02  0.0000000000000E+00 -0.8028249931011E-03
 0.9754525703916E-03 -0.5980093338919E-02  0.0000000000000E+00 -0.8954809357856E-03
 0.9206884259928E-03 -0.5889188714163E-02  0.0000000000000E+00 -0.9866599117086E-03
 0.8649367053646E-03 -0.5789737328779E-02  0.0000000000000E+00 -0.1074342194061E-02
 0.8113106618215E-03 -0.5682521911782E-02  0.0000000000000E+00 -0.1155652290200E-02
 0.7636083989519E-03 -0.5568722907693E-02  0.0000000000000E+00 -0.1226786528918E-02
 0.7264483538302E-03 -0.5450045176876E-02  0.0000000000000E+00 -0.1282985849243E-02
 0.7054075355948E-03 -0.5328873937075E-02  0.0000000000000E+00 -0.1318607453929E-02
 0.7071344757843E-03 -0.5208424863399E-02  0.0000000000000E+00 -0.1327240788875E-02
 0.7394167337007E-03 -0.5092846630836E-02  0.0000000000000E+00 -0.1301824771417E-02
 0.8112151867882E-03 -0.4987308127727E-02  0.0000000000000E+00 -0.1234909029135E-02
 0.9326478023730E-03 -0.4898070036435E-02  0.0000000000000E+00 -0.1119167234845E-02
 0.1114876741601E-02 -0.4832508650933E-02  0.0000000000000E+00 -0.9482387761712E-03
 0.1369824724631E-02 -0.4799030775902E-02  0.0000000000000E+00 -0.7179476932251E-03
 0.1709617261475E-02 -0.4806788173315E-02  0.0000000000000E+00 -0.4278890042533E-03
 0.2145631833685E-02 -0.4865079911246E-02  0.0000000000000E+00 -0.8326166866801E-04
 0.2687102851384E-02 -0.4982340464341E-02  0.0000000000000E+00  0.3033702318117E-03
 0.3339301902260E-02 -0.5164718087275E-02  0.0000000000000E+00  0.7108445994893E-03
 0.4101280018666E-02 -0.5414311748364E-02  0.0000000000000E+00  0.1109350050151E-02
 0.4963512119281E-02 -0.5727275540974E-02  0.0000000000000E+00  0.1462451805116E-02
 0.5906263536933E-02 -0.6092394863037E-02  0.0000000000000E+00  0.1731677444701E-02
 0.6899493024466E-02 -0.6490875268341E-02  0.0000000000000E+00  0.1883146452573E-02
 0.7904869153880E-02 -0.6897853535060E-02  0.0000000000000E+00  0.1894541699610E-02
 0.8879460933563E-02 -0.7285300961390E-02  0.0000000000000E+00  0.1760128436471E-02
 0.7881252665047E-04 -0.5815469943270E-02  0.0000000000000E+00  0.6197110674681E-03
 0.2363662045721E-03 -0.5912679196029E-02  0.0000000000000E+00  0.6042225387194E-03
 0.3914739480158E-03 -0.6006626213185E-02  0.0000000000000E+00  0.5673247745478E-03
 0.5396152132052E-03 -0.6094008463119E-02  0.0000000000000E+00  0.5101517371908E-03
 0.6766599843647E-03 -0.6171915441324E-02  0.0000000000000E+00  0.4354863959013E-03
 0.7993325947842E-03 -0.6238165329693E-02  0.0000000000000E+00  0.3472451337119E-03
 0.9054378902734E-03 -0.6291438730190E-02  0.0000000000000E+00  0.2497280139058E-03
 0.9938527179677E-03 -0.6331220169022E-02  0.0000000000000E+00  0.1469198366424E-03
 0.1064356318229E-02 -0.6357616558766E-02  0.0000000000000E+00  0.4201729077272E-04
 0.1117392914893E-02 -0.6371133959988E-02  0.0000000000000E+00 -0.6277577486438E-04
 0.1153839410158E-02 -0.6372472646010E-02  0.0000000000000E+00 -0.1662325209741E-03
 0.1174818173197E-02 -0.6362370269945E-02  0.0000000000000E+00 -0.2679467535142E-03
 0.1181568224370E-02 -0.6341499436754E-02  0.0000000000000E+00 -0.3681104690526E-03
 0.1175371775545E-02 -0.6310412933945E-02  0.0000000000000E+00 -0.4672765014291E-03
 0.1157526634378E-02 -0.6269525719916E-02  0.0000000000000E+00 -0.5661336346834E-03
 0.1129354451114E-02 -0.6219123548017E-02  0.0000000000000E+00 -0.6653043383755E-03
 0.1092236613629E-02 -0.6159390714686E-02  0.0000000000000E+00 -0.7651651658910E-03
 0.1047673887339E-02 -0.6090454841637E-02  0.0000000000000E+00 -0.8656824701569E-03
 0.9973641592387E-03 -0.6012443125973E-02  0.0000000000000E+00 -0.9662649776020E-03
 0.9432988554418E-03 -0.5925553317869E-02  0.0000000000000E+00 -0.1065626297928E-02
 0.8878761149089E-03 -0.5830140021558E-02  0.0000000000000E+00 -0.1161657942058E-02
 0.8340252794219E-03 -0.5726811422369E-02  0.0000000000000E+00 -0.1251324298177E-02
 0.7853416626603E-03 -0.5616540173712E-02  0.0000000000000E+00 -0.1330580162888E-02
 0.7462278043255E-03 -0.5500790275210E-02  0.0000000000000E+00 -0.1394334039248E-02
 0.7220418646201E-03 -0.5381680020066E-02  0.0000000000000E+00 -0.1436513600854E-02
 0.7192230883554E-03 -0.5262140607778E-02  0.0000000000000E+00 -0.1450175334731E-02
 0.7453760156682E-03 -0.5146025550101E-02  0.0000000000000E+00 -0.1427609025043E-02
 0.8093344906128E-03 -0.5038214475380E-02  0.0000000000000E+00 -0.1360586724475E-02
 0.9211935249373E-03 -0.4944719072466E-02  0.0000000000000E+00 -0.1240875917224E-02
 0.1092264261240E-02 -0.4872762727948E-02  0.0000000000000E+00 -0.1061110001444E-02
 0.1334873664147E-02 -0.4830771280075E-02  0.0000000000000E+00 -0.8160885362569E-03
 0.1661891868572E-02 -0.4828173637958E-02  0.0000000000000E+00 -0.5045250952966E-03
 0.2085840686251E-02 -0.4874878482922E-02  0.0000000000000E+00 -0.1311453884642E-03
 0.2617492894308E-02 -0.4980286391406E-02  0.0000000000000E+00  0.2911886099511E-03
 0.3263928548883E-02 -0.5151798037291E-02  0.0000000000000E+00  0.7398282750161E-03
 0.4025975687165E-02 -0.5392844601799E-02  0.0000000000000E+00  0.1181921628509E-02
 0.4895375439605E-02 -0.5700629329647E-02  0.0000000000000E+00  0.1576363761876E-02
 0.5852600705264E-02 -0.6064257053106E-02  0.0000000000000E+00  0.1878877038308E-02
 0.6866380363468E-02 -0.6464196485642E-02  0.0000000000000E+00  0.2049820064600E-02
 0.7895811271410E-02 -0.6873851020202E-02  0.0000000000000E+00  0.2062696621515E-02
 0.8894646072380E-02 -0.7262933362359E-02  0.0000000000000E+00  0.1910121135604E-02
 0.8061764038590E-04 -0.5819943838683E-02  0.0000000000000E+00  0.6790890567449E-03
 0.2418298508792E-03 -0.5919351844655E-02  0.0000000000000E+00  0.6620569840704E-03
 0.4005278075668E-03 -0.6015349737411E-02  0.0000000000000E+00  0.6213246378835E-03
 0.5518762342624E-03 -0.6104431598851E-02  0.0000000000000E+00  0.5581846918496E-03
 0.6914939324651E-03 -0.6183551077464E-02  0.0000000000000E+00  0.4758835977349E-03
 0.8159883459782E-03 -0.6250506520225E-02  0.0000000000000E+00  0.3789614403263E-03
 0.9231917561745E-03 -0.6304073013050E-02  0.0000000000000E+00  0.2723363279822E-03
 0.1012117278331E-02 -0.6343906990551E-02  0.0000000000000E+00  0.1604853890609E-03
 0.1082736098127E-02 -0.6370317134350E-02  0.0000000000000E+00  0.4692083012692E-04
 0.1135691858893E-02 -0.6384001623187E-02  0.0000000000000E+00 -0.6600920817550E-04
 0.1172035712672E-02 -0.6385819370053E-02  0.0000000000000E+00 -0.1770683030959E-03
 0.1193022699214E-02 -0.6376624041982E-02  0.0000000000000E+00 -0.2859305591792E-03
 0.1199978458493E-02 -0.6357162268841E-02  0.0000000000000E+00 -0.3929183906635E-03
 0.1194227978829E-02 -0.6328024108900E-02  0.0000000000000E+00 -0.4987352979480E-03
 0.1177072712572E-02 -0.6289631060152E-02  0.0000000000000E+00 -0.6042206046668E-03
 0.1149803477798E-02 -0.6242249346534E-02  0.0000000000000E+00 -0.7101337271894E-03
 0.1113739795118E-02 -0.6186020138542E-02  0.0000000000000E+00 -0.8169650975104E-03
 0.1070291530279E-02 -0.6121004496149E-02  0.0000000000000E+00 -0.9247637744043E-03
 0.1021037662342E-02 -0.6047238142221E-02  0.0000000000000E+00 -0.1032982100250E-02
 0.9678233418187E-03 -0.5964799783556E-02  0.0000000000000E+00 -0.1140329406371E-02
 0.9128740233753E-03 -0.5873894193777E-02  0.0000000000000E+00 -0.1244635197968E-02
 0.8589218572750E-03 -0.5774945959145E-02  0.0000000000000E+00 -0.1342734154007E-02
 0.8093436506337E-03 -0.5668707760159E-02  0.0000000000000E+00 -0.1430373264159E-02
 0.7683075530743E-03 -0.5556386624745E-02  0.0000000000000E+00 -0.1502164650897E-02
 0.7409312777129E-03 -0.5439813294317E-02  0.0000000000000E+00 -0.1551642420159E-02
 0.7334194362778E-03 -0.5321608412734E-02  0.0000000000000E+00 -0.1571362487128E-02
 0.7531635115563E-03 -0.5205296980740E-02  0.0000000000000E+00 -0.1552989084586E-02
 0.8088354405574E-03 -0.5095427076187E-02  0.0000000000000E+00 -0.1487521903814E-02
 0.9104696571856E-03 -0.4997710024262E-02  0.0000000000000E+00 -0.1365794366983E-02
 0.1069491984593E-02 -0.4919158990495E-02  0.0000000000000E+00 -0.1179354189729E-02
 0.1298614628912E-02 -0.4868164067916E-02  0.0000000000000E+00 -0.9218260365856E-03
 0.1611467864115E-02 -0.4854394722788E-02  0.0000000000000E+00 -0.5908097656864E-03
 0.2021793313204E-02 -0.4888373768572E-02  0.0000000000000E+00 -0.1902532231270E-03
 0.2542063474311E-02 -0.4980538966508E-02  0.0000000000000E+00  0.2670158813285E-03
 0.3181427781072E-02 -0.5139699131927E-02  0.0000000000000E+00  0.7571305103997E-03
 0.3942831723729E-02 -0.5370852488762E-02  0.0000000000000E+00  0.1244264050618E-02
 0.4819625649761E-02 -0.5672513709916E-02  0.0000000000000E+00  0.1682360587827E-02
 0.5792695886194E-02 -0.6034287507272E-02  0.0000000000000E+00  0.2020654119173E-02
 0.6829455201965E-02 -0.6435871681467E-02  0.0000000000000E+00  0.2212824736377E-02
 0.7886027951627E-02 -0.6848657963228E-02  0.0000000000000E+00  0.2227482840020E-02
 0.8912393074669E-02 -0.7239783755447E-02  0.0000000000000E+00  0.2055382356045E-02
 0.8260178536304E-04 -0.5824898061820E-02  0.0000000000000E+00  0.7398755141701E-03
 0.2478462430846E-03 -0.5926716139475E-02  0.0000000000000E+00  0.7212343295054E-03
 0.4105047770959E-03 -0.6024948247852E-02  0.0000000000000E+00  0.6764543740313E-03
 0.5653648794966E-03 -0.6115845382575E-02  0.0000000000000E+00  0.6070170074729E-03
 0.7077531126038E-03 -0.6196205548546E-02  0.0000000000000E+00  0.5167150009479E-03
 0.8341517132967E-03 -0.6263814017142E-02  0.0000000000000E+00  0.4108069515357E-03
 0.9424397730559E-03 -0.6317567216714E-02  0.0000000000000E+00  0.2949003919623E-03
 0.1031800364475E-02 -0.6357328157482E-02  0.0000000000000E+00  0.1739974847071E-03
 0.1102431719821E-02 -0.6383639104229E-02  0.0000000000000E+00  0.5192342519456E-04
 0.1155205510865E-02 -0.6397413709447E-02  0.0000000000000E+00 -0.6885438140841E-04
 0.1191366590433E-02 -0.6399683532042E-02  0.0000000000000E+00 -0.1871241350377E-03
 0.1212313701256E-02 -0.6391424750188E-02  0.0000000000000E+00 -0.3026742438804E-03
 0.1219463856924E-02 -0.6373459673942E-02  0.0000000000000E+00 -0.4159867117893E-03
 0.1214185503314E-02 -0.6346414793537E-02  0.0000000000000E+00 -0.5279390685854E-03
 0.1197782007443E-02 -0.6310716409648E-02  0.0000000000000E+00 -0.6395398960199E-03
 0.1171510200874E-02 -0.6266609416441E-02  0.0000000000000E+00 -0.7517017089078E-03
 0.1136623565888E-02 -0.6214190227331E-02  0.0000000000000E+00 -0.8650446087993E-03
 0.1094435871616E-02 -0.6153451683341E-02  0.0000000000000E+00 -0.9797177097689E-03
 0.1046400721624E-02 -0.6084335908510E-02  0.0000000000000E+00 -0.1095237281114E-02
 0.9942089172939E-03 -0.6006799400870E-02  0.0000000000000E+00 -0.1210332512700E-02
 0.9399032354989E-03 -0.5920892278822E-02  0.0000000000000E+00 -0.1322799257322E-02
 0.8860064662052E-03 -0.5826848427261E-02  0.0000000000000E+00 -0.1429375095005E-02
 0.8356622716025E-03 -0.5725190447658E-02  0.0000000000000E+00 -0.1525635883362E-02
 0.7927868373635E-03 -0.5616854376500E-02  0.0000000000000E+00 -0.1605937388282E-02
 0.7622363444923E-03 -0.5503364665956E-02  0.0000000000000E+00 -0.1663461387540E-02
 0.7499551020177E-03 -0.5387006646425E-02  0.0000000000000E+00 -0.1690302523531E-02
 0.7630896396414E-03 -0.5270943603421E-02  0.0000000000000E+00 -0.1677531895330E-02
 0.8101107433651E-03 -0.5159347781190E-02  0.0000000000000E+00 -0.1615392576728E-02
 0.9009466343491E-03 -0.5057573373620E-02  0.0000000000000E+00 -0.1493766983736E-02
 0.1047090914253E-02 -0.4972355857936E-02  0.0000000000000E+00 -0.1303045785941E-02
 0.1261604751478E-02 -0.4911979025822E-02  0.0000000000000E+00 -0.1035528790449E-02
 0.1558874003993E-02 -0.4886295563908E-02  0.0000000000000E+00 -0.6874549708088E-03
 0.1953917914738E-02 -0.4906424792867E-02  0.0000000000000E+00 -0.2616516335791E-03
 0.2461063920366E-02 -0.4983896585784E-02  0.0000000000000E+00  0.2294847023149E-03
 0.3091808977993E-02 -0.5129083997904E-02  0.0000000000000E+00  0.7612204345568E-03
 0.3851607043202E-02 -0.5348814419576E-02  0.0000000000000E+00  0.1294896760797E-02
 0.4735843387909E-02 -0.5643233699405E-02  0.0000000000000E+00  0.1779247437571E-02
 0.5726111376708E-02 -0.6002697859067E-02  0.0000000000000E+00  0.2156242242352E-02
 0.6788448447968E-02 -0.6406130731569E-02  0.0000000000000E+00  0.2371742877962E-02
 0.7875511786946E-02 -0.6822566391951E-02  0.0000000000000E+00  0.2388559062395E-02
 0.8932967396248E-02 -0.7216182634221E-02  0.0000000000000E+00  0.2195482255866E-02
 0.8477518562157E-04 -0.5830373662662E-02  0.0000000000000E+00  0.8022010200820E-03
 0.2544494502431E-03 -0.5934822982831E-02  0.0000000000000E+00  0.7818714018550E-03
 0.4214620224176E-03 -0.6035476312884E-02  0.0000000000000E+00  0.7327858260029E-03
 0.5801482769325E-03 -0.6128294405365E-02  0.0000000000000E+00  0.6566553189232E-03
 0.7254961086676E-03 -0.6209898379665E-02  0.0000000000000E+00  0.5579227884394E-03
 0.8538569143341E-03 -0.6278071843453E-02  0.0000000000000E+00  0.4426788933087E-03
 0.9631832834185E-03 -0.6331866830039E-02  0.0000000000000E+00  0.3173009660153E-03
 0.1052869567907E-02 -0.6371394092844E-02  0.0000000000000E+00  0.1873479262686E-03
 0.1123381442796E-02 -0.6397464968865E-02  0.0000000000000E+00  0.5694853606054E-04
 0.1175849587544E-02 -0.6411232744017E-02  0.0000000000000E+00 -0.7134385844131E-04
 0.1211732142093E-02 -0.6413914532514E-02  0.0000000000000E+00 -0.1963831178815E-03
 0.1232581534667E-02 -0.6406613644543E-02  0.0000000000000E+00 -0.3181103211141E-03
 0.1239909541279E-02 -0.6390227893089E-02  0.0000000000000E+00 -0.4371983230282E-03
 0.1235127597455E-02 -0.6365418016629E-02  0.0000000000000E+00 -0.5547225430604E-03
 0.1219538563188E-02 -0.6332612684474E-02  0.0000000000000E+00 -0.6718791585751E-03
 0.1194361950423E-02 -0.6292033612316E-02  0.0000000000000E+00 -0.7897492424478E-03
 0.1160781322956E-02 -0.6243731356733E-02  0.0000000000000E+00 -0.9090977507850E-03
 0.1120009827408E-02 -0.6187629901255E-02  0.0000000000000E+00 -0.1030190941488E-02
 0.1073370169685E-02 -0.6123577057011E-02  0.0000000000000E+00 -0.1152629556058E-02
 0.1022391846786E-02 -0.6051405663809E-02  0.0000000000000E+00 -0.1275187577592E-02
 0.9689261777367E-03 -0.5971008316579E-02  0.0000000000000E+00 -0.1395656942217E-02
 0.9152756873433E-03 -0.5882423256922E-02  0.0000000000000E+00 -0.1510712746486E-02
 0.8643375341230E-03 -0.5785935240716E-02  0.0000000000000E+00 -0.1615799173817E-02
 0.8197595704297E-03 -0.5682197741918E-02  0.0000000000000E+00 -0.1705059549151E-02
 0.7861162680664E-03 -0.5572412559717E-02  0.0000000000000E+00 -0.1771369972232E-02
 0.7690661428880E-03 -0.5458506906975E-02  0.0000000000000E+00 -0.1806410550214E-02
 0.7754775809235E-03 -0.5343250066849E-02  0.0000000000000E+00 -0.1800701688225E-02
 0.8135770971686E-03 -0.5230393014990E-02  0.0000000000000E+00 -0.1743758293461E-02
 0.8931332190226E-03 -0.5124871350615E-02  0.0000000000000E+00 -0.1624509255594E-02
 0.1025647219652E-02 -0.5033065391232E-02  0.0000000000000E+00 -0.1432130113915E-02
 0.1224473684533E-02 -0.4963065234265E-02  0.0000000000000E+00 -0.1157452261881E-02
 0.1504725464518E-02 -0.4924825671849E-02  0.0000000000000E+00 -0.7950970965708E-03
 0.1882733555795E-02 -0.4930017324550E-02  0.0000000000000E+00 -0.3463923112115E-03
 0.2374822661418E-02 -0.4991293764491E-02  0.0000000000000E+00  0.1771647575130E-03
 0.2995128314266E-02 -0.5120742327157E-02  0.0000000000000E+00  0.7504267957285E-03
 0.3752057128207E-02 -0.5327307021674E-02  0.0000000000000E+00  0.1332148982665E-02
 0.4643552755975E-02 -0.5613149272162E-02  0.0000000000000E+00  0.1865647828155E-02
 0.5652328007578E-02 -0.5969721895752E-02  0.0000000000000E+00  0.2284771968844E-02
 0.6743041966538E-02 -0.6375232563062E-02  0.0000000000000E+00  0.2526144119970E-02
 0.7864255862368E-02 -0.6795921292702E-02  0.0000000000000E+00  0.2545556069850E-02
 0.8956620878286E-02 -0.7192488868095E-02  0.0000000000000E+00  0.2329929591414E-02
 0.8715047518895E-04 -0.5836421940454E-02  0.0000000000000E+00  0.8662024201999E-03
 0.2616812929457E-03 -0.5943735698914E-02  0.0000000000000E+00  0.8440879758388E-03
 0.4334689148277E-03 -0.6047001268891E-02  0.0000000000000E+00  0.7903837896072E-03
 0.5963065452993E-03 -0.6141833042194E-02  0.0000000000000E+00  0.7070864511152E-03
 0.7447912024275E-03 -0.6224653002625E-02  0.0000000000000E+00  0.5994193582971E-03
 0.8751421507180E-03 -0.6293261037969E-02  0.0000000000000E+00  0.4744408779535E-03
 0.9854216827559E-03 -0.6346908410407E-02  0.0000000000000E+00  0.3393874373424E-03
 0.1075285909317E-02 -0.6386002362513E-02  0.0000000000000E+00  0.2004031489600E-03
 0.1145514142283E-02 -0.6411662538984E-02  0.0000000000000E+00  0.6190132365831E-04
 0.1197529178936E-02 -0.6425306273031E-02  0.0000000000000E+00 -0.7352230321328E-04
 0.1233021620728E-02 -0.6428347326408E-02  0.0000000000000E+00 -0.2048359975891E-03
 0.1253705973461E-02 -0.6422018278090E-02  0.0000000000000E+00 -0.3321762911420E-03
 0.1261190405081E-02 -0.6407290034783E-02  0.0000000000000E+00 -0.4564398387357E-03
 0.1256927495098E-02 -0.6384853847243E-02  0.0000000000000E+00 -0.5789237358442E-03
 0.1242216387097E-02 -0.6355137553191E-02  0.0000000000000E+00 -0.7010291309848E-03
 0.1218235757579E-02 -0.6318337812468E-02  0.0000000000000E+00 -0.8240198967096E-03
 0.1186095719031E-02 -0.6274458832244E-02  0.0000000000000E+00 -0.9488199677973E-03
 0.1146905035836E-02 -0.6223356232349E-02  0.0000000000000E+00 -0.1075829188794E-02
 0.1101851057243E-02 -0.6164784348138E-02  0.0000000000000E+00 -0.1204753233026E-02
 0.1052296267168E-02 -0.6098452787732E-02  0.0000000000000E+00 -0.1334436342792E-02
 0.9998930946641E-03 -0.6024095887738E-02  0.0000000000000E+00 -0.1462697420964E-02
 0.9467143112573E-03 -0.5941553669430E-02  0.0000000000000E+00 -0.1586185471677E-02
 0.8953986979294E-03 -0.5850867878536E-02  0.0000000000000E+00 -0.1700255014669E-02
 0.8493109151847E-03 -0.5752400672181E-02  0.0000000000000E+00 -0.1798884559943E-02
 0.8127249045089E-03 -0.5647017728115E-02  0.0000000000000E+00 -0.1874696577825E-02
 0.7909886826626E-03 -0.5536268007094E-02  0.0000000000000E+00 -0.1919011170211E-02
 0.7906587413942E-03 -0.5422496351448E-02  0.0000000000000E+00 -0.1921851528034E-02
 0.8196710832974E-03 -0.5308986987471E-02  0.0000000000000E+00 -0.1872047633879E-02
 0.8875737329624E-03 -0.5200191861712E-02  0.0000000000000E+00 -0.1757590378835E-02
 0.1005802112340E-02 -0.5102049320209E-02  0.0000000000000E+00 -0.1566400905731E-02
 0.1187927688855E-02 -0.5022350978965E-02  0.0000000000000E+00 -0.1287712340813E-02
 0.1449733534623E-02 -0.4971045988404E-02  0.0000000000000E+00 -0.9142698566925E-03
 0.1808865808042E-02 -0.4960277466957E-02  0.0000000000000E+00 -0.4454904112018E-03
 0.2283766977923E-02 -0.5003821957275E-02  0.0000000000000E+00  0.1085713872195E-03
 0.2891508070120E-02 -0.5115615959659E-02  0.0000000000000E+00  0.7229268902906E-03
 0.3643946041843E-02 -0.5307028494227E-02  0.0000000000000E+00  0.1354126637362E-02
 0.4542217777352E-02 -0.5582689549673E-02  0.0000000000000E+00  0.1939955476972E-02
 0.5570724449869E-02 -0.5935611994495E-02  0.0000000000000E+00  0.2405237468161E-02
 0.6692855114248E-02 -0.6343459120558E-02  0.0000000000000E+00  0.2675601677027E-02
 0.7852273045304E-02 -0.6769138778176E-02  0.0000000000000E+00  0.2698087929913E-02
 0.8983564770088E-02 -0.7169087290857E-02  0.0000000000000E+00  0.2458110696025E-02
 0.8974328686873E-04 -0.5843106811388E-02  0.0000000000000E+00  0.9320242641067E-03
 0.2695931560674E-03 -0.5953532845781E-02  0.0000000000000E+00  0.9080072109451E-03
 0.4466096400993E-03 -0.6059605878512E-02  0.0000000000000E+00  0.8493038497828E-03
 0.6139351045936E-03 -0.6156527068566E-02  0.0000000000000E+00  0.7582725042669E-03
 0.7657174901687E-03 -0.6240496825095E-02  0.0000000000000E+00  0.6410810835044E-03
 0.8980493468931E-03 -0.6309358357915E-02  0.0000000000000E+00  0.5059172080667E-03
 0.1009151195914E-02 -0.6362617560447E-02  0.0000000000000E+00  0.3609738863428E-03
 0.1099002264086E-02 -0.6401035613128E-02  0.0000000000000E+00  0.2130022912234E-03
 0.1168747870491E-02 -0.6426083294075E-02  0.0000000000000E+00  0.6666828116669E-04
 0.1220137692822E-02 -0.6439465817224E-02  0.0000000000000E+00 -0.7544596919970E-04
 0.1255112805051E-02 -0.6442801938441E-02  0.0000000000000E+00 -0.2124803814230E-03
 0.1275555932609E-02 -0.6437452447049E-02  0.0000000000000E+00 -0.3448139951362E-03
 0.1283171064759E-02 -0.6424456275810E-02  0.0000000000000E+00 -0.4736013114283E-03
 0.1279448467761E-02 -0.6404529702454E-02  0.0000000000000E+00 -0.6003841087882E-03
 0.1265679487082E-02 -0.6378095718027E-02  0.0000000000000E+00 -0.7267842570273E-03
 0.1242998275652E-02 -0.6345324057746E-02  0.0000000000000E+00 -0.8542608773947E-03
 0.1212438378348E-02 -0.6306172781597E-02  0.0000000000000E+00 -0.9839094598523E-03
 0.1175001289801E-02 -0.6260430893139E-02  0.0000000000000E+00 -0.1116278823309E-02
 0.1131735734041E-02 -0.6207761786476E-02  0.0000000000000E+00 -0.1251199606726E-02
 0.1083832854719E-02 -0.6147754304010E-02  0.0000000000000E+00 -0.1387612026222E-02
 0.1032740242465E-02 -0.6079986098731E-02  0.0000000000000E+00 -0.1523393730968E-02
 0.9802929922791E-03 -0.6004098957198E-02  0.0000000000000E+00 -0.1655205538852E-02
 0.9288613192501E-03 -0.5919889305469E-02  0.0000000000000E+00 -0.1778356573712E-02
 0.8815136599142E-03 -0.5827422412566E-02  0.0000000000000E+00 -0.1886711569614E-02
 0.8422064495498E-03 -0.5727217804901E-02  0.0000000000000E+00 -0.1972696629369E-02
 0.8159539831127E-03 -0.5620429508689E-02  0.0000000000000E+00 -0.2027334302882E-02
 0.8089674525688E-03 -0.5508950411836E-02  0.0000000000000E+00 -0.2040215853769E-02
 0.8288440184315E-03 -0.5395553839783E-02  0.0000000000000E+00 -0.1999546241626E-02
 0.8848439969934E-03 -0.5284140979914E-02  0.0000000000000E+00 -0.1892415529722E-02
 0.9882503317581E-03 -0.5180113357033E-02  0.0000000000000E+00 -0.1705476010683E-02
 0.1152752608788E-02 -0.5090842093485E-02  0.0000000000000E+00 -0.1426255029409E-02
 0.1394715061443E-02 -0.5026133953585E-02  0.0000000000000E+00 -0.1045371112519E-02
 0.1733063752847E-02 -0.4998485754128E-02  0.0000000000000E+00 -0.5598950945748E-03
 0.2188446094892E-02 -0.5022753274742E-02  0.0000000000000E+00  0.2218125641590E-04
 0.2781160737693E-02 -0.5114828949284E-02  0.0000000000000E+00  0.6767393067645E-03
 0.3527064006563E-02 -0.5288829593656E-02  0.0000000000000E+00  0.1358677996542E-02
 0.4431242641713E-02 -0.5552375572894E-02  0.0000000000000E+00  0.2000273222461E-02
 0.5480548750342E-02 -0.5900635225706E-02  0.0000000000000E+00  0.2516438313750E-02
 0.6637417094251E-02 -0.6311093599085E-02  0.0000000000000E+00  0.2819717149595E-02
 0.7839633846029E-02 -0.6742731851370E-02  0.0000000000000E+00  0.2845796666828E-02
 0.9013927940598E-02 -0.7146372214831E-02  0.0000000000000E+00  0.2579189132653E-02
 0.9257298961163E-04 -0.5850507755373E-02  0.0000000000000E+00  0.9998205646925E-03
 0.2782482758073E-03 -0.5964311691788E-02  0.0000000000000E+00  0.9737560531579E-03
 0.4609864078515E-03 -0.6073391520903E-02  0.0000000000000E+00  0.9095894109845E-03
 0.6331473599039E-03 -0.6172455412703E-02  0.0000000000000E+00  0.8101445163657E-03
 0.7883659557434E-03 -0.6257460980670E-02  0.0000000000000E+00  0.6827406503195E-03
 0.9226235152546E-03 -0.6326334391525E-02  0.0000000000000E+00  0.5368862964466E-03
 0.1034363169264E-02 -0.6378906298673E-02  0.0000000000000E+00  0.3818349507872E-03
 0.1123961377179E-02 -0.6416359062105E-02  0.0000000000000E+00  0.2249555710556E-03
 0.1192988161116E-02 -0.6440560502024E-02  0.0000000000000E+00  0.7111740071254E-04
 0.1243555691312E-02 -0.6453525761726E-02  0.0000000000000E+00 -0.7718164522567E-04
 0.1277871368061E-02 -0.6457083026564E-02  0.0000000000000E+00 -0.2193195186436E-03
 0.1297989246943E-02 -0.6452716235177E-02  0.0000000000000E+00 -0.3559686753336E-03
 0.1305705892584E-02 -0.6441524185457E-02  0.0000000000000E+00 -0.4885757852942E-03
 0.1302543963662E-02 -0.6424240777272E-02  0.0000000000000E+00 -0.6189486850754E-03
 0.1289781989358E-02 -0.6401279306775E-02  0.0000000000000E+00 -0.7489433473886E-03
 0.1268505767845E-02 -0.6372780783425E-02  0.0000000000000E+00 -0.8802241823629E-03
 0.1239669659980E-02 -0.6338658116960E-02  0.0000000000000E+00 -0.1014068751091E-02
 0.1204165992668E-02 -0.6298636823740E-02  0.0000000000000E+00 -0.1151188747913E-02
 0.1162902923872E-02 -0.6252293739584E-02  0.0000000000000E+00 -0.1291559025649E-02
 0.1116897453710E-02 -0.6199101613521E-02  0.0000000000000E+00 -0.1434241440198E-02
 0.1067388006153E-02 -0.6138485474302E-02  0.0000000000000E+00 -0.1577204798949E-02
 0.1015965780825E-02 -0.6069891610139E-02  0.0000000000000E+00 -0.1717160870028E-02
 0.9647241113316E-03 -0.5992871908678E-02  0.0000000000000E+00 -0.1849419549610E-02
 0.9164243166951E-03 -0.5907192713651E-02  0.0000000000000E+00 -0.1967785827561E-02
 0.8746907111754E-03 -0.5813021355083E-02  0.0000000000000E+00 -0.2064551533272E-02
 0.8441829061102E-03 -0.5711104521313E-02  0.0000000000000E+00 -0.2130511902392E-02
 0.8307347991641E-03 -0.5602859755291E-02  0.0000000000000E+00 -0.2154903798051E-02
 0.8415556109312E-03 -0.5490508293496E-02  0.0000000000000E+00 -0.2125385231662E-02
 0.8855457444499E-03 -0.5377333432594E-02  0.0000000000000E+00 -0.2028207617957E-02
 0.9737369121094E-03 -0.5268099052428E-02  0.0000000000000E+00 -0.1848770979007E-02
 0.1119815314295E-02 -0.5169617708582E-02  0.0000000000000E+00 -0.1572821608369E-02
 0.1340601338815E-02 -0.5091386560585E-02  0.0000000000000E+00 -0.1188622203344E-02
 0.1656218204927E-02 -0.5046090980746E-02  0.0000000000000E+00 -0.6904504173240E-03
 0.2089558535789E-02 -0.5049566639362E-02  0.0000000000000E+00 -0.8354138244249E-04
 0.2664418995197E-02 -0.5119724152842E-02  0.0000000000000E+00  0.6097211758315E-03
 0.3401252429231E-02 -0.5273750603607E-02  0.0000000000000E+00  0.1343362378932E-02
 0.4309980646117E-02 -0.5522858905671E-02  0.0000000000000E+00  0.2044340410674E-02
 0.5380886664215E-02 -0.5865075400858E-02  0.0000000000000E+00  0.2616879531980E-02
 0.6576102081815E-02 -0.6278372182111E-02  0.0000000000000E+00  0.2958126178941E-02
 0.7826551891913E-02 -0.6717332944800E-02  0.0000000000000E+00  0.2988494420844E-02
 0.9047634556068E-02 -0.7124705565660E-02  0.0000000000000E+00  0.2691885559966E-02
 0.9566365947068E-04 -0.5858723518128E-02  0.0000000000000E+00  0.1069756949529E-02
 0.2877246650910E-03 -0.5976192535887E-02  0.0000000000000E+00  0.1041465537113E-02
 0.4767234388769E-03 -0.6088482031705E-02  0.0000000000000E+00  0.9712676042337E-03
 0.6540778195421E-03 -0.6189712002147E-02  0.0000000000000E+00  0.8625942427438E-03
 0.8128404192108E-03 -0.6275579586769E-02  0.0000000000000E+00  0.7241776426187E-03
 0.9489116046143E-03 -0.6344150881625E-02  0.0000000000000E+00  0.5670731212813E-03
 0.1061041759530E-02 -0.6395669682682E-02  0.0000000000000E+00  0.4017016090002E-03
 0.1150093411506E-02 -0.6431817484167E-02  0.0000000000000E+00  0.2360431680614E-03
 0.1218126078623E-02 -0.6454907110202E-02  0.0000000000000E+00  0.7509905395940E-04
 0.1267649653664E-02 -0.6467282225315E-02  0.0000000000000E+00 -0.7880494152168E-04
 0.1301150288098E-02 -0.6470979545116E-02  0.0000000000000E+00 -0.2253605905356E-03
 0.1320852550457E-02 -0.6467596210519E-02  0.0000000000000E+00 -0.3655877296075E-03
 0.1328639170405E-02 -0.6458279215651E-02  0.0000000000000E+00 -0.5012587034530E-03
 0.1326057868248E-02 -0.6443770636014E-02  0.0000000000000E+00 -0.6344661447059E-03
 0.1314368369242E-02 -0.6424468415071E-02  0.0000000000000E+00 -0.7673103283289E-03
 0.1294604194956E-02 -0.6400483187626E-02  0.0000000000000E+00 -0.9016679380968E-03
 0.1267638503920E-02 -0.6371684616536E-02  0.0000000000000E+00 -0.1039006530124E-02
 0.1234253674975E-02 -0.6337739374490E-02  0.0000000000000E+00 -0.1180212637642E-02
 0.1195216834356E-02 -0.6298144125178E-02  0.0000000000000E+00 -0.1325423410136E-02
 0.1151369710310E-02 -0.6252262573969E-02  0.0000000000000E+00 -0.1473847649050E-02
 0.1103738989755E-02 -0.6199373844216E-02  0.0000000000000E+00 -0.1623578093310E-02
 0.1053667589769E-02 -0.6138734389464E-02  0.0000000000000E+00 -0.1771417528566E-02
 0.1002965683844E-02 -0.6069655641610E-02  0.0000000000000E+00 -0.1912724282316E-02
 0.9540790119199E-03 -0.5991606836343E-02  0.0000000000000E+00 -0.2041300080898E-02
 0.9102880370225E-03 -0.5904401573637E-02  0.0000000000000E+00 -0.2149368812352E-02
 0.8758798213305E-03 -0.5808371920338E-02  0.0000000000000E+00 -0.2227575970216E-02
 0.8562815904189E-03 -0.5704442090755E-02  0.0000000000000E+00 -0.2264893798791E-02
 0.8582663564057E-03 -0.5594244869395E-02  0.0000000000000E+00 -0.2248530613464E-02
 0.8902993037168E-03 -0.5480381011261E-02  0.0000000000000E+00 -0.2163989249137E-02
 0.9630518092311E-03 -0.5366872883460E-02  0.0000000000000E+00 -0.1995471190213E-02
 0.1090062990833E-02 -0.5259822789734E-02  0.0000000000000E+00 -0.1726909528450E-02
 0.1288445566905E-02 -0.5168220523156E-02  0.0000000000000E+00 -0.1344019294806E-02
 0.1579380907428E-02 -0.5104722849884E-02  0.0000000000000E+00 -0.8378441947194E-03
 0.1987982682737E-02 -0.5085976232702E-02  0.0000000000000E+00 -0.2101063572250E-03
 0.2541776030275E-02 -0.5131905892257E-02  0.0000000000000E+00  0.5195797000103E-03
 0.3266429867739E-02 -0.5263071417733E-02  0.0000000000000E+00  0.1305403864076E-02
 0.4177767590209E-02 -0.5494955722926E-02  0.0000000000000E+00  0.2069503529414E-02
 0.5270625684726E-02 -0.5829314229259E-02  0.0000000000000E+00  0.2704544389966E-02
 0.6508022228996E-02 -0.6245301771297E-02  0.0000000000000E+00  0.3090528605305E-02
 0.7813471490666E-02 -0.6693851465266E-02  0.0000000000000E+00  0.3126301903633E-02
 0.9084342508403E-02 -0.7104027863813E-02  0.0000000000000E+00  0.2794361540086E-02
 0.9904532819997E-04 -0.5867876827979E-02  0.0000000000000E+00  0.1142013261830E-02
 0.2981188613154E-03 -0.5989324069356E-02  0.0000000000000E+00  0.1111270899596E-02
 0.4939719223667E-03 -0.6105028371418E-02  0.0000000000000E+00  0.1034343648529E-02
 0.6768856686867E-03 -0.6208407599471E-02  0.0000000000000E+00  0.9154634331305E-03
 0.8392581961438E-03 -0.6294888268287E-02  0.0000000000000E+00  0.7651070111899E-03
 0.9769606153069E-03 -0.6362756996695E-02  0.0000000000000E+00  0.5961406880027E-03
 0.1089160857048E-02 -0.6412781520664E-02  0.0000000000000E+00  0.4202571078648E-03
 0.1177312965272E-02 -0.6447231646398E-02  0.0000000000000E+00  0.2460149002420E-03
 0.1244036023779E-02 -0.6468913439049E-02  0.0000000000000E+00  0.7844781957883E-04
 0.1292270715784E-02 -0.6480511972610E-02  0.0000000000000E+00 -0.8039777574609E-04
 0.1324789363642E-02 -0.6484264574097E-02  0.0000000000000E+00 -0.2306124460956E-03
 0.1343981315375E-02 -0.6481865833054E-02  0.0000000000000E+00 -0.3736191440466E-03
 0.1351805419190E-02 -0.6474495407985E-02  0.0000000000000E+00 -0.5115471764064E-03
 0.1349824939248E-02 -0.6462892013549E-02  0.0000000000000E+00 -0.6467889197388E-03
 0.1339273849587E-02 -0.6447431850544E-02  0.0000000000000E+00 -0.7816951015116E-03
 0.1321129462051E-02 -0.6428193795708E-02  0.0000000000000E+00 -0.9183579482478E-03
 0.1296182425069E-02 -0.6405007196400E-02  0.0000000000000E+00 -0.1058439803394E-02
 0.1265105643862E-02 -0.6377486173859E-02  0.0000000000000E+00 -0.1203011597859E-02
 0.1228526379594E-02 -0.6345055765436E-02  0.0000000000000E+00 -0.1352389293848E-02
 0.1187111796229E-02 -0.6306980235541E-02  0.0000000000000E+00 -0.1505953257207E-02
 0.1141676170974E-02 -0.6262402357111E-02  0.0000000000000E+00 -0.1661953020692E-02
 0.1093311694776E-02 -0.6210397504440E-02  0.0000000000000E+00 -0.1817323084676E-02
 0.1043541269658E-02 -0.6150044216144E-02  0.0000000000000E+00 -0.1967518911053E-02
 0.9944892829382E-03 -0.6080520563711E-02  0.0000000000000E+00 -0.2106397232362E-02
 0.9490840078992E-03 -0.6001289874570E-02  0.0000000000000E+00 -0.2226183749584E-02
 0.9112260519349E-03 -0.5912268245227E-02  0.0000000000000E+00 -0.2317458327840E-02
 0.8859105176052E-03 -0.5813875301597E-02  0.0000000000000E+00 -0.2369030150133E-02
 0.8794286124069E-03 -0.5707125869197E-02  0.0000000000000E+00 -0.2367774599151E-02
 0.8997342977490E-03 -0.5593878944237E-02  0.0000000000000E+00 -0.2298565987464E-02
 0.9570218507269E-03 -0.5477312328199E-02  0.0000000000000E+00 -0.2144503702213E-02
 0.1064519306028E-02 -0.5362656794217E-02  0.0000000000000E+00 -0.1887729973545E-02
 0.1239427783610E-02 -0.5258168440716E-02  0.0000000000000E+00 -0.1511276636917E-02
 0.1503782808516E-02 -0.5176202108408E-02  0.0000000000000E+00 -0.1002543739085E-02
 0.1884812339507E-02 -0.5133961383319E-02  0.0000000000000E+00 -0.3589413159822E-03
 0.2413928005661E-02 -0.5153289345973E-02  0.0000000000000E+00  0.4038924840499E-03
 0.3122651764785E-02 -0.5258373789193E-02  0.0000000000000E+00  0.1241674149869E-02
 0.4033882997303E-02 -0.5469699233528E-02  0.0000000000000E+00  0.2072572241063E-02
 0.5148673411946E-02 -0.5793871710250E-02  0.0000000000000E+00  0.2777080241332E-02
 0.6431369824183E-02 -0.6211866532203E-02  0.0000000000000E+00  0.3215387418312E-02
 0.7802185359663E-02 -0.6672496637172E-02  0.0000000000000E+00  0.3262227988167E-02
 0.9120702511020E-02 -0.7085220884114E-02  0.0000000000000E+00  0.2880166940620E-02
 0.1027601321334E-03 -0.5878120395476E-02  0.0000000000000E+00  0.1216788697687E-02
 0.3095538715148E-03 -0.6003891979981E-02  0.0000000000000E+00  0.1183320499799E-02
 0.5129220916291E-03 -0.6123217490613E-02  0.0000000000000E+00  0.1098805468701E-02
 0.7017672801485E-03 -0.6228676949126E-02  0.0000000000000E+00  0.9685450846133E-03
 0.8677617330474E-03 -0.6315428768892E-02  0.0000000000000E+00  0.8051799105483E-03
 0.1006828647065E-02 -0.6382092479848E-02  0.0000000000000E+00  0.6236935155896E-03
 0.1118695847364E-02 -0.6430097648045E-02  0.0000000000000E+00  0.4371433093151E-03
 0.1205532517771E-02 -0.6462402779443E-02  0.0000000000000E+00  0.2545977498391E-03
 0.1270591188633E-02 -0.6482353238236E-02  0.0000000000000E+00  0.8098920582345E-04
 0.1317272048499E-02 -0.6492980152165E-02  0.0000000000000E+00 -0.8204374582647E-04
 0.1348634383423E-02 -0.6496704949866E-02  0.0000000000000E+00 -0.2350835464415E-03
 0.1367220861291E-02 -0.6495297516683E-02  0.0000000000000E+00 -0.3800119674766E-03
 0.1375052539692E-02 -0.6489950798109E-02  0.0000000000000E+00 -0.5193427733527E-03
 0.1373696591227E-02 -0.6481386809734E-02  0.0000000000000E+00 -0.6557781588279E-03
 0.1364353502683E-02 -0.6469953248922E-02  0.0000000000000E+00 -0.7919207436578E-03
 0.1347940608320E-02 -0.6455696469345E-02  0.0000000000000E+00 -0.9300774675989E-03
 0.1325165597278E-02 -0.6438409791885E-02  0.0000000000000E+00 -0.1072106906569E-02
 0.1296593741463E-02 -0.6417663044511E-02  0.0000000000000E+00 -0.1219271446442E-02
 0.1262715296936E-02 -0.6392820655680E-02  0.0000000000000E+00 -0.1372080845032E-02
 0.1224025381096E-02 -0.6363059890448E-02  0.0000000000000E+00 -0.1530111158129E-02
 0.1181126916522E-02 -0.6327399768103E-02  0.0000000000000E+00 -0.1691802004151E-02
 0.1134860513008E-02 -0.6284746496098E-02  0.0000000000000E+00 -0.1854261299271E-02
 0.1086459347049E-02 -0.6233956668196E-02  0.0000000000000E+00 -0.2013091607744E-02
 0.1037722818711E-02 -0.6173927062102E-02  0.0000000000000E+00 -0.2162264669783E-02
 0.9912216146997E-03 -0.6103778960546E-02  0.0000000000000E+00 -0.2294080836778E-02
 0.9504596838449E-03 -0.6023016944583E-02  0.0000000000000E+00 -0.2399144483102E-02
 0.9199784790298E-03 -0.5931551580316E-02  0.0000000000000E+00 -0.2466214549624E-02
 0.9055448169155E-03 -0.5829757500301E-02  0.0000000000000E+00 -0.2481969496722E-02
 0.9145255511588E-03 -0.5718699168184E-02  0.0000000000000E+00 -0.2430805728976E-02
 0.9565147388049E-03 -0.5600609346596E-02  0.0000000000000E+00 -0.2294862445361E-02
 0.1044246206653E-02 -0.5479678510673E-02  0.0000000000000E+00 -0.2054575150853E-02
 0.1194764303608E-02 -0.5363174711942E-02  0.0000000000000E+00 -0.1690227608907E-02
 0.1430682750693E-02 -0.5262816154720E-02  0.0000000000000E+00 -0.1185218007499E-02
 0.1781135798503E-02 -0.5196008513822E-02  0.0000000000000E+00 -0.5318187330297E-03
 0.2281485878716E-02 -0.5186293375947E-02  0.0000000000000E+00  0.2596997719706E-03
 0.2969722856066E-02 -0.5261660384414E-02  0.0000000000000E+00  0.1148337988856E-02
 0.3877229938578E-02 -0.5448399432481E-02  0.0000000000000E+00  0.2049614860321E-02
 0.5013096860632E-02 -0.5759281756017E-02  0.0000000000000E+00  0.2831651775338E-02
 0.6345233311713E-02 -0.6178468267860E-02  0.0000000000000E+00  0.3330899174812E-02
 0.7787065090422E-02 -0.6651425887203E-02  0.0000000000000E+00  0.3398518582330E-02
 0.9185576888605E-02 -0.7075778129478E-02  0.0000000000000E+00  0.2940278899611E-02
 0.1068461347024E-03 -0.5889644214690E-02  0.0000000000000E+00  0.1294303479863E-02
 0.3221749728902E-03 -0.6020125043247E-02  0.0000000000000E+00  0.1257758859816E-02
 0.5337941629948E-03 -0.6143272679375E-02  0.0000000000000E+00  0.1164589581059E-02
 0.7289397531878E-03 -0.6250669731491E-02  0.0000000000000E+00  0.1021536924171E-02
 0.8984920098729E-03 -0.6337230731255E-02  0.0000000000000E+00  0.8439376009691E-03
 0.1038550564965E-02 -0.6402064019304E-02  0.0000000000000E+00  0.6492412681624E-03
 0.1149585202160E-02 -0.6447431098418E-02  0.0000000000000E+00  0.4519372388883E-03
 0.1234622822185E-02 -0.6477089109307E-02  0.0000000000000E+00  0.2614840130013E-03
 0.1297624041161E-02 -0.6494962100291E-02  0.0000000000000E+00  0.8253664265734E-04
 0.1342469451151E-02 -0.6504419632059E-02  0.0000000000000E+00 -0.8382465436518E-04
 0.1372497084232E-02 -0.6508039706136E-02  0.0000000000000E+00 -0.2387734420414E-03
 0.1390384524557E-02 -0.6507637863043E-02  0.0000000000000E+00 -0.3847033719819E-03
 0.1398196799851E-02 -0.6504396764990E-02  0.0000000000000E+00 -0.5245342080899E-03
 0.1397491134750E-02 -0.6499006531047E-02  0.0000000000000E+00 -0.6612816150801E-03
 0.1389426042076E-02 -0.6491779223593E-02  0.0000000000000E+00 -0.7977957232983E-03
 0.1374855367192E-02 -0.6482728503556E-02  0.0000000000000E+00 -0.9365923652195E-03
 0.1354404386033E-02 -0.6471617268973E-02  0.0000000000000E+00 -0.1079723611894E-02
 0.1328534154197E-02 -0.6457981260508E-02  0.0000000000000E+00 -0.1228647008506E-02
 0.1297602793598E-02 -0.6441137846950E-02  0.0000000000000E+00 -0.1384078700936E-02
 0.1261938131186E-02 -0.6420192744814E-02  0.0000000000000E+00 -0.1545813276897E-02
 0.1221935024551E-02 -0.6394057132710E-02  0.0000000000000E+00 -0.1712513482147E-02
 0.1178183788893E-02 -0.6361483475794E-02  0.0000000000000E+00 -0.1881502718733E-02
 0.1131627717784E-02 -0.6321121216535E-02  0.0000000000000E+00 -0.2048581114626E-02
 0.1083740598185E-02 -0.6271600315054E-02  0.0000000000000E+00 -0.2207896058407E-02
 0.1036734372548E-02 -0.6211714083284E-02  0.0000000000000E+00 -0.2351897086029E-02
 0.9937117411281E-03 -0.6140567500951E-02  0.0000000000000E+00 -0.2471307810634E-02
 0.9587455717140E-03 -0.6057566917902E-02  0.0000000000000E+00 -0.2554959872364E-02
 0.9370423504658E-03 -0.5962435664461E-02  0.0000000000000E+00 -0.2589489752942E-02
 0.9353109436959E-03 -0.5855403139824E-02  0.0000000000000E+00 -0.2558998813056E-02
 0.9624219369136E-03 -0.5737667517813E-02  0.0000000000000E+00 -0.2444859719931E-02
 0.1030419344008E-02 -0.5612213504191E-02  0.0000000000000E+00 -0.2225962699854E-02
 0.1155908186013E-02 -0.5485049684742E-02  0.0000000000000E+00 -0.1879880143000E-02
 0.1361725733305E-02 -0.5366866127243E-02  0.0000000000000E+00 -0.1385751839826E-02
 0.1678576944191E-02 -0.5274801108756E-02  0.0000000000000E+00 -0.7299218851949E-03
 0.2145684608642E-02 -0.5233709896187E-02  0.0000000000000E+00  0.8424916361177E-04
 0.2808049566127E-02 -0.5275410574491E-02  0.0000000000000E+00  0.1021232831437E-02
 0.3707046079224E-02 -0.5432807050637E-02  0.0000000000000E+00  0.1995948610269E-02
 0.4862293124807E-02 -0.5726441573896E-02  0.0000000000000E+00  0.2864104790338E-02
 0.6247339500309E-02 -0.6145465895395E-02  0.0000000000000E+00  0.3436113490610E-02
 0.7769069485222E-02 -0.6630915374087E-02  0.0000000000000E+00  0.3526770306027E-02
 0.9271444785029E-02 -0.7077014241463E-02  0.0000000000000E+00  0.3011316963395E-02
 0.1113679940618E-03 -0.5902686017589E-02  0.0000000000000E+00  0.1374801046557E-02
 0.3361720958441E-03 -0.6038306193428E-02  0.0000000000000E+00  0.1334720171292E-02
 0.5568648069790E-03 -0.6165461793969E-02  0.0000000000000E+00  0.1231558558858E-02
 0.7586596154604E-03 -0.6274551209065E-02  0.0000000000000E+00  0.1074010153241E-02
 0.9315980852125E-03 -0.6360305692491E-02  0.0000000000000E+00  0.8807845290943E-03
 0.1072140867895E-02 -0.6422536863629E-02  0.0000000000000E+00  0.6721837860753E-03
 0.1181730692867E-02 -0.6464545377310E-02  0.0000000000000E+00  0.4641474700170E-03
 0.1264413020672E-02 -0.6491002567187E-02  0.0000000000000E+00  0.2663340637594E-03
 0.1324927159022E-02 -0.6506437450745E-02  0.0000000000000E+00  0.8289545359387E-04
 0.1367642710343E-02 -0.6514533282971E-02  0.0000000000000E+00 -0.8581889987191E-04
 0.1396156551087E-02 -0.6517983628235E-02  0.0000000000000E+00 -0.2416755378142E-03
 0.1413254670341E-02 -0.6518611725172E-02  0.0000000000000E+00 -0.3876268734047E-03
 0.1421023157445E-02 -0.6517562104433E-02  0.0000000000000E+00 -0.5270116994025E-03
 0.1420993201273E-02 -0.6515476047510E-02  0.0000000000000E+00 -0.6631547268359E-03
 0.1414272179307E-02 -0.6512622562527E-02  0.0000000000000E+00 -0.7991422970329E-03
 0.1401647277751E-02 -0.6508983033699E-02  0.0000000000000E+00 -0.9376874624609E-03
 0.1383663002622E-02 -0.6504296776618E-02  0.0000000000000E+00 -0.1081028019423E-02
 0.1360681357692E-02 -0.6498077518476E-02  0.0000000000000E+00 -0.1230816066178E-02
 0.1332935506530E-02 -0.6489611643166E-02  0.0000000000000E+00 -0.1387983268998E-02
 0.1300593418879E-02 -0.6477951895139E-02  0.0000000000000E+00 -0.1552563201123E-02
 0.1263847959559E-02 -0.6461921072529E-02  0.0000000000000E+00 -0.1723473466075E-02
 0.1223043177867E-02 -0.6440137130938E-02  0.0000000000000E+00 -0.1898294309298E-02
 0.1178835294074E-02 -0.6411061351747E-02  0.0000000000000E+00 -0.2073073028521E-02
 0.1132375769640E-02 -0.6373076464613E-02  0.0000000000000E+00 -0.2242192085919E-02
 0.1085522249851E-02 -0.6324668571061E-02  0.0000000000000E+00 -0.2398324024004E-02
 0.1040979231474E-02 -0.6264563855907E-02  0.0000000000000E+00 -0.2532408140651E-02
 0.1002345569762E-02 -0.6191680980462E-02  0.0000000000000E+00 -0.2633478592229E-02
 0.9742422917488E-03 -0.6105095839367E-02  0.0000000000000E+00 -0.2688300423557E-02
 0.9626603918962E-03 -0.6004180674403E-02  0.0000000000000E+00 -0.2680892649047E-02
 0.9756320282938E-03 -0.5889030095775E-02  0.0000000000000E+00 -0.2592108067830E-02
 0.1024314065409E-02 -0.5761274736720E-02  0.0000000000000E+00 -0.2399541225717E-02
 0.1124562443453E-02 -0.5625392033675E-02  0.0000000000000E+00 -0.2078221658125E-02
 0.1299006365904E-02 -0.5490608881808E-02  0.0000000000000E+00 -0.1602936239720E-02
 0.1579434068843E-02 -0.5373206772811E-02  0.0000000000000E+00 -0.9534339132906E-03
 0.2008623550219E-02 -0.5298760289207E-02  0.0000000000000E+00 -0.1245633501931E-03
 0.2638936295850E-02 -0.5302706968074E-02  0.0000000000000E+00  0.8562578912081E-03
 0.3523334807352E-02 -0.5425283113623E-02  0.0000000000000E+00  0.1906190716426E-02
 0.4694891325655E-02 -0.5696743316579E-02  0.0000000000000E+00  0.2869639022168E-02
 0.6135836912142E-02 -0.6113286405218E-02  0.0000000000000E+00  0.3527063038712E-02
 0.7749103575121E-02 -0.6613754202484E-02  0.0000000000000E+00  0.3649028238888E-02
 0.9363993860543E-02 -0.7082079658861E-02  0.0000000000000E+00  0.3079871970949E-02
 0.1164027734487E-03 -0.5917544978800E-02  0.0000000000000E+00  0.1458560665131E-02
 0.3517832982845E-03 -0.6058789685973E-02  0.0000000000000E+00  0.1414345525888E-02
 0.5824731728981E-03 -0.6190111965831E-02  0.0000000000000E+00  0.1299508600400E-02
 0.7912283994276E-03 -0.6300509841755E-02  0.0000000000000E+00  0.1125413897655E-02
 0.9672411973203E-03 -0.6384649164592E-02  0.0000000000000E+00  0.9149998703531E-03
 0.1107600749689E-02 -0.6443336717942E-02  0.0000000000000E+00  0.6918330894834E-03
 0.1215011169973E-02 -0.6481160173513E-02  0.0000000000000E+00  0.4732416550575E-03
 0.1294712212237E-02 -0.6503819322242E-02  0.0000000000000E+00  0.2688024998433E-03
 0.1352281650570E-02 -0.6516453182969E-02  0.0000000000000E+00  0.8188317989949E-04
 0.1392569484500E-02 -0.6523011978025E-02  0.0000000000000E+00 -0.8808821566000E-04
 0.1419397674945E-02 -0.6526248743823E-02  0.0000000000000E+00 -0.2437701644903E-03
 0.1435625596282E-02 -0.6527948315959E-02  0.0000000000000E+00 -0.3887103491401E-03
 0.1443333154009E-02 -0.6529185719834E-02  0.0000000000000E+00 -0.5266686837600E-03
 0.1444007660972E-02 -0.6530535476105E-02  0.0000000000000E+00 -0.6612652629210E-03
 0.1438695915857E-02 -0.6532216418441E-02  0.0000000000000E+00 -0.7958039552446E-03
 0.1428115867238E-02 -0.6534179053097E-02  0.0000000000000E+00 -0.9331773463679E-03
 0.1412734120703E-02 -0.6536147445631E-02  0.0000000000000E+00 -0.1075796064386E-02
 0.1392820595891E-02 -0.6537627437419E-02  0.0000000000000E+00 -0.1225501721843E-02
 0.1368493003748E-02 -0.6537893215614E-02  0.0000000000000E+00 -0.1383447050803E-02
 0.1339769552215E-02 -0.6535966471654E-02  0.0000000000000E+00 -0.1549922677607E-02
 0.1306649819525E-02 -0.6530604812341E-02  0.0000000000000E+00 -0.1724131740513E-02
 0.1269237939868E-02 -0.6520314726835E-02  0.0000000000000E+00 -0.1903952418186E-02
 0.1227908099042E-02 -0.6503392222059E-02  0.0000000000000E+00 -0.2085728214014E-02
 0.1183495723833E-02 -0.6477996908903E-02  0.0000000000000E+00 -0.2264134566320E-02
 0.1137513381679E-02 -0.6442334377293E-02  0.0000000000000E+00 -0.2432139029205E-02
 0.1092277465941E-02 -0.6394780930616E-02  0.0000000000000E+00 -0.2580992870277E-02
 0.1050916659227E-02 -0.6333795095626E-02  0.0000000000000E+00 -0.2700066736016E-02
 0.1017452575160E-02 -0.6257824014505E-02  0.0000000000000E+00 -0.2776436462967E-02
 0.9971111345173E-03 -0.6165380291032E-02  0.0000000000000E+00 -0.2794275951498E-02
 0.9969836849614E-03 -0.6055410543129E-02  0.0000000000000E+00 -0.2734212159519E-02
 0.1027149059462E-02 -0.5928068859577E-02  0.0000000000000E+00 -0.2572879816896E-02
 0.1102389061076E-02 -0.5786043918597E-02  0.0000000000000E+00 -0.2283077272956E-02
 0.1244625829391E-02 -0.5636637172986E-02  0.0000000000000E+00 -0.1835344698833E-02
 0.1486085141377E-02 -0.5494568343995E-02  0.0000000000000E+00 -0.1202369490715E-02
 0.1872530150055E-02 -0.5385294759782E-02  0.0000000000000E+00 -0.3689088382752E-03
 0.2463761464530E-02 -0.5347338788278E-02  0.0000000000000E+00  0.6487935533602E-03
 0.3325901697003E-02 -0.5428811390246E-02  0.0000000000000E+00  0.1774070949271E-02
 0.4508999858412E-02 -0.5671845677414E-02  0.0000000000000E+00  0.2842242888473E-02
 0.6008406116551E-02 -0.6082900097644E-02  0.0000000000000E+00  0.3600347765071E-02
 0.7725216630231E-02 -0.6600666766129E-02  0.0000000000000E+00  0.3765707060611E-02
 0.9465715892636E-02 -0.7094126193218E-02  0.0000000000000E+00  0.3143861830169E-02
 0.1220501723658E-03 -0.5934599532048E-02  0.0000000000000E+00  0.1545903008605E-02
 0.3693119326946E-03 -0.6082019536268E-02  0.0000000000000E+00  0.1496766036896E-02
 0.6110366480678E-03 -0.6217617822851E-02  0.0000000000000E+00  0.1368122601247E-02
 0.8269938631707E-03 -0.6328748778110E-02  0.0000000000000E+00  0.1175015621277E-02
 0.1005581114598E-02 -0.6410219788701E-02  0.0000000000000E+00  0.9456905942117E-03
 0.1144896863363E-02 -0.6464226181195E-02  0.0000000000000E+00  0.7073887712303E-03
 0.1249260556862E-02 -0.6496931656735E-02  0.0000000000000E+00  0.4786397169585E-03
 0.1325289452501E-02 -0.6515165430866E-02  0.0000000000000E+00  0.2685405395515E-03
 0.1379439012207E-02 -0.6524649183001E-02  0.0000000000000E+00  0.7933512917298E-04
 0.1417007853615E-02 -0.6529525822949E-02  0.0000000000000E+00 -0.9067158092198E-04
 0.1441993244985E-02 -0.6532535357906E-02  0.0000000000000E+00 -0.2450185179694E-03
 0.1457284250868E-02 -0.6535370483045E-02  0.0000000000000E+00 -0.3878698006109E-03
 0.1464923488056E-02 -0.6539002714348E-02  0.0000000000000E+00 -0.5233950104162E-03
 0.1466335313803E-02 -0.6543921641571E-02  0.0000000000000E+00 -0.6554855304087E-03
 0.1462496586976E-02 -0.6550289563485E-02  0.0000000000000E+00 -0.7876361740841E-03
 0.1454054236250E-02 -0.6558028707679E-02  0.0000000000000E+00 -0.9228950684798E-03
 0.1441401161201E-02 -0.6566857767771E-02  0.0000000000000E+00 -0.1063827323066E-02
 0.1424724046692E-02 -0.6576290874999E-02  0.0000000000000E+00 -0.1212454087546E-02
 0.1404037133537E-02 -0.6585611573962E-02  0.0000000000000E+00 -0.1370150460599E-02
 0.1379221876286E-02 -0.6593835958523E-02  0.0000000000000E+00 -0.1537479178288E-02
 0.1350096180025E-02 -0.6599683669153E-02  0.0000000000000E+00 -0.1713958185952E-02
 0.1316533056846E-02 -0.6601576844100E-02  0.0000000000000E+00 -0.1897804370783E-02
 0.1278631796733E-02 -0.6597673053346E-02  0.0000000000000E+00 -0.2085705796561E-02
 0.1236920860596E-02 -0.6585937272112E-02  0.0000000000000E+00 -0.2272686543680E-02
 0.1192581715265E-02 -0.6564327008722E-02  0.0000000000000E+00 -0.2452077799069E-02
 0.1147560214114E-02 -0.6530905628808E-02  0.0000000000000E+00 -0.2615536551911E-02
 0.1104528899134E-02 -0.6483710373662E-02  0.0000000000000E+00 -0.2752904792703E-02
 0.1066908902315E-02 -0.6420594200168E-02  0.0000000000000E+00 -0.2851758440240E-02
 0.1039129866044E-02 -0.6339230058833E-02  0.0000000000000E+00 -0.2896681728483E-02
 0.1027258978289E-02 -0.6237403140785E-02  0.0000000000000E+00 -0.2868410049070E-02
 0.1040124238712E-02 -0.6113707093898E-02  0.0000000000000E+00 -0.2743036936491E-02
 0.1091110465187E-02 -0.5968819892537E-02  0.0000000000000E+00 -0.2491595978882E-02
 0.1200884776615E-02 -0.5807656576107E-02  0.0000000000000E+00 -0.2080736231138E-02
 0.1401305460570E-02 -0.5642574490794E-02  0.0000000000000E+00 -0.1475925428430E-02
 0.1740231697213E-02 -0.5497807588869E-02  0.0000000000000E+00 -0.6504325495732E-03
 0.2284566260745E-02 -0.5413990828318E-02  0.0000000000000E+00  0.3940799402026E-03
 0.3114980435426E-02 -0.5447278052951E-02  0.0000000000000E+00  0.1592285239299E-02
 0.4302637469121E-02 -0.5654069634146E-02  0.0000000000000E+00  0.2774449170410E-02
 0.5861987026323E-02 -0.6055368297971E-02  0.0000000000000E+00  0.3651679190541E-02
 0.7695202120243E-02 -0.6592419293768E-02  0.0000000000000E+00  0.3876834648192E-02
 0.9578489210342E-02 -0.7114813864923E-02  0.0000000000000E+00  0.3201657887325E-02
 0.1284407295121E-03 -0.5954332212096E-02  0.0000000000000E+00  0.1637200618780E-02
 0.3891478740485E-03 -0.6108555178282E-02  0.0000000000000E+00  0.1582090247226E-02
 0.6430698874851E-03 -0.6248453616040E-02  0.0000000000000E+00  0.1436922008689E-02
 0.8663518776385E-03 -0.6359476646366E-02  0.0000000000000E+00  0.1221844961475E-02
 0.1046763210848E-02 -0.6436917452186E-02  0.0000000000000E+00  0.9717577752558E-03
 0.1183944838689E-02 -0.6484883592772E-02  0.0000000000000E+00  0.7179329179842E-03
 0.1284255697572E-02 -0.6511439135860E-02  0.0000000000000E+00  0.4797258700903E-03
 0.1355867616223E-02 -0.6524611305804E-02  0.0000000000000E+00  0.2652123464497E-03
 0.1406119387179E-02 -0.6530630756159E-02  0.0000000000000E+00  0.7511816720383E-04
 0.1440696937025E-02 -0.6533725933752E-02  0.0000000000000E+00 -0.9357569999936E-04
 0.1463705557093E-02 -0.6536534651701E-02  0.0000000000000E+00 -0.2453568910607E-03
 0.1478012129776E-02 -0.6540597425589E-02  0.0000000000000E+00 -0.3850063480984E-03
 0.1485587896644E-02 -0.6546746966795E-02  0.0000000000000E+00 -0.5170758858420E-03
 0.1487774646848E-02 -0.6555370450525E-02  0.0000000000000E+00 -0.6456927524506E-03
 0.1485470457609E-02 -0.6566568565913E-02  0.0000000000000E+00 -0.7745079740296E-03
 0.1479250458957E-02 -0.6580239271120E-02  0.0000000000000E+00 -0.9066948291615E-03
 0.1469439423463E-02 -0.6596107309426E-02  0.0000000000000E+00 -0.1044948886827E-02
 0.1456151553568E-02 -0.6613713236333E-02  0.0000000000000E+00 -0.1191455429261E-02
 0.1439312186117E-02 -0.6632374250206E-02  0.0000000000000E+00 -0.1347808219030E-02
 0.1418682211361E-02 -0.6651130014196E-02  0.0000000000000E+00 -0.1514853349158E-02
 0.1393912732463E-02 -0.6668693837345E-02  0.0000000000000E+00 -0.1692450976656E-02
 0.1364657064986E-02 -0.6683435067157E-02  0.0000000000000E+00 -0.1879197193713E-02
 0.1330748682414E-02 -0.6693403732021E-02  0.0000000000000E+00 -0.2072172437970E-02
 0.1292420554888E-02 -0.6696402795285E-02  0.0000000000000E+00 -0.2266802382881E-02
 0.1250541568509E-02 -0.6690179420984E-02  0.0000000000000E+00 -0.2456845604700E-02
 0.1206712240176E-02 -0.6672528575800E-02  0.0000000000000E+00 -0.2634453584386E-02
 0.1163173796350E-02 -0.6641116101917E-02  0.0000000000000E+00 -0.2790071792942E-02
 0.1122759938447E-02 -0.6593251564075E-02  0.0000000000000E+00 -0.2911967083054E-02
 0.1089091558825E-02 -0.6525812661659E-02  0.0000000000000E+00 -0.2985399329739E-02
 0.1067153513660E-02 -0.6435446321310E-02  0.0000000000000E+00 -0.2991575569866E-02
 0.1064380840248E-02 -0.6319153270989E-02  0.0000000000000E+00 -0.2906538322621E-02
 0.1092462936473E-02 -0.6175439517573E-02  0.0000000000000E+00 -0.2700177915847E-02
 0.1170244877104E-02 -0.6006413828076E-02  0.0000000000000E+00 -0.2335895988960E-02
 0.1328271949259E-02 -0.5821217137287E-02  0.0000000000000E+00 -0.1772211351398E-02
 0.1615247717901E-02 -0.5641482756725E-02  0.0000000000000E+00 -0.9699092531979E-03
 0.2104258016023E-02 -0.5508422652307E-02  0.0000000000000E+00  0.8746960775508E-04
 0.2891468455628E-02 -0.5485774776857E-02  0.0000000000000E+00  0.1352469702440E-02
 0.4073801359456E-02 -0.5646610621875E-02  0.0000000000000E+00  0.2656912574004E-02
 0.5692694435322E-02 -0.6031959949665E-02  0.0000000000000E+00  0.3675245204439E-02
 0.7656329552712E-02 -0.6589691873871E-02  0.0000000000000E+00  0.3981648659094E-02
 0.9704313830623E-02 -0.7145803555098E-02  0.0000000000000E+00  0.3251900972198E-02
 0.1357477502999E-03 -0.5977364283781E-02  0.0000000000000E+00  0.1732891236282E-02
 0.4117970096126E-03 -0.6139105903117E-02  0.0000000000000E+00  0.1670382280417E-02
 0.6792081717543E-03 -0.6283185767366E-02  0.0000000000000E+00  0.1505196322689E-02
 0.9097442651009E-03 -0.6392890092552E-02  0.0000000000000E+00  0.1264619932042E-02
 0.1090898045250E-02 -0.6464551685492E-02  0.0000000000000E+00  0.9918602903903E-03
 0.1224587517658E-02 -0.6504876353643E-02  0.0000000000000E+00  0.7224323704685E-03
 0.1319702481957E-02 -0.6524170637502E-02  0.0000000000000E+00  0.4758692760760E-03
 0.1386117686076E-02 -0.6531667299386E-02  0.0000000000000E+00  0.2585170624313E-03
 0.1432010879362E-02 -0.6533969561911E-02  0.0000000000000E+00  0.6914723036042E-04
 0.1463358467752E-02 -0.6535247421423E-02  0.0000000000000E+00 -0.9676452359970E-04
 0.1484288716962E-02 -0.6537932108605E-02  0.0000000000000E+00 -0.2446907373156E-03
 0.1497587646363E-02 -0.6543347956772E-02  0.0000000000000E+00 -0.3800033401404E-03
 0.1505119368139E-02 -0.6552154080960E-02  0.0000000000000E+00 -0.5075909932213E-03
 0.1508123847705E-02 -0.6564619552399E-02  0.0000000000000E+00 -0.6317696008248E-03
 0.1507412551388E-02 -0.6580780230871E-02  0.0000000000000E+00 -0.7563036031665E-03
 0.1503489230801E-02 -0.6600515408408E-02  0.0000000000000E+00 -0.8844547912479E-03
 0.1496617498278E-02 -0.6623568767067E-02  0.0000000000000E+00 -0.1019019440542E-02
 0.1486851667839E-02 -0.6649527178749E-02  0.0000000000000E+00 -0.1162325683416E-02
 0.1474045359559E-02 -0.6677768394991E-02  0.0000000000000E+00 -0.1316176362376E-02
 0.1457858540206E-02 -0.6707388653607E-02  0.0000000000000E+00 -0.1481707317560E-02
 0.1437794092799E-02 -0.6737131430956E-02  0.0000000000000E+00 -0.1659145781145E-02
 0.1413300009735E-02 -0.6765349833218E-02  0.0000000000000E+00 -0.1847507353615E-02
 0.1383954819020E-02 -0.6790021535143E-02  0.0000000000000E+00 -0.2044312591444E-02
 0.1349709361351E-02 -0.6808823985913E-02  0.0000000000000E+00 -0.2245438902369E-02
 0.1311142560261E-02 -0.6819336398409E-02  0.0000000000000E+00 -0.2445129905996E-02
 0.1269542342022E-02 -0.6819136617736E-02  0.0000000000000E+00 -0.2636113006265E-02
 0.1226754431377E-02 -0.6805579109350E-02  0.0000000000000E+00 -0.2809562845077E-02
 0.1185052859077E-02 -0.6775496498014E-02  0.0000000000000E+00 -0.2954623465759E-02
 0.1147257855747E-02 -0.6725040767896E-02  0.0000000000000E+00 -0.3057495404755E-02
 0.1117244119355E-02 -0.6649784409567E-02  0.0000000000000E+00 -0.3100234029510E-02
 0.1100954741144E-02 -0.6545165782580E-02  0.0000000000000E+00 -0.3059372765719E-02
 0.1108135226119E-02 -0.6407444849379E-02  0.0000000000000E+00 -0.2904420020970E-02
 0.1155264854643E-02 -0.6235595466097E-02  0.0000000000000E+00 -0.2596480646143E-02
 0.1270535218677E-02 -0.6034705371901E-02  0.0000000000000E+00 -0.2087940050220E-02
 0.1501867506404E-02 -0.5822200001084E-02  0.0000000000000E+00 -0.1326787702067E-02
 0.1926848823406E-02 -0.5637661367390E-02  0.0000000000000E+00 -0.2751434685389E-03
 0.2657259501808E-02 -0.5550977011173E-02  0.0000000000000E+00  0.1045266738716E-02
 0.3820647595875E-02 -0.5653914183817E-02  0.0000000000000E+00  0.2477887582171E-02
 0.5495734404743E-02 -0.6014352322129E-02  0.0000000000000E+00  0.3662871479840E-02
 0.7605087120306E-02 -0.6593233976589E-02  0.0000000000000E+00  0.4078468037197E-02
 0.9845457478466E-02 -0.7189090682523E-02  0.0000000000000E+00  0.3293450705797E-02
 0.1442050252624E-03 -0.6004505046306E-02  0.0000000000000E+00  0.1833494878824E-02
 0.4379226892816E-03 -0.6174577412087E-02  0.0000000000000E+00  0.1761624103957E-02
 0.7202353794735E-03 -0.6322483935256E-02  0.0000000000000E+00  0.1571898996404E-02
 0.9576489812968E-03 -0.6429142750946E-02  0.0000000000000E+00  0.1301651032471E-02
 0.1138030142003E-02 -0.6492796723493E-02  0.0000000000000E+00  0.1004379491759E-02
 0.1266567025633E-02 -0.6523628299883E-02  0.0000000000000E+00  0.7197536905423E-03
 0.1355220899846E-02 -0.6534508535704E-02  0.0000000000000E+00  0.4664563208687E-03
 0.1415654318655E-02 -0.6535781476094E-02  0.0000000000000E+00  0.2482172115903E-03
 0.1456770446377E-02 -0.6534206635820E-02  0.0000000000000E+00  0.6140426834261E-04
 0.1484699558942E-02 -0.6533713817010E-02  0.0000000000000E+00 -0.1001482216027E-03
 0.1503491724455E-02 -0.6536411841220E-02  0.0000000000000E+00 -0.2428888679281E-03
 0.1515788999723E-02 -0.6543344322426E-02  0.0000000000000E+00 -0.3727237623883E-03
 0.1523312685747E-02 -0.6554964696493E-02  0.0000000000000E+00 -0.4948138842850E-03
 0.1527183067860E-02 -0.6571411271724E-02  0.0000000000000E+00 -0.6136049169421E-03
 0.1528118710891E-02 -0.6592654295937E-02  0.0000000000000E+00 -0.7329243306002E-03
 0.1526553774424E-02 -0.6618561733416E-02  0.0000000000000E+00 -0.8560799703908E-03
 0.1522698994556E-02 -0.6648910395877E-02  0.0000000000000E+00 -0.9859334700118E-03
 0.1516563059478E-02 -0.6683354778929E-02  0.0000000000000E+00 -0.1124928278387E-02
 0.1507947606510E-02 -0.6721362383804E-02  0.0000000000000E+00 -0.1275059851714E-02
 0.1496435016258E-02 -0.6762122894744E-02  0.0000000000000E+00 -0.1437753920754E-02
 0.1481402821992E-02 -0.6804451852804E-02  0.0000000000000E+00 -0.1613626078550E-02
 0.1462111530820E-02 -0.6846728459771E-02  0.0000000000000E+00 -0.1802151593974E-02
 0.1437897318640E-02 -0.6886897996838E-02  0.0000000000000E+00 -0.2001339705242E-02
 0.1408443490103E-02 -0.6922552546802E-02  0.0000000000000E+00 -0.2207567369491E-02
 0.1374065025736E-02 -0.6951149545488E-02  0.0000000000000E+00 -0.2415614025097E-02
 0.1335777133904E-02 -0.6970106381892E-02  0.0000000000000E+00 -0.2618855050129E-02
 0.1295076549692E-02 -0.6976534627570E-02  0.0000000000000E+00 -0.2809309871816E-02
 0.1253719898607E-02 -0.6966870434054E-02  0.0000000000000E+00 -0.2977174846505E-02
 0.1213756006426E-02 -0.6936633938759E-02  0.0000000000000E+00 -0.3109844386899E-02
 0.1177955437944E-02 -0.6880429554989E-02  0.0000000000000E+00 -0.3190593259133E-02
 0.1150724417552E-02 -0.6792235698396E-02  0.0000000000000E+00 -0.3197010922282E-02
 0.1139692616695E-02 -0.6666104371414E-02  0.0000000000000E+00 -0.3099091247315E-02
 0.1158506106010E-02 -0.6497693925629E-02  0.0000000000000E+00 -0.2856886556104E-02
 0.1231945094188E-02 -0.6287320900621E-02  0.0000000000000E+00 -0.2418095489853E-02
 0.1405188912863E-02 -0.6046473988098E-02  0.0000000000000E+00 -0.1718608012077E-02
 0.1757719485679E-02 -0.5810177548378E-02  0.0000000000000E+00 -0.6966551900918E-03
 0.2415705400589E-02 -0.5651626349500E-02  0.0000000000000E+00  0.6605950001275E-03
 0.3541842240218E-02 -0.5682259837559E-02  0.0000000000000E+00  0.2222637267929E-02
 0.5265315225938E-02 -0.6004996253603E-02  0.0000000000000E+00  0.3602979727275E-02
 0.7536794934066E-02 -0.6603980347413E-02  0.0000000000000E+00  0.4164406187281E-02
 0.1000458440688E-01 -0.7247158579279E-02  0.0000000000000E+00  0.3325293700818E-02
 0.1541337723709E-03 -0.6036823649859E-02  0.0000000000000E+00  0.1939635664564E-02
 0.4684046726102E-03 -0.6216135189113E-02  0.0000000000000E+00  0.1855650151706E-02
 0.7671159201694E-03 -0.6367126326319E-02  0.0000000000000E+00  0.1635492579099E-02
 0.1010556531504E-02 -0.6468292183856E-02  0.0000000000000E+00  0.1330719074848E-02
 0.1188091586735E-02 -0.6521128763277E-02  0.0000000000000E+00  0.1007392333778E-02
 0.1309490271731E-02 -0.6540381618268E-02  0.0000000000000E+00  0.7086986584447E-03
 0.1390330400822E-02 -0.6541717275114E-02  0.0000000000000E+00  0.4509376978638E-03
 0.1444033872670E-02 -0.6536340982583E-02  0.0000000000000E+00  0.2341735470161E-03
 0.1480026942636E-02 -0.6530858091769E-02  0.0000000000000E+00  0.5195889611874E-04
 0.1504416862473E-02 -0.6528743122460E-02  0.0000000000000E+00 -0.1035722041347E-03
 0.1521062388391E-02 -0.6531661854145E-02  0.0000000000000E+00 -0.2397781546830E-03
 0.1532397534579E-02 -0.6540316558789E-02  0.0000000000000E+00 -0.3630081589278E-03
 0.1539967278454E-02 -0.6554928129879E-02  0.0000000000000E+00 -0.4786117512591E-03
 0.1544756910276E-02 -0.6575495779801E-02  0.0000000000000E+00 -0.5910946588742E-03
 0.1547387868319E-02 -0.6601926355071E-02  0.0000000000000E+00 -0.7042903352786E-03
 0.1548227995097E-02 -0.6634085646606E-02  0.0000000000000E+00 -0.8215051428395E-03
 0.1547444593751E-02 -0.6671798822553E-02  0.0000000000000E+00 -0.9456255058367E-03
 0.1545016343076E-02 -0.6714810213178E-02  0.0000000000000E+00 -0.1079176168774E-02
 0.1540714935809E-02 -0.6762708024381E-02  0.0000000000000E+00 -0.1224320752084E-02
 0.1534072362974E-02 -0.6814815968266E-02  0.0000000000000E+00 -0.1382766941514E-02
 0.1524368681767E-02 -0.6870069536016E-02  0.0000000000000E+00 -0.1555534770473E-02
 0.1510699037577E-02 -0.6926923300242E-02  0.0000000000000E+00 -0.1742599029286E-02
 0.1492171694583E-02 -0.6983335783061E-02  0.0000000000000E+00 -0.1942508379167E-02
 0.1468217501849E-02 -0.7036857457847E-02  0.0000000000000E+00 -0.2152186133849E-02
 0.1438915953420E-02 -0.7084872869704E-02  0.0000000000000E+00 -0.2366991443418E-02
 0.1405055757722E-02 -0.7124699068017E-02  0.0000000000000E+00 -0.2581008915932E-02
 0.1367841003303E-02 -0.7153279056843E-02  0.0000000000000E+00 -0.2787205032630E-02
 0.1328566558459E-02 -0.7166744121461E-02  0.0000000000000E+00 -0.2976985790510E-02
 0.1288559426402E-02 -0.7160098261428E-02  0.0000000000000E+00 -0.3139168546276E-02
 0.1249527120575E-02 -0.7127125822184E-02  0.0000000000000E+00 -0.3258591221494E-02
 0.1214355929632E-02 -0.7060524068590E-02  0.0000000000000E+00 -0.3314451474428E-02
 0.1188488523206E-02 -0.6952306986335E-02  0.0000000000000E+00 -0.3278148821743E-02
 0.1182405501331E-02 -0.6794841323214E-02  0.0000000000000E+00 -0.3110165076647E-02
 0.1216513446635E-02 -0.6583201200023E-02  0.0000000000000E+00 -0.2755611011770E-02
 0.1331083804251E-02 -0.6321286306382E-02  0.0000000000000E+00 -0.2140296710225E-02
 0.1603879554704E-02 -0.6035995251304E-02  0.0000000000000E+00 -0.1177758077172E-02
 0.2172238380681E-02 -0.5799119420173E-02  0.0000000000000E+00  0.1882898160297E-03
 0.3237165401074E-02 -0.5740639388616E-02  0.0000000000000E+00  0.1872877327333E-02
 0.4994592927893E-02 -0.6007707025395E-02  0.0000000000000E+00  0.3479155289860E-02
 0.7445052839746E-02 -0.6623174636136E-02  0.0000000000000E+00  0.4234712395935E-02
 0.1018490881085E-01 -0.7323152688076E-02  0.0000000000000E+00  0.3346473401128E-02
 0.1659846745381E-03 -0.6075756404655E-02  0.0000000000000E+00  0.2052069330800E-02
 0.5044238910004E-03 -0.6265291126275E-02  0.0000000000000E+00  0.1952033022717E-02
 0.8210277233790E-03 -0.6417990311417E-02  0.0000000000000E+00  0.1693716958868E-02
 0.1068922457963E-02 -0.6510211412101E-02  0.0000000000000E+00  0.1348925000811E-02
 0.1240835038371E-02 -0.6548740553416E-02  0.0000000000000E+00  0.9986671652765E-03
 0.1352788691463E-02 -0.6554155702944E-02  0.0000000000000E+00  0.6880710536995E-03
 0.1424438025221E-02 -0.6544936484489E-02  0.0000000000000E+00  0.4288929374755E-03
 0.1470756408591E-02 -0.6532678668355E-02  0.0000000000000E+00  0.2163853441324E-03
 0.1501386858142E-02 -0.6523424012689E-02  0.0000000000000E+00  0.4098951606733E-04
 0.1522202257251E-02 -0.6519955590185E-02  0.0000000000000E+00 -0.1068069570046E-03
 0.1536752080458E-02 -0.6523380227919E-02  0.0000000000000E+00 -0.2351391691374E-03
 0.1547201562485E-02 -0.6534007342398E-02  0.0000000000000E+00 -0.3506732972600E-03
 0.1554890341105E-02 -0.6551806296298E-02  0.0000000000000E+00 -0.4588456904172E-03
 0.1560657105940E-02 -0.6576634462555E-02  0.0000000000000E+00 -0.5641431119828E-03
 0.1565024498142E-02 -0.6608340975571E-02  0.0000000000000E+00 -0.6703426733869E-03
 0.1568298869843E-02 -0.6646800430098E-02  0.0000000000000E+00 -0.7806977027496E-03
 0.1570614442069E-02 -0.6691902246815E-02  0.0000000000000E+00 -0.8980742877589E-03
 0.1571936372797E-02 -0.6743503007426E-02  0.0000000000000E+00 -0.1025037950172E-02
 0.1572030269604E-02 -0.6801343487927E-02  0.0000000000000E+00 -0.1163886917428E-02
 0.1570408774085E-02 -0.6864925243866E-02  0.0000000000000E+00 -0.1316592453480E-02
 0.1566288176710E-02 -0.6933358152772E-02  0.0000000000000E+00 -0.1484587361453E-02
 0.1558625926644E-02 -0.7005229982989E-02  0.0000000000000E+00 -0.1668384787883E-02
 0.1546319165333E-02 -0.7078565397942E-02  0.0000000000000E+00 -0.1867127570346E-02
 0.1528561111905E-02 -0.7150921011544E-02  0.0000000000000E+00 -0.2078333666716E-02
 0.1505225436731E-02 -0.7219658887242E-02  0.0000000000000E+00 -0.2297980174997E-02
 0.1476925698902E-02 -0.7282056646160E-02  0.0000000000000E+00 -0.2520911051598E-02
 0.1444637944811E-02 -0.7334965090580E-02  0.0000000000000E+00 -0.2741126131835E-02
 0.1409262164097E-02 -0.7374309127427E-02  0.0000000000000E+00 -0.2951373961378E-02
 0.1371471049688E-02 -0.7394709982343E-02  0.0000000000000E+00 -0.3142087149071E-02
 0.1331983645612E-02 -0.7389317707280E-02  0.0000000000000E+00 -0.3299960460685E-02
 0.1292248231365E-02 -0.7349802349130E-02  0.0000000000000E+00 -0.3406297534965E-02
 0.1255568128915E-02 -0.7266452167369E-02  0.0000000000000E+00 -0.3434805989541E-02
 0.1229117334006E-02 -0.7128616748792E-02  0.0000000000000E+00 -0.3348013716165E-02
 0.1228200189432E-02 -0.6926041884566E-02  0.0000000000000E+00 -0.3091111623164E-02
 0.1286042570623E-02 -0.6653761008776E-02  0.0000000000000E+00 -0.2583379938202E-02
 0.1474162467523E-02 -0.6326649099656E-02  0.0000000000000E+00 -0.1715540206328E-02
 0.1935167358436E-02 -0.6008169171805E-02  0.0000000000000E+00 -0.3806248456620E-03
 0.2908502483901E-02 -0.5842040884217E-02  0.0000000000000E+00  0.1406449495035E-02
 0.4675761490191E-02 -0.6028652604273E-02  0.0000000000000E+00  0.3268110718837E-02
 0.7320947183684E-02 -0.6652590789052E-02  0.0000000000000E+00  0.4281499500957E-02
 0.1039040151989E-01 -0.7421145339389E-02  0.0000000000000E+00  0.3356034431038E-02
 0.1804053058411E-03 -0.6123271812504E-02  0.0000000000000E+00  0.2171716712746E-02
 0.5475854732262E-03 -0.6324021725028E-02  0.0000000000000E+00  0.2049880818645E-02
 0.8833882889605E-03 -0.6476010070339E-02  0.0000000000000E+00  0.1743241294251E-02
 0.1133079279381E-02 -0.6554444259565E-02  0.0000000000000E+00  0.1352517595102E-02
 0.1295740401101E-02 -0.6574429557926E-02  0.0000000000000E+00  0.9757075809965E-03
 0.1395675561101E-02 -0.6563708903665E-02  0.0000000000000E+00  0.6567881315573E-03
 0.1456833203061E-02 -0.6543184231295E-02  0.0000000000000E+00  0.4001129759202E-03
 0.1495273325242E-02 -0.6524086569727E-02  0.0000000000000E+00  0.1950335353728E-03
 0.1520443149797E-02 -0.6511400817861E-02  0.0000000000000E+00  0.2880317554048E-04
 0.1537750110949E-02 -0.6506983221988E-02  0.0000000000000E+00 -0.1095395763695E-03
 0.1550321289342E-02 -0.6511282147525E-02  0.0000000000000E+00 -0.2287032229916E-03
 0.1560000588230E-02 -0.6524177249726E-02  0.0000000000000E+00 -0.3355118068095E-03
 0.1567900173911E-02 -0.6545377844614E-02  0.0000000000000E+00 -0.4353715555505E-03
 0.1574705339918E-02 -0.6574603431147E-02  0.0000000000000E+00 -0.5326643846033E-03
 0.1580841221756E-02 -0.6611654966044E-02  0.0000000000000E+00 -0.6310452876704E-03
 0.1586559053165E-02 -0.6656428571239E-02  0.0000000000000E+00 -0.7336603713650E-03
 0.1591970891424E-02 -0.6708894031602E-02  0.0000000000000E+00 -0.8433066793758E-03
 0.1597045074802E-02 -0.6769041923490E-02  0.0000000000000E+00 -0.9625438307478E-03
 0.1601566001791E-02 -0.6836797135701E-02  0.0000000000000E+00 -0.1093761008994E-02
 0.1605061499720E-02 -0.6911885124351E-02  0.0000000000000E+00 -0.1239161324859E-02
 0.1606724503801E-02 -0.6993651492885E-02  0.0000000000000E+00 -0.1400587040454E-02
 0.1605409816814E-02 -0.7080885742371E-02  0.0000000000000E+00 -0.1579125627076E-02
 0.1599823759363E-02 -0.7171741518519E-02  0.0000000000000E+00 -0.1774575027213E-02
 0.1588935937684E-02 -0.7263834542085E-02  0.0000000000000E+00 -0.1985101704230E-02
 0.1572443604911E-02 -0.7354555169363E-02  0.0000000000000E+00 -0.2207336438039E-02
 0.1550839910626E-02 -0.7441199717971E-02  0.0000000000000E+00 -0.2436922929588E-02
 0.1524943241281E-02 -0.7520599801336E-02  0.0000000000000E+00 -0.2668963043261E-02
 0.1495333511282E-02 -0.7588573466305E-02  0.0000000000000E+00 -0.2897649680548E-02
 0.1462110694803E-02 -0.7639504528249E-02  0.0000000000000E+00 -0.3115173693989E-02
 0.1425109010510E-02 -0.7666125617343E-02  0.0000000000000E+00 -0.3310308477682E-02
 0.1384482880242E-02 -0.7659400723822E-02  0.0000000000000E+00 -0.3466864151304E-02
 0.1341570982222E-02 -0.7608344822608E-02  0.0000000000000E+00 -0.3561658519258E-02
 0.1300332954333E-02 -0.7499840176345E-02  0.0000000000000E+00 -0.3560871423649E-02
 0.1270616757201E-02 -0.7318723077090E-02  0.0000000000000E+00 -0.3412796323412E-02
 0.1276840208077E-02 -0.7050633736554E-02  0.0000000000000E+00 -0.3035217875879E-02
 0.1379243977669E-02 -0.6694848916686E-02  0.0000000000000E+00 -0.2301634411073E-02
 0.1716614401747E-02 -0.6297424370927E-02  0.0000000000000E+00 -0.1051657340658E-02
 0.2561423150907E-02 -0.6005275806552E-02  0.0000000000000E+00  0.7976376652772E-03
 0.4300509800345E-02 -0.6078060677165E-02  0.0000000000000E+00  0.2936847845299E-02
 0.7151905722616E-02 -0.6695002677658E-02  0.0000000000000E+00  0.4291394691021E-02
 0.1062607313605E-01 -0.7546576949366E-02  0.0000000000000E+00  0.3352941301472E-02
 0.1983515597809E-03 -0.6182132862524E-02  0.0000000000000E+00  0.2299700802442E-02
 0.6000983925506E-03 -0.6394927176643E-02  0.0000000000000E+00  0.2147471087098E-02
 0.9558547069623E-03 -0.6542064196572E-02  0.0000000000000E+00  0.1779141835126E-02
 0.1203081385692E-02 -0.6599973349996E-02  0.0000000000000E+00  0.1336724223234E-02
 0.1351891245057E-02 -0.6596460961652E-02  0.0000000000000E+00  0.9358871745459E-03
 0.1437108816861E-02 -0.6567515045012E-02  0.0000000000000E+00  0.6140504746552E-03
 0.1486694608306E-02 -0.6535376271907E-02  0.0000000000000E+00  0.3646967590403E-03
 0.1517002022360E-02 -0.6509837279465E-02  0.0000000000000E+00  0.1705221667206E-03
 0.1536787260787E-02 -0.6494297067922E-02  0.0000000000000E+00  0.1585214309341E-04
 0.1550766036377E-02 -0.6489480854259E-02  0.0000000000000E+00 -0.1113679482909E-03
 0.1561545866028E-02 -0.6495107624837E-02  0.0000000000000E+00 -0.2201512901450E-03
 0.1570609842488E-02 -0.6510610305961E-02  0.0000000000000E+00 -0.3172930088517E-03
 0.1578829665025E-02 -0.6535442416663E-02  0.0000000000000E+00 -0.4080414930245E-03
 0.1586736165839E-02 -0.6569197105286E-02  0.0000000000000E+00 -0.4965842119586E-03
 0.1594661511732E-02 -0.6611640734799E-02  0.0000000000000E+00 -0.5863870306413E-03
 0.1602809653943E-02 -0.6662705258723E-02  0.0000000000000E+00 -0.6804336704948E-03
 0.1611281564055E-02 -0.6722456641490E-02  0.0000000000000E+00 -0.7814011553916E-03
 0.1620064854027E-02 -0.6791039504439E-02  0.0000000000000E+00 -0.8917911801654E-03
 0.1628987405338E-02 -0.6868592402567E-02  0.0000000000000E+00 -0.1014029578689E-02
 0.1637629350299E-02 -0.6955111211573E-02  0.0000000000000E+00 -0.1150502894442E-02
 0.1645208075184E-02 -0.7050245283027E-02  0.0000000000000E+00 -0.1303442147054E-02
 0.1650520741569E-02 -0.7153067818590E-02  0.0000000000000E+00 -0.1474538250241E-02
 0.1652108930539E-02 -0.7261938557136E-02  0.0000000000000E+00 -0.1664313390431E-02
 0.1648731828568E-02 -0.7374593288174E-02  0.0000000000000E+00 -0.1871648215614E-02
 0.1639937830645E-02 -0.7488500978958E-02  0.0000000000000E+00 -0.2093866609611E-02
 0.1626155365086E-02 -0.7601027136956E-02  0.0000000000000E+00 -0.2327446966654E-02
 0.1608117540502E-02 -0.7709046184993E-02  0.0000000000000E+00 -0.2568643911112E-02
 0.1586162258103E-02 -0.7808362073651E-02  0.0000000000000E+00 -0.2813158134846E-02
 0.1559907477268E-02 -0.7893271918301E-02  0.0000000000000E+00 -0.3055019642549E-02
 0.1528428458580E-02 -0.7956330424953E-02  0.0000000000000E+00 -0.3285211552399E-02
 0.1490782633921E-02 -0.7988169159146E-02  0.0000000000000E+00 -0.3490314863392E-02
 0.1446641240239E-02 -0.7977104626237E-02  0.0000000000000E+00 -0.3650871929795E-02
 0.1397094221752E-02 -0.7908372594154E-02  0.0000000000000E+00 -0.3738137573398E-02
 0.1346659665972E-02 -0.7762886385579E-02  0.0000000000000E+00 -0.3706547692994E-02
 0.1309970756751E-02 -0.7517485185476E-02  0.0000000000000E+00 -0.3478453572372E-02
 0.1331302533399E-02 -0.7153652212790E-02  0.0000000000000E+00 -0.2920001974540E-02
 0.1533448260222E-02 -0.6689776290621E-02  0.0000000000000E+00 -0.1823074316784E-02
 0.2207610655740E-02 -0.6257465026014E-02  0.0000000000000E+00  0.1897214619329E-04
 0.3861287139654E-02 -0.6173208440373E-02  0.0000000000000E+00  0.2438940861120E-02
 0.6920065605758E-02 -0.6755224622298E-02  0.0000000000000E+00  0.4241230846027E-02
 0.1089836104235E-01 -0.7707042951356E-02  0.0000000000000E+00  0.3335834158707E-02
 0.2212777909264E-03 -0.6256330083485E-02  0.0000000000000E+00  0.2437376617850E-02
 0.6650377050442E-03 -0.6481436948476E-02  0.0000000000000E+00  0.2241574413408E-02
 0.1040254689858E-02 -0.6616717986639E-02  0.0000000000000E+00  0.1794126440918E-02
 0.1278442479015E-02 -0.6644857450084E-02  0.0000000000000E+00  0.1295654114334E-02
 0.1407824615010E-02 -0.6612420860758E-02  0.0000000000000E+00  0.8767423266652E-03
 0.1475774814809E-02 -0.6563775087099E-02  0.0000000000000E+00  0.5595768214798E-03
 0.1513115154312E-02 -0.6520366563010E-02  0.0000000000000E+00  0.3231499020672E-03
 0.1535347997973E-02 -0.6489212930674E-02  0.0000000000000E+00  0.1435123023411E-03
 0.1550024074808E-02 -0.6471652370505E-02  0.0000000000000E+00  0.2745275846344E-05
 0.1560976954723E-02 -0.6467138555905E-02  0.0000000000000E+00 -0.1117985629704E-03
 0.1570223778459E-02 -0.6474629675201E-02  0.0000000000000E+00 -0.2091152579699E-03
 0.1578864991883E-02 -0.6493119667365E-02  0.0000000000000E+00 -0.2957651112028E-03
 0.1587529828266E-02 -0.6521824923097E-02  0.0000000000000E+00 -0.3767062235884E-03
 0.1596599942252E-02 -0.6560231788011E-02  0.0000000000000E+00 -0.4558420710028E-03
 0.1606322439632E-02 -0.6608089669547E-02  0.0000000000000E+00 -0.5363836586215E-03
 0.1616863130124E-02 -0.6665381983010E-02  0.0000000000000E+00 -0.6210980588348E-03
 0.1628322697464E-02 -0.6732285863998E-02  0.0000000000000E+00 -0.7124906499102E-03
 0.1640722593897E-02 -0.6809117269121E-02  0.0000000000000E+00 -0.8129492677378E-03
 0.1653957065160E-02 -0.6896253914314E-02  0.0000000000000E+00 -0.9248717340820E-03
 0.1667696470587E-02 -0.6994006190128E-02  0.0000000000000E+00 -0.1050759645851E-02
 0.1681237937849E-02 -0.7102400448231E-02  0.0000000000000E+00 -0.1193186592026E-02
 0.1693379301253E-02 -0.7220892031128E-02  0.0000000000000E+00 -0.1354461438484E-02
 0.1702533292273E-02 -0.7348144938182E-02  0.0000000000000E+00 -0.1535908759484E-02
 0.1707262226893E-02 -0.7482089577540E-02  0.0000000000000E+00 -0.1737209910455E-02
 0.1706989881701E-02 -0.7620323494817E-02  0.0000000000000E+00 -0.1956436035847E-02
 0.1702133171090E-02 -0.7760317561063E-02  0.0000000000000E+00 -0.2190938705789E-02
 0.1693408538007E-02 -0.7899028884575E-02  0.0000000000000E+00 -0.2438159563492E-02
 0.1680986765944E-02 -0.8032323005804E-02  0.0000000000000E+00 -0.2695323042005E-02
 0.1664098101630E-02 -0.8154559449189E-02  0.0000000000000E+00 -0.2958302858020E-02
 0.1641199083625E-02 -0.8258368780435E-02  0.0000000000000E+00 -0.3220318084289E-02
 0.1610483636032E-02 -0.8334456101023E-02  0.0000000000000E+00 -0.3470821834475E-02
 0.1570355055179E-02 -0.8371100578572E-02  0.0000000000000E+00 -0.3694426003318E-02
 0.1519622422090E-02 -0.8352945515009E-02  0.0000000000000E+00 -0.3868518331146E-02
 0.1458114866725E-02 -0.8258516290889E-02  0.0000000000000E+00 -0.3956339152157E-02
 0.1390834425614E-02 -0.8057772331929E-02  0.0000000000000E+00 -0.3890969464050E-02
 0.1343066103203E-02 -0.7714911986563E-02  0.0000000000000E+00 -0.3544717330105E-02
 0.1407842975280E-02 -0.7211799446966E-02  0.0000000000000E+00 -0.2680140212297E-02
 0.1868403970577E-02 -0.6637120684467E-02  0.0000000000000E+00 -0.9538624086181E-03
 0.3354240032490E-02 -0.6343658903868E-02  0.0000000000000E+00  0.1710331685808E-02
 0.6600054605667E-02 -0.6842462939431E-02  0.0000000000000E+00  0.4090146149277E-02
 0.1121565499545E-01 -0.7913814944403E-02  0.0000000000000E+00  0.3302190736215E-02
 0.2514724986374E-03 -0.6351829254380E-02  0.0000000000000E+00  0.2586317559798E-02
 0.7467221864469E-03 -0.6588046819929E-02  0.0000000000000E+00  0.2326170231677E-02
 0.1138354456204E-02 -0.6699666573783E-02  0.0000000000000E+00  0.1777416019470E-02
 0.1357709300222E-02 -0.6685689006948E-02  0.0000000000000E+00  0.1222440984639E-02
 0.1461378449692E-02 -0.6619107934736E-02  0.0000000000000E+00  0.7965150329926E-03
 0.1510118492079E-02 -0.6550492647706E-02  0.0000000000000E+00  0.4938861912418E-03
 0.1535149120526E-02 -0.6497009625130E-02  0.0000000000000E+00  0.2764634138761E-03
 0.1549733071882E-02 -0.6461540022445E-02  0.0000000000000E+00  0.1149434186224E-03
 0.1559789361436E-02 -0.6443058958574E-02  0.0000000000000E+00 -0.9747528463236E-05
 0.1568142135177E-02 -0.6439694845256E-02  0.0000000000000E+00 -0.1102490209712E-03
 0.1576182101929E-02 -0.6449662633377E-02  0.0000000000000E+00 -0.1951818289529E-03
 0.1584626871408E-02 -0.6471553258659E-02  0.0000000000000E+00 -0.2706588931499E-03
 0.1593873290542E-02 -0.6504379712227E-02  0.0000000000000E+00 -0.3412181127908E-03
 0.1604165712771E-02 -0.6547549143264E-02  0.0000000000000E+00 -0.4103935992353E-03
 0.1615677399827E-02 -0.6600815460135E-02  0.0000000000000E+00 -0.4810797595590E-03
 0.1628546229196E-02 -0.6664230156405E-02  0.0000000000000E+00 -0.5557756480236E-03
 0.1642882687085E-02 -0.6738095208368E-02  0.0000000000000E+00 -0.6367645740993E-03
 0.1658754204309E-02 -0.6822911464810E-02  0.0000000000000E+00 -0.7262627436277E-03
 0.1676140489383E-02 -0.6919314954538E-02  0.0000000000000E+00 -0.8265666498038E-03
 0.1694837857509E-02 -0.7027967996033E-02  0.0000000000000E+00 -0.9402023893337E-03
 0.1714284639056E-02 -0.7149348633827E-02  0.0000000000000E+00 -0.1070003884143E-02
 0.1733354871100E-02 -0.7283411816749E-02  0.0000000000000E+00 -0.1218883771775E-02
 0.1750384881852E-02 -0.7429255321658E-02  0.0000000000000E+00 -0.1389053243107E-02
 0.1763757636009E-02 -0.7585102978899E-02  0.0000000000000E+00 -0.1581114110924E-02
 0.1772792404618E-02 -0.7748732724943E-02  0.0000000000000E+00 -0.1793972705160E-02
 0.1777940364376E-02 -0.7917733059264E-02  0.0000000000000E+00 -0.2025912657331E-02
 0.1779957110496E-02 -0.8089144957272E-02  0.0000000000000E+00 -0.2275584218742E-02
 0.1778909114448E-02 -0.8258940268257E-02  0.0000000000000E+00 -0.2541690685715E-02
 0.1773731510651E-02 -0.8421682120855E-02  0.0000000000000E+00 -0.2821859175255E-02
 0.1762410225173E-02 -0.8570339651858E-02  0.0000000000000E+00 -0.3111456546845E-02
 0.1742525503310E-02 -0.8696108419178E-02  0.0000000000000E+00 -0.3402739235952E-02
 0.1711675115583E-02 -0.8787922404112E-02  0.0000000000000E+00 -0.3684407238959E-02
 0.1667183549368E-02 -0.8831041210360E-02  0.0000000000000E+00 -0.3940489062325E-02
 0.1605301674052E-02 -0.8803594967116E-02  0.0000000000000E+00 -0.4144946376461E-02
 0.1522759287145E-02 -0.8671808080877E-02  0.0000000000000E+00 -0.4246679899790E-02
 0.1425970196292E-02 -0.8386853150004E-02  0.0000000000000E+00 -0.4138626117347E-02
 0.1366666985897E-02 -0.7891334504861E-02  0.0000000000000E+00 -0.3587272874213E-02
 0.1579482707375E-02 -0.7197165389182E-02  0.0000000000000E+00 -0.2131158947406E-02
 0.2785455674572E-02 -0.6640293141117E-02  0.0000000000000E+00  0.6664589946315E-03
 0.6156334305570E-02 -0.6975714160005E-02  0.0000000000000E+00  0.3765202719526E-02
 0.1158902434166E-01 -0.8185056440769E-02  0.0000000000000E+00  0.3245594023981E-02
 0.2926724361554E-03 -0.6477934101944E-02  0.0000000000000E+00  0.2748142631866E-02
 0.8512346224055E-03 -0.6720493672434E-02  0.0000000000000E+00  0.2389930323640E-02
 0.1251259296213E-02 -0.6788562789392E-02  0.0000000000000E+00  0.1713249179100E-02
 0.1437810641223E-02 -0.6716855032747E-02  0.0000000000000E+00  0.1109994755336E-02
 0.1509608280111E-02 -0.6612578591094E-02  0.0000000000000E+00  0.6950324129526E-03
 0.1538452709932E-02 -0.6525638479064E-02  0.0000000000000E+00  0.4185536522055E-03
 0.1551877383210E-02 -0.6464234791307E-02  0.0000000000000E+00  0.2261470604187E-03
 0.1559627122862E-02 -0.6426228611157E-02  0.0000000000000E+00  0.8604171121350E-04
 0.1565769409928E-02 -0.6408185325396E-02  0.0000000000000E+00 -0.2070024912404E-04
 0.1572064578586E-02 -0.6406949889096E-02  0.0000000000000E+00 -0.1060560680203E-03
 0.1579283921910E-02 -0.6420070304901E-02  0.0000000000000E+00 -0.1778991752474E-03
 0.1587786069248E-02 -0.6445799155841E-02  0.0000000000000E+00 -0.2416929849844E-03
 0.1597757606998E-02 -0.6482994503598E-02  0.0000000000000E+00 -0.3014350323648E-03
 0.1609323946921E-02 -0.6531019487397E-02  0.0000000000000E+00 -0.3602133109210E-03
 0.1622598733533E-02 -0.6589657282414E-02  0.0000000000000E+00 -0.4205505956847E-03
 0.1637702889130E-02 -0.6659044659297E-02  0.0000000000000E+00 -0.4846314533353E-03
 0.1654765706680E-02 -0.6739620345321E-02  0.0000000000000E+00 -0.5544698817369E-03
 0.1673909578045E-02 -0.6832079180329E-02  0.0000000000000E+00 -0.6320534435430E-03
 0.1695212959859E-02 -0.6937326240614E-02  0.0000000000000E+00 -0.7194989062510E-03
 0.1718627224679E-02 -0.7056400929898E-02  0.0000000000000E+00 -0.8192448704697E-03
 0.1743795476217E-02 -0.7190301340386E-02  0.0000000000000E+00 -0.9342553392986E-03
 0.1769764210732E-02 -0.7339618471479E-02  0.0000000000000E+00 -0.1067979770221E-02
 0.1794873099253E-02 -0.7504059673310E-02  0.0000000000000E+00 -0.1223594358401E-02
 0.1817355669985E-02 -0.7682285190040E-02  0.0000000000000E+00 -0.1402790109252E-02
 0.1836443707897E-02 -0.7872313638024E-02  0.0000000000000E+00 -0.1605462940855E-02
 0.1852653471408E-02 -0.8071824905007E-02  0.0000000000000E+00 -0.1830938216199E-02
 0.1866808223345E-02 -0.8277880833498E-02  0.0000000000000E+00 -0.2079090203832E-02
 0.1878908124135E-02 -0.8486554352799E-02  0.0000000000000E+00 -0.2349973717519E-02
 0.1887680022326E-02 -0.8692740825891E-02  0.0000000000000E+00 -0.2642756334794E-02
 0.1890793169878E-02 -0.8890021125833E-02  0.0000000000000E+00 -0.2954743667015E-02
 0.1885461527643E-02 -0.9070492833772E-02  0.0000000000000E+00 -0.3280774792357E-02
 0.1868944394524E-02 -0.9224400835224E-02  0.0000000000000E+00 -0.3613328206504E-02
 0.1838005072031E-02 -0.9338845761567E-02  0.0000000000000E+00 -0.3942863286602E-02
 0.1786823760784E-02 -0.9393875937075E-02  0.0000000000000E+00 -0.4254879387490E-02
 0.1706104987684E-02 -0.9355973380443E-02  0.0000000000000E+00 -0.4517295261551E-02
 0.1587342793175E-02 -0.9171022368035E-02  0.0000000000000E+00 -0.4654414097007E-02
 0.1438252985177E-02 -0.8751752343245E-02  0.0000000000000E+00 -0.4479480180106E-02
 0.1395811617411E-02 -0.8005629716427E-02  0.0000000000000E+00 -0.3487921727208E-02
 0.2183443999964E-02 -0.7150254068552E-02  0.0000000000000E+00 -0.7935803198238E-03
 0.5541173087397E-02 -0.7196327055980E-02  0.0000000000000E+00  0.3135876017432E-02
 0.1203334612979E-01 -0.8553288607197E-02  0.0000000000000E+00  0.3147237704095E-02
 0.3512270104088E-03 -0.6649943709513E-02  0.0000000000000E+00  0.2923808134851E-02
 0.9870486192748E-03 -0.6885493674061E-02  0.0000000000000E+00  0.2411104328357E-02
 0.1378006665951E-02 -0.6876586190620E-02  0.0000000000000E+00  0.1579302926459E-02
 0.1513178096395E-02 -0.6729764402319E-02  0.0000000000000E+00  0.9531203925440E-03
 0.1548938493324E-02 -0.6588563940134E-02  0.0000000000000E+00  0.5748681590779E-03
 0.1559164167201E-02 -0.6487380712212E-02  0.0000000000000E+00  0.3362774962037E-03
 0.1562471912742E-02 -0.6421113807133E-02  0.0000000000000E+00  0.1742183985273E-03
 0.1564583236295E-02 -0.6382818649820E-02  0.0000000000000E+00  0.5831655850512E-04
 0.1567722133633E-02 -0.6366799348581E-02  0.0000000000000E+00 -0.2904970414511E-04
 0.1572601672130E-02 -0.6368777943975E-02  0.0000000000000E+00 -0.9848853074820E-04
 0.1579434941221E-02 -0.6385773644486E-02  0.0000000000000E+00 -0.1567865446125E-03
 0.1588267140212E-02 -0.6415790440770E-02  0.0000000000000E+00 -0.2085807295780E-03
 0.1599108288998E-02 -0.6457593968518E-02  0.0000000000000E+00 -0.2572249408399E-03
 0.1611989063708E-02 -0.6510544793751E-02  0.0000000000000E+00 -0.3052975775119E-03
 0.1626980180261E-02 -0.6574482760055E-02  0.0000000000000E+00 -0.3549038128945E-03
 0.1644197018134E-02 -0.6649647212833E-02  0.0000000000000E+00 -0.4078741185581E-03
 0.1663795277572E-02 -0.6736623444250E-02  0.0000000000000E+00 -0.4659110827614E-03
 0.1685957717293E-02 -0.6836304530284E-02  0.0000000000000E+00 -0.5307201708629E-03
 0.1710867484727E-02 -0.6949865675669E-02  0.0000000000000E+00 -0.6041603035217E-03
 0.1738647909678E-02 -0.7078730326603E-02  0.0000000000000E+00 -0.6884555178195E-03
 0.1769203762757E-02 -0.7224464930002E-02  0.0000000000000E+00 -0.7865122641565E-03
 0.1801871462237E-02 -0.7388444429244E-02  0.0000000000000E+00 -0.9021586851162E-03
 0.1835117170252E-02 -0.7571227747443E-02  0.0000000000000E+00 -0.1039576420360E-02
 0.1867085215958E-02 -0.7772136047158E-02  0.0000000000000E+00 -0.1201780414186E-02
 0.1896939286821E-02 -0.7989513386928E-02  0.0000000000000E+00 -0.1389934446377E-02
 0.1925264150126E-02 -0.8221042142351E-02  0.0000000000000E+00 -0.1604620399592E-02
 0.1952928070959E-02 -0.8463637313135E-02  0.0000000000000E+00 -0.1846953653008E-02
 0.1979859740758E-02 -0.8713392431616E-02  0.0000000000000E+00 -0.2118094577668E-02
 0.2004656829917E-02 -0.8965648381458E-02  0.0000000000000E+00 -0.2418371118480E-02
 0.2024838781920E-02 -0.9214895378078E-02  0.0000000000000E+00 -0.2746689233543E-02
 0.2037486412040E-02 -0.9454535579551E-02  0.0000000000000E+00 -0.3100145302568E-02
 0.2039931728724E-02 -0.9676681758557E-02  0.0000000000000E+00 -0.3474427445627E-02
 0.2029268395949E-02 -0.9871317483404E-02  0.0000000000000E+00 -0.3865462734037E-02
 0.1999426143432E-02 -0.1002276895792E-01  0.0000000000000E+00 -0.4269468951946E-02
 0.1937831044237E-02 -0.1010240622992E-01  0.0000000000000E+00 -0.4674591726176E-02
 0.1827242240720E-02 -0.1005976373299E-01  0.0000000000000E+00 -0.5039822010886E-02
 0.1644470683632E-02 -0.9801672161681E-02  0.0000000000000E+00 -0.5258189428547E-02
 0.1393290261046E-02 -0.9138069779203E-02  0.0000000000000E+00 -0.4927324764867E-02
 0.1622548717991E-02 -0.8019166758402E-02  0.0000000000000E+00 -0.2760336755018E-02
 0.4697156402503E-02 -0.7597599945364E-02  0.0000000000000E+00  0.1971742609064E-02
 0.1256986621122E-01 -0.9084415555343E-02  0.0000000000000E+00  0.2950261883290E-02
 0.4383762482370E-03 -0.6894817517241E-02  0.0000000000000E+00  0.3111044734034E-02
 0.1165430249803E-02 -0.7088625730092E-02  0.0000000000000E+00  0.2346695601958E-02
 0.1512418010249E-02 -0.6947536497024E-02  0.0000000000000E+00  0.1346659509933E-02
 0.1574931289471E-02 -0.6712876589851E-02  0.0000000000000E+00  0.7533280328843E-03
 0.1575846482382E-02 -0.6543497230520E-02  0.0000000000000E+00  0.4421604319134E-03
 0.1570942972343E-02 -0.6434220545513E-02  0.0000000000000E+00  0.2505845378554E-03
 0.1566237165004E-02 -0.6366937147290E-02  0.0000000000000E+00  0.1232251170079E-03
 0.1564284410840E-02 -0.6331032995576E-02  0.0000000000000E+00  0.3352062854980E-04
 0.1565494763770E-02 -0.6318785507970E-02  0.0000000000000E+00 -0.3362748738059E-04
 0.1569674862905E-02 -0.6325139868350E-02  0.0000000000000E+00 -0.8676362656400E-04
 0.1576589518844E-02 -0.6346756995533E-02  0.0000000000000E+00 -0.1313476454415E-03
 0.1586032141409E-02 -0.6381509473137E-02  0.0000000000000E+00 -0.1710381037039E-03
 0.1597881479540E-02 -0.6428142785134E-02  0.0000000000000E+00 -0.2084712422960E-03
 0.1612101637431E-02 -0.6486061334655E-02  0.0000000000000E+00 -0.2456677789469E-03
 0.1628739089712E-02 -0.6555190623156E-02  0.0000000000000E+00 -0.2842810119586E-03
 0.1647915057812E-02 -0.6635889474278E-02  0.0000000000000E+00 -0.3257560993210E-03
 0.1669817655663E-02 -0.6728897259446E-02  0.0000000000000E+00 -0.3714491794740E-03
 0.1694691699667E-02 -0.6835304589991E-02  0.0000000000000E+00 -0.4227364368568E-03
 0.1722823286944E-02 -0.6956548248182E-02  0.0000000000000E+00 -0.4811469600219E-03
 0.1754507285279E-02 -0.7094420743442E-02  0.0000000000000E+00 -0.5485623090344E-03
 0.1789944760557E-02 -0.7251064955508E-02  0.0000000000000E+00 -0.6275897706901E-03
 0.1828891873890E-02 -0.7428773722791E-02  0.0000000000000E+00 -0.7221323737231E-03
 0.1870129497974E-02 -0.7629286979830E-02  0.0000000000000E+00 -0.8373038755763E-03
 0.1911840376142E-02 -0.7852964139555E-02  0.0000000000000E+00 -0.9777530181266E-03
 0.1953157587599E-02 -0.8098620325079E-02  0.0000000000000E+00 -0.1146418835626E-02
 0.1994687657142E-02 -0.8363744224655E-02  0.0000000000000E+00 -0.1345557886477E-02
 0.2037229339480E-02 -0.8644765098548E-02  0.0000000000000E+00 -0.1577548152310E-02
 0.2080567097302E-02 -0.8937610388208E-02  0.0000000000000E+00 -0.1844227666610E-02
 0.2123239332940E-02 -0.9238165087943E-02  0.0000000000000E+00 -0.2146475460326E-02
 0.2162820116119E-02 -0.9542174824094E-02  0.0000000000000E+00 -0.2484293670814E-02
 0.2196476421495E-02 -0.9844777765150E-02  0.0000000000000E+00 -0.2856706988426E-02
 0.2221922057790E-02 -0.1014033823259E-01  0.0000000000000E+00 -0.3261897064674E-02
 0.2237249395403E-02 -0.1042242229918E-01  0.0000000000000E+00 -0.3699773145717E-02
 0.2237884812393E-02 -0.1068140516526E-01  0.0000000000000E+00 -0.4174344014791E-02
 0.2211623315553E-02 -0.1089887838735E-01  0.0000000000000E+00 -0.4692120589159E-02
 0.2137094630924E-02 -0.1103633475858E-01  0.0000000000000E+00 -0.5246343438531E-02
 0.1986856663555E-02 -0.1102230232282E-01  0.0000000000000E+00 -0.5803538256831E-02
 0.1656991097283E-02 -0.1064891207084E-01  0.0000000000000E+00 -0.6231147662057E-02
 0.1262387299163E-02 -0.9474469637581E-02  0.0000000000000E+00 -0.5226733037524E-02
 0.3576733428577E-02 -0.8394585837799E-02  0.0000000000000E+00 -0.1144125324225E-03
 0.1323446399597E-01 -0.9932008200703E-02  0.0000000000000E+00  0.2481629886130E-02
 0.5747455107670E-03 -0.7264855160467E-02  0.0000000000000E+00  0.3294707376752E-02
 0.1399049735928E-02 -0.7324600317681E-02  0.0000000000000E+00  0.2108657594664E-02
 0.1636364984803E-02 -0.6967020618027E-02  0.0000000000000E+00  0.9880811702018E-03
 0.1611524284014E-02 -0.6655389585500E-02  0.0000000000000E+00  0.5273915435636E-03
 0.1588320829923E-02 -0.6475599352197E-02  0.0000000000000E+00  0.3049708850511E-03
 0.1572737836136E-02 -0.6364839379254E-02  0.0000000000000E+00  0.1656026632742E-03
 0.1562691742219E-02 -0.6301417997917E-02  0.0000000000000E+00  0.7632553671327E-04
 0.1558595014426E-02 -0.6270781953806E-02  0.0000000000000E+00  0.1350782965656E-04
 0.1559029884665E-02 -0.6264170386037E-02  0.0000000000000E+00 -0.3317062923516E-04
 0.1563281752852E-02 -0.6276090471586E-02  0.0000000000000E+00 -0.7007884224246E-04
 0.1570754021612E-02 -0.6303073600650E-02  0.0000000000000E+00 -0.1010833156708E-03
 0.1581083920691E-02 -0.6342991083050E-02  0.0000000000000E+00 -0.1287936982690E-03
 0.1594065963093E-02 -0.6394648096760E-02  0.0000000000000E+00 -0.1550784204092E-03
 0.1609630269611E-02 -0.6457541849954E-02  0.0000000000000E+00 -0.1813736242599E-03
 0.1627818309617E-02 -0.6531712977948E-02  0.0000000000000E+00 -0.2088590959391E-03
 0.1648768235424E-02 -0.6617655747501E-02  0.0000000000000E+00 -0.2385733093282E-03
 0.1672704902586E-02 -0.6716268768076E-02  0.0000000000000E+00 -0.2714994424407E-03
 0.1699933223070E-02 -0.6828834870174E-02  0.0000000000000E+00 -0.3086463073599E-03
 0.1730833693100E-02 -0.6957034911984E-02  0.0000000000000E+00 -0.3511516340950E-03
 0.1765854067198E-02 -0.7102995629590E-02  0.0000000000000E+00 -0.4004446866628E-03
 0.1805482327765E-02 -0.7269384304363E-02  0.0000000000000E+00 -0.4585737473972E-03
 0.1850004793654E-02 -0.7459469421085E-02  0.0000000000000E+00 -0.5290110674962E-03
 0.1898791713441E-02 -0.7676591259935E-02  0.0000000000000E+00 -0.6174466754988E-03
 0.1950336187650E-02 -0.7922819482270E-02  0.0000000000000E+00 -0.7305164701683E-03
 0.2003836331451E-02 -0.8197730410428E-02  0.0000000000000E+00 -0.8738785485857E-03
 0.2059776080145E-02 -0.8498221231679E-02  0.0000000000000E+00 -0.1052267821688E-02
 0.2118607707963E-02 -0.8819614333103E-02  0.0000000000000E+00 -0.1269323221446E-02
 0.2179801986741E-02 -0.9157349466797E-02  0.0000000000000E+00 -0.1526840292326E-02
 0.2241903431577E-02 -0.9507946958751E-02  0.0000000000000E+00 -0.1825331837036E-02
 0.2302805080532E-02 -0.9868828048556E-02  0.0000000000000E+00 -0.2165167160449E-02
 0.2360051672880E-02 -0.1023741303335E-01  0.0000000000000E+00 -0.2546991343260E-02
 0.2411804420961E-02 -0.1061056291452E-01  0.0000000000000E+00 -0.2971116156175E-02
 0.2457663311265E-02 -0.1098539126877E-01  0.0000000000000E+00 -0.3439186858080E-02
 0.2495164073082E-02 -0.1135939563390E-01  0.0000000000000E+00 -0.3959584145855E-02
 0.2517478235408E-02 -0.1172799838859E-01  0.0000000000000E+00 -0.4547010784746E-02
 0.2503198390881E-02 -0.1207778984253E-01  0.0000000000000E+00 -0.5233063264430E-02
 0.2433119974760E-02 -0.1236510567811E-01  0.0000000000000E+00 -0.6017851000336E-02
 0.2232520632808E-02 -0.1250589806185E-01  0.0000000000000E+00 -0.7037876882213E-02
 0.1398978666350E-02 -0.1180676546087E-01  0.0000000000000E+00 -0.7857059232827E-02
 0.2212744217849E-02 -0.1008653213088E-01  0.0000000000000E+00 -0.3684521706766E-02
 0.1412154849017E-01 -0.1151078008448E-01  0.0000000000000E+00  0.1214319607991E-02
 0.7983097634245E-03 -0.7877462354479E-02  0.0000000000000E+00  0.3405102651934E-02
 0.1691909924119E-02 -0.7532502826830E-02  0.0000000000000E+00  0.1511371629668E-02
 0.1706973375171E-02 -0.6876679235147E-02  0.0000000000000E+00  0.5211132087830E-03
 0.1615729736300E-02 -0.6560034484323E-02  0.0000000000000E+00  0.3116368180118E-03
 0.1586699534953E-02 -0.6381859724469E-02  0.0000000000000E+00  0.1666459420304E-03
 0.1563213325685E-02 -0.6279134684896E-02  0.0000000000000E+00  0.8830129167400E-04
 0.1551962925815E-02 -0.6224574292709E-02  0.0000000000000E+00  0.3634934158355E-04
 0.1547469768848E-02 -0.6202227600349E-02  0.0000000000000E+00  0.3698175907313E-06
 0.1548413314930E-02 -0.6203128328559E-02  0.0000000000000E+00 -0.2642506219123E-04
 0.1553491542790E-02 -0.6221785910571E-02  0.0000000000000E+00 -0.4762570841378E-04
 0.1561992809865E-02 -0.6254848768134E-02  0.0000000000000E+00 -0.6551173041543E-04
 0.1573467351888E-02 -0.6300324796742E-02  0.0000000000000E+00 -0.8159818198693E-04
 0.1587684878404E-02 -0.6357161234344E-02  0.0000000000000E+00 -0.9697837895024E-04
 0.1604572941924E-02 -0.6424997205281E-02  0.0000000000000E+00 -0.1124964465841E-03
 0.1624187720714E-02 -0.6504017138682E-02  0.0000000000000E+00 -0.1288514647554E-03
 0.1646694440899E-02 -0.6594865241229E-02  0.0000000000000E+00 -0.1466643023732E-03
 0.1672357416553E-02 -0.6698602222728E-02  0.0000000000000E+00 -0.1665283467282E-03
 0.1701536718714E-02 -0.6816693974466E-02  0.0000000000000E+00 -0.1890580739668E-03
 0.1734692217784E-02 -0.6951040339714E-02  0.0000000000000E+00 -0.2149539380243E-03
 0.1772394788170E-02 -0.7104052468198E-02  0.0000000000000E+00 -0.2451083228690E-03
 0.1815351077269E-02 -0.7278816567343E-02  0.0000000000000E+00 -0.2808172219041E-03
 0.1864389390754E-02 -0.7479442751419E-02  0.0000000000000E+00 -0.3244358599268E-03
 0.1919820659133E-02 -0.7711278139707E-02  0.0000000000000E+00 -0.3812339202406E-03
 0.1981029805999E-02 -0.7979370127524E-02  0.0000000000000E+00 -0.4600392285540E-03
 0.2047534421352E-02 -0.8284697912364E-02  0.0000000000000E+00 -0.5710677658097E-03
 0.2119341469306E-02 -0.8622728844562E-02  0.0000000000000E+00 -0.7230653053275E-03
 0.2195992690335E-02 -0.8986602406869E-02  0.0000000000000E+00 -0.9207684183155E-03
 0.2276361488007E-02 -0.9370808580567E-02  0.0000000000000E+00 -0.1164729714574E-02
 0.2359067682780E-02 -0.9772612397547E-02  0.0000000000000E+00 -0.1453804907170E-02
 0.2442678836339E-02 -0.1019160812570E-01  0.0000000000000E+00 -0.1787675766633E-02
 0.2525550539734E-02 -0.1062827602036E-01  0.0000000000000E+00 -0.2168260450925E-02
 0.2606393610300E-02 -0.1108235239911E-01  0.0000000000000E+00 -0.2598381918907E-02
 0.2685561331798E-02 -0.1155331374700E-01  0.0000000000000E+00 -0.3080063077542E-02
 0.2764351042763E-02 -0.1204515407643E-01  0.0000000000000E+00 -0.3618526557008E-02
 0.2838860513915E-02 -0.1256997503622E-01  0.0000000000000E+00 -0.4231082841570E-02
 0.2912039790167E-02 -0.1314766209103E-01  0.0000000000000E+00 -0.4950377455720E-02
 0.2931010830431E-02 -0.1378698109869E-01  0.0000000000000E+00 -0.5880249318557E-02
 0.3015391147046E-02 -0.1450840040003E-01  0.0000000000000E+00 -0.6988101105889E-02
 0.2447763361129E-02 -0.1516362943659E-01  0.0000000000000E+00 -0.9550416108691E-02
 0.9532971510295E-03 -0.1372715885144E-01  0.0000000000000E+00 -0.9053537330952E-02
 0.1555746084577E-01 -0.1523935834967E-01  0.0000000000000E+00 -0.2581738143920E-02
 0.1165922254665E-02 -0.9068392664334E-02  0.0000000000000E+00  0.3091655904420E-02
 0.1988096412604E-02 -0.7350067303000E-02  0.0000000000000E+00  0.1820022312988E-03
 0.1645249769900E-02 -0.6703776169226E-02  0.0000000000000E+00  0.1861115406335E-03
 0.1609879412084E-02 -0.6421950237046E-02  0.0000000000000E+00  0.8472280481062E-04
 0.1563684109992E-02 -0.6262466787865E-02  0.0000000000000E+00  0.4685514359811E-04
 0.1544263048835E-02 -0.6177690669370E-02  0.0000000000000E+00  0.2247853091504E-04
 0.1533842849397E-02 -0.6136859212339E-02  0.0000000000000E+00  0.6952329866673E-05
 0.1531235465371E-02 -0.6125788614216E-02  0.0000000000000E+00 -0.3972427244134E-05
 0.1533810786030E-02 -0.6135988017066E-02  0.0000000000000E+00 -0.1212814569991E-04
 0.1540465559815E-02 -0.6162486469483E-02  0.0000000000000E+00 -0.1863626865320E-04
 0.1550425181454E-02 -0.6202281150935E-02  0.0000000000000E+00 -0.2418276709580E-04
 0.1563271406980E-02 -0.6253655834382E-02  0.0000000000000E+00 -0.2923588951044E-04
 0.1578796277481E-02 -0.6315778652978E-02  0.0000000000000E+00 -0.3413656344096E-04
 0.1596958008418E-02 -0.6388477478784E-02  0.0000000000000E+00 -0.3915253613712E-04
 0.1617845328067E-02 -0.6472106999325E-02  0.0000000000000E+00 -0.4450903429533E-04
 0.1641659658648E-02 -0.6567473772013E-02  0.0000000000000E+00 -0.5040906640377E-04
 0.1668705927107E-02 -0.6675801577084E-02  0.0000000000000E+00 -0.5704984713031E-04
 0.1699392234952E-02 -0.6798727008067E-02  0.0000000000000E+00 -0.6463657539235E-04
 0.1734238608927E-02 -0.6938339307888E-02  0.0000000000000E+00 -0.7340634761013E-04
 0.1773899692041E-02 -0.7097272518710E-02  0.0000000000000E+00 -0.8366114927849E-04
 0.1819212590966E-02 -0.7278904745205E-02  0.0000000000000E+00 -0.9584698269680E-04
 0.1871318427744E-02 -0.7487834233173E-02  0.0000000000000E+00 -0.1107311255038E-03
 0.1931722244249E-02 -0.7731219270690E-02  0.0000000000000E+00 -0.1308624125757E-03
 0.2001968831565E-02 -0.8019642588599E-02  0.0000000000000E+00 -0.1664595057066E-03
 0.2082577910834E-02 -0.8357092311943E-02  0.0000000000000E+00 -0.2362579490851E-03
 0.2172199357072E-02 -0.8735544358406E-02  0.0000000000000E+00 -0.3558995278761E-03
 0.2268418558652E-02 -0.9144305746516E-02  0.0000000000000E+00 -0.5303570202109E-03
 0.2369135952286E-02 -0.9576337371048E-02  0.0000000000000E+00 -0.7570711845670E-03
 0.2473166408967E-02 -0.1002981858223E-01  0.0000000000000E+00 -0.1031454760488E-02
 0.2580147951060E-02 -0.1050712834985E-01  0.0000000000000E+00 -0.1351196888663E-02
 0.2690017712424E-02 -0.1101271780242E-01  0.0000000000000E+00 -0.1718545210384E-02
 0.2802344843691E-02 -0.1155056852476E-01  0.0000000000000E+00 -0.2140517355644E-02
 0.2916934683392E-02 -0.1212009111144E-01  0.0000000000000E+00 -0.2620983076958E-02
 0.3035589907485E-02 -0.1272667851998E-01  0.0000000000000E+00 -0.3152777299933E-02
 0.3166910961653E-02 -0.1340352041532E-01  0.0000000000000E+00 -0.3737364006116E-02
 0.3310600649727E-02 -0.1420399856135E-01  0.0000000000000E+00 -0.4407789907600E-02
 0.3521699158993E-02 -0.1521693367887E-01  0.0000000000000E+00 -0.5239803793830E-02
 0.3601638215232E-02 -0.1652573100690E-01  0.0000000000000E+00 -0.6416364541563E-02
 0.4659443542058E-02 -0.1869868056663E-01  0.0000000000000E+00 -0.8026409939537E-02
 0.6200565108820E-03 -0.2098120201410E-01  0.0000000000000E+00 -0.1420442383593E-01
 0.2043919078934E-01 -0.2661140783783E-01  0.0000000000000E+00 -0.1386042379392E-01
 0.6954139523240E-01 -0.1381124402451E+00  0.0000000000000E+00 -0.4801251596753E+00
 0.1105438401372E+00 -0.1767242322022E+00  0.0000000000000E+00 -0.4371230231949E+00
 0.1506882824853E+00 -0.2143470405918E+00  0.0000000000000E+00 -0.3974474932555E+00
 0.1884715525736E+00 -0.2496403893246E+00  0.0000000000000E+00 -0.3606653376672E+00
 0.2231869182346E+00 -0.2819364867083E+00  0.0000000000000E+00 -0.3268171273755E+00
 0.2544467876356E+00 -0.3108791530025E+00  0.0000000000000E+00 -0.2961041989655E+00
 0.2820877875676E+00 -0.3363193156322E+00  0.0000000000000E+00 -0.2688883710755E+00
 0.3061512166048E+00 -0.3583294575520E+00  0.0000000000000E+00 -0.2455917206666E+00
 0.3268294408392E+00 -0.3771222443845E+00  0.0000000000000E+00 -0.2264985975142E+00
 0.3443814885275E+00 -0.3929686994180E+00  0.0000000000000E+00 -0.2117082987439E+00
 0.3590856682493E+00 -0.4061571403214E+00  0.0000000000000E+00 -0.2011927060139E+00
 0.3712193326380E+00 -0.4169713448565E+00  0.0000000000000E+00 -0.1948521724958E+00
 0.3810343769904E+00 -0.4256668737495E+00  0.0000000000000E+00 -0.1925273797809E+00
 0.3887349647699E+00 -0.4324476941347E+00  0.0000000000000E+00 -0.1940335241261E+00
 0.3944732748319E+00 -0.4374635858891E+00  0.0000000000000E+00 -0.1992049510380E+00
 0.3983562704215E+00 -0.4408150485773E+00  0.0000000000000E+00 -0.2078921522802E+00
 0.4003436536510E+00 -0.4425021002240E+00  0.0000000000000E+00 -0.2198265900775E+00
 0.4004216540592E+00 -0.4425536013016E+00  0.0000000000000E+00 -0.2352857913015E+00
 0.3990357073899E+00 -0.4413090487701E+00  0.0000000000000E+00 -0.2542775655733E+00
 0.3965290561980E+00 -0.4398655486393E+00  0.0000000000000E+00 -0.2726735358761E+00
 0.6680057331016E-01 -0.1362571295368E+00  0.0000000000000E+00 -0.4600637486053E+00
 0.1089973945135E+00 -0.1758772937656E+00  0.0000000000000E+00 -0.4174522931463E+00
 0.1499067003853E+00 -0.2142517169736E+00  0.0000000000000E+00 -0.3794278840935E+00
 0.1884423831973E+00 -0.2502862663066E+00  0.0000000000000E+00 -0.3447228242225E+00
 0.2239279908741E+00 -0.2833554092490E+00  0.0000000000000E+00 -0.3131324585044E+00
 0.2560253971208E+00 -0.3131452067909E+00  0.0000000000000E+00 -0.2847218208388E+00
 0.2845965161250E+00 -0.3395407956665E+00  0.0000000000000E+00 -0.2596958527975E+00
 0.3096650351585E+00 -0.3625854507466E+00  0.0000000000000E+00 -0.2383402879373E+00
 0.3313858284678E+00 -0.3824517604333E+00  0.0000000000000E+00 -0.2209011567346E+00
 0.3499899822971E+00 -0.3993834684297E+00  0.0000000000000E+00 -0.2074917108182E+00
 0.3657381249462E+00 -0.4136506289589E+00  0.0000000000000E+00 -0.1981178555224E+00
 0.3788978125948E+00 -0.4255279487190E+00  0.0000000000000E+00 -0.1927201929529E+00
 0.3897206514691E+00 -0.4352713504885E+00  0.0000000000000E+00 -0.1911843180169E+00
 0.3984225818070E+00 -0.4430988271631E+00  0.0000000000000E+00 -0.1933645581274E+00
 0.4051791522131E+00 -0.4491866462521E+00  0.0000000000000E+00 -0.1990993695518E+00
 0.4101014325734E+00 -0.4536563609172E+00  0.0000000000000E+00 -0.2081598678514E+00
 0.4131480839088E+00 -0.4564938306728E+00  0.0000000000000E+00 -0.2202736595904E+00
 0.4143222732100E+00 -0.4577172823768E+00  0.0000000000000E+00 -0.2354827372864E+00
 0.4133888371293E+00 -0.4572606134569E+00  0.0000000000000E+00 -0.2531862678935E+00
 0.4099082049201E+00 -0.4545558919975E+00  0.0000000000000E+00 -0.2737442538682E+00
 0.6414097762306E-01 -0.1344015505748E+00  0.0000000000000E+00 -0.4395580183665E+00
 0.1076421096381E+00 -0.1752578613238E+00  0.0000000000000E+00 -0.3977085258932E+00
 0.1494316731928E+00 -0.2144546679357E+00  0.0000000000000E+00 -0.3611306537694E+00
 0.1887189904503E+00 -0.2512262888031E+00  0.0000000000000E+00 -0.3283782298858E+00
 0.2249590850948E+00 -0.2850466119914E+00  0.0000000000000E+00 -0.2989204450276E+00
 0.2578538880867E+00 -0.3156429820528E+00  0.0000000000000E+00 -0.2726570238800E+00
 0.2872868562846E+00 -0.3429184044183E+00  0.0000000000000E+00 -0.2496730358190E+00
 0.3132799247930E+00 -0.3669125016716E+00  0.0000000000000E+00 -0.2301597652115E+00
 0.3359685987551E+00 -0.3877752333853E+00  0.0000000000000E+00 -0.2143100437021E+00
 0.3555618599829E+00 -0.4057273291297E+00  0.0000000000000E+00 -0.2022347023732E+00
 0.3723050157250E+00 -0.4210234960054E+00  0.0000000000000E+00 -0.1939613797539E+00
 0.3864566279239E+00 -0.4339296804665E+00  0.0000000000000E+00 -0.1894584342740E+00
 0.3982661344401E+00 -0.4447007885732E+00  0.0000000000000E+00 -0.1886405848557E+00
 0.4079539231514E+00 -0.4535613261633E+00  0.0000000000000E+00 -0.1913798831654E+00
 0.4156959599641E+00 -0.4606932611266E+00  0.0000000000000E+00 -0.1975024846414E+00
 0.4215897424032E+00 -0.4662067597771E+00  0.0000000000000E+00 -0.2067677802847E+00
 0.4255986404660E+00 -0.4700863124040E+00  0.0000000000000E+00 -0.2189089804700E+00
 0.4275939706036E+00 -0.4722543205690E+00  0.0000000000000E+00 -0.2338594209247E+00
 0.4272928561840E+00 -0.4724373933709E+00  0.0000000000000E+00 -0.2518093600306E+00
 0.4245844554978E+00 -0.4704765390356E+00  0.0000000000000E+00 -0.2739341611349E+00
 0.6159635121646E-01 -0.1326487839851E+00  0.0000000000000E+00 -0.4184322410777E+00
 0.1064388750658E+00 -0.1747739668913E+00  0.0000000000000E+00 -0.3776481166800E+00
 0.1491784449832E+00 -0.2148750956677E+00  0.0000000000000E+00 -0.3425725706478E+00
 0.1892434957920E+00 -0.2523985312264E+00  0.0000000000000E+00 -0.3116685707762E+00
 0.2262204814239E+00 -0.2869492523172E+00  0.0000000000000E+00 -0.2842238756175E+00
 0.2598728057047E+00 -0.3183081358752E+00  0.0000000000000E+00 -0.2599776611330E+00
 0.2901095414400E+00 -0.3464016992639E+00  0.0000000000000E+00 -0.2389108046391E+00
 0.3169590345068E+00 -0.3712732447804E+00  0.0000000000000E+00 -0.2211358895777E+00
 0.3405476959186E+00 -0.3930618686398E+00  0.0000000000000E+00 -0.2067973531504E+00
 0.3610697508442E+00 -0.4119723691960E+00  0.0000000000000E+00 -0.1959935326772E+00
 0.3787577949113E+00 -0.4282464190407E+00  0.0000000000000E+00 -0.1887622210802E+00
 0.3938614021862E+00 -0.4421413046935E+00  0.0000000000000E+00 -0.1850887360073E+00
 0.4066247207820E+00 -0.4539076670598E+00  0.0000000000000E+00 -0.1849051210459E+00
 0.4172639767253E+00 -0.4637680232438E+00  0.0000000000000E+00 -0.1880927141266E+00
 0.4259454961138E+00 -0.4718970159337E+00  0.0000000000000E+00 -0.1944807649273E+00
 0.4327525809788E+00 -0.4783908316249E+00  0.0000000000000E+00 -0.2038465557816E+00
 0.4376319197622E+00 -0.4832203421049E+00  0.0000000000000E+00 -0.2159788412892E+00
 0.4404493317365E+00 -0.4862710125433E+00  0.0000000000000E+00 -0.2309942044112E+00
 0.4410517994248E+00 -0.4873939733347E+00  0.0000000000000E+00 -0.2493955456899E+00
 0.4395130894206E+00 -0.4866409074190E+00  0.0000000000000E+00 -0.2723206666927E+00
 0.5918057020428E-01 -0.1310074785221E+00  0.0000000000000E+00 -0.3966942259757E+00
 0.1053789859213E+00 -0.1744181187463E+00  0.0000000000000E+00 -0.3572142708700E+00
 0.1491008348449E+00 -0.2154544891026E+00  0.0000000000000E+00 -0.3237174951420E+00
 0.1899579660655E+00 -0.2537431414627E+00  0.0000000000000E+00 -0.2946186536921E+00
 0.2276572815005E+00 -0.2890052178797E+00  0.0000000000000E+00 -0.2690866209869E+00
 0.2620297256722E+00 -0.3210860365629E+00  0.0000000000000E+00 -0.2467440574642E+00
 0.2930181654442E+00 -0.3499423442058E+00  0.0000000000000E+00 -0.2274810101708E+00
 0.3206634202018E+00 -0.3756277556344E+00  0.0000000000000E+00 -0.2113426479382E+00
 0.3450898358122E+00 -0.3982776223327E+00  0.0000000000000E+00 -0.1984294261330E+00
 0.3664824633498E+00 -0.4180865943445E+00  0.0000000000000E+00 -0.1888231170229E+00
 0.3850637874973E+00 -0.4352858260655E+00  0.0000000000000E+00 -0.1825632060628E+00
 0.4010741828658E+00 -0.4501236192980E+00  0.0000000000000E+00 -0.1796438653558E+00
 0.4147495404751E+00 -0.4628432421818E+00  0.0000000000000E+00 -0.1800082054167E+00
 0.4262971112398E+00 -0.4736595666209E+00  0.0000000000000E+00 -0.1835487115355E+00
 0.4358714886319E+00 -0.4827364723254E+00  0.0000000000000E+00 -0.1901120713335E+00
 0.4435433602370E+00 -0.4901580021748E+00  0.0000000000000E+00 -0.1995193354702E+00
 0.4492706681000E+00 -0.4958984901080E+00  0.0000000000000E+00 -0.2116688043820E+00
 0.4529693359533E+00 -0.4998865838385E+00  0.0000000000000E+00 -0.2267910116196E+00
 0.4546013786000E+00 -0.5020869675753E+00  0.0000000000000E+00 -0.2454552542218E+00
 0.4543479256158E+00 -0.5026732180497E+00  0.0000000000000E+00 -0.2686283334208E+00
 0.5689964675765E-01 -0.1294803357303E+00  0.0000000000000E+00 -0.3743511267307E+00
 0.1044505729451E+00 -0.1741732158986E+00  0.0000000000000E+00 -0.3363887135165E+00
 0.1491649259894E+00 -0.2161549000636E+00  0.0000000000000E+00 -0.3045528719344E+00
 0.1908150214134E+00 -0.2552079695700E+00  0.0000000000000E+00 -0.2772410921764E+00
 0.2292190936604E+00 -0.2911615852664E+00  0.0000000000000E+00 -0.2535466883530E+00
 0.2642765385852E+00 -0.3239263050146E+00  0.0000000000000E+00 -0.2330086377243E+00
 0.2959686763371E+00 -0.3534946621114E+00  0.0000000000000E+00 -0.2154453863888E+00
 0.3243539851737E+00 -0.3799357131854E+00  0.0000000000000E+00 -0.2008446463326E+00
 0.3495598542895E+00 -0.4033863890809E+00  0.0000000000000E+00 -0.1892676532951E+00
 0.3717663756712E+00 -0.4240354561112E+00  0.0000000000000E+00 -0.1807779236524E+00
 0.3911880513764E+00 -0.4421056701992E+00  0.0000000000000E+00 -0.1754115489176E+00
 0.4080560964465E+00 -0.4578362609443E+00  0.0000000000000E+00 -0.1731666797223E+00
 0.4225966331679E+00 -0.4714612676454E+00  0.0000000000000E+00 -0.1739955691601E+00
 0.4350066287548E+00 -0.4831859585343E+00  0.0000000000000E+00 -0.1778059780290E+00
 0.4454305386169E+00 -0.4931644703920E+00  0.0000000000000E+00 -0.1844733476774E+00
 0.4539374301388E+00 -0.5014774649876E+00  0.0000000000000E+00 -0.1938783871211E+00
 0.4605129999903E+00 -0.5081234238069E+00  0.0000000000000E+00 -0.2060088017536E+00
 0.4651305910934E+00 -0.5130852328179E+00  0.0000000000000E+00 -0.2211420111746E+00
 0.4678371147173E+00 -0.5164139198519E+00  0.0000000000000E+00 -0.2398171576921E+00
 0.4688761401269E+00 -0.5183516892445E+00  0.0000000000000E+00 -0.2628137641754E+00
 0.5475725001847E-01 -0.1280661180285E+00  0.0000000000000E+00 -0.3514183092279E+00
 0.1036415046997E+00 -0.1740229146732E+00  0.0000000000000E+00 -0.3151694942238E+00
 0.1493417383301E+00 -0.2169431455029E+00  0.0000000000000E+00 -0.2850782250705E+00
 0.1917743837363E+00 -0.2567493253333E+00  0.0000000000000E+00 -0.2595503330680E+00
 0.2308611243463E+00 -0.2933706948300E+00  0.0000000000000E+00 -0.2376360012981E+00
 0.2665687343508E+00 -0.3267823876509E+00  0.0000000000000E+00 -0.2188172453847E+00
 0.2989192270430E+00 -0.3570151850507E+00  0.0000000000000E+00 -0.2028583003481E+00
 0.3279922054360E+00 -0.3841573413038E+00  0.0000000000000E+00 -0.1897001000959E+00
 0.3539219350568E+00 -0.4083512839550E+00  0.0000000000000E+00 -0.1793697182942E+00
 0.3768867301819E+00 -0.4297831388930E+00  0.0000000000000E+00 -0.1719124768708E+00
 0.3970949167555E+00 -0.4486690379184E+00  0.0000000000000E+00 -0.1673584842615E+00
 0.4147690813239E+00 -0.4652395215662E+00  0.0000000000000E+00 -0.1657076347868E+00
 0.4301255820102E+00 -0.4797190897717E+00  0.0000000000000E+00 -0.1669213183103E+00
 0.4433520067908E+00 -0.4923039029839E+00  0.0000000000000E+00 -0.1709260525183E+00
 0.4545871535897E+00 -0.5031421551745E+00  0.0000000000000E+00 -0.1776317260327E+00
 0.4639068306564E+00 -0.5123200558150E+00  0.0000000000000E+00 -0.1869741478763E+00
 0.4713287519549E+00 -0.5198660710623E+00  0.0000000000000E+00 -0.1990014298576E+00
 0.4768769049850E+00 -0.5258127969048E+00  0.0000000000000E+00 -0.2139967411375E+00
 0.4806568334442E+00 -0.5302709354963E+00  0.0000000000000E+00 -0.2324336447111E+00
 0.4829479591031E+00 -0.5335209118962E+00  0.0000000000000E+00 -0.2549195746720E+00
 0.5275599258342E-01 -0.1267626058595E+00  0.0000000000000E+00 -0.3279157372637E+00
 0.1029398598805E+00 -0.1739510799347E+00  0.0000000000000E+00 -0.2935638794513E+00
 0.1496055856934E+00 -0.2177899026961E+00  0.0000000000000E+00 -0.2653006264387E+00
 0.1928007116888E+00 -0.2583287128250E+00  0.0000000000000E+00 -0.2415627912668E+00
 0.2325433033963E+00 -0.2955899416610E+00  0.0000000000000E+00 -0.2213837391368E+00
 0.2688653624287E+00 -0.3296113192740E+00  0.0000000000000E+00 -0.2042105195484E+00
 0.3018302280779E+00 -0.3604627631140E+00  0.0000000000000E+00 -0.1897686967496E+00
 0.3315406718640E+00 -0.3882539513654E+00  0.0000000000000E+00 -0.1779626388323E+00
 0.3581405172939E+00 -0.4131356143763E+00  0.0000000000000E+00 -0.1687907906076E+00
 0.3818087368077E+00 -0.4352937071944E+00  0.0000000000000E+00 -0.1622815888535E+00
 0.4027491129332E+00 -0.4549393354710E+00  0.0000000000000E+00 -0.1584583620146E+00
 0.4211766289012E+00 -0.4722952403409E+00  0.0000000000000E+00 -0.1573220409574E+00
 0.4372989400663E+00 -0.4875772188123E+00  0.0000000000000E+00 -0.1588435501646E+00
 0.4512964672624E+00 -0.5009742321674E+00  0.0000000000000E+00 -0.1629695744788E+00
 0.4633065317644E+00 -0.5126326786851E+00  0.0000000000000E+00 -0.1696432044979E+00
 0.4734160001367E+00 -0.5226490692853E+00  0.0000000000000E+00 -0.1788442579326E+00
 0.4816729032552E+00 -0.5310812501469E+00  0.0000000000000E+00 -0.1906568745989E+00
 0.4881417995051E+00 -0.5380021646994E+00  0.0000000000000E+00 -0.2053481333289E+00
 0.4929672855906E+00 -0.5435623064010E+00  0.0000000000000E+00 -0.2233161811042E+00
 0.4964447299220E+00 -0.5480596053715E+00  0.0000000000000E+00 -0.2450146833833E+00
 0.5089808461521E-01 -0.1255673408776E+00  0.0000000000000E+00 -0.3038677882920E+00
 0.1023343761623E+00 -0.1739424968988E+00  0.0000000000000E+00 -0.2715851605000E+00
 0.1499333644256E+00 -0.2186687009497E+00  0.0000000000000E+00 -0.2452320098002E+00
 0.1938624993834E+00 -0.2599117958027E+00  0.0000000000000E+00 -0.2232965078208E+00
 0.2342295231667E+00 -0.2977808795997E+00  0.0000000000000E+00 -0.2048174305948E+00
 0.2711287996500E+00 -0.3323735987027E+00  0.0000000000000E+00 -0.1892255372383E+00
 0.3046645089522E+00 -0.3637987087130E+00  0.0000000000000E+00 -0.1762214610001E+00
 0.3349635323355E+00 -0.3921884216939E+00  0.0000000000000E+00 -0.1656825463996E+00
 0.3621810014679E+00 -0.4177036226190E+00  0.0000000000000E+00 -0.1575842601425E+00
 0.3864983927087E+00 -0.4405319786048E+00  0.0000000000000E+00 -0.1519403317022E+00
 0.4081164671280E+00 -0.4608810597304E+00  0.0000000000000E+00 -0.1487676183654E+00
 0.4272439583415E+00 -0.4789670638955E+00  0.0000000000000E+00 -0.1480680587267E+00
 0.4440814639213E+00 -0.4949985785003E+00  0.0000000000000E+00 -0.1498220854585E+00
 0.4588046413439E+00 -0.5091596666949E+00  0.0000000000000E+00 -0.1539955564678E+00
 0.4715522976717E+00 -0.5215979666625E+00  0.0000000000000E+00 -0.1605600317699E+00
 0.4824238018199E+00 -0.5324221159186E+00  0.0000000000000E+00 -0.1695274893592E+00
 0.4914934652906E+00 -0.5417158728520E+00  0.0000000000000E+00 -0.1810005422139E+00
 0.4988567863797E+00 -0.5495832466695E+00  0.0000000000000E+00 -0.1952196643400E+00
 0.5046825116154E+00 -0.5561996604920E+00  0.0000000000000E+00 -0.2125082416100E+00
 0.5092664534398E+00 -0.5618648347649E+00  0.0000000000000E+00 -0.2331866955912E+00
 0.4918559830853E-01 -0.1244780064647E+00  0.0000000000000E+00 -0.2793029107591E+00
 0.1018146474561E+00 -0.1739830680931E+00  0.0000000000000E+00 -0.2492511123181E+00
 0.1503042275392E+00 -0.2195555969344E+00  0.0000000000000E+00 -0.2248877258531E+00
 0.1949314508725E+00 -0.2614676885130E+00  0.0000000000000E+00 -0.2047707618457E+00
 0.2358871251859E+00 -0.2999087096243E+00  0.0000000000000E+00 -0.1879636193672E+00
 0.2733245462684E+00 -0.3350329719040E+00  0.0000000000000E+00 -0.1738969268102E+00
 0.3073874248624E+00 -0.3669869303727E+00  0.0000000000000E+00 -0.1622585878618E+00
 0.3382268488502E+00 -0.3959255710966E+00  0.0000000000000E+00 -0.1529076904200E+00
 0.3660102702726E+00 -0.4220210397234E+00  0.0000000000000E+00 -0.1458022640554E+00
 0.3909230382610E+00 -0.4454641210885E+00  0.0000000000000E+00 -0.1409439654275E+00
 0.4131642831038E+00 -0.4664602258846E+00  0.0000000000000E+00 -0.1383440690670E+00
 0.4329379729556E+00 -0.4852204332977E+00  0.0000000000000E+00 -0.1380056405761E+00
 0.4504394196465E+00 -0.5019478224377E+00  0.0000000000000E+00 -0.1399178955927E+00
 0.4658415902030E+00 -0.5168236112980E+00  0.0000000000000E+00 -0.1440633426295E+00
 0.4792865533983E+00 -0.5299985607591E+00  0.0000000000000E+00 -0.1504360500092E+00
 0.4908859531947E+00 -0.5415934580243E+00  0.0000000000000E+00 -0.1590697803710E+00
 0.5007358143936E+00 -0.5517137426953E+00  0.0000000000000E+00 -0.1700736581057E+00
 0.5089542681980E+00 -0.5604864306086E+00  0.0000000000000E+00 -0.1836574111400E+00
 0.5157229455752E+00 -0.5681007191690E+00  0.0000000000000E+00 -0.2000757538524E+00
 0.5213263415703E+00 -0.5748465643957E+00  0.0000000000000E+00 -0.2195382674346E+00
 0.4762055980438E-01 -0.1234925667001E+00  0.0000000000000E+00 -0.2542533033418E+00
 0.1013712039745E+00 -0.1740599208695E+00  0.0000000000000E+00 -0.2265830236712E+00
 0.1506993873115E+00 -0.2204289645624E+00  0.0000000000000E+00 -0.2042856348467E+00
 0.1959821111669E+00 -0.2629685741183E+00  0.0000000000000E+00 -0.1860057493473E+00
 0.2374865716662E+00 -0.3019419356949E+00  0.0000000000000E+00 -0.1708481885423E+00
 0.2754210857639E+00 -0.3375563007715E+00  0.0000000000000E+00 -0.1582575873229E+00
 0.3099669418760E+00 -0.3699940322895E+00  0.0000000000000E+00 -0.1479199782207E+00
 0.3412988735938E+00 -0.3994324608633E+00  0.0000000000000E+00 -0.1396841685368E+00
 0.3695970783323E+00 -0.4260555051727E+00  0.0000000000000E+00 -0.1334960055477E+00
 0.3950517418088E+00 -0.4500580736792E+00  0.0000000000000E+00 -0.1293478489357E+00
 0.4178615770580E+00 -0.4716446346161E+00  0.0000000000000E+00 -0.1272464898150E+00
 0.4382272173314E+00 -0.4910225567482E+00  0.0000000000000E+00 -0.1271961338437E+00
 0.4563403162016E+00 -0.5083910165977E+00  0.0000000000000E+00 -0.1291935055886E+00
 0.4723727367701E+00 -0.5239299925723E+00  0.0000000000000E+00 -0.1332345216975E+00
 0.4864706873588E+00 -0.5377943366121E+00  0.0000000000000E+00 -0.1393298143318E+00
 0.4987570118412E+00 -0.5501160753296E+00  0.0000000000000E+00 -0.1475265069426E+00
 0.5093451025317E+00 -0.5610181986769E+00  0.0000000000000E+00 -0.1579323185323E+00
 0.5183689808248E+00 -0.5706441597938E+00  0.0000000000000E+00 -0.1707257773610E+00
 0.5260148835615E+00 -0.5791888465705E+00  0.0000000000000E+00 -0.1861019220456E+00
 0.5325481590542E+00 -0.5869246954841E+00  0.0000000000000E+00 -0.2041824310496E+00
 0.4620497532439E-01 -0.1226093087182E+00  0.0000000000000E+00 -0.2287546169599E+00
 0.1009955358599E+00 -0.1741614371917E+00  0.0000000000000E+00 -0.2036050797304E+00
 0.1511019910178E+00 -0.2212693655194E+00  0.0000000000000E+00 -0.1834455550080E+00
 0.1969916423119E+00 -0.2643894668418E+00  0.0000000000000E+00 -0.1670223955562E+00
 0.2390012436624E+00 -0.3038521543882E+00  0.0000000000000E+00 -0.1534965916521E+00
 0.2773898011408E+00 -0.3399134782191E+00  0.0000000000000E+00 -0.1423392003310E+00
 0.3123737077938E+00 -0.3727893948091E+00  0.0000000000000E+00 -0.1332440328956E+00
 0.3441502559403E+00 -0.4026786175859E+00  0.0000000000000E+00 -0.1260568008860E+00
 0.3729123348407E+00 -0.4297768706649E+00  0.0000000000000E+00 -0.1207160211815E+00
 0.3988555714256E+00 -0.4542838396290E+00  0.0000000000000E+00 -0.1172074550299E+00
 0.4221792526860E+00 -0.4764040623164E+00  0.0000000000000E+00 -0.1155345024477E+00
 0.4430819327525E+00 -0.4963424575633E+00  0.0000000000000E+00 -0.1157023559624E+00
 0.4617529655306E+00 -0.5142956648008E+00  0.0000000000000E+00 -0.1177136651070E+00
 0.4783642253854E+00 -0.5304435686236E+00  0.0000000000000E+00 -0.1215743545892E+00
 0.4930663267043E+00 -0.5449454469449E+00  0.0000000000000E+00 -0.1273062449755E+00
 0.5059918713970E+00 -0.5579432310964E+00  0.0000000000000E+00 -0.1349632250879E+00
 0.5172677967182E+00 -0.5695737742696E+00  0.0000000000000E+00 -0.1446465092256E+00
 0.5270387524724E+00 -0.5799918325723E+00  0.0000000000000E+00 -0.1565049485617E+00
 0.5354899820151E+00 -0.5893925092900E+00  0.0000000000000E+00 -0.1706837602687E+00
 0.5428627420083E+00 -0.5980261821635E+00  0.0000000000000E+00 -0.1872384516272E+00
 0.4494080791234E-01 -0.1218268354407E+00  0.0000000000000E+00 -0.2028456544079E+00
 0.1006800824577E+00 -0.1742772507709E+00  0.0000000000000E+00 -0.1803439202703E+00
 0.1514970291249E+00 -0.2220594591307E+00  0.0000000000000E+00 -0.1623888939465E+00
 0.1979396785315E+00 -0.2657080654227E+00  0.0000000000000E+00 -0.1478422287787E+00
 0.2404073146024E+00 -0.3056139276543E+00  0.0000000000000E+00 -0.1359340031825E+00
 0.2792049284633E+00 -0.3420773865240E+00  0.0000000000000E+00 -0.1261725760509E+00
 0.3145811128639E+00 -0.3753452459391E+00  0.0000000000000E+00 -0.1182680636852E+00
 0.3467542001738E+00 -0.4056362069659E+00  0.0000000000000E+00 -0.1120694791196E+00
 0.3759293174152E+00 -0.4331574323580E+00  0.0000000000000E+00 -0.1075123846143E+00
 0.4023078103732E+00 -0.4581137188219E+00  0.0000000000000E+00 -0.1045784312912E+00
 0.4260902817616E+00 -0.4807104503850E+00  0.0000000000000E+00 -0.1032686074489E+00
 0.4474742263158E+00 -0.5011511384829E+00  0.0000000000000E+00 -0.1035887998436E+00
 0.4666477542566E+00 -0.5196309629035E+00  0.0000000000000E+00 -0.1055458997661E+00
 0.4837834689155E+00 -0.5363304632616E+00  0.0000000000000E+00 -0.1091526100945E+00
 0.4990362643105E+00 -0.5514132647147E+00  0.0000000000000E+00 -0.1144373286613E+00
 0.5125469609897E+00 -0.5650297295613E+00  0.0000000000000E+00 -0.1214556598396E+00
 0.5244528094435E+00 -0.5773274241889E+00  0.0000000000000E+00 -0.1302991344497E+00
 0.5349051116722E+00 -0.5884684994366E+00  0.0000000000000E+00 -0.1410893758777E+00
 0.5440845447385E+00 -0.5986447847714E+00  0.0000000000000E+00 -0.1539310544724E+00
 0.5522064039515E+00 -0.6080829302703E+00  0.0000000000000E+00 -0.1688334501855E+00
 0.4382994167652E-01 -0.1211440350165E+00  0.0000000000000E+00 -0.1765680186889E+00
 0.1004182098613E+00 -0.1743982277028E+00  0.0000000000000E+00 -0.1568282506929E+00
 0.1518712709842E+00 -0.2227839381193E+00  0.0000000000000E+00 -0.1411383490331E+00
 0.1988082354671E+00 -0.2669046608315E+00  0.0000000000000E+00 -0.1284872673869E+00
 0.2416836768503E+00 -0.3072047089716E+00  0.0000000000000E+00 -0.1181854053420E+00
 0.2808435396452E+00 -0.3440238831132E+00  0.0000000000000E+00 -0.1097878837572E+00
 0.3165653475385E+00 -0.3776367265241E+00  0.0000000000000E+00 -0.1030285792229E+00
 0.3490865931500E+00 -0.4082801723399E+00  0.0000000000000E+00 -0.9776542093151E-01
 0.3786238453117E+00 -0.4361721162486E+00  0.0000000000000E+00 -0.9393487647547E-01
 0.4053841476310E+00 -0.4615225082781E+00  0.0000000000000E+00 -0.9151669513961E-01
 0.4295699043094E+00 -0.4845381095961E+00  0.0000000000000E+00 -0.9051028165846E-01
 0.4513783167019E+00 -0.5054218241960E+00  0.0000000000000E+00 -0.9092183905113E-01
 0.4709970179458E+00 -0.5243681668632E+00  0.0000000000000E+00 -0.9276086769882E-01
 0.4885997437651E+00 -0.5415587627840E+00  0.0000000000000E+00 -0.9604395828037E-01
 0.5043453017504E+00 -0.5571612481704E+00  0.0000000000000E+00 -0.1008022656907E+00
 0.5183812351610E+00 -0.5713329550802E+00  0.0000000000000E+00 -0.1070893158633E+00
 0.5308524431203E+00 -0.5842295357908E+00  0.0000000000000E+00 -0.1149850996384E+00
 0.5419139401074E+00 -0.5960176141316E+00  0.0000000000000E+00 -0.1245868488017E+00
 0.5517398149246E+00 -0.6068837104000E+00  0.0000000000000E+00 -0.1359672481605E+00
 0.5605204292032E+00 -0.6170316116395E+00  0.0000000000000E+00 -0.1491065551115E+00
 0.4287413999719E-01 -0.1205600428952E+00  0.0000000000000E+00 -0.1499658169377E+00
 0.1002041838093E+00 -0.1745164416817E+00  0.0000000000000E+00 -0.1330885620949E+00
 0.1522132159189E+00 -0.2234294807097E+00  0.0000000000000E+00 -0.1197177144094E+00
 0.1995816490414E+00 -0.2679620755488E+00  0.0000000000000E+00 -0.1089799667473E+00
 0.2428118960332E+00 -0.3086047989197E+00  0.0000000000000E+00 -0.1002756770208E+00
 0.2822855374053E+00 -0.3457317990444E+00  0.0000000000000E+00 -0.9321484188260E-01
 0.3183054511766E+00 -0.3796419452631E+00  0.0000000000000E+00 -0.8756151582484E-01
 0.3511261056110E+00 -0.4105883444345E+00  0.0000000000000E+00 -0.8318738294846E-01
 0.3809744216719E+00 -0.4387986292392E+00  0.0000000000000E+00 -0.8003314387891E-01
 0.4080628505027E+00 -0.4644876817332E+00  0.0000000000000E+00 -0.7807854514257E-01
 0.4325958380882E+00 -0.4878639329437E+00  0.0000000000000E+00 -0.7732208179054E-01
 0.4547708143901E+00 -0.5091302418206E+00  0.0000000000000E+00 -0.7776986313484E-01
 0.4747754468543E+00 -0.5284809997140E+00  0.0000000000000E+00 -0.7943251119925E-01
 0.4927847679785E+00 -0.5460991032470E+00  0.0000000000000E+00 -0.8232802720754E-01
 0.5089609967223E+00 -0.5621557122785E+00  0.0000000000000E+00 -0.8648724671993E-01
 0.5234570186977E+00 -0.5768137577982E+00  0.0000000000000E+00 -0.9195883160893E-01
 0.5364232312741E+00 -0.5902348282182E+00  0.0000000000000E+00 -0.9881029926987E-01
 0.5480162806875E+00 -0.6025879063692E+00  0.0000000000000E+00 -0.1071174825040E+00
 0.5584029130214E+00 -0.6140533306215E+00  0.0000000000000E+00 -0.1169287967342E+00
 0.5677513674804E+00 -0.6248145538111E+00  0.0000000000000E+00 -0.1282091179035E+00
 0.4207500149987E-01 -0.1200742017681E+00  0.0000000000000E+00 -0.1230853130781E+00
 0.1000331421913E+00 -0.1746251488344E+00  0.0000000000000E+00 -0.1091568436383E+00
 0.1525130568918E+00 -0.2239847162009E+00  0.0000000000000E+00 -0.9815168692388E-01
 0.2002465362391E+00 -0.2688656260698E+00  0.0000000000000E+00 -0.8934314510816E-01
 0.2437761865333E+00 -0.3097973230723E+00  0.0000000000000E+00 -0.8222963270545E-01
 0.2835136619057E+00 -0.3471829495416E+00  0.0000000000000E+00 -0.7648283675370E-01
 0.3197833593415E+00 -0.3813420316752E+00  0.0000000000000E+00 -0.7190239151010E-01
 0.3528542817649E+00 -0.4125415378424E+00  0.0000000000000E+00 -0.6837780727909E-01
 0.3829623620552E+00 -0.4410175946217E+00  0.0000000000000E+00 -0.6585681146367E-01
 0.4103249316710E+00 -0.4669895624049E+00  0.0000000000000E+00 -0.6432073188049E-01
 0.4351484958905E+00 -0.4906676168592E+00  0.0000000000000E+00 -0.6376768586736E-01
 0.4576310163711E+00 -0.5122549188621E+00  0.0000000000000E+00 -0.6420329000567E-01
 0.4779604925351E+00 -0.5319460639605E+00  0.0000000000000E+00 -0.6563799991041E-01
 0.4963132416509E+00 -0.5499252237241E+00  0.0000000000000E+00 -0.6808918267143E-01
 0.5128543247731E+00 -0.5663665142354E+00  0.0000000000000E+00 -0.7158494720046E-01
 0.5277407393007E+00 -0.5814372233849E+00  0.0000000000000E+00 -0.7616710782864E-01
 0.5411266922366E+00 -0.5953031563389E+00  0.0000000000000E+00 -0.8189041270916E-01
 0.5531691143087E+00 -0.6081342290328E+00  0.0000000000000E+00 -0.8881223468178E-01
 0.5640275962052E+00 -0.6201046165412E+00  0.0000000000000E+00 -0.9696331750987E-01
 0.5738518892102E+00 -0.6313807456815E+00  0.0000000000000E+00 -0.1063034087431E+00
 0.4143392283920E-01 -0.1196860245476E+00  0.0000000000000E+00 -0.9597460347669E-01
 0.9990107143758E-01 -0.1747187648135E+00  0.0000000000000E+00 -0.8506633326647E-01
 0.1527626547014E+00 -0.2244401995725E+00  0.0000000000000E+00 -0.7646570909530E-01
 0.2007917702152E+00 -0.2696030986805E+00  0.0000000000000E+00 -0.6959992837283E-01
 0.2445633992438E+00 -0.3107682210745E+00  0.0000000000000E+00 -0.6407205719953E-01
 0.2845135023295E+00 -0.3483621480030E+00  0.0000000000000E+00 -0.5962101889873E-01
 0.3209839465993E+00 -0.3827211825318E+00  0.0000000000000E+00 -0.5608642901057E-01
 0.3542556167196E+00 -0.4141236328873E+00  0.0000000000000E+00 -0.5337893744863E-01
 0.3845719080861E+00 -0.4428126702175E+00  0.0000000000000E+00 -0.5145556457270E-01
 0.4121543036538E+00 -0.4690114813645E+00  0.0000000000000E+00 -0.5030049441888E-01
 0.4372111932493E+00 -0.4929318722864E+00  0.0000000000000E+00 -0.4991187368621E-01
 0.4599411874443E+00 -0.5147774685312E+00  0.0000000000000E+00 -0.5029446931203E-01
 0.4805327437599E+00 -0.5347432245809E+00  0.0000000000000E+00 -0.5145750905593E-01
 0.4991633262322E+00 -0.5530144587694E+00  0.0000000000000E+00 -0.5341610455428E-01
 0.5160002465754E+00 -0.5697676428026E+00  0.0000000000000E+00 -0.5619381722262E-01
 0.5312035441826E+00 -0.5851733227976E+00  0.0000000000000E+00 -0.5982425701043E-01
 0.5449299542893E+00 -0.5994001830772E+00  0.0000000000000E+00 -0.6434950541548E-01
 0.5573359452443E+00 -0.6126182185115E+00  0.0000000000000E+00 -0.6981114248850E-01
 0.5685747889763E+00 -0.6249960849801E+00  0.0000000000000E+00 -0.7622760068302E-01
 0.5787816201646E+00 -0.6366867263278E+00  0.0000000000000E+00 -0.8356090697773E-01
 0.4095206260802E-01 -0.1193951618378E+00  0.0000000000000E+00 -0.6868329198913E-01
 0.9980478502153E-01 -0.1747928453763E+00  0.0000000000000E+00 -0.6085128572661E-01
 0.1529555173055E+00 -0.2247883929863E+00  0.0000000000000E+00 -0.5468582840864E-01
 0.2012084627116E+00 -0.2701647341155E+00  0.0000000000000E+00 -0.4977369941454E-01
 0.2451630147738E+00 -0.3115062424871E+00  0.0000000000000E+00 -0.4582773023332E-01
 0.2852735086952E+00 -0.3492572210834E+00  0.0000000000000E+00 -0.4265837759651E-01
 0.3218950628659E+00 -0.3837667021238E+00  0.0000000000000E+00 -0.4014865072464E-01
 0.3553176215642E+00 -0.4153216450095E+00  0.0000000000000E+00 -0.3823290421172E-01
 0.3857903251723E+00 -0.4441706503735E+00  0.0000000000000E+00 -0.3687919968820E-01
 0.4135379155388E+00 -0.4705399182858E+00  0.0000000000000E+00 -0.3607555363030E-01
 0.4387703352700E+00 -0.4946426155589E+00  0.0000000000000E+00 -0.3582044065770E-01
 0.4616868117167E+00 -0.5166828463919E+00  0.0000000000000E+00 -0.3611748430341E-01
 0.4824762550593E+00 -0.5368559456291E+00  0.0000000000000E+00 -0.3697386027665E-01
 0.5013170516779E+00 -0.5553481587432E+00  0.0000000000000E+00 -0.3840120400975E-01
 0.5183781770868E+00 -0.5723377080089E+00  0.0000000000000E+00 -0.4041721431769E-01
 0.5338217962578E+00 -0.5879974386927E+00  0.0000000000000E+00 -0.4304641415506E-01
 0.5478062315923E+00 -0.6024978990097E+00  0.0000000000000E+00 -0.4631851350685E-01
 0.5604872088819E+00 -0.6160087579597E+00  0.0000000000000E+00 -0.5026152683453E-01
 0.5720129456226E+00 -0.6286942162656E+00  0.0000000000000E+00 -0.5488569533536E-01
 0.5825077800374E+00 -0.6406972417908E+00  0.0000000000000E+00 -0.6016048766640E-01
 0.4063031477363E-01 -0.1192013752113E+00  0.0000000000000E+00 -0.4126214188908E-01
 0.9974190748207E-01 -0.1748440707923E+00  0.0000000000000E+00 -0.3654672794104E-01
 0.1530867867376E+00 -0.2250236530398E+00  0.0000000000000E+00 -0.3283854667739E-01
 0.2014899546331E+00 -0.2705432187695E+00  0.0000000000000E+00 -0.2988803301016E-01
 0.2455671428795E+00 -0.3120029472485E+00  0.0000000000000E+00 -0.2752142935351E-01
 0.2857850056158E+00 -0.3498590240082E+00  0.0000000000000E+00 -0.2562378727878E-01
 0.3225075662214E+00 -0.3844690371373E+00  0.0000000000000E+00 -0.2412394130330E-01
 0.3560308794312E+00 -0.4161257832225E+00  0.0000000000000E+00 -0.2298177605207E-01
 0.3866079863552E+00 -0.4450815523291E+00  0.0000000000000E+00 -0.2217763483422E-01
 0.4144658709615E+00 -0.4715646220243E+00  0.0000000000000E+00 -0.2170405486959E-01
 0.4398155777023E+00 -0.4957891325158E+00  0.0000000000000E+00 -0.2156004223312E-01
 0.4628568068414E+00 -0.5179595689595E+00  0.0000000000000E+00 -0.2174785978386E-01
 0.4837788210198E+00 -0.5382715715512E+00  0.0000000000000E+00 -0.2227204571390E-01
 0.5027606485246E+00 -0.5569120332281E+00  0.0000000000000E+00 -0.2313991232074E-01
 0.5199723586457E+00 -0.5740603317213E+00  0.0000000000000E+00 -0.2436241443556E-01
 0.5355774550898E+00 -0.5898907720196E+00  0.0000000000000E+00 -0.2595445280567E-01
 0.5497351692842E+00 -0.6045750018590E+00  0.0000000000000E+00 -0.2793369141530E-01
 0.5626005451779E+00 -0.6182822907267E+00  0.0000000000000E+00 -0.3031624875236E-01
 0.5743182857175E+00 -0.6311737231045E+00  0.0000000000000E+00 -0.3310709588876E-01
 0.5850056113182E+00 -0.6433856793686E+00  0.0000000000000E+00 -0.3628656272052E-01
 0.4046928717491E-01 -0.1191045171033E+00  0.0000000000000E+00 -0.1376275532426E-01
 0.9971086194111E-01 -0.1748702342492E+00  0.0000000000000E+00 -0.1218824392869E-01
 0.1531532292070E+00 -0.2251422218814E+00  0.0000000000000E+00 -0.1095069499078E-01
 0.2016318093676E+00 -0.2707336791517E+00  0.0000000000000E+00 -0.9966647824770E-02
 0.2457705224045E+00 -0.3122527069884E+00  0.0000000000000E+00 -0.9177940624146E-02
 0.2860422027152E+00 -0.3501614526539E+00  0.0000000000000E+00 -0.8546053660805E-02
 0.3228153474278E+00 -0.3848218031079E+00  0.0000000000000E+00 -0.8047103398820E-02
 0.3563890877449E+00 -0.4165294944734E+00  0.0000000000000E+00 -0.7667596845387E-02
 0.3870184364065E+00 -0.4455386825123E+00  0.0000000000000E+00 -0.7400899680774E-02
 0.4149315193629E+00 -0.4720787042193E+00  0.0000000000000E+00 -0.7244479065706E-02
 0.4403399520351E+00 -0.4963642064118E+00  0.0000000000000E+00 -0.7197990772518E-02
 0.4634436896008E+00 -0.5185998832410E+00  0.0000000000000E+00 -0.7262204001647E-02
 0.4844321858703E+00 -0.5389815428641E+00  0.0000000000000E+00 -0.7438670160218E-02
 0.5034847976451E+00 -0.5576964102332E+00  0.0000000000000E+00 -0.7729881276230E-02
 0.5207721356885E+00 -0.5749244365420E+00  0.0000000000000E+00 -0.8139543641526E-02
 0.5364583487857E+00 -0.5908406338970E+00  0.0000000000000E+00 -0.8672653386322E-02
 0.5507030777687E+00 -0.6056171564214E+00  0.0000000000000E+00 -0.9335069232995E-02
 0.5636609697123E+00 -0.6194230191702E+00  0.0000000000000E+00 -0.1013204723978E-01
 0.5754749249108E+00 -0.6324177031615E+00  0.0000000000000E+00 -0.1106504639066E-01
 0.5862586198782E+00 -0.6447343036055E+00  0.0000000000000E+00 -0.1212727393004E-01
 0.4046928720573E-01 -0.1191045171229E+00  0.0000000000000E+00  0.1376276525152E-01
 0.9971086194883E-01 -0.1748702342479E+00  0.0000000000000E+00  0.1218825181877E-01
 0.1531532292004E+00 -0.2251422218677E+00  0.0000000000000E+00  0.1095070126896E-01
 0.2016318093527E+00 -0.2707336791310E+00  0.0000000000000E+00  0.9966652807127E-02
 0.2457705223852E+00 -0.3122527069644E+00  0.0000000000000E+00  0.9177944552228E-02
 0.2860422026942E+00 -0.3501614526291E+00  0.0000000000000E+00  0.8546056725030E-02
 0.3228153474070E+00 -0.3848218030843E+00  0.0000000000000E+00  0.8047105754326E-02
 0.3563890877257E+00 -0.4165294944521E+00  0.0000000000000E+00  0.7667598622355E-02
 0.3870184363900E+00 -0.4455386824943E+00  0.0000000000000E+00  0.7400900991302E-02
 0.4149315193497E+00 -0.4720787042050E+00  0.0000000000000E+00  0.7244480008043E-02
 0.4403399520251E+00 -0.4963642064012E+00  0.0000000000000E+00  0.7197991432782E-02
 0.4634436895940E+00 -0.5185998832339E+00  0.0000000000000E+00  0.7262204453230E-02
 0.4844321858661E+00 -0.5389815428598E+00  0.0000000000000E+00  0.7438670462357E-02
 0.5034847976429E+00 -0.5576964102309E+00  0.0000000000000E+00  0.7729881473977E-02
 0.5207721356878E+00 -0.5749244365412E+00  0.0000000000000E+00  0.8139543767385E-02
 0.5364583487859E+00 -0.5908406338972E+00  0.0000000000000E+00  0.8672653463023E-02
 0.5507030777696E+00 -0.6056171564223E+00  0.0000000000000E+00  0.9335069275673E-02
 0.5636609697137E+00 -0.6194230191716E+00  0.0000000000000E+00  0.1013204725758E-01
 0.5754749249127E+00 -0.6324177031634E+00  0.0000000000000E+00  0.1106504638665E-01
 0.5862586198807E+00 -0.6447343036080E+00  0.0000000000000E+00  0.1212727390175E-01
 0.4063031486603E-01 -0.1192013752702E+00  0.0000000000000E+00  0.4126215179775E-01
 0.9974190750534E-01 -0.1748440707887E+00  0.0000000000000E+00  0.3654673581939E-01
 0.1530867867182E+00 -0.2250236529988E+00  0.0000000000000E+00  0.3283855294754E-01
 0.2014899545886E+00 -0.2705432187077E+00  0.0000000000000E+00  0.2988803798625E-01
 0.2455671428217E+00 -0.3120029471768E+00  0.0000000000000E+00  0.2752143327608E-01
 0.2857850055528E+00 -0.3498590239343E+00  0.0000000000000E+00  0.2562379033785E-01
 0.3225075661591E+00 -0.3844690370664E+00  0.0000000000000E+00  0.2412394365399E-01
 0.3560308793738E+00 -0.4161257831587E+00  0.0000000000000E+00  0.2298177782469E-01
 0.3866079863058E+00 -0.4450815522752E+00  0.0000000000000E+00  0.2217763614103E-01
 0.4144658709217E+00 -0.4715646219815E+00  0.0000000000000E+00  0.2170405580890E-01
 0.4398155776726E+00 -0.4957891324843E+00  0.0000000000000E+00  0.2156004289103E-01
 0.4628568068210E+00 -0.5179595689381E+00  0.0000000000000E+00  0.2174786023359E-01
 0.4837788210072E+00 -0.5382715715382E+00  0.0000000000000E+00  0.2227204601453E-01
 0.5027606485181E+00 -0.5569120332215E+00  0.0000000000000E+00  0.2313991251716E-01
 0.5199723586435E+00 -0.5740603317191E+00  0.0000000000000E+00  0.2436241456020E-01
 0.5355774550904E+00 -0.5898907720204E+00  0.0000000000000E+00  0.2595445288121E-01
 0.5497351692869E+00 -0.6045750018617E+00  0.0000000000000E+00  0.2793369145696E-01
 0.5626005451821E+00 -0.6182822907310E+00  0.0000000000000E+00  0.3031624876935E-01
 0.5743182857234E+00 -0.6311737231102E+00  0.0000000000000E+00  0.3310709588426E-01
 0.5850056113260E+00 -0.6433856793762E+00  0.0000000000000E+00  0.3628656269206E-01
 0.4095206276184E-01 -0.1193951619359E+00  0.0000000000000E+00  0.6868330186074E-01
 0.9980478506073E-01 -0.1747928453709E+00  0.0000000000000E+00  0.6085129358157E-01
 0.1529555172738E+00 -0.2247883929188E+00  0.0000000000000E+00  0.5468583466275E-01
 0.2012084626383E+00 -0.2701647340133E+00  0.0000000000000E+00  0.4977370437811E-01
 0.2451630146784E+00 -0.3115062423685E+00  0.0000000000000E+00  0.4582773414486E-01
 0.2852735085910E+00 -0.3492572209609E+00  0.0000000000000E+00  0.4265838064526E-01
 0.3218950627628E+00 -0.3837667020065E+00  0.0000000000000E+00  0.4014865306567E-01
 0.3553176214691E+00 -0.4153216449038E+00  0.0000000000000E+00  0.3823290597565E-01
 0.3857903250904E+00 -0.4441706502840E+00  0.0000000000000E+00  0.3687920098760E-01
 0.4135379154730E+00 -0.4705399182148E+00  0.0000000000000E+00  0.3607555456360E-01
 0.4387703352208E+00 -0.4946426155067E+00  0.0000000000000E+00  0.3582044131090E-01
 0.4616868116830E+00 -0.5166828463565E+00  0.0000000000000E+00  0.3611748474946E-01
 0.4824762550386E+00 -0.5368559456076E+00  0.0000000000000E+00  0.3697386057427E-01
 0.5013170516672E+00 -0.5553481587323E+00  0.0000000000000E+00  0.3840120420350E-01
 0.5183781770832E+00 -0.5723377080054E+00  0.0000000000000E+00  0.4041721443984E-01
 0.5338217962591E+00 -0.5879974386942E+00  0.0000000000000E+00  0.4304641422828E-01
 0.5478062315968E+00 -0.6024978990144E+00  0.0000000000000E+00  0.4631851354650E-01
 0.5604872088890E+00 -0.6160087579669E+00  0.0000000000000E+00  0.5026152684997E-01
 0.5720129456323E+00 -0.6286942162752E+00  0.0000000000000E+00  0.5488569532995E-01
 0.5825077800503E+00 -0.6406972418034E+00  0.0000000000000E+00  0.6016048763769E-01
 0.4143392305414E-01 -0.1196860246850E+00  0.0000000000000E+00  0.9597461329305E-01
 0.9990107149332E-01 -0.1747187648071E+00  0.0000000000000E+00  0.8506634108653E-01
 0.1527626546586E+00 -0.2244401994799E+00  0.0000000000000E+00  0.7646571532545E-01
 0.2007917701144E+00 -0.2696030985395E+00  0.0000000000000E+00  0.6959993331764E-01
 0.2445633991120E+00 -0.3107682209105E+00  0.0000000000000E+00  0.6407206109452E-01
 0.2845135021854E+00 -0.3483621478334E+00  0.0000000000000E+00  0.5962102193200E-01
 0.3209839464563E+00 -0.3827211823690E+00  0.0000000000000E+00  0.5608643133712E-01
 0.3542556165877E+00 -0.4141236327406E+00  0.0000000000000E+00  0.5337893919953E-01
 0.3845719079724E+00 -0.4428126700932E+00  0.0000000000000E+00  0.5145556586099E-01
 0.4121543035624E+00 -0.4690114812660E+00  0.0000000000000E+00  0.5030049534321E-01
 0.4372111931812E+00 -0.4929318722139E+00  0.0000000000000E+00  0.4991187433242E-01
 0.4599411873978E+00 -0.5147774684822E+00  0.0000000000000E+00  0.5029446975260E-01
 0.4805327437314E+00 -0.5347432245513E+00  0.0000000000000E+00  0.5145750934909E-01
 0.4991633262177E+00 -0.5530144587545E+00  0.0000000000000E+00  0.5341610474408E-01
 0.5160002465708E+00 -0.5697676427980E+00  0.0000000000000E+00  0.5619381734109E-01
 0.5312035441846E+00 -0.5851733227999E+00  0.0000000000000E+00  0.5982425708020E-01
 0.5449299542958E+00 -0.5994001830840E+00  0.0000000000000E+00  0.6434950545212E-01
 0.5573359452544E+00 -0.6126182185216E+00  0.0000000000000E+00  0.6981114250164E-01
 0.5685747889900E+00 -0.6249960849937E+00  0.0000000000000E+00  0.7622760067629E-01
 0.5787816201827E+00 -0.6366867263455E+00  0.0000000000000E+00  0.8356090694886E-01
 0.4207500177556E-01 -0.1200742019449E+00  0.0000000000000E+00  0.1230853228213E+00
 0.1000331422644E+00 -0.1746251488283E+00  0.0000000000000E+00  0.1091568514122E+00
 0.1525130568395E+00 -0.2239847160849E+00  0.0000000000000E+00  0.9815169312224E-01
 0.2002465361127E+00 -0.2688656258920E+00  0.0000000000000E+00  0.8934315002799E-01
 0.2437761863671E+00 -0.3097973228649E+00  0.0000000000000E+00  0.8222963657833E-01
 0.2835136617233E+00 -0.3471829493266E+00  0.0000000000000E+00  0.7648283976626E-01
 0.3197833591601E+00 -0.3813420314685E+00  0.0000000000000E+00  0.7190239381732E-01
 0.3528542815973E+00 -0.4125415376558E+00  0.0000000000000E+00  0.6837780901264E-01
 0.3829623619106E+00 -0.4410175944635E+00  0.0000000000000E+00  0.6585681273720E-01
 0.4103249315548E+00 -0.4669895622796E+00  0.0000000000000E+00  0.6432073279294E-01
 0.4351484958040E+00 -0.4906676167670E+00  0.0000000000000E+00  0.6376768650434E-01
 0.4576310163121E+00 -0.5122549188000E+00  0.0000000000000E+00  0.6420329043905E-01
 0.4779604924993E+00 -0.5319460639232E+00  0.0000000000000E+00  0.6563800019770E-01
 0.4963132416329E+00 -0.5499252237057E+00  0.0000000000000E+00  0.6808918285604E-01
 0.5128543247677E+00 -0.5663665142301E+00  0.0000000000000E+00  0.7158494731407E-01
 0.5277407393037E+00 -0.5814372233883E+00  0.0000000000000E+00  0.7616710789384E-01
 0.5411266922452E+00 -0.5953031563479E+00  0.0000000000000E+00  0.8189041274181E-01
 0.5531691143217E+00 -0.6081342290461E+00  0.0000000000000E+00  0.8881223469188E-01
 0.5640275962228E+00 -0.6201046165586E+00  0.0000000000000E+00  0.9696331750138E-01
 0.5738518892334E+00 -0.6313807457043E+00  0.0000000000000E+00  0.1063034087137E+00
 0.4287414033313E-01 -0.1205600431115E+00  0.0000000000000E+00  0.1499658265905E+00
 0.1002041839010E+00 -0.1745164416775E+00  0.0000000000000E+00  0.1330885698116E+00
 0.1522132158591E+00 -0.2234294805727E+00  0.0000000000000E+00  0.1197177205683E+00
 0.1995816488918E+00 -0.2679620753369E+00  0.0000000000000E+00  0.1089799716360E+00
 0.2428118958349E+00 -0.3086047986714E+00  0.0000000000000E+00  0.1002756808660E+00
 0.2822855371867E+00 -0.3457317987862E+00  0.0000000000000E+00  0.9321484486925E-01
 0.3183054509586E+00 -0.3796419450143E+00  0.0000000000000E+00  0.8756151810787E-01
 0.3511261054093E+00 -0.4105883442097E+00  0.0000000000000E+00  0.8318738466034E-01
 0.3809744214976E+00 -0.4387986290485E+00  0.0000000000000E+00  0.8003314513408E-01
 0.4080628503627E+00 -0.4644876815822E+00  0.0000000000000E+00  0.7807854604028E-01
 0.4325958379841E+00 -0.4878639328329E+00  0.0000000000000E+00  0.7732208241612E-01
 0.4547708143195E+00 -0.5091302417462E+00  0.0000000000000E+00  0.7776986355938E-01
 0.4747754468117E+00 -0.5284809996698E+00  0.0000000000000E+00  0.7943251147934E-01
 0.4927847679575E+00 -0.5460991032256E+00  0.0000000000000E+00  0.8232802738577E-01
 0.5089609967165E+00 -0.5621557122729E+00  0.0000000000000E+00  0.8648724682755E-01
 0.5234570187020E+00 -0.5768137578030E+00  0.0000000000000E+00  0.9195883166850E-01
 0.5364232312850E+00 -0.5902348282297E+00  0.0000000000000E+00  0.9881029929755E-01
 0.5480162807035E+00 -0.6025879063856E+00  0.0000000000000E+00  0.1071174825103E+00
 0.5584029130429E+00 -0.6140533306429E+00  0.0000000000000E+00  0.1169287967237E+00
 0.5677513675088E+00 -0.6248145538391E+00  0.0000000000000E+00  0.1282091178740E+00
 0.4382994207218E-01 -0.1211440352726E+00  0.0000000000000E+00  0.1765680282348E+00
 0.1004182099730E+00 -0.1743982277025E+00  0.0000000000000E+00  0.1568282583418E+00
 0.1518712709195E+00 -0.2227839379643E+00  0.0000000000000E+00  0.1411383551449E+00
 0.1988082352971E+00 -0.2669046605887E+00  0.0000000000000E+00  0.1284872722382E+00
 0.2416836766227E+00 -0.3072047086855E+00  0.0000000000000E+00  0.1181854091540E+00
 0.2808435393931E+00 -0.3440238828146E+00  0.0000000000000E+00  0.1097878867127E+00
 0.3165653472861E+00 -0.3776367262356E+00  0.0000000000000E+00  0.1030285814769E+00
 0.3490865929158E+00 -0.4082801720787E+00  0.0000000000000E+00  0.9776542261742E-01
 0.3786238451092E+00 -0.4361721160268E+00  0.0000000000000E+00  0.9393487770871E-01
 0.4053841474683E+00 -0.4615225081024E+00  0.0000000000000E+00  0.9151669601981E-01
 0.4295699041888E+00 -0.4845381094675E+00  0.0000000000000E+00  0.9051028227056E-01
 0.4513783166204E+00 -0.5054218241101E+00  0.0000000000000E+00  0.9092183946527E-01
 0.4709970178972E+00 -0.5243681668127E+00  0.0000000000000E+00  0.9276086797047E-01
 0.4885997437417E+00 -0.5415587627602E+00  0.0000000000000E+00  0.9604395845112E-01
 0.5043453017448E+00 -0.5571612481651E+00  0.0000000000000E+00  0.1008022657912E+00
 0.5183812351669E+00 -0.5713329550868E+00  0.0000000000000E+00  0.1070893159162E+00
 0.5308524431338E+00 -0.5842295358050E+00  0.0000000000000E+00  0.1149850996601E+00
 0.5419139401266E+00 -0.5960176141512E+00  0.0000000000000E+00  0.1245868488035E+00
 0.5517398149500E+00 -0.6068837104255E+00  0.0000000000000E+00  0.1359672481475E+00
 0.5605204292368E+00 -0.6170316116726E+00  0.0000000000000E+00  0.1491065550817E+00
 0.4494080836708E-01 -0.1218268357368E+00  0.0000000000000E+00  0.2028456638308E+00
 0.1006800825911E+00 -0.1742772507768E+00  0.0000000000000E+00  0.1803439278413E+00
 0.1514970290582E+00 -0.2220594589611E+00  0.0000000000000E+00  0.1623889000040E+00
 0.1979396783447E+00 -0.2657080651528E+00  0.0000000000000E+00  0.1478422335867E+00
 0.2404073143491E+00 -0.3056139273341E+00  0.0000000000000E+00  0.1359340069557E+00
 0.2792049281807E+00 -0.3420773861883E+00  0.0000000000000E+00  0.1261725789699E+00
 0.3145811125798E+00 -0.3753452456137E+00  0.0000000000000E+00  0.1182680659052E+00
 0.3467541999093E+00 -0.4056362066705E+00  0.0000000000000E+00  0.1120694807753E+00
 0.3759293171863E+00 -0.4331574321069E+00  0.0000000000000E+00  0.1075123858221E+00
 0.4023078101892E+00 -0.4581137186231E+00  0.0000000000000E+00  0.1045784321512E+00
 0.4260902816255E+00 -0.4807104502398E+00  0.0000000000000E+00  0.1032686080455E+00
 0.4474742262244E+00 -0.5011511383865E+00  0.0000000000000E+00  0.1035888002458E+00
 0.4666477542028E+00 -0.5196309628475E+00  0.0000000000000E+00  0.1055459000281E+00
 0.4837834688905E+00 -0.5363304632360E+00  0.0000000000000E+00  0.1091526102567E+00
 0.4990362643056E+00 -0.5514132647102E+00  0.0000000000000E+00  0.1144373287538E+00
 0.5125469609977E+00 -0.5650297295702E+00  0.0000000000000E+00  0.1214556598848E+00
 0.5244528094597E+00 -0.5773274242061E+00  0.0000000000000E+00  0.1302991344646E+00
 0.5349051116946E+00 -0.5884684994597E+00  0.0000000000000E+00  0.1410893758745E+00
 0.5440845447677E+00 -0.5986447848009E+00  0.0000000000000E+00  0.1539310544570E+00
 0.5522064039903E+00 -0.6080829303087E+00  0.0000000000000E+00  0.1688334501560E+00
 0.4620497583757E-01 -0.1226093090546E+00  0.0000000000000E+00  0.2287546262448E+00
 0.1009955360169E+00 -0.1741614372066E+00  0.0000000000000E+00  0.2036050872138E+00
 0.1511019909525E+00 -0.2212693653392E+00  0.0000000000000E+00  0.1834455610041E+00
 0.1969916421123E+00 -0.2643894665492E+00  0.0000000000000E+00  0.1670224003148E+00
 0.2390012433872E+00 -0.3038521540382E+00  0.0000000000000E+00  0.1534965953807E+00
 0.2773898008313E+00 -0.3399134778501E+00  0.0000000000000E+00  0.1423392032081E+00
 0.3123737074808E+00 -0.3727893944499E+00  0.0000000000000E+00  0.1332440350767E+00
 0.3441502556480E+00 -0.4026786172589E+00  0.0000000000000E+00  0.1260568025071E+00
 0.3729123345871E+00 -0.4297768703865E+00  0.0000000000000E+00  0.1207160223604E+00
 0.3988555712219E+00 -0.4542838394087E+00  0.0000000000000E+00  0.1172074558669E+00
 0.4221792525357E+00 -0.4764040621559E+00  0.0000000000000E+00  0.1155345030269E+00
 0.4430819326523E+00 -0.4963424574575E+00  0.0000000000000E+00  0.1157023563514E+00
 0.4617529654725E+00 -0.5142956647403E+00  0.0000000000000E+00  0.1177136653584E+00
 0.4783642253595E+00 -0.5304435685972E+00  0.0000000000000E+00  0.1215743547421E+00
 0.4930663267007E+00 -0.5449454469419E+00  0.0000000000000E+00  0.1273062450591E+00
 0.5059918714076E+00 -0.5579432311081E+00  0.0000000000000E+00  0.1349632251245E+00
 0.5172677967374E+00 -0.5695737742900E+00  0.0000000000000E+00  0.1446465092328E+00
 0.5270387524980E+00 -0.5799918325989E+00  0.0000000000000E+00  0.1565049485526E+00
 0.5354899820482E+00 -0.5893925093236E+00  0.0000000000000E+00  0.1706837602504E+00
 0.5428627420523E+00 -0.5980261822072E+00  0.0000000000000E+00  0.1872384515979E+00
 0.4762056037534E-01 -0.1234925670773E+00  0.0000000000000E+00  0.2542533124750E+00
 0.1013712041575E+00 -0.1740599208965E+00  0.0000000000000E+00  0.2265830310580E+00
 0.1506993872516E+00 -0.2204289643762E+00  0.0000000000000E+00  0.2042856407746E+00
 0.1959821109590E+00 -0.2629685738080E+00  0.0000000000000E+00  0.1860057540504E+00
 0.2374865713737E+00 -0.3019419353198E+00  0.0000000000000E+00  0.1708481922208E+00
 0.2754210854316E+00 -0.3375563003734E+00  0.0000000000000E+00  0.1582575901527E+00
 0.3099669415376E+00 -0.3699940319001E+00  0.0000000000000E+00  0.1479199803579E+00
 0.3412988732765E+00 -0.3994324605076E+00  0.0000000000000E+00  0.1396841701191E+00
 0.3695970780564E+00 -0.4260555048693E+00  0.0000000000000E+00  0.1334960066941E+00
 0.3950517415871E+00 -0.4500580734392E+00  0.0000000000000E+00  0.1293478497473E+00
 0.4178615768949E+00 -0.4716446344418E+00  0.0000000000000E+00  0.1272464903749E+00
 0.4382272172235E+00 -0.4910225566342E+00  0.0000000000000E+00  0.1271961342182E+00
 0.4563403161402E+00 -0.5083910165336E+00  0.0000000000000E+00  0.1291935058283E+00
 0.4723727367441E+00 -0.5239299925458E+00  0.0000000000000E+00  0.1332345218402E+00
 0.4864706873573E+00 -0.5377943366113E+00  0.0000000000000E+00  0.1393298144057E+00
 0.4987570118549E+00 -0.5501160753446E+00  0.0000000000000E+00  0.1475265069698E+00
 0.5093451025543E+00 -0.5610181987009E+00  0.0000000000000E+00  0.1579323185309E+00
 0.5183689808538E+00 -0.5706441598241E+00  0.0000000000000E+00  0.1707257773454E+00
 0.5260148835983E+00 -0.5791888466081E+00  0.0000000000000E+00  0.1861019220240E+00
 0.5325481591035E+00 -0.5869246955333E+00  0.0000000000000E+00  0.2041824310209E+00
 0.4918559893660E-01 -0.1244780068834E+00  0.0000000000000E+00  0.2793029197275E+00
 0.1018146476677E+00 -0.1739830681358E+00  0.0000000000000E+00  0.2492511195999E+00
 0.1503042274892E+00 -0.2195555967473E+00  0.0000000000000E+00  0.2248877317064E+00
 0.1949314506615E+00 -0.2614676881906E+00  0.0000000000000E+00  0.2047707664874E+00
 0.2358871248810E+00 -0.2999087092295E+00  0.0000000000000E+00  0.1879636229897E+00
 0.2733245459176E+00 -0.3350329714815E+00  0.0000000000000E+00  0.1738969295871E+00
 0.3073874245025E+00 -0.3669869299569E+00  0.0000000000000E+00  0.1622585899501E+00
 0.3382268485108E+00 -0.3959255707153E+00  0.0000000000000E+00  0.1529076919590E+00
 0.3660102699767E+00 -0.4220210393976E+00  0.0000000000000E+00  0.1458022651660E+00
 0.3909230380233E+00 -0.4454641208309E+00  0.0000000000000E+00  0.1409439662110E+00
 0.4131642829295E+00 -0.4664602256980E+00  0.0000000000000E+00  0.1383440696058E+00
 0.4329379728413E+00 -0.4852204331768E+00  0.0000000000000E+00  0.1380056409347E+00
 0.4504394195829E+00 -0.5019478223711E+00  0.0000000000000E+00  0.1399178958199E+00
 0.4658415901778E+00 -0.5168236112723E+00  0.0000000000000E+00  0.1440633427613E+00
 0.4792865533996E+00 -0.5299985607612E+00  0.0000000000000E+00  0.1504360500728E+00
 0.4908859532121E+00 -0.5415934580432E+00  0.0000000000000E+00  0.1590697803881E+00
 0.5007358144199E+00 -0.5517137427234E+00  0.0000000000000E+00  0.1700736580950E+00
 0.5089542682305E+00 -0.5604864306427E+00  0.0000000000000E+00  0.1836574111173E+00
 0.5157229456158E+00 -0.5681007192107E+00  0.0000000000000E+00  0.2000757538275E+00
 0.5213263416250E+00 -0.5748465644505E+00  0.0000000000000E+00  0.2195382674074E+00
 0.5089808529979E-01 -0.1255673413386E+00  0.0000000000000E+00  0.3038677970843E+00
 0.1023343764056E+00 -0.1739424969613E+00  0.0000000000000E+00  0.2715851676693E+00
 0.1499333643904E+00 -0.2186687007675E+00  0.0000000000000E+00  0.2452320155725E+00
 0.1938624991748E+00 -0.2599117954745E+00  0.0000000000000E+00  0.2232965123953E+00
 0.2342295228550E+00 -0.2977808791910E+00  0.0000000000000E+00  0.2048174341555E+00
 0.2711287992856E+00 -0.3323735982610E+00  0.0000000000000E+00  0.1892255399569E+00
 0.3046645085747E+00 -0.3637987082753E+00  0.0000000000000E+00  0.1762214630343E+00
 0.3349635319774E+00 -0.3921884212907E+00  0.0000000000000E+00  0.1656825478912E+00
 0.3621810011548E+00 -0.4177036222736E+00  0.0000000000000E+00  0.1575842612139E+00
 0.3864983924571E+00 -0.4405319783316E+00  0.0000000000000E+00  0.1519403324551E+00
 0.4081164669442E+00 -0.4608810595334E+00  0.0000000000000E+00  0.1487676188813E+00
 0.4272439582222E+00 -0.4789670637690E+00  0.0000000000000E+00  0.1480680590682E+00
 0.4440814638565E+00 -0.4949985784323E+00  0.0000000000000E+00  0.1498220856722E+00
 0.4588046413205E+00 -0.5091596666708E+00  0.0000000000000E+00  0.1539955565880E+00
 0.4715522976764E+00 -0.5215979666682E+00  0.0000000000000E+00  0.1605600318227E+00
 0.4824238018415E+00 -0.5324221159419E+00  0.0000000000000E+00  0.1695274893657E+00
 0.4914934653210E+00 -0.5417158728844E+00  0.0000000000000E+00  0.1810005421933E+00
 0.4988567864158E+00 -0.5495832467076E+00  0.0000000000000E+00  0.1952196643098E+00
 0.5046825116596E+00 -0.5561996605379E+00  0.0000000000000E+00  0.2125082415820E+00
 0.5092664534999E+00 -0.5618648348255E+00  0.0000000000000E+00  0.2331866955665E+00
 0.5275599332396E-01 -0.1267626063638E+00  0.0000000000000E+00  0.3279157458698E+00
 0.1029398601588E+00 -0.1739510800215E+00  0.0000000000000E+00  0.2935638865014E+00
 0.1496055856785E+00 -0.2177899025251E+00  0.0000000000000E+00  0.2653006321244E+00
 0.1928007114889E+00 -0.2583287124977E+00  0.0000000000000E+00  0.2415627957682E+00
 0.2325433030837E+00 -0.2955899412450E+00  0.0000000000000E+00  0.2213837426299E+00
 0.2688653620562E+00 -0.3296113188187E+00  0.0000000000000E+00  0.2042105222029E+00
 0.3018302276874E+00 -0.3604627626591E+00  0.0000000000000E+00  0.1897686987248E+00
 0.3315406714909E+00 -0.3882539509440E+00  0.0000000000000E+00  0.1779626402721E+00
 0.3581405169665E+00 -0.4131356140144E+00  0.0000000000000E+00  0.1687907916363E+00
 0.3818087365446E+00 -0.4352937069082E+00  0.0000000000000E+00  0.1622815895732E+00
 0.4027491127417E+00 -0.4549393352654E+00  0.0000000000000E+00  0.1584583625057E+00
 0.4211766287782E+00 -0.4722952402103E+00  0.0000000000000E+00  0.1573220412804E+00
 0.4372989400014E+00 -0.4875772187440E+00  0.0000000000000E+00  0.1588435503639E+00
 0.4512964672415E+00 -0.5009742321459E+00  0.0000000000000E+00  0.1629695745869E+00
 0.4633065317733E+00 -0.5126326786950E+00  0.0000000000000E+00  0.1696432045395E+00
 0.4734160001631E+00 -0.5226490693136E+00  0.0000000000000E+00  0.1788442579283E+00
 0.4816729032900E+00 -0.5310812501842E+00  0.0000000000000E+00  0.1906568745682E+00
 0.4881417995449E+00 -0.5380021647418E+00  0.0000000000000E+00  0.2053481332910E+00
 0.4929672856384E+00 -0.5435623064511E+00  0.0000000000000E+00  0.2233161810733E+00
 0.4964447299871E+00 -0.5480596054378E+00  0.0000000000000E+00  0.2450146833629E+00
 0.5475725081455E-01 -0.1280661185772E+00  0.0000000000000E+00  0.3514183176393E+00
 0.1036415050169E+00 -0.1740229147894E+00  0.0000000000000E+00  0.3151695011489E+00
 0.1493417383417E+00 -0.2169431453501E+00  0.0000000000000E+00  0.2850782306641E+00
 0.1917743835519E+00 -0.2567493250144E+00  0.0000000000000E+00  0.2595503374906E+00
 0.2308611240394E+00 -0.2933706944137E+00  0.0000000000000E+00  0.2376360047177E+00
 0.2665687339759E+00 -0.3267823871883E+00  0.0000000000000E+00  0.2188172479694E+00
 0.2989192266445E+00 -0.3570151845838E+00  0.0000000000000E+00  0.2028583022590E+00
 0.3279922050521E+00 -0.3841573408684E+00  0.0000000000000E+00  0.1897001014798E+00
 0.3539219347183E+00 -0.4083512835799E+00  0.0000000000000E+00  0.1793697192768E+00
 0.3768867299098E+00 -0.4297831385965E+00  0.0000000000000E+00  0.1719124775546E+00
 0.3970949165583E+00 -0.4486690377064E+00  0.0000000000000E+00  0.1673584847256E+00
 0.4147690811988E+00 -0.4652395214330E+00  0.0000000000000E+00  0.1657076350897E+00
 0.4301255819462E+00 -0.4797190897041E+00  0.0000000000000E+00  0.1669213184942E+00
 0.4433520067731E+00 -0.4923039029655E+00  0.0000000000000E+00  0.1709260526137E+00
 0.4545871536034E+00 -0.5031421551892E+00  0.0000000000000E+00  0.1776317260629E+00
 0.4639068306879E+00 -0.5123200558487E+00  0.0000000000000E+00  0.1869741478612E+00
 0.4713287519945E+00 -0.5198660711046E+00  0.0000000000000E+00  0.1990014298169E+00
 0.4768769050286E+00 -0.5258127969516E+00  0.0000000000000E+00  0.2139967410923E+00
 0.4806568334953E+00 -0.5302709355505E+00  0.0000000000000E+00  0.2324336446782E+00
 0.4829479591727E+00 -0.5335209119680E+00  0.0000000000000E+00  0.2549195746580E+00
 0.5689964760901E-01 -0.1294803363251E+00  0.0000000000000E+00  0.3743511349405E+00
 0.1044505733053E+00 -0.1741732160497E+00  0.0000000000000E+00  0.3363887203118E+00
 0.1491649260341E+00 -0.2161548999365E+00  0.0000000000000E+00  0.3045528774308E+00
 0.1908150212518E+00 -0.2552079692674E+00  0.0000000000000E+00  0.2772410965146E+00
 0.2292190933663E+00 -0.2911615848573E+00  0.0000000000000E+00  0.2535466916931E+00
 0.2642765382143E+00 -0.3239263045513E+00  0.0000000000000E+00  0.2330086402336E+00
 0.2959686759359E+00 -0.3534946616381E+00  0.0000000000000E+00  0.2154453882305E+00
 0.3243539847833E+00 -0.3799357127408E+00  0.0000000000000E+00  0.2008446476561E+00
 0.3495598539436E+00 -0.4033863886965E+00  0.0000000000000E+00  0.1892676542281E+00
 0.3717663753931E+00 -0.4240354558074E+00  0.0000000000000E+00  0.1807779242974E+00
 0.3911880511757E+00 -0.4421056699830E+00  0.0000000000000E+00  0.1754115493523E+00
 0.4080560963208E+00 -0.4578362608100E+00  0.0000000000000E+00  0.1731666800030E+00
 0.4225966331057E+00 -0.4714612675794E+00  0.0000000000000E+00  0.1739955693270E+00
 0.4350066287409E+00 -0.4831859585196E+00  0.0000000000000E+00  0.1778059781109E+00
 0.4454305386355E+00 -0.4931644704117E+00  0.0000000000000E+00  0.1844733476963E+00
 0.4539374301758E+00 -0.5014774650268E+00  0.0000000000000E+00  0.1938783870956E+00
 0.4605130000347E+00 -0.5081234238545E+00  0.0000000000000E+00  0.2060088017034E+00
 0.4651305911408E+00 -0.5130852328692E+00  0.0000000000000E+00  0.2211420111229E+00
 0.4678371147715E+00 -0.5164139199101E+00  0.0000000000000E+00  0.2398171576585E+00
 0.4688761402001E+00 -0.5183516893210E+00  0.0000000000000E+00  0.2628137641704E+00
 0.5918057111086E-01 -0.1310074791648E+00  0.0000000000000E+00  0.3966942339789E+00
 0.1053789863293E+00 -0.1744181189385E+00  0.0000000000000E+00  0.3572142775318E+00
 0.1491008349297E+00 -0.2154544890095E+00  0.0000000000000E+00  0.3237175005366E+00
 0.1899579659347E+00 -0.2537431411851E+00  0.0000000000000E+00  0.2946186579402E+00
 0.2276572812267E+00 -0.2890052174857E+00  0.0000000000000E+00  0.2690866242417E+00
 0.2620297253119E+00 -0.3210860361059E+00  0.0000000000000E+00  0.2467440598926E+00
 0.2930181650461E+00 -0.3499423437322E+00  0.0000000000000E+00  0.2274810119384E+00
 0.3206634198098E+00 -0.3756277551857E+00  0.0000000000000E+00  0.2113426491972E+00
 0.3450898354629E+00 -0.3982776219433E+00  0.0000000000000E+00  0.1984294270129E+00
 0.3664824630688E+00 -0.4180865940368E+00  0.0000000000000E+00  0.1888231176260E+00
 0.3850637872956E+00 -0.4352858258476E+00  0.0000000000000E+00  0.1825632064653E+00
 0.4010741827411E+00 -0.4501236191644E+00  0.0000000000000E+00  0.1796438656119E+00
 0.4147495404158E+00 -0.4628432421184E+00  0.0000000000000E+00  0.1800082055647E+00
 0.4262971112300E+00 -0.4736595666101E+00  0.0000000000000E+00  0.1835487116029E+00
 0.4358714886556E+00 -0.4827364723500E+00  0.0000000000000E+00  0.1901120713409E+00
 0.4435433602793E+00 -0.4901580022194E+00  0.0000000000000E+00  0.1995193354350E+00
 0.4492706681491E+00 -0.4958984901607E+00  0.0000000000000E+00  0.2116688043236E+00
 0.4529693360042E+00 -0.4998865838941E+00  0.0000000000000E+00  0.2267910115629E+00
 0.4546013786567E+00 -0.5020869676373E+00  0.0000000000000E+00  0.2454552541896E+00
 0.4543479256911E+00 -0.5026732181301E+00  0.0000000000000E+00  0.2686283334281E+00
 0.6159635217843E-01 -0.1326487846779E+00  0.0000000000000E+00  0.4184322488710E+00
 0.1064388755269E+00 -0.1747739671313E+00  0.0000000000000E+00  0.3776481232056E+00
 0.1491784451160E+00 -0.2148750956174E+00  0.0000000000000E+00  0.3425725759362E+00
 0.1892434957001E+00 -0.2523985309826E+00  0.0000000000000E+00  0.3116685749286E+00
 0.2262204811783E+00 -0.2869492519467E+00  0.0000000000000E+00  0.2842238787814E+00
 0.2598728053622E+00 -0.3183081354321E+00  0.0000000000000E+00  0.2599776634753E+00
 0.2901095410513E+00 -0.3464016987966E+00  0.0000000000000E+00  0.2389108063280E+00
 0.3169590341186E+00 -0.3712732443334E+00  0.0000000000000E+00  0.2211358907683E+00
 0.3405476955706E+00 -0.3930618682501E+00  0.0000000000000E+00  0.2067973539735E+00
 0.3610697505640E+00 -0.4119723688883E+00  0.0000000000000E+00  0.1959935332348E+00
 0.3787577947112E+00 -0.4282464188238E+00  0.0000000000000E+00  0.1887622214469E+00
 0.3938614020642E+00 -0.4421413045623E+00  0.0000000000000E+00  0.1850887362355E+00
 0.4066247207261E+00 -0.4539076669997E+00  0.0000000000000E+00  0.1849051211722E+00
 0.4172639767196E+00 -0.4637680232368E+00  0.0000000000000E+00  0.1880927141777E+00
 0.4259454961421E+00 -0.4718970159627E+00  0.0000000000000E+00  0.1944807649230E+00
 0.4327525810259E+00 -0.4783908316743E+00  0.0000000000000E+00  0.2038465557379E+00
 0.4376319198155E+00 -0.4832203421620E+00  0.0000000000000E+00  0.2159788412244E+00
 0.4404493317904E+00 -0.4862710126027E+00  0.0000000000000E+00  0.2309942043521E+00
 0.4410517994834E+00 -0.4873939734000E+00  0.0000000000000E+00  0.2493955456622E+00
 0.4395130894961E+00 -0.4866409075016E+00  0.0000000000000E+00  0.2723206667155E+00
 0.6414097864085E-01 -0.1344015513204E+00  0.0000000000000E+00  0.4395580259487E+00
 0.1076421101579E+00 -0.1752578616189E+00  0.0000000000000E+00  0.3977085322804E+00
 0.1494316733815E+00 -0.2144546679372E+00  0.0000000000000E+00  0.3611306589472E+00
 0.1887189904058E+00 -0.2512262886025E+00  0.0000000000000E+00  0.3283782339371E+00
 0.2249590848855E+00 -0.2850466116532E+00  0.0000000000000E+00  0.2989204480954E+00
 0.2578538877696E+00 -0.3156429816316E+00  0.0000000000000E+00  0.2726570261318E+00
 0.2872868559123E+00 -0.3429184039646E+00  0.0000000000000E+00  0.2496730374253E+00
 0.3132799244148E+00 -0.3669125012326E+00  0.0000000000000E+00  0.2301597663300E+00
 0.3359685984136E+00 -0.3877752330009E+00  0.0000000000000E+00  0.2143100444646E+00
 0.3555618597077E+00 -0.4057273288264E+00  0.0000000000000E+00  0.2022347028811E+00
 0.3723050155296E+00 -0.4210234957929E+00  0.0000000000000E+00  0.1939613800803E+00
 0.3864566278064E+00 -0.4339296803394E+00  0.0000000000000E+00  0.1894584344697E+00
 0.3982661343884E+00 -0.4447007885167E+00  0.0000000000000E+00  0.1886405849565E+00
 0.4079539231494E+00 -0.4535613261595E+00  0.0000000000000E+00  0.1913798831977E+00
 0.4156959599960E+00 -0.4606932611586E+00  0.0000000000000E+00  0.1975024846248E+00
 0.4215897424540E+00 -0.4662067598298E+00  0.0000000000000E+00  0.2067677802338E+00
 0.4255986405223E+00 -0.4700863124644E+00  0.0000000000000E+00  0.2189089804014E+00
 0.4275939706597E+00 -0.4722543206311E+00  0.0000000000000E+00  0.2338594208669E+00
 0.4272928562437E+00 -0.4724373934386E+00  0.0000000000000E+00  0.2518093600113E+00
 0.4245844555715E+00 -0.4704765391186E+00  0.0000000000000E+00  0.2739341611761E+00
 0.6680057438468E-01 -0.1362571303386E+00  0.0000000000000E+00  0.4600637559768E+00
 0.1089973950980E+00 -0.1758772941236E+00  0.0000000000000E+00  0.4174522993930E+00
 0.1499067006380E+00 -0.2142517170359E+00  0.0000000000000E+00  0.3794278891562E+00
 0.1884423832089E+00 -0.2502862661585E+00  0.0000000000000E+00  0.3447228281681E+00
 0.2239279907097E+00 -0.2833554089522E+00  0.0000000000000E+00  0.3131324614720E+00
 0.2560253968373E+00 -0.3131452064001E+00  0.0000000000000E+00  0.2847218229967E+00
 0.2845965157767E+00 -0.3395407952344E+00  0.0000000000000E+00  0.2596958543182E+00
 0.3096650347975E+00 -0.3625854503232E+00  0.0000000000000E+00  0.2383402889805E+00
 0.3313858281391E+00 -0.3824517600609E+00  0.0000000000000E+00  0.2209011574324E+00
 0.3499899820321E+00 -0.3993834681362E+00  0.0000000000000E+00  0.2074917112710E+00
 0.3657381247590E+00 -0.4136506287543E+00  0.0000000000000E+00  0.1981178558022E+00
 0.3788978124835E+00 -0.4255279485980E+00  0.0000000000000E+00  0.1927201931099E+00
 0.3897206514217E+00 -0.4352713504360E+00  0.0000000000000E+00  0.1911843180868E+00
 0.3984225818076E+00 -0.4430988271614E+00  0.0000000000000E+00  0.1933645581370E+00
 0.4051791522466E+00 -0.4491866462851E+00  0.0000000000000E+00  0.1990993695217E+00
 0.4101014326258E+00 -0.4536563609710E+00  0.0000000000000E+00  0.2081598677949E+00
 0.4131480839666E+00 -0.4564938307342E+00  0.0000000000000E+00  0.2202736595218E+00
 0.4143222732667E+00 -0.4577172824402E+00  0.0000000000000E+00  0.2354827372344E+00
 0.4133888371890E+00 -0.4572606135258E+00  0.0000000000000E+00  0.2531862678884E+00
 0.4099082049898E+00 -0.4545558920794E+00  0.0000000000000E+00  0.2737442539312E+00
 0.6954139636195E-01 -0.1381124411043E+00  0.0000000000000E+00  0.4801251668361E+00
 0.1105438407901E+00 -0.1767242326287E+00  0.0000000000000E+00  0.4371230292994E+00
 0.1506882828099E+00 -0.2143470407239E+00  0.0000000000000E+00  0.3974474982003E+00
 0.1884715526502E+00 -0.2496403892384E+00  0.0000000000000E+00  0.3606653415040E+00
 0.2231869181238E+00 -0.2819364864621E+00  0.0000000000000E+00  0.3268171302404E+00
 0.2544467873944E+00 -0.3108791526513E+00  0.0000000000000E+00  0.2961042010279E+00
 0.2820877872521E+00 -0.3363193152308E+00  0.0000000000000E+00  0.2688883725093E+00
 0.3061512162694E+00 -0.3583294571531E+00  0.0000000000000E+00  0.2455917216324E+00
 0.3268294405311E+00 -0.3771222440323E+00  0.0000000000000E+00  0.2264985981429E+00
 0.3443814882790E+00 -0.3929686991409E+00  0.0000000000000E+00  0.2117082991347E+00
 0.3590856680744E+00 -0.4061571401291E+00  0.0000000000000E+00  0.2011927062385E+00
 0.3712193325348E+00 -0.4169713447432E+00  0.0000000000000E+00  0.1948521726056E+00
 0.3810343769473E+00 -0.4256668737008E+00  0.0000000000000E+00  0.1925273798127E+00
 0.3887349647715E+00 -0.4324476941334E+00  0.0000000000000E+00  0.1940335241076E+00
 0.3944732748640E+00 -0.4374635859198E+00  0.0000000000000E+00  0.1992049509909E+00
 0.3983562704718E+00 -0.4408150486276E+00  0.0000000000000E+00  0.2078921522199E+00
 0.4003436537069E+00 -0.4425021002830E+00  0.0000000000000E+00  0.2198265900149E+00
 0.4004216541152E+00 -0.4425536013645E+00  0.0000000000000E+00  0.2352857912630E+00
 0.3990357074483E+00 -0.4413090488402E+00  0.0000000000000E+00  0.2542775655857E+00
 0.3965290562618E+00 -0.4398655487161E+00  0.0000000000000E+00  0.2726735359649E+00
 0.3518474104213E+00 -0.5337540688371E+00  0.0000000000000E+00 -0.5414386199222E+00
 0.3572870663979E+00 -0.3921481530539E+00  0.0000000000000E+00  0.2252443893774E+00
 0.2104024874265E+00 -0.2368508675970E+00  0.0000000000000E+00  0.2043712280621E+00
 0.1380522319821E+00 -0.1570198257751E+00  0.0000000000000E+00  0.1580009714082E+00
 0.8755388789381E-01 -0.1008599564823E+00  0.0000000000000E+00  0.1179531302467E+00
 0.5054683679469E-01 -0.5850987389325E-01  0.0000000000000E+00  0.7397122611226E-01
 0.2461202775345E-01 -0.2768343390271E-01  0.0000000000000E+00  0.3492649762604E-01
 0.6990562853741E-02 -0.6957050578866E-02  0.0000000000000E+00  0.4414723721793E-02
-0.6598090609892E-02  0.8477646607337E-02  0.0000000000000E+00 -0.1728347734767E-01
-0.1809098453524E-01  0.2135743842047E-01  0.0000000000000E+00 -0.3074899937852E-01
-0.2807191176816E-01  0.3248561987549E-01  0.0000000000000E+00 -0.3725195487841E-01
-0.3651098296914E-01  0.4188448186063E-01  0.0000000000000E+00 -0.3787923388140E-01
-0.4312752139674E-01  0.4920042336176E-01  0.0000000000000E+00 -0.3369588829823E-01
-0.4736089534634E-01  0.5385826325337E-01  0.0000000000000E+00 -0.2501182139109E-01
-0.4867392116562E-01  0.5532310110092E-01  0.0000000000000E+00 -0.1243799375839E-01
-0.4630687388484E-01  0.5286198191922E-01  0.0000000000000E+00  0.2061524162227E-02
-0.3965867746596E-01  0.4529754277352E-01  0.0000000000000E+00  0.1852256955971E-01
-0.2813814982892E-01  0.3288914809792E-01  0.0000000000000E+00  0.4005813657270E-01
-0.1362352852482E-01  0.1763365230141E-01  0.0000000000000E+00  0.5990778960972E-01
 0.4326125184783E-02 -0.5178423486560E-03  0.0000000000000E+00  0.6908947474072E-01
 0.3217969693787E+00 -0.4335649286015E+00  0.0000000000000E+00 -0.7347896514312E+00
 0.3767825968662E+00 -0.4447886707359E+00  0.0000000000000E+00 -0.9433469501434E-01
 0.2631569389028E+00 -0.2943221283274E+00  0.0000000000000E+00  0.1198707164269E+00
 0.1771922345905E+00 -0.2001416459966E+00  0.0000000000000E+00  0.1273998322502E+00
 0.1224359946699E+00 -0.1389235421068E+00  0.0000000000000E+00  0.1042750745721E+00
 0.8257116233296E-01 -0.9365201884358E-01  0.0000000000000E+00  0.7191196103558E-01
 0.5384034307329E-01 -0.6032200020785E-01  0.0000000000000E+00  0.4031815412146E-01
 0.3297796955927E-01 -0.3605547114717E-01  0.0000000000000E+00  0.1378200225674E-01
 0.1681055040996E-01 -0.1765164800249E-01  0.0000000000000E+00 -0.7743968835422E-02
 0.3477393297394E-02 -0.2757879251250E-02  0.0000000000000E+00 -0.2334077226976E-01
-0.7945101495916E-02  0.9888903115466E-02  0.0000000000000E+00 -0.3256354953226E-01
-0.1775286696407E-01  0.2067897516533E-01  0.0000000000000E+00 -0.3564716094044E-01
-0.2592702494580E-01  0.2960672034336E-01  0.0000000000000E+00 -0.3321750847380E-01
-0.3210140523258E-01  0.3630183787079E-01  0.0000000000000E+00 -0.2563853634376E-01
-0.3570359622718E-01  0.4019004802639E-01  0.0000000000000E+00 -0.1332469394551E-01
-0.3621853775799E-01  0.4066458907297E-01  0.0000000000000E+00  0.2963894530567E-02
-0.3346147939415E-01  0.3762127897455E-01  0.0000000000000E+00  0.2231042152426E-01
-0.2595857033134E-01  0.2965157700729E-01  0.0000000000000E+00  0.4484364967177E-01
-0.1381451815957E-01  0.1706825732549E-01  0.0000000000000E+00  0.6559397944030E-01
 0.2243252671217E-02  0.9443532341109E-03  0.0000000000000E+00  0.7634389835410E-01
 0.2793044289190E+00 -0.3707333465026E+00  0.0000000000000E+00 -0.7641720553789E+00
 0.3557708039255E+00 -0.4218283662234E+00  0.0000000000000E+00 -0.2803488302438E+00
 0.2916728004310E+00 -0.3341304820180E+00  0.0000000000000E+00 -0.1600594936795E-01
 0.2145726657592E+00 -0.2418235791291E+00  0.0000000000000E+00  0.7464532679568E-01
 0.1563524098342E+00 -0.1763803881436E+00  0.0000000000000E+00  0.8145331307765E-01
 0.1142638045193E+00 -0.1285621465210E+00  0.0000000000000E+00  0.6394597216104E-01
 0.8315527520784E-01 -0.9287937369436E-01  0.0000000000000E+00  0.4041294211555E-01
 0.6001646427734E-01 -0.6624214252467E-01  0.0000000000000E+00  0.1802417084833E-01
 0.4179235099079E-01 -0.4551911657294E-01  0.0000000000000E+00 -0.1857004385950E-02
 0.2666691805428E-01 -0.2861648929650E-01  0.0000000000000E+00 -0.1802973644421E-01
 0.1368411306032E-01 -0.1429824735701E-01  0.0000000000000E+00 -0.2918044808359E-01
 0.2385480403508E-02 -0.1957384058918E-02  0.0000000000000E+00 -0.3465267094205E-01
-0.7398835553795E-02  0.8632849948899E-02  0.0000000000000E+00 -0.3447600049673E-01
-0.1550611502064E-01  0.1733609630331E-01  0.0000000000000E+00 -0.2876439769384E-01
-0.2151131651516E-01  0.2371619563941E-01  0.0000000000000E+00 -0.1765871444005E-01
-0.2499411856847E-01  0.2735313925653E-01  0.0000000000000E+00 -0.1695820745022E-02
-0.2579244467114E-01  0.2813638360907E-01  0.0000000000000E+00  0.1818226530588E-01
-0.2213730697912E-01  0.2438547259970E-01  0.0000000000000E+00  0.4127503600047E-01
-0.1313176395369E-01  0.1522002658188E-01  0.0000000000000E+00  0.6235431223751E-01
 0.1057273367109E-03  0.1978730253426E-02  0.0000000000000E+00  0.7333142884257E-01
 0.2448187874983E+00 -0.3256449989643E+00  0.0000000000000E+00 -0.7627694246171E+00
 0.3269728173766E+00 -0.3908178616304E+00  0.0000000000000E+00 -0.3914883289598E+00
 0.2997327749855E+00 -0.3465593299956E+00  0.0000000000000E+00 -0.1346598369103E+00
 0.2428134141971E+00 -0.2758001770863E+00  0.0000000000000E+00  0.6426062254312E-03
 0.1882687558518E+00 -0.2121007027799E+00  0.0000000000000E+00  0.4620230787601E-01
 0.1451697612913E+00 -0.1628411604993E+00  0.0000000000000E+00  0.4845269073620E-01
 0.1124498382476E+00 -0.1254131443220E+00  0.0000000000000E+00  0.3495905488053E-01
 0.8762230948898E-01 -0.9699087320928E-01  0.0000000000000E+00  0.1758904480523E-01
 0.6784235986186E-01 -0.7453625978909E-01  0.0000000000000E+00  0.1599903150509E-03
 0.5121182834919E-01 -0.5594185182731E-01  0.0000000000000E+00 -0.1549392168235E-01
 0.3676432756794E-01 -0.4002523779023E-01  0.0000000000000E+00 -0.2768378638638E-01
 0.2399621062370E-01 -0.2613374642531E-01  0.0000000000000E+00 -0.3517193973576E-01
 0.1262954945112E-01 -0.1389965855285E-01  0.0000000000000E+00 -0.3739276393367E-01
 0.2646000523414E-02 -0.3258382945677E-02  0.0000000000000E+00 -0.3409209584836E-01
-0.5679756130175E-02  0.5532039058646E-02  0.0000000000000E+00 -0.2518111807997E-01
-0.1200118709938E-01  0.1214271757061E-01  0.0000000000000E+00 -0.1097041011253E-01
-0.1619618353301E-01  0.1652926269005E-01  0.0000000000000E+00  0.7804625523792E-02
-0.1633282883472E-01  0.1680714819331E-01  0.0000000000000E+00  0.3000973288988E-01
-0.1083216211236E-01  0.1134583494789E-01  0.0000000000000E+00  0.5017414651196E-01
-0.8469553972364E-03  0.1342178554004E-02  0.0000000000000E+00  0.6003276397420E-01
 0.2169060083999E+00 -0.2915429119637E+00  0.0000000000000E+00 -0.7502672430485E+00
 0.2984590478296E+00 -0.3604770286014E+00  0.0000000000000E+00 -0.4613607325169E+00
 0.2965476007770E+00 -0.3456299527395E+00  0.0000000000000E+00 -0.2283615017833E+00
 0.2604621657295E+00 -0.2976601710223E+00  0.0000000000000E+00 -0.7577583746615E-01
 0.2154231976378E+00 -0.2433896225621E+00  0.0000000000000E+00 -0.7041840204076E-03
 0.1744624748974E+00 -0.1956424095739E+00  0.0000000000000E+00  0.2415914406602E-01
 0.1412874055623E+00 -0.1575460258734E+00  0.0000000000000E+00  0.2323596630246E-01
 0.1154323637197E+00 -0.1279614710847E+00  0.0000000000000E+00  0.1232650930903E-01
 0.9455529127614E-01 -0.1042627396251E+00  0.0000000000000E+00 -0.1754299892715E-02
 0.7678099209206E-01 -0.8436964020852E-01  0.0000000000000E+00 -0.1604876638362E-01
 0.6111627203646E-01 -0.6710593451619E-01  0.0000000000000E+00 -0.2848537213839E-01
 0.4704128801705E-01 -0.5181461818929E-01  0.0000000000000E+00 -0.3746752896714E-01
 0.3422608784289E-01 -0.3806402808501E-01  0.0000000000000E+00 -0.4196879909866E-01
 0.2252311764909E-01 -0.2564236958271E-01  0.0000000000000E+00 -0.4137631147723E-01
 0.1207477195094E-01 -0.1465802464312E-01  0.0000000000000E+00 -0.3535048016021E-01
 0.3146120041534E-02 -0.5339153550805E-02  0.0000000000000E+00 -0.2395852269637E-01
-0.4195420159836E-02  0.2333150603281E-02  0.0000000000000E+00 -0.7659906263554E-02
-0.7972389006318E-02  0.6401946013074E-02  0.0000000000000E+00  0.1220306365114E-01
-0.6092187506090E-02  0.4658770977980E-02  0.0000000000000E+00  0.2999880129449E-01
 0.5596086512610E-03 -0.2088781553615E-02  0.0000000000000E+00  0.3739971085835E-01
 0.1941788500035E+00 -0.2648792107603E+00  0.0000000000000E+00 -0.7338789992603E+00
 0.2724011312415E+00 -0.3331696634596E+00  0.0000000000000E+00 -0.5058194161115E+00
 0.2875726742004E+00 -0.3379987597042E+00  0.0000000000000E+00 -0.3002430832912E+00
 0.2695717741016E+00 -0.3099041048061E+00  0.0000000000000E+00 -0.1459393044098E+00
 0.2364054485652E+00 -0.2680820954720E+00  0.0000000000000E+00 -0.5295101802935E-01
 0.2007436506914E+00 -0.2255052169955E+00  0.0000000000000E+00 -0.8339668062704E-02
 0.1689501600447E+00 -0.1885513800409E+00  0.0000000000000E+00  0.4762714217292E-02
 0.1429633633972E+00 -0.1586833723439E+00  0.0000000000000E+00  0.1884811902095E-02
 0.1215338890150E+00 -0.1342913478675E+00  0.0000000000000E+00 -0.7768361441637E-02
 0.1030287918145E+00 -0.1135316683476E+00  0.0000000000000E+00 -0.1987053431015E-01
 0.8648327759284E-01 -0.9526790910301E-01  0.0000000000000E+00 -0.3182151044435E-01
 0.7137493829088E-01 -0.7884953800407E-01  0.0000000000000E+00 -0.4172279836001E-01
 0.5735215679547E-01 -0.6381976981450E-01  0.0000000000000E+00 -0.4820907350274E-01
 0.4418350377285E-01 -0.4987394126391E-01  0.0000000000000E+00 -0.5036766446511E-01
 0.3190438574326E-01 -0.3700081888350E-01  0.0000000000000E+00 -0.4762078007102E-01
 0.2069916566059E-01 -0.2533590672370E-01  0.0000000000000E+00 -0.3978935891093E-01
 0.1057295697459E-01 -0.1478912444151E-01  0.0000000000000E+00 -0.2703992472679E-01
 0.3455396730902E-02 -0.7304484195432E-02  0.0000000000000E+00 -0.1080042218638E-01
 0.1843020864876E-02 -0.5540901018195E-02  0.0000000000000E+00  0.3313462362935E-02
 0.5355637676502E-02 -0.9279793771334E-02  0.0000000000000E+00  0.7138364725367E-02
 0.1754528869218E+00 -0.2435577627785E+00  0.0000000000000E+00 -0.7162931710895E+00
 0.2492872984563E+00 -0.3092659628368E+00  0.0000000000000E+00 -0.5336456599390E+00
 0.2758418186390E+00 -0.3272442111122E+00  0.0000000000000E+00 -0.3544804305561E+00
 0.2724982490562E+00 -0.3152545950390E+00  0.0000000000000E+00 -0.2067573743023E+00
 0.2513419883731E+00 -0.2862255209925E+00  0.0000000000000E+00 -0.1053249242190E+00
 0.2229788682556E+00 -0.2511544807509E+00  0.0000000000000E+00 -0.4625129330505E-01
 0.1945043729224E+00 -0.2174410451848E+00  0.0000000000000E+00 -0.1996087935271E-01
 0.1695783111871E+00 -0.1885036802663E+00  0.0000000000000E+00 -0.1385206319004E-01
 0.1483039887433E+00 -0.1641388739453E+00  0.0000000000000E+00 -0.1804018291192E-01
 0.1295704314066E+00 -0.1430282013509E+00  0.0000000000000E+00 -0.2709128512560E-01
 0.1125534745451E+00 -0.1241842932915E+00  0.0000000000000E+00 -0.3782336070011E-01
 0.9676793381679E-01 -0.1069992265714E+00  0.0000000000000E+00 -0.4803157226780E-01
 0.8186676803305E-01 -0.9102048843050E-01  0.0000000000000E+00 -0.5607989699244E-01
 0.6757077463762E-01 -0.7589196209519E-01  0.0000000000000E+00 -0.6081812775920E-01
 0.5383428823101E-01 -0.6151480821253E-01  0.0000000000000E+00 -0.6146514993866E-01
 0.4076919945546E-01 -0.4794458954546E-01  0.0000000000000E+00 -0.5761491822603E-01
 0.2832334750882E-01 -0.3502821366707E-01  0.0000000000000E+00 -0.4915158353107E-01
 0.1830241811559E-01 -0.2462435809263E-01  0.0000000000000E+00 -0.3750774941492E-01
 0.1352543270699E-01 -0.1974734400631E-01  0.0000000000000E+00 -0.2808156801018E-01
 0.1427371940309E-01 -0.2088355513473E-01  0.0000000000000E+00 -0.2857564273501E-01
 0.1598388222395E+00 -0.2262186418632E+00  0.0000000000000E+00 -0.6986116077627E+00
 0.2290419827214E+00 -0.2885837770507E+00  0.0000000000000E+00 -0.5500783578768E+00
 0.2630540520211E+00 -0.3152882443065E+00  0.0000000000000E+00 -0.3947160095174E+00
 0.2711754404765E+00 -0.3159125692765E+00  0.0000000000000E+00 -0.2576349370682E+00
 0.2610413463220E+00 -0.2986916682255E+00  0.0000000000000E+00 -0.1545058194380E+00
 0.2408173502808E+00 -0.2721458700225E+00  0.0000000000000E+00 -0.8644015548114E-01
 0.2171614108888E+00 -0.2433293278054E+00  0.0000000000000E+00 -0.4935505443152E-01
 0.1945652175866E+00 -0.2166704089854E+00  0.0000000000000E+00 -0.3441056612724E-01
 0.1743086710669E+00 -0.1932279207698E+00  0.0000000000000E+00 -0.3249574212180E-01
 0.1559588374202E+00 -0.1723969153207E+00  0.0000000000000E+00 -0.3774256983816E-01
 0.1389576693779E+00 -0.1534716997960E+00  0.0000000000000E+00 -0.4654005460016E-01
 0.1229197540497E+00 -0.1359514249097E+00  0.0000000000000E+00 -0.5641287811632E-01
 0.1075382873231E+00 -0.1194255937851E+00  0.0000000000000E+00 -0.6550312019548E-01
 0.9252048961536E-01 -0.1035242137766E+00  0.0000000000000E+00 -0.7247403861286E-01
 0.7776523161080E-01 -0.8809074492623E-01  0.0000000000000E+00 -0.7638246488767E-01
 0.6332486545126E-01 -0.7311808544022E-01  0.0000000000000E+00 -0.7662778888484E-01
 0.4910251178839E-01 -0.5840565769209E-01  0.0000000000000E+00 -0.7283650365649E-01
 0.3672087851361E-01 -0.4566987036681E-01  0.0000000000000E+00 -0.6638775492935E-01
 0.2924690379499E-01 -0.3819130259148E-01  0.0000000000000E+00 -0.6226593437284E-01
 0.2769273631877E-01 -0.3719620954515E-01  0.0000000000000E+00 -0.6741712492058E-01
 0.1466672109862E+00 -0.2119250281831E+00  0.0000000000000E+00 -0.6812530067933E+00
 0.2114037881572E+00 -0.2707792612097E+00  0.0000000000000E+00 -0.5584447223818E+00
 0.2501643221273E+00 -0.3031848695853E+00  0.0000000000000E+00 -0.4238500454142E+00
 0.2670491868218E+00 -0.3134889467945E+00  0.0000000000000E+00 -0.2990408883363E+00
 0.2664932318154E+00 -0.3065650381644E+00  0.0000000000000E+00 -0.1986517659216E+00
 0.2544128001517E+00 -0.2886190351954E+00  0.0000000000000E+00 -0.1262763924203E+00
 0.2364808176238E+00 -0.2657166799285E+00  0.0000000000000E+00 -0.8140871342610E-01
 0.2173066796751E+00 -0.2425144567224E+00  0.0000000000000E+00 -0.5871348610660E-01
 0.1989707633294E+00 -0.2209500073912E+00  0.0000000000000E+00 -0.5067240052051E-01
 0.1816986927370E+00 -0.2011217162495E+00  0.0000000000000E+00 -0.5164699631983E-01
 0.1652716564989E+00 -0.1826900051504E+00  0.0000000000000E+00 -0.5790122839231E-01
 0.1494654061448E+00 -0.1653279235216E+00  0.0000000000000E+00 -0.6680771900273E-01
 0.1340550537158E+00 -0.1487122300135E+00  0.0000000000000E+00 -0.7635609864968E-01
 0.1187703081831E+00 -0.1324978479497E+00  0.0000000000000E+00 -0.8507482998907E-01
 0.1034813479733E+00 -0.1165004838823E+00  0.0000000000000E+00 -0.9190151040464E-01
 0.8819644665243E-01 -0.1006692424968E+00  0.0000000000000E+00 -0.9607934832376E-01
 0.7278924938799E-01 -0.8477444406585E-01  0.0000000000000E+00 -0.9700966292755E-01
 0.5865628282421E-01 -0.7034601785802E-01  0.0000000000000E+00 -0.9597301379736E-01
 0.4903394755309E-01 -0.6083877945957E-01  0.0000000000000E+00 -0.9737363686471E-01
 0.4565411442214E-01 -0.5818048479071E-01  0.0000000000000E+00 -0.1071511070005E+00
 0.1354286501246E+00 -0.2000025973529E+00  0.0000000000000E+00 -0.6643265100344E+00
 0.1960622192288E+00 -0.2554821275807E+00  0.0000000000000E+00 -0.5609528600148E+00
 0.2377017529626E+00 -0.2915072906050E+00  0.0000000000000E+00 -0.4441431100029E+00
 0.2611608592857E+00 -0.3091261297560E+00  0.0000000000000E+00 -0.3318520796478E+00
 0.2686425242628E+00 -0.3108737512923E+00  0.0000000000000E+00 -0.2369045918082E+00
 0.2641976697884E+00 -0.3010296348131E+00  0.0000000000000E+00 -0.1638354864819E+00
 0.2523558576898E+00 -0.2844731243702E+00  0.0000000000000E+00 -0.1141706717251E+00
 0.2373888740590E+00 -0.2655834643648E+00  0.0000000000000E+00 -0.8535575227083E-01
 0.2217847658672E+00 -0.2467649679857E+00  0.0000000000000E+00 -0.7173369917424E-01
 0.2062941454588E+00 -0.2286810626255E+00  0.0000000000000E+00 -0.6835411404075E-01
 0.1910383293505E+00 -0.2113628085006E+00  0.0000000000000E+00 -0.7166362022812E-01
 0.1759885931217E+00 -0.1946970282327E+00  0.0000000000000E+00 -0.7905338206953E-01
 0.1610375193752E+00 -0.1784876300911E+00  0.0000000000000E+00 -0.8846263099891E-01
 0.1459722678101E+00 -0.1624523086014E+00  0.0000000000000E+00 -0.9835060659547E-01
 0.1306619668703E+00 -0.1464092003148E+00  0.0000000000000E+00 -0.1075844624906E+00
 0.1150874738312E+00 -0.1302829837915E+00  0.0000000000000E+00 -0.1152951166458E+00
 0.9910728422135E-01 -0.1138320616179E+00  0.0000000000000E+00 -0.1206977837412E+00
 0.8386279226514E-01 -0.9836719408604E-01  0.0000000000000E+00 -0.1249383978690E+00
 0.7267279597182E-01 -0.8741891741565E-01  0.0000000000000E+00 -0.1317168485948E+00
 0.6791125023680E-01 -0.8351954660349E-01  0.0000000000000E+00 -0.1457900215369E+00
 0.1257298689435E+00 -0.1899498479468E+00  0.0000000000000E+00 -0.6477966135696E+00
 0.1827097317637E+00 -0.2423413134501E+00  0.0000000000000E+00 -0.5591164016635E+00
 0.2259445751428E+00 -0.2805529274556E+00  0.0000000000000E+00 -0.4573533972593E+00
 0.2542455308600E+00 -0.3036210630602E+00  0.0000000000000E+00 -0.3570567520325E+00
 0.2683054391914E+00 -0.3124984631722E+00  0.0000000000000E+00 -0.2690178633259E+00
 0.2707190127640E+00 -0.3099593044407E+00  0.0000000000000E+00 -0.1978406650244E+00
 0.2649230286196E+00 -0.2997354508903E+00  0.0000000000000E+00 -0.1459907412822E+00
 0.2546179184510E+00 -0.2856623594322E+00  0.0000000000000E+00 -0.1128755258827E+00
 0.2423790688331E+00 -0.2702727700181E+00  0.0000000000000E+00 -0.9461118620576E-01
 0.2293054930246E+00 -0.2546087810919E+00  0.0000000000000E+00 -0.8716408422834E-01
 0.2158056879908E+00 -0.2390163592930E+00  0.0000000000000E+00 -0.8738870713700E-01
 0.2020464217339E+00 -0.2235981004638E+00  0.0000000000000E+00 -0.9285797957186E-01
 0.1880566025089E+00 -0.2083074800151E+00  0.0000000000000E+00 -0.1015770142360E+00
 0.1737087896648E+00 -0.1929556295708E+00  0.0000000000000E+00 -0.1120150057514E+00
 0.1588971422785E+00 -0.1773913506382E+00  0.0000000000000E+00 -0.1230268023369E+00
 0.1435916018005E+00 -0.1615335462393E+00  0.0000000000000E+00 -0.1336835127015E+00
 0.1276465936313E+00 -0.1451423125727E+00  0.0000000000000E+00 -0.1430629566218E+00
 0.1119309854140E+00 -0.1292860212471E+00  0.0000000000000E+00 -0.1521498632601E+00
 0.9974912398099E-01 -0.1174657103550E+00  0.0000000000000E+00 -0.1638621216979E+00
 0.9399046929213E-01 -0.1126797920320E+00  0.0000000000000E+00 -0.1816818908736E+00
 0.1172632572954E+00 -0.1813843724756E+00  0.0000000000000E+00 -0.6315622696984E+00
 0.1710609393558E+00 -0.2310391869729E+00  0.0000000000000E+00 -0.5539971088763E+00
 0.2150196829618E+00 -0.2704561395084E+00  0.0000000000000E+00 -0.4648539707940E+00
 0.2468130257530E+00 -0.2975219290552E+00  0.0000000000000E+00 -0.3756223051601E+00
 0.2661507118549E+00 -0.3121553668465E+00  0.0000000000000E+00 -0.2951088370109E+00
 0.2745388597974E+00 -0.3160046107472E+00  0.0000000000000E+00 -0.2275314524998E+00
 0.2744667381250E+00 -0.3118002730699E+00  0.0000000000000E+00 -0.1755941364064E+00
 0.2689852779971E+00 -0.3027355393410E+00  0.0000000000000E+00 -0.1399329893987E+00
 0.2605340270679E+00 -0.2912348739828E+00  0.0000000000000E+00 -0.1181629337123E+00
 0.2503892077043E+00 -0.2785385863921E+00  0.0000000000000E+00 -0.1072137373124E+00
 0.2391667217486E+00 -0.2652219481189E+00  0.0000000000000E+00 -0.1044680960815E+00
 0.2272017560960E+00 -0.2515749474541E+00  0.0000000000000E+00 -0.1077971710702E+00
 0.2146592629426E+00 -0.2377019158283E+00  0.0000000000000E+00 -0.1153739829584E+00
 0.2015139993626E+00 -0.2235260960668E+00  0.0000000000000E+00 -0.1257574690285E+00
 0.1877071194183E+00 -0.2089505217837E+00  0.0000000000000E+00 -0.1378540221949E+00
 0.1732130600360E+00 -0.1939053444815E+00  0.0000000000000E+00 -0.1507373194229E+00
 0.1578889895431E+00 -0.1781613790569E+00  0.0000000000000E+00 -0.1634108156868E+00
 0.1423215018040E+00 -0.1625278014186E+00  0.0000000000000E+00 -0.1766858275809E+00
 0.1296936191838E+00 -0.1503644950905E+00  0.0000000000000E+00 -0.1926668253722E+00
 0.1232529344144E+00 -0.1449730550953E+00  0.0000000000000E+00 -0.2135481048746E+00
 0.1097855934591E+00 -0.1740089281172E+00  0.0000000000000E+00 -0.6154964709277E+00
 0.1608585605349E+00 -0.2212939358166E+00  0.0000000000000E+00 -0.5463514462171E+00
 0.2049612232351E+00 -0.2612529114706E+00  0.0000000000000E+00 -0.4677228613188E+00
 0.2392088509379E+00 -0.2911983404698E+00  0.0000000000000E+00 -0.3884396935363E+00
 0.2627076417020E+00 -0.3104080863047E+00  0.0000000000000E+00 -0.3154999761498E+00
 0.2761803838120E+00 -0.3197189188100E+00  0.0000000000000E+00 -0.2525310842928E+00
 0.2813436168206E+00 -0.3210409342170E+00  0.0000000000000E+00 -0.2020692850073E+00
 0.2806164037654E+00 -0.3169304584004E+00  0.0000000000000E+00 -0.1654005679913E+00
 0.2761691803306E+00 -0.3095608373059E+00  0.0000000000000E+00 -0.1412963077057E+00
 0.2693139233675E+00 -0.3002221870127E+00  0.0000000000000E+00 -0.1275767735237E+00
 0.2607888819723E+00 -0.2896278785392E+00  0.0000000000000E+00 -0.1221819475893E+00
 0.2510552016394E+00 -0.2782095449460E+00  0.0000000000000E+00 -0.1233384513714E+00
 0.2403981280124E+00 -0.2662061946846E+00  0.0000000000000E+00 -0.1294546837904E+00
 0.2288998546062E+00 -0.2536590597187E+00  0.0000000000000E+00 -0.1392428207190E+00
 0.2165655560717E+00 -0.2405431837692E+00  0.0000000000000E+00 -0.1517200063545E+00
 0.2033892054196E+00 -0.2268160298821E+00  0.0000000000000E+00 -0.1660311258555E+00
 0.1892346765102E+00 -0.2122648328340E+00  0.0000000000000E+00 -0.1811861292801E+00
 0.1744002228130E+00 -0.1974261146009E+00  0.0000000000000E+00 -0.1978352042747E+00
 0.1618288661339E+00 -0.1853988744490E+00  0.0000000000000E+00 -0.2172837884497E+00
 0.1549528730535E+00 -0.1796142061648E+00  0.0000000000000E+00 -0.2404850195059E+00
 0.1031029694296E+00 -0.1675890574141E+00  0.0000000000000E+00 -0.5994666003507E+00
 0.1518739448179E+00 -0.2128576780814E+00  0.0000000000000E+00 -0.5367232849783E+00
 0.1957461930211E+00 -0.2529193358623E+00  0.0000000000000E+00 -0.4668103502941E+00
 0.2316586354894E+00 -0.2848912568378E+00  0.0000000000000E+00 -0.3963037744350E+00
 0.2583835175400E+00 -0.3076886233775E+00  0.0000000000000E+00 -0.3306195882735E+00
 0.2761024742721E+00 -0.3215859752385E+00  0.0000000000000E+00 -0.2727354767592E+00
 0.2859295987303E+00 -0.3278505311003E+00  0.0000000000000E+00 -0.2248192589486E+00
 0.2897209146535E+00 -0.3284635616240E+00  0.0000000000000E+00 -0.1883920461820E+00
 0.2893154034864E+00 -0.3252781971605E+00  0.0000000000000E+00 -0.1630440546137E+00
 0.2859570088225E+00 -0.3195259291015E+00  0.0000000000000E+00 -0.1473480832285E+00
 0.2804289900561E+00 -0.3119757513116E+00  0.0000000000000E+00 -0.1397657117304E+00
 0.2732703780534E+00 -0.3031489314039E+00  0.0000000000000E+00 -0.1388830077297E+00
 0.2648607095720E+00 -0.2933913167126E+00  0.0000000000000E+00 -0.1433691926571E+00
 0.2553851003285E+00 -0.2828569549126E+00  0.0000000000000E+00 -0.1521232201810E+00
 0.2449256703959E+00 -0.2716057487612E+00  0.0000000000000E+00 -0.1643138972721E+00
 0.2335136780331E+00 -0.2596402901354E+00  0.0000000000000E+00 -0.1792218159438E+00
 0.2210265252775E+00 -0.2467724820607E+00  0.0000000000000E+00 -0.1959621987815E+00
 0.2074711977692E+00 -0.2332557066559E+00  0.0000000000000E+00 -0.2150765527377E+00
 0.1954151373236E+00 -0.2217958408524E+00  0.0000000000000E+00 -0.2371392711572E+00
 0.1882906066935E+00 -0.2157729016803E+00  0.0000000000000E+00 -0.2619393562564E+00
 0.9705988152733E-01 -0.1619377644413E+00  0.0000000000000E+00 -0.5833449504422E+00
 0.1439054717084E+00 -0.2055132357057E+00  0.0000000000000E+00 -0.5255048826057E+00
 0.1873167220851E+00 -0.2453952854201E+00  0.0000000000000E+00 -0.4627890606183E+00
 0.2243003609264E+00 -0.2787484658745E+00  0.0000000000000E+00 -0.3999104284996E+00
 0.2534828343338E+00 -0.3043192914605E+00  0.0000000000000E+00 -0.3409401997970E+00
 0.2746907337648E+00 -0.3220112374859E+00  0.0000000000000E+00 -0.2882271466225E+00
 0.2885858689359E+00 -0.3326059571576E+00  0.0000000000000E+00 -0.2435032996000E+00
 0.2965513775605E+00 -0.3375961583319E+00  0.0000000000000E+00 -0.2082562373446E+00
 0.3000828729703E+00 -0.3384979878199E+00  0.0000000000000E+00 -0.1826012591667E+00
 0.3002891002320E+00 -0.3364142176274E+00  0.0000000000000E+00 -0.1657013895079E+00
 0.2979349898314E+00 -0.3321023787228E+00  0.0000000000000E+00 -0.1564668396731E+00
 0.2935899047626E+00 -0.3261221326942E+00  0.0000000000000E+00 -0.1538095159233E+00
 0.2876952071881E+00 -0.3188910566747E+00  0.0000000000000E+00 -0.1566467475821E+00
 0.2805255236328E+00 -0.3106610114428E+00  0.0000000000000E+00 -0.1640611771130E+00
 0.2722493087728E+00 -0.3015847470770E+00  0.0000000000000E+00 -0.1753800470312E+00
 0.2629593874449E+00 -0.2917342035877E+00  0.0000000000000E+00 -0.1900628533618E+00
 0.2525682637694E+00 -0.2809669966517E+00  0.0000000000000E+00 -0.2074350525918E+00
 0.2408016482082E+00 -0.2692575963482E+00  0.0000000000000E+00 -0.2280446517800E+00
 0.2296927596626E+00 -0.2587662683216E+00  0.0000000000000E+00 -0.2518848737945E+00
 0.2224611419008E+00 -0.2526204822045E+00  0.0000000000000E+00 -0.2776619982186E+00
 0.9153115324514E-01 -0.1569046598757E+00  0.0000000000000E+00 -0.5670140356426E+00
 0.1367762470701E+00 -0.1990707396958E+00  0.0000000000000E+00 -0.5129783359962E+00
 0.1795944431419E+00 -0.2385994607142E+00  0.0000000000000E+00 -0.4561915595331E+00
 0.2172078899998E+00 -0.2728500627523E+00  0.0000000000000E+00 -0.3998612989826E+00
 0.2482252844747E+00 -0.3005326559973E+00  0.0000000000000E+00 -0.3469407873903E+00
 0.2722574714202E+00 -0.3213226161290E+00  0.0000000000000E+00 -0.2992109409680E+00
 0.2896386323060E+00 -0.3356469824836E+00  0.0000000000000E+00 -0.2579807352175E+00
 0.3013720387539E+00 -0.3446014403642E+00  0.0000000000000E+00 -0.2245532747906E+00
 0.3086306280233E+00 -0.3493823125536E+00  0.0000000000000E+00 -0.1993356154309E+00
 0.3123524842846E+00 -0.3509263760970E+00  0.0000000000000E+00 -0.1819215530140E+00
 0.3132373626990E+00 -0.3499304571516E+00  0.0000000000000E+00 -0.1715830064881E+00
 0.3118416291641E+00 -0.3469463590082E+00  0.0000000000000E+00 -0.1675061119534E+00
 0.3086311608031E+00 -0.3424233207134E+00  0.0000000000000E+00 -0.1688192460878E+00
 0.3039462530232E+00 -0.3366846234922E+00  0.0000000000000E+00 -0.1747521721688E+00
 0.2980418565756E+00 -0.3299741931353E+00  0.0000000000000E+00 -0.1847518214624E+00
 0.2911047633405E+00 -0.3224623062243E+00  0.0000000000000E+00 -0.1984427866182E+00
 0.2831333803252E+00 -0.3141057501201E+00  0.0000000000000E+00 -0.2154460909880E+00
 0.2736285980709E+00 -0.3046440487087E+00  0.0000000000000E+00 -0.2364962945454E+00
 0.2639148087265E+00 -0.2955360569350E+00  0.0000000000000E+00 -0.2613213214377E+00
 0.2567009802021E+00 -0.2893725010490E+00  0.0000000000000E+00 -0.2876383029293E+00
 0.8641577966811E-01 -0.1523679860864E+00  0.0000000000000E+00 -0.5503690148620E+00
 0.1303317050191E+00 -0.1933644873169E+00  0.0000000000000E+00 -0.4993443710327E+00
 0.1724901111825E+00 -0.2324393771134E+00  0.0000000000000E+00 -0.4474389398112E+00
 0.2104083927561E+00 -0.2672270644649E+00  0.0000000000000E+00 -0.3966719322154E+00
 0.2427614984361E+00 -0.2964886089369E+00  0.0000000000000E+00 -0.3490841901658E+00
 0.2690463026172E+00 -0.3197758428200E+00  0.0000000000000E+00 -0.3059669348859E+00
 0.2893684661688E+00 -0.3372655306345E+00  0.0000000000000E+00 -0.2682618725566E+00
 0.3044366912045E+00 -0.3497415263168E+00  0.0000000000000E+00 -0.2370245512524E+00
 0.3151403629674E+00 -0.3581168190573E+00  0.0000000000000E+00 -0.2127826936531E+00
 0.3222370820810E+00 -0.3631512410835E+00  0.0000000000000E+00 -0.1954191422376E+00
 0.3263322177595E+00 -0.3654504353850E+00  0.0000000000000E+00 -0.1844828255594E+00
 0.3279336969702E+00 -0.3655211056611E+00  0.0000000000000E+00 -0.1793833391442E+00
 0.3274921158382E+00 -0.3638021455349E+00  0.0000000000000E+00 -0.1794211596409E+00
 0.3253749681543E+00 -0.3606473175579E+00  0.0000000000000E+00 -0.1839233348063E+00
 0.3219043454987E+00 -0.3563683507508E+00  0.0000000000000E+00 -0.1923761349752E+00
 0.3173764318962E+00 -0.3512481063106E+00  0.0000000000000E+00 -0.2044694033138E+00
 0.3119712215649E+00 -0.3454241852666E+00  0.0000000000000E+00 -0.2200653294011E+00
 0.3051275635799E+00 -0.3385759206506E+00  0.0000000000000E+00 -0.2403274159267E+00
 0.2973487416805E+00 -0.3313356672810E+00  0.0000000000000E+00 -0.2652795253611E+00
 0.2903396200330E+00 -0.3253370390907E+00  0.0000000000000E+00 -0.2919623176658E+00
 0.8163199699892E-01 -0.1482282563043E+00  0.0000000000000E+00 -0.5333179464426E+00
 0.1244374424963E+00 -0.1882503660904E+00  0.0000000000000E+00 -0.4847418834406E+00
 0.1659105819741E+00 -0.2268185754059E+00  0.0000000000000E+00 -0.4368628651800E+00
 0.2038956117917E+00 -0.2618754771233E+00  0.0000000000000E+00 -0.3907817793032E+00
 0.2371862275488E+00 -0.2922884046140E+00  0.0000000000000E+00 -0.3478047947931E+00
 0.2652386127784E+00 -0.3175614750754E+00  0.0000000000000E+00 -0.3088159199215E+00
 0.2880061517360E+00 -0.3377017332602E+00  0.0000000000000E+00 -0.2744661433134E+00
 0.3059744967884E+00 -0.3532530289793E+00  0.0000000000000E+00 -0.2455618151724E+00
 0.3197958974112E+00 -0.3648895577200E+00  0.0000000000000E+00 -0.2226348797874E+00
 0.3300569069650E+00 -0.3732027543076E+00  0.0000000000000E+00 -0.2057373929208E+00
 0.3372575107167E+00 -0.3786956369469E+00  0.0000000000000E+00 -0.1946189210721E+00
 0.3418351463582E+00 -0.3818071551976E+00  0.0000000000000E+00 -0.1888737026542E+00
 0.3441901863352E+00 -0.3829300539473E+00  0.0000000000000E+00 -0.1879566252635E+00
 0.3446675976260E+00 -0.3823976518728E+00  0.0000000000000E+00 -0.1912703863354E+00
 0.3436002485359E+00 -0.3805305452813E+00  0.0000000000000E+00 -0.1982659036118E+00
 0.3413658801575E+00 -0.3776869530800E+00  0.0000000000000E+00 -0.2085284079133E+00
 0.3383475558870E+00 -0.3742148373191E+00  0.0000000000000E+00 -0.2218841524211E+00
 0.3343245574435E+00 -0.3700446441808E+00  0.0000000000000E+00 -0.2397243202290E+00
 0.3291845568647E+00 -0.3653354568295E+00  0.0000000000000E+00 -0.2635517356305E+00
 0.3228481676040E+00 -0.3599176108267E+00  0.0000000000000E+00 -0.2906474123295E+00
 0.7711264634877E-01 -0.1444026833011E+00  0.0000000000000E+00 -0.5157811564670E+00
 0.1189771886815E+00 -0.1836028153804E+00  0.0000000000000E+00 -0.4692577669455E+00
 0.1597657361988E+00 -0.2216446841442E+00  0.0000000000000E+00 -0.4247214834550E+00
 0.1976407286365E+00 -0.2567676947177E+00  0.0000000000000E+00 -0.3825690190777E+00
 0.2315480985465E+00 -0.2879844890095E+00  0.0000000000000E+00 -0.3435039687332E+00
 0.2609598293128E+00 -0.3148116876706E+00  0.0000000000000E+00 -0.3080930997519E+00
 0.2857326828146E+00 -0.3371439648144E+00  0.0000000000000E+00 -0.2767851459732E+00
 0.3061830100472E+00 -0.3553403110759E+00  0.0000000000000E+00 -0.2501762060139E+00
 0.3227699533348E+00 -0.3698777151244E+00  0.0000000000000E+00 -0.2287287203373E+00
 0.3359307699895E+00 -0.3812005086849E+00  0.0000000000000E+00 -0.2125603218681E+00
 0.3460664474191E+00 -0.3897154410105E+00  0.0000000000000E+00 -0.2015496366517E+00
 0.3535405316645E+00 -0.3957902460054E+00  0.0000000000000E+00 -0.1954438158563E+00
 0.3586866291511E+00 -0.3997555545435E+00  0.0000000000000E+00 -0.1938592207986E+00
 0.3617876507831E+00 -0.4018861718906E+00  0.0000000000000E+00 -0.1963147096929E+00
 0.3631097189624E+00 -0.4024363197198E+00  0.0000000000000E+00 -0.2022632300157E+00
 0.3629907374786E+00 -0.4017167452507E+00  0.0000000000000E+00 -0.2110898795461E+00
 0.3619276919047E+00 -0.4001688644141E+00  0.0000000000000E+00 -0.2222317700784E+00
 0.3600137727407E+00 -0.3980146762625E+00  0.0000000000000E+00 -0.2363942318545E+00
 0.3580595765364E+00 -0.3959492965654E+00  0.0000000000000E+00 -0.2558415358581E+00
 0.3538500009770E+00 -0.3926752143020E+00  0.0000000000000E+00 -0.2828349595257E+00
 0.7279831545240E-01 -0.1408073552047E+00  0.0000000000000E+00 -0.4976636459625E+00
 0.1138565870180E+00 -0.1793249108404E+00  0.0000000000000E+00 -0.4529048119114E+00
 0.1539813329385E+00 -0.2168420656394E+00  0.0000000000000E+00 -0.4112228183088E+00
 0.1916008766448E+00 -0.2518607913199E+00  0.0000000000000E+00 -0.3723722189300E+00
 0.2258546053774E+00 -0.2835869108722E+00  0.0000000000000E+00 -0.3365574312824E+00
 0.2562811128851E+00 -0.3115994573559E+00  0.0000000000000E+00 -0.3041245361141E+00
 0.2826823520317E+00 -0.3357332753432E+00  0.0000000000000E+00 -0.2754409720607E+00
 0.3052292028704E+00 -0.3561769725237E+00  0.0000000000000E+00 -0.2509671764640E+00
 0.3242196410367E+00 -0.3732430639093E+00  0.0000000000000E+00 -0.2310306139665E+00
 0.3399725733296E+00 -0.3872605619471E+00  0.0000000000000E+00 -0.2157233670757E+00
 0.3528084852958E+00 -0.3985572673761E+00  0.0000000000000E+00 -0.2049812483513E+00
 0.3630307552837E+00 -0.4074433913033E+00  0.0000000000000E+00 -0.1986599676444E+00
 0.3709164721389E+00 -0.4141978677883E+00  0.0000000000000E+00 -0.1965341604556E+00
 0.3766875267615E+00 -0.4190407442143E+00  0.0000000000000E+00 -0.1983020197244E+00
 0.3805187172521E+00 -0.4221416325868E+00  0.0000000000000E+00 -0.2035893069704E+00
 0.3825839975828E+00 -0.4236605884215E+00  0.0000000000000E+00 -0.2118647850623E+00
 0.3831818808145E+00 -0.4238255824935E+00  0.0000000000000E+00 -0.2222092955467E+00
 0.3824638904121E+00 -0.4228038710943E+00  0.0000000000000E+00 -0.2342266400923E+00
 0.3812970601878E+00 -0.4214971834280E+00  0.0000000000000E+00 -0.2480002004985E+00
 0.3821400888749E+00 -0.4209175161907E+00  0.0000000000000E+00 -0.2679384736749E+00
 0.7279831662602E-01 -0.1408073561389E+00  0.0000000000000E+00  0.4976636527294E+00
 0.1138565877712E+00 -0.1793249113877E+00  0.0000000000000E+00  0.4529048176777E+00
 0.1539813333786E+00 -0.2168420658999E+00  0.0000000000000E+00  0.4112228229345E+00
 0.1916008768327E+00 -0.2518607913497E+00  0.0000000000000E+00  0.3723722224595E+00
 0.2258546053614E+00 -0.2835869107180E+00  0.0000000000000E+00  0.3365574338581E+00
 0.2562811127157E+00 -0.3115994570680E+00  0.0000000000000E+00  0.3041245379137E+00
 0.2826823517648E+00 -0.3357332749782E+00  0.0000000000000E+00  0.2754409732646E+00
 0.3052292025645E+00 -0.3561769721399E+00  0.0000000000000E+00  0.2509671772416E+00
 0.3242196407443E+00 -0.3732430635580E+00  0.0000000000000E+00  0.2310306144553E+00
 0.3399725730876E+00 -0.3872605616629E+00  0.0000000000000E+00  0.2157233673754E+00
 0.3528084851216E+00 -0.3985572671733E+00  0.0000000000000E+00  0.2049812485281E+00
 0.3630307551775E+00 -0.4074433911789E+00  0.0000000000000E+00  0.1986599677398E+00
 0.3709164720905E+00 -0.4141978677290E+00  0.0000000000000E+00  0.1965341604956E+00
 0.3766875267569E+00 -0.4190407442035E+00  0.0000000000000E+00  0.1983020197265E+00
 0.3805187172774E+00 -0.4221416326092E+00  0.0000000000000E+00  0.2035893069479E+00
 0.3825839976292E+00 -0.4236605884667E+00  0.0000000000000E+00  0.2118647850213E+00
 0.3831818808777E+00 -0.4238255825557E+00  0.0000000000000E+00  0.2222092954910E+00
 0.3824638904819E+00 -0.4228038711672E+00  0.0000000000000E+00  0.2342266400551E+00
 0.3812970602670E+00 -0.4214971835159E+00  0.0000000000000E+00  0.2480002005268E+00
 0.3821400889587E+00 -0.4209175162874E+00  0.0000000000000E+00  0.2679384737866E+00
 0.7711264753237E-01 -0.1444026842657E+00  0.0000000000000E+00  0.5157811627123E+00
 0.1189771894964E+00 -0.1836028160055E+00  0.0000000000000E+00  0.4692577722102E+00
 0.1597657367254E+00 -0.2216446845013E+00  0.0000000000000E+00  0.4247214875786E+00
 0.1976407289142E+00 -0.2567676948425E+00  0.0000000000000E+00  0.3825690221131E+00
 0.2315480986100E+00 -0.2879844889361E+00  0.0000000000000E+00  0.3435039708430E+00
 0.2609598292071E+00 -0.3148116874447E+00  0.0000000000000E+00  0.3080931011312E+00
 0.2857326825956E+00 -0.3371439644941E+00  0.0000000000000E+00  0.2767851468166E+00
 0.3061830097762E+00 -0.3553403107232E+00  0.0000000000000E+00  0.2501762064996E+00
 0.3227699530674E+00 -0.3698777147941E+00  0.0000000000000E+00  0.2287287206012E+00
 0.3359307697648E+00 -0.3812005084141E+00  0.0000000000000E+00  0.2125603220005E+00
 0.3460664472561E+00 -0.3897154408150E+00  0.0000000000000E+00  0.2015496367066E+00
 0.3535405315646E+00 -0.3957902458837E+00  0.0000000000000E+00  0.1954438158648E+00
 0.3586866291052E+00 -0.3997555544833E+00  0.0000000000000E+00  0.1938592207794E+00
 0.3617876507782E+00 -0.4018861718766E+00  0.0000000000000E+00  0.1963147096588E+00
 0.3631097189867E+00 -0.4024363197386E+00  0.0000000000000E+00  0.2022632299769E+00
 0.3629907375266E+00 -0.4017167452950E+00  0.0000000000000E+00  0.2110898795094E+00
 0.3619276919727E+00 -0.4001688644802E+00  0.0000000000000E+00  0.2222317700601E+00
 0.3600137728131E+00 -0.3980146763404E+00  0.0000000000000E+00  0.2363942319014E+00
 0.3580595766216E+00 -0.3959492966650E+00  0.0000000000000E+00  0.2558415359982E+00
 0.3538500010898E+00 -0.3926752144347E+00  0.0000000000000E+00  0.2828349597182E+00
 0.8163199819964E-01 -0.1482282573111E+00  0.0000000000000E+00  0.5333179522039E+00
 0.1244374433883E+00 -0.1882503668101E+00  0.0000000000000E+00  0.4847418882197E+00
 0.1659105825989E+00 -0.2268185758725E+00  0.0000000000000E+00  0.4368628687983E+00
 0.2038956121651E+00 -0.2618754773496E+00  0.0000000000000E+00  0.3907817818310E+00
 0.2371862276920E+00 -0.2922884046218E+00  0.0000000000000E+00  0.3478047964204E+00
 0.2652386127317E+00 -0.3175614749072E+00  0.0000000000000E+00  0.3088159208662E+00
 0.2880061515564E+00 -0.3377017329762E+00  0.0000000000000E+00  0.2744661437881E+00
 0.3059744965411E+00 -0.3532530286464E+00  0.0000000000000E+00  0.2455618153635E+00
 0.3197958971565E+00 -0.3648895573982E+00  0.0000000000000E+00  0.2226348798261E+00
 0.3300569067454E+00 -0.3732027540377E+00  0.0000000000000E+00  0.2057373928865E+00
 0.3372575105535E+00 -0.3786956367474E+00  0.0000000000000E+00  0.1946189210071E+00
 0.3418351462541E+00 -0.3818071550680E+00  0.0000000000000E+00  0.1888737025802E+00
 0.3441901862820E+00 -0.3829300538767E+00  0.0000000000000E+00  0.1879566251927E+00
 0.3446675976118E+00 -0.3823976518468E+00  0.0000000000000E+00  0.1912703862765E+00
 0.3436002485499E+00 -0.3805305452877E+00  0.0000000000000E+00  0.1982659035740E+00
 0.3413658801945E+00 -0.3776869531120E+00  0.0000000000000E+00  0.2085284079055E+00
 0.3383475559404E+00 -0.3742148373702E+00  0.0000000000000E+00  0.2218841524632E+00
 0.3343245574957E+00 -0.3700446442411E+00  0.0000000000000E+00  0.2397243203692E+00
 0.3291845569417E+00 -0.3653354569259E+00  0.0000000000000E+00  0.2635517358723E+00
 0.3228481677490E+00 -0.3599176109987E+00  0.0000000000000E+00  0.2906474126160E+00
 0.8641578089286E-01 -0.1523679871452E+00  0.0000000000000E+00  0.5503690201773E+00
 0.1303317060033E+00 -0.1933644881480E+00  0.0000000000000E+00  0.4993443753327E+00
 0.1724901119162E+00 -0.2324393777011E+00  0.0000000000000E+00  0.4474389429143E+00
 0.2104083932282E+00 -0.2672270647963E+00  0.0000000000000E+00  0.3966719342182E+00
 0.2427614986548E+00 -0.2964886090220E+00  0.0000000000000E+00  0.3490841912932E+00
 0.2690463026197E+00 -0.3197758426997E+00  0.0000000000000E+00  0.3059669353835E+00
 0.2893684660153E+00 -0.3372655303735E+00  0.0000000000000E+00  0.2682618726576E+00
 0.3044366909665E+00 -0.3497415259892E+00  0.0000000000000E+00  0.2370245511505E+00
 0.3151403627113E+00 -0.3581168187298E+00  0.0000000000000E+00  0.2127826934724E+00
 0.3222370818538E+00 -0.3631512408018E+00  0.0000000000000E+00  0.1954191420447E+00
 0.3263322175846E+00 -0.3654504351698E+00  0.0000000000000E+00  0.1844828253846E+00
 0.3279336968514E+00 -0.3655211055134E+00  0.0000000000000E+00  0.1793833389999E+00
 0.3274921157678E+00 -0.3638021454441E+00  0.0000000000000E+00  0.1794211595325E+00
 0.3253749681207E+00 -0.3606473175103E+00  0.0000000000000E+00  0.1839233347386E+00
 0.3219043454913E+00 -0.3563683507342E+00  0.0000000000000E+00  0.1923761349557E+00
 0.3173764319082E+00 -0.3512481063168E+00  0.0000000000000E+00  0.2044694033498E+00
 0.3119712215870E+00 -0.3454241852867E+00  0.0000000000000E+00  0.2200653295107E+00
 0.3051275635980E+00 -0.3385759206792E+00  0.0000000000000E+00  0.2403274161540E+00
 0.2973487417441E+00 -0.3313356673686E+00  0.0000000000000E+00  0.2652795256987E+00
 0.2903396202076E+00 -0.3253370392989E+00  0.0000000000000E+00  0.2919623180589E+00
 0.9153115450170E-01 -0.1569046609968E+00  0.0000000000000E+00  0.5670140405510E+00
 0.1367762481605E+00 -0.1990707406539E+00  0.0000000000000E+00  0.5129783398180E+00
 0.1795944439926E+00 -0.2385994614319E+00  0.0000000000000E+00  0.4561915621042E+00
 0.2172078905697E+00 -0.2728500631883E+00  0.0000000000000E+00  0.3998613004390E+00
 0.2482252847595E+00 -0.3005326561503E+00  0.0000000000000E+00  0.3469407880000E+00
 0.2722574714569E+00 -0.3213226160412E+00  0.0000000000000E+00  0.2992109410090E+00
 0.2896386321611E+00 -0.3356469822278E+00  0.0000000000000E+00  0.2579807349458E+00
 0.3013720385078E+00 -0.3446014400244E+00  0.0000000000000E+00  0.2245532744051E+00
 0.3086306277505E+00 -0.3493823122051E+00  0.0000000000000E+00  0.1993356150449E+00
 0.3123524840364E+00 -0.3509263757902E+00  0.0000000000000E+00  0.1819215526791E+00
 0.3132373625008E+00 -0.3499304569095E+00  0.0000000000000E+00  0.1715830062212E+00
 0.3118416290203E+00 -0.3469463588325E+00  0.0000000000000E+00  0.1675061117567E+00
 0.3086311607062E+00 -0.3424233205937E+00  0.0000000000000E+00  0.1688192459594E+00
 0.3039462529610E+00 -0.3366846234143E+00  0.0000000000000E+00  0.1747521721082E+00
 0.2980418565366E+00 -0.3299741930861E+00  0.0000000000000E+00  0.1847518214737E+00
 0.2911047633166E+00 -0.3224623061942E+00  0.0000000000000E+00  0.1984427867040E+00
 0.2831333803050E+00 -0.3141057500981E+00  0.0000000000000E+00  0.2154460911612E+00
 0.2736285980481E+00 -0.3046440486983E+00  0.0000000000000E+00  0.2364962948477E+00
 0.2639148087726E+00 -0.2955360570088E+00  0.0000000000000E+00  0.2613213218636E+00
 0.2567009803996E+00 -0.2893725012863E+00  0.0000000000000E+00  0.2876383034352E+00
 0.9705988282441E-01 -0.1619377656357E+00  0.0000000000000E+00  0.5833449549830E+00
 0.1439054729184E+00 -0.2055132368053E+00  0.0000000000000E+00  0.5255048859437E+00
 0.1873167230574E+00 -0.2453952862730E+00  0.0000000000000E+00  0.4627890626347E+00
 0.2243003615880E+00 -0.2787484664088E+00  0.0000000000000E+00  0.3999104293852E+00
 0.2534828346696E+00 -0.3043192916660E+00  0.0000000000000E+00  0.3409401998727E+00
 0.2746907338153E+00 -0.3220112374099E+00  0.0000000000000E+00  0.2882271462035E+00
 0.2885858687781E+00 -0.3326059568851E+00  0.0000000000000E+00  0.2435032989658E+00
 0.2965513772870E+00 -0.3375961579603E+00  0.0000000000000E+00  0.2082562366953E+00
 0.3000828726649E+00 -0.3384979874344E+00  0.0000000000000E+00  0.1826012585997E+00
 0.3002890999502E+00 -0.3364142172830E+00  0.0000000000000E+00  0.1657013890563E+00
 0.2979349895999E+00 -0.3321023784442E+00  0.0000000000000E+00  0.1564668393384E+00
 0.2935899045856E+00 -0.3261221324829E+00  0.0000000000000E+00  0.1538095156962E+00
 0.2876952070574E+00 -0.3188910565195E+00  0.0000000000000E+00  0.1566467474521E+00
 0.2805255235352E+00 -0.3106610113283E+00  0.0000000000000E+00  0.1640611770733E+00
 0.2722493086955E+00 -0.3015847469889E+00  0.0000000000000E+00  0.1753800470803E+00
 0.2629593873781E+00 -0.2917342035146E+00  0.0000000000000E+00  0.1900628534961E+00
 0.2525682637011E+00 -0.2809669965818E+00  0.0000000000000E+00  0.2074350528181E+00
 0.2408016481418E+00 -0.2692575962954E+00  0.0000000000000E+00  0.2280446521406E+00
 0.2296927596881E+00 -0.2587662683775E+00  0.0000000000000E+00  0.2518848742955E+00
 0.2224611421123E+00 -0.2526204824613E+00  0.0000000000000E+00  0.2776619988352E+00
 0.1031029707768E+00 -0.1675890586938E+00  0.0000000000000E+00  0.5994666045616E+00
 0.1518739461593E+00 -0.2128576793355E+00  0.0000000000000E+00  0.5367232878198E+00
 0.1957461941153E+00 -0.2529193368508E+00  0.0000000000000E+00  0.4668103517268E+00
 0.2316586362303E+00 -0.2848912574579E+00  0.0000000000000E+00  0.3963037747238E+00
 0.2583835179053E+00 -0.3076886236134E+00  0.0000000000000E+00  0.3306195878029E+00
 0.2761024743108E+00 -0.3215859751480E+00  0.0000000000000E+00  0.2727354758861E+00
 0.2859295985347E+00 -0.3278505307858E+00  0.0000000000000E+00  0.2248192579747E+00
 0.2897209143323E+00 -0.3284635612001E+00  0.0000000000000E+00  0.1883920453013E+00
 0.2893154031332E+00 -0.3252781967230E+00  0.0000000000000E+00  0.1630440539007E+00
 0.2859570084962E+00 -0.3195259287092E+00  0.0000000000000E+00  0.1473480826938E+00
 0.2804289897837E+00 -0.3119757509894E+00  0.0000000000000E+00  0.1397657113576E+00
 0.2732703778379E+00 -0.3031489311522E+00  0.0000000000000E+00  0.1388830074966E+00
 0.2648607094035E+00 -0.2933913165184E+00  0.0000000000000E+00  0.1433691925435E+00
 0.2553851001921E+00 -0.2828569547587E+00  0.0000000000000E+00  0.1521232201724E+00
 0.2449256702773E+00 -0.2716057486316E+00  0.0000000000000E+00  0.1643138973606E+00
 0.2335136779211E+00 -0.2596402900169E+00  0.0000000000000E+00  0.1792218161192E+00
 0.2210265251597E+00 -0.2467724819414E+00  0.0000000000000E+00  0.1959621990450E+00
 0.2074711976600E+00 -0.2332557065608E+00  0.0000000000000E+00  0.2150765531347E+00
 0.1954151373263E+00 -0.2217958408876E+00  0.0000000000000E+00  0.2371392717131E+00
 0.1882906069087E+00 -0.2157729019455E+00  0.0000000000000E+00  0.2619393569718E+00
 0.1097855948666E+00 -0.1740089294945E+00  0.0000000000000E+00  0.6154964748437E+00
 0.1608585620175E+00 -0.2212939372357E+00  0.0000000000000E+00  0.5463514485413E+00
 0.2049612244457E+00 -0.2612529125895E+00  0.0000000000000E+00  0.4677228621335E+00
 0.2392088517385E+00 -0.2911983411555E+00  0.0000000000000E+00  0.3884396932030E+00
 0.2627076420684E+00 -0.3104080865415E+00  0.0000000000000E+00  0.3154999751284E+00
 0.2761803838083E+00 -0.3197189186735E+00  0.0000000000000E+00  0.2525310829851E+00
 0.2813436165607E+00 -0.3210409338336E+00  0.0000000000000E+00  0.2020692837326E+00
 0.2806164033770E+00 -0.3169304579049E+00  0.0000000000000E+00  0.1654005669261E+00
 0.2761691799170E+00 -0.3095608368043E+00  0.0000000000000E+00  0.1412963068930E+00
 0.2693139229895E+00 -0.3002221865660E+00  0.0000000000000E+00  0.1275767729467E+00
 0.2607888816552E+00 -0.2896278781707E+00  0.0000000000000E+00  0.1221819472114E+00
 0.2510552013838E+00 -0.2782095446533E+00  0.0000000000000E+00  0.1233384511564E+00
 0.2403981278058E+00 -0.2662061944520E+00  0.0000000000000E+00  0.1294546837080E+00
 0.2288998544315E+00 -0.2536590595264E+00  0.0000000000000E+00  0.1392428207471E+00
 0.2165655559128E+00 -0.2405431835994E+00  0.0000000000000E+00  0.1517200064784E+00
 0.2033892052638E+00 -0.2268160297200E+00  0.0000000000000E+00  0.1660311260591E+00
 0.1892346763456E+00 -0.2122648326677E+00  0.0000000000000E+00  0.1811861295600E+00
 0.1744002226650E+00 -0.1974261144666E+00  0.0000000000000E+00  0.1978352046809E+00
 0.1618288661140E+00 -0.1853988744622E+00  0.0000000000000E+00  0.2172837890328E+00
 0.1549528732627E+00 -0.1796142064274E+00  0.0000000000000E+00  0.2404850202985E+00
 0.1172632587733E+00 -0.1813843739630E+00  0.0000000000000E+00  0.6315622733497E+00
 0.1710609409860E+00 -0.2310391885641E+00  0.0000000000000E+00  0.5539971106529E+00
 0.2150196842767E+00 -0.2704561407450E+00  0.0000000000000E+00  0.4648539709518E+00
 0.2468130265857E+00 -0.2975219297774E+00  0.0000000000000E+00  0.3756223041833E+00
 0.2661507121870E+00 -0.3121553670476E+00  0.0000000000000E+00  0.2951088354468E+00
 0.2745388597174E+00 -0.3160046105297E+00  0.0000000000000E+00  0.2275314507960E+00
 0.2744667377746E+00 -0.3118002725910E+00  0.0000000000000E+00  0.1755941348885E+00
 0.2689852775253E+00 -0.3027355387581E+00  0.0000000000000E+00  0.1399329882110E+00
 0.2605340265861E+00 -0.2912348734103E+00  0.0000000000000E+00  0.1181629328557E+00
 0.2503892072723E+00 -0.2785385858899E+00  0.0000000000000E+00  0.1072137367382E+00
 0.2391667213880E+00 -0.2652219477063E+00  0.0000000000000E+00  0.1044680957317E+00
 0.2272017558032E+00 -0.2515749471242E+00  0.0000000000000E+00  0.1077971708949E+00
 0.2146592627016E+00 -0.2377019155616E+00  0.0000000000000E+00  0.1153739829177E+00
 0.2015139991534E+00 -0.2235260958405E+00  0.0000000000000E+00  0.1257574690932E+00
 0.1877071192234E+00 -0.2089505215783E+00  0.0000000000000E+00  0.1378540223446E+00
 0.1732130598415E+00 -0.1939053442808E+00  0.0000000000000E+00  0.1507373196368E+00
 0.1578889893378E+00 -0.1781613788495E+00  0.0000000000000E+00  0.1634108159581E+00
 0.1423215016242E+00 -0.1625278012514E+00  0.0000000000000E+00  0.1766858279652E+00
 0.1296936191441E+00 -0.1503644950833E+00  0.0000000000000E+00  0.1926668259492E+00
 0.1232529346096E+00 -0.1449730553459E+00  0.0000000000000E+00  0.2135481057138E+00
 0.1257298705016E+00 -0.1899498495563E+00  0.0000000000000E+00  0.6477966169793E+00
 0.1827097335436E+00 -0.2423413152159E+00  0.0000000000000E+00  0.5591164028526E+00
 0.2259445765412E+00 -0.2805529287885E+00  0.0000000000000E+00  0.4573533967186E+00
 0.2542455316876E+00 -0.3036210637805E+00  0.0000000000000E+00  0.3570567503992E+00
 0.2683054394475E+00 -0.3124984632942E+00  0.0000000000000E+00  0.2690178612459E+00
 0.2707190125719E+00 -0.3099593041058E+00  0.0000000000000E+00  0.1978406629866E+00
 0.2649230281558E+00 -0.2997354502932E+00  0.0000000000000E+00  0.1459907396007E+00
 0.2546179178860E+00 -0.2856623587529E+00  0.0000000000000E+00  0.1128755246485E+00
 0.2423790682824E+00 -0.2702727693752E+00  0.0000000000000E+00  0.9461118536769E-01
 0.2293054925429E+00 -0.2546087805398E+00  0.0000000000000E+00  0.8716408370274E-01
 0.2158056875931E+00 -0.2390163588439E+00  0.0000000000000E+00  0.8738870684514E-01
 0.2020464214110E+00 -0.2235981001047E+00  0.0000000000000E+00  0.9285797945182E-01
 0.1880566022404E+00 -0.2083074797219E+00  0.0000000000000E+00  0.1015770142408E+00
 0.1737087894282E+00 -0.1929556293178E+00  0.0000000000000E+00  0.1120150058469E+00
 0.1588971420550E+00 -0.1773913504046E+00  0.0000000000000E+00  0.1230268024981E+00
 0.1435916015753E+00 -0.1615335460079E+00  0.0000000000000E+00  0.1336835129045E+00
 0.1276465933943E+00 -0.1451423123331E+00  0.0000000000000E+00  0.1430629568577E+00
 0.1119309852128E+00 -0.1292860210563E+00  0.0000000000000E+00  0.1521498635894E+00
 0.9974912392760E-01 -0.1174657103323E+00  0.0000000000000E+00  0.1638621222317E+00
 0.9399046946909E-01 -0.1126797922646E+00  0.0000000000000E+00  0.1816818917214E+00
 0.1354286517714E+00 -0.2000025990957E+00  0.0000000000000E+00  0.6643265132157E+00
 0.1960622211540E+00 -0.2554821295172E+00  0.0000000000000E+00  0.5609528605653E+00
 0.2377017544133E+00 -0.2915072920016E+00  0.0000000000000E+00  0.4441431087218E+00
 0.2611608600613E+00 -0.3091261304249E+00  0.0000000000000E+00  0.3318520773597E+00
 0.2686425243963E+00 -0.3108737512864E+00  0.0000000000000E+00  0.2369045892657E+00
 0.2641976694509E+00 -0.3010296343263E+00  0.0000000000000E+00  0.1638354842018E+00
 0.2523558570973E+00 -0.2844731236402E+00  0.0000000000000E+00  0.1141706699808E+00
 0.2373888734007E+00 -0.2655834635904E+00  0.0000000000000E+00  0.8535575107643E-01
 0.2217847652555E+00 -0.2467649672820E+00  0.0000000000000E+00  0.7173369841775E-01
 0.2062941449384E+00 -0.2286810620362E+00  0.0000000000000E+00  0.6835411360430E-01
 0.1910383289269E+00 -0.2113628080275E+00  0.0000000000000E+00  0.7166362001616E-01
 0.1759885927789E+00 -0.1946970278556E+00  0.0000000000000E+00  0.7905338201259E-01
 0.1610375190886E+00 -0.1784876297814E+00  0.0000000000000E+00  0.8846263104637E-01
 0.1459722675550E+00 -0.1624523083311E+00  0.0000000000000E+00  0.9835060671028E-01
 0.1306619666275E+00 -0.1464092000624E+00  0.0000000000000E+00  0.1075844626454E+00
 0.1150874735856E+00 -0.1302829835398E+00  0.0000000000000E+00  0.1152951168149E+00
 0.9910728396495E-01 -0.1138320613580E+00  0.0000000000000E+00  0.1206977839144E+00
 0.8386279205568E-01 -0.9836719388445E-01  0.0000000000000E+00  0.1249383981112E+00
 0.7267279591480E-01 -0.8741891738629E-01  0.0000000000000E+00  0.1317168490480E+00
 0.6791125039601E-01 -0.8351954681658E-01  0.0000000000000E+00  0.1457900223507E+00
 0.1466672127271E+00 -0.2119250300682E+00  0.0000000000000E+00  0.6812530097455E+00
 0.2114037902144E+00 -0.2707792633038E+00  0.0000000000000E+00  0.5584447222316E+00
 0.2501643235859E+00 -0.3031848709989E+00  0.0000000000000E+00  0.4238500433553E+00
 0.2670491874880E+00 -0.3134889473516E+00  0.0000000000000E+00  0.2990408854194E+00
 0.2664932317776E+00 -0.3065650379798E+00  0.0000000000000E+00  0.1986517630062E+00
 0.2544127996425E+00 -0.2886190345305E+00  0.0000000000000E+00  0.1262763900230E+00
 0.2364808169001E+00 -0.2657166790646E+00  0.0000000000000E+00  0.8140871173844E-01
 0.2173066789356E+00 -0.2425144558675E+00  0.0000000000000E+00  0.5871348504079E-01
 0.1989707626740E+00 -0.2209500066465E+00  0.0000000000000E+00  0.5067239990137E-01
 0.1816986921949E+00 -0.2011217156418E+00  0.0000000000000E+00  0.5164699600186E-01
 0.1652716560641E+00 -0.1826900046693E+00  0.0000000000000E+00  0.5790122827114E-01
 0.1494654057944E+00 -0.1653279231395E+00  0.0000000000000E+00  0.6680771900749E-01
 0.1340550534218E+00 -0.1487122296983E+00  0.0000000000000E+00  0.7635609873017E-01
 0.1187703079197E+00 -0.1324978476724E+00  0.0000000000000E+00  0.8507483010790E-01
 0.1034813477218E+00 -0.1165004836220E+00  0.0000000000000E+00  0.9190151053337E-01
 0.8819644639877E-01 -0.1006692422369E+00  0.0000000000000E+00  0.9607934843666E-01
 0.7278924912654E-01 -0.8477444380003E-01  0.0000000000000E+00  0.9700966301391E-01
 0.5865628262239E-01 -0.7034601766101E-01  0.0000000000000E+00  0.9597301392458E-01
 0.4903394750619E-01 -0.6083877943621E-01  0.0000000000000E+00  0.9737363720321E-01
 0.4565411457004E-01 -0.5818048498859E-01  0.0000000000000E+00  0.1071511077367E+00
 0.1598388240754E+00 -0.2262186438960E+00  0.0000000000000E+00  0.6986116104656E+00
 0.2290419848850E+00 -0.2885837792770E+00  0.0000000000000E+00  0.5500783569522E+00
 0.2630540534273E+00 -0.3152882456735E+00  0.0000000000000E+00  0.3947160066553E+00
 0.2711754409668E+00 -0.3159125696507E+00  0.0000000000000E+00  0.2576349335860E+00
 0.2610413460681E+00 -0.2986916678151E+00  0.0000000000000E+00  0.1545058162863E+00
 0.2408173495884E+00 -0.2721458691691E+00  0.0000000000000E+00  0.8644015312574E-01
 0.2171614100489E+00 -0.2433293268259E+00  0.0000000000000E+00  0.4935505292871E-01
 0.1945652167920E+00 -0.2166704080794E+00  0.0000000000000E+00  0.3441056526893E-01
 0.1743086703934E+00 -0.1932279200123E+00  0.0000000000000E+00  0.3249574167863E-01
 0.1559588368773E+00 -0.1723969147172E+00  0.0000000000000E+00  0.3774256965153E-01
 0.1389576689479E+00 -0.1534716993238E+00  0.0000000000000E+00  0.4654005456803E-01
 0.1229197537043E+00 -0.1359514245357E+00  0.0000000000000E+00  0.5641287817299E-01
 0.1075382870325E+00 -0.1194255934753E+00  0.0000000000000E+00  0.6550312029452E-01
 0.9252048935410E-01 -0.1035242135027E+00  0.0000000000000E+00  0.7247403871838E-01
 0.7776523136215E-01 -0.8809074466943E-01  0.0000000000000E+00  0.7638246497146E-01
 0.6332486520292E-01 -0.7311808518577E-01  0.0000000000000E+00  0.7662778892233E-01
 0.4910251153816E-01 -0.5840565743673E-01  0.0000000000000E+00  0.7283650363718E-01
 0.3672087833724E-01 -0.4566987019217E-01  0.0000000000000E+00  0.6638775492122E-01
 0.2924690377513E-01 -0.3819130259027E-01  0.0000000000000E+00  0.6226593456991E-01
 0.2769273646818E-01 -0.3719620973857E-01  0.0000000000000E+00  0.6741712553968E-01
 0.1754528888456E+00 -0.2435577649588E+00  0.0000000000000E+00  0.7162931734962E+00
 0.2492873006830E+00 -0.3092659651516E+00  0.0000000000000E+00  0.5336456581561E+00
 0.2758418199135E+00 -0.3272442123473E+00  0.0000000000000E+00  0.3544804268907E+00
 0.2724982492982E+00 -0.3152545951521E+00  0.0000000000000E+00  0.2067573703754E+00
 0.2513419878716E+00 -0.2862255203235E+00  0.0000000000000E+00  0.1053249210251E+00
 0.2229788673926E+00 -0.2511544797249E+00  0.0000000000000E+00  0.4625129117702E-01
 0.1945043720032E+00 -0.2174410441312E+00  0.0000000000000E+00  0.1996087815358E-01
 0.1695783103759E+00 -0.1885036793515E+00  0.0000000000000E+00  0.1385206259222E-01
 0.1483039880821E+00 -0.1641388732076E+00  0.0000000000000E+00  0.1804018265790E-01
 0.1295704308846E+00 -0.1430282007744E+00  0.0000000000000E+00  0.2709128506484E-01
 0.1125534741354E+00 -0.1241842928440E+00  0.0000000000000E+00  0.3782336074400E-01
 0.9676793348811E-01 -0.1069992262173E+00  0.0000000000000E+00  0.4803157236038E-01
 0.8186676775581E-01 -0.9102048813629E-01  0.0000000000000E+00  0.5607989709296E-01
 0.6757077438873E-01 -0.7589196183503E-01  0.0000000000000E+00  0.6081812783435E-01
 0.5383428799691E-01 -0.6151480797099E-01  0.0000000000000E+00  0.6146514996149E-01
 0.4076919922663E-01 -0.4794458931075E-01  0.0000000000000E+00  0.5761491817441E-01
 0.2832334728717E-01 -0.3502821343993E-01  0.0000000000000E+00  0.4915158339555E-01
 0.1830241798341E-01 -0.2462435795953E-01  0.0000000000000E+00  0.3750774926179E-01
 0.1352543273308E-01 -0.1974734404593E-01  0.0000000000000E+00  0.2808156805052E-01
 0.1427371957281E-01 -0.2088355534065E-01  0.0000000000000E+00  0.2857564320683E-01
 0.1941788519953E+00 -0.2648792130781E+00  0.0000000000000E+00  0.7338790012856E+00
 0.2724011334626E+00 -0.3331696657924E+00  0.0000000000000E+00  0.5058194133791E+00
 0.2875726752415E+00 -0.3379987606964E+00  0.0000000000000E+00  0.3002430788705E+00
 0.2695717740261E+00 -0.3099041045820E+00  0.0000000000000E+00  0.1459393002438E+00
 0.2364054478133E+00 -0.2680820945434E+00  0.0000000000000E+00  0.5295101504973E-01
 0.2007436497036E+00 -0.2255052158504E+00  0.0000000000000E+00  0.8339666350996E-02
 0.1689501591036E+00 -0.1885513789769E+00  0.0000000000000E+00 -0.4762715031312E-02
 0.1429633626143E+00 -0.1586833714685E+00  0.0000000000000E+00 -0.1884812227550E-02
 0.1215338883956E+00 -0.1342913471805E+00  0.0000000000000E+00  0.7768361362180E-02
 0.1030287913324E+00 -0.1135316678174E+00  0.0000000000000E+00  0.1987053435474E-01
 0.8648327721611E-01 -0.9526790869326E-01  0.0000000000000E+00  0.3182151054393E-01
 0.7137493798859E-01 -0.7884953767960E-01  0.0000000000000E+00  0.4172279846953E-01
 0.5735215654048E-01 -0.6381976954468E-01  0.0000000000000E+00  0.4820907358753E-01
 0.4418350354590E-01 -0.4987394102701E-01  0.0000000000000E+00  0.5036766449516E-01
 0.3190438553513E-01 -0.3700081866876E-01  0.0000000000000E+00  0.4762078002164E-01
 0.2069916546541E-01 -0.2533590652324E-01  0.0000000000000E+00  0.3978935876394E-01
 0.1057295679900E-01 -0.1478912426071E-01  0.0000000000000E+00  0.2703992447479E-01
 0.3455396661131E-02 -0.7304484123080E-02  0.0000000000000E+00  0.1080042189158E-01
 0.1843020955801E-02 -0.5540901117946E-02  0.0000000000000E+00 -0.3313462479904E-02
 0.5355637889544E-02 -0.9279794011456E-02  0.0000000000000E+00 -0.7138364415884E-02
 0.2169060104184E+00 -0.2915429143932E+00  0.0000000000000E+00  0.7502672445517E+00
 0.2984590499382E+00 -0.3604770308406E+00  0.0000000000000E+00  0.4613607287465E+00
 0.2965476014609E+00 -0.3456299533488E+00  0.0000000000000E+00  0.2283614967485E+00
 0.2604621652903E+00 -0.2976601704089E+00  0.0000000000000E+00  0.7577583338810E-01
 0.2154231966824E+00 -0.2433896214297E+00  0.0000000000000E+00  0.7041815592808E-03
 0.1744624738682E+00 -0.1956424084045E+00  0.0000000000000E+00 -0.2415914521636E-01
 0.1412874046670E+00 -0.1575460248722E+00  0.0000000000000E+00 -0.2323596671860E-01
 0.1154323630064E+00 -0.1279614702916E+00  0.0000000000000E+00 -0.1232650939475E-01
 0.9455529072263E-01 -0.1042627390132E+00  0.0000000000000E+00  0.1754299953081E-02
 0.7678099166435E-01 -0.8436963973961E-01  0.0000000000000E+00  0.1604876650509E-01
 0.6111627170251E-01 -0.6710593415402E-01  0.0000000000000E+00  0.2848537227023E-01
 0.4704128774879E-01 -0.5181461790206E-01  0.0000000000000E+00  0.3746752907388E-01
 0.3422608761751E-01 -0.3806402784683E-01  0.0000000000000E+00  0.4196879915199E-01
 0.2252311745260E-01 -0.2564236937758E-01  0.0000000000000E+00  0.4137631145143E-01
 0.1207477177949E-01 -0.1465802446608E-01  0.0000000000000E+00  0.3535048003394E-01
 0.3146119893427E-02 -0.5339153398574E-02  0.0000000000000E+00  0.2395852245688E-01
-0.4195420273003E-02  0.2333150720334E-02  0.0000000000000E+00  0.7659905906245E-02
-0.7972388997759E-02  0.6401946007188E-02  0.0000000000000E+00 -0.1220306407033E-01
-0.6092187334267E-02  0.4658770800846E-02  0.0000000000000E+00 -0.2999880155271E-01
 0.5596089314879E-03 -0.2088781851258E-02  0.0000000000000E+00 -0.3739971070631E-01
 0.2448187894633E+00 -0.3256450014527E+00  0.0000000000000E+00  0.7627694253688E+00
 0.3269728192083E+00 -0.3908178635956E+00  0.0000000000000E+00  0.3914883240943E+00
 0.2997327751778E+00 -0.3465593300628E+00  0.0000000000000E+00  0.1346598315813E+00
 0.2428134134123E+00 -0.2758001761031E+00  0.0000000000000E+00 -0.6426097319681E-03
 0.1882687548118E+00 -0.2121007015860E+00  0.0000000000000E+00 -0.4620230953280E-01
 0.1451697603267E+00 -0.1628411594220E+00  0.0000000000000E+00 -0.4845269129575E-01
 0.1124498374576E+00 -0.1254131434441E+00  0.0000000000000E+00 -0.3495905496298E-01
 0.8762230887587E-01 -0.9699087252873E-01  0.0000000000000E+00 -0.1758904471097E-01
 0.6784235939093E-01 -0.7453625926905E-01  0.0000000000000E+00 -0.1599901563054E-03
 0.5121182798614E-01 -0.5594185143000E-01  0.0000000000000E+00  0.1549392185037E-01
 0.3676432728367E-01 -0.4002523748258E-01  0.0000000000000E+00  0.2768378652618E-01
 0.2399621039497E-01 -0.2613374618066E-01  0.0000000000000E+00  0.3517193982070E-01
 0.1262954926098E-01 -0.1389965835176E-01  0.0000000000000E+00  0.3739276394281E-01
 0.2646000364503E-02 -0.3258382779413E-02  0.0000000000000E+00  0.3409209576150E-01
-0.5679756255484E-02  0.5532039188209E-02  0.0000000000000E+00  0.2518111788018E-01
-0.1200118718843E-01  0.1214271766177E-01  0.0000000000000E+00  0.1097040979359E-01
-0.1619618356952E-01  0.1652926272769E-01  0.0000000000000E+00 -0.7804625963924E-02
-0.1633282873606E-01  0.1680714809520E-01  0.0000000000000E+00 -0.3000973340386E-01
-0.1083216184977E-01  0.1134583468158E-01  0.0000000000000E+00 -0.5017414688000E-01
-0.8469550302310E-03  0.1342178178860E-02  0.0000000000000E+00 -0.6003276395282E-01
 0.2793044306813E+00 -0.3707333489416E+00  0.0000000000000E+00  0.7641720550226E+00
 0.3557708052272E+00 -0.4218283676261E+00  0.0000000000000E+00  0.2803488243389E+00
 0.2916728000395E+00 -0.3341304814042E+00  0.0000000000000E+00  0.1600594442543E-01
 0.2145726647871E+00 -0.2418235779820E+00  0.0000000000000E+00 -0.7464532912018E-01
 0.1563524088880E+00 -0.1763803870906E+00  0.0000000000000E+00 -0.8145331383873E-01
 0.1142638037079E+00 -0.1285621456245E+00  0.0000000000000E+00 -0.6394597224628E-01
 0.8315527456165E-01 -0.9287937297650E-01  0.0000000000000E+00 -0.4041294196555E-01
 0.6001646378393E-01 -0.6624214197558E-01  0.0000000000000E+00 -0.1802417063511E-01
 0.4179235061366E-01 -0.4551911615628E-01  0.0000000000000E+00  0.1857004603663E-02
 0.2666691776271E-01 -0.2861648897789E-01  0.0000000000000E+00  0.1802973662785E-01
 0.1368411282981E-01 -0.1429824710780E-01  0.0000000000000E+00  0.2918044820634E-01
 0.2385480217323E-02 -0.1957383859570E-02  0.0000000000000E+00  0.3465267098780E-01
-0.7398835705174E-02  0.8632850109572E-02  0.0000000000000E+00  0.3447600045339E-01
-0.1550611513667E-01  0.1733609642540E-01  0.0000000000000E+00  0.2876439754775E-01
-0.2151131658656E-01  0.2371619571323E-01  0.0000000000000E+00  0.1765871417942E-01
-0.2499411858832E-01  0.2735313927533E-01  0.0000000000000E+00  0.1695820370588E-02
-0.2579244461931E-01  0.2813638355347E-01  0.0000000000000E+00 -0.1818226579684E-01
-0.2213730678393E-01  0.2438547240020E-01  0.0000000000000E+00 -0.4127503657242E-01
-0.1313176359991E-01  0.1522002622351E-01  0.0000000000000E+00 -0.6235431267426E-01
 0.1057277993546E-03  0.1978729790822E-02  0.0000000000000E+00 -0.7333142890759E-01
 0.3217969705706E+00 -0.4335649307679E+00  0.0000000000000E+00  0.7347896491925E+00
 0.3767825972777E+00 -0.4447886709937E+00  0.0000000000000E+00  0.9433468867127E-01
 0.2631569380979E+00 -0.2943221272916E+00  0.0000000000000E+00 -0.1198707196340E+00
 0.1771922337635E+00 -0.2001416450831E+00  0.0000000000000E+00 -0.1273998330952E+00
 0.1224359939617E+00 -0.1389235413340E+00  0.0000000000000E+00 -0.1042750746689E+00
 0.8257116172245E-01 -0.9365201816985E-01  0.0000000000000E+00 -0.7191196081452E-01
 0.5384034259437E-01 -0.6032199967107E-01  0.0000000000000E+00 -0.4031815382749E-01
 0.3297796919948E-01 -0.3605547074353E-01  0.0000000000000E+00 -0.1378200197515E-01
 0.1681055013462E-01 -0.1765164769822E-01  0.0000000000000E+00  0.7743969073108E-02
 0.3477393080486E-02 -0.2757879014530E-02  0.0000000000000E+00  0.2334077243452E-01
-0.7945101672147E-02  0.9888903306209E-02  0.0000000000000E+00  0.3256354961288E-01
-0.1775286710740E-01  0.2067897531953E-01  0.0000000000000E+00  0.3564716093355E-01
-0.2592702505701E-01  0.2960672046237E-01  0.0000000000000E+00  0.3321750837571E-01
-0.3210140530268E-01  0.3630183794563E-01  0.0000000000000E+00  0.2563853614779E-01
-0.3570359623917E-01  0.4019004803869E-01  0.0000000000000E+00  0.1332469364771E-01
-0.3621853770018E-01  0.4066458900898E-01  0.0000000000000E+00 -0.2963894923830E-02
-0.3346147924368E-01  0.3762127881276E-01  0.0000000000000E+00 -0.2231042202720E-01
-0.2595857003740E-01  0.2965157670021E-01  0.0000000000000E+00 -0.4484365026621E-01
-0.1381451772501E-01  0.1706825688371E-01  0.0000000000000E+00 -0.6559397991002E-01
 0.2243253220638E-02  0.9443526912662E-03  0.0000000000000E+00 -0.7634389845604E-01
 0.3518474106233E+00 -0.5337540698767E+00  0.0000000000000E+00  0.5414386164053E+00
 0.3572870661565E+00 -0.3921481524703E+00  0.0000000000000E+00 -0.2252443933209E+00
 0.2104024869239E+00 -0.2368508670525E+00  0.0000000000000E+00 -0.2043712285109E+00
 0.1380522315608E+00 -0.1570198253271E+00  0.0000000000000E+00 -0.1580009713420E+00
 0.8755388747745E-01 -0.1008599560303E+00  0.0000000000000E+00 -0.1179531299782E+00
 0.5054683641060E-01 -0.5850987346452E-01  0.0000000000000E+00 -0.7397122570473E-01
 0.2461202746085E-01 -0.2768343356394E-01  0.0000000000000E+00 -0.3492649725168E-01
 0.6990562641267E-02 -0.6957050337498E-02  0.0000000000000E+00 -0.4414723419612E-02
-0.6598090780432E-02  0.8477646795785E-02  0.0000000000000E+00  0.1728347755546E-01
-0.1809098467990E-01  0.2135743857845E-01  0.0000000000000E+00  0.3074899948682E-01
-0.2807191189364E-01  0.3248562001188E-01  0.0000000000000E+00  0.3725195489543E-01
-0.3651098307211E-01  0.4188448197287E-01  0.0000000000000E+00  0.3787923381516E-01
-0.4312752146780E-01  0.4920042343909E-01  0.0000000000000E+00  0.3369588815159E-01
-0.4736089536978E-01  0.5385826327930E-01  0.0000000000000E+00  0.2501182115904E-01
-0.4867392111826E-01  0.5532310105280E-01  0.0000000000000E+00  0.1243799345522E-01
-0.4630687374187E-01  0.5286198176479E-01  0.0000000000000E+00 -0.2061524509327E-02
-0.3965867719741E-01  0.4529754247564E-01  0.0000000000000E+00 -0.1852257003171E-01
-0.2813814943460E-01  0.3288914768193E-01  0.0000000000000E+00 -0.4005813718811E-01
-0.1362352803215E-01  0.1763365179648E-01  0.0000000000000E+00 -0.5990779009524E-01
 0.4326125792520E-02 -0.5178429439813E-03  0.0000000000000E+00 -0.6908947485133E-01
 0.3849239651463E+00 -0.4293995544850E+00  0.0000000000000E+00 -0.2948502961152E+00
 0.3577832883204E+00 -0.3983697591916E+00  0.0000000000000E+00 -0.3027016444117E+00
 0.3285677288498E+00 -0.3670950104734E+00  0.0000000000000E+00 -0.3098723903412E+00
 0.2974978268019E+00 -0.3338376093387E+00  0.0000000000000E+00 -0.3129143814821E+00
 0.2646584189751E+00 -0.2987011673033E+00  0.0000000000000E+00 -0.3107850988237E+00
 0.2307669850908E+00 -0.2623431594466E+00  0.0000000000000E+00 -0.3029378747274E+00
 0.1965858195975E+00 -0.2255275767853E+00  0.0000000000000E+00 -0.2889827724857E+00
 0.1629463371690E+00 -0.1890919434607E+00  0.0000000000000E+00 -0.2687350890368E+00
 0.1307197804524E+00 -0.1539231444937E+00  0.0000000000000E+00 -0.2422771332989E+00
 0.1007920243283E+00 -0.1209309828530E+00  0.0000000000000E+00 -0.2100264260482E+00
 0.7402263766094E-01 -0.9100886775849E-01  0.0000000000000E+00 -0.1727962613997E+00
 0.5119127657298E-01 -0.6498161976517E-01  0.0000000000000E+00 -0.1318431139713E+00
 0.3293088995119E-01 -0.4354010009500E-01  0.0000000000000E+00 -0.8889092701479E-01
 0.1964867757538E-01 -0.2716312961765E-01  0.0000000000000E+00 -0.4611843521726E-01
 0.1143770686676E-01 -0.1602883058119E-01  0.0000000000000E+00 -0.6088995119638E-02
 0.7987473978536E-02 -0.9922404299084E-02  0.0000000000000E+00  0.2840738550268E-01
 0.8518425818651E-02 -0.8161315121876E-02  0.0000000000000E+00  0.5464457470550E-01
 0.1178867460047E-01 -0.9590047342620E-02  0.0000000000000E+00  0.7040317365335E-01
 0.1627790839307E-01 -0.1273006314469E-01  0.0000000000000E+00  0.7450941209019E-01
 0.2037155764763E-01 -0.1611084446397E-01  0.0000000000000E+00  0.6655129801976E-01
 0.4004142952447E+00 -0.4450861136417E+00  0.0000000000000E+00 -0.3024243707261E+00
 0.3772045997181E+00 -0.4201292032602E+00  0.0000000000000E+00 -0.3124936847876E+00
 0.3489535363524E+00 -0.3895794431940E+00  0.0000000000000E+00 -0.3208859712938E+00
 0.3183952073950E+00 -0.3569800573358E+00  0.0000000000000E+00 -0.3275554824805E+00
 0.2860776925108E+00 -0.3224939539770E+00  0.0000000000000E+00 -0.3296897507198E+00
 0.2523928025856E+00 -0.2864796981030E+00  0.0000000000000E+00 -0.3262299658553E+00
 0.2179632729564E+00 -0.2495267118191E+00  0.0000000000000E+00 -0.3164712738856E+00
 0.1835431248663E+00 -0.2123842962887E+00  0.0000000000000E+00 -0.2999845483352E+00
 0.1499905933880E+00 -0.1759154474858E+00  0.0000000000000E+00 -0.2766016177260E+00
 0.1182339531776E+00 -0.1410635858109E+00  0.0000000000000E+00 -0.2464839735934E+00
 0.8923450379886E-01 -0.1088158114401E+00  0.0000000000000E+00 -0.2102032010787E+00
 0.6393628626919E-01 -0.8015436377610E-01  0.0000000000000E+00 -0.1688209086929E+00
 0.4319883853699E-01 -0.5599138770358E-01  0.0000000000000E+00 -0.1239544031349E+00
 0.2770963455626E-01 -0.3708359496341E-01  0.0000000000000E+00 -0.7781288467990E-01
 0.1787404720038E-01 -0.2392433437980E-01  0.0000000000000E+00 -0.3318095398101E-01
 0.1368367175073E-01 -0.1661258396768E-01  0.0000000000000E+00  0.6690070777626E-02
 0.1457246259465E-01 -0.1470636301750E-01  0.0000000000000E+00  0.3835189738367E-01
 0.1931526451703E-01 -0.1710141224403E-01  0.0000000000000E+00  0.5870895200659E-01
 0.2608238886955E-01 -0.2207090109286E-01  0.0000000000000E+00  0.6583966510057E-01
 0.3313047471593E-01 -0.2780615512338E-01  0.0000000000000E+00  0.5970599275471E-01
 0.4152975661192E+00 -0.4611293660149E+00  0.0000000000000E+00 -0.3032925691879E+00
 0.3949074415011E+00 -0.4393360938312E+00  0.0000000000000E+00 -0.3193326003819E+00
 0.3694547294202E+00 -0.4121942862204E+00  0.0000000000000E+00 -0.3309516550332E+00
 0.3405725826167E+00 -0.3814375874374E+00  0.0000000000000E+00 -0.3405895636758E+00
 0.3094077256795E+00 -0.3483073039059E+00  0.0000000000000E+00 -0.3467513236394E+00
 0.2765166815481E+00 -0.3132723890370E+00  0.0000000000000E+00 -0.3479241100681E+00
 0.2424319279707E+00 -0.2768344463440E+00  0.0000000000000E+00 -0.3430751482824E+00
 0.2078102190518E+00 -0.2396281198632E+00  0.0000000000000E+00 -0.3314663513777E+00
 0.1734367399533E+00 -0.2024304959222E+00  0.0000000000000E+00 -0.3126270615720E+00
 0.1402128214978E+00 -0.1661448586209E+00  0.0000000000000E+00 -0.2863915819614E+00
 0.1091314100341E+00 -0.1317772252592E+00  0.0000000000000E+00 -0.2529816251124E+00
 0.8124048095741E-01 -0.1004013643498E+00  0.0000000000000E+00 -0.2131073132759E+00
 0.5758774922293E-01 -0.7310599959715E-01  0.0000000000000E+00 -0.1680728097062E+00
 0.3913982416486E-01 -0.5091712212066E-01  0.0000000000000E+00 -0.1198717369453E+00
 0.2666783961839E-01 -0.3468761674955E-01  0.0000000000000E+00 -0.7125149798640E-01
 0.2058972106507E-01 -0.2494479205273E-01  0.0000000000000E+00 -0.2571022157170E-01
 0.2076027838332E-01 -0.2168543388879E-01  0.0000000000000E+00  0.1264836439443E-01
 0.2621101829879E-01 -0.2411716747108E-01  0.0000000000000E+00  0.3957432164377E-01
 0.3500433705663E-01 -0.3045945242513E-01  0.0000000000000E+00  0.5179438831134E-01
 0.4455839979286E-01 -0.3821148627001E-01  0.0000000000000E+00  0.4894581918933E-01
 0.4306699019821E+00 -0.4777435352254E+00  0.0000000000000E+00 -0.3008952407782E+00
 0.4123634801072E+00 -0.4583712579855E+00  0.0000000000000E+00 -0.3216951110919E+00
 0.3896563667261E+00 -0.4343246218627E+00  0.0000000000000E+00 -0.3375979991974E+00
 0.3632501360060E+00 -0.4063934574126E+00  0.0000000000000E+00 -0.3508039827803E+00
 0.3340290395384E+00 -0.3754659042755E+00  0.0000000000000E+00 -0.3609057197763E+00
 0.3026409502947E+00 -0.3421843376341E+00  0.0000000000000E+00 -0.3667492427193E+00
 0.2696148617725E+00 -0.3070382106919E+00  0.0000000000000E+00 -0.3671759087108E+00
 0.2355226566831E+00 -0.2705706950910E+00  0.0000000000000E+00 -0.3612268075191E+00
 0.2010474446994E+00 -0.2334424611009E+00  0.0000000000000E+00 -0.3481530540607E+00
 0.1670013554865E+00 -0.1964520160515E+00  0.0000000000000E+00 -0.3274549798798E+00
 0.1343254085982E+00 -0.1605363213708E+00  0.0000000000000E+00 -0.2989548517667E+00
 0.1040757492580E+00 -0.1267592612221E+00  0.0000000000000E+00 -0.2629017540975E+00
 0.7739355697455E-01 -0.9628450305552E-01  0.0000000000000E+00 -0.2201001598806E+00
 0.5545055159792E-01 -0.7032488474284E-01  0.0000000000000E+00 -0.1720543079332E+00
 0.3935792827408E-01 -0.5005654613466E-01  0.0000000000000E+00 -0.1211169110136E+00
 0.3002037321652E-01 -0.3648042794206E-01  0.0000000000000E+00 -0.7062162335570E-01
 0.2790383496802E-01 -0.3020284775374E-01  0.0000000000000E+00 -0.2495323797825E-01
 0.3266671967425E-01 -0.3108695582068E-01  0.0000000000000E+00  0.1057651816088E-01
 0.4261370299760E-01 -0.3772579810958E-01  0.0000000000000E+00  0.3056568695765E-01
 0.5442144247506E-01 -0.4704721207748E-01  0.0000000000000E+00  0.3223022615625E-01
 0.4462336801163E+00 -0.4945685574746E+00  0.0000000000000E+00 -0.2958353137451E+00
 0.4298205266643E+00 -0.4773742943544E+00  0.0000000000000E+00 -0.3201112047174E+00
 0.4097026140980E+00 -0.4562489811711E+00  0.0000000000000E+00 -0.3398909116839E+00
 0.3860244275716E+00 -0.4313738379865E+00  0.0000000000000E+00 -0.3568038591129E+00
 0.3593250528663E+00 -0.4032916438184E+00  0.0000000000000E+00 -0.3708389455508E+00
 0.3301314898542E+00 -0.3725106498838E+00  0.0000000000000E+00 -0.3812343986837E+00
 0.2989260109470E+00 -0.3394859076266E+00  0.0000000000000E+00 -0.3869747723426E+00
 0.2662042149623E+00 -0.3046778491217E+00  0.0000000000000E+00 -0.3870457282073E+00
 0.2325377527860E+00 -0.2686251095061E+00  0.0000000000000E+00 -0.3805373596038E+00
 0.1986114501496E+00 -0.2319830181125E+00  0.0000000000000E+00 -0.3666975719445E+00
 0.1652421063098E+00 -0.1955446888652E+00  0.0000000000000E+00 -0.3449969215767E+00
 0.1333865905777E+00 -0.1602514398775E+00  0.0000000000000E+00 -0.3152189699194E+00
 0.1041395601557E+00 -0.1271938217611E+00  0.0000000000000E+00 -0.2775821060565E+00
 0.7871632581503E-01 -0.9759889774395E-01  0.0000000000000E+00 -0.2328957725616E+00
 0.5841093531163E-01 -0.7279423550023E-01  0.0000000000000E+00 -0.1827543042256E+00
 0.4451115141658E-01 -0.5413133204170E-01  0.0000000000000E+00 -0.1297721016133E+00
 0.3813460077050E-01 -0.4283549889591E-01  0.0000000000000E+00 -0.7786427650550E-01
 0.3990220994319E-01 -0.3970929355562E-01  0.0000000000000E+00 -0.3256254643188E-01
 0.4921134019092E-01 -0.4449075756800E-01  0.0000000000000E+00 -0.1206665436219E-02
 0.6288005389394E-01 -0.5459024909367E-01  0.0000000000000E+00  0.8618794978568E-02
 0.4617599959889E+00 -0.5113299919920E+00  0.0000000000000E+00 -0.2884017340762E+00
 0.4471705206515E+00 -0.4962159549840E+00  0.0000000000000E+00 -0.3148843728411E+00
 0.4295055616911E+00 -0.4778421943852E+00  0.0000000000000E+00 -0.3377074606650E+00
 0.4086008062397E+00 -0.4560615874687E+00  0.0000000000000E+00 -0.3578839360760E+00
 0.3847114130953E+00 -0.4311219214711E+00  0.0000000000000E+00 -0.3755115381104E+00
 0.3581986311188E+00 -0.4033650162243E+00  0.0000000000000E+00 -0.3900851417380E+00
 0.3294457330074E+00 -0.3731444313812E+00  0.0000000000000E+00 -0.4007929570309E+00
 0.2988628316188E+00 -0.3408347110546E+00  0.0000000000000E+00 -0.4067099806566E+00
 0.2669176098916E+00 -0.3068638841484E+00  0.0000000000000E+00 -0.4069093319666E+00
 0.2341666352975E+00 -0.2717477533405E+00  0.0000000000000E+00 -0.4005298132639E+00
 0.2012791239262E+00 -0.2361150819005E+00  0.0000000000000E+00 -0.3868321760547E+00
 0.1690539697673E+00 -0.2007263828890E+00  0.0000000000000E+00 -0.3652666465178E+00
 0.1384317390701E+00 -0.1664882115231E+00  0.0000000000000E+00 -0.3355632932338E+00
 0.1105012522936E+00 -0.1344630976483E+00  0.0000000000000E+00 -0.2978551394130E+00
 0.8649786598421E-01 -0.1058726364708E+00  0.0000000000000E+00 -0.2528462443531E+00
 0.6778664244059E-01 -0.8208746202028E-01  0.0000000000000E+00 -0.2020447755141E+00
 0.5581451055327E-01 -0.6458960076040E-01  0.0000000000000E+00 -0.1481006573830E+00
 0.5198696101604E-01 -0.5486736416034E-01  0.0000000000000E+00 -0.9534200692936E-01
 0.5729359888058E-01 -0.5409740701666E-01  0.0000000000000E+00 -0.5078500313227E-01
 0.7069674523275E-01 -0.6187988967606E-01  0.0000000000000E+00 -0.2585513214526E-01
 0.4770401895285E+00 -0.5278084418263E+00  0.0000000000000E+00 -0.2788075675034E+00
 0.4642621167696E+00 -0.5147339210886E+00  0.0000000000000E+00 -0.3063900318223E+00
 0.4489326795155E+00 -0.4989674046678E+00  0.0000000000000E+00 -0.3312818989487E+00
 0.4307470812744E+00 -0.4802071699557E+00  0.0000000000000E+00 -0.3539860087239E+00
 0.4097631260268E+00 -0.4585001542515E+00  0.0000000000000E+00 -0.3745637298902E+00
 0.3861897333429E+00 -0.4340340879558E+00  0.0000000000000E+00 -0.3926597350968E+00
 0.3603013531344E+00 -0.4070546202898E+00  0.0000000000000E+00 -0.4076427201858E+00
 0.3324184747646E+00 -0.3778467755569E+00  0.0000000000000E+00 -0.4187302941722E+00
 0.3029172575730E+00 -0.3467459858856E+00  0.0000000000000E+00 -0.4250779022350E+00
 0.2722484075932E+00 -0.3141577136717E+00  0.0000000000000E+00 -0.4258414710018E+00
 0.2409565354537E+00 -0.2805775540882E+00  0.0000000000000E+00 -0.4202279272857E+00
 0.2096967912240E+00 -0.2466082524933E+00  0.0000000000000E+00 -0.4075461368953E+00
 0.1792482999097E+00 -0.2129735918194E+00  0.0000000000000E+00 -0.3872682548051E+00
 0.1505245711662E+00 -0.1805294894058E+00  0.0000000000000E+00 -0.3591095387129E+00
 0.1245809875826E+00 -0.1502725798363E+00  0.0000000000000E+00 -0.3231360947426E+00
 0.1026199148241E+00 -0.1233467726362E+00  0.0000000000000E+00 -0.2799155936232E+00
 0.8599631883767E-01 -0.1010497430844E+00  0.0000000000000E+00 -0.2307419368947E+00
 0.7623277199896E-01 -0.8484480924006E-01  0.0000000000000E+00 -0.1780151129962E+00
 0.7507456836422E-01 -0.7639074878506E-01  0.0000000000000E+00 -0.1260511384544E+00
 0.8432511439378E-01 -0.7737494160606E-01  0.0000000000000E+00 -0.8389944303109E-01
 0.4918870858623E+00 -0.5438064543413E+00  0.0000000000000E+00 -0.2672023252238E+00
 0.4809208349512E+00 -0.5327470408527E+00  0.0000000000000E+00 -0.2949637433169E+00
 0.4678247036371E+00 -0.5194578836675E+00  0.0000000000000E+00 -0.3209666075175E+00
 0.4522554871122E+00 -0.5035913526267E+00  0.0000000000000E+00 -0.3453402137262E+00
 0.4341504629902E+00 -0.4850722398738E+00  0.0000000000000E+00 -0.3680580441399E+00
 0.4135998857169E+00 -0.4639707534896E+00  0.0000000000000E+00 -0.3888370107553E+00
 0.3907789126874E+00 -0.4404354060795E+00  0.0000000000000E+00 -0.4071796765053E+00
 0.3659227670146E+00 -0.4146688842411E+00  0.0000000000000E+00 -0.4224412199042E+00
 0.3393259814913E+00 -0.3869275615817E+00  0.0000000000000E+00 -0.4338900618228E+00
 0.3113532191209E+00 -0.3575325416624E+00  0.0000000000000E+00 -0.4407582031991E+00
 0.2824545434329E+00 -0.3268848415915E+00  0.0000000000000E+00 -0.4422852871857E+00
 0.2531815177961E+00 -0.2954811751001E+00  0.0000000000000E+00 -0.4377624284511E+00
 0.2242024224539E+00 -0.2639285286868E+00  0.0000000000000E+00 -0.4265816066109E+00
 0.1963158015850E+00 -0.2329567427608E+00  0.0000000000000E+00 -0.4082958032260E+00
 0.1704620579276E+00 -0.2034286713344E+00  0.0000000000000E+00 -0.3826946125266E+00
 0.1477339346132E+00 -0.1763483431537E+00  0.0000000000000E+00 -0.3499003746616E+00
 0.1293912863718E+00 -0.1528710897812E+00  0.0000000000000E+00 -0.3104907234227E+00
 0.1169033890773E+00 -0.1343335328083E+00  0.0000000000000E+00 -0.2656572736512E+00
 0.1121118929283E+00 -0.1223755580817E+00  0.0000000000000E+00 -0.2174176067973E+00
 0.1181694450670E+00 -0.1195827163361E+00  0.0000000000000E+00 -0.1691419174597E+00
 0.5061366387358E+00 -0.5591520793198E+00  0.0000000000000E+00 -0.2537070414034E+00
 0.4969772201401E+00 -0.5500798913284E+00  0.0000000000000E+00 -0.2809106837983E+00
 0.4860208708487E+00 -0.5391477930613E+00  0.0000000000000E+00 -0.3071614877425E+00
 0.4729424233169E+00 -0.5260225080209E+00  0.0000000000000E+00 -0.3323444704499E+00
 0.4576167000654E+00 -0.5105666460581E+00  0.0000000000000E+00 -0.3563416943232E+00
 0.4400509238828E+00 -0.4927697278877E+00  0.0000000000000E+00 -0.3788965256279E+00
 0.4203383470011E+00 -0.4727020247388E+00  0.0000000000000E+00 -0.3996001195430E+00
 0.3986368146939E+00 -0.4504932737608E+00  0.0000000000000E+00 -0.4179166931520E+00
 0.3751647422415E+00 -0.4263286829904E+00  0.0000000000000E+00 -0.4332175095105E+00
 0.3502077075515E+00 -0.4004553707219E+00  0.0000000000000E+00 -0.4448149046580E+00
 0.3241311918306E+00 -0.3731948092493E+00  0.0000000000000E+00 -0.4519956686663E+00
 0.2973968569878E+00 -0.3449585767998E+00  0.0000000000000E+00 -0.4540562020283E+00
 0.2705810305105E+00 -0.3162660612321E+00  0.0000000000000E+00 -0.4503430619897E+00
 0.2443948491385E+00 -0.2877634965321E+00  0.0000000000000E+00 -0.4403028301071E+00
 0.2197059992896E+00 -0.2602441983863E+00  0.0000000000000E+00 -0.4235450999099E+00
 0.1975626192451E+00 -0.2346704202114E+00  0.0000000000000E+00 -0.3999212285107E+00
 0.1792214673495E+00 -0.2121988364383E+00  0.0000000000000E+00 -0.3696170157688E+00
 0.1661890734107E+00 -0.1942177833929E+00  0.0000000000000E+00 -0.3332375879455E+00
 0.1603058380262E+00 -0.1824273530714E+00  0.0000000000000E+00 -0.2917907474634E+00
 0.1640451753504E+00 -0.1791453718345E+00  0.0000000000000E+00 -0.2458191493683E+00
 0.5196481282640E+00 -0.5736982940438E+00  0.0000000000000E+00 -0.2384307980573E+00
 0.5122770626741E+00 -0.5665748614274E+00  0.0000000000000E+00 -0.2645068072295E+00
 0.5033709677460E+00 -0.5578856637381E+00  0.0000000000000E+00 -0.2902740236379E+00
 0.4926489710137E+00 -0.5473409215873E+00  0.0000000000000E+00 -0.3154767314746E+00
 0.4799631040161E+00 -0.5347816499073E+00  0.0000000000000E+00 -0.3399256759434E+00
 0.4652683949104E+00 -0.5201482204090E+00  0.0000000000000E+00 -0.3633694664863E+00
 0.4485956681347E+00 -0.5034527643833E+00  0.0000000000000E+00 -0.3854553389061E+00
 0.4300364582085E+00 -0.4847639640678E+00  0.0000000000000E+00 -0.4057278237060E+00
 0.4097390324671E+00 -0.4642029024340E+00  0.0000000000000E+00 -0.4236415499643E+00
 0.3879126671254E+00 -0.4419470725895E+00  0.0000000000000E+00 -0.4385788060042E+00
 0.3648378287015E+00 -0.4182401532060E+00  0.0000000000000E+00 -0.4498690161025E+00
 0.3408807832828E+00 -0.3934060454415E+00  0.0000000000000E+00 -0.4568103132856E+00
 0.3165119088632E+00 -0.3678663946134E+00  0.0000000000000E+00 -0.4586948693660E+00
 0.2923275306840E+00 -0.3421613761785E+00  0.0000000000000E+00 -0.4548404274408E+00
 0.2690754002447E+00 -0.3169738328333E+00  0.0000000000000E+00 -0.4446308161570E+00
 0.2476838132237E+00 -0.2931568487960E+00  0.0000000000000E+00 -0.4275679327411E+00
 0.2292934516499E+00 -0.2717641960916E+00  0.0000000000000E+00 -0.4033354056340E+00
 0.2152850263155E+00 -0.2540795597365E+00  0.0000000000000E+00 -0.3718665065574E+00
 0.2072783560681E+00 -0.2416269797480E+00  0.0000000000000E+00 -0.3333728072407E+00
 0.2068208873713E+00 -0.2359950283324E+00  0.0000000000000E+00 -0.2882609543465E+00
 0.5323036339856E+00 -0.5873220311326E+00  0.0000000000000E+00 -0.2214728074219E+00
 0.5266859270691E+00 -0.5820947254757E+00  0.0000000000000E+00 -0.2459937753834E+00
 0.5197386496353E+00 -0.5755355480992E+00  0.0000000000000E+00 -0.2706826691681E+00
 0.5112347205772E+00 -0.5674088721537E+00  0.0000000000000E+00 -0.2952186751492E+00
 0.5010273567455E+00 -0.5575586717645E+00  0.0000000000000E+00 -0.3193690958116E+00
 0.4890428594438E+00 -0.5458997919108E+00  0.0000000000000E+00 -0.3428823746942E+00
 0.4752677677396E+00 -0.5324044855584E+00  0.0000000000000E+00 -0.3654418423492E+00
 0.4597401625223E+00 -0.5170934112431E+00  0.0000000000000E+00 -0.3866501824006E+00
 0.4425471268713E+00 -0.5000328474436E+00  0.0000000000000E+00 -0.4060280531480E+00
 0.4238278611856E+00 -0.4813375158485E+00  0.0000000000000E+00 -0.4230187823161E+00
 0.4037815566253E+00 -0.4611780745751E+00  0.0000000000000E+00 -0.4369956473696E+00
 0.3826793884499E+00 -0.4397926029760E+00  0.0000000000000E+00 -0.4472706492302E+00
 0.3608803926698E+00 -0.4175018041903E+00  0.0000000000000E+00 -0.4531049958694E+00
 0.3388513610273E+00 -0.3947280167358E+00  0.0000000000000E+00 -0.4537223237999E+00
 0.3171911153392E+00 -0.3720183694455E+00  0.0000000000000E+00 -0.4483263333305E+00
 0.2966594515739E+00 -0.3500723654948E+00  0.0000000000000E+00 -0.4361252452018E+00
 0.2782098643558E+00 -0.3297733174098E+00  0.0000000000000E+00 -0.4163669719646E+00
 0.2630222544593E+00 -0.3122199042305E+00  0.0000000000000E+00 -0.3883938456049E+00
 0.2525110646861E+00 -0.2987398517758E+00  0.0000000000000E+00 -0.3517523319426E+00
 0.2483130342736E+00 -0.2908408636916E+00  0.0000000000000E+00 -0.3065914774431E+00
 0.5439955042242E+00 -0.5999111613131E+00  0.0000000000000E+00 -0.2029272094784E+00
 0.5400696405561E+00 -0.5965049598735E+00  0.0000000000000E+00 -0.2255762133827E+00
 0.5349790480827E+00 -0.5919570725459E+00  0.0000000000000E+00 -0.2487154651571E+00
 0.5285486268794E+00 -0.5860848858035E+00  0.0000000000000E+00 -0.2720115240796E+00
 0.5206444851451E+00 -0.5787472841135E+00  0.0000000000000E+00 -0.2952140942014E+00
 0.5111796520933E+00 -0.5698489432544E+00  0.0000000000000E+00 -0.3180739777912E+00
 0.5001106639879E+00 -0.5593362516171E+00  0.0000000000000E+00 -0.3402995426620E+00
 0.4874338971334E+00 -0.5471932756027E+00  0.0000000000000E+00 -0.3615354534550E+00
 0.4731846391615E+00 -0.5334405650532E+00  0.0000000000000E+00 -0.3813531202080E+00
 0.4574395771459E+00 -0.5181373839133E+00  0.0000000000000E+00 -0.3992467659473E+00
 0.4403226501858E+00 -0.5013872628836E+00  0.0000000000000E+00 -0.4146318373810E+00
 0.4220141392752E+00 -0.4833467132123E+00  0.0000000000000E+00 -0.4268441231330E+00
 0.4027630405715E+00 -0.4642371134784E+00  0.0000000000000E+00 -0.4351388856202E+00
 0.3829030264814E+00 -0.4443600351435E+00  0.0000000000000E+00 -0.4386899189884E+00
 0.3628725774249E+00 -0.4241165340170E+00  0.0000000000000E+00 -0.4365890036211E+00
 0.3432400828934E+00 -0.4040311469804E+00  0.0000000000000E+00 -0.4278470893683E+00
 0.3247350874137E+00 -0.3847814918475E+00  0.0000000000000E+00 -0.4114004636930E+00
 0.3082870858994E+00 -0.3672346897661E+00  0.0000000000000E+00 -0.3861302011588E+00
 0.2950845090370E+00 -0.3524961682889E+00  0.0000000000000E+00 -0.3509212447884E+00
 0.2867011086446E+00 -0.3420146547131E+00  0.0000000000000E+00 -0.3047587139004E+00
 0.5546253302111E+00 -0.6113612186938E+00  0.0000000000000E+00 -0.1828911280097E+00
 0.5522948333566E+00 -0.6096684095796E+00  0.0000000000000E+00 -0.2034194771125E+00
 0.5489370123446E+00 -0.6069936676373E+00  0.0000000000000E+00 -0.2246282714522E+00
 0.5444201962008E+00 -0.6031995338187E+00  0.0000000000000E+00 -0.2462048554290E+00
 0.5386271264989E+00 -0.5981636912978E+00  0.0000000000000E+00 -0.2679018394620E+00
 0.5314664001507E+00 -0.5917893174004E+00  0.0000000000000E+00 -0.2894785377074E+00
 0.5228744897580E+00 -0.5840065015509E+00  0.0000000000000E+00 -0.3106642943712E+00
 0.5128153906546E+00 -0.5747715387519E+00  0.0000000000000E+00 -0.3311364970350E+00
 0.5012808747321E+00 -0.5640669406336E+00  0.0000000000000E+00 -0.3505071820892E+00
 0.4882924577231E+00 -0.5519031991898E+00  0.0000000000000E+00 -0.3683140639821E+00
 0.4739054257976E+00 -0.5383226085907E+00  0.0000000000000E+00 -0.3840133255246E+00
 0.4582150354154E+00 -0.5234052321057E+00  0.0000000000000E+00 -0.3969724766979E+00
 0.4413650216299E+00 -0.5072771260149E+00  0.0000000000000E+00 -0.4064621476209E+00
 0.4235587081609E+00 -0.4901210835002E+00  0.0000000000000E+00 -0.4116459866654E+00
 0.4050732730656E+00 -0.4721904068003E+00  0.0000000000000E+00 -0.4115680428916E+00
 0.3862781505644E+00 -0.4538265827335E+00  0.0000000000000E+00 -0.4051373003877E+00
 0.3676592076895E+00 -0.4354823610032E+00  0.0000000000000E+00 -0.3911094278386E+00
 0.3498526073363E+00 -0.4177532689847E+00  0.0000000000000E+00 -0.3680659493008E+00
 0.3336962094009E+00 -0.4014257263449E+00  0.0000000000000E+00 -0.3343808045291E+00
 0.3203046633042E+00 -0.3875507417507E+00  0.0000000000000E+00 -0.2881396094573E+00
 0.5641075897106E+00 -0.6215794750595E+00  0.0000000000000E+00 -0.1614801855000E+00
 0.5632418076683E+00 -0.6214579127658E+00  0.0000000000000E+00 -0.1796805227417E+00
 0.5614662506159E+00 -0.6204913360545E+00  0.0000000000000E+00 -0.1986438558308E+00
 0.5586821166424E+00 -0.6185772771069E+00  0.0000000000000E+00 -0.2180963527677E+00
 0.5547879908369E+00 -0.6156115270345E+00  0.0000000000000E+00 -0.2378085284317E+00
 0.5496923130617E+00 -0.6114998635174E+00  0.0000000000000E+00 -0.2575556917386E+00
 0.5433178651589E+00 -0.6061620754223E+00  0.0000000000000E+00 -0.2770891873058E+00
 0.5356032066860E+00 -0.5995331070045E+00  0.0000000000000E+00 -0.2961163712140E+00
 0.5265035225472E+00 -0.5915637122209E+00  0.0000000000000E+00 -0.3142862717218E+00
 0.5159920032358E+00 -0.5822216939370E+00  0.0000000000000E+00 -0.3311783495560E+00
 0.5040622188751E+00 -0.5714941626939E+00  0.0000000000000E+00 -0.3462924245531E+00
 0.4907316632268E+00 -0.5593909758295E+00  0.0000000000000E+00 -0.3590383206575E+00
 0.4760465606947E+00 -0.5459494396212E+00  0.0000000000000E+00 -0.3687240419433E+00
 0.4600880695341E+00 -0.5312403968826E+00  0.0000000000000E+00 -0.3745413466711E+00
 0.4429801654814E+00 -0.5153759621725E+00  0.0000000000000E+00 -0.3755474648884E+00
 0.4248997687536E+00 -0.4985194336048E+00  0.0000000000000E+00 -0.3706413975744E+00
 0.4060901704103E+00 -0.4808983469474E+00  0.0000000000000E+00 -0.3585327015590E+00
 0.3868790003518E+00 -0.4628221507708E+00  0.0000000000000E+00 -0.3376986653465E+00
 0.3677002739734E+00 -0.4447047744172E+00  0.0000000000000E+00 -0.3063220383570E+00
 0.3491158819439E+00 -0.4270884399206E+00  0.0000000000000E+00 -0.2621982571995E+00
 0.5723688232648E+00 -0.6304854618409E+00  0.0000000000000E+00 -0.1388331534329E+00
 0.5728076844916E+00 -0.6317625091897E+00  0.0000000000000E+00 -0.1545292397322E+00
 0.5724380519323E+00 -0.6323122697886E+00  0.0000000000000E+00 -0.1709866692323E+00
 0.5711841480276E+00 -0.6320575002482E+00  0.0000000000000E+00 -0.1879775726555E+00
 0.5689574013864E+00 -0.6309090659226E+00  0.0000000000000E+00 -0.2053002648099E+00
 0.5656674935003E+00 -0.6287765327972E+00  0.0000000000000E+00 -0.2227533284804E+00
 0.5612273544095E+00 -0.6255728475983E+00  0.0000000000000E+00 -0.2401141056525E+00
 0.5555552148014E+00 -0.6212161819560E+00  0.0000000000000E+00 -0.2571218307957E+00
 0.5485755171530E+00 -0.6156307109534E+00  0.0000000000000E+00 -0.2734641599871E+00
 0.5402196224206E+00 -0.6087472396350E+00  0.0000000000000E+00 -0.2887656662613E+00
 0.5304267416923E+00 -0.6005040934765E+00  0.0000000000000E+00 -0.3025770526956E+00
 0.5191452429520E+00 -0.5908484180954E+00  0.0000000000000E+00 -0.3143640352764E+00
 0.5063343352414E+00 -0.5797378927944E+00  0.0000000000000E+00 -0.3234949451922E+00
 0.4919660612627E+00 -0.5671427968737E+00  0.0000000000000E+00 -0.3292260458718E+00
 0.4760275125869E+00 -0.5530483557630E+00  0.0000000000000E+00 -0.3306833084631E+00
 0.4585232242643E+00 -0.5374573371960E+00  0.0000000000000E+00 -0.3268388955093E+00
 0.4394777846020E+00 -0.5203929692064E+00  0.0000000000000E+00 -0.3164797792254E+00
 0.4189385484639E+00 -0.5019021817832E+00  0.0000000000000E+00 -0.2981656869403E+00
 0.3969772337424E+00 -0.4820582504328E+00  0.0000000000000E+00 -0.2701755937142E+00
 0.3736864268068E+00 -0.4609594299378E+00  0.0000000000000E+00 -0.2304456490916E+00
 0.5793468256224E+00 -0.6380107108614E+00  0.0000000000000E+00 -0.1151094264754E+00
 0.5809062714151E+00 -0.6404885298533E+00  0.0000000000000E+00 -0.1281528304797E+00
 0.5817432807637E+00 -0.6423387354662E+00  0.0000000000000E+00 -0.1418923010594E+00
 0.5817972223957E+00 -0.6435012515708E+00  0.0000000000000E+00 -0.1561465772509E+00
 0.5809887581732E+00 -0.6438982259641E+00  0.0000000000000E+00 -0.1707474986285E+00
 0.5792286675880E+00 -0.6434425861021E+00  0.0000000000000E+00 -0.1855230671313E+00
 0.5764222884703E+00 -0.6420422846540E+00  0.0000000000000E+00 -0.2002818474276E+00
 0.5724714234159E+00 -0.6396020766677E+00  0.0000000000000E+00 -0.2147995540531E+00
 0.5672749382040E+00 -0.6360240434243E+00  0.0000000000000E+00 -0.2288074717635E+00
 0.5607287597838E+00 -0.6312075611380E+00  0.0000000000000E+00 -0.2419820210522E+00
 0.5527256221972E+00 -0.6250490582833E+00  0.0000000000000E+00 -0.2539347737930E+00
 0.5431546698212E+00 -0.6174416725590E+00  0.0000000000000E+00 -0.2642023033882E+00
 0.5319008578927E+00 -0.6082747568068E+00  0.0000000000000E+00 -0.2722353130303E+00
 0.5188439484289E+00 -0.5974330514329E+00  0.0000000000000E+00 -0.2773864672558E+00
 0.5038567534003E+00 -0.5847952082167E+00  0.0000000000000E+00 -0.2788962047487E+00
 0.4868021102816E+00 -0.5702311991259E+00  0.0000000000000E+00 -0.2758754537873E+00
 0.4675278898506E+00 -0.5535979764175E+00  0.0000000000000E+00 -0.2672835975057E+00
 0.4458595852331E+00 -0.5347327988187E+00  0.0000000000000E+00 -0.2518992123486E+00
 0.4215910801098E+00 -0.5134446367399E+00  0.0000000000000E+00 -0.2282827575442E+00
 0.3944742051928E+00 -0.4895044029032E+00  0.0000000000000E+00 -0.1947384383977E+00
 0.5849901869765E+00 -0.6440984592457E+00  0.0000000000000E+00 -0.9048488613927E-01
 0.5874672650221E+00 -0.6475592283903E+00  0.0000000000000E+00 -0.1007543261315E+00
 0.5892923814727E+00 -0.6504737126236E+00  0.0000000000000E+00 -0.1116079266892E+00
 0.5904143861228E+00 -0.6527930072271E+00  0.0000000000000E+00 -0.1229087335138E+00
 0.5907599278873E+00 -0.6544469891485E+00  0.0000000000000E+00 -0.1345249175512E+00
 0.5902401935800E+00 -0.6553508937016E+00  0.0000000000000E+00 -0.1463185741130E+00
 0.5887544068036E+00 -0.6554087002776E+00  0.0000000000000E+00 -0.1581347138797E+00
 0.5861912114369E+00 -0.6545144472642E+00  0.0000000000000E+00 -0.1697911673418E+00
 0.5824287668765E+00 -0.6525522983064E+00  0.0000000000000E+00 -0.1810693884420E+00
 0.5773340761006E+00 -0.6493958772006E+00  0.0000000000000E+00 -0.1917058842840E+00
 0.5707618259065E+00 -0.6449071493902E+00  0.0000000000000E+00 -0.2013839618292E+00
 0.5625528365780E+00 -0.6389349500754E+00  0.0000000000000E+00 -0.2097255404085E+00
 0.5525320696375E+00 -0.6313131165502E+00  0.0000000000000E+00 -0.2162828696522E+00
 0.5405059951659E+00 -0.6218580448648E+00  0.0000000000000E+00 -0.2205300871822E+00
 0.5262589392723E+00 -0.6103653248752E+00  0.0000000000000E+00 -0.2218546271213E+00
 0.5095477705186E+00 -0.5966048730681E+00  0.0000000000000E+00 -0.2195485122797E+00
 0.4900939536778E+00 -0.5803136582518E+00  0.0000000000000E+00 -0.2127993635349E+00
 0.4675714752015E+00 -0.5611847286718E+00  0.0000000000000E+00 -0.2006800096958E+00
 0.4415905493347E+00 -0.5388516116907E+00  0.0000000000000E+00 -0.1821307023226E+00
 0.4116827029782E+00 -0.5128726649059E+00  0.0000000000000E+00 -0.1559286762862E+00
 0.5892580651947E+00 -0.6487034971912E+00  0.0000000000000E+00 -0.6514797555782E-01
 0.5924354523143E+00 -0.6529141576127E+00  0.0000000000000E+00 -0.7254951183595E-01
 0.5950148479583E+00 -0.6566406309977E+00  0.0000000000000E+00 -0.8039028004404E-01
 0.5969508106563E+00 -0.6598410055770E+00  0.0000000000000E+00 -0.8857470615303E-01
 0.5981735196055E+00 -0.6624500392868E+00  0.0000000000000E+00 -0.9700839993092E-01
 0.5985939613584E+00 -0.6643842381190E+00  0.0000000000000E+00 -0.1055908243370E+00
 0.5981065248625E+00 -0.6655443867161E+00  0.0000000000000E+00 -0.1142079177602E+00
 0.5965897839081E+00 -0.6658163015349E+00  0.0000000000000E+00 -0.1227250670603E+00
 0.5939060680174E+00 -0.6650704029572E+00  0.0000000000000E+00 -0.1309804848189E+00
 0.5899002276075E+00 -0.6631605083297E+00  0.0000000000000E+00 -0.1387789134249E+00
 0.5843978384165E+00 -0.6599220886549E+00  0.0000000000000E+00 -0.1458855695977E+00
 0.5772029676228E+00 -0.6551701109150E+00  0.0000000000000E+00 -0.1520203100349E+00
 0.5680955260136E+00 -0.6486964927549E+00  0.0000000000000E+00 -0.1568521233878E+00
 0.5568281376027E+00 -0.6402671079233E+00  0.0000000000000E+00 -0.1599942393449E+00
 0.5431223426298E+00 -0.6296181748186E+00  0.0000000000000E+00 -0.1610004153362E+00
 0.5266637735839E+00 -0.6164516991513E+00  0.0000000000000E+00 -0.1593633515719E+00
 0.5070955661285E+00 -0.6004293354705E+00  0.0000000000000E+00 -0.1545166954674E+00
 0.4840085854396E+00 -0.5811633732312E+00  0.0000000000000E+00 -0.1458425255271E+00
 0.4569235781736E+00 -0.5582014931467E+00  0.0000000000000E+00 -0.1326848994092E+00
 0.4252629534336E+00 -0.5309993966206E+00  0.0000000000000E+00 -0.1143439436747E+00
 0.5921200508348E+00 -0.6517920911572E+00  0.0000000000000E+00 -0.3929623587324E-01
 0.5957700243095E+00 -0.6565085880050E+00  0.0000000000000E+00 -0.4376338707374E-01
 0.5988585284289E+00 -0.6607828372210E+00  0.0000000000000E+00 -0.4850274353389E-01
 0.6013433954999E+00 -0.6645770497818E+00  0.0000000000000E+00 -0.5345778845077E-01
 0.6031566842625E+00 -0.6678287746241E+00  0.0000000000000E+00 -0.5857188523093E-01
 0.6042089371300E+00 -0.6704550714541E+00  0.0000000000000E+00 -0.6378396703525E-01
 0.6043911239984E+00 -0.6723544125084E+00  0.0000000000000E+00 -0.6902425263720E-01
 0.6035749386413E+00 -0.6734069713910E+00  0.0000000000000E+00 -0.7421009313348E-01
 0.6016119515679E+00 -0.6734737937244E+00  0.0000000000000E+00 -0.7924198159435E-01
 0.5983319699086E+00 -0.6723951944671E+00  0.0000000000000E+00 -0.8399971793574E-01
 0.5935408433988E+00 -0.6699886159903E+00  0.0000000000000E+00 -0.8833873304749E-01
 0.5870178821361E+00 -0.6660461073569E+00  0.0000000000000E+00 -0.9208663650649E-01
 0.5785130105504E+00 -0.6603315428589E+00  0.0000000000000E+00 -0.9504016401912E-01
 0.5677437672401E+00 -0.6525776811007E+00  0.0000000000000E+00 -0.9696288257784E-01
 0.5543922682215E+00 -0.6424831703469E+00  0.0000000000000E+00 -0.9758430706434E-01
 0.5381022683608E+00 -0.6297096234533E+00  0.0000000000000E+00 -0.9660157918534E-01
 0.5184764690644E+00 -0.6138788906630E+00  0.0000000000000E+00 -0.9368580073105E-01
 0.4950738888257E+00 -0.5945704891446E+00  0.0000000000000E+00 -0.8849699597580E-01
 0.4674065599544E+00 -0.5713183243413E+00  0.0000000000000E+00 -0.8071762558861E-01
 0.4349140474667E+00 -0.5435957781434E+00  0.0000000000000E+00 -0.7012857426064E-01
 0.5935560459106E+00 -0.6533419265378E+00  0.0000000000000E+00 -0.1313339096322E-01
 0.5974440491860E+00 -0.6583130756968E+00  0.0000000000000E+00 -0.1462678684717E-01
 0.6007889851335E+00 -0.6628630972346E+00  0.0000000000000E+00 -0.1621240366546E-01
 0.6035502444423E+00 -0.6669561643045E+00  0.0000000000000E+00 -0.1787151699779E-01
 0.6056606896031E+00 -0.6705310869093E+00  0.0000000000000E+00 -0.1958526224020E-01
 0.6070305417612E+00 -0.6735051056370E+00  0.0000000000000E+00 -0.2133317536638E-01
 0.6075489928833E+00 -0.6757754707191E+00  0.0000000000000E+00 -0.2309178131107E-01
 0.6070842370577E+00 -0.6772194746597E+00  0.0000000000000E+00 -0.2483321653624E-01
 0.6054823934891E+00 -0.6776933999000E+00  0.0000000000000E+00 -0.2652389415853E-01
 0.6025656532083E+00 -0.6770307059671E+00  0.0000000000000E+00 -0.2812321399073E-01
 0.5981298924665E+00 -0.6750396920727E+00  0.0000000000000E+00 -0.2958232803936E-01
 0.5919419503486E+00 -0.6715008240800E+00  0.0000000000000E+00 -0.3084299648293E-01
 0.5837367638179E+00 -0.6661639066917E+00  0.0000000000000E+00 -0.3183661412362E-01
 0.5732145946247E+00 -0.6587453159843E+00  0.0000000000000E+00 -0.3248356265794E-01
 0.5600386837875E+00 -0.6489255963720E+00  0.0000000000000E+00 -0.3269317035201E-01
 0.5438338680995E+00 -0.6363478997394E+00  0.0000000000000E+00 -0.3236479354734E-01
 0.5241870716631E+00 -0.6206180751770E+00  0.0000000000000E+00 -0.3139098025906E-01
 0.5006514790416E+00 -0.6013079279560E+00  0.0000000000000E+00 -0.2966501713153E-01
 0.4727582517503E+00 -0.5779649434539E+00  0.0000000000000E+00 -0.2709795343135E-01
 0.4400539955780E+00 -0.5501401075852E+00  0.0000000000000E+00 -0.2368488419329E-01
 0.5935560459162E+00 -0.6533419265436E+00  0.0000000000000E+00  0.1313339088344E-01
 0.5974440491965E+00 -0.6583130757079E+00  0.0000000000000E+00  0.1462678660813E-01
 0.6007889851497E+00 -0.6628630972516E+00  0.0000000000000E+00  0.1621240325229E-01
 0.6035502444649E+00 -0.6669561643283E+00  0.0000000000000E+00  0.1787151639686E-01
 0.6056606896328E+00 -0.6705310869409E+00  0.0000000000000E+00  0.1958526143948E-01
 0.6070305417990E+00 -0.6735051056771E+00  0.0000000000000E+00  0.2133317435568E-01
 0.6075489929299E+00 -0.6757754707687E+00  0.0000000000000E+00  0.2309178008245E-01
 0.6070842371137E+00 -0.6772194747197E+00  0.0000000000000E+00  0.2483321508458E-01
 0.6054823935553E+00 -0.6776933999711E+00  0.0000000000000E+00  0.2652389248198E-01
 0.6025656532849E+00 -0.6770307060500E+00  0.0000000000000E+00  0.2812321209166E-01
 0.5981298925539E+00 -0.6750396921678E+00  0.0000000000000E+00  0.2958232592533E-01
 0.5919419504466E+00 -0.6715008241874E+00  0.0000000000000E+00  0.3084299416792E-01
 0.5837367639259E+00 -0.6661639068111E+00  0.0000000000000E+00  0.3183661162913E-01
 0.5732145947416E+00 -0.6587453161151E+00  0.0000000000000E+00  0.3248356001454E-01
 0.5600386839118E+00 -0.6489255965128E+00  0.0000000000000E+00  0.3269316760098E-01
 0.5438338682289E+00 -0.6363478998883E+00  0.0000000000000E+00  0.3236479074186E-01
 0.5241870717949E+00 -0.6206180753317E+00  0.0000000000000E+00  0.3139097746567E-01
 0.5006514791727E+00 -0.6013079281138E+00  0.0000000000000E+00  0.2966501443079E-01
 0.4727582518781E+00 -0.5779649436123E+00  0.0000000000000E+00  0.2709795091690E-01
 0.4400539957032E+00 -0.5501401077441E+00  0.0000000000000E+00  0.2368488196616E-01
 0.5921200508515E+00 -0.6517920911747E+00  0.0000000000000E+00  0.3929623579377E-01
 0.5957700243410E+00 -0.6565085880381E+00  0.0000000000000E+00  0.4376338683550E-01
 0.5988585284773E+00 -0.6607828372720E+00  0.0000000000000E+00  0.4850274312239E-01
 0.6013433955675E+00 -0.6645770498531E+00  0.0000000000000E+00  0.5345778785287E-01
 0.6031566843515E+00 -0.6678287747183E+00  0.0000000000000E+00  0.5857188443518E-01
 0.6042089372429E+00 -0.6704550715740E+00  0.0000000000000E+00  0.6378396603205E-01
 0.6043911241375E+00 -0.6723544126567E+00  0.0000000000000E+00  0.6902425141920E-01
 0.6035749388087E+00 -0.6734069715703E+00  0.0000000000000E+00  0.7421009169610E-01
 0.6016119517655E+00 -0.6734737939371E+00  0.0000000000000E+00  0.7924197993616E-01
 0.5983319701377E+00 -0.6723951947151E+00  0.0000000000000E+00  0.8399971605947E-01
 0.5935408436601E+00 -0.6699886162748E+00  0.0000000000000E+00  0.8833873096081E-01
 0.5870178824291E+00 -0.6660461076784E+00  0.0000000000000E+00  0.9208663422323E-01
 0.5785130108735E+00 -0.6603315432165E+00  0.0000000000000E+00  0.9504016156040E-01
 0.5677437675901E+00 -0.6525776814922E+00  0.0000000000000E+00  0.9696287997358E-01
 0.5543922685936E+00 -0.6424831707686E+00  0.0000000000000E+00  0.9758430435480E-01
 0.5381022687482E+00 -0.6297096238994E+00  0.0000000000000E+00  0.9660157642274E-01
 0.5184764694583E+00 -0.6138788911261E+00  0.0000000000000E+00  0.9368579798136E-01
 0.4950738892161E+00 -0.5945704896156E+00  0.0000000000000E+00  0.8849699332069E-01
 0.4674065603311E+00 -0.5713183248111E+00  0.0000000000000E+00  0.8071762312720E-01
 0.4349140478230E+00 -0.5435957786051E+00  0.0000000000000E+00  0.7012857211411E-01
 0.5892580652226E+00 -0.6487034972204E+00  0.0000000000000E+00  0.6514797547901E-01
 0.5924354523666E+00 -0.6529141576675E+00  0.0000000000000E+00  0.7254951159936E-01
 0.5950148480385E+00 -0.6566406310821E+00  0.0000000000000E+00  0.8039027963594E-01
 0.5969508107681E+00 -0.6598410056950E+00  0.0000000000000E+00  0.8857470556131E-01
 0.5981735197528E+00 -0.6624500394428E+00  0.0000000000000E+00  0.9700839914522E-01
 0.5985939615451E+00 -0.6643842383174E+00  0.0000000000000E+00  0.1055908233490E+00
 0.5981065250926E+00 -0.6655443869615E+00  0.0000000000000E+00  0.1142079165635E+00
 0.5965897841852E+00 -0.6658163018317E+00  0.0000000000000E+00  0.1227250656515E+00
 0.5939060683445E+00 -0.6650704033094E+00  0.0000000000000E+00  0.1309804831975E+00
 0.5899002279870E+00 -0.6631605087405E+00  0.0000000000000E+00  0.1387789115942E+00
 0.5843978388494E+00 -0.6599220891265E+00  0.0000000000000E+00  0.1458855675657E+00
 0.5772029681085E+00 -0.6551701114481E+00  0.0000000000000E+00  0.1520203078152E+00
 0.5680955265494E+00 -0.6486964933482E+00  0.0000000000000E+00  0.1568521210009E+00
 0.5568281381836E+00 -0.6402671085734E+00  0.0000000000000E+00  0.1599942368195E+00
 0.5431223432475E+00 -0.6296181755191E+00  0.0000000000000E+00  0.1610004127108E+00
 0.5266637742268E+00 -0.6164516998924E+00  0.0000000000000E+00  0.1593633488965E+00
 0.5070955667811E+00 -0.6004293362390E+00  0.0000000000000E+00  0.1545166928064E+00
 0.4840085860827E+00 -0.5811633740101E+00  0.0000000000000E+00  0.1458425229624E+00
 0.4569235787845E+00 -0.5582014939156E+00  0.0000000000000E+00  0.1326848970447E+00
 0.4252629539860E+00 -0.5309993973557E+00  0.0000000000000E+00  0.1143439416450E+00
 0.5849901870153E+00 -0.6440984592863E+00  0.0000000000000E+00  0.9048488606183E-01
 0.5874672650947E+00 -0.6475592284665E+00  0.0000000000000E+00  0.1007543258980E+00
 0.5892923815838E+00 -0.6504737127405E+00  0.0000000000000E+00  0.1116079262871E+00
 0.5904143862775E+00 -0.6527930073904E+00  0.0000000000000E+00  0.1229087329325E+00
 0.5907599280911E+00 -0.6544469893643E+00  0.0000000000000E+00  0.1345249167822E+00
 0.5902401938384E+00 -0.6553508939762E+00  0.0000000000000E+00  0.1463185731496E+00
 0.5887544071221E+00 -0.6554087006174E+00  0.0000000000000E+00  0.1581347127176E+00
 0.5861912118206E+00 -0.6545144476754E+00  0.0000000000000E+00  0.1697911659790E+00
 0.5824287673298E+00 -0.6525522987946E+00  0.0000000000000E+00  0.1810693868793E+00
 0.5773340766267E+00 -0.6493958777704E+00  0.0000000000000E+00  0.1917058825259E+00
 0.5707618265071E+00 -0.6449071500447E+00  0.0000000000000E+00  0.2013839598843E+00
 0.5625528372526E+00 -0.6389349508159E+00  0.0000000000000E+00  0.2097255382904E+00
 0.5525320703825E+00 -0.6313131173753E+00  0.0000000000000E+00  0.2162828673806E+00
 0.5405059959742E+00 -0.6218580457696E+00  0.0000000000000E+00  0.2205300847839E+00
 0.5262589401324E+00 -0.6103653258509E+00  0.0000000000000E+00  0.2218546246321E+00
 0.5095477714138E+00 -0.5966048741007E+00  0.0000000000000E+00  0.2195485097460E+00
 0.4900939545850E+00 -0.5803136593216E+00  0.0000000000000E+00  0.2127993610167E+00
 0.4675714760905E+00 -0.5611847297522E+00  0.0000000000000E+00  0.2006800072705E+00
 0.4415905501665E+00 -0.5388516127466E+00  0.0000000000000E+00  0.1821307000904E+00
 0.4116827037034E+00 -0.5128726658924E+00  0.0000000000000E+00  0.1559286743762E+00
 0.5793468256719E+00 -0.6380107109132E+00  0.0000000000000E+00  0.1151094263988E+00
 0.5809062715073E+00 -0.6404885299499E+00  0.0000000000000E+00  0.1281528302490E+00
 0.5817432809045E+00 -0.6423387356142E+00  0.0000000000000E+00  0.1418923006639E+00
 0.5817972225916E+00 -0.6435012517774E+00  0.0000000000000E+00  0.1561465766821E+00
 0.5809887584310E+00 -0.6438982262370E+00  0.0000000000000E+00  0.1707474978802E+00
 0.5792286679150E+00 -0.6434425864496E+00  0.0000000000000E+00  0.1855230661993E+00
 0.5764222888736E+00 -0.6420422850843E+00  0.0000000000000E+00  0.2002818463099E+00
 0.5724714239021E+00 -0.6396020771888E+00  0.0000000000000E+00  0.2147995527501E+00
 0.5672749387789E+00 -0.6360240440435E+00  0.0000000000000E+00  0.2288074702781E+00
 0.5607287604518E+00 -0.6312075618614E+00  0.0000000000000E+00  0.2419820193905E+00
 0.5527256229604E+00 -0.6250490591151E+00  0.0000000000000E+00  0.2539347719650E+00
 0.5431546706792E+00 -0.6174416735009E+00  0.0000000000000E+00  0.2642023014079E+00
 0.5319008588413E+00 -0.6082747578574E+00  0.0000000000000E+00  0.2722353109170E+00
 0.5188439494593E+00 -0.5974330525863E+00  0.0000000000000E+00  0.2773864650347E+00
 0.5038567544979E+00 -0.5847952094618E+00  0.0000000000000E+00  0.2788962024524E+00
 0.4868021114246E+00 -0.5702312004448E+00  0.0000000000000E+00  0.2758754514570E+00
 0.4675278910081E+00 -0.5535979777837E+00  0.0000000000000E+00  0.2672835951941E+00
 0.4458595863632E+00 -0.5347328001953E+00  0.0000000000000E+00  0.2518992101227E+00
 0.4215910811563E+00 -0.5134446380766E+00  0.0000000000000E+00  0.2282827554899E+00
 0.3944742060825E+00 -0.4895044041333E+00  0.0000000000000E+00  0.1947384366254E+00
 0.5723688233248E+00 -0.6304854619037E+00  0.0000000000000E+00  0.1388331533581E+00
 0.5728076846026E+00 -0.6317625093060E+00  0.0000000000000E+00  0.1545292395062E+00
 0.5724380521014E+00 -0.6323122699663E+00  0.0000000000000E+00  0.1709866688466E+00
 0.5711841482625E+00 -0.6320575004960E+00  0.0000000000000E+00  0.1879775721046E+00
 0.5689574016956E+00 -0.6309090662500E+00  0.0000000000000E+00  0.2053002640908E+00
 0.5656674938926E+00 -0.6287765332142E+00  0.0000000000000E+00  0.2227533275918E+00
 0.5612273548936E+00 -0.6255728481151E+00  0.0000000000000E+00  0.2401141045955E+00
 0.5555552153856E+00 -0.6212161825823E+00  0.0000000000000E+00  0.2571218295736E+00
 0.5485755178443E+00 -0.6156307116981E+00  0.0000000000000E+00  0.2734641586057E+00
 0.5402196232243E+00 -0.6087472405056E+00  0.0000000000000E+00  0.2887656647292E+00
 0.5304267426114E+00 -0.6005040944783E+00  0.0000000000000E+00  0.3025770510246E+00
 0.5191452439860E+00 -0.5908484192307E+00  0.0000000000000E+00  0.3143640334819E+00
 0.5063343363855E+00 -0.5797378940616E+00  0.0000000000000E+00  0.3234949432935E+00
 0.4919660625067E+00 -0.5671427982662E+00  0.0000000000000E+00  0.3292260438925E+00
 0.4760275139132E+00 -0.5530483572675E+00  0.0000000000000E+00  0.3306833064317E+00
 0.4585232256464E+00 -0.5374573387908E+00  0.0000000000000E+00  0.3268388934598E+00
 0.4394777860019E+00 -0.5203929708591E+00  0.0000000000000E+00  0.3164797771984E+00
 0.4189385498285E+00 -0.5019021834474E+00  0.0000000000000E+00  0.2981656849844E+00
 0.3969772349997E+00 -0.4820582520440E+00  0.0000000000000E+00  0.2701755918879E+00
 0.3736864278602E+00 -0.4609594314084E+00  0.0000000000000E+00  0.2304456474678E+00
 0.5641075897807E+00 -0.6215794751325E+00  0.0000000000000E+00  0.1614801854259E+00
 0.5632418077969E+00 -0.6214579129003E+00  0.0000000000000E+00  0.1796805225194E+00
 0.5614662508110E+00 -0.6204913362593E+00  0.0000000000000E+00  0.1986438554550E+00
 0.5586821169131E+00 -0.6185772773923E+00  0.0000000000000E+00  0.2180963522365E+00
 0.5547879911933E+00 -0.6156115274118E+00  0.0000000000000E+00  0.2378085277456E+00
 0.5496923135143E+00 -0.6114998639984E+00  0.0000000000000E+00  0.2575556909002E+00
 0.5433178657179E+00 -0.6061620760190E+00  0.0000000000000E+00  0.2770891863198E+00
 0.5356032073611E+00 -0.5995331077282E+00  0.0000000000000E+00  0.2961163700875E+00
 0.5265035233467E+00 -0.5915637130821E+00  0.0000000000000E+00  0.3142862704644E+00
 0.5159920041658E+00 -0.5822216949444E+00  0.0000000000000E+00  0.3311783481798E+00
 0.5040622199392E+00 -0.5714941638537E+00  0.0000000000000E+00  0.3462924230733E+00
 0.4907316644244E+00 -0.5593909771446E+00  0.0000000000000E+00  0.3590383190920E+00
 0.4760465620208E+00 -0.5459494410900E+00  0.0000000000000E+00  0.3687240403127E+00
 0.4600880709771E+00 -0.5312403984979E+00  0.0000000000000E+00  0.3745413449988E+00
 0.4429801670215E+00 -0.5153759639195E+00  0.0000000000000E+00  0.3755474631997E+00
 0.4248997703609E+00 -0.4985194354592E+00  0.0000000000000E+00  0.3706413958960E+00
 0.4060901720414E+00 -0.4808983488726E+00  0.0000000000000E+00  0.3585326999181E+00
 0.3868790019461E+00 -0.4628221527144E+00  0.0000000000000E+00  0.3376986637686E+00
 0.3677002754479E+00 -0.4447047763056E+00  0.0000000000000E+00  0.3063220368640E+00
 0.3491158831847E+00 -0.4270884416520E+00  0.0000000000000E+00  0.2621982558086E+00
 0.5546253302911E+00 -0.6113612187769E+00  0.0000000000000E+00  0.1828911279374E+00
 0.5522948335016E+00 -0.6096684097312E+00  0.0000000000000E+00  0.2034194768961E+00
 0.5489370125638E+00 -0.6069936678674E+00  0.0000000000000E+00  0.2246282710906E+00
 0.5444201965048E+00 -0.6031995341391E+00  0.0000000000000E+00  0.2462048549246E+00
 0.5386271268992E+00 -0.5981636917215E+00  0.0000000000000E+00  0.2679018388195E+00
 0.5314664006594E+00 -0.5917893179410E+00  0.0000000000000E+00  0.2894785369338E+00
 0.5228744903868E+00 -0.5840065022221E+00  0.0000000000000E+00  0.3106642934757E+00
 0.5128153914143E+00 -0.5747715395665E+00  0.0000000000000E+00  0.3311364960293E+00
 0.5012808756319E+00 -0.5640669416031E+00  0.0000000000000E+00  0.3505071809876E+00
 0.4882924587698E+00 -0.5519032003239E+00  0.0000000000000E+00  0.3683140628016E+00
 0.4739054269949E+00 -0.5383226098961E+00  0.0000000000000E+00  0.3840133242849E+00
 0.4582150367626E+00 -0.5234052335854E+00  0.0000000000000E+00  0.3969724754209E+00
 0.4413650231211E+00 -0.5072771276672E+00  0.0000000000000E+00  0.4064621463300E+00
 0.4235587097832E+00 -0.4901210853170E+00  0.0000000000000E+00  0.4116459853847E+00
 0.4050732747974E+00 -0.4721904087655E+00  0.0000000000000E+00  0.4115680416439E+00
 0.3862781523731E+00 -0.4538265848211E+00  0.0000000000000E+00  0.4051372991920E+00
 0.3676592095285E+00 -0.4354823631742E+00  0.0000000000000E+00  0.3911094267067E+00
 0.3498526091417E+00 -0.4177532711842E+00  0.0000000000000E+00  0.3680659482312E+00
 0.3336962110864E+00 -0.4014257284975E+00  0.0000000000000E+00  0.3343808034978E+00
 0.3203046647529E+00 -0.3875507437534E+00  0.0000000000000E+00  0.2881396084043E+00
 0.5439955043130E+00 -0.5999111614052E+00  0.0000000000000E+00  0.2029272094062E+00
 0.5400696407153E+00 -0.5965049600396E+00  0.0000000000000E+00  0.2255762131711E+00
 0.5349790483224E+00 -0.5919570727973E+00  0.0000000000000E+00  0.2487154648101E+00
 0.5285486272116E+00 -0.5860848861536E+00  0.0000000000000E+00  0.2720115236045E+00
 0.5206444855832E+00 -0.5787472845771E+00  0.0000000000000E+00  0.2952140936077E+00
 0.5111796526506E+00 -0.5698489438468E+00  0.0000000000000E+00  0.3180739770908E+00
 0.5001106646774E+00 -0.5593362523531E+00  0.0000000000000E+00  0.3402995418693E+00
 0.4874338979666E+00 -0.5471932764964E+00  0.0000000000000E+00  0.3615354525872E+00
 0.4731846401481E+00 -0.5334405661167E+00  0.0000000000000E+00  0.3813531192853E+00
 0.4574395782929E+00 -0.5181373851566E+00  0.0000000000000E+00  0.3992467649929E+00
 0.4403226514965E+00 -0.5013872643136E+00  0.0000000000000E+00  0.4146318364210E+00
 0.4220141407485E+00 -0.4833467148318E+00  0.0000000000000E+00  0.4268441221952E+00
 0.4027630422003E+00 -0.4642371152850E+00  0.0000000000000E+00  0.4351388847331E+00
 0.3829030282516E+00 -0.4443600371284E+00  0.0000000000000E+00  0.4386899181790E+00
 0.3628725793136E+00 -0.4241165361634E+00  0.0000000000000E+00  0.4365890029122E+00
 0.3432400848671E+00 -0.4040311492619E+00  0.0000000000000E+00  0.4278470887737E+00
 0.3247350894259E+00 -0.3847814942256E+00  0.0000000000000E+00  0.4114004632121E+00
 0.3082870878889E+00 -0.3672346921891E+00  0.0000000000000E+00  0.3861302007676E+00
 0.2950845109265E+00 -0.3524961706904E+00  0.0000000000000E+00  0.3509212444251E+00
 0.2867011103396E+00 -0.3420146570126E+00  0.0000000000000E+00  0.3047587134361E+00
 0.5323036340826E+00 -0.5873220312330E+00  0.0000000000000E+00  0.2214728073489E+00
 0.5266859272406E+00 -0.5820947256547E+00  0.0000000000000E+00  0.2459937751774E+00
 0.5197386498929E+00 -0.5755355483694E+00  0.0000000000000E+00  0.2706826688391E+00
 0.5112347209346E+00 -0.5674088725305E+00  0.0000000000000E+00  0.2952186747100E+00
 0.5010273572174E+00 -0.5575586722644E+00  0.0000000000000E+00  0.3193690952770E+00
 0.4890428600448E+00 -0.5458997925503E+00  0.0000000000000E+00  0.3428823740815E+00
 0.4752677684835E+00 -0.5324044863535E+00  0.0000000000000E+00  0.3654418416785E+00
 0.4597401634210E+00 -0.5170934122082E+00  0.0000000000000E+00  0.3866501816956E+00
 0.4425471279343E+00 -0.5000328485911E+00  0.0000000000000E+00  0.4060280524361E+00
 0.4238278624191E+00 -0.4813375171880E+00  0.0000000000000E+00  0.4230187816282E+00
 0.4037815580317E+00 -0.4611780761127E+00  0.0000000000000E+00  0.4369956467397E+00
 0.3826793900266E+00 -0.4397926047134E+00  0.0000000000000E+00  0.4472706486935E+00
 0.3608803944082E+00 -0.4175018061238E+00  0.0000000000000E+00  0.4531049954609E+00
 0.3388513629116E+00 -0.3947280188552E+00  0.0000000000000E+00  0.4537223235511E+00
 0.3171911173452E+00 -0.3720183717331E+00  0.0000000000000E+00  0.4483263332653E+00
 0.2966594536677E+00 -0.3500723679239E+00  0.0000000000000E+00  0.4361252453303E+00
 0.2782098664927E+00 -0.3297733199439E+00  0.0000000000000E+00  0.4163669722754E+00
 0.2630222565831E+00 -0.3122199068227E+00  0.0000000000000E+00  0.3883938460549E+00
 0.2525110667315E+00 -0.2987398543699E+00  0.0000000000000E+00  0.3517523324472E+00
 0.2483130361837E+00 -0.2908408662356E+00  0.0000000000000E+00  0.3065914778594E+00
 0.5196481283682E+00 -0.5736982941517E+00  0.0000000000000E+00  0.2384307979832E+00
 0.5122770628561E+00 -0.5665748616175E+00  0.0000000000000E+00  0.2645068070321E+00
 0.5033709680190E+00 -0.5578856640253E+00  0.0000000000000E+00  0.2902740233342E+00
 0.4926489713932E+00 -0.5473409219887E+00  0.0000000000000E+00  0.3154767310834E+00
 0.4799631045183E+00 -0.5347816504410E+00  0.0000000000000E+00  0.3399256754850E+00
 0.4652683955506E+00 -0.5201482210926E+00  0.0000000000000E+00  0.3633694659835E+00
 0.4485956689267E+00 -0.5034527652328E+00  0.0000000000000E+00  0.3854553383853E+00
 0.4300364591638E+00 -0.4847639650975E+00  0.0000000000000E+00  0.4057278231982E+00
 0.4097390335941E+00 -0.4642029036556E+00  0.0000000000000E+00  0.4236415495046E+00
 0.3879126684290E+00 -0.4419470740111E+00  0.0000000000000E+00  0.4385788056318E+00
 0.3648378301820E+00 -0.4182401548319E+00  0.0000000000000E+00  0.4498690158594E+00
 0.3408807849351E+00 -0.3934060472712E+00  0.0000000000000E+00  0.4568103132147E+00
 0.3165119106764E+00 -0.3678663966408E+00  0.0000000000000E+00  0.4586948695087E+00
 0.2923275326401E+00 -0.3421613783911E+00  0.0000000000000E+00  0.4548404278325E+00
 0.2690754023184E+00 -0.3169738352120E+00  0.0000000000000E+00  0.4446308168224E+00
 0.2476838153818E+00 -0.2931568513144E+00  0.0000000000000E+00  0.4275679336865E+00
 0.2292934538518E+00 -0.2717641987164E+00  0.0000000000000E+00  0.4033354068386E+00
 0.2152850285132E+00 -0.2540795624281E+00  0.0000000000000E+00  0.3718665079639E+00
 0.2072783582059E+00 -0.2416269824600E+00  0.0000000000000E+00  0.3333728087482E+00
 0.2068208893872E+00 -0.2359950310063E+00  0.0000000000000E+00  0.2882609558501E+00
 0.5061366388461E+00 -0.5591520794341E+00  0.0000000000000E+00  0.2537070413287E+00
 0.4969772203309E+00 -0.5500798915285E+00  0.0000000000000E+00  0.2809106836148E+00
 0.4860208711354E+00 -0.5391477933641E+00  0.0000000000000E+00  0.3071614874746E+00
 0.4729424237167E+00 -0.5260225084457E+00  0.0000000000000E+00  0.3323444701220E+00
 0.4576167005952E+00 -0.5105666466239E+00  0.0000000000000E+00  0.3563416939608E+00
 0.4400509245581E+00 -0.4927697286122E+00  0.0000000000000E+00  0.3788965252595E+00
 0.4203383478349E+00 -0.4727020256375E+00  0.0000000000000E+00  0.3996001192017E+00
 0.3986368156961E+00 -0.4504932748467E+00  0.0000000000000E+00  0.4179166928759E+00
 0.3751647434185E+00 -0.4263286842731E+00  0.0000000000000E+00  0.4332175093428E+00
 0.3502077089057E+00 -0.4004553722072E+00  0.0000000000000E+00  0.4448149046462E+00
 0.3241311933596E+00 -0.3731948109385E+00  0.0000000000000E+00  0.4519956688607E+00
 0.2973968586836E+00 -0.3449585786892E+00  0.0000000000000E+00  0.4540562024795E+00
 0.2705810323595E+00 -0.3162660633128E+00  0.0000000000000E+00  0.4503430627463E+00
 0.2443948511214E+00 -0.2877634987896E+00  0.0000000000000E+00  0.4403028312114E+00
 0.2197060013815E+00 -0.2602442008010E+00  0.0000000000000E+00  0.4235451013926E+00
 0.1975626214174E+00 -0.2346704227600E+00  0.0000000000000E+00  0.3999212303852E+00
 0.1792214695711E+00 -0.2121988390957E+00  0.0000000000000E+00  0.3696170180230E+00
 0.1661890756504E+00 -0.1942177861347E+00  0.0000000000000E+00  0.3332375905329E+00
 0.1603058402517E+00 -0.1824273558738E+00  0.0000000000000E+00  0.2917907502918E+00
 0.1640451774793E+00 -0.1791453746455E+00  0.0000000000000E+00  0.2458191522883E+00
 0.4918870859774E+00 -0.5438064544608E+00  0.0000000000000E+00  0.2672023251502E+00
 0.4809208351495E+00 -0.5327470410616E+00  0.0000000000000E+00  0.2949637431551E+00
 0.4678247039362E+00 -0.5194578839852E+00  0.0000000000000E+00  0.3209666072987E+00
 0.4522554875307E+00 -0.5035913530740E+00  0.0000000000000E+00  0.3453402134795E+00
 0.4341504635451E+00 -0.4850722404699E+00  0.0000000000000E+00  0.3680580438955E+00
 0.4135998864227E+00 -0.4639707542513E+00  0.0000000000000E+00  0.3888370105470E+00
 0.3907789135550E+00 -0.4404354070203E+00  0.0000000000000E+00  0.4071796763728E+00
 0.3659227680514E+00 -0.4146688853713E+00  0.0000000000000E+00  0.4224412198926E+00
 0.3393259827007E+00 -0.3869275629076E+00  0.0000000000000E+00  0.4338900619831E+00
 0.3113532205014E+00 -0.3575325431859E+00  0.0000000000000E+00  0.4407582035861E+00
 0.2824545449781E+00 -0.3268848433094E+00  0.0000000000000E+00  0.4422852878571E+00
 0.2531815194937E+00 -0.2954811770036E+00  0.0000000000000E+00  0.4377624294647E+00
 0.2242024242862E+00 -0.2639285307618E+00  0.0000000000000E+00  0.4265816080220E+00
 0.1963158035291E+00 -0.2329567449875E+00  0.0000000000000E+00  0.4082958050838E+00
 0.1704620599563E+00 -0.2034286736888E+00  0.0000000000000E+00  0.3826946148695E+00
 0.1477339366972E+00 -0.1763483456087E+00  0.0000000000000E+00  0.3499003775116E+00
 0.1293912884828E+00 -0.1528710923099E+00  0.0000000000000E+00  0.3104907267775E+00
 0.1169033911923E+00 -0.1343335353877E+00  0.0000000000000E+00  0.2656572774714E+00
 0.1121118950333E+00 -0.1223755606981E+00  0.0000000000000E+00  0.2174176109744E+00
 0.1181694471725E+00 -0.1195827190005E+00  0.0000000000000E+00  0.1691419216799E+00
 0.4770401896463E+00 -0.5278084419492E+00  0.0000000000000E+00  0.2788075674347E+00
 0.4642621169735E+00 -0.5147339213046E+00  0.0000000000000E+00  0.3063900316923E+00
 0.4489326798253E+00 -0.4989674049991E+00  0.0000000000000E+00  0.3312818987937E+00
 0.4307470817093E+00 -0.4802071704234E+00  0.0000000000000E+00  0.3539860085764E+00
 0.4097631266024E+00 -0.4585001548737E+00  0.0000000000000E+00  0.3745637297838E+00
 0.3861897340711E+00 -0.4340340887466E+00  0.0000000000000E+00  0.3926597350700E+00
 0.3603013540230E+00 -0.4070546212593E+00  0.0000000000000E+00  0.4076427202837E+00
 0.3324184758167E+00 -0.3778467767108E+00  0.0000000000000E+00  0.4187302944456E+00
 0.3029172587872E+00 -0.3467459872249E+00  0.0000000000000E+00  0.4250779027397E+00
 0.2722484089622E+00 -0.3141577151915E+00  0.0000000000000E+00  0.4258414717962E+00
 0.2409565369639E+00 -0.2805775557772E+00  0.0000000000000E+00  0.4202279284287E+00
 0.2096967928549E+00 -0.2466082543329E+00  0.0000000000000E+00  0.4075461384429E+00
 0.1792483016334E+00 -0.2129735937827E+00  0.0000000000000E+00  0.3872682568059E+00
 0.1505245729470E+00 -0.1805294914571E+00  0.0000000000000E+00  0.3591095412022E+00
 0.1245809893773E+00 -0.1502725819307E+00  0.0000000000000E+00  0.3231360977343E+00
 0.1026199165823E+00 -0.1233467747189E+00  0.0000000000000E+00  0.2799155970986E+00
 0.8599632050390E-01 -0.1010497450916E+00  0.0000000000000E+00  0.2307419407860E+00
 0.7623277351677E-01 -0.8484481110066E-01  0.0000000000000E+00  0.1780151171602E+00
 0.7507456969408E-01 -0.7639075043311E-01  0.0000000000000E+00  0.1260511426219E+00
 0.8432511559717E-01 -0.7737494304224E-01  0.0000000000000E+00  0.8389944670898E-01
 0.4617599961072E+00 -0.5113299921161E+00  0.0000000000000E+00  0.2884017340180E+00
 0.4471705208588E+00 -0.4962159552053E+00  0.0000000000000E+00  0.3148843727545E+00
 0.4295055620093E+00 -0.4778421947279E+00  0.0000000000000E+00  0.3377074605884E+00
 0.4086008066867E+00 -0.4560615879527E+00  0.0000000000000E+00  0.3578839360423E+00
 0.3847114136838E+00 -0.4311219221112E+00  0.0000000000000E+00  0.3755115381553E+00
 0.3581986318564E+00 -0.4033650170300E+00  0.0000000000000E+00  0.3900851419030E+00
 0.3294457338967E+00 -0.3731444323572E+00  0.0000000000000E+00  0.4007929573640E+00
 0.2988628326573E+00 -0.3408347122001E+00  0.0000000000000E+00  0.4067099812102E+00
 0.2669176110707E+00 -0.3068638854564E+00  0.0000000000000E+00  0.4069093327948E+00
 0.2341666366015E+00 -0.2717477547965E+00  0.0000000000000E+00  0.4005298144198E+00
 0.2012791253316E+00 -0.2361150834812E+00  0.0000000000000E+00  0.3868321775857E+00
 0.1690539712417E+00 -0.2007263845616E+00  0.0000000000000E+00  0.3652666484608E+00
 0.1384317405719E+00 -0.1664882132440E+00  0.0000000000000E+00  0.3355632956075E+00
 0.1105012537718E+00 -0.1344630993627E+00  0.0000000000000E+00  0.2978551422093E+00
 0.8649786737972E-01 -0.1058726381130E+00  0.0000000000000E+00  0.2528462475254E+00
 0.6778664368928E-01 -0.8208746351585E-01  0.0000000000000E+00  0.2020447789630E+00
 0.5581451159289E-01 -0.6458960203216E-01  0.0000000000000E+00  0.1481006609411E+00
 0.5198696180195E-01 -0.5486736514141E-01  0.0000000000000E+00  0.9534201034494E-01
 0.5729359942101E-01 -0.5409740768113E-01  0.0000000000000E+00  0.5078500606749E-01
 0.7069674566573E-01 -0.6187989010258E-01  0.0000000000000E+00  0.2585513429179E-01
 0.4462336802322E+00 -0.4945685575973E+00  0.0000000000000E+00  0.2958353137050E+00
 0.4298205268728E+00 -0.4773742945788E+00  0.0000000000000E+00  0.3201112046860E+00
 0.4097026144211E+00 -0.4562489815217E+00  0.0000000000000E+00  0.3398909116969E+00
 0.3860244280240E+00 -0.4313738384797E+00  0.0000000000000E+00  0.3568038592005E+00
 0.3593250534554E+00 -0.4032916444631E+00  0.0000000000000E+00  0.3708389457487E+00
 0.3301314905817E+00 -0.3725106506833E+00  0.0000000000000E+00  0.3812343990341E+00
 0.2989260118093E+00 -0.3394859085784E+00  0.0000000000000E+00  0.3869747728921E+00
 0.2662042159498E+00 -0.3046778502171E+00  0.0000000000000E+00  0.3870457290032E+00
 0.2325377538822E+00 -0.2686251107290E+00  0.0000000000000E+00  0.3805373606902E+00
 0.1986114513302E+00 -0.2319830194382E+00  0.0000000000000E+00  0.3666975733580E+00
 0.1652421075420E+00 -0.1955446902595E+00  0.0000000000000E+00  0.3449969233411E+00
 0.1333865918206E+00 -0.1602514412967E+00  0.0000000000000E+00  0.3152189720390E+00
 0.1041395613613E+00 -0.1271938231531E+00  0.0000000000000E+00  0.2775821085091E+00
 0.7871632693104E-01 -0.9759889905016E-01  0.0000000000000E+00  0.2328957752899E+00
 0.5841093628661E-01 -0.7279423666084E-01  0.0000000000000E+00  0.1827543071297E+00
 0.4451115220871E-01 -0.5413133300388E-01  0.0000000000000E+00  0.1297721045458E+00
 0.3813460136159E-01 -0.4283549962750E-01  0.0000000000000E+00  0.7786427927369E-01
 0.3990221035994E-01 -0.3970929406624E-01  0.0000000000000E+00  0.3256254881762E-01
 0.4921134053361E-01 -0.4449075793770E-01  0.0000000000000E+00  0.1206667264006E-02
 0.6288005432047E-01 -0.5459024947798E-01  0.0000000000000E+00 -0.8618793641260E-02
 0.4306699020932E+00 -0.4777435353445E+00  0.0000000000000E+00  0.3008952407651E+00
 0.4123634803146E+00 -0.4583712582109E+00  0.0000000000000E+00  0.3216951111249E+00
 0.3896563670497E+00 -0.4343246222163E+00  0.0000000000000E+00  0.3375979993030E+00
 0.3632501364539E+00 -0.4063934579038E+00  0.0000000000000E+00  0.3508039829839E+00
 0.3340290401109E+00 -0.3754659049057E+00  0.0000000000000E+00  0.3609057201121E+00
 0.3026409509869E+00 -0.3421843383992E+00  0.0000000000000E+00  0.3667492432273E+00
 0.2696148625747E+00 -0.3070382115825E+00  0.0000000000000E+00  0.3671759094308E+00
 0.2355226575793E+00 -0.2705706960910E+00  0.0000000000000E+00  0.3612268084864E+00
 0.2010474456666E+00 -0.2334424621866E+00  0.0000000000000E+00  0.3481530553023E+00
 0.1670013564949E+00 -0.1964520171913E+00  0.0000000000000E+00  0.3274549814093E+00
 0.1343254096117E+00 -0.1605363225262E+00  0.0000000000000E+00  0.2989548535801E+00
 0.1040757502362E+00 -0.1267592623488E+00  0.0000000000000E+00  0.2629017561677E+00
 0.7739355787617E-01 -0.9628450410719E-01  0.0000000000000E+00  0.2201001621531E+00
 0.5545055238565E-01 -0.7032488567583E-01  0.0000000000000E+00  0.1720543103229E+00
 0.3935792892188E-01 -0.5005654691512E-01  0.0000000000000E+00  0.1211169134053E+00
 0.3002037371863E-01 -0.3648042855514E-01  0.0000000000000E+00  0.7062162561101E-01
 0.2790383534929E-01 -0.3020284821420E-01  0.0000000000000E+00  0.2495323995372E-01
 0.3266671999880E-01 -0.3108695618247E-01  0.0000000000000E+00 -0.1057651657485E-01
 0.4261370336163E-01 -0.3772579846409E-01  0.0000000000000E+00 -0.3056568576136E-01
 0.5442144295946E-01 -0.4704721251162E-01  0.0000000000000E+00 -0.3223022517216E-01
 0.4152975662233E+00 -0.4611293661279E+00  0.0000000000000E+00  0.3032925692095E+00
 0.3949074417050E+00 -0.4393360940543E+00  0.0000000000000E+00  0.3193326004811E+00
 0.3694547297375E+00 -0.4121942865690E+00  0.0000000000000E+00  0.3309516552213E+00
 0.3405725830458E+00 -0.3814375879104E+00  0.0000000000000E+00  0.3405895639737E+00
 0.3094077262138E+00 -0.3483073044971E+00  0.0000000000000E+00  0.3467513240810E+00
 0.2765166821780E+00 -0.3132723897371E+00  0.0000000000000E+00  0.3479241106874E+00
 0.2424319286819E+00 -0.2768344471384E+00  0.0000000000000E+00  0.3430751491080E+00
 0.2078102198244E+00 -0.2396281207312E+00  0.0000000000000E+00  0.3314663524288E+00
 0.1734367407617E+00 -0.2024304968367E+00  0.0000000000000E+00  0.3126270628559E+00
 0.1402128223122E+00 -0.1661448595498E+00  0.0000000000000E+00  0.2863915834698E+00
 0.1091314108223E+00 -0.1317772261673E+00  0.0000000000000E+00  0.2529816268188E+00
 0.8124048168770E-01 -0.1004013652015E+00  0.0000000000000E+00  0.2131073151329E+00
 0.5758774986859E-01 -0.7310600036084E-01  0.0000000000000E+00  0.1680728116454E+00
 0.3913982470901E-01 -0.5091712277382E-01  0.0000000000000E+00  0.1198717388792E+00
 0.2666784005970E-01 -0.3468761728448E-01  0.0000000000000E+00  0.7125149981557E-01
 0.2058972142301E-01 -0.2494479248209E-01  0.0000000000000E+00  0.2571022319696E-01
 0.2076027870114E-01 -0.2168543424928E-01  0.0000000000000E+00 -0.1264836304984E-01
 0.2621101863958E-01 -0.2411716782150E-01  0.0000000000000E+00 -0.3957432060124E-01
 0.3500433748458E-01 -0.3045945282999E-01  0.0000000000000E+00 -0.5179438750365E-01
 0.4455840033939E-01 -0.3821148676679E-01  0.0000000000000E+00 -0.4894581847391E-01
 0.4004142953425E+00 -0.4450861137487E+00  0.0000000000000E+00  0.3024243707911E+00
 0.3772045999192E+00 -0.4201292034819E+00  0.0000000000000E+00  0.3124936849463E+00
 0.3489535366557E+00 -0.3895794435293E+00  0.0000000000000E+00  0.3208859715409E+00
 0.3183952077894E+00 -0.3569800577733E+00  0.0000000000000E+00  0.3275554828444E+00
 0.2860776929874E+00 -0.3224939545078E+00  0.0000000000000E+00  0.3296897512310E+00
 0.2523928031321E+00 -0.2864796987148E+00  0.0000000000000E+00  0.3262299665368E+00
 0.2179632735562E+00 -0.2495267124946E+00  0.0000000000000E+00  0.3164712747511E+00
 0.1835431254984E+00 -0.2123842970057E+00  0.0000000000000E+00  0.2999845493876E+00
 0.1499905940283E+00 -0.1759154482183E+00  0.0000000000000E+00  0.2766016189550E+00
 0.1182339538008E+00 -0.1410635865311E+00  0.0000000000000E+00  0.2464839749741E+00
 0.8923450438088E-01 -0.1088158121210E+00  0.0000000000000E+00  0.2102032025710E+00
 0.6393628679056E-01 -0.8015436439457E-01  0.0000000000000E+00  0.1688209102422E+00
 0.4319883898631E-01 -0.5599138824406E-01  0.0000000000000E+00  0.1239544046744E+00
 0.2770963493391E-01 -0.3708359542168E-01  0.0000000000000E+00  0.7781288613658E-01
 0.1787404752148E-01 -0.2392433476622E-01  0.0000000000000E+00  0.3318095528414E-01
 0.1368367204639E-01 -0.1661258430879E-01  0.0000000000000E+00 -0.6690069683636E-02
 0.1457246290949E-01 -0.1470636335452E-01  0.0000000000000E+00 -0.3835189652268E-01
 0.1931526490006E-01 -0.1710141262474E-01  0.0000000000000E+00 -0.5870895135449E-01
 0.2608238935634E-01 -0.2207090155472E-01  0.0000000000000E+00 -0.6583966458330E-01
 0.3313047530866E-01 -0.2780615567178E-01  0.0000000000000E+00 -0.5970599227535E-01
 0.3849239652477E+00 -0.4293995545978E+00  0.0000000000000E+00  0.2948502962238E+00
 0.3577832885148E+00 -0.3983697594090E+00  0.0000000000000E+00  0.3027016445905E+00
 0.3285677291198E+00 -0.3670950107747E+00  0.0000000000000E+00  0.3098723906215E+00
 0.2974978271405E+00 -0.3338376097175E+00  0.0000000000000E+00  0.3129143818867E+00
 0.2646584193717E+00 -0.2987011677493E+00  0.0000000000000E+00  0.3107850993684E+00
 0.2307669855310E+00 -0.2623431599449E+00  0.0000000000000E+00  0.3029378754209E+00
 0.1965858200642E+00 -0.2255275773179E+00  0.0000000000000E+00  0.2889827733271E+00
 0.1629463376433E+00 -0.1890919440071E+00  0.0000000000000E+00  0.2687350900146E+00
 0.1307197809151E+00 -0.1539231450328E+00  0.0000000000000E+00  0.2422771343901E+00
 0.1007920247619E+00 -0.1209309833654E+00  0.0000000000000E+00  0.2100264272183E+00
 0.7402263805240E-01 -0.9100886822818E-01  0.0000000000000E+00  0.1727962626039E+00
 0.5119127691556E-01 -0.6498162018254E-01  0.0000000000000E+00  0.1318431151576E+00
 0.3293089024708E-01 -0.4354010045899E-01  0.0000000000000E+00  0.8889092812805E-01
 0.1964867783730E-01 -0.2716312993771E-01  0.0000000000000E+00  0.4611843620599E-01
 0.1143770711838E-01 -0.1602883087786E-01  0.0000000000000E+00  0.6088995943786E-02
 0.7987474252610E-02 -0.9922404602601E-02  0.0000000000000E+00 -0.2840738486247E-01
 0.8518426151825E-02 -0.8161315467474E-02  0.0000000000000E+00 -0.5464457423958E-01
 0.1178867502335E-01 -0.9590047761074E-02  0.0000000000000E+00 -0.7040317332062E-01
 0.1627790891792E-01 -0.1273006364953E-01  0.0000000000000E+00 -0.7450941182835E-01
 0.2037155825407E-01 -0.1611084503726E-01  0.0000000000000E+00 -0.6655129777270E-01
</DataArray>
<DataArray type="Float64" Name="S_Centroid" NumberOfComponents="4" ComponentName0="S11" ComponentName1="S22" ComponentName2="S33" ComponentName3="S12" format="ascii">
-0.6117644206074E+00 -0.4876062291377E+01 -0.1097565358752E+01 -0.6440949782344E+00
 0.8365530721906E-01 -0.3807246229710E+01 -0.7447181955954E+00 -0.3791713153844E-01
-0.1705239095658E-01 -0.3495813188912E+01 -0.7025731264429E+00 -0.3877323757389E-01
 0.2439901618135E-02 -0.3344155775856E+01 -0.6683431848067E+00 -0.1765058432974E-01
-0.1073675639289E-02 -0.3261969873662E+01 -0.6526087195849E+00 -0.9761488251698E-02
-0.8869293494673E-04 -0.3217569399560E+01 -0.6435316280884E+00 -0.4683027279637E-02
-0.2066568179654E-03 -0.3196332506647E+01 -0.6393078422195E+00 -0.1448402060687E-02
-0.1176203969271E-03 -0.3190544311022E+01 -0.6381323957927E+00  0.8275890065176E-03
-0.1034704528510E-03 -0.3195852962536E+01 -0.6391912961225E+00  0.2526697021828E-02
-0.8671458710607E-04 -0.3209650050895E+01 -0.6419473626622E+00  0.3882555974979E-02
-0.8063064815111E-04 -0.3230374926534E+01 -0.6460911210639E+00  0.5038076489158E-02
-0.7921152279888E-04 -0.3257132219422E+01 -0.6514422958961E+00  0.6090810331592E-02
-0.8245287736630E-04 -0.3289488664493E+01 -0.6579142332778E+00  0.7111784073987E-02
-0.8966168467339E-04 -0.3327354438523E+01 -0.6654888299582E+00  0.8156778393520E-02
-0.1008066165541E-03 -0.3370914266766E+01 -0.6742030247228E+00  0.9272715519011E-02
-0.1160083031178E-03 -0.3420588261364E+01 -0.6841408641279E+00  0.1050188888570E-01
-0.1358323668894E-03 -0.3477013949263E+01 -0.6954299666887E+00  0.1188538488309E-01
-0.1608604091651E-03 -0.3541043868328E+01 -0.7082409563010E+00  0.1346595328606E-01
-0.1923613162020E-03 -0.3613766483137E+01 -0.7227917796610E+00  0.1529298918286E-01
-0.2324837244732E-03 -0.3696554227811E+01 -0.7393573533243E+00  0.1742940621902E-01
-0.2853495854962E-03 -0.3791167562356E+01 -0.7582905936876E+00  0.1996812154131E-01
-0.3556474708819E-03 -0.3900002578603E+01 -0.7800716568388E+00  0.2306898465981E-01
-0.6014497062414E-03 -0.4026827069674E+01 -0.8054857158788E+00  0.2726300284436E-01
-0.1634362783589E-02 -0.4177305776164E+01 -0.8357880402437E+00  0.3467906396409E-01
-0.3719559003177E-02 -0.4353582139596E+01 -0.8714603527056E+00  0.4922040637240E-01
-0.6492651899550E-02 -0.4551385853810E+01 -0.9115757147255E+00  0.7414573529291E-01
-0.9809956029728E-02 -0.4765111736262E+01 -0.9549843526887E+00  0.1104910461631E+00
-0.1386024192073E-01 -0.4991140778945E+01 -0.1001000219089E+01  0.1577231636677E+00
-0.1904904654902E-01 -0.5228626111014E+01 -0.1049535047152E+01  0.2148864085494E+00
-0.2590788107887E-01 -0.5478939657016E+01 -0.1100969524025E+01  0.2814993517870E+00
-0.3508988345592E-01 -0.5744562997544E+01 -0.1155930593425E+01  0.3580302519790E+00
-0.4738741234197E-01 -0.6027767964362E+01 -0.1215031093446E+01  0.4459411153625E+00
-0.6282675114269E-01 -0.6328254146373E+01 -0.1278216198550E+01  0.5460381403985E+00
-0.8115543510150E-01 -0.6648767259363E+01 -0.1345984558950E+01  0.6568286033071E+00
-0.1022051146444E+00 -0.7006551499622E+01 -0.1421751344039E+01  0.7786175002546E+00
-0.1335550327069E+00 -0.7431304679892E+01 -0.1512971965065E+01  0.9182895628908E+00
-0.1569635195125E+00 -0.7964727174346E+01 -0.1624338162976E+01  0.1091625789141E+01
-0.2943303418414E+00 -0.8680734154170E+01 -0.1795012925950E+01  0.1336742610841E+01
-0.8459281343705E-02 -0.9741010943470E+01 -0.1949894074018E+01  0.1672168738901E+01
-0.2569580041607E+01 -0.1157010438032E+02 -0.2827936926526E+01  0.2959254951894E+01
 0.7659077062206E+01 -0.1194533889627E+02 -0.8572523795877E+00  0.2887588257973E+01
-0.6505865920571E+00 -0.4265491630746E+01 -0.9832156592117E+00 -0.7093963838233E+00
-0.1062310102606E+00 -0.3949736311960E+01 -0.8111934765319E+00 -0.3148690887779E+00
-0.6775814347667E-02 -0.3583297725026E+01 -0.7180147185740E+00 -0.1085652517066E+00
-0.1348828637435E-01 -0.3420056701898E+01 -0.6867090078872E+00 -0.6492433702304E-01
-0.4869681094429E-02 -0.3325102696387E+01 -0.6659944854205E+00 -0.3471790458372E-01
-0.3650208245235E-02 -0.3271295203362E+01 -0.6549890920815E+00 -0.1839610244003E-01
-0.2322597997529E-02 -0.3242546429852E+01 -0.6489738152403E+00 -0.7572779507324E-02
-0.1715088977504E-02 -0.3230755650326E+01 -0.6464941574942E+00 -0.7704533710618E-04
-0.1315997848998E-02 -0.3231125006832E+01 -0.6464882105696E+00  0.5505221293576E-02
-0.1086091030446E-02 -0.3240785020779E+01 -0.6483742320235E+00  0.9922022602491E-02
-0.9552285125818E-03 -0.3257972543492E+01 -0.6517855641134E+00  0.1364827720122E-01
-0.8965981465558E-03 -0.3281643317503E+01 -0.6565079929126E+00  0.1699962129612E-01
-0.8919221187840E-03 -0.3311244459788E+01 -0.6624272862522E+00  0.2020382901688E-01
-0.9313274152482E-03 -0.3346585546020E+01 -0.6695033846635E+00  0.2343675979707E-01
-0.1009219044583E-02 -0.3387761234291E+01 -0.6777541007665E+00  0.2684405527640E-01
-0.1123277867219E-02 -0.3435106469129E+01 -0.6872459596399E+00  0.3055506314495E-01
-0.1273983540248E-02 -0.3489173823471E+01 -0.6980895718045E+00  0.3469340575604E-01
-0.1464892614698E-02 -0.3550727671500E+01 -0.7104385234093E+00  0.3938709897477E-01
-0.1704388659101E-02 -0.3620759610811E+01 -0.7244928106898E+00  0.4478207070611E-01
-0.2010201139375E-02 -0.3700529880919E+01 -0.7405080274461E+00  0.5106423427888E-01
-0.2418388097198E-02 -0.3791654896033E+01 -0.7588146681333E+00  0.5850358832193E-01
-0.3039628932375E-02 -0.3896303010516E+01 -0.7798685395106E+00  0.6759080467295E-01
-0.4443839952391E-02 -0.4017401661388E+01 -0.8043691122541E+00  0.7942373402427E-01
-0.7673757420696E-02 -0.4157840384413E+01 -0.8331028407809E+00  0.9584150672305E-01
-0.1313338654967E-01 -0.4318230179563E+01 -0.8662727261310E+00  0.1189724521077E+00
-0.2018932369512E-01 -0.4496051940893E+01 -0.9032482663770E+00  0.1506386062606E+00
-0.2814330784099E-01 -0.4687557917090E+01 -0.9431402590401E+00  0.1918267548391E+00
-0.3685594549712E-01 -0.4889843458370E+01 -0.9853398954561E+00  0.2426520248869E+00
-0.4671414638836E-01 -0.5101580829598E+01 -0.1029659010540E+01  0.3028760232992E+00
-0.5845735790063E-01 -0.5322743573791E+01 -0.1076240202376E+01  0.3724324522718E+00
-0.7306584269754E-01 -0.5553826889570E+01 -0.1125378563223E+01  0.4517209280411E+00
-0.9121919082067E-01 -0.5794863339821E+01 -0.1177216523670E+01  0.5413295670277E+00
-0.1126484231147E+00 -0.6045513015696E+01 -0.1231632306115E+01  0.6416798081852E+00
-0.1371875199176E+00 -0.6307814626968E+01 -0.1289000448585E+01  0.7538596994982E+00
-0.1686851709812E+00 -0.6589033287938E+01 -0.1351543711923E+01  0.8814755918607E+00
-0.2082643328281E+00 -0.6899806750089E+01 -0.1421614237767E+01  0.1031328636239E+01
-0.2865191749565E+00 -0.7252349106100E+01 -0.1507773678679E+01  0.1225051940226E+01
-0.3398383503349E+00 -0.7641418111455E+01 -0.1596251316144E+01  0.1455854395884E+01
-0.7461911622258E+00 -0.8084271416984E+01 -0.1766092542159E+01  0.1989670014178E+01
-0.1376940314872E+01 -0.7493796926109E+01 -0.1774147474633E+01  0.1886153574011E+01
 0.6526456223748E+01 -0.6305551641496E+01  0.4418091710870E-01  0.5378620749418E+00
-0.6897046207280E+00 -0.3956204890947E+01 -0.9291819161810E+00 -0.6863973682200E+00
-0.2400557662591E+00 -0.3874909944541E+01 -0.8229931544236E+00 -0.4393036644260E+00
-0.5855011266878E-01 -0.3643294103408E+01 -0.7403688542477E+00 -0.2058502434463E+00
-0.2906841317746E-01 -0.3473615848950E+01 -0.7005368628643E+00 -0.1098732381334E+00
-0.1698835473631E-01 -0.3376955087752E+01 -0.6787886986125E+00 -0.6353560102499E-01
-0.1026224360513E-01 -0.3317586074025E+01 -0.6655696734438E+00 -0.3450055485915E-01
-0.7034881519534E-02 -0.3283747264046E+01 -0.6581564389204E+00 -0.1590115350033E-01
-0.5055835184650E-02 -0.3267296229489E+01 -0.6544704226871E+00 -0.2814131191590E-02
-0.3895967279706E-02 -0.3263562737644E+01 -0.6534917507226E+00  0.6910547758135E-02
-0.3189385749362E-02 -0.3269594470170E+01 -0.6545567809376E+00  0.1459975882098E-01
-0.2785782209294E-02 -0.3283547282364E+01 -0.6572666227086E+00  0.2105902414270E-01
-0.2591044267992E-02 -0.3304288953323E+01 -0.6613760093735E+00  0.2683202054574E-01
-0.2553383862498E-02 -0.3331184232895E+01 -0.6667475332869E+00  0.3230800435772E-01
-0.2641790573858E-02 -0.3363963497730E+01 -0.6733210676940E+00  0.3778617186436E-01
-0.2838869656553E-02 -0.3402643563367E+01 -0.6810964967539E+00  0.4351231184144E-01
-0.3136517987762E-02 -0.3447479834630E+01 -0.6901232808072E+00  0.4970277301531E-01
-0.3534622688169E-02 -0.3498940309059E+01 -0.7004949967876E+00  0.5656238414046E-01
-0.4041959127427E-02 -0.3557695321380E+01 -0.7123474667163E+00  0.6430131440282E-01
-0.4680593044768E-02 -0.3624625834999E+01 -0.7258612964249E+00  0.7315659089029E-01
-0.5497151947882E-02 -0.3700851181834E+01 -0.7412696778022E+00  0.8342597694269E-01
-0.6590990258301E-02 -0.3787785409531E+01 -0.7588752912660E+00  0.9553619805070E-01
-0.8256998181065E-02 -0.3887204576453E+01 -0.7790923265362E+00  0.1102106398853E+00
-0.1130896543966E-01 -0.4001051859267E+01 -0.8024721768990E+00  0.1286347250576E+00
-0.1687151138710E-01 -0.4130686361398E+01 -0.8295115869177E+00  0.1521909324635E+00
-0.2533128347393E-01 -0.4275984079234E+01 -0.8602630853604E+00  0.1820580323051E+00
-0.3598848253318E-01 -0.4435154014678E+01 -0.8942285127672E+00  0.2192224643361E+00
-0.4794217662390E-01 -0.4605534678020E+01 -0.9306953847973E+00  0.2644423393688E+00
-0.6085301361320E-01 -0.4784666102111E+01 -0.9691038375855E+00  0.3180917291632E+00
-0.7504630815787E-01 -0.4970817285382E+01 -0.1009172733746E+01  0.3802774676175E+00
-0.9133443349696E-01 -0.5162848216728E+01 -0.1050836545704E+01  0.4510764932434E+00
-0.1107231313003E+00 -0.5359666736278E+01 -0.1094077989819E+01  0.5306231978401E+00
-0.1337979782368E+00 -0.5559784343020E+01 -0.1138716481220E+01  0.6189825336235E+00
-0.1603803119223E+00 -0.5761653025804E+01 -0.1184406685194E+01  0.7164972628485E+00
-0.1914916074547E+00 -0.5964224787510E+01 -0.1231143297338E+01  0.8249133640053E+00
-0.2302896791267E+00 -0.6165904903576E+01 -0.1279238935603E+01  0.9472939131405E+00
-0.2868050740634E+00 -0.6362216796420E+01 -0.1329804393912E+01  0.1090221511997E+01
-0.3656425060114E+00 -0.6531569811474E+01 -0.1379442484052E+01  0.1253718955058E+01
-0.4966410855364E+00 -0.6637648809460E+01 -0.1426858000261E+01  0.1466224342961E+01
-0.8626181948753E+00 -0.6365011504757E+01 -0.1445525961466E+01  0.1636887313743E+01
-0.1716048705726E+00 -0.5296303318241E+01 -0.1093581654058E+01  0.7676086450501E+00
 0.6246585241773E+01 -0.4433551570528E+01  0.3626067396522E+00 -0.2529832734907E+00
-0.7140712041560E+00 -0.3769568597601E+01 -0.8967279737136E+00 -0.6481343177590E+00
-0.3370701211158E+00 -0.3776260102538E+01 -0.8226660569894E+00 -0.4888949157492E+00
-0.1247034152973E+00 -0.3649684449582E+01 -0.7548775842245E+00 -0.2805540639924E+00
-0.5738216108137E-01 -0.3510635434151E+01 -0.7136035296800E+00 -0.1569433399869E+00
-0.3334880899093E-01 -0.3416408679744E+01 -0.6899515080280E+00 -0.9211675659146E-01
-0.2089566351911E-01 -0.3356380453241E+01 -0.6754552334170E+00 -0.5220511205741E-01
-0.1416508429167E-01 -0.3319654371855E+01 -0.6667639011649E+00 -0.2567189940088E-01
-0.1026325985735E-01 -0.3299978836735E+01 -0.6620484291838E+00 -0.6983464302671E-02
-0.7889801567935E-02 -0.3293006572381E+01 -0.6601792846272E+00  0.7005726532271E-02
-0.6450074329527E-02 -0.3295956203288E+01 -0.6604812653654E+00  0.1807575555400E-01
-0.5610977633714E-02 -0.3307005349542E+01 -0.6625232753075E+00  0.2736409285222E-01
-0.5191809298085E-02 -0.3325000806232E+01 -0.6660385330307E+00  0.3563293836176E-01
-0.5085692682080E-02 -0.3349262460432E+01 -0.6708696406197E+00  0.4343150894616E-01
-0.5229848111116E-02 -0.3379464410521E+01 -0.6769388618135E+00  0.5118078746641E-01
-0.5588109325871E-02 -0.3415558813605E+01 -0.6842293947820E+00  0.5922521106998E-01
-0.6142967706121E-02 -0.3457728179842E+01 -0.6927742398327E+00  0.6786585433948E-01
-0.6892605989845E-02 -0.3506357144197E+01 -0.7026499605076E+00  0.7738524611866E-01
-0.7852488864920E-02 -0.3562017599574E+01 -0.7139740283268E+00  0.8807009150139E-01
-0.9063226584649E-02 -0.3625468022630E+01 -0.7269062606747E+00  0.1002389506059E+00
-0.1060996336193E-01 -0.3697663298069E+01 -0.7416546633378E+00  0.1142838151158E+00
-0.1267861812441E-01 -0.3779765988809E+01 -0.7584889326890E+00  0.1307478697844E+00
-0.1572310671320E-01 -0.3873083760461E+01 -0.7777613850244E+00  0.1504442455999E+00
-0.2066237966375E-01 -0.3978752566536E+01 -0.7998830011592E+00  0.1744383086898E+00
-0.2855594247708E-01 -0.4097224477610E+01 -0.8251560963132E+00  0.2036985469293E+00
-0.3972085157785E-01 -0.4227961634382E+01 -0.8535365099107E+00  0.2388372591004E+00
-0.5347135544001E-01 -0.4369484624089E+01 -0.8845912090873E+00  0.2803245615145E+00
-0.6886776536075E-01 -0.4519698764270E+01 -0.9177133196012E+00  0.3286558669933E+00
-0.8546419114553E-01 -0.4676371458124E+01 -0.9523671440454E+00  0.3842140991679E+00
-0.1035011029179E+00 -0.4837419591026E+01 -0.9881841535138E+00  0.4471823894773E+00
-0.1237353544759E+00 -0.5000816556764E+01 -0.1024910397520E+01  0.5175611831906E+00
-0.1470655943989E+00 -0.5164254813511E+01 -0.1062264097411E+01  0.5951472907754E+00
-0.1739791958133E+00 -0.5324920955228E+01 -0.1099780046596E+01  0.6795618896019E+00
-0.2046423519366E+00 -0.5479505526320E+01 -0.1136829592591E+01  0.7707860725734E+00
-0.2402591860947E+00 -0.5623296640897E+01 -0.1172711182873E+01  0.8696550027747E+00
-0.2850535217524E+00 -0.5747762523443E+01 -0.1206563227018E+01  0.9775251211084E+00
-0.3455495098735E+00 -0.5834478374191E+01 -0.1236005595231E+01  0.1092988212477E+01
-0.4270660979490E+00 -0.5847548951780E+01 -0.1254923028646E+01  0.1209070462336E+01
-0.5584649852787E+00 -0.5685924570533E+01 -0.1248877929772E+01  0.1298155745412E+01
-0.6145722878897E+00 -0.5088262622575E+01 -0.1140566999089E+01  0.1088902678893E+01
 0.8211594656573E+00 -0.4166890219831E+01 -0.6691461608059E+00  0.2383590732077E-01
 0.5973034395892E+01 -0.3679662278000E+01  0.4586744304132E+00 -0.5170062368226E+00
-0.7284771957411E+00 -0.3645631653967E+01 -0.8748217829774E+00 -0.6091266930378E+00
-0.4079582411185E+00 -0.3688184186942E+01 -0.8192284978196E+00 -0.5023134003286E+00
-0.1895221752046E+00 -0.3628935855181E+01 -0.7636916174571E+00 -0.3290214422430E+00
-0.9403502032589E-01 -0.3528594384736E+01 -0.7245258918086E+00 -0.1985667481312E+00
-0.5455695729264E-01 -0.3445182961513E+01 -0.6999479941912E+00 -0.1197641997024E+00
-0.3482280089170E-01 -0.3387549824518E+01 -0.6844745352815E+00 -0.7005781169646E-01
-0.2378142742495E-01 -0.3350275468094E+01 -0.6748113891592E+00 -0.3629549971702E-01
-0.1728969790310E-01 -0.3328707141293E+01 -0.6691993778110E+00 -0.1214928304967E-01
-0.1332096302883E-01 -0.3319371571529E+01 -0.6665385168439E+00  0.6052021684697E-02
-0.1088491321162E-01 -0.3319793077528E+01 -0.6661356080741E+00  0.2051844392218E-01
-0.9449166600153E-02 -0.3328286068242E+01 -0.6675470569156E+00  0.3266386351538E-01
-0.8711388943196E-02 -0.3343735371908E+01 -0.6704893621614E+00  0.4345431876294E-01
-0.8494574139911E-02 -0.3365453838922E+01 -0.6747896926674E+00  0.5358852949697E-01
-0.8692869620330E-02 -0.3393081967608E+01 -0.6803549775837E+00  0.6360366220006E-01
-0.9244744816301E-02 -0.3426520960523E+01 -0.6871531513073E+00  0.7393829464454E-01
-0.1011934243606E-01 -0.3465887762406E+01 -0.6952014313278E+00  0.8497377507572E-01
-0.1131145292467E-01 -0.3511485910535E+01 -0.7045594831907E+00  0.9706480938304E-01
-0.1284358199473E-01 -0.3563786175068E+01 -0.7153259620718E+00  0.1105667028521E+00
-0.1477720395896E-01 -0.3623416010379E+01 -0.7276386537103E+00  0.1258667306234E+00
-0.1724150312747E-01 -0.3691149090760E+01 -0.7416781298295E+00  0.1434282337587E+00
-0.2050694679808E-01 -0.3767868890790E+01 -0.7576751788079E+00  0.1638567227607E+00
-0.2513315585620E-01 -0.3854431432008E+01 -0.7759129291348E+00  0.1879497273324E+00
-0.3204989066566E-01 -0.3951360260261E+01 -0.7966820420569E+00  0.2165784223927E+00
-0.4219379649184E-01 -0.4058535975668E+01 -0.8201459666530E+00  0.2503709213200E+00
-0.5579949953112E-01 -0.4175154765238E+01 -0.8461908655630E+00  0.2895696782170E+00
-0.7222023678463E-01 -0.4299847842159E+01 -0.8744136288185E+00  0.3342959186169E+00
-0.9054516648853E-01 -0.4430780724990E+01 -0.9042651917704E+00  0.3847820131606E+00
-0.1102713395448E+00 -0.4565793057865E+01 -0.9352128934178E+00  0.4412697057956E+00
-0.1315307284480E+00 -0.4702491210783E+01 -0.9668044022527E+00  0.5038273183584E+00
-0.1549361722705E+00 -0.4838158713994E+01 -0.9986189921335E+00  0.5722269254264E+00
-0.1811930733452E+00 -0.4969535542008E+01 -0.1030145738421E+01  0.6458636060711E+00
-0.2106882009374E+00 -0.5092610456145E+01 -0.1060659747222E+01  0.7238390519241E+00
-0.2436450150707E+00 -0.5202222429745E+01 -0.1089173505193E+01  0.8053047360890E+00
-0.2812589719146E+00 -0.5290506891112E+01 -0.1114353189210E+01  0.8894726967634E+00
-0.3265392039650E+00 -0.5343304689602E+01 -0.1133968795611E+01  0.9738732725406E+00
-0.3820548585431E+00 -0.5334973962458E+01 -0.1143405781238E+01  0.1049962911621E+01
-0.4477485582658E+00 -0.5216974684947E+01 -0.1132944665525E+01  0.1095456117278E+01
-0.4951262293747E+00 -0.4883192853318E+01 -0.1075663832567E+01  0.1026525966735E+01
-0.2123571925721E+00 -0.4229738609146E+01 -0.8884191735822E+00  0.5750701178943E+00
 0.1554309159556E+01 -0.3568505987511E+01 -0.4028393715939E+00 -0.4107797366992E+00
 0.5721534604012E+01 -0.3301082733584E+01  0.4840903812992E+00 -0.6146378971631E+00
-0.7371172910858E+00 -0.3558203340531E+01 -0.8590641391244E+00 -0.5725297133516E+00
-0.4604937944526E+00 -0.3615380574634E+01 -0.8151748859644E+00 -0.4979021493196E+00
-0.2477119082100E+00 -0.3597637767165E+01 -0.7690699465350E+00 -0.3569269113985E+00
-0.1341128609251E+00 -0.3531890215018E+01 -0.7332006261142E+00 -0.2312489069193E+00
-0.7974244416027E-01 -0.3463986964024E+01 -0.7087458921981E+00 -0.1447984191918E+00
-0.5164274500233E-01 -0.3411680730869E+01 -0.6926647054958E+00 -0.8719867750028E-01
-0.3565630296425E-01 -0.3375703032997E+01 -0.6822718773590E+00 -0.4711397093531E-01
-0.2607225575508E-01 -0.3353512135721E+01 -0.6759168883671E+00 -0.1792535653225E-01
-0.2015386205320E-01 -0.3342634992650E+01 -0.6725577809625E+00  0.4312551883085E-02
-0.1648495772863E-01 -0.3341074310182E+01 -0.6715118635885E+00  0.2209501418228E-01
-0.1429649143133E-01 -0.3347360743521E+01 -0.6723314570090E+00  0.3706232822991E-01
-0.1314652782655E-01 -0.3360473695827E+01 -0.6747240547848E+00  0.5035270531108E-01
-0.1277280525652E-01 -0.3379752842142E+01 -0.6785051395902E+00  0.6279896524452E-01
-0.1301719763372E-01 -0.3404826952622E+01 -0.6835688402371E+00  0.7504444001652E-01
-0.1378645455654E-01 -0.3435559785069E+01 -0.6898692582049E+00  0.8761470775987E-01
-0.1503239289531E-01 -0.3472010528407E+01 -0.6974085946527E+00  0.1009648865344E+00
-0.1674411757017E-01 -0.3514404962652E+01 -0.7062298265681E+00  0.1155145592306E+00
-0.1895013863863E-01 -0.3563112111063E+01 -0.7164124606156E+00  0.1316778014036E+00
-0.2173257412764E-01 -0.3618623897037E+01 -0.7280713050821E+00  0.1498956062848E+00
-0.2526280091921E-01 -0.3681524520889E+01 -0.7413574754087E+00  0.1706760156699E+00
-0.2987771865409E-01 -0.3752418047197E+01 -0.7564591644424E+00  0.1946365302048E+00
-0.3618913489213E-01 -0.3831765240013E+01 -0.7735908865084E+00  0.2224957868596E+00
-0.4507880880258E-01 -0.3919634117292E+01 -0.7929425970347E+00  0.2549154929469E+00
-0.5734203639732E-01 -0.4015525713508E+01 -0.8145735621191E+00  0.2922479412431E+00
-0.7313041161984E-01 -0.4118445956470E+01 -0.8383152861098E+00  0.3344714479972E+00
-0.9183488641671E-01 -0.4227034192341E+01 -0.8637738286227E+00  0.3814454638117E+00
-0.1125900151143E+00 -0.4339543769321E+01 -0.8904267701555E+00  0.4331437946099E+00
-0.1348502820849E+00 -0.4453792959157E+01 -0.9177286619236E+00  0.4895778598983E+00
-0.1586140163047E+00 -0.4567122678944E+01 -0.9451473531335E+00  0.5505742382992E+00
-0.1842845323550E+00 -0.4676290461996E+01 -0.9721150133559E+00  0.6155715988062E+00
-0.2123120715467E+00 -0.4777293025420E+01 -0.9979210342635E+00  0.6834947493211E+00
-0.2428643685405E+00 -0.4865091513984E+01 -0.1021591191728E+01  0.7527767097027E+00
-0.2759480101146E+00 -0.4932969153079E+01 -0.1041783448162E+01  0.8214298500594E+00
-0.3120251519102E+00 -0.4970649983657E+01 -0.1056535042857E+01  0.8864332024135E+00
-0.3516046700873E+00 -0.4960803942653E+01 -0.1062481738380E+01  0.9411031731070E+00
-0.3918960241984E+00 -0.4874548122168E+01 -0.1053288844968E+01  0.9696695923176E+00
-0.4164917414053E+00 -0.4662327239917E+01 -0.1015763811401E+01  0.9332250183294E+00
-0.3364421207742E+00 -0.4253709297780E+01 -0.9180302973906E+00  0.7266503291462E+00
 0.2199336268150E+00 -0.3669107222108E+01 -0.6898347293379E+00  0.1653291971563E+00
 0.2078939659971E+01 -0.3228352071792E+01 -0.2298824857898E+00 -0.6533075208098E+00
 0.5497235522798E+01 -0.3080528891423E+01  0.4833413334774E+00 -0.6556745237046E+00
-0.7424915827972E+00 -0.3493867305361E+01 -0.8472717902570E+00 -0.5388161567649E+00
-0.5001608624754E+00 -0.3556314606132E+01 -0.8112951058107E+00 -0.4846187968352E+00
-0.2980901226584E+00 -0.3563932208678E+01 -0.7724044777771E+00 -0.3702950030400E+00
-0.1742849913326E+00 -0.3525700942644E+01 -0.7399971978221E+00 -0.2546752045700E+00
-0.1074436478595E+00 -0.3474312964844E+01 -0.7163513332152E+00 -0.1659406316185E+00
-0.7083594521668E-01 -0.3429423910495E+01 -0.7000519815738E+00 -0.1028929564227E+00
-0.4950184269259E-01 -0.3396234643953E+01 -0.6891473075982E+00 -0.5759654455325E-01
-0.3647331361868E-01 -0.3374503760312E+01 -0.6821954249516E+00 -0.2394654557110E-01
-0.2831967156158E-01 -0.3362839795724E+01 -0.6782319035635E+00  0.2030735076190E-02
-0.2321200370244E-01 -0.3359810736427E+01 -0.6766045581080E+00  0.2296854604225E-01
-0.2012977053210E-01 -0.3364231734459E+01 -0.6768723110845E+00  0.4066288108168E-01
-0.1847859660767E-01 -0.3375220308315E+01 -0.6787397910985E+00  0.5638726951241E-01
-0.1790092684446E-01 -0.3392173002096E+01 -0.6820147959510E+00  0.7108710700578E-01
-0.1817866893817E-01 -0.3414726516258E+01 -0.6865810472700E+00  0.8549866676174E-01
-0.1918138697748E-01 -0.3442720069092E+01 -0.6923803015311E+00  0.1002249502552E+00
-0.2083963424307E-01 -0.3476163118478E+01 -0.6994005609660E+00  0.1157865937920E+00
-0.2313397066281E-01 -0.3515208083711E+01 -0.7076684214199E+00  0.1326592868471E+00
-0.2609649700803E-01 -0.3560123848719E+01 -0.7172440798331E+00  0.1513047389727E+00
-0.2982682366521E-01 -0.3611266581088E+01 -0.7282186918020E+00  0.1722013862529E+00
-0.3453009753885E-01 -0.3669032525072E+01 -0.7407125355597E+00  0.1958754988357E+00
-0.4058475239422E-01 -0.3733765270616E+01 -0.7548700158505E+00  0.2229174771195E+00
-0.4861006608657E-01 -0.3805596173004E+01 -0.7708412593045E+00  0.2539341205839E+00
-0.5940499194659E-01 -0.3884255062652E+01 -0.7887320226727E+00  0.2893860939793E+00
-0.7362119267910E-01 -0.3968979766846E+01 -0.8085202039530E+00  0.3293987749513E+00
-0.9132823108695E-01 -0.4058630351506E+01 -0.8299917288865E+00  0.3737443155511E+00
-0.1119405228119E+00 -0.4151804430658E+01 -0.8527490034009E+00  0.4220651389898E+00
-0.1346273170874E+00 -0.4246753157942E+01 -0.8762761080633E+00  0.4740800475952E+00
-0.1587922199257E+00 -0.4341229439671E+01 -0.9000043453305E+00  0.5295188947328E+00
-0.1842717022631E+00 -0.4432360689711E+01 -0.9233264921534E+00  0.5878873297372E+00
-0.2112081852382E+00 -0.4516520605379E+01 -0.9455457722132E+00  0.6482201149481E+00
-0.2397231377822E+00 -0.4589153906928E+01 -0.9657754233331E+00  0.7089040076873E+00
-0.2696141847061E+00 -0.4644446449065E+01 -0.9828121413993E+00  0.7675848404338E+00
-0.3003204445195E+00 -0.4674580721575E+01 -0.9949802480453E+00  0.8209352185338E+00
-0.3308872852433E+00 -0.4667927508670E+01 -0.9997629736802E+00  0.8635304897140E+00
-0.3584404308392E+00 -0.4606176786433E+01 -0.9929234582501E+00  0.8847249698833E+00
-0.3726350701162E+00 -0.4461311414166E+01 -0.9667893112628E+00  0.8622137594382E+00
-0.3367592549737E+00 -0.4194259828883E+01 -0.9062038302748E+00  0.7473484921630E+00
-0.1221159033592E+00 -0.3779052579683E+01 -0.7802337082349E+00  0.4439914154515E+00
 0.6252124696610E+00 -0.3302182870128E+01 -0.5353940880715E+00 -0.1388456544107E+00
 0.2451336567090E+01 -0.3020350298233E+01 -0.1138027479244E+00 -0.7844172433027E+00
 0.5301533440795E+01 -0.2937666829605E+01  0.4727733292830E+00 -0.6761654222529E+00
-0.7460026464493E+00 -0.3445005919780E+01 -0.8382017257360E+00 -0.5077867939461E+00
-0.5307342031500E+00 -0.3508431966731E+01 -0.8078332460138E+00 -0.4669946680561E+00
-0.3410693556739E+00 -0.3531474627980E+01 -0.7745088082719E+00 -0.3737763407740E+00
-0.2126510647146E+00 -0.3514026025257E+01 -0.7453354291007E+00 -0.2699279398168E+00
-0.1362670181045E+00 -0.3478035956458E+01 -0.7228606056840E+00 -0.1826546510459E+00
-0.9176054935075E-01 -0.3441572998774E+01 -0.7066667201551E+00 -0.1165785043339E+00
-0.6498695437299E-01 -0.3412270993744E+01 -0.6954515999864E+00 -0.6732289623062E-01
-0.4830848100792E-01 -0.3391875525256E+01 -0.6880368115053E+00 -0.2989839633392E-01
-0.3771613818903E-01 -0.3380081314492E+01 -0.6835595007220E+00 -0.5719324867110E-03
-0.3100428615565E-01 -0.3376052406400E+01 -0.6814113486650E+00  0.2329136728846E-01
-0.2690759509066E-01 -0.3378929858277E+01 -0.6811675008237E+00  0.4356567878837E-01
-0.2467497547604E-01 -0.3388001907619E+01 -0.6825353867897E+00  0.6161773160269E-01
-0.2384801864459E-01 -0.3402745822415E+01 -0.6853187784240E+00  0.7848046342090E-01
-0.2414335334950E-01 -0.3422823231522E+01 -0.6893933272470E+00  0.9496709838325E-01
-0.2538889407355E-01 -0.3448060596597E+01 -0.6946899084858E+00  0.1117465959017E+00
-0.2749022087786E-01 -0.3478425674788E+01 -0.7011831895817E+00  0.1293954293920E+00
-0.3041600052113E-01 -0.3514002890901E+01 -0.7088837888477E+00  0.1484355526610E+00
-0.3419819795518E-01 -0.3554964796898E+01 -0.7178326096672E+00  0.1693644315206E+00
-0.3894802609990E-01 -0.3601535923043E+01 -0.7280968006781E+00  0.1926816121724E+00
-0.4489172846168E-01 -0.3653934491940E+01 -0.7397652551037E+00  0.2189082606378E+00
-0.5242344962603E-01 -0.3712272764538E+01 -0.7529392540525E+00  0.2485805412824E+00
-0.6213541254888E-01 -0.3776415120770E+01 -0.7677101181034E+00  0.2821794678194E+00
-0.7472387742545E-01 -0.3845839791990E+01 -0.7841127455673E+00  0.3199809932023E+00
-0.9070011426937E-01 -0.3919596683253E+01 -0.8020593714561E+00  0.3619187331267E+00
-0.1100505729629E+00 -0.3996431128677E+01 -0.8212963525663E+00  0.4075908426672E+00
-0.1321923664753E+00 -0.4074880151816E+01 -0.8414145161962E+00  0.4564455655777E+00
-0.1563048470868E+00 -0.4153153751280E+01 -0.8618917325166E+00  0.5079499108292E+00
-0.1817189045626E+00 -0.4228931285136E+01 -0.8821300510845E+00  0.5615256352659E+00
-0.2080787801876E+00 -0.4299186065985E+01 -0.9014529826672E+00  0.6163130964811E+00
-0.2352184199396E+00 -0.4360038333257E+01 -0.9190513643343E+00  0.6708996012340E+00
-0.2628502411101E+00 -0.4406575098254E+01 -0.9338850817887E+00  0.7230878814552E+00
-0.2902334077936E+00 -0.4432506551747E+01 -0.9445480059831E+00  0.7696720817621E+00
-0.3158966667212E+00 -0.4429466600138E+01 -0.9490726675141E+00  0.8059413145370E+00
-0.3369523592983E+00 -0.4385548631199E+01 -0.9445002121736E+00  0.8242373157904E+00
-0.3464492736604E+00 -0.4283368709828E+01 -0.9259636104956E+00  0.8106186263281E+00
-0.3253677321418E+00 -0.4099525224038E+01 -0.8849786044232E+00  0.7384827589441E+00
-0.2195038280749E+00 -0.3811021466419E+01 -0.8061050709107E+00  0.5583625186063E+00
 0.1161799044945E+00 -0.3427788684368E+01 -0.6623217658441E+00  0.1987213044930E+00
 0.9824029814454E+00 -0.3058388249755E+01 -0.4151970598488E+00 -0.3563191256043E+00
 0.2716354953566E+01 -0.2884694025963E+01 -0.3366781498098E-01 -0.8521137860312E+00
 0.5131778456000E+01 -0.2838833966462E+01  0.4585889047411E+00 -0.6879564031089E+00
-0.7484342717746E+00 -0.3406969440211E+01 -0.8310807547812E+00 -0.4791043324829E+00
-0.5547963527427E+00 -0.3469390331425E+01 -0.8048373488265E+00 -0.4473898084453E+00
-0.3775896530284E+00 -0.3501722520164E+01 -0.7758624461996E+00 -0.3706545478593E+00
-0.2482844360139E+00 -0.3499557232758E+01 -0.7495683449238E+00 -0.2784842124151E+00
-0.1651244599736E+00 -0.3476937869563E+01 -0.7284124767616E+00 -0.1949764942668E+00
-0.1137610980725E+00 -0.3449021030760E+01 -0.7125564363845E+00 -0.1279271820156E+00
-0.8174971744890E-01 -0.3424279241279E+01 -0.7012058021943E+00 -0.7597849139514E-01
-0.6136518274384E-01 -0.3405881549065E+01 -0.6934493566949E+00 -0.3552545139373E-01
-0.4821502078931E-01 -0.3394500148426E+01 -0.6885430441032E+00 -0.3302529823525E-02
-0.3978011572524E-01 -0.3389882977565E+01 -0.6859326288792E+00  0.2320165589516E-01
-0.3457281737714E-01 -0.3391511762659E+01 -0.6852169262177E+00  0.4586485215211E-01
-0.3169042508965E-01 -0.3398865477659E+01 -0.6861111907735E+00  0.6610271027173E-01
-0.3057276135567E-01 -0.3411519452678E+01 -0.6884184530650E+00  0.8500864454566E-01
-0.3086841222091E-01 -0.3429173932320E+01 -0.6920084792200E+00  0.1034550444092E+00
-0.3236039098536E-01 -0.3451652983950E+01 -0.6968026853703E+00  0.1221639650678E+00
-0.3492594050670E-01 -0.3478890477400E+01 -0.7027632940534E+00  0.1417570151517E+00
-0.3851812718848E-01 -0.3510909035738E+01 -0.7098854431635E+00  0.1627919079680E+00
-0.4316391957579E-01 -0.3547790724701E+01 -0.7181909395573E+00  0.1857898299409E+00
-0.4897818282254E-01 -0.3589636424623E+01 -0.7277229323330E+00  0.2112561631264E+00
-0.5619360393973E-01 -0.3636502159163E+01 -0.7385391636256E+00  0.2396881040796E+00
-0.6519626716137E-01 -0.3688301819963E+01 -0.7506996286113E+00  0.2715504485491E+00
-0.7652569406093E-01 -0.3744687579924E+01 -0.7642426661851E+00  0.3071954702120E+00
-0.9076430331196E-01 -0.3804950741016E+01 -0.7791430204757E+00  0.3467319578896E+00
-0.1082869620648E+00 -0.3868005743706E+01 -0.7952585530044E+00  0.3899267132263E+00
-0.1289930296468E+00 -0.3932509181578E+01 -0.8123004543492E+00  0.4362222119980E+00
-0.1522785885692E+00 -0.3996937943707E+01 -0.8298433188209E+00  0.4848847863114E+00
-0.1773022483109E+00 -0.4059453777655E+01 -0.8473512178197E+00  0.5351341495419E+00
-0.2032935013059E+00 -0.4117678614101E+01 -0.8641944359588E+00  0.5860746124473E+00
-0.2296725249862E+00 -0.4168497244967E+01 -0.8796339670982E+00  0.6364624259472E+00
-0.2559189947889E+00 -0.4207901831805E+01 -0.8927641786221E+00  0.6844190729220E+00
-0.2812553881131E+00 -0.4230818600999E+01 -0.9024148112695E+00  0.7271489280690E+00
-0.3042416433569E+00 -0.4230802383683E+01 -0.9070088189234E+00  0.7605983150634E+00
-0.3222216479191E+00 -0.4199499447548E+01 -0.9043442325692E+00  0.7787786549249E+00
-0.3300344253338E+00 -0.4125678570907E+01 -0.8911426125272E+00  0.7721974263214E+00
-0.3163336483558E+00 -0.3994440247997E+01 -0.8621547921177E+00  0.7246778131204E+00
-0.2539502964283E+00 -0.3789348068166E+01 -0.8086596849689E+00  0.6083337242926E+00
-0.7721989095630E-01 -0.3503563426187E+01 -0.7161566741001E+00  0.3798071230374E+00
 0.3573580211603E+00 -0.3169756839438E+01 -0.5624797720370E+00 -0.3952558279160E-02
 0.1287769494147E+01 -0.2893270342765E+01 -0.3211001745083E+00 -0.5081126980195E+00
 0.2906255270574E+01 -0.2791782324227E+01  0.2289458961055E-01 -0.8835897608588E+00
 0.4984222369908E+01 -0.2768029244410E+01  0.4432386317044E+00 -0.6949654488115E+00
-0.7502292668767E+00 -0.3376761392122E+01 -0.8253981440991E+00 -0.4524409805370E+00
-0.5741222172981E+00 -0.3437291874958E+01 -0.8022828304061E+00 -0.4270585025606E+00
-0.4086745898652E+00 -0.3475090563784E+01 -0.7767530423044E+00 -0.3631752684886E+00
-0.2808510102931E+00 -0.3483985808535E+01 -0.7529673749856E+00 -0.2817744981492E+00
-0.1932594561727E+00 -0.3472496929267E+01 -0.7331512880128E+00 -0.2032724121947E+00
-0.1362509428766E+00 -0.3452661126737E+01 -0.7177824246185E+00 -0.1368308604694E+00
-0.9942382598480E-01 -0.3432764413970E+01 -0.7064376585177E+00 -0.8335686986621E-01
-0.7541574939476E-01 -0.3416815696108E+01 -0.6984462995082E+00 -0.4063198650355E-01
-0.5967060343594E-01 -0.3406272247214E+01 -0.6931885804594E+00 -0.6000661572157E-02
-0.4944206997038E-01 -0.3401414282681E+01 -0.6901712808147E+00  0.2282074507885E-01
-0.4305515494770E-01 -0.3402056577643E+01 -0.6890223567854E+00  0.4764650482200E-01
-0.3946875312077E-01 -0.3407876176226E+01 -0.6894689961433E+00  0.6989829316850E-01
-0.3802462154803E-01 -0.3418557119786E+01 -0.6913163585681E+00  0.9070240755786E-01
-0.3830308312188E-01 -0.3433848394746E+01 -0.6944303059214E+00  0.1109717470275E+00
-0.4004030654966E-01 -0.3453580374901E+01 -0.6987241467020E+00  0.1314677685977E+00
-0.4308229002310E-01 -0.3477660456632E+01 -0.7041485598237E+00  0.1528459111462E+00
-0.4736258295411E-01 -0.3506056290234E+01 -0.7106837852276E+00  0.1756888921076E+00
-0.5289746635595E-01 -0.3538767037800E+01 -0.7183329115351E+00  0.2005299654490E+00
-0.5979628673501E-01 -0.3575780915520E+01 -0.7271154512859E+00  0.2278668777333E+00
-0.6828323114824E-01 -0.3617010978534E+01 -0.7370588529194E+00  0.2581586103601E+00
-0.7871578051128E-01 -0.3662205765504E+01 -0.7481843203519E+00  0.2917889679267E+00
-0.9156203064316E-01 -0.3710851832169E+01 -0.7604827838945E+00  0.3289845069375E+00
-0.1072842542070E+00 -0.3762103103810E+01 -0.7738774831351E+00  0.3697031320586E+00
-0.1261237422669E+00 -0.3814778091065E+01 -0.7881803784112E+00  0.4135628564703E+00
-0.1478862369887E+00 -0.3867469040022E+01 -0.8030710673688E+00  0.4598617592994E+00
-0.1719222549189E+00 -0.3918605411886E+01 -0.8181055455518E+00  0.5076922782154E+00
-0.1973370832019E+00 -0.3966313327080E+01 -0.8327300944651E+00  0.5560339682615E+00
-0.2232277203025E+00 -0.4008188934598E+01 -0.8462833435908E+00  0.6036770171972E+00
-0.2487585993113E+00 -0.4041098246542E+01 -0.8579713819553E+00  0.6489945192378E+00
-0.2730124639601E+00 -0.4061026860389E+01 -0.8668078777862E+00  0.6896475980753E+00
-0.2946485228560E+00 -0.4062933323221E+01 -0.8715163822019E+00  0.7222633618768E+00
-0.3113973677603E+00 -0.4040528915798E+01 -0.8703852696813E+00  0.7420121864301E+00
-0.3192372915848E+00 -0.3985976056612E+01 -0.8610426824698E+00  0.7418482053412E+00
-0.3105911340483E+00 -0.3889482691375E+01 -0.8400147776019E+00  0.7109992223781E+00
-0.2698990252728E+00 -0.3739679796952E+01 -0.8019157763945E+00  0.6323370410821E+00
-0.1635934751191E+00 -0.3527798815707E+01 -0.7382784691664E+00  0.4795071473063E+00
 0.7903240459352E-01 -0.3260150399044E+01 -0.6362236083705E+00  0.2190952536559E+00
 0.5889468025408E+00 -0.2980511097618E+01 -0.4783128661428E+00 -0.1661745378461E+00
 0.1544997049100E+01 -0.2779407330249E+01 -0.2468820599087E+00 -0.6118433146414E+00
 0.3043419490242E+01 -0.2726125673871E+01  0.6345876421973E-01 -0.8940405592546E+00
 0.4855238255645E+01 -0.2716699232755E+01  0.4277078109515E+00 -0.6985294362962E+00
-0.7516413663996E+00 -0.3352366808771E+01 -0.8208016472651E+00 -0.4275144427008E+00
-0.5899438463844E+00 -0.3410658428810E+01 -0.8001204669615E+00 -0.4066735451213E+00
-0.4352610486005E+00 -0.3451518554174E+01 -0.7773559321385E+00 -0.3528576986101E+00
-0.3103502378078E+00 -0.3468322674163E+01 -0.7557345936554E+00 -0.2810260409492E+00
-0.2201945182243E+00 -0.3465851005031E+01 -0.7372091156363E+00 -0.2080556588446E+00
-0.1587501482324E+00 -0.3453310302764E+01 -0.7224121009641E+00 -0.1433481358472E+00
-0.1176645156377E+00 -0.3438237218297E+01 -0.7111803573843E+00 -0.8935269513956E-01
-0.9022960582337E-01 -0.3424994211613E+01 -0.7030447739635E+00 -0.4508027996327E-01
-0.7192732045470E-01 -0.3415598507131E+01 -0.6975051759108E+00 -0.8539482499504E-02
-0.5988148442386E-01 -0.3410780578082E+01 -0.6941324228445E+00  0.2225144938089E-01
-0.5227389341647E-01 -0.3410662345809E+01 -0.6925872581655E+00  0.4898732692905E-01
-0.4794461376768E-01 -0.3415114981322E+01 -0.6926119293386E+00  0.7305693699828E-01
-0.4614514708625E-01 -0.3423935403074E+01 -0.6940161203737E+00  0.9559285230170E-01
-0.4638974537918E-01 -0.3436927889133E+01 -0.6966635372835E+00  0.1175298152061E+00
-0.4836709889467E-01 -0.3453936036219E+01 -0.7004606374603E+00  0.1396547239244E+00
-0.5188959461018E-01 -0.3474847625834E+01 -0.7053474545994E+00  0.1626453551474E+00
-0.5686730705015E-01 -0.3499582583202E+01 -0.7112899886495E+00  0.1870988104751E+00
-0.6329967368868E-01 -0.3528066070647E+01 -0.7182731595703E+00  0.2135495736050E+00
-0.7128090920453E-01 -0.3560186629320E+01 -0.7262935185274E+00  0.2424764419165E+00
-0.8101253987153E-01 -0.3595735034281E+01 -0.7353495257880E+00  0.2742900953927E+00
-0.9280633174716E-01 -0.3634325621568E+01 -0.7454264017708E+00  0.3092890346729E+00
-0.1070453364440E+00 -0.3675318616741E+01 -0.7564728019094E+00  0.3475801652687E+00
-0.1240679008374E+00 -0.3717769785365E+01 -0.7683675486901E+00  0.3889849116554E+00
-0.1439828773190E+00 -0.3760433743597E+01 -0.7808833358193E+00  0.4329861817017E+00
-0.1664940689140E+00 -0.3801862516886E+01 -0.7936713289866E+00  0.4787458708020E+00
-0.1908825012559E+00 -0.3840458455956E+01 -0.8062682034568E+00  0.5251898031789E+00
-0.2161685377449E+00 -0.3874336444494E+01 -0.8181010086385E+00  0.5710679444831E+00
-0.2412861989408E+00 -0.3901107543319E+01 -0.8284787607973E+00  0.6148695750100E+00
-0.2651147144844E+00 -0.3917690114865E+01 -0.8365609783355E+00  0.6546014882023E+00
-0.2863032336953E+00 -0.3920178765206E+01 -0.8412964123166E+00  0.6874917601816E+00
-0.3028902187736E+00 -0.3903744592699E+01 -0.8413269748313E+00  0.7096453155895E+00
-0.3116916377793E+00 -0.3862533391276E+01 -0.8348450182513E+00  0.7155845746495E+00
-0.3072427131327E+00 -0.3789631876552E+01 -0.8193749301466E+00  0.6975028480179E+00
-0.2796168359867E+00 -0.3677217662997E+01 -0.7913669115891E+00  0.6439815748503E+00
-0.2096653850981E+00 -0.3517916843050E+01 -0.7455164567386E+00  0.5382041360522E+00
-0.5972211225387E-01 -0.3310060240428E+01 -0.6739564805792E+00  0.3574041876270E+00
 0.2406250516555E+00 -0.3069098492455E+01 -0.5656946965893E+00  0.7929681878088E-01
 0.8044401731613E+00 -0.2841619570541E+01 -0.4074358855473E+00 -0.2930103318795E+00
 0.1760332440340E+01 -0.2699840113113E+01 -0.1879015373545E+00 -0.6808564089622E+00
 0.3143221949546E+01 -0.2679085534361E+01  0.9282728442009E-01 -0.8919790593567E+00
 0.4741730637116E+01 -0.2679747176127E+01  0.4123966983430E+00 -0.6991738376972E+00
-0.7528178737928E+00 -0.3332383459188E+01 -0.8170402787710E+00 -0.4040907622998E+00
-0.6031273096896E+00 -0.3388352244119E+01 -0.7982959226573E+00 -0.3865937803739E+00
-0.4581476079447E+00 -0.3430748535238E+01 -0.7777792402263E+00 -0.3407276194950E+00
-0.3369536374514E+00 -0.3453140592829E+01 -0.7580188573515E+00 -0.2772331396649E+00
-0.2456614649789E+00 -0.3457836601125E+01 -0.7406996242581E+00 -0.2098734022163E+00
-0.1808917586248E+00 -0.3451671702995E+01 -0.7265127031498E+00 -0.1476455534359E+00
-0.1361660835588E+00 -0.3441185938769E+01 -0.7154704151268E+00 -0.9394535350026E-01
-0.1055841139981E+00 -0.3430740294009E+01 -0.7072648921406E+00 -0.4878615552776E-01
-0.8482645130252E-01 -0.3422695206046E+01 -0.7015043419229E+00 -0.1082476999052E-01
-0.7098275003505E-01 -0.3418132734218E+01 -0.6978231072490E+00  0.2157754253833E-01
-0.6214061501247E-01 -0.3417442373200E+01 -0.6959166080124E+00  0.4995378224439E-01
-0.5704535390483E-01 -0.3420676216547E+01 -0.6955443244548E+00  0.7562669982888E-01
-0.5486932557633E-01 -0.3427742402658E+01 -0.6965223560260E+00  0.9971078161791E-01
-0.5506503715863E-01 -0.3438503648094E+01 -0.6987137474621E+00  0.1231447207739E+00
-0.5727430718328E-01 -0.3452821890036E+01 -0.7020192499047E+00  0.1467271534415E+00
-0.6127413854794E-01 -0.3470571478636E+01 -0.7063691339625E+00  0.1711469051118E+00
-0.6694730286225E-01 -0.3491632048526E+01 -0.7117158808831E+00  0.1970053141739E+00
-0.7427013555524E-01 -0.3515864522229E+01 -0.7180269422564E+00  0.2248283690628E+00
-0.8331228037011E-01 -0.3543071834570E+01 -0.7252768337954E+00  0.2550668240299E+00
-0.9423981341629E-01 -0.3572943271274E+01 -0.7334366278671E+00  0.2880764469304E+00
-0.1073048544636E+00 -0.3604987430587E+01 -0.7424584680737E+00  0.3240697447113E+00
-0.1227954578125E+00 -0.3638471415966E+01 -0.7522533859652E+00  0.3630414653394E+00
-0.1409234936341E+00 -0.3672384925204E+01 -0.7626616951321E+00  0.4046892465468E+00
-0.1616649448346E+00 -0.3705446158893E+01 -0.7734222322704E+00  0.4483721120060E+00
-0.1846123904001E+00 -0.3736191045673E+01 -0.7841606988994E+00  0.4931232179600E+00
-0.2089550269214E+00 -0.3763019514565E+01 -0.7943949201347E+00  0.5377101910573E+00
-0.2335993335056E+00 -0.3784065999948E+01 -0.8035330786644E+00  0.5806677148478E+00
-0.2572886173326E+00 -0.3797001373035E+01 -0.8108580101562E+00  0.6202053719862E+00
-0.2785917653630E+00 -0.3798865772018E+01 -0.8154915196279E+00  0.6539934450531E+00
-0.2956968735440E+00 -0.3785968900846E+01 -0.8163331670422E+00  0.6788731676300E+00
-0.3059861792428E+00 -0.3753852811062E+01 -0.8119678101603E+00  0.6905107184345E+00
-0.3053268082137E+00 -0.3697324901815E+01 -0.8005303539345E+00  0.6829476633460E+00
-0.2868360306188E+00 -0.3610688838745E+01 -0.7795049854882E+00  0.6479510467135E+00
-0.2384927057294E+00 -0.3488373775105E+01 -0.7453733072739E+00  0.5740856128705E+00
-0.1384654314347E+00 -0.3326952949544E+01 -0.6930836865235E+00  0.4458951294732E+00
 0.5271153056347E-01 -0.3130569620707E+01 -0.6155716272014E+00  0.2453662444583E+00
 0.4013658662521E+00 -0.2920033214107E+01 -0.5037334770773E+00 -0.3922706688370E-01
 0.1001114224531E+01 -0.2739637782126E+01 -0.3477047167003E+00 -0.3901827931532E+00
 0.1940370122576E+01 -0.2643921538256E+01 -0.1407102852328E+00 -0.7248240242778E+00
 0.3216255110016E+01 -0.2645506331889E+01  0.1141497573263E+00 -0.8822317442838E+00
 0.4641178111701E+01 -0.2653847470366E+01  0.3974661341898E+00 -0.6971819558505E+00
-0.7538451493985E+00 -0.3315807672099E+01 -0.8139305764280E+00 -0.3819780986648E+00
-0.6142898313270E+00 -0.3369498199074E+01 -0.7967576179529E+00 -0.3670050204728E+00
-0.4779920206267E+00 -0.3412458393184E+01 -0.7780900943567E+00 -0.3274789564446E+00
-0.3609092996360E+00 -0.3438739178863E+01 -0.7599297070236E+00 -0.2711772974731E+00
-0.2695383732110E+00 -0.3449049557567E+01 -0.7437175972378E+00 -0.2092457267392E+00
-0.2024111567424E+00 -0.3448325865937E+01 -0.7301474154160E+00 -0.1499486850602E+00
-0.1546701481666E+00 -0.3442057403189E+01 -0.7193455209902E+00 -0.9717839990535E-01
-0.1212728237770E+00 -0.3434371061849E+01 -0.7111287877217E+00 -0.5171191894151E-01
-0.9821180269224E-01 -0.3427785577263E+01 -0.7051994864994E+00 -0.1279255584775E-01
-0.8262718192709E-01 -0.3423632745603E+01 -0.7012519959555E+00  0.2086421285142E-01
-0.7256181553602E-01 -0.3422521624922E+01 -0.6990166985078E+00  0.5060184749703E-01
-0.6669284057054E-01 -0.3424665048419E+01 -0.6982715882029E+00  0.7765078386374E-01
-0.6412695590230E-01 -0.3430075855312E+01 -0.6988405726565E+00  0.1030862259669E+00
-0.6426099027882E-01 -0.3438675288356E+01 -0.7005872661665E+00  0.1278343578280E+00
-0.6669160877065E-01 -0.3450347017879E+01 -0.7034077358114E+00  0.1526925690773E+00
-0.7115927331529E-01 -0.3464957390750E+01 -0.7072233433516E+00  0.1783499941141E+00
-0.7751590993127E-01 -0.3482353144566E+01 -0.7119738215086E+00  0.2054028066219E+00
-0.8570870512414E-01 -0.3502341125731E+01 -0.7176099768643E+00  0.2343600584552E+00
-0.9577390221823E-01 -0.3524653051952E+01 -0.7240854016237E+00  0.2656374696482E+00
-0.1078309681280E+00 -0.3548896750478E+01 -0.7313455546192E+00  0.2995320674327E+00
-0.1220612095070E+00 -0.3574500642254E+01 -0.7393123813689E+00  0.3361721003446E+00
-0.1386503448590E+00 -0.3600666991152E+01 -0.7478634783462E+00  0.3754482493808E+00
-0.1576817877147E+00 -0.3626346484492E+01 -0.7568056657186E+00  0.4169457724818E+00
-0.1789970469588E+00 -0.3650245375941E+01 -0.7658484959919E+00  0.4599098690287E+00
-0.2020679994613E+00 -0.3670907382531E+01 -0.7745950879409E+00  0.5032529219905E+00
-0.2259719445643E+00 -0.3686756719193E+01 -0.7825457444122E+00  0.5455948017673E+00
-0.2494761921115E+00 -0.3695980823570E+01 -0.7890914148948E+00  0.5852728889908E+00
-0.2711098600245E+00 -0.3696355804081E+01 -0.7934931446451E+00  0.6202447578478E+00
-0.2891125085303E+00 -0.3685108289053E+01 -0.7948441713607E+00  0.6478842442545E+00
-0.3011955477947E+00 -0.3658855929694E+01 -0.7920103072996E+00  0.6647069244192E+00
-0.3040747440370E+00 -0.3613641425834E+01 -0.7835432456499E+00  0.6660439355772E+00
-0.2926852798763E+00 -0.3545100657937E+01 -0.7675571990002E+00  0.6456440007881E+00
-0.2588429978949E+00 -0.3448926311777E+01 -0.7415538729844E+00  0.5951846871046E+00
-0.1888250788871E+00 -0.3321852547463E+01 -0.7021355357326E+00  0.5037698782617E+00
-0.5912754538585E-01 -0.3163987064979E+01 -0.6446229316785E+00  0.3580433171636E+00
 0.1695417323354E+00 -0.2983748686935E+01 -0.5628413993068E+00  0.1451364773199E+00
 0.5571104728394E+00 -0.2804277758559E+01 -0.4494334638411E+00 -0.1376239777042E+00
 0.1178487406073E+01 -0.2664888473207E+01 -0.2972802178566E+00 -0.4630494438614E+00
 0.2091147892831E+01 -0.2604815236365E+01 -0.1027334702377E+00 -0.7506207790075E+00
 0.3269888811091E+01 -0.2622100881886E+01  0.1295575877716E+00 -0.8675846162402E+00
 0.4551552624933E+01 -0.2636673579038E+01  0.3829758148857E+00 -0.6927695176383E+00
-0.7547740850792E+00 -0.3301904092232E+01 -0.8113356475520E+00 -0.3610190065261E+00
-0.6238774992842E+00 -0.3353420371883E+01 -0.7954595860866E+00 -0.3479963072813E+00
-0.4953268348803E+00 -0.3396324301084E+01 -0.7783302387909E+00 -0.3135825661041E+00
-0.3824879393841E+00 -0.3425252246008E+01 -0.7615480484264E+00 -0.2634624848637E+00
-0.2917999494700E+00 -0.3439903994444E+01 -0.7463407999042E+00 -0.2066375597400E+00
-0.2231286686856E+00 -0.3443738605332E+01 -0.7333734657316E+00 -0.1505067433205E+00
-0.1729667834333E+00 -0.3441247240072E+01 -0.7228428154723E+00 -0.9913943218694E-01
-0.1371106507683E+00 -0.3436187718252E+01 -0.7146596844534E+00 -0.5385772115938E-01
-0.1119341908838E+00 -0.3431092698326E+01 -0.7086053884009E+00 -0.1440567290990E-01
-0.9469634443396E-01 -0.3427448788523E+01 -0.7044290370882E+00  0.2015927577610E-01
-0.8344130140360E-01 -0.3426033302302E+01 -0.7018949312002E+00  0.5097723694573E-01
-0.7680520844139E-01 -0.3427195033244E+01 -0.7008000587799E+00  0.7916736254006E-01
-0.7384399142558E-01 -0.3431041251889E+01 -0.7009770591084E+00  0.1057481236252E+00
-0.7390615168730E-01 -0.3437549224824E+01 -0.7022910857672E+00  0.1316186669184E+00
-0.7654585512645E-01 -0.3446626170483E+01 -0.7046344156217E+00  0.1575632507937E+00
-0.8146647474182E-01 -0.3458135063369E+01 -0.7079203181710E+00  0.1842614150391E+00
-0.8848595952117E-01 -0.3471896891787E+01 -0.7120765808724E+00  0.2122957170402E+00
-0.9751675610564E-01 -0.3487674596496E+01 -0.7170382812051E+00  0.2421511843676E+00
-0.1085537632733E+00 -0.3505142814433E+01 -0.7227393263109E+00  0.2742034092019E+00
-0.1216603658440E+00 -0.3523846682312E+01 -0.7291014204956E+00  0.3086890248933E+00
-0.1369382227312E+00 -0.3543157175446E+01 -0.7360190906030E+00  0.3456553714637E+00
-0.1544652695543E+00 -0.3562236020528E+01 -0.7433402690932E+00  0.3848973656617E+00
-0.1741947788845E+00 -0.3580018241288E+01 -0.7508426152229E+00  0.4258984567315E+00
-0.1958314849095E+00 -0.3595220359379E+01 -0.7582103801560E+00  0.4677997712620E+00
-0.2187175429711E+00 -0.3606417087009E+01 -0.7650269373958E+00  0.5094020633119E+00
-0.2418010280289E+00 -0.3612083903908E+01 -0.7707769978729E+00  0.5491902086713E+00
-0.2636891020385E+00 -0.3610494718001E+01 -0.7748367755539E+00  0.5853255910295E+00
-0.2826785012818E+00 -0.3599574038781E+01 -0.7764505195826E+00  0.6155465526973E+00
-0.2966679842222E+00 -0.3576792381005E+01 -0.7746920845893E+00  0.6369782053769E+00
-0.3028900088730E+00 -0.3539151864778E+01 -0.7684083861803E+00  0.6458820838942E+00
-0.2974092965143E+00 -0.3483292816173E+01 -0.7561404338048E+00  0.6373693185512E+00
-0.2742922277903E+00 -0.3405783894369E+01 -0.7360152353994E+00  0.6050874942439E+00
-0.2242411266481E+00 -0.3303766230795E+01 -0.7056014820029E+00  0.5409334549696E+00
-0.1323006276540E+00 -0.3176150848770E+01 -0.6616903051447E+00  0.4349874945212E+00
 0.2573195251007E-01 -0.3025962825113E+01 -0.6000461834621E+00  0.2764140862001E+00
 0.2874630590969E+00 -0.2864416181050E+01 -0.5153906320705E+00  0.5732153677252E-01
 0.7052862720352E+00 -0.2714812281579E+01 -0.4019052078977E+00 -0.2177639205537E+00
 0.1337316166025E+01 -0.2610417923947E+01 -0.2546203553785E+00 -0.5162265893580E+00
 0.2217859091296E+01 -0.2578010389843E+01 -0.7203026078271E-01 -0.7630982248701E+00
 0.3309321463936E+01 -0.2606645651204E+01  0.1405351646406E+00 -0.8496808339176E+00
 0.4471213761869E+01 -0.2626514600436E+01  0.3689398377842E+00 -0.6861355596596E+00
-0.7556346421788E+00 -0.3290123360866E+01 -0.8091516126663E+00 -0.3410834612676E+00
-0.6322171961005E+00 -0.3339593460304E+01 -0.7943621431179E+00 -0.3296021337446E+00
-0.5105797495240E+00 -0.3382047867699E+01 -0.7785255350456E+00 -0.2993587507079E+00
-0.4019540648645E+00 -0.3412715940939E+01 -0.7629340125293E+00 -0.2545510326505E+00
-0.3124812139562E+00 -0.3430681480823E+01 -0.7486325501113E+00 -0.2024495357149E+00
-0.2429311624692E+00 -0.3438276332569E+01 -0.7362415099785E+00 -0.1495693573346E+00
-0.1908911773717E+00 -0.3439097348168E+01 -0.7259977159262E+00 -0.9994288922240E-01
-0.1529362461095E+00 -0.3436469120457E+01 -0.7178810840105E+00 -0.5525257195580E-01
-0.1258546302891E+00 -0.3432833846855E+01 -0.7117377060346E+00 -0.1564961805964E-01
-0.1070747661058E+00 -0.3429750952438E+01 -0.7073651542494E+00  0.1949493753540E-01
-0.9468229909762E-01 -0.3428115709567E+01 -0.7045596122317E+00  0.5111601896835E-01
-0.8729847732905E-01 -0.3428385782106E+01 -0.7031368623646E+00  0.8020965584005E-01
-0.8394382095748E-01 -0.3430750003925E+01 -0.7029387754511E+00  0.1077241428793E+00
-0.8392666590224E-01 -0.3435237112744E+01 -0.7038327662172E+00  0.1345193234471E+00
-0.8676206497711E-01 -0.3441778314013E+01 -0.7057080863138E+00  0.1613558279772E+00
-0.9211632902208E-01 -0.3450237038636E+01 -0.7084706840886E+00  0.1888947561691E+00
-0.9977079872968E-01 -0.3460415258897E+01 -0.7120372221355E+00  0.2176976848884E+00
-0.1095982165614E+00 -0.3472041866386E+01 -0.7163280272636E+00  0.2482198812602E+00
-0.1215452284820E+00 -0.3484747896727E+01 -0.7212586357895E+00  0.2807933791430E+00
-0.1356112931130E+00 -0.3498033039116E+01 -0.7267288772749E+00  0.3155944479043E+00
-0.1518115349381E+00 -0.3511230923117E+01 -0.7326085025278E+00  0.3525939535722E+00
-0.1701120768861E+00 -0.3523483781275E+01 -0.7387191826399E+00  0.3914994153336E+00
-0.1903346042656E+00 -0.3533731424695E+01 -0.7448132168907E+00  0.4317025910096E+00
-0.2120445452042E+00 -0.3540720920483E+01 -0.7505531043216E+00  0.4722504958801E+00
-0.2344462912735E+00 -0.3543080014468E+01 -0.7555052724062E+00  0.5118428333059E+00
-0.2563444117408E+00 -0.3539361394121E+01 -0.7591411724845E+00  0.5488444951237E+00
-0.2761695921476E+00 -0.3527957023653E+01 -0.7608253344974E+00  0.5812649544223E+00
-0.2919738822839E+00 -0.3506978647186E+01 -0.7597905172157E+00  0.6066598054668E+00
-0.3013120223123E+00 -0.3474188751596E+01 -0.7551001660334E+00  0.6219581888376E+00
-0.3009489429107E+00 -0.3427032177292E+01 -0.7455962351509E+00  0.6232449038390E+00
-0.2863375020538E+00 -0.3362810018098E+01 -0.7298295149056E+00  0.6055288086098E+00
-0.2507760905245E+00 -0.3279068750556E+01 -0.7059689787359E+00  0.5625370548076E+00
-0.1840881063774E+00 -0.3174362540711E+01 -0.6716901394267E+00  0.4866449841081E+00
-0.7057351970131E-01 -0.3049527285098E+01 -0.6240201702585E+00  0.3692106821495E+00
 0.1138205789903E+00 -0.2909817106554E+01 -0.5591993138455E+00  0.2020644100420E+00
 0.4039735454263E+00 -0.2767976731806E+01 -0.4728006443211E+00 -0.1822285237699E-01
 0.8444582242113E+00 -0.2646059799186E+01 -0.3603203203642E+00 -0.2817645352786E+00
 0.1478971528359E+01 -0.2571200146450E+01 -0.2184457268734E+00 -0.5535234596514E+00
 0.2324835824343E+01 -0.2560436846505E+01 -0.4712020513451E-01 -0.7656760819563E+00
 0.3338281438866E+01 -0.2597560812990E+01  0.1481441273827E+00 -0.8295101292123E+00
 0.4398812725652E+01 -0.2622069482368E+01  0.3553486539519E+00 -0.6774793644406E+00
-0.7564443016580E+00 -0.3280048338240E+01 -0.8072985400094E+00 -0.3220631258664E+00
-0.6395516576439E+00 -0.3327606428872E+01 -0.7934316291262E+00 -0.3118262566362E+00
-0.5240932445524E+00 -0.3369365932600E+01 -0.7786918470339E+00 -0.2850255408476E+00
-0.4195518689499E+00 -0.3401111294020E+01 -0.7641326439804E+00 -0.2447949201041E+00
-0.3316521474937E+00 -0.3421569181244E+01 -0.7506442769331E+00 -0.1970188729666E+00
-0.2617553971762E+00 -0.3432223322796E+01 -0.7387957550034E+00 -0.1473726600488E+00
-0.2083179946049E+00 -0.3435898073819E+01 -0.7288432245454E+00 -0.9971660727250E-01
-0.1686121878428E+00 -0.3435468379389E+01 -0.7208161241874E+00 -0.5594594547894E-01
-0.1398462868687E+00 -0.3433216358323E+01 -0.7146125396869E+00 -0.1652815177712E-01
-0.1196520193768E+00 -0.3430707708039E+01 -0.7100719560640E+00  0.1888991273709E-01
-0.1061892373465E+00 -0.3428909478588E+01 -0.7070197537223E+00  0.5104552456586E-01
-0.9808800147545E-01 -0.3428360797196E+01 -0.7052897702440E+00  0.8080620841955E-01
-0.9434845743846E-01 -0.3429317698173E+01 -0.7047332416237E+00  0.1090406271187E+00
-0.9424729423035E-01 -0.3431854348420E+01 -0.7052203390386E+00  0.1365594854540E+00
-0.9726435397883E-01 -0.3435925239064E+01 -0.7066379291382E+00  0.1640908695646E+00
-0.1030294301401E+00 -0.3441397311991E+01 -0.7088853589895E+00  0.1922698059109E+00
-0.1112851748413E+00 -0.3448059716479E+01 -0.7118689888718E+00  0.2216306922924E+00
-0.1218603924918E+00 -0.3455616596967E+01 -0.7154954085535E+00  0.2525946015561E+00
-0.1346476638274E+00 -0.3463667944769E+01 -0.7196631324430E+00  0.2854480125829E+00
-0.1495761937899E+00 -0.3471683609992E+01 -0.7242519715485E+00  0.3203081620394E+00
-0.1665693184897E+00 -0.3478977572728E+01 -0.7291093891080E+00  0.3570746218550E+00
-0.1854784392733E+00 -0.3484690880310E+01 -0.7340338748546E+00  0.3953759101756E+00
-0.2059925019460E+00 -0.3487786170217E+01 -0.7387557454408E+00  0.4345220402684E+00
-0.2275352747433E+00 -0.3487059475771E+01 -0.7429189611731E+00  0.4734763621932E+00
-0.2491667077552E+00 -0.3481211986753E+01 -0.7460757500191E+00  0.5108495398694E+00
-0.2695367942798E+00 -0.3468897537773E+01 -0.7476868775519E+00  0.5449034460156E+00
-0.2868881833220E+00 -0.3448654520950E+01 -0.7471085519873E+00  0.5735218286190E+00
-0.2990220454780E+00 -0.3418814977366E+01 -0.7435674156489E+00  0.5941163373911E+00
-0.3031542668781E+00 -0.3377470873697E+01 -0.7361250390840E+00  0.6034753543702E+00
-0.2956065750489E+00 -0.3322549095670E+01 -0.7236311449267E+00  0.5975854194551E+00
-0.2712791988658E+00 -0.3252042225638E+01 -0.7046642954012E+00  0.5714660190010E+00
-0.2228302912901E+00 -0.3164467913769E+01 -0.6774596511067E+00  0.5190824839361E+00
-0.1394607637486E+00 -0.3059686304634E+01 -0.6398294232107E+00  0.4334867008846E+00
-0.5187865551964E-02 -0.2940137828768E+01 -0.5890651476418E+00  0.3074844484073E+00
 0.2032110098280E+00 -0.2812638684972E+01 -0.5218855428054E+00  0.1355067644608E+00
 0.5172603252377E+00 -0.2690471797971E+01 -0.4346423010233E+00 -0.8210000303415E-01
 0.9739783138316E+00 -0.2593629401986E+01 -0.3239302224579E+00 -0.3317261027938E+00
 0.1605066725193E+01 -0.2543561250716E+01 -0.1876989079015E+00 -0.5780102478533E+00
 0.2415636102123E+01 -0.2549928625624E+01 -0.2685850510053E-01 -0.7607664938264E+00
 0.3359498499895E+01 -0.2593677079620E+01  0.1531642863373E+00 -0.8076738760891E+00
 0.4333214282947E+01 -0.2622328631044E+01  0.3421771354794E+00 -0.6670120543370E+00
-0.7572130575169E+00 -0.3271357947419E+01 -0.8057142129932E+00 -0.3038668043588E+00
-0.6460634197419E+00 -0.3317135489095E+01 -0.7926397935787E+00 -0.2946553168854E+00
-0.5361415839161E+00 -0.3358052050333E+01 -0.7788387384554E+00 -0.2707309573631E+00
-0.4354994965090E+00 -0.3390390421662E+01 -0.7651779950363E+00 -0.2344612276833E+00
-0.3494006259561E+00 -0.3412688267569E+01 -0.7524177899170E+00 -0.1906249721390E+00
-0.2795741460015E+00 -0.3425798081306E+01 -0.7410744565043E+00 -0.1441318929791E+00
-0.2251549480233E+00 -0.3431892998052E+01 -0.7314096001140E+00 -0.9859201099983E-01
-0.1840236951855E+00 -0.3433411824682E+01 -0.7234871147543E+00 -0.5600052050207E-01
-0.1537953767400E+00 -0.3432434880786E+01 -0.7172460621929E+00 -0.1705899565313E-01
-0.1323241905118E+00 -0.3430483123251E+01 -0.7125614733706E+00  0.1835171164982E-01
-0.1178691910623E+00 -0.3428555188826E+01 -0.7092848865468E+00  0.5078545091468E-01
-0.1090897309133E+00 -0.3427245517493E+01 -0.7072670602203E+00  0.8098132266653E-01
-0.1049796161001E+00 -0.3426862469807E+01 -0.7063684277071E+00  0.1097226423471E+00
-0.1047923562484E+00 -0.3427518652668E+01 -0.7064622123104E+00  0.1377635963191E+00
-0.1079767900997E+00 -0.3429190251617E+01 -0.7074334188850E+00  0.1657924905390E+00
-0.1141271832041E+00 -0.3431750055035E+01 -0.7091754582154E+00  0.1944119470080E+00
-0.1229459860048E+00 -0.3434979959663E+01 -0.7115851997371E+00  0.2241241799052E+00
-0.1342146099997E+00 -0.3438567944077E+01 -0.7145565214631E+00  0.2553128585014E+00
-0.1477668528709E+00 -0.3442094430158E+01 -0.7179722673044E+00  0.2882181352990E+00
-0.1634567228920E+00 -0.3445013384252E+01 -0.7216940321829E+00  0.3229005574385E+00
-0.1811118997472E+00 -0.3446634646479E+01 -0.7255493200568E+00  0.3591941120407E+00
-0.2004670990190E+00 -0.3446114025499E+01 -0.7293162357713E+00  0.3966567529758E+00
-0.2210777739662E+00 -0.3442452888233E+01 -0.7327061433581E+00  0.4345267100967E+00
-0.2422241889547E+00 -0.3434512764784E+01 -0.7353474017053E+00  0.4716946996992E+00
-0.2628168050686E+00 -0.3421086681859E+01 -0.7367807083644E+00  0.5066956288658E+00
-0.2813432236266E+00 -0.3400950864491E+01 -0.7364588285976E+00  0.5377068449900E+00
-0.2958511940474E+00 -0.3372814399429E+01 -0.7337331296287E+00  0.5625138993937E+00
-0.3038908117492E+00 -0.3335256030478E+01 -0.7278293792910E+00  0.5784242579952E+00
-0.3023522044866E+00 -0.3286723604150E+01 -0.7178151724235E+00  0.5821408166802E+00
-0.2871494314567E+00 -0.3225646998891E+01 -0.7025592965386E+00  0.5696275250070E+00
-0.2527045420580E+00 -0.3150711981837E+01 -0.6806833149219E+00  0.5360166183963E+00
-0.1911788508274E+00 -0.3061359235134E+01 -0.6505076268856E+00  0.4756410863973E+00
-0.9140748184594E-01 -0.2958600380128E+01 -0.6100015814846E+00  0.3823634648979E+00
 0.6246836859104E-01 -0.2846137237692E+01 -0.5567337821162E+00  0.2504936285395E+00
 0.2923369340115E+00 -0.2731756774653E+01 -0.4878839753983E+00  0.7685599252171E-01
 0.6260704451299E+00 -0.2628554666252E+01 -0.4004968501922E+00 -0.1351653370679E+00
 0.1093721606632E+01 -0.2554075527141E+01 -0.2920707884541E+00 -0.3695981231438E+00
 0.1717243600712E+01 -0.2524775388688E+01 -0.1615063600019E+00 -0.5921339366643E+00
 0.2493156178071E+01 -0.2544888086065E+01 -0.1034638175288E-01 -0.7500724451911E+00
 0.3375027744124E+01 -0.2594090327778E+01  0.1561874855967E+00 -0.7845222945488E+00
 0.4273435728021E+01 -0.2626498442283E+01  0.3293874620559E+00 -0.6549712083090E+00
-0.7579464125361E+00 -0.3263802243906E+01 -0.8043497432741E+00 -0.2864168838698E+00
-0.6518913804384E+00 -0.3307923993626E+01 -0.7919630866141E+00 -0.2780667013856E+00
-0.5469448188613E+00 -0.3347914227975E+01 -0.7789718209747E+00 -0.2565746987351E+00
-0.4499878997031E+00 -0.3380492401367E+01 -0.7660960716296E+00 -0.2237521142685E+00
-0.3658213171002E+00 -0.3404114548733E+01 -0.7539871844019E+00 -0.1834967760259E+00
-0.2963852116831E+00 -0.3419167590354E+01 -0.7431105714806E+00 -0.1400382880693E+00
-0.2413364914161E+00 -0.3427284844271E+01 -0.7337242780709E+00 -0.9669738907763E-01
-0.1990764745685E+00 -0.3430499626307E+01 -0.7259152309920E+00 -0.5548626294966E-01
-0.1676012426338E+00 -0.3430669820074E+01 -0.7196542232652E+00 -0.1726988598228E-01
-0.1449948019183E+00 -0.3429234789092E+01 -0.7148459288540E+00  0.1787893753520E-01
-0.1296329939018E+00 -0.3427191391813E+01 -0.7113648877431E+00  0.5034907034585E-01
-0.1202212744688E+00 -0.3425165595643E+01 -0.7090773845885E+00  0.8075559852225E-01
-0.1157596676938E+00 -0.3423503516296E+01 -0.7078526473458E+00  0.1097941038831E+00
-0.1154865799711E+00 -0.3422348756132E+01 -0.7075670777643E+00  0.1381572345530E+00
-0.1188241638292E+00 -0.3421696961666E+01 -0.7081042356507E+00  0.1664879783015E+00
-0.1253325080742E+00 -0.3421428459364E+01 -0.7093522040578E+00  0.1953515543858E+00
-0.1346729031929E+00 -0.3421322798702E+01 -0.7111991509767E+00  0.2252141703606E+00
-0.1465766980822E+00 -0.3421059549805E+01 -0.7135272602097E+00  0.2564200133536E+00
-0.1608152440675E+00 -0.3420209875432E+01 -0.7162050345722E+00  0.2891631804931E+00
-0.1771636613396E+00 -0.3418224193357E+01 -0.7190775816544E+00  0.3234506661901E+00
-0.1953513024935E+00 -0.3414421715748E+01 -0.7219546144062E+00  0.3590569711623E+00
-0.2149950783892E+00 -0.3407986855526E+01 -0.7245963975803E+00  0.3954779798594E+00
-0.2355167112517E+00 -0.3397973627306E+01 -0.7266980785401E+00  0.4318902126234E+00
-0.2560518793413E+00 -0.3383323622359E+01 -0.7278751111862E+00  0.4671233490546E+00
-0.2753582937678E+00 -0.3362937779697E+01 -0.7276592255359E+00  0.4996508354901E+00
-0.2917565374859E+00 -0.3335732799682E+01 -0.7254978782444E+00  0.5275850256327E+00
-0.3030970604612E+00 -0.3300608097623E+01 -0.7207410423568E+00  0.5486413687048E+00
-0.3066842773905E+00 -0.3256408472397E+01 -0.7126185605764E+00  0.5600625823578E+00
-0.2991026692581E+00 -0.3201953086959E+01 -0.7002111616773E+00  0.5585192945842E+00
-0.2759030661806E+00 -0.3136178925144E+01 -0.6824164084337E+00  0.5400225052165E+00
-0.2311136868040E+00 -0.3058442329970E+01 -0.6579112131585E+00  0.4999044113589E+00
-0.1565475414816E+00 -0.2969028552432E+01 -0.6251152280976E+00  0.4329628330303E+00
-0.4091436363928E-01 -0.2869920700733E+01 -0.5821670215494E+00  0.3339450360557E+00
 0.1311846594881E+00 -0.2765749015491E+01 -0.5269128790521E+00  0.1986320506309E+00
 0.3799630564911E+00 -0.2664780209605E+01 -0.4569634374321E+00  0.2595068392556E-01
 0.7295886604567E+00 -0.2579429374843E+01 -0.3699681483903E+00 -0.1783870720389E+00
 0.1203896705917E+01 -0.2524694109756E+01 -0.2641594847040E+00 -0.3971230722032E+00
 0.1817058631152E+01 -0.2512789152252E+01 -0.1391461062934E+00 -0.5978414622980E+00
 0.2559730742193E+01 -0.2544070647293E+01  0.3132019026660E-02 -0.7348047923873E+00
 0.3386480568498E+01 -0.2598043495483E+01  0.1576874169527E+00 -0.7602142059386E+00
 0.4218596618256E+01 -0.2633933984495E+01  0.3169325314749E+00 -0.6416399868292E+00
-0.7586471950884E+00 -0.3257184833898E+01 -0.8031664177654E+00 -0.2696465575205E+00
-0.6571424000864E+00 -0.3299767399541E+01 -0.7913819717179E+00 -0.2620330948678E+00
-0.5566800218001E+00 -0.3338791198270E+01 -0.7790942556235E+00 -0.2426228283876E+00
-0.4631820623899E+00 -0.3371352672561E+01 -0.7669069584181E+00 -0.2128201915538E+00
-0.3810087254356E+00 -0.3395893191934E+01 -0.7553803947300E+00 -0.1758203326545E+00
-0.3122030404884E+00 -0.3412459107884E+01 -0.7449324407749E+00 -0.1352585968101E+00
-0.2568181142045E+00 -0.3422241563108E+01 -0.7358119464269E+00 -0.9415359089179E-01
-0.2136941601716E+00 -0.3426907455102E+01 -0.7281203339046E+00 -0.5447583567674E-01
-0.1811758428252E+00 -0.3428086725113E+01 -0.7218525243440E+00 -0.1719513368209E-01
-0.1575752722411E+00 -0.3427112380156E+01 -0.7169375411626E+00  0.1746346972755E-01
-0.1413960419349E+00 -0.3424953027711E+01 -0.7132698245577E+00  0.4974446704672E-01
-0.1314027635726E+00 -0.3422245414693E+01 -0.7107296462438E+00  0.8014653569033E-01
-0.1266124581770E+00 -0.3419359766240E+01 -0.7091944554513E+00  0.1092779597992E+00
-0.1262558508260E+00 -0.3416463200621E+01 -0.7085438208475E+00  0.1377670028491E+00
-0.1297326652844E+00 -0.3413568181248E+01 -0.7086601798664E+00  0.1662074419883E+00
-0.1365704403692E+00 -0.3410563707880E+01 -0.7094268402211E+00  0.1951234089746E+00
-0.1463888697283E+00 -0.3407231213306E+01 -0.7107240271975E+00  0.2249424186015E+00
-0.1588673308931E+00 -0.3403248740159E+01 -0.7124232248263E+00  0.2559681261053E+00
-0.1737120573436E+00 -0.3398187309708E+01 -0.7143798840553E+00  0.2883497285327E+00
-0.1906167169377E+00 -0.3391504566258E+01 -0.7164242673148E+00  0.3220444316432E+00
-0.2092107191307E+00 -0.3382540767697E+01 -0.7183503080697E+00  0.3567736407874E+00
-0.2289928422719E+00 -0.3370520850879E+01 -0.7199027493575E+00  0.3919797313755E+00
-0.2492514569015E+00 -0.3354563493067E+01 -0.7207630007340E+00  0.4267877300508E+00
-0.2689775091190E+00 -0.3333702868368E+01 -0.7205360862342E+00  0.4599783427511E+00
-0.2867745463837E+00 -0.3306961380304E+01 -0.7187471960477E+00  0.4899785561166E+00
-0.3007945378924E+00 -0.3273410864824E+01 -0.7148410911953E+00  0.5148557895360E+00
-0.3086923278275E+00 -0.3232155840244E+01 -0.7081696441669E+00  0.5322833013577E+00
-0.3075369974376E+00 -0.3182319478175E+01 -0.6979713055231E+00  0.5394770252657E+00
-0.2936332596554E+00 -0.3123097435718E+01 -0.6833461492573E+00  0.5331247447416E+00
-0.2622194243207E+00 -0.3053923339365E+01 -0.6632285626200E+00  0.5093457654906E+00
-0.2070189149399E+00 -0.2974782579450E+01 -0.6363603083605E+00  0.4637422180749E+00
-0.1196412455250E+00 -0.2886707006479E+01 -0.6012696593604E+00  0.3916416839498E+00
 0.1111622473411E-01 -0.2792463704110E+01 -0.5562695041642E+00  0.2886982864178E+00
 0.1999314895574E+00 -0.2697309360011E+01 -0.4994755815336E+00  0.1520670456848E+00
 0.4651428668418E+00 -0.2609604846085E+01 -0.4288924022396E+00 -0.1755192157979E-01
 0.8273316433555E+00 -0.2540776759266E+01 -0.3426890282886E+00 -0.2127568491789E+00
 0.1304913531691E+01 -0.2503358621730E+01 -0.2396890215795E+00 -0.4158226311288E+00
 0.1905934871223E+01 -0.2506037935194E+01 -0.1200206145827E+00 -0.5966884953148E+00
 0.2617207249227E+01 -0.2546461672036E+01  0.1414911564917E-01 -0.7158569685205E+00
 0.3395189243828E+01 -0.2604804437573E+01  0.1580769636065E+00 -0.7347438025356E+00
 0.4167883995888E+01 -0.2643973903181E+01  0.3047820230829E+00 -0.6273576927778E+00
-0.7593166660506E+00 -0.3251350212495E+01 -0.8021333876618E+00 -0.2534976446104E+00
-0.6618995309328E+00 -0.3292501961854E+01 -0.7908803103423E+00 -0.2465251032360E+00
-0.5654901740972E+00 -0.3330548325605E+01 -0.7792077115515E+00 -0.2289178050074E+00
-0.4752233276166E+00 -0.3362908414809E+01 -0.7676263599236E+00 -0.2017802249903E+00
-0.3950530511051E+00 -0.3388049084712E+01 -0.7566204384379E+00 -0.1677458138095E+00
-0.3270525032820E+00 -0.3405769630198E+01 -0.7465644378207E+00 -0.1299361483354E+00
-0.2715714432175E+00 -0.3416902056690E+01 -0.7376947109740E+00 -0.9107152220141E-01
-0.2278156723925E+00 -0.3422788703064E+01 -0.7301208859709E+00 -0.5304119748990E-01
-0.1944428634309E+00 -0.3424836364634E+01 -0.7238558563994E+00 -0.1687275098922E-01
-0.1699850126711E+00 -0.3424256752824E+01 -0.7188483638106E+00  0.1709244711955E-01
-0.1530788262964E+00 -0.3421970204898E+01 -0.7150098168934E+00  0.4897573878147E-01
-0.1425575284562E+00 -0.3418606842157E+01 -0.7122328847357E+00  0.7916915971337E-01
-0.1374639962623E+00 -0.3414548709634E+01 -0.7104025517652E+00  0.1081964108311E+00
-0.1370278582172E+00 -0.3409979264225E+01 -0.7094014350594E+00  0.1366204493696E+00
-0.1406304685205E+00 -0.3404924936839E+01 -0.7091110916386E+00  0.1649834877704E+00
-0.1477686350375E+00 -0.3399284071967E+01 -0.7094105519718E+00  0.1937661384748E+00
-0.1580204916975E+00 -0.3392843557700E+01 -0.7101728204620E+00  0.2233556047898E+00
-0.1710122524295E+00 -0.3385285899578E+01 -0.7112596410001E+00  0.2540148837619E+00
-0.1863832789171E+00 -0.3376189911163E+01 -0.7125146486333E+00  0.2858501749235E+00
-0.2037442371766E+00 -0.3365029751170E+01 -0.7137548083052E+00  0.3187731565511E+00
-0.2226239228729E+00 -0.3351176691059E+01 -0.7147601334371E+00  0.3524587491333E+00
-0.2424034148977E+00 -0.3333906316937E+01 -0.7152619570252E+00  0.3863044351909E+00
-0.2622388087338E+00 -0.3312412128607E+01 -0.7149301981214E+00  0.4193940822625E+00
-0.2809772123064E+00 -0.3285831308126E+01 -0.7133617147165E+00  0.4504718028779E+00
-0.2970684222089E+00 -0.3253318639432E+01 -0.7100774229092E+00  0.4779335035645E+00
-0.3084969919456E+00 -0.3214112230247E+01 -0.7045218549368E+00  0.4998217623058E+00
-0.3127274706806E+00 -0.3167531637777E+01 -0.6960518320635E+00  0.5137946917770E+00
-0.3066081035827E+00 -0.3112984044529E+01 -0.6839184398136E+00  0.5170769712258E+00
-0.2861940362389E+00 -0.3050037645178E+01 -0.6672463462261E+00  0.5064178516262E+00
-0.2464653427595E+00 -0.2978600355618E+01 -0.6450131492870E+00  0.4780963328175E+00
-0.1809296852493E+00 -0.2899231630708E+01 -0.6160322723711E+00  0.4280364784440E+00
-0.8112743252091E-01 -0.2813602006364E+01 -0.5789458964039E+00  0.3521307394157E+00
 0.6387706534714E-01 -0.2725080801694E+01 -0.5322407552003E+00  0.2469204051939E+00
 0.2678520480238E+00 -0.2639291412455E+01 -0.4742878799537E+00  0.1107955567003E+00
 0.5471736454294E+00 -0.2564401049007E+01 -0.4034454867273E+00 -0.5410413004709E-01
 0.9190598863779E+00 -0.2510683142701E+01 -0.3183246560081E+00 -0.2392370882726E+00
 0.1397294510770E+01 -0.2488384410148E+01 -0.2182179831273E+00 -0.4270030977396E+00
 0.1985153586567E+01 -0.2503337518349E+01 -0.1036367879007E+00 -0.5899274486763E+00
 0.2667009035678E+01 -0.2551199961415E+01  0.2316181519776E-01 -0.6939373181486E+00
 0.3402338119192E+01 -0.2613699778361E+01  0.1577276705165E+00 -0.7080246926938E+00
 0.4120351291637E+01 -0.2655213272218E+01  0.2930276082504E+00 -0.6125580953965E+00
-0.7599577282981E+00 -0.3246175286683E+01 -0.8012266149354E+00 -0.2379194288504E+00
-0.6662289934436E+00 -0.3285996874083E+01 -0.7904451852839E+00 -0.2315147699034E+00
-0.5734917793372E+00 -0.3323075227409E+01 -0.7793134129619E+00 -0.2154882591753E+00
-0.4862312576198E+00 -0.3355103444456E+01 -0.7682669518631E+00 -0.1907215476223E+00
-0.4080355020536E+00 -0.3380596520149E+01 -0.7577264157315E+00 -0.1593972931176E+00
-0.3409603704663E+00 -0.3399176032945E+01 -0.7480272918287E+00 -0.1241959759143E+00
-0.2855747534666E+00 -0.3411384067988E+01 -0.7393917753087E+00 -0.8755356354943E-01
-0.2413860997451E+00 -0.3418279678170E+01 -0.7319331664897E+00 -0.5125310380546E-01
-0.2073290940265E+00 -0.3421058026917E+01 -0.7256774350022E+00 -0.1634329550887E-01
-0.1821429503685E+00 -0.3420802393756E+01 -0.7205890795625E+00  0.1674953668665E-01
-0.1645982295609E+00 -0.3418370693347E+01 -0.7165937952596E+00  0.4804425952571E-01
-0.1536028757057E+00 -0.3414372510412E+01 -0.7135950878570E+00  0.7783732145982E-01
-0.1482324812661E+00 -0.3409191148520E+01 -0.7114847365591E+00  0.1065723280694E+00
-0.1477211654156E+00 -0.3403019884661E+01 -0.7101482205974E+00  0.1347476911325E+00
-0.1514356371367E+00 -0.3395896333984E+01 -0.7094664047959E+00  0.1628531455307E+00
-0.1588439005059E+00 -0.3387728579124E+01 -0.7093145064956E+00  0.1913245717817E+00
-0.1694830046352E+00 -0.3378312000763E+01 -0.7095590116530E+00  0.2205082914276E+00
-0.1829255190112E+00 -0.3367338762740E+01 -0.7100528669309E+00  0.2506274150640E+00
-0.1987431092707E+00 -0.3354402321742E+01 -0.7106290967917E+00  0.2817477681387E+00
-0.2164629432491E+00 -0.3339001274102E+01 -0.7110928540663E+00  0.3137402601902E+00
-0.2355135853783E+00 -0.3320546288501E+01 -0.7112119853737E+00  0.3462402105295E+00
-0.2551598426369E+00 -0.3298371990799E+01 -0.7107063772776E+00  0.3786089733876E+00
-0.2744276775540E+00 -0.3271754943842E+01 -0.7092365348477E+00  0.4098997699806E+00
-0.2920227181622E+00 -0.3239943466898E+01 -0.7063932475381E+00  0.4388327529100E+00
-0.3062436080530E+00 -0.3202232703936E+01 -0.7016952728538E+00  0.4637882765391E+00
-0.3149116897853E+00 -0.3158034290913E+01 -0.6945892064898E+00  0.4828038127641E+00
-0.3153101876779E+00 -0.3106887589144E+01 -0.6844395655634E+00  0.4935479413795E+00
-0.3040849343507E+00 -0.3048482611838E+01 -0.6705135192292E+00  0.4932863671252E+00
-0.2770752561715E+00 -0.2982747417905E+01 -0.6519645445304E+00  0.4788679051541E+00
-0.2290590270796E+00 -0.2910031580926E+01 -0.6278181309564E+00  0.4467715945222E+00
-0.1534138351026E+00 -0.2831403859092E+01 -0.5969635477344E+00  0.3932770666334E+00
-0.4173018279964E-01 -0.2749061929480E+01 -0.5581584307732E+00  0.3148492874069E+00
 0.1165179379858E+00 -0.2666809103037E+01 -0.5100582406107E+00  0.2088632668757E+00
 0.3340677837388E+00 -0.2590421266665E+01 -0.4512707033097E+00  0.7477942957080E-01
 0.6253364976578E+00 -0.2527670738705E+01 -0.3804668538789E+00 -0.8414427653786E-01
 0.1004476861784E+01 -0.2487617131731E+01 -0.2966280584094E+00 -0.2586821197119E+00
 0.1481365680422E+01 -0.2478460264747E+01 -0.1994189198367E+00 -0.4317858833739E+00
 0.2055669730469E+01 -0.2503724083708E+01 -0.8961087198322E-01 -0.5785583775243E+00
 0.2710224004159E+01 -0.2557791148758E+01  0.3048657153436E-01 -0.6698723679458E+00
 0.3407811775078E+01 -0.2623305713887E+01  0.1569012145763E+00 -0.6796308184187E+00
 0.4082998478016E+01 -0.2669469578288E+01  0.2827057841583E+00 -0.6000347700247E+00
-0.7605651401000E+00 -0.3241559790784E+01 -0.8004249981040E+00 -0.2228660304971E+00
-0.6701797227937E+00 -0.3280145216124E+01 -0.7900649995565E+00 -0.2169719860995E+00
-0.5807761674040E+00 -0.3316278439233E+01 -0.7794109329415E+00 -0.2023474166580E+00
-0.4963056741509E+00 -0.3347884758409E+01 -0.7688380979686E+00 -0.1797071329934E+00
-0.4200302834334E+00 -0.3373538610641E+01 -0.7587137901205E+00 -0.1508703413530E+00
-0.3539589714951E+00 -0.3392734998374E+01 -0.7493388051399E+00 -0.1181402328539E+00
-0.2988198301077E+00 -0.3405782921628E+01 -0.7409205613877E+00 -0.8368783461507E-01
-0.2543672181624E+00 -0.3413496748360E+01 -0.7335728042355E+00 -0.4917565959233E-01
-0.2197781845259E+00 -0.3416875336666E+01 -0.7273307150764E+00 -0.1564563599829E-01
-0.1939838532907E+00 -0.3416872126154E+01 -0.7221712066501E+00  0.1641769622092E-01
-0.1758859063755E+00 -0.3414273326661E+01 -0.7180318573069E+00  0.4695012293397E-01
-0.1644702975117E+00 -0.3409657270825E+01 -0.7148255243191E+00  0.7616411008255E-01
-0.1588503705213E+00 -0.3403399687354E+01 -0.7124500221914E+00  0.1044288961453E+00
-0.1582693468372E+00 -0.3395697879248E+01 -0.7107934558086E+00  0.1321804462487E+00
-0.1620826490234E+00 -0.3386597964350E+01 -0.7097361332505E+00  0.1598563176695E+00
-0.1697314643732E+00 -0.3376017861765E+01 -0.7091498757948E+00  0.1878474861863E+00
-0.1807126024302E+00 -0.3363763889936E+01 -0.7088953090365E+00  0.2164596926474E+00
-0.1945451128122E+00 -0.3349542203283E+01 -0.7088174737813E+00  0.2458776314661E+00
-0.2107329064433E+00 -0.3332966625202E+01 -0.7087399168901E+00  0.2761298754414E+00
-0.2287199822438E+00 -0.3313566751965E+01 -0.7084573573987E+00  0.3070515915288E+00
-0.2478358368088E+00 -0.3290799501138E+01 -0.7077270781352E+00  0.3382454336605E+00
-0.2672311347188E+00 -0.3264065275094E+01 -0.7062592924866E+00  0.3690453155026E+00
-0.2858045895311E+00 -0.3232730123021E+01 -0.7037069529965E+00  0.3984842219417E+00
-0.3021237395174E+00 -0.3196159489770E+01 -0.6996566562831E+00  0.4252708459583E+00
-0.3143402162668E+00 -0.3153794199930E+01 -0.6936268935753E+00  0.4477851642250E+00
-0.3201184388962E+00 -0.3105223309819E+01 -0.6850683599513E+00  0.4640783212310E+00
-0.3165716451077E+00 -0.3050206490552E+01 -0.6733556371656E+00  0.4718528678829E+00
-0.3001638259322E+00 -0.2988710148578E+01 -0.6577748047037E+00  0.4684438699099E+00
-0.2665533170161E+00 -0.2921003427826E+01 -0.6375113584682E+00  0.4508310846286E+00
-0.2103702376646E+00 -0.2847838841134E+01 -0.6116418248738E+00  0.4157231547030E+00
-0.1249403978519E+00 -0.2770726124342E+01 -0.5791333130686E+00  0.3597728077133E+00
-0.2005314195314E-02 -0.2692282840632E+01 -0.5388576389951E+00  0.2800040086394E+00
 0.1684445567425E+00 -0.2616598669912E+01 -0.4896308299300E+00  0.1745508630504E+00
 0.3980492449653E+00 -0.2549433637291E+01 -0.4302768848767E+00  0.4377214815181E-01
 0.6993331010935E+00 -0.2498034373866E+01 -0.3597402599151E+00 -0.1082457779059E+00
 0.1083701135489E+01 -0.2470257745769E+01 -0.2773113261882E+00 -0.2719591414712E+00
 0.1557793717305E+01 -0.2472507677416E+01 -0.1829427947483E+00 -0.4311465666572E+00
 0.2118498418616E+01 -0.2506476556909E+01 -0.7759562881481E-01 -0.5634467405771E+00
 0.2748164888455E+01 -0.2565720114637E+01  0.3648895530727E-01 -0.6438601146216E+00
 0.3411115899045E+01 -0.2633601989594E+01  0.1555027842072E+00 -0.6513128838905E+00
 0.4060186396983E+01 -0.2684967901454E+01  0.2750437032043E+00 -0.5821586442229E+00
-0.7611411007395E+00 -0.3237424737873E+01 -0.7997131796392E+00 -0.2082959503642E+00
-0.6737942662581E+00 -0.3274860912405E+01 -0.7897310475006E+00 -0.2028658436536E+00
-0.5874230581202E+00 -0.3310080520940E+01 -0.7795007274274E+00 -0.1894977931076E+00
-0.5055369587205E+00 -0.3341204772638E+01 -0.7693483577359E+00 -0.1687801067002E+00
-0.4311107344763E+00 -0.3366871949491E+01 -0.7595965481123E+00 -0.1422376346477E+00
-0.3660889530302E+00 -0.3386488071933E+01 -0.7505154161761E+00 -0.1118513110242E+00
-0.3113130213261E+00 -0.3400175290357E+01 -0.7422976733976E+00 -0.7954894748804E-01
-0.2667380119107E+00 -0.3408538185391E+01 -0.7350552504134E+00 -0.4686574354516E-01
-0.2317511097515E+00 -0.3412396376284E+01 -0.7288295080675E+00 -0.1481612490213E-01
-0.2054587679599E+00 -0.3412576030095E+01 -0.7236069703935E+00  0.1607950948837E-01
-0.1868885676824E+00 -0.3409786221959E+01 -0.7193349686471E+00  0.4569156627291E-01
-0.1751054695273E+00 -0.3404566076715E+01 -0.7159343199167E+00  0.7416014040794E-01
-0.1692639928614E+00 -0.3397276514756E+01 -0.7133081121525E+00  0.1017866214735E+00
-0.1686201467401E+00 -0.3388113777840E+01 -0.7113467955160E+00  0.1289476420789E+00
-0.1725210394179E+00 -0.3377129901432E+01 -0.7099301987488E+00  0.1560298631992E+00
-0.1803830343345E+00 -0.3364252418802E+01 -0.7089271011912E+00  0.1833800369371E+00
-0.1916638351382E+00 -0.3349300396341E+01 -0.7081928568487E+00  0.2112643218451E+00
-0.2058295819231E+00 -0.3331997408833E+01 -0.7075654086948E+00  0.2398309875683E+00
-0.2223169696690E+00 -0.3311982232005E+01 -0.7068598508679E+00  0.2690747951009E+00
-0.2404877689885E+00 -0.3288820698630E+01 -0.7058617040418E+00  0.2988002977455E+00
-0.2595741094183E+00 -0.3262021376901E+01 -0.7043191077590E+00  0.3285843303652E+00
-0.2786150867176E+00 -0.3231055649214E+01 -0.7019341576460E+00  0.3577418446449E+00
-0.2963854999025E+00 -0.3195383823492E+01 -0.6983538750851E+00  0.3852957356158E+00
-0.3113188305394E+00 -0.3154492574183E+01 -0.6931622912733E+00  0.4099553761635E+00
-0.3214248109294E+00 -0.3107971485457E+01 -0.6858792694976E+00  0.4301148974139E+00
-0.3242184747556E+00 -0.3055588215967E+01 -0.6759613482170E+00  0.4438566401357E+00
-0.3166556486535E+00 -0.2997320026062E+01 -0.6627951448195E+00  0.4489382841655E+00
-0.2950397150593E+00 -0.2933399655442E+01 -0.6456878837217E+00  0.4427885819137E+00
-0.2548820189671E+00 -0.2864414990812E+01 -0.6238594112521E+00  0.4225432448376E+00
-0.1907154811855E+00 -0.2791480449920E+01 -0.5964391951086E+00  0.3851606109570E+00
-0.9588284530206E-01 -0.2716479924819E+01 -0.5624725624056E+00  0.3276711582297E+00
 0.3764149859692E-01 -0.2642353450382E+01 -0.5209423981196E+00  0.2476296154500E+00
 0.2192752593308E+00 -0.2573353564162E+01 -0.4708156679820E+00  0.1438438273170E+00
 0.4595371618584E+00 -0.2515098329736E+01 -0.4111122397015E+00  0.1740444662712E-01
 0.7691599887246E+00 -0.2474232997164E+01 -0.3410146067695E+00 -0.1270252502610E+00
 0.1157119336545E+01 -0.2457465272122E+01 -0.2600691909907E+00 -0.2798671636144E+00
 0.1627369970825E+01 -0.2469646521851E+01 -0.1684553127152E+00 -0.4259042487263E+00
 0.2174787686775E+01 -0.2511029849902E+01 -0.6724843362753E-01 -0.5451832274561E+00
 0.2781393914729E+01 -0.2574637030244E+01  0.4135137751314E-01 -0.6162762752822E+00
 0.3415121471597E+01 -0.2644830533994E+01  0.1540581898163E+00 -0.6226029913567E+00
 0.4036921188034E+01 -0.2701553840704E+01  0.2670734734458E+00 -0.5608094811963E+00
-0.7616852489232E+00 -0.3233706116625E+01 -0.7990782850169E+00 -0.1941717211153E+00
-0.6771056041574E+00 -0.3270074764633E+01 -0.7894360855215E+00 -0.1891681682356E+00
-0.5934954787442E+00 -0.3304418604084E+01 -0.7795828281823E+00 -0.1769383012325E+00
-0.5139981638476E+00 -0.3335024061432E+01 -0.7698044565269E+00 -0.1579734375488E+00
-0.4413370825982E+00 -0.3360593038921E+01 -0.7603860356344E+00 -0.1335585582534E+00
-0.3773834863018E+00 -0.3380470021178E+01 -0.7515707126951E+00 -0.1053994176259E+00
-0.3230573483939E+00 -0.3394627654393E+01 -0.7435370116370E+00 -0.7520289240025E-01
-0.2784759290102E+00 -0.3403491701744E+01 -0.7363935371240E+00 -0.4437547691310E-01
-0.2432072145141E+00 -0.3407720190079E+01 -0.7301854917991E+00 -0.1388922499671E-01
-0.2165159970174E+00 -0.3408017449664E+01 -0.7249067001383E+00  0.1571791031043E-01
-0.1975487293036E+00 -0.3405013195693E+01 -0.7205123957357E+00  0.4426674600167E-01
-0.1854484513251E+00 -0.3399201932569E+01 -0.7169300874620E+00  0.7183624866759E-01
-0.1794127986047E+00 -0.3390924179972E+01 -0.7140674063557E+00  0.9866693936605E-01
-0.1787133284645E+00 -0.3380370888531E+01 -0.7118168540060E+00  0.1250800219442E+00
-0.1826913755139E+00 -0.3367597699720E+01 -0.7100578256275E+00  0.1514133859401E+00
-0.1907404291268E+00 -0.3352541389630E+01 -0.7086563743111E+00  0.1779710149401E+00
-0.2022804726966E+00 -0.3335035110340E+01 -0.7074631271494E+00  0.2049811360119E+00
-0.2167258152465E+00 -0.3314822545118E+01 -0.7063096825978E+00  0.2325580864194E+00
-0.2334470814816E+00 -0.3291571034565E+01 -0.7050036337147E+00  0.2606665826046E+00
-0.2517254196867E+00 -0.3264886721169E+01 -0.7033224386515E+00  0.2890858362501E+00
-0.2706979535101E+00 -0.3234333913447E+01 -0.7010063838372E+00  0.3173736909261E+00
-0.2892954338291E+00 -0.3199458729629E+01 -0.6977508430889E+00  0.3448344836867E+00
-0.3061728002823E+00 -0.3159818876550E+01 -0.6931983456960E+00  0.3704909486628E+00
-0.3196344309984E+00 -0.3115024443057E+01 -0.6869317850472E+00  0.3930649054525E+00
-0.3275544627687E+00 -0.3064814550061E+01 -0.6784738126759E+00  0.4109784588155E+00
-0.3273074575305E+00 -0.3009133893421E+01 -0.6672882801336E+00  0.4223613066630E+00
-0.3157056541114E+00 -0.2948171412030E+01 -0.6527754229554E+00  0.4250449622729E+00
-0.2889135918011E+00 -0.2882412681130E+01 -0.6342652640376E+00  0.4165721256016E+00
-0.2423284819528E+00 -0.2812738872091E+01 -0.6110134799135E+00  0.3942532265588E+00
-0.1704322343507E+00 -0.2740583756634E+01 -0.5822032068725E+00  0.3553074928684E+00
-0.6664329039021E-01 -0.2668141071432E+01 -0.5469568805148E+00  0.2971364548517E+00
 0.7676754001783E-01 -0.2598586208772E+01 -0.5043637412664E+00  0.2177856390652E+00
 0.2685790671954E+00 -0.2536233224799E+01 -0.4535308382788E+00  0.1166448029235E+00
 0.5181987724343E+00 -0.2486467634254E+01 -0.3936537782298E+00 -0.4621101688675E-02
 0.8346964005169E+00 -0.2455299309893E+01 -0.3241205867050E+00 -0.1409873592729E+00
 0.1224920351414E+01 -0.2448368659462E+01 -0.2446896652558E+00 -0.2830579157197E+00
 0.1690638207032E+01 -0.2469202726961E+01 -0.1557129063061E+00 -0.4167235832119E+00
 0.2225216645897E+01 -0.2516943351982E+01 -0.5834534208632E-01 -0.5242579727870E+00
 0.2810913167912E+01 -0.2584299621448E+01  0.4532270996820E-01 -0.5874410603940E+00
 0.3418861597621E+01 -0.2657124099808E+01  0.1523475018328E+00 -0.5928742923492E+00
 0.4015186034625E+01 -0.2718272342658E+01  0.2593827422586E+00 -0.5373310584099E+00
-0.7621972455529E+00 -0.3230352412203E+01 -0.7985099434498E+00 -0.1804588370065E+00
-0.6801403688176E+00 -0.3265730775184E+01 -0.7891742405599E+00 -0.1758516609631E+00
-0.5990452414323E+00 -0.3299241143975E+01 -0.7796572886992E+00 -0.1646632887367E+00
-0.5217509708801E+00 -0.3329309124534E+01 -0.7702120305599E+00 -0.1473096765111E+00
-0.4507622670793E+00 -0.3354697344262E+01 -0.7610919336095E+00 -0.1248790321955E+00
-0.3878739674797E+00 -0.3374708620763E+01 -0.7525165288619E+00 -0.9884184886911E-01
-0.3340585848240E+00 -0.3389196114617E+01 -0.7446509509843E+00 -0.7070571553325E-01
-0.2895637301442E+00 -0.3398433834089E+01 -0.7375995238377E+00 -0.4175065561116E-01
-0.2541119586045E+00 -0.3402935566240E+01 -0.7314095158677E+00 -0.1289610885168E-01
-0.2271096791096E+00 -0.3403291107661E+01 -0.7260801681735E+00  0.1531714655598E-01
-0.2078140244379E+00 -0.3400051075777E+01 -0.7215730307952E+00  0.4267416601941E-01
-0.1954436828969E+00 -0.3393662110862E+01 -0.7178211694481E+00  0.6920339363801E-01
-0.1892400760109E+00 -0.3384440248855E+01 -0.7147360756237E+00  0.9509163250655E-01
-0.1884922222162E+00 -0.3372567770786E+01 -0.7122120092133E+00  0.1206091108448E+00
-0.1925377969834E+00 -0.3358101927655E+01 -0.7101279555093E+00  0.1460477345881E+00
-0.2007492939001E+00 -0.3340988269845E+01 -0.7083475233043E+00  0.1716708105118E+00
-0.2125105681293E+00 -0.3321074952373E+01 -0.7067171146314E+00  0.1976708250208E+00
-0.2271855866469E+00 -0.3298127768970E+01 -0.7050626816296E+00  0.2241310790544E+00
-0.2440805908779E+00 -0.3271845329652E+01 -0.7031851945843E+00  0.2509902545483E+00
-0.2623983130867E+00 -0.3241877071716E+01 -0.7008550874041E+00  0.2780075686409E+00
-0.2811838394121E+00 -0.3207845900352E+01 -0.6978059583509E+00  0.3047286260921E+00
-0.2992634108168E+00 -0.3169375053561E+01 -0.6937277032128E+00  0.3304553027601E+00
-0.3151768358439E+00 -0.3126121226066E+01 -0.6882596226378E+00  0.3542197902575E+00
-0.3271051582111E+00 -0.3077818302330E+01 -0.6809847022556E+00  0.3747676115072E+00
-0.3327941989499E+00 -0.3024353611480E+01 -0.6714295720911E+00  0.3905617811719E+00
-0.3294879710183E+00 -0.2965844907203E+01 -0.6590665854652E+00  0.3997939871664E+00
-0.3138696514843E+00 -0.2902684255878E+01 -0.6433107910586E+00  0.4003857276324E+00
-0.2819864924974E+00 -0.2835594005150E+01 -0.6235161088206E+00  0.3900099156551E+00
-0.2291523618078E+00 -0.2765721344207E+01 -0.5989747501285E+00  0.3661646536128E+00
-0.1498390174706E+00 -0.2694777101219E+01 -0.5689232322155E+00  0.3263335130241E+00
-0.3758892426246E-01 -0.2625205025792E+01 -0.5325587979467E+00  0.2682733953207E+00
 0.1149844646810E+00 -0.2560340330423E+01 -0.4890711804362E+00  0.1904728782937E+00
 0.3159980262620E+00 -0.2504478336688E+01 -0.4376960686074E+00  0.9281049500926E-01
 0.5737841674259E+00 -0.2462711225304E+01 -0.3777854172051E+00 -0.2261904427226E-01
 0.8958911658481E+00 -0.2440410520422E+01 -0.3089038755178E+00 -0.1506097710733E+00
 0.1287327188727E+01 -0.2442245544400E+01 -0.2309836745765E+00 -0.2821097145238E+00
 0.1748080783742E+01 -0.2470630612222E+01 -0.1445099678494E+00 -0.4041573851218E+00
 0.2270456370442E+01 -0.2523850487615E+01 -0.5067882418979E-01 -0.5010911292231E+00
 0.2837216855395E+01 -0.2594580741784E+01  0.4852722344530E-01 -0.5574170032344E+00
 0.3422215745995E+01 -0.2670039170478E+01  0.1504353173451E+00 -0.5621016386045E+00
 0.3995162735749E+01 -0.2735108936516E+01  0.2520107636018E+00 -0.5121063837284E+00
-0.7626768122801E+00 -0.3227322159233E+01 -0.7979998061937E+00 -0.1671252120191E+00
-0.6829201819665E+00 -0.3261783688890E+01 -0.7889407859274E+00 -0.1628898747563E+00
-0.6041150488679E+00 -0.3294506014641E+01 -0.7797242243206E+00 -0.1526637130252E+00
-0.5288474203914E+00 -0.3324031863639E+01 -0.7705758682886E+00 -0.1368031906730E+00
-0.4594325103936E+00 -0.3349180205720E+01 -0.7617225545733E+00 -0.1162339135028E+00
-0.3975894884177E+00 -0.3369226462280E+01 -0.7533632013656E+00 -0.9222476875356E-01
-0.3443241426969E+00 -0.3383928347738E+01 -0.7456505091980E+00 -0.6610436735084E-01
-0.2999883267642E+00 -0.3393431509549E+01 -0.7386839782699E+00 -0.3903081755606E-01
-0.2644360179812E+00 -0.3398122013399E+01 -0.7325116171914E+00 -0.1186427810681E-01
-0.2371992396976E+00 -0.3398483534860E+01 -0.7271365657467E+00  0.1486330388681E-01
-0.2176369578138E+00 -0.3394989729044E+01 -0.7225253481380E+00  0.4091314939708E-01
-0.2050399497396E+00 -0.3388037931009E+01 -0.7186155868578E+00  0.6627298318662E-01
-0.1986930361640E+00 -0.3377916956840E+01 -0.7153220092598E+00  0.9108298335595E-01
-0.1979038554769E+00 -0.3364797850743E+01 -0.7125403518617E+00  0.1155671956175E+00
-0.2020081339753E+00 -0.3348737809546E+01 -0.7101491992863E+00  0.1399748235839E+00
-0.2103591588685E+00 -0.3329690631962E+01 -0.7080099687162E+00  0.1645310907648E+00
-0.2223064164543E+00 -0.3307520021106E+01 -0.7059652980318E+00  0.1893953630092E+00
-0.2371653785347E+00 -0.3282015253012E+01 -0.7038361367973E+00  0.2146231107064E+00
-0.2541800711380E+00 -0.3252908069147E+01 -0.7014176385089E+00  0.2401311549961E+00
-0.2724775569955E+00 -0.3219893172595E+01 -0.6984741563261E+00  0.2656640756848E+00
-0.2910144081406E+00 -0.3182653766230E+01 -0.6947336452264E+00  0.2907618594623E+00
-0.3085167554259E+00 -0.3140891300280E+01 -0.6898816214213E+00  0.3147318181098E+00
-0.3234146157310E+00 -0.3094361589339E+01 -0.6835552511997E+00  0.3366248231765E+00
-0.3337721646417E+00 -0.3042921028353E+01 -0.6753386486623E+00  0.3552207340337E+00
-0.3372149454377E+00 -0.2986601940260E+01 -0.6647633870453E+00  0.3690354048106E+00
-0.3308670065995E+00 -0.2925689093930E+01 -0.6513112298112E+00  0.3763355245225E+00
-0.3112972007151E+00 -0.2860767037548E+01 -0.6344128571062E+00  0.3751461776071E+00
-0.2744562104624E+00 -0.2792777075009E+01 -0.6134466662354E+00  0.3632829697817E+00
-0.2156025760232E+00 -0.2723104466031E+01 -0.5877414171688E+00  0.3384394198000E+00
-0.1292328563837E+00 -0.2653696432471E+01 -0.5565858660647E+00  0.2983604317777E+00
-0.9051462059406E-02 -0.2587192669425E+01 -0.5192488340344E+00  0.2411358794765E+00
 0.1519550250822E+00 -0.2527024609944E+01 -0.4750139240506E+00  0.1656452207690E+00
 0.3612384609714E+00 -0.2477407738184E+01 -0.4232338617492E+00  0.7216505856678E-01
 0.6261106841648E+00 -0.2443104496471E+01 -0.3633987678763E+00 -0.3690932852895E-01
 0.9527459713992E+00 -0.2428866802532E+01 -0.2952241706258E+00 -0.1563389167595E+00
 0.1344572439630E+01 -0.2438495964787E+01 -0.2187847082914E+00 -0.2775310352704E+00
 0.1800147475333E+01 -0.2473478377894E+01 -0.1346661825188E+00 -0.3886766240010E+00
 0.2311054192413E+01 -0.2531466605337E+01 -0.4408248324158E-01 -0.4759941495820E+00
 0.2860685460817E+01 -0.2605262258127E+01  0.5108464129919E-01 -0.5262800118657E+00
 0.3425153072685E+01 -0.2683254065098E+01  0.1483798037284E+00 -0.5303241675658E+00
 0.3976943688709E+01 -0.2751852020026E+01  0.2450183373876E+00 -0.4854019865834E+00
-0.7631237567468E+00 -0.3224582019942E+01 -0.7975411672221E+00 -0.1541407316568E+00
-0.6854626799155E+00 -0.3258196999173E+01 -0.7887319475707E+00 -0.1502571513885E+00
-0.6087401761136E+00 -0.3290178929306E+01 -0.7797838327037E+00 -0.1409279939026E+00
-0.5353313880039E+00 -0.3319168989578E+01 -0.7709000870037E+00 -0.1264618758222E+00
-0.4673879483007E+00 -0.3344037382406E+01 -0.7622850775003E+00 -0.1076489578036E+00
-0.4065565686371E+00 -0.3364042281222E+01 -0.7541197812092E+00 -0.8558478090438E-01
-0.3538622576731E+00 -0.3378865161302E+01 -0.7465454949193E+00 -0.6143758110262E-01
-0.3097398376036E+00 -0.3388543379350E+01 -0.7396566544124E+00 -0.3624947557188E-01
-0.2741544939433E+00 -0.3393350661314E+01 -0.7335010419814E+00 -0.1081738001612E-01
-0.2467488607797E+00 -0.3393673526377E+01 -0.7280844882806E+00  0.1434466282915E-01
-0.2269746252857E+00 -0.3389912166582E+01 -0.7233773691528E+00  0.3898419462189E-01
-0.2141902884731E+00 -0.3382414633299E+01 -0.7193209950731E+00  0.6305713373602E-01
-0.2077228303049E+00 -0.3371440957991E+01 -0.7158327683259E+00  0.8666389764000E-01
-0.2068990156073E+00 -0.3357149128847E+01 -0.7128096395125E+00  0.1099873050435E+00
-0.2110539600208E+00 -0.3339594956365E+01 -0.7101297938589E+00  0.1332374771403E+00
-0.2195234368651E+00 -0.3318739932910E+01 -0.7076526844998E+00  0.1566045211781E+00
-0.2316244578403E+00 -0.3294463526718E+01 -0.7052176074203E+00  0.1802176249739E+00
-0.2466261568955E+00 -0.3266579292637E+01 -0.7026411003767E+00  0.2041078539541E+00
-0.2637129381513E+00 -0.3234853187965E+01 -0.6997132356499E+00  0.2281744308838E+00
-0.2819394255473E+00 -0.3199026211414E+01 -0.6961931377664E+00  0.2521526036477E+00
-0.3001777039065E+00 -0.3158842487531E+01 -0.6918040485962E+00  0.2755831749099E+00
-0.3170587072296E+00 -0.3114081564878E+01 -0.6862280646472E+00  0.2977864738445E+00
-0.3309085400235E+00 -0.3064597157871E+01 -0.6791011496984E+00  0.3178408041267E+00
-0.3396815486058E+00 -0.3010365372121E+01 -0.6700093941293E+00  0.3345702836631E+00
-0.3408915840624E+00 -0.2951558655943E+01 -0.6584900578134E+00  0.3465544495089E+00
-0.3315536594384E+00 -0.2888621038896E+01 -0.6440349492637E+00  0.3521463521927E+00
-0.3081368256147E+00 -0.2822317328294E+01 -0.6260908401113E+00  0.3494858040625E+00
-0.2665145686896E+00 -0.2753788939608E+01 -0.6040607106607E+00  0.3365401122131E+00
-0.2019148482466E+00 -0.2684631505451E+01 -0.5773092793420E+00  0.3112014467217E+00
-0.1088878129706E+00 -0.2616990624112E+01 -0.5451756955403E+00  0.2714678638479E+00
 0.1867221514522E-01 -0.2553654350966E+01 -0.5069964347190E+00  0.2157351568562E+00
 0.1873889506093E+00 -0.2498098364999E+01 -0.4621418897644E+00  0.1432197787008E+00
 0.4040620669775E+00 -0.2454414060588E+01 -0.4100704048326E+00  0.5451075170999E-01
 0.6750498796924E+00 -0.2427017000919E+01 -0.3503934294666E+00 -0.4780931591926E-01
 0.1005298884591E+01 -0.2420073194678E+01 -0.2829548662338E+00 -0.1585875903779E+00
 0.1396890807823E+01 -0.2436618142424E+01 -0.2079454700189E+00 -0.2697701546779E+00
 0.1847241654331E+01 -0.2477373805366E+01 -0.1260264320849E+00 -0.3706765418182E+00
 0.2347464956698E+01 -0.2539538894762E+01 -0.3841478818529E-01 -0.4492171227115E+00
 0.2881619870604E+01 -0.2616121451467E+01  0.5309968461864E-01 -0.4941130861838E+00
 0.3427705655720E+01 -0.2696493575114E+01  0.1462424183003E+00 -0.4976164575110E+00
 0.3960512065246E+01 -0.2768300429260E+01  0.2384423307502E+00 -0.4573921246876E+00
-0.7635379729617E+00 -0.3222105249477E+01 -0.7971286563658E+00 -0.1414768863948E+00
-0.6877823012992E+00 -0.3254941334342E+01 -0.7885447388786E+00 -0.1379285377932E+00
-0.6129498105024E+00 -0.3286232113771E+01 -0.7798363964752E+00 -0.1294426322422E+00
-0.5412398320428E+00 -0.3314701421634E+01 -0.7711882622270E+00 -0.1162884767679E+00
-0.4746632607004E+00 -0.3339265340231E+01 -0.7627857315527E+00 -0.9914241549579E-01
-0.4147990647629E+00 -0.3359171917365E+01 -0.7547942076729E+00 -0.7895029942358E-01
-0.3626814053904E+00 -0.3374041717248E+01 -0.7473446356640E+00 -0.5673673445445E-01
-0.3188108344526E+00 -0.3383820937545E+01 -0.7405263654342E+00 -0.3343445565506E-01
-0.2832462323517E+00 -0.3388685070029E+01 -0.7343862714193E+00 -0.9775172718019E-02
-0.2557269887309E+00 -0.3388932596861E+01 -0.7289319279803E+00  0.1375191839602E-01
-0.2357884237089E+00 -0.3384894698575E+01 -0.7241366352472E+00  0.3688922961866E-01
-0.2228518578504E+00 -0.3376871323544E+01 -0.7199446470070E+00  0.5956886606520E-01
-0.2162845230996E+00 -0.3365093149464E+01 -0.7162755451861E+00  0.8185799736812E-01
-0.2154322673753E+00 -0.3349703960315E+01 -0.7130272561630E+00  0.1039031861081E+00
-0.2196306029823E+00 -0.3330757164368E+01 -0.7100775640510E+00  0.1258792913715E+00
-0.2281993843109E+00 -0.3308221383509E+01 -0.7072841641033E+00  0.1479445248974E+00
-0.2404251513636E+00 -0.3281991779032E+01 -0.7044833965767E+00  0.1702010600128E+00
-0.2555331259333E+00 -0.3251906458448E+01 -0.7014879273292E+00  0.1926591172906E+00
-0.2726510589260E+00 -0.3217765965142E+01 -0.6980834152158E+00  0.2152046013893E+00
-0.2907647982050E+00 -0.3179357754206E+01 -0.6940245208240E+00  0.2375686229987E+00
-0.3086664208232E+00 -0.3136486497838E+01 -0.6890305939997E+00  0.2592989957028E+00
-0.3248970358083E+00 -0.3089008611988E+01 -0.6827811397335E+00  0.2797362776235E+00
-0.3376851781298E+00 -0.3036873251510E+01 -0.6749116959850E+00  0.2979944249514E+00
-0.3448828518361E+00 -0.2980172077823E+01 -0.6650109958414E+00  0.3129509632174E+00
-0.3439011525715E+00 -0.2919211376029E+01 -0.6526225154449E+00  0.3232588311814E+00
-0.3316570520882E+00 -0.2854585307784E+01 -0.6372484814701E+00  0.3273671778729E+00
-0.3045337544517E+00 -0.2787225612045E+01 -0.6183518825135E+00  0.3235393851659E+00
-0.2583451943195E+00 -0.2718454563083E+01 -0.5953599603521E+00  0.3099003888026E+00
-0.1883099257729E+00 -0.2650051448012E+01 -0.5676722832159E+00  0.2845404851439E+00
-0.8905432005268E-01 -0.2584325550072E+01 -0.5346759819922E+00  0.2456987817076E+00
 0.4531866883578E-01 -0.2524172447910E+01 -0.4957707632023E+00  0.1920470837139E+00
 0.2210384337844E+00 -0.2473070973626E+01 -0.4504065146799E+00  0.1230853617229E+00
 0.4442777077230E+00 -0.2434958575908E+01 -0.3981361795698E+00  0.3963608377371E-01
 0.7205159669155E+00 -0.2413901719490E+01 -0.3386771555615E+00 -0.5562831054457E-01
 0.1053612783079E+01 -0.2413523435821E+01 -0.2719821346013E+00 -0.1577355218389E+00
 0.1444510341467E+01 -0.2436191419895E+01 -0.1983362186410E+00 -0.2592216724915E+00
 0.1889720685713E+01 -0.2482004052636E+01 -0.1184566751498E+00 -0.3504917807642E+00
 0.2380068898404E+01 -0.2547840850679E+01 -0.3355439095509E-01 -0.4209695966153E+00
 0.2900270712282E+01 -0.2626948818776E+01  0.5466437951581E-01 -0.4610051398007E+00
 0.3429924139958E+01 -0.2709528313957E+01  0.1440791673471E+00 -0.4640589110347E+00
 0.3945803953775E+01 -0.2784269707857E+01  0.2323068526451E+00 -0.4282046452603E+00
-0.7639194395606E+00 -0.3219870462297E+01 -0.7967579922441E+00 -0.1291064719960E+00
-0.6898909036011E+00 -0.3251993147134E+01 -0.7883768218947E+00 -0.1258796950476E+00
-0.6167681318788E+00 -0.3282643191968E+01 -0.7798822763905E+00 -0.1181926607496E+00
-0.5466038526505E+00 -0.3310613710326E+01 -0.7714435240907E+00 -0.1062816112472E+00
-0.4812882823777E+00 -0.3334861368572E+01 -0.7632299415630E+00 -0.9072633180857E-01
-0.4223382055961E+00 -0.3354628999257E+01 -0.7553934522269E+00 -0.7234273556731E-01
-0.3707899026749E+00 -0.3369488486004E+01 -0.7480556888827E+00 -0.5202666903728E-01
-0.3271957538398E+00 -0.3379309447938E+01 -0.7413010514019E+00 -0.3060829891188E-01
-0.2916932523016E+00 -0.3384181941993E+01 -0.7351750498139E+00 -0.8753602027813E-02
-0.2641058932311E+00 -0.3384325415163E+01 -0.7296862725520E+00  0.1307828644645E-01
-0.2440437689280E+00 -0.3380007116202E+01 -0.7248101878265E+00  0.3463177499553E-01
-0.2309857927881E+00 -0.3371480967775E+01 -0.7204933628488E+00  0.5582223986257E-01
-0.2243370375262E+00 -0.3358948553131E+01 -0.7166571288105E+00  0.7668968033244E-01
-0.2234619392603E+00 -0.3342538891449E+01 -0.7132001767694E+00  0.9734927011973E-01
-0.2276971268487E+00 -0.3322302264097E+01 -0.7099998887690E+00  0.1179445058959E+00
-0.2363480381173E+00 -0.3298213860393E+01 -0.7069123902358E+00  0.1386050688151E+00
-0.2486728320794E+00 -0.3270184207808E+01 -0.7037714184646E+00  0.1594094074950E+00
-0.2638554753985E+00 -0.3238075767650E+01 -0.7003862590462E+00  0.1803505121247E+00
-0.2809703637737E+00 -0.3201723387330E+01 -0.6965387606000E+00  0.2013052007072E+00
-0.2989386146474E+00 -0.3160960341096E+01 -0.6919798014599E+00  0.2220054752627E+00
-0.3164771791623E+00 -0.3115650556444E+01 -0.6864255573498E+00  0.2420120672359E+00
-0.3320431153736E+00 -0.3065725061093E+01 -0.6795536454196E+00  0.2606925575049E+00
-0.3437741175116E+00 -0.3011224868938E+01 -0.6709998072887E+00  0.2772041953732E+00
-0.3494276634308E+00 -0.2952351849273E+01 -0.6603559123809E+00  0.2904862523299E+00
-0.3463212048120E+00 -0.2889538642760E+01 -0.6471719791581E+00  0.2992736604004E+00
-0.3312844944272E+00 -0.2823519354040E+01 -0.6309607790954E+00  0.3021198544177E+00
-0.3006279976822E+00 -0.2755378636880E+01 -0.6112013360201E+00  0.2974185394635E+00
-0.2501217495618E+00 -0.2686600473176E+01 -0.5873444532997E+00  0.2834555599082E+00
-0.1749923669726E+00 -0.2619122605146E+01 -0.5588230027509E+00  0.2585158083682E+00
-0.6995912995130E-01 -0.2555387033354E+01 -0.5250692404852E+00  0.2210645762156E+00
 0.7065601981851E-01 -0.2498362700654E+01 -0.4855413434022E+00  0.1700184383680E+00
 0.2526935864655E+00 -0.2451500371144E+01 -0.4397613634887E+00  0.1051093894320E+00
 0.4817339261338E+00 -0.2418565727217E+01 -0.3873663659889E+00  0.2732195238312E-01
 0.7624562791073E+00 -0.2403285092192E+01 -0.3281657675070E+00 -0.6066429477518E-01
 0.1097766138183E+01 -0.2408786610272E+01 -0.2622040983251E+00 -0.1541308885819E+00
 0.1487646970692E+01 -0.2436861487897E+01 -0.1898429062699E+00 -0.2462336671090E+00
 0.1927898953681E+01 -0.2487103037182E+01 -0.1118408183668E+00 -0.3284091081052E+00
 0.2409186915317E+01 -0.2556170484451E+01 -0.2939671426493E-01 -0.3914327044066E+00
 0.2916850689567E+01 -0.2637556326259E+01  0.5585887349386E-01 -0.4270458329989E+00
 0.3431860281824E+01 -0.2722165662145E+01  0.1419389260508E+00 -0.4297284487162E+00
 0.3932729285512E+01 -0.2799595461868E+01  0.2266267681058E+00 -0.3979418907295E+00
-0.7642682089201E+00 -0.3217860631401E+01 -0.7964257799319E+00 -0.1170033445119E+00
-0.6917982449941E+00 -0.3249333644653E+01 -0.7882263896750E+00 -0.1140868107917E+00
-0.6202151806733E+00 -0.3279394249491E+01 -0.7799218976546E+00 -0.1071619782943E+00
-0.5514495808409E+00 -0.3306893501124E+01 -0.7716686278918E+00 -0.9643657409651E-01
-0.4872885663649E+00 -0.3330823587282E+01 -0.7636224421083E+00 -0.8240761396361E-01
-0.4291926973047E+00 -0.3350425426524E+01 -0.7559236360299E+00 -0.6577752614368E-01
-0.3781956366875E+00 -0.3365231988792E+01 -0.7486855362522E+00 -0.4732645917994E-01
-0.3348904326787E+00 -0.3375048710064E+01 -0.7419878396050E+00 -0.2778870044895E-01
-0.2994802596779E+00 -0.3379891745681E+01 -0.7358744120371E+00 -0.7764960808732E-02
-0.2718612646879E+00 -0.3379910215157E+01 -0.7303543068522E+00  0.1231952001288E-01
-0.2517098146290E+00 -0.3375312894522E+01 -0.7254045526397E+00  0.3221703308337E-01
-0.2385570349098E+00 -0.3366310433503E+01 -0.7209735044260E+00  0.5183243937517E-01
-0.2318430633884E+00 -0.3353076255848E+01 -0.7169838745312E+00  0.7118415721649E-01
-0.2309500684029E+00 -0.3335724558884E+01 -0.7133349360869E+00  0.9036064092086E-01
-0.2352162721321E+00 -0.3314302032762E+01 -0.7099036715573E+00  0.1094778996724E+00
-0.2439341143289E+00 -0.3288789879745E+01 -0.7065448093431E+00  0.1286404944937E+00
-0.2563355353390E+00 -0.3259113441778E+01 -0.7030898059002E+00  0.1479064780020E+00
-0.2715661026724E+00 -0.3225158909494E+01 -0.6993450128543E+00  0.1672552043049E+00
-0.2886504425342E+00 -0.3186794559881E+01 -0.6950890108407E+00  0.1865585252154E+00
-0.3064493247415E+00 -0.3143898121193E+01 -0.6900694994697E+00  0.2055541446764E+00
-0.3236098102507E+00 -0.3096390645456E+01 -0.6840001013337E+00  0.2238212862730E+00
-0.3385110262244E+00 -0.3044274585835E+01 -0.6765571324934E+00  0.2407608890463E+00
-0.3492068657109E+00 -0.2987678230465E+01 -0.6673770291798E+00  0.2555805215086E+00
-0.3533683164633E+00 -0.2926907274414E+01 -0.6560551279514E+00  0.2672887126451E+00
-0.3482283202766E+00 -0.2862512254070E+01 -0.6421481244380E+00  0.2747098797253E+00
-0.3305398700246E+00 -0.2795356248472E+01 -0.6251792330153E+00  0.2765084906838E+00
-0.2965527486976E+00 -0.2726662471634E+01 -0.6046430530762E+00  0.2712134866821E+00
-0.2420065921802E+00 -0.2658057961913E+01 -0.5800129194615E+00  0.2572727068615E+00
-0.1621498467188E+00 -0.2591615602976E+01 -0.5507530981459E+00  0.2331598331340E+00
-0.5180579696548E-01 -0.2529883035792E+01 -0.5163377742455E+00  0.1975497380071E+00
 0.9448167868413E-01 -0.2475874774066E+01 -0.4762786261735E+00  0.1495724299288E+00
 0.2821778965180E+00 -0.2432991031383E+01 -0.4301626333830E+00  0.8914353778521E-01
 0.5163121422078E+00 -0.2404817750851E+01 -0.3777011273569E+00  0.1734617817897E-01
 0.8008431885333E+00 -0.2394758194660E+01 -0.3187830059756E+00 -0.6320213186236E-01
 0.1137845770750E+01 -0.2405495894756E+01 -0.2535300285792E+00 -0.1480926220727E+00
 0.1526501160905E+01 -0.2438328745553E+01 -0.1823655196470E+00 -0.2311145876169E+00
 0.1962051800586E+01 -0.2492443060082E+01 -0.1060782534799E+00 -0.3046774499523E+00
 0.2435091569309E+01 -0.2564349429816E+01 -0.2585157248653E-01 -0.3607661221056E+00
 0.2931541225182E+01 -0.2647778891284E+01  0.5675246762526E-01 -0.3923221636782E+00
 0.3433558756054E+01 -0.2734242353178E+01  0.1398632826594E+00 -0.3946961732062E+00
 0.3921186486891E+01 -0.2814130952624E+01  0.2214111101528E+00 -0.3666934114969E+00
-0.7645843920573E+00 -0.3216062271879E+01 -0.7961293446504E+00 -0.1051422189971E+00
-0.6935123639116E+00 -0.3246947910205E+01 -0.7880920665669E+00 -0.1025265158743E+00
-0.6233075595218E+00 -0.3276471045419E+01 -0.7799557326104E+00 -0.9633359648391E-01
-0.5557989261232E+00 -0.3303531044694E+01 -0.7718660056651E+00 -0.8674596879593E-01
-0.4926858977021E+00 -0.3327150881855E+01 -0.7639673672955E+00 -0.7418890534740E-01
-0.4353788756863E+00 -0.3346571698993E+01 -0.7563901262069E+00 -0.5926501798059E-01
-0.3849058973937E+00 -0.3361295366843E+01 -0.7492402640120E+00 -0.4265011863250E-01
-0.3418917551794E+00 -0.3371073682356E+01 -0.7425930985725E+00 -0.2498896028350E-01
-0.3065942482843E+00 -0.3375859249409E+01 -0.7364907105132E+00 -0.6818105109571E-02
-0.2789718650961E+00 -0.3375739168570E+01 -0.7309422176252E+00  0.1147385439073E-01
-0.2587591943201E+00 -0.3370869395742E+01 -0.7259257288295E+00  0.2965191203107E-01
-0.2455341653809E+00 -0.3361420554195E+01 -0.7213909546648E+00  0.4761581050964E-01
-0.2387689567793E+00 -0.3347539383170E+01 -0.7172616786780E+00  0.6536745929627E-01
-0.2378623325122E+00 -0.3329325623973E+01 -0.7134376019281E+00  0.8297299200202E-01
-0.2421543843582E+00 -0.3306822137865E+01 -0.7097953150213E+00  0.1005246922049E+00
-0.2509258995666E+00 -0.3280015594470E+01 -0.7061883093303E+00  0.1181053692276E+00
-0.2633848212713E+00 -0.3248845399931E+01 -0.7024460547078E+00  0.1357559679073E+00
-0.2786413444578E+00 -0.3213220468484E+01 -0.6983723729950E+00  0.1534457118215E+00
-0.2956741614925E+00 -0.3173041097770E+01 -0.6937430621902E+00  0.1710454386127E+00
-0.3132883717498E+00 -0.3128227445872E+01 -0.6883031737809E+00  0.1883030991814E+00
-0.3300666890289E+00 -0.3078754799820E+01 -0.6817643079288E+00  0.2048216109335E+00
-0.3443167216232E+00 -0.3024693015385E+01 -0.6738019574421E+00  0.2200411148172E+00
-0.3540158413703E+00 -0.2966252184029E+01 -0.6640536149751E+00  0.2332258878515E+00
-0.3567567058125E+00 -0.2903834562228E+01 -0.6521182633255E+00  0.2434604039507E+00
-0.3496967779357E+00 -0.2838099339359E+01 -0.6375592329593E+00  0.2496650098380E+00
-0.3295222407760E+00 -0.2770027064828E+01 -0.6199098703582E+00  0.2506206495436E+00
-0.2924330634396E+00 -0.2700965106401E+01 -0.5986796428890E+00  0.2449948396323E+00
-0.2341497689072E+00 -0.2632665700879E+01 -0.5733631025010E+00  0.2313967588407E+00
-0.1499528141917E+00 -0.2567315661898E+01 -0.5434537033159E+00  0.2084814738276E+00
-0.3477544788723E-01 -0.2507545069793E+01 -0.5084641111127E+00  0.1751159964739E+00
 0.1166199996010E+00 -0.2456392110255E+01 -0.4679544291038E+00  0.1306133228542E+00
 0.3093440202666E+00 -0.2417191539543E+01 -0.4215695101372E+00  0.7502817523699E-01
 0.5479207826462E+00 -0.2393349493006E+01 -0.3690857475717E+00  0.9486683044862E-02
 0.8356675638153E+00 -0.2387968943736E+01 -0.3104602806104E+00 -0.6351288900673E-01
 0.1173941511320E+01 -0.2403339171849E+01 -0.2458795357697E+00 -0.1399131608477E+00
 0.1561256274747E+01 -0.2440339285132E+01 -0.1758166046967E+00 -0.2141394162548E+00
 0.1992419561666E+01 -0.2497828967215E+01 -0.1010818826161E+00 -0.2795154469028E+00
 0.2458015171001E+01 -0.2572221684381E+01 -0.2284130301625E-01 -0.3291123529244E+00
 0.2944496637351E+01 -0.2657473193270E+01  0.5740468967168E-01 -0.3569166834083E+00
 0.3435054594070E+01 -0.2745618579347E+01  0.1378872049994E+00 -0.3590280148381E+00
 0.3911071201762E+01 -0.2827745127418E+01  0.2166652180974E+00 -0.3345428167801E+00
-0.7648681468887E+00 -0.3214464773270E+01 -0.7958665958910E+00 -0.9349850451247E-01
-0.6950398819952E+00 -0.3244824181191E+01 -0.7879728243790E+00 -0.9117581002128E-01
-0.6260590043087E+00 -0.3273862350661E+01 -0.7799842826166E+00 -0.8568982642466E-01
-0.5596702049806E+00 -0.3300518758840E+01 -0.7720378042684E+00 -0.7720021173577E-01
-0.4974987539836E+00 -0.3323842798347E+01 -0.7642683218546E+00 -0.6606931006695E-01
-0.4409108810702E+00 -0.3343077136562E+01 -0.7567976148035E+00 -0.5281123395282E-01
-0.3909272819137E+00 -0.3357698817311E+01 -0.7497252310167E+00 -0.3800724957474E-01
-0.3481973838903E+00 -0.3367414988777E+01 -0.7431224856069E+00 -0.2221843586225E-01
-0.3130241700905E+00 -0.3372123977401E+01 -0.7370296404809E+00 -0.5918710813532E-02
-0.2854192214666E+00 -0.3371858722033E+01 -0.7314555995995E+00  0.1054189691336E-01
-0.2651677798993E+00 -0.3366728070657E+01 -0.7263791809352E+00  0.2694499819726E-01
-0.2518892347762E+00 -0.3356866214452E+01 -0.7217511006005E+00  0.4318986023923E-01
-0.2450846246005E+00 -0.3342395106147E+01 -0.7174959568410E+00  0.5926642658006E-01
-0.2441679613113E+00 -0.3323400745190E+01 -0.7135137519325E+00  0.7522258279433E-01
-0.2484813214425E+00 -0.3299922118821E+01 -0.7096806986277E+00  0.9113046190744E-01
-0.2572951242918E+00 -0.3271950825885E+01 -0.7058492005533E+00  0.1070543713058E+00
-0.2697955867742E+00 -0.3239439411114E+01 -0.7018470100360E+00  0.1230213244743E+00
-0.2850607039233E+00 -0.3202318167139E+01 -0.6974757846057E+00  0.1389937688905E+00
-0.3020272856687E+00 -0.3160517524821E+01 -0.6925089724172E+00  0.1548452591028E+00
-0.3194496928618E+00 -0.3113997456390E+01 -0.6866894400829E+00  0.1703382292221E+00
-0.3358520985998E+00 -0.3062783914391E+01 -0.6797272127268E+00  0.1851040845754E+00
-0.3494772455747E+00 -0.3007009390828E+01 -0.6712973372836E+00  0.1986274940016E+00
-0.3582334415346E+00 -0.2946959536974E+01 -0.6610386055520E+00  0.2102351841861E+00
-0.3596432164213E+00 -0.2883125165668E+01 -0.6485536860821E+00  0.2190934551857E+00
-0.3507973847200E+00 -0.2816264267445E+01 -0.6334123398716E+00  0.2242240492884E+00
-0.3283246594260E+00 -0.2747463026868E+01 -0.6151575464253E+00  0.2245286773527E+00
-0.2883848044741E+00 -0.2678178727835E+01 -0.5933127153029E+00  0.2188154711130E+00
-0.2266883194863E+00 -0.2610271937192E+01 -0.5673920597906E+00  0.2058529877641E+00
-0.1385544709291E+00 -0.2546024378622E+01 -0.5369157779110E+00  0.1844692926181E+00
-0.1902780570924E-01 -0.2488129094437E+01 -0.5014313875012E+00  0.1537060157779E+00
 0.1369198707925E+00 -0.2439631371553E+01 -0.4605423070147E+00  0.1130303421312E+00
 0.3340698517027E+00 -0.2403792050965E+01 -0.4139444460207E+00  0.6259584440591E-01
 0.5764901374462E+00 -0.2383843622881E+01 -0.3614707024733E+00  0.3523652371728E-02
 0.8669333723649E+00 -0.2382615345198E+01 -0.3031363990836E+00 -0.6185393326655E-01
 0.1206142173176E+01 -0.2402051308897E+01 -0.2391818307084E+00 -0.1298613707074E+00
 0.1592077823582E+01 -0.2442677905966E+01 -0.1701200190118E+00 -0.1955550219853E+00
 0.2019211107074E+01 -0.2503093763542E+01 -0.9677653273559E-01 -0.2531172487205E+00
 0.2478155688196E+01 -0.2579651960045E+01 -0.2029925467236E-01 -0.2965997726703E+00
 0.2955847320863E+01 -0.2666515523327E+01  0.5786636036956E-01 -0.3209070962733E+00
 0.3436373273766E+01 -0.2756173766276E+01  0.1360399035252E+00 -0.3227862606267E+00
 0.3902281679155E+01 -0.2840321128980E+01  0.2123921131999E+00 -0.3015715849962E+00
-0.7651196607209E+00 -0.3213059850022E+01 -0.7956359140045E+00 -0.8204816845334E-01
-0.6963862428256E+00 -0.3242953253106E+01 -0.7878679109264E+00 -0.8001199610903E-01
-0.6284808447010E+00 -0.3271559391874E+01 -0.7800080589381E+00 -0.7521242110110E-01
-0.5630786634552E+00 -0.3297850840479E+01 -0.7721859122934E+00 -0.6778793745585E-01
-0.5017427088341E+00 -0.3320899416418E+01 -0.7645284364428E+00 -0.5804499594705E-01
-0.4458008376293E+00 -0.3339950018951E+01 -0.7571501825984E+00 -0.4641853651631E-01
-0.3962656479644E+00 -0.3354459923532E+01 -0.7501451254772E+00 -0.3340363439595E-01
-0.3538055565361E+00 -0.3364099327032E+01 -0.7435809877939E+00 -0.1948298549047E-01
-0.3187606649048E+00 -0.3368720594844E+01 -0.7374962629393E+00 -0.5069555832549E-02
-0.2911873605623E+00 -0.3368309896176E+01 -0.7318994622538E+00  0.9526475131012E-02
-0.2709144616569E+00 -0.3362934650834E+01 -0.7267698333278E+00  0.2410648654997E-01
-0.2575975984479E+00 -0.3352696446134E+01 -0.7220588196758E+00  0.3857322346621E-01
-0.2507634044587E+00 -0.3337694670687E+01 -0.7176916257236E+00  0.5290867750202E-01
-0.2498396387719E+00 -0.3318002577789E+01 -0.7135684539451E+00  0.6714619196040E-01
-0.2541703517686E+00 -0.3293655395344E+01 -0.7095651599958E+00  0.8134107668470E-01
-0.2630168301759E+00 -0.3264649117754E+01 -0.7055332000993E+00  0.9554220197411E-01
-0.2755458777414E+00 -0.3230948348310E+01 -0.7012988556604E+00  0.1097656513913E+00
-0.2908065863913E+00 -0.3192503112846E+01 -0.6966619502286E+00  0.1239702435925E+00
-0.3076981198125E+00 -0.3149271663539E+01 -0.6913939669729E+00  0.1380357127919E+00
-0.3249292504177E+00 -0.3101250645582E+01 -0.6852359894108E+00  0.1517428651145E+00
-0.3409716397491E+00 -0.3048512504939E+01 -0.6778968390390E+00  0.1647559503052E+00
-0.3540100131986E+00 -0.2991246950548E+01 -0.6690514027189E+00  0.1766089538081E+00
-0.3618911939395E+00 -0.2929808285254E+01 -0.6583399056487E+00  0.1866961428276E+00
-0.3620757648542E+00 -0.2864767261568E+01 -0.6453686149011E+00  0.1942707479815E+00
-0.3515964514521E+00 -0.2796970360199E+01 -0.6297133717136E+00  0.1984604766413E+00
-0.3270331668995E+00 -0.2727597398612E+01 -0.6109261222058E+00  0.1982911047113E+00
-0.2845138034448E+00 -0.2658201667247E+01 -0.5885431029084E+00  0.1927123889918E+00
-0.2197458149315E+00 -0.2590736294975E+01 -0.5620964303573E+00  0.1806494045044E+00
-0.1280909580292E+00 -0.2527561072505E+01 -0.5311304140214E+00  0.1610943928244E+00
-0.4702325154065E-02 -0.2471415998775E+01 -0.4952236721651E+00  0.1332466312880E+00
 0.1552523930556E+00 -0.2425341606316E+01 -0.4540178494174E+00  0.9670090539174E-01
 0.3562549883468E+00 -0.2392521762263E+01 -0.4072533608517E+00  0.5167391906221E-01
 0.6019679793879E+00 -0.2376026299706E+01 -0.3548116693506E+00 -0.7591139672527E-03
 0.8946533430930E+00 -0.2378439711870E+01 -0.2967572781774E+00 -0.5846956883910E-01
 0.1234532615306E+01 -0.2401407851143E+01 -0.2333750506448E+00 -0.1181854447614E+00
 0.1619113319246E+01 -0.2445162648788E+01 -0.1652098683702E+00 -0.1755847337429E+00
 0.2042606899929E+01 -0.2508095144220E+01 -0.9309765024549E-01 -0.2256570345391E+00
 0.2495681268587E+01 -0.2586523875793E+01 -0.1816852171193E-01 -0.2633450183586E+00
 0.2965702538782E+01 -0.2674799577475E+01  0.5818059312826E-01 -0.2843666068245E+00
 0.3437531974893E+01 -0.2765803662461E+01  0.1343456644883E+00 -0.2860310464872E+00
 0.3894722228576E+01 -0.2851755284398E+01  0.2085933919438E+00 -0.2678611025205E+00
-0.7653391380547E+00 -0.3211841090915E+01 -0.7954360576468E+00 -0.7076762486961E-01
-0.6975559043672E+00 -0.3241327988502E+01 -0.7877767903127E+00 -0.6901262251520E-01
-0.6305823807073E+00 -0.3269555386256E+01 -0.7800275650159E+00 -0.6488268504462E-01
-0.5660369150250E+00 -0.3295522926607E+01 -0.7723119798347E+00 -0.5849632715125E-01
-0.5054307861718E+00 -0.3318321214547E+01 -0.7647504115393E+00 -0.5010969962547E-01
-0.4500590322424E+00 -0.3337197668231E+01 -0.7574513513816E+00 -0.4008620434667E-01
-0.4009261056031E+00 -0.3351593902310E+01 -0.7505040127660E+00 -0.2884177415012E-01
-0.3587149389885E+00 -0.3361149794039E+01 -0.7439729576915E+00 -0.1678539719875E-01
-0.3237958448402E+00 -0.3365679228401E+01 -0.7378950256437E+00 -0.4270818003032E-02
-0.2962625858875E+00 -0.3365128545220E+01 -0.7322782371333E+00  0.8432453059066E-02
-0.2759809548563E+00 -0.3359529324621E+01 -0.7271020667301E+00  0.2114807585628E-01
-0.2626377649338E+00 -0.3348954525552E+01 -0.7223184688605E+00  0.3378560026649E-01
-0.2557819484876E+00 -0.3333483438102E+01 -0.7178530880148E+00  0.4632255927946E-01
-0.2548534049110E+00 -0.3313177788349E+01 -0.7136062492856E+00  0.5878106334928E-01
-0.2591980516821E+00 -0.3288069289191E+01 -0.7094534787462E+00  0.7120262926741E-01
-0.2680692402095E+00 -0.3258157797902E+01 -0.7052454181313E+00  0.8362351365705E-01
-0.2806167101610E+00 -0.3223418761053E+01 -0.7008071046856E+00  0.9605164131037E-01
-0.2958640523334E+00 -0.3183820030043E+01 -0.6959368268456E+00  0.1084450925309E+00
-0.3126771770918E+00 -0.3139344994208E+01 -0.6904044445478E+00  0.1206929334969E+00
-0.3297246030781E+00 -0.3090023369385E+01 -0.6839496046843E+00  0.1325978496655E+00
-0.3454316948131E+00 -0.3035969395761E+01 -0.6762802281921E+00  0.1438608288795E+00
-0.3579321626651E+00 -0.2977424014343E+01 -0.6670712453417E+00  0.1540694109617E+00
-0.3650190016562E+00 -0.2914802707617E+01 -0.6559643516293E+00  0.1626898492946E+00
-0.3640989578360E+00 -0.2848747054712E+01 -0.6425692120847E+00  0.1690666700953E+00
-0.3521549130809E+00 -0.2780181381966E+01 -0.6264672683445E+00  0.1724373065946E+00
-0.3257259603313E+00 -0.2710367095870E+01 -0.6072186202886E+00  0.1719540655097E+00
-0.2809152121007E+00 -0.2640940014675E+01 -0.5843710540629E+00  0.1667085654864E+00
-0.2134320805417E+00 -0.2573931198669E+01 -0.5574726641490E+00  0.1557790090512E+00
-0.1186816830732E+00 -0.2511763742266E+01 -0.5260890929071E+00  0.1383130276859E+00
 0.8080641542327E-02 -0.2457211748152E+01 -0.4898262286209E+00  0.1136516362021E+00
 0.1715087191651E+00 -0.2413303229680E+01 -0.4483589087841E+00  0.8149324825316E-01
 0.3758176231517E+00 -0.2383146470751E+01 -0.4014657755022E+00  0.4208656853319E-01
 0.6243158939127E+00 -0.2369663305782E+01 -0.3490694875753E+00 -0.3573479011831E-02
 0.9188455297188E+00 -0.2375223754744E+01 -0.2912756493454E+00 -0.5359202623659E-01
 0.1259191638193E+01 -0.2401219883353E+01 -0.2284056524355E+00 -0.1051156661533E+00
 0.1642492480121E+01 -0.2447640471259E+01 -0.1610296006271E+00 -0.1544322181512E+00
 0.2062761600559E+01 -0.2512712670903E+01 -0.8999021540982E-01 -0.1972926034593E+00
 0.2510733824595E+01 -0.2592738208362E+01 -0.1640087699779E-01 -0.2294549526602E+00
 0.2974152951916E+01 -0.2682234544518E+01  0.5838368234959E-01 -0.2473645543430E+00
 0.3438541230989E+01 -0.2774418376800E+01  0.1328245728171E+00 -0.2488214866711E+00
 0.3888305313704E+01 -0.2861956450362E+01  0.2052697757271E+00 -0.2334936354270E+00
-0.7655267872809E+00 -0.3210803589112E+01 -0.7952660871290E+00 -0.5963364272836E-01
-0.6985524915631E+00 -0.3239942913129E+01 -0.7876990926760E+00 -0.5815543473172E-01
-0.6323711863626E+00 -0.3267845154094E+01 -0.7800432797149E+00 -0.5468156260046E-01
-0.5685553016054E+00 -0.3293531802061E+01 -0.7724174322432E+00 -0.4931138125275E-01
-0.5085737627585E+00 -0.3316108937778E+01 -0.7649365515057E+00 -0.4225515694775E-01
-0.4536940799526E+00 -0.3334826493091E+01 -0.7577041258995E+00 -0.3381093984297E-01
-0.4049130286344E+00 -0.3349113789006E+01 -0.7508053747160E+00 -0.2432138195537E-01
-0.3629245156468E+00 -0.3358586145782E+01 -0.7443021433768E+00 -0.1412580233444E-01
-0.3281231183221E+00 -0.3363025733304E+01 -0.7382297813257E+00 -0.3520382007800E-02
-0.3006332860927E+00 -0.3362345582781E+01 -0.7325957846913E+00  0.7266524974185E-02
-0.2803516256825E+00 -0.3356546899282E+01 -0.7273797158317E+00  0.1808283893813E-01
-0.2669912524150E+00 -0.3345678072803E+01 -0.7225338758102E+00  0.2884767389586E-01
-0.2601201070466E+00 -0.3329800938443E+01 -0.7179842197967E+00  0.3953708960985E-01
-0.2591885531655E+00 -0.3308967087512E+01 -0.7136311387695E+00  0.5016485618036E-01
-0.2635441979623E+00 -0.3283205065000E+01 -0.7093498631626E+00  0.6076139042456E-01
-0.2724336264032E+00 -0.3252518056098E+01 -0.7049903470053E+00  0.7135286972206E-01
-0.2849918941246E+00 -0.3216891018125E+01 -0.7003765928863E+00  0.8194155335162E-01
-0.3002205808750E+00 -0.3176307493847E+01 -0.6953056253053E+00  0.9248737360794E-01
-0.3169568679207E+00 -0.3130773003893E+01 -0.6895459846379E+00  0.1028915335793E+00
-0.3338345087694E+00 -0.3080346333915E+01 -0.6828361787119E+00  0.1129816944374E+00
-0.3492389372346E+00 -0.3025178365269E+01 -0.6748834705573E+00  0.1224989922327E+00
-0.3612599695025E+00 -0.2965554804047E+01 -0.6653629646246E+00  0.1310881991518E+00
-0.3676444699972E+00 -0.2901944370078E+01 -0.6539177777592E+00  0.1382913654941E+00
-0.3657533559253E+00 -0.2835049960585E+01 -0.6401606728412E+00  0.1435479805201E+00
-0.3525275782804E+00 -0.2765862870995E+01 -0.6236780991486E+00  0.1462082442942E+00
-0.3244727120705E+00 -0.2695714100337E+01 -0.6040373714824E+00  0.1455527813919E+00
-0.2776730159355E+00 -0.2626308999223E+01 -0.5807964116862E+00  0.1408147726468E+00
-0.2078430715458E+00 -0.2559743040896E+01 -0.5535172307364E+00  0.1312219558690E+00
-0.1104297524497E+00 -0.2498489778552E+01 -0.5217839139755E+00  0.1160690023487E+00
 0.1921867405610E-01 -0.2445347354937E+01 -0.4852257434065E+00  0.9482422188155E-01
 0.1855980501877E+00 -0.2403326977903E+01 -0.4435457921524E+00  0.6726857879919E-01
 0.3926918007701E+00 -0.2375466345486E+01 -0.3965549148524E+00  0.3365619368040E-01
 0.6435061734321E+00 -0.2364556692872E+01 -0.3442101090171E+00 -0.5126705985079E-02
 0.9395305351535E+00 -0.2372784481433E+01 -0.2866507935274E+00 -0.4744267822811E-01
 0.1280190412727E+01 -0.2401329864662E+01 -0.2242278937282E+00 -0.9086702495760E-01
 0.1662327545969E+01 -0.2449983794508E+01 -0.1575312520552E+00 -0.1322848482995E+00
 0.2079806202378E+01 -0.2516845434503E+01 -0.8740784772743E-01 -0.1681683858907E+00
 0.2523431899094E+01 -0.2598211301802E+01 -0.1495588076451E-01 -0.1950284337453E+00
 0.2981272884277E+01 -0.2688743542817E+01  0.5850586916366E-01 -0.2099672146181E+00
 0.3439406591340E+01 -0.2781941032380E+01  0.1314931137515E+00 -0.2112165244085E+00
 0.3882952892857E+01 -0.2870845537380E+01  0.2024214741118E+00 -0.1985528319899E+00
-0.7656828083280E+00 -0.3209943640361E+01 -0.7951253015861E+00 -0.4862327003090E-01
-0.6993789174542E+00 -0.3238793885666E+01 -0.7876345723606E+00 -0.4741833353259E-01
-0.6338533543378E+00 -0.3266424798403E+01 -0.7800556421720E+00 -0.4458970844620E-01
-0.5706421901201E+00 -0.3291875150568E+01 -0.7725034796488E+00 -0.4021814608447E-01
-0.5111804249792E+00 -0.3314263473226E+01 -0.7650887910417E+00 -0.3447147074239E-01
-0.4567130748556E+00 -0.3332842006159E+01 -0.7579110274967E+00 -0.2758731626341E-01
-0.4082300806475E+00 -0.3347030572923E+01 -0.7510521419057E+00 -0.1983983393825E-01
-0.3664335125576E+00 -0.3356425000773E+01 -0.7445717137611E+00 -0.1150207087518E-01
-0.3317370522584E+00 -0.3360781910723E+01 -0.7385038036009E+00 -0.2814149446490E-02
-0.3042897776983E+00 -0.3359987171938E+01 -0.7328554008477E+00  0.6036992384511E-02
-0.2840133433163E+00 -0.3354016942790E+01 -0.7276060680634E+00  0.1492507096347E-01
-0.2706424628301E+00 -0.3342899143538E+01 -0.7227083320428E+00  0.2378100846293E-01
-0.2637608237765E+00 -0.3326680924531E+01 -0.7180883603619E+00  0.3258188390375E-01
-0.2628275360214E+00 -0.3305405266748E+01 -0.7136465711880E+00  0.4133558868795E-01
-0.2671916687886E+00 -0.3279097973854E+01 -0.7092579390973E+00  0.5006376416496E-01
-0.2760941892846E+00 -0.3247765019180E+01 -0.7047718521948E+00  0.5878471457868E-01
-0.2886578755751E+00 -0.3211399438258E+01 -0.7000114731976E+00  0.6749720876327E-01
-0.3038658592042E+00 -0.3169998139007E+01 -0.6947728099952E+00  0.7616528414010E-01
-0.3205312247278E+00 -0.3123585494765E+01 -0.6888233541629E+00  0.8470470663734E-01
-0.3372585752621E+00 -0.3072245022568E+01 -0.6819007297271E+00  0.9297077362325E-01
-0.3523999020377E+00 -0.3016158708889E+01 -0.6737117322245E+00  0.1007476792236E+00
-0.3640083366870E+00 -0.2955650155027E+01 -0.6639317082362E+00  0.1077405411992E+00
-0.3697923253466E+00 -0.2891232990954E+01 -0.6522050729786E+00  0.1135703961172E+00
-0.3670748454661E+00 -0.2823661614894E+01 -0.6381473015812E+00  0.1177747091950E+00
-0.3527625014014E+00 -0.2753983261896E+01 -0.6213491619183E+00  0.1198188542411E+00
-0.3233340182710E+00 -0.2683586630649E+01 -0.6013841387454E+00  0.1191130243167E+00
-0.2748596705045E+00 -0.2614234100805E+01 -0.5778187628720E+00  0.1150313381323E+00
-0.2030608401770E+00 -0.2548073075998E+01 -0.5502267914341E+00  0.1069475581004E+00
-0.1034224275837E+00 -0.2487616432298E+01 -0.5182077796982E+00  0.9429581354360E-01
 0.2862620307088E-01 -0.2435678689550E+01 -0.4814105044693E+00  0.7665905012771E-01
 0.1974458807298E+00 -0.2395252856216E+01 -0.4395614016472E+00  0.5388278370798E-01
 0.4068251061863E+00 -0.2369313912245E+01 -0.3924977670604E+00  0.2620440268675E-01
 0.6595192996541E+00 -0.2360541900009E+01 -0.3402045251405E+00 -0.5621555639760E-02
 0.9567293702860E+00 -0.2370970794201E+01 -0.2828482889978E+00 -0.4023338450986E-01
 0.1297591394185E+01 -0.2401608265198E+01 -0.2208033774929E+00 -0.7564164212853E-01
 0.1678713710995E+01 -0.2452087745300E+01 -0.1546748091660E+00 -0.1093166022303E+00
 0.2093849851161E+01 -0.2520410142578E+01 -0.8531205955468E-01 -0.1384179434110E+00
 0.2533873042539E+01 -0.2602873720209E+01 -0.1380013573967E-01 -0.1601578113762E+00
 0.2987122341855E+01 -0.2694262421490E+01  0.5857198494583E-01 -0.1722384891966E+00
 0.3440130125642E+01 -0.2788306864864E+01  0.1303646540982E+00 -0.1732754113404E+00
 0.3878597251688E+01 -0.2878355192376E+01  0.2000484148434E+00 -0.1631238215558E+00
-0.7658073840341E+00 -0.3209258500005E+01 -0.7950131886545E+00 -0.3771377106840E-01
-0.7000374796325E+00 -0.3237877831069E+01 -0.7875830738762E+00 -0.3677934018438E-01
-0.6350336922033E+00 -0.3265291444009E+01 -0.7800650388663E+00 -0.3458754706453E-01
-0.5723042137854E+00 -0.3290551347231E+01 -0.7725711237154E+00 -0.3120090776082E-01
-0.5132577831322E+00 -0.3312785738758E+01 -0.7652087157805E+00 -0.2674743188907E-01
-0.4591217228417E+00 -0.3331248825420E+01 -0.7580741209485E+00 -0.2140817832399E-01
-0.4108802474265E+00 -0.3345353296017E+01 -0.7512467198831E+00 -0.1539258618239E-01
-0.3692413435814E+00 -0.3354679998619E+01 -0.7447842795382E+00 -0.8910190857961E-02
-0.3346332637721E+00 -0.3358965683441E+01 -0.7387198004505E+00 -0.2146349595027E-02
-0.3072241757403E+00 -0.3358074883868E+01 -0.7330598228451E+00  0.4753529638390E-02
-0.2869553538586E+00 -0.3351963906721E+01 -0.7277838629607E+00  0.1169012271829E-01
-0.2735785708086E+00 -0.3340644313060E+01 -0.7228445875450E+00  0.1860793385799E-01
-0.2666900398307E+00 -0.3324151426217E+01 -0.7181683039111E+00  0.2548707606827E-01
-0.2657558767599E+00 -0.3302521239184E+01 -0.7136554338230E+00  0.3233158383780E-01
-0.2701263507215E+00 -0.3275777300675E+01 -0.7091807408469E+00  0.3915625448756E-01
-0.2790379461804E+00 -0.3243927826023E+01 -0.7045931649399E+00  0.4597336502156E-01
-0.2916035921984E+00 -0.3206972413248E+01 -0.6997152115158E+00  0.5278001738674E-01
-0.3067915937452E+00 -0.3164918850660E+01 -0.6943420992274E+00  0.5954623906705E-01
-0.3233956580856E+00 -0.3117806860646E+01 -0.6882405140018E+00  0.6620437922965E-01
-0.3399969534894E+00 -0.3065740074829E+01 -0.6811474158137E+00  0.7263957536754E-01
-0.3549206120789E+00 -0.3008925734158E+01 -0.6727692792725E+00  0.7868147624165E-01
-0.3661903550108E+00 -0.2947718137375E+01 -0.6627817083534E+00  0.8409809144754E-01
-0.3714839196953E+00 -0.2882667190282E+01 -0.6508302316935E+00  0.8859202666794E-01
-0.3680941112113E+00 -0.2814568740195E+01 -0.6365325797663E+00  0.9180112285926E-01
-0.3529004669001E+00 -0.2744514838058E+01 -0.6194830702226E+00  0.9330777906410E-01
-0.3223609640878E+00 -0.2673940120389E+01 -0.5992602258250E+00  0.9265259755651E-01
-0.2725358442225E+00 -0.2604651956754E+01 -0.5754375687699E+00  0.8934986908509E-01
-0.1991535764690E+00 -0.2538838117346E+01 -0.5475983469229E+00  0.8291618951081E-01
-0.9773159092380E-01 -0.2479041129653E+01 -0.5153545517948E+00  0.7291860133794E-01
 0.3623351962561E-01 -0.2428086227667E+01 -0.4783705487365E+00  0.5904405068989E-01
 0.2069924650731E+00 -0.2388949166152E+01 -0.4363913467185E+00  0.4118779712747E-01
 0.4181767119462E+00 -0.2364552306858E+01 -0.3892751247830E+00  0.1955264528195E-01
 0.6723418828532E+00 -0.2357485342463E+01 -0.3370286969441E+00 -0.5256640793340E-02
 0.9704617648638E+00 -0.2369660718142E+01 -0.2798397948256E+00 -0.3216791421742E-01
 0.1311447525623E+01 -0.2401950876940E+01 -0.2181006735133E+00 -0.5963104142785E-01
 0.1691729536507E+01 -0.2453867961046E+01 -0.1524276871791E+00 -0.8569063665327E-01
 0.2104981322652E+01 -0.2523339565403E+01 -0.8367164979704E-01 -0.1081661482047E+00
 0.2542135738398E+01 -0.2606669138350E+01 -0.1290668018270E-01 -0.1249302701329E+00
 0.2991748728584E+01 -0.2698738850217E+01  0.5860197654653E-01 -0.1342405323652E+00
 0.3440711702927E+01 -0.2793462597832E+01  0.1294498229479E+00 -0.1350579834723E+00
 0.3875181493169E+01 -0.2884429567610E+01  0.1981503880644E+00 -0.1272931765753E+00
-0.7659006702510E+00 -0.3208746189909E+01 -0.7949293838774E+00 -0.2688257400719E-01
-0.7005299339154E+00 -0.3237192528762E+01 -0.7875445042707E+00 -0.2621656711210E-01
-0.6359158747766E+00 -0.3264443028765E+01 -0.7800717923322E+00 -0.2465532370280E-01
-0.5735464624101E+00 -0.3289559289288E+01 -0.7726211618525E+00 -0.2224336044099E-01
-0.5148112439892E+00 -0.3311676587085E+01 -0.7652975776186E+00 -0.1907080311677E-01
-0.4609244526221E+00 -0.3330050666347E+01 -0.7581950350918E+00 -0.1526500458760E-01
-0.4128658693248E+00 -0.3344089123321E+01 -0.7513910097257E+00 -0.1097356244839E-01
-0.3713475728190E+00 -0.3353361921147E+01 -0.7449419098937E+00 -0.6344632600321E-02
-0.3368083363583E+00 -0.3357591234594E+01 -0.7388799252006E+00 -0.1509848497582E-02
-0.3094302898183E+00 -0.3356625826702E+01 -0.7332112342297E+00  0.3426941831090E-02
-0.2891691762245E+00 -0.3350407229280E+01 -0.7279152919477E+00  0.8394222203917E-02
-0.2757894296681E+00 -0.3338934749927E+01 -0.7229448466917E+00  0.1335141983547E-01
-0.2688966110050E+00 -0.3322234800944E+01 -0.7182262930923E+00  0.1828323266550E-01
-0.2679620919663E+00 -0.3300338079967E+01 -0.7136600450210E+00  0.2319141459484E-01
-0.2723370568831E+00 -0.3273266410539E+01 -0.7091207040512E+00  0.2808543872300E-01
-0.2812546337686E+00 -0.3241029697072E+01 -0.7044568766654E+00  0.3297301539351E-01
-0.2938203490940E+00 -0.3203632517788E+01 -0.6994905837996E+00  0.3785102500643E-01
-0.3089913487485E+00 -0.3161090930704E+01 -0.6940164662321E+00  0.4269697678298E-01
-0.3255467497049E+00 -0.3113456324986E+01 -0.6878006251873E+00  0.4746139652293E-01
-0.3420500786806E+00 -0.3060847609400E+01 -0.6805795477576E+00  0.5206099268266E-01
-0.3568062642391E+00 -0.3003491180226E+01 -0.6720594989075E+00  0.5637274198357E-01
-0.3678169361898E+00 -0.2941764579026E+01 -0.6619163129065E+00  0.6022952484399E-01
-0.3727368204039E+00 -0.2876245116760E+01 -0.6497963971155E+00  0.6341750698564E-01
-0.3688362045261E+00 -0.2807759865149E+01 -0.6353192234021E+00  0.6567672901966E-01
-0.3529745744974E+00 -0.2737434514011E+01 -0.6180818269118E+00  0.6670797971235E-01
-0.3215947850111E+00 -0.2666738010055E+01 -0.5976665679192E+00  0.6618280880170E-01
-0.2707502369520E+00 -0.2597511079837E+01 -0.5736522719059E+00  0.6375492373284E-01
-0.1961756819831E+00 -0.2531971065968E+01 -0.5456293577208E+00  0.5908107491841E-01
-0.9341417390829E-01 -0.2472681670859E+01 -0.5132191766009E+00  0.5185592063111E-01
 0.4198592226413E-01 -0.2422474775213E+01 -0.4760977776843E+00  0.4186197335055E-01
 0.2141915402543E+00 -0.2384311647087E+01 -0.4340240278341E+00  0.2903268406620E-01
 0.4267157959270E+00 -0.2361073809256E+01 -0.3868716084305E+00  0.1352257280796E-01
 0.6819650380720E+00 -0.2355282446572E+01 -0.3346634866868E+00 -0.4226971667725E-02
 0.9807448847083E+00 -0.2368759190310E+01 -0.2776028652570E+00 -0.2344340582817E-01
 0.1321801687468E+01 -0.2402276700289E+01 -0.2160950057842E+00 -0.4301827760318E-01
 0.1701437346311E+01 -0.2455258870174E+01 -0.1507643070192E+00 -0.6156159054553E-01
 0.2113270230120E+01 -0.2525581303825E+01 -0.8246221596978E-01 -0.7753109467839E-01
 0.2548280964548E+01 -0.2609553464809E+01 -0.1225450023475E-01 -0.8942900668399E-01
 0.2995188279209E+01 -0.2702131648020E+01  0.5861132711111E-01 -0.9603425893879E-01
 0.3441150030255E+01 -0.2797366015094E+01  0.1287568049507E+00 -0.9662475650664E-01
 0.3872659872668E+01 -0.2889024153193E+01  0.1967271468264E+00 -0.9114875189007E-01
-0.7659627900774E+00 -0.3208405350776E+01 -0.7948736400152E+00 -0.1610722648879E-01
-0.7008575509565E+00 -0.3236736450079E+01 -0.7875188119420E+00 -0.1570819277193E-01
-0.6365025613356E+00 -0.3263878142398E+01 -0.7800761523707E+00 -0.1477314899889E-01
-0.5743726299644E+00 -0.3288898263459E+01 -0.7726541901982E+00 -0.1332875508218E-01
-0.5158447469816E+00 -0.3310936727430E+01 -0.7653563062869E+00 -0.1142857397755E-01
-0.4621245065573E+00 -0.3329250330117E+01 -0.7582749786340E+00 -0.9148239645309E-02
-0.4141886722146E+00 -0.3343243391766E+01 -0.7514864239941E+00 -0.6575518030792E-02
-0.3727518907782E+00 -0.3352478781981E+01 -0.7450461456538E+00 -0.3798699696582E-02
-0.3382597584086E+00 -0.3356669113175E+01 -0.7389857853285E+00 -0.8964555926054E-03
-0.3109035448250E+00 -0.3355652745611E+01 -0.7333112690144E+00  0.2068917282410E-02
-0.2906485207690E+00 -0.3349361417020E+01 -0.7280019984059E+00  0.5054286939981E-02
-0.2772674964213E+00 -0.3337786275814E+01 -0.7230107652208E+00  0.8034940680414E-02
-0.2703722404592E+00 -0.3320947776127E+01 -0.7182640140203E+00  0.1100126026746E-01
-0.2694376278656E+00 -0.3298873060832E+01 -0.7136621483738E+00  0.1395384661665E-01
-0.2738154595257E+00 -0.3271582787974E+01 -0.7090796600660E+00  0.1689794325666E-01
-0.2827366280895E+00 -0.3239087991946E+01 -0.7043649345029E+00  0.1983775023258E-01
-0.2953017173752E+00 -0.3201396598913E+01 -0.6993396736786E+00  0.2277097311486E-01
-0.3104604154251E+00 -0.3158530231991E+01 -0.6937981398216E+00  0.2568368198515E-01
-0.3269820853980E+00 -0.3110548131756E+01 -0.6875060536754E+00  0.2854572912198E-01
-0.3434184623292E+00 -0.3057579482417E+01 -0.6801995990849E+00  0.3130663909137E-01
-0.3580609782842E+00 -0.2999863552032E+01 -0.6715849160707E+00  0.3389205946955E-01
-0.3688965207096E+00 -0.2937793481032E+01 -0.6613380102031E+00  0.3620115393190E-01
-0.3735644857492E+00 -0.2871964943247E+01 -0.6491058954717E+00  0.3810506013549E-01
-0.3693202052649E+00 -0.2803225889562E+01 -0.6345092284202E+00  0.3944729754742E-01
-0.3530099195063E+00 -0.2732724444767E+01 -0.6171468820510E+00  0.4004797791257E-01
-0.3210666140296E+00 -0.2661952355951E+01 -0.5966038028861E+00  0.3970992014172E-01
-0.2695394588993E+00 -0.2592772398456E+01 -0.5724623800014E+00  0.3822562298139E-01
-0.1941678568525E+00 -0.2527421289934E+01 -0.5443178374683E+00  0.3538997316026E-01
-0.9051252664060E-01 -0.2468476339729E+01 -0.5117977809003E+00  0.3102135242632E-01
 0.4584301631464E-01 -0.2418773200010E+01 -0.4745860438109E+00  0.2499173301044E-01
 0.2190093052657E+00 -0.2381262753916E+01 -0.4324506961741E+00  0.1726449330421E-01
 0.4324203044509E+00 -0.2358798661323E+01 -0.3852756771155E+00  0.7936187279633E-02
 0.6883831446998E+00 -0.2353856104246E+01 -0.3330945968728E+00 -0.2724636584590E-02
 0.9875923814507E+00 -0.2368196352317E+01 -0.2761207982878E+00 -0.1425183677964E-01
 0.1328686323254E+01 -0.2402526331624E+01 -0.2147680048743E+00 -0.2597993508854E-01
 0.1707883569932E+01 -0.2456212384462E+01 -0.1496657651363E+00 -0.3707766692389E-01
 0.2118767972746E+01 -0.2527096847634E+01 -0.8166577619455E-01 -0.4662578820823E-01
 0.2552353412995E+01 -0.2611494179512E+01 -0.1182815347954E-01 -0.5373424537064E-01
 0.2997467191150E+01 -0.2704410305257E+01  0.5861137805202E-01 -0.5767971830227E-01
 0.3441443460153E+01 -0.2799985672525E+01  0.1282915594373E+00 -0.5803686735506E-01
 0.3870997960958E+01 -0.2892105663613E+01  0.1957784623863E+00 -0.5477942593210E-01
-0.7659938283726E+00 -0.3208235134591E+01 -0.7948458044369E+00 -0.5365357368584E-02
-0.7010211562875E+00 -0.3236508639994E+01 -0.7875059709911E+00 -0.5232440466034E-02
-0.6367954794363E+00 -0.3263595908750E+01 -0.7800782892614E+00 -0.4921040220858E-02
-0.5747851211631E+00 -0.3288567847981E+01 -0.7726706053425E+00 -0.4440035413490E-02
-0.5163608637212E+00 -0.3310566666028E+01 -0.7653855173550E+00 -0.3807196063179E-02
-0.4627240082989E+00 -0.3328849691966E+01 -0.7583147513527E+00 -0.3047605075106E-02
-0.4148497919478E+00 -0.3342819642952E+01 -0.7515338981787E+00 -0.2190386471959E-02
-0.3734540984647E+00 -0.3352035890087E+01 -0.7450980088131E+00 -0.1264870144693E-02
-0.3389858787781E+00 -0.3356206310702E+01 -0.7390384489086E+00 -0.2972279046431E-03
-0.3116409222425E+00 -0.3355164097007E+01 -0.7333610147777E+00  0.6917771327556E-03
-0.2913892278974E+00 -0.3348836106824E+01 -0.7280450777931E+00  0.1687731174729E-02
-0.2780077741981E+00 -0.3337209412344E+01 -0.7230434480827E+00  0.2682335564864E-02
-0.2711114262189E+00 -0.3320301483758E+01 -0.7182825926986E+00  0.3672311576415E-02
-0.2701768100935E+00 -0.3298137679474E+01 -0.7136629085479E+00  0.4657784252876E-02
-0.2745560367371E+00 -0.3270738070332E+01 -0.7090588319797E+00  0.5640427874883E-02
-0.2834788817178E+00 -0.3238114256963E+01 -0.7043186382313E+00  0.6621571174258E-02
-0.2960434552387E+00 -0.3200275847851E+01 -0.6992638710378E+00  0.7600378613147E-02
-0.3111957109171E+00 -0.3157247264222E+01 -0.6936886053645E+00  0.8572134039833E-02
-0.3277001269882E+00 -0.3109091694372E+01 -0.6873583745145E+00  0.9526710782501E-02
-0.3441025335548E+00 -0.3055943487366E+01 -0.6800092143171E+00  0.1044720010660E-01
-0.3586876063477E+00 -0.2998048377498E+01 -0.6713472067731E+00  0.1130872804065E-01
-0.3694348574261E+00 -0.2935807335529E+01 -0.6610484484414E+00  0.1207758841732E-01
-0.3739760218194E+00 -0.2869825244216E+01 -0.6487602628744E+00  0.1271073371799E-01
-0.3695589707708E+00 -0.2800960512363E+01 -0.6341039060757E+00  0.1315592011554E-01
-0.3530233589386E+00 -0.2730372484206E+01 -0.6166791778182E+00  0.1335312546688E-01
-0.3207973018817E+00 -0.2659564284112E+01 -0.5960723260810E+00  0.1323660554217E-01
-0.2689279538606E+00 -0.2590409653934E+01 -0.5718675300804E+00  0.1273724071148E-01
-0.1931571823846E+00 -0.2525154895812E+01 -0.5436624237406E+00  0.1178680139352E-01
-0.8905471308682E-01 -0.2466383969052E+01 -0.5110877440435E+00  0.1032501476549E-01
 0.4777817428696E-01 -0.2416934214034E+01 -0.4738312150100E+00  0.8309617251483E-02
 0.2214236509711E+00 -0.2379751105209E+01 -0.4316654972800E+00  0.5728953064602E-02
 0.4352760345354E+00 -0.2357674183538E+01 -0.3844796355297E+00  0.2615844953138E-02
 0.6915929409967E+00 -0.2353155535087E+01 -0.3323125237699E+00 -0.9395768027929E-03
 0.9910137125135E+00 -0.2367926307282E+01 -0.2753825230573E+00 -0.4781503219356E-02
 0.1332123184976E+01 -0.2402660797475E+01 -0.2141075256903E+00 -0.8688048178619E-02
 0.1711099005263E+01 -0.2456696953765E+01 -0.1491195919224E+00 -0.1238258397081E-01
 0.2121508431016E+01 -0.2527860891312E+01 -0.8127049327030E-01 -0.1555971267548E-01
 0.2554382385066E+01 -0.2612469855974E+01 -0.1161749435473E-01 -0.1792417880553E-01
 0.2998602465794E+01 -0.2705554651619E+01  0.5860956370819E-01 -0.1923641917880E-01
 0.3441590576238E+01 -0.2801300703846E+01  0.1280579763867E+00 -0.1935596469964E-01
 0.3870172760435E+01 -0.2893651949460E+01  0.1953041651053E+00 -0.1827484912786E-01
-0.7659938283765E+00 -0.3208235134608E+01 -0.7948458044410E+00  0.5365357424200E-02
-0.7010211562903E+00 -0.3236508640012E+01 -0.7875059709953E+00  0.5232440640825E-02
-0.6367954794366E+00 -0.3263595908770E+01 -0.7800782892654E+00  0.4921040498487E-02
-0.5747851211598E+00 -0.3288567848003E+01 -0.7726706053463E+00  0.4440035767797E-02
-0.5163608637135E+00 -0.3310566666053E+01 -0.7653855173584E+00  0.3807196459775E-02
-0.4627240082862E+00 -0.3328849691993E+01 -0.7583147513556E+00  0.3047605473630E-02
-0.4148497919299E+00 -0.3342819642982E+01 -0.7515338981811E+00  0.2190386828560E-02
-0.3734540984416E+00 -0.3352035890120E+01 -0.7450980088151E+00  0.1264870414387E-02
-0.3389858787503E+00 -0.3356206310738E+01 -0.7390384489102E+00  0.2972280429989E-03
-0.3116409222101E+00 -0.3355164097046E+01 -0.7333610147792E+00 -0.6917771685054E-03
-0.2913892278608E+00 -0.3348836106869E+01 -0.7280450777946E+00 -0.1687731425475E-02
-0.2780077741574E+00 -0.3337209412394E+01 -0.7230434480845E+00 -0.2682336069899E-02
-0.2711114261741E+00 -0.3320301483815E+01 -0.7182825927011E+00 -0.3672312373994E-02
-0.2701768100446E+00 -0.3298137679541E+01 -0.7136629085515E+00 -0.4657785380796E-02
-0.2745560366841E+00 -0.3270738070410E+01 -0.7090588319847E+00 -0.5640429371119E-02
-0.2834788816608E+00 -0.3238114257055E+01 -0.7043186382384E+00 -0.6621573077001E-02
-0.2960434551779E+00 -0.3200275847960E+01 -0.6992638710474E+00 -0.7600380959875E-02
-0.3111957108531E+00 -0.3157247264350E+01 -0.6936886053774E+00 -0.8572136866518E-02
-0.3277001269220E+00 -0.3109091694523E+01 -0.6873583745315E+00 -0.9526714120629E-02
-0.3441025334885E+00 -0.3055943487541E+01 -0.6800092143389E+00 -0.1044720398037E-01
-0.3586876062840E+00 -0.2998048377700E+01 -0.6713472068006E+00 -0.1130873246206E-01
-0.3694348573692E+00 -0.2935807335757E+01 -0.6610484484756E+00 -0.1207759338068E-01
-0.3739760217746E+00 -0.2869825244471E+01 -0.6487602629163E+00 -0.1271073919331E-01
-0.3695589707447E+00 -0.2800960512642E+01 -0.6341039061262E+00 -0.1315592604061E-01
-0.3530233589395E+00 -0.2730372484506E+01 -0.6166791778783E+00 -0.1335313173971E-01
-0.3207973019190E+00 -0.2659564284427E+01 -0.5960723261514E+00 -0.1323661201271E-01
-0.2689279539452E+00 -0.2590409654256E+01 -0.5718675301617E+00 -0.1273724717508E-01
-0.1931571825277E+00 -0.2525154896132E+01 -0.5436624238331E+00 -0.1178680758627E-01
-0.8905471329879E-01 -0.2466383969356E+01 -0.5110877441467E+00 -0.1032502036346E-01
 0.4777817399780E-01 -0.2416934214310E+01 -0.4738312151230E+00 -0.8309621877430E-02
 0.2214236506002E+00 -0.2379751105443E+01 -0.4316654974008E+00 -0.5728956303441E-02
 0.4352760340842E+00 -0.2357674183717E+01 -0.3844796356558E+00 -0.2615846380902E-02
 0.6915929404761E+00 -0.2353155535202E+01 -0.3323125238970E+00  0.9395775799779E-03
 0.9910137119447E+00 -0.2367926307328E+01 -0.2753825231803E+00  0.4781506512463E-02
 0.1332123184392E+01 -0.2402660797454E+01 -0.2141075258027E+00  0.8688054158211E-02
 0.1711099004707E+01 -0.2456696953682E+01 -0.1491195920171E+00  0.1238259261115E-01
 0.2121508430536E+01 -0.2527860891179E+01 -0.8127049333962E-01  0.1555972371305E-01
 0.2554382384711E+01 -0.2612469855801E+01 -0.1161749439116E-01  0.1792419172478E-01
 0.2998602465605E+01 -0.2705554651415E+01  0.5860956371138E-01  0.1923643323871E-01
 0.3441590576242E+01 -0.2801300703609E+01  0.1280579764348E+00  0.1935597899599E-01
 0.3870172760635E+01 -0.2893651949177E+01  0.1953041652017E+00  0.1827486269364E-01
-0.7659627900890E+00 -0.3208405350826E+01 -0.7948736400275E+00  0.1610722654465E-01
-0.7008575509647E+00 -0.3236736450132E+01 -0.7875188119544E+00  0.1570819294719E-01
-0.6365025613365E+00 -0.3263878142457E+01 -0.7800761523827E+00  0.1477314927718E-01
-0.5743726299546E+00 -0.3288898263525E+01 -0.7726541902094E+00  0.1332875543727E-01
-0.5158447469584E+00 -0.3310936727503E+01 -0.7653563062970E+00  0.1142857437499E-01
-0.4621245065191E+00 -0.3329250330198E+01 -0.7582749786427E+00  0.9148240044685E-02
-0.4141886721608E+00 -0.3343243391856E+01 -0.7514864240014E+00  0.6575518388251E-02
-0.3727518907092E+00 -0.3352478782079E+01 -0.7450461456598E+00  0.3798699967202E-02
-0.3382597583252E+00 -0.3356669113283E+01 -0.7389857853334E+00  0.8964557321003E-03
-0.3109035447279E+00 -0.3355652745730E+01 -0.7333112690188E+00 -0.2068917316601E-02
-0.2906485206592E+00 -0.3349361417153E+01 -0.7280019984105E+00 -0.5054287188518E-02
-0.2772674962993E+00 -0.3337786275964E+01 -0.7230107652263E+00 -0.8034941182342E-02
-0.2703722403252E+00 -0.3320947776299E+01 -0.7182640140278E+00 -0.1100126106080E-01
-0.2694376277193E+00 -0.3298873061031E+01 -0.7136621483845E+00 -0.1395384773899E-01
-0.2738154593673E+00 -0.3271582788208E+01 -0.7090796600811E+00 -0.1689794474586E-01
-0.2827366279188E+00 -0.3239087992222E+01 -0.7043649345241E+00 -0.1983775212672E-01
-0.2953017171929E+00 -0.3201396599240E+01 -0.6993396737075E+00 -0.2277097545143E-01
-0.3104604152332E+00 -0.3158530232377E+01 -0.6937981398604E+00 -0.2568368480018E-01
-0.3269820851998E+00 -0.3110548132208E+01 -0.6875060537262E+00 -0.2854573244724E-01
-0.3434184621303E+00 -0.3057579482942E+01 -0.6801995991502E+00 -0.3130664295141E-01
-0.3580609780934E+00 -0.2999863552635E+01 -0.6715849161532E+00 -0.3389206387694E-01
-0.3688965205387E+00 -0.2937793481716E+01 -0.6613380103056E+00 -0.3620115888172E-01
-0.3735644856141E+00 -0.2871964944010E+01 -0.6491058955973E+00 -0.3810506559873E-01
-0.3693202051860E+00 -0.2803225890399E+01 -0.6345092285718E+00 -0.3944730346313E-01
-0.3530099195080E+00 -0.2732724445667E+01 -0.6171468822312E+00 -0.4004798418017E-01
-0.3210666141406E+00 -0.2661952356896E+01 -0.5966038030975E+00 -0.3970992661274E-01
-0.2695394591516E+00 -0.2592772399424E+01 -0.5724623802455E+00 -0.3822562945296E-01
-0.1941678572797E+00 -0.2527421290894E+01 -0.5443178377457E+00 -0.3538997936996E-01
-0.9051252727425E-01 -0.2468476340645E+01 -0.5117977812101E+00 -0.3102135805153E-01
 0.4584301544894E-01 -0.2418773200840E+01 -0.4745860441501E+00 -0.2499173767436E-01
 0.2190093041542E+00 -0.2381262754621E+01 -0.4324506965373E+00 -0.1726449659140E-01
 0.4324203030988E+00 -0.2358798661864E+01 -0.3852756774941E+00 -0.7936188764163E-02
 0.6883831431387E+00 -0.2353856104595E+01 -0.3330945972547E+00  0.2724637299874E-02
 0.9875923797443E+00 -0.2368196352459E+01 -0.2761207986575E+00  0.1425184001020E-01
 0.1328686321500E+01 -0.2402526331562E+01 -0.2147680052126E+00  0.2597994100999E-01
 0.1707883568259E+01 -0.2456212384216E+01 -0.1496657654215E+00  0.3707767551540E-01
 0.2118767971302E+01 -0.2527096847236E+01 -0.8166577640356E-01  0.4662579920849E-01
 0.2552353411928E+01 -0.2611494178995E+01 -0.1182815358970E-01  0.5373425826391E-01
 0.2997467190584E+01 -0.2704410304646E+01  0.5861137806100E-01  0.5767973234292E-01
 0.3441443460164E+01 -0.2799985671815E+01  0.1282915595815E+00  0.5803688163086E-01
 0.3870997961558E+01 -0.2892105662766E+01  0.1957784626757E+00  0.5477943946542E-01
-0.7659006702703E+00 -0.3208746189993E+01 -0.7949293838980E+00  0.2688257406355E-01
-0.7005299339291E+00 -0.3237192528851E+01 -0.7875445042914E+00  0.2621656728830E-01
-0.6359158747781E+00 -0.3264443028863E+01 -0.7800717923523E+00  0.2465532398240E-01
-0.5735464623937E+00 -0.3289559289398E+01 -0.7726211618712E+00  0.2224336079766E-01
-0.5148112439505E+00 -0.3311676587207E+01 -0.7652975776353E+00  0.1907080351589E-01
-0.4609244525583E+00 -0.3330050666483E+01 -0.7581950351062E+00  0.1526500498865E-01
-0.4128658692351E+00 -0.3344089123471E+01 -0.7513910097378E+00  0.1097356280753E-01
-0.3713475727040E+00 -0.3353361921311E+01 -0.7449419099036E+00  0.6344632872768E-02
-0.3368083362192E+00 -0.3357591234774E+01 -0.7388799252088E+00  0.1509848639337E-02
-0.3094302896568E+00 -0.3356625826900E+01 -0.7332112342370E+00 -0.3426941862185E-02
-0.2891691760419E+00 -0.3350407229500E+01 -0.7279152919552E+00 -0.8394222448057E-02
-0.2757894294653E+00 -0.3338934750175E+01 -0.7229448467008E+00 -0.1335142033121E-01
-0.2688966107821E+00 -0.3322234801229E+01 -0.7182262931047E+00 -0.1828323345037E-01
-0.2679620917233E+00 -0.3300338080298E+01 -0.7136600450385E+00 -0.2319141570605E-01
-0.2723370566196E+00 -0.3273266410928E+01 -0.7091207040763E+00 -0.2808544019813E-01
-0.2812546334846E+00 -0.3241029697532E+01 -0.7044568767005E+00 -0.3297301727042E-01
-0.2938203487907E+00 -0.3203632518331E+01 -0.6994905838476E+00 -0.3785102732268E-01
-0.3089913484290E+00 -0.3161090931345E+01 -0.6940164662964E+00 -0.4269697957472E-01
-0.3255467493747E+00 -0.3113456325738E+01 -0.6878006252716E+00 -0.4746139982241E-01
-0.3420500783490E+00 -0.3060847610274E+01 -0.6805795478660E+00 -0.5206099651515E-01
-0.3568062639204E+00 -0.3003491181230E+01 -0.6720594990446E+00 -0.5637274636281E-01
-0.3678169359038E+00 -0.2941764580165E+01 -0.6619163130770E+00 -0.6022952976652E-01
-0.3727368201771E+00 -0.2876245118032E+01 -0.6497963973245E+00 -0.6341751242454E-01
-0.3688362043919E+00 -0.2807759866545E+01 -0.6353192236544E+00 -0.6567673491632E-01
-0.3529745744967E+00 -0.2737434515513E+01 -0.6180818272121E+00 -0.6670798596908E-01
-0.3215947851915E+00 -0.2666738011635E+01 -0.5976665682713E+00 -0.6618281527334E-01
-0.2707502373669E+00 -0.2597511081456E+01 -0.5736522723127E+00 -0.6375493021992E-01
-0.1961756826886E+00 -0.2531971067576E+01 -0.5456293581834E+00 -0.5908108116169E-01
-0.9341417495759E-01 -0.2472681672394E+01 -0.5132191771180E+00 -0.5185592631038E-01
 0.4198592082795E-01 -0.2422474776610E+01 -0.4760977782508E+00 -0.4186197809019E-01
 0.2141915384075E+00 -0.2384311648275E+01 -0.4340240284410E+00 -0.2903268744993E-01
 0.4267157936772E+00 -0.2361073810171E+01 -0.3868716090636E+00 -0.1352257440612E-01
 0.6819650354710E+00 -0.2355282447167E+01 -0.3346634873260E+00  0.4226972258808E-02
 0.9807448818619E+00 -0.2368759190559E+01 -0.2776028658761E+00  0.2344340893314E-01
 0.1321801684539E+01 -0.2402276700196E+01 -0.2160950063514E+00  0.4301828340776E-01
 0.1701437343515E+01 -0.2455258869773E+01 -0.1507643074982E+00  0.6156159903846E-01
 0.2113270227704E+01 -0.2525581303169E+01 -0.8246221632165E-01  0.7753110560360E-01
 0.2548280962760E+01 -0.2609553463955E+01 -0.1225450042145E-01  0.8942901952498E-01
 0.2995188278260E+01 -0.2702131647007E+01  0.5861132712388E-01  0.9603427294098E-01
 0.3441150030275E+01 -0.2797366013918E+01  0.1287568051899E+00  0.9662477074157E-01
 0.3872659873676E+01 -0.2889024151788E+01  0.1967271473089E+00  0.9114876535868E-01
-0.7658073840610E+00 -0.3209258500122E+01 -0.7950131886832E+00  0.3771377112551E-01
-0.7000374796517E+00 -0.3237877831195E+01 -0.7875830739052E+00  0.3677934036199E-01
-0.6350336922054E+00 -0.3265291444147E+01 -0.7800650388944E+00  0.3458754734611E-01
-0.5723042137623E+00 -0.3290551347384E+01 -0.7725711237415E+00  0.3120090811985E-01
-0.5132577830778E+00 -0.3312785738929E+01 -0.7652087158039E+00  0.2674743229069E-01
-0.4591217227523E+00 -0.3331248825610E+01 -0.7580741209686E+00  0.2140817872753E-01
-0.4108802473009E+00 -0.3345353296226E+01 -0.7512467198998E+00  0.1539258654399E-01
-0.3692413434204E+00 -0.3354679998848E+01 -0.7447842795518E+00  0.8910191133085E-02
-0.3346332635777E+00 -0.3358965683692E+01 -0.7387198004617E+00  0.2146349740108E-02
-0.3072241755147E+00 -0.3358074884144E+01 -0.7330598228551E+00 -0.4753529664911E-02
-0.2869553536037E+00 -0.3351963907028E+01 -0.7277838629711E+00 -0.1169012295589E-01
-0.2735785705257E+00 -0.3340644313406E+01 -0.7228445875575E+00 -0.1860793434449E-01
-0.2666900395199E+00 -0.3324151426613E+01 -0.7181683039282E+00 -0.2548707684049E-01
-0.2657558764209E+00 -0.3302521239644E+01 -0.7136554338474E+00 -0.3233158493240E-01
-0.2701263503539E+00 -0.3275777301216E+01 -0.7091807408816E+00 -0.3915625594162E-01
-0.2790379457842E+00 -0.3243927826663E+01 -0.7045931649886E+00 -0.4597336687264E-01
-0.2916035917751E+00 -0.3206972414005E+01 -0.6997152115826E+00 -0.5278001967243E-01
-0.3067915932987E+00 -0.3164918851554E+01 -0.6943420993170E+00 -0.5954624182381E-01
-0.3233956576237E+00 -0.3117806861695E+01 -0.6882405141193E+00 -0.6620438249032E-01
-0.3399969530251E+00 -0.3065740076050E+01 -0.6811474159649E+00 -0.7263957915855E-01
-0.3549206116318E+00 -0.3008925735562E+01 -0.6727692794638E+00 -0.7868148057841E-01
-0.3661903546082E+00 -0.2947718138968E+01 -0.6627817085915E+00 -0.8409809632884E-01
-0.3714839193739E+00 -0.2882667192062E+01 -0.6508302319854E+00 -0.8859203206974E-01
-0.3680941110179E+00 -0.2814568742151E+01 -0.6365325801189E+00 -0.9180112872669E-01
-0.3529004668915E+00 -0.2744514840166E+01 -0.6194830706424E+00 -0.9330778530380E-01
-0.3223609643308E+00 -0.2673940122609E+01 -0.5992602263177E+00 -0.9265260402819E-01
-0.2725358447920E+00 -0.2604651959032E+01 -0.5754375693395E+00 -0.8934987559438E-01
-0.1991535774432E+00 -0.2538838119613E+01 -0.5475983475711E+00 -0.8291619580332E-01
-0.9773159237815E-01 -0.2479041131824E+01 -0.5153545525198E+00 -0.7291860709729E-01
 0.3623351762908E-01 -0.2428086229646E+01 -0.4783705495317E+00 -0.5904405554232E-01
 0.2069924624996E+00 -0.2388949167842E+01 -0.4363913475713E+00 -0.4118780065546E-01
 0.4181767088048E+00 -0.2364552308169E+01 -0.3892751256735E+00 -0.1955264705058E-01
 0.6723418792141E+00 -0.2357485343325E+01 -0.3370286978443E+00  0.5256641197473E-02
 0.9704617608733E+00 -0.2369660718518E+01 -0.2798397956989E+00  0.3216791713269E-01
 0.1311447521510E+01 -0.2401950876834E+01 -0.2181006743148E+00  0.5963104705554E-01
 0.1691729532573E+01 -0.2453867960503E+01 -0.1524276878573E+00  0.8569064499665E-01
 0.2104981319247E+01 -0.2523339564499E+01 -0.8367165029724E-01  0.1081661590160E+00
 0.2542135735875E+01 -0.2606669137167E+01 -0.1290668045060E-01  0.1249302828948E+00
 0.2991748727244E+01 -0.2698738848812E+01  0.5860197655958E-01  0.1342405463096E+00
 0.3440711702956E+01 -0.2793462596199E+01  0.1294498232803E+00  0.1350579976461E+00
 0.3875181494596E+01 -0.2884429565659E+01  0.1981503887401E+00  0.1272931899473E+00
-0.7656828083627E+00 -0.3209943640512E+01 -0.7951253016232E+00  0.4862327008900E-01
-0.6993789174788E+00 -0.3238793885827E+01 -0.7876345723979E+00  0.4741833371209E-01
-0.6338533543404E+00 -0.3266424798581E+01 -0.7800556422080E+00  0.4458970873042E-01
-0.5706421900902E+00 -0.3291875150766E+01 -0.7725034796824E+00  0.4021814644662E-01
-0.5111804249089E+00 -0.3314263473446E+01 -0.7650887910717E+00  0.3447147114731E-01
-0.4567130747403E+00 -0.3332842006403E+01 -0.7579110275225E+00  0.2758731667019E-01
-0.4082300804858E+00 -0.3347030573192E+01 -0.7510521419270E+00  0.1983983430305E-01
-0.3664335123506E+00 -0.3356425001067E+01 -0.7445717137785E+00  0.1150207115376E-01
-0.3317370520088E+00 -0.3360781911044E+01 -0.7385038036152E+00  0.2814149595884E-02
-0.3042897774090E+00 -0.3359987172290E+01 -0.7328554008603E+00 -0.6036992405048E-02
-0.2840133429899E+00 -0.3354016943181E+01 -0.7276060680763E+00 -0.1492507119246E-01
-0.2706424624679E+00 -0.3342899143979E+01 -0.7227083320586E+00 -0.2378100893720E-01
-0.2637608233790E+00 -0.3326680925036E+01 -0.7180883603834E+00 -0.3258188465920E-01
-0.2628275355878E+00 -0.3305405267335E+01 -0.7136465712188E+00 -0.4133558976042E-01
-0.2671916683184E+00 -0.3279097974545E+01 -0.7092579391414E+00 -0.5006376559092E-01
-0.2760941887774E+00 -0.3247765019997E+01 -0.7047718522568E+00 -0.5878471639532E-01
-0.2886578750328E+00 -0.3211399439226E+01 -0.7000114732827E+00 -0.6749721100819E-01
-0.3038658586316E+00 -0.3169998140151E+01 -0.6947728101094E+00 -0.7616528685007E-01
-0.3205312241347E+00 -0.3123585496109E+01 -0.6888233543130E+00 -0.8470470984608E-01
-0.3372585746649E+00 -0.3072245024132E+01 -0.6819007299204E+00 -0.9297077735864E-01
-0.3523999014610E+00 -0.3016158710690E+01 -0.6737117324693E+00 -0.1007476835032E+00
-0.3640083361655E+00 -0.2955650157073E+01 -0.6639317085411E+00 -0.1077405460248E+00
-0.3697923249271E+00 -0.2891232993243E+01 -0.6522050733527E+00 -0.1135704014686E+00
-0.3670748452079E+00 -0.2823661617413E+01 -0.6381473020334E+00 -0.1177747150223E+00
-0.3527625013774E+00 -0.2753983264614E+01 -0.6213491624572E+00 -0.1198188604566E+00
-0.3233340185669E+00 -0.2683586633518E+01 -0.6013841393784E+00 -0.1191130307867E+00
-0.2748596712166E+00 -0.2614234103755E+01 -0.5778187636045E+00 -0.1150313446692E+00
-0.2030608414065E+00 -0.2548073078941E+01 -0.5502267922685E+00 -0.1069475644565E+00
-0.1034224294287E+00 -0.2487616435124E+01 -0.5182077806324E+00 -0.9429581940777E-01
 0.2862620052851E-01 -0.2435678692137E+01 -0.4814105054952E+00 -0.7665905512901E-01
 0.1974458774422E+00 -0.2395252858437E+01 -0.4395614027489E+00 -0.5388278742753E-01
 0.4068251021616E+00 -0.2369313913981E+01 -0.3924977682126E+00 -0.2620440468290E-01
 0.6595192949792E+00 -0.2360541901168E+01 -0.3402045263072E+00  0.5621555793330E-02
 0.9567293651463E+00 -0.2370970794731E+01 -0.2828482901318E+00  0.4023338716981E-01
 0.1297591388874E+01 -0.2401608265102E+01 -0.2208033785360E+00  0.7564164751745E-01
 0.1678713705902E+01 -0.2452087744635E+01 -0.1546748100514E+00  0.1093166103709E+00
 0.2093849846744E+01 -0.2520410141442E+01 -0.8531206021090E-01  0.1384179540679E+00
 0.2533873039261E+01 -0.2602873718711E+01 -0.1380013609562E-01  0.1601578240312E+00
 0.2987122340111E+01 -0.2694262419704E+01  0.5857198495410E-01  0.1722385030639E+00
 0.3440130125681E+01 -0.2788306862788E+01  0.1303646545212E+00  0.1732754254335E+00
 0.3878597253552E+01 -0.2878355189893E+01  0.2000484157128E+00  0.1631238347996E+00
-0.7655267873234E+00 -0.3210803589296E+01 -0.7952660871743E+00  0.5963364278775E-01
-0.6985524915931E+00 -0.3239942913327E+01 -0.7876990927216E+00  0.5815543491358E-01
-0.6323711863656E+00 -0.3267845154312E+01 -0.7800432797590E+00  0.5468156288798E-01
-0.5685553015686E+00 -0.3293531802303E+01 -0.7724174322842E+00  0.4931138161877E-01
-0.5085737626721E+00 -0.3316108938047E+01 -0.7649365515423E+00  0.4225515735670E-01
-0.4536940798112E+00 -0.3334826493389E+01 -0.7577041259308E+00  0.3381094025368E-01
-0.4049130284365E+00 -0.3349113789333E+01 -0.7508053747418E+00  0.2432138232401E-01
-0.3629245153939E+00 -0.3358586146139E+01 -0.7443021433976E+00  0.1412580261717E-01
-0.3281231180177E+00 -0.3363025733693E+01 -0.7382297813427E+00  0.3520382162381E-02
-0.3006332857405E+00 -0.3362345583208E+01 -0.7325957847062E+00 -0.7266524987453E-02
-0.2803516252855E+00 -0.3356546899755E+01 -0.7273797158470E+00 -0.1808283915655E-01
-0.2669912519749E+00 -0.3345678073336E+01 -0.7225338758288E+00 -0.2884767435502E-01
-0.2601201065638E+00 -0.3329800939054E+01 -0.7179842198223E+00 -0.3953709034445E-01
-0.2591885526391E+00 -0.3308967088223E+01 -0.7136311388063E+00 -0.5016485722526E-01
-0.2635441973911E+00 -0.3283205065836E+01 -0.7093498632155E+00 -0.6076139181546E-01
-0.2724336257869E+00 -0.3252518057087E+01 -0.7049903470800E+00 -0.7135287149568E-01
-0.2849918934651E+00 -0.3216891019299E+01 -0.7003765929892E+00 -0.8194155554548E-01
-0.3002205801778E+00 -0.3176307495236E+01 -0.6953056254436E+00 -0.9248737625922E-01
-0.3169568671973E+00 -0.3130773005527E+01 -0.6895459848198E+00 -0.1028915367228E+00
-0.3338345080391E+00 -0.3080346335819E+01 -0.6828361789466E+00 -0.1129816981028E+00
-0.3492389365269E+00 -0.3025178367464E+01 -0.6748834708547E+00 -0.1224989964401E+00
-0.3612599688595E+00 -0.2965554806544E+01 -0.6653629649954E+00 -0.1310882039067E+00
-0.3676444694750E+00 -0.2901944372877E+01 -0.6539177782145E+00 -0.1382913707812E+00
-0.3657533555957E+00 -0.2835049963670E+01 -0.6401606733922E+00 -0.1435479862954E+00
-0.3525275782318E+00 -0.2765862874330E+01 -0.6236780998059E+00 -0.1462082504771E+00
-0.3244727124073E+00 -0.2695714103865E+01 -0.6040373722553E+00 -0.1455527878569E+00
-0.2776730167751E+00 -0.2626309002860E+01 -0.5807964125816E+00 -0.1408147792152E+00
-0.2078430730129E+00 -0.2559743044535E+01 -0.5535172317576E+00 -0.1312219623013E+00
-0.1104297546663E+00 -0.2498489782060E+01 -0.5217839151204E+00 -0.1160690083407E+00
 0.1921867098673E-01 -0.2445347358163E+01 -0.4852257446657E+00 -0.9482422706640E-01
 0.1855980462026E+00 -0.2403326980691E+01 -0.4435457935069E+00 -0.6726858275669E-01
 0.3926917958740E+00 -0.2375466347686E+01 -0.3965549162716E+00 -0.3365619596095E-01
 0.6435061677255E+00 -0.2364556694366E+01 -0.3442101104573E+00  0.5126705823524E-02
 0.9395305288585E+00 -0.2372784482154E+01 -0.2866507949306E+00  0.4744268056512E-01
 0.1280190406201E+01 -0.2401329864608E+01 -0.2242278950226E+00  0.9086703004308E-01
 0.1662327539693E+01 -0.2449983793747E+01 -0.1575312531582E+00  0.1322848561814E+00
 0.2079806196918E+01 -0.2516845433155E+01 -0.8740784854980E-01  0.1681683963503E+00
 0.2523431895032E+01 -0.2598211300004E+01 -0.1495588121736E-01  0.1950284462640E+00
 0.2981272882111E+01 -0.2688743540667E+01  0.5850586916059E-01  0.2099672283885E+00
 0.3439406591390E+01 -0.2781941029878E+01  0.1314931142618E+00  0.2112165384017E+00
 0.3882952895178E+01 -0.2870845534385E+01  0.2024214751750E+00  0.1985528450747E+00
-0.7653391381049E+00 -0.3211841091132E+01 -0.7954360577003E+00  0.7076762493050E-01
-0.6975559044027E+00 -0.3241327988736E+01 -0.7877767903666E+00  0.6901262269990E-01
-0.6305823807107E+00 -0.3269555386513E+01 -0.7800275650680E+00  0.6488268533609E-01
-0.5660369149809E+00 -0.3295522926893E+01 -0.7723119798831E+00  0.5849632752188E-01
-0.5054307860691E+00 -0.3318321214865E+01 -0.7647504115824E+00  0.5010970003918E-01
-0.4500590320746E+00 -0.3337197668583E+01 -0.7574513514184E+00  0.4008620476194E-01
-0.4009261053688E+00 -0.3351593902695E+01 -0.7505040127961E+00  0.2884177452313E-01
-0.3587149386898E+00 -0.3361149794458E+01 -0.7439729577157E+00  0.1678539748614E-01
-0.3237958444814E+00 -0.3365679228857E+01 -0.7378950256632E+00  0.4270818163540E-02
-0.2962625854731E+00 -0.3365128545719E+01 -0.7322782371502E+00 -0.8432453063871E-02
-0.2759809543899E+00 -0.3359529325173E+01 -0.7271020667473E+00 -0.2114807606226E-01
-0.2626377644174E+00 -0.3348954526174E+01 -0.7223184688816E+00 -0.3378560070771E-01
-0.2557819479214E+00 -0.3333483438815E+01 -0.7178530880441E+00 -0.4632255998923E-01
-0.2548534042939E+00 -0.3313177789178E+01 -0.7136062493280E+00 -0.5878106436122E-01
-0.2591980510123E+00 -0.3288069290167E+01 -0.7094534788075E+00 -0.7120263061629E-01
-0.2680692394863E+00 -0.3258157799060E+01 -0.7052454182182E+00 -0.8362351537901E-01
-0.2806167093861E+00 -0.3223418762428E+01 -0.7008071048056E+00 -0.9605164344287E-01
-0.2958640515129E+00 -0.3183820031672E+01 -0.6959368270072E+00 -0.1084450951115E+00
-0.3126771762387E+00 -0.3139344996126E+01 -0.6904044447607E+00 -0.1206929365616E+00
-0.3297246022146E+00 -0.3090023371624E+01 -0.6839496049594E+00 -0.1325978532460E+00
-0.3454316939732E+00 -0.3035969398345E+01 -0.6762802285411E+00 -0.1438608329991E+00
-0.3579321618970E+00 -0.2977424017289E+01 -0.6670712457773E+00 -0.1540694156301E+00
-0.3650190010256E+00 -0.2914802710926E+01 -0.6559643521649E+00 -0.1626898545023E+00
-0.3640989574267E+00 -0.2848747058366E+01 -0.6425692127335E+00 -0.1690666758052E+00
-0.3521549129964E+00 -0.2780181385925E+01 -0.6264672691194E+00 -0.1724373127348E+00
-0.3257259606941E+00 -0.2710367100068E+01 -0.6072186212008E+00 -0.1719540719646E+00
-0.2809152130497E+00 -0.2640940019017E+01 -0.5843710551211E+00 -0.1667085720877E+00
-0.2134320822255E+00 -0.2573931203029E+01 -0.5574726653578E+00 -0.1557790155699E+00
-0.1186816856382E+00 -0.2511763746488E+01 -0.5260890942646E+00 -0.1383130338266E+00
 0.8080637969582E-02 -0.2457211752057E+01 -0.4898262301165E+00 -0.1136516416033E+00
 0.1715087145040E+00 -0.2413303233079E+01 -0.4483589103961E+00 -0.8149325249395E-01
 0.3758176173995E+00 -0.2383146473463E+01 -0.4014657771951E+00 -0.4208657115510E-01
 0.6243158871802E+00 -0.2369663307660E+01 -0.3490694892976E+00  0.3573478469331E-02
 0.9188455222618E+00 -0.2375223755701E+01 -0.2912756510283E+00  0.5359202818073E-01
 0.1259191630431E+01 -0.2401219883381E+01 -0.2284056539934E+00  0.1051156708673E+00
 0.1642492472629E+01 -0.2447640470434E+01 -0.1610296019607E+00  0.1544322257149E+00
 0.2062761594019E+01 -0.2512712669370E+01 -0.8999021641107E-01  0.1972926136757E+00
 0.2510733819715E+01 -0.2592738206287E+01 -0.1640087755883E-01  0.2294549650116E+00
 0.2974152949308E+01 -0.2682234542024E+01  0.5838368232682E-01  0.2473645679963E+00
 0.3438541231049E+01 -0.2774418373893E+01  0.1328245734103E+00  0.2488215005459E+00
 0.3888305316509E+01 -0.2861956446879E+01  0.2052697769847E+00  0.2334936483227E+00
-0.7651196607788E+00 -0.3213059850273E+01 -0.7956359140663E+00  0.8204816851602E-01
-0.6963862428665E+00 -0.3242953253376E+01 -0.7878679109886E+00  0.8001199629706E-01
-0.6284808447046E+00 -0.3271559392171E+01 -0.7800080589982E+00  0.7521242139717E-01
-0.5630786634037E+00 -0.3297850840810E+01 -0.7721859123491E+00  0.6778793783181E-01
-0.5017427087145E+00 -0.3320899416785E+01 -0.7645284364923E+00  0.5804499636617E-01
-0.4458008374348E+00 -0.3339950019356E+01 -0.7571501826405E+00  0.4641853693665E-01
-0.3962656476934E+00 -0.3354459923974E+01 -0.7501451255115E+00  0.3340363477374E-01
-0.3538055561916E+00 -0.3364099327513E+01 -0.7435809878211E+00  0.1948298578295E-01
-0.3187606644920E+00 -0.3368720595365E+01 -0.7374962629609E+00  0.5069555999580E-02
-0.2911873600866E+00 -0.3368309896744E+01 -0.7318994622724E+00 -0.9526475126337E-02
-0.2709144611226E+00 -0.3362934651462E+01 -0.7267698333467E+00 -0.2410648674179E-01
-0.2575975978571E+00 -0.3352696446841E+01 -0.7220588196990E+00 -0.3857322388681E-01
-0.2507634038114E+00 -0.3337694671497E+01 -0.7176916257561E+00 -0.5290867818307E-01
-0.2498396380666E+00 -0.3318002578732E+01 -0.7135684539926E+00 -0.6714619293409E-01
-0.2541703510028E+00 -0.3293655396455E+01 -0.7095651600649E+00 -0.8134107798470E-01
-0.2630168293484E+00 -0.3264649119073E+01 -0.7055332001976E+00 -0.9554220363585E-01
-0.2755458768536E+00 -0.3230948349878E+01 -0.7012988557966E+00 -0.1097656534520E+00
-0.2908065854496E+00 -0.3192503114708E+01 -0.6966619504125E+00 -0.1239702460903E+00
-0.3076981188311E+00 -0.3149271665734E+01 -0.6913939672157E+00 -0.1380357157641E+00
-0.3249292494212E+00 -0.3101250648150E+01 -0.6852359897250E+00 -0.1517428685951E+00
-0.3409716387753E+00 -0.3048512507909E+01 -0.6778968394383E+00 -0.1647559543208E+00
-0.3540100123023E+00 -0.2991246953939E+01 -0.6690514032180E+00 -0.1766089583735E+00
-0.3618911931945E+00 -0.2929808289070E+01 -0.6583399062630E+00 -0.1866961479396E+00
-0.3620757643559E+00 -0.2864767265792E+01 -0.6453686156464E+00 -0.1942707536113E+00
-0.3515964513184E+00 -0.2796970364789E+01 -0.6297133726049E+00 -0.1984604827271E+00
-0.3270331672712E+00 -0.2727597403495E+01 -0.6109261232567E+00 -0.1982911111486E+00
-0.2845138044819E+00 -0.2658201672316E+01 -0.5885431041295E+00 -0.1927123956250E+00
-0.2197458168064E+00 -0.2590736300086E+01 -0.5620964317543E+00 -0.1806494111169E+00
-0.1280909609146E+00 -0.2527561077479E+01 -0.5311304155932E+00 -0.1610943991320E+00
-0.4702329201677E-02 -0.2471416003405E+01 -0.4952236739007E+00 -0.1332466369359E+00
 0.1552523877443E+00 -0.2425341610380E+01 -0.4540178512925E+00 -0.9670090995959E-01
 0.3562549817578E+00 -0.2392521765545E+01 -0.4072533628260E+00 -0.5167392208213E-01
 0.6019679716374E+00 -0.2376026302028E+01 -0.3548116713652E+00  0.7591129766794E-03
 0.8946533344670E+00 -0.2378439713120E+01 -0.2967572801526E+00  0.5846957031734E-01
 0.1234532606286E+01 -0.2401407851302E+01 -0.2333750524808E+00  0.1181854490318E+00
 0.1619113310500E+01 -0.2445162647941E+01 -0.1652098699499E+00  0.1755847409245E+00
 0.2042606892263E+01 -0.2508095142533E+01 -0.9309765144115E-01  0.2256570444623E+00
 0.2495681262845E+01 -0.2586523873466E+01 -0.1816852239490E-01  0.2633450305091E+00
 0.2965702535703E+01 -0.2674799574660E+01  0.5818059307543E-01  0.2843666203402E+00
 0.3437531974962E+01 -0.2765803659176E+01  0.1343456651591E+00  0.2860310602261E+00
 0.3894722231895E+01 -0.2851755280454E+01  0.2085933933965E+00  0.2678611151977E+00
-0.7648681469544E+00 -0.3214464773555E+01 -0.7958665959612E+00  0.9349850457719E-01
-0.6950398820416E+00 -0.3244824181498E+01 -0.7879728244496E+00  0.9117581021312E-01
-0.6260590043124E+00 -0.3273862350998E+01 -0.7799842826848E+00  0.8568982672598E-01
-0.5596702049213E+00 -0.3300518759215E+01 -0.7720378043315E+00  0.7720021211772E-01
-0.4974987538469E+00 -0.3323842798763E+01 -0.7642683219105E+00  0.6606931049205E-01
-0.4409108808483E+00 -0.3343077137019E+01 -0.7567976148507E+00  0.5281123437862E-01
-0.3909272816058E+00 -0.3357698817810E+01 -0.7497252310549E+00  0.3800724995754E-01
-0.3481973835001E+00 -0.3367414989317E+01 -0.7431224856369E+00  0.2221843616001E-01
-0.3130241696243E+00 -0.3372123977985E+01 -0.7370296405044E+00  0.5918710987469E-02
-0.2854192209308E+00 -0.3371858722669E+01 -0.7314555996194E+00 -0.1054189689837E-01
-0.2651677792987E+00 -0.3366728071358E+01 -0.7263791809552E+00 -0.2694499837335E-01
-0.2518892341131E+00 -0.3356866215239E+01 -0.7217511006253E+00 -0.4318986063667E-01
-0.2450846238747E+00 -0.3342395107049E+01 -0.7174959568762E+00 -0.5926642722863E-01
-0.2441679605206E+00 -0.3323400746240E+01 -0.7135137519844E+00 -0.7522258372454E-01
-0.2484813205839E+00 -0.3299922120060E+01 -0.7096806987038E+00 -0.9113046315170E-01
-0.2572951233631E+00 -0.3271950827358E+01 -0.7058492006622E+00 -0.1070543728988E+00
-0.2697955857764E+00 -0.3239439412869E+01 -0.7018470101875E+00 -0.1230213264530E+00
-0.2850607028627E+00 -0.3202318169226E+01 -0.6974757848109E+00 -0.1389937712934E+00
-0.3020272845604E+00 -0.3160517527287E+01 -0.6925089726887E+00 -0.1548452619686E+00
-0.3194496917322E+00 -0.3113997459280E+01 -0.6866894404349E+00 -0.1703382325872E+00
-0.3358520974907E+00 -0.3062783917740E+01 -0.6797272131748E+00 -0.1851040884703E+00
-0.3494772445461E+00 -0.3007009394661E+01 -0.6712973378445E+00 -0.1986274984466E+00
-0.3582334406684E+00 -0.2946959541298E+01 -0.6610386062435E+00 -0.2102351891851E+00
-0.3596432158235E+00 -0.2883125170467E+01 -0.6485536869223E+00 -0.2190934607190E+00
-0.3507973845225E+00 -0.2816264272675E+01 -0.6334123408780E+00 -0.2242240553056E+00
-0.3283246597870E+00 -0.2747463032450E+01 -0.6151575476140E+00 -0.2245286837625E+00
-0.2883848055746E+00 -0.2678178733653E+01 -0.5933127166866E+00 -0.2188154777741E+00
-0.2266883215235E+00 -0.2610271943086E+01 -0.5673920613768E+00 -0.2058529944747E+00
-0.1385544741024E+00 -0.2546024384392E+01 -0.5369157796995E+00 -0.1844692991072E+00
-0.1902781019791E-01 -0.2488129099846E+01 -0.5014313894807E+00 -0.1537060217001E+00
 0.1369198648622E+00 -0.2439631376345E+01 -0.4605423091591E+00 -0.1130303470679E+00
 0.3340698443008E+00 -0.2403792054886E+01 -0.4139444482853E+00 -0.6259584787991E-01
 0.5764901286893E+00 -0.2383843625717E+01 -0.3614707047919E+00 -0.3523653878798E-02
 0.8669333625641E+00 -0.2382615346808E+01 -0.3031364013658E+00  0.6185393420271E-01
 0.1206142162871E+01 -0.2402051309248E+01 -0.2391818328395E+00  0.1298613744570E+00
 0.1592077813538E+01 -0.2442677905145E+01 -0.1701200208563E+00  0.1955550287153E+00
 0.2019211098229E+01 -0.2503093761740E+01 -0.9677653414418E-01  0.2531172582959E+00
 0.2478155681540E+01 -0.2579651957497E+01 -0.2029925549383E-01  0.2965997845833E+00
 0.2955847317279E+01 -0.2666515520220E+01  0.5786636027410E-01  0.3209071096296E+00
 0.3436373273841E+01 -0.2756173762642E+01  0.1360399042670E+00  0.3227862742126E+00
 0.3902281683025E+01 -0.2840321124608E+01  0.2123921148483E+00  0.3015715974267E+00
-0.7645843921308E+00 -0.3216062272197E+01 -0.7961293447289E+00  0.1051422190642E+00
-0.6935123639634E+00 -0.3246947910549E+01 -0.7880920666459E+00  0.1025265160705E+00
-0.6233075595254E+00 -0.3276471045797E+01 -0.7799557326867E+00  0.9633359679114E-01
-0.5557989260557E+00 -0.3303531045113E+01 -0.7718660057355E+00  0.8674596918453E-01
-0.4926858975475E+00 -0.3327150882320E+01 -0.7639673673576E+00  0.7418890577898E-01
-0.4353788754367E+00 -0.3346571699503E+01 -0.7563901262590E+00  0.5926501841211E-01
-0.3849058970486E+00 -0.3361295367398E+01 -0.7492402640539E+00  0.4265011902037E-01
-0.3418917547436E+00 -0.3371073682954E+01 -0.7425930986049E+00  0.2498896058654E-01
-0.3065942477654E+00 -0.3375859250053E+01 -0.7364907105382E+00  0.6818105290595E-02
-0.2789718645015E+00 -0.3375739169269E+01 -0.7309422176459E+00 -0.1147385436479E-01
-0.2587591936552E+00 -0.3370869396510E+01 -0.7259257288503E+00 -0.2965191219007E-01
-0.2455341646482E+00 -0.3361420555057E+01 -0.7213909546906E+00 -0.4761581088150E-01
-0.2387689559782E+00 -0.3347539384157E+01 -0.7172616787152E+00 -0.6536745990868E-01
-0.2378623316396E+00 -0.3329325625124E+01 -0.7134376019837E+00 -0.8297299288364E-01
-0.2421543834103E+00 -0.3306822139224E+01 -0.7097953151037E+00 -0.1005246933867E+00
-0.2509258985403E+00 -0.3280015596089E+01 -0.7061883094489E+00 -0.1181053707432E+00
-0.2633848201667E+00 -0.3248845401864E+01 -0.7024460548735E+00 -0.1357559697934E+00
-0.2786413432812E+00 -0.3213220470787E+01 -0.6983723732202E+00 -0.1534457141171E+00
-0.2956741602592E+00 -0.3173041100498E+01 -0.6937430624890E+00 -0.1710454413579E+00
-0.3132883704879E+00 -0.3128227449075E+01 -0.6883031741691E+00 -0.1883031024151E+00
-0.3300666877831E+00 -0.3078754803541E+01 -0.6817643084238E+00 -0.2048216146903E+00
-0.3443167204584E+00 -0.3024693019655E+01 -0.6738019580631E+00 -0.2200411191232E+00
-0.3540158403757E+00 -0.2966252188858E+01 -0.6640536157420E+00 -0.2332258927185E+00
-0.3567567051039E+00 -0.2903834567604E+01 -0.6521182642589E+00 -0.2434604093692E+00
-0.3496967776583E+00 -0.2838099345236E+01 -0.6375592340793E+00 -0.2496650157700E+00
-0.3295222411047E+00 -0.2770027071126E+01 -0.6199098716834E+00 -0.2506206559126E+00
-0.2924330645762E+00 -0.2700965112993E+01 -0.5986796444348E+00 -0.2449948463135E+00
-0.2341497710735E+00 -0.2632665707592E+01 -0.5733631042770E+00 -0.2313967656495E+00
-0.1499528176154E+00 -0.2567315668511E+01 -0.5434537053233E+00 -0.2084814805089E+00
-0.3477545277771E-01 -0.2507545076041E+01 -0.5084641133404E+00 -0.1751160026943E+00
 0.1166199930890E+00 -0.2456392115845E+01 -0.4679544315243E+00 -0.1306133281988E+00
 0.3093440120815E+00 -0.2417191544183E+01 -0.4215695127022E+00 -0.7502817922026E-01
 0.5479207728980E+00 -0.2393349496438E+01 -0.3690857502079E+00 -0.9486685138193E-02
 0.8356675528348E+00 -0.2387968945787E+01 -0.3104602832166E+00  0.6351288932088E-01
 0.1173941499702E+01 -0.2403339172462E+01 -0.2458795382159E+00  0.1399131639938E+00
 0.1561256263356E+01 -0.2440339284396E+01 -0.1758166068278E+00  0.2141394224570E+00
 0.1992419551578E+01 -0.2497828965344E+01 -0.1010818842595E+00  0.2795154560695E+00
 0.2458015163370E+01 -0.2572221681648E+01 -0.2284130399588E-01  0.3291123645593E+00
 0.2944496633220E+01 -0.2657473189903E+01  0.5740468951875E-01  0.3569166965824E+00
 0.3435054594146E+01 -0.2745618575397E+01  0.1378872058043E+00  0.3590280282550E+00
 0.3911071206224E+01 -0.2827745122655E+01  0.2166652199423E+00  0.3345428289369E+00
-0.7642682090015E+00 -0.3217860631754E+01 -0.7964257800187E+00  0.1170033445816E+00
-0.6917982450512E+00 -0.3249333645033E+01 -0.7882263897624E+00  0.1140868109927E+00
-0.6202151806765E+00 -0.3279394249910E+01 -0.7799218977390E+00  0.1071619786081E+00
-0.5514495807648E+00 -0.3306893501589E+01 -0.7716686279694E+00  0.9643657449237E-01
-0.4872885661919E+00 -0.3330823587796E+01 -0.7636224421765E+00  0.8240761440205E-01
-0.4291926970266E+00 -0.3350425427087E+01 -0.7559236360868E+00  0.6577752658100E-01
-0.3781956363047E+00 -0.3365231989401E+01 -0.7486855362974E+00  0.4732645957271E-01
-0.3348904321974E+00 -0.3375048710718E+01 -0.7419878396395E+00  0.2778870075704E-01
-0.2994802591071E+00 -0.3379891746382E+01 -0.7358744120631E+00  0.7764960996802E-02
-0.2718612640360E+00 -0.3379910215915E+01 -0.7303543068733E+00 -0.1231951997556E-01
-0.2517098139021E+00 -0.3375312895354E+01 -0.7254045526605E+00 -0.3221703322407E-01
-0.2385570341104E+00 -0.3366310434434E+01 -0.7209735044523E+00 -0.5183243971925E-01
-0.2318430625153E+00 -0.3353076256914E+01 -0.7169838745697E+00 -0.7118415778925E-01
-0.2309500674523E+00 -0.3335724560128E+01 -0.7133349361455E+00 -0.9036064174891E-01
-0.2352162710990E+00 -0.3314302034234E+01 -0.7099036716451E+00 -0.1094779007851E+00
-0.2439341132091E+00 -0.3288789881501E+01 -0.7065448094704E+00 -0.1286404959235E+00
-0.2563355341316E+00 -0.3259113443879E+01 -0.7030898060790E+00 -0.1479064797852E+00
-0.2715661013829E+00 -0.3225158912003E+01 -0.6993450130982E+00 -0.1672552064807E+00
-0.2886504411782E+00 -0.3186794562860E+01 -0.6950890111653E+00 -0.1865585278253E+00
-0.3064493233481E+00 -0.3143898124699E+01 -0.6900694998923E+00 -0.2055541477621E+00
-0.3236098088670E+00 -0.3096390649540E+01 -0.6840001018739E+00 -0.2238212898734E+00
-0.3385110249196E+00 -0.3044274590535E+01 -0.6765571331724E+00 -0.2407608931936E+00
-0.3492068645802E+00 -0.2987678235796E+01 -0.6673770300200E+00 -0.2555805262232E+00
-0.3533683156317E+00 -0.2926907280368E+01 -0.6560551289759E+00 -0.2672887179284E+00
-0.3482283199020E+00 -0.2862512260603E+01 -0.6421481256698E+00 -0.2747098855529E+00
-0.3305398702975E+00 -0.2795356255502E+01 -0.6251792344759E+00 -0.2765084969956E+00
-0.2965527498401E+00 -0.2726662479028E+01 -0.6046430547836E+00 -0.2712134933717E+00
-0.2420065944390E+00 -0.2658057969487E+01 -0.5800129214280E+00 -0.2572727137641E+00
-0.1621498503508E+00 -0.2591615610487E+01 -0.5507531003745E+00 -0.2331598400136E+00
-0.5180580221271E-01 -0.2529883042948E+01 -0.5163377767261E+00 -0.1975497445451E+00
 0.9448167163436E-01 -0.2475874780537E+01 -0.4762786288777E+00 -0.1495724357171E+00
 0.2821778875862E+00 -0.2432991036833E+01 -0.4301626362593E+00 -0.8914354233139E-01
 0.5163121314894E+00 -0.2404817754977E+01 -0.3777011303257E+00 -0.1734618092942E-01
 0.8008431763712E+00 -0.2394758197244E+01 -0.3187830089249E+00  0.6320213147048E-01
 0.1137845757790E+01 -0.2405495895717E+01 -0.2535300313633E+00  0.1480926245258E+00
 0.1526501148110E+01 -0.2438328744972E+01 -0.1823655220899E+00  0.2311145932075E+00
 0.1962051789180E+01 -0.2492443058196E+01 -0.1060782553839E+00  0.3046774586424E+00
 0.2435091560629E+01 -0.2564349426942E+01 -0.2585157364779E-01  0.3607661334168E+00
 0.2931541220451E+01 -0.2647778887695E+01  0.5675246739687E-01  0.3923221766451E+00
 0.3433558756121E+01 -0.2734242348952E+01  0.1398632835179E+00  0.3946961864385E+00
 0.3921186491991E+01 -0.2814130947512E+01  0.2214111121951E+00  0.3666934233541E+00
-0.7639194396499E+00 -0.3219870462684E+01 -0.7967579923394E+00  0.1291064720686E+00
-0.6898909036635E+00 -0.3251993147551E+01 -0.7883768219907E+00  0.1258796952539E+00
-0.6167681318815E+00 -0.3282643192428E+01 -0.7798822764830E+00  0.1181926610706E+00
-0.5466038525651E+00 -0.3310613710836E+01 -0.7714435241756E+00  0.1062816116508E+00
-0.4812882821854E+00 -0.3334861369135E+01 -0.7632299416372E+00  0.9072633225411E-01
-0.4223382052887E+00 -0.3354628999872E+01 -0.7553934522883E+00  0.7234273601032E-01
-0.3707899022540E+00 -0.3369488486666E+01 -0.7480556889309E+00  0.5202666943450E-01
-0.3271957533132E+00 -0.3379309448646E+01 -0.7413010514380E+00  0.3060829922448E-01
-0.2916932516797E+00 -0.3384181942748E+01 -0.7351750498404E+00  0.8753602222576E-02
-0.2641058925237E+00 -0.3384325415975E+01 -0.7296862725729E+00 -0.1307828639760E-01
-0.2440437681416E+00 -0.3380007117090E+01 -0.7248101878468E+00 -0.3463177511694E-01
-0.2309857919250E+00 -0.3371480968768E+01 -0.7204933628748E+00 -0.5582224017681E-01
-0.2243370365850E+00 -0.3358948554268E+01 -0.7166571288497E+00 -0.7668968086216E-01
-0.2234619382360E+00 -0.3342538892777E+01 -0.7132001768301E+00 -0.9734927088929E-01
-0.2276971257349E+00 -0.3322302265672E+01 -0.7099998888612E+00 -0.1179445069328E+00
-0.2363480369086E+00 -0.3298213862276E+01 -0.7069123903707E+00 -0.1386050701507E+00
-0.2486728307734E+00 -0.3270184210067E+01 -0.7037714186551E+00 -0.1594094091647E+00
-0.2638554740001E+00 -0.3238075770353E+01 -0.7003862593073E+00 -0.1803505141681E+00
-0.2809703622979E+00 -0.3201723390549E+01 -0.6965387609486E+00 -0.2013052031671E+00
-0.2989386131238E+00 -0.3160960344895E+01 -0.6919798019151E+00 -0.2220054781836E+00
-0.3164771776397E+00 -0.3115650560883E+01 -0.6864255579330E+00 -0.2420120706610E+00
-0.3320431139247E+00 -0.3065725066215E+01 -0.6795536461541E+00 -0.2606925614729E+00
-0.3437741162371E+00 -0.3011224874767E+01 -0.6709998081996E+00 -0.2772041999132E+00
-0.3494276624640E+00 -0.2952351855806E+01 -0.6603559134941E+00 -0.2904862574552E+00
-0.3463212043217E+00 -0.2889538649958E+01 -0.6471719804995E+00 -0.2992736661014E+00
-0.3312844946191E+00 -0.2823519361819E+01 -0.6309607806896E+00 -0.3021198606519E+00
-0.3006279987978E+00 -0.2755378645105E+01 -0.6112013378882E+00 -0.2974185461453E+00
-0.2501217518725E+00 -0.2686600481652E+01 -0.5873444554570E+00 -0.2834555668951E+00
-0.1749923707657E+00 -0.2619122613614E+01 -0.5588230052030E+00 -0.2585158154464E+00
-0.6995913550356E-01 -0.2555387041493E+01 -0.5250692432234E+00 -0.2210645830852E+00
 0.7065601228166E-01 -0.2498362708097E+01 -0.4855413463982E+00 -0.1700184446313E+00
 0.2526935768298E+00 -0.2451500377508E+01 -0.4397613666887E+00 -0.1051093945924E+00
 0.4817339144724E+00 -0.2418565732147E+01 -0.3873663693071E+00 -0.2732195586219E-01
 0.7624562657656E+00 -0.2403285095420E+01 -0.3281657708209E+00  0.6066429358915E-01
 0.1097766123851E+01 -0.2408786611680E+01 -0.2622041014730E+00  0.1541308902456E+00
 0.1487646956433E+01 -0.2436861487556E+01 -0.1898429090536E+00  0.2462336719946E+00
 0.1927898940875E+01 -0.2487103035348E+01 -0.1118408205611E+00  0.3284091162419E+00
 0.2409186905502E+01 -0.2556170481488E+01 -0.2939671563518E-01  0.3914327153421E+00
 0.2916850684175E+01 -0.2637556322493E+01  0.5585887316883E-01  0.4270458457310E+00
 0.3431860281868E+01 -0.2722165657687E+01  0.1419389269514E+00  0.4297284617485E+00
 0.3932729291301E+01 -0.2799595456454E+01  0.2266267703463E+00  0.3979419022626E+00
-0.7635379730588E+00 -0.3222105249898E+01 -0.7971286564695E+00  0.1414768864705E+00
-0.6877823013670E+00 -0.3254941334797E+01 -0.7885447389830E+00  0.1379285380055E+00
-0.6129498105040E+00 -0.3286232114272E+01 -0.7798363965757E+00  0.1294426325709E+00
-0.5412398319475E+00 -0.3314701422190E+01 -0.7711882623191E+00  0.1162884771799E+00
-0.4746632604878E+00 -0.3339265340844E+01 -0.7627857316327E+00  0.9914241594854E-01
-0.4147990644254E+00 -0.3359171918031E+01 -0.7547942077386E+00  0.7895029987191E-01
-0.3626814049308E+00 -0.3374041717962E+01 -0.7473446357149E+00  0.5673673485539E-01
-0.3188108338808E+00 -0.3383820938303E+01 -0.7405263654715E+00  0.3343445597132E-01
-0.2832462316799E+00 -0.3388685070833E+01 -0.7343862714458E+00  0.9775172918831E-02
-0.2557269879699E+00 -0.3388932597722E+01 -0.7289319280003E+00 -0.1375191833574E-01
-0.2357884228658E+00 -0.3384894699514E+01 -0.7241366352664E+00 -0.3688922972002E-01
-0.2228518569274E+00 -0.3376871324593E+01 -0.7199446470320E+00 -0.5956886634773E-01
-0.2162845220945E+00 -0.3365093150664E+01 -0.7162755452249E+00 -0.8185799785159E-01
-0.2154322662819E+00 -0.3349703961718E+01 -0.7130272562250E+00 -0.1039031868145E+00
-0.2196306017929E+00 -0.3330757166035E+01 -0.7100775641465E+00 -0.1258792923263E+00
-0.2281993830183E+00 -0.3308221385507E+01 -0.7072841642445E+00 -0.1479445261304E+00
-0.2404251499642E+00 -0.3281991781436E+01 -0.7044833967776E+00 -0.1702010615586E+00
-0.2555331244304E+00 -0.3251906461334E+01 -0.7014879276059E+00 -0.1926591191891E+00
-0.2726510573338E+00 -0.3217765968587E+01 -0.6980834155865E+00 -0.2152046036844E+00
-0.2907647965533E+00 -0.3179357758286E+01 -0.6940245213096E+00 -0.2375686257374E+00
-0.3086664191617E+00 -0.3136486502619E+01 -0.6890305946235E+00 -0.2592989989327E+00
-0.3248970342120E+00 -0.3089008617522E+01 -0.6827811405211E+00 -0.2797362813900E+00
-0.3376851767041E+00 -0.3036873257831E+01 -0.6749116969640E+00 -0.2979944292931E+00
-0.3448828507214E+00 -0.2980172084934E+01 -0.6650109970406E+00 -0.3129509681597E+00
-0.3439011519464E+00 -0.2919211383896E+01 -0.6526225168934E+00 -0.3232588367303E+00
-0.3316570521724E+00 -0.2854585316328E+01 -0.6372484831959E+00 -0.3273671840052E+00
-0.3045337555054E+00 -0.2787225621130E+01 -0.6183518845412E+00 -0.3235393918185E+00
-0.2583451966385E+00 -0.2718454572506E+01 -0.5953599627004E+00 -0.3099003958584E+00
-0.1883099296750E+00 -0.2650051457498E+01 -0.5676722858935E+00 -0.2845404924147E+00
-0.8905432585245E-01 -0.2584325559275E+01 -0.5346759849929E+00 -0.2456987889168E+00
 0.4531866087067E-01 -0.2524172456426E+01 -0.4957707664987E+00 -0.1920470904784E+00
 0.2210384234973E+00 -0.2473070981022E+01 -0.4504065182164E+00 -0.1230853675456E+00
 0.4442776951540E+00 -0.2434958581769E+01 -0.3981361832556E+00 -0.3963608805302E-01
 0.7205159524017E+00 -0.2413901723489E+01 -0.3386771592641E+00  0.5562830847196E-01
 0.1053612767346E+01 -0.2413523437793E+01 -0.2719821381424E+00  0.1577355226082E+00
 0.1444510325675E+01 -0.2436191419892E+01 -0.1983362217989E+00  0.2592216765684E+00
 0.1889720671411E+01 -0.2482004050931E+01 -0.1184566776692E+00  0.3504917882601E+00
 0.2380068887353E+01 -0.2547840847685E+01 -0.3355439256642E-01  0.4209696071156E+00
 0.2900270706154E+01 -0.2626948814882E+01  0.5466437906891E-01  0.4610051522669E+00
 0.3429924139960E+01 -0.2709528309315E+01  0.1440791682758E+00  0.4640589238517E+00
 0.3945803960307E+01 -0.2784269702193E+01  0.2323068550844E+00  0.4282046564458E+00
-0.7631237568519E+00 -0.3224582020399E+01 -0.7975411673344E+00  0.1541407317360E+00
-0.6854626799884E+00 -0.3258196999666E+01 -0.7887319476838E+00  0.1502571516071E+00
-0.6087401761138E+00 -0.3290178929850E+01 -0.7797838328124E+00  0.1409279942399E+00
-0.5353313878977E+00 -0.3319168990180E+01 -0.7709000871029E+00  0.1264618762428E+00
-0.4673879480668E+00 -0.3344037383068E+01 -0.7622850775859E+00  0.1076489582635E+00
-0.4065565682684E+00 -0.3364042281939E+01 -0.7541197812788E+00  0.8558478135739E-01
-0.3538622571743E+00 -0.3378865162066E+01 -0.7465454949724E+00  0.6143758150624E-01
-0.3097398369869E+00 -0.3388543380156E+01 -0.7396566544503E+00  0.3624947589061E-01
-0.2741544932228E+00 -0.3393350662164E+01 -0.7335010420073E+00  0.1081738022200E-01
-0.2467488599674E+00 -0.3393673527282E+01 -0.7280844882992E+00 -0.1434466275779E-01
-0.2269746243892E+00 -0.3389912167565E+01 -0.7233773691700E+00 -0.3898419470270E-01
-0.2141902874943E+00 -0.3382414634394E+01 -0.7193209950964E+00 -0.6305713398515E-01
-0.2077228292406E+00 -0.3371440959244E+01 -0.7158327683637E+00 -0.8666389807420E-01
-0.2068990144501E+00 -0.3357149130315E+01 -0.7128096395746E+00 -0.1099873056821E+00
-0.2110539587613E+00 -0.3339594958113E+01 -0.7101297939566E+00 -0.1332374780066E+00
-0.2195234354943E+00 -0.3318739935012E+01 -0.7076526846461E+00 -0.1566045223002E+00
-0.2316244563529E+00 -0.3294463529254E+01 -0.7052176076300E+00 -0.1802176263856E+00
-0.2466261552931E+00 -0.3266579295692E+01 -0.7026411006671E+00 -0.2041078556949E+00
-0.2637129364468E+00 -0.3234853191624E+01 -0.6997132360406E+00 -0.2281744329988E+00
-0.2819394237697E+00 -0.3199026215760E+01 -0.6961931382800E+00 -0.2521526061863E+00
-0.3001777021060E+00 -0.3158842492640E+01 -0.6918040492579E+00 -0.2755831779242E+00
-0.3170587054830E+00 -0.3114081570814E+01 -0.6862280654850E+00 -0.2977864773866E+00
-0.3309085384395E+00 -0.3064597164676E+01 -0.6791011507424E+00 -0.3178408082443E+00
-0.3396815473304E+00 -0.3010365379807E+01 -0.6700093954115E+00 -0.3345702883946E+00
-0.3408915832831E+00 -0.2951558664486E+01 -0.6584900593661E+00 -0.3465544548768E+00
-0.3315536593873E+00 -0.2888621048221E+01 -0.6440349511186E+00 -0.3521463581943E+00
-0.3081368265693E+00 -0.2822317338268E+01 -0.6260908422969E+00 -0.3494858106592E+00
-0.2665145709692E+00 -0.2753788950023E+01 -0.6040607131997E+00 -0.3365401193158E+00
-0.2019148522006E+00 -0.2684631516022E+01 -0.5773092822470E+00 -0.3112014541720E+00
-0.1088878189531E+00 -0.2616990634469E+01 -0.5451756988083E+00 -0.2714678713969E+00
 0.1867220681938E-01 -0.2553654360667E+01 -0.5069964383244E+00 -0.2157351641411E+00
 0.1873889397328E+00 -0.2498098373557E+01 -0.4621418936512E+00 -0.1432197852295E+00
 0.4040620535462E+00 -0.2454414067523E+01 -0.4100704089060E+00 -0.5451075686026E-01
 0.6750498640212E+00 -0.2427017005837E+01 -0.3503934335844E+00  0.4780931286353E-01
 0.1005298867430E+01 -0.2420073197353E+01 -0.2829548702010E+00  0.1585875901388E+00
 0.1396890790427E+01 -0.2436618142877E+01 -0.2079454735887E+00  0.2697701578295E+00
 0.1847241638426E+01 -0.2477373803881E+01 -0.1260264349691E+00  0.3706765485734E+00
 0.2347464944295E+01 -0.2539538891808E+01 -0.3841479007515E-01  0.4492171327077E+00
 0.2881619863649E+01 -0.2616121447504E+01  0.5309968402008E-01  0.4941130983483E+00
 0.3427705655652E+01 -0.2696493570346E+01  0.1462424192404E+00  0.4976164700964E+00
 0.3960512072582E+01 -0.2768300423402E+01  0.2384423333890E+00  0.4573921355028E+00
-0.7626768123932E+00 -0.3227322159724E+01 -0.7979998063145E+00  0.1671252121020E+00
-0.6829201820445E+00 -0.3261783689421E+01 -0.7889407860492E+00  0.1628898749819E+00
-0.6041150488663E+00 -0.3294506015227E+01 -0.7797242244375E+00  0.1526637133715E+00
-0.5288474202734E+00 -0.3324031864289E+01 -0.7705758683949E+00  0.1368031911026E+00
-0.4594325101369E+00 -0.3349180206432E+01 -0.7617225546644E+00  0.1162339139695E+00
-0.3975894880165E+00 -0.3369226463048E+01 -0.7533632014388E+00  0.9222476921027E-01
-0.3443241421584E+00 -0.3383928348550E+01 -0.7456505092527E+00  0.6610436775567E-01
-0.2999883261028E+00 -0.3393431510400E+01 -0.7386839783078E+00  0.3903081787568E-01
-0.2644360172134E+00 -0.3398122014290E+01 -0.7325116172159E+00  0.1186427831648E-01
-0.2371992388366E+00 -0.3398483535802E+01 -0.7271365657630E+00 -0.1486330380503E-01
-0.2176369568675E+00 -0.3394989730063E+01 -0.7225253481525E+00 -0.4091314945703E-01
-0.2050399487094E+00 -0.3388037932142E+01 -0.7186155868785E+00 -0.6627298340085E-01
-0.1986930350457E+00 -0.3377916958137E+01 -0.7153220092956E+00 -0.9108298373801E-01
-0.1979038542617E+00 -0.3364797852265E+01 -0.7125403519230E+00 -0.1155671961839E+00
-0.2020081326519E+00 -0.3348737811363E+01 -0.7101491993850E+00 -0.1399748243555E+00
-0.2103591574259E+00 -0.3329690634154E+01 -0.7080099688661E+00 -0.1645310917680E+00
-0.2223064148851E+00 -0.3307520023760E+01 -0.7059652982487E+00 -0.1893953642765E+00
-0.2371653768385E+00 -0.3282015256219E+01 -0.7038361370995E+00 -0.2146231122770E+00
-0.2541800693261E+00 -0.3252908073002E+01 -0.7014176389176E+00 -0.2401311569157E+00
-0.2724775550955E+00 -0.3219893177190E+01 -0.6984741568652E+00 -0.2656640780052E+00
-0.2910144062023E+00 -0.3182653771652E+01 -0.6947336459232E+00 -0.2907618622397E+00
-0.3085167535268E+00 -0.3140891306603E+01 -0.6898816223061E+00 -0.3147318214029E+00
-0.3234146139819E+00 -0.3094361596616E+01 -0.6835552523054E+00 -0.3366248270426E+00
-0.3337721631932E+00 -0.3042921036610E+01 -0.6753386500240E+00 -0.3552207385243E+00
-0.3372149444847E+00 -0.2986601949481E+01 -0.6647633886989E+00 -0.3690354099651E+00
-0.3308670063848E+00 -0.2925689104050E+01 -0.6513112317923E+00 -0.3763355303599E+00
-0.3112972015320E+00 -0.2860767048439E+01 -0.6344128594476E+00 -0.3751461841151E+00
-0.2744562126528E+00 -0.2792777086464E+01 -0.6134466689645E+00 -0.3632829769021E+00
-0.2156025799675E+00 -0.2723104477756E+01 -0.5877414203027E+00 -0.3384394274082E+00
-0.1292328624774E+00 -0.2653696444076E+01 -0.5565858696045E+00 -0.2983604396580E+00
-0.9051470669446E-02 -0.2587192680432E+01 -0.5192488379577E+00 -0.2411358872930E+00
 0.1519550136896E+00 -0.2527024619810E+01 -0.4750139283024E+00 -0.1656452280409E+00
 0.3612384467346E+00 -0.2477407746359E+01 -0.4232338662316E+00 -0.7216506465651E-01
 0.6261106673614E+00 -0.2443104502478E+01 -0.3633987724384E+00  0.3690932439021E-01
 0.9527459527887E+00 -0.2428866806072E+01 -0.2952241750559E+00  0.1563389153885E+00
 0.1344572420554E+01 -0.2438495965835E+01 -0.2187847123163E+00  0.2775310373660E+00
 0.1800147457704E+01 -0.2473478376739E+01 -0.1346661858137E+00  0.3886766299004E+00
 0.2311054178522E+01 -0.2531466602506E+01 -0.4408248545380E-01  0.4759941589936E+00
 0.2860685452927E+01 -0.2605262254165E+01  0.5108464051354E-01  0.5262800236867E+00
 0.3425153072508E+01 -0.2683254060267E+01  0.1483798046592E+00  0.5303241799016E+00
 0.3976943696910E+01 -0.2751852014038E+01  0.2450183402253E+00  0.4854019970057E+00
-0.7621972456741E+00 -0.3230352412729E+01 -0.7985099435793E+00  0.1804588370935E+00
-0.6801403689006E+00 -0.3265730775754E+01 -0.7891742406905E+00  0.1758516611964E+00
-0.5990452414281E+00 -0.3299241144605E+01 -0.7796572888244E+00  0.1646632890926E+00
-0.5217509707488E+00 -0.3329309125232E+01 -0.7702120306731E+00  0.1473096769498E+00
-0.4507622667984E+00 -0.3354697345025E+01 -0.7610919337058E+00  0.1248790326684E+00
-0.3878739670447E+00 -0.3374708621580E+01 -0.7525165289383E+00  0.9884184932816E-01
-0.3340585842450E+00 -0.3389196115475E+01 -0.7446509510402E+00  0.7070571593740E-01
-0.2895637294387E+00 -0.3398433834981E+01 -0.7375995238749E+00  0.4175065592965E-01
-0.2541119577910E+00 -0.3402935567165E+01 -0.7314095158901E+00  0.1289610906345E-01
-0.2271096782027E+00 -0.3403291108634E+01 -0.7260801681868E+00 -0.1531714646473E-01
-0.2078140234457E+00 -0.3400051076824E+01 -0.7215730308062E+00 -0.4267416605842E-01
-0.1954436818203E+00 -0.3393662112024E+01 -0.7178211694651E+00 -0.6920339381606E-01
-0.1892400748443E+00 -0.3384440250186E+01 -0.7147360756564E+00 -0.9509163283377E-01
-0.1884922209492E+00 -0.3372567772350E+01 -0.7122120092727E+00 -0.1206091113347E+00
-0.1925377956027E+00 -0.3358101929528E+01 -0.7101279556078E+00 -0.1460477352591E+00
-0.2007492923926E+00 -0.3340988272113E+01 -0.7083475234564E+00 -0.1716708113882E+00
-0.2125105664850E+00 -0.3321074955130E+01 -0.7067171148538E+00 -0.1976708261335E+00
-0.2271855848634E+00 -0.3298127772314E+01 -0.7050626819417E+00 -0.2241310804421E+00
-0.2440805889641E+00 -0.3271845333686E+01 -0.7031851950084E+00 -0.2509902562571E+00
-0.2623983110683E+00 -0.3241877076544E+01 -0.7008550879660E+00 -0.2780075707245E+00
-0.2811838373376E+00 -0.3207845906070E+01 -0.6978059590797E+00 -0.3047286286107E+00
-0.2992634087636E+00 -0.3169375060255E+01 -0.6937277041411E+00 -0.3304553057788E+00
-0.3151768339241E+00 -0.3126121233804E+01 -0.6882596238014E+00 -0.3542197938429E+00
-0.3271051565781E+00 -0.3077818311149E+01 -0.6809847036929E+00 -0.3747676157240E+00
-0.3327941978041E+00 -0.3024353621380E+01 -0.6714295738418E+00 -0.3905617860769E+00
-0.3294879706114E+00 -0.2965844918129E+01 -0.6590665875689E+00 -0.3997939928011E+00
-0.3138696521239E+00 -0.2902684267712E+01 -0.6433107935533E+00 -0.4003857340127E+00
-0.2819864945461E+00 -0.2835594017691E+01 -0.6235161117385E+00 -0.3900099227562E+00
-0.2291523656763E+00 -0.2765721357157E+01 -0.5989747534922E+00 -0.3661646613479E+00
-0.1498390235971E+00 -0.2694777114172E+01 -0.5689232360314E+00 -0.3263335212169E+00
-0.3758893306998E-01 -0.2625205038235E+01 -0.5325588021968E+00 -0.2682734036698E+00
 0.1149844528581E+00 -0.2560340341759E+01 -0.4890711850678E+00 -0.1904728863379E+00
 0.3159980112910E+00 -0.2504478346287E+01 -0.4376960735214E+00 -0.9281050210322E-01
 0.5737841495281E+00 -0.2462711232597E+01 -0.3777854222431E+00  0.2261903894788E-01
 0.8958911457731E+00 -0.2440410525016E+01 -0.3089038804516E+00  0.1506097684365E+00
 0.1287327167892E+01 -0.2442245546208E+01 -0.2309836791051E+00  0.2821097154164E+00
 0.1748080764255E+01 -0.2470630611528E+01 -0.1445099716079E+00  0.4041573900320E+00
 0.2270456354905E+01 -0.2523850485006E+01 -0.5067882677535E-01  0.5010911379557E+00
 0.2837216846442E+01 -0.2594580737904E+01  0.4852722243062E-01  0.5574170146629E+00
 0.3422215745659E+01 -0.2670039165661E+01  0.1504353182414E+00  0.5621016506693E+00
 0.3995162744878E+01 -0.2735108930468E+01  0.2520107666371E+00  0.5121063937333E+00
-0.7616852490526E+00 -0.3233706117187E+01 -0.7990782851551E+00  0.1941717212067E+00
-0.6771056042453E+00 -0.3270074765242E+01 -0.7894360856610E+00  0.1891681684771E+00
-0.5934954787366E+00 -0.3304418604759E+01 -0.7795828283158E+00  0.1769383015986E+00
-0.5139981637017E+00 -0.3335024062179E+01 -0.7698044566471E+00  0.1579734379966E+00
-0.4413370822911E+00 -0.3360593039734E+01 -0.7603860357357E+00  0.1335585587317E+00
-0.3773834858314E+00 -0.3380470022043E+01 -0.7515707127742E+00  0.1053994180855E+00
-0.3230573477738E+00 -0.3394627655296E+01 -0.7435370116935E+00  0.7520289280132E-01
-0.2784759282612E+00 -0.3403491702673E+01 -0.7363935371599E+00  0.4437547722800E-01
-0.2432072136569E+00 -0.3407720191034E+01 -0.7301854918187E+00  0.1388922520857E-01
-0.2165159960678E+00 -0.3408017450661E+01 -0.7249067001476E+00 -0.1571791021090E-01
-0.1975487282699E+00 -0.3405013196759E+01 -0.7205123957423E+00 -0.4426674601986E-01
-0.1854484502074E+00 -0.3399201933750E+01 -0.7169300874746E+00 -0.7183624880831E-01
-0.1794127973959E+00 -0.3390924181324E+01 -0.7140674063844E+00 -0.9866693963586E-01
-0.1787133271524E+00 -0.3380370890124E+01 -0.7118168540622E+00 -0.1250800223536E+00
-0.1826913740831E+00 -0.3367597701635E+01 -0.7100578257244E+00 -0.1514133865046E+00
-0.1907404275618E+00 -0.3352541391958E+01 -0.7086563744638E+00 -0.1779710156819E+00
-0.2022804709850E+00 -0.3335035113182E+01 -0.7074631273754E+00 -0.2049811369601E+00
-0.2167258133829E+00 -0.3314822548580E+01 -0.7063096829175E+00 -0.2325580876117E+00
-0.2334470794724E+00 -0.3291571038760E+01 -0.7050036341518E+00 -0.2606665840872E+00
-0.2517254175551E+00 -0.3264886726209E+01 -0.7033224392331E+00 -0.2890858380782E+00
-0.2706979513026E+00 -0.3234333919441E+01 -0.7010063845945E+00 -0.3173736931635E+00
-0.2892954316217E+00 -0.3199458736676E+01 -0.6977508440569E+00 -0.3448344864044E+00
-0.3061727981871E+00 -0.3159818884733E+01 -0.6931983469134E+00 -0.3704909519365E+00
-0.3196344291704E+00 -0.3115024452428E+01 -0.6869317865558E+00 -0.3930649093600E+00
-0.3275544614118E+00 -0.3064814560635E+01 -0.6784738145194E+00 -0.4109784634312E+00
-0.3273074569035E+00 -0.3009133905160E+01 -0.6672882823562E+00 -0.4223613120515E+00
-0.3157056545334E+00 -0.2948171424831E+01 -0.6527754256000E+00 -0.4250449684796E+00
-0.2889135936536E+00 -0.2882412694802E+01 -0.6342652671424E+00 -0.4165721326376E+00
-0.2423284856757E+00 -0.2812738886337E+01 -0.6110134835073E+00 -0.3942532343797E+00
-0.1704322404249E+00 -0.2740583771038E+01 -0.5822032109681E+00 -0.3553075013432E+00
-0.6664329929820E-01 -0.2668141085451E+01 -0.5469568851001E+00 -0.2971364637223E+00
 0.7676752786478E-01 -0.2598586221753E+01 -0.5043637462932E+00 -0.2177856479006E+00
 0.2685790515778E+00 -0.2536233236029E+01 -0.4535308436484E+00 -0.1166448110801E+00
 0.5181987534959E+00 -0.2486467643056E+01 -0.3936537837779E+00  0.4621095075169E-02
 0.8346963789731E+00 -0.2455299315763E+01 -0.3241205921878E+00  0.1409873552258E+00
 0.1224920328742E+01 -0.2448368662227E+01 -0.2446896703432E+00  0.2830579152433E+00
 0.1690638185540E+01 -0.2469202726882E+01 -0.1557129105889E+00  0.4167235869778E+00
 0.2225216628533E+01 -0.2516943349709E+01 -0.5834534510465E-01  0.5242579807293E+00
 0.2810913157744E+01 -0.2584299617746E+01  0.4532270867501E-01  0.5874410713734E+00
 0.3418861597063E+01 -0.2657124095097E+01  0.1523475026634E+00  0.5928743041168E+00
 0.4015186044742E+01 -0.2718272336631E+01  0.2593827454874E+00  0.5373310679683E+00
-0.7611411008772E+00 -0.3237424738471E+01 -0.7997131797862E+00  0.2082959504603E+00
-0.6737942663507E+00 -0.3274860913056E+01 -0.7897310476492E+00  0.2028658439041E+00
-0.5874230581081E+00 -0.3310080521661E+01 -0.7795007275692E+00  0.1894977934845E+00
-0.5055369585580E+00 -0.3341204773435E+01 -0.7693483578628E+00  0.1687801071570E+00
-0.4311107341409E+00 -0.3366871950356E+01 -0.7595965482182E+00  0.1422376351300E+00
-0.3660889525227E+00 -0.3386488072847E+01 -0.7505154162574E+00  0.1118513114819E+00
-0.3113130206642E+00 -0.3400175291300E+01 -0.7422976734539E+00  0.7954894788310E-01
-0.2667380111188E+00 -0.3408538186351E+01 -0.7350552504472E+00  0.4686574385352E-01
-0.2317511088529E+00 -0.3412396377262E+01 -0.7288295080834E+00  0.1481612511165E-01
-0.2054587669714E+00 -0.3412576031106E+01 -0.7236069703981E+00 -0.1607950938208E-01
-0.1868885666121E+00 -0.3409786223035E+01 -0.7193349686483E+00 -0.4569156627061E-01
-0.1751054683742E+00 -0.3404566077903E+01 -0.7159343199238E+00 -0.7416014051032E-01
-0.1692639916171E+00 -0.3397276516118E+01 -0.7133081121760E+00 -0.1017866216835E+00
-0.1686201453901E+00 -0.3388113779450E+01 -0.7113467955679E+00 -0.1289476424038E+00
-0.1725210379448E+00 -0.3377129903375E+01 -0.7099301988427E+00 -0.1560298636518E+00
-0.1803830327202E+00 -0.3364252421175E+01 -0.7089271013429E+00 -0.1833800375368E+00
-0.1916638333674E+00 -0.3349300399250E+01 -0.7081928570765E+00 -0.2112643226192E+00
-0.2058295799875E+00 -0.3331997412394E+01 -0.7075654090198E+00 -0.2398309885530E+00
-0.2223169675719E+00 -0.3311982236339E+01 -0.7068598513151E+00 -0.2690747963420E+00
-0.2404877667501E+00 -0.3288820703859E+01 -0.7058617046400E+00 -0.2988002992992E+00
-0.2595741070820E+00 -0.3262021383148E+01 -0.7043191085412E+00 -0.3285843322983E+00
-0.2786150843572E+00 -0.3231055656593E+01 -0.7019341586497E+00 -0.3577418470339E+00
-0.2963854976287E+00 -0.3195383832099E+01 -0.6983538763519E+00 -0.3852957385452E+00
-0.3113188285071E+00 -0.3154492584090E+01 -0.6931622928484E+00 -0.4099553797237E+00
-0.3214248093443E+00 -0.3107971496698E+01 -0.6858792714289E+00 -0.4301149016968E+00
-0.3242184738814E+00 -0.3055588228524E+01 -0.6759613505538E+00 -0.4438566452293E+00
-0.3166556488180E+00 -0.2997320039850E+01 -0.6627951476100E+00 -0.4489382901456E+00
-0.2950397166602E+00 -0.2933399670286E+01 -0.6456878870107E+00 -0.4427885888298E+00
-0.2548820224711E+00 -0.2864415006425E+01 -0.6238594150755E+00 -0.4225432526916E+00
-0.1907154871155E+00 -0.2791480465880E+01 -0.5964391994868E+00 -0.3851606196699E+00
-0.9588285420327E-01 -0.2716479940560E+01 -0.5624725673342E+00 -0.3276711675964E+00
 0.3764148622903E-01 -0.2642353465199E+01 -0.5209424035566E+00 -0.2476296250817E+00
 0.2192752431739E+00 -0.2573353577254E+01 -0.4708156738318E+00 -0.1438438365853E+00
 0.4595371419534E+00 -0.2515098340305E+01 -0.4111122457964E+00 -0.1740445463229E-01
 0.7691599657239E+00 -0.2474233004571E+01 -0.3410146128508E+00  0.1270252446494E+00
 0.1157119311961E+01 -0.2457465276078E+01 -0.2600691966986E+00  0.2798671615825E+00
 0.1627369947163E+01 -0.2469646522574E+01 -0.1684553175923E+00  0.4259042511659E+00
 0.2174787667373E+01 -0.2511029848103E+01 -0.6724843714802E-01  0.5451832344752E+00
 0.2781393903168E+01 -0.2574637026833E+01  0.4135137588315E-01  0.6162762857487E+00
 0.3415121470741E+01 -0.2644830529506E+01  0.1540581905425E+00  0.6226030027962E+00
 0.4036921199192E+01 -0.2701553834793E+01  0.2670734768596E+00  0.5608094902669E+00
-0.7605651402462E+00 -0.3241559791417E+01 -0.8004249982599E+00  0.2228660305983E+00
-0.6701797228908E+00 -0.3280145216816E+01 -0.7900649997143E+00  0.2169719863597E+00
-0.5807761673864E+00 -0.3316278440002E+01 -0.7794109330918E+00  0.2023474170462E+00
-0.4963056739698E+00 -0.3347884759258E+01 -0.7688380981022E+00  0.1797071334587E+00
-0.4200302830672E+00 -0.3373538611557E+01 -0.7587137902306E+00  0.1508703418375E+00
-0.3539589709486E+00 -0.3392734999335E+01 -0.7493388052227E+00  0.1181402333069E+00
-0.2988198294034E+00 -0.3405782922609E+01 -0.7409205614431E+00  0.8368783500053E-01
-0.2543672173287E+00 -0.3413496749347E+01 -0.7335728042662E+00  0.4917565989067E-01
-0.2197781835887E+00 -0.3416875337659E+01 -0.7273307150876E+00  0.1564563620269E-01
-0.1939838522674E+00 -0.3416872127171E+01 -0.7221712066488E+00 -0.1641769610958E-01
-0.1758859052739E+00 -0.3414273327737E+01 -0.7180318573017E+00 -0.4695012291165E-01
-0.1644702963296E+00 -0.3409657272010E+01 -0.7148255243197E+00 -0.7616411014573E-01
-0.1588503692483E+00 -0.3403399688713E+01 -0.7124500222087E+00 -0.1044288962934E+00
-0.1582693454572E+00 -0.3395697880860E+01 -0.7107934558550E+00 -0.1321804464855E+00
-0.1620826475162E+00 -0.3386597966305E+01 -0.7097361333401E+00 -0.1598563180049E+00
-0.1697314627182E+00 -0.3376017864165E+01 -0.7091498759438E+00 -0.1878474866370E+00
-0.1807126006092E+00 -0.3363763892894E+01 -0.7088953092640E+00 -0.2164596932382E+00
-0.1945451108136E+00 -0.3349542206922E+01 -0.7088174741093E+00 -0.2458776322313E+00
-0.2107329042667E+00 -0.3332966629652E+01 -0.7087399173447E+00 -0.2761298764260E+00
-0.2287199799057E+00 -0.3313566757360E+01 -0.7084573580101E+00 -0.3070515927894E+00
-0.2478358343491E+00 -0.3290799507613E+01 -0.7077270789384E+00 -0.3382454352662E+00
-0.2672311322080E+00 -0.3264065282779E+01 -0.7062592935215E+00 -0.3690453175347E+00
-0.2858045870772E+00 -0.3232730132031E+01 -0.7037069543077E+00 -0.3984842244928E+00
-0.3021237372735E+00 -0.3196159500195E+01 -0.6996566579195E+00 -0.4252708491308E+00
-0.3143402144383E+00 -0.3153794211828E+01 -0.6936268955891E+00 -0.4477851681280E+00
-0.3201184377488E+00 -0.3105223323194E+01 -0.6850683623968E+00 -0.4640783259758E+00
-0.3165716449756E+00 -0.3050206505342E+01 -0.6733556400974E+00 -0.4718528735764E+00
-0.3001638272256E+00 -0.2988710164632E+01 -0.6577748081732E+00 -0.4684438766417E+00
-0.2665533202254E+00 -0.2921003444874E+01 -0.6375113625195E+00 -0.4508310924506E+00
-0.2103702433533E+00 -0.2847838858758E+01 -0.6116418295364E+00 -0.4157231635953E+00
-0.1249404066282E+00 -0.2770726141960E+01 -0.5791333183475E+00 -0.3597728175335E+00
-0.2005326646475E-02 -0.2692282857490E+01 -0.5388576448570E+00 -0.2800040190559E+00
 0.1684445401753E+00 -0.2616598685121E+01 -0.4896308362853E+00 -0.1745508734664E+00
 0.3980492241931E+00 -0.2549433649920E+01 -0.4302768915570E+00 -0.4377215764650E-01
 0.6993330766680E+00 -0.2498034383113E+01 -0.3597402666495E+00  0.1082457705667E+00
 0.1083701108925E+01 -0.2470257751196E+01 -0.2773113325864E+00  0.2719591376737E+00
 0.1557793691297E+01 -0.2472507679166E+01 -0.1829428002998E+00  0.4311465675572E+00
 0.2118498396929E+01 -0.2506476555745E+01 -0.7759563291960E-01  0.5634467465102E+00
 0.2748164875288E+01 -0.2565720111638E+01  0.3648895327372E-01  0.6438601245062E+00
 0.3411115897807E+01 -0.2633601985486E+01  0.1555027847813E+00  0.6513128949726E+00
 0.4060186409219E+01 -0.2684967895786E+01  0.2750437067852E+00  0.5821586527389E+00
-0.7599577284528E+00 -0.3246175287353E+01 -0.8012266151003E+00  0.2379194289570E+00
-0.6662289935450E+00 -0.3285996874818E+01 -0.7904451854512E+00  0.2315147701742E+00
-0.5734917793123E+00 -0.3323075228227E+01 -0.7793134131206E+00  0.2154882595751E+00
-0.4862312574176E+00 -0.3355103445358E+01 -0.7682669520033E+00  0.1907215480952E+00
-0.4080355016539E+00 -0.3380596521118E+01 -0.7577264158453E+00  0.1593972936020E+00
-0.3409603698789E+00 -0.3399176033951E+01 -0.7480272919124E+00  0.1241959763588E+00
-0.2855747527194E+00 -0.3411384069003E+01 -0.7393917753623E+00  0.8755356392107E-01
-0.2413860988711E+00 -0.3418279679177E+01 -0.7319331665163E+00  0.5125310408980E-01
-0.2073290930537E+00 -0.3421058027917E+01 -0.7256774350077E+00  0.1634329570500E-01
-0.1821429493150E+00 -0.3420802394769E+01 -0.7205890795545E+00 -0.1674953657217E-01
-0.1645982284338E+00 -0.3418370694411E+01 -0.7165937952470E+00 -0.4804425948394E-01
-0.1536028745012E+00 -0.3414372511581E+01 -0.7135950878499E+00 -0.7783732148306E-01
-0.1482324799722E+00 -0.3409191149863E+01 -0.7114847365690E+00 -0.1065723281533E+00
-0.1477211640136E+00 -0.3403019886261E+01 -0.7101482206370E+00 -0.1347476912776E+00
-0.1514356356042E+00 -0.3395896335935E+01 -0.7094664048796E+00 -0.1628531457438E+00
-0.1588438988195E+00 -0.3387728581533E+01 -0.7093145066402E+00 -0.1913245720765E+00
-0.1694830027737E+00 -0.3378312003750E+01 -0.7095590118780E+00 -0.2205082918261E+00
-0.1829255169594E+00 -0.3367338766434E+01 -0.7100528672594E+00 -0.2506274155983E+00
-0.1987431070242E+00 -0.3354402326283E+01 -0.7106290972506E+00 -0.2817477688520E+00
-0.2164629408202E+00 -0.3339001279636E+01 -0.7110928546874E+00 -0.3137402611389E+00
-0.2355135828026E+00 -0.3320546295176E+01 -0.7112119861937E+00 -0.3462402117843E+00
-0.2551598399802E+00 -0.3298371998762E+01 -0.7107063783388E+00 -0.3786089750338E+00
-0.2744276749202E+00 -0.3271754953227E+01 -0.7092365361979E+00 -0.4098997721180E+00
-0.2920227157013E+00 -0.3239943477817E+01 -0.7063932492298E+00 -0.4388327556522E+00
-0.3062436059681E+00 -0.3202232716471E+01 -0.7016952749440E+00 -0.4637882800114E+00
-0.3149116883415E+00 -0.3158034305098E+01 -0.6945892090381E+00 -0.4828038171009E+00
-0.3153101872119E+00 -0.3106887604947E+01 -0.6844395686307E+00 -0.4935479467187E+00
-0.3040849352818E+00 -0.3048482629134E+01 -0.6705135228746E+00 -0.4932863735981E+00
-0.2770752590093E+00 -0.2982747436450E+01 -0.6519645488070E+00 -0.4788679128658E+00
-0.2290590324247E+00 -0.2910031600319E+01 -0.6278181359039E+00 -0.4467716035181E+00
-0.1534138436261E+00 -0.2831403878744E+01 -0.5969635533694E+00 -0.3932770768451E+00
-0.4173019518543E-01 -0.2749061948598E+01 -0.5581584370738E+00 -0.3148492985757E+00
 0.1165179211619E+00 -0.2666809120644E+01 -0.5100582474968E+00 -0.2088632784574E+00
 0.3340677622281E+00 -0.2590421281687E+01 -0.4512707106162E+00 -0.7477944064392E-01
 0.6253364718687E+00 -0.2527670750148E+01 -0.3804668613253E+00  0.8414426730142E-01
 0.1004476833187E+01 -0.2487617138965E+01 -0.2966280655757E+00  0.2586821139136E+00
 0.1481365651880E+01 -0.2478460267799E+01 -0.1994189261553E+00  0.4317858824824E+00
 0.2055669706215E+01 -0.2503724083376E+01 -0.8961087676746E-01  0.5785583821740E+00
 0.2710223989100E+01 -0.2557791146311E+01  0.3048656901195E-01  0.6698723771513E+00
 0.3407811773417E+01 -0.2623305710286E+01  0.1569012149641E+00  0.6796308291802E+00
 0.4082998491320E+01 -0.2669469573215E+01  0.2827057878337E+00  0.6000347778056E+00
-0.7593166662219E+00 -0.3251350213203E+01 -0.8021333878378E+00  0.2534976447218E+00
-0.6618995310426E+00 -0.3292501962633E+01 -0.7908803105201E+00  0.2465251035126E+00
-0.5654901740719E+00 -0.3330548326472E+01 -0.7792077117199E+00  0.2289178054108E+00
-0.4752233274023E+00 -0.3362908415762E+01 -0.7676263600713E+00  0.2017802254600E+00
-0.3950530506850E+00 -0.3388049085726E+01 -0.7566204385568E+00  0.1677458142810E+00
-0.3270525026718E+00 -0.3405769631239E+01 -0.7465644379069E+00  0.1299361487585E+00
-0.2715714424505E+00 -0.3416902057726E+01 -0.7376947110278E+00  0.9107152254781E-01
-0.2278156715054E+00 -0.3422788704076E+01 -0.7301208859960E+00  0.5304119775141E-01
-0.1944428624532E+00 -0.3424836365626E+01 -0.7238558564021E+00  0.1687275117131E-01
-0.1699850116208E+00 -0.3424256753815E+01 -0.7188483637989E+00 -0.1709244700473E-01
-0.1530788251794E+00 -0.3421970205931E+01 -0.7150098168766E+00 -0.4897573872034E-01
-0.1425575272675E+00 -0.3418606843287E+01 -0.7122328847240E+00 -0.7916915969435E-01
-0.1374639949878E+00 -0.3414548710933E+01 -0.7104025517700E+00 -0.1081964108464E+00
-0.1370278568369E+00 -0.3409979265776E+01 -0.7094014350934E+00 -0.1366204494165E+00
-0.1406304670101E+00 -0.3404924938738E+01 -0.7091110917163E+00 -0.1649834878523E+00
-0.1477686333715E+00 -0.3399284074323E+01 -0.7094105521100E+00 -0.1937661386019E+00
-0.1580204898522E+00 -0.3392843560636E+01 -0.7101728206801E+00 -0.2233556049805E+00
-0.1710122503866E+00 -0.3385285903227E+01 -0.7112596413212E+00 -0.2540148840446E+00
-0.1863832766682E+00 -0.3376189915670E+01 -0.7125146490848E+00 -0.2858501753383E+00
-0.2037442347290E+00 -0.3365029756688E+01 -0.7137548089192E+00 -0.3187731571519E+00
-0.2226239202560E+00 -0.3351176697747E+01 -0.7147601342513E+00 -0.3524587499895E+00
-0.2424034121708E+00 -0.3333906324954E+01 -0.7152619580832E+00 -0.3863044363887E+00
-0.2622388059932E+00 -0.3312412138103E+01 -0.7149301994726E+00 -0.4193940839050E+00
-0.2809772096937E+00 -0.3285831319237E+01 -0.7133617164160E+00 -0.4504718050859E+00
-0.2970684199177E+00 -0.3253318652262E+01 -0.7100774250168E+00 -0.4779335064752E+00
-0.3084969902313E+00 -0.3214112244860E+01 -0.7045218575164E+00 -0.4998217660716E+00
-0.3127274698707E+00 -0.3167531654175E+01 -0.6960518351811E+00 -0.5137946965622E+00
-0.3066081040904E+00 -0.3112984062628E+01 -0.6839184435348E+00 -0.5170769771996E+00
-0.2861940385756E+00 -0.3050037664771E+01 -0.6672463506121E+00 -0.5064178589456E+00
-0.2464653475425E+00 -0.2978600376341E+01 -0.6450131543881E+00 -0.4780963415961E+00
-0.1809296931916E+00 -0.2899231651993E+01 -0.6160322782166E+00 -0.4280364886979E+00
-0.8112744438673E-01 -0.2813602027413E+01 -0.5789459029868E+00 -0.3521307509812E+00
 0.6387704885247E-01 -0.2725080821477E+01 -0.5322407624558E+00 -0.2469204176156E+00
 0.2678520264712E+00 -0.2639291429778E+01 -0.4742878877288E+00 -0.1107955691060E+00
 0.5471736190268E+00 -0.2564401062689E+01 -0.4034454947442E+00  0.5410411902617E-01
 0.9190598564577E+00 -0.2510683151891E+01 -0.3183246638301E+00  0.2392370804174E+00
 0.1397294480254E+01 -0.2488384414704E+01 -0.2182179901418E+00  0.4270030948398E+00
 0.1985153560067E+01 -0.2503337519056E+01 -0.1036367933422E+00  0.5899274517302E+00
 0.2667009018812E+01 -0.2551199959718E+01  0.2316181216395E-01  0.6939373263624E+00
 0.3402338116924E+01 -0.2613699775479E+01  0.1577276706392E+00  0.7080247028937E+00
 0.4120351306064E+01 -0.2655213267976E+01  0.2930276119840E+00  0.6125581025644E+00
-0.7586471952684E+00 -0.3257184834643E+01 -0.8031664179505E+00  0.2696465576352E+00
-0.6571424002009E+00 -0.3299767400362E+01 -0.7913819719050E+00  0.2620330951443E+00
-0.5566800217715E+00 -0.3338791199183E+01 -0.7790942558003E+00  0.2426228287847E+00
-0.4631820621654E+00 -0.3371352673559E+01 -0.7669069585727E+00  0.2128201920071E+00
-0.3810087250032E+00 -0.3395893192986E+01 -0.7553803948538E+00  0.1758203330986E+00
-0.3122030398701E+00 -0.3412459108949E+01 -0.7449324408642E+00  0.1352585971979E+00
-0.2568181134389E+00 -0.3422241564151E+01 -0.7358119464825E+00  0.9415359120124E-01
-0.2136941592978E+00 -0.3426907456106E+01 -0.7281203339306E+00  0.5447583590665E-01
-0.1811758418730E+00 -0.3428086726081E+01 -0.7218525243472E+00  0.1719513384424E-01
-0.1575752712275E+00 -0.3427112381112E+01 -0.7169375411510E+00 -0.1746346961604E-01
-0.1413960408641E+00 -0.3424953028696E+01 -0.7132698245406E+00 -0.4974446696843E-01
-0.1314027624380E+00 -0.3422245415765E+01 -0.7107296462313E+00 -0.8014653563052E-01
-0.1266124569635E+00 -0.3419359767469E+01 -0.7091944554544E+00 -0.1092779597473E+00
-0.1262558495123E+00 -0.3416463202090E+01 -0.7085438208785E+00 -0.1377670027995E+00
-0.1297326638454E+00 -0.3413568183052E+01 -0.7086601799393E+00 -0.1662074419410E+00
-0.1365704387782E+00 -0.3410563710125E+01 -0.7094268403520E+00 -0.1951234089361E+00
-0.1463888679597E+00 -0.3407231216114E+01 -0.7107240274054E+00 -0.2249424185859E+00
-0.1588673289262E+00 -0.3403248743662E+01 -0.7124232251336E+00 -0.2559681261364E+00
-0.1737120551659E+00 -0.3398187314053E+01 -0.7143798844888E+00 -0.2883497286456E+00
-0.1906167145513E+00 -0.3391504571602E+01 -0.7164242679061E+00 -0.3220444318871E+00
-0.2092107165581E+00 -0.3382540774202E+01 -0.7183503088563E+00 -0.3567736412278E+00
-0.2289928395632E+00 -0.3370520858714E+01 -0.7199027503828E+00 -0.3919797320959E+00
-0.2492514541421E+00 -0.3354563502396E+01 -0.7207630020479E+00 -0.4267877311537E+00
-0.2689775064369E+00 -0.3333702879342E+01 -0.7205360878926E+00 -0.4599783443590E+00
-0.2867745439565E+00 -0.3306961393052E+01 -0.7187471981119E+00 -0.4899785583725E+00
-0.3007945359561E+00 -0.3273410879440E+01 -0.7148410937312E+00 -0.5148557926035E+00
-0.3086923266884E+00 -0.3232155856768E+01 -0.7081696472438E+00 -0.5322833054205E+00
-0.3075369974869E+00 -0.3182319496567E+01 -0.6979713092113E+00 -0.5394770305231E+00
-0.2936332613863E+00 -0.3123097455826E+01 -0.6833461536251E+00 -0.5331247513960E+00
-0.2622194283423E+00 -0.3053923360879E+01 -0.6632285677271E+00 -0.5093457737206E+00
-0.2070189219786E+00 -0.2974782601855E+01 -0.6363603142492E+00 -0.4637422279844E+00
-0.1196412563980E+00 -0.2886707029007E+01 -0.6012696660407E+00 -0.3916416954857E+00
 0.1111620920941E-01 -0.2792463725723E+01 -0.5562695115917E+00 -0.2886982992467E+00
 0.1999314687665E+00 -0.2697309379432E+01 -0.4994755895760E+00 -0.1520670590379E+00
 0.4651428407459E+00 -0.2609604861963E+01 -0.4288924106345E+00  0.1755190904220E-01
 0.8273316130480E+00 -0.2540776770511E+01 -0.3426890365991E+00  0.2127568393543E+00
 0.1304913500009E+01 -0.2503358627975E+01 -0.2396890291648E+00  0.4158226261066E+00
 0.1905934843026E+01 -0.2506037937143E+01 -0.1200206206117E+00  0.5966884965052E+00
 0.2617207230774E+01 -0.2546461671279E+01  0.1414911210984E-01  0.7158569754325E+00
 0.3395189240883E+01 -0.2604804435595E+01  0.1580769634132E+00  0.7347438119309E+00
 0.4167884010920E+01 -0.2643973899867E+01  0.3047820267521E+00  0.6273576991492E+00
-0.7579464127246E+00 -0.3263802244689E+01 -0.8043497434684E+00  0.2864168839881E+00
-0.6518913805568E+00 -0.3307923994491E+01 -0.7919630868107E+00  0.2780667016620E+00
-0.5469448188284E+00 -0.3347914228934E+01 -0.7789718211600E+00  0.2565746991249E+00
-0.4499878994675E+00 -0.3380492402409E+01 -0.7660960717909E+00  0.2237521147029E+00
-0.3658213166559E+00 -0.3404114549820E+01 -0.7539871845305E+00  0.1834967764389E+00
-0.2963852110593E+00 -0.3419167591439E+01 -0.7431105715729E+00  0.1400382884179E+00
-0.2413364906566E+00 -0.3427284845318E+01 -0.7337242781282E+00  0.9669738934673E-01
-0.1990764737142E+00 -0.3430499627297E+01 -0.7259152310192E+00  0.5548626314540E-01
-0.1676012417142E+00 -0.3430669821013E+01 -0.7196542232692E+00  0.1726988612250E-01
-0.1449948009488E+00 -0.3429234790006E+01 -0.7148459288431E+00 -0.1787893742891E-01
-0.1296329928848E+00 -0.3427191392746E+01 -0.7113648877263E+00 -0.5034907025290E-01
-0.1202212733962E+00 -0.3425165596652E+01 -0.7090773845757E+00 -0.8075559842542E-01
-0.1157596665493E+00 -0.3423503517450E+01 -0.7078526473478E+00 -0.1097941037695E+00
-0.1154865787326E+00 -0.3422348757513E+01 -0.7075670777927E+00 -0.1381572344144E+00
-0.1188241624711E+00 -0.3421696963366E+01 -0.7081042357190E+00 -0.1664879781350E+00
-0.1253325065687E+00 -0.3421428461487E+01 -0.7093522041813E+00 -0.1953515541942E+00
-0.1346729015132E+00 -0.3421322801367E+01 -0.7111991511738E+00 -0.2252141701538E+00
-0.1465766962051E+00 -0.3421059553143E+01 -0.7135272605020E+00 -0.2564200131503E+00
-0.1608152419773E+00 -0.3420209879589E+01 -0.7162050349856E+00 -0.2891631803231E+00
-0.1771636590330E+00 -0.3418224198491E+01 -0.7190775822199E+00 -0.3234506660974E+00
-0.1953512999858E+00 -0.3414421722028E+01 -0.7219546151607E+00 -0.3590569712073E+00
-0.2149950757214E+00 -0.3407986863127E+01 -0.7245963985669E+00 -0.3954779801216E+00
-0.2355167084980E+00 -0.3397973636403E+01 -0.7266980798088E+00 -0.4318902132026E+00
-0.2560518766151E+00 -0.3383323633120E+01 -0.7278751127933E+00 -0.4671233500730E+00
-0.2753582912293E+00 -0.3362937792275E+01 -0.7276592275437E+00 -0.4996508370933E+00
-0.2917565353503E+00 -0.3335732814200E+01 -0.7254978807207E+00 -0.5275850279920E+00
-0.3030970590100E+00 -0.3300608114159E+01 -0.7207410453737E+00 -0.5486413720184E+00
-0.3066842769880E+00 -0.3256408490960E+01 -0.7126185642085E+00 -0.5600625868501E+00
-0.2991026703719E+00 -0.3201953107454E+01 -0.7002111659991E+00 -0.5585193004978E+00
-0.2759030694017E+00 -0.3136178947327E+01 -0.6824164135145E+00 -0.5400225127901E+00
-0.2311136928602E+00 -0.3058442353392E+01 -0.6579112190542E+00 -0.4999044207829E+00
-0.1565475512280E+00 -0.2969028576380E+01 -0.6251152348366E+00 -0.4329628443674E+00
-0.4091437799423E-01 -0.2869920724182E+01 -0.5821670291102E+00 -0.3339450491124E+00
 0.1311846397215E+00 -0.2765749037106E+01 -0.5269128873285E+00 -0.1986320647756E+00
 0.3799630309952E+00 -0.2664780227871E+01 -0.4569634461844E+00 -0.2595069789244E-01
 0.7295886300171E+00 -0.2579429388400E+01 -0.3699681571895E+00  0.1783870602253E+00
 0.1203896673197E+01 -0.2524694117948E+01 -0.2641594928865E+00  0.3971230649359E+00
 0.1817058601204E+01 -0.2512789155640E+01 -0.1391461129607E+00  0.5978414614670E+00
 0.2559730721964E+01 -0.2544070647594E+01  0.3132014920577E-02  0.7348047979068E+00
 0.3386480564672E+01 -0.2598043494467E+01  0.1576874163908E+00  0.7602142145469E+00
 0.4218596633965E+01 -0.2633933982101E+01  0.3169325350954E+00  0.6416399923542E+00
-0.7572130577137E+00 -0.3271357948240E+01 -0.8057142131969E+00  0.3038668044810E+00
-0.6460634198636E+00 -0.3317135490004E+01 -0.7926397937848E+00  0.2946553171616E+00
-0.5361415838777E+00 -0.3358052051340E+01 -0.7788387386491E+00  0.2707309577443E+00
-0.4354994962614E+00 -0.3390390422749E+01 -0.7651779952041E+00  0.2344612280959E+00
-0.3494006255008E+00 -0.3412688268690E+01 -0.7524177900500E+00  0.1906249725168E+00
-0.2795741453754E+00 -0.3425798082408E+01 -0.7410744565995E+00  0.1441318932844E+00
-0.2251549472750E+00 -0.3431892999097E+01 -0.7314096001732E+00  0.9859201122546E-01
-0.1840236943573E+00 -0.3433411825654E+01 -0.7234871147830E+00  0.5600052066162E-01
-0.1537953758601E+00 -0.3432434881692E+01 -0.7172460621982E+00  0.1705899577003E-01
-0.1323241895935E+00 -0.3430483124122E+01 -0.7125614733610E+00 -0.1835171155026E-01
-0.1178691901062E+00 -0.3428555189704E+01 -0.7092848865312E+00 -0.5078545080936E-01
-0.1090897299095E+00 -0.3427245518436E+01 -0.7072670602082E+00 -0.8098132253640E-01
-0.1049796150316E+00 -0.3426862470883E+01 -0.7063684277087E+00 -0.1097226421775E+00
-0.1047923550927E+00 -0.3427518653956E+01 -0.7064622123369E+00 -0.1377635960997E+00
-0.1079767888305E+00 -0.3429190253207E+01 -0.7074334189490E+00 -0.1657924902642E+00
-0.1141271817936E+00 -0.3431750057027E+01 -0.7091754583317E+00 -0.1944119466772E+00
-0.1229459844252E+00 -0.3434979962172E+01 -0.7115851999229E+00 -0.2241241795239E+00
-0.1342146082258E+00 -0.3438567947232E+01 -0.7145565217392E+00 -0.2553128580832E+00
-0.1477668508835E+00 -0.3442094434103E+01 -0.7179722676959E+00 -0.2882181348683E+00
-0.1634567206831E+00 -0.3445013389145E+01 -0.7216940327198E+00 -0.3229005570329E+00
-0.1811118973251E+00 -0.3446634652493E+01 -0.7255493207751E+00 -0.3591941117147E+00
-0.2004670964156E+00 -0.3446114032814E+01 -0.7293162367137E+00 -0.3966567528036E+00
-0.2210777712437E+00 -0.3442452897036E+01 -0.7327061445741E+00 -0.4345267101738E+00
-0.2422241862123E+00 -0.3434512775257E+01 -0.7353474032515E+00 -0.4716947001451E+00
-0.2628168024481E+00 -0.3421086694176E+01 -0.7367807103037E+00 -0.5066956298259E+00
-0.2813432213206E+00 -0.3400950878805E+01 -0.7364588309992E+00 -0.5377068466390E+00
-0.2958511923098E+00 -0.3372814415857E+01 -0.7337331325668E+00 -0.5625139019396E+00
-0.3038908109132E+00 -0.3335256049079E+01 -0.7278293828439E+00 -0.5784242616817E+00
-0.3023522049878E+00 -0.3286723624888E+01 -0.7178151766715E+00 -0.5821408217829E+00
-0.2871494338578E+00 -0.3225647021598E+01 -0.7025593015601E+00 -0.5696275318184E+00
-0.2527045470732E+00 -0.3150712006142E+01 -0.6806833207861E+00 -0.5360166271887E+00
-0.1911788593324E+00 -0.3061359260401E+01 -0.6505076336401E+00 -0.4756410973512E+00
-0.9140749484249E-01 -0.2958600405379E+01 -0.6100015891340E+00 -0.3823634779738E+00
 0.6246835011736E-01 -0.2846137261564E+01 -0.5567337905853E+00 -0.2504936432769E+00
 0.2923369094401E+00 -0.2731756795481E+01 -0.4878839844783E+00 -0.7685600778312E-01
 0.6260704148656E+00 -0.2628554682388E+01 -0.4004968594724E+00  0.1351653232810E+00
 0.1093721573053E+01 -0.2554075537575E+01 -0.2920707972566E+00  0.3695981135135E+00
 0.1717243568979E+01 -0.2524775393747E+01 -0.1615063673601E+00  0.5921339336279E+00
 0.2493156155851E+01 -0.2544888087551E+01 -0.1034638649419E-01  0.7500724491937E+00
 0.3375027739219E+01 -0.2594090327774E+01  0.1561874846163E+00  0.7845223023455E+00
 0.4273435744418E+01 -0.2626498440885E+01  0.3293874656150E+00  0.6549712129919E+00
-0.7564443018632E+00 -0.3280048339102E+01 -0.8072985402226E+00  0.3220631259929E+00
-0.6395516577680E+00 -0.3327606429826E+01 -0.7934316293419E+00  0.3118262569122E+00
-0.5240932445068E+00 -0.3369365933657E+01 -0.7786918472361E+00  0.2850255412186E+00
-0.4195518686893E+00 -0.3401111295151E+01 -0.7641326441546E+00  0.2447949204915E+00
-0.3316521470284E+00 -0.3421569182396E+01 -0.7506442770703E+00  0.1970188733048E+00
-0.2617553965515E+00 -0.3432223323910E+01 -0.7387957551012E+00  0.1473726603070E+00
-0.2083179938735E+00 -0.3435898074856E+01 -0.7288432246066E+00  0.9971660745204E-01
-0.1686121870473E+00 -0.3435468380337E+01 -0.7208161242178E+00  0.5594594560094E-01
-0.1398462860353E+00 -0.3433216359193E+01 -0.7146125396942E+00  0.1652815186999E-01
-0.1196520185164E+00 -0.3430707708862E+01 -0.7100719560565E+00 -0.1888991264517E-01
-0.1061892364574E+00 -0.3428909479410E+01 -0.7070197537089E+00 -0.5104552445019E-01
-0.9808800054649E-01 -0.3428360798073E+01 -0.7052897702335E+00 -0.8080620825993E-01
-0.9434845645186E-01 -0.3429317699171E+01 -0.7047332416259E+00 -0.1090406268992E+00
-0.9424729316348E-01 -0.3431854349614E+01 -0.7052203390640E+00 -0.1365594851627E+00
-0.9726435280559E-01 -0.3435925240539E+01 -0.7066379291987E+00 -0.1640908691933E+00
-0.1030294288325E+00 -0.3441397313845E+01 -0.7088853590988E+00 -0.1922698054558E+00
-0.1112851733710E+00 -0.3448059718822E+01 -0.7118689890463E+00 -0.2216306917549E+00
-0.1218603908324E+00 -0.3455616599924E+01 -0.7154954088130E+00 -0.2525946009448E+00
-0.1346476619571E+00 -0.3463667948481E+01 -0.7196631328113E+00 -0.2854480119159E+00
-0.1495761916957E+00 -0.3471683614616E+01 -0.7242519720545E+00 -0.3203081613479E+00
-0.1665693161733E+00 -0.3478977578438E+01 -0.7291093897868E+00 -0.3570746211866E+00
-0.1854784367577E+00 -0.3484690887292E+01 -0.7340338757478E+00 -0.3953759095979E+00
-0.2059924992817E+00 -0.3487786178664E+01 -0.7387557465975E+00 -0.4345220398710E+00
-0.2275352720146E+00 -0.3487059485881E+01 -0.7429189626495E+00 -0.4734763620907E+00
-0.2491667050855E+00 -0.3481211998720E+01 -0.7460757518785E+00 -0.5108495402039E+00
-0.2695367918376E+00 -0.3468897551776E+01 -0.7476868798641E+00 -0.5449034469616E+00
-0.2868881813321E+00 -0.3448654537144E+01 -0.7471085548281E+00 -0.5735218303888E+00
-0.2990220442390E+00 -0.3418814995859E+01 -0.7435674190996E+00 -0.5941163402412E+00
-0.3031542667870E+00 -0.3377470894517E+01 -0.7361250432300E+00 -0.6034753586019E+00
-0.2956065766305E+00 -0.3322549118727E+01 -0.7236311498545E+00 -0.5975854254055E+00
-0.2712792028062E+00 -0.3252042250657E+01 -0.7046643011930E+00 -0.5714660270163E+00
-0.2228302984642E+00 -0.3164467940210E+01 -0.6774596578298E+00 -0.5190824943114E+00
-0.1394607752172E+00 -0.3059686331599E+01 -0.6398294308974E+00 -0.4334867137438E+00
-0.5187882465840E-02 -0.2940137854912E+01 -0.5890651562532E+00 -0.3074844634927E+00
 0.2032109865317E+00 -0.2812638708512E+01 -0.5218855521728E+00 -0.1355067808245E+00
 0.5172602955131E+00 -0.2690471816963E+01 -0.4346423107667E+00  0.8209998733832E-01
 0.9739782796406E+00 -0.2593629414989E+01 -0.3239302318967E+00  0.3317260906968E+00
 0.1605066691677E+01 -0.2543561257714E+01 -0.1876989160044E+00  0.5780102423999E+00
 0.2415636077684E+01 -0.2549928628440E+01 -0.2685851055154E-01  0.7607664961401E+00
 0.3359498493683E+01 -0.2593677080703E+01  0.1531642848784E+00  0.8076738830341E+00
 0.4333214300020E+01 -0.2622328630732E+01  0.3421771389565E+00  0.6670120582029E+00
-0.7556346423921E+00 -0.3290123361768E+01 -0.8091516128892E+00  0.3410834613987E+00
-0.6322171962259E+00 -0.3339593461307E+01 -0.7943621433434E+00  0.3296021340202E+00
-0.5105797494695E+00 -0.3382047868807E+01 -0.7785255352562E+00  0.2993587510667E+00
-0.4019540645900E+00 -0.3412715942115E+01 -0.7629340127095E+00  0.2545510330085E+00
-0.3124812134825E+00 -0.3430681482002E+01 -0.7486325502525E+00  0.2024495360088E+00
-0.2429311618503E+00 -0.3438276333690E+01 -0.7362415100789E+00  0.1495693575419E+00
-0.1908911766635E+00 -0.3439097349193E+01 -0.7259977159895E+00  0.9994288935394E-01
-0.1529362453535E+00 -0.3436469121376E+01 -0.7178810840433E+00  0.5525257203981E-01
-0.1258546295088E+00 -0.3432833847686E+01 -0.7117377060447E+00  0.1564961812860E-01
-0.1070747653090E+00 -0.3429750953214E+01 -0.7073651542452E+00 -0.1949493745145E-01
-0.9468229828059E-01 -0.3428115710333E+01 -0.7045596122215E+00 -0.5111601884402E-01
-0.8729847647960E-01 -0.3428385782918E+01 -0.7031368623570E+00 -0.8020965565464E-01
-0.8394382005734E-01 -0.3430750004845E+01 -0.7029387754551E+00 -0.1077241426162E+00
-0.8392666492891E-01 -0.3435237113844E+01 -0.7038327662426E+00 -0.1345193230931E+00
-0.8676206390511E-01 -0.3441778315374E+01 -0.7057080863716E+00 -0.1613558275221E+00
-0.9211632782382E-01 -0.3450237040349E+01 -0.7084706841916E+00 -0.1888947556062E+00
-0.9977079737688E-01 -0.3460415261068E+01 -0.7120372222991E+00 -0.2176976842150E+00
-0.1095982150267E+00 -0.3472041869135E+01 -0.7163280275064E+00 -0.2482198804796E+00
-0.1215452267413E+00 -0.3484747900190E+01 -0.7212586361338E+00 -0.2807933782672E+00
-0.1356112911494E+00 -0.3498033043447E+01 -0.7267288777484E+00 -0.3155944469575E+00
-0.1518115327469E+00 -0.3511230928491E+01 -0.7326085031642E+00 -0.3525939525943E+00
-0.1701120744813E+00 -0.3523483787879E+01 -0.7387191834799E+00 -0.3914994143846E+00
-0.1903346016866E+00 -0.3533731432731E+01 -0.7448132179821E+00 -0.4317025901716E+00
-0.2120445425209E+00 -0.3540720930160E+01 -0.7505531057202E+00 -0.4722504952606E+00
-0.2344462885904E+00 -0.3543080025996E+01 -0.7555052741751E+00 -0.5118428330412E+00
-0.2563444092022E+00 -0.3539361407705E+01 -0.7591411746936E+00 -0.5488444953840E+00
-0.2761695899477E+00 -0.3527957039483E+01 -0.7608253372234E+00 -0.5812649554194E+00
-0.2919738806841E+00 -0.3506978665417E+01 -0.7597905205420E+00 -0.6066598074630E+00
-0.3013120216658E+00 -0.3474188772321E+01 -0.7551001700492E+00 -0.6219581921510E+00
-0.3009489436959E+00 -0.3427032200503E+01 -0.7455962399500E+00 -0.6232449088410E+00
-0.2863375049138E+00 -0.3362810043622E+01 -0.7298295205825E+00 -0.6055288157090E+00
-0.2507760963105E+00 -0.3279068777975E+01 -0.7059689853769E+00 -0.5625370644043E+00
-0.1840881161775E+00 -0.3174362569243E+01 -0.6716901470930E+00 -0.4866449964915E+00
-0.7057353480179E-01 -0.3049527313465E+01 -0.6240201789519E+00 -0.3692106972910E+00
 0.1138205573406E+00 -0.2909817132911E+01 -0.5591993234469E+00 -0.2020644272477E+00
 0.4039735166689E+00 -0.2767976753924E+01 -0.4728006544963E+00  0.1822283490372E-01
 0.8444581897398E+00 -0.2646059815127E+01 -0.3603203304466E+00  0.2817645206420E+00
 0.1478971493117E+01 -0.2571200155712E+01 -0.2184457357741E+00  0.5535234515429E+00
 0.2324835797448E+01 -0.2560436850830E+01 -0.4712021137861E-01  0.7656760823566E+00
 0.3338281431080E+01 -0.2597560815255E+01  0.1481441253725E+00  0.8295101352510E+00
 0.4398812743372E+01 -0.2622069483242E+01  0.3553486573212E+00  0.6774793675254E+00
-0.7547740853004E+00 -0.3301904093175E+01 -0.8113356477849E+00  0.3610190066621E+00
-0.6238774994097E+00 -0.3353420372935E+01 -0.7954595863222E+00  0.3479963075560E+00
-0.4953268348149E+00 -0.3396324302244E+01 -0.7783302390097E+00  0.3135825664481E+00
-0.3824879390951E+00 -0.3425252247227E+01 -0.7615480486124E+00  0.2634624851877E+00
-0.2917999489903E+00 -0.3439903995648E+01 -0.7463408000489E+00  0.2066375599848E+00
-0.2231286680776E+00 -0.3443738606455E+01 -0.7333734658346E+00  0.1505067434738E+00
-0.1729667827549E+00 -0.3441247241080E+01 -0.7228428155381E+00  0.9913943226961E-01
-0.1371106500586E+00 -0.3436187719141E+01 -0.7146596844892E+00  0.5385772120610E-01
-0.1119341901626E+00 -0.3431092699116E+01 -0.7086053884148E+00  0.1440567295598E-01
-0.9469634370590E-01 -0.3427448789252E+01 -0.7044290370884E+00 -0.2015927569987E-01
-0.8344130066283E-01 -0.3426033303015E+01 -0.7018949311945E+00 -0.5097723681416E-01
-0.7680520767486E-01 -0.3427195033994E+01 -0.7008000587764E+00 -0.7916736233263E-01
-0.7384399061505E-01 -0.3431041252735E+01 -0.7009770591155E+00 -0.1057481233251E+00
-0.7390615081090E-01 -0.3437549225834E+01 -0.7022910857938E+00 -0.1316186665116E+00
-0.7654585415952E-01 -0.3446626171731E+01 -0.7046344156780E+00 -0.1575632502684E+00
-0.8146647365768E-01 -0.3458135064942E+01 -0.7079203182687E+00 -0.1842614143857E+00
-0.8848595829205E-01 -0.3471896893783E+01 -0.7120765810258E+00 -0.2122957162523E+00
-0.9751675470386E-01 -0.3487674599029E+01 -0.7170382814313E+00 -0.2421511834435E+00
-0.1085537616733E+00 -0.3505142817634E+01 -0.7227393266310E+00 -0.2742034081474E+00
-0.1216603640252E+00 -0.3523846686331E+01 -0.7291014209357E+00 -0.3086890237250E+00
-0.1369382206833E+00 -0.3543157180455E+01 -0.7360190911952E+00 -0.3456553702134E+00
-0.1544652672829E+00 -0.3562236026716E+01 -0.7433402698765E+00 -0.3848973643806E+00
-0.1741947764180E+00 -0.3580018248861E+01 -0.7508426162442E+00 -0.4258984554931E+00
-0.1958314823038E+00 -0.3595220368555E+01 -0.7582103814699E+00 -0.4677997701651E+00
-0.2187175403125E+00 -0.3606417098012E+01 -0.7650269390646E+00 -0.5094020624840E+00
-0.2418010254375E+00 -0.3612083916966E+01 -0.7707769999662E+00 -0.5491902082747E+00
-0.2636890996775E+00 -0.3610494733335E+01 -0.7748367781486E+00 -0.5853255912707E+00
-0.2826784993738E+00 -0.3599574056591E+01 -0.7764505227629E+00 -0.6155465538377E+00
-0.2966679830733E+00 -0.3576792401445E+01 -0.7746920884475E+00 -0.6369782077419E+00
-0.3028900089073E+00 -0.3539151887921E+01 -0.7684083908159E+00 -0.6458820878772E+00
-0.2974092983184E+00 -0.3483292841958E+01 -0.7561404393226E+00 -0.6373693246085E+00
-0.2742922321678E+00 -0.3405783922515E+01 -0.7360152419040E+00 -0.6050875028659E+00
-0.2242411346787E+00 -0.3303766260673E+01 -0.7056014895845E+00 -0.5409334666030E+00
-0.1323006407151E+00 -0.3176150879230E+01 -0.6616903138489E+00 -0.4349875093822E+00
 0.2573193288557E-01 -0.3025962854322E+01 -0.6000461932287E+00 -0.2764141039108E+00
 0.2874630317965E+00 -0.2864416206541E+01 -0.5153906426288E+00 -0.5732155580323E-01
 0.7052862377195E+00 -0.2714812300862E+01 -0.4019052186174E+00  0.2177639033584E+00
 0.1337316129200E+01 -0.2610417935867E+01 -0.2546203651276E+00  0.5162265783370E+00
 0.2217859061709E+01 -0.2578010395911E+01 -0.7203026791369E-01  0.7630982230714E+00
 0.3309321454249E+01 -0.2606645654765E+01  0.1405351619908E+00  0.8496808389725E+00
 0.4471213780189E+01 -0.2626514602596E+01  0.3689398410164E+00  0.6861355620037E+00
-0.7538451496276E+00 -0.3315807673085E+01 -0.8139305766710E+00  0.3819780988063E+00
-0.6142898314510E+00 -0.3369498200178E+01 -0.7967576181985E+00  0.3670050207463E+00
-0.4779920205483E+00 -0.3412458394398E+01 -0.7780900945836E+00  0.3274789567708E+00
-0.3609092993322E+00 -0.3438739180123E+01 -0.7599297072149E+00  0.2711772977579E+00
-0.2695383727287E+00 -0.3449049558789E+01 -0.7437175973858E+00  0.2092457269302E+00
-0.2024111561518E+00 -0.3448325867055E+01 -0.7301474155215E+00  0.1499486851572E+00
-0.1546701475254E+00 -0.3442057404174E+01 -0.7193455210589E+00  0.9717839993964E-01
-0.1212728231203E+00 -0.3434371062704E+01 -0.7111287877615E+00  0.5171191895288E-01
-0.9821180203550E-01 -0.3427785578015E+01 -0.7051994865184E+00  0.1279255587294E-01
-0.8262718127178E-01 -0.3423632746288E+01 -0.7012519959614E+00 -0.2086421278208E-01
-0.7256181487446E-01 -0.3422521625586E+01 -0.6990166985083E+00 -0.5060184735934E-01
-0.6669283988910E-01 -0.3424665049112E+01 -0.6982715882052E+00 -0.7765078363804E-01
-0.6412695518317E-01 -0.3430075856090E+01 -0.6988405726682E+00 -0.1030862256367E+00
-0.6426098950100E-01 -0.3438675289281E+01 -0.7005872661959E+00 -0.1278343573788E+00
-0.6669160791087E-01 -0.3450347019019E+01 -0.7034077358677E+00 -0.1526925684958E+00
-0.7115927234825E-01 -0.3464957392186E+01 -0.7072233434454E+00 -0.1783499933885E+00
-0.7751590883017E-01 -0.3482353146388E+01 -0.7119738216528E+00 -0.2054028057423E+00
-0.8570870386161E-01 -0.3502341128046E+01 -0.7176099770748E+00 -0.2343600574154E+00
-0.9577390076767E-01 -0.3524653054883E+01 -0.7240854019198E+00 -0.2656374684474E+00
-0.1078309664662E+00 -0.3548896754171E+01 -0.7313455550254E+00 -0.2995320660799E+00
-0.1220612076185E+00 -0.3574500646876E+01 -0.7393123819155E+00 -0.3361720988631E+00
-0.1386503427418E+00 -0.3600666996890E+01 -0.7478634790704E+00 -0.3754482478122E+00
-0.1576817853870E+00 -0.3626346491555E+01 -0.7568056666657E+00 -0.4169457708899E+00
-0.1789970444632E+00 -0.3650245384552E+01 -0.7658484972151E+00 -0.4599098675018E+00
-0.2020679968665E+00 -0.3670907392928E+01 -0.7745950895013E+00 -0.5032529206454E+00
-0.2259719419671E+00 -0.3686756731621E+01 -0.7825457463784E+00 -0.5455948007552E+00
-0.2494761896444E+00 -0.3695980838277E+01 -0.7890914173427E+00 -0.5852728885081E+00
-0.2711098578702E+00 -0.3696355821306E+01 -0.7934931476592E+00 -0.6202447581482E+00
-0.2891125069462E+00 -0.3685108309006E+01 -0.7948441750345E+00 -0.6478842456615E+00
-0.3011955471461E+00 -0.3658855952529E+01 -0.7920103117369E+00 -0.6647069273351E+00
-0.3040747448416E+00 -0.3613641451600E+01 -0.7835432509641E+00 -0.6660439404880E+00
-0.2926852828679E+00 -0.3545100686503E+01 -0.7675572053116E+00 -0.6456440082538E+00
-0.2588430041059E+00 -0.3448926342699E+01 -0.7415538804111E+00 -0.5951846977101E+00
-0.1888250897285E+00 -0.3321852579785E+01 -0.7021355443653E+00 -0.5037698924683E+00
-0.5912756261873E-01 -0.3163987096975E+01 -0.6446229415243E+00 -0.3580433349601E+00
 0.1695417070366E+00 -0.2983748715989E+01 -0.5628414101775E+00 -0.1451364975753E+00
 0.5571104392400E+00 -0.2804277781615E+01 -0.4494334751722E+00  0.1376239580181E+00
 0.1178487367928E+01 -0.2664888488267E+01 -0.2972802284976E+00  0.4630494296685E+00
 0.2091147860331E+01 -0.2604815244481E+01 -0.1027334783608E+00  0.7506207746515E+00
 0.3269888799104E+01 -0.2622100886879E+01  0.1295575843755E+00  0.8675846201956E+00
 0.4551552643794E+01 -0.2636673582585E+01  0.3829758179485E+00  0.6927695192831E+00
-0.7528178740295E+00 -0.3332383460219E+01 -0.8170402790245E+00  0.4040907624474E+00
-0.6031273098103E+00 -0.3388352245278E+01 -0.7982959229131E+00  0.3865937806453E+00
-0.4581476078509E+00 -0.3430748536505E+01 -0.7777792404610E+00  0.3407276197994E+00
-0.3369536371332E+00 -0.3453140594127E+01 -0.7580188575475E+00  0.2772331399047E+00
-0.2456614644987E+00 -0.3457836602360E+01 -0.7406996244090E+00  0.2098734023491E+00
-0.1808917580586E+00 -0.3451671704102E+01 -0.7265127032579E+00  0.1476455534760E+00
-0.1361660829620E+00 -0.3441185939727E+01 -0.7154704151992E+00  0.9394535348830E-01
-0.1055841134006E+00 -0.3430740294831E+01 -0.7072648921854E+00  0.4878615550719E-01
-0.8482645071468E-01 -0.3422695206761E+01 -0.7015043419483E+00  0.1082476999785E-01
-0.7098274945522E-01 -0.3418132734865E+01 -0.6978231072624E+00 -0.2157754247448E-01
-0.6214061443161E-01 -0.3417442373822E+01 -0.6959166080207E+00 -0.4995378210157E-01
-0.5704535330915E-01 -0.3420676217192E+01 -0.6955443244646E+00 -0.7562669958880E-01
-0.5486932494871E-01 -0.3427742403377E+01 -0.6965223560442E+00 -0.9971078126468E-01
-0.5506503647952E-01 -0.3438503648942E+01 -0.6987137474960E+00 -0.1231447202930E+00
-0.5727430643101E-01 -0.3452821891077E+01 -0.7020192499625E+00 -0.1467271528186E+00
-0.6127413769895E-01 -0.3470571479941E+01 -0.7063691340538E+00 -0.1711469043332E+00
-0.6694730189137E-01 -0.3491632050179E+01 -0.7117158810195E+00 -0.1970053132267E+00
-0.7427013443601E-01 -0.3515864524328E+01 -0.7180269424522E+00 -0.2248283679362E+00
-0.8331227907571E-01 -0.3543071837229E+01 -0.7252768340684E+00 -0.2550668227173E+00
-0.9423981192152E-01 -0.3572943274632E+01 -0.7334366282397E+00 -0.2880764454333E+00
-0.1073048527486E+00 -0.3604987434805E+01 -0.7424584685742E+00 -0.3240697430437E+00
-0.1227954558685E+00 -0.3638471421228E+01 -0.7522533866288E+00 -0.3630414635330E+00
-0.1409234914700E+00 -0.3672384931718E+01 -0.7626616960021E+00 -0.4046892446547E+00
-0.1616649424805E+00 -0.3705446166886E+01 -0.7734222333982E+00 -0.4483721101049E+00
-0.1846123879083E+00 -0.3736191055390E+01 -0.7841607003445E+00 -0.4931232161540E+00
-0.2089550243669E+00 -0.3763019526265E+01 -0.7943949219638E+00 -0.5377101894839E+00
-0.2335993309912E+00 -0.3784066013901E+01 -0.8035330809520E+00 -0.5806677136891E+00
-0.2572886150023E+00 -0.3797001389511E+01 -0.8108580129855E+00 -0.6202053714826E+00
-0.2785917634248E+00 -0.3798865791278E+01 -0.8154915230924E+00 -0.6539934455167E+00
-0.2956968723010E+00 -0.3785968923116E+01 -0.8163331712477E+00 -0.6788731694585E+00
-0.3059861791363E+00 -0.3753852836499E+01 -0.8119678152264E+00 -0.6905107221242E+00
-0.3053268098884E+00 -0.3697324930440E+01 -0.8005303599945E+00 -0.6829476695003E+00
-0.2868360350203E+00 -0.3610688870326E+01 -0.7795049926848E+00 -0.6479510560255E+00
-0.2384927142361E+00 -0.3488373808939E+01 -0.7453733157420E+00 -0.5740856260264E+00
-0.1384654459494E+00 -0.3326952984128E+01 -0.6930836963432E+00 -0.4458951468562E+00
 0.5271150784686E-01 -0.3130569653418E+01 -0.6155716382869E+00 -0.2453662654680E+00
 0.4013658340693E+00 -0.2920033241371E+01 -0.5037334889666E+00  0.3922704490877E-01
 0.1001114185501E+01 -0.2739637800913E+01 -0.3477047282637E+00  0.3901827755587E+00
 0.1940370086989E+01 -0.2643921548830E+01 -0.1407102944649E+00  0.7248240169207E+00
 0.3216255095243E+01 -0.2645506338483E+01  0.1141497530529E+00  0.8822317469622E+00
 0.4641178131028E+01 -0.2653847475406E+01  0.3974661370471E+00  0.6971819568369E+00
-0.7516413666435E+00 -0.3352366809849E+01 -0.8208016475293E+00  0.4275144428550E+00
-0.5899438464995E+00 -0.3410658430026E+01 -0.8001204672277E+00  0.4066735453894E+00
-0.4352610484889E+00 -0.3451518555496E+01 -0.7773559323805E+00  0.3528576988879E+00
-0.3103502374770E+00 -0.3468322675494E+01 -0.7557345938555E+00  0.2810260411376E+00
-0.2201945177524E+00 -0.3465851006270E+01 -0.7372091157897E+00  0.2080556589159E+00
-0.1587501476990E+00 -0.3453310303853E+01 -0.7224121010752E+00  0.1433481358314E+00
-0.1176645150930E+00 -0.3438237219226E+01 -0.7111803574612E+00  0.8935269508549E-01
-0.9022960529039E-01 -0.3424994212403E+01 -0.7030447740148E+00  0.4508027991562E-01
-0.7192731993892E-01 -0.3415598507814E+01 -0.6975051759443E+00  0.8539482492820E-02
-0.5988148392096E-01 -0.3410780578697E+01 -0.6941324228671E+00 -0.2225144932069E-01
-0.5227389291645E-01 -0.3410662346399E+01 -0.6925872581835E+00 -0.4898732678197E-01
-0.4794461325692E-01 -0.3415114981929E+01 -0.6926119293579E+00 -0.7305693674774E-01
-0.4614514654882E-01 -0.3423935403745E+01 -0.6940161204003E+00 -0.9559285193284E-01
-0.4638974479718E-01 -0.3436927889916E+01 -0.6966635373238E+00 -0.1175298147045E+00
-0.4836709824854E-01 -0.3453936037171E+01 -0.7004606375216E+00 -0.1396547232754E+00
-0.5188959387846E-01 -0.3474847627019E+01 -0.7053474546901E+00 -0.1626453543356E+00
-0.5686730620962E-01 -0.3499582584695E+01 -0.7112899887799E+00 -0.1870988094851E+00
-0.6329967271445E-01 -0.3528066072536E+01 -0.7182731597532E+00 -0.2135495724222E+00
-0.7128090807033E-01 -0.3560186631711E+01 -0.7262935187788E+00 -0.2424764405286E+00
-0.8101253855107E-01 -0.3595735037302E+01 -0.7353495261281E+00 -0.2742900937939E+00
-0.9280633021717E-01 -0.3634325625373E+01 -0.7454264022257E+00 -0.3092890328680E+00
-0.1070453346898E+00 -0.3675318621508E+01 -0.7564728025119E+00 -0.3475801632791E+00
-0.1240678988593E+00 -0.3717769791299E+01 -0.7683675494812E+00 -0.3889849095228E+00
-0.1439828751362E+00 -0.3760433750925E+01 -0.7808833368483E+00 -0.4329861794904E+00
-0.1664940665639E+00 -0.3801862525857E+01 -0.7936713303109E+00 -0.4787458686021E+00
-0.1908824987929E+00 -0.3840458466838E+01 -0.8062682051406E+00 -0.5251898011120E+00
-0.2161685352441E+00 -0.3874336457572E+01 -0.8181010107539E+00 -0.5710679427140E+00
-0.2412861965097E+00 -0.3901107558889E+01 -0.8284787634249E+00 -0.6148695737600E+00
-0.2651147122831E+00 -0.3917690133225E+01 -0.8365609815673E+00 -0.6546014877641E+00
-0.2863032319648E+00 -0.3920178786645E+01 -0.8412964162583E+00 -0.6874917609353E+00
-0.3028902178744E+00 -0.3903744617471E+01 -0.8413269796059E+00 -0.7096453180219E+00
-0.3116916382526E+00 -0.3862533419552E+01 -0.8348450240011E+00 -0.7155845793771E+00
-0.3072427158038E+00 -0.3789631908321E+01 -0.8193749370346E+00 -0.6975028558022E+00
-0.2796168421312E+00 -0.3677217697859E+01 -0.7913669197903E+00 -0.6439815865599E+00
-0.2096653966449E+00 -0.3517916879845E+01 -0.7455164664070E+00 -0.5382041524555E+00
-0.5972213180692E-01 -0.3310060276726E+01 -0.6739564917493E+00 -0.3574042087641E+00
 0.2406250217335E+00 -0.3069098524314E+01 -0.5656947089455E+00 -0.7929684264932E-01
 0.8044401339091E+00 -0.2841619593752E+01 -0.4074358980398E+00  0.2930103107378E+00
 0.1760332401586E+01 -0.2699840126697E+01 -0.1879015478223E+00  0.6808563980667E+00
 0.3143221931400E+01 -0.2679085542780E+01  0.9282727910712E-01  0.8919790604842E+00
 0.4741730656823E+01 -0.2679747182778E+01  0.4123967009541E+00  0.6991738380632E+00
-0.7502292671273E+00 -0.3376761393248E+01 -0.8253981443744E+00  0.4524409806984E+00
-0.5741222174051E+00 -0.3437291876234E+01 -0.8022828306827E+00  0.4270585028237E+00
-0.4086745897338E+00 -0.3475090565160E+01 -0.7767530425532E+00  0.3631752687336E+00
-0.2808510099528E+00 -0.3483985809892E+01 -0.7529673751890E+00  0.2817744982798E+00
-0.1932594557172E+00 -0.3472496930501E+01 -0.7331512881684E+00  0.2032724122028E+00
-0.1362509423850E+00 -0.3452661127801E+01 -0.7177824247330E+00  0.1368308604013E+00
-0.9942382549922E-01 -0.3432764414869E+01 -0.7064376586004E+00  0.8335686977635E-01
-0.7541574893059E-01 -0.3416815696869E+01 -0.6984462995676E+00  0.4063198643509E-01
-0.5967060299404E-01 -0.3406272247874E+01 -0.6931885805029E+00  0.6000661556030E-02
-0.4944206954429E-01 -0.3401414283277E+01 -0.6901712808486E+00 -0.2282074502030E-01
-0.4305515452698E-01 -0.3402056578213E+01 -0.6890223568152E+00 -0.4764650467159E-01
-0.3946875269259E-01 -0.3407876176809E+01 -0.6894689961742E+00 -0.6989829291171E-01
-0.3802462109792E-01 -0.3418557120421E+01 -0.6913163586052E+00 -0.9070240718109E-01
-0.3830308263396E-01 -0.3433848395478E+01 -0.6944303059702E+00 -0.1109717465168E+00
-0.4004030600652E-01 -0.3453580375779E+01 -0.6987241467689E+00 -0.1314677679382E+00
-0.4308228940573E-01 -0.3477660457711E+01 -0.7041485599159E+00 -0.1528459103215E+00
-0.4736258224174E-01 -0.3506056291579E+01 -0.7106837853542E+00 -0.1756888911003E+00
-0.5289746552576E-01 -0.3538767039490E+01 -0.7183329117072E+00 -0.2005299642411E+00
-0.5979628576212E-01 -0.3575780917652E+01 -0.7271154515176E+00 -0.2278668763079E+00
-0.6828323000622E-01 -0.3617010981223E+01 -0.7370588532288E+00 -0.2581586087044E+00
-0.7871577917462E-01 -0.3662205768894E+01 -0.7481843207625E+00 -0.2917889660366E+00
-0.9156202909211E-01 -0.3710851836430E+01 -0.7604827844366E+00 -0.3289845048238E+00
-0.1072842524345E+00 -0.3762103109142E+01 -0.7738774838470E+00 -0.3697031297512E+00
-0.1261237402823E+00 -0.3814778097692E+01 -0.7881803793396E+00 -0.4135628540208E+00
-0.1478862348160E+00 -0.3867469048192E+01 -0.8030710685683E+00 -0.4598617567828E+00
-0.1719222525946E+00 -0.3918605421872E+01 -0.8181055470839E+00 -0.5076922757365E+00
-0.1973370807759E+00 -0.3966313339173E+01 -0.8327300963984E+00 -0.5560339659651E+00
-0.2232277178486E+00 -0.4008188949110E+01 -0.8462833460023E+00 -0.6036770152816E+00
-0.2487585969455E+00 -0.4041098263799E+01 -0.8579713849336E+00 -0.6489945179692E+00
-0.2730124618638E+00 -0.4061026880728E+01 -0.8668078814348E+00 -0.6896475978043E+00
-0.2946485213089E+00 -0.4062933346977E+01 -0.8715163866438E+00 -0.7222633630612E+00
-0.3113973671926E+00 -0.4040528943277E+01 -0.8703852750637E+00 -0.7420121896692E+00
-0.3192372926764E+00 -0.3985976088019E+01 -0.8610426889697E+00 -0.7418482114177E+00
-0.3105911379080E+00 -0.3889482726641E+01 -0.8400147854270E+00 -0.7109992322784E+00
-0.2698990337239E+00 -0.3739679835370E+01 -0.8019157857682E+00 -0.6323370559043E+00
-0.1635934909862E+00 -0.3527798855279E+01 -0.7382784802542E+00 -0.4795071677827E+00
 0.7903237790052E-01 -0.3260150435754E+01 -0.6362236210512E+00 -0.2190952787597E+00
 0.5889467640298E+00 -0.2980511126047E+01 -0.4783128795308E+00  0.1661745131867E+00
 0.1544997007283E+01 -0.2779407347606E+01 -0.2468820717433E+00  0.6118432995844E+00
 0.3043419468019E+01 -0.2726125684433E+01  0.6345875766265E-01  0.8940405584089E+00
 0.4855238275626E+01 -0.2716699241160E+01  0.4277078132665E+00  0.6985294360717E+00
-0.7484342720314E+00 -0.3406969441389E+01 -0.8310807550682E+00  0.4791043326523E+00
-0.5547963528383E+00 -0.3469390332764E+01 -0.8048373491134E+00  0.4473898087009E+00
-0.3775896528758E+00 -0.3501722521589E+01 -0.7758624464543E+00  0.3706545480640E+00
-0.2482844356694E+00 -0.3499557234132E+01 -0.7495683451297E+00  0.2784842124821E+00
-0.1651244595445E+00 -0.3476937870782E+01 -0.7284124769194E+00  0.1949764942128E+00
-0.1137610976320E+00 -0.3449021031796E+01 -0.7125564365035E+00  0.1279271819021E+00
-0.8174971702848E-01 -0.3424279242150E+01 -0.7012058022844E+00  0.7597849127804E-01
-0.6136518235114E-01 -0.3405881549805E+01 -0.6934493567645E+00  0.3552545131190E-01
-0.4821502042132E-01 -0.3394500149073E+01 -0.6885430441589E+00  0.3302529802925E-02
-0.3978011537410E-01 -0.3389882978153E+01 -0.6859326289265E+00 -0.2320165583631E-01
-0.3457281703259E-01 -0.3391511763222E+01 -0.6852169262615E+00 -0.4586485199965E-01
-0.3169042474009E-01 -0.3398865478232E+01 -0.6861111908182E+00 -0.6610271001327E-01
-0.3057276098848E-01 -0.3411519453295E+01 -0.6884184531149E+00 -0.8500864416897E-01
-0.3086841182227E-01 -0.3429173933018E+01 -0.6920084792798E+00 -0.1034550439011E+00
-0.3236039054029E-01 -0.3451652984770E+01 -0.6968026854452E+00 -0.1221639644135E+00
-0.3492593999889E-01 -0.3478890478390E+01 -0.7027632941497E+00 -0.1417570143343E+00
-0.3851812659989E-01 -0.3510909036953E+01 -0.7098854432887E+00 -0.1627919069690E+00
-0.4316391888619E-01 -0.3547790726210E+01 -0.7181909397211E+00 -0.1857898287397E+00
-0.4897818200901E-01 -0.3589636426509E+01 -0.7277229325476E+00 -0.2112561617022E+00
-0.5619360297681E-01 -0.3636502161532E+01 -0.7385391639068E+00 -0.2396881024135E+00
-0.6519626602247E-01 -0.3688301822946E+01 -0.7506996289799E+00 -0.2715504466285E+00
-0.7652569272271E-01 -0.3744687583679E+01 -0.7642426666684E+00 -0.3071954680373E+00
-0.9076430176081E-01 -0.3804950745734E+01 -0.7791430211092E+00 -0.3467319554788E+00
-0.1082869603012E+00 -0.3868005749606E+01 -0.7952585538318E+00 -0.3899267106179E+00
-0.1289930276838E+00 -0.3932509188905E+01 -0.8123004554220E+00 -0.4362222092522E+00
-0.1522785864274E+00 -0.3996937952730E+01 -0.8298433201971E+00 -0.4848847835154E+00
-0.1773022460183E+00 -0.4059453788666E+01 -0.8473512195635E+00 -0.5351341468193E+00
-0.2032934989073E+00 -0.4117678627417E+01 -0.8641944381423E+00 -0.5860746099707E+00
-0.2296725225577E+00 -0.4168497260929E+01 -0.8796339698049E+00 -0.6364624239504E+00
-0.2559189924578E+00 -0.4207901850782E+01 -0.8927641819511E+00 -0.6844190717166E+00
-0.2812553860832E+00 -0.4230818623386E+01 -0.9024148153408E+00 -0.7271489280674E+00
-0.3042416419481E+00 -0.4230802409895E+01 -0.9070088238840E+00 -0.7605983168182E+00
-0.3222216476521E+00 -0.4199499477984E+01 -0.9043442386029E+00 -0.7787786591905E+00
-0.3300344271023E+00 -0.4125678605822E+01 -0.8911426198640E+00 -0.7721974341227E+00
-0.3163336537472E+00 -0.3994440287207E+01 -0.8621548010380E+00 -0.7246778257777E+00
-0.2539503082294E+00 -0.3789348110361E+01 -0.8086596957681E+00 -0.6083337431850E+00
-0.7721991339009E-01 -0.3503563467732E+01 -0.7161566868960E+00 -0.3798071483867E+00
 0.3573579847191E+00 -0.3169756873919E+01 -0.5624797862215E+00  0.3952530447118E-02
 0.1287769449694E+01 -0.2893270364933E+01 -0.3211001878326E+00  0.5081126781382E+00
 0.2906255243453E+01 -0.2791782337419E+01  0.2289458154782E-01  0.8835897573945E+00
 0.4984222390024E+01 -0.2768029254767E+01  0.4432386336563E+00  0.6949654480047E+00
-0.7460026467114E+00 -0.3445005921013E+01 -0.8382017260351E+00  0.5077867941244E+00
-0.5307342032306E+00 -0.3508431968135E+01 -0.8078332463109E+00  0.4669946683003E+00
-0.3410693555000E+00 -0.3531474629451E+01 -0.7745088085312E+00  0.3737763409296E+00
-0.2126510643745E+00 -0.3514026026634E+01 -0.7453354293080E+00  0.2699279398158E+00
-0.1362670177136E+00 -0.3478035957651E+01 -0.7228606058444E+00  0.1826546509350E+00
-0.9176054897028E-01 -0.3441572999779E+01 -0.7066667202801E+00  0.1165785041854E+00
-0.6498695402197E-01 -0.3412270994593E+01 -0.6954516000860E+00  0.6732289609679E-01
-0.4830848068723E-01 -0.3391875525986E+01 -0.6880368115872E+00  0.2989839624681E-01
-0.3771613789297E-01 -0.3380081315139E+01 -0.6835595007923E+00  0.5719324665680E-03
-0.3100428587588E-01 -0.3376052406997E+01 -0.6814113487283E+00 -0.2329136722766E-01
-0.2690759481772E-01 -0.3378929858851E+01 -0.6811675008840E+00 -0.4356567863554E-01
-0.2467497519983E-01 -0.3388001908200E+01 -0.6825353868505E+00 -0.6161773134756E-01
-0.2384801835439E-01 -0.3402745823031E+01 -0.6853187784891E+00 -0.7848046305268E-01
-0.2414335303385E-01 -0.3422823232203E+01 -0.6893933273201E+00 -0.9496709788974E-01
-0.2538889371999E-01 -0.3448060597378E+01 -0.6946899085713E+00 -0.1117465952686E+00
-0.2749022047284E-01 -0.3478425675708E+01 -0.7011831896847E+00 -0.1293954286026E+00
-0.3041600004960E-01 -0.3514002892007E+01 -0.7088837889745E+00 -0.1484355516960E+00
-0.3419819739980E-01 -0.3554964798247E+01 -0.7178326098259E+00 -0.1693644303581E+00
-0.3894802544060E-01 -0.3601535924707E+01 -0.7280968008790E+00 -0.1926816107886E+00
-0.4489172767478E-01 -0.3653934494009E+01 -0.7397652553602E+00 -0.2189082590087E+00
-0.5242344868511E-01 -0.3712272767129E+01 -0.7529392543825E+00 -0.2485805393881E+00
-0.6213541142828E-01 -0.3776415124029E+01 -0.7677101185312E+00 -0.2821794656501E+00
-0.7472387610625E-01 -0.3845839796097E+01 -0.7841127461248E+00 -0.3199809907646E+00
-0.9070011274492E-01 -0.3919596688416E+01 -0.8020593721838E+00 -0.3619187304460E+00
-0.1100505712367E+00 -0.3996431135134E+01 -0.8212963535124E+00 -0.4075908397892E+00
-0.1321923645548E+00 -0.4074880159827E+01 -0.8414145174144E+00 -0.4564455625725E+00
-0.1563048449822E+00 -0.4153153761131E+01 -0.8618917340659E+00 -0.5079499077993E+00
-0.1817189022940E+00 -0.4228931297137E+01 -0.8821300530311E+00 -0.5615256323565E+00
-0.2080787777976E+00 -0.4299186080478E+01 -0.9014529850879E+00 -0.6163130938903E+00
-0.2352184175094E+00 -0.4360038350624E+01 -0.9190513673216E+00 -0.6708995992273E+00
-0.2628502387758E+00 -0.4406575118924E+01 -0.9338850854560E+00 -0.7230878803865E+00
-0.2902334057726E+00 -0.4432506576215E+01 -0.9445480104724E+00 -0.7696720821130E+00
-0.3158966653763E+00 -0.4429466628951E+01 -0.9490726730078E+00 -0.8059413169871E+00
-0.3369523592853E+00 -0.4385548664903E+01 -0.9445002189118E+00 -0.8242373213189E+00
-0.3464492762295E+00 -0.4283368748762E+01 -0.9259636187962E+00 -0.8106186363305E+00
-0.3253677397470E+00 -0.4099525267777E+01 -0.8849786146919E+00 -0.7384827752711E+00
-0.2195038452866E+00 -0.3811021512303E+01 -0.8061050835298E+00 -0.5583625428419E+00
 0.1161798718515E+00 -0.3427788725615E+01 -0.6623217806221E+00 -0.1987213346352E+00
 0.9824029353170E+00 -0.3058388278130E+01 -0.4151970747495E+00  0.3563191003251E+00
 0.2716354920645E+01 -0.2884694042569E+01 -0.3366782488638E-01  0.8521137789830E+00
 0.5131778476059E+01 -0.2838833979084E+01  0.4585889062285E+00  0.6879564016696E+00
-0.7424915830635E+00 -0.3493867306654E+01 -0.8472717905689E+00  0.5388161569530E+00
-0.5001608625373E+00 -0.3556314607604E+01 -0.8112951061174E+00  0.4846187970626E+00
-0.2980901224655E+00 -0.3563932210183E+01 -0.7724044780394E+00  0.3702950031365E+00
-0.1742849910090E+00 -0.3525700944006E+01 -0.7399971980299E+00  0.2546752045006E+00
-0.1074436475194E+00 -0.3474312966003E+01 -0.7163513333789E+00  0.1659406314613E+00
-0.7083594490336E-01 -0.3429423911472E+01 -0.7000519817068E+00  0.1028929562532E+00
-0.4950184241266E-01 -0.3396234644791E+01 -0.6891473077098E+00  0.5759654441448E-01
-0.3647331336815E-01 -0.3374503761048E+01 -0.6821954250486E+00  0.2394654548687E-01
-0.2831967133347E-01 -0.3362839796389E+01 -0.6782319036510E+00 -0.2030735091464E-02
-0.2321200348873E-01 -0.3359810737049E+01 -0.6766045581898E+00 -0.2296854597863E-01
-0.2012977032457E-01 -0.3364231735063E+01 -0.6768723111637E+00 -0.4066288093087E-01
-0.1847859639799E-01 -0.3375220308923E+01 -0.6787397911782E+00 -0.5638726926619E-01
-0.1790092662400E-01 -0.3392173002731E+01 -0.6820147960338E+00 -0.7108710665486E-01
-0.1817866869781E-01 -0.3414726516944E+01 -0.6865810473591E+00 -0.8549866629502E-01
-0.1918138670733E-01 -0.3442720069856E+01 -0.6923803016299E+00 -0.1002249496592E+00
-0.2083963393230E-01 -0.3476163119351E+01 -0.6994005610786E+00 -0.1157865930507E+00
-0.2313397029934E-01 -0.3515208084732E+01 -0.7076684215514E+00 -0.1326592859412E+00
-0.2609649657776E-01 -0.3560123849934E+01 -0.7172440799901E+00 -0.1513047378800E+00
-0.2982682315138E-01 -0.3611266582557E+01 -0.7282186919929E+00 -0.1722013849481E+00
-0.3453009692071E-01 -0.3669032526870E+01 -0.7407125357956E+00 -0.1958754972914E+00
-0.4058475164681E-01 -0.3733765272843E+01 -0.7548700161463E+00 -0.2229174753094E+00
-0.4861006518297E-01 -0.3805596175790E+01 -0.7708412596809E+00 -0.2539341184892E+00
-0.5940499086428E-01 -0.3884255066161E+01 -0.7887320231581E+00 -0.2893860915952E+00
-0.7362119140577E-01 -0.3968979771276E+01 -0.8085202045843E+00 -0.3293987722911E+00
-0.9132822961814E-01 -0.4058630357083E+01 -0.8299917297080E+00 -0.3737443126468E+00
-0.1119405211446E+00 -0.4151804437628E+01 -0.8527490044615E+00 -0.4220651358958E+00
-0.1346273152180E+00 -0.4246753166575E+01 -0.8762761094162E+00 -0.4740800443939E+00
-0.1587922178553E+00 -0.4341229450262E+01 -0.9000043470345E+00 -0.5295188915423E+00
-0.1842717000083E+00 -0.4432360702585E+01 -0.9233264942774E+00 -0.5878873267182E+00
-0.2112081828424E+00 -0.4516520620913E+01 -0.9455457748408E+00 -0.6482201123161E+00
-0.2397231353259E+00 -0.4589153925561E+01 -0.9657754265685E+00 -0.7089040057294E+00
-0.2696141823194E+00 -0.4644446471327E+01 -0.9828121453743E+00 -0.7675848395435E+00
-0.3003204424213E+00 -0.4674580748111E+01 -0.9949802529328E+00 -0.8209352192789E+00
-0.3308872838562E+00 -0.4667927540238E+01 -0.9997629797165E+00 -0.8635304929514E+00
-0.3584404310328E+00 -0.4606176823826E+01 -0.9929234657674E+00 -0.8847249769256E+00
-0.3726350737568E+00 -0.4461311457893E+01 -0.9667893207362E+00 -0.8622137723061E+00
-0.3367592662908E+00 -0.4194259877860E+01 -0.9062038423336E+00 -0.7473485136049E+00
-0.1221159301408E+00 -0.3779052627958E+01 -0.7802337232461E+00 -0.4439914462736E+00
 0.6252124236468E+00 -0.3302182906470E+01 -0.5353941045426E+00  0.1388456235367E+00
 0.2451336527513E+01 -0.3020350319554E+01 -0.1138027601041E+00  0.7844172312864E+00
 0.5301533460500E+01 -0.2937666845049E+01  0.4727733301350E+00  0.6761654199834E+00
-0.7371172913549E+00 -0.3558203341890E+01 -0.8590641394501E+00  0.5725297135503E+00
-0.4604937944919E+00 -0.3615380576173E+01 -0.8151748862800E+00  0.4979021495218E+00
-0.2477119080044E+00 -0.3597637768687E+01 -0.7690699467982E+00  0.3569269114261E+00
-0.1341128606336E+00 -0.3531890216349E+01 -0.7332006263221E+00  0.2312489067874E+00
-0.7974244388305E-01 -0.3463986965147E+01 -0.7087458923671E+00  0.1447984190055E+00
-0.5164274475995E-01 -0.3411680731830E+01 -0.6926647056395E+00  0.8719867732625E-01
-0.3565630275380E-01 -0.3375703033841E+01 -0.6822718774856E+00  0.4711397080356E-01
-0.2607225557021E-01 -0.3353512136481E+01 -0.6759168884822E+00  0.1792535645829E-01
-0.2015386188686E-01 -0.3342634993354E+01 -0.6725577810700E+00 -0.4312551890131E-02
-0.1648495757393E-01 -0.3341074310852E+01 -0.6715118636914E+00 -0.2209501411602E-01
-0.1429649128170E-01 -0.3347360744175E+01 -0.6723314571099E+00 -0.3706232808449E-01
-0.1314652767549E-01 -0.3360473696483E+01 -0.6747240548858E+00 -0.5035270508003E-01
-0.1277280509744E-01 -0.3379752842817E+01 -0.6785051396934E+00 -0.6279896492003E-01
-0.1301719745977E-01 -0.3404826953335E+01 -0.6835688403450E+00 -0.7504443958883E-01
-0.1378645436031E-01 -0.3435559785840E+01 -0.6898692583199E+00 -0.8761470721672E-01
-0.1503239266859E-01 -0.3472010529261E+01 -0.6974085947781E+00 -0.1009648858608E+00
-0.1674411730374E-01 -0.3514404963617E+01 -0.7062298267078E+00 -0.1155145584083E+00
-0.1895013832171E-01 -0.3563112112176E+01 -0.7164124607748E+00 -0.1316778004111E+00
-0.2173257374694E-01 -0.3618623898344E+01 -0.7280713052674E+00 -0.1498956050967E+00
-0.2526280045783E-01 -0.3681524522451E+01 -0.7413574756289E+00 -0.1706760142573E+00
-0.2987771809006E-01 -0.3752418049096E+01 -0.7564591647094E+00 -0.1946365285372E+00
-0.3618913419894E-01 -0.3831765242360E+01 -0.7735908868392E+00 -0.2224957849102E+00
-0.4507880795546E-01 -0.3919634120234E+01 -0.7929425974537E+00 -0.2549154907005E+00
-0.5734203537944E-01 -0.4015525717226E+01 -0.8145735626593E+00 -0.2922479387017E+00
-0.7313041042085E-01 -0.4118445961175E+01 -0.8383152868110E+00 -0.3344714451807E+00
-0.9183488502573E-01 -0.4227034198262E+01 -0.8637738295288E+00 -0.3814454607607E+00
-0.1125900135177E+00 -0.4339543776705E+01 -0.8904267713128E+00 -0.4331437913894E+00
-0.1348502802711E+00 -0.4453792968267E+01 -0.9177286633829E+00 -0.4895778566006E+00
-0.1586140142719E+00 -0.4567122690080E+01 -0.9451473549542E+00 -0.5505742350480E+00
-0.1842845301187E+00 -0.4676290475509E+01 -0.9721150156112E+00 -0.6155715957660E+00
-0.2123120691450E+00 -0.4777293041731E+01 -0.9979210370454E+00 -0.6834947467102E+00
-0.2428643660361E+00 -0.4865091533618E+01 -0.1021591195154E+01 -0.7527767078188E+00
-0.2759480076100E+00 -0.4932969176710E+01 -0.1041783452388E+01 -0.8214298493353E+00
-0.3120251496227E+00 -0.4970650012161E+01 -0.1056535048100E+01 -0.8864332035256E+00
-0.3516046685288E+00 -0.4960803977134E+01 -0.1062481744965E+01 -0.9411031771526E+00
-0.3918960245376E+00 -0.4874548163909E+01 -0.1053288853385E+01 -0.9696696011350E+00
-0.4164917467672E+00 -0.4662327289732E+01 -0.1015763822436E+01 -0.9332250352043E+00
-0.3364421395730E+00 -0.4253709352277E+01 -0.9180303120497E+00 -0.7266503580303E+00
 0.2199335838916E+00 -0.3669107268331E+01 -0.6898347471673E+00 -0.1653292328860E+00
 0.2078939613240E+01 -0.3228352099986E+01 -0.2298825007747E+00  0.6533075020092E+00
 0.5497235541679E+01 -0.3080528910762E+01  0.4833413333857E+00  0.6556745200580E+00
-0.7284771960114E+00 -0.3645631655401E+01 -0.8748217833182E+00  0.6091266932479E+00
-0.4079582411329E+00 -0.3688184188543E+01 -0.8192284981426E+00  0.5023134004936E+00
-0.1895221749980E+00 -0.3628935856694E+01 -0.7636916177183E+00  0.3290214421952E+00
-0.9403502008506E-01 -0.3528594386019E+01 -0.7245258920171E+00  0.1985667479535E+00
-0.5455695708663E-01 -0.3445182962607E+01 -0.6999479943687E+00  0.1197641995105E+00
-0.3482280071917E-01 -0.3387549825481E+01 -0.6844745354396E+00  0.7005781153512E-01
-0.2378142727873E-01 -0.3350275468965E+01 -0.6748113893042E+00  0.3629549960305E-01
-0.1728969777674E-01 -0.3328707142101E+01 -0.6691993779473E+00  0.1214928299173E-01
-0.1332096291628E-01 -0.3319371572295E+01 -0.6665385169744E+00 -0.6052021681867E-02
-0.1088491310756E-01 -0.3319793078267E+01 -0.6661356082011E+00 -0.2051844385492E-01
-0.9449166499779E-02 -0.3328286068969E+01 -0.6675470570409E+00 -0.3266386337981E-01
-0.8711388841805E-02 -0.3343735372635E+01 -0.6704893622864E+00 -0.4345431855416E-01
-0.8494574032842E-02 -0.3365453839661E+01 -0.6747896927939E+00 -0.5358852920855E-01
-0.8692869502892E-02 -0.3393081968372E+01 -0.6803549777131E+00 -0.6360366182367E-01
-0.9244744683235E-02 -0.3426520961328E+01 -0.6871531514416E+00 -0.7393829416940E-01
-0.1011934228158E-01 -0.3465887763268E+01 -0.6952014314693E+00 -0.8497377448858E-01
-0.1131145274231E-01 -0.3511485911476E+01 -0.7045594833423E+00 -0.9706480866757E-01
-0.1284358177678E-01 -0.3563786176115E+01 -0.7153259622375E+00 -0.1105667019885E+00
-0.1477720369586E-01 -0.3623416011565E+01 -0.7276386538949E+00 -0.1258667295878E+00
-0.1724150280653E-01 -0.3691149092133E+01 -0.7416781300397E+00 -0.1434282325228E+00
-0.2050694640135E-01 -0.3767868892411E+01 -0.7576751790527E+00 -0.1638567212923E+00
-0.2513315535978E-01 -0.3854431433966E+01 -0.7759129294273E+00 -0.1879497255991E+00
-0.3204989004427E-01 -0.3951360262683E+01 -0.7966820424170E+00 -0.2165784203705E+00
-0.4219379572550E-01 -0.4058535978716E+01 -0.8201459671094E+00 -0.2503709190002E+00
-0.5579949860485E-01 -0.4175154769103E+01 -0.8461908661508E+00 -0.2895696756093E+00
-0.7222023568220E-01 -0.4299847847048E+01 -0.8744136295758E+00 -0.3342959157514E+00
-0.9054516519079E-01 -0.4430780731117E+01 -0.9042651927363E+00 -0.3847820100878E+00
-0.1102713380336E+00 -0.4565793065458E+01 -0.9352128946340E+00 -0.4412697025849E+00
-0.1315307267107E+00 -0.4702491220098E+01 -0.9668044037682E+00 -0.5038273150987E+00
-0.1549361703047E+00 -0.4838158725340E+01 -0.9986189940094E+00 -0.5722269222336E+00
-0.1811930711602E+00 -0.4969535555764E+01 -0.1030145740735E+01 -0.6458636030977E+00
-0.2106881985492E+00 -0.5092610472792E+01 -0.1060659750073E+01 -0.7238390493745E+00
-0.2436450125015E+00 -0.5202222449917E+01 -0.1089173508714E+01 -0.8053047342576E+00
-0.2812589692260E+00 -0.5290506915683E+01 -0.1114353193587E+01 -0.8894726961130E+00
-0.3265392013757E+00 -0.5343304719816E+01 -0.1133968801136E+01 -0.9738732738680E+00
-0.3820548566292E+00 -0.5334974000040E+01 -0.1143405788372E+01 -0.1049962916327E+01
-0.4477485585740E+00 -0.5216974732276E+01 -0.1132944675052E+01 -0.1095456128227E+01
-0.4951262386818E+00 -0.4883192911221E+01 -0.1075663846009E+01 -0.1026525990131E+01
-0.2123572279862E+00 -0.4229738666506E+01 -0.8884191921369E+00 -0.5750701558672E+00
 0.1554309106225E+01 -0.3568506025996E+01 -0.4028393899570E+00  0.4107797092015E+00
 0.5721534621360E+01 -0.3301082758967E+01  0.4840903796921E+00  0.6146378908256E+00
-0.7140712044266E+00 -0.3769568599121E+01 -0.8967279740717E+00  0.6481343179808E+00
-0.3370701211053E+00 -0.3776260104187E+01 -0.8226660573171E+00  0.4888949158605E+00
-0.1247034151082E+00 -0.3649684451051E+01 -0.7548775844805E+00  0.2805540638725E+00
-0.5738216090875E-01 -0.3510635435383E+01 -0.7136035298919E+00  0.1569433397945E+00
-0.3334880885690E-01 -0.3416408680831E+01 -0.6899515082186E+00  0.9211675641984E-01
-0.2089566340954E-01 -0.3356380454232E+01 -0.6754552335934E+00  0.5220511192356E-01
-0.1416508420095E-01 -0.3319654372781E+01 -0.6667639013319E+00  0.2567189931289E-01
-0.1026325977993E-01 -0.3299978837617E+01 -0.6620484293446E+00  0.6983464263866E-02
-0.7889801499503E-02 -0.3293006573233E+01 -0.6601792847838E+00 -0.7005726520224E-02
-0.6450074266510E-02 -0.3295956204120E+01 -0.6604812655192E+00 -0.1807575548927E-01
-0.5610977572978E-02 -0.3307005350364E+01 -0.6625232754599E+00 -0.2736409273235E-01
-0.5191809236631E-02 -0.3325000807053E+01 -0.6660385331826E+00 -0.3563293818316E-01
-0.5085692616974E-02 -0.3349262461259E+01 -0.6708696407720E+00 -0.4343150870380E-01
-0.5229848039373E-02 -0.3379464411362E+01 -0.6769388619674E+00 -0.5118078715350E-01
-0.5588109244183E-02 -0.3415558814471E+01 -0.6842293949388E+00 -0.5922521067762E-01
-0.6142967610872E-02 -0.3457728180743E+01 -0.6927742399939E+00 -0.6786585385666E-01
-0.6892605876895E-02 -0.3506357145148E+01 -0.7026499606752E+00 -0.7738524553156E-01
-0.7852488729335E-02 -0.3562017600593E+01 -0.7139740285036E+00 -0.8807009079310E-01
-0.9063226420192E-02 -0.3625468023741E+01 -0.7269062608641E+00 -0.1002389497556E+00
-0.1060996316016E-01 -0.3697663299304E+01 -0.7416546635443E+00 -0.1142838140983E+00
-0.1267861787272E-01 -0.3779765990211E+01 -0.7584889329190E+00 -0.1307478685691E+00
-0.1572310639218E-01 -0.3873083762096E+01 -0.7777613852872E+00 -0.1504442441520E+00
-0.2066237924937E-01 -0.3978752568504E+01 -0.7998830014699E+00 -0.1744383069785E+00
-0.2855594194798E-01 -0.4097224480050E+01 -0.8251560966954E+00 -0.2036985449372E+00
-0.3972085091596E-01 -0.4227961637464E+01 -0.8535365103946E+00 -0.2388372568290E+00
-0.5347135462603E-01 -0.4369484627989E+01 -0.8845912097045E+00 -0.2803245589865E+00
-0.6886776437437E-01 -0.4519698769166E+01 -0.9177133203830E+00 -0.3286558642484E+00
-0.8546418996774E-01 -0.4676371464195E+01 -0.9523671450239E+00 -0.3842140962562E+00
-0.1035011015325E+00 -0.4837419598477E+01 -0.9881841547270E+00 -0.4471823864572E+00
-0.1237353528712E+00 -0.5000816565847E+01 -0.1024910399016E+01 -0.5175611801342E+00
-0.1470655925679E+00 -0.5164254824543E+01 -0.1062264099251E+01 -0.5951472877774E+00
-0.1739791937460E+00 -0.5324920968611E+01 -0.1099780048859E+01 -0.6795618867860E+00
-0.2046423496097E+00 -0.5479505542587E+01 -0.1136829595379E+01 -0.7707860701100E+00
-0.2402591834845E+00 -0.5623296660805E+01 -0.1172711186333E+01 -0.8696550009217E+00
-0.2850535188591E+00 -0.5747762548167E+01 -0.1206563231384E+01 -0.9775251203137E+00
-0.3455495069059E+00 -0.5834478405568E+01 -0.1236005600913E+01 -0.1092988213646E+01
-0.4270660951892E+00 -0.5847548992717E+01 -0.1254923036281E+01 -0.1209070467170E+01
-0.5584649854219E+00 -0.5685924626071E+01 -0.1248877940908E+01 -0.1298155759705E+01
-0.6145723102622E+00 -0.5088262689462E+01 -0.1140567016941E+01 -0.1088902713447E+01
 0.8211594086353E+00 -0.4166890273300E+01 -0.6691461829040E+00 -0.2383594419549E-01
 0.5973034410889E+01 -0.3679662313753E+01  0.4586744262620E+00  0.5170062249931E+00
-0.6897046210024E+00 -0.3956204892571E+01 -0.9291819165605E+00  0.6863973684520E+00
-0.2400557662279E+00 -0.3874909946204E+01 -0.8229931547500E+00  0.4393036644640E+00
-0.5855011252167E-01 -0.3643294104798E+01 -0.7403688544963E+00  0.2058502432808E+00
-0.2906841308220E-01 -0.3473615850158E+01 -0.7005368630869E+00  0.1098732379695E+00
-0.1698835466373E-01 -0.3376955088869E+01 -0.6787886988213E+00  0.6353560089451E-01
-0.1026224354691E-01 -0.3317586075079E+01 -0.6655696736429E+00  0.3450055476310E-01
-0.7034881472411E-02 -0.3283747265058E+01 -0.6581564391134E+00  0.1590115344244E-01
-0.5055835144644E-02 -0.3267296230473E+01 -0.6544704228758E+00  0.2814131171461E-02
-0.3895967244557E-02 -0.3263562738608E+01 -0.6534917509083E+00 -0.6910547740163E-02
-0.3189385717022E-02 -0.3269594471121E+01 -0.6545567811212E+00 -0.1459975876425E-01
-0.2785782178099E-02 -0.3283547283306E+01 -0.6572666228908E+00 -0.2105902404577E-01
-0.2591044236338E-02 -0.3304288954262E+01 -0.6613760095549E+00 -0.2683202040608E-01
-0.2553383828823E-02 -0.3331184233834E+01 -0.6667475334679E+00 -0.3230800417169E-01
-0.2641790536535E-02 -0.3363963498674E+01 -0.6733210678754E+00 -0.3778617162696E-01
-0.2838869613834E-02 -0.3402643564323E+01 -0.6810964969364E+00 -0.4351231154591E-01
-0.3136517937731E-02 -0.3447479835602E+01 -0.6901232809916E+00 -0.4970277265326E-01
-0.3534622628587E-02 -0.3498940310057E+01 -0.7004949969753E+00 -0.5656238370133E-01
-0.4041959055599E-02 -0.3557695322415E+01 -0.7123474669090E+00 -0.6430131387361E-01
-0.4680592957255E-02 -0.3624625836085E+01 -0.7258612966247E+00 -0.7315659025478E-01
-0.5497151840080E-02 -0.3700851182991E+01 -0.7412696780120E+00 -0.8342597618088E-01
-0.6590990122844E-02 -0.3787785410785E+01 -0.7588752914898E+00 -0.9553619713714E-01
-0.8256998004880E-02 -0.3887204577846E+01 -0.7790923267795E+00 -0.1102106387880E+00
-0.1130896520304E-01 -0.4001051860868E+01 -0.8024721771720E+00 -0.1286347237428E+00
-0.1687151106913E-01 -0.4130686363319E+01 -0.8295115872382E+00 -0.1521909309071E+00
-0.2533128305501E-01 -0.4275984081615E+01 -0.8602630857528E+00 -0.1820580305032E+00
-0.3598848199388E-01 -0.4435154017662E+01 -0.8942285132562E+00 -0.2192224623072E+00
-0.4794217594644E-01 -0.4605534681739E+01 -0.9306953854054E+00 -0.2644423371446E+00
-0.6085301278246E-01 -0.4784666106692E+01 -0.9691038383356E+00 -0.3180917267779E+00
-0.7504630716053E-01 -0.4970817290972E+01 -0.1009172734664E+01 -0.3802774651047E+00
-0.9133443231942E-01 -0.5162848223511E+01 -0.1050836546825E+01 -0.4510764906400E+00
-0.1107231299291E+00 -0.5359666744491E+01 -0.1094077991187E+01 -0.5306231951947E+00
-0.1337979766531E+00 -0.5559784352961E+01 -0.1138716482891E+01 -0.6189825309992E+00
-0.1603803100873E+00 -0.5761653037856E+01 -0.1184406687238E+01 -0.7164972603206E+00
-0.1914916053190E+00 -0.5964224802227E+01 -0.1231143299855E+01 -0.8249133616711E+00
-0.2302896766093E+00 -0.6165904921867E+01 -0.1279238938757E+01 -0.9472939111362E+00
-0.2868050710649E+00 -0.6362216819898E+01 -0.1329804398008E+01 -0.1090221510715E+01
-0.3656425026665E+00 -0.6531569842717E+01 -0.1379442489632E+01 -0.1253718955290E+01
-0.4966410801214E+00 -0.6637648854309E+01 -0.1426858008148E+01 -0.1466224346820E+01
-0.8626181997957E+00 -0.6365011572473E+01 -0.1445525975994E+01 -0.1636887336107E+01
-0.1716049238840E+00 -0.5296303389794E+01 -0.1093581679031E+01 -0.7676086870033E+00
 0.6246585254074E+01 -0.4433551625503E+01  0.3626067311174E+00  0.2529832510364E+00
-0.6505865923556E+00 -0.4265491632504E+01 -0.9832156596231E+00  0.7093963840578E+00
-0.1062310102093E+00 -0.3949736313559E+01 -0.8111934768414E+00  0.3148690887322E+00
-0.6775814268239E-02 -0.3583297726352E+01 -0.7180147188233E+00  0.1085652515602E+00
-0.1348828634374E-01 -0.3420056703143E+01 -0.6867090081301E+00  0.6492433692454E-01
-0.4869681063863E-02 -0.3325102697577E+01 -0.6659944856523E+00  0.3471790450345E-01
-0.3650208223719E-02 -0.3271295204517E+01 -0.6549890923083E+00  0.1839610238640E-01
-0.2322597979525E-02 -0.3242546430984E+01 -0.6489738154631E+00  0.7572779477766E-02
-0.1715088962467E-02 -0.3230755651442E+01 -0.6464941577143E+00  0.7704533121101E-04
-0.1315997835715E-02 -0.3231125007935E+01 -0.6464882107875E+00 -0.5505221276168E-02
-0.1086091018238E-02 -0.3240785021873E+01 -0.6483742322397E+00 -0.9922022561563E-02
-0.9552285007607E-03 -0.3257972544578E+01 -0.6517855643281E+00 -0.1364827713598E-01
-0.8965981344649E-03 -0.3281643318582E+01 -0.6565079931261E+00 -0.1699962120506E-01
-0.8919221058304E-03 -0.3311244460863E+01 -0.6624272864647E+00 -0.2020382889779E-01
-0.9313274007922E-03 -0.3346585547094E+01 -0.6695033848753E+00 -0.2343675964683E-01
-0.1009219027955E-02 -0.3387761235365E+01 -0.6777541009779E+00 -0.2684405509070E-01
-0.1123277847637E-02 -0.3435106470206E+01 -0.6872459598514E+00 -0.3055506291854E-01
-0.1273983516828E-02 -0.3489173824555E+01 -0.6980895720167E+00 -0.3469340548222E-01
-0.1464892586376E-02 -0.3550727672597E+01 -0.7104385236230E+00 -0.3938709864526E-01
-0.1704388624468E-02 -0.3620759611927E+01 -0.7244928109061E+00 -0.4478207031051E-01
-0.2010201096512E-02 -0.3700529882064E+01 -0.7405080276666E+00 -0.5106423380422E-01
-0.2418388043204E-02 -0.3791654897221E+01 -0.7588146683600E+00 -0.5850358775139E-01
-0.3039628861122E-02 -0.3896303011764E+01 -0.7798685397460E+00 -0.6759080398356E-01
-0.4443839851212E-02 -0.4017401662735E+01 -0.8043691125033E+00 -0.7942373318620E-01
-0.7673757272537E-02 -0.4157840385933E+01 -0.8331028410553E+00 -0.9584150571073E-01
-0.1313338633673E-01 -0.4318230181360E+01 -0.8662727264477E+00 -0.1189724509149E+00
-0.2018932340130E-01 -0.4496051943064E+01 -0.9032482667524E+00 -0.1506386049024E+00
-0.2814330745454E-01 -0.4687557919718E+01 -0.9431402594883E+00 -0.1918267533393E+00
-0.3685594500986E-01 -0.4889843461530E+01 -0.9853398959907E+00 -0.2426520232669E+00
-0.4671414579284E-01 -0.5101580833375E+01 -0.1029659011177E+01 -0.3028760215750E+00
-0.5845735718726E-01 -0.5322743578297E+01 -0.1076240203134E+01 -0.3724324504569E+00
-0.7306584185455E-01 -0.5553826894951E+01 -0.1125378564130E+01 -0.4517209261542E+00
-0.9121918983069E-01 -0.5794863346254E+01 -0.1177216524759E+01 -0.5413295650947E+00
-0.1126484219489E+00 -0.6045513023382E+01 -0.1231632307419E+01 -0.6416798062276E+00
-0.1371875185302E+00 -0.6307814636203E+01 -0.1289000450154E+01 -0.7538596975045E+00
-0.1686851693359E+00 -0.6589033299281E+01 -0.1351543713863E+01 -0.8814755898045E+00
-0.2082643306725E+00 -0.6899806764553E+01 -0.1421614240229E+01 -0.1031328634047E+01
-0.2865191724241E+00 -0.7252349125591E+01 -0.1507773682071E+01 -0.1225051938324E+01
-0.3398383460002E+00 -0.7641418139148E+01 -0.1596251320816E+01 -0.1455854393445E+01
-0.7461911520181E+00 -0.8084271466176E+01 -0.1766092549956E+01 -0.1989670017703E+01
-0.1376940352769E+01 -0.7493797005272E+01 -0.1774147498045E+01 -0.1886153605931E+01
 0.6526456239529E+01 -0.6305551726702E+01  0.4418090322362E-01 -0.5378621119808E+00
-0.6117644209716E+00 -0.4876062293297E+01 -0.1097565359209E+01  0.6440949784878E+00
 0.8365530732717E-01 -0.3807246231178E+01 -0.7447181958674E+00  0.3791713142642E-01
-0.1705239096554E-01 -0.3495813190295E+01 -0.7025731267213E+00  0.3877323753569E-01
 0.2439901629983E-02 -0.3344155777196E+01 -0.6683431850723E+00  0.1765058429171E-01
-0.1073675635173E-02 -0.3261969874977E+01 -0.6526087198471E+00  0.9761488225364E-02
-0.8869293052172E-04 -0.3217569400859E+01 -0.6435316283473E+00  0.4683027262336E-02
-0.2066568146806E-03 -0.3196332507933E+01 -0.6393078424761E+00  0.1448402051960E-02
-0.1176203940200E-03 -0.3190544312298E+01 -0.6381323960474E+00 -0.8275890071392E-03
-0.1034704502764E-03 -0.3195852963804E+01 -0.6391912963754E+00 -0.2526697014540E-02
-0.8671458468323E-04 -0.3209650052155E+01 -0.6419473629136E+00 -0.3882555959774E-02
-0.8063064575048E-04 -0.3230374927785E+01 -0.6460911213137E+00 -0.5038076465780E-02
-0.7921152032120E-04 -0.3257132220666E+01 -0.6514422961444E+00 -0.6090810299548E-02
-0.8245287467934E-04 -0.3289488665730E+01 -0.6579142335246E+00 -0.7111784032539E-02
-0.8966168161073E-04 -0.3327354439752E+01 -0.6654888302034E+00 -0.8156778341643E-02
-0.1008066129545E-03 -0.3370914267988E+01 -0.6742030249665E+00 -0.9272715455164E-02
-0.1160082988648E-03 -0.3420588262579E+01 -0.6841408643702E+00 -0.1050188880804E-01
-0.1358323618037E-03 -0.3477013950473E+01 -0.6954299669297E+00 -0.1188538478930E-01
-0.1608604029789E-03 -0.3541043869534E+01 -0.7082409565409E+00 -0.1346595317330E-01
-0.1923613086069E-03 -0.3613766484341E+01 -0.7227917799003E+00 -0.1529298904746E-01
-0.2324837150690E-03 -0.3696554229015E+01 -0.7393573535632E+00 -0.1742940605640E-01
-0.2853495736865E-03 -0.3791167563563E+01 -0.7582905939268E+00 -0.1996812134557E-01
-0.3556474553386E-03 -0.3900002579819E+01 -0.7800716570788E+00 -0.2306898442266E-01
-0.6014496825661E-03 -0.4026827070908E+01 -0.8054857161207E+00 -0.2726300255224E-01
-0.1634362744372E-02 -0.4177305777443E+01 -0.8357880404916E+00 -0.3467906360275E-01
-0.3719558940305E-02 -0.4353582140961E+01 -0.8714603529661E+00 -0.4922040593715E-01
-0.6492651806362E-02 -0.4551385855302E+01 -0.9115757150051E+00 -0.7414573479005E-01
-0.9809955902315E-02 -0.4765111737912E+01 -0.9549843529933E+00 -0.1104910456029E+00
-0.1386024175671E-01 -0.4991140780785E+01 -0.1001000219424E+01 -0.1577231630597E+00
-0.1904904634629E-01 -0.5228626113074E+01 -0.1049535047523E+01 -0.2148864079014E+00
-0.2590788083463E-01 -0.5478939659336E+01 -0.1100969524440E+01 -0.2814993511057E+00
-0.3508988316558E-01 -0.5744563000170E+01 -0.1155930593892E+01 -0.3580302512742E+00
-0.4738741200224E-01 -0.6027767967339E+01 -0.1215031093974E+01 -0.4459411146517E+00
-0.6282675073832E-01 -0.6328254149693E+01 -0.1278216199133E+01 -0.5460381396768E+00
-0.8115543462021E-01 -0.6648767263085E+01 -0.1345984559598E+01 -0.6568286025215E+00
-0.1022051140428E+00 -0.7006551503967E+01 -0.1421751344788E+01 -0.7786174993405E+00
-0.1335550320270E+00 -0.7431304685185E+01 -0.1512971965988E+01 -0.9182895618027E+00
-0.1569635181319E+00 -0.7964727181186E+01 -0.1624338164068E+01 -0.1091625787670E+01
-0.2943303418995E+00 -0.8680734163625E+01 -0.1795012927853E+01 -0.1336742609506E+01
-0.8459270404950E-02 -0.9741010958187E+01 -0.1949894074774E+01 -0.1672168733251E+01
-0.2569580059763E+01 -0.1157010442282E+02 -0.2827936938656E+01 -0.2959254958470E+01
 0.7659077087401E+01 -0.1194533895857E+02 -0.8572523870073E+00 -0.2887588283228E+01
-0.1908565040978E+01 -0.2756131717084E+01 -0.2192407470728E+01 -0.9798472654380E+00
-0.1664772283488E+01 -0.2837295028682E+01 -0.2115971631353E+01 -0.8920878031619E+00
-0.1420293749191E+01 -0.2910233844591E+01 -0.2035347963915E+01 -0.8111173338322E+00
-0.1186466593018E+01 -0.2974678602216E+01 -0.1955738236800E+01 -0.7360517101217E+00
-0.9674204716244E+00 -0.3029148656737E+01 -0.1878387485565E+01 -0.6669737298786E+00
-0.7657417246418E+00 -0.3073194545444E+01 -0.1804300042364E+01 -0.6042942840930E+00
-0.5825544126393E+00 -0.3106665039992E+01 -0.1733933138339E+01 -0.5487517781500E+00
-0.4186870215798E+00 -0.3130853040746E+01 -0.1668283825062E+01 -0.5012075936036E+00
-0.2740034163246E+00 -0.3147275603242E+01 -0.1608001135118E+01 -0.4622420361181E+00
-0.1478298532855E+00 -0.3157422459585E+01 -0.1553468583109E+01 -0.4320577528890E+00
-0.3935039756320E-01 -0.3162790435079E+01 -0.1505006187525E+01 -0.4105973595451E+00
 0.5236157314455E-01 -0.3164743235564E+01 -0.1462819377627E+01 -0.3976574952120E+00
 0.1282170089082E+00 -0.3164441160047E+01 -0.1427025347416E+01 -0.3929130202797E+00
 0.1890555071751E+00 -0.3162710450256E+01 -0.1397617819703E+01 -0.3959867842520E+00
 0.2355749081625E+00 -0.3160085750595E+01 -0.1374520092457E+01 -0.4065407167337E+00
 0.2684184584244E+00 -0.3156770601491E+01 -0.1357525503798E+01 -0.4242696988751E+00
 0.2861326646802E+00 -0.3154054088620E+01 -0.1347923065833E+01 -0.4486256943996E+00
 0.2872982911681E+00 -0.3153417039626E+01 -0.1347075808358E+01 -0.4801750846781E+00
 0.2771206012158E+00 -0.3152857998137E+01 -0.1351596573125E+01 -0.5189338077133E+00
 0.2328974685895E+00 -0.3180958064128E+01 -0.1385588476389E+01 -0.5564766042801E+00
-0.1948064331370E+01 -0.2776871282438E+01 -0.2220719732857E+01 -0.9389056101600E+00
-0.1693449501298E+01 -0.2856203331951E+01 -0.2138336826203E+01 -0.8519434560915E+00
-0.1445425477018E+01 -0.2931786365402E+01 -0.2057289560720E+01 -0.7743426212268E+00
-0.1208168765662E+01 -0.2998897948763E+01 -0.1977321350765E+01 -0.7035159683716E+00
-0.9860684363828E+00 -0.3056612928360E+01 -0.1900060236610E+01 -0.6390458342006E+00
-0.7812779314377E+00 -0.3104423255410E+01 -0.1826279553186E+01 -0.5810649409585E+00
-0.5951033559510E+00 -0.3142602589819E+01 -0.1756721790056E+01 -0.5299915367512E+00
-0.4280742973174E+00 -0.3171953833849E+01 -0.1692013217357E+01 -0.4864087512869E+00
-0.2801249866980E+00 -0.3193747800902E+01 -0.1632720206031E+01 -0.4508186875791E+00
-0.1507169091794E+00 -0.3209384057484E+01 -0.1579247450326E+01 -0.4234524714009E+00
-0.3908764882187E-01 -0.3220266238769E+01 -0.1531896323282E+01 -0.4043221544552E+00
 0.5562623839552E-01 -0.3227744218609E+01 -0.1490895446919E+01 -0.3933065165494E+00
 0.1343137044677E+00 -0.3233000591968E+01 -0.1456382833431E+01 -0.3901720779019E+00
 0.1977905089142E+00 -0.3236990754973E+01 -0.1428424112025E+01 -0.3946215475187E+00
 0.2467501912731E+00 -0.3240457152229E+01 -0.1407042268081E+01 -0.4063252443128E+00
 0.2813109184700E+00 -0.3244231098637E+01 -0.1392572481146E+01 -0.4248160571840E+00
 0.3004343483168E+00 -0.3249124489589E+01 -0.1385884362883E+01 -0.4495380811612E+00
 0.3036519013612E+00 -0.3255693226369E+01 -0.1387459419235E+01 -0.4805770152598E+00
 0.2845983829134E+00 -0.3269072846851E+01 -0.1402702994493E+01 -0.5167066695895E+00
 0.2455836910757E+00 -0.3282841197164E+01 -0.1427511024241E+01 -0.5586617430413E+00
-0.1984626480110E+01 -0.2795004146881E+01 -0.2246426388988E+01 -0.8970571810672E+00
-0.1722508530008E+01 -0.2877202289973E+01 -0.2161864079908E+01 -0.8116500535014E+00
-0.1469041215184E+01 -0.2954291588341E+01 -0.2078966412384E+01 -0.7370013348210E+00
-0.1228250991261E+01 -0.3023946010078E+01 -0.1998532585560E+01 -0.6701596533716E+00
-0.1002965398220E+01 -0.3084621306382E+01 -0.1921165746290E+01 -0.6100417250409E+00
-0.7952135877651E+00 -0.3136017141253E+01 -0.1847678437952E+01 -0.5564429063288E+00
-0.6060962685507E+00 -0.3178362640853E+01 -0.1778695682908E+01 -0.5095368082070E+00
-0.4360894275488E+00 -0.3212385048023E+01 -0.1714782999169E+01 -0.4697138069350E+00
-0.2851021309482E+00 -0.3239158591060E+01 -0.1656402535142E+01 -0.4373674364814E+00
-0.1526570003497E+00 -0.3259959815574E+01 -0.1603929899416E+01 -0.4127238827291E+00
-0.3805332114083E-01 -0.3276128881850E+01 -0.1557665631455E+01 -0.3958395508391E+00
 0.5952815811887E-01 -0.3288987389047E+01 -0.1517845834686E+01 -0.3866498661788E+00
 0.1409307175600E+00 -0.3299750603652E+01 -0.1484645342698E+01 -0.3849807857319E+00
 0.2069222368792E+00 -0.3309466538685E+01 -0.1458195818150E+01 -0.3905711904503E+00
 0.2580290441215E+00 -0.3319069820374E+01 -0.1438689161190E+01 -0.4030662955134E+00
 0.2942440318657E+00 -0.3329415163645E+01 -0.1426530428318E+01 -0.4219750621477E+00
 0.3147424152854E+00 -0.3341114538169E+01 -0.1422394894148E+01 -0.4467530217296E+00
 0.3173656220134E+00 -0.3355484549016E+01 -0.1427915892070E+01 -0.4772641247231E+00
 0.3006557682810E+00 -0.3371712600227E+01 -0.1443396707354E+01 -0.5138966535404E+00
 0.2656999307540E+00 -0.3387610253977E+01 -0.1467297848193E+01 -0.5590493088920E+00
-0.2020330676236E+01 -0.2813167963416E+01 -0.2271744354875E+01 -0.8539433498306E+00
-0.1750419001171E+01 -0.2898226520295E+01 -0.2184863389547E+01 -0.7707104428291E+00
-0.1491613458180E+01 -0.2977546278369E+01 -0.2100505070850E+01 -0.6991276957665E+00
-0.1246820113380E+01 -0.3049440633284E+01 -0.2019242545811E+01 -0.6360583082224E+00
-0.1018319199998E+01 -0.3112889543497E+01 -0.1941668104517E+01 -0.5800487262205E+00
-0.8076350807120E+00 -0.3167557293156E+01 -0.1868340410979E+01 -0.5305666558037E+00
-0.6156966380765E+00 -0.3213701704281E+01 -0.1799817216343E+01 -0.4875730710873E+00
-0.4428663730852E+00 -0.3251977719393E+01 -0.1736576719060E+01 -0.4512977341980E+00
-0.2890339036688E+00 -0.3283358659397E+01 -0.1679024500382E+01 -0.4220354149348E+00
-0.1537445282434E+00 -0.3309018490150E+01 -0.1627498614517E+01 -0.3999868017064E+00
-0.3633909274309E-01 -0.3330233846239E+01 -0.1582289277308E+01 -0.3852290229251E+00
 0.6395448385885E-01 -0.3348301465356E+01 -0.1543643077389E+01 -0.3777321146069E+00
 0.1479251318029E+00 -0.3364451964277E+01 -0.1511767607429E+01 -0.3773573901955E+00
 0.2162542630172E+00 -0.3379794719365E+01 -0.1486864010712E+01 -0.3838626822024E+00
 0.2693548549416E+00 -0.3395308462510E+01 -0.1469198191831E+01 -0.3968995205817E+00
 0.3071549636350E+00 -0.3411797743886E+01 -0.1459182103017E+01 -0.4160133794835E+00
 0.3286637819301E+00 -0.3429916881800E+01 -0.1457588953242E+01 -0.4407731458456E+00
 0.3327054992752E+00 -0.3449826521261E+01 -0.1465046876617E+01 -0.4714167440786E+00
 0.3185229355332E+00 -0.3471051650232E+01 -0.1481688492150E+01 -0.5089705018208E+00
 0.2871232548115E+00 -0.3493097143518E+01 -0.1506807723870E+01 -0.5557564630888E+00
-0.2054953149289E+01 -0.2831230899822E+01 -0.2296506497257E+01 -0.8095800536682E+00
-0.1777255232789E+01 -0.2919284232358E+01 -0.2207373543020E+01 -0.7290087166524E+00
-0.1512936470078E+01 -0.3000917385355E+01 -0.2121511306673E+01 -0.6606479498052E+00
-0.1264051239491E+01 -0.3075076169646E+01 -0.2039389877122E+01 -0.6012625590429E+00
-0.1032251156573E+01 -0.3141077686365E+01 -0.1961464551206E+01 -0.5491563698063E+00
-0.8186858105238E+00 -0.3198750148107E+01 -0.1888194895768E+01 -0.5035593013557E+00
-0.6240321746775E+00 -0.3248360787622E+01 -0.1820024687665E+01 -0.4642469599088E+00
-0.4485327452031E+00 -0.3290537546839E+01 -0.1757363032803E+01 -0.4313115267542E+00
-0.2920318682092E+00 -0.3326184761057E+01 -0.1700561811442E+01 -0.4049580128447E+00
-0.1540811389841E+00 -0.3356403826048E+01 -0.1649927929380E+01 -0.3853533003593E+00
-0.3404965168869E-01 -0.3382415424048E+01 -0.1605738581524E+01 -0.3725779718588E+00
 0.6879026014434E-01 -0.3405486486199E+01 -0.1568247222268E+01 -0.3666201336764E+00
 0.1551655499154E+00 -0.3426845810773E+01 -0.1537689718703E+01 -0.3673636848218E+00
 0.2256784754394E+00 -0.3447614090236E+01 -0.1514309735114E+01 -0.3745892075192E+00
 0.2806631235663E+00 -0.3468757128280E+01 -0.1498404178415E+01 -0.3879838193626E+00
 0.3199810090768E+00 -0.3491044963042E+01 -0.1490400054583E+01 -0.4071823176163E+00
 0.3429363722979E+00 -0.3514896929639E+01 -0.1490821458169E+01 -0.4319771521504E+00
 0.3487792236368E+00 -0.3540428615402E+01 -0.1500075210325E+01 -0.4628387995990E+00
 0.3372691731328E+00 -0.3567581222586E+01 -0.1518246659392E+01 -0.5009290906548E+00
 0.3093870106682E+00 -0.3596821742155E+01 -0.1545094319880E+01 -0.5482210890585E+00
-0.2088363509832E+01 -0.2849098132849E+01 -0.2320606966174E+01 -0.7639818919068E+00
-0.1802898397799E+01 -0.2940138353186E+01 -0.2229227267309E+01 -0.6865075791617E+00
-0.1533019792025E+01 -0.3024121124063E+01 -0.2141856225129E+01 -0.6215364738395E+00
-0.1279985243856E+01 -0.3100487249346E+01 -0.2058822066583E+01 -0.5657981477576E+00
-0.1044886001155E+01 -0.3168888774007E+01 -0.1980474139303E+01 -0.5174422215482E+00
-0.8284895735671E+00 -0.3229317508575E+01 -0.1907169323769E+01 -0.4755278324761E+00
-0.6312307209729E+00 -0.3282101492300E+01 -0.1839266135573E+01 -0.4396844623745E+00
-0.4532089766082E+00 -0.3327860808977E+01 -0.1777102794717E+01 -0.4098870336642E+00
-0.2942094577309E+00 -0.3367459433163E+01 -0.1720984374355E+01 -0.3862605172420E+00
-0.1537744374036E+00 -0.3401945182007E+01 -0.1671188216884E+01 -0.3689345383653E+00
-0.3129229611528E-01 -0.3432491162447E+01 -0.1627978221395E+01 -0.3579827531834E+00
 0.7392445324916E-01 -0.3460330069579E+01 -0.1591610635638E+01 -0.3534013874749E+00
 0.1625456298256E+00 -0.3486670294820E+01 -0.1562338588585E+01 -0.3550929985739E+00
 0.2351097747582E+00 -0.3512615074359E+01 -0.1540427486905E+01 -0.3628693432106E+00
 0.2918969615358E+00 -0.3539103078342E+01 -0.1526186871028E+01 -0.3764762200552E+00
 0.3328183930559E+00 -0.3566834243276E+01 -0.1519987445748E+01 -0.3956701781190E+00
 0.3574069221665E+00 -0.3596211137355E+01 -0.1522237977277E+01 -0.4204261263687E+00
 0.3652486266815E+00 -0.3627469025174E+01 -0.1533243583403E+01 -0.4513102272530E+00
 0.3564033632073E+00 -0.3660947801557E+01 -0.1553135882085E+01 -0.4894227711972E+00
 0.3319089326050E+00 -0.3697592415035E+01 -0.1581871232730E+01 -0.5363546212010E+00
-0.2120389900160E+01 -0.2866607729529E+01 -0.2343888880009E+01 -0.7171802234957E+00
-0.1827263335305E+01 -0.2960587496931E+01 -0.2250289885443E+01 -0.6432030499579E+00
-0.1551847329715E+01 -0.3046887673103E+01 -0.2161405445842E+01 -0.5817922965340E+00
-0.1294677432035E+01 -0.3125386450130E+01 -0.2077430019349E+01 -0.5296945577111E+00
-0.1056314927703E+01 -0.3196036640362E+01 -0.1998605231922E+01 -0.4849714316139E+00
-0.8371627077300E+00 -0.3259004023987E+01 -0.1925198359024E+01 -0.4465658072696E+00
-0.6374112581239E+00 -0.3314694574963E+01 -0.1857489736840E+01 -0.4139965316584E+00
-0.4570122735522E+00 -0.3363745119745E+01 -0.1795755970295E+01 -0.3871430617343E+00
-0.2956786939354E+00 -0.3406997957731E+01 -0.1740258021869E+01 -0.3660606498768E+00
-0.1529324649102E+00 -0.3445462545437E+01 -0.1691245650574E+01 -0.3508417898168E+00
-0.2817285148907E-01 -0.3480270628468E+01 -0.1648968431397E+01 -0.3415479273412E+00
 0.7925435164921E-01 -0.3512617499795E+01 -0.1613680675535E+01 -0.3381788467780E+00
 0.1699719224549E+00 -0.3543679802116E+01 -0.1585642699419E+01 -0.3406557519300E+00
 0.2444714402839E+00 -0.3574532276179E+01 -0.1565128588901E+01 -0.3488286788917E+00
 0.3030190094465E+00 -0.3606080213169E+01 -0.1552438761812E+01 -0.3625137268913E+00
 0.3455914952945E+00 -0.3639008044555E+01 -0.1547905774226E+01 -0.3815798939346E+00
 0.3719174221526E+00 -0.3673775736300E+01 -0.1551873403713E+01 -0.4061253673857E+00
 0.3818194607897E+00 -0.3710791570651E+01 -0.1564616887666E+01 -0.4367280434919E+00
 0.3755634715900E+00 -0.3750672323350E+01 -0.1586301156304E+01 -0.4743543773461E+00
 0.3542578736338E+00 -0.3794594664422E+01 -0.1616958287569E+01 -0.5202440303647E+00
-0.2150867159186E+01 -0.2883596133017E+01 -0.2366197741334E+01 -0.6692157908767E+00
-0.1850263975771E+01 -0.2980431077974E+01 -0.2270426669502E+01 -0.5991099585498E+00
-0.1569407653992E+01 -0.3068981077206E+01 -0.2180042698133E+01 -0.5414298503140E+00
-0.1308171193630E+01 -0.3149515784976E+01 -0.2095112874631E+01 -0.4929852886993E+00
-0.1066620444947E+01 -0.3222266344888E+01 -0.2015776786110E+01 -0.4518035496251E+00
-0.8448079438570E+00 -0.3287569911971E+01 -0.1942217587313E+01 -0.4167561626816E+00
-0.6426854846956E+00 -0.3345922185630E+01 -0.1874645600298E+01 -0.3872830549051E+00
-0.4600544171782E+00 -0.3397991657232E+01 -0.1813281650373E+01 -0.3631890591359E+00
-0.2965485375486E+00 -0.3444614383653E+01 -0.1758346568505E+01 -0.3444710015193E+00
-0.1516605994860E+00 -0.3486772618526E+01 -0.1710063608128E+01 -0.3311869162962E+00
-0.2479297824108E-01 -0.3525562158240E+01 -0.1668666909914E+01 -0.3233844125370E+00
 0.8468376694362E-01 -0.3562140192104E+01 -0.1634404515680E+01 -0.3210653899694E+00
 0.1773568975812E+00 -0.3597647835597E+01 -0.1607536736790E+01 -0.3241705108029E+00
 0.2536897632927E+00 -0.3633129421205E+01 -0.1588336635190E+01 -0.3325909685937E+00
 0.3139526419668E+00 -0.3669472710037E+01 -0.1577094427993E+01 -0.3462106217050E+00
 0.3581917340685E+00 -0.3707379981155E+01 -0.1574118472138E+01 -0.3649882817911E+00
 0.3862892613925E+00 -0.3747401164009E+01 -0.1579722590223E+01 -0.3890956627622E+00
 0.3982406343109E+00 -0.3790102080124E+01 -0.1594174875489E+01 -0.4190778234600E+00
 0.3944475077856E+00 -0.3836285524182E+01 -0.1617663863604E+01 -0.4557473087454E+00
 0.3760335621799E+00 -0.3887249442475E+01 -0.1650271459553E+01 -0.5000299664939E+00
-0.2179637000603E+01 -0.2899904044015E+01 -0.2387384284915E+01 -0.6201383439560E+00
-0.1871819916734E+01 -0.2999480624020E+01 -0.2289511248347E+01 -0.5542554300414E+00
-0.1585687411837E+01 -0.3090185639079E+01 -0.2197660328356E+01 -0.5004734897939E+00
-0.1320504629765E+01 -0.3172644611618E+01 -0.2111780138094E+01 -0.4557071591875E+00
-0.1075875162152E+01 -0.3247346195613E+01 -0.2031914032996E+01 -0.4179947566548E+00
-0.8515188006210E+00 -0.3314793897936E+01 -0.1958166963355E+01 -0.3861745661056E+00
-0.6471566111081E+00 -0.3375577909913E+01 -0.1890685220084E+01 -0.3596356349857E+00
-0.4624411514892E+00 -0.3430408313200E+01 -0.1829639243763E+01 -0.3381276459877E+00
-0.2969231804969E+00 -0.3480125730372E+01 -0.1775212983606E+01 -0.3216005311638E+00
-0.1500599140738E+00 -0.3525694085437E+01 -0.1727604375388E+01 -0.3100823098478E+00
-0.2124962226927E-01 -0.3568178306200E+01 -0.1687031122102E+01 -0.3036073846655E+00
 0.9012101488852E-01 -0.3608699487037E+01 -0.1653731877716E+01 -0.3021797119322E+00
 0.1846153059172E+00 -0.3648364462177E+01 -0.1627962099313E+01 -0.3057593583266E+00
 0.2626814672990E+00 -0.3688193262594E+01 -0.1609990539705E+01 -0.3142766461075E+00
 0.3246037029110E+00 -0.3729070848679E+01 -0.1600099554452E+01 -0.3276735344901E+00
 0.3704912571832E+00 -0.3771736981843E+01 -0.1598585486536E+01 -0.3459744683606E+00
 0.4003453990603E+00 -0.3816835576370E+01 -0.1605750379263E+01 -0.3693888619606E+00
 0.4142837999571E+00 -0.3865063277184E+01 -0.1621866350183E+01 -0.3984074785679E+00
 0.4127817519297E+00 -0.3917349566306E+01 -0.1647146868579E+01 -0.4336902893517E+00
 0.3969217029512E+00 -0.3975042742246E+01 -0.1681716884203E+01 -0.4758912158781E+00
-0.2206550643896E+01 -0.2915381684361E+01 -0.2407308188175E+01 -0.5700059407869E+00
-0.1891855608212E+01 -0.3017560570551E+01 -0.2307425598166E+01 -0.5086757398373E+00
-0.1600672694325E+01 -0.3110304632176E+01 -0.2214159337840E+01 -0.4589545429296E+00
-0.1331710430788E+01 -0.3194564062444E+01 -0.2127349006423E+01 -0.4178995143096E+00
-0.1084143939853E+01 -0.3271065716362E+01 -0.2046948533230E+01 -0.3835992235095E+00
-0.8573800038630E+00 -0.3340471916785E+01 -0.1972990397700E+01 -0.3548916876555E+00
-0.6509197905908E+00 -0.3403468181538E+01 -0.1905562342067E+01 -0.3311399754968E+00
-0.4642712506086E+00 -0.3460811742618E+01 -0.1844789002137E+01 -0.3120565113142E+00
-0.2969009738922E+00 -0.3513355303015E+01 -0.1790820445604E+01 -0.2975556411707E+00
-0.1482262279889E+00 -0.3562051370959E+01 -0.1743830467083E+01 -0.2876407460036E+00
-0.1763503823560E-01 -0.3607939159467E+01 -0.1704019868598E+01 -0.2823348350596E+00
 0.9547775894118E-01 -0.3652107575744E+01 -0.1671616009658E+01 -0.2816441646694E+00
 0.1916610131028E+00 -0.3695633855699E+01 -0.1646867231843E+01 -0.2855467259310E+00
 0.2713569056907E+00 -0.3739521471035E+01 -0.1630037341578E+01 -0.2940068219312E+00
 0.3348673983590E+00 -0.3784663683176E+01 -0.1621404249751E+01 -0.3070123472065E+00
 0.3823558458378E+00 -0.3831845836025E+01 -0.1621260291276E+01 -0.3246322051021E+00
 0.4139131686788E+00 -0.3881799312719E+01 -0.1629906483565E+01 -0.3470890984564E+00
 0.4297374685632E+00 -0.3935326611738E+01 -0.1647626893113E+01 -0.3748110434469E+00
 0.4303281762741E+00 -0.3993441887494E+01 -0.1674663440026E+01 -0.4083178653359E+00
 0.4166718935115E+00 -0.4057503236509E+01 -0.1711190726868E+01 -0.4480372808422E+00
-0.2231469943664E+01 -0.2929890868739E+01 -0.2425839575677E+01 -0.5188842929552E+00
-0.1910300903453E+01 -0.3034509577197E+01 -0.2324060920011E+01 -0.4624143343979E+00
-0.1614349435586E+01 -0.3129159036300E+01 -0.2229448976132E+01 -0.4169094592088E+00
-0.1341816979746E+01 -0.3215085084470E+01 -0.2141743964749E+01 -0.3796035704044E+00
-0.1091484729654E+01 -0.3293233741077E+01 -0.2060817676016E+01 -0.3486697728181E+00
-0.8624683458161E+00 -0.3364416864316E+01 -0.1986636043723E+01 -0.3229746682678E+00
-0.6540622310876E+00 -0.3429413148300E+01 -0.1919233423444E+01 -0.3018775068178E+00
-0.4656362211952E+00 -0.3489029425513E+01 -0.1858692849239E+01 -0.2850697319390E+00
-0.2965737957015E+00 -0.3544135363662E+01 -0.1805133300322E+01 -0.2724408278693E+00
-0.1462496856771E+00 -0.3595677506793E+01 -0.1758705776000E+01 -0.2639752021237E+00
-0.1403682724038E-01 -0.3644674428855E+01 -0.1719594286003E+01 -0.2596867141187E+00
 0.1006683376980E+00 -0.3692187886111E+01 -0.1688014183473E+01 -0.2595839468303E+00
 0.1984075389433E+00 -0.3739271373635E+01 -0.1664205998084E+01 -0.2636602157008E+00
 0.2796227895818E+00 -0.3786918966134E+01 -0.1648429198798E+01 -0.2719071873583E+00
 0.3446344977068E+00 -0.3836039072912E+01 -0.1640960146184E+01 -0.2843465600913E+00
 0.3936504691162E+00 -0.3887464175869E+01 -0.1642092438009E+01 -0.3010745042086E+00
 0.4268266663548E+00 -0.3942003138039E+01 -0.1652132937501E+01 -0.3223108544089E+00
 0.4444085563248E+00 -0.4000543041642E+01 -0.1671383203860E+01 -0.3484199540805E+00
 0.4468796912403E+00 -0.4064155945610E+01 -0.1700119835242E+01 -0.3797998412173E+00
 0.4350964970569E+00 -0.4134180463948E+01 -0.1738569460029E+01 -0.4166988392146E+00
-0.2254267801666E+01 -0.2943305696276E+01 -0.2442859537837E+01 -0.4668461574395E+00
-0.1927091159434E+01 -0.3050180846269E+01 -0.2339317836747E+01 -0.4155205712154E+00
-0.1626703753741E+01 -0.3146586842880E+01 -0.2243446574722E+01 -0.3743786839933E+00
-0.1350848820912E+01 -0.3234037023067E+01 -0.2154896341205E+01 -0.3408620320239E+00
-0.1097949125579E+01 -0.3313677282685E+01 -0.2073464406625E+01 -0.3132583505644E+00
-0.8668529881970E+00 -0.3386458212117E+01 -0.1999056259077E+01 -0.2904881641763E+00
-0.6566632134045E+00 -0.3453247307929E+01 -0.1931657940127E+01 -0.2719265979667E+00
-0.4666199632461E+00 -0.3514901082151E+01 -0.1871314886591E+01 -0.2572587775270E+00
-0.2960265728352E+00 -0.3572309046943E+01 -0.1818117736684E+01 -0.2463592271009E+00
-0.1442143313280E+00 -0.3626416011926E+01 -0.1772196256834E+01 -0.2391988880100E+00
-0.1053770666197E-01 -0.3678224709646E+01 -0.1733718331267E+01 -0.2357846990641E+00
 0.1056102288115E+00 -0.3728775040893E+01 -0.1702887457359E+01 -0.2361272572577E+00
 0.2047694096049E+00 -0.3779102554162E+01 -0.1679936573681E+01 -0.2402319698010E+00
 0.2873852543761E+00 -0.3830197581653E+01 -0.1665121789597E+01 -0.2481109279343E+00
 0.3537955186472E+00 -0.3882987234377E+01 -0.1658720102186E+01 -0.2598086634260E+00
 0.4042431470817E+00 -0.3938349111515E+01 -0.1661029799071E+01 -0.2754351534640E+00
 0.4389292107742E+00 -0.3997158837671E+01 -0.1672367920400E+01 -0.2951969578426E+00
 0.4581209904021E+00 -0.4060371197118E+01 -0.1693057592862E+01 -0.3193978544667E+00
 0.4622593318472E+00 -0.4129097779244E+01 -0.1723414065905E+01 -0.3483342049126E+00
 0.4520373298595E+00 -0.4204652160333E+01 -0.1763728965849E+01 -0.3821192893450E+00
-0.2274828773002E+01 -0.2955513032138E+01 -0.2458260642180E+01 -0.4139707236171E+00
-0.1942167532017E+01 -0.3064442362431E+01 -0.2353106644422E+01 -0.3680488171766E+00
-0.1637722379103E+01 -0.3162442740567E+01 -0.2256077600522E+01 -0.3314059062820E+00
-0.1358827197058E+01 -0.3251266969834E+01 -0.2166744252944E+01 -0.3017188344870E+00
-0.1103582855501E+01 -0.3332240988969E+01 -0.2084837201613E+01 -0.2774163332505E+00
-0.8705958055762E+00 -0.3406441991254E+01 -0.2010207759412E+01 -0.2574950533740E+00
-0.6587941887117E+00 -0.3474820145293E+01 -0.1942798732055E+01 -0.2413633954717E+00
-0.4672986406510E+00 -0.3538279896773E+01 -0.1882621907814E+01 -0.2287132228786E+00
-0.2953369962372E+00 -0.3597731895949E+01 -0.1829742374686E+01 -0.2194130300030E+00
-0.1421977715248E+00 -0.3654122383332E+01 -0.1784270468257E+01 -0.2134253701552E+00
-0.7215051850434E-02 -0.3708442533002E+01 -0.1746359060451E+01 -0.2107522602707E+00
 0.1102248930764E+00 -0.3761715374548E+01 -0.1716200521939E+01 -0.2114057141379E+00
 0.2106638262945E+00 -0.3814963593950E+01 -0.1694020886501E+01 -0.2153997956157E+00
 0.2945525061098E+00 -0.3869177832683E+01 -0.1680073899228E+01 -0.2227604289449E+00
 0.3622439941256E+00 -0.3925305107413E+01 -0.1674638718998E+01 -0.2335455688859E+00
 0.4140079917265E+00 -0.3984264218171E+01 -0.1678020422173E+01 -0.2478686937512E+00
 0.4500748770151E+00 -0.4046987304723E+01 -0.1690548836735E+01 -0.2659166011333E+00
 0.4707153415572E+00 -0.4114483074850E+01 -0.1712570830304E+01 -0.2879375020248E+00
 0.4763102692877E+00 -0.4187891079433E+01 -0.1744442976344E+01 -0.3141450093822E+00
 0.4673753729929E+00 -0.4268499464406E+01 -0.1786528318433E+01 -0.3445580618825E+00
-0.2293049378261E+01 -0.2966412548982E+01 -0.2471947099534E+01 -0.3603428955757E+00
-0.1955477166482E+01 -0.3077176912551E+01 -0.2365347411146E+01 -0.3200576547349E+00
-0.1647392918717E+01 -0.3176597855074E+01 -0.2267275657931E+01 -0.2880374472398E+00
-0.1365770371196E+01 -0.3266639337221E+01 -0.2177232557433E+01 -0.2622189132471E+00
-0.1108426067854E+01 -0.3348786828128E+01 -0.2094890055798E+01 -0.2411947049751E+00
-0.8737515514524E+00 -0.3424230830086E+01 -0.2020051714199E+01 -0.2240569058086E+00
-0.6605187799606E+00 -0.3493996635575E+01 -0.1952622240349E+01 -0.2102624067479E+00
-0.4677405074658E+00 -0.3559033430340E+01 -0.1892583745968E+01 -0.1995212673690E+00
-0.2945752028427E+00 -0.3620273007826E+01 -0.1839978654348E+01 -0.1917038296972E+00
-0.1402707165019E+00 -0.3678665233286E+01 -0.1794899891848E+01 -0.1867687657425E+00
-0.4140213204119E-02 -0.3735193334212E+01 -0.1757486762828E+01 -0.1847148606773E+00
 0.1144388812930E+00 -0.3790867819416E+01 -0.1727921596535E+01 -0.1855547737242E+00
 0.2160123910548E+00 -0.3846702652277E+01 -0.1706424418446E+01 -0.1893078934164E+00
 0.3010371933885E+00 -0.3903691408181E+01 -0.1693247476658E+01 -0.1960080782822E+00
 0.3698792068968E+00 -0.3962800592212E+01 -0.1688673046815E+01 -0.2057189097396E+00
 0.4228276737912E+00 -0.4024985351208E+01 -0.1693014104092E+01 -0.2185496243881E+00
 0.4601302107539E+00 -0.4091224808901E+01 -0.1706614456800E+01 -0.2346634688400E+00
 0.4820483466530E+00 -0.4162570245844E+01 -0.1729845288232E+01 -0.2542588753116E+00
 0.4888951784665E+00 -0.4240180438938E+01 -0.1763104067950E+01 -0.2774841801443E+00
 0.4810184446025E+00 -0.4325316419877E+01 -0.1806820043796E+01 -0.3042990923111E+00
-0.2308838397705E+01 -0.2975916695766E+01 -0.2483834887631E+01 -0.3060526878761E+00
-0.1966973382208E+01 -0.3088282058591E+01 -0.2375970051149E+01 -0.2716093106180E+00
-0.1655704088528E+01 -0.3188939586215E+01 -0.2276982521354E+01 -0.2443218663398E+00
-0.1371693889369E+01 -0.3280035623938E+01 -0.2186312865709E+01 -0.2224080955831E+00
-0.1112513557872E+01 -0.3363193947261E+01 -0.2103582522077E+01 -0.2046442389838E+00
-0.8763679915603E+00 -0.3439704060781E+01 -0.2028553859455E+01 -0.1902343713432E+00
-0.6618927849858E+00 -0.3510657670723E+01 -0.1961098709209E+01 -0.1786969712160E+00
-0.4680057642547E+00 -0.3577044338391E+01 -0.1901173543421E+01 -0.1697701694202E+00
-0.2938034769374E+00 -0.3639815932349E+01 -0.1848801117675E+01 -0.1633329468241E+00
-0.1384964985557E+00 -0.3699927245264E+01 -0.1804059155020E+01 -0.1593439698079E+00
-0.1377768623264E-02 -0.3758356428943E+01 -0.1767075068374E+01 -0.1578001670474E+00
 0.1181849695593E+00 -0.3816105058981E+01 -0.1738022437620E+01 -0.1587140065263E+00
 0.2207427235942E+00 -0.3874181551434E+01 -0.1717116244729E+01 -0.1621071658442E+00
 0.3067584738372E+00 -0.3933583861134E+01 -0.1704607927706E+01 -0.1680163821925E+00
 0.3766084730157E+00 -0.3995296465227E+01 -0.1700783352025E+01 -0.1765045852859E+00
 0.4305955652969E+00 -0.4060305566899E+01 -0.1705963696426E+01 -0.1876710850684E+00
 0.4689758086702E+00 -0.4129628519517E+01 -0.1720506769734E+01 -0.2016536721429E+00
 0.4919941402011E+00 -0.4204349484247E+01 -0.1744807007276E+01 -0.2186071073283E+00
 0.4998965728477E+00 -0.4285639119371E+01 -0.1779298992353E+01 -0.2386301976103E+00
 0.4928833750324E+00 -0.4374732634186E+01 -0.1824469147175E+01 -0.2616512612396E+00
-0.2322117177825E+01 -0.2983950661088E+01 -0.2493851877964E+01 -0.2511945166895E+00
-0.1976615859342E+01 -0.3097670109335E+01 -0.2384914399229E+01 -0.2227690688303E+00
-0.1662645922558E+01 -0.3199371528265E+01 -0.2285148196091E+01 -0.2003095653132E+00
-0.1376610795863E+01 -0.3291354317043E+01 -0.2193943597501E+01 -0.1823329493482E+00
-0.1115874944415E+01 -0.3375358658924E+01 -0.2110879788215E+01 -0.1678155770860E+00
-0.8784860013610E+00 -0.3452757886907E+01 -0.2035684622323E+01 -0.1560874220729E+00
-0.6629641647070E+00 -0.3524700456892E+01 -0.1968202367159E+01 -0.1467395746294E+00
-0.4681464129389E+00 -0.3592210985298E+01 -0.1908367972331E+01 -0.1395465455807E+00
-0.2930759478213E+00 -0.3656259447189E+01 -0.1856187630947E+01 -0.1344016561573E+00
-0.1369305728204E+00 -0.3717806061748E+01 -0.1811726213652E+01 -0.1312667998626E+00
 0.1015238179674E-02 -0.3777826041414E+01 -0.1775101073018E+01 -0.1301381345287E+00
 0.1214032583826E+00 -0.3837314847820E+01 -0.1746478442606E+01 -0.1310271225668E+00
 0.2247899358823E+00 -0.3897277644993E+01 -0.1726069218904E+01 -0.1339551019666E+00
 0.3116438090849E+00 -0.3958717277542E+01 -0.1714124525827E+01 -0.1389575157687E+00
 0.3823490820999E+00 -0.4022633937834E+01 -0.1710933877855E+01 -0.1460917290990E+00
 0.4372175449345E+00 -0.4090039449290E+01 -0.1716826290693E+01 -0.1554430773274E+00
 0.4765077883109E+00 -0.4161981393310E+01 -0.1732172589956E+01 -0.1671232913787E+00
 0.5004451725290E+00 -0.4239568477607E+01 -0.1757387948929E+01 -0.1812494586812E+00
 0.5092147846696E+00 -0.4323977924337E+01 -0.1792938671096E+01 -0.1978843216092E+00
 0.5028946911604E+00 -0.4416422189938E+01 -0.1839357919760E+01 -0.2169457323047E+00
-0.2332819789501E+01 -0.2990452228347E+01 -0.2501937842043E+01 -0.1958665378664E+00
-0.1984370757658E+01 -0.3105268049387E+01 -0.2392130233244E+01 -0.1736047619091E+00
-0.1668209891371E+01 -0.3207813379451E+01 -0.2291730931474E+01 -0.1560524676680E+00
-0.1380531756129E+01 -0.3300510814402E+01 -0.2200090002569E+01 -0.1420406702638E+00
-0.1118534762160E+01 -0.3385194438767E+01 -0.2116752719067E+01 -0.1307593005133E+00
-0.8801395965126E+00 -0.3463305518332E+01 -0.2041419198799E+01 -0.1216755488716E+00
-0.6637729846006E+00 -0.3536038820118E+01 -0.1973911543211E+01 -0.1144621001144E+00
-0.4682060824316E+00 -0.3604447920105E+01 -0.1914147376337E+01 -0.1089366071264E+00
-0.2924382695878E+00 -0.3669518183770E+01 -0.1862119528355E+01 -0.1050113563560E+00
-0.1356200120273E+00 -0.3732215055835E+01 -0.1817882477284E+01 -0.1026540703259E+00
 0.2990037729750E-02 -0.3793512273658E+01 -0.1781545446368E+01 -0.1018609667892E+00
 0.1240421923014E+00 -0.3854401304702E+01 -0.1753268778382E+01 -0.1026417741894E+00
 0.2280979401023E+00 -0.3915885607506E+01 -0.1733260199284E+01 -0.1050153246891E+00
 0.3156305003501E+00 -0.3978972707221E+01 -0.1721770832862E+01 -0.1090124583624E+00
 0.3870299075270E+00 -0.4044675766998E+01 -0.1719093549591E+01 -0.1146812597310E+00
 0.4426134543882E+00 -0.4114026822696E+01 -0.1725564278728E+01 -0.1220903205284E+00
 0.4826388309518E+00 -0.4188096427393E+01 -0.1741565065910E+01 -0.1313255213626E+00
 0.5073122029605E+00 -0.4268010918283E+01 -0.1767528391718E+01 -0.1424717194798E+00
 0.5167673023096E+00 -0.4354950554525E+01 -0.1803946123966E+01 -0.1555665321323E+00
 0.5109862904573E+00 -0.4450109005372E+01 -0.1851387671314E+01 -0.1705324633582E+00
-0.2340893289177E+01 -0.2995371756834E+01 -0.2508044565264E+01 -0.1401699837649E+00
-0.1990210870700E+01 -0.3111017526294E+01 -0.2397577340506E+01 -0.1241862975020E+00
-0.1672389056083E+01 -0.3214200936075E+01 -0.2296697290489E+01 -0.1116037315367E+00
-0.1383465200242E+01 -0.3307437433750E+01 -0.2204724232384E+01 -0.1015789784794E+00
-0.1120512573745E+01 -0.3392631992979E+01 -0.2121177940980E+01 -0.9352598014384E-01
-0.8813559891165E+00 -0.3471277337252E+01 -0.2045737658204E+01 -0.8705791353286E-01
-0.6643513916929E+00 -0.3544603496028E+01 -0.1978208792211E+01 -0.8193602195346E-01
-0.4682199006028E+00 -0.3613686297332E+01 -0.1918495908163E+01 -0.7802633518923E-01
-0.2919273590347E+00 -0.3679523180336E+01 -0.1866581748770E+01 -0.7526367289411E-01
-0.1346030767214E+00 -0.3743084034034E+01 -0.1822512937432E+01 -0.7362357889704E-01
 0.4506768062347E-02 -0.3805342013921E+01 -0.1786392561022E+01 -0.7310294017704E-01
 0.1260594217560E+00 -0.3867286124783E+01 -0.1758376545963E+01 -0.7370915169939E-01
 0.2306205318988E+00 -0.3929919066122E+01 -0.1738670306675E+01 -0.7545685776865E-01
 0.3186669290660E+00 -0.3994252300640E+01 -0.1727525120258E+01 -0.7836980416509E-01
 0.3905926645280E+00 -0.4061308910901E+01 -0.1725236631420E+01 -0.8248411091931E-01
 0.4467181573311E+00 -0.4132135866588E+01 -0.1732146318958E+01 -0.8784982487748E-01
 0.4872987280137E+00 -0.4207820176210E+01 -0.1748645076217E+01 -0.9452757866206E-01
 0.5125241888139E+00 -0.4289500169536E+01 -0.1775178706437E+01 -0.1025745446435E+00
 0.5224884807828E+00 -0.4378357081919E+01 -0.1812258237937E+01 -0.1120116232242E+00
 0.5171034653353E+00 -0.4475570097196E+01 -0.1860479312256E+01 -0.1227765055412E+00
-0.2346297822191E+01 -0.2998672067556E+01 -0.2512135841809E+01 -0.8420845290315E-01
-0.1994115703299E+01 -0.3114874799205E+01 -0.2401225530086E+01 -0.7458515912382E-01
-0.1675178132551E+01 -0.3218486051262E+01 -0.2300022160559E+01 -0.6701744225311E-01
-0.1385417381678E+01 -0.3312083397129E+01 -0.2207825360440E+01 -0.6099598578448E-01
-0.1121823005037E+01 -0.3397619293119E+01 -0.2124137874746E+01 -0.5616618239965E-01
-0.8821555812913E+00 -0.3476621010432E+01 -0.2048624992914E+01 -0.5229344346850E-01
-0.6647235465313E+00 -0.3550342338091E+01 -0.1981080960748E+01 -0.4923253331197E-01
-0.4682143420153E+00 -0.3619874192137E+01 -0.1921401606178E+01 -0.4690158381776E-01
-0.2915711338890E+00 -0.3686222314945E+01 -0.1869562916210E+01 -0.4526047929022E-01
-0.1339088169383E+00 -0.3750359811650E+01 -0.1825606250806E+01 -0.4429398956569E-01
 0.5535034825336E-02 -0.3813259703856E+01 -0.1789630589905E+01 -0.4400008622573E-01
 0.1274225381829E+00 -0.3875909611190E+01 -0.1761788919845E+01 -0.4438338734999E-01
 0.2323222855000E+00 -0.3939311973275E+01 -0.1742285148835E+01 -0.4545315455503E-01
 0.3207135496958E+00 -0.4004481073211E+01 -0.1731370731661E+01 -0.4722431089696E-01
 0.3929928743238E+00 -0.4072446681816E+01 -0.1729343285135E+01 -0.4971921317412E-01
 0.4494822743424E+00 -0.4144265595135E+01 -0.1736548156368E+01 -0.5296827107494E-01
 0.4904346899549E+00 -0.4221035400164E+01 -0.1753382329351E+01 -0.5700753354685E-01
 0.5160281234814E+00 -0.4303901822895E+01 -0.1780300634209E+01 -0.6186989546316E-01
 0.5263294358568E+00 -0.4394046114346E+01 -0.1817826834279E+01 -0.6756550186858E-01
 0.5212044803767E+00 -0.4492637526493E+01 -0.1866573526940E+01 -0.7405420969376E-01
-0.2349006755203E+01 -0.3000328405847E+01 -0.2514187519317E+01 -0.2808725578657E-01
-0.1996071550942E+01 -0.3116810719974E+01 -0.2403054661235E+01 -0.2487396722159E-01
-0.1676573564236E+01 -0.3220636631155E+01 -0.2301688785996E+01 -0.2234835714217E-01
-0.1386392440820E+01 -0.3314414844503E+01 -0.2209379418498E+01 -0.2034009761807E-01
-0.1122475789294E+01 -0.3400121625398E+01 -0.2125620779514E+01 -0.1873049108488E-01
-0.8825519758387E+00 -0.3479301591696E+01 -0.2050071171542E+01 -0.1744092585252E-01
-0.6649055850324E+00 -0.3553220487521E+01 -0.1982519249071E+01 -0.1642266001091E-01
-0.4682071230222E+00 -0.3622976848921E+01 -0.1922856461936E+01 -0.1564815684001E-01
-0.2913883215064E+00 -0.3689580646380E+01 -0.1871055410161E+01 -0.1510387691179E-01
-0.1335567746183E+00 -0.3754006669727E+01 -0.1827154814208E+01 -0.1478465116649E-01
 0.6054331850901E-02 -0.3817227950624E+01 -0.1791251596280E+01 -0.1468977709868E-01
 0.1281096233001E+00 -0.3880231493590E+01 -0.1763497274564E+01 -0.1482082450518E-01
 0.2331792144020E+00 -0.3944019681779E+01 -0.1744095015244E+01 -0.1518095952296E-01
 0.3217436070233E+00 -0.4009608265380E+01 -0.1733296385031E+01 -0.1577526792347E-01
 0.3942005320278E+00 -0.4078030378662E+01 -0.1731400023527E+01 -0.1661131356761E-01
 0.4508726537876E+00 -0.4150347687424E+01 -0.1738753261399E+01 -0.1769929263950E-01
 0.4920114827392E+00 -0.4227662946354E+01 -0.1755756183446E+01 -0.1905116171544E-01
 0.5177888470461E+00 -0.4311125397207E+01 -0.1782868174053E+01 -0.2067764744489E-01
 0.5282578812559E+00 -0.4401916114874E+01 -0.1820619365183E+01 -0.2258172734618E-01
 0.5232617012863E+00 -0.4501199214966E+01 -0.1869630626688E+01 -0.2474953865281E-01
-0.2349006754719E+01 -0.3000328405568E+01 -0.2514187518958E+01  0.2808727604629E-01
-0.1996071550623E+01 -0.3116810719682E+01 -0.2403054660949E+01  0.2487398332379E-01
-0.1676573564032E+01 -0.3220636630868E+01 -0.2301688785765E+01  0.2234836995477E-01
-0.1386392440695E+01 -0.3314414844233E+01 -0.2209379418312E+01  0.2034010778614E-01
-0.1122475789225E+01 -0.3400121625151E+01 -0.2125620779365E+01  0.1873049910137E-01
-0.8825519758071E+00 -0.3479301591477E+01 -0.2050071171424E+01  0.1744093210604E-01
-0.6649055850263E+00 -0.3553220487333E+01 -0.1982519248980E+01  0.1642266481807E-01
-0.4682071230323E+00 -0.3622976848765E+01 -0.1922856461868E+01  0.1564816046648E-01
-0.2913883215250E+00 -0.3689580646257E+01 -0.1871055410112E+01  0.1510387958633E-01
-0.1335567746397E+00 -0.3754006669636E+01 -0.1827154814175E+01  0.1478465308963E-01
 0.6054331830763E-02 -0.3817227950561E+01 -0.1791251596260E+01  0.1468977844616E-01
 0.1281096232835E+00 -0.3880231493550E+01 -0.1763497274552E+01  0.1482082542677E-01
 0.2331792143899E+00 -0.3944019681756E+01 -0.1744095015239E+01  0.1518096013957E-01
 0.3217436070159E+00 -0.4009608265370E+01 -0.1733296385030E+01  0.1577526832703E-01
 0.3942005320242E+00 -0.4078030378660E+01 -0.1731400023527E+01  0.1661131382446E-01
 0.4508726537872E+00 -0.4150347687426E+01 -0.1738753261400E+01  0.1769929279603E-01
 0.4920114827418E+00 -0.4227662946359E+01 -0.1755756183447E+01  0.1905116180254E-01
 0.5177888470517E+00 -0.4311125397213E+01 -0.1782868174054E+01  0.2067764748121E-01
 0.5282578812647E+00 -0.4401916114881E+01 -0.1820619365182E+01  0.2258172733802E-01
 0.5232617012989E+00 -0.4501199214975E+01 -0.1869630626685E+01  0.2474953859506E-01
-0.2346297820740E+01 -0.2998672066723E+01 -0.2512135840736E+01  0.8420847312493E-01
-0.1994115702344E+01 -0.3114874798331E+01 -0.2401225529227E+01  0.7458517520209E-01
-0.1675178131940E+01 -0.3218486050404E+01 -0.2300022159868E+01  0.6701745504932E-01
-0.1385417381305E+01 -0.3312083396321E+01 -0.2207825359884E+01  0.6099599593977E-01
-0.1121823004828E+01 -0.3397619292382E+01 -0.2124137874301E+01  0.5616619040489E-01
-0.8821555811961E+00 -0.3476621009778E+01 -0.2048624992562E+01  0.5229344971149E-01
-0.6647235465127E+00 -0.3550342337529E+01 -0.1981080960475E+01  0.4923253810929E-01
-0.4682143420449E+00 -0.3619874191672E+01 -0.1921401605974E+01  0.4690158743536E-01
-0.2915711339444E+00 -0.3686222314579E+01 -0.1869562916064E+01  0.4526048195718E-01
-0.1339088170021E+00 -0.3750359811377E+01 -0.1825606250708E+01  0.4429399148266E-01
 0.5535034765069E-02 -0.3813259703666E+01 -0.1789630589844E+01  0.4400008756839E-01
 0.1274225381334E+00 -0.3875909611069E+01 -0.1761788919811E+01  0.4438338826781E-01
 0.2323222854642E+00 -0.3939311973206E+01 -0.1742285148820E+01  0.4545315516856E-01
 0.3207135496734E+00 -0.4004481073179E+01 -0.1731370731656E+01  0.4722431129780E-01
 0.3929928743131E+00 -0.4072446681809E+01 -0.1729343285137E+01  0.4971921342848E-01
 0.4494822743413E+00 -0.4144265595142E+01 -0.1736548156372E+01  0.5296827122910E-01
 0.4904346899623E+00 -0.4221035400179E+01 -0.1753382329355E+01  0.5700753363187E-01
 0.5160281234974E+00 -0.4303901822914E+01 -0.1780300634210E+01  0.6186989549782E-01
 0.5263294358828E+00 -0.4394046114367E+01 -0.1817826834277E+01  0.6756550185940E-01
 0.5212044804150E+00 -0.4492637526517E+01 -0.1866573526934E+01  0.7405420963568E-01
-0.2340893286767E+01 -0.2995371755452E+01 -0.2508044563482E+01  0.1401700039111E+00
-0.1990210869114E+01 -0.3111017524846E+01 -0.2397577339080E+01  0.1241863135325E+00
-0.1672389055065E+01 -0.3214200934653E+01 -0.2296697289342E+01  0.1116037443002E+00
-0.1383465199619E+01 -0.3307437432410E+01 -0.2204724231462E+01  0.1015789886091E+00
-0.1120512573395E+01 -0.3392631991756E+01 -0.2121177940241E+01  0.9352598812657E-01
-0.8813559889561E+00 -0.3471277336166E+01 -0.2045737657619E+01  0.8705791975480E-01
-0.6643513916602E+00 -0.3544603495095E+01 -0.1978208791757E+01  0.8193602673108E-01
-0.4682199006507E+00 -0.3613686296560E+01 -0.1918495907823E+01  0.7802633878908E-01
-0.2919273591257E+00 -0.3679523179728E+01 -0.1866581748527E+01  0.7526367554593E-01
-0.1346030768268E+00 -0.3743084033581E+01 -0.1822512937269E+01  0.7362358080175E-01
 0.4506767962809E-02 -0.3805342013606E+01 -0.1786392560922E+01  0.7310294151010E-01
 0.1260594216743E+00 -0.3867286124583E+01 -0.1758376545907E+01  0.7370915260969E-01
 0.2306205318398E+00 -0.3929919066009E+01 -0.1738670306650E+01  0.7545685837603E-01
 0.3186669290293E+00 -0.3994252300588E+01 -0.1727525120251E+01  0.7836980456049E-01
 0.3905926645107E+00 -0.4061308910890E+01 -0.1725236631422E+01  0.8248411116860E-01
 0.4467181573296E+00 -0.4132135866601E+01 -0.1732146318964E+01  0.8784982502692E-01
 0.4872987280260E+00 -0.4207820176236E+01 -0.1748645076223E+01  0.9452757874299E-01
 0.5125241888403E+00 -0.4289500169568E+01 -0.1775178706439E+01  0.1025745446750E+00
 0.5224884808257E+00 -0.4378357081955E+01 -0.1812258237934E+01  0.1120116232132E+00
 0.5171034653986E+00 -0.4475570097237E+01 -0.1860479312245E+01  0.1227765054826E+00
-0.2332819786144E+01 -0.2990452226429E+01 -0.2501937839563E+01  0.1958665578998E+00
-0.1984370755445E+01 -0.3105268047376E+01 -0.2392130231258E+01  0.1736047778684E+00
-0.1668209889948E+01 -0.3207813377476E+01 -0.2291730929877E+01  0.1560524803826E+00
-0.1380531755254E+01 -0.3300510812541E+01 -0.2200090001284E+01  0.1420406803553E+00
-0.1118534761668E+01 -0.3385194437067E+01 -0.2116752718036E+01  0.1307593084622E+00
-0.8801395962844E+00 -0.3463305516823E+01 -0.2041419197983E+01  0.1216755550619E+00
-0.6637729845515E+00 -0.3536038818820E+01 -0.1973911542578E+01  0.1144621048625E+00
-0.4682060824956E+00 -0.3604447919032E+01 -0.1914147375863E+01  0.1089366106996E+00
-0.2924382697127E+00 -0.3669518182923E+01 -0.1862119528016E+01  0.1050113589851E+00
-0.1356200121727E+00 -0.3732215055205E+01 -0.1817882477057E+01  0.1026540722123E+00
 0.2990037592365E-02 -0.3793512273222E+01 -0.1781545446227E+01  0.1018609681080E+00
 0.1240421921887E+00 -0.3854401304425E+01 -0.1753268778304E+01  0.1026417750886E+00
 0.2280979400211E+00 -0.3915885607350E+01 -0.1733260199249E+01  0.1050153252874E+00
 0.3156305002999E+00 -0.3978972707151E+01 -0.1721770832853E+01  0.1090124587498E+00
 0.3870299075037E+00 -0.4044675766983E+01 -0.1719093549595E+01  0.1146812599728E+00
 0.4426134543868E+00 -0.4114026822714E+01 -0.1725564278737E+01  0.1220903206708E+00
 0.4826388309693E+00 -0.4188096427430E+01 -0.1741565065919E+01  0.1313255214374E+00
 0.5073122029970E+00 -0.4268010918329E+01 -0.1767528391723E+01  0.1424717195066E+00
 0.5167673023685E+00 -0.4354950554577E+01 -0.1803946123962E+01  0.1555665321186E+00
 0.5109862905447E+00 -0.4450109005430E+01 -0.1851387671300E+01  0.1705324632992E+00
-0.2322117173538E+01 -0.2983950658648E+01 -0.2493851874802E+01  0.2511945365738E+00
-0.1976615856510E+01 -0.3097670106778E+01 -0.2384914396696E+01  0.2227690846953E+00
-0.1662645920733E+01 -0.3199371525752E+01 -0.2285148194052E+01  0.2003095779629E+00
-0.1376610794736E+01 -0.3291354314675E+01 -0.2193943595859E+01  0.1823329593887E+00
-0.1115874943776E+01 -0.3375358656760E+01 -0.2110879786898E+01  0.1678155849898E+00
-0.8784860010615E+00 -0.3452757884985E+01 -0.2035684621279E+01  0.1560874282210E+00
-0.6629641646379E+00 -0.3524700455239E+01 -0.1968202366350E+01  0.1467395793380E+00
-0.4681464130158E+00 -0.3592210983929E+01 -0.1908367971724E+01  0.1395465491185E+00
-0.2930759479774E+00 -0.3656259446109E+01 -0.1856187630513E+01  0.1344016587563E+00
-0.1369305730034E+00 -0.3717806060946E+01 -0.1811726213361E+01  0.1312668017247E+00
 0.1015238006456E-02 -0.3777826040858E+01 -0.1775101072838E+01  0.1301381358287E+00
 0.1214032582407E+00 -0.3837314847468E+01 -0.1746478442507E+01  0.1310271234513E+00
 0.2247899357806E+00 -0.3897277644797E+01 -0.1726069218860E+01  0.1339551025529E+00
 0.3116438090227E+00 -0.3958717277455E+01 -0.1714124525815E+01  0.1389575161454E+00
 0.3823490820716E+00 -0.4022633937818E+01 -0.1710933877861E+01  0.1460917293309E+00
 0.4372175449336E+00 -0.4090039449317E+01 -0.1716826290706E+01  0.1554430774604E+00
 0.4765077883334E+00 -0.4161981393359E+01 -0.1732172589969E+01  0.1671232914453E+00
 0.5004451725750E+00 -0.4239568477668E+01 -0.1757387948936E+01  0.1812494587018E+00
 0.5092147847439E+00 -0.4323977924406E+01 -0.1792938671094E+01  0.1978843215919E+00
 0.5028946912705E+00 -0.4416422190016E+01 -0.1839357919745E+01  0.2169457322448E+00
-0.2308838392510E+01 -0.2975916692825E+01 -0.2483834883807E+01  0.3060527075758E+00
-0.1966973378768E+01 -0.3088282055508E+01 -0.2375970048083E+01  0.2716093263664E+00
-0.1655704086302E+01 -0.3188939583186E+01 -0.2276982518884E+01  0.2443218789089E+00
-0.1371693887988E+01 -0.3280035621082E+01 -0.2186312863718E+01  0.2224081055599E+00
-0.1112513557084E+01 -0.3363193944649E+01 -0.2103582520479E+01  0.2046442468312E+00
-0.8763679911848E+00 -0.3439704058459E+01 -0.2028553858187E+01  0.1902343774384E+00
-0.6618927848923E+00 -0.3510657668724E+01 -0.1961098708226E+01  0.1786969758753E+00
-0.4680057643409E+00 -0.3577044336735E+01 -0.1901173542684E+01  0.1697701729139E+00
-0.2938034771214E+00 -0.3639815931043E+01 -0.1848801117148E+01  0.1633329493857E+00
-0.1384964987736E+00 -0.3699927244294E+01 -0.1804059154666E+01  0.1593439716400E+00
-0.1377768829839E-02 -0.3758356428272E+01 -0.1767075068156E+01  0.1578001683241E+00
 0.1181849693905E+00 -0.3816105058558E+01 -0.1738022437500E+01  0.1587140073927E+00
 0.2207427234740E+00 -0.3874181551200E+01 -0.1717116244676E+01  0.1621071664158E+00
 0.3067584737647E+00 -0.3933583861033E+01 -0.1704607927693E+01  0.1680163825562E+00
 0.3766084729836E+00 -0.3995296465213E+01 -0.1700783352034E+01  0.1765045855055E+00
 0.4305955652972E+00 -0.4060305566936E+01 -0.1705963696443E+01  0.1876710851900E+00
 0.4689758086975E+00 -0.4129628519581E+01 -0.1720506769752E+01  0.2016536721994E+00
 0.4919941402557E+00 -0.4204349484325E+01 -0.1744807007287E+01  0.2186071073412E+00
 0.4998965729362E+00 -0.4285639119458E+01 -0.1779298992352E+01  0.2386301975888E+00
 0.4928833751649E+00 -0.4374732634284E+01 -0.1824469147158E+01  0.2616512611795E+00
-0.2293049372183E+01 -0.2966412545565E+01 -0.2471947095072E+01  0.3603429150570E+00
-0.1955477162445E+01 -0.3077176908969E+01 -0.2365347407565E+01  0.3200576703450E+00
-0.1647392916093E+01 -0.3176597851553E+01 -0.2267275655043E+01  0.2880374597130E+00
-0.1365770369558E+01 -0.3266639333899E+01 -0.2177232555103E+01  0.2622189231478E+00
-0.1108426066910E+01 -0.3348786825087E+01 -0.2094890053925E+01  0.2411947127547E+00
-0.8737515509953E+00 -0.3424230827381E+01 -0.2020051712713E+01  0.2240569118402E+00
-0.6605187798373E+00 -0.3493996633244E+01 -0.1952622239196E+01  0.2102624113479E+00
-0.4677405075566E+00 -0.3559033428408E+01 -0.1892583745103E+01  0.1995212708096E+00
-0.2945752030507E+00 -0.3620273006303E+01 -0.1839978653729E+01  0.1917038322140E+00
-0.1402707167513E+00 -0.3678665232154E+01 -0.1794899891433E+01  0.1867687675388E+00
-0.4140213441159E-02 -0.3735193333431E+01 -0.1757486762572E+01  0.1847148619265E+00
 0.1144388811002E+00 -0.3790867818926E+01 -0.1727921596396E+01  0.1855547745694E+00
 0.2160123909188E+00 -0.3846702652008E+01 -0.1706424418384E+01  0.1893078939708E+00
 0.3010371933078E+00 -0.3903691408069E+01 -0.1693247476643E+01  0.1960080786306E+00
 0.3698792068628E+00 -0.3962800592201E+01 -0.1688673046826E+01  0.2057189099449E+00
 0.4228276737935E+00 -0.4024985351257E+01 -0.1693014104114E+01  0.2185496244960E+00
 0.4601302107861E+00 -0.4091224808981E+01 -0.1706614456823E+01  0.2346634688845E+00
 0.4820483467158E+00 -0.4162570245940E+01 -0.1729845288248E+01  0.2542588753154E+00
 0.4888951785678E+00 -0.4240180439045E+01 -0.1763104067952E+01  0.2774841801180E+00
 0.4810184447551E+00 -0.4325316419997E+01 -0.1806820043781E+01  0.3042990922501E+00
-0.2274828766072E+01 -0.2955513028273E+01 -0.2458260637107E+01  0.4139707428475E+00
-0.1942167527397E+01 -0.3064442358380E+01 -0.2353106640347E+01  0.3680488326276E+00
-0.1637722376085E+01 -0.3162442736584E+01 -0.2256077597232E+01  0.3314059186444E+00
-0.1358827195161E+01 -0.3251266966074E+01 -0.2166744250285E+01  0.3017188442992E+00
-0.1103582854397E+01 -0.3332240985523E+01 -0.2084837199475E+01  0.2774163409508E+00
-0.8705958050308E+00 -0.3406441988185E+01 -0.2010207757713E+01  0.2574950593310E+00
-0.6587941885523E+00 -0.3474820142646E+01 -0.1942798730736E+01  0.2413634000023E+00
-0.4672986407408E+00 -0.3538279894578E+01 -0.1882621906825E+01  0.2287132262575E+00
-0.2953369964645E+00 -0.3597731894217E+01 -0.1829742373979E+01  0.2194130324679E+00
-0.1421977718018E+00 -0.3654122382047E+01 -0.1784270467783E+01  0.2134253719102E+00
-0.7215052114347E-02 -0.3708442532117E+01 -0.1746359060159E+01  0.2107522614882E+00
 0.1102248928627E+00 -0.3761715373995E+01 -0.1716200521779E+01  0.2114057149589E+00
 0.2106638261454E+00 -0.3814963593651E+01 -0.1694020886431E+01  0.2153997961504E+00
 0.2945525060234E+00 -0.3869177832563E+01 -0.1680073899212E+01  0.2227604292760E+00
 0.3622439940913E+00 -0.3925305107409E+01 -0.1674638719012E+01  0.2335455690747E+00
 0.4140079917319E+00 -0.3984264218235E+01 -0.1678020422200E+01  0.2478686938435E+00
 0.4500748770522E+00 -0.4046987304822E+01 -0.1690548836764E+01  0.2659166011638E+00
 0.4707153416267E+00 -0.4114483074966E+01 -0.1712570830326E+01  0.2879375020181E+00
 0.4763102694001E+00 -0.4187891079560E+01 -0.1744442976351E+01  0.3141450093506E+00
 0.4673753731652E+00 -0.4268499464549E+01 -0.1786528318419E+01  0.3445580618223E+00
-0.2254267793920E+01 -0.2943305691998E+01 -0.2442859532185E+01  0.4668461763885E+00
-0.1927091154247E+01 -0.3050180841785E+01 -0.2339317832202E+01  0.4155205864876E+00
-0.1626703750332E+01 -0.3146586838470E+01 -0.2243446571047E+01  0.3743786962303E+00
-0.1350848818753E+01 -0.3234037018898E+01 -0.2154896338231E+01  0.3408620417351E+00
-0.1097949124307E+01 -0.3313677278860E+01 -0.2073464404230E+01  0.3132583581739E+00
-0.8668529875557E+00 -0.3386458208707E+01 -0.1999056257173E+01  0.2904881700479E+00
-0.6566632132018E+00 -0.3453247304983E+01 -0.1931657938647E+01  0.2719266024179E+00
-0.4666199633285E+00 -0.3514901079706E+01 -0.1871314885480E+01  0.2572587808353E+00
-0.2960265730765E+00 -0.3572309045014E+01 -0.1818117735891E+01  0.2463592295067E+00
-0.1442143316281E+00 -0.3626416010496E+01 -0.1772196256303E+01  0.2391988897183E+00
-0.1053770694877E-01 -0.3678224708664E+01 -0.1733718330941E+01  0.2357847002461E+00
 0.1056102285805E+00 -0.3728775040283E+01 -0.1702887457181E+01  0.2361272580516E+00
 0.2047694094460E+00 -0.3779102553837E+01 -0.1679936573603E+01  0.2402319703140E+00
 0.2873852542869E+00 -0.3830197581528E+01 -0.1665121789580E+01  0.2481109282463E+00
 0.3537955186150E+00 -0.3882987234383E+01 -0.1658720102204E+01  0.2598086635967E+00
 0.4042431470914E+00 -0.3938349111596E+01 -0.1661029799104E+01  0.2754351535387E+00
 0.4389292108162E+00 -0.3997158837791E+01 -0.1672367920436E+01  0.2951969578572E+00
 0.4581209904769E+00 -0.4060371197256E+01 -0.1693057592892E+01  0.3193978544481E+00
 0.4622593319685E+00 -0.4129097779395E+01 -0.1723414065919E+01  0.3483342048751E+00
 0.4520373300491E+00 -0.4204652160501E+01 -0.1763728965839E+01  0.3821192892853E+00
-0.2231469935141E+01 -0.2929890864086E+01 -0.2425839569484E+01  0.5188843115942E+00
-0.1910300897718E+01 -0.3034509572319E+01 -0.2324060915023E+01  0.4624143494729E+00
-0.1614349431791E+01 -0.3129159031500E+01 -0.2229448972092E+01  0.4169094713067E+00
-0.1341816977320E+01 -0.3215085079929E+01 -0.2141743961475E+01  0.3796035800026E+00
-0.1091484728206E+01 -0.3293233736904E+01 -0.2060817673375E+01  0.3486697803252E+00
-0.8624683450700E+00 -0.3364416860589E+01 -0.1986636041621E+01  0.3229746740429E+00
-0.6540622308334E+00 -0.3429413145075E+01 -0.1919233421809E+01  0.3018775111793E+00
-0.4656362212634E+00 -0.3489029422834E+01 -0.1858692848011E+01  0.2850697351680E+00
-0.2965737959511E+00 -0.3544135361547E+01 -0.1805133299446E+01  0.2724408302090E+00
-0.1462496859953E+00 -0.3595677505227E+01 -0.1758705775414E+01  0.2639752037800E+00
-0.1403682754571E-01 -0.3644674427783E+01 -0.1719594285643E+01  0.2596867152614E+00
 0.1006683374536E+00 -0.3692187885450E+01 -0.1688014183277E+01  0.2595839475945E+00
 0.1984075387783E+00 -0.3739271373288E+01 -0.1664205997998E+01  0.2636602161900E+00
 0.2796227894929E+00 -0.3786918966008E+01 -0.1648429198781E+01  0.2719071876495E+00
 0.3446344976790E+00 -0.3836039072930E+01 -0.1640960146206E+01  0.2843465602422E+00
 0.3936504691317E+00 -0.3887464175971E+01 -0.1642092438049E+01  0.3010745042641E+00
 0.4268266664016E+00 -0.3942003138183E+01 -0.1652132937547E+01  0.3223108544060E+00
 0.4444085564036E+00 -0.4000543041805E+01 -0.1671383203899E+01  0.3484199540486E+00
 0.4468796913678E+00 -0.4064155945786E+01 -0.1700119835265E+01  0.3797998411733E+00
 0.4350964972627E+00 -0.4134180464144E+01 -0.1738569460025E+01  0.4166988391561E+00
-0.2206550634639E+01 -0.2915381679377E+01 -0.2407308181482E+01  0.5700059590899E+00
-0.1891855601948E+01 -0.3017560565324E+01 -0.2307425592766E+01  0.5086757546981E+00
-0.1600672690147E+01 -0.3110304627031E+01 -0.2214159333458E+01  0.4589545548750E+00
-0.1331710428090E+01 -0.3194564057568E+01 -0.2127349002864E+01  0.4178995237825E+00
-0.1084143938222E+01 -0.3271065711875E+01 -0.2046948530353E+01  0.3835992309024E+00
-0.8573800030026E+00 -0.3340471912767E+01 -0.1972990395408E+01  0.3548916933227E+00
-0.6509197902760E+00 -0.3403468178056E+01 -0.1905562340283E+01  0.3311399797585E+00
-0.4642712506546E+00 -0.3460811739722E+01 -0.1844789000798E+01  0.3120565144552E+00
-0.2969009741437E+00 -0.3513355300729E+01 -0.1790820444648E+01  0.2975556434373E+00
-0.1482262283197E+00 -0.3562051369268E+01 -0.1743830466443E+01  0.2876407476027E+00
-0.1763503855464E-01 -0.3607939158313E+01 -0.1704019868206E+01  0.2823348361592E+00
 0.9547775868780E-01 -0.3652107575037E+01 -0.1671616009445E+01  0.2816441654012E+00
 0.1916610129357E+00 -0.3695633855335E+01 -0.1646867231751E+01  0.2855467263946E+00
 0.2713569056058E+00 -0.3739521470913E+01 -0.1630037341560E+01  0.2940068222002E+00
 0.3348673983387E+00 -0.3784663683210E+01 -0.1621404249777E+01  0.3070123473363E+00
 0.3823558458609E+00 -0.3831845836150E+01 -0.1621260291324E+01  0.3246322051370E+00
 0.4139131687305E+00 -0.3881799312889E+01 -0.1629906483620E+01  0.3470890984344E+00
 0.4297374686440E+00 -0.3935326611929E+01 -0.1647626893165E+01  0.3748110434005E+00
 0.4303281764045E+00 -0.3993441887699E+01 -0.1674663440061E+01  0.4083178652853E+00
 0.4166718937299E+00 -0.4057503236737E+01 -0.1711190726873E+01  0.4480372807865E+00
-0.2179636990660E+01 -0.2899904038748E+01 -0.2387384277766E+01  0.6201383618995E+00
-0.1871819909962E+01 -0.2999480618496E+01 -0.2289511242568E+01  0.5542554446726E+00
-0.1585687407281E+01 -0.3090185633635E+01 -0.2197660323656E+01  0.5004735015742E+00
-0.1320504626789E+01 -0.3172644606452E+01 -0.2111780134267E+01  0.4557071685232E+00
-0.1075875160327E+01 -0.3247346190847E+01 -0.2031914029898E+01  0.4179947639216E+00
-0.8515187996351E+00 -0.3314793893660E+01 -0.1958166960882E+01  0.3861745716537E+00
-0.6471566107225E+00 -0.3375577906200E+01 -0.1890685218158E+01  0.3596356391372E+00
-0.4624411515047E+00 -0.3430408310108E+01 -0.1829639242317E+01  0.3381276490318E+00
-0.2969231807429E+00 -0.3480125727930E+01 -0.1775212982574E+01  0.3216005333503E+00
-0.1500599144113E+00 -0.3525694083633E+01 -0.1727604374699E+01  0.3100823113844E+00
-0.2124962259699E-01 -0.3568178304974E+01 -0.1687031121679E+01  0.3036073857183E+00
 0.9012101463080E-01 -0.3608699486292E+01 -0.1653731877486E+01  0.3021797126291E+00
 0.1846153057522E+00 -0.3648364461800E+01 -0.1627962099213E+01  0.3057593587627E+00
 0.2626814672217E+00 -0.3688193262478E+01 -0.1609990539687E+01  0.3142766463529E+00
 0.3246037029012E+00 -0.3729070848731E+01 -0.1600099554482E+01  0.3276735345978E+00
 0.3704912572162E+00 -0.3771736981994E+01 -0.1598585486591E+01  0.3459744683739E+00
 0.4003453991172E+00 -0.3816835576570E+01 -0.1605750379330E+01  0.3693888619186E+00
 0.4142838000379E+00 -0.3865063277406E+01 -0.1621866350249E+01  0.3984074785063E+00
 0.4127817520590E+00 -0.3917349566544E+01 -0.1647146868630E+01  0.4336902892945E+00
 0.3969217031775E+00 -0.3975042742512E+01 -0.1681716884222E+01  0.4758912158277E+00
-0.2150867148608E+01 -0.2883596127520E+01 -0.2366197733778E+01  0.6692158084402E+00
-0.1850263968514E+01 -0.2980431072207E+01 -0.2270426663380E+01  0.5991099729377E+00
-0.1569407649060E+01 -0.3068981071516E+01 -0.2180042693141E+01  0.5414298619174E+00
-0.1308171190371E+01 -0.3149515779565E+01 -0.2095112870556E+01  0.4929852978859E+00
-0.1066620442917E+01 -0.3222266339884E+01 -0.2015776782804E+01  0.4518035567540E+00
-0.8448079427338E+00 -0.3287569907469E+01 -0.1942217584669E+01  0.4167561680989E+00
-0.6426854842284E+00 -0.3345922181712E+01 -0.1874645598237E+01  0.3872830589360E+00
-0.4600544171538E+00 -0.3397991653964E+01 -0.1813281648826E+01  0.3631890620744E+00
-0.2965485377817E+00 -0.3444614381073E+01 -0.1758346567402E+01  0.3444710036187E+00
-0.1516605998239E+00 -0.3486772616622E+01 -0.1710063607392E+01  0.3311869177650E+00
-0.2479297857204E-01 -0.3525562156950E+01 -0.1668666909463E+01  0.3233844135391E+00
 0.8468376668631E-01 -0.3562140191326E+01 -0.1634404515435E+01  0.3210653906285E+00
 0.1773568974226E+00 -0.3597647835211E+01 -0.1607536736683E+01  0.3241705112096E+00
 0.2536897632270E+00 -0.3633129421098E+01 -0.1588336635171E+01  0.3325909688144E+00
 0.3139526419708E+00 -0.3669472710110E+01 -0.1577094428025E+01  0.3462106217899E+00
 0.3581917341132E+00 -0.3707379981333E+01 -0.1574118472201E+01  0.3649882817822E+00
 0.3862892614550E+00 -0.3747401164241E+01 -0.1579722590303E+01  0.3890956626996E+00
 0.3982406343897E+00 -0.3790102080381E+01 -0.1594174875573E+01  0.4190778233827E+00
 0.3944475079087E+00 -0.3836285524459E+01 -0.1617663863675E+01  0.4557473086825E+00
 0.3760335624066E+00 -0.3887249442785E+01 -0.1650271459592E+01  0.5000299664522E+00
-0.2120389889003E+01 -0.2866607723860E+01 -0.2343888872101E+01  0.7171802406618E+00
-0.1827263327586E+01 -0.2960587490980E+01 -0.2250289879018E+01  0.6432030640908E+00
-0.1551847324412E+01 -0.3046887667224E+01 -0.2161405440587E+01  0.5817923079495E+00
-0.1294677428485E+01 -0.3125386444526E+01 -0.2077430015046E+01  0.5296945667369E+00
-0.1056314925455E+01 -0.3196036635163E+01 -0.1998605228421E+01  0.4849714385926E+00
-0.8371627064561E+00 -0.3259004019295E+01 -0.1925198356220E+01  0.4465658125446E+00
-0.6374112575628E+00 -0.3314694570870E+01 -0.1857489734652E+01  0.4139965355582E+00
-0.4570122734775E+00 -0.3363745116327E+01 -0.1795755968653E+01  0.3871430645583E+00
-0.2956786941472E+00 -0.3406997955030E+01 -0.1740258020700E+01  0.3660606518822E+00
-0.1529324652417E+00 -0.3445462543448E+01 -0.1691245649794E+01  0.3508417912123E+00
-0.2817285181726E-01 -0.3480270627126E+01 -0.1648968430921E+01  0.3415479282883E+00
 0.7925435139748E-01 -0.3512617498992E+01 -0.1613680675276E+01  0.3381788473960E+00
 0.1699719223073E+00 -0.3543679801726E+01 -0.1585642699305E+01  0.3406557523051E+00
 0.2444714402342E+00 -0.3574532276082E+01 -0.1565128588879E+01  0.3488286790864E+00
 0.3030190094684E+00 -0.3606080213263E+01 -0.1552438761846E+01  0.3625137269531E+00
 0.3455914953538E+00 -0.3639008044761E+01 -0.1547905774296E+01  0.3815798939038E+00
 0.3719174222216E+00 -0.3673775736566E+01 -0.1551873403806E+01  0.4061253673025E+00
 0.3818194608643E+00 -0.3710791570945E+01 -0.1564616887770E+01  0.4367280433996E+00
 0.3755634717007E+00 -0.3750672323669E+01 -0.1586301156402E+01  0.4743543772789E+00
 0.3542578738497E+00 -0.3794594664783E+01 -0.1616958287637E+01  0.5202440303361E+00
-0.2088363498153E+01 -0.2849098127072E+01 -0.2320606957970E+01  0.7639819086615E+00
-0.1802898389643E+01 -0.2940138347116E+01 -0.2229227260623E+01  0.6865075930298E+00
-0.1533019786355E+01 -0.3024121118056E+01 -0.2141856219641E+01  0.6215364850568E+00
-0.1279985240007E+01 -0.3100487243602E+01 -0.2058822062074E+01  0.5657981566110E+00
-0.1044885998676E+01 -0.3168888768658E+01 -0.1980474135624E+01  0.5174422283648E+00
-0.8284895721284E+00 -0.3229317503731E+01 -0.1907169320816E+01  0.4755278375972E+00
-0.6312307203048E+00 -0.3282101488062E+01 -0.1839266133268E+01  0.4396844661330E+00
-0.4532089764723E+00 -0.3327860805432E+01 -0.1777102792988E+01  0.4098870363652E+00
-0.2942094579123E+00 -0.3367459430364E+01 -0.1720984373125E+01  0.3862605191461E+00
-0.1537744377209E+00 -0.3401945179949E+01 -0.1671188216066E+01  0.3689345396816E+00
-0.3129229643438E-01 -0.3432491161065E+01 -0.1627978220895E+01  0.3579827540706E+00
 0.7392445300848E-01 -0.3460330068759E+01 -0.1591610635366E+01  0.3534013880479E+00
 0.1625456296937E+00 -0.3486670294430E+01 -0.1562338588463E+01  0.3550929989145E+00
 0.2351097747284E+00 -0.3512615074272E+01 -0.1540427486878E+01  0.3628693433777E+00
 0.2918969615788E+00 -0.3539103078455E+01 -0.1526186871061E+01  0.3764762200937E+00
 0.3328183931329E+00 -0.3566834243510E+01 -0.1519987445822E+01  0.3956701780670E+00
 0.3574069222430E+00 -0.3596211137654E+01 -0.1522237977382E+01  0.4204261262663E+00
 0.3652486267493E+00 -0.3627469025509E+01 -0.1533243583528E+01  0.4513102271474E+00
 0.3564033632985E+00 -0.3660947801925E+01 -0.1553135882215E+01  0.4894227711285E+00
 0.3319089327958E+00 -0.3697592415456E+01 -0.1581871232838E+01  0.5363546211909E+00
-0.2054953137151E+01 -0.2831230894007E+01 -0.2296506488819E+01  0.8095800700012E+00
-0.1777255224222E+01 -0.2919284226241E+01 -0.2207373536119E+01  0.7290087302480E+00
-0.1512936464042E+01 -0.3000917379286E+01 -0.2121511300984E+01  0.6606479608146E+00
-0.1264051235332E+01 -0.3075076163820E+01 -0.2039389872429E+01  0.6012625677124E+00
-0.1032251153848E+01 -0.3141077680915E+01 -0.1961464547364E+01  0.5491563764487E+00
-0.8186858089043E+00 -0.3198750143152E+01 -0.1888194892677E+01  0.5035593063117E+00
-0.6240321738880E+00 -0.3248360783274E+01 -0.1820024685250E+01  0.4642469635160E+00
-0.4485327449936E+00 -0.3290537543198E+01 -0.1757363030993E+01  0.4313115293237E+00
-0.2920318683501E+00 -0.3326184758183E+01 -0.1700561810157E+01  0.4049580146404E+00
-0.1540811392793E+00 -0.3356403823940E+01 -0.1649927928528E+01  0.3853533015901E+00
-0.3404965199207E-01 -0.3382415422638E+01 -0.1605738581004E+01  0.3725779726802E+00
 0.6879025992009E-01 -0.3405486485369E+01 -0.1568247221983E+01  0.3666201341992E+00
 0.1551655498034E+00 -0.3426845810384E+01 -0.1537689718573E+01  0.3673636851238E+00
 0.2256784754329E+00 -0.3447614090159E+01 -0.1514309735080E+01  0.3745892076566E+00
 0.2806631236337E+00 -0.3468757128409E+01 -0.1498404178444E+01  0.3879838193777E+00
 0.3199810091742E+00 -0.3491044963299E+01 -0.1490400054658E+01  0.4071823175446E+00
 0.3429363723827E+00 -0.3514896929969E+01 -0.1490821458284E+01  0.4319771520311E+00
 0.3487792236957E+00 -0.3540428615778E+01 -0.1500075210474E+01  0.4628387994834E+00
 0.3372691731972E+00 -0.3567581223006E+01 -0.1518246659560E+01  0.5009290905891E+00
 0.3093870108153E+00 -0.3596821742643E+01 -0.1545094320040E+01  0.5482210890733E+00
-0.2020330663704E+01 -0.2813167957639E+01 -0.2271744346269E+01  0.8539433657353E+00
-0.1750418992221E+01 -0.2898226514205E+01 -0.2184863382479E+01  0.7707104561466E+00
-0.1491613451782E+01 -0.2977546272307E+01 -0.2100505064994E+01  0.6991277065591E+00
-0.1246820108901E+01 -0.3049440627436E+01 -0.2019242540957E+01  0.6360583166966E+00
-0.1018319197011E+01 -0.3112889537996E+01 -0.1941668100528E+01  0.5800487326772E+00
-0.8076350788941E+00 -0.3167557288131E+01 -0.1868340407763E+01  0.5305666605840E+00
-0.6156966371493E+00 -0.3213701699860E+01 -0.1799817213829E+01  0.4875730745341E+00
-0.4428663727885E+00 -0.3251977715687E+01 -0.1736576717179E+01  0.4512977366277E+00
-0.2890339037580E+00 -0.3283358656475E+01 -0.1679024499051E+01  0.4220354166146E+00
-0.1537445285072E+00 -0.3309018488014E+01 -0.1627498613637E+01  0.3999868028444E+00
-0.3633909302342E-01 -0.3330233844817E+01 -0.1582289276772E+01  0.3852290236735E+00
 0.6395448365672E-01 -0.3348301464525E+01 -0.1543643077093E+01  0.3777321150726E+00
 0.1479251317151E+00 -0.3364451963892E+01 -0.1511767607289E+01  0.3773573904534E+00
 0.2162542630372E+00 -0.3379794719293E+01 -0.1486864010669E+01  0.3838626823067E+00
 0.2693548550365E+00 -0.3395308462649E+01 -0.1469198191851E+01  0.3968995205729E+00
 0.3071549637554E+00 -0.3411797744159E+01 -0.1459182103089E+01  0.4160133793943E+00
 0.3286637820244E+00 -0.3429916882156E+01 -0.1457588953365E+01  0.4407731457134E+00
 0.3327054993224E+00 -0.3449826521676E+01 -0.1465046876790E+01  0.4714167439581E+00
 0.3185229355628E+00 -0.3471051650708E+01 -0.1481688492360E+01  0.5089705017642E+00
 0.2871232548958E+00 -0.3493097144079E+01 -0.1506807724094E+01  0.5557564631353E+00
-0.1984626467255E+01 -0.2795004141224E+01 -0.2246426380287E+01  0.8970571965411E+00
-0.1722508520703E+01 -0.2877202283994E+01 -0.2161864072724E+01  0.8116500665366E+00
-0.1469041208426E+01 -0.2954291582360E+01 -0.2078966406397E+01  0.7370013453878E+00
-0.1228250986450E+01 -0.3023946004267E+01 -0.1998532580568E+01  0.6701596616395E+00
-0.1002965394954E+01 -0.3084621300882E+01 -0.1921165742170E+01  0.6100417313016E+00
-0.7952135857300E+00 -0.3136017136205E+01 -0.1847678434623E+01  0.5564429109244E+00
-0.6060962674680E+00 -0.3178362636398E+01 -0.1778695680306E+01  0.5095368114852E+00
-0.4360894271492E+00 -0.3212385044288E+01 -0.1714782997226E+01  0.4697138092176E+00
-0.2851021309728E+00 -0.3239158588121E+01 -0.1656402533773E+01  0.4373674380375E+00
-0.1526570005718E+00 -0.3259959813435E+01 -0.1603929898515E+01  0.4127238837656E+00
-0.3805332139001E-01 -0.3276128880434E+01 -0.1557665630907E+01  0.3958395515052E+00
 0.5952815794440E-01 -0.3288987388223E+01 -0.1517845834381E+01  0.3866498665782E+00
 0.1409307174996E+00 -0.3299750603270E+01 -0.1484645342547E+01  0.3849807859376E+00
 0.2069222369277E+00 -0.3309466538613E+01 -0.1458195818094E+01  0.3905711905162E+00
 0.2580290442453E+00 -0.3319069820511E+01 -0.1438689161196E+01  0.4030662954796E+00
 0.2942440320116E+00 -0.3329415163922E+01 -0.1426530428380E+01  0.4219750620438E+00
 0.3147424153890E+00 -0.3341114538542E+01 -0.1422394894274E+01  0.4467530215896E+00
 0.3173656220483E+00 -0.3355484549464E+01 -0.1427915892264E+01  0.4772641246051E+00
 0.3006557682680E+00 -0.3371712600761E+01 -0.1443396707611E+01  0.5138966535011E+00
 0.2656999307570E+00 -0.3387610254614E+01 -0.1467297848491E+01  0.5590493089760E+00
-0.1948064318267E+01 -0.2776871276993E+01 -0.2220719724140E+01  0.9389056252040E+00
-0.1693449491671E+01 -0.2856203326171E+01 -0.2138336818962E+01  0.8519434688398E+00
-0.1445425469901E+01 -0.2931786359572E+01 -0.2057289554634E+01  0.7743426315589E+00
-0.1208168760505E+01 -0.2998897943049E+01 -0.1977321345655E+01  0.7035159764238E+00
-0.9860684328186E+00 -0.3056612922913E+01 -0.1900060232375E+01  0.6390458402570E+00
-0.7812779291646E+00 -0.3104423250385E+01 -0.1826279549756E+01  0.5810649453625E+00
-0.5951033546921E+00 -0.3142602585375E+01 -0.1756721787376E+01  0.5299915398548E+00
-0.4280742967967E+00 -0.3171953830127E+01 -0.1692013215362E+01  0.4864087534159E+00
-0.2801249866431E+00 -0.3193747797986E+01 -0.1632720204634E+01  0.4508186890031E+00
-0.1507169093481E+00 -0.3209384055373E+01 -0.1579247449413E+01  0.4234524723250E+00
-0.3908764903108E-01 -0.3220266237380E+01 -0.1531896322728E+01  0.4043221550263E+00
 0.5562623825491E-01 -0.3227744217802E+01 -0.1490895446605E+01  0.3933065168698E+00
 0.1343137044376E+00 -0.3233000591590E+01 -0.1456382833268E+01  0.3901720780445E+00
 0.1977905089908E+00 -0.3236990754892E+01 -0.1428424111951E+01  0.3946215475384E+00
 0.2467501914266E+00 -0.3240457152347E+01 -0.1407042268064E+01  0.4063252442514E+00
 0.2813109186420E+00 -0.3244231098898E+01 -0.1392572481188E+01  0.4248160570689E+00
 0.3004343484334E+00 -0.3249124489958E+01 -0.1385884363002E+01  0.4495380810213E+00
 0.3036519013752E+00 -0.3255693226846E+01 -0.1387459419452E+01  0.4805770151537E+00
 0.2845983828612E+00 -0.3269072847428E+01 -0.1402702994789E+01  0.5167066695790E+00
 0.2455836909712E+00 -0.3282841197887E+01 -0.1427511024630E+01  0.5586617431698E+00
-0.1908565027723E+01 -0.2756131711946E+01 -0.2192407462084E+01  0.9798472800520E+00
-0.1664772273584E+01 -0.2837295023183E+01 -0.2115971624114E+01  0.8920878156203E+00
-0.1420293741709E+01 -0.2910233838973E+01 -0.2035347957758E+01  0.8111173439237E+00
-0.1186466587503E+01 -0.2974678596662E+01 -0.1955738231597E+01  0.7360517179520E+00
-0.9674204677426E+00 -0.3029148651398E+01 -0.1878387481232E+01  0.6669737357254E+00
-0.7657417221074E+00 -0.3073194540492E+01 -0.1804300038845E+01  0.6042942883021E+00
-0.5825544111795E+00 -0.3106665035606E+01 -0.1733933135591E+01  0.5487517810763E+00
-0.4186870209158E+00 -0.3130853037085E+01 -0.1668283823029E+01  0.5012075955746E+00
-0.2740034161724E+00 -0.3147275600394E+01 -0.1608001133708E+01  0.4622420374012E+00
-0.1478298533873E+00 -0.3157422457542E+01 -0.1553468582196E+01  0.4320577536865E+00
-0.3935039772250E-01 -0.3162790433739E+01 -0.1505006186970E+01  0.4105973600033E+00
 0.5236157304485E-01 -0.3164743234781E+01 -0.1462819377306E+01  0.3976574954360E+00
 0.1282170089111E+00 -0.3164441159669E+01 -0.1427025347237E+01  0.3929130203446E+00
 0.1890555072764E+00 -0.3162710450156E+01 -0.1397617819608E+01  0.3959867842141E+00
 0.2355749083381E+00 -0.3160085750676E+01 -0.1374520092413E+01  0.4065407166376E+00
 0.2684184586301E+00 -0.3156770601696E+01 -0.1357525503798E+01  0.4242696987519E+00
 0.2861326648052E+00 -0.3154054088964E+01 -0.1347923065936E+01  0.4486256942717E+00
 0.2872982911718E+00 -0.3153417040107E+01 -0.1347075808583E+01  0.4801750845995E+00
 0.2771206010840E+00 -0.3152857998793E+01 -0.1351596573495E+01  0.5189338077387E+00
 0.2328974684338E+00 -0.3180958064857E+01 -0.1385588476805E+01  0.5564766044613E+00
-0.4379951106680E+01 -0.7994651024952E+01 -0.5816062987115E+01 -0.1104976776248E+01
 0.3437084321275E+00 -0.2715210833421E+01 -0.1114606125781E+01  0.4596824276735E+00
 0.1315721708063E-01 -0.1812366682455E+01 -0.8456284465810E+00  0.4170841392405E+00
-0.4296835288702E-01 -0.1247344099811E+01 -0.6064468512301E+00  0.3224509623191E+00
-0.6806929927811E-01 -0.8371053993959E+00 -0.4254321072977E+00  0.2407206741680E+00
-0.4828687557880E-01 -0.4934163073191E+00 -0.2546004953163E+00  0.1509616860658E+00
 0.2255839191076E-02 -0.2111950248847E+00 -0.9820141702694E-01  0.7127856664157E-01
 0.2960439048321E-01 -0.2732464398176E-01  0.1071480852964E-02  0.9009640255863E-02
 0.3316366294268E-01  0.9469728428740E-01  0.6009464504572E-01 -0.3527240277896E-01
 0.3059688363325E-01  0.1916108550116E+00  0.1044376368982E+00 -0.6275306000706E-01
 0.2653932088294E-01  0.2737129196289E+00  0.1411185526826E+00 -0.7602439777270E-01
 0.2278131934412E-01  0.3427628087047E+00  0.1718057397472E+00 -0.7730455900432E-01
 0.1813690607574E-01  0.3949856604977E+00  0.1941676057970E+00 -0.6876711903175E-01
 0.1442918820440E-01  0.4275686113954E+00  0.2077389652850E+00 -0.5104453349259E-01
 0.1392375290571E-01  0.4384013951542E+00  0.2125928190489E+00 -0.2538366075200E-01
 0.2057742946109E-01  0.4253482698059E+00  0.2095850781239E+00  0.4207192171221E-02
 0.1841809080149E-01  0.3651781736928E+00  0.1802902438550E+00  0.3780116239742E-01
 0.3705306821369E-01  0.2861440803620E+00  0.1519026594453E+00  0.8175129919426E-01
 0.7260859759846E-01  0.2001889276049E+00  0.1282148365204E+00  0.1222607952210E+00
 0.1394190727935E+00  0.1196477767226E+00  0.1217614189638E+00  0.1409989281566E+00
-0.2260076223015E+01 -0.5343186013190E+01 -0.3573533241953E+01 -0.1499570718423E+01
-0.6364556165453E+00 -0.3989807731926E+01 -0.2174343768267E+01 -0.1925197858997E+00
 0.7767196766936E-01 -0.2197752798381E+01 -0.9964379879071E+00  0.2446341153553E+00
-0.1052304963467E-01 -0.1550661338994E+01 -0.7337566607946E+00  0.2599996578644E+00
-0.2741410121871E-01 -0.1094187721580E+01 -0.5271528553785E+00  0.2128062748095E+00
-0.1726072109272E-01 -0.7365390121925E+00 -0.3542858737454E+00  0.1467591042733E+00
 0.1251985442749E-01 -0.4534488940367E+00 -0.2072366480907E+00  0.8228194725338E-01
 0.3620765230046E-01 -0.2455614936686E+00 -0.9839630519345E-01  0.2812653524064E-01
 0.4172225668842E-01 -0.9893977776217E-01 -0.2689223483646E-01 -0.1580401804429E-01
 0.3719831195097E-01  0.1174821989505E-01  0.2300486990928E-01 -0.4763422916059E-01
 0.2971977096380E-01  0.1025116265795E+00  0.6214875668772E-01 -0.6645622358911E-01
 0.2109515502494E-01  0.1779598169048E+00  0.9355583656969E-01 -0.7274930810071E-01
 0.1182552837697E-01  0.2384938766798E+00  0.1176501200783E+00 -0.6779083367497E-01
 0.3273397455057E-02  0.2824703083075E+00  0.1342995413677E+00 -0.5232354360113E-01
-0.2284593004682E-02  0.3074853837917E+00  0.1434443713061E+00 -0.2719325297207E-01
-0.5678111281600E-02  0.3081305699156E+00  0.1421526551974E+00  0.6048764353001E-02
-0.3577077792378E-02  0.2865566300703E+00  0.1330003892333E+00  0.4553147253542E-01
 0.1212237038016E-01  0.2391025637831E+00  0.1180757187573E+00  0.9151765246559E-01
 0.4764532342371E-01  0.1736974683629E+00  0.1040311118758E+00  0.1338652642724E+00
 0.1110727805285E+00  0.1057711501687E+00  0.1019166471692E+00  0.1558038743184E+00
-0.1783219301624E+01 -0.4436434713660E+01 -0.2923237379769E+01 -0.1559534808160E+01
-0.6599186897887E+00 -0.3833792856236E+01 -0.2112044421275E+01 -0.5721404703493E+00
-0.1669892162221E+00 -0.2721288330330E+01 -0.1357490443436E+01 -0.3266520281823E-01
 0.4519129466976E-02 -0.1858322687914E+01 -0.8712876702604E+00  0.1523374017474E+00
-0.2177198465933E-02 -0.1360270252538E+01 -0.6403503003476E+00  0.1662312513137E+00
 0.9225021397381E-02 -0.9819013101833E+00 -0.4571578545699E+00  0.1305019841080E+00
 0.2850274947953E-01 -0.6900060221325E+00 -0.3109065373583E+00  0.8247539213943E-01
 0.4591287106347E-01 -0.4694283816075E+00 -0.1990522894508E+00  0.3678402216929E-01
 0.5142593948942E-01 -0.3049473977944E+00 -0.1191550851011E+00 -0.3789804872358E-02
 0.4651133596611E-01 -0.1791352248323E+00 -0.6233322760902E-01 -0.3679538052822E-01
 0.3621793719778E-01 -0.7799577888395E-01 -0.1963558554269E-01 -0.5955193491275E-01
 0.2342408829532E-01  0.5698110883285E-02  0.1368743357923E-01 -0.7071973667379E-01
 0.9255551568990E-02  0.7469100265346E-01  0.3945488038448E-01 -0.7035918474427E-01
-0.4780662231291E-02  0.1292691800160E+00  0.5850960321040E-01 -0.5870285248401E-01
-0.1730515962757E-01  0.1672969309490E+00  0.7049613234225E-01 -0.3603819276403E-01
-0.2659234271443E-01  0.1870699342956E+00  0.7542446785183E-01 -0.3460858666118E-02
-0.3033302220249E-01  0.1897846444259E+00  0.7494226225490E-01  0.3710666391964E-01
-0.1847623278631E-01  0.1714126636078E+00  0.7188012230376E-01  0.8423476741621E-01
 0.1316854127152E-01  0.1288901353881E+00  0.6676757786067E-01  0.1272536985471E+00
 0.6707746033690E-01  0.7472237020724E-01  0.6664592018671E-01  0.1496559773511E+00
-0.1584978949128E+01 -0.3913402569230E+01 -0.2584239307074E+01 -0.1556672296399E+01
-0.7067211222203E+00 -0.3636478998094E+01 -0.2041304051370E+01 -0.7989557740353E+00
-0.2737764237078E+00 -0.2911703384954E+01 -0.1497175506273E+01 -0.2748159939174E+00
-0.6360360894472E-01 -0.2180393779165E+01 -0.1054678769736E+01  0.1311441277454E-02
 0.6470120301397E-02 -0.1627690936663E+01 -0.7619737817575E+00  0.9429042431322E-01
 0.2752574157507E-01 -0.1229661695324E+01 -0.5650038968290E+00  0.9888304239897E-01
 0.4450589782252E-01 -0.9263634195753E+00 -0.4144730341726E+00  0.7134501001813E-01
 0.5810298011087E-01 -0.6954202151870E+00 -0.2995390997260E+00  0.3589600983570E-01
 0.6288494963691E-01 -0.5182522738995E+00 -0.2140226418606E+00  0.3265108473074E-03
 0.5779583407481E-01 -0.3795661261840E+00 -0.1512320369077E+00 -0.3162024835697E-01
 0.4579808945121E-01 -0.2676287081832E+00 -0.1042603905396E+00 -0.5649752328333E-01
 0.2960073833227E-01 -0.1750113314214E+00 -0.6834297857857E-01 -0.7177946890670E-01
 0.1094025269526E-01 -0.9734222904143E-01 -0.4060892877970E-01 -0.7631176319182E-01
-0.8779571088205E-02 -0.3287909547138E-01 -0.1957957323335E-01 -0.6957570586940E-01
-0.2790560468210E-01  0.1785682469714E-01 -0.4722926580954E-02 -0.5139003693958E-01
-0.4445931345738E-01  0.5408723629597E-01  0.4525123722661E-02 -0.2238859208455E-01
-0.5545740241148E-01  0.7811584758687E-01  0.1064946920542E-01  0.1592780720433E-01
-0.5149929534595E-01  0.8376591712306E-01  0.1516531219677E-01  0.6124435288616E-01
-0.2778935405327E-01  0.6273308300075E-01  0.1642355256366E-01  0.1023962174544E+00
 0.1237670409218E-01  0.2131194471673E-01  0.1583366490003E-01  0.1225158449447E+00
-0.1501019231700E+01 -0.3576320949153E+01 -0.2386349878948E+01 -0.1531157640116E+01
-0.7646875421725E+00 -0.3454222550194E+01 -0.1982887738383E+01 -0.9415525161041E+00
-0.3589012520312E+00 -0.2980034125652E+01 -0.1569299623531E+01 -0.4660438815683E+00
-0.1262130480477E+00 -0.2404263403984E+01 -0.1189323929438E+01 -0.1546445663829E+00
-0.1488621093175E-01 -0.1887591601021E+01 -0.8941645693501E+00 -0.1437110246895E-02
 0.3491017803473E-01 -0.1475722004706E+01 -0.6771815568178E+00  0.4930437568492E-01
 0.5684987151226E-01 -0.1162878421051E+01 -0.5198334169647E+00  0.4742033943123E-01
 0.7056201438110E-01 -0.9228822101156E+00 -0.4005904909792E+00  0.2515614146741E-01
 0.7556577866168E-01 -0.7359363889403E+00 -0.3103741860437E+00 -0.3580203865587E-02
 0.7076156887100E-01 -0.5869961145219E+00 -0.2426302358405E+00 -0.3275258448292E-01
 0.5794796438167E-01 -0.4654079811556E+00 -0.1915062073980E+00 -0.5813341257446E-01
 0.3938858471928E-01 -0.3641049103277E+00 -0.1526166726489E+00 -0.7646434489290E-01
 0.1698866892754E-01 -0.2780730289766E+00 -0.1227096489118E+00 -0.8565061047489E-01
-0.7800087617259E-02 -0.2043939132126E+00 -0.9973118013708E-01 -0.8444145206283E-01
-0.3330900662192E-01 -0.1424224621964E+00 -0.8259379013510E-01 -0.7214383712016E-01
-0.5727608870588E-01 -0.9190985849862E-01 -0.7011739500827E-01 -0.4889494431796E-01
-0.7666611327111E-01 -0.5001888564494E-01 -0.5954194933952E-01 -0.1563246177503E-01
-0.8275180387676E-01 -0.2408104864798E-01 -0.5021144055927E-01  0.2490421155313E-01
-0.7069639394152E-01 -0.2681493070565E-01 -0.4583032246793E-01  0.6122204350780E-01
-0.4660780375539E-01 -0.5741755970243E-01 -0.4889192070117E-01  0.7632594058915E-01
-0.1467920895803E+01 -0.3341627267787E+01 -0.2260487631154E+01 -0.1497712244603E+01
-0.8310980320099E+00 -0.3302815563407E+01 -0.1942939384918E+01 -0.1032284523514E+01
-0.4384965127966E+00 -0.2991849306314E+01 -0.1612262530893E+01 -0.6127409868054E+00
-0.1892440942805E+00 -0.2554451765209E+01 -0.1289537050690E+01 -0.2978353153635E+00
-0.4787051043894E-01 -0.2107003344914E+01 -0.1012790709447E+01 -0.1080633021883E+00
 0.2766553543072E-01 -0.1712125762662E+01 -0.7916963047905E+00 -0.1701973075401E-01
 0.6288684317463E-01 -0.1396303117542E+01 -0.6267056473630E+00  0.9719824941132E-02
 0.8091142259697E-01 -0.1150299744691E+01 -0.5026125101096E+00  0.3846554905354E-02
 0.8816516562929E-01 -0.9560194755541E+00 -0.4078915246301E+00 -0.1585379887334E-01
 0.8471943864125E-01 -0.7992008076351E+00 -0.3358062425754E+00 -0.4055211086993E-01
 0.7212381096495E-01 -0.6697177679870E+00 -0.2808691590880E+00 -0.6494185810235E-01
 0.5234248852960E-01 -0.5608186397021E+00 -0.2389837904449E+00 -0.8514856815071E-01
 0.2730281752455E-01 -0.4672764751621E+00 -0.2067876185652E+00 -0.9838586437110E-01
-0.1598318461597E-02 -0.3855062576985E+00 -0.1819391503338E+00 -0.1027911520530E+00
-0.3272519254771E-01 -0.3139709259462E+00 -0.1629471752789E+00 -0.9718526552988E-01
-0.6376314752793E-01 -0.2516614023100E+00 -0.1482495380478E+00 -0.8120277335346E-01
-0.9164770124480E-01 -0.1951664009863E+00 -0.1348026277067E+00 -0.5518351989534E-01
-0.1089623965510E+00 -0.1528802779186E+00 -0.1230660566886E+00 -0.2204167794925E-01
-0.1107090032665E+00 -0.1408474599565E+00 -0.1182315374149E+00  0.6762168093105E-02
-0.1036064644388E+00 -0.1633429193763E+00 -0.1254662100749E+00  0.1456809128807E-01
-0.1461368510315E+01 -0.3171616061499E+01 -0.2177502743230E+01 -0.1461822799327E+01
-0.9001859299683E+00 -0.3179995161585E+01 -0.1917685108166E+01 -0.1089072776269E+01
-0.5175928114915E+00 -0.2979168445125E+01 -0.1643477786441E+01 -0.7234294507013E+00
-0.2548018246317E+00 -0.2653793026966E+01 -0.1367039576783E+01 -0.4219538254488E+00
-0.8943811814582E-01 -0.2283591219376E+01 -0.1115323785807E+01 -0.2149488251111E+00
 0.9264951190008E-02 -0.1925973209590E+01 -0.9008528791629E+00 -0.9439039457665E-01
 0.6054604547442E-01 -0.1620863825715E+01 -0.7333493548528E+00 -0.4073648850796E-01
 0.8705956333588E-01 -0.1374499586638E+01 -0.6050968094175E+00 -0.2826951673728E-01
 0.9903697928291E-01 -0.1176240012317E+01 -0.5062854242420E+00 -0.3681669985010E-01
 0.9857648157239E-01 -0.1014070999973E+01 -0.4302824225569E+00 -0.5528833703586E-01
 0.8753223768839E-01 -0.8787443665099E+00 -0.3718696996029E+00 -0.7719053210363E-01
 0.6784820669644E-01 -0.7638544894399E+00 -0.3271229520597E+00 -0.9802361695255E-01
 0.4148011411866E-01 -0.6641821577334E+00 -0.2926699597566E+00 -0.1144487694651E+00
 0.9747519635571E-02 -0.5758146715854E+00 -0.2660515607416E+00 -0.1241186281806E+00
-0.2583584660968E-01 -0.4966484855366E+00 -0.2455676354859E+00 -0.1254390816092E+00
-0.6301232878655E-01 -0.4251094270431E+00 -0.2294172246581E+00 -0.1175814658628E+00
-0.9876776270843E-01 -0.3573455636361E+00 -0.2143732628382E+00 -0.1003093542264E+00
-0.1274262978359E+00 -0.3026376294401E+00 -0.2021300453071E+00 -0.7654642743946E-01
-0.1437260017928E+00 -0.2795332537939E+00 -0.1989318496212E+00 -0.5730932251623E-01
-0.1530747959308E+00 -0.2965738757934E+00 -0.2113348751743E+00 -0.5831763828201E-01
-0.1469944529755E+01 -0.3045689282473E+01 -0.2122347886364E+01 -0.1425737976182E+01
-0.9688519183728E+00 -0.3081610123238E+01 -0.1903717154728E+01 -0.1122608894537E+01
-0.5963827362032E+00 -0.2956963539454E+01 -0.1670072745323E+01 -0.8055428772193E+00
-0.3235321920010E+00 -0.2719809784773E+01 -0.1430370725456E+01 -0.5257855862799E+00
-0.1383108686348E+00 -0.2422935419661E+01 -0.1203785752446E+01 -0.3153179991088E+00
-0.1873215235007E-01 -0.2112459583858E+01 -0.1001660113477E+01 -0.1764084807168E+00
 0.4971185190514E-01 -0.1829842185106E+01 -0.8366612544821E+00 -0.1007246009623E+00
 0.8737915224498E-01 -0.1591133610635E+01 -0.7067645936505E+00 -0.7022564521458E-01
 0.1065628082198E+00 -0.1393586547432E+01 -0.6049011558955E+00 -0.6631784111867E-01
 0.1109955074763E+00 -0.1229232055818E+01 -0.5255711763876E+00 -0.7702565279339E-01
 0.1031201466476E+00 -0.1090469116255E+01 -0.4640540145383E+00 -0.9497970334265E-01
 0.8505443528661E-01 -0.9715626225471E+00 -0.4166588469556E+00 -0.1151283227797E+00
 0.5886145844509E-01 -0.8675217305031E+00 -0.3800703269032E+00 -0.1336798372420E+00
 0.2581491429156E-01 -0.7743675491816E+00 -0.3518197375060E+00 -0.1479062013707E+00
-0.1272633718379E-01 -0.6896895072717E+00 -0.3301354460567E+00 -0.1558825815298E+00
-0.5464770570154E-01 -0.6115577097918E+00 -0.3131165444877E+00 -0.1563832427489E+00
-0.9702909413306E-01 -0.5358379495113E+00 -0.2974475097584E+00 -0.1486459259501E+00
-0.1362430805448E+00 -0.4725318517580E+00 -0.2861242174566E+00 -0.1354852142514E+00
-0.1666022470017E+00 -0.4418602324758E+00 -0.2859773646291E+00 -0.1270733355578E+00
-0.1908209558320E+00 -0.4556737963076E+00 -0.3038525327349E+00 -0.1375859693373E+00
-0.1487832662897E+01 -0.2951474456612E+01 -0.2086474340877E+01 -0.1390312259889E+01
-0.1035526794413E+01 -0.3003620875058E+01 -0.1898399399836E+01 -0.1139683107826E+01
-0.6741358457305E+00 -0.2932703977001E+01 -0.1695214712384E+01 -0.8650000933834E+00
-0.3948119088381E+00 -0.2764355313275E+01 -0.1484808590627E+01 -0.6102875277118E+00
-0.1934798830781E+00 -0.2532493231832E+01 -0.1281207360758E+01 -0.4054117675157E+00
-0.5524910084857E-01 -0.2271705573451E+01 -0.1093668694147E+01 -0.2577069235156E+00
 0.3047580649324E-01 -0.2019309899464E+01 -0.9347520213255E+00 -0.1661402316166E+00
 0.8100313401917E-01 -0.1795817832391E+01 -0.8059629061904E+00 -0.1198234411310E+00
 0.1093878590975E+00 -0.1604574471764E+01 -0.7027377061709E+00 -0.1034130623706E+00
 0.1206191088912E+00 -0.1441913173954E+01 -0.6210082090043E+00 -0.1054020333912E+00
 0.1176650252524E+00 -0.1302586656101E+01 -0.5569131650862E+00 -0.1181657723250E+00
 0.1028939808144E+00 -0.1181976753560E+01 -0.5071689019039E+00 -0.1363422837896E+00
 0.7853269763113E-01 -0.1075619481792E+01 -0.4686307873669E+00 -0.1558287728808E+00
 0.4586905264945E-01 -0.9797152589284E+00 -0.4389077158379E+00 -0.1736221021593E+00
 0.6114779587679E-02 -0.8917702491226E+00 -0.4162580696256E+00 -0.1875541030187E+00
-0.3880455784596E-01 -0.8096849223453E+00 -0.3987900546784E+00 -0.1960803028606E+00
-0.8610110872223E-01 -0.7292182253819E+00 -0.3832000860570E+00 -0.1979789040943E+00
-0.1343400180806E+00 -0.6608800212922E+00 -0.3737534175572E+00 -0.1958632936228E+00
-0.1772948238390E+00 -0.6257549344584E+00 -0.3774333854425E+00 -0.1987217080483E+00
-0.2141596572499E+00 -0.6379743482583E+00 -0.4005029815730E+00 -0.2186757287498E+00
-0.1511839110535E+01 -0.2880946244207E+01 -0.2064609111492E+01 -0.1355768388925E+01
-0.1099566163552E+01 -0.2942604315290E+01 -0.1899820120237E+01 -0.1144801756061E+01
-0.7501017996008E+00 -0.2910138713873E+01 -0.1720313036969E+01 -0.9064145109451E+00
-0.4676207222093E+00 -0.2795322720186E+01 -0.1533583414036E+01 -0.6772491426876E+00
-0.2537499600009E+00 -0.2619122515205E+01 -0.1350250059922E+01 -0.4834787591843E+00
-0.9926276487731E-01 -0.2406312989611E+01 -0.1177620601623E+01 -0.3343581359484E+00
 0.3145357804833E-02 -0.2187993346258E+01 -0.1026878551968E+01 -0.2330013710565E+00
 0.6747452794690E-01 -0.1985473793815E+01 -0.9014596526717E+00 -0.1741954129389E+00
 0.1065572417641E+00 -0.1805890653064E+01 -0.7986867012851E+00 -0.1463953045559E+00
 0.1262447690795E+00 -0.1649164244949E+01 -0.7157721518433E+00 -0.1394981920330E+00
 0.1299180248886E+00 -0.1512535600326E+01 -0.6498302588072E+00 -0.1462522862984E+00
 0.1201599631479E+00 -0.1392842574219E+01 -0.5981608256865E+00 -0.1613334329258E+00
 0.9936731115133E-01 -0.1286449626570E+01 -0.5579286868315E+00 -0.1805359817768E+00
 0.6889232822858E-01 -0.1189983494880E+01 -0.5269128469898E+00 -0.2007155238270E+00
 0.2983119772530E-01 -0.1101071526396E+01 -0.5034829531984E+00 -0.2195601277099E+00
-0.1609802379458E-01 -0.1017610096536E+01 -0.4858428153231E+00 -0.2352961566108E+00
-0.6627265519300E-01 -0.9354128429968E+00 -0.4707921829551E+00 -0.2463220078348E+00
-0.1214490498768E+00 -0.8652449131378E+00 -0.4637461614406E+00 -0.2549763223884E+00
-0.1748509543805E+00 -0.8282865197572E+00 -0.4714746116489E+00 -0.2688098953094E+00
-0.2218519707937E+00 -0.8399368563574E+00 -0.4990407474953E+00 -0.2975306564391E+00
-0.1540108621590E+01 -0.2828597263003E+01 -0.2053291760551E+01 -0.1322033906316E+01
-0.1160833899035E+01 -0.2895736125804E+01 -0.1906587906838E+01 -0.1141053881871E+01
-0.8237585036280E+00 -0.2891095250604E+01 -0.1745981260061E+01 -0.9333742808780E+00
-0.5409365515624E+00 -0.2817943059206E+01 -0.1578673413057E+01 -0.7286872496369E+00
-0.3178499350524E+00 -0.2688478109887E+01 -0.1412974177538E+01 -0.5490160480491E+00
-0.1496459554005E+00 -0.2519761537750E+01 -0.1254621518599E+01 -0.4037564595609E+00
-0.3173170467933E-01 -0.2336460194344E+01 -0.1113050189718E+01 -0.2979402885727E+00
 0.4667948729390E-01 -0.2158546138507E+01 -0.9925773235528E+00 -0.2303582162739E+00
 0.9746293390184E-01 -0.1994993552902E+01 -0.8918393886680E+00 -0.1930840536377E+00
 0.1269241288490E+00 -0.1848236175269E+01 -0.8090166597655E+00 -0.1778858863245E+00
 0.1387296755248E+00 -0.1717686845507E+01 -0.7421098680092E+00 -0.1783443004242E+00
 0.1356120225049E+00 -0.1601712559303E+01 -0.6890672505473E+00 -0.1895060809126E+00
 0.1201009609811E+00 -0.1497711622061E+01 -0.6474770090655E+00 -0.2073000292212E+00
 0.9364034065328E-01 -0.1402949126828E+01 -0.6153751279413E+00 -0.2286020527393E+00
 0.5724836570035E-01 -0.1315357728950E+01 -0.5913113992276E+00 -0.2510751070136E+00
 0.1243418900766E-01 -0.1232974579512E+01 -0.5736539820820E+00 -0.2728234955305E+00
-0.3838040390726E-01 -0.1151804511765E+01 -0.5593869089472E+00 -0.2919652178323E+00
-0.9802771245119E-01 -0.1082586924111E+01 -0.5548888777770E+00 -0.3105099252724E+00
-0.1593093746129E+00 -0.1045900535887E+01 -0.5664486564982E+00 -0.3344124935322E+00
-0.2139151810490E+00 -0.1057467268770E+01 -0.5975497498994E+00 -0.3707793694305E+00
-0.1571505268146E+01 -0.2790475186567E+01 -0.2050130808515E+01 -0.1288902592266E+01
-0.1219463866772E+01 -0.2860688873527E+01 -0.1917671783077E+01 -0.1130606345562E+01
-0.8948267012528E+00 -0.2876360672126E+01 -0.1772458060992E+01 -0.9486815738183E+00
-0.6139048984116E+00 -0.2835680225961E+01 -0.1621305004343E+01 -0.7665761336014E+00
-0.3845676343736E+00 -0.2745000610579E+01 -0.1470897071397E+01 -0.6022629331638E+00
-0.2052088800758E+00 -0.2615590394457E+01 -0.1325775655668E+01 -0.4643499034374E+00
-0.7338478882250E-01 -0.2466311367069E+01 -0.1193657190241E+01 -0.3583553807118E+00
 0.1880915095033E-01 -0.2314745207424E+01 -0.1079089943806E+01 -0.2855775296166E+00
 0.8181252959182E-01 -0.2170305435707E+01 -0.9815916633843E+00 -0.2411488445063E+00
 0.1219826557636E+00 -0.2036906301482E+01 -0.9000141112050E+00 -0.2188035457129E+00
 0.1431324782469E+00 -0.1915596788188E+01 -0.8330582235595E+00 -0.2132001962575E+00
 0.1480752322068E+00 -0.1806115396113E+01 -0.7792788750594E+00 -0.2199942268523E+00
 0.1394224067844E+00 -0.1706949752962E+01 -0.7367378508347E+00 -0.2354571082693E+00
 0.1187180237761E+00 -0.1616139509996E+01 -0.7037880967381E+00 -0.2566478961847E+00
 0.8694071268153E-01 -0.1532070069048E+01 -0.6792107957694E+00 -0.2813347394014E+00
 0.4540206288364E-01 -0.1453040405750E+01 -0.6615900194691E+00 -0.3076271827452E+00
-0.3719952117975E-02 -0.1375354110781E+01 -0.6481648079187E+00 -0.3334914608557E+00
-0.6514764013423E-01 -0.1309430511440E+01 -0.6460517296011E+00 -0.3605833218861E+00
-0.1315438174138E+00 -0.1274638162318E+01 -0.6609055287975E+00 -0.3931976031192E+00
-0.1913796072037E+00 -0.1286179565274E+01 -0.6944528093030E+00 -0.4358124592812E+00
-0.1605294586726E+01 -0.2763639573691E+01 -0.2053399050188E+01 -0.1256115247810E+01
-0.1275721875155E+01 -0.2835527983978E+01 -0.1932287428892E+01 -0.1115002952368E+01
-0.9632257802489E+00 -0.2866140617326E+01 -0.1799802202295E+01 -0.9545364524452E+00
-0.6858862584354E+00 -0.2850813572059E+01 -0.1662248916116E+01 -0.7927340690842E+00
-0.4528401033216E+00 -0.2792087974634E+01 -0.1525116192771E+01 -0.6438775028687E+00
-0.2647814665631E+00 -0.2697023520054E+01 -0.1392048340179E+01 -0.5153695601991E+00
-0.1208926108695E+00 -0.2579605066078E+01 -0.1269233904946E+01 -0.4123862962678E+00
-0.1568848511602E-01 -0.2454655271444E+01 -0.1161061562638E+01 -0.3375521798477E+00
 0.5959678269382E-01 -0.2331137985108E+01 -0.1067624362427E+01 -0.2883598118782E+00
 0.1110171499461E+00 -0.2213620037164E+01 -0.9882233544861E+00 -0.2603607625045E+00
 0.1423812997645E+00 -0.2104217724553E+01 -0.9220631173120E+00 -0.2493509136498E+00
 0.1565150534428E+00 -0.2003749220086E+01 -0.8682000561203E+00 -0.2517111254518E+00
 0.1560610108440E+00 -0.1911711736535E+01 -0.8251558389818E+00 -0.2641932324395E+00
 0.1426643106896E+00 -0.1826963912642E+01 -0.7916208109098E+00 -0.2841690221059E+00
 0.1173094438268E+00 -0.1748440516220E+01 -0.7666316020805E+00 -0.3096326662807E+00
 0.8113913566096E-01 -0.1674800601689E+01 -0.7490208871332E+00 -0.3388390326329E+00
 0.3604813445169E-01 -0.1602725374405E+01 -0.7363383009103E+00 -0.3697676110757E+00
-0.2436430709787E-01 -0.1542022828385E+01 -0.7362019518099E+00 -0.4037453151738E+00
-0.9307288931317E-01 -0.1510328974474E+01 -0.7535988740687E+00 -0.4434363033181E+00
-0.1560308633331E+00 -0.1521610779617E+01 -0.7884915701869E+00 -0.4907857544917E+00
-0.1640971559543E+01 -0.2745836976128E+01 -0.2061800006536E+01 -0.1223401226198E+01
-0.1329926309455E+01 -0.2818626812292E+01 -0.1949819962275E+01 -0.1095353643701E+01
-0.1029020709552E+01 -0.2860308584030E+01 -0.1827984763347E+01 -0.9526741850463E+00
-0.7564498541352E+00 -0.2864816763303E+01 -0.1701995305879E+01 -0.8087832137885E+00
-0.5217950828457E+00 -0.2832293619077E+01 -0.1576421685905E+01 -0.6747338541665E+00
-0.3272854488509E+00 -0.2766830142709E+01 -0.1454234324345E+01 -0.5566030142457E+00
-0.1732694870246E+00 -0.2678494508773E+01 -0.1340329074625E+01 -0.4588148145528E+00
-0.5617608352474E-01 -0.2579378029561E+01 -0.1238710430008E+01 -0.3844735639485E+00
 0.3104842838347E-01 -0.2477496882414E+01 -0.1149830770478E+01 -0.3327429688692E+00
 0.9387950110687E-01 -0.2377479431199E+01 -0.1073291964421E+01 -0.3007103741795E+00
 0.1359702205223E+00 -0.2282008317633E+01 -0.1008637903084E+01 -0.2852361466198E+00
 0.1600886533334E+00 -0.2192643223910E+01 -0.9553006457482E+00 -0.2834347098822E+00
 0.1688610739541E+00 -0.2109718627014E+01 -0.9122030476247E+00 -0.2925901893335E+00
 0.1640363886381E+00 -0.2032869961066E+01 -0.8783517768134E+00 -0.3104555516416E+00
 0.1466601308778E+00 -0.1961631377595E+01 -0.8530364837937E+00 -0.3353344845008E+00
 0.1177764295524E+00 -0.1895096911543E+01 -0.8353406244169E+00 -0.3657588083452E+00
 0.7897907081681E-01 -0.1830404634153E+01 -0.8231700126800E+00 -0.3999228549804E+00
 0.2241858516562E-01 -0.1776466740477E+01 -0.8244026309055E+00 -0.4389317406369E+00
-0.4585182962956E-01 -0.1748753782749E+01 -0.8434646356788E+00 -0.4839576966317E+00
-0.1101524964275E+00 -0.1759391307454E+01 -0.8786855855955E+00 -0.5345701152425E+00
-0.1678164000606E+01 -0.2735297250314E+01 -0.2074326782671E+01 -0.1190499899827E+01
-0.1382402691746E+01 -0.2808601498674E+01 -0.1969771964501E+01 -0.1072458944963E+01
-0.1092375530712E+01 -0.2858546991350E+01 -0.1856933580659E+01 -0.9444674714156E+00
-0.8253460270803E+00 -0.2878606546300E+01 -0.1740857705073E+01 -0.8161437322937E+00
-0.5907594412607E+00 -0.2867502813696E+01 -0.1625383255707E+01 -0.6957963266807E+00
-0.3917817542561E+00 -0.2827300006234E+01 -0.1512968423593E+01 -0.5882186670536E+00
-0.2295434323948E+00 -0.2765020275649E+01 -0.1407444939211E+01 -0.4969455097908E+00
-0.1019022785494E+00 -0.2690259570005E+01 -0.1312316065492E+01 -0.4250127296193E+00
-0.3410261079928E-02 -0.2609862756215E+01 -0.1228238315013E+01 -0.3726556312547E+00
 0.7064908548804E-01 -0.2528139969107E+01 -0.1155020712371E+01 -0.3381661013108E+00
 0.1236345096071E+00 -0.2447946588618E+01 -0.1092426674364E+01 -0.3193200812246E+00
 0.1581801228654E+00 -0.2371256766765E+01 -0.1040146019994E+01 -0.3138969715266E+00
 0.1768478771736E+00 -0.2299014426315E+01 -0.9974182755666E+00 -0.3196872402226E+00
 0.1814865815095E+00 -0.2231519686062E+01 -0.9635155566959E+00 -0.3348187290736E+00
 0.1732859257353E+00 -0.2168893895959E+01 -0.9379357436262E+00 -0.3579184636193E+00
 0.1532925328629E+00 -0.2110762942575E+01 -0.9200110902314E+00 -0.3878833745222E+00
 0.1229042134144E+00 -0.2054790728846E+01 -0.9079866599498E+00 -0.4233368423675E+00
 0.7304787979056E-01 -0.2008826589475E+01 -0.9098159912438E+00 -0.4653972489080E+00
 0.7960346108140E-02 -0.1985749973811E+01 -0.9295611226628E+00 -0.5140507632627E+00
-0.5627352585886E-01 -0.1995382197249E+01 -0.9642781874148E+00 -0.5666571396812E+00
-0.1716576710428E+01 -0.2730600438274E+01 -0.2090173254588E+01 -0.1157171502250E+01
-0.1433458196551E+01 -0.2804262225279E+01 -0.1991728593208E+01 -0.1046894564107E+01
-0.1153516361352E+01 -0.2860430256027E+01 -0.1886554905383E+01 -0.9310031834755E+00
-0.8924725645444E+00 -0.2892709108012E+01 -0.1779035381589E+01 -0.8160434679733E+00
-0.6592480622935E+00 -0.2899076392567E+01 -0.1672412489543E+01 -0.7080424238197E+00
-0.4574944733704E+00 -0.2880270342883E+01 -0.1568749459660E+01 -0.6106345738993E+00
-0.2888167166302E+00 -0.2841002901515E+01 -0.1471015216797E+01 -0.5264912967892E+00
-0.1520745288811E+00 -0.2788700976399E+01 -0.1382164483976E+01 -0.4582719897401E+00
-0.4322811147498E-01 -0.2728995218048E+01 -0.1302944961571E+01 -0.4068073787604E+00
 0.4159324299950E-01 -0.2665667413815E+01 -0.1233314857155E+01 -0.3712684758398E+00
 0.1053393264967E+00 -0.2601468103660E+01 -0.1173180522291E+01 -0.3501694012802E+00
 0.1504268994803E+00 -0.2538503666669E+01 -0.1122396077732E+01 -0.3418492083454E+00
 0.1792894669304E+00 -0.2478075765904E+01 -0.1080429557777E+01 -0.3445290739281E+00
 0.1938599805256E+00 -0.2420959925739E+01 -0.1046736971596E+01 -0.3566370863480E+00
 0.1955315543026E+00 -0.2367799262922E+01 -0.1020965820462E+01 -0.3770445339026E+00
 0.1855946442357E+00 -0.2318760743774E+01 -0.1002588064240E+01 -0.4049852791410E+00
 0.1653734444358E+00 -0.2272337294053E+01 -0.9902730068082E+00 -0.4396859003321E+00
 0.1252010001477E+00 -0.2235095519234E+01 -0.9916504214555E+00 -0.4826454994636E+00
 0.6618384317342E-01 -0.2217289079746E+01 -0.1011019458625E+01 -0.5333088196931E+00
 0.3159500900951E-02 -0.2225711852952E+01 -0.1044599602814E+01 -0.5870169452296E+00
-0.1755958431776E+01 -0.2730586047891E+01 -0.2108675900096E+01 -0.1123202072058E+01
-0.1483367628853E+01 -0.2804576578235E+01 -0.2015333772220E+01 -0.1019070145791E+01
-0.1212703887073E+01 -0.2865477310029E+01 -0.1916745157777E+01 -0.9131406942328E+00
-0.9578415660055E+00 -0.2907374046039E+01 -0.1816651333053E+01 -0.8095345561982E+00
-0.7269422428839E+00 -0.2927963091089E+01 -0.1717805502610E+01 -0.7124167152018E+00
-0.5238166487513E+00 -0.2927172346363E+01 -0.1621964823590E+01 -0.6244223166001E+00
-0.3503068966893E+00 -0.2907996681634E+01 -0.1531402677928E+01 -0.5474732097431E+00
-0.2059231382887E+00 -0.2876038314010E+01 -0.1448521878907E+01 -0.4837235743767E+00
-0.8778991370074E-01 -0.2835778413989E+01 -0.1374077110529E+01 -0.4342503955626E+00
 0.7113673921378E-02 -0.2790389688203E+01 -0.1308139723394E+01 -0.3988145763185E+00
 0.8124976597002E-01 -0.2742352902216E+01 -0.1250718470863E+01 -0.3764955626714E+00
 0.1367306450285E+00 -0.2693697123109E+01 -0.1201774241650E+01 -0.3660884475300E+00
 0.1757696405697E+00 -0.2645839591813E+01 -0.1160932874140E+01 -0.3661656322171E+00
 0.2003057532484E+00 -0.2599785211113E+01 -0.1127755342336E+01 -0.3753537448071E+00
 0.2119849624954E+00 -0.2556475024442E+01 -0.1101910326320E+01 -0.3926043574106E+00
 0.2124421506483E+00 -0.2516637599348E+01 -0.1082971858142E+01 -0.4172844968971E+00
 0.2037674164045E+00 -0.2479479144267E+01 -0.1069584509383E+01 -0.4491129175093E+00
 0.1759814053205E+00 -0.2451379756934E+01 -0.1069437222546E+01 -0.4904641145339E+00
 0.1270115745137E+00 -0.2439047239655E+01 -0.1086656759860E+01 -0.5413867868903E+00
 0.6609462183781E-01 -0.2446871335807E+01 -0.1118965052727E+01 -0.5958414651072E+00
-0.1796076241622E+01 -0.2734281357906E+01 -0.2129268066377E+01 -0.1088403973214E+01
-0.1532369135366E+01 -0.2808645906143E+01 -0.2040277064334E+01 -0.9892691506810E+00
-0.1270212299287E+01 -0.2873188453159E+01 -0.1947398348710E+01 -0.8915568684372E+00
-0.1021550942759E+01 -0.2922657429668E+01 -0.1853777930339E+01 -0.7975138359594E+00
-0.7936631620669E+00 -0.2954784111423E+01 -0.1761770214072E+01 -0.7098057042351E+00
-0.5903011891383E+00 -0.2969077059859E+01 -0.1672907772785E+01 -0.6302365717795E+00
-0.4133709680129E+00 -0.2967280704762E+01 -0.1588906282174E+01 -0.5601349868081E+00
-0.2627509786560E+00 -0.2953475575808E+01 -0.1511626476764E+01 -0.5011465619827E+00
-0.1364806534793E+00 -0.2931115166485E+01 -0.1441770031727E+01 -0.4543568978937E+00
-0.3232197117716E-01 -0.2902769570536E+01 -0.1379493021106E+01 -0.4198722307911E+00
 0.5166885297304E-01 -0.2870588894963E+01 -0.1324892416375E+01 -0.3971814718978E+00
 0.1172289403102E+00 -0.2836413109251E+01 -0.1278016556161E+01 -0.3854565363415E+00
 0.1662363383717E+00 -0.2801601379474E+01 -0.1238621566176E+01 -0.3835849498284E+00
 0.2004715043248E+00 -0.2767141761342E+01 -0.1206335017739E+01 -0.3903477275317E+00
 0.2216854542966E+00 -0.2733950441232E+01 -0.1180764540865E+01 -0.4046242934133E+00
 0.2320441673660E+00 -0.2702865358433E+01 -0.1161285956856E+01 -0.4255681797601E+00
 0.2342334554812E+00 -0.2674184478331E+01 -0.1146776977831E+01 -0.4528248012265E+00
 0.2225192783964E+00 -0.2652457057095E+01 -0.1142070753092E+01 -0.4892333069866E+00
 0.1877653842810E+00 -0.2647010184116E+01 -0.1155845052991E+01 -0.5378606853963E+00
 0.1325341822902E+00 -0.2654264915605E+01 -0.1185213441652E+01 -0.5931579848269E+00
-0.1836704576302E+01 -0.2740848779687E+01 -0.2151450071858E+01 -0.1052614605888E+01
-0.1580640269553E+01 -0.2815660695297E+01 -0.2066261448239E+01 -0.9576689129103E+00
-0.1326337425090E+01 -0.2883114652242E+01 -0.1978442471328E+01 -0.8667785383662E+00
-0.1083757086949E+01 -0.2938485347041E+01 -0.1890453939181E+01 -0.7807531007918E+00
-0.8593344553611E+00 -0.2979875630779E+01 -0.1804428735909E+01 -0.7010285081872E+00
-0.6566518780463E+00 -0.3006739704374E+01 -0.1721794039371E+01 -0.6287614285749E+00
-0.4775061602223E+00 -0.3019859826076E+01 -0.1643762009391E+01 -0.5648676453014E+00
-0.3219693814847E+00 -0.3022064571932E+01 -0.1571695954119E+01 -0.5105636861566E+00
-0.1887380889355E+00 -0.3015871431878E+01 -0.1506166470962E+01 -0.4667933071893E+00
-0.7625374755019E-01 -0.3003320193493E+01 -0.1447399748619E+01 -0.4337965755928E+00
 0.1693610371867E-01 -0.2986255280062E+01 -0.1395580009342E+01 -0.4113257894187E+00
 0.9218142858331E-01 -0.2966311543978E+01 -0.1350841150809E+01 -0.3988649306425E+00
 0.1509390226119E+00 -0.2944743362325E+01 -0.1313088036335E+01 -0.3956310631751E+00
 0.1946227840443E+00 -0.2922413229396E+01 -0.1282061506064E+01 -0.4006422650043E+00
 0.2246994262455E+00 -0.2899978285195E+01 -0.1257381060517E+01 -0.4127821024075E+00
 0.2434164196029E+00 -0.2877838614476E+01 -0.1238178428450E+01 -0.4307956728924E+00
 0.2545789930383E+00 -0.2856019198541E+01 -0.1222676893485E+01 -0.4535342250176E+00
 0.2544491474326E+00 -0.2839544524477E+01 -0.1214994824129E+01 -0.4824372082576E+00
 0.2500276826085E+00 -0.2827559557038E+01 -0.1211439977909E+01 -0.5221255838074E+00
 0.2029354129034E+00 -0.2844106284584E+01 -0.1241350306541E+01 -0.5772142035818E+00
-0.1877302614123E+01 -0.2749162495063E+01 -0.2174438595803E+01 -0.1015640094625E+01
-0.1628484060826E+01 -0.2825143236728E+01 -0.2093204824541E+01 -0.9242955352626E+00
-0.1381337629975E+01 -0.2894902523357E+01 -0.2009832866969E+01 -0.8392302421272E+00
-0.1144633069047E+01 -0.2954680694860E+01 -0.1926677464149E+01 -0.7599433045551E+00
-0.9240072193120E+00 -0.3003360348548E+01 -0.1845862752212E+01 -0.6868519011332E+00
-0.7226363290944E+00 -0.3040516209509E+01 -0.1768681688658E+01 -0.6206623191036E+00
-0.5423803936672E+00 -0.3066525813571E+01 -0.1696185913100E+01 -0.5621244332329E+00
-0.3831087453843E+00 -0.3082725789998E+01 -0.1628942227498E+01 -0.5121779115664E+00
-0.2440700215544E+00 -0.3090856574663E+01 -0.1567415496247E+01 -0.4714910492937E+00
-0.1242856675129E+00 -0.3092584181254E+01 -0.1511928825085E+01 -0.4402517698993E+00
-0.2268146607434E-01 -0.3089480459059E+01 -0.1462716101103E+01 -0.4183290786072E+00
 0.6176239938249E-01 -0.3083030038217E+01 -0.1419995786651E+01 -0.4054285057255E+00
 0.1301179071140E+00 -0.3074430421718E+01 -0.1383826878354E+01 -0.4010901237041E+00
 0.1833496766374E+00 -0.3064520819775E+01 -0.1354150433840E+01 -0.4046979997657E+00
 0.2223369834999E+00 -0.3053827712377E+01 -0.1330800639197E+01 -0.4154883819091E+00
 0.2482342163171E+00 -0.3042560014940E+01 -0.1313333122022E+01 -0.4323771127228E+00
 0.2645152292788E+00 -0.3029392786894E+01 -0.1299492448783E+01 -0.4534883586264E+00
 0.2712954631856E+00 -0.3015511729302E+01 -0.1289781641803E+01 -0.4780135515964E+00
 0.2710045231517E+00 -0.3005706677937E+01 -0.1285310009489E+01 -0.5061228585706E+00
 0.3199330114498E+00 -0.2957853134333E+01 -0.1239822454611E+01 -0.5468132120248E+00
-0.1877302601677E+01 -0.2749162491221E+01 -0.2174438588147E+01  0.1015640108435E+01
-0.1628484051167E+01 -0.2825143232377E+01 -0.2093204817957E+01  0.9242955470306E+00
-0.1381337622438E+01 -0.2894902518680E+01 -0.2009832861228E+01  0.8392302515673E+00
-0.1144633063227E+01 -0.2954680689929E+01 -0.1926677459096E+01  0.7599433117580E+00
-0.9240072149607E+00 -0.3003360343502E+01 -0.1845862747795E+01  0.6868519063898E+00
-0.7226363260003E+00 -0.3040516204548E+01 -0.1768681684872E+01  0.6206623227762E+00
-0.5423803916208E+00 -0.3066525808945E+01 -0.1696185909964E+01  0.5621244356898E+00
-0.3831087441423E+00 -0.3082725785942E+01 -0.1628942225008E+01  0.5121779131534E+00
-0.2440700208639E+00 -0.3090856571345E+01 -0.1567415494363E+01  0.4714910502911E+00
-0.1242856671515E+00 -0.3092584178744E+01 -0.1511928823736E+01  0.4402517705108E+00
-0.2268146587437E-01 -0.3089480457320E+01 -0.1462716100191E+01  0.4183290789681E+00
 0.6176239953016E-01 -0.3083030037128E+01 -0.1419995786069E+01  0.4054285059202E+00
 0.1301179072674E+00 -0.3074430421125E+01 -0.1383826878003E+01  0.4010901237856E+00
 0.1833496768151E+00 -0.3064520819534E+01 -0.1354150433643E+01  0.4046979997700E+00
 0.2223369836963E+00 -0.3053827712375E+01 -0.1330800639104E+01  0.4154883818632E+00
 0.2482342165442E+00 -0.3042560015087E+01 -0.1313333121984E+01  0.4323771126389E+00
 0.2645152295694E+00 -0.3029392787115E+01 -0.1299492448751E+01  0.4534883585127E+00
 0.2712954633710E+00 -0.3015511729699E+01 -0.1289781641903E+01  0.4780135515206E+00
 0.2710045231974E+00 -0.3005706678574E+01 -0.1285310009767E+01  0.5061228586285E+00
 0.3199330113806E+00 -0.2957853135139E+01 -0.1239822455022E+01  0.5468132122528E+00
-0.1836704564470E+01 -0.2740848776624E+01 -0.2151450064857E+01  0.1052614618634E+01
-0.1580640260160E+01 -0.2815660691782E+01 -0.2066261442172E+01  0.9576689236545E+00
-0.1326337417518E+01 -0.2883114648277E+01 -0.1978442465906E+01  0.8667785467818E+00
-0.1083757080926E+01 -0.2938485342662E+01 -0.1890453934291E+01  0.7807531069864E+00
-0.8593344507198E+00 -0.2979875626097E+01 -0.1804428731527E+01  0.7010285124930E+00
-0.6566518746368E+00 -0.3006739699611E+01 -0.1721794035530E+01  0.6287614313898E+00
-0.4775061578761E+00 -0.3019859821528E+01 -0.1643762006151E+01  0.5648676470225E+00
-0.3219693799776E+00 -0.3022064567879E+01 -0.1571695951506E+01  0.5105636871479E+00
-0.1887380880154E+00 -0.3015871428518E+01 -0.1506166468951E+01  0.4667933077280E+00
-0.7625374699110E-01 -0.3003320190911E+01 -0.1447399747143E+01  0.4337965758630E+00
 0.1693610408879E-01 -0.2986255278229E+01 -0.1395580008306E+01  0.4113257895307E+00
 0.9218142887471E-01 -0.2966311542782E+01 -0.1350841150110E+01  0.3988649306598E+00
 0.1509390228828E+00 -0.2944743361621E+01 -0.1313088035877E+01  0.3956310631359E+00
 0.1946227843158E+00 -0.2922413229048E+01 -0.1282061505772E+01  0.4006422649348E+00
 0.2246994265227E+00 -0.2899978285094E+01 -0.1257381060339E+01  0.4127821023284E+00
 0.2434164199158E+00 -0.2877838614540E+01 -0.1238178428333E+01  0.4307956728175E+00
 0.2545789933777E+00 -0.2856019198748E+01 -0.1222676893423E+01  0.4535342249802E+00
 0.2544491475516E+00 -0.2839544524972E+01 -0.1214994824306E+01  0.4824372083533E+00
 0.2500276824976E+00 -0.2827559557903E+01 -0.1211439978368E+01  0.5221255840932E+00
 0.2029354127267E+00 -0.2844106285763E+01 -0.1241350307178E+01  0.5772142039745E+00
-0.1796076230522E+01 -0.2734281355816E+01 -0.2129268060178E+01  0.1088403984972E+01
-0.1532369126215E+01 -0.2808645903570E+01 -0.2040277058824E+01  0.9892691604342E+00
-0.1270212291676E+01 -0.2873188450002E+01 -0.1947398343650E+01  0.8915568758215E+00
-0.1021550936532E+01 -0.2922657425889E+01 -0.1853777925636E+01  0.7975138411182E+00
-0.7936631571525E+00 -0.2954784107125E+01 -0.1761770209742E+01  0.7098057075561E+00
-0.5903011854438E+00 -0.2969077055287E+01 -0.1672907768900E+01  0.6302365737075E+00
-0.4133709654073E+00 -0.2967280700265E+01 -0.1588906278836E+01  0.5601349877769E+00
-0.2627509769288E+00 -0.2953475571713E+01 -0.1511626474028E+01  0.5011465623728E+00
-0.1364806523746E+00 -0.2931115163027E+01 -0.1441770029582E+01  0.4543568979728E+00
-0.3232197046375E-01 -0.2902769567825E+01 -0.1379493019497E+01  0.4198722307210E+00
 0.5166885346950E-01 -0.2870588892986E+01 -0.1324892415212E+01  0.3971814717651E+00
 0.1172289407004E+00 -0.2836413107908E+01 -0.1278016555346E+01  0.3854565361906E+00
 0.1662363387147E+00 -0.2801601378626E+01 -0.1238621565617E+01  0.3835849496839E+00
 0.2004715046443E+00 -0.2767141760859E+01 -0.1206335017361E+01  0.3903477274115E+00
 0.2216854545995E+00 -0.2733950441012E+01 -0.1180764540619E+01  0.4046242933364E+00
 0.2320441676764E+00 -0.2702865358404E+01 -0.1161285956696E+01  0.4255681797441E+00
 0.2342334557699E+00 -0.2674184478468E+01 -0.1146776977760E+01  0.4528248013126E+00
 0.2225192783502E+00 -0.2652457057601E+01 -0.1142070753351E+01  0.4892333072726E+00
 0.1877653839756E+00 -0.2647010185130E+01 -0.1155845053611E+01  0.5378606858899E+00
 0.1325341820158E+00 -0.2654264917174E+01 -0.1185213442518E+01  0.5931579854117E+00
-0.1755958421470E+01 -0.2730586046905E+01 -0.2108675894788E+01  0.1123202082905E+01
-0.1483367619942E+01 -0.2804576576733E+01 -0.2015333767325E+01  0.1019070154567E+01
-0.1212703879408E+01 -0.2865477307758E+01 -0.1916745153106E+01  0.9131407005656E+00
-0.9578415595812E+00 -0.2907374042895E+01 -0.1816651328556E+01  0.8095345602856E+00
-0.7269422377211E+00 -0.2927963087166E+01 -0.1717805498340E+01  0.7124167175026E+00
-0.5238166448129E+00 -0.2927172341943E+01 -0.1621964819661E+01  0.6244223176156E+00
-0.3503068938762E+00 -0.2907996677129E+01 -0.1531402674488E+01  0.5474732099493E+00
-0.2059231363960E+00 -0.2876038309809E+01 -0.1448521876042E+01  0.4837235741689E+00
-0.8778991246379E-01 -0.2835778410370E+01 -0.1374077108247E+01  0.4342503951938E+00
 0.7113674738529E-02 -0.2790389685308E+01 -0.1308139721650E+01  0.3988145759248E+00
 0.8124976654299E-01 -0.2742352900050E+01 -0.1250718469576E+01  0.3764955623147E+00
 0.1367306454672E+00 -0.2693697121582E+01 -0.1201774240726E+01  0.3660884472354E+00
 0.1757696409331E+00 -0.2645839590792E+01 -0.1160932873489E+01  0.3661656319958E+00
 0.2003057535601E+00 -0.2599785210470E+01 -0.1127755341887E+01  0.3753537446689E+00
 0.2119849627587E+00 -0.2556475024080E+01 -0.1101910326026E+01  0.3926043573708E+00
 0.2124421508828E+00 -0.2516637599188E+01 -0.1082971857957E+01  0.4172844969706E+00
 0.2037674165618E+00 -0.2479479144282E+01 -0.1069584509316E+01  0.4491129177330E+00
 0.1759814050611E+00 -0.2451379757385E+01 -0.1069437222880E+01  0.4904641149978E+00
 0.1270115740073E+00 -0.2439047240778E+01 -0.1086656760626E+01  0.5413867875792E+00
 0.6609462147384E-01 -0.2446871337733E+01 -0.1118965053804E+01  0.5958414659096E+00
-0.1716576700966E+01 -0.2730600438517E+01 -0.2090173250255E+01  0.1157171512267E+01
-0.1433458187870E+01 -0.2804262224959E+01 -0.1991728588978E+01  0.1046894571906E+01
-0.1153516353627E+01 -0.2860430254703E+01 -0.1886554901130E+01  0.9310031887227E+00
-0.8924725579353E+00 -0.2892709105508E+01 -0.1779035377306E+01  0.8160434709455E+00
-0.6592480569190E+00 -0.2899076388979E+01 -0.1672412485330E+01  0.7080424250640E+00
-0.4574944692417E+00 -0.2880270338546E+01 -0.1568749455681E+01  0.6106345739830E+00
-0.2888167136737E+00 -0.2841002896923E+01 -0.1471015213249E+01  0.5264912962348E+00
-0.1520745268876E+00 -0.2788700972014E+01 -0.1382164480978E+01  0.4582719889535E+00
-0.4322811016622E-01 -0.2728995214204E+01 -0.1302944959149E+01  0.4068073779726E+00
 0.4159324386413E-01 -0.2665667410685E+01 -0.1233314855278E+01  0.3712684751564E+00
 0.1053393270922E+00 -0.2601468101267E+01 -0.1173180520887E+01  0.3501694007354E+00
 0.1504268999144E+00 -0.2538503664931E+01 -0.1122396076711E+01  0.3418492079439E+00
 0.1792894672614E+00 -0.2478075764689E+01 -0.1080429557051E+01  0.3445290736658E+00
 0.1938599807751E+00 -0.2420959924918E+01 -0.1046736971092E+01  0.3566370862243E+00
 0.1955315544698E+00 -0.2367799262396E+01 -0.1020965820136E+01  0.3770445339255E+00
 0.1855946443371E+00 -0.2318760743452E+01 -0.1002588064041E+01  0.4049852793161E+00
 0.1653734444116E+00 -0.2272337293905E+01 -0.9902730067500E+00  0.4396859006855E+00
 0.1252009996599E+00 -0.2235095519586E+01 -0.9916504218502E+00  0.4826455000806E+00
 0.6618384247637E-01 -0.2217289080932E+01 -0.1011019459510E+01  0.5333088205623E+00
 0.3159500435205E-02 -0.2225711855192E+01 -0.1044599604086E+01  0.5870169462622E+00
-0.1678163992031E+01 -0.2735297251909E+01 -0.2074326779390E+01  0.1190499909094E+01
-0.1382402683280E+01 -0.2808601499635E+01 -0.1969771960974E+01  0.1072458951775E+01
-0.1092375522925E+01 -0.2858546991011E+01 -0.1856933576840E+01  0.9444674755306E+00
-0.8253460203119E+00 -0.2878606544413E+01 -0.1740857701005E+01  0.8161437341011E+00
-0.5907594357256E+00 -0.2867502810370E+01 -0.1625383251543E+01  0.6957963268351E+00
-0.3917817500056E+00 -0.2827300001879E+01 -0.1512968419549E+01  0.5882186661984E+00
-0.2295434293711E+00 -0.2765020270869E+01 -0.1407444935543E+01  0.4969455084965E+00
-0.1019022765284E+00 -0.2690259565351E+01 -0.1312316062355E+01  0.4250127282942E+00
-0.3410259765573E-02 -0.2609862752081E+01 -0.1228238312452E+01  0.3726556300974E+00
 0.7064908634010E-01 -0.2528139965699E+01 -0.1155020710369E+01  0.3381661003892E+00
 0.1236345101696E+00 -0.2447946585973E+01 -0.1092426672857E+01  0.3193200805415E+00
 0.1581801232433E+00 -0.2371256764802E+01 -0.1040146018894E+01  0.3138969710632E+00
 0.1768478774238E+00 -0.2299014424898E+01 -0.9974182747830E+00  0.3196872399574E+00
 0.1814865816514E+00 -0.2231519685055E+01 -0.9635155561556E+00  0.3348187289926E+00
 0.1732859257652E+00 -0.2168893895255E+01 -0.9379357432811E+00  0.3579184637194E+00
 0.1532925327954E+00 -0.2110762942072E+01 -0.9200110900266E+00  0.3878833747964E+00
 0.1229042131860E+00 -0.2054790728510E+01 -0.9079866598993E+00  0.4233368428293E+00
 0.7304787908489E-01 -0.2008826589694E+01 -0.9098159916785E+00  0.4653972496440E+00
 0.7960345236192E-02 -0.1985749975016E+01 -0.9295611236386E+00  0.5140507642852E+00
-0.5627352644400E-01 -0.1995382199745E+01 -0.9642781888632E+00  0.5666571409394E+00
-0.1640971551887E+01 -0.2745836979194E+01 -0.2061800004379E+01  0.1223401234791E+01
-0.1329926301188E+01 -0.2818626814619E+01 -0.1949819959484E+01  0.1095353649500E+01
-0.1029020701710E+01 -0.2860308584689E+01 -0.1827984759971E+01  0.9526741879702E+00
-0.7564498472484E+00 -0.2864816761971E+01 -0.1701995302016E+01  0.8087832143779E+00
-0.5217950772173E+00 -0.2832293615902E+01 -0.1576421681768E+01  0.6747338532061E+00
-0.3272854445618E+00 -0.2766830138208E+01 -0.1454234320213E+01  0.5566030124638E+00
-0.1732694840209E+00 -0.2678494503687E+01 -0.1340329070823E+01  0.4588148125653E+00
-0.5617608155542E-01 -0.2579378024550E+01 -0.1238710426728E+01  0.3844735621512E+00
 0.3104842963506E-01 -0.2477496877935E+01 -0.1149830767784E+01  0.3327429674142E+00
 0.9387950188684E-01 -0.2377479427486E+01 -0.1073291962310E+01  0.3007103730884E+00
 0.1359702210003E+00 -0.2282008314728E+01 -0.1008637901494E+01  0.2852361458590E+00
 0.1600886536107E+00 -0.2192643221726E+01 -0.9553006445913E+00  0.2834347094065E+00
 0.1688610740857E+00 -0.2109718625403E+01 -0.9122030468053E+00  0.2925901891016E+00
 0.1640363886413E+00 -0.2032869959878E+01 -0.8783517762536E+00  0.3104555516241E+00
 0.1466601307459E+00 -0.1961631376715E+01 -0.8530364834417E+00  0.3353344846813E+00
 0.1177764293007E+00 -0.1895096910854E+01 -0.8353406242114E+00  0.3657588087032E+00
 0.7897907038364E-01 -0.1830404633618E+01 -0.8231700126324E+00  0.3999228555181E+00
 0.2241858426976E-01 -0.1776466740539E+01 -0.8244026313556E+00  0.4389317414471E+00
-0.4585183065259E-01 -0.1748753783927E+01 -0.8434646367131E+00  0.4839576977662E+00
-0.1101524971466E+00 -0.1759391310134E+01 -0.8786855871930E+00  0.5345701167025E+00
-0.1605294580018E+01 -0.2763639578349E+01 -0.2053399049224E+01  0.1256115255802E+01
-0.1275721867074E+01 -0.2835527987740E+01 -0.1932287426862E+01  0.1115002957111E+01
-0.9632257723739E+00 -0.2866140618959E+01 -0.1799802199361E+01  0.9545364541078E+00
-0.6858862514887E+00 -0.2850813571179E+01 -0.1662248912438E+01  0.7927340684040E+00
-0.4528400976849E+00 -0.2792087971459E+01 -0.1525116188629E+01  0.6438775007842E+00
-0.2647814623323E+00 -0.2697023515251E+01 -0.1392048335933E+01  0.5153695575304E+00
-0.1208926079808E+00 -0.2579605060564E+01 -0.1269233900997E+01  0.4123862936662E+00
-0.1568848327936E-01 -0.2454655266000E+01 -0.1161061559216E+01  0.3375521776739E+00
 0.5959678381646E-01 -0.2331137980250E+01 -0.1067624359616E+01  0.2883598102195E+00
 0.1110171506000E+00 -0.2213620033144E+01 -0.9882233522893E+00  0.2603607613268E+00
 0.1423813001146E+00 -0.2104217721405E+01 -0.9220631156677E+00  0.2493509128786E+00
 0.1565150535860E+00 -0.2003749217705E+01 -0.8682000549339E+00  0.2517111250131E+00
 0.1560610108326E+00 -0.1911711734754E+01 -0.8251558381500E+00  0.2641932322714E+00
 0.1426643105381E+00 -0.1826963911295E+01 -0.7916208103480E+00  0.2841690221632E+00
 0.1173094435270E+00 -0.1748440515179E+01 -0.7666316017318E+00  0.3096326665335E+00
 0.8113913522839E-01 -0.1674800600823E+01 -0.7490208869299E+00  0.3388390330484E+00
 0.3604813383134E-01 -0.1602725373674E+01 -0.7363383008587E+00  0.3697676116467E+00
-0.2436430814074E-01 -0.1542022828276E+01 -0.7362019522485E+00  0.4037453160028E+00
-0.9307289045111E-01 -0.1510328975585E+01 -0.7535988751255E+00  0.4434363045082E+00
-0.1560308641882E+00 -0.1521610782398E+01 -0.7884915718956E+00  0.4907857561093E+00
-0.1571505262415E+01 -0.2790475192939E+01 -0.2050130808816E+01  0.1288902599718E+01
-0.1219463858871E+01 -0.2860688878774E+01 -0.1917671781829E+01  0.1130606349188E+01
-0.8948266933832E+00 -0.2876360674671E+01 -0.1772458058490E+01  0.9486815741404E+00
-0.6139048914837E+00 -0.2835680225380E+01 -0.1621305000814E+01  0.7665761316080E+00
-0.3845676288306E+00 -0.2745000607213E+01 -0.1470897067210E+01  0.6022629299717E+00
-0.2052088760109E+00 -0.2615590389178E+01 -0.1325775651276E+01  0.4643498999601E+00
-0.7338478614672E-01 -0.2466311361008E+01 -0.1193657186135E+01  0.3583553776142E+00
 0.1880915257735E-01 -0.2314745201492E+01 -0.1079089940253E+01  0.2855775271928E+00
 0.8181253052680E-01 -0.2170305430469E+01 -0.9815916604830E+00  0.2411488427582E+00
 0.1219826562479E+00 -0.2036906297185E+01 -0.9000141089578E+00  0.2188035445411E+00
 0.1431324784386E+00 -0.1915596784840E+01 -0.8330582218960E+00  0.2132001955438E+00
 0.1480752321975E+00 -0.1806115393581E+01 -0.7792788738736E+00  0.2199942264945E+00
 0.1394224066218E+00 -0.1706949751052E+01 -0.7367378500135E+00  0.2354571081862E+00
 0.1187180234707E+00 -0.1616139508524E+01 -0.7037880961899E+00  0.2566478963168E+00
 0.8694071222401E-01 -0.1532070067872E+01 -0.6792107954316E+00  0.2813347397069E+00
 0.4540206229040E-01 -0.1453040404730E+01 -0.6615900192685E+00  0.3076271831817E+00
-0.3719952891788E-02 -0.1375354109870E+01 -0.6481648078542E+00  0.3334914614094E+00
-0.6514764126770E-01 -0.1309430511157E+01 -0.6460517300009E+00  0.3605833226703E+00
-0.1315438186159E+00 -0.1274638163328E+01 -0.6609055298373E+00  0.3931976042968E+00
-0.1913796081798E+00 -0.1286179568070E+01 -0.6944528110760E+00  0.4358124609939E+00
-0.1540108616871E+01 -0.2828597271214E+01 -0.2053291762192E+01  0.1322033913275E+01
-0.1160833891321E+01 -0.2895736132562E+01 -0.1906587906389E+01  0.1141053884298E+01
-0.8237584958241E+00 -0.2891095253949E+01 -0.1745981257965E+01  0.9333742797744E+00
-0.5409365447522E+00 -0.2817943058713E+01 -0.1578673409625E+01  0.7286872463035E+00
-0.3178499297191E+00 -0.2688478106097E+01 -0.1412974173250E+01  0.5490160438042E+00
-0.1496459516151E+00 -0.2519761531813E+01 -0.1254621514029E+01  0.4037564554022E+00
-0.3173170231037E-01 -0.2336460187645E+01 -0.1113050185456E+01  0.2979402851410E+00
 0.4667948864442E-01 -0.2158546132078E+01 -0.9925773198964E+00  0.2303582137552E+00
 0.9746293460357E-01 -0.1994993547328E+01 -0.8918393857185E+00  0.1930840519274E+00
 0.1269241291350E+00 -0.1848236170764E+01 -0.8090166575136E+00  0.1778858852519E+00
 0.1387296755440E+00 -0.1717686842031E+01 -0.7421098663667E+00  0.1783442998286E+00
 0.1356120223407E+00 -0.1601712556683E+01 -0.6890672493932E+00  0.1895060806676E+00
 0.1201009606745E+00 -0.1497711620076E+01 -0.6474770082763E+00  0.2073000292311E+00
 0.9364034020944E-01 -0.1402949125274E+01 -0.6153751274193E+00  0.2286020529341E+00
 0.5724836510952E-01 -0.1315357727675E+01 -0.5913113989061E+00  0.2510751073426E+00
 0.1243418828714E-01 -0.1232974578369E+01 -0.5736539818833E+00  0.2728234959448E+00
-0.3838040478917E-01 -0.1151804510702E+01 -0.5593869088620E+00  0.2919652183136E+00
-0.9802771360847E-01 -0.1082586923669E+01 -0.5548888781129E+00  0.3105099259444E+00
-0.1593093758129E+00 -0.1045900536776E+01 -0.5664486574802E+00  0.3344124946216E+00
-0.2139151821069E+00 -0.1057467271500E+01 -0.5975497516796E+00  0.3707793711607E+00
-0.1511839106884E+01 -0.2880946254390E+01 -0.2064609114562E+01  0.1355768395417E+01
-0.1099566156056E+01 -0.2942604323555E+01 -0.1899820120599E+01  0.1144801757184E+01
-0.7501017919476E+00 -0.2910138717841E+01 -0.1720313035237E+01  0.9064145083306E+00
-0.4676207156344E+00 -0.2795322719507E+01 -0.1533583410627E+01  0.6772491380180E+00
-0.2537499550018E+00 -0.2619122510727E+01 -0.1350250055468E+01  0.4834787539956E+00
-0.9926276148318E-01 -0.2406312982853E+01 -0.1177620596851E+01  0.3343581312951E+00
 0.3145359784366E-02 -0.2187993338881E+01 -0.1026878547571E+01  0.2330013674968E+00
 0.6747452897083E-01 -0.1985473786943E+01 -0.9014596489607E+00  0.1741954105013E+00
 0.1065572422055E+00 -0.1805890647254E+01 -0.7986866983469E+00  0.1463953030121E+00
 0.1262447691576E+00 -0.1649164240342E+01 -0.7157721496410E+00  0.1394981911423E+00
 0.1299180247393E+00 -0.1512535596815E+01 -0.6498302572272E+00  0.1462522858659E+00
 0.1201599628429E+00 -0.1392842571586E+01 -0.5981608245922E+00  0.1613334328096E+00
 0.9936731072150E-01 -0.1286449624566E+01 -0.5579286860916E+00  0.1805359818737E+00
 0.6889232767386E-01 -0.1189983493290E+01 -0.5269128465032E+00  0.2007155240613E+00
 0.2983119703612E-01 -0.1101071525064E+01 -0.5034829528962E+00  0.2195601280257E+00
-0.1609802459881E-01 -0.1017610095311E+01 -0.4858428151252E+00  0.2352961569560E+00
-0.6627265612801E-01 -0.9354128418246E+00 -0.4707921828436E+00  0.2463220081884E+00
-0.1214490509829E+00 -0.8652449125662E+00 -0.4637461616919E+00  0.2549763228827E+00
-0.1748509554978E+00 -0.8282865205219E+00 -0.4714746125334E+00  0.2688098962343E+00
-0.2218519718669E+00 -0.8399368589501E+00 -0.4990407492182E+00  0.2975306580998E+00
-0.1487832660401E+01 -0.2951474468916E+01 -0.2086474345487E+01  0.1390312265914E+01
-0.1035526787198E+01 -0.3003620884787E+01 -0.1898399401018E+01  0.1139683107519E+01
-0.6741358383393E+00 -0.2932703981333E+01 -0.1695214710946E+01  0.8650000891816E+00
-0.3948119026285E+00 -0.2764355312059E+01 -0.1484808587137E+01  0.6102875217589E+00
-0.1934798785374E+00 -0.2532493226383E+01 -0.1281207356063E+01  0.4054117615659E+00
-0.5524909794757E-01 -0.2271705565757E+01 -0.1093668689167E+01  0.2577069186232E+00
 0.3047580802068E-01 -0.2019309891457E+01 -0.9347520168440E+00  0.1661402281724E+00
 0.8100313468938E-01 -0.1795817825213E+01 -0.8059629025017E+00  0.1198234389559E+00
 0.1093878592746E+00 -0.1604574465872E+01 -0.7027377033186E+00  0.1034130611071E+00
 0.1206191087740E+00 -0.1441913169378E+01 -0.6210082069086E+00  0.1054020327423E+00
 0.1176650249573E+00 -0.1302586652657E+01 -0.5569131636064E+00  0.1181657720777E+00
 0.1028939803966E+00 -0.1181976750988E+01 -0.5071689008915E+00  0.1363422837993E+00
 0.7853269710995E-01 -0.1075619479826E+01 -0.4686307866881E+00  0.1558287730451E+00
 0.4586905202027E-01 -0.9797152573503E+00 -0.4389077153919E+00  0.1736221024018E+00
 0.6114778842519E-02 -0.8917702477787E+00 -0.4162580693442E+00  0.1875541032814E+00
-0.3880455868371E-01 -0.8096849210871E+00 -0.3987900544808E+00  0.1960803030910E+00
-0.8610110964961E-01 -0.7292182241572E+00 -0.3832000859172E+00  0.1979789042706E+00
-0.1343400190582E+00 -0.6608800206419E+00 -0.3737534177111E+00  0.1958632938825E+00
-0.1772948247829E+00 -0.6257549351156E+00 -0.3774333861950E+00  0.1987217087391E+00
-0.2141596582444E+00 -0.6379743506641E+00 -0.4005029831712E+00  0.2186757302523E+00
-0.1469944528561E+01 -0.3045689297069E+01 -0.2122347892663E+01  0.1425737981698E+01
-0.9688519115459E+00 -0.3081610134329E+01 -0.1903717156733E+01  0.1122608892650E+01
-0.5963827292079E+00 -0.2956963543779E+01 -0.1670072744068E+01  0.8055428713784E+00
-0.3235321862870E+00 -0.2719809782587E+01 -0.1430370721743E+01  0.5257855791733E+00
-0.1383108646647E+00 -0.2422935412980E+01 -0.1203785747440E+01  0.3153179926767E+00
-0.1873215002583E-01 -0.2112459575224E+01 -0.1001660108327E+01  0.1764084759099E+00
 0.4971185294347E-01 -0.1829842176641E+01 -0.8366612500159E+00  0.1007245978954E+00
 0.8737915256286E-01 -0.1591133603375E+01 -0.7067645900893E+00  0.7022564346294E-01
 0.1065628081556E+00 -0.1393586541655E+01 -0.6049011532107E+00  0.6631784021424E-01
 0.1109955071986E+00 -0.1229232051417E+01 -0.5255711744495E+00  0.7702565241253E-01
 0.1031201462444E+00 -0.1090469112976E+01 -0.4640540131866E+00  0.9497970327708E-01
 0.8505443479332E-01 -0.9715626201045E+00 -0.4166588460395E+00  0.1151283228954E+00
 0.5886145787037E-01 -0.8675217286272E+00 -0.3800703262917E+00  0.1336798374442E+00
 0.2581491362862E-01 -0.7743675476602E+00 -0.3518197371025E+00  0.1479062015860E+00
-0.1272633793831E-01 -0.6896895059631E+00 -0.3301354457963E+00  0.1558825817008E+00
-0.5464770651983E-01 -0.6115577085579E+00 -0.3131165442924E+00  0.1563832428254E+00
-0.9702909499065E-01 -0.5358379483052E+00 -0.2974475095946E+00  0.1486459259107E+00
-0.1362430813202E+00 -0.4725318511007E+00 -0.2861242175121E+00  0.1354852142348E+00
-0.1666022476794E+00 -0.4418602330675E+00 -0.2859773652257E+00  0.1270733359600E+00
-0.1908209566292E+00 -0.4556737985042E+00 -0.3038525341420E+00  0.1375859706007E+00
-0.1461368510663E+01 -0.3171616078599E+01 -0.2177502751430E+01  0.1461822804239E+01
-0.9001859236948E+00 -0.3179995173848E+01 -0.1917685110981E+01  0.1089072772630E+01
-0.5175928050329E+00 -0.2979168448910E+01 -0.1643477785185E+01  0.7234294432207E+00
-0.2548018195227E+00 -0.2653793023307E+01 -0.1367039572662E+01  0.4219538174348E+00
-0.8943811483629E-01 -0.2283591211290E+01 -0.1115323780450E+01  0.2149488185928E+00
 0.9264952874826E-02 -0.1925973200194E+01 -0.9008528739553E+00  0.9439039023373E-01
 0.6054604601861E-01 -0.1620863817118E+01 -0.7333493505568E+00  0.4073648606075E-01
 0.8705956333642E-01 -0.1374499579593E+01 -0.6050968061059E+00  0.2826951551725E-01
 0.9903697903012E-01 -0.1176240006860E+01 -0.5062854217958E+00  0.3681669933170E-01
 0.9857648118658E-01 -0.1014070995875E+01 -0.4302824208121E+00  0.5528833691186E-01
 0.8753223722310E-01 -0.8787443634764E+00 -0.3718696983958E+00  0.7719053219321E-01
 0.6784820616841E-01 -0.7638544871810E+00 -0.3271229512462E+00  0.9802361714149E-01
 0.4148011352947E-01 -0.6641821559902E+00 -0.2926699592142E+00  0.1144487696703E+00
 0.9747518979971E-02 -0.5758146701633E+00 -0.2660515603813E+00  0.1241186283340E+00
-0.2583584732742E-01 -0.4966484843129E+00 -0.2455676352481E+00  0.1254390816558E+00
-0.6301232953267E-01 -0.4251094258973E+00 -0.2294172244702E+00  0.1175814657574E+00
-0.9876776343738E-01 -0.3573455625332E+00 -0.2143732626624E+00  0.1003093539498E+00
-0.1274262983461E+00 -0.3026376288675E+00 -0.2021300452777E+00  0.7654642712694E-01
-0.1437260021188E+00 -0.2795332543882E+00 -0.1989318500537E+00  0.5730932259855E-01
-0.1530747963955E+00 -0.2965738777913E+00 -0.2113348763318E+00  0.5831763924490E-01
-0.1467920898093E+01 -0.3341627287668E+01 -0.2260487641574E+01  0.1497712248736E+01
-0.8310980265179E+00 -0.3302815576502E+01 -0.1942939388491E+01  0.1032284517937E+01
-0.4384965069857E+00 -0.2991849308803E+01 -0.1612262529331E+01  0.6127409777837E+00
-0.1892440898361E+00 -0.2554451759542E+01 -0.1289537045937E+01  0.2978353068615E+00
-0.4787050786164E-01 -0.2107003335477E+01 -0.1012790703800E+01  0.1080632961075E+00
 0.2766553643218E-01 -0.1712125752954E+01 -0.7916962997573E+00  0.1701972726073E-01
 0.6288684325911E-01 -0.1396303109273E+01 -0.6267056434371E+00 -0.9719826602396E-02
 0.8091142235871E-01 -0.1150299738161E+01 -0.5026125071523E+00 -0.3846555569547E-02
 0.8816516526467E-01 -0.9560194705866E+00 -0.4078915224667E+00  0.1585379871118E-01
 0.8471943820737E-01 -0.7992008039374E+00 -0.3358062410414E+00  0.4055211096092E-01
 0.7212381048302E-01 -0.6697177652588E+00 -0.2808691580322E+00  0.6494185830559E-01
 0.5234248800489E-01 -0.5608186376686E+00 -0.2389837897358E+00  0.8514856837421E-01
 0.2730281695800E-01 -0.4672764735866E+00 -0.2067876180909E+00  0.9838586454413E-01
-0.1598319069906E-02 -0.3855062564136E+00 -0.1819391500158E+00  0.1027911521143E+00
-0.3272519318565E-01 -0.3139709248582E+00 -0.1629471750673E+00  0.9718526542910E-01
-0.6376314815582E-01 -0.2516614013231E+00 -0.1482495378791E+00  0.8120277305348E-01
-0.9164770179522E-01 -0.1951664000821E+00 -0.1348026275404E+00  0.5518351938105E-01
-0.1089623967532E+00 -0.1528802775407E+00 -0.1230660566060E+00  0.2204167734763E-01
-0.1107090031775E+00 -0.1408474606458E+00 -0.1182315376971E+00 -0.6762168331819E-02
-0.1036064644351E+00 -0.1633429212223E+00 -0.1254662109407E+00 -0.1456809065648E-01
-0.1501019236603E+01 -0.3576320972211E+01 -0.2386349892090E+01  0.1531157643184E+01
-0.7646875377405E+00 -0.3454222563509E+01 -0.1982887742558E+01  0.9415525084094E+00
-0.3589012468560E+00 -0.2980034125756E+01 -0.1569299621147E+01  0.4660438712932E+00
-0.1262130442700E+00 -0.2404263395910E+01 -0.1189323923868E+01  0.1546445580603E+00
-0.1488620917218E-01 -0.1887591590740E+01 -0.8941645636909E+00  0.1437105224187E-02
 0.3491017831765E-01 -0.1475721995449E+01 -0.6771815523342E+00 -0.4930437803255E-01
 0.5684987124551E-01 -0.1162878413577E+01 -0.5198334135774E+00 -0.4742034028049E-01
 0.7056201402351E-01 -0.9228822043249E+00 -0.4005904884256E+00 -0.2515614164234E-01
 0.7556577826922E-01 -0.7359363845760E+00 -0.3103741841770E+00  0.3580203988783E-02
 0.7076156844242E-01 -0.5869961112908E+00 -0.2426302345234E+00  0.3275258473083E-01
 0.5794796392064E-01 -0.4654079787753E+00 -0.1915062064960E+00  0.5813341284352E-01
 0.3938858423091E-01 -0.3641049085488E+00 -0.1526166720423E+00  0.7646434511074E-01
 0.1698866841680E-01 -0.2780730275953E+00 -0.1227096485027E+00  0.8565061058373E-01
-0.7800088142952E-02 -0.2043939120991E+00 -0.9973117986079E-01  0.8444145201017E-01
-0.3330900714273E-01 -0.1424224612948E+00 -0.8259378995614E-01  0.7214383686246E-01
-0.5727608917857E-01 -0.9190985774543E-01 -0.7011739487644E-01  0.4889494382920E-01
-0.7666611360875E-01 -0.5001888504291E-01 -0.5954194921526E-01  0.1563246104583E-01
-0.8275180375635E-01 -0.2408104858654E-01 -0.5021144047380E-01 -0.2490421240863E-01
-0.7069639341001E-01 -0.2681493159845E-01 -0.4583032263773E-01 -0.6122204403478E-01
-0.4660780316846E-01 -0.5741756147415E-01 -0.4889192125802E-01 -0.7632594027886E-01
-0.1584978957840E+01 -0.3913402596120E+01 -0.2584239323807E+01  0.1556672297933E+01
-0.7067211190129E+00 -0.3636479010384E+01 -0.2041304055639E+01  0.7989557641057E+00
-0.2737764189226E+00 -0.2911703381227E+01 -0.1497175502273E+01  0.2748159830418E+00
-0.6360360580297E-01 -0.2180393768807E+01 -0.1054678763392E+01 -0.1311448433651E-02
 0.6470120980940E-02 -0.1627690926866E+01 -0.7619737768332E+00 -0.9429042769442E-01
 0.2752574124142E-01 -0.1229661687324E+01 -0.5650038932255E+00 -0.9888304354091E-01
 0.4450589740525E-01 -0.9263634131850E+00 -0.4144730313652E+00 -0.7134501018639E-01
 0.5810297976461E-01 -0.6954202102530E+00 -0.2995390975698E+00 -0.3589600964334E-01
 0.6288494928454E-01 -0.5182522702071E+00 -0.2140226402907E+00 -0.3265105233371E-03
 0.5779583368841E-01 -0.3795661234668E+00 -0.1512320358123E+00  0.3162024869987E-01
 0.4579808903857E-01 -0.2676287061799E+00 -0.1042603897920E+00  0.5649752356864E-01
 0.2960073790768E-01 -0.1750113299139E+00 -0.6834297806958E-01  0.7177946908005E-01
 0.1094025226900E-01 -0.9734222787083E-01 -0.4060892842986E-01  0.7631176321048E-01
-0.8779571501726E-02 -0.3287909455766E-01 -0.1957957299825E-01  0.6957570569214E-01
-0.2790560505755E-01  0.1785682536198E-01 -0.4722926444937E-02  0.5139003653184E-01
-0.4445931375349E-01  0.5408723673540E-01  0.4525123790020E-02  0.2238859143365E-01
-0.5545740252466E-01  0.7811584777637E-01  0.1064946924130E-01 -0.1592780810256E-01
-0.5149929492558E-01  0.8376591674027E-01  0.1516531221444E-01 -0.6124435393510E-01
-0.2778935310035E-01  0.6273308179489E-01  0.1642355244478E-01 -0.1023962182055E+00
 0.1237670532994E-01  0.2131194292531E-01  0.1583366463981E-01 -0.1225158449010E+00
-0.1783219316067E+01 -0.4436434745251E+01 -0.2923237401405E+01  0.1559534807433E+01
-0.6599186877051E+00 -0.3833792865190E+01 -0.2112044424504E+01  0.5721404582985E+00
-0.1669892107122E+00 -0.2721288320717E+01 -0.1357490436329E+01  0.3266519273145E-01
 0.4519131097015E-02 -0.1858322677634E+01 -0.8712876646627E+00 -0.1523374064913E+00
-0.2177198914354E-02 -0.1360270244826E+01 -0.6403502969340E+00 -0.1662312528669E+00
 0.9225020808809E-02 -0.9819013038009E+00 -0.4571578518467E+00 -0.1305019842819E+00
 0.2850274913325E-01 -0.6900060169113E+00 -0.3109065350671E+00 -0.8247539183330E-01
 0.4591287083013E-01 -0.4694283775858E+00 -0.1990522876703E+00 -0.3678402173413E-01
 0.5142593921408E-01 -0.3049473948298E+00 -0.1191550838372E+00  0.3789805316672E-02
 0.4651133564063E-01 -0.1791352226672E+00 -0.6233322674441E-01  0.3679538090300E-01
 0.3621793685500E-01 -0.7799577726871E-01 -0.1963558494464E-01  0.5955193516326E-01
 0.2342408795625E-01  0.5698112117823E-02  0.1368743400010E-01  0.7071973676714E-01
 0.9255551248276E-02  0.7469100360643E-01  0.3945488068164E-01  0.7035918465581E-01
-0.4780662511086E-02  0.1292691807081E+00  0.5850960340419E-01  0.5870285218588E-01
-0.1730515984140E-01  0.1672969313279E+00  0.7049613241983E-01  0.3603819223212E-01
-0.2659234282955E-01  0.1870699343382E+00  0.7542446781777E-01  0.3460857901966E-02
-0.3033302211110E-01  0.1897846440787E+00  0.7494226213470E-01 -0.3710666492161E-01
-0.1847623212753E-01  0.1714126626555E+00  0.7188012216585E-01 -0.8423476858344E-01
 0.1316854256883E-01  0.1288901337787E+00  0.6676757771397E-01 -0.1272536994384E+00
 0.6707746222648E-01  0.7472236832030E-01  0.6664592018795E-01 -0.1496559774838E+00
-0.2260076249307E+01 -0.5343186053189E+01 -0.3573533273109E+01  0.1499570713854E+01
-0.6364556099528E+00 -0.3989807728066E+01 -0.2174343763354E+01  0.1925197729546E+00
 0.7767197176496E-01 -0.2197752786772E+01 -0.9964379805261E+00 -0.2446341219004E+00
-0.1052305024300E-01 -0.1550661332499E+01 -0.7337566580274E+00 -0.2599996595887E+00
-0.2741410204314E-01 -0.1094187716360E+01 -0.5271528533124E+00 -0.2128062750072E+00
-0.1726072156323E-01 -0.7365390074212E+00 -0.3542858717241E+00 -0.1467591038221E+00
 0.1251985432261E-01 -0.4534488899958E+00 -0.2072366462408E+00 -0.8228194665343E-01
 0.3620765223392E-01 -0.2455614906191E+00 -0.9839630379147E-01 -0.2812653466598E-01
 0.4172225648936E-01 -0.9893977559546E-01 -0.2689223391166E-01  0.1580401852936E-01
 0.3719831169908E-01  0.1174822149471E-01  0.2300487054273E-01  0.4763422949683E-01
 0.2971977070847E-01  0.1025116278220E+00  0.6214875715170E-01  0.6645622375365E-01
 0.2109515478713E-01  0.1779598178814E+00  0.9355583691691E-01  0.7274930808665E-01
 0.1182552817233E-01  0.2384938774148E+00  0.1176501203276E+00  0.6779083347480E-01
 0.3273397320236E-02  0.2824703087643E+00  0.1342995415191E+00  0.5232354320119E-01
-0.2284593043678E-02  0.3074853838519E+00  0.1434443713160E+00  0.2719325236431E-01
-0.5678111243298E-02  0.3081305694567E+00  0.1421526549998E+00 -0.6048765155578E-02
-0.3577077540517E-02  0.2865566290476E+00  0.1330003888710E+00 -0.4553147356181E-01
 0.1212237115966E-01  0.2391025621095E+00  0.1180757183370E+00 -0.9151765367872E-01
 0.4764532496659E-01  0.1736974663289E+00  0.1040311116450E+00 -0.1338652652310E+00
 0.1110727829813E+00  0.1057711481632E+00  0.1019166473794E+00 -0.1558038745264E+00
-0.4379951132638E+01 -0.7994651055977E+01 -0.5816063013897E+01  0.1104976769070E+01
 0.3437084420849E+00 -0.2715210820097E+01 -0.1114606114839E+01 -0.4596824357215E+00
 0.1315721636923E-01 -0.1812366678892E+01 -0.8456284452410E+00 -0.4170841401563E+00
-0.4296835375075E-01 -0.1247344097127E+01 -0.6064468503743E+00 -0.3224509621839E+00
-0.6806929984089E-01 -0.8371053964147E+00 -0.4254321061611E+00 -0.2407206736201E+00
-0.4828687571910E-01 -0.4934163041418E+00 -0.2546004938889E+00 -0.1509616852341E+00
 0.2255839472721E-02 -0.2111950220260E+00 -0.9820141555098E-01 -0.7127856587756E-01
 0.2960439053975E-01 -0.2732464207281E-01  0.1071481776743E-02 -0.9009639639167E-02
 0.3316366281915E-01  0.9469728562912E-01  0.6009464561826E-01  0.3527240320300E-01
 0.3059688346879E-01  0.1916108560824E+00  0.1044376373242E+00  0.6275306022808E-01
 0.2653932071961E-01  0.2737129205344E+00  0.1411185530315E+00  0.7602439780743E-01
 0.2278131922044E-01  0.3427628094594E+00  0.1718057400438E+00  0.7730455886913E-01
 0.1813690598603E-01  0.3949856610136E+00  0.1941676059973E+00  0.6876711873249E-01
 0.1442918818840E-01  0.4275686115809E+00  0.2077389653647E+00  0.5104453301903E-01
 0.1392375307469E-01  0.4384013949334E+00  0.2125928190246E+00  0.2538366013328E-01
 0.2057742967802E-01  0.4253482688090E+00  0.2095850777573E+00 -0.4207192879588E-02
 0.1841809095963E-01  0.3651781715390E+00  0.1802902429171E+00 -0.3780116336067E-01
 0.3705306913064E-01  0.2861440779715E+00  0.1519026587527E+00 -0.8175130045019E-01
 0.7260859921764E-01  0.2001889251522E+00  0.1282148361286E+00 -0.1222607962119E+00
 0.1394190756709E+00  0.1196477746896E+00  0.1217614193606E+00 -0.1409989283824E+00
 0.1491096465976E+00 -0.3174659823981E+01 -0.1422008579763E+01 -0.6017352986823E+00
 0.1626773332026E+00 -0.2923661638737E+01 -0.1297662620310E+01 -0.6177584584840E+00
 0.1092681724254E+00 -0.2730171582217E+01 -0.1231824599478E+01 -0.6323926338621E+00
 0.5239268969164E-01 -0.2524486643584E+01 -0.1161884155383E+01 -0.6386007790528E+00
-0.8203122413233E-02 -0.2307630007047E+01 -0.1088441568086E+01 -0.6342553042361E+00
-0.6767225953895E-01 -0.2080366728671E+01 -0.1009578321898E+01 -0.6182405611695E+00
-0.1229575597874E+00 -0.1845869383155E+01 -0.9253486608360E+00 -0.5897607606532E+00
-0.1708608305805E+00 -0.1607751773092E+01 -0.8359479216056E+00 -0.5484389576626E+00
-0.2083261097759E+00 -0.1370133967641E+01 -0.7418762345042E+00 -0.4944431295824E+00
-0.2325026292225E+00 -0.1137494496002E+01 -0.6438986472225E+00 -0.4286253596297E+00
-0.2409639150733E+00 -0.9145618969233E+00 -0.5430971302609E+00 -0.3526454317140E+00
-0.2319717302536E+00 -0.7061468177326E+00 -0.4409157164352E+00 -0.2690675797515E+00
-0.2047942287192E+00 -0.5169207189567E+00 -0.3392060245473E+00 -0.1814100552793E+00
-0.1600592964594E+00 -0.3511278974022E+00 -0.2402579805056E+00 -0.9411925562176E-01
-0.1001065063777E+00 -0.2122148225827E+00 -0.1467910242391E+00 -0.1242652066240E-01
-0.2926318189459E-01 -0.1023647259442E+00 -0.6186511652730E-01  0.5797425617493E-01
 0.4618690952781E-01 -0.2189366579486E-01  0.1141782452553E-01  0.1115195403057E+00
 0.1184132819691E+00  0.3115319233467E-01  0.7029624274445E-01  0.1436799463478E+00
 0.1798749457128E+00  0.6147506178921E-01  0.1134345032382E+00  0.1520600247972E+00
 0.2193760934110E+00  0.7046832956942E-01  0.1362268784553E+00  0.1358189756607E+00
 0.2060614937485E+00 -0.3244960586137E+01 -0.1428282569800E+01 -0.6171925938191E+00
 0.1671913723195E+00 -0.3087232315945E+01 -0.1372419240023E+01 -0.6377422143695E+00
 0.1253766513096E+00 -0.2889043675814E+01 -0.1298923498222E+01 -0.6548693297020E+00
 0.6590705706876E-01 -0.2690726678762E+01 -0.1233665219067E+01 -0.6684805770329E+00
 0.3334652047556E-02 -0.2480631253998E+01 -0.1164329399964E+01 -0.6728362265044E+00
-0.5967837153092E-01 -0.2259157967962E+01 -0.1089853076797E+01 -0.6657754410610E+00
-0.1195251198931E+00 -0.2027647508279E+01 -0.1009171132681E+01 -0.6458597431474E+00
-0.1729770411967E+00 -0.1789007332936E+01 -0.9221326535035E+00 -0.6122133644458E+00
-0.2166833544366E+00 -0.1546912093776E+01 -0.8288898585574E+00 -0.5644930978577E+00
-0.2473394351262E+00 -0.1305696737979E+01 -0.7299269995079E+00 -0.5030285179455E+00
-0.2618465290826E+00 -0.1070215163366E+01 -0.6260689938631E+00 -0.4289861249983E+00
-0.2575727165269E+00 -0.8456978192296E+00 -0.5185371504904E+00 -0.3445324669997E+00
-0.2326916697066E+00 -0.6375497363230E+00 -0.4090134597965E+00 -0.2529681698682E+00
-0.1866110975484E+00 -0.4510732590677E+00 -0.2997116468494E+00 -0.1588018055980E+00
-0.1204892533016E+00 -0.2910948925428E+00 -0.1934445480562E+00 -0.6771623266922E-01
-0.3779376729107E-01 -0.1614519539971E+00 -0.9364548876792E-01  0.1365320567970E-01
 0.5519826940519E-01 -0.6430714135358E-01 -0.4281169804887E-02  0.7826917839750E-01
 0.1496208433423E+00  0.9813462378694E-03  0.7078302892316E-01  0.1198141878657E+00
 0.2347171775727E+00  0.3817313675044E-01  0.1282584474066E+00  0.1343666635795E+00
 0.3054597679804E+00  0.5673882965904E-01  0.1702333404587E+00  0.1218489649043E+00
 0.2297216958820E+00 -0.3347531091240E+01 -0.1465370412101E+01 -0.6189644274160E+00
 0.1913592367287E+00 -0.3213716420450E+01 -0.1420507872746E+01 -0.6516991849814E+00
 0.1414757088394E+00 -0.3048928439220E+01 -0.1366502779813E+01 -0.6754115414318E+00
 0.8352404790372E-01 -0.2863456240421E+01 -0.1306568127169E+01 -0.6950807427591E+00
 0.1916071751575E-01 -0.2665390425826E+01 -0.1243727959751E+01 -0.7076557631032E+00
-0.4654291817622E-01 -0.2453845249047E+01 -0.1175182435614E+01 -0.7100492047964E+00
-0.1104263452402E+00 -0.2229880935999E+01 -0.1099944419392E+01 -0.7001533644095E+00
-0.1691020141570E+00 -0.1995380949985E+01 -0.1017306990567E+01 -0.6764619421356E+00
-0.2191061452206E+00 -0.1753258129630E+01 -0.9270112068285E+00 -0.6380144118889E+00
-0.2568222888304E+00 -0.1507261800533E+01 -0.8291195198977E+00 -0.5844726167216E+00
-0.2786155174916E+00 -0.1261916070507E+01 -0.7240498445228E+00 -0.5162890312604E+00
-0.2810330584783E+00 -0.1022428346048E+01 -0.6126268585734E+00 -0.4349128845892E+00
-0.2611096882516E+00 -0.7945535614193E+00 -0.4961617260869E+00 -0.3430057343725E+00
-0.2167986638043E+00 -0.5843780366963E+00 -0.3765530482802E+00 -0.2446361980459E+00
-0.1475663072764E+00 -0.3979967416343E+00 -0.2564146323376E+00 -0.1454112204983E+00
-0.5520408261429E-01 -0.2410592383479E+00 -0.1392437604990E+00 -0.5246983998479E-01
 0.5515602955583E-01 -0.1180917757770E+00 -0.2957980064891E-01  0.2581298858099E-01
 0.1739299964234E+00 -0.3149117015085E-01  0.6694624817830E-01  0.8076392178748E-01
 0.2881874770981E+00  0.2098833613951E-01  0.1453126318531E+00  0.1057028333742E+00
 0.3847995388975E+00  0.4696326897914E-01  0.2029285191873E+00  0.9988942699799E-01
 0.2527610498522E+00 -0.3455048900940E+01 -0.1505075286194E+01 -0.6140719204534E+00
 0.2121193279092E+00 -0.3341900014127E+01 -0.1470996918791E+01 -0.6565206354138E+00
 0.1622655087606E+00 -0.3200922202493E+01 -0.1428168642432E+01 -0.6889755091248E+00
 0.1032413576661E+00 -0.3038161066998E+01 -0.1379412259887E+01 -0.7159264960505E+00
 0.3853175303376E-01 -0.2857365979167E+01 -0.1324852082922E+01 -0.7365422858550E+00
-0.2904314602273E-01 -0.2660983098887E+01 -0.1264312331901E+01 -0.7484678428913E+00
-0.9605996893845E-01 -0.2449745980906E+01 -0.1196528793392E+01 -0.7493385898134E+00
-0.1592665276364E+00 -0.2224953679410E+01 -0.1120583494470E+01 -0.7371975669632E+00
-0.2151571690933E+00 -0.1988585357471E+01 -0.1035758984858E+01 -0.7105164374347E+00
-0.2599815343063E+00 -0.1743464684644E+01 -0.9416197205183E+00 -0.6682754696844E+00
-0.2897689775464E+00 -0.1493286243702E+01 -0.8380359518612E+00 -0.6101119428758E+00
-0.3004561374533E+00 -0.1242639854463E+01 -0.7252551143610E+00 -0.5365341924707E+00
-0.2881041406588E+00 -0.9969941821728E+00 -0.6039962101989E+00 -0.4491840001206E+00
-0.2492451149445E+00 -0.7626142432823E+00 -0.4755738971603E+00 -0.3511312409646E+00
-0.1814200331719E+00 -0.5463770718708E+00 -0.3420646385025E+00 -0.2471773696159E+00
-0.8401382317427E-01 -0.3554456648580E+00 -0.2065459588513E+00 -0.1441257620673E+00
 0.4038735611910E-01 -0.1967827776314E+00 -0.7350584792435E-01 -0.5092497550711E-01
 0.1838430042474E+00 -0.7637607961639E-01  0.5050945444848E-01  0.2158473095808E-01
 0.3302134274862E+00  0.2297096170568E-02  0.1562799457223E+00  0.6237895302539E-01
 0.4579030404293E+00  0.4374526640964E-01  0.2357747036163E+00  0.6577597180078E-01
 0.2759611845052E+00 -0.3564047951633E+01 -0.1545400776630E+01 -0.6037455387449E+00
 0.2339429750442E+00 -0.3468893032117E+01 -0.1520426522968E+01 -0.6532881734224E+00
 0.1840384522784E+00 -0.3350457857809E+01 -0.1488217116825E+01 -0.6936549223665E+00
 0.1256628341364E+00 -0.3210656619827E+01 -0.1449947075597E+01 -0.7281711416373E+00
 0.6089838767139E-01 -0.3051822825811E+01 -0.1405734482360E+01 -0.7568141752072E+00
-0.7504420459380E-02 -0.2875431523757E+01 -0.1354979890345E+01 -0.7780293856997E+00
-0.7670680120012E-01 -0.2682469736267E+01 -0.1296812969320E+01 -0.7897444339926E+00
-0.1435615234346E+00 -0.2473692399136E+01 -0.1230109340488E+01 -0.7898892418799E+00
-0.2046797127017E+00 -0.2250242417594E+01 -0.1153813398312E+01 -0.7766068569641E+00
-0.2563230798355E+00 -0.2013851523147E+01 -0.1066982060696E+01 -0.7483623923304E+00
-0.2944004642106E+00 -0.1766999629385E+01 -0.9688580415324E+00 -0.7040753507275E+00
-0.3145090616482E+00 -0.1513031635907E+01 -0.8589441256723E+00 -0.6433040207653E+00
-0.3120495844134E+00 -0.1256267470554E+01 -0.7371090139652E+00 -0.5664940944522E+00
-0.2824373391763E+00 -0.1002091313470E+01 -0.6037284652125E+00 -0.4752974954092E+00
-0.2214622235930E+00 -0.7569935334634E+00 -0.4598742046501E+00 -0.3729679681098E+00
-0.1259058244337E+00 -0.5285282062226E+00 -0.3075839936283E+00 -0.2648410239153E+00
 0.5350613656359E-02 -0.3251395893317E+00 -0.1503008181862E+00 -0.1589066868748E+00
 0.1690342378865E+00 -0.1559106746171E+00  0.6168074720975E-02 -0.6645417644549E-01
 0.3517927996348E+00 -0.3066474254850E-01  0.1509301864477E+00 -0.2462582524894E-02
 0.5217014511073E+00  0.4223082627925E-01  0.2650481696994E+00  0.1758937752155E-01
 0.2998437160763E+00 -0.3671952156455E+01 -0.1584890962958E+01 -0.5885749679798E+00
 0.2570665360780E+00 -0.3593490510455E+01 -0.1568119263980E+01 -0.6426211695846E+00
 0.2076270270815E+00 -0.3495833204805E+01 -0.1545456899610E+01 -0.6891988998752E+00
 0.1503049075851E+00 -0.3378929355311E+01 -0.1517453486582E+01 -0.7303753803392E+00
 0.8637733144291E-01 -0.3243554649079E+01 -0.1483873335525E+01 -0.7663500783979E+00
 0.1793998402414E-01 -0.3090483068876E+01 -0.1444095246218E+01 -0.7960921266415E+00
-0.5249274745962E-01 -0.2920207706473E+01 -0.1397169209805E+01 -0.8179448109305E+00
-0.1221097010366E+00 -0.2733120081413E+01 -0.1341957994347E+01 -0.8300203693601E+00
-0.1877341167180E+00 -0.2529699400413E+01 -0.1277193749812E+01 -0.8304272087685E+00
-0.2457909264385E+00 -0.2310747616431E+01 -0.1201573112101E+01 -0.8174077828342E+00
-0.2922552465095E+00 -0.2077537720719E+01 -0.1113802691772E+01 -0.7894534211600E+00
-0.3226391398461E+00 -0.1831946702932E+01 -0.1012655343537E+01 -0.7454421363552E+00
-0.3320161330092E+00 -0.1576587360929E+01 -0.8970436398758E+00 -0.6848230479713E+00
-0.3151014766519E+00 -0.1314955967022E+01 -0.7661269965833E+00 -0.6078676319480E+00
-0.2664129107417E+00 -0.1051598635685E+01 -0.6194654252493E+00 -0.5160127439962E+00
-0.1805568961933E+00 -0.7922879353052E+00 -0.4572370696446E+00 -0.4123362768937E+00
-0.5274976805705E-01 -0.5441951207563E+00 -0.2805640970306E+00 -0.3022462398022E+00
 0.1200971593059E+00 -0.3160429438085E+00 -0.9209451848261E-01 -0.1945755245034E+00
 0.3360425883932E+00 -0.1186145789030E+00  0.1021911642012E+00 -0.1036428636193E+00
 0.5704575957304E+00  0.2932847321476E-01  0.2818994516892E+00 -0.5276557584944E-01
 0.3239002587941E+00 -0.3777522729653E+01 -0.1623202557187E+01 -0.5689950361827E+00
 0.2812231280555E+00 -0.3714679070525E+01 -0.1613724288868E+01 -0.6252857797363E+00
 0.2326286357983E+00 -0.3636351302781E+01 -0.1599749649425E+01 -0.6760855086068E+00
 0.1767744340866E+00 -0.3541406186194E+01 -0.1581376919480E+01 -0.7224204265530E+00
 0.1142438956245E+00 -0.3429687863487E+01 -0.1558258660943E+01 -0.7644157759061E+00
 0.4656723017903E-01 -0.3301285104367E+01 -0.1529717396989E+01 -0.8013463988065E+00
-0.2421452016102E-01 -0.3156279720351E+01 -0.1494832289249E+01 -0.8319239194212E+00
-0.9565931871156E-01 -0.2994701159109E+01 -0.1452469420892E+01 -0.8545516214525E+00
-0.1649296587542E+00 -0.2816616368899E+01 -0.1401326629443E+01 -0.8675059236321E+00
-0.2287393585953E+00 -0.2622233733046E+01 -0.1339957349673E+01 -0.8690642272391E+00
-0.2832983569492E+00 -0.2412008928234E+01 -0.1266794420823E+01 -0.8576080155642E+00
-0.3242570471879E+00 -0.2186726614891E+01 -0.1180162318184E+01 -0.8317268106649E+00
-0.3466658868750E+00 -0.1947571568700E+01 -0.1078291601386E+01 -0.7903433777942E+00
-0.3449548782739E+00 -0.1696195942929E+01 -0.9593408835319E+00 -0.7328766102125E+00
-0.3129379998345E+00 -0.1434789296332E+01 -0.8214318271148E+00 -0.6594614183768E+00
-0.2438386308384E+00 -0.1166151641628E+01 -0.6626954263785E+00 -0.5712563139800E+00
-0.1302945556596E+00 -0.8937478702466E+00 -0.4812999389551E+00 -0.4709019124119E+00
 0.3580333252772E-01 -0.6216561832668E+00 -0.2753508391490E+00 -0.3632961492664E+00
 0.2643448526098E+00 -0.3538809321744E+00 -0.4208195728863E-01 -0.2572472215441E+00
 0.5664005403073E+00 -0.9359968879875E-01  0.2222163996454E+00 -0.1712233532635E+00
 0.3476954423348E+00 -0.3879625133353E+01 -0.1660006950568E+01 -0.5453108682459E+00
 0.3059139018167E+00 -0.3831506002779E+01 -0.1657028283250E+01 -0.6019668235838E+00
 0.2586318797892E+00 -0.3771092969620E+01 -0.1650856708033E+01 -0.6550338934241E+00
 0.2045900311103E+00 -0.3696825644457E+01 -0.1641350734110E+01 -0.7047759469514E+00
 0.1439315413299E+00 -0.3607997861157E+01 -0.1628111166189E+01 -0.7511388662008E+00
 0.7766573411893E-01 -0.3504255245139E+01 -0.1610497066095E+01 -0.7935449205522E+00
 0.7359445826740E-02 -0.3385352062096E+01 -0.1587656525619E+01 -0.8309789323174E+00
-0.6498694611317E-01 -0.3251075321169E+01 -0.1558549261670E+01 -0.8621249392791E+00
-0.1369512114859E+00 -0.3101251389698E+01 -0.1521955218696E+01 -0.8854899228055E+00
-0.2056522130755E+00 -0.2935798177670E+01 -0.1476481679906E+01 -0.8995065378705E+00
-0.2676848060535E+00 -0.2754784338782E+01 -0.1420560494470E+01 -0.9026230358048E+00
-0.3190440155419E+00 -0.2558483580200E+01 -0.1352437966568E+01 -0.8933927118493E+00
-0.3550424351838E+00 -0.2347413665945E+01 -0.1270154364309E+01 -0.8705747080751E+00
-0.3702240499276E+00 -0.2122356885413E+01 -0.1171513036639E+01 -0.8332567419533E+00
-0.3582710323023E+00 -0.1884355642772E+01 -0.1054034534612E+01 -0.7810094139530E+00
-0.3118867600316E+00 -0.1634671568316E+01 -0.9148824120029E+00 -0.7140823978477E+00
-0.2225870718546E+00 -0.1374678404026E+01 -0.7507147717596E+00 -0.6336545381111E+00
-0.8013359616262E-01 -0.1105590421017E+01 -0.5572902866609E+00 -0.5421577017687E+00
 0.1294415754444E+00 -0.8276500621074E+00 -0.3281579878993E+00 -0.4437094019869E+00
 0.4371380435935E+00 -0.5332789425124E+00 -0.4518622237728E-01 -0.3451875869325E+00
 0.3708124018652E+00 -0.3977304818214E+01 -0.1695051431385E+01 -0.5177694726718E+00
 0.3306380142093E+00 -0.3943064485046E+01 -0.1697840436987E+01 -0.5732871102574E+00
 0.2851428482953E+00 -0.3899219048608E+01 -0.1698615809839E+01 -0.6268601795747E+00
 0.2332589554767E+00 -0.3844148930841E+01 -0.1697118284117E+01 -0.6782540218764E+00
 0.1748658803701E+00 -0.3776902882522E+01 -0.1692957386718E+01 -0.7272279481881E+00
 0.1105590883952E+00 -0.3696872146409E+01 -0.1685567132991E+01 -0.7732582161942E+00
 0.4145396763569E-01 -0.3603608777116E+01 -0.1674212756209E+01 -0.8155104487084E+00
-0.3090652040155E-01 -0.3496743618946E+01 -0.1657995561288E+01 -0.8528912112060E+00
-0.1045691566134E+00 -0.3375970894907E+01 -0.1635853820065E+01 -0.8841173670649E+00
-0.1771386558363E+00 -0.3241069590049E+01 -0.1606557871491E+01 -0.9077855204463E+00
-0.2457161704099E+00 -0.3091944748554E+01 -0.1568700627934E+01 -0.9224401408834E+00
-0.3068160510917E+00 -0.2928674966637E+01 -0.1520680774475E+01 -0.9266453110133E+00
-0.3562654221146E+00 -0.2751559676067E+01 -0.1460677792441E+01 -0.9190674741937E+00
-0.3890865625614E+00 -0.2561161444611E+01 -0.1386616559854E+01 -0.8985772050290E+00
-0.3993600556069E+00 -0.2358340455872E+01 -0.1296119237108E+01 -0.8643777556192E+00
-0.3800618072589E+00 -0.2144278296267E+01 -0.1186439845648E+01 -0.8161657731327E+00
-0.3228622298908E+00 -0.1920496124198E+01 -0.1054378423748E+01 -0.7543204409562E+00
-0.2178332471241E+00 -0.1688881643434E+01 -0.8961559962893E+00 -0.6800767106444E+00
-0.5297696264082E-01 -0.1451887947847E+01 -0.7072865061354E+00 -0.5954913218367E+00
 0.1867767670564E+00 -0.1214000977691E+01 -0.4827953777739E+00 -0.5016717338115E+00
 0.3928782896529E+00 -0.4069760172365E+01 -0.1728134480492E+01 -0.4865934658176E+00
 0.3548747911169E+00 -0.4048602453685E+01 -0.1736051997004E+01 -0.5398098111102E+00
 0.3115885738294E+00 -0.4020071150027E+01 -0.1742986806392E+01 -0.5923959670883E+00
 0.2621579987069E+00 -0.3982698709229E+01 -0.1748654129510E+01 -0.6438300647559E+00
 0.2063313444705E+00 -0.3935483981024E+01 -0.1752701734735E+01 -0.6937258698348E+00
 0.1443936600240E+00 -0.3877714977195E+01 -0.1754661014620E+01 -0.7415703403694E+00
 0.7706843143326E-01 -0.3808843541179E+01 -0.1753934297132E+01 -0.7866435494258E+00
 0.5459920137350E-02 -0.3728419357488E+01 -0.1749790931116E+01 -0.8280159674185E+00
-0.6895754116849E-01 -0.3636067482433E+01 -0.1741361756676E+01 -0.8645745924651E+00
-0.1443135693012E+00 -0.3531496183129E+01 -0.1727630579260E+01 -0.8950587884896E+00
-0.2182871929651E+00 -0.3414523856404E+01 -0.1707421188873E+01 -0.9181000336068E+00
-0.2880289236359E+00 -0.3285118022900E+01 -0.1679379060612E+01 -0.9322659462368E+00
-0.3500607316079E+00 -0.3143441564390E+01 -0.1641946074954E+01 -0.9361119790570E+00
-0.4001533711561E+00 -0.2989904013511E+01 -0.1593326966752E+01 -0.9282457710400E+00
-0.4331794799653E+00 -0.2825217167938E+01 -0.1531446420630E+01 -0.9074098296278E+00
-0.4429453760137E+00 -0.2650458284007E+01 -0.1453899716522E+01 -0.8725876185466E+00
-0.4220164591700E+00 -0.2467149716916E+01 -0.1357908099316E+01 -0.8231334815532E+00
-0.3616549906457E+00 -0.2277428812820E+01 -0.1240369384483E+01 -0.7589112384877E+00
-0.2521871487117E+00 -0.2084453826998E+01 -0.1098221255798E+01 -0.6803526683900E+00
-0.8861172999019E-01 -0.1896023632288E+01 -0.9327786179047E+00 -0.5882876624087E+00
 0.4135763590531E+00 -0.4156324318605E+01 -0.1759091536528E+01 -0.4519853216357E+00
 0.3781647264205E+00 -0.4147470593759E+01 -0.1771573753156E+01 -0.5020281134346E+00
 0.3373998512048E+00 -0.4133107081949E+01 -0.1783982393925E+01 -0.5524136109952E+00
 0.2906281029432E+00 -0.4111998809733E+01 -0.1796044227636E+01 -0.6024870926299E+00
 0.2375458824362E+00 -0.4083213421108E+01 -0.1807463738592E+01 -0.6517736654501E+00
 0.1782186693122E+00 -0.4046037053928E+01 -0.1817874636159E+01 -0.6997599489230E+00
 0.1130482874888E+00 -0.3999899688492E+01 -0.1826820153838E+01 -0.7457996788684E+00
 0.4274721037828E-01 -0.3944328604142E+01 -0.1833743250418E+01 -0.7890820055392E+00
-0.3166393979240E-01 -0.3878929144198E+01 -0.1837978744814E+01 -0.8286286805658E+00
-0.1088343455200E+00 -0.3803386907839E+01 -0.1838743984415E+01 -0.8633036380798E+00
-0.1870387007338E+00 -0.3717486177884E+01 -0.1835126688296E+01 -0.8918278524980E+00
-0.2641119992329E+00 -0.3621140538388E+01 -0.1826068688050E+01 -0.9127972440672E+00
-0.3373631791495E+00 -0.3514433372992E+01 -0.1810344374915E+01 -0.9247040739528E+00
-0.4034656745564E+00 -0.3397667218875E+01 -0.1786532455381E+01 -0.9259639268731E+00
-0.4583225459721E+00 -0.3271422486150E+01 -0.1752980160651E+01 -0.9149517014164E+00
-0.4969048566732E+00 -0.3136626561135E+01 -0.1707759762038E+01 -0.8900515215417E+00
-0.5130768745363E+00 -0.2994640883755E+01 -0.1648627342216E+01 -0.8497285149026E+00
-0.4994257927467E+00 -0.2847352972977E+01 -0.1572986015900E+01 -0.7926405018773E+00
-0.4474057916879E+00 -0.2697409534173E+01 -0.1478063199406E+01 -0.7178619025058E+00
-0.3462106754569E+00 -0.2546838832202E+01 -0.1359733265151E+01 -0.6256968932483E+00
 0.4326103767204E+00 -0.4236396425177E+01 -0.1787779438240E+01 -0.4141371625368E+00
 0.3999713932116E+00 -0.4239108612304E+01 -0.1804394488397E+01 -0.4603596195218E+00
 0.3618416682719E+00 -0.4237897603330E+01 -0.1821746284857E+01 -0.5075825823649E+00
 0.3177467391405E+00 -0.4231777806112E+01 -0.1839594596811E+01 -0.5551255597963E+00
 0.2673710715082E+00 -0.4219942276044E+01 -0.1857708461420E+01 -0.6024777437567E+00
 0.2106267651736E+00 -0.4201734852069E+01 -0.1875820796083E+01 -0.6491305674471E+00
 0.1476608729282E+00 -0.4176612255497E+01 -0.1893607145004E+01 -0.6944888631387E+00
 0.7885218609977E-01 -0.4144115869309E+01 -0.1910673926262E+01 -0.7378274566290E+00
 0.4815944069328E-02 -0.4103858362180E+01 -0.1926549931626E+01 -0.7782716745250E+00
-0.7357777869746E-01 -0.4055524561760E+01 -0.1940678095093E+01 -0.8147893189205E+00
-0.1551705949249E+00 -0.3998884528937E+01 -0.1952405903263E+01 -0.8461874239127E+00
-0.2384666787877E+00 -0.3933817100101E+01 -0.1960973371104E+01 -0.8711104560798E+00
-0.3215667084615E+00 -0.3860342850311E+01 -0.1965497487638E+01 -0.8880385428022E+00
-0.4020823990516E+00 -0.3778666326790E+01 -0.1964951896162E+01 -0.8952855496820E+00
-0.4770274654186E+00 -0.3689227922888E+01 -0.1958140027538E+01 -0.8909979672963E+00
-0.5426798602701E+00 -0.3592766515290E+01 -0.1943659791583E+01 -0.8731573259495E+00
-0.5944016090567E+00 -0.3490387649206E+01 -0.1919850946514E+01 -0.8395927837279E+00
-0.6264045918130E+00 -0.3383636331459E+01 -0.1884719229158E+01 -0.7880208193306E+00
-0.6311842294583E+00 -0.3274370669667E+01 -0.1835610797933E+01 -0.7161658062714E+00
-0.5983196626962E+00 -0.3164506453992E+01 -0.1768528270358E+01 -0.6219565594849E+00
 0.4497723373088E+00 -0.4309356437591E+01 -0.1814004522532E+01 -0.3732472003225E+00
 0.4198714504404E+00 -0.4322835667431E+01 -0.1834393177333E+01 -0.4151417903621E+00
 0.3843261164073E+00 -0.4333758295508E+01 -0.1856233119469E+01 -0.4584250441517E+00
 0.3427839635066E+00 -0.4341378203637E+01 -0.1879339288095E+01 -0.5024588890381E+00
 0.2949281170651E+00 -0.4345034408317E+01 -0.1903549952060E+01 -0.5467384483249E+00
 0.2405587825230E+00 -0.4344158435689E+01 -0.1928691832096E+01 -0.5907725264125E+00
 0.1796207523474E+00 -0.4338260848495E+01 -0.1954560840232E+01 -0.6340087645369E+00
 0.1122132697863E+00 -0.4326917057922E+01 -0.1980910775399E+01 -0.6757887700072E+00
 0.3859882708450E-01 -0.4309759606506E+01 -0.2007445561236E+01 -0.7153207803540E+00
-0.4078229677887E-01 -0.4286478859050E+01 -0.2033812738081E+01 -0.7516613556752E+00
-0.1252890535064E+00 -0.4256832054360E+01 -0.2059596915473E+01 -0.7837006649714E+00
-0.2140468725754E+00 -0.4220660212645E+01 -0.2084312324767E+01 -0.8101479122854E+00
-0.3059038406290E+00 -0.4177912609666E+01 -0.2107393726294E+01 -0.8295145876541E+00
-0.3993736464013E+00 -0.4128678921511E+01 -0.2128184701521E+01 -0.8400938510189E+00
-0.4925615744028E+00 -0.4073229658392E+01 -0.2145921873971E+01 -0.8399347820926E+00
-0.5830661735030E+00 -0.4012065087704E+01 -0.2159711687290E+01 -0.8268108177882E+00
-0.6678454596250E+00 -0.3945974314091E+01 -0.2168495288146E+01 -0.7981825064403E+00
-0.7430036186669E+00 -0.3876088830681E+01 -0.2170973445687E+01 -0.7511549991823E+00
-0.8034761267703E+00 -0.3803973826125E+01 -0.2165501472368E+01 -0.6824098057149E+00
-0.8426786221480E+00 -0.3731884359409E+01 -0.2150044595879E+01 -0.5880400197774E+00
 0.4649435657189E+00 -0.4374595478083E+01 -0.1837536394151E+01 -0.3295513992468E+00
 0.4376149813709E+00 -0.4397894085547E+01 -0.1861331174242E+01 -0.3666949446682E+00
 0.4045024529520E+00 -0.4419814231248E+01 -0.1887196531012E+01 -0.4053956244732E+00
 0.3653199166387E+00 -0.4439820469908E+01 -0.1915015255179E+01 -0.4450945978461E+00
 0.3197427652798E+00 -0.4457398127865E+01 -0.1944698015483E+01 -0.4853235278052E+00
 0.2674824014097E+00 -0.4472077506838E+01 -0.1976159694539E+01 -0.5256238611172E+00
 0.2083193426396E+00 -0.4483435520680E+01 -0.2009304598583E+01 -0.5654881378174E+00
 0.1421184029484E+00 -0.4491091044443E+01 -0.2044017136318E+01 -0.6043191254166E+00
 0.6883833331101E-01 -0.4494701404137E+01 -0.2080155638012E+01 -0.6414005550545E+00
-0.1145803535415E-01 -0.4493962925409E+01 -0.2117547846188E+01 -0.6758741833155E+00
-0.9859041657973E-01 -0.4488616467360E+01 -0.2155987229983E+01 -0.7067192343549E+00
-0.1922432495141E+00 -0.4478458106281E+01 -0.2195229631656E+01 -0.7327312672422E+00
-0.2919427257431E+00 -0.4463354975313E+01 -0.2234989913828E+01 -0.7524980453924E+00
-0.3970277736601E+00 -0.4443266415377E+01 -0.2274938263077E+01 -0.7643700958669E+00
-0.5066131349409E+00 -0.4418270802006E+01 -0.2314695444494E+01 -0.7664233983530E+00
-0.6195411496289E+00 -0.4388599121495E+01 -0.2353825921458E+01 -0.7564110160713E+00
-0.7343150523965E+00 -0.4354676350670E+01 -0.2391825953375E+01 -0.7316993915302E+00
-0.8490162705500E+00 -0.4317184237128E+01 -0.2428114232450E+01 -0.6891809502457E+00
-0.9612311055557E+00 -0.4277170081268E+01 -0.2462048551562E+01 -0.6251470175620E+00
-0.1068037265032E+01 -0.4236218173171E+01 -0.2493000049632E+01 -0.5350984845146E+00
 0.4780483282631E+00 -0.4431561002680E+01 -0.1858150952263E+01 -0.2833329664194E+00
 0.4530404515714E+00 -0.4463572587849E+01 -0.1884950099270E+01 -0.3153657956277E+00
 0.4221361849060E+00 -0.4495212071004E+01 -0.1914345661611E+01 -0.3489523864713E+00
 0.3850730987745E+00 -0.4526117306334E+01 -0.1946290772616E+01 -0.3836276996080E+00
 0.3415076861285E+00 -0.4555906470125E+01 -0.1980767423454E+01 -0.4189801326050E+00
 0.2910749930467E+00 -0.4584206750897E+01 -0.2017771921072E+01 -0.4545986299204E+00
 0.2334190984358E+00 -0.4610663362667E+01 -0.2057304798971E+01 -0.4900287874434E+00
 0.1682081382293E+00 -0.4634940423859E+01 -0.2099364168921E+01 -0.5247384306208E+00
 0.9514226370160E-01 -0.4656719895688E+01 -0.2143941481596E+01 -0.5580901228753E+00
 0.1395908953387E-01 -0.4675701575721E+01 -0.2191018962951E+01 -0.5893176867255E+00
-0.7556118677669E-01 -0.4691605415699E+01 -0.2240568297481E+01 -0.6175041896755E+00
-0.1735902256948E+00 -0.4704176600991E+01 -0.2292550402728E+01 -0.6415592561864E+00
-0.2802456109089E+00 -0.4713193484038E+01 -0.2346916368672E+01 -0.6601937662338E+00
-0.3955850729579E+00 -0.4718478374980E+01 -0.2403609814434E+01 -0.6718898900792E+00
-0.5196016335716E+00 -0.4719911303712E+01 -0.2462571074277E+01 -0.6748638953700E+00
-0.6522202762965E+00 -0.4717447061064E+01 -0.2523743642158E+01 -0.6670181546415E+00
-0.7932971489635E+00 -0.4711136963604E+01 -0.2587084026345E+01 -0.6458771009838E+00
-0.9426253819832E+00 -0.4701158977876E+01 -0.2652578642406E+01 -0.6085014024124E+00
-0.1099962050520E+01 -0.4687861988838E+01 -0.2720277291599E+01 -0.5513787631292E+00
-0.1265110486006E+01 -0.4671828271400E+01 -0.2790361208904E+01 -0.4702972434255E+00
 0.4890329691411E+00 -0.4479773306251E+01 -0.1875647953684E+01 -0.2349171970790E+00
 0.4660351026059E+00 -0.4519249804573E+01 -0.1905010905093E+01 -0.2615363889461E+00
 0.4370567581502E+00 -0.4559196373371E+01 -0.1937405614240E+01 -0.2895761248459E+00
 0.4018327117135E+00 -0.4599385553430E+01 -0.1972849830603E+01 -0.3186664844440E+00
 0.3599916246845E+00 -0.4639547090134E+01 -0.2011391063660E+01 -0.3484642831979E+00
 0.3111006553197E+00 -0.4679394261748E+01 -0.2053097989814E+01 -0.3786185046565E+00
 0.2546898237212E+00 -0.4718634968574E+01 -0.2098054212760E+01 -0.4087384644693E+00
 0.1902639260303E+00 -0.4756974853833E+01 -0.2146354130623E+01 -0.4383664371986E+00
 0.1173073609543E+00 -0.4794117057838E+01 -0.2198100551960E+01 -0.4669540243858E+00
 0.3528505791101E-01 -0.4829761153878E+01 -0.2253403759389E+01 -0.4938408596906E+00
-0.5635892464968E-01 -0.4863602522346E+01 -0.2312381874223E+01 -0.5182342326509E+00
-0.1582047362859E+00 -0.4895332668210E+01 -0.2375162574089E+01 -0.5391883746988E+00
-0.2708625511462E+00 -0.4924640574102E+01 -0.2441886462673E+01 -0.5555822719410E+00
-0.3949823094842E+00 -0.4951214965676E+01 -0.2512712712952E+01 -0.5660948315933E+00
-0.5312698610816E+00 -0.4974747259040E+01 -0.2587828039894E+01 -0.5691759285202E+00
-0.6805131626162E+00 -0.4994934837166E+01 -0.2667460553132E+01 -0.5630111306347E+00
-0.8436235098924E+00 -0.5011484191917E+01 -0.2751900612871E+01 -0.5454767300458E+00
-0.1021689354943E+01 -0.5024107252277E+01 -0.2841524398186E+01 -0.5140800256181E+00
-0.1216034353681E+01 -0.5032506670448E+01 -0.2936814273892E+01 -0.4658831790393E+00
-0.1428281547027E+01 -0.5036357501365E+01 -0.3038380345038E+01 -0.3974253848074E+00
 0.4978588049240E+00 -0.4518829551072E+01 -0.1889856245896E+01 -0.1846630330870E+00
 0.4765179808067E+00 -0.4564406486189E+01 -0.1921307592657E+01 -0.2056210739045E+00
 0.4491373107706E+00 -0.4611132465155E+01 -0.1956137717599E+01 -0.2277712791422E+00
 0.4154362239891E+00 -0.4658879671350E+01 -0.1994418415201E+01 -0.2508341502315E+00
 0.3750121190681E+00 -0.4707465097445E+01 -0.2036252894672E+01 -0.2745406482864E+00
 0.3273730513718E+00 -0.4756672206962E+01 -0.2081770597847E+01 -0.2986093351666E+00
 0.2719556328572E+00 -0.4806261134858E+01 -0.2131123580535E+01 -0.3227239061387E+00
 0.2081328712467E+00 -0.4855971862253E+01 -0.2184484320232E+01 -0.3465125866929E+00
 0.1352154854008E+00 -0.4905523560250E+01 -0.2242044789492E+01 -0.3695293644670E+00
 0.5244894431235E-01 -0.4954612093630E+01 -0.2304016674336E+01 -0.3912364988561E+00
-0.4099258573434E-01 -0.5002906774642E+01 -0.2370632693364E+01 -0.4109876775357E+00
-0.1460150770923E+00 -0.5050046863328E+01 -0.2442149105803E+01 -0.4280113073031E+00
-0.2636167556891E+00 -0.5095637927721E+01 -0.2518849694814E+01 -0.4413936118930E+00
-0.3949049004704E+00 -0.5139247924851E+01 -0.2601051821304E+01 -0.4500614027775E+00
-0.5411199464248E+00 -0.5180402660993E+01 -0.2689115618666E+01 -0.4527645455126E+00
-0.7036714452962E+00 -0.5218580198291E+01 -0.2783458265426E+01 -0.4480581886893E+00
-0.8841919827986E+00 -0.5253202647279E+01 -0.2884575468820E+01 -0.4342844157296E+00
-0.1084621685166E+01 -0.5283626602340E+01 -0.2993076687537E+01 -0.4095510405275E+00
-0.1307296900027E+01 -0.5309101642151E+01 -0.3109707306936E+01 -0.3716953111639E+00
-0.1554987614652E+01 -0.5328682996831E+01 -0.3235325179191E+01 -0.3182217885972E+00
 0.5044987796205E+00 -0.4548405560746E+01 -0.1900636182309E+01 -0.1329550522666E+00
 0.4844310786408E+00 -0.4598628557836E+01 -0.1933672810317E+01 -0.1480602283567E+00
 0.4582839509387E+00 -0.4650513926494E+01 -0.1970348083513E+01 -0.1640617961413E+00
 0.4257590667507E+00 -0.4704003452647E+01 -0.2010774856271E+01 -0.1807647065814E+00
 0.3864250481486E+00 -0.4758977237217E+01 -0.2055099523650E+01 -0.1979763265502E+00
 0.3397421030749E+00 -0.4815270960197E+01 -0.2103498557512E+01 -0.2154914784136E+00
 0.2850746778126E+00 -0.4872684149140E+01 -0.2156176446055E+01 -0.2330773833730E+00
 0.2216955869372E+00 -0.4930982317009E+01 -0.2213364757520E+01 -0.2504593207343E+00
 0.1487842227911E+00 -0.4989895254742E+01 -0.2275322179246E+01 -0.2673071120921E+00
 0.6542062403555E-01 -0.5049112996182E+01 -0.2342335408968E+01 -0.2832222725253E+00
-0.2942352427809E-01 -0.5108280373586E+01 -0.2414720825872E+01 -0.2977256524817E+00
-0.1368964450714E+00 -0.5166990647264E+01 -0.2492826927075E+01 -0.3102455309350E+00
-0.2582803543739E+00 -0.5224778394191E+01 -0.2577037605289E+01 -0.3201063745204E+00
-0.3950085810502E+00 -0.5281111627976E+01 -0.2667776491476E+01 -0.3265188560707E+00
-0.5486869972084E+00 -0.5335382990676E+01 -0.2765512887291E+01 -0.3285722764629E+00
-0.7211222330817E+00 -0.5386899676601E+01 -0.2870770290270E+01 -0.3252313300024E+00
-0.9143629782003E+00 -0.5434872784311E+01 -0.2984140800811E+01 -0.3153401950871E+00
-0.1130764164549E+01 -0.5478404815711E+01 -0.3106309412843E+01 -0.2976378074395E+00
-0.1373143085109E+01 -0.5516510726511E+01 -0.3238137283248E+01 -0.2707855092179E+00
-0.1644921701406E+01 -0.5548033337446E+01 -0.3380688859686E+01 -0.2333549872805E+00
 0.5089350537560E+00 -0.4568257366655E+01 -0.1907881482223E+01 -0.8019639980635E-01
 0.4897331792022E+00 -0.4621608099696E+01 -0.1941981207706E+01 -0.8931303491680E-01
 0.4644277421286E+00 -0.4676965591224E+01 -0.1979892784053E+01 -0.9898519096577E-01
 0.4327066312253E+00 -0.4734315598605E+01 -0.2021756209540E+01 -0.1090975275390E+00
 0.3941169983271E+00 -0.4793578756437E+01 -0.2067747021067E+01 -0.1195344597519E+00
 0.3480853344068E+00 -0.4854624908931E+01 -0.2118073594654E+01 -0.1301713614020E+00
 0.2939267478916E+00 -0.4917279527791E+01 -0.2172975801041E+01 -0.1408658218228E+00
 0.2308464160751E+00 -0.4981324649508E+01 -0.2232724764050E+01 -0.1514491697830E+00
 0.1579355585124E+00 -0.5046496059146E+01 -0.2297623429470E+01 -0.1617183299155E+00
 0.7416354587633E-01 -0.5112477945577E+01 -0.2368007761853E+01 -0.1714279959263E+00
-0.2163272077951E-01 -0.5178895824509E+01 -0.2444248410086E+01 -0.1802831288146E+00
-0.1307613168035E+00 -0.5245308216841E+01 -0.2526752674404E+01 -0.1879319113901E+00
-0.2546889747886E+00 -0.5311197360152E+01 -0.2615966570787E+01 -0.1939595185637E+00
-0.3950552244413E+00 -0.5375959099259E+01 -0.2712376725260E+01 -0.1978834339928E+00
-0.5536861334721E+00 -0.5438892009142E+01 -0.2816511719885E+01 -0.1991516472316E+00
-0.7326067333660E+00 -0.5499185887493E+01 -0.2928942524375E+01 -0.1971460801300E+00
-0.9340508927291E+00 -0.5555909507609E+01 -0.3050281380422E+01 -0.1911955118511E+00
-0.1160473935875E+01 -0.5608002012830E+01 -0.3181183687823E+01 -0.1806061143828E+00
-0.1414566912715E+01 -0.5654260321442E+01 -0.3322348791627E+01 -0.1647298482736E+00
-0.1699698532723E+01 -0.5693616191513E+01 -0.3474857911577E+01 -0.1431195394235E+00
 0.5111564662452E+00 -0.4578223017263E+01 -0.1911521274130E+01 -0.2680283872219E-01
 0.4923946738969E+00 -0.4633144615496E+01 -0.1946152467615E+01 -0.2985058542659E-01
 0.4675175278487E+00 -0.4690246077836E+01 -0.1984682413460E+01 -0.3308653811961E-01
 0.4362063670930E+00 -0.4749534080977E+01 -0.2027264020383E+01 -0.3647248369854E-01
 0.3979970024375E+00 -0.4810949028368E+01 -0.2074087446927E+01 -0.3996992297160E-01
 0.3522985584348E+00 -0.4874377557633E+01 -0.2125377124233E+01 -0.4353709261976E-01
 0.2984011121956E+00 -0.4939657927164E+01 -0.2181390697502E+01 -0.4712608434653E-01
 0.2354757786908E+00 -0.5006580191754E+01 -0.2242419068452E+01 -0.5068003378853E-01
 0.1625695260463E+00 -0.5074882696116E+01 -0.2308787184077E+01 -0.5413039628579E-01
 0.7859631811497E-01 -0.5144245968469E+01 -0.2380855329628E+01 -0.5739431431333E-01
-0.1767419993632E-01 -0.5214284753290E+01 -0.2459020701779E+01 -0.6037209808847E-01
-0.1276293914063E+00 -0.5284538678970E+01 -0.2543718986625E+01 -0.6294489083253E-01
-0.2528265093148E+00 -0.5354461903287E+01 -0.2635425547238E+01 -0.6497268193763E-01
-0.3950041950284E+00 -0.5423411997510E+01 -0.2734655603557E+01 -0.6629298506997E-01
-0.5560902127944E+00 -0.5490638299080E+01 -0.2841962393373E+01 -0.6672075587454E-01
-0.7382014255451E+00 -0.5555269869610E+01 -0.2957931501221E+01 -0.6605059912977E-01
-0.9436289419757E+00 -0.5616303014500E+01 -0.3083168011724E+01 -0.6406322507044E-01
-0.1174791854517E+01 -0.5672585356114E+01 -0.3218267280834E+01 -0.6054085133794E-01
-0.1434125709013E+01 -0.5722791815366E+01 -0.3363751227926E+01 -0.5530194582311E-01
-0.1723621138914E+01 -0.5765229726531E+01 -0.3519759897832E+01 -0.4833649839284E-01
 0.5111564662591E+00 -0.4578223017296E+01 -0.1911521274139E+01  0.2680283855937E-01
 0.4923946739233E+00 -0.4633144615557E+01 -0.1946152467632E+01  0.2985058493876E-01
 0.4675175278880E+00 -0.4690246077933E+01 -0.1984682413487E+01  0.3308653727640E-01
 0.4362063671457E+00 -0.4749534081114E+01 -0.2027264020423E+01  0.3647248247214E-01
 0.3979970025036E+00 -0.4810949028552E+01 -0.2074087446982E+01  0.3996992133747E-01
 0.3522985585143E+00 -0.4874377557872E+01 -0.2125377124307E+01  0.4353709055710E-01
 0.2984011122877E+00 -0.4939657927464E+01 -0.2181390697600E+01  0.4712608183913E-01
 0.2354757787936E+00 -0.5006580192124E+01 -0.2242419068578E+01  0.5068003082595E-01
 0.1625695261564E+00 -0.5074882696566E+01 -0.2308787184237E+01  0.5413039286426E-01
 0.7859631822803E-01 -0.5144245969007E+01 -0.2380855329827E+01  0.5739431043768E-01
-0.1767419982628E-01 -0.5214284753925E+01 -0.2459020702026E+01  0.6037209377412E-01
-0.1276293913084E+00 -0.5284538679711E+01 -0.2543718986927E+01  0.6294488610803E-01
-0.2528265092403E+00 -0.5354461904141E+01 -0.2635425547605E+01  0.6497267684683E-01
-0.3950041949916E+00 -0.5423411998484E+01 -0.2734655603998E+01  0.6629297967526E-01
-0.5560902128127E+00 -0.5490638300180E+01 -0.2841962393898E+01  0.6672075026019E-01
-0.7382014256402E+00 -0.5555269870841E+01 -0.2957931501844E+01  0.6605059340429E-01
-0.9436289421702E+00 -0.5616303015864E+01 -0.3083168012456E+01  0.6406321936965E-01
-0.1174791854835E+01 -0.5672585357611E+01 -0.3218267281687E+01  0.6054084582622E-01
-0.1434125709470E+01 -0.5722791816990E+01 -0.3363751228904E+01  0.5530194069158E-01
-0.1723621139479E+01 -0.5765229728256E+01 -0.3519759898908E+01  0.4833649384770E-01
 0.5089350537982E+00 -0.4568257366753E+01 -0.1907881482250E+01  0.8019639964415E-01
 0.4897331792811E+00 -0.4621608099881E+01 -0.1941981207756E+01  0.8931303443059E-01
 0.4644277422461E+00 -0.4676965591512E+01 -0.1979892784133E+01  0.9898519012598E-01
 0.4327066313825E+00 -0.4734315599014E+01 -0.2021756209659E+01  0.1090975263188E+00
 0.3941169985247E+00 -0.4793578756988E+01 -0.2067747021233E+01  0.1195344581279E+00
 0.3480853346435E+00 -0.4854624909645E+01 -0.2118073594878E+01  0.1301713593546E+00
 0.2939267481650E+00 -0.4917279528690E+01 -0.2172975801335E+01  0.1408658193371E+00
 0.2308464163792E+00 -0.4981324650619E+01 -0.2232724764430E+01  0.1514491668495E+00
 0.1579355588381E+00 -0.5046496060495E+01 -0.2297623429951E+01  0.1617183265315E+00
 0.7416354621044E-01 -0.5112477947191E+01 -0.2368007762455E+01  0.1714279920971E+00
-0.2163272045560E-01 -0.5178895826413E+01 -0.2444248410829E+01  0.1802831245560E+00
-0.1307613165163E+00 -0.5245308219062E+01 -0.2526752675313E+01  0.1879319067304E+00
-0.2546889745717E+00 -0.5311197362713E+01 -0.2615966571889E+01  0.1939595135459E+00
-0.3950552243386E+00 -0.5375959102183E+01 -0.2712376726586E+01  0.1978834286780E+00
-0.5536861335372E+00 -0.5438892012447E+01 -0.2816511721469E+01  0.1991516417019E+00
-0.7326067336636E+00 -0.5499185891193E+01 -0.2928942526254E+01  0.1971460744920E+00
-0.9340508933320E+00 -0.5555909511710E+01 -0.3050281382633E+01  0.1911955062395E+00
-0.1160473936861E+01 -0.5608002017332E+01 -0.3181183690402E+01  0.1806061089642E+00
-0.1414566914152E+01 -0.5654260326333E+01 -0.3322348794601E+01  0.1647298432503E+00
-0.1699698534637E+01 -0.5693616196766E+01 -0.3474857914946E+01  0.1431195350428E+00
 0.5044987796908E+00 -0.4548405560909E+01 -0.1900636182352E+01  0.1329550521058E+00
 0.4844310787716E+00 -0.4598628558143E+01 -0.1933672810400E+01  0.1480602278739E+00
 0.4582839511328E+00 -0.4650513926972E+01 -0.1970348083647E+01  0.1640617953084E+00
 0.4257590670104E+00 -0.4704003453325E+01 -0.2010774856468E+01  0.1807647053738E+00
 0.3864250484740E+00 -0.4758977238130E+01 -0.2055099523926E+01  0.1979763249467E+00
 0.3397421034641E+00 -0.4815270961380E+01 -0.2103498557885E+01  0.2154914763971E+00
 0.2850746782613E+00 -0.4872684150632E+01 -0.2156176446545E+01  0.2330773809309E+00
 0.2216955874358E+00 -0.4930982318853E+01 -0.2213364758152E+01  0.2504593178593E+00
 0.1487842233251E+00 -0.4989895256980E+01 -0.2275322180047E+01  0.2673071087830E+00
 0.6542062458296E-01 -0.5049112998861E+01 -0.2342335409969E+01  0.2832222687892E+00
-0.2942352374919E-01 -0.5108280376749E+01 -0.2414720827110E+01  0.2977256483347E+00
-0.1368964446037E+00 -0.5166990650955E+01 -0.2492826928590E+01  0.3102455264051E+00
-0.2582803540243E+00 -0.5224778398451E+01 -0.2577037607127E+01  0.3201063696492E+00
-0.3950085808918E+00 -0.5281111632842E+01 -0.2667776493688E+01  0.3265188509169E+00
-0.5486869973325E+00 -0.5335382996180E+01 -0.2765512889936E+01  0.3285722711047E+00
-0.7211222335996E+00 -0.5386899682768E+01 -0.2870770293411E+01  0.3252313245424E+00
-0.9143629792432E+00 -0.5434872791154E+01 -0.2984140804518E+01  0.3153401896566E+00
-0.1130764166267E+01 -0.5478404823233E+01 -0.3106309417186E+01  0.2976378022054E+00
-0.1373143087665E+01 -0.5516510734699E+01 -0.3238137288298E+01  0.2707855043925E+00
-0.1644921704993E+01 -0.5548033346288E+01 -0.3380688865527E+01  0.2333549831382E+00
 0.4978588050237E+00 -0.4518829551296E+01 -0.1889856245955E+01  0.1846630329290E+00
 0.4765179809892E+00 -0.4564406486614E+01 -0.1921307592770E+01  0.2056210734280E+00
 0.4491373110401E+00 -0.4611132465816E+01 -0.1956137717783E+01  0.2277712783216E+00
 0.4154362243480E+00 -0.4658879672289E+01 -0.1994418415474E+01  0.2508341490453E+00
 0.3750121195170E+00 -0.4707465098708E+01 -0.2036252895055E+01  0.2745406467169E+00
 0.3273730519081E+00 -0.4756672208601E+01 -0.2081770598365E+01  0.2986093332005E+00
 0.2719556334747E+00 -0.4806261136927E+01 -0.2131123581217E+01  0.3227239037669E+00
 0.2081328719329E+00 -0.4855971864811E+01 -0.2184484321112E+01  0.3465125839115E+00
 0.1352154861355E+00 -0.4905523563358E+01 -0.2242044790608E+01  0.3695293612778E+00
 0.5244894506502E-01 -0.4954612097351E+01 -0.2304016675731E+01  0.3912364952682E+00
-0.4099258500680E-01 -0.5002906779038E+01 -0.2370632695088E+01  0.4109876735666E+00
-0.1460150764492E+00 -0.5050046868461E+01 -0.2442149107913E+01  0.4280113029806E+00
-0.2636167552099E+00 -0.5095637933650E+01 -0.2518849697375E+01  0.4413936072571E+00
-0.3949049002576E+00 -0.5139247931630E+01 -0.2601051824390E+01  0.4500613978832E+00
-0.5411199466085E+00 -0.5180402668670E+01 -0.2689115622360E+01  0.4527645404327E+00
-0.7036714460379E+00 -0.5218580206901E+01 -0.2783458269822E+01  0.4480581835185E+00
-0.8841919842962E+00 -0.5253202656846E+01 -0.2884575474020E+01  0.4342844105904E+00
-0.1084621687658E+01 -0.5283626612871E+01 -0.2993076693657E+01  0.4095510355780E+00
-0.1307296903800E+01 -0.5309101653629E+01 -0.3109707314104E+01  0.3716953066084E+00
-0.1554987620050E+01 -0.5328683009215E+01 -0.3235325187549E+01  0.3182217846994E+00
 0.4890329692705E+00 -0.4479773306535E+01 -0.1875647953757E+01  0.2349171969227E+00
 0.4660351028398E+00 -0.4519249805110E+01 -0.1905010905235E+01  0.2615363884753E+00
 0.4370567584935E+00 -0.4559196374206E+01 -0.1937405614471E+01  0.2895761240386E+00
 0.4018327121686E+00 -0.4599385554618E+01 -0.1972849830947E+01  0.3186664832832E+00
 0.3599916252524E+00 -0.4639547091733E+01 -0.2011391064144E+01  0.3484642816707E+00
 0.3111006559975E+00 -0.4679394263824E+01 -0.2053097990471E+01  0.3786185027546E+00
 0.2546898245008E+00 -0.4718634971197E+01 -0.2098054213626E+01  0.4087384621885E+00
 0.1902639268967E+00 -0.4756974857078E+01 -0.2146354131741E+01  0.4383664345395E+00
 0.1173073618829E+00 -0.4794117061784E+01 -0.2198100553378E+01  0.4669540213545E+00
 0.3528505886323E-01 -0.4829761158605E+01 -0.2253403761163E+01  0.4938408562996E+00
-0.5635892372829E-01 -0.4863602527935E+01 -0.2312381876417E+01  0.5182342289203E+00
-0.1582047354709E+00 -0.4895332674741E+01 -0.2375162576776E+01  0.5391883706575E+00
-0.2708625505379E+00 -0.4924640581654E+01 -0.2441886465936E+01  0.5555822676282E+00
-0.3949823092140E+00 -0.4951214974320E+01 -0.2512712716888E+01  0.5660948270606E+00
-0.5312698613185E+00 -0.4974747268839E+01 -0.2587828044611E+01  0.5691759238338E+00
-0.6805131635735E+00 -0.4994934848172E+01 -0.2667460558755E+01  0.5630111258791E+00
-0.8436235118378E+00 -0.5011484204164E+01 -0.2751900619541E+01  0.5454767253283E+00
-0.1021689358211E+01 -0.5024107265778E+01 -0.2841524406068E+01  0.5140800210755E+00
-0.1216034358686E+01 -0.5032506685181E+01 -0.2936814283169E+01  0.4658831748470E+00
-0.1428281554278E+01 -0.5036357517268E+01 -0.3038380355920E+01  0.3974253811904E+00
 0.4780483284231E+00 -0.4431561003022E+01 -0.1858150952348E+01  0.2833329662668E+00
 0.4530404518566E+00 -0.4463572588492E+01 -0.1884950099438E+01  0.3153657951663E+00
 0.4221361853211E+00 -0.4495212072004E+01 -0.1914345661886E+01  0.3489523856842E+00
 0.3850730993221E+00 -0.4526117307756E+01 -0.1946290773027E+01  0.3836276984838E+00
 0.3415076868098E+00 -0.4555906472042E+01 -0.1980767424035E+01  0.4189801311373E+00
 0.2910749938587E+00 -0.4584206753388E+01 -0.2017771921861E+01  0.4545986281070E+00
 0.2334190993697E+00 -0.4610663365819E+01 -0.2057304800013E+01  0.4900287852862E+00
 0.1682081392676E+00 -0.4634940427762E+01 -0.2099364170267E+01  0.5247384281268E+00
 0.9514226481482E-01 -0.4656719900436E+01 -0.2143941483304E+01  0.5580901200561E+00
 0.1395909067675E-01 -0.4675701581412E+01 -0.2191018965088E+01  0.5893176835988E+00
-0.7556118566928E-01 -0.4691605422432E+01 -0.2240568300125E+01  0.6175041862653E+00
-0.1735902247135E+00 -0.4704176608864E+01 -0.2292550405967E+01  0.6415592525242E+00
-0.2802456101744E+00 -0.4713193493145E+01 -0.2346916372608E+01  0.6601937623589E+00
-0.3955850726292E+00 -0.4718478385412E+01 -0.2403609819183E+01  0.6718898860398E+00
-0.5196016338540E+00 -0.4719911315549E+01 -0.2462571079973E+01  0.6748638912242E+00
-0.6522202774539E+00 -0.4717447074372E+01 -0.2523743648957E+01  0.6670181504589E+00
-0.7932971513316E+00 -0.4711136978432E+01 -0.2587084034427E+01  0.6458770968471E+00
-0.9426253859887E+00 -0.4701158994244E+01 -0.2652578651982E+01  0.6085013984207E+00
-0.1099962056703E+01 -0.4687862006730E+01 -0.2720277302914E+01  0.5513787594021E+00
-0.1265110495044E+01 -0.4671828290740E+01 -0.2790361222241E+01  0.4702972401116E+00
 0.4649435659108E+00 -0.4374595478476E+01 -0.1837536394245E+01  0.3295513990957E+00
 0.4376149817065E+00 -0.4397894086285E+01 -0.1861331174431E+01  0.3666949442145E+00
 0.4045024534356E+00 -0.4419814232396E+01 -0.1887196531325E+01  0.4053956237063E+00
 0.3653199172734E+00 -0.4439820471543E+01 -0.1915015255650E+01  0.4450945967620E+00
 0.3197427660679E+00 -0.4457398130072E+01 -0.1944698016149E+01  0.4853235264050E+00
 0.2674824023480E+00 -0.4472077509711E+01 -0.1976159695448E+01  0.5256238594062E+00
 0.2083193437189E+00 -0.4483435524318E+01 -0.2009304599785E+01  0.5654881358052E+00
 0.1421184041486E+00 -0.4491091048953E+01 -0.2044017137874E+01  0.6043191231177E+00
 0.6883833459829E-01 -0.4494701409628E+01 -0.2080155639988E+01  0.6414005524883E+00
-0.1145803403218E-01 -0.4493962931995E+01 -0.2117547848662E+01  0.6758741805070E+00
-0.9859041529845E-01 -0.4488616475156E+01 -0.2155987233045E+01  0.7067192313349E+00
-0.1922432483783E+00 -0.4478458115401E+01 -0.2195229635408E+01  0.7327312640472E+00
-0.2919427248923E+00 -0.4463354985870E+01 -0.2234989918390E+01  0.7524980420648E+00
-0.3970277732787E+00 -0.4443266427478E+01 -0.2274938268586E+01  0.7643700924541E+00
-0.5066131352675E+00 -0.4418270815750E+01 -0.2314695451107E+01  0.7664233949067E+00
-0.6195411509704E+00 -0.4388599136966E+01 -0.2353825929360E+01  0.7564110126461E+00
-0.7343150551456E+00 -0.4354676367935E+01 -0.2391825962781E+01  0.7316993881813E+00
-0.8490162752104E+00 -0.4317184256229E+01 -0.2428114243618E+01  0.6891809470254E+00
-0.9612311127745E+00 -0.4277170102212E+01 -0.2462048564799E+01  0.6251470145152E+00
-0.1068037275655E+01 -0.4236218195925E+01 -0.2493000065319E+01  0.5350984816760E+00
 0.4497723375317E+00 -0.4309356438034E+01 -0.1814004522635E+01  0.3732472001749E+00
 0.4198714508244E+00 -0.4322835668258E+01 -0.1834393177541E+01  0.4151417899205E+00
 0.3843261169547E+00 -0.4333758296795E+01 -0.1856233119817E+01  0.4584250434138E+00
 0.3427839642220E+00 -0.4341378205470E+01 -0.1879339288620E+01  0.5024588880087E+00
 0.2949281179507E+00 -0.4345034410795E+01 -0.1903549952809E+01  0.5467384470138E+00
 0.2405587835769E+00 -0.4344158438918E+01 -0.1928691833119E+01  0.5907725248338E+00
 0.1796207535591E+00 -0.4338260852590E+01 -0.1954560841587E+01  0.6340087627095E+00
 0.1122132711336E+00 -0.4326917063000E+01 -0.1980910777153E+01  0.6757887679548E+00
 0.3859882852826E-01 -0.4309759612692E+01 -0.2007445563465E+01  0.7153207781059E+00
-0.4078229529883E-01 -0.4286478866471E+01 -0.2033812740873E+01  0.7516613532659E+00
-0.1252890520756E+00 -0.4256832063145E+01 -0.2059596918930E+01  0.7837006624414E+00
-0.2140468713130E+00 -0.4220660222922E+01 -0.2084312329004E+01  0.8101479096792E+00
-0.3059038396921E+00 -0.4177912621560E+01 -0.2107393731443E+01  0.8295145850197E+00
-0.3993736459976E+00 -0.4128678935145E+01 -0.2128184707739E+01  0.8400938484051E+00
-0.4925615747985E+00 -0.4073229673878E+01 -0.2145921881435E+01  0.8399347795462E+00
-0.5830661750390E+00 -0.4012065105143E+01 -0.2159711696208E+01  0.8268108153481E+00
-0.6678454627335E+00 -0.3945974333566E+01 -0.2168495298761E+01  0.7981825041303E+00
-0.7430036238952E+00 -0.3876088852256E+01 -0.2170973458285E+01  0.7511549969994E+00
-0.8034761348248E+00 -0.3803973849845E+01 -0.2165501487302E+01  0.6824098036101E+00
-0.8426786339487E+00 -0.3731884385297E+01 -0.2150044613592E+01  0.5880400176285E+00
 0.4326103769757E+00 -0.4236396425661E+01 -0.1787779438347E+01  0.4141371623894E+00
 0.3999713936401E+00 -0.4239108613203E+01 -0.1804394488618E+01  0.4603596190898E+00
 0.3618416688760E+00 -0.4237897604730E+01 -0.1821746285231E+01  0.5075825816566E+00
 0.3177467399254E+00 -0.4231777808112E+01 -0.1839594597382E+01  0.5551255588266E+00
 0.2673710724782E+00 -0.4219942278754E+01 -0.1857708462238E+01  0.6024777425452E+00
 0.2106267663271E+00 -0.4201734855608E+01 -0.1875820797204E+01  0.6491305660179E+00
 0.1476608742534E+00 -0.4176612259990E+01 -0.1893607146493E+01  0.6944888615209E+00
 0.7885218757012E-01 -0.4144115874887E+01 -0.1910673928193E+01  0.7378274548579E+00
 0.4815945639773E-02 -0.4103858368977E+01 -0.1926549934082E+01  0.7782716726419E+00
-0.7357777709552E-01 -0.4055524569915E+01 -0.1940678098172E+01  0.8147893169728E+00
-0.1551705933895E+00 -0.3998884538589E+01 -0.1952405907078E+01  0.8461874219535E+00
-0.2384666774514E+00 -0.3933817111388E+01 -0.1960973375781E+01  0.8711104541660E+00
-0.3215667075003E+00 -0.3860342863371E+01 -0.1965497493324E+01  0.8880385409919E+00
-0.4020823986922E+00 -0.3778666341757E+01 -0.1964951903027E+01  0.8952855480302E+00
-0.4770274659497E+00 -0.3689227939889E+01 -0.1958140035778E+01  0.8909979658494E+00
-0.5426798620547E+00 -0.3592766534442E+01 -0.1943659801424E+01  0.8731573247360E+00
-0.5944016125449E+00 -0.3490387670614E+01 -0.1919850958215E+01  0.8395927827464E+00
-0.6264045975569E+00 -0.3383636355213E+01 -0.1884719243022E+01  0.7880208185320E+00
-0.6311842381146E+00 -0.3274370695837E+01 -0.1835610814302E+01  0.7161658055300E+00
-0.5983196751094E+00 -0.3164506482710E+01 -0.1768528289689E+01  0.6219565585373E+00
 0.4135763593384E+00 -0.4156324319125E+01 -0.1759091536638E+01  0.4519853214867E+00
 0.3781647268850E+00 -0.4147470594725E+01 -0.1771573753391E+01  0.5020281130140E+00
 0.3373998518516E+00 -0.4133107083457E+01 -0.1783982394330E+01  0.5524136103236E+00
 0.2906281037792E+00 -0.4111998811894E+01 -0.1796044228258E+01  0.6024870917335E+00
 0.2375458834671E+00 -0.4083213424044E+01 -0.1807463739487E+01  0.6517736643593E+00
 0.1782186705355E+00 -0.4046037057768E+01 -0.1817874637389E+01  0.6997599476726E+00
 0.1130482888895E+00 -0.3999899693372E+01 -0.1826820155473E+01  0.7457996774997E+00
 0.4274721192429E-01 -0.3944328610204E+01 -0.1833743252540E+01  0.7890820041004E+00
-0.3166393815505E-01 -0.3878929151583E+01 -0.1837978747515E+01  0.8286286791130E+00
-0.1088343438712E+00 -0.3803386916692E+01 -0.1838743987801E+01  0.8633036366760E+00
-0.1870386991849E+00 -0.3717486188352E+01 -0.1835126692488E+01  0.8918278512123E+00
-0.2641119979328E+00 -0.3621140550615E+01 -0.1826068693186E+01  0.9127972429718E+00
-0.3373631782904E+00 -0.3514433387120E+01 -0.1810344381151E+01  0.9247040731190E+00
-0.4034656743817E+00 -0.3397667235042E+01 -0.1786532462898E+01  0.9259639263654E+00
-0.4583225467854E+00 -0.3271422504488E+01 -0.1752980169652E+01  0.9149517012834E+00
-0.4969048588451E+00 -0.3136626581768E+01 -0.1707759772757E+01  0.8900515218040E+00
-0.5130768785135E+00 -0.2994640906798E+01 -0.1648627354915E+01  0.8497285155368E+00
-0.4994257990531E+00 -0.2847352998532E+01 -0.1572986030875E+01  0.7926405027957E+00
-0.4474058008864E+00 -0.2697409562309E+01 -0.1478063216953E+01  0.7178619035357E+00
-0.3462106879286E+00 -0.2546838862853E+01 -0.1359733285419E+01  0.6256968940979E+00
 0.3928782899606E+00 -0.4069760172923E+01 -0.1728134480609E+01  0.4865934656665E+00
 0.3548747915992E+00 -0.4048602454721E+01 -0.1736051997264E+01  0.5398098107074E+00
 0.3115885744910E+00 -0.4020071151651E+01 -0.1742986806845E+01  0.5923959664687E+00
 0.2621579995562E+00 -0.3982698711567E+01 -0.1748654130210E+01  0.6438300639577E+00
 0.2063313455122E+00 -0.3935483984211E+01 -0.1752701735743E+01  0.6937258688992E+00
 0.1443936612526E+00 -0.3877714981369E+01 -0.1754661016004E+01  0.7415703393431E+00
 0.7706843282805E-01 -0.3808843546485E+01 -0.1753934298970E+01  0.7866435483631E+00
 0.5459921657337E-02 -0.3728419364070E+01 -0.1749790933496E+01  0.8280159663820E+00
-0.6895753958822E-01 -0.3636067490439E+01 -0.1741361759696E+01  0.8645745915269E+00
-0.1443135677528E+00 -0.3531496192704E+01 -0.1727630583033E+01  0.8950587877295E+00
-0.2182871915736E+00 -0.3414523867692E+01 -0.1707421193524E+01  0.9181000331107E+00
-0.2880289225628E+00 -0.3285118036039E+01 -0.1679379066283E+01  0.9322659460922E+00
-0.3500607310557E+00 -0.3143441579513E+01 -0.1641946081803E+01  0.9361119793482E+00
-0.4001533713744E+00 -0.2989904030745E+01 -0.1593326974955E+01  0.9282457718396E+00
-0.4331794812529E+00 -0.2825217187398E+01 -0.1531446430382E+01  0.9074098309856E+00
-0.4429453787220E+00 -0.2650458305803E+01 -0.1453899728039E+01  0.8725876204759E+00
-0.4220164637054E+00 -0.2467149741153E+01 -0.1357908112839E+01  0.8231334840116E+00
-0.3616549974651E+00 -0.2277428839596E+01 -0.1240369400273E+01  0.7589112413580E+00
-0.2521871583404E+00 -0.2084453856422E+01 -0.1098221274153E+01  0.6803526714665E+00
-0.8861174280296E-01 -0.1896023664242E+01 -0.9327786389453E+00  0.5882876654772E+00
 0.3708124021874E+00 -0.3977304818809E+01 -0.1695051431513E+01  0.5177694725192E+00
 0.3306380146949E+00 -0.3943064486156E+01 -0.1697840437280E+01  0.5732871098829E+00
 0.2851428489493E+00 -0.3899219050360E+01 -0.1698615810355E+01  0.6268601790279E+00
 0.2332589563089E+00 -0.3844148933375E+01 -0.1697118284916E+01  0.6782540212072E+00
 0.1748658813829E+00 -0.3776902885981E+01 -0.1692957387867E+01  0.7272279474485E+00
 0.1105590895776E+00 -0.3696872150940E+01 -0.1685567134565E+01  0.7732582154423E+00
 0.4145396895884E-01 -0.3603608782864E+01 -0.1674212758289E+01  0.8155104480117E+00
-0.3090651898828E-01 -0.3496743626055E+01 -0.1657995563965E+01  0.8528912106424E+00
-0.1045691551856E+00 -0.3375970903519E+01 -0.1635853823442E+01  0.8841173667228E+00
-0.1771386544970E+00 -0.3241069600300E+01 -0.1606557875680E+01  0.9077855204223E+00
-0.2457161692926E+00 -0.3091944760572E+01 -0.1568700633058E+01  0.9224401412801E+00
-0.3068160503624E+00 -0.2928674980541E+01 -0.1520680780668E+01  0.9266453119342E+00
-0.3562654219749E+00 -0.2751559691968E+01 -0.1460677799848E+01  0.9190674757379E+00
-0.3890865632475E+00 -0.2561161462605E+01 -0.1386616568634E+01  0.8985772072826E+00
-0.3993600573857E+00 -0.2358340476046E+01 -0.1296119247425E+01  0.8643777586451E+00
-0.3800618104252E+00 -0.2144278318702E+01 -0.1186439857681E+01  0.8161657769582E+00
-0.3228622347578E+00 -0.1920496148979E+01 -0.1054378437682E+01  0.7543204455566E+00
-0.2178332540331E+00 -0.1688881670675E+01 -0.8961560123400E+00  0.6800767159248E+00
-0.5297697200035E-01 -0.1451887977728E+01 -0.7072865245785E+00  0.5954913276090E+00
 0.1867767539388E+00 -0.1214001010972E+01 -0.4827953995810E+00  0.5016717397706E+00
 0.3476954426610E+00 -0.3879625133984E+01 -0.1660006950712E+01  0.5453108680958E+00
 0.3059139022889E+00 -0.3831506003969E+01 -0.1657028283587E+01  0.6019668232537E+00
 0.2586318804145E+00 -0.3771092971512E+01 -0.1650856708629E+01  0.6550338929774E+00
 0.2045900318985E+00 -0.3696825647203E+01 -0.1641350735030E+01  0.7047759464480E+00
 0.1439315422795E+00 -0.3607997864906E+01 -0.1628111167505E+01  0.7511388657019E+00
 0.7766573521247E-01 -0.3504255250035E+01 -0.1610497067882E+01  0.7935449201272E+00
 0.7359447026435E-02 -0.3385352068277E+01 -0.1587656527961E+01  0.8309789320469E+00
-0.6498694486719E-01 -0.3251075328768E+01 -0.1558549264656E+01  0.8621249392556E+00
-0.1369512102771E+00 -0.3101251398837E+01 -0.1521955222424E+01  0.8854899231325E+00
-0.2056522120120E+00 -0.2935798188460E+01 -0.1476481684477E+01  0.8995065386603E+00
-0.2676848052696E+00 -0.2754784351317E+01 -0.1420560499993E+01  0.9026230371750E+00
-0.3190440151980E+00 -0.2558483594554E+01 -0.1352437973153E+01  0.8933927139178E+00
-0.3550424354625E+00 -0.2347413682172E+01 -0.1270154372067E+01  0.8705747109551E+00
-0.3702240510294E+00 -0.2122356903539E+01 -0.1171513045676E+01  0.8332567457448E+00
-0.3582710344329E+00 -0.1884355662793E+01 -0.1054034545023E+01  0.7810094187344E+00
-0.3118867633857E+00 -0.1634671590197E+01 -0.9148824238635E+00  0.7140824036639E+00
-0.2225870765926E+00 -0.1374678427701E+01 -0.7507147851141E+00  0.6336545449578E+00
-0.8013360237737E-01 -0.1105590446393E+01 -0.5572903015086E+00  0.5421577095649E+00
 0.1294415676858E+00 -0.8276500891371E+00 -0.3281580042498E+00  0.4437094105117E+00
 0.4371380343171E+00 -0.5332789712576E+00 -0.4518624024742E-01  0.3451875955450E+00
 0.3239002591121E+00 -0.3777522730318E+01 -0.1623202557350E+01  0.5689950360424E+00
 0.2812231284979E+00 -0.3714679071796E+01 -0.1613724289257E+01  0.6252857794709E+00
 0.2326286363764E+00 -0.3636351304820E+01 -0.1599749650111E+01  0.6760855082905E+00
 0.1767744348094E+00 -0.3541406189156E+01 -0.1581376920532E+01  0.7224204262520E+00
 0.1142438964854E+00 -0.3429687867515E+01 -0.1558258662432E+01  0.7644157756889E+00
 0.4656723115244E-01 -0.3301285109594E+01 -0.1529717398988E+01  0.8013463987520E+00
-0.2421451912094E-01 -0.3156279726894E+01 -0.1494832291836E+01  0.8319239196209E+00
-0.9565931767045E-01 -0.2994701167073E+01 -0.1452469424145E+01  0.8545516220106E+00
-0.1649296577986E+00 -0.2816616378366E+01 -0.1401326633443E+01  0.8675059246620E+00
-0.2287393578315E+00 -0.2622233744073E+01 -0.1339957354497E+01  0.8690642288604E+00
-0.2832983565041E+00 -0.2412008940847E+01 -0.1266794426542E+01  0.8576080178969E+00
-0.3242570472032E+00 -0.2186726629072E+01 -0.1180162324856E+01  0.8317268138233E+00
-0.3466658874997E+00 -0.1947571584374E+01 -0.1078291609046E+01  0.7903433818774E+00
-0.3449548796539E+00 -0.1696195959950E+01 -0.9593408921806E+00  0.7328766152927E+00
-0.3129380020907E+00 -0.1434789314462E+01 -0.8214318366962E+00  0.6594614244823E+00
-0.2438386340362E+00 -0.1166151660503E+01 -0.6626954367528E+00  0.5712563210727E+00
-0.1302945597573E+00 -0.8937478893375E+00 -0.4812999498538E+00  0.4709019203533E+00
 0.3580332776267E-01 -0.6216562018212E+00 -0.2753508501091E+00  0.3632961577643E+00
 0.2643448478641E+00 -0.3538809490748E+00 -0.4208196746229E-01  0.2572472300492E+00
 0.5664005377763E+00 -0.9359970210343E-01  0.2222163922026E+00  0.1712233607694E+00
 0.2998437163709E+00 -0.3671952157149E+01 -0.1584890963146E+01  0.5885749678609E+00
 0.2570665364751E+00 -0.3593490511807E+01 -0.1568119264429E+01  0.6426211694079E+00
 0.2076270275972E+00 -0.3495833206986E+01 -0.1545456900393E+01  0.6891988997189E+00
 0.1503049082261E+00 -0.3378929358471E+01 -0.1517453487766E+01  0.7303753802706E+00
 0.8637733219532E-01 -0.3243554653342E+01 -0.1483873337175E+01  0.7663500784894E+00
 0.1793998485462E-01 -0.3090483074345E+01 -0.1444095248398E+01  0.7960921269783E+00
-0.5249274660217E-01 -0.2920207713229E+01 -0.1397169212577E+01  0.8179448116103E+00
-0.1221097002205E+00 -0.2733120089511E+01 -0.1341957997770E+01  0.8300203704897E+00
-0.1877341160273E+00 -0.2529699409874E+01 -0.1277193753934E+01  0.8304272104588E+00
-0.2457909259727E+00 -0.2310747627231E+01 -0.1201573116958E+01  0.8174077851930E+00
-0.2922552463788E+00 -0.2077537732777E+01 -0.1113802697378E+01  0.7894534242845E+00
-0.3226391401652E+00 -0.1831946716097E+01 -0.1012655349875E+01  0.7454421403204E+00
-0.3320161338858E+00 -0.1576587374960E+01 -0.8970436468822E+00  0.6848230528156E+00
-0.3151014781689E+00 -0.1314955981569E+01 -0.7661270041338E+00  0.6078676376548E+00
-0.2664129129303E+00 -0.1051598650272E+01 -0.6194654331338E+00  0.5160127504702E+00
-0.1805568989898E+00 -0.7922879493028E+00 -0.4572370775378E+00  0.4123362839324E+00
-0.5274977123605E-01 -0.5441951333695E+00 -0.2805641044530E+00  0.3022462470637E+00
 0.1200971562742E+00 -0.3160429540524E+00 -0.9209452472220E-01  0.1945755314740E+00
 0.3360425866332E+00 -0.1186145855810E+00  0.1021911602353E+00  0.1036428696095E+00
 0.5704575977040E+00  0.2932847168024E-01  0.2818994518956E+00  0.5276558023013E-01
 0.2759611847607E+00 -0.3564047952351E+01 -0.1545400776848E+01  0.6037455386631E+00
 0.2339429753818E+00 -0.3468893033546E+01 -0.1520426523481E+01  0.6532881733584E+00
 0.1840384527189E+00 -0.3350457860118E+01 -0.1488217117703E+01  0.6936549223928E+00
 0.1256628346810E+00 -0.3210656623142E+01 -0.1449947076899E+01  0.7281711418161E+00
 0.6089838829772E-01 -0.3051822830221E+01 -0.1405734484138E+01  0.7568141756111E+00
-0.7504419791266E-02 -0.2875431529321E+01 -0.1354979892646E+01  0.7780293864149E+00
-0.7670680054371E-01 -0.2682469743015E+01 -0.1296812972183E+01  0.7897444351141E+00
-0.1435615228561E+00 -0.2473692407060E+01 -0.1230109343940E+01  0.7898892435042E+00
-0.2046797122795E+00 -0.2250242426637E+01 -0.1153813402364E+01  0.7766068591813E+00
-0.2563230796558E+00 -0.2013851533197E+01 -0.1066982065335E+01  0.7483623952151E+00
-0.2944004643621E+00 -0.1766999640256E+01 -0.9688580467132E+00  0.7040753543282E+00
-0.3145090622126E+00 -0.1513031647337E+01 -0.8589441313097E+00  0.6433040250911E+00
-0.3120495854508E+00 -0.1256267482194E+01 -0.7371090199234E+00  0.5664940994575E+00
-0.2824373407026E+00 -0.1002091324883E+01 -0.6037284712940E+00  0.4752975009770E+00
-0.2214622255484E+00 -0.7569935441355E+00 -0.4598742105850E+00  0.3729679740366E+00
-0.1259058266375E+00 -0.5285282155868E+00 -0.3075839990653E+00  0.2648410299000E+00
 0.5350611576570E-02 -0.3251395968102E+00 -0.1503008226786E+00  0.1589066925242E+00
 0.1690342365862E+00 -0.1559106797026E+00  0.6168071719624E-02  0.6645418131434E-01
 0.3517928001701E+00 -0.3066474492089E-01  0.1509301855843E+00  0.2462586255071E-02
 0.5217014541983E+00  0.4223082606064E-01  0.2650481710494E+00 -0.1758937479235E-01
 0.2527610500520E+00 -0.3455048901680E+01 -0.1505075286448E+01  0.6140719204268E+00
 0.2121193281794E+00 -0.3341900015623E+01 -0.1470996919368E+01  0.6565206354811E+00
 0.1622655091227E+00 -0.3200922204895E+01 -0.1428168643390E+01  0.6889755093403E+00
 0.1032413581090E+00 -0.3038161070389E+01 -0.1379412261273E+01  0.7159264964661E+00
 0.3853175352556E-01 -0.2857365983584E+01 -0.1324852084767E+01  0.7365422865404E+00
-0.2904314552537E-01 -0.2660983104338E+01 -0.1264312334229E+01  0.7484678439279E+00
-0.9605996848918E-01 -0.2449745987366E+01 -0.1196528796217E+01  0.7493385912828E+00
-0.1592665272971E+00 -0.2224953686810E+01 -0.1120583497788E+01  0.7371975689375E+00
-0.2151571689323E+00 -0.1988585365690E+01 -0.1035758988645E+01  0.7105164399686E+00
-0.2599815343936E+00 -0.1743464693500E+01 -0.9416197247215E+00  0.6682754728059E+00
-0.2897689779450E+00 -0.1493286252953E+01 -0.8380359563967E+00  0.6101119465767E+00
-0.3004561382077E+00 -0.1242639863809E+01 -0.7252551191082E+00  0.5365341966957E+00
-0.2881041417766E+00 -0.9969941912631E+00 -0.6039962149967E+00  0.4491840047584E+00
-0.2492451163732E+00 -0.7626142517344E+00 -0.4755739018043E+00  0.3511312458416E+00
-0.1814200347694E+00 -0.5463770792980E+00 -0.3420646427441E+00  0.2471773744969E+00
-0.8401382467285E-01 -0.3554456709083E+00 -0.2065459623993E+00  0.1441257666700E+00
 0.4038735514361E-01 -0.1967827820426E+00 -0.7350585045607E-01  0.5092497953869E-01
 0.1838430043816E+00 -0.7637608228356E-01  0.5050945325797E-01 -0.2158472772129E-01
 0.3302134292765E+00  0.2297095028082E-02  0.1562799460268E+00 -0.6237895058398E-01
 0.4579030440135E+00  0.4374526624463E-01  0.2357747052233E+00 -0.6577596979245E-01
 0.2297216960246E+00 -0.3347531091983E+01 -0.1465370412384E+01  0.6189644274600E+00
 0.1913592369455E+00 -0.3213716421976E+01 -0.1420507873361E+01  0.6516991851837E+00
 0.1414757091341E+00 -0.3048928441643E+01 -0.1366502780813E+01  0.6754115418157E+00
 0.8352404824995E-01 -0.2863456243757E+01 -0.1306568128574E+01  0.6950807433671E+00
 0.1916071787519E-01 -0.2665390430061E+01 -0.1243727961573E+01  0.7076557640044E+00
-0.4654291784946E-01 -0.2453845254149E+01 -0.1175182437858E+01  0.7100492060603E+00
-0.1104263449973E+00 -0.2229880941901E+01 -0.1099944422052E+01  0.7001533660943E+00
-0.1691020140536E+00 -0.1995380956578E+01 -0.1017306993616E+01  0.6764619442808E+00
-0.2191061453130E+00 -0.1753258136755E+01 -0.9270112102207E+00  0.6380144145091E+00
-0.2568222891687E+00 -0.1507261807987E+01 -0.8291195235602E+00  0.5844726198001E+00
-0.2786155181095E+00 -0.1261916078048E+01 -0.7240498483576E+00  0.5162890347427E+00
-0.2810330593789E+00 -0.1022428353405E+01 -0.6126268624548E+00  0.4349128883790E+00
-0.2611096893901E+00 -0.7945535683102E+00 -0.4961617298607E+00  0.3430057383300E+00
-0.2167986650687E+00 -0.5843780428478E+00 -0.3765530517657E+00  0.2446362019928E+00
-0.1475663084684E+00 -0.3979967468110E+00 -0.2564146353309E+00  0.1454112242313E+00
-0.5520408343647E-01 -0.2410592423835E+00 -0.1392437627822E+00  0.5246984330165E-01
 0.5515602948852E-01 -0.1180917786129E+00 -0.2957980201341E-01 -0.2581298583693E-01
 0.1739299975064E+00 -0.3149117188903E-01  0.6694624787038E-01 -0.8076391965987E-01
 0.2881874795828E+00  0.2098833522506E-01  0.1453126325911E+00 -0.1057028317258E+00
 0.3847995427192E+00  0.4696326854243E-01  0.2029285207783E+00 -0.9988942553797E-01
 0.2060614938526E+00 -0.3244960586869E+01 -0.1428282570095E+01  0.6171925939517E+00
 0.1671913724849E+00 -0.3087232317506E+01 -0.1372419240679E+01  0.6377422146933E+00
 0.1253766515238E+00 -0.2889043678206E+01 -0.1298923499246E+01  0.6548693302064E+00
 0.6590705730401E-01 -0.2690726681922E+01 -0.1233665220441E+01  0.6684805777756E+00
 0.3334652259264E-02 -0.2480631257899E+01 -0.1164329401697E+01  0.6728362275476E+00
-0.5967837138717E-01 -0.2259157972546E+01 -0.1089853078884E+01  0.6657754424517E+00
-0.1195251198642E+00 -0.2027647513456E+01 -0.1009171135101E+01  0.6458597449139E+00
-0.1729770413288E+00 -0.1789007338574E+01 -0.9221326562156E+00  0.6122133665936E+00
-0.2166833547690E+00 -0.1546912099711E+01 -0.8288898615033E+00  0.5644931003659E+00
-0.2473394356845E+00 -0.1305696744020E+01 -0.7299270026097E+00  0.5030285207633E+00
-0.2618465298679E+00 -0.1070215169306E+01 -0.6260689970240E+00  0.4289861280439E+00
-0.2575727175032E+00 -0.8456978248582E+00 -0.5185371535947E+00  0.3445324701615E+00
-0.2326916707872E+00 -0.6375497414436E+00 -0.4090134627111E+00  0.2529681730101E+00
-0.1866110985850E+00 -0.4510732635162E+00 -0.2997116494274E+00  0.1588018085708E+00
-0.1204892540793E+00 -0.2910948962083E+00 -0.1934445501445E+00  0.6771623532867E-01
-0.3779376753773E-01 -0.1614519568428E+00 -0.9364549022135E-01 -0.1365320344706E-01
 0.5519826998117E-01 -0.6430714343823E-01 -0.4281170513960E-02 -0.7826917664036E-01
 0.1496208449795E+00  0.9813447577136E-03  0.7078302899695E-01 -0.1198141865349E+00
 0.2347171803566E+00  0.3817313566227E-01  0.1282584482035E+00 -0.1343666625239E+00
 0.3054597718170E+00  0.5673882883803E-01  0.1702333418761E+00 -0.1218489639261E+00
 0.1491096466485E+00 -0.3174659824804E+01 -0.1422008580126E+01  0.6017352989039E+00
 0.1626773332601E+00 -0.2923661640361E+01 -0.1297662621046E+01  0.6177584588489E+00
 0.1092681725292E+00 -0.2730171584445E+01 -0.1231824600476E+01  0.6323926344342E+00
 0.5239268978644E-01 -0.2524486646417E+01 -0.1161884156670E+01  0.6386007798786E+00
-0.8203122373747E-02 -0.2307630010446E+01 -0.1088441569665E+01  0.6342553053478E+00
-0.6767225959911E-01 -0.2080366732562E+01 -0.1009578323755E+01  0.6182405625848E+00
-0.1229575599869E+00 -0.1845869387433E+01 -0.9253486629405E+00  0.5897607623704E+00
-0.1708608309503E+00 -0.1607751777627E+01 -0.8359479239112E+00  0.5484389596583E+00
-0.2083261103346E+00 -0.1370133972289E+01 -0.7418762369513E+00  0.4944431318094E+00
-0.2325026299690E+00 -0.1137494500610E+01 -0.6438986497391E+00  0.4286253620175E+00
-0.2409639159767E+00 -0.9145619013416E+00 -0.5430971327621E+00  0.3526454341715E+00
-0.2319717312463E+00 -0.7061468218271E+00 -0.4409157188262E+00  0.2690675821724E+00
-0.2047942296891E+00 -0.5169207226200E+00 -0.3392060267249E+00  0.1814100575513E+00
-0.1600592972492E+00 -0.3511279005675E+00 -0.2402579823645E+00  0.9411925763958E-01
-0.1001065067911E+00 -0.2122148252340E+00 -0.1467910256795E+00  0.1242652234434E-01
-0.2926318171731E-01 -0.1023647281244E+00 -0.6186511746869E-01 -0.5797425486838E-01
 0.4618691049046E-01 -0.2189366760270E-01  0.1141782412829E-01 -0.1115195393549E+00
 0.1184132838368E+00  0.3115319076841E-01  0.7029624288617E-01 -0.1436799456688E+00
 0.1798749484951E+00  0.6147506036870E-01  0.1134345038783E+00 -0.1520600242628E+00
 0.2193760969463E+00  0.7046832828953E-01  0.1362268795153E+00 -0.1358189751565E+00
</DataArray>
<DataArray type="Float64" Name="S_Mises" NumberOfComponents="1" ComponentName0="S_Mises" format="ascii">
 0.4043345023122E+01
 0.3549957421575E+01
 0.3191700598016E+01
 0.3066726724045E+01
 0.2988871656677E+01
 0.2948887193271E+01
 0.2929338313307E+01
 0.2924097459634E+01
 0.2928973108581E+01
 0.2941630414964E+01
 0.2960629458322E+01
 0.2985153944231E+01
 0.3014806781815E+01
 0.3049506145788E+01
 0.3089421362208E+01
 0.3134937383360E+01
 0.3186638105048E+01
 0.3245304472338E+01
 0.3311933165798E+01
 0.3387780494892E+01
 0.3474456979750E+01
 0.3574155298762E+01
 0.3690214867897E+01
 0.3827387156378E+01
 0.3987445967899E+01
 0.4166740177643E+01
 0.4360236251640E+01
 0.4564481819778E+01
 0.4778409605093E+01
 0.5002895939897E+01
 0.5239747822069E+01
 0.5490481741235E+01
 0.5754808216971E+01
 0.6035429651421E+01
 0.6348275121364E+01
 0.6715154618833E+01
 0.7187311543599E+01
 0.7745869026599E+01
 0.8921693588765E+01
 0.8874166959272E+01
 0.1702654772459E+02
 0.3460600821271E+01
 0.3544005940519E+01
 0.3279269466170E+01
 0.3124829925441E+01
 0.3044001458637E+01
 0.2995563705184E+01
 0.2970170633527E+01
 0.2959801552247E+01
 0.2960427400492E+01
 0.2969446479611E+01
 0.2985293326233E+01
 0.3007030163627E+01
 0.3034163425103E+01
 0.3066525692446E+01
 0.3104207750093E+01
 0.3147518250298E+01
 0.3196963290166E+01
 0.3253240870847E+01
 0.3317253772437E+01
 0.3390144261990E+01
 0.3473367853647E+01
 0.3568832212836E+01
 0.3678810207097E+01
 0.3805200122036E+01
 0.3948272748321E+01
 0.4106176902417E+01
 0.4275981028928E+01
 0.4455123885833E+01
 0.4642111862692E+01
 0.4836392362328E+01
 0.5037720630097E+01
 0.5245646237791E+01
 0.5460057448892E+01
 0.5682948516133E+01
 0.5918248107745E+01
 0.6174931218884E+01
 0.6442608013600E+01
 0.6761496954513E+01
 0.6885020150455E+01
 0.5928241652378E+01
 0.1111304239555E+02
 0.3153588549585E+01
 0.3381285036025E+01
 0.3297138249886E+01
 0.3162731729003E+01
 0.3082811866269E+01
 0.3033233401489E+01
 0.3004540772006E+01
 0.2990887025063E+01
 0.2988299909017E+01
 0.2994336635647E+01
 0.3007415110585E+01
 0.3026565342282E+01
 0.3051242380038E+01
 0.3081221429731E+01
 0.3116530426603E+01
 0.3157409290866E+01
 0.3204287037794E+01
 0.3257771732732E+01
 0.3318654924195E+01
 0.3387928961401E+01
 0.3466818383649E+01
 0.3556738897959E+01
 0.3658886413273E+01
 0.3773699206627E+01
 0.3900789036329E+01
 0.4039021338071E+01
 0.4186606410110E+01
 0.4341534581733E+01
 0.4501988071614E+01
 0.4666344197521E+01
 0.4832889565257E+01
 0.4999851511150E+01
 0.5165949578299E+01
 0.5329511440883E+01
 0.5486862806646E+01
 0.5626884118509E+01
 0.5726729691966E+01
 0.5732783801564E+01
 0.5235334354729E+01
 0.4731566588109E+01
 0.9265248509328E+01
 0.2968386857122E+01
 0.3223937726380E+01
 0.3255957429311E+01
 0.3176395136566E+01
 0.3107232683810E+01
 0.3061149052831E+01
 0.3032323572399E+01
 0.3017095401109E+01
 0.3012412097865E+01
 0.3016151150035E+01
 0.3026881564139E+01
 0.3043676275386E+01
 0.3065988797804E+01
 0.3093565598356E+01
 0.3126388858771E+01
 0.3164638468362E+01
 0.3208668284694E+01
 0.3258991365929E+01
 0.3316273703898E+01
 0.3381329301839E+01
 0.3455090109788E+01
 0.3538428617238E+01
 0.3631726477728E+01
 0.3734639671090E+01
 0.3846453022016E+01
 0.3966308917634E+01
 0.4092965581300E+01
 0.4224698710857E+01
 0.4359430112151E+01
 0.4494767363225E+01
 0.4627964120175E+01
 0.4756107858427E+01
 0.4876063413528E+01
 0.4982683508174E+01
 0.5065217706274E+01
 0.5102313397682E+01
 0.5057627622523E+01
 0.4819486213520E+01
 0.4235261289612E+01
 0.4434854226895E+01
 0.8387745514118E+01
 0.2846804718674E+01
 0.3095152033895E+01
 0.3191305497147E+01
 0.3166742559769E+01
 0.3118428235250E+01
 0.3079727414093E+01
 0.3053482491464E+01
 0.3038375656429E+01
 0.3032671018641E+01
 0.3034808451796E+01
 0.3043624755068E+01
 0.3058314836754E+01
 0.3078376052265E+01
 0.3103555000016E+01
 0.3133805397292E+01
 0.3169256662548E+01
 0.3210190806922E+01
 0.3257023209823E+01
 0.3310284880576E+01
 0.3370592257894E+01
 0.3438561088975E+01
 0.3514574777141E+01
 0.3598447634785E+01
 0.3689402656920E+01
 0.3786542417691E+01
 0.3889084015412E+01
 0.3996004053356E+01
 0.4105685976802E+01
 0.4215846164926E+01
 0.4323565620618E+01
 0.4425366439593E+01
 0.4517313529885E+01
 0.4594539142323E+01
 0.4649025189907E+01
 0.4665746840099E+01
 0.4619540382724E+01
 0.4466223950518E+01
 0.4128524545691E+01
 0.3725642818285E+01
 0.4477449638306E+01
 0.7847483071544E+01
 0.2762132324916E+01
 0.2993347722141E+01
 0.3122067694696E+01
 0.3141373944107E+01
 0.3117700247919E+01
 0.3089806835915E+01
 0.3068272742930E+01
 0.3054805272842E+01
 0.3049083801157E+01
 0.3050288368836E+01
 0.3057622361262E+01
 0.3070466994462E+01
 0.3088405192029E+01
 0.3111210265608E+01
 0.3138824393949E+01
 0.3171336547966E+01
 0.3208961633072E+01
 0.3252017579689E+01
 0.3300896535680E+01
 0.3356011293416E+01
 0.3417674408289E+01
 0.3485870744124E+01
 0.3560033633770E+01
 0.3639142225908E+01
 0.3722186384653E+01
 0.3808364695270E+01
 0.3896702203892E+01
 0.3985593752480E+01
 0.4072609027349E+01
 0.4154498158204E+01
 0.4227285488293E+01
 0.4286250924550E+01
 0.4325255832568E+01
 0.4334592026389E+01
 0.4298079812473E+01
 0.4191278609111E+01
 0.3980180330870E+01
 0.3661282653448E+01
 0.3523377766620E+01
 0.4609166143945E+01
 0.7463857858625E+01
 0.2700510607196E+01
 0.2913075031593E+01
 0.3056413397324E+01
 0.3107423734638E+01
 0.3107485311991E+01
 0.3092369404461E+01
 0.3077181227232E+01
 0.3066588371526E+01
 0.3061742143160E+01
 0.3062630268963E+01
 0.3068894701690E+01
 0.3080151533918E+01
 0.3096103742715E+01
 0.3116574779983E+01
 0.3141510999783E+01
 0.3170971114089E+01
 0.3205109044996E+01
 0.3244148554260E+01
 0.3288345105783E+01
 0.3337915479195E+01
 0.3392904560744E+01
 0.3452991448748E+01
 0.3517361146667E+01
 0.3584857014359E+01
 0.3654395793639E+01
 0.3725121763845E+01
 0.3796033285150E+01
 0.3865501692011E+01
 0.3931016600535E+01
 0.3989162066510E+01
 0.4035689010090E+01
 0.4065425836846E+01
 0.4071619141009E+01
 0.4044301153596E+01
 0.3968717202846E+01
 0.3826354546847E+01
 0.3606652884049E+01
 0.3376330813434E+01
 0.3494750484753E+01
 0.4741693553984E+01
 0.7170510699652E+01
 0.2654105070052E+01
 0.2849271950967E+01
 0.2997283444360E+01
 0.3069892252132E+01
 0.3090509900312E+01
 0.3088613394230E+01
 0.3080819998628E+01
 0.3074039419574E+01
 0.3070810032616E+01
 0.3071926651448E+01
 0.3077501504016E+01
 0.3087417810128E+01
 0.3101524115156E+01
 0.3119713246730E+01
 0.3141949679522E+01
 0.3168271890540E+01
 0.3198780184643E+01
 0.3233610404867E+01
 0.3272889468565E+01
 0.3316656541426E+01
 0.3364734330255E+01
 0.3416578347491E+01
 0.3471218828749E+01
 0.3527429646301E+01
 0.3584083232105E+01
 0.3640266683023E+01
 0.3694932996145E+01
 0.3746437129319E+01
 0.3792262959899E+01
 0.3828978854306E+01
 0.3852292784795E+01
 0.3856968317831E+01
 0.3836372725071E+01
 0.3781604182649E+01
 0.3681530966493E+01
 0.3527799531698E+01
 0.3337111213957E+01
 0.3225956097579E+01
 0.3554415515663E+01
 0.4850913592011E+01
 0.6936943151081E+01
 0.2618190424959E+01
 0.2797965435577E+01
 0.2945262342485E+01
 0.3031872296073E+01
 0.3069185012725E+01
 0.3079833855263E+01
 0.3079882985866E+01
 0.3077548417633E+01
 0.3076511659601E+01
 0.3078315265150E+01
 0.3083537625882E+01
 0.3092342978569E+01
 0.3104741578438E+01
 0.3120709960392E+01
 0.3140242472044E+01
 0.3163366924678E+01
 0.3190138387351E+01
 0.3220613719852E+01
 0.3254804453233E+01
 0.3292597328624E+01
 0.3333640303028E+01
 0.3377233937594E+01
 0.3422320741394E+01
 0.3467649822412E+01
 0.3512075359110E+01
 0.3554643996501E+01
 0.3594278020217E+01
 0.3629349814644E+01
 0.3657417921941E+01
 0.3675178756999E+01
 0.3678529623983E+01
 0.3662568168413E+01
 0.3621477442278E+01
 0.3548519391494E+01
 0.3437848241009E+01
 0.3293269131719E+01
 0.3155765092323E+01
 0.3168953653167E+01
 0.3652780797080E+01
 0.4934764805824E+01
 0.6746487225753E+01
 0.2589765992171E+01
 0.2756181272956E+01
 0.2899949486808E+01
 0.2995115029669E+01
 0.3045397850634E+01
 0.3067272150231E+01
 0.3075100229740E+01
 0.3077552017971E+01
 0.3079115991008E+01
 0.3081970980687E+01
 0.3087128023509E+01
 0.3095028794752E+01
 0.3105851914930E+01
 0.3119666838075E+01
 0.3136507057027E+01
 0.3156398583620E+01
 0.3179360361764E+01
 0.3205381386155E+01
 0.3234374568935E+01
 0.3266102700710E+01
 0.3300084058110E+01
 0.3335520286445E+01
 0.3371315745842E+01
 0.3406228384050E+01
 0.3439120405378E+01
 0.3469026300343E+01
 0.3494871248087E+01
 0.3515094356478E+01
 0.3527412426308E+01
 0.3528787395824E+01
 0.3515529046618E+01
 0.3483439414865E+01
 0.3428099680973E+01
 0.3345744216956E+01
 0.3236732755996E+01
 0.3116854518564E+01
 0.3045219594955E+01
 0.3173410538443E+01
 0.3763308931137E+01
 0.4997479297937E+01
 0.6588799542536E+01
 0.2566844184792E+01
 0.2721719439765E+01
 0.2860592943637E+01
 0.2960514417101E+01
 0.3020519548426E+01
 0.3052019527901E+01
 0.3067189532023E+01
 0.3074508590609E+01
 0.3078921565668E+01
 0.3083097159361E+01
 0.3088422443928E+01
 0.3095598092450E+01
 0.3104968848599E+01
 0.3116701271112E+01
 0.3130874681417E+01
 0.3147521251459E+01
 0.3166633315659E+01
 0.3188144652917E+01
 0.3211888448064E+01
 0.3237532730417E+01
 0.3264506895239E+01
 0.3291959228677E+01
 0.3318794120218E+01
 0.3343806191657E+01
 0.3365892845221E+01
 0.3384111013247E+01
 0.3397432131248E+01
 0.3404418820639E+01
 0.3403029139157E+01
 0.3390618332234E+01
 0.3364109691190E+01
 0.3320321031318E+01
 0.3256665474137E+01
 0.3172831076419E+01
 0.3075538000256E+01
 0.2990904949960E+01
 0.2989268475731E+01
 0.3216181388589E+01
 0.3872892345960E+01
 0.5044188375007E+01
 0.6456888531881E+01
 0.2548061463341E+01
 0.2692950098981E+01
 0.2826372828695E+01
 0.2928446536077E+01
 0.2995493718528E+01
 0.3034979014263E+01
 0.3056818187898E+01
 0.3068876149736E+01
 0.3076242770301E+01
 0.3081917123856E+01
 0.3087590030135E+01
 0.3094191117628E+01
 0.3102221329041E+01
 0.3111943861628E+01
 0.3123488001700E+01
 0.3136898986941E+01
 0.3152152123987E+01
 0.3169139463046E+01
 0.3187634179695E+01
 0.3207237775194E+01
 0.3227326724817E+01
 0.3247033202999E+01
 0.3265292292390E+01
 0.3280959964563E+01
 0.3292996529537E+01
 0.3300518613305E+01
 0.3302590991801E+01
 0.3297958281211E+01
 0.3284898199174E+01
 0.3261272555779E+01
 0.3224785968105E+01
 0.3173507229495E+01
 0.3106953668798E+01
 0.3028424216968E+01
 0.2950535659563E+01
 0.2907326622029E+01
 0.2974004126719E+01
 0.3281301715860E+01
 0.3975719574656E+01
 0.5079321143210E+01
 0.6345746776560E+01
 0.2532454464359E+01
 0.2668657128652E+01
 0.2796519987359E+01
 0.2898988982162E+01
 0.2970939104351E+01
 0.3016866084778E+01
 0.3044579875338E+01
 0.3061094451083E+01
 0.3071397938254E+01
 0.3078666252056E+01
 0.3084814056723E+01
 0.3090961853780E+01
 0.3097750759661E+01
 0.3105536105225E+01
 0.3114498898168E+01
 0.3124703205048E+01
 0.3136116629650E+01
 0.3148603173333E+01
 0.3161895533365E+01
 0.3175554982937E+01
 0.3188936305464E+01
 0.3201186325716E+01
 0.3211296366771E+01
 0.3218206406195E+01
 0.3220967156024E+01
 0.3218792245316E+01
 0.3210886544056E+01
 0.3196232602055E+01
 0.3173497953846E+01
 0.3141145188539E+01
 0.3097787708574E+01
 0.3042898026332E+01
 0.2978213127092E+01
 0.2910521084403E+01
 0.2857459808985E+01
 0.2858357711612E+01
 0.2988089121079E+01
 0.3358198704668E+01
 0.4069741902773E+01
 0.5106312126572E+01
 0.6251636227539E+01
 0.2519325471363E+01
 0.2647924478486E+01
 0.2770358292328E+01
 0.2872056862611E+01
 0.2947240162056E+01
 0.2998229252984E+01
 0.3030985269640E+01
 0.3051572317860E+01
 0.3064699566692E+01
 0.3073584989615E+01
 0.3080287002991E+01
 0.3086074456990E+01
 0.3091708251675E+01
 0.3097628079363E+01
 0.3104066313362E+01
 0.3111110438418E+01
 0.3118729144070E+01
 0.3126771713320E+01
 0.3134948983557E+01
 0.3142805867794E+01
 0.3149702340497E+01
 0.3154825550941E+01
 0.3157244915059E+01
 0.3156005415387E+01
 0.3150274602112E+01
 0.3139398602790E+01
 0.3122766060862E+01
 0.3099647820107E+01
 0.3069160241017E+01
 0.3030438712776E+01
 0.2983089688042E+01
 0.2928061891937E+01
 0.2869289347613E+01
 0.2816717009629E+01
 0.2791908920746E+01
 0.2836973547960E+01
 0.3022621893420E+01
 0.3440105268548E+01
 0.4154749916188E+01
 0.5127712743171E+01
 0.6171675078321E+01
 0.2508158482497E+01
 0.2630055101876E+01
 0.2747312562697E+01
 0.2847484667664E+01
 0.2924618552824E+01
 0.2979477977560E+01
 0.3016462493557E+01
 0.3040680163935E+01
 0.3056446852543E+01
 0.3066912944925E+01
 0.3074206113328E+01
 0.3079699901709E+01
 0.3084251973998E+01
 0.3088376190537E+01
 0.3092354159821E+01
 0.3096300222384E+01
 0.3100192187094E+01
 0.3103877182217E+01
 0.3107061413451E+01
 0.3109294675142E+01
 0.3109965136415E+01
 0.3108321870264E+01
 0.3103531343529E+01
 0.3094762860214E+01
 0.3081325406271E+01
 0.3062729956266E+01
 0.3038587704298E+01
 0.3008500512191E+01
 0.2972079503878E+01
 0.2929181311782E+01
 0.2880447416429E+01
 0.2828303328501E+01
 0.2778746667422E+01
 0.2744408269147E+01
 0.2749613121604E+01
 0.2837061403424E+01
 0.3070815232001E+01
 0.3522823391303E+01
 0.4231360597615E+01
 0.5145390894996E+01
 0.6103581220746E+01
 0.2498565093375E+01
 0.2614513283042E+01
 0.2726902027517E+01
 0.2825074239424E+01
 0.2903186312008E+01
 0.2960910876177E+01
 0.3001363493458E+01
 0.3028746888585E+01
 0.3046920526994E+01
 0.3058884140498E+01
 0.3066769536931E+01
 0.3072012914991E+01
 0.3075544657641E+01
 0.3077941026951E+01
 0.3079529337400E+01
 0.3080453139913E+01
 0.3080706490177E+01
 0.3080145864270E+01
 0.3078488390388E+01
 0.3075307345798E+01
 0.3070038664339E+01
 0.3062011574003E+01
 0.3050506075315E+01
 0.3034833234724E+01
 0.3014465584086E+01
 0.2989107235149E+01
 0.2958624662230E+01
 0.2922984608279E+01
 0.2882324938879E+01
 0.2837248717531E+01
 0.2789435891281E+01
 0.2742729466730E+01
 0.2704976278231E+01
 0.2690946554566E+01
 0.2726597178775E+01
 0.2853456737314E+01
 0.3127612967431E+01
 0.3603831993587E+01
 0.4300493913776E+01
 0.5160717782406E+01
 0.6045504494274E+01
 0.2490248573397E+01
 0.2600883422006E+01
 0.2708728659118E+01
 0.2804621951071E+01
 0.2882983959717E+01
 0.2942740944192E+01
 0.2985973315086E+01
 0.3016060006917E+01
 0.3036379751697E+01
 0.3049723409173E+01
 0.3058173088423E+01
 0.3063189248915E+01
 0.3065751296956E+01
 0.3066485350383E+01
 0.3065759886495E+01
 0.3063749043618E+01
 0.3060469260179E+01
 0.3055796616364E+01
 0.3049472901935E+01
 0.3041110924363E+01
 0.3030210905839E+01
 0.3016197574023E+01
 0.2998478667304E+01
 0.2976522342564E+01
 0.2949983809753E+01
 0.2918783981058E+01
 0.2883070681182E+01
 0.2843200022835E+01
 0.2799854697966E+01
 0.2754387850648E+01
 0.2709488380342E+01
 0.2670311202834E+01
 0.2646285252305E+01
 0.2653748863282E+01
 0.2719269439160E+01
 0.2881897522394E+01
 0.3189318887261E+01
 0.3681675367496E+01
 0.4363101919812E+01
 0.5174714060553E+01
 0.5995909845814E+01
 0.2482979391736E+01
 0.2588840339882E+01
 0.2692464600601E+01
 0.2785933342667E+01
 0.2864007118453E+01
 0.2925116621597E+01
 0.2970520254375E+01
 0.3002867913532E+01
 0.3025060710187E+01
 0.3039643851243E+01
 0.3048607631703E+01
 0.3053403318816E+01
 0.3055037078871E+01
 0.3054172255227E+01
 0.3051213300019E+01
 0.3046365468883E+01
 0.3039672699157E+01
 0.3031039589425E+01
 0.3020244473694E+01
 0.3006953316955E+01
 0.2990744427849E+01
 0.2971150816029E+01
 0.2947719961165E+01
 0.2920090110962E+01
 0.2888114979777E+01
 0.2851951032240E+01
 0.2812046668920E+01
 0.2769162561530E+01
 0.2724531265277E+01
 0.2680240807764E+01
 0.2639933051021E+01
 0.2609936281395E+01
 0.2600965992821E+01
 0.2630371108160E+01
 0.2724459800782E+01
 0.2918933404946E+01
 0.3253274906967E+01
 0.3755562548532E+01
 0.4420024155924E+01
 0.5188144482838E+01
 0.5953476778438E+01
 0.2476578151447E+01
 0.2578127673802E+01
 0.2677840466481E+01
 0.2768830311544E+01
 0.2846224721039E+01
 0.2908138660470E+01
 0.2955185678393E+01
 0.2989383372243E+01
 0.3013176488431E+01
 0.3028845217722E+01
 0.3038257057620E+01
 0.3042826215377E+01
 0.3043565559513E+01
 0.3041163515172E+01
 0.3036055010947E+01
 0.3028476246265E+01
 0.3018502771604E+01
 0.3006075249429E+01
 0.2991018609933E+01
 0.2973063336843E+01
 0.2951877158972E+01
 0.2927111809092E+01
 0.2898464335759E+01
 0.2865753592638E+01
 0.2829044144709E+01
 0.2788741800703E+01
 0.2745608070418E+01
 0.2700814608914E+01
 0.2656137232875E+01
 0.2614368049245E+01
 0.2580026012719E+01
 0.2560453350684E+01
 0.2567347997706E+01
 0.2618553809770E+01
 0.2739423235213E+01
 0.2961814668152E+01
 0.3317599576557E+01
 0.3825119496780E+01
 0.4471918826478E+01
 0.5201554273897E+01
 0.5916930217692E+01
 0.2470903430256E+01
 0.2568542006502E+01
 0.2664635124736E+01
 0.2753153976851E+01
 0.2829591220759E+01
 0.2891873239438E+01
 0.2940112886449E+01
 0.2975787556893E+01
 0.3000917859223E+01
 0.3017513056171E+01
 0.3027296799582E+01
 0.3031624079166E+01
 0.3031497093032E+01
 0.3027618125601E+01
 0.3020447059852E+01
 0.3010250307949E+01
 0.2997138197259E+01
 0.2981093654280E+01
 0.2961996495063E+01
 0.2939650974717E+01
 0.2913823324978E+01
 0.2884292259626E+01
 0.2850912060595E+01
 0.2813690130781E+01
 0.2772910715017E+01
 0.2729237939152E+01
 0.2683752673827E+01
 0.2638036080474E+01
 0.2594390750444E+01
 0.2556269873481E+01
 0.2528979936448E+01
 0.2520707088245E+01
 0.2543834694866E+01
 0.2616246841207E+01
 0.2761820301506E+01
 0.3008379421335E+01
 0.3380978918950E+01
 0.3890254568990E+01
 0.4519235102286E+01
 0.5215410772549E+01
 0.5884250420641E+01
 0.2465842135671E+01
 0.2559921057593E+01
 0.2652668076806E+01
 0.2738767496214E+01
 0.2814058486071E+01
 0.2876367167472E+01
 0.2925421044243E+01
 0.2962241281036E+01
 0.2988462413346E+01
 0.3005826938334E+01
 0.3015902249550E+01
 0.3019967597051E+01
 0.3019000200212E+01
 0.3013706334652E+01
 0.3004565635452E+01
 0.2991873668818E+01
 0.2975777892975E+01
 0.2956308448034E+01
 0.2933406653913E+01
 0.2906957777507E+01
 0.2876833437355E+01
 0.2842945317039E+01
 0.2805310150416E+01
 0.2764128831156E+01
 0.2719910137018E+01
 0.2673580261157E+01
 0.2626539102407E+01
 0.2580767863003E+01
 0.2539069970297E+01
 0.2505506025599E+01
 0.2486070234445E+01
 0.2489618591525E+01
 0.2528940628746E+01
 0.2621579474084E+01
 0.2789585949342E+01
 0.3056797964563E+01
 0.3442331175258E+01
 0.3950838101912E+01
 0.4562464132272E+01
 0.5228400721213E+01
 0.5863164196108E+01
 0.2461306801379E+01
 0.2552135560751E+01
 0.2641791550609E+01
 0.2725551216960E+01
 0.2799573788864E+01
 0.2861645364890E+01
 0.2911199418427E+01
 0.2948875186285E+01
 0.2975961192876E+01
 0.2993944199979E+01
 0.3004229799553E+01
 0.3008009932614E+01
 0.3006225452634E+01
 0.2999578150046E+01
 0.2988562582610E+01
 0.2973502105201E+01
 0.2954582851461E+01
 0.2931885894705E+01
 0.2905419091424E+01
 0.2875154126255E+01
 0.2841072945099E+01
 0.2803224218011E+01
 0.2761790241840E+01
 0.2717167803178E+01
 0.2670091804057E+01
 0.2621750137626E+01
 0.2573856470790E+01
 0.2528777028375E+01
 0.2489784256730E+01
 0.2461487011596E+01
 0.2450464483028E+01
 0.2466074176393E+01
 0.2521261706091E+01
 0.2632926590305E+01
 0.2821089937567E+01
 0.3105800432229E+01
 0.3501114129004E+01
 0.4007036632740E+01
 0.4602284880155E+01
 0.5240073307979E+01
 0.5856025974230E+01
 0.2457224663920E+01
 0.2545079515495E+01
 0.2631880656700E+01
 0.2713397669345E+01
 0.2786079849895E+01
 0.2847713678105E+01
 0.2897510251414E+01
 0.2935791236581E+01
 0.2963538626522E+01
 0.2981998767337E+01
 0.2992415112103E+01
 0.2995884876164E+01
 0.2993303796093E+01
 0.2985362032790E+01
 0.2972564618055E+01
 0.2955261040104E+01
 0.2933676866841E+01
 0.2907946650579E+01
 0.2878148350738E+01
 0.2844343836202E+01
 0.2806628636383E+01
 0.2765190755626E+01
 0.2720379423726E+01
 0.2672787695143E+01
 0.2623375699771E+01
 0.2573589685823E+01
 0.2525448522169E+01
 0.2481685159692E+01
 0.2446006536404E+01
 0.2423509466142E+01
 0.2421258219873E+01
 0.2448956282672E+01
 0.2519490706337E+01
 0.2648890725884E+01
 0.2855057477050E+01
 0.3154536000204E+01
 0.3557106518736E+01
 0.4059290551485E+01
 0.4638873566869E+01
 0.5253157627852E+01
 0.5849424998854E+01
 0.2453538066542E+01
 0.2538668495543E+01
 0.2622835144304E+01
 0.2702219050670E+01
 0.2773528802167E+01
 0.2834577251592E+01
 0.2884408855208E+01
 0.2923082682322E+01
 0.2951311765601E+01
 0.2970120024805E+01
 0.2980592545495E+01
 0.2983728072296E+01
 0.2980371041388E+01
 0.2971194299945E+01
 0.2956709475842E+01
 0.2937290436299E+01
 0.2913202332562E+01
 0.2884634731188E+01
 0.2851737944966E+01
 0.2814666274158E+01
 0.2773630456687E+01
 0.2728958462413E+01
 0.2681165935245E+01
 0.2631040347628E+01
 0.2579763486303E+01
 0.2529033498043E+01
 0.2481162503983E+01
 0.2439228578142E+01
 0.2407335965752E+01
 0.2391008237010E+01
 0.2397698294346E+01
 0.2437313991944E+01
 0.2522505098084E+01
 0.2668273329852E+01
 0.2890402336575E+01
 0.3202265359712E+01
 0.3610091701060E+01
 0.4107763440895E+01
 0.4672885897892E+01
 0.5266917846985E+01
 0.5844311332153E+01
 0.2450200637858E+01
 0.2532834223145E+01
 0.2614572759314E+01
 0.2691941085974E+01
 0.2761877301818E+01
 0.2822236419088E+01
 0.2871939287275E+01
 0.2910828801410E+01
 0.2939383822163E+01
 0.2958425124162E+01
 0.2968886183908E+01
 0.2971666543808E+01
 0.2967555438633E+01
 0.2957204109664E+01
 0.2941127504441E+01
 0.2919722083426E+01
 0.2893292203128E+01
 0.2862083065904E+01
 0.2826318386169E+01
 0.2786245748388E+01
 0.2742191215012E+01
 0.2694621747395E+01
 0.2644217117427E+01
 0.2591955327486E+01
 0.2539233892561E+01
 0.2487993788548E+01
 0.2440825779721E+01
 0.2401129153849E+01
 0.2373366975873E+01
 0.2363429298870E+01
 0.2379067096539E+01
 0.2430267667705E+01
 0.2529301350794E+01
 0.2690046892690E+01
 0.2926239960323E+01
 0.3248434985208E+01
 0.3659935986300E+01
 0.4152687377937E+01
 0.4704637856197E+01
 0.5280870831456E+01
 0.5840831600547E+01
 0.2447175054540E+01
 0.2527521451792E+01
 0.2607026043612E+01
 0.2682501280008E+01
 0.2751086886117E+01
 0.2810688691322E+01
 0.2860136931082E+01
 0.2899097191765E+01
 0.2927845749764E+01
 0.2947019817348E+01
 0.2957410082043E+01
 0.2959818553160E+01
 0.2954977333967E+01
 0.2943513049151E+01
 0.2925941288506E+01
 0.2902679337061E+01
 0.2874069925837E+01
 0.2840413694342E+01
 0.2802007714599E+01
 0.2759192433423E+01
 0.2712407964165E+01
 0.2662257798300E+01
 0.2609581921292E+01
 0.2555543147100E+01
 0.2501746759479E+01
 0.2450365363969E+01
 0.2404251766465E+01
 0.2367101131820E+01
 0.2343696694959E+01
 0.2340237132173E+01
 0.2364688684565E+01
 0.2427011516565E+01
 0.2538989895975E+01
 0.2713336202747E+01
 0.2961854597114E+01
 0.3292628903070E+01
 0.3706576878281E+01
 0.4194267290512E+01
 0.4734269747350E+01
 0.5294715817877E+01
 0.5838886471617E+01
 0.2444431287679E+01
 0.2522685479822E+01
 0.2600139732844E+01
 0.2673847303392E+01
 0.2741123970877E+01
 0.2799930122606E+01
 0.2849030494554E+01
 0.2887945688512E+01
 0.2916777672295E+01
 0.2935999298132E+01
 0.2946268606234E+01
 0.2948293595951E+01
 0.2942748966322E+01
 0.2930234860058E+01
 0.2911265403099E+01
 0.2886276985198E+01
 0.2855649493878E+01
 0.2819738075113E+01
 0.2778912127192E+01
 0.2733603377313E+01
 0.2684363443926E+01
 0.2631928522895E+01
 0.2577293421187E+01
 0.2521798433106E+01
 0.2467246942086E+01
 0.2416030303343E+01
 0.2371245362967E+01
 0.2336857147166E+01
 0.2317931183567E+01
 0.2320920499068E+01
 0.2353932891812E+01
 0.2426813878724E+01
 0.2550787960253E+01
 0.2737400077592E+01
 0.2996668680195E+01
 0.3334536866720E+01
 0.3749994685660E+01
 0.4232661727432E+01
 0.4761849827549E+01
 0.5308246656183E+01
 0.5838288392994E+01
 0.2441945214813E+01
 0.2518290167542E+01
 0.2593868625936E+01
 0.2665935545129E+01
 0.2731959626916E+01
 0.2789956222514E+01
 0.2838643539348E+01
 0.2877423944788E+01
 0.2906250145953E+01
 0.2925449013040E+01
 0.2935556827731E+01
 0.2937192485649E+01
 0.2930974367712E+01
 0.2917475266412E+01
 0.2897206263808E+01
 0.2870621201157E+01
 0.2838135573499E+01
 0.2800157452409E+01
 0.2757126643173E+01
 0.2709563521150E+01
 0.2658127507611E+01
 0.2603682438936E+01
 0.2547371230269E+01
 0.2490702929768E+01
 0.2435667946361E+01
 0.2384862229399E+01
 0.2341607773722E+01
 0.2310113390177E+01
 0.2295690539526E+01
 0.2304996803564E+01
 0.2346217782626E+01
 0.2429015781279E+01
 0.2564011330777E+01
 0.2761613775882E+01
 0.3030217367699E+01
 0.3373928487866E+01
 0.3790191928267E+01
 0.4267991815808E+01
 0.4787414776831E+01
 0.5321312304087E+01
 0.5838822071123E+01
 0.2439697505752E+01
 0.2514306343746E+01
 0.2588175830647E+01
 0.2658729828870E+01
 0.2723569225650E+01
 0.2780762532548E+01
 0.2828995632457E+01
 0.2867574715624E+01
 0.2896325250676E+01
 0.2915445414695E+01
 0.2925360934435E+01
 0.2926607497320E+01
 0.2919749338307E+01
 0.2905331878759E+01
 0.2883862046786E+01
 0.2855809555305E+01
 0.2821623674615E+01
 0.2781763246035E+01
 0.2736735768307E+01
 0.2687146687687E+01
 0.2633758483122E+01
 0.2577556456591E+01
 0.2519823754007E+01
 0.2462228266019E+01
 0.2406935227540E+01
 0.2356730104999E+01
 0.2315140686508E+01
 0.2286593925419E+01
 0.2276612947972E+01
 0.2292015206730E+01
 0.2341010733551E+01
 0.2433028221478E+01
 0.2578065577332E+01
 0.2785452843812E+01
 0.3062127340795E+01
 0.3410632744450E+01
 0.3827182483573E+01
 0.4300351724661E+01
 0.4810987263928E+01
 0.5333793815772E+01
 0.5840265976772E+01
 0.2437672724643E+01
 0.2510710519764E+01
 0.2583031319311E+01
 0.2652200292622E+01
 0.2715932026566E+01
 0.2772344973615E+01
 0.2820103213782E+01
 0.2858434903739E+01
 0.2887057536655E+01
 0.2906056663200E+01
 0.2915758659930E+01
 0.2916622570784E+01
 0.2909161502150E+01
 0.2893894186997E+01
 0.2871322698021E+01
 0.2841931112021E+01
 0.2806200399190E+01
 0.2764637508333E+01
 0.2717814211627E+01
 0.2666416604333E+01
 0.2611304545563E+01
 0.2553577642186E+01
 0.2494650382341E+01
 0.2436338599726E+01
 0.2380969279428E+01
 0.2331501706208E+01
 0.2291649985698E+01
 0.2266034388191E+01
 0.2260357948586E+01
 0.2281558817980E+01
 0.2337828519638E+01
 0.2438328621148E+01
 0.2592437210766E+01
 0.2808478591670E+01
 0.3092099114086E+01
 0.3444522579087E+01
 0.3860985843954E+01
 0.4329816556307E+01
 0.4832582810149E+01
 0.5345590874752E+01
 0.5842403378073E+01
 0.2435858601353E+01
 0.2507483845314E+01
 0.2578410735329E+01
 0.2646322414987E+01
 0.2709030741008E+01
 0.2764700025087E+01
 0.2811980233286E+01
 0.2850036393965E+01
 0.2878494823643E+01
 0.2897343252288E+01
 0.2906819694950E+01
 0.2907313532998E+01
 0.2899290400397E+01
 0.2883243595606E+01
 0.2859669980783E+01
 0.2829066554117E+01
 0.2791943700972E+01
 0.2748853371396E+01
 0.2700427566601E+01
 0.2647427859858E+01
 0.2590804987234E+01
 0.2531764835357E+01
 0.2471843480312E+01
 0.2412992990774E+01
 0.2357688365813E+01
 0.2309046634608E+01
 0.2270948891927E+01
 0.2248184996091E+01
 0.2246608923979E+01
 0.2273246052679E+01
 0.2336236609590E+01
 0.2444456793654E+01
 0.2606685205580E+01
 0.2830325388886E+01
 0.3119892704345E+01
 0.3475503717704E+01
 0.3891624129837E+01
 0.4356447635103E+01
 0.4852212269513E+01
 0.5356614568760E+01
 0.5845028461968E+01
 0.2434245435390E+01
 0.2504611256630E+01
 0.2574294405321E+01
 0.2641076175544E+01
 0.2702851102092E+01
 0.2757824792090E+01
 0.2804638616500E+01
 0.2842406720002E+01
 0.2870678877415E+01
 0.2889358569842E+01
 0.2898606083371E+01
 0.2898748340277E+01
 0.2890207624891E+01
 0.2873453508069E+01
 0.2848977572771E+01
 0.2817288351412E+01
 0.2778923179020E+01
 0.2734475513403E+01
 0.2684632992585E+01
 0.2630226838185E+01
 0.2572291436194E+01
 0.2512130178907E+01
 0.2451390245277E+01
 0.2392147581676E+01
 0.2337010986324E+01
 0.2289238979205E+01
 0.2252860661154E+01
 0.2232813034576E+01
 0.2235074993910E+01
 0.2266731365697E+01
 0.2335847906406E+01
 0.2451010677106E+01
 0.2620433049990E+01
 0.2850689638070E+01
 0.3145316046120E+01
 0.3503506413803E+01
 0.3919120287124E+01
 0.4380295742221E+01
 0.4869882660153E+01
 0.5366783911694E+01
 0.5847949887619E+01
 0.2432825610123E+01
 0.2502080781153E+01
 0.2570666523281E+01
 0.2636445337117E+01
 0.2697381458731E+01
 0.2751716999713E+01
 0.2798088599738E+01
 0.2835569593379E+01
 0.2863645976731E+01
 0.2882149391674E+01
 0.2891172592151E+01
 0.2890987324834E+01
 0.2881976974392E+01
 0.2864589441772E+01
 0.2839311193397E+01
 0.2806660952758E+01
 0.2767200382780E+01
 0.2721560620032E+01
 0.2670479870624E+01
 0.2614852601414E+01
 0.2555788993833E+01
 0.2494680530968E+01
 0.2433274401510E+01
 0.2373757561277E+01
 0.2318858062609E+01
 0.2271959631355E+01
 0.2237220872270E+01
 0.2219704879107E+01
 0.2225492418262E+01
 0.2261705512578E+01
 0.2336321143643E+01
 0.2457642086394E+01
 0.2633361521375E+01
 0.2869320404701E+01
 0.3168215760910E+01
 0.3528479351161E+01
 0.3943496920004E+01
 0.4401403135512E+01
 0.4885597640047E+01
 0.5376024504664E+01
 0.5850993020595E+01
 0.2431593193229E+01
 0.2499882967903E+01
 0.2567514475115E+01
 0.2632416833605E+01
 0.2692612400264E+01
 0.2746374938040E+01
 0.2792338963413E+01
 0.2829545316169E+01
 0.2857427380266E+01
 0.2875756306546E+01
 0.2884567045012E+01
 0.2884083430723E+01
 0.2874654616250E+01
 0.2856709155065E+01
 0.2830728741939E+01
 0.2797240981054E+01
 0.2756829106712E+01
 0.2710157817070E+01
 0.2658010407492E+01
 0.2601337693594E+01
 0.2541317260772E+01
 0.2479418727310E+01
 0.2417477700242E+01
 0.2357778882880E+01
 0.2303154823831E+01
 0.2257098244789E+01
 0.2223879314007E+01
 0.2208667588308E+01
 0.2217625571723E+01
 0.2257895436075E+01
 0.2337359072895E+01
 0.2464052630443E+01
 0.2645202253824E+01
 0.2886011557917E+01
 0.3188469843689E+01
 0.3550385100901E+01
 0.3964775484584E+01
 0.4419804895929E+01
 0.4899358029814E+01
 0.5384268347706E+01
 0.5854001254673E+01
 0.2430543610699E+01
 0.2498010422943E+01
 0.2564828283522E+01
 0.2628980254970E+01
 0.2688536421820E+01
 0.2741797383611E+01
 0.2787397195254E+01
 0.2824351106222E+01
 0.2852049714415E+01
 0.2870214085085E+01
 0.2878830626594E+01
 0.2878082443049E+01
 0.2868289257047E+01
 0.2849862791347E+01
 0.2823280453929E+01
 0.2789077441847E+01
 0.2747855688870E+01
 0.2700309092957E+01
 0.2647260211662E+01
 0.2589708894411E+01
 0.2528891286384E+01
 0.2466344736145E+01
 0.2403981275931E+01
 0.2344169797904E+01
 0.2289832465133E+01
 0.2244554928962E+01
 0.2212701575090E+01
 0.2199530187507E+01
 0.2211267623957E+01
 0.2255063925209E+01
 0.2338706594621E+01
 0.2469989914058E+01
 0.2655732100678E+01
 0.2900595213377E+01
 0.3205981829757E+01
 0.3569196636861E+01
 0.3982975646288E+01
 0.4435529853836E+01
 0.4911162420435E+01
 0.5391454180192E+01
 0.5856836811990E+01
 0.2429673381826E+01
 0.2496457432103E+01
 0.2562600153958E+01
 0.2626127417079E+01
 0.2685147630393E+01
 0.2737983508079E+01
 0.2783269598278E+01
 0.2820001346781E+01
 0.2847535286497E+01
 0.2865551988813E+01
 0.2873998146234E+01
 0.2873023194381E+01
 0.2862922302469E+01
 0.2844093017641E+01
 0.2817009050578E+01
 0.2782211917456E+01
 0.2740319282088E+01
 0.2692049676259E+01
 0.2638258802192E+01
 0.2579987879806E+01
 0.2518522395352E+01
 0.2455456656381E+01
 0.2392766809331E+01
 0.2332892158447E+01
 0.2278829539394E+01
 0.2234241647744E+01
 0.2203570326239E+01
 0.2192144653143E+01
 0.2206240963877E+01
 0.2253009119605E+01
 0.2340148935841E+01
 0.2475244127072E+01
 0.2664768328004E+01
 0.2912936384034E+01
 0.3220676230303E+01
 0.3584894722046E+01
 0.3998114843078E+01
 0.4448601350634E+01
 0.4921007889212E+01
 0.5397528057219E+01
 0.5859381223531E+01
 0.2428979905078E+01
 0.2495219657423E+01
 0.2560824107320E+01
 0.2623852007994E+01
 0.2682441493751E+01
 0.2734932786142E+01
 0.2779961360956E+01
 0.2816507777746E+01
 0.2843902336677E+01
 0.2861794027548E+01
 0.2870098265358E+01
 0.2868937749760E+01
 0.2858588006860E+01
 0.2839435158425E+01
 0.2811949883210E+01
 0.2776678750304E+01
 0.2734252103611E+01
 0.2685408376368E+01
 0.2631030061651E+01
 0.2572191803784E+01
 0.2510218909275E+01
 0.2446751581860E+01
 0.2383817525548E+01
 0.2323912523934E+01
 0.2270093125736E+01
 0.2226083376068E+01
 0.2196386355979E+01
 0.2186386668935E+01
 0.2202397447414E+01
 0.2251563944544E+01
 0.2341509953025E+01
 0.2479645055926E+01
 0.2672164575681E+01
 0.2922928641207E+01
 0.3232494942042E+01
 0.3597465900572E+01
 0.4010207950659E+01
 0.4459037850756E+01
 0.4928890706255E+01
 0.5402443959431E+01
 0.5861535576282E+01
 0.2428461289810E+01
 0.2494293898024E+01
 0.2559495689412E+01
 0.2622149304393E+01
 0.2680414633092E+01
 0.2732644910842E+01
 0.2777476601494E+01
 0.2813879640055E+01
 0.2841165236551E+01
 0.2858959168373E+01
 0.2867153687275E+01
 0.2865851565750E+01
 0.2855313605746E+01
 0.2835917316710E+01
 0.2808131063908E+01
 0.2772505206215E+01
 0.2729679653546E+01
 0.2680407877519E+01
 0.2625592623030E+01
 0.2566333791594E+01
 0.2503986754272E+01
 0.2440226324337E+01
 0.2377119023122E+01
 0.2317203073062E+01
 0.2263579783301E+01
 0.2220019032345E+01
 0.2191069389271E+01
 0.2182156196203E+01
 0.2199618527010E+01
 0.2250595550746E+01
 0.2342650639249E+01
 0.2483059572084E+01
 0.2677807575366E+01
 0.2930490691354E+01
 0.3241394489927E+01
 0.3606900996170E+01
 0.4019267060438E+01
 0.4466853466280E+01
 0.4934807003497E+01
 0.5406164355858E+01
 0.5863220674513E+01
 0.2428116226461E+01
 0.2493677906640E+01
 0.2558611747185E+01
 0.2621015950757E+01
 0.2679064657478E+01
 0.2731119719837E+01
 0.2775818393148E+01
 0.2812123780290E+01
 0.2839334639178E+01
 0.2857061497503E+01
 0.2865181307322E+01
 0.2863783618877E+01
 0.2853119424873E+01
 0.2833560474829E+01
 0.2805573574184E+01
 0.2769711608929E+01
 0.2726620892950E+01
 0.2677064976532E+01
 0.2621960180694E+01
 0.2562423334142E+01
 0.2499829944706E+01
 0.2435877986292E+01
 0.2372659927252E+01
 0.2312742317506E+01
 0.2259256291414E+01
 0.2216002193683E+01
 0.2187558703011E+01
 0.2179377880852E+01
 0.2197815295287E+01
 0.2250004799853E+01
 0.2343467873861E+01
 0.2485389607523E+01
 0.2681614578387E+01
 0.2935563757619E+01
 0.3247343963550E+01
 0.3613194013386E+01
 0.4025301338898E+01
 0.4472058391356E+01
 0.4938753349614E+01
 0.5408660679072E+01
 0.5864377092879E+01
 0.2427943892806E+01
 0.2493370256901E+01
 0.2558170266552E+01
 0.2620449798102E+01
 0.2678390040988E+01
 0.2730357138074E+01
 0.2774988778972E+01
 0.2811244724522E+01
 0.2838417588243E+01
 0.2856110340459E+01
 0.2864192326517E+01
 0.2862746504894E+01
 0.2852018966325E+01
 0.2832378575295E+01
 0.2804291352349E+01
 0.2768311447328E+01
 0.2725088384088E+01
 0.2675390768093E+01
 0.2620141730769E+01
 0.2560466590955E+01
 0.2497750952746E+01
 0.2433704396308E+01
 0.2370432383703E+01
 0.2310515638496E+01
 0.2257100202440E+01
 0.2214001625675E+01
 0.2185813575809E+01
 0.2178001340281E+01
 0.2196928492011E+01
 0.2249725847405E+01
 0.2343893457858E+01
 0.2486570630761E+01
 0.2683531456848E+01
 0.2938109678939E+01
 0.3250323540021E+01
 0.3616341360152E+01
 0.4028316935177E+01
 0.4474659231096E+01
 0.4940727198184E+01
 0.5409913682430E+01
 0.5864965207776E+01
 0.2427943892818E+01
 0.2493370256915E+01
 0.2558170266570E+01
 0.2620449798124E+01
 0.2678390041015E+01
 0.2730357138108E+01
 0.2774988779012E+01
 0.2811244724567E+01
 0.2838417588295E+01
 0.2856110340518E+01
 0.2864192326583E+01
 0.2862746504968E+01
 0.2852018966408E+01
 0.2832378575389E+01
 0.2804291352457E+01
 0.2768311447452E+01
 0.2725088384229E+01
 0.2675390768255E+01
 0.2620141730952E+01
 0.2560466591160E+01
 0.2497750952972E+01
 0.2433704396554E+01
 0.2370432383965E+01
 0.2310515638767E+01
 0.2257100202713E+01
 0.2214001625937E+01
 0.2185813576046E+01
 0.2178001340474E+01
 0.2196928492139E+01
 0.2249725847447E+01
 0.2343893457793E+01
 0.2486570630576E+01
 0.2683531456538E+01
 0.2938109678517E+01
 0.3250323539515E+01
 0.3616341359608E+01
 0.4028316934649E+01
 0.4474659230640E+01
 0.4940727197844E+01
 0.5409913682230E+01
 0.5864965207711E+01
 0.2428116226499E+01
 0.2493677906683E+01
 0.2558611747238E+01
 0.2621015950824E+01
 0.2679064657560E+01
 0.2731119719937E+01
 0.2775818393266E+01
 0.2812123780427E+01
 0.2839334639334E+01
 0.2857061497678E+01
 0.2865181307519E+01
 0.2863783619098E+01
 0.2853119425122E+01
 0.2833560475112E+01
 0.2805573574507E+01
 0.2769711609300E+01
 0.2726620893374E+01
 0.2677064977015E+01
 0.2621960181241E+01
 0.2562423334756E+01
 0.2499829945386E+01
 0.2435877987030E+01
 0.2372659928039E+01
 0.2312742318322E+01
 0.2259256292235E+01
 0.2216002194473E+01
 0.2187558703725E+01
 0.2179377881436E+01
 0.2197815295678E+01
 0.2250004799985E+01
 0.2343467873673E+01
 0.2485389606972E+01
 0.2681614577462E+01
 0.2935563756356E+01
 0.3247343962035E+01
 0.3613194011754E+01
 0.4025301337314E+01
 0.4472058389985E+01
 0.4938753348595E+01
 0.5408660678475E+01
 0.5864377092687E+01
 0.2428461289874E+01
 0.2494293898097E+01
 0.2559495689500E+01
 0.2622149304504E+01
 0.2680414633229E+01
 0.2732644911009E+01
 0.2777476601691E+01
 0.2813879640283E+01
 0.2841165236810E+01
 0.2858959168664E+01
 0.2867153687602E+01
 0.2865851566117E+01
 0.2855313606160E+01
 0.2835917317180E+01
 0.2808131064445E+01
 0.2772505206830E+01
 0.2729679654250E+01
 0.2680407878323E+01
 0.2625592623941E+01
 0.2566333792617E+01
 0.2503986755403E+01
 0.2440226325568E+01
 0.2377119024434E+01
 0.2317203074425E+01
 0.2263579784673E+01
 0.2220019033667E+01
 0.2191069390470E+01
 0.2182156197188E+01
 0.2199618527676E+01
 0.2250595550983E+01
 0.2342650638954E+01
 0.2483059571182E+01
 0.2677807573839E+01
 0.2930490689259E+01
 0.3241394487409E+01
 0.3606900993452E+01
 0.4019267057795E+01
 0.4466853463994E+01
 0.4934807001799E+01
 0.5406164354871E+01
 0.5863220674206E+01
 0.2428979905167E+01
 0.2495219657524E+01
 0.2560824107444E+01
 0.2623852008149E+01
 0.2682441493943E+01
 0.2734932786375E+01
 0.2779961361231E+01
 0.2816507778065E+01
 0.2843902337039E+01
 0.2861794027955E+01
 0.2870098265814E+01
 0.2868937750271E+01
 0.2858588007437E+01
 0.2839435159080E+01
 0.2811949883958E+01
 0.2776678751162E+01
 0.2734252104594E+01
 0.2685408377490E+01
 0.2631030062924E+01
 0.2572191805213E+01
 0.2510218910858E+01
 0.2446751583584E+01
 0.2383817527388E+01
 0.2323912525849E+01
 0.2270093127666E+01
 0.2226083377933E+01
 0.2196386357676E+01
 0.2186386670338E+01
 0.2202397448377E+01
 0.2251563944910E+01
 0.2341509952648E+01
 0.2479645054700E+01
 0.2672164573575E+01
 0.2922928638297E+01
 0.3232494938528E+01
 0.3597465896767E+01
 0.4010207946952E+01
 0.4459037847549E+01
 0.4928890703878E+01
 0.5402443958061E+01
 0.5861535575881E+01
 0.2429673381940E+01
 0.2496457432234E+01
 0.2562600154118E+01
 0.2626127417278E+01
 0.2685147630640E+01
 0.2737983508379E+01
 0.2783269598631E+01
 0.2820001347189E+01
 0.2847535286960E+01
 0.2865551989333E+01
 0.2873998146816E+01
 0.2873023195034E+01
 0.2862922303205E+01
 0.2844093018478E+01
 0.2817009051534E+01
 0.2782211918551E+01
 0.2740319283344E+01
 0.2692049677695E+01
 0.2638258803824E+01
 0.2579987881640E+01
 0.2518522397386E+01
 0.2455456658599E+01
 0.2392766811702E+01
 0.2332892160919E+01
 0.2278829541891E+01
 0.2234241650166E+01
 0.2203570328453E+01
 0.2192144654989E+01
 0.2206240965166E+01
 0.2253009120135E+01
 0.2340148935420E+01
 0.2475244125559E+01
 0.2664768325350E+01
 0.2912936380333E+01
 0.3220676225806E+01
 0.3584894717156E+01
 0.3998114838303E+01
 0.4448601346499E+01
 0.4921007886156E+01
 0.5397528055479E+01
 0.5859381223062E+01
 0.2430543610839E+01
 0.2498010423103E+01
 0.2564828283718E+01
 0.2628980255214E+01
 0.2688536422122E+01
 0.2741797383977E+01
 0.2787397195686E+01
 0.2824351106719E+01
 0.2852049714978E+01
 0.2870214085717E+01
 0.2878830627300E+01
 0.2878082443841E+01
 0.2868289257940E+01
 0.2849862792361E+01
 0.2823280455087E+01
 0.2789077443176E+01
 0.2747855690396E+01
 0.2700309094703E+01
 0.2647260213647E+01
 0.2589708896646E+01
 0.2528891288866E+01
 0.2466344738857E+01
 0.2403981278836E+01
 0.2344169800940E+01
 0.2289832468211E+01
 0.2244554931958E+01
 0.2212701577846E+01
 0.2199530189827E+01
 0.2211267625611E+01
 0.2255063925948E+01
 0.2338706594205E+01
 0.2469989912305E+01
 0.2655732097520E+01
 0.2900595208915E+01
 0.3205981824294E+01
 0.3569196630890E+01
 0.3982975640436E+01
 0.4435529848765E+01
 0.4911162416698E+01
 0.5391454178098E+01
 0.5856836811490E+01
 0.2431593193395E+01
 0.2499882968093E+01
 0.2567514475346E+01
 0.2632416833894E+01
 0.2692612400621E+01
 0.2746374938472E+01
 0.2792338963922E+01
 0.2829545316755E+01
 0.2857427380928E+01
 0.2875756307286E+01
 0.2884567045839E+01
 0.2884083431649E+01
 0.2874654617293E+01
 0.2856709156250E+01
 0.2830728743295E+01
 0.2797240982611E+01
 0.2756829108501E+01
 0.2710157819120E+01
 0.2658010409826E+01
 0.2601337696225E+01
 0.2541317263701E+01
 0.2479418730517E+01
 0.2417477703685E+01
 0.2357778886489E+01
 0.2303154827502E+01
 0.2257098248380E+01
 0.2223879317334E+01
 0.2208667591139E+01
 0.2217625573789E+01
 0.2257895437078E+01
 0.2337359072544E+01
 0.2464052628511E+01
 0.2645202250215E+01
 0.2886011552735E+01
 0.3188469837281E+01
 0.3550385093851E+01
 0.3964775477648E+01
 0.4419804889910E+01
 0.4899358025395E+01
 0.5384268345276E+01
 0.5854001254185E+01
 0.2432825610314E+01
 0.2502080781372E+01
 0.2570666523549E+01
 0.2636445337451E+01
 0.2697381459144E+01
 0.2751717000212E+01
 0.2798088600324E+01
 0.2835569594051E+01
 0.2863645977490E+01
 0.2882149392521E+01
 0.2891172593095E+01
 0.2890987325889E+01
 0.2881976975580E+01
 0.2864589443122E+01
 0.2839311194943E+01
 0.2806660954536E+01
 0.2767200384825E+01
 0.2721560622379E+01
 0.2670479873300E+01
 0.2614852604438E+01
 0.2555788997205E+01
 0.2494680534669E+01
 0.2433274405494E+01
 0.2373757565467E+01
 0.2318858066889E+01
 0.2271959635566E+01
 0.2237220876200E+01
 0.2219704882495E+01
 0.2225492420795E+01
 0.2261705513909E+01
 0.2336321143429E+01
 0.2457642084356E+01
 0.2633361517381E+01
 0.2869320398850E+01
 0.3168215753587E+01
 0.3528479343040E+01
 0.3943496911973E+01
 0.4401403128531E+01
 0.4885597634942E+01
 0.5376024501919E+01
 0.5850993020171E+01
 0.2434245435607E+01
 0.2504611256879E+01
 0.2574294405624E+01
 0.2641076175923E+01
 0.2702851102561E+01
 0.2757824792655E+01
 0.2804638617164E+01
 0.2842406720760E+01
 0.2870678878268E+01
 0.2889358570791E+01
 0.2898606084426E+01
 0.2898748341456E+01
 0.2890207626218E+01
 0.2873453509577E+01
 0.2848977574499E+01
 0.2817288353401E+01
 0.2778923181313E+01
 0.2734475516039E+01
 0.2684632995597E+01
 0.2630226841594E+01
 0.2572291440005E+01
 0.2512130183102E+01
 0.2451390249807E+01
 0.2392147586458E+01
 0.2337010991232E+01
 0.2289238984061E+01
 0.2252860665727E+01
 0.2232813038571E+01
 0.2235074996974E+01
 0.2266731367434E+01
 0.2335847906415E+01
 0.2451010675051E+01
 0.2620433045693E+01
 0.2850689631614E+01
 0.3145316037920E+01
 0.3503506404620E+01
 0.3919120277988E+01
 0.4380295734259E+01
 0.4869882654357E+01
 0.5366783908656E+01
 0.5847949887320E+01
 0.2435858601596E+01
 0.2507483845593E+01
 0.2578410735669E+01
 0.2646322415413E+01
 0.2709030741533E+01
 0.2764700025719E+01
 0.2811980234025E+01
 0.2850036394808E+01
 0.2878494824587E+01
 0.2897343253336E+01
 0.2906819696113E+01
 0.2907313534294E+01
 0.2899290401855E+01
 0.2883243597264E+01
 0.2859669982684E+01
 0.2829066556308E+01
 0.2791943703502E+01
 0.2748853374311E+01
 0.2700427569939E+01
 0.2647427863645E+01
 0.2590804991480E+01
 0.2531764840044E+01
 0.2471843485392E+01
 0.2412992996158E+01
 0.2357688371367E+01
 0.2309046640140E+01
 0.2270948897183E+01
 0.2248185000748E+01
 0.2246608927646E+01
 0.2273246054908E+01
 0.2336236609920E+01
 0.2444456791684E+01
 0.2606685201075E+01
 0.2830325381901E+01
 0.3119892695315E+01
 0.3475503707474E+01
 0.3891624119584E+01
 0.4356447626141E+01
 0.4852212263017E+01
 0.5356614565454E+01
 0.5845028461862E+01
 0.2437672724912E+01
 0.2510710520072E+01
 0.2583031319689E+01
 0.2652200293094E+01
 0.2715932027148E+01
 0.2772344974315E+01
 0.2820103214597E+01
 0.2858434904664E+01
 0.2887057537688E+01
 0.2906056664343E+01
 0.2915758661194E+01
 0.2916622572190E+01
 0.2909161503732E+01
 0.2893894188795E+01
 0.2871322700084E+01
 0.2841931114403E+01
 0.2806200401946E+01
 0.2764637511515E+01
 0.2717814215280E+01
 0.2666416608490E+01
 0.2611304550236E+01
 0.2553577647362E+01
 0.2494650387973E+01
 0.2436338605723E+01
 0.2380969285647E+01
 0.2331501712447E+01
 0.2291649991684E+01
 0.2266034393573E+01
 0.2260357952935E+01
 0.2281558820797E+01
 0.2337828520400E+01
 0.2438328619382E+01
 0.2592437206168E+01
 0.2808478584249E+01
 0.3092099104286E+01
 0.3444522567831E+01
 0.3860985832572E+01
 0.4329816546318E+01
 0.4832582802940E+01
 0.5345590871204E+01
 0.5842403378237E+01
 0.2439697506047E+01
 0.2514306344085E+01
 0.2588175831062E+01
 0.2658729829389E+01
 0.2723569226291E+01
 0.2780762533314E+01
 0.2828995633347E+01
 0.2867574716630E+01
 0.2896325251793E+01
 0.2915445415927E+01
 0.2925360935793E+01
 0.2926607498828E+01
 0.2919749340002E+01
 0.2905331880687E+01
 0.2883862049001E+01
 0.2855809557866E+01
 0.2821623677585E+01
 0.2781763249473E+01
 0.2736735772264E+01
 0.2687146692203E+01
 0.2633758488215E+01
 0.2577556462253E+01
 0.2519823760192E+01
 0.2462228272637E+01
 0.2406935234444E+01
 0.2356730111977E+01
 0.2315140693272E+01
 0.2286593931593E+01
 0.2276612953090E+01
 0.2292015210245E+01
 0.2341010734872E+01
 0.2433028220052E+01
 0.2578065572774E+01
 0.2785452836069E+01
 0.3062127330301E+01
 0.3410632732198E+01
 0.3827182471051E+01
 0.4300351713617E+01
 0.4810987255990E+01
 0.5333793812006E+01
 0.5840265977292E+01
 0.2441945215134E+01
 0.2518290167912E+01
 0.2593868626390E+01
 0.2665935545697E+01
 0.2731959627615E+01
 0.2789956223348E+01
 0.2838643540311E+01
 0.2877423945872E+01
 0.2906250147151E+01
 0.2925449014354E+01
 0.2935556829175E+01
 0.2937192487250E+01
 0.2930974369510E+01
 0.2917475268457E+01
 0.2897206266161E+01
 0.2870621203883E+01
 0.2838135576668E+01
 0.2800157456088E+01
 0.2757126647421E+01
 0.2709563526013E+01
 0.2658127513115E+01
 0.2603682445078E+01
 0.2547371237009E+01
 0.2490702937016E+01
 0.2435667953969E+01
 0.2384862237149E+01
 0.2341607781313E+01
 0.2310113397212E+01
 0.2295690545506E+01
 0.2304996807894E+01
 0.2346217784646E+01
 0.2429015780348E+01
 0.2564011326415E+01
 0.2761613767953E+01
 0.3030217356606E+01
 0.3373928474659E+01
 0.3790191914596E+01
 0.4267991803674E+01
 0.4787414768142E+01
 0.5321312300129E+01
 0.5838822072092E+01
 0.2444431288027E+01
 0.2522685480223E+01
 0.2600139733337E+01
 0.2673847304010E+01
 0.2741123971636E+01
 0.2799930123509E+01
 0.2849030495591E+01
 0.2887945689672E+01
 0.2916777673569E+01
 0.2935999299523E+01
 0.2946268607757E+01
 0.2948293597636E+01
 0.2942748968212E+01
 0.2930234862209E+01
 0.2911265405576E+01
 0.2886276988075E+01
 0.2855649497231E+01
 0.2819738079017E+01
 0.2778912131714E+01
 0.2733603382508E+01
 0.2684363449828E+01
 0.2631928529509E+01
 0.2577293428479E+01
 0.2521798440991E+01
 0.2467246950416E+01
 0.2416030311899E+01
 0.2371245371437E+01
 0.2336857155137E+01
 0.2317931190511E+01
 0.2320920504341E+01
 0.2353932894686E+01
 0.2426813878465E+01
 0.2550787956267E+01
 0.2737400069638E+01
 0.2996668668619E+01
 0.3334536852612E+01
 0.3749994670837E+01
 0.4232661714172E+01
 0.4761849818080E+01
 0.5308246652055E+01
 0.5838288394515E+01
 0.2447175054914E+01
 0.2527521452224E+01
 0.2607026044146E+01
 0.2682501280677E+01
 0.2751086886937E+01
 0.2810688692293E+01
 0.2860136932191E+01
 0.2899097192997E+01
 0.2927845751109E+01
 0.2947019818808E+01
 0.2957410083635E+01
 0.2959818554916E+01
 0.2954977335935E+01
 0.2943513051392E+01
 0.2925941291093E+01
 0.2902679340073E+01
 0.2874069929357E+01
 0.2840413698453E+01
 0.2802007719378E+01
 0.2759192438934E+01
 0.2712407970452E+01
 0.2662257805376E+01
 0.2609581929133E+01
 0.2555543155626E+01
 0.2501746768549E+01
 0.2450365373362E+01
 0.2404251775867E+01
 0.2367101140803E+01
 0.2343696702971E+01
 0.2340237138527E+01
 0.2364688688463E+01
 0.2427011517174E+01
 0.2538989892573E+01
 0.2713336194962E+01
 0.2961854585203E+01
 0.3292628888137E+01
 0.3706576862307E+01
 0.4194267276083E+01
 0.4734269737069E+01
 0.5294715813603E+01
 0.5838886473798E+01
 0.2450200638259E+01
 0.2532834223610E+01
 0.2614572759889E+01
 0.2691941086695E+01
 0.2761877302700E+01
 0.2822236420127E+01
 0.2871939288455E+01
 0.2910828802711E+01
 0.2939383823573E+01
 0.2958425125683E+01
 0.2968886185559E+01
 0.2971666545624E+01
 0.2967555440667E+01
 0.2957204111982E+01
 0.2941127507121E+01
 0.2919722086554E+01
 0.2893292206796E+01
 0.2862083070203E+01
 0.2826318391186E+01
 0.2786245754197E+01
 0.2742191221667E+01
 0.2694621754921E+01
 0.2644217125809E+01
 0.2591955336655E+01
 0.2539233902383E+01
 0.2487993798809E+01
 0.2440825790105E+01
 0.2401129163923E+01
 0.2373366985062E+01
 0.2363429306450E+01
 0.2379067101645E+01
 0.2430267669400E+01
 0.2529301348214E+01
 0.2690046885304E+01
 0.2926239948257E+01
 0.3248434969548E+01
 0.3659935969187E+01
 0.4152687362295E+01
 0.4704637845061E+01
 0.5280870827055E+01
 0.5840831603505E+01
 0.2453538066970E+01
 0.2538668496040E+01
 0.2622835144923E+01
 0.2702219051446E+01
 0.2773528803114E+01
 0.2834577252701E+01
 0.2884408856457E+01
 0.2923082683687E+01
 0.2951311767070E+01
 0.2970120026378E+01
 0.2980592547194E+01
 0.2983728074160E+01
 0.2980371043473E+01
 0.2971194302323E+01
 0.2956709478597E+01
 0.2937290439525E+01
 0.2913202336358E+01
 0.2884634735654E+01
 0.2851737950199E+01
 0.2814666280242E+01
 0.2773630463690E+01
 0.2728958470372E+01
 0.2681165944157E+01
 0.2631040357438E+01
 0.2579763496888E+01
 0.2529033509198E+01
 0.2481162515399E+01
 0.2439228589383E+01
 0.2407335976232E+01
 0.2391008245969E+01
 0.2397698300859E+01
 0.2437313994966E+01
 0.2522505096598E+01
 0.2668273323133E+01
 0.2890402324578E+01
 0.3202265343460E+01
 0.3610091682834E+01
 0.4107763423990E+01
 0.4672885885853E+01
 0.5266917842480E+01
 0.5844311336010E+01
 0.2457224664375E+01
 0.2545079516026E+01
 0.2631880657363E+01
 0.2713397670178E+01
 0.2786079850908E+01
 0.2847713679284E+01
 0.2897510252730E+01
 0.2935791238006E+01
 0.2963538628041E+01
 0.2981998768953E+01
 0.2992415113838E+01
 0.2995884878061E+01
 0.2993303798214E+01
 0.2985362035212E+01
 0.2972564620868E+01
 0.2955261043407E+01
 0.2933676870743E+01
 0.2907946655188E+01
 0.2878148356162E+01
 0.2844343842539E+01
 0.2806628643712E+01
 0.2765190763999E+01
 0.2720379433154E+01
 0.2672787705588E+01
 0.2623375711126E+01
 0.2573589697896E+01
 0.2525448534663E+01
 0.2481685172177E+01
 0.2446006548287E+01
 0.2423509476639E+01
 0.2421258228002E+01
 0.2448956287285E+01
 0.2519490706249E+01
 0.2648890720149E+01
 0.2855057465397E+01
 0.3154535983535E+01
 0.3557106499440E+01
 0.4059290533262E+01
 0.4638873553871E+01
 0.5253157623276E+01
 0.5849425003738E+01
 0.2461306801862E+01
 0.2552135561318E+01
 0.2641791551320E+01
 0.2725551217853E+01
 0.2799573789946E+01
 0.2861645366139E+01
 0.2911199419807E+01
 0.2948875187765E+01
 0.2975961194438E+01
 0.2993944201626E+01
 0.3004229801310E+01
 0.3008009934530E+01
 0.3006225454774E+01
 0.2999578152492E+01
 0.2988562585460E+01
 0.2973502108560E+01
 0.2954582855445E+01
 0.2931885899433E+01
 0.2905419097014E+01
 0.2875154132817E+01
 0.2841072952727E+01
 0.2803224226773E+01
 0.2761790251766E+01
 0.2717167814247E+01
 0.2670091816181E+01
 0.2621750150634E+01
 0.2573856484403E+01
 0.2528777042176E+01
 0.2489784270129E+01
 0.2461487023795E+01
 0.2450464492995E+01
 0.2466074182880E+01
 0.2521261707743E+01
 0.2632926585925E+01
 0.2821089926597E+01
 0.3105800415373E+01
 0.3501114108714E+01
 0.4007036613139E+01
 0.4602284866118E+01
 0.5240073303391E+01
 0.5856025980282E+01
 0.2465842136182E+01
 0.2559921058196E+01
 0.2652668077567E+01
 0.2738767497170E+01
 0.2814058487224E+01
 0.2876367168791E+01
 0.2925421045685E+01
 0.2962241282564E+01
 0.2988462414940E+01
 0.3005826940000E+01
 0.3015902251316E+01
 0.3019967598970E+01
 0.3019000202354E+01
 0.3013706337105E+01
 0.3004565638317E+01
 0.2991873672210E+01
 0.2975777897016E+01
 0.2956308452853E+01
 0.2933406659639E+01
 0.2906957784264E+01
 0.2876833445252E+01
 0.2842945326162E+01
 0.2805310160815E+01
 0.2764128842832E+01
 0.2719910149907E+01
 0.2673580275112E+01
 0.2626539117173E+01
 0.2580767878186E+01
 0.2539069985321E+01
 0.2505506039662E+01
 0.2486070246480E+01
 0.2489618600194E+01
 0.2528940632518E+01
 0.2621579471484E+01
 0.2789585939466E+01
 0.3056797947823E+01
 0.3442331154090E+01
 0.3950838080877E+01
 0.4562464117074E+01
 0.5228400716686E+01
 0.5863164203616E+01
 0.2470903430791E+01
 0.2568542007140E+01
 0.2664635125541E+01
 0.2753153977862E+01
 0.2829591221969E+01
 0.2891873240807E+01
 0.2940112887926E+01
 0.2975787558436E+01
 0.3000917860814E+01
 0.3017513057816E+01
 0.3027296801314E+01
 0.3031624081039E+01
 0.3031497095120E+01
 0.3027618127995E+01
 0.3020447062656E+01
 0.3010250311281E+01
 0.2997138201246E+01
 0.2981093659055E+01
 0.2961996500764E+01
 0.2939650981477E+01
 0.2913823332920E+01
 0.2884292268853E+01
 0.2850912071176E+01
 0.2813690142742E+01
 0.2772910728322E+01
 0.2729237953686E+01
 0.2683752689375E+01
 0.2638036096679E+01
 0.2594390766770E+01
 0.2556269889154E+01
 0.2528979950408E+01
 0.2520707099113E+01
 0.2543834700986E+01
 0.2616246840853E+01
 0.2761820293392E+01
 0.3008379405472E+01
 0.3380978897593E+01
 0.3890254546997E+01
 0.4519235086175E+01
 0.5215410768102E+01
 0.5884250429857E+01
 0.2476578152010E+01
 0.2578127674474E+01
 0.2677840467330E+01
 0.2768830312603E+01
 0.2846224722291E+01
 0.2908138661867E+01
 0.2955185679877E+01
 0.2989383373771E+01
 0.3013176489984E+01
 0.3028845219310E+01
 0.3038257059277E+01
 0.3042826217160E+01
 0.3043565561497E+01
 0.3041163517446E+01
 0.3036055013615E+01
 0.3028476249445E+01
 0.3018502775422E+01
 0.3006075254021E+01
 0.2991018615440E+01
 0.2973063343405E+01
 0.2951877166722E+01
 0.2927111818146E+01
 0.2898464346208E+01
 0.2865753604530E+01
 0.2829044158040E+01
 0.2788741815398E+01
 0.2745608086309E+01
 0.2700814625701E+01
 0.2656137250085E+01
 0.2614368066169E+01
 0.2580026028350E+01
 0.2560453363661E+01
 0.2567348006313E+01
 0.2618553812085E+01
 0.2739423229569E+01
 0.2961814654057E+01
 0.3317599555891E+01
 0.3825119474499E+01
 0.4471918809816E+01
 0.5201554269625E+01
 0.5916930228235E+01
 0.2482979392328E+01
 0.2588840340591E+01
 0.2692464601496E+01
 0.2785933343775E+01
 0.2864007119748E+01
 0.2925116623018E+01
 0.2970520255859E+01
 0.3002867915035E+01
 0.3025060711694E+01
 0.3039643852764E+01
 0.3048607633276E+01
 0.3053403320499E+01
 0.3055037080738E+01
 0.3054172257369E+01
 0.3051213302537E+01
 0.3046365471892E+01
 0.3039672702784E+01
 0.3031039593805E+01
 0.3020244478971E+01
 0.3006953323274E+01
 0.2990744435352E+01
 0.2971150824847E+01
 0.2947719971404E+01
 0.2920090122697E+01
 0.2888114993036E+01
 0.2851951046988E+01
 0.2812046685040E+01
 0.2769162578785E+01
 0.2724531283264E+01
 0.2680240825852E+01
 0.2639933068276E+01
 0.2609936296505E+01
 0.2600966004048E+01
 0.2630371113417E+01
 0.2724459798025E+01
 0.2918933393101E+01
 0.3253274887379E+01
 0.3755562526123E+01
 0.4420024138660E+01
 0.5188144478610E+01
 0.5953476790366E+01
 0.2490248574019E+01
 0.2600883422753E+01
 0.2708728660061E+01
 0.2804621952228E+01
 0.2882983961051E+01
 0.2942740945631E+01
 0.2985973316562E+01
 0.3016060008386E+01
 0.3036379753147E+01
 0.3049723410619E+01
 0.3058173089904E+01
 0.3063189250490E+01
 0.3065751298700E+01
 0.3066485352382E+01
 0.3065759888851E+01
 0.3063749046442E+01
 0.3060469263595E+01
 0.3055796620506E+01
 0.3049472906949E+01
 0.3041110930397E+01
 0.3030210913044E+01
 0.3016197582541E+01
 0.2998478677258E+01
 0.2976522354054E+01
 0.2949983822837E+01
 0.2918783995745E+01
 0.2883070697405E+01
 0.2843200040423E+01
 0.2799854716595E+01
 0.2754387869776E+01
 0.2709488399131E+01
 0.2670311220050E+01
 0.2646285266230E+01
 0.2653748871718E+01
 0.2719269439704E+01
 0.2881897513330E+01
 0.3189318869221E+01
 0.3681675345172E+01
 0.4363101901882E+01
 0.5174714056239E+01
 0.5995909859199E+01
 0.2498565094027E+01
 0.2614513283830E+01
 0.2726902028510E+01
 0.2825074240632E+01
 0.2903186313379E+01
 0.2960910877628E+01
 0.3001363494918E+01
 0.3028746890012E+01
 0.3046920528379E+01
 0.3058884141861E+01
 0.3066769538314E+01
 0.3072012916453E+01
 0.3075544659255E+01
 0.3077941028802E+01
 0.3079529339585E+01
 0.3080453142539E+01
 0.3080706493366E+01
 0.3080145868153E+01
 0.3078488395109E+01
 0.3075307351510E+01
 0.3070038671197E+01
 0.3062011582160E+01
 0.3050506084911E+01
 0.3034833245880E+01
 0.3014465596891E+01
 0.2989107249652E+01
 0.2958624678419E+01
 0.2922984626049E+01
 0.2882324957990E+01
 0.2837248737542E+01
 0.2789435911466E+01
 0.2742729485965E+01
 0.2704976294869E+01
 0.2690946566357E+01
 0.2726597183012E+01
 0.2853456731605E+01
 0.3127612951504E+01
 0.3603831971641E+01
 0.4300493895127E+01
 0.5160717777872E+01
 0.6045504509181E+01
 0.2508158483181E+01
 0.2630055102706E+01
 0.2747312563742E+01
 0.2847484668923E+01
 0.2924618554228E+01
 0.2979477979016E+01
 0.3016462494991E+01
 0.3040680165310E+01
 0.3056446853856E+01
 0.3066912946201E+01
 0.3074206114610E+01
 0.3079699903057E+01
 0.3084251975482E+01
 0.3088376192237E+01
 0.3092354161830E+01
 0.3096300224806E+01
 0.3100192190043E+01
 0.3103877185823E+01
 0.3107061417855E+01
 0.3109294680497E+01
 0.3109965142881E+01
 0.3108321878002E+01
 0.3103531352695E+01
 0.3094762870948E+01
 0.3081325418691E+01
 0.3062729970459E+01
 0.3038587720305E+01
 0.3008500529976E+01
 0.2972079523285E+01
 0.2929181332480E+01
 0.2880447437820E+01
 0.2828303349603E+01
 0.2778746686709E+01
 0.2744408284394E+01
 0.2749613129880E+01
 0.2837061401673E+01
 0.3070815218865E+01
 0.3522823370143E+01
 0.4231360578228E+01
 0.5145390890089E+01
 0.6103581237229E+01
 0.2519325472080E+01
 0.2647924479362E+01
 0.2770358293429E+01
 0.2872056863921E+01
 0.2947240163487E+01
 0.2998229254435E+01
 0.3030985271038E+01
 0.3051572319175E+01
 0.3064699567928E+01
 0.3073584990800E+01
 0.3080287004171E+01
 0.3086074458223E+01
 0.3091708253028E+01
 0.3097628080912E+01
 0.3104066315195E+01
 0.3111110440631E+01
 0.3118729146774E+01
 0.3126771716636E+01
 0.3134948987624E+01
 0.3142805872764E+01
 0.3149702346532E+01
 0.3154825558209E+01
 0.3157244923728E+01
 0.3156005425614E+01
 0.3150274614042E+01
 0.3139398616547E+01
 0.3122766076534E+01
 0.3099647837724E+01
 0.3069160260513E+01
 0.3030438733930E+01
 0.2983089710398E+01
 0.2928061914680E+01
 0.2869289369393E+01
 0.2816717028331E+01
 0.2791908933325E+01
 0.2836973550768E+01
 0.3022621883869E+01
 0.3440105248737E+01
 0.4154749896104E+01
 0.5127712737707E+01
 0.6171675096421E+01
 0.2532454465109E+01
 0.2668657129576E+01
 0.2796519988518E+01
 0.2898988983520E+01
 0.2970939105802E+01
 0.3016866086214E+01
 0.3044579876691E+01
 0.3061094452332E+01
 0.3071397939409E+01
 0.3078666253150E+01
 0.3084814057802E+01
 0.3090961854901E+01
 0.3097750760887E+01
 0.3105536106627E+01
 0.3114498899827E+01
 0.3124703207054E+01
 0.3136116632104E+01
 0.3148603176352E+01
 0.3161895537081E+01
 0.3175554987500E+01
 0.3188936311035E+01
 0.3201186332468E+01
 0.3211296374881E+01
 0.3218206415835E+01
 0.3220967167362E+01
 0.3218792258507E+01
 0.3210886559235E+01
 0.3196232619314E+01
 0.3173497973202E+01
 0.3141145209884E+01
 0.3097787731599E+01
 0.3042898050415E+01
 0.2978213151105E+01
 0.2910521106430E+01
 0.2857459826014E+01
 0.2858357719536E+01
 0.2988089116018E+01
 0.3358198686973E+01
 0.4069741882133E+01
 0.5106312120325E+01
 0.6251636247284E+01
 0.2548061464127E+01
 0.2692950099956E+01
 0.2826372829914E+01
 0.2928446537481E+01
 0.2995493719991E+01
 0.3034979015673E+01
 0.3056818189197E+01
 0.3068876150913E+01
 0.3076242771374E+01
 0.3081917124862E+01
 0.3087590031120E+01
 0.3094191118644E+01
 0.3102221330148E+01
 0.3111943862890E+01
 0.3123488003192E+01
 0.3136898988743E+01
 0.3152152126194E+01
 0.3169139465766E+01
 0.3187634183053E+01
 0.3207237779334E+01
 0.3227326729898E+01
 0.3247033209197E+01
 0.3265292299887E+01
 0.3280959973543E+01
 0.3292996540186E+01
 0.3300518625808E+01
 0.3302591006331E+01
 0.3297958297915E+01
 0.3284898218148E+01
 0.3261272577021E+01
 0.3224785991458E+01
 0.3173507254539E+01
 0.3106953694669E+01
 0.3028424242042E+01
 0.2950535681018E+01
 0.2907326635517E+01
 0.2974004127129E+01
 0.3281301701309E+01
 0.3975719553759E+01
 0.5079321135916E+01
 0.6345746797972E+01
 0.2566844185615E+01
 0.2721719440797E+01
 0.2860592944918E+01
 0.2960514418545E+01
 0.3020519549889E+01
 0.3052019529274E+01
 0.3067189533259E+01
 0.3074508591711E+01
 0.3078921566662E+01
 0.3083097160284E+01
 0.3088422444826E+01
 0.3095598093371E+01
 0.3104968849597E+01
 0.3116701272246E+01
 0.3130874682752E+01
 0.3147521253068E+01
 0.3166633317627E+01
 0.3188144655343E+01
 0.3211888451064E+01
 0.3237532734126E+01
 0.3264506899813E+01
 0.3291959234290E+01
 0.3318794127055E+01
 0.3343806199913E+01
 0.3365892855094E+01
 0.3384111024944E+01
 0.3397432144975E+01
 0.3404418836591E+01
 0.3403029157496E+01
 0.3390618353059E+01
 0.3364109714485E+01
 0.3320321056871E+01
 0.3256665501372E+01
 0.3172831104086E+01
 0.3075538025898E+01
 0.2990904969271E+01
 0.2989268482601E+01
 0.3216181378510E+01
 0.3872892325363E+01
 0.5044188366366E+01
 0.6456888554979E+01
 0.2589765993034E+01
 0.2756181274048E+01
 0.2899949488153E+01
 0.2995115031146E+01
 0.3045397852083E+01
 0.3067272151553E+01
 0.3075100230908E+01
 0.3077552019000E+01
 0.3079115991928E+01
 0.3081970981537E+01
 0.3087128024332E+01
 0.3095028795593E+01
 0.3105851915835E+01
 0.3119666839096E+01
 0.3136507058221E+01
 0.3156398585050E+01
 0.3179360363506E+01
 0.3205381388298E+01
 0.3234374571583E+01
 0.3266102703989E+01
 0.3300084062169E+01
 0.3335520291453E+01
 0.3371315751986E+01
 0.3406228391527E+01
 0.3439120414399E+01
 0.3469026311127E+01
 0.3494871260866E+01
 0.3515094371485E+01
 0.3527412443760E+01
 0.3528787415903E+01
 0.3515529069437E+01
 0.3483439440410E+01
 0.3428099708966E+01
 0.3345744246573E+01
 0.3236732785314E+01
 0.3116854543663E+01
 0.3045219609155E+01
 0.3173410534478E+01
 0.3763308911804E+01
 0.4997479287652E+01
 0.6588799567340E+01
 0.2618190425865E+01
 0.2797965436734E+01
 0.2945262343892E+01
 0.3031872297569E+01
 0.3069185014143E+01
 0.3079833856524E+01
 0.3079882986963E+01
 0.3077548418592E+01
 0.3076511660457E+01
 0.3078315265941E+01
 0.3083537626646E+01
 0.3092342979345E+01
 0.3104741579266E+01
 0.3120709961317E+01
 0.3140242473114E+01
 0.3163366925948E+01
 0.3190138388886E+01
 0.3220613721728E+01
 0.3254804455544E+01
 0.3292597331484E+01
 0.3333640306574E+01
 0.3377233941989E+01
 0.3422320746822E+01
 0.3467649829071E+01
 0.3512075367214E+01
 0.3554644006280E+01
 0.3594278031919E+01
 0.3629349828526E+01
 0.3657417938261E+01
 0.3675178776003E+01
 0.3678529645892E+01
 0.3662568193386E+01
 0.3621477470322E+01
 0.3548519422231E+01
 0.3437848273179E+01
 0.3293269162157E+01
 0.3155765114419E+01
 0.3168953657195E+01
 0.3652780780585E+01
 0.4934764793676E+01
 0.6746487252303E+01
 0.2654105071006E+01
 0.2849271952194E+01
 0.2997283445823E+01
 0.3069892253630E+01
 0.3090509901681E+01
 0.3088613395421E+01
 0.3080819999656E+01
 0.3074039420473E+01
 0.3070810033421E+01
 0.3071926652195E+01
 0.3077501504738E+01
 0.3087417810858E+01
 0.3101524115928E+01
 0.3119713247581E+01
 0.3141949680492E+01
 0.3168271891674E+01
 0.3198780185995E+01
 0.3233610406502E+01
 0.3272889470562E+01
 0.3316656543886E+01
 0.3364734333303E+01
 0.3416578351278E+01
 0.3471218833453E+01
 0.3527429652118E+01
 0.3584083239247E+01
 0.3640266691725E+01
 0.3694933006657E+01
 0.3746437141913E+01
 0.3792262974854E+01
 0.3828978871914E+01
 0.3852292805355E+01
 0.3856968341640E+01
 0.3836372752382E+01
 0.3781604213509E+01
 0.3681531000356E+01
 0.3527799566486E+01
 0.3337111243959E+01
 0.3225956111495E+01
 0.3554415504442E+01
 0.4850913578037E+01
 0.6936943179464E+01
 0.2700510608201E+01
 0.2913075032895E+01
 0.3056413398833E+01
 0.3107423736114E+01
 0.3107485313294E+01
 0.3092369405581E+01
 0.3077181228200E+01
 0.3066588372380E+01
 0.3061742143933E+01
 0.3062630269687E+01
 0.3068894702392E+01
 0.3080151534626E+01
 0.3096103743455E+01
 0.3116574780784E+01
 0.3141511000677E+01
 0.3170971115113E+01
 0.3205109046193E+01
 0.3244148555683E+01
 0.3288345107497E+01
 0.3337915481285E+01
 0.3392904563319E+01
 0.3452991451947E+01
 0.3517361150657E+01
 0.3584857019327E+01
 0.3654395799795E+01
 0.3725121771417E+01
 0.3796033294386E+01
 0.3865501703178E+01
 0.3931016613920E+01
 0.3989162082424E+01
 0.4035689028878E+01
 0.4065425858901E+01
 0.4071619166768E+01
 0.4044301183459E+01
 0.3968717236938E+01
 0.3826354584358E+01
 0.3606652921075E+01
 0.3376330838699E+01
 0.3494750482278E+01
 0.4741693538842E+01
 0.7170510730068E+01
 0.2762132325979E+01
 0.2993347723520E+01
 0.3122067696231E+01
 0.3141373945532E+01
 0.3117700249145E+01
 0.3089806836969E+01
 0.3068272743854E+01
 0.3054805273672E+01
 0.3049083801921E+01
 0.3050288369561E+01
 0.3057622361969E+01
 0.3070466995172E+01
 0.3088405192762E+01
 0.3111210266387E+01
 0.3138824394797E+01
 0.3171336548911E+01
 0.3208961634148E+01
 0.3252017580936E+01
 0.3300896537151E+01
 0.3356011295179E+01
 0.3417674410435E+01
 0.3485870746772E+01
 0.3560033637073E+01
 0.3639142230044E+01
 0.3722186389821E+01
 0.3808364701688E+01
 0.3896702211793E+01
 0.3985593762115E+01
 0.4072609038991E+01
 0.4154498172162E+01
 0.4227285504926E+01
 0.4286250944293E+01
 0.4325255855964E+01
 0.4334592054085E+01
 0.4298079845121E+01
 0.4191278647079E+01
 0.3980180372772E+01
 0.3661282690363E+01
 0.3523377777206E+01
 0.4609166129618E+01
 0.7463857891555E+01
 0.2846804719804E+01
 0.3095152035348E+01
 0.3191305498677E+01
 0.3166742561116E+01
 0.3118428236400E+01
 0.3079727415099E+01
 0.3053482492367E+01
 0.3038375657260E+01
 0.3032671019423E+01
 0.3034808452548E+01
 0.3043624755807E+01
 0.3058314837493E+01
 0.3078376053019E+01
 0.3103555000801E+01
 0.3133805398125E+01
 0.3169256663449E+01
 0.3210190807916E+01
 0.3257023210938E+01
 0.3310284881852E+01
 0.3370592259382E+01
 0.3438561090745E+01
 0.3514574779293E+01
 0.3598447637450E+01
 0.3689402660262E+01
 0.3786542421896E+01
 0.3889084020680E+01
 0.3996004059896E+01
 0.4105685984834E+01
 0.4215846174696E+01
 0.4323565632407E+01
 0.4425366453741E+01
 0.4517313546821E+01
 0.4594539162609E+01
 0.4649025214296E+01
 0.4665746869574E+01
 0.4619540418456E+01
 0.4466223993615E+01
 0.4128524592309E+01
 0.3725642845989E+01
 0.4477449629285E+01
 0.7847483108169E+01
 0.2968386858330E+01
 0.3223937727896E+01
 0.3255957430791E+01
 0.3176395137819E+01
 0.3107232684903E+01
 0.3061149053818E+01
 0.3032323573313E+01
 0.3017095401973E+01
 0.3012412098695E+01
 0.3016151150843E+01
 0.3026881564937E+01
 0.3043676276183E+01
 0.3065988798609E+01
 0.3093565599179E+01
 0.3126388859623E+01
 0.3164638469256E+01
 0.3208668285647E+01
 0.3258991366960E+01
 0.3316273705034E+01
 0.3381329303115E+01
 0.3455090111254E+01
 0.3538428618967E+01
 0.3631726479829E+01
 0.3734639673706E+01
 0.3846453025315E+01
 0.3966308921791E+01
 0.4092965586492E+01
 0.4224698717260E+01
 0.4359430119967E+01
 0.4494767372691E+01
 0.4627964131584E+01
 0.4756107872154E+01
 0.4876063430076E+01
 0.4982683528252E+01
 0.5065217730952E+01
 0.5102313428489E+01
 0.5057627661910E+01
 0.4819486264214E+01
 0.4235261335693E+01
 0.4434854231400E+01
 0.8387745557411E+01
 0.3153588550884E+01
 0.3381285037570E+01
 0.3297138251265E+01
 0.3162731730179E+01
 0.3082811867344E+01
 0.3033233402497E+01
 0.3004540772968E+01
 0.2990887025993E+01
 0.2988299909925E+01
 0.2994336636541E+01
 0.3007415111471E+01
 0.3026565343165E+01
 0.3051242380923E+01
 0.3081221430623E+01
 0.3116530427509E+01
 0.3157409291793E+01
 0.3204287038752E+01
 0.3257771733732E+01
 0.3318654925254E+01
 0.3387928962539E+01
 0.3466818384896E+01
 0.3556738899362E+01
 0.3658886414911E+01
 0.3773699208616E+01
 0.3900789038812E+01
 0.4039021341193E+01
 0.4186606414003E+01
 0.4341534586527E+01
 0.4501988077450E+01
 0.4666344204577E+01
 0.4832889573761E+01
 0.4999851521387E+01
 0.5165949590646E+01
 0.5329511455881E+01
 0.5486862825184E+01
 0.5626884142128E+01
 0.5726729722920E+01
 0.5732783846364E+01
 0.5235334413254E+01
 0.4731566615913E+01
 0.9265248566739E+01
 0.3460600822678E+01
 0.3544005942020E+01
 0.3279269467442E+01
 0.3124829926605E+01
 0.3044001459749E+01
 0.2995563706259E+01
 0.2970170634578E+01
 0.2959801553280E+01
 0.2960427401512E+01
 0.2969446480621E+01
 0.2985293327236E+01
 0.3007030164625E+01
 0.3034163426098E+01
 0.3066525693440E+01
 0.3104207751089E+01
 0.3147518251299E+01
 0.3196963291176E+01
 0.3253240871873E+01
 0.3317253773485E+01
 0.3390144263071E+01
 0.3473367854774E+01
 0.3568832214032E+01
 0.3678810208404E+01
 0.3805200123536E+01
 0.3948272750120E+01
 0.4106176904618E+01
 0.4275981031614E+01
 0.4455123889079E+01
 0.4642111866582E+01
 0.4836392366969E+01
 0.5037720635632E+01
 0.5245646244393E+01
 0.5460057456768E+01
 0.5682948525585E+01
 0.5918248119309E+01
 0.6174931233666E+01
 0.6442608033245E+01
 0.6761496982935E+01
 0.6885020202437E+01
 0.5928241700076E+01
 0.1111304248288E+02
 0.4043345024632E+01
 0.3549957422999E+01
 0.3191700599278E+01
 0.3066726725281E+01
 0.2988871657885E+01
 0.2948887194464E+01
 0.2929338314489E+01
 0.2924097460806E+01
 0.2928973109744E+01
 0.2941630416120E+01
 0.2960629459471E+01
 0.2985153945372E+01
 0.3014806782950E+01
 0.3049506146916E+01
 0.3089421363331E+01
 0.3134937384478E+01
 0.3186638106161E+01
 0.3245304473448E+01
 0.3311933166906E+01
 0.3387780496002E+01
 0.3474456980865E+01
 0.3574155299887E+01
 0.3690214869044E+01
 0.3827387157578E+01
 0.3987445969196E+01
 0.4166740179077E+01
 0.4360236253244E+01
 0.4564481821583E+01
 0.4778409607127E+01
 0.5002895942199E+01
 0.5239747824684E+01
 0.5490481744207E+01
 0.5754808220303E+01
 0.6035429655177E+01
 0.6348275125777E+01
 0.6715154624169E+01
 0.7187311550852E+01
 0.7745869035221E+01
 0.8921693610127E+01
 0.8874166986482E+01
 0.1702654780099E+02
 0.7472351776048E+00
 0.1024377343327E+01
 0.1296849736696E+01
 0.1553660278188E+01
 0.1789530005735E+01
 0.2001628731744E+01
 0.2188743966630E+01
 0.2351217280204E+01
 0.2490442617495E+01
 0.2608269151424E+01
 0.2706683688025E+01
 0.2787658648581E+01
 0.2852980048167E+01
 0.2904084991357E+01
 0.2942036874342E+01
 0.2967566072224E+01
 0.2980531185836E+01
 0.2980987196260E+01
 0.2971701158196E+01
 0.2957808167286E+01
 0.7316305338760E+00
 0.1016182444897E+01
 0.1293907069469E+01
 0.1555944319691E+01
 0.1797240889939E+01
 0.2015277140902E+01
 0.2209046776798E+01
 0.2378722423164E+01
 0.2525422626291E+01
 0.2650800783641E+01
 0.2756716156154E+01
 0.2845074211405E+01
 0.2917661024400E+01
 0.2976004840898E+01
 0.3021345287501E+01
 0.3054502560616E+01
 0.3075280679000E+01
 0.3083755242806E+01
 0.3078871674270E+01
 0.3057063801176E+01
 0.7163060489568E+00
 0.1009470092005E+01
 0.1293091563039E+01
 0.1560340832367E+01
 0.1806932765696E+01
 0.2030623075724E+01
 0.2230539314806E+01
 0.2406832619762E+01
 0.2560471743704E+01
 0.2692949952773E+01
 0.2806017716754E+01
 0.2901517489899E+01
 0.2981223959229E+01
 0.3046704074801E+01
 0.3099219287018E+01
 0.3139501634334E+01
 0.3167366506129E+01
 0.3182087119288E+01
 0.3181698497226E+01
 0.3165245357275E+01
 0.7017618277006E+00
 0.1003765655882E+01
 0.1293821205147E+01
 0.1566426706287E+01
 0.1818180104179E+01
 0.2047228999572E+01
 0.2252869416226E+01
 0.2435285733446E+01
 0.2595374991740E+01
 0.2734521345103E+01
 0.2854383894671E+01
 0.2956742504780E+01
 0.3043337984832E+01
 0.3115715552306E+01
 0.3175076747225E+01
 0.3222053981141E+01
 0.3256355700583E+01
 0.3277103319183E+01
 0.3283230307195E+01
 0.3275179405378E+01
 0.6880717086851E+00
 0.9990117182114E+00
 0.1295724813993E+01
 0.1573786420893E+01
 0.1830583788599E+01
 0.2064716809140E+01
 0.2275702394238E+01
 0.2463803168351E+01
 0.2629894518082E+01
 0.2775291714246E+01
 0.2901580607224E+01
 0.3010476601963E+01
 0.3103665179171E+01
 0.3182632791844E+01
 0.3248501457363E+01
 0.3301816061318E+01
 0.3342336539050E+01
 0.3369513492392E+01
 0.3383087921529E+01
 0.3384313315970E+01
 0.6752618391865E+00
 0.9951044149050E+00
 0.1298548485150E+01
 0.1582068377379E+01
 0.1843779038728E+01
 0.2082738653743E+01
 0.2298721304968E+01
 0.2492104373592E+01
 0.2663778537480E+01
 0.2815020198558E+01
 0.2947357004737E+01
 0.3062439753468E+01
 0.3161886695253E+01
 0.3247113948751E+01
 0.3319173224271E+01
 0.3378591568457E+01
 0.3425312057120E+01
 0.3459179607953E+01
 0.3480540302756E+01
 0.3491110980270E+01
 0.6633354500189E+00
 0.9919419878021E+00
 0.1302072482639E+01
 0.1590976084468E+01
 0.1857439366839E+01
 0.2100972928372E+01
 0.2321624796678E+01
 0.2519912746257E+01
 0.2696770198752E+01
 0.2853457438143E+01
 0.2991456594259E+01
 0.3112357102422E+01
 0.3217708899783E+01
 0.3308862707218E+01
 0.3386829157480E+01
 0.3452178595295E+01
 0.3505073022283E+01
 0.3545711866688E+01
 0.3574859242150E+01
 0.3594493756185E+01
 0.6522883198461E+00
 0.9894242336215E+00
 0.1306102417602E+01
 0.1600248826076E+01
 0.1871272837048E+01
 0.2119123266339E+01
 0.2344127681917E+01
 0.2546959459531E+01
 0.2728614226959E+01
 0.2890353527210E+01
 0.3033625415086E+01
 0.3159964742675E+01
 0.3270859841627E+01
 0.3367610589382E+01
 0.3451215976360E+01
 0.3522321732217E+01
 0.3581300708751E+01
 0.3628638211872E+01
 0.3665376940469E+01
 0.3693613712542E+01
 0.6421137171220E+00
 0.9874566404800E+00
 0.1310463123595E+01
 0.1609654135777E+01
 0.1885016195374E+01
 0.2136917289083E+01
 0.2365962012102E+01
 0.2572986718794E+01
 0.2759062040766E+01
 0.2925463996675E+01
 0.3073617235630E+01
 0.3205011261291E+01
 0.3321083893885E+01
 0.3423100797124E+01
 0.3512070526823E+01
 0.3588725778629E+01
 0.3653623776486E+01
 0.3707468900332E+01
 0.3751477271924E+01
 0.3787753620370E+01
 0.6328047538694E+00
 0.9859517629649E+00
 0.1314996357051E+01
 0.1618983071531E+01
 0.1898431249695E+01
 0.2154105116271E+01
 0.2386877927377E+01
 0.2597750342150E+01
 0.2787875550871E+01
 0.2958553890830E+01
 0.3111196405336E+01
 0.3247257540688E+01
 0.3368136887324E+01
 0.3475080483159E+01
 0.3569119392037E+01
 0.3651072574667E+01
 0.3721650561762E+01
 0.3781718995305E+01
 0.3832588209697E+01
 0.3876288483730E+01
 0.6243552868631E+00
 0.9848298807211E+00
 0.1319559351367E+01
 0.1628047562695E+01
 0.1911302491447E+01
 0.2170458406862E+01
 0.2406644309095E+01
 0.2621021803495E+01
 0.2814830020887E+01
 0.2989400615177E+01
 0.3146139634202E+01
 0.3286476511887E+01
 0.3411784043553E+01
 0.3523299930880E+01
 0.3622084281770E+01
 0.3709035321253E+01
 0.3784986950409E+01
 0.3850919048141E+01
 0.3908178361767E+01
 0.3958665666703E+01
 0.6167602535254E+00
 0.9840191808275E+00
 0.1324023915164E+01
 0.1636678775886E+01
 0.1923435638082E+01
 0.2185769762612E+01
 0.2425049314460E+01
 0.2642589751530E+01
 0.2839716140233E+01
 0.3017795933650E+01
 0.3178237284441E+01
 0.3322453519504E+01
 0.3451800275272E+01
 0.3567514916134E+01
 0.3670688729365E+01
 0.3762289403898E+01
 0.3843247686443E+01
 0.3914620968029E+01
 0.3977753288719E+01
 0.4034382438901E+01
 0.6100156762674E+00
 0.9834557063748E+00
 0.1328275786049E+01
 0.1644726084524E+01
 0.1934656736522E+01
 0.2199852416972E+01
 0.2441900844229E+01
 0.2662261182006E+01
 0.2862341601412E+01
 0.3043547552174E+01
 0.3207294678006E+01
 0.3354987499597E+01
 0.3487972043327E+01
 0.3607490527106E+01
 0.3714664700688E+01
 0.3810521077457E+01
 0.3896064707093E+01
 0.3972402639246E+01
 0.4040851261299E+01
 0.4102972891403E+01
 0.6041185459241E+00
 0.9830832052435E+00
 0.1332214173091E+01
 0.1652056421182E+01
 0.1944811642723E+01
 0.2212540124308E+01
 0.2457026977555E+01
 0.2679862378916E+01
 0.2882532367817E+01
 0.3066480500991E+01
 0.3233133526268E+01
 0.3383892704813E+01
 0.3520099979265E+01
 0.3643005375541E+01
 0.3753758630733E+01
 0.3853434638849E+01
 0.3943094058012E+01
 0.4023872888226E+01
 0.4097045529934E+01
 0.4164005510014E+01
 0.5990666628711E+00
 0.9828529439551E+00
 0.1335751412241E+01
 0.1658553846636E+01
 0.1953765703640E+01
 0.2223687137239E+01
 0.2470276339092E+01
 0.2695239660971E+01
 0.2900133710784E+01
 0.3086438379574E+01
 0.3255593422511E+01
 0.3409000685563E+01
 0.3548001757096E+01
 0.3673855715104E+01
 0.3787736791966E+01
 0.3890758544364E+01
 0.3984022046478E+01
 0.4068677426897E+01
 0.4145951345484E+01
 0.4217087394077E+01
 0.5948584638465E+00
 0.9827235194578E+00
 0.1338812714474E+01
 0.1664119278763E+01
 0.1961403593066E+01
 0.2233168267985E+01
 0.2481518453940E+01
 0.2708260039650E+01
 0.2915011143029E+01
 0.3103284557777E+01
 0.3274533391668E+01
 0.3430162384395E+01
 0.3571514987554E+01
 0.3699859306646E+01
 0.3816390056300E+01
 0.3922250720804E+01
 0.4018570748550E+01
 0.4106504595442E+01
 0.4187231901730E+01
 0.4261870840526E+01
 0.5914928765190E+00
 0.9826606925462E+00
 0.1341335983163E+01
 0.1668670318942E+01
 0.1967629230231E+01
 0.2240878979330E+01
 0.2490644063480E+01
 0.2718811782568E+01
 0.2927051238063E+01
 0.3116903281500E+01
 0.3289833370286E+01
 0.3447250138347E+01
 0.3590499900181E+01
 0.3720858852783E+01
 0.3839537983414E+01
 0.3947703042344E+01
 0.4046502596755E+01
 0.4137089768734E+01
 0.4220602402989E+01
 0.4298059436632E+01
 0.5889691865314E+00
 0.9826372419777E+00
 0.1343271674773E+01
 0.1672141136036E+01
 0.1972365741792E+01
 0.2246735480355E+01
 0.2497565396698E+01
 0.2726804889113E+01
 0.2936162336273E+01
 0.3127200653482E+01
 0.3301395541423E+01
 0.3460159474803E+01
 0.3604841694122E+01
 0.3736724922641E+01
 0.3857032210253E+01
 0.3966944945870E+01
 0.4067623900566E+01
 0.4160218437469E+01
 0.4245832824494E+01
 0.4325412638106E+01
 0.5872869416782E+00
 0.9826328514345E+00
 0.1344582706608E+01
 0.1674482402150E+01
 0.1975555461868E+01
 0.2250674829613E+01
 0.2502216409764E+01
 0.2732171495427E+01
 0.2942275146645E+01
 0.3134105476439E+01
 0.3309145483899E+01
 0.3468810641193E+01
 0.3614452501834E+01
 0.3747358339462E+01
 0.3868759150608E+01
 0.3979846215450E+01
 0.4081787408974E+01
 0.4175728284438E+01
 0.4262749696665E+01
 0.4343748819385E+01
 0.5864458794235E+00
 0.9826340235445E+00
 0.1345244389920E+01
 0.1675661249665E+01
 0.1977159936915E+01
 0.2252655015053E+01
 0.2504552966506E+01
 0.2734866180720E+01
 0.2945343207724E+01
 0.3137569906457E+01
 0.3313033066478E+01
 0.3473149789413E+01
 0.3619272892164E+01
 0.3752691979642E+01
 0.3874641987587E+01
 0.3986318975726E+01
 0.4088894058440E+01
 0.4183510493205E+01
 0.4271237107731E+01
 0.4352946957352E+01
 0.5864458795887E+00
 0.9826340235642E+00
 0.1345244389847E+01
 0.1675661249539E+01
 0.1977159936761E+01
 0.2252655014891E+01
 0.2504552966348E+01
 0.2734866180577E+01
 0.2945343207602E+01
 0.3137569906359E+01
 0.3313033066405E+01
 0.3473149789364E+01
 0.3619272892134E+01
 0.3752691979626E+01
 0.3874641987582E+01
 0.3986318975728E+01
 0.4088894058446E+01
 0.4183510493215E+01
 0.4271237107745E+01
 0.4352946957370E+01
 0.5872869421737E+00
 0.9826328514946E+00
 0.1344582706390E+01
 0.1674482401772E+01
 0.1975555461409E+01
 0.2250674829128E+01
 0.2502216409293E+01
 0.2732171494999E+01
 0.2942275146280E+01
 0.3134105476147E+01
 0.3309145483683E+01
 0.3468810641046E+01
 0.3614452501743E+01
 0.3747358339415E+01
 0.3868759150592E+01
 0.3979846215455E+01
 0.4081787408993E+01
 0.4175728284468E+01
 0.4262749696706E+01
 0.4343748819439E+01
 0.5889691873574E+00
 0.9826372420815E+00
 0.1343271674417E+01
 0.1672141135413E+01
 0.1972365741034E+01
 0.2246735479553E+01
 0.2497565395918E+01
 0.2726804888404E+01
 0.2936162335667E+01
 0.3127200652998E+01
 0.3301395541064E+01
 0.3460159474559E+01
 0.3604841693973E+01
 0.3736724922564E+01
 0.3857032210228E+01
 0.3966944945880E+01
 0.4067623900598E+01
 0.4160218437520E+01
 0.4245832824563E+01
 0.4325412638196E+01
 0.5914928776755E+00
 0.9826606926989E+00
 0.1341335982676E+01
 0.1668670318083E+01
 0.1967629229184E+01
 0.2240878978220E+01
 0.2490644062398E+01
 0.2718811781582E+01
 0.2927051237221E+01
 0.3116903280829E+01
 0.3289833369789E+01
 0.3447250138009E+01
 0.3590499899976E+01
 0.3720858852679E+01
 0.3839537983381E+01
 0.3947703042359E+01
 0.4046502596801E+01
 0.4137089768806E+01
 0.4220602403085E+01
 0.4298059436758E+01
 0.5948584653336E+00
 0.9827235196670E+00
 0.1338812713869E+01
 0.1664119277683E+01
 0.1961403591742E+01
 0.2233168266578E+01
 0.2481518452567E+01
 0.2708260038397E+01
 0.2915011141959E+01
 0.3103284556923E+01
 0.3274533391037E+01
 0.3430162383967E+01
 0.3571514987295E+01
 0.3699859306517E+01
 0.3816390056262E+01
 0.3922250720827E+01
 0.4018570748612E+01
 0.4106504595535E+01
 0.4187231901854E+01
 0.4261870840689E+01
 0.5990666646891E+00
 0.9828529442306E+00
 0.1335751411533E+01
 0.1658553845351E+01
 0.1953765702058E+01
 0.2223687135552E+01
 0.2470276337441E+01
 0.2695239659462E+01
 0.2900133709494E+01
 0.3086438378545E+01
 0.3255593421751E+01
 0.3409000685051E+01
 0.3548001756789E+01
 0.3673855714954E+01
 0.3787736791926E+01
 0.3890758544396E+01
 0.3984022046557E+01
 0.4068677427011E+01
 0.4145951345635E+01
 0.4217087394276E+01
 0.6041185480734E+00
 0.9830832055974E+00
 0.1332214172299E+01
 0.1652056419716E+01
 0.1944811640904E+01
 0.2212540122359E+01
 0.2457026975642E+01
 0.2679862377164E+01
 0.2882532366317E+01
 0.3066480499795E+01
 0.3233133525387E+01
 0.3383892704221E+01
 0.3520099978915E+01
 0.3643005375374E+01
 0.3753758630694E+01
 0.3853434638894E+01
 0.3943094058109E+01
 0.4023872888363E+01
 0.4097045530114E+01
 0.4164005510249E+01
 0.6100156787488E+00
 0.9834557068215E+00
 0.1328275785195E+01
 0.1644726082901E+01
 0.1934656734491E+01
 0.2199852414784E+01
 0.2441900842072E+01
 0.2662261180026E+01
 0.2862341599715E+01
 0.3043547550820E+01
 0.3207294677012E+01
 0.3354987498934E+01
 0.3487972042939E+01
 0.3607490526927E+01
 0.3714664700655E+01
 0.3810521077517E+01
 0.3896064707210E+01
 0.3972402639406E+01
 0.4040851261506E+01
 0.4102972891676E+01
 0.6167602563399E+00
 0.9840191813840E+00
 0.1324023914276E+01
 0.1636678774136E+01
 0.1923435635867E+01
 0.2185769760211E+01
 0.2425049312082E+01
 0.2642589749340E+01
 0.2839716138353E+01
 0.3017795932151E+01
 0.3178237283343E+01
 0.3322453518776E+01
 0.3451800274853E+01
 0.3567514915949E+01
 0.3670688729341E+01
 0.3762289403977E+01
 0.3843247686583E+01
 0.3914620968214E+01
 0.3977753288955E+01
 0.4034382439211E+01
 0.6243552900121E+00
 0.9848298814069E+00
 0.1319559350475E+01
 0.1628047560852E+01
 0.1911302489081E+01
 0.2170458404277E+01
 0.2406644306521E+01
 0.2621021801114E+01
 0.2814830018839E+01
 0.2989400613545E+01
 0.3146139633010E+01
 0.3286476511103E+01
 0.3411784043110E+01
 0.3523299930694E+01
 0.3622084281761E+01
 0.3709035321354E+01
 0.3784986950574E+01
 0.3850919048350E+01
 0.3908178362030E+01
 0.3958665667051E+01
 0.6328047573552E+00
 0.9859517638022E+00
 0.1314996356187E+01
 0.1618983069633E+01
 0.1898431247215E+01
 0.2154105113534E+01
 0.2386877924633E+01
 0.2597750339602E+01
 0.2787875548673E+01
 0.2958553889078E+01
 0.3111196404060E+01
 0.3247257539856E+01
 0.3368136886864E+01
 0.3475080482979E+01
 0.3569119392049E+01
 0.3651072574795E+01
 0.3721650561954E+01
 0.3781718995540E+01
 0.3832588209988E+01
 0.3876288484117E+01
 0.6421137209473E+00
 0.9874566414942E+00
 0.1310463122799E+01
 0.1609654133866E+01
 0.1885016192820E+01
 0.2136917286229E+01
 0.2365962009218E+01
 0.2572986716101E+01
 0.2759062038437E+01
 0.2925463994820E+01
 0.3073617234283E+01
 0.3205011260422E+01
 0.3321083893415E+01
 0.3423100796957E+01
 0.3512070526860E+01
 0.3588725778788E+01
 0.3653623776708E+01
 0.3707468900594E+01
 0.3751477272242E+01
 0.3787753620796E+01
 0.6522883240150E+00
 0.9894242348408E+00
 0.1306102416915E+01
 0.1600248824198E+01
 0.1871272834464E+01
 0.2119123263408E+01
 0.2344127678926E+01
 0.2546959456721E+01
 0.2728614224521E+01
 0.2890353525268E+01
 0.3033625413683E+01
 0.3159964741778E+01
 0.3270859841155E+01
 0.3367610589232E+01
 0.3451215976426E+01
 0.3522321732410E+01
 0.3581300709006E+01
 0.3628638212162E+01
 0.3665376940815E+01
 0.3693613713007E+01
 0.6633354545362E+00
 0.9919419892580E+00
 0.1302072482107E+01
 0.1590976082672E+01
 0.1857439364274E+01
 0.2100972925406E+01
 0.2321624793616E+01
 0.2519912743360E+01
 0.2696770196229E+01
 0.2853457436133E+01
 0.2991456592812E+01
 0.3112357101509E+01
 0.3217708899317E+01
 0.3308862707090E+01
 0.3386829157580E+01
 0.3452178595525E+01
 0.3505073022573E+01
 0.3545711867008E+01
 0.3574859242522E+01
 0.3594493756685E+01
 0.6752618440589E+00
 0.9951044166327E+00
 0.1298548484823E+01
 0.1582068375721E+01
 0.1843779036232E+01
 0.2082738650788E+01
 0.2298721301873E+01
 0.2492104370639E+01
 0.2663778534898E+01
 0.2815020196500E+01
 0.2947357003264E+01
 0.3062439752549E+01
 0.3161886694800E+01
 0.3247113948650E+01
 0.3319173224407E+01
 0.3378591568727E+01
 0.3425312057445E+01
 0.3459179608302E+01
 0.3480540303153E+01
 0.3491110980799E+01
 0.6880717139209E+00
 0.9990117202496E+00
 0.1295724813926E+01
 0.1573786419429E+01
 0.1830583786227E+01
 0.2064716806244E+01
 0.2275702391153E+01
 0.2463803165377E+01
 0.2629894515470E+01
 0.2775291712165E+01
 0.2901580605740E+01
 0.3010476601050E+01
 0.3103665178737E+01
 0.3182632791772E+01
 0.3248501457533E+01
 0.3301816061626E+01
 0.3342336539410E+01
 0.3369513492769E+01
 0.3383087921949E+01
 0.3384313316520E+01
 0.7017618333102E+00
 0.1003765658274E+01
 0.1293821205399E+01
 0.1566426705079E+01
 0.1818180101989E+01
 0.2047228996788E+01
 0.2252869413195E+01
 0.2435285730491E+01
 0.2595374989131E+01
 0.2734521343024E+01
 0.2854383893197E+01
 0.2956742503885E+01
 0.3043337984422E+01
 0.3115715552261E+01
 0.3175076747427E+01
 0.3222053981482E+01
 0.3256355700974E+01
 0.3277103319584E+01
 0.3283230307633E+01
 0.3275179405937E+01
 0.7163060549528E+00
 0.1009470094797E+01
 0.1293091563669E+01
 0.1560340831477E+01
 0.1806932763748E+01
 0.2030623073106E+01
 0.2230539311881E+01
 0.2406832616871E+01
 0.2560471741137E+01
 0.2692949950727E+01
 0.2806017715312E+01
 0.2901517489034E+01
 0.2981223958846E+01
 0.3046704074780E+01
 0.3099219287244E+01
 0.3139501634700E+01
 0.3167366506542E+01
 0.3182087119706E+01
 0.3181698497677E+01
 0.3165245357830E+01
 0.7316305402752E+00
 0.1016182448137E+01
 0.1293907070538E+01
 0.1555944319184E+01
 0.1797240888294E+01
 0.2015277138510E+01
 0.2209046774034E+01
 0.2378722420389E+01
 0.2525422623811E+01
 0.2650800781666E+01
 0.2756716154769E+01
 0.2845074210583E+01
 0.2917661024047E+01
 0.2976004840894E+01
 0.3021345287736E+01
 0.3054502560991E+01
 0.3075280679421E+01
 0.3083755243231E+01
 0.3078871674725E+01
 0.3057063801713E+01
 0.7472351844068E+00
 0.1024377347048E+01
 0.1296849738263E+01
 0.1553660278128E+01
 0.1789530004457E+01
 0.2001628729641E+01
 0.2188743964091E+01
 0.2351217277605E+01
 0.2490442615159E+01
 0.2608269149565E+01
 0.2706683686727E+01
 0.2787658647816E+01
 0.2852980047842E+01
 0.2904084991358E+01
 0.2942036874564E+01
 0.2967566072579E+01
 0.2980531186242E+01
 0.2980987196681E+01
 0.2971701158651E+01
 0.2957808167784E+01
 0.3152357742301E+01
 0.2650056966659E+01
 0.1581871224308E+01
 0.1043738051695E+01
 0.6665581742305E+00
 0.3858357893931E+00
 0.1849601134276E+00
 0.4930203749700E-01
 0.5342755373082E-01
 0.1396014430048E+00
 0.2142480506594E+00
 0.2773290021224E+00
 0.3265958374256E+00
 0.3580348629803E+00
 0.3678587906070E+00
 0.3507970063522E+00
 0.3005234563397E+00
 0.2159369352714E+00
 0.1107904874054E+00
 0.1880378114393E-01
 0.2679776693086E+01
 0.2907402602004E+01
 0.1971601802658E+01
 0.1334620931188E+01
 0.9244656075261E+00
 0.6233236219736E+00
 0.4037575169567E+00
 0.2441000508932E+00
 0.1218289883908E+00
 0.2208928645507E-01
 0.6316428826860E-01
 0.1359799698724E+00
 0.1964441368948E+00
 0.2419435281152E+00
 0.2684248715571E+00
 0.2719177192522E+00
 0.2514065353538E+00
 0.1967150444761E+00
 0.1093661318904E+00
 0.7962388333261E-02
 0.2305315532900E+01
 0.2751959668834E+01
 0.2213784295344E+01
 0.1614226643490E+01
 0.1176853089609E+01
 0.8588364472812E+00
 0.6225632249946E+00
 0.4464794327739E+00
 0.3087220634593E+00
 0.1954561536194E+00
 0.9891991991138E-01
 0.1537598773107E-01
 0.5672469494007E-01
 0.1161506255168E+00
 0.1599334132189E+00
 0.1850995791900E+00
 0.1906875001438E+00
 0.1645125993007E+00
 0.1003084149559E+00
 0.7869559033425E-02
 0.2023209429975E+01
 0.2540588112690E+01
 0.2286509685925E+01
 0.1834429731760E+01
 0.1416060482997E+01
 0.1089353389168E+01
 0.8412136049030E+00
 0.6528502587502E+00
 0.5034649718794E+00
 0.3788895561074E+00
 0.2715171376748E+00
 0.1772529382964E+00
 0.9381119688071E-01
 0.2090818516264E-01
 0.3963257293194E-01
 0.8534430431160E-01
 0.1156798249523E+00
 0.1171471096514E+00
 0.7840173891892E-01
 0.7803866118656E-02
 0.1803707116100E+01
 0.2332641893419E+01
 0.2272176665049E+01
 0.1974309511845E+01
 0.1622814403576E+01
 0.1308959716204E+01
 0.1056836695088E+01
 0.8607278171325E+00
 0.7030606705376E+00
 0.5698453525838E+00
 0.4534043511122E+00
 0.3495713761728E+00
 0.2556509392144E+00
 0.1703742142006E+00
 0.9464197291357E-01
 0.3032580273122E-01
 0.2338803617929E-01
 0.5091134522573E-01
 0.3811488849599E-01
 0.9867992050976E-02
 0.1629079573302E+01
 0.2144159738671E+01
 0.2213661765528E+01
 0.2049983067193E+01
 0.1784432726678E+01
 0.1507550658029E+01
 0.1264328559071E+01
 0.1066742675704E+01
 0.9046651467307E+00
 0.7657974187952E+00
 0.6427037442755E+00
 0.5312321715559E+00
 0.4285215592210E+00
 0.3326767865739E+00
 0.2437879207497E+00
 0.1629995674894E+00
 0.9006179544805E-01
 0.3883671793964E-01
 0.2716979061456E-01
 0.5234948727204E-01
 0.1487624988941E+01
 0.1978163464070E+01
 0.2134366546849E+01
 0.2079418914955E+01
 0.1901525444359E+01
 0.1676951534171E+01
 0.1456895843494E+01
 0.1266336492962E+01
 0.1104894965053E+01
 0.9639723185308E+00
 0.8371566591027E+00
 0.7205782493082E+00
 0.6114069132058E+00
 0.5073959978971E+00
 0.4080368814692E+00
 0.3139270106332E+00
 0.2243526126305E+00
 0.1522849878961E+00
 0.1182959882777E+00
 0.1250038199044E+00
 0.1371342590165E+01
 0.1833732816911E+01
 0.2047100373746E+01
 0.2077244680876E+01
 0.1980034340391E+01
 0.1814348009287E+01
 0.1628617361863E+01
 0.1454334545848E+01
 0.1299741071968E+01
 0.1161155824526E+01
 0.1034102929425E+01
 0.9154436150439E+00
 0.8026380865079E+00
 0.6933421082842E+00
 0.5866458893520E+00
 0.4827121411501E+00
 0.3804935969538E+00
 0.2918066988367E+00
 0.2390782777292E+00
 0.2301878152271E+00
 0.1274528218429E+01
 0.1708721444933E+01
 0.1958968061960E+01
 0.2054272198038E+01
 0.2027295099695E+01
 0.1920776592382E+01
 0.1776168909616E+01
 0.1626188560925E+01
 0.1485012517986E+01
 0.1353773093074E+01
 0.1230487612386E+01
 0.1113201500533E+01
 0.9999726015600E+00
 0.8886237938755E+00
 0.7780450441281E+00
 0.6680870776237E+00
 0.5574925922449E+00
 0.4566206507613E+00
 0.3891243415434E+00
 0.3679234817388E+00
 0.1192982676252E+01
 0.1600717792336E+01
 0.1873866918641E+01
 0.2018224359237E+01
 0.2050284992607E+01
 0.1999377571623E+01
 0.1898713464515E+01
 0.1778836265146E+01
 0.1657012876736E+01
 0.1538227951522E+01
 0.1423011209230E+01
 0.1310854781279E+01
 0.1200680926282E+01
 0.1090737096857E+01
 0.9799176133273E+00
 0.8678891180282E+00
 0.7532971100881E+00
 0.6448258859582E+00
 0.5666914371677E+00
 0.5362241605564E+00
 0.1123534275244E+01
 0.1507389958784E+01
 0.1793831386895E+01
 0.1974518382469E+01
 0.2055004298200E+01
 0.2054141929982E+01
 0.1997217453932E+01
 0.1910832025196E+01
 0.1813014388343E+01
 0.1711318291283E+01
 0.1608401541910E+01
 0.1505209963020E+01
 0.1401676209238E+01
 0.1296679561920E+01
 0.1189310797761E+01
 0.1079177000124E+01
 0.9649144102927E+00
 0.8533885966407E+00
 0.7686612995177E+00
 0.7315325458516E+00
 0.1063738658699E+01
 0.1426603492577E+01
 0.1719784093453E+01
 0.1926894880166E+01
 0.2046349836839E+01
 0.2089166221706E+01
 0.2073735339436E+01
 0.2022090786323E+01
 0.1951397478702E+01
 0.1870535053631E+01
 0.1783704603161E+01
 0.1693109549475E+01
 0.1599696546903E+01
 0.1503102139251E+01
 0.1402774569429E+01
 0.1298376168577E+01
 0.1188590282557E+01
 0.1078369332181E+01
 0.9908471749663E+00
 0.9491601942223E+00
 0.1011682341506E+01
 0.1356450685396E+01
 0.1651971943233E+01
 0.1877881819224E+01
 0.2028185656132E+01
 0.2108256653163E+01
 0.2130848099350E+01
 0.2113506938123E+01
 0.2071558219636E+01
 0.2014182808014E+01
 0.1946501812038E+01
 0.1871664325011E+01
 0.1791518121551E+01
 0.1706496317736E+01
 0.1616527672194E+01
 0.1521439795807E+01
 0.1419997531684E+01
 0.1315170617219E+01
 0.1228321992053E+01
 0.1183697349137E+01
 0.9658495603176E+00
 0.1295245666001E+01
 0.1590228176901E+01
 0.1829128339788E+01
 0.2003478858178E+01
 0.2114745831501E+01
 0.2171274650954E+01
 0.2186586969867E+01
 0.2173703356418E+01
 0.2141355779726E+01
 0.2095020307808E+01
 0.2038437787920E+01
 0.1974166742136E+01
 0.1903402589393E+01
 0.1826645702462E+01
 0.1744014706641E+01
 0.1654409363542E+01
 0.1558768850012E+01
 0.1475738745530E+01
 0.1429383491834E+01
 0.9250290851184E+00
 0.1241507286902E+01
 0.1534134945920E+01
 0.1781644299242E+01
 0.1974445215458E+01
 0.2111430346038E+01
 0.2197624351037E+01
 0.2243147710861E+01
 0.2258615114138E+01
 0.2251824537668E+01
 0.2228145909254E+01
 0.2191562495510E+01
 0.2145104622501E+01
 0.2090629524321E+01
 0.2029270544852E+01
 0.1961608757764E+01
 0.1886829460599E+01
 0.1803891209273E+01
 0.1727622967179E+01
 0.1680444938694E+01
 0.8882470028229E+00
 0.1193938948231E+01
 0.1483127396662E+01
 0.1735973650047E+01
 0.1942683380884E+01
 0.2100573443798E+01
 0.2212251553552E+01
 0.2285089191464E+01
 0.2327428927719E+01
 0.2345877743441E+01
 0.2345359768009E+01
 0.2329783962553E+01
 0.2302378870319E+01
 0.2265485893523E+01
 0.2220865941820E+01
 0.2169779318332E+01
 0.2112065482110E+01
 0.2045056535714E+01
 0.1978598233845E+01
 0.1931410468915E+01
 0.8547165712923E+00
 0.1151408978700E+01
 0.1436563050340E+01
 0.1692321946810E+01
 0.1909290989172E+01
 0.2083940342314E+01
 0.2217180115768E+01
 0.2314235279125E+01
 0.2381443496178E+01
 0.2424147429347E+01
 0.2446614465799E+01
 0.2452422329711E+01
 0.2444708595445E+01
 0.2426018097302E+01
 0.2398588125363E+01
 0.2364463067328E+01
 0.2324762365677E+01
 0.2276385227056E+01
 0.2223354298518E+01
 0.2177464056328E+01
 0.8237981291650E+00
 0.1112933856299E+01
 0.1393772006626E+01
 0.1650653055235E+01
 0.1874960957081E+01
 0.2062845907821E+01
 0.2214074780484E+01
 0.2332232588305E+01
 0.2421973508596E+01
 0.2487439517302E+01
 0.2532162008794E+01
 0.2559229490398E+01
 0.2571438541771E+01
 0.2571181710417E+01
 0.2560765117788E+01
 0.2542786838398E+01
 0.2519827213047E+01
 0.2490869493871E+01
 0.2456095985361E+01
 0.2414624219787E+01
 0.7949629879058E+00
 0.1077660107057E+01
 0.1354110054838E+01
 0.1610767916562E+01
 0.1840050743651E+01
 0.2038200919598E+01
 0.2204241373929E+01
 0.2340502047784E+01
 0.2450256063104E+01
 0.2536596909837E+01
 0.2602365085278E+01
 0.2650135658702E+01
 0.2682249406801E+01
 0.2700672488287E+01
 0.2707240201029E+01
 0.2704241280580E+01
 0.2694987305091E+01
 0.2680599201324E+01
 0.2666390203479E+01
 0.2640004836243E+01
 0.7677033945422E+00
 0.1044914448827E+01
 0.1317048451285E+01
 0.1572363902851E+01
 0.1804622917000E+01
 0.2010514994065E+01
 0.2188653549596E+01
 0.2340247839367E+01
 0.2467418655575E+01
 0.2572432793526E+01
 0.2657566376384E+01
 0.2724977955814E+01
 0.2776625573074E+01
 0.2814066115807E+01
 0.2838513156959E+01
 0.2851144057377E+01
 0.2853813695377E+01
 0.2847648818166E+01
 0.2838900836297E+01
 0.2839748980796E+01
 0.7677034017817E+00
 0.1044914453333E+01
 0.1317048453714E+01
 0.1572363903593E+01
 0.1804622916381E+01
 0.2010514992438E+01
 0.2188653547355E+01
 0.2340247836925E+01
 0.2467418653296E+01
 0.2572432791664E+01
 0.2657566375050E+01
 0.2724977954998E+01
 0.2776625572693E+01
 0.2814066115752E+01
 0.2838513157127E+01
 0.2851144057701E+01
 0.2853813695820E+01
 0.2847648818671E+01
 0.2838900836888E+01
 0.2839748981434E+01
 0.7949629953080E+00
 0.1077660112061E+01
 0.1354110057916E+01
 0.1610767917957E+01
 0.1840050743599E+01
 0.2038200918414E+01
 0.2204241372015E+01
 0.2340502045574E+01
 0.2450256060988E+01
 0.2536596908083E+01
 0.2602365084010E+01
 0.2650135657918E+01
 0.2682249406426E+01
 0.2700672488219E+01
 0.2707240201181E+01
 0.2704241280906E+01
 0.2694987305565E+01
 0.2680599201856E+01
 0.2666390204132E+01
 0.2640004837111E+01
 0.8237981367961E+00
 0.1112933861916E+01
 0.1393772010440E+01
 0.1650653057328E+01
 0.1874960957597E+01
 0.2062845907050E+01
 0.2214074778837E+01
 0.2332232586249E+01
 0.2421973506554E+01
 0.2487439515570E+01
 0.2532162007510E+01
 0.2559229489571E+01
 0.2571438541333E+01
 0.2571181710274E+01
 0.2560765117860E+01
 0.2542786838641E+01
 0.2519827213415E+01
 0.2490869494269E+01
 0.2456095985975E+01
 0.2414624220908E+01
 0.8547165792099E+00
 0.1151408985041E+01
 0.1436563054968E+01
 0.1692321949624E+01
 0.1909290990228E+01
 0.2083940341885E+01
 0.2217180114294E+01
 0.2314235277120E+01
 0.2381443494111E+01
 0.2424147427545E+01
 0.2446614464418E+01
 0.2452422328767E+01
 0.2444708594874E+01
 0.2426018097015E+01
 0.2398588125277E+01
 0.2364463067392E+01
 0.2324762365826E+01
 0.2276385227222E+01
 0.2223354299053E+01
 0.2177464057683E+01
 0.8882470110904E+00
 0.1193938955402E+01
 0.1483127402166E+01
 0.1735973653577E+01
 0.1942683382414E+01
 0.2100573443605E+01
 0.2212251552128E+01
 0.2285089189388E+01
 0.2327428925519E+01
 0.2345877741476E+01
 0.2345359766450E+01
 0.2329783961422E+01
 0.2302378869552E+01
 0.2265485893027E+01
 0.2220865941508E+01
 0.2169779318141E+01
 0.2112065481961E+01
 0.2045056535597E+01
 0.1978598234270E+01
 0.1931410470454E+01
 0.9250290938048E+00
 0.1241507295001E+01
 0.1534134952333E+01
 0.1781644303445E+01
 0.1974445217354E+01
 0.2111430345937E+01
 0.2197624349508E+01
 0.2243147708575E+01
 0.2258615111691E+01
 0.2251824535451E+01
 0.2228145907448E+01
 0.2191562494136E+01
 0.2145104621489E+01
 0.2090629523571E+01
 0.2029270544267E+01
 0.1961608757269E+01
 0.1886829460110E+01
 0.1803891208853E+01
 0.1727622967469E+01
 0.1680444940351E+01
 0.9658495694978E+00
 0.1295245675116E+01
 0.1590228184227E+01
 0.1829128344576E+01
 0.2003478860287E+01
 0.2114745831306E+01
 0.2171274649143E+01
 0.2186586967227E+01
 0.2173703353619E+01
 0.2141355777183E+01
 0.2095020305704E+01
 0.2038437786267E+01
 0.1974166740853E+01
 0.1903402588366E+01
 0.1826645701585E+01
 0.1744014705827E+01
 0.1654409362704E+01
 0.1558768849291E+01
 0.1475738745666E+01
 0.1429383493535E+01
 0.1011682351258E+01
 0.1356450695599E+01
 0.1651971951435E+01
 0.1877881824456E+01
 0.2028185658249E+01
 0.2108256652656E+01
 0.2130848097068E+01
 0.2113506934993E+01
 0.2071558216397E+01
 0.2014182805096E+01
 0.1946501809612E+01
 0.1871664323071E+01
 0.1791518119998E+01
 0.1706496316438E+01
 0.1616527671032E+01
 0.1521439794683E+01
 0.1419997530515E+01
 0.1315170616222E+01
 0.1228321992032E+01
 0.1183697350808E+01
 0.1063738669104E+01
 0.1426603503915E+01
 0.1719784102442E+01
 0.1926894885642E+01
 0.2046349838709E+01
 0.2089166220644E+01
 0.2073735336497E+01
 0.2022090782589E+01
 0.1951397474971E+01
 0.1870535050326E+01
 0.1783704600426E+01
 0.1693109547273E+01
 0.1599696545107E+01
 0.1503102137711E+01
 0.1402774568014E+01
 0.1298376167180E+01
 0.1188590281099E+01
 0.1078369330956E+01
 0.9908471748032E+00
 0.9491601958021E+00
 0.1123534286377E+01
 0.1507389971274E+01
 0.1793831396523E+01
 0.1974518387923E+01
 0.2055004299523E+01
 0.2054141928109E+01
 0.1997217450174E+01
 0.1910832020793E+01
 0.1813014384120E+01
 0.1711318287626E+01
 0.1608401538915E+01
 0.1505209960608E+01
 0.1401676207252E+01
 0.1296679560190E+01
 0.1189310796145E+01
 0.1079176998510E+01
 0.9649144086094E+00
 0.8533885952573E+00
 0.7686612992520E+00
 0.7315325473034E+00
 0.1192982688182E+01
 0.1600717805949E+01
 0.1873866928682E+01
 0.2018224364326E+01
 0.2050284993045E+01
 0.1999377568700E+01
 0.1898713459834E+01
 0.1778836260076E+01
 0.1657012872083E+01
 0.1538227947597E+01
 0.1423011206059E+01
 0.1310854778733E+01
 0.1200680924174E+01
 0.1090737094999E+01
 0.9799176115771E+00
 0.8678891162712E+00
 0.7532971082643E+00
 0.6448258845075E+00
 0.5666914368658E+00
 0.5362241618766E+00
 0.1274528231207E+01
 0.1708721459576E+01
 0.1958968072092E+01
 0.2054272202347E+01
 0.2027295098897E+01
 0.1920776588223E+01
 0.1776168903998E+01
 0.1626188555284E+01
 0.1485012513034E+01
 0.1353773089007E+01
 0.1230487609146E+01
 0.1113201497943E+01
 0.9999725994062E+00
 0.8886237919639E+00
 0.7780450423193E+00
 0.6680870758093E+00
 0.5574925903825E+00
 0.4566206493540E+00
 0.3891243412985E+00
 0.3679234829652E+00
 0.1371342603813E+01
 0.1833732832403E+01
 0.2047100383532E+01
 0.2077244683918E+01
 0.1980034338032E+01
 0.1814348003815E+01
 0.1628617355426E+01
 0.1454334539833E+01
 0.1299741066907E+01
 0.1161155820472E+01
 0.1034102926235E+01
 0.9154436125007E+00
 0.8026380843854E+00
 0.6933421063927E+00
 0.5866458875659E+00
 0.4827121393738E+00
 0.3804935951683E+00
 0.2918066975986E+00
 0.2390782776579E+00
 0.2301878164422E+00
 0.1487625003434E+01
 0.1978163480103E+01
 0.2134366555705E+01
 0.2079418916198E+01
 0.1901525440212E+01
 0.1676951527486E+01
 0.1456895836516E+01
 0.1266336486857E+01
 0.1104894960105E+01
 0.9639723146459E+00
 0.8371566560717E+00
 0.7205782468942E+00
 0.6114069111858E+00
 0.5073959960980E+00
 0.4080368797886E+00
 0.3139270089959E+00
 0.2243526110464E+00
 0.1522849869616E+00
 0.1182959885115E+00
 0.1250038212325E+00
 0.1629079588534E+01
 0.2144159754754E+01
 0.2213661772703E+01
 0.2049983066122E+01
 0.1784432720729E+01
 0.1507550650483E+01
 0.1264328551979E+01
 0.1066742669839E+01
 0.9046651421109E+00
 0.7657974152158E+00
 0.6427037414946E+00
 0.5312321693400E+00
 0.4285215573658E+00
 0.3326767849346E+00
 0.2437879192558E+00
 0.1629995660926E+00
 0.9006179419303E-01
 0.3883671744658E-01
 0.2716979126705E-01
 0.5234948886348E-01
 0.1803707131838E+01
 0.2332641908780E+01
 0.2272176669609E+01
 0.1974309508113E+01
 0.1622814396188E+01
 0.1308959708427E+01
 0.1056836688381E+01
 0.8607278118055E+00
 0.7030606664164E+00
 0.5698453494134E+00
 0.4534043486509E+00
 0.3495713742090E+00
 0.2556509375758E+00
 0.1703742127813E+00
 0.9464197168302E-01
 0.3032580167997E-01
 0.2338803698097E-01
 0.5091134517442E-01
 0.3811488726697E-01
 0.9867994000033E-02
 0.2023209445752E+01
 0.2540588126107E+01
 0.2286509686830E+01
 0.1834429725500E+01
 0.1416060475094E+01
 0.1089353381947E+01
 0.8412135990047E+00
 0.6528502541754E+00
 0.5034649683751E+00
 0.3788895534188E+00
 0.2715171355819E+00
 0.1772529366228E+00
 0.9381119549770E-01
 0.2090818401437E-01
 0.3963257383277E-01
 0.8534430494861E-01
 0.1156798252145E+00
 0.1171471089559E+00
 0.7840173704942E-01
 0.7803863515249E-02
 0.2305315547813E+01
 0.2751959678392E+01
 0.2213784291776E+01
 0.1614226635992E+01
 0.1176853082539E+01
 0.8588364412417E+00
 0.6225632201707E+00
 0.4464794290872E+00
 0.3087220606522E+00
 0.1954561514618E+00
 0.9891991821533E-01
 0.1537598637202E-01
 0.5672469604287E-01
 0.1161506263585E+00
 0.1599334137321E+00
 0.1850995793265E+00
 0.1906874997640E+00
 0.1645125979058E+00
 0.1003084124404E+00
 0.7869556281930E-02
 0.2679776705083E+01
 0.2907402604353E+01
 0.1971601796139E+01
 0.1334620925033E+01
 0.9244656022899E+00
 0.6233236174324E+00
 0.4037575133644E+00
 0.2441000481932E+00
 0.1218289863413E+00
 0.2208928485782E-01
 0.6316428956508E-01
 0.1359799709241E+00
 0.1964441377086E+00
 0.2419435286276E+00
 0.2684248716429E+00
 0.2719177188215E+00
 0.2514065342499E+00
 0.1967150423522E+00
 0.1093661287975E+00
 0.7962390570556E-02
 0.3152357746860E+01
 0.2650056963725E+01
 0.1581871220606E+01
 0.1043738048623E+01
 0.6665581711609E+00
 0.3858357865187E+00
 0.1849601111939E+00
 0.4930203589284E-01
 0.5342755499911E-01
 0.1396014440746E+00
 0.2142480515852E+00
 0.2773290028833E+00
 0.3265958379502E+00
 0.3580348631548E+00
 0.3678587902697E+00
 0.3507970053008E+00
 0.3005234543366E+00
 0.2159369324081E+00
 0.1107904838868E+00
 0.1880378502674E-01
 0.2879899508543E+01
 0.2674131058630E+01
 0.2460283685246E+01
 0.2232874928831E+01
 0.1992573655726E+01
 0.1744235343705E+01
 0.1493254002232E+01
 0.1245527519665E+01
 0.1007268835376E+01
 0.7848228540557E+00
 0.5843820641257E+00
 0.4116109449727E+00
 0.2711752103113E+00
 0.1661793875029E+00
 0.9753971539833E-01
 0.6343082944099E-01
 0.5896401188660E-01
 0.7570254652958E-01
 0.1027926273257E+00
 0.1292507269450E+00
 0.2990062953264E+01
 0.2819774659945E+01
 0.2611880836075E+01
 0.2388613169995E+01
 0.2152460978937E+01
 0.1906075070267E+01
 0.1653737464772E+01
 0.1400760462233E+01
 0.1153226177495E+01
 0.9177477130278E+00
 0.7012074131914E+00
 0.5104055619763E+00
 0.3515880099303E+00
 0.2298285304101E+00
 0.1482638677358E+00
 0.1072578171003E+00
 0.1034950823705E+00
 0.1288048446052E+00
 0.1704088970790E+00
 0.2156725479070E+00
 0.3099403457088E+01
 0.2950275640112E+01
 0.2764347468176E+01
 0.2553522045348E+01
 0.2326244486273E+01
 0.2086134015709E+01
 0.1836843802957E+01
 0.1582936370097E+01
 0.1329931551802E+01
 0.1084204788289E+01
 0.8528164498624E+00
 0.6432568226719E+00
 0.4630602086682E+00
 0.3192391615585E+00
 0.2174958091484E+00
 0.1612004930224E+00
 0.1500488798928E+00
 0.1779512621374E+00
 0.2315870601280E+00
 0.2928613770671E+00
 0.3212494382386E+01
 0.3079302857434E+01
 0.2914032219718E+01
 0.2721958720152E+01
 0.2509346329395E+01
 0.2280755040378E+01
 0.2039782193716E+01
 0.1790366893280E+01
 0.1537256155577E+01
 0.1286139226665E+01
 0.1043648271693E+01
 0.8172671829546E+00
 0.6151261238687E+00
 0.4456258183114E+00
 0.3168153245557E+00
 0.2354362879871E+00
 0.2054489421590E+00
 0.2253793977539E+00
 0.2841590174340E+00
 0.3589867438710E+00
 0.3327008113624E+01
 0.3208218241388E+01
 0.3062437218279E+01
 0.2890819277098E+01
 0.2697188551322E+01
 0.2485203128651E+01
 0.2258174507322E+01
 0.2019479497346E+01
 0.1773039498591E+01
 0.1523587212998E+01
 0.1276806821555E+01
 0.1039397991866E+01
 0.8190691174152E+00
 0.6244288547378E+00
 0.4647117128487E+00
 0.3492335068104E+00
 0.2863736531189E+00
 0.2814108244659E+00
 0.3313580232817E+00
 0.4155782450148E+00
 0.3441163443431E+01
 0.3336182058835E+01
 0.3208807307634E+01
 0.3057940888374E+01
 0.2885360677393E+01
 0.2693550978993E+01
 0.2485114699251E+01
 0.2262823128043E+01
 0.2029839166900E+01
 0.1789948853883E+01
 0.1547733653372E+01
 0.1308695918257E+01
 0.1079350103930E+01
 0.8672791535411E+00
 0.6811394175262E+00
 0.5305779231997E+00
 0.4259807623860E+00
 0.3777541494632E+00
 0.3937986824243E+00
 0.4689768805040E+00
 0.3553447291832E+01
 0.3462085432806E+01
 0.3352190495761E+01
 0.3221620557535E+01
 0.3070746193932E+01
 0.2900968857261E+01
 0.2714125697837E+01
 0.2512355068469E+01
 0.2298169371967E+01
 0.2074590738866E+01
 0.1845289878575E+01
 0.1614704060648E+01
 0.1388132351364E+01
 0.1171810128994E+01
 0.9729654898504E+00
 0.7998657592733E+00
 0.6618833124814E+00
 0.5696478406986E+00
 0.5354059728544E+00
 0.5717529303918E+00
 0.3662500035867E+01
 0.3584671452280E+01
 0.3491434578645E+01
 0.3380348997466E+01
 0.3250927630956E+01
 0.3103737390822E+01
 0.2939921475739E+01
 0.2761026257228E+01
 0.2568996695432E+01
 0.2366253279174E+01
 0.2155799121599E+01
 0.1941331842310E+01
 0.1727347759855E+01
 0.1519232954185E+01
 0.1323339380529E+01
 0.1147052709092E+01
 0.9988903642196E+00
 0.8887837881797E+00
 0.8291302959247E+00
 0.8404107114726E+00
 0.3767134007358E+01
 0.3702721222634E+01
 0.3625385325208E+01
 0.3532800019568E+01
 0.3424037743800E+01
 0.3299086984903E+01
 0.3158525267112E+01
 0.3003368105990E+01
 0.2835040518933E+01
 0.2655422812078E+01
 0.2466939160671E+01
 0.2272670167980E+01
 0.2076479867977E+01
 0.1883153083931E+01
 0.1698542780713E+01
 0.1529731979526E+01
 0.1385227395258E+01
 0.1275248816499E+01
 0.1212333334986E+01
 0.1213500469028E+01
 0.3866332118083E+01
 0.3815132782320E+01
 0.3752976756144E+01
 0.3677847812924E+01
 0.3588661528387E+01
 0.3485048398149E+01
 0.3367160142626E+01
 0.3235562583257E+01
 0.3091206801585E+01
 0.2935458220642E+01
 0.2770166816635E+01
 0.2597767877198E+01
 0.2421407950150E+01
 0.2245094548827E+01
 0.2073870454034E+01
 0.1914013365023E+01
 0.1773256914586E+01
 0.1660996776271E+01
 0.1588337113967E+01
 0.1566396577651E+01
 0.3959242541169E+01
 0.3920946083474E+01
 0.3873246807861E+01
 0.3814509848838E+01
 0.3743665444904E+01
 0.3660152500882E+01
 0.3563825562980E+01
 0.3454892222310E+01
 0.3333894214025E+01
 0.3201728268532E+01
 0.3059700201957E+01
 0.2909607555867E+01
 0.2753848936765E+01
 0.2595560809763E+01
 0.2438784195920E+01
 0.2288663431833E+01
 0.2151672285747E+01
 0.2035841931203E+01
 0.1950843025129E+01
 0.1907775137615E+01
 0.4045088416541E+01
 0.4019211682826E+01
 0.3985187881991E+01
 0.3941753146413E+01
 0.3887936000974E+01
 0.3823092639672E+01
 0.3746880405403E+01
 0.3659230538087E+01
 0.3560340622918E+01
 0.3450691188168E+01
 0.3331085883417E+01
 0.3202714194275E+01
 0.3067236862168E+01
 0.2926895977134E+01
 0.2784653614192E+01
 0.2644364418650E+01
 0.2510989508680E+01
 0.2390861254051E+01
 0.2292063250116E+01
 0.2225248067346E+01
 0.4123152528540E+01
 0.4108973463316E+01
 0.4087698448109E+01
 0.4058376681325E+01
 0.4020161962379E+01
 0.3972389653160E+01
 0.3914588800802E+01
 0.3846478377201E+01
 0.3767968197119E+01
 0.3679172073402E+01
 0.3580435499233E+01
 0.3472378551982E+01
 0.3355954868741E+01
 0.3232528625046E+01
 0.3103973220227E+01
 0.2972798155759E+01
 0.2842315111137E+01
 0.2716867612598E+01
 0.2602180925677E+01
 0.2505886332117E+01
 0.4192804605360E+01
 0.4189358707825E+01
 0.4179716983128E+01
 0.4163168505032E+01
 0.4138987135599E+01
 0.4106516997672E+01
 0.4065202544883E+01
 0.4014597681666E+01
 0.3954371080258E+01
 0.3884315448661E+01
 0.3804363910919E+01
 0.3714614684779E+01
 0.3615364668898E+01
 0.3507152828723E+01
 0.3390815287447E+01
 0.3267555939894E+01
 0.3139039661987E+01
 0.3007517655829E+01
 0.2875984219748E+01
 0.2748335735533E+01
 0.4253500331986E+01
 0.4259611339890E+01
 0.4260301204853E+01
 0.4255029590974E+01
 0.4243169111180E+01
 0.4224081787288E+01
 0.4197153250652E+01
 0.4161806532160E+01
 0.4117508066697E+01
 0.4063772450161E+01
 0.4000168938161E+01
 0.3926330733396E+01
 0.3841967090799E+01
 0.3746877787949E+01
 0.3640969409650E+01
 0.3524273202426E+01
 0.3396964899357E+01
 0.3259386164231E+01
 0.3112060168817E+01
 0.2955675400334E+01
 0.4304777608717E+01
 0.4319095379818E+01
 0.4328648963406E+01
 0.4333012301833E+01
 0.4331630600308E+01
 0.4323881754796E+01
 0.4309107070415E+01
 0.4286624315712E+01
 0.4255731742220E+01
 0.4215708040734E+01
 0.4165810686530E+01
 0.4105273462348E+01
 0.4033302783649E+01
 0.3949071493127E+01
 0.3851707821716E+01
 0.3740276116903E+01
 0.3613744741762E+01
 0.3470937663262E+01
 0.3310473614110E+01
 0.3130698240715E+01
 0.4346253896427E+01
 0.4367290849240E+01
 0.4384100550671E+01
 0.4396330002015E+01
 0.4403472962055E+01
 0.4404917021341E+01
 0.4399967964673E+01
 0.4387859356450E+01
 0.4367753181168E+01
 0.4338735214688E+01
 0.4299807105449E+01
 0.4249875877712E+01
 0.4187740549146E+01
 0.4112074563365E+01
 0.4021401536836E+01
 0.3914060110229E+01
 0.3788151461334E+01
 0.3641459988983E+01
 0.3471344113654E+01
 0.3274634187276E+01
 0.4377624877681E+01
 0.4403788756401E+01
 0.4426135913927E+01
 0.4444358296526E+01
 0.4457979452783E+01
 0.4466390834444E+01
 0.4468869950430E+01
 0.4464585852159E+01
 0.4452596186688E+01
 0.4431838680133E+01
 0.4401118786731E+01
 0.4359094385382E+01
 0.4304257732374E+01
 0.4234914255065E+01
 0.4149157017340E+01
 0.4044834546121E+01
 0.3919507392330E+01
 0.3770384254953E+01
 0.3594209531864E+01
 0.3387074708094E+01
 0.4398663711227E+01
 0.4428286621772E+01
 0.4454370324195E+01
 0.4476632942260E+01
 0.4494614574329E+01
 0.4507707113111E+01
 0.4515167880505E+01
 0.4516121760249E+01
 0.4509555362812E+01
 0.4494305688675E+01
 0.4469044975180E+01
 0.4432262899225E+01
 0.4382247023192E+01
 0.4317062277256E+01
 0.4234530343715E+01
 0.4132209982871E+01
 0.4007379495677E+01
 0.3857020941057E+01
 0.3677801196394E+01
 0.3465938357091E+01
 0.4409220404317E+01
 0.4440585094965E+01
 0.4468550363724E+01
 0.4492846793934E+01
 0.4513021803216E+01
 0.4528466815248E+01
 0.4538428584295E+01
 0.4542009488450E+01
 0.4538160097982E+01
 0.4525666347675E+01
 0.4503133019290E+01
 0.4468964920328E+01
 0.4421347112253E+01
 0.4358225825236E+01
 0.4277292396790E+01
 0.4175973934520E+01
 0.4051436989595E+01
 0.3900616324096E+01
 0.3720294619261E+01
 0.3507338675434E+01
 0.4409220404358E+01
 0.4440585095042E+01
 0.4468550363842E+01
 0.4492846794098E+01
 0.4513021803432E+01
 0.4528466815523E+01
 0.4538428584635E+01
 0.4542009488860E+01
 0.4538160098467E+01
 0.4525666348239E+01
 0.4503133019935E+01
 0.4468964921054E+01
 0.4421347113057E+01
 0.4358225826112E+01
 0.4277292397728E+01
 0.4175973935504E+01
 0.4051436990608E+01
 0.3900616325119E+01
 0.3720294620274E+01
 0.3507338676440E+01
 0.4398663711348E+01
 0.4428286622001E+01
 0.4454370324546E+01
 0.4476632942751E+01
 0.4494614574977E+01
 0.4507707113934E+01
 0.4515167881521E+01
 0.4516121761475E+01
 0.4509555364262E+01
 0.4494305690362E+01
 0.4469044977110E+01
 0.4432262901398E+01
 0.4382247025599E+01
 0.4317062279879E+01
 0.4234530346523E+01
 0.4132209985820E+01
 0.4007379498709E+01
 0.3857020944107E+01
 0.3677801199392E+01
 0.3465938359991E+01
 0.4377624877883E+01
 0.4403788756780E+01
 0.4426135914509E+01
 0.4444358297338E+01
 0.4457979453855E+01
 0.4466390835806E+01
 0.4468869952111E+01
 0.4464585854188E+01
 0.4452596189090E+01
 0.4431838682927E+01
 0.4401118789929E+01
 0.4359094388985E+01
 0.4304257736367E+01
 0.4234914259418E+01
 0.4149157022002E+01
 0.4044834551017E+01
 0.3919507397359E+01
 0.3770384259987E+01
 0.3594209536751E+01
 0.3387074712660E+01
 0.4346253896708E+01
 0.4367290849765E+01
 0.4384100551477E+01
 0.4396330003139E+01
 0.4403472963538E+01
 0.4404917023225E+01
 0.4399967966999E+01
 0.4387859359260E+01
 0.4367753184496E+01
 0.4338735218562E+01
 0.4299807109887E+01
 0.4249875882716E+01
 0.4187740554698E+01
 0.4112074569424E+01
 0.4021401543329E+01
 0.3914060117049E+01
 0.3788151468331E+01
 0.3641459995956E+01
 0.3471344120342E+01
 0.3274634193348E+01
 0.4304777609075E+01
 0.4319095380485E+01
 0.4328648964427E+01
 0.4333012303256E+01
 0.4331630602184E+01
 0.4323881757180E+01
 0.4309107073362E+01
 0.4286624319274E+01
 0.4255731746442E+01
 0.4215708045653E+01
 0.4165810692169E+01
 0.4105273468712E+01
 0.4033302790719E+01
 0.3949071500851E+01
 0.3851707830003E+01
 0.3740276125612E+01
 0.3613744750693E+01
 0.3470937672137E+01
 0.3310473622554E+01
 0.3130698248237E+01
 0.4253500332420E+01
 0.4259611340694E+01
 0.4260301206078E+01
 0.4255029592680E+01
 0.4243169113430E+01
 0.4224081790149E+01
 0.4197153254190E+01
 0.4161806536439E+01
 0.4117508071773E+01
 0.4063772456081E+01
 0.4000168944952E+01
 0.3926330741066E+01
 0.3841967099326E+01
 0.3746877797273E+01
 0.3640969419663E+01
 0.3524273212958E+01
 0.3396964910160E+01
 0.3259386174955E+01
 0.3112060178980E+01
 0.2955675409291E+01
 0.4192804605866E+01
 0.4189358708755E+01
 0.4179716984541E+01
 0.4163168506997E+01
 0.4138987138192E+01
 0.4106517000972E+01
 0.4065202548969E+01
 0.4014597686611E+01
 0.3954371086129E+01
 0.3884315455510E+01
 0.3804363918781E+01
 0.3714614693664E+01
 0.3615364678781E+01
 0.3507152839539E+01
 0.3390815299073E+01
 0.3267555952141E+01
 0.3139039674573E+01
 0.3007517668355E+01
 0.2875984231664E+01
 0.2748335746080E+01
 0.4123152529117E+01
 0.4108973464364E+01
 0.4087698449697E+01
 0.4058376683532E+01
 0.4020161965292E+01
 0.3972389656870E+01
 0.3914588805398E+01
 0.3846478382766E+01
 0.3767968203728E+01
 0.3679172081112E+01
 0.3580435508081E+01
 0.3472378561978E+01
 0.3355954879857E+01
 0.3232528637209E+01
 0.3103973233304E+01
 0.2972798169542E+01
 0.2842315125327E+01
 0.2716867626777E+01
 0.2602180939275E+01
 0.2505886344360E+01
 0.4045088417180E+01
 0.4019211683976E+01
 0.3985187883726E+01
 0.3941753148825E+01
 0.3887936004161E+01
 0.3823092643736E+01
 0.3746880410443E+01
 0.3659230544192E+01
 0.3560340630165E+01
 0.3450691196619E+01
 0.3331085893107E+01
 0.3202714205210E+01
 0.3067236874316E+01
 0.2926895990414E+01
 0.2784653628465E+01
 0.2644364433704E+01
 0.2510989524217E+01
 0.2390861269673E+01
 0.2292063265317E+01
 0.2225248081510E+01
 0.3959242541867E+01
 0.3920946084713E+01
 0.3873246809727E+01
 0.3814509851433E+01
 0.3743665448339E+01
 0.3660152505268E+01
 0.3563825568421E+01
 0.3454892228898E+01
 0.3333894221839E+01
 0.3201728277629E+01
 0.3059700212366E+01
 0.2909607567585E+01
 0.2753848949750E+01
 0.2595560823923E+01
 0.2438784211108E+01
 0.2288663447835E+01
 0.2151672302278E+01
 0.2035841947900E+01
 0.1950843041564E+01
 0.1907775153401E+01
 0.3866332118833E+01
 0.3815132783635E+01
 0.3752976758124E+01
 0.3677847815685E+01
 0.3588661532048E+01
 0.3485048402829E+01
 0.3367160148429E+01
 0.3235562590275E+01
 0.3091206809889E+01
 0.2935458230277E+01
 0.2770166827619E+01
 0.2597767889511E+01
 0.2421407963732E+01
 0.2245094563571E+01
 0.2073870469784E+01
 0.1914013381569E+01
 0.1773256931669E+01
 0.1660996793582E+01
 0.1588337131145E+01
 0.1566396594267E+01
 0.3767134008151E+01
 0.3702721224016E+01
 0.3625385327291E+01
 0.3532800022483E+01
 0.3424037747673E+01
 0.3299086989852E+01
 0.3158525273237E+01
 0.3003368113373E+01
 0.2835040527630E+01
 0.2655422822118E+01
 0.2466939172050E+01
 0.2272670180659E+01
 0.2076479881875E+01
 0.1883153098930E+01
 0.1698542796656E+01
 0.1529731996231E+01
 0.1385227412527E+01
 0.1275248834135E+01
 0.1212333352790E+01
 0.1213500486520E+01
 0.3662500036696E+01
 0.3584671453720E+01
 0.3491434580826E+01
 0.3380349000527E+01
 0.3250927635026E+01
 0.3103737396010E+01
 0.2939921482133E+01
 0.2761026264890E+01
 0.2568996704396E+01
 0.2366253289443E+01
 0.2155799133138E+01
 0.1941331855045E+01
 0.1727347773675E+01
 0.1519232968939E+01
 0.1323339396036E+01
 0.1147052725155E+01
 0.9988903806421E+00
 0.8887838047986E+00
 0.8291303126350E+00
 0.8404107283370E+00
 0.3553447292683E+01
 0.3462085434290E+01
 0.3352190498028E+01
 0.3221620560726E+01
 0.3070746198167E+01
 0.2900968862632E+01
 0.2714125704406E+01
 0.2512355076269E+01
 0.2298169380996E+01
 0.2074590749081E+01
 0.1845289889889E+01
 0.1614704072922E+01
 0.1388132364405E+01
 0.1171810142550E+01
 0.9729655036103E+00
 0.7998657728664E+00
 0.6618833254842E+00
 0.5696478526565E+00
 0.5354059833838E+00
 0.5717529397075E+00
 0.3441163444287E+01
 0.3336182060350E+01
 0.3208807309971E+01
 0.3057940891666E+01
 0.2885360681737E+01
 0.2693550984450E+01
 0.2485114705847E+01
 0.2262823135766E+01
 0.2029839175695E+01
 0.1789948863643E+01
 0.1547733663932E+01
 0.1308695929388E+01
 0.1079350115329E+01
 0.8672791648354E+00
 0.6811394282747E+00
 0.5305779329131E+00
 0.4259807705690E+00
 0.3777541557146E+00
 0.3937986866786E+00
 0.4689768835405E+00
 0.3327008114468E+01
 0.3208218242919E+01
 0.3062437220661E+01
 0.2890819280442E+01
 0.2697188555685E+01
 0.2485203134051E+01
 0.2258174513737E+01
 0.2019479504711E+01
 0.1773039506793E+01
 0.1523587221861E+01
 0.1276806830844E+01
 0.1039398001282E+01
 0.8190691266037E+00
 0.6244288633075E+00
 0.4647117204065E+00
 0.3492335130212E+00
 0.2863736578013E+00
 0.2814108277437E+00
 0.3313580257972E+00
 0.4155782478822E+00
 0.3212494383200E+01
 0.3079302858965E+01
 0.2914032222113E+01
 0.2721958723473E+01
 0.2509346333648E+01
 0.2280755045531E+01
 0.2039782199703E+01
 0.1790366899986E+01
 0.1537256162837E+01
 0.1286139234263E+01
 0.1043648279365E+01
 0.8172671904005E+00
 0.6151261307788E+00
 0.4456258243999E+00
 0.3168153296110E+00
 0.2354362919355E+00
 0.2054489451373E+00
 0.2253794001786E+00
 0.2841590199730E+00
 0.3589867471193E+00
 0.3099403457855E+01
 0.2950275641622E+01
 0.2764347470531E+01
 0.2553522048539E+01
 0.2326244490253E+01
 0.2086134020412E+01
 0.1836843808281E+01
 0.1582936375898E+01
 0.1329931557896E+01
 0.1084204794456E+01
 0.8528164558627E+00
 0.6432568282685E+00
 0.4630602136547E+00
 0.3192391657955E+00
 0.2174958126038E+00
 0.1612004958091E+00
 0.1500488822914E+00
 0.1779512645795E+00
 0.2315870630713E+00
 0.2928613807559E+00
 0.2990062953988E+01
 0.2819774661440E+01
 0.2611880838334E+01
 0.2388613172937E+01
 0.2152460982500E+01
 0.1906075074364E+01
 0.1653737469283E+01
 0.1400760467005E+01
 0.1153226182351E+01
 0.9177477177801E+00
 0.7012074176598E+00
 0.5104055660098E+00
 0.3515880134332E+00
 0.2298285333684E+00
 0.1482638702392E+00
 0.1072578193528E+00
 0.1034950846747E+00
 0.1288048473034E+00
 0.1704089004308E+00
 0.2156725519401E+00
 0.2879899509300E+01
 0.2674131060087E+01
 0.2460283687267E+01
 0.2232874931368E+01
 0.1992573658705E+01
 0.1744235347025E+01
 0.1493254005766E+01
 0.1245527523276E+01
 0.1007268838921E+01
 0.7848228574036E+00
 0.5843820671738E+00
 0.4116109476631E+00
 0.2711752126475E+00
 0.1661793895622E+00
 0.9753971733627E-01
 0.6343083148244E-01
 0.5896401428542E-01
 0.7570254949885E-01
 0.1027926309593E+00
 0.1292507311102E+00
</DataArray>
<DataArray type="Float64" Name="S_Hyd" NumberOfComponents="1" ComponentName0="S_Hyd" format="ascii">
 0.2195130690246E+01
 0.1489436372696E+01
 0.1405146235437E+01
 0.1336686353015E+01
 0.1305217422962E+01
 0.1287063240195E+01
 0.1278615668562E+01
 0.1276264775737E+01
 0.1278382576370E+01
 0.1283894709382E+01
 0.1292182226082E+01
 0.1302884575614E+01
 0.1315828450216E+01
 0.1330977643389E+01
 0.1348406032702E+01
 0.1368281711265E+01
 0.1390859916106E+01
 0.1416481895013E+01
 0.1445583541371E+01
 0.1478714688286E+01
 0.1516581168543E+01
 0.1560143294304E+01
 0.1610971411753E+01
 0.1671576059730E+01
 0.1742920683768E+01
 0.1823151406812E+01
 0.1909968681660E+01
 0.2002000413318E+01
 0.2099070068238E+01
 0.2201939020706E+01
 0.2311861158141E+01
 0.2430062156717E+01
 0.2556432365355E+01
 0.2691969084471E+01
 0.2843502652768E+01
 0.3025943892555E+01
 0.3248676285611E+01
 0.3590025807320E+01
 0.3899788099611E+01
 0.5655873782819E+01
 0.1714504737885E+01
 0.1966431294005E+01
 0.1622386932918E+01
 0.1436029419316E+01
 0.1373417998720E+01
 0.1331988954301E+01
 0.1309978167896E+01
 0.1297947614363E+01
 0.1292988298933E+01
 0.1292976405083E+01
 0.1296748447944E+01
 0.1303571112039E+01
 0.1313015969521E+01
 0.1324854556053E+01
 0.1339006752700E+01
 0.1355508184701E+01
 0.1374491902212E+01
 0.1396179126272E+01
 0.1420877029175E+01
 0.1448985603387E+01
 0.1481016036501E+01
 0.1517629317421E+01
 0.1559737059653E+01
 0.1608738204532E+01
 0.1666205660871E+01
 0.1732545430748E+01
 0.1806496510322E+01
 0.1886280494657E+01
 0.1970679766441E+01
 0.2059317995509E+01
 0.2152480378022E+01
 0.2250757098497E+01
 0.2354433018104E+01
 0.2463264581642E+01
 0.2578000865157E+01
 0.2703087390281E+01
 0.2843228440228E+01
 0.3015547319912E+01
 0.3192502592645E+01
 0.3532185040456E+01
 0.3548294905205E+01
-0.8836183312015E-01
 0.1858363809285E+01
 0.1645986288408E+01
 0.1480737690108E+01
 0.1401073708331E+01
 0.1357577380367E+01
 0.1331139330358E+01
 0.1316312861495E+01
 0.1308940829120E+01
 0.1306983485216E+01
 0.1309113545619E+01
 0.1314533229094E+01
 0.1322752002322E+01
 0.1333495050015E+01
 0.1346642118666E+01
 0.1362192976593E+01
 0.1380246544475E+01
 0.1400989976178E+01
 0.1424694915741E+01
 0.1451722574823E+01
 0.1482539337195E+01
 0.1517750563685E+01
 0.1558184633724E+01
 0.1604944333868E+01
 0.1659023153234E+01
 0.1720526149356E+01
 0.1788457003326E+01
 0.1861390746480E+01
 0.1938207651103E+01
 0.2018345442428E+01
 0.2101673065310E+01
 0.2188155952466E+01
 0.2277432934159E+01
 0.2368813340973E+01
 0.2462286564101E+01
 0.2558477839435E+01
 0.2659608754799E+01
 0.2758884933846E+01
 0.2853715965086E+01
 0.2891051887033E+01
 0.2187163280957E+01
-0.7252134702990E+00
 0.1793455925157E+01
 0.1645332093548E+01
 0.1509755149701E+01
 0.1427207041637E+01
 0.1379902998921E+01
 0.1350910450059E+01
 0.1333527785770E+01
 0.1324096841925E+01
 0.1320358552859E+01
 0.1320962514327E+01
 0.1325046534161E+01
 0.1332077049520E+01
 0.1341739264578E+01
 0.1353877706815E+01
 0.1368458772571E+01
 0.1385548462460E+01
 0.1405299903565E+01
 0.1427948038922E+01
 0.1453812503297E+01
 0.1483309308256E+01
 0.1516977846541E+01
 0.1555522750733E+01
 0.1599765982453E+01
 0.1650312172133E+01
 0.1707072998624E+01
 0.1769182396205E+01
 0.1835426616411E+01
 0.1904734264438E+01
 0.1976368282486E+01
 0.2049820769587E+01
 0.2124528168440E+01
 0.2199560065879E+01
 0.2273659156949E+01
 0.2345422336621E+01
 0.2413126424071E+01
 0.2472011159765E+01
 0.2509846026125E+01
 0.2497755828528E+01
 0.2281133969851E+01
 0.1338292304993E+01
-0.9173488494351E+00
 0.1749643544228E+01
 0.1638456975293E+01
 0.1527383215948E+01
 0.1449051765623E+01
 0.1399895970999E+01
 0.1368949053564E+01
 0.1349622761559E+01
 0.1338398739002E+01
 0.1333077017134E+01
 0.1332271199605E+01
 0.1335094097253E+01
 0.1340978707671E+01
 0.1349579368576E+01
 0.1360709938271E+01
 0.1374306285549E+01
 0.1390402845390E+01
 0.1409118948883E+01
 0.1430651906378E+01
 0.1455277289349E+01
 0.1483356241239E+01
 0.1515350338799E+01
 0.1551825839000E+01
 0.1593364064328E+01
 0.1640291912938E+01
 0.1692381710111E+01
 0.1748827235921E+01
 0.1808530361083E+01
 0.1870425763609E+01
 0.1933608780495E+01
 0.1997237959466E+01
 0.2060291451258E+01
 0.2121319468101E+01
 0.2178346983336E+01
 0.2228706350746E+01
 0.2267937563059E+01
 0.2286811534080E+01
 0.2265889302912E+01
 0.2151327638420E+01
 0.1776838325100E+01
 0.8056787331831E+00
-0.9681807505758E+00
 0.1718128256914E+01
 0.1630349751684E+01
 0.1538139873970E+01
 0.1466401234019E+01
 0.1417491766794E+01
 0.1385329393789E+01
 0.1364543737774E+01
 0.1351833759948E+01
 0.1345115545222E+01
 0.1343023710500E+01
 0.1344662897320E+01
 0.1349448092813E+01
 0.1357010262329E+01
 0.1367137663498E+01
 0.1379738499277E+01
 0.1394817171985E+01
 0.1412459635597E+01
 0.1432824903439E+01
 0.1456142592082E+01
 0.1482714932406E+01
 0.1512918310098E+01
 0.1547181753804E+01
 0.1585885174376E+01
 0.1629147104008E+01
 0.1676630551400E+01
 0.1727547635793E+01
 0.1780853518197E+01
 0.1835457301055E+01
 0.1890294682794E+01
 0.1944230002569E+01
 0.1995842043743E+01
 0.2043182358084E+01
 0.2083566870452E+01
 0.2113070059475E+01
 0.2124963450373E+01
 0.2106577663778E+01
 0.2031527597574E+01
 0.1836060571982E+01
 0.1379669441544E+01
 0.4597649658704E+00
-0.9666826549509E+00
 0.1694543559472E+01
 0.1622590191473E+01
 0.1544808936371E+01
 0.1479994377266E+01
 0.1432702648640E+01
 0.1400103945762E+01
 0.1378294598081E+01
 0.1364390832961E+01
 0.1356463790283E+01
 0.1353209099412E+01
 0.1353744605359E+01
 0.1357479565340E+01
 0.1364029574964E+01
 0.1373162077489E+01
 0.1384760585867E+01
 0.1398801104562E+01
 0.1415336825265E+01
 0.1434488141853E+01
 0.1456437365519E+01
 0.1481425052724E+01
 0.1509740012954E+01
 0.1541682499465E+01
 0.1577464025757E+01
 0.1617040387826E+01
 0.1659983437160E+01
 0.1705497985624E+01
 0.1752552194364E+01
 0.1800008668309E+01
 0.1846652961376E+01
 0.1891091520943E+01
 0.1931550822681E+01
 0.1965624258390E+01
 0.1989960471380E+01
 0.1999525922531E+01
 0.1985846891841E+01
 0.1933578598515E+01
 0.1812407638044E+01
 0.1560467397092E+01
 0.1070788162846E+01
 0.2276054930226E+00
-0.9455466468246E+00
 0.1676403430655E+01
 0.1615666471965E+01
 0.1549017597309E+01
 0.1490670839691E+01
 0.1445721193416E+01
 0.1413333422760E+01
 0.1390903182701E+01
 0.1376073605923E+01
 0.1367118984468E+01
 0.1362822680407E+01
 0.1362334984730E+01
 0.1365070756628E+01
 0.1370637539828E+01
 0.1378786637373E+01
 0.1389379799719E+01
 0.1402366361749E+01
 0.1417767560090E+01
 0.1435665201507E+01
 0.1456193583274E+01
 0.1479530491835E+01
 0.1505878489405E+01
 0.1535420217141E+01
 0.1568225471661E+01
 0.1604118722993E+01
 0.1642592684736E+01
 0.1682829011496E+01
 0.1723783443628E+01
 0.1764260080261E+01
 0.1802905942947E+01
 0.1838102705844E+01
 0.1867770140384E+01
 0.1889095988508E+01
 0.1898145311458E+01
 0.1889000400890E+01
 0.1851927197995E+01
 0.1769957186868E+01
 0.1612210121802E+01
 0.1324643515239E+01
 0.8303941093860E+00
 0.6733562912581E-01
-0.9171777980931E+00
 0.1662161488922E+01
 0.1609674677665E+01
 0.1551724873131E+01
 0.1499136671232E+01
 0.1456824935433E+01
 0.1425112855072E+01
 0.1402411586974E+01
 0.1386898696168E+01
 0.1377086071106E+01
 0.1371865240723E+01
 0.1370433835418E+01
 0.1372222364507E+01
 0.1376836889033E+01
 0.1384016941254E+01
 0.1393605353435E+01
 0.1405526570654E+01
 0.1419770868697E+01
 0.1436381861278E+01
 0.1455445846593E+01
 0.1477078308909E+01
 0.1501399238579E+01
 0.1528485313390E+01
 0.1558286021601E+01
 0.1590517086258E+01
 0.1624600888525E+01
 0.1659686617032E+01
 0.1694702414595E+01
 0.1728388850455E+01
 0.1759267912350E+01
 0.1785528335072E+01
 0.1804829600127E+01
 0.1814017615321E+01
 0.1808688442679E+01
 0.1782285202923E+01
 0.1724309562824E+01
 0.1617319349854E+01
 0.1432313330414E+01
 0.1124959530105E+01
 0.6422003410420E+00
-0.4578917865251E-01
-0.8864772524008E+00
 0.1650796267699E+01
 0.1604565640887E+01
 0.1553506065318E+01
 0.1505934731271E+01
 0.1466302557818E+01
 0.1435564831411E+01
 0.1412875299491E+01
 0.1396892581670E+01
 0.1386377143703E+01
 0.1380342544489E+01
 0.1378044696459E+01
 0.1378937975164E+01
 0.1382632699967E+01
 0.1388860594596E+01
 0.1397448276051E+01
 0.1408297102160E+01
 0.1421367552805E+01
 0.1436665805230E+01
 0.1454230884514E+01
 0.1474117687534E+01
 0.1496368622122E+01
 0.1520965548902E+01
 0.1547754947051E+01
 0.1576360737248E+01
 0.1606142114793E+01
 0.1636211070786E+01
 0.1665460168249E+01
 0.1692566666164E+01
 0.1715942742603E+01
 0.1733615734045E+01
 0.1743032742759E+01
 0.1740770517746E+01
 0.1722085343555E+01
 0.1680029534342E+01
 0.1603831532873E+01
 0.1476556919997E+01
 0.1272447200940E+01
 0.9566257204065E+00
 0.4937641136861E+00
-0.1269175268635E+00
-0.8554156112808E+00
 0.1641603274145E+01
 0.1600240914052E+01
 0.1554711844971E+01
 0.1511469168542E+01
 0.1474418212964E+01
 0.1444824183987E+01
 0.1422360697106E+01
 0.1406089530467E+01
 0.1395010334499E+01
 0.1388264828450E+01
 0.1385174499130E+01
 0.1385223841476E+01
 0.1388032223511E+01
 0.1393327057265E+01
 0.1400921257525E+01
 0.1410694891681E+01
 0.1422579959634E+01
 0.1436546301302E+01
 0.1452587019017E+01
 0.1470699033313E+01
 0.1490852785029E+01
 0.1512945585032E+01
 0.1536735078298E+01
 0.1561766652245E+01
 0.1587342638262E+01
 0.1612536386890E+01
 0.1636201996959E+01
 0.1656957501019E+01
 0.1673121935895E+01
 0.1682592803739E+01
 0.1682653928768E+01
 0.1669690015769E+01
 0.1638749839944E+01
 0.1582733803524E+01
 0.1491032894962E+01
 0.1347912944420E+01
 0.1131389379129E+01
 0.8148717609759E+00
 0.3758030700424E+00
-0.1856545665348E+00
-0.8247933864441E+00
 0.1634080537251E+01
 0.1596591825489E+01
 0.1555558461136E+01
 0.1516037695877E+01
 0.1481399230121E+01
 0.1453025388257E+01
 0.1430940812485E+01
 0.1414529766716E+01
 0.1403008666424E+01
 0.1395646197167E+01
 0.1391833198742E+01
 0.1391088631636E+01
 0.1393044694754E+01
 0.1397427477571E+01
 0.1404038482375E+01
 0.1412738250382E+01
 0.1423431744091E+01
 0.1436053866680E+01
 0.1450553649578E+01
 0.1466873237519E+01
 0.1484916917708E+01
 0.1504506753248E+01
 0.1525323371323E+01
 0.1546844445333E+01
 0.1568321378324E+01
 0.1588789820540E+01
 0.1607066137373E+01
 0.1621716000174E+01
 0.1630983019003E+01
 0.1632666313811E+01
 0.1623935600155E+01
 0.1601060687988E+01
 0.1559009951617E+01
 0.1490746596036E+01
 0.1386167355834E+01
 0.1231143239115E+01
 0.1007466941644E+01
 0.6954094247653E+00
 0.2814205669710E+00
-0.2282995118177E+00
-0.7949322585083E+00
 0.1627861132642E+01
 0.1593515216118E+01
 0.1556180169389E+01
 0.1519859395174E+01
 0.1487435176005E+01
 0.1460294812699E+01
 0.1438691024115E+01
 0.1422257557782E+01
 0.1410398955485E+01
 0.1402503974495E+01
 0.1398033379655E+01
 0.1396543159064E+01
 0.1397681127957E+01
 0.1401174514934E+01
 0.1406815454154E+01
 0.1414446669139E+01
 0.1423947625335E+01
 0.1435219935907E+01
 0.1448170785265E+01
 0.1462691091075E+01
 0.1478624744377E+01
 0.1495726938119E+01
 0.1513611312642E+01
 0.1531696972964E+01
 0.1549190156644E+01
 0.1565091469390E+01
 0.1578182810192E+01
 0.1586986269584E+01
 0.1589688322981E+01
 0.1584020594929E+01
 0.1567086471840E+01
 0.1535114378938E+01
 0.1483107727552E+01
 0.1404271054027E+01
 0.1289245847348E+01
 0.1125682784635E+01
 0.8988669165203E+00
 0.5945604283302E+00
 0.2054669379240E+00
-0.2591151723257E+00
-0.7659516202602E+00
 0.1622671274954E+01
 0.1590919152418E+01
 0.1556660458252E+01
 0.1523096077940E+01
 0.1492681581273E+01
 0.1466746913250E+01
 0.1445685612993E+01
 0.1429319351158E+01
 0.1417210759203E+01
 0.1408858056682E+01
 0.1403789844969E+01
 0.1401600100155E+01
 0.1401954100808E+01
 0.1404582154093E+01
 0.1409268813744E+01
 0.1415840618761E+01
 0.1424153144060E+01
 0.1434076544602E+01
 0.1445478634672E+01
 0.1458202822884E+01
 0.1472038162927E+01
 0.1486680519725E+01
 0.1501685211798E+01
 0.1516420741482E+01
 0.1530053855792E+01
 0.1541553976603E+01
 0.1549673531865E+01
 0.1552901019882E+01
 0.1549384149939E+01
 0.1536816753277E+01
 0.1512280848831E+01
 0.1472030452520E+01
 0.1411202946482E+01
 0.1323380593856E+01
 0.1200092352022E+01
 0.1030781251341E+01
 0.8038104058140E+00
 0.5092407044335E+00
 0.1440605197765E+00
-0.2810703257910E+00
-0.7378796664056E+00
 0.1618303205237E+01
 0.1588724266508E+01
 0.1557051050756E+01
 0.1525868006111E+01
 0.1497265081630E+01
 0.1472483001672E+01
 0.1451995413822E+01
 0.1435762150192E+01
 0.1423475394393E+01
 0.1414730290931E+01
 0.1409119206965E+01
 0.1406273707267E+01
 0.1405877533445E+01
 0.1407665514955E+01
 0.1411416155101E+01
 0.1416941350582E+01
 0.1424074426587E+01
 0.1432656036737E+01
 0.1442517253666E+01
 0.1453457736501E+01
 0.1465216986861E+01
 0.1477438346934E+01
 0.1489626415284E+01
 0.1501106190003E+01
 0.1511010526049E+01
 0.1518282326116E+01
 0.1521650650099E+01
 0.1519581015562E+01
 0.1510200313314E+01
 0.1491192451785E+01
 0.1459659011686E+01
 0.1411937939939E+01
 0.1343380262172E+01
 0.1248040325019E+01
 0.1118398613803E+01
 0.9456012769002E+00
 0.7206406317798E+00
 0.4368914483216E+00
 0.9424040909878E-01
-0.2962882510863E+00
-0.7106972990785E+00
 0.1614597059969E+01
 0.1586863238547E+01
 0.1557383674729E+01
 0.1528265268983E+01
 0.1501288535224E+01
 0.1477591491659E+01
 0.1457686430990E+01
 0.1441632230473E+01
 0.1429225061626E+01
 0.1420143894493E+01
 0.1414039489886E+01
 0.1410579522972E+01
 0.1409466465745E+01
 0.1410440660563E+01
 0.1413275840727E+01
 0.1417770700374E+01
 0.1423737960064E+01
 0.1430990799337E+01
 0.1439326247013E+01
 0.1448503925110E+01
 0.1458218760108E+01
 0.1468067731479E+01
 0.1477511472534E+01
 0.1485837903896E+01
 0.1492151481509E+01
 0.1495373736535E+01
 0.1494217085420E+01
 0.1487134812831E+01
 0.1472250059886E+01
 0.1447262271882E+01
 0.1409328573302E+01
 0.1354919285389E+01
 0.1279658830531E+01
 0.1178130280654E+01
 0.1043771072650E+01
 0.8692845912522E+00
 0.6478604368709E+00
 0.3753978111415E+00
 0.5371700953402E-01
-0.3063285688707E+00
-0.6843542624607E+00
 0.1611428405976E+01
 0.1585279567472E+01
 0.1557677457568E+01
 0.1530355971069E+01
 0.1504835561147E+01
 0.1482148894604E+01
 0.1462819182063E+01
 0.1446974211541E+01
 0.1434492106573E+01
 0.1425122929045E+01
 0.1418569755478E+01
 0.1414534102875E+01
 0.1412736837871E+01
 0.1412924407076E+01
 0.1414866820201E+01
 0.1418350898818E+01
 0.1423170381802E+01
 0.1429113025180E+01
 0.1435944516778E+01
 0.1443388046442E+01
 0.1451098622094E+01
 0.1458632453430E+01
 0.1465412268519E+01
 0.1470694785148E+01
 0.1473561398431E+01
 0.1472917638905E+01
 0.1467466241035E+01
 0.1455658740506E+01
 0.1435630327020E+01
 0.1405118575629E+01
 0.1361366612939E+01
 0.1301015237616E+01
 0.1220003147820E+01
 0.1113467550406E+01
 0.9757679386800E+00
 0.8009936904380E+00
 0.5841415696546E+00
 0.3230127159926E+00
 0.2069276324881E-01
-0.3123749673144E+00
-0.6587749159314E+00
 0.1608699466572E+01
 0.1583926153560E+01
 0.1557943622603E+01
 0.1532192124233E+01
 0.1507974350078E+01
 0.1486221124506E+01
 0.1467448537919E+01
 0.1451830443956E+01
 0.1439308428658E+01
 0.1429691839955E+01
 0.1422729757819E+01
 0.1418154751567E+01
 0.1415705277112E+01
 0.1415134137956E+01
 0.1416208453715E+01
 0.1418704390499E+01
 0.1422398284291E+01
 0.1427054502699E+01
 0.1432410051357E+01
 0.1438155145450E+01
 0.1443909210883E+01
 0.1449192777165E+01
 0.1453396139032E+01
 0.1455750204296E+01
 0.1455318433000E+01
 0.1450995738471E+01
 0.1441482066814E+01
 0.1425237103455E+01
 0.1400422305965E+01
 0.1364832799919E+01
 0.1315822409978E+01
 0.1250230440670E+01
 0.1164334028640E+01
 0.1053825745018E+01
 0.9139268635153E+00
 0.7399362875923E+00
 0.5283189628475E+00
 0.2782922091311E+00
-0.6264037975535E-02
-0.3153748299892E+00
-0.6338650550788E+00
 0.1606332815584E+01
 0.1582763923782E+01
 0.1558188491898E+01
 0.1533813897790E+01
 0.1510760770700E+01
 0.1489864863049E+01
 0.1471623874580E+01
 0.1456240649726E+01
 0.1443705030761E+01
 0.1433875064520E+01
 0.1426539631401E+01
 0.1421459274837E+01
 0.1418388893290E+01
 0.1417087624098E+01
 0.1417320342133E+01
 0.1418853662823E+01
 0.1421448036744E+01
 0.1424846431959E+01
 0.1428759750369E+01
 0.1432848516837E+01
 0.1436700598299E+01
 0.1439805480836E+01
 0.1441525983568E+01
 0.1441072154574E+01
 0.1437494374245E+01
 0.1429682164637E+01
 0.1416339270746E+01
 0.1395942593712E+01
 0.1366692281544E+01
 0.1326457108769E+01
 0.1272720600917E+01
 0.1202539303788E+01
 0.1112538994513E+01
 0.9989511506625E+00
 0.8577847938276E+00
 0.6853780480665E+00
 0.4793780372063E+00
 0.2400412261848E+00
-0.2829823094695E-01
-0.3161539232871E+00
-0.6095640385965E+00
 0.1604266755402E+01
 0.1581760601043E+01
 0.1558415403751E+01
 0.1535252700783E+01
 0.1513240858085E+01
 0.1493128857100E+01
 0.1475389403627E+01
 0.1460241753809E+01
 0.1447711694822E+01
 0.1437696709768E+01
 0.1430019616029E+01
 0.1424465751783E+01
 0.1420805085887E+01
 0.1418802852501E+01
 0.1418222165666E+01
 0.1418821086325E+01
 0.1420345623287E+01
 0.1422519264336E+01
 0.1425029279571E+01
 0.1427509598884E+01
 0.1429520249123E+01
 0.1430523896287E+01
 0.1429860378487E+01
 0.1426723411716E+01
 0.1420154828183E+01
 0.1409043692377E+01
 0.1392103646840E+01
 0.1367836862642E+01
 0.1334492675881E+01
 0.1290026282555E+01
 0.1232064529443E+01
 0.1157891778429E+01
 0.1064481497182E+01
 0.9485757481284E+00
 0.8068909634350E+00
 0.6366493041104E+00
 0.4364359608352E+00
 0.2072735732276E+00
-0.4632362982028E-01
-0.3154553371159E+00
-0.5860552092233E+00
 0.1602453209972E+01
 0.1580890350937E+01
 0.1558626806569E+01
 0.1536533884646E+01
 0.1515452812645E+01
 0.1496054565080E+01
 0.1478783532254E+01
 0.1463866314802E+01
 0.1451354851982E+01
 0.1441178141229E+01
 0.1433187572722E+01
 0.1427190157992E+01
 0.1422969455448E+01
 0.1420296423558E+01
 0.1418932791972E+01
 0.1418628995375E+01
 0.1419118005684E+01
 0.1420105716227E+01
 0.1421258175935E+01
 0.1422185690473E+01
 0.1422423953084E+01
 0.1421412736905E+01
 0.1418473052081E+01
 0.1412786477533E+01
 0.1403390528281E+01
 0.1389178395729E+01
 0.1368879114129E+01
 0.1341027021806E+01
 0.1303929072869E+01
 0.1255636246321E+01
 0.1193927080643E+01
 0.1116316847684E+01
 0.1020116468554E+01
 0.9025413954120E+00
 0.7609336983088E+00
 0.5932561094520E+00
 0.3988378347208E+00
 0.1792217417409E+00
-0.6097314231158E-01
-0.3138024252559E+00
-0.5654115612954E+00
 0.1600849976329E+01
 0.1580129979491E+01
 0.1558821846526E+01
 0.1537676176843E+01
 0.1517427561398E+01
 0.1498677591670E+01
 0.1481841104375E+01
 0.1467145590253E+01
 0.1454661412089E+01
 0.1444342395365E+01
 0.1436063696781E+01
 0.1429651030885E+01
 0.1424900026689E+01
 0.1421586893965E+01
 0.1419472248875E+01
 0.1418299733978E+01
 0.1417790600467E+01
 0.1417634929959E+01
 0.1417479816179E+01
 0.1416914697203E+01
 0.1415454138694E+01
 0.1412518567433E+01
 0.1407413888516E+01
 0.1399313295190E+01
 0.1387253769924E+01
 0.1370136702889E+01
 0.1346711257608E+01
 0.1315549593071E+01
 0.1275022701104E+01
 0.1223283634557E+01
 0.1158266611754E+01
 0.1077715264608E+01
 0.9792616476999E+00
 0.8605537590674E+00
 0.7194805108959E+00
 0.5546226454893E+00
 0.3658855849531E+00
 0.1551912557025E+00
-0.7297790970833E-01
-0.3110055645525E+00
-0.5500873995778E+00
 0.1599426339417E+01
 0.1579462075388E+01
 0.1559001435496E+01
 0.1538696696365E+01
 0.1519193077360E+01
 0.1501030813713E+01
 0.1484595328360E+01
 0.1470110482572E+01
 0.1457658998034E+01
 0.1447213922816E+01
 0.1438669919429E+01
 0.1431868622053E+01
 0.1426616206590E+01
 0.1422693573365E+01
 0.1419860379866E+01
 0.1417854184776E+01
 0.1416385696109E+01
 0.1415130799817E+01
 0.1413719684181E+01
 0.1411723390553E+01
 0.1408638198026E+01
 0.1403868297859E+01
 0.1396707732826E+01
 0.1386324565332E+01
 0.1371758521961E+01
 0.1351922679646E+01
 0.1325590273178E+01
 0.1291375751408E+01
 0.1247718807011E+01
 0.1192878375405E+01
 0.1124945110842E+01
 0.1041884783301E+01
 0.9416313242712E+00
 0.8222244691930E+00
 0.6820292050697E+00
 0.5201383755226E+00
 0.3369106212468E+00
 0.1344968655849E+00
-0.8270275399930E-01
-0.3081163758065E+00
-0.5341469402588E+00
 0.1598156550188E+01
 0.1578872151437E+01
 0.1559165637004E+01
 0.1539608893936E+01
 0.1520772052384E+01
 0.1503141406725E+01
 0.1487074004808E+01
 0.1472787055959E+01
 0.1460370965464E+01
 0.1449813382273E+01
 0.1441024773577E+01
 0.1433860157119E+01
 0.1428134794977E+01
 0.1423633690334E+01
 0.1420115633621E+01
 0.1417312731023E+01
 0.1414926236729E+01
 0.1412619347654E+01
 0.1410007249921E+01
 0.1406644859836E+01
 0.1402012750265E+01
 0.1395501668849E+01
 0.1386396674176E+01
 0.1373863553034E+01
 0.1356947608502E+01
 0.1334576543695E+01
 0.1305550829699E+01
 0.1268530512323E+01
 0.1222026944652E+01
 0.1164406399286E+01
 0.1093913747446E+01
 0.1008727470007E+01
 0.9070616652941E+00
 0.7873075466832E+00
 0.6482411653604E+00
 0.4893793244347E+00
 0.3114258087449E+00
 0.1166906827236E+00
-0.9064541881080E-01
-0.3046949998820E+00
-0.5187654780753E+00
 0.1597019867068E+01
 0.1578348461521E+01
 0.1559314558035E+01
 0.1540424041991E+01
 0.1522183848317E+01
 0.1505033039035E+01
 0.1489301883475E+01
 0.1475199029357E+01
 0.1462819013571E+01
 0.1452160318315E+01
 0.1443146043670E+01
 0.1435642321069E+01
 0.1429472133497E+01
 0.1424424000739E+01
 0.1420255893382E+01
 0.1416695029017E+01
 0.1413434211711E+01
 0.1410125345749E+01
 0.1406370371705E+01
 0.1401710157402E+01
 0.1395611899372E+01
 0.1387455389197E+01
 0.1376519228182E+01
 0.1361969387599E+01
 0.1342859127507E+01
 0.1318133154562E+01
 0.1286621566140E+01
 0.1247032202156E+01
 0.1197949485381E+01
 0.1137846450302E+01
 0.1065117582667E+01
 0.9781423487261E+00
 0.8753921263444E+00
 0.7555708250279E+00
 0.6178077433639E+00
 0.4619673434164E+00
 0.2890199321099E+00
 0.1013576471210E+00
-0.9705444568541E-01
-0.3008706309541E+00
-0.5040215209448E+00
 0.1595999592569E+01
 0.1577881552261E+01
 0.1559448429277E+01
 0.1541151717440E+01
 0.1523445090229E+01
 0.1506726384021E+01
 0.1491300999878E+01
 0.1477367938194E+01
 0.1465023216191E+01
 0.1454273113435E+01
 0.1445050678332E+01
 0.1437231155869E+01
 0.1430644000754E+01
 0.1425080686027E+01
 0.1420298380936E+01
 0.1416019919849E+01
 0.1411930578531E+01
 0.1407672256115E+01
 0.1402835259598E+01
 0.1396948295305E+01
 0.1389467273199E+01
 0.1379763225709E+01
 0.1367110485423E+01
 0.1350677280552E+01
 0.1329526757581E+01
 0.1302622443447E+01
 0.1268825698457E+01
 0.1226893317236E+01
 0.1175482819741E+01
 0.1113171718306E+01
 0.1038497655173E+01
 0.9500278363041E+00
 0.8464677129873E+00
 0.7267975267275E+00
 0.5904483339197E+00
 0.4375694111492E+00
 0.2693323616932E+00
 0.8816496538836E-01
-0.1021692813297E+00
-0.2967596037717E+00
-0.4900366686901E+00
 0.1595082314637E+01
 0.1577463875553E+01
 0.1559567646041E+01
 0.1541800154862E+01
 0.1524570136069E+01
 0.1508239543690E+01
 0.1493090971298E+01
 0.1479313290455E+01
 0.1467002065746E+01
 0.1456168958479E+01
 0.1446754720340E+01
 0.1438641972282E+01
 0.1431665518874E+01
 0.1425619261322E+01
 0.1420259570082E+01
 0.1415305351425E+01
 0.1410435197326E+01
 0.1405282183303E+01
 0.1399426453922E+01
 0.1392386258243E+01
 0.1383608080011E+01
 0.1372456112252E+01
 0.1358202282531E+01
 0.1340018771619E+01
 0.1316980099273E+01
 0.1288069882533E+01
 0.1252181664673E+01
 0.1208121406319E+01
 0.1154618544346E+01
 0.1090351377541E+01
 0.1013992856847E+01
 0.9242837680513E+00
 0.8201407994809E+00
 0.7007868502311E+00
 0.5659097254404E+00
 0.4158909348735E+00
 0.2520528610399E+00
 0.7682957541653E-01
-0.1061993679185E+00
-0.2924848329687E+00
-0.4768846555787E+00
 0.1594257292935E+01
 0.1577089458173E+01
 0.1559672773583E+01
 0.1542376505301E+01
 0.1525571444161E+01
 0.1509588396600E+01
 0.1494689252768E+01
 0.1481052712477E+01
 0.1468772524600E+01
 0.1457863837857E+01
 0.1448273252510E+01
 0.1439889276134E+01
 0.1432551072583E+01
 0.1426054494618E+01
 0.1420155110467E+01
 0.1414568310641E+01
 0.1408966775657E+01
 0.1402975837237E+01
 0.1396166813095E+01
 0.1388049024412E+01
 0.1378061170887E+01
 0.1365562262510E+01
 0.1349823375208E+01
 0.1330021975167E+01
 0.1305245014682E+01
 0.1274496947114E+01
 0.1236703749670E+01
 0.1190719905918E+01
 0.1135344552333E+01
 0.1069351950706E+01
 0.9915415140921E+00
 0.9008130181739E+00
 0.7962723492517E+00
 0.6773543027119E+00
 0.5439642624479E+00
 0.3966724323563E+00
 0.2369133473578E+00
 0.6710878107685E-01
-0.1093287576740E+00
-0.2881583311159E+00
-0.4646136995207E+00
 0.1593515964700E+01
 0.1576753624210E+01
 0.1559764533412E+01
 0.1542887029022E+01
 0.1526459864171E+01
 0.1510786885693E+01
 0.1496111359187E+01
 0.1482602084393E+01
 0.1470350081369E+01
 0.1459372526982E+01
 0.1449620357652E+01
 0.1440986707804E+01
 0.1433314239823E+01
 0.1426400335826E+01
 0.1419999759905E+01
 0.1413824762915E+01
 0.1407542819451E+01
 0.1400772500698E+01
 0.1393077503901E+01
 0.1383959585734E+01
 0.1372851097652E+01
 0.1359107273962E+01
 0.1341999597913E+01
 0.1320711808362E+01
 0.1294343942244E+01
 0.1261921542521E+01
 0.1222402656861E+01
 0.1174688892013E+01
 0.1117645991623E+01
 0.1050138467930E+01
 0.9710826747458E+00
 0.8795227160559E+00
 0.7747327223575E+00
 0.6563315268639E+00
 0.5244081901382E+00
 0.3796858078250E+00
 0.2236816339560E+00
 0.5879342779978E-01
-0.1117177456004E+00
-0.2838778485765E+00
-0.4532535305833E+00
 0.1592851540084E+01
 0.1576452759774E+01
 0.1559843775940E+01
 0.1543337236619E+01
 0.1527244865252E+01
 0.1511847253286E+01
 0.1497371053911E+01
 0.1483975660783E+01
 0.1471748805799E+01
 0.1460708595566E+01
 0.1450809087264E+01
 0.1441946990946E+01
 0.1433967731256E+01
 0.1426669854458E+01
 0.1419807325484E+01
 0.1413089601139E+01
 0.1406179594339E+01
 0.1398690008340E+01
 0.1390178004419E+01
 0.1380138981801E+01
 0.1368000185680E+01
 0.1353114248184E+01
 0.1334754041785E+01
 0.1312110239610E+01
 0.1284296232928E+01
 0.1250358450504E+01
 0.1209286091136E+01
 0.1160025824518E+01
 0.1101506182614E+01
 0.1032675535668E+01
 0.9525572405184E+00
 0.8603252560827E+00
 0.7554022453335E+00
 0.6375660040342E+00
 0.5070600508619E+00
 0.3647310347649E+00
 0.2121565043253E+00
 0.5170314433103E-01
-0.1135049338411E+00
-0.2797265618452E+00
-0.4428222148068E+00
 0.1592258669529E+01
 0.1576184113561E+01
 0.1559911445850E+01
 0.1543731992161E+01
 0.1527934715618E+01
 0.1512780233629E+01
 0.1498480509416E+01
 0.1485186178703E+01
 0.1472981402735E+01
 0.1461884417097E+01
 0.1451851439631E+01
 0.1442781891414E+01
 0.1434523339543E+01
 0.1426875186138E+01
 0.1419590612415E+01
 0.1412376601122E+01
 0.1404892091970E+01
 0.1396744728646E+01
 0.1387486107151E+01
 0.1376606330468E+01
 0.1363528598926E+01
 0.1347603898150E+01
 0.1328107213458E+01
 0.1304236510455E+01
 0.1275118450085E+01
 0.1239819725321E+01
 0.1197359270910E+01
 0.1146726190762E+01
 0.1086907393135E+01
 0.1016928209598E+01
 0.9359088465858E+00
 0.8431390098045E+00
 0.7381714859771E+00
 0.6209205535105E+00
 0.4917590654329E+00
 0.3516332050270E+00
 0.2021637627217E+00
 0.4568260546523E-01
-0.1148093779177E+00
-0.2757744065743E+00
-0.4333304308139E+00
 0.1591733172016E+01
 0.1575945629189E+01
 0.1559968545862E+01
 0.1544075589363E+01
 0.1528536624728E+01
 0.1513595210812E+01
 0.1499450443414E+01
 0.1486244952758E+01
 0.1474059262657E+01
 0.1462911181033E+01
 0.1452758343830E+01
 0.1443502183276E+01
 0.1434991895863E+01
 0.1427027486145E+01
 0.1419361379630E+01
 0.1411698383577E+01
 0.1403694002641E+01
 0.1394951551889E+01
 0.1385017927636E+01
 0.1373378863112E+01
 0.1359454408572E+01
 0.1342594657895E+01
 0.1322077194687E+01
 0.1297107356057E+01
 0.1266824664012E+01
 0.1230315077573E+01
 0.1186625415871E+01
 0.1134784105490E+01
 0.1073831542488E+01
 0.1002862762549E+01
 0.9210846025918E+00
 0.8278888817610E+00
 0.7229413959694E+00
 0.6062727906388E+00
 0.4783636554766E+00
 0.3402400337986E+00
 0.1935530630677E+00
 0.4059850884057E-01
-0.1157327193020E+00
-0.2720798036717E+00
-0.4247842211250E+00
 0.1591271808249E+01
 0.1575735802286E+01
 0.1560016098504E+01
 0.1544371805409E+01
 0.1529056853898E+01
 0.1514300346393E+01
 0.1500290232324E+01
 0.1487161957121E+01
 0.1474992507563E+01
 0.1463798906331E+01
 0.1453539648606E+01
 0.1444117621419E+01
 0.1435383233623E+01
 0.1427136890169E+01
 0.1419130302369E+01
 0.1411066382676E+01
 0.1402597693904E+01
 0.1393323883155E+01
 0.1382787916775E+01
 0.1370471961804E+01
 0.1355793661242E+01
 0.1338102788822E+01
 0.1316679794947E+01
 0.1290737213774E+01
 0.1259426727788E+01
 0.1221852229239E+01
 0.1177086191200E+01
 0.1124192846755E+01
 0.1062260814852E+01
 0.9904473320313E+00
 0.9080356875591E+00
 0.8145067115892E+00
 0.7096233298894E+00
 0.5935145489848E+00
 0.4667500954936E+00
 0.3304197326375E+00
 0.1861952981789E+00
 0.3633704297265E-01
-0.1163611848116E+00
-0.2686913256402E+00
-0.4171867787072E+00
 0.1590872095539E+01
 0.1575553561061E+01
 0.1560055110660E+01
 0.1544623940489E+01
 0.1529500804086E+01
 0.1514902683952E+01
 0.1501008006893E+01
 0.1487945896906E+01
 0.1475790032962E+01
 0.1464556456080E+01
 0.1454204115402E+01
 0.1444636919782E+01
 0.1435706158201E+01
 0.1427212480849E+01
 0.1418906939873E+01
 0.1410490818748E+01
 0.1401614191967E+01
 0.1391873636407E+01
 0.1380808871949E+01
 0.1367899192383E+01
 0.1352560439589E+01
 0.1334142474117E+01
 0.1311928686968E+01
 0.1285138408211E+01
 0.1252934521131E+01
 0.1214437225497E+01
 0.1168742093613E+01
 0.1114945314453E+01
 0.1052178172749E+01
 0.9796524450767E+00
 0.8967178064330E+00
 0.8029315410338E+00
 0.6981389664814E+00
 0.5825512914569E+00
 0.4568112991984E+00
 0.3220591972551E+00
 0.1799804285847E+00
 0.3280175358827E-01
-0.1167673632492E+00
-0.2656491423355E+00
-0.4105395463563E+00
 0.1590532154507E+01
 0.1575398165789E+01
 0.1560086540057E+01
 0.1544834845303E+01
 0.1529873084014E+01
 0.1515408232981E+01
 0.1501610730785E+01
 0.1488604268269E+01
 0.1476459544317E+01
 0.1465191551188E+01
 0.1454759413599E+01
 0.1445067733676E+01
 0.1435968421762E+01
 0.1427262259816E+01
 0.1418699708708E+01
 0.1409980676502E+01
 0.1400753168379E+01
 0.1390611233343E+01
 0.1379091952151E+01
 0.1365672340465E+01
 0.1349766924354E+01
 0.1330725912725E+01
 0.1307835539278E+01
 0.1280321329784E+01
 0.1247356182808E+01
 0.1208074727963E+01
 0.1161592808948E+01
 0.1107034447726E+01
 0.1043567814992E+01
 0.9704514747623E+00
 0.8870915732892E+00
 0.7931098198562E+00
 0.6884202094857E+00
 0.5733015799357E+00
 0.4484557818876E+00
 0.3150625001980E+00
 0.1748156932841E+00
 0.2991176115758E-01
-0.1170117368743E+00
-0.2629862242373E+00
-0.4048429431964E+00
 0.1590250583425E+01
 0.1575269125160E+01
 0.1560111264971E+01
 0.1545006940112E+01
 0.1530177563082E+01
 0.1515822036170E+01
 0.1502104265159E+01
 0.1489143409031E+01
 0.1477007588861E+01
 0.1465710783495E+01
 0.1455212118056E+01
 0.1445416646137E+01
 0.1436176702890E+01
 0.1427293124652E+01
 0.1418515860580E+01
 0.1409543686886E+01
 0.1400022929010E+01
 0.1389545602736E+01
 0.1377646691219E+01
 0.1363801442519E+01
 0.1347423447717E+01
 0.1327863399983E+01
 0.1304410129760E+01
 0.1276294587314E+01
 0.1242698308405E+01
 0.1202768262555E+01
 0.1155637511394E+01
 0.1100453569203E+01
 0.1036415546526E+01
 0.9628209969827E+00
 0.8791227923777E+00
 0.7849955243729E+00
 0.6804090418320E+00
 0.5656965709710E+00
 0.4416067495022E+00
 0.3093496144906E+00
 0.1706241169906E+00
 0.2760027113662E-01
-0.1171439684370E+00
-0.2607293049587E+00
-0.4000968247186E+00
 0.1590026357565E+01
 0.1575166128193E+01
 0.1560130058360E+01
 0.1545142228244E+01
 0.1530417412557E+01
 0.1516148223070E+01
 0.1502493421109E+01
 0.1489568540579E+01
 0.1477439582555E+01
 0.1466119627484E+01
 0.1455567707847E+01
 0.1445689157138E+01
 0.1436336589986E+01
 0.1427310849922E+01
 0.1418361464081E+01
 0.1409186312381E+01
 0.1399430405654E+01
 0.1388684181211E+01
 0.1376481010911E+01
 0.1362294814711E+01
 0.1345538541837E+01
 0.1325563400246E+01
 0.1301660447224E+01
 0.1273065143724E+01
 0.1238966125060E+01
 0.1198520436767E+01
 0.1150875123249E+01
 0.1095196680246E+01
 0.1030709090791E+01
 0.9567410855926E+00
 0.8727826825991E+00
 0.7785502398983E+00
 0.6740573855180E+00
 0.5596795827014E+00
 0.4362013416101E+00
 0.3048553705726E+00
 0.1673432975161E+00
 0.2581336004486E-01
-0.1172039516377E+00
-0.2588996426810E+00
-0.3963007712076E+00
 0.1589858748013E+01
 0.1575088988983E+01
 0.1560143565291E+01
 0.1545242304517E+01
 0.1530595136231E+01
 0.1516390051354E+01
 0.1502782000791E+01
 0.1489883801287E+01
 0.1477759832051E+01
 0.1466422450250E+01
 0.1455830565817E+01
 0.1445889675429E+01
 0.1436452568347E+01
 0.1427320072318E+01
 0.1418241390491E+01
 0.1408913735835E+01
 0.1398981150227E+01
 0.1388032915228E+01
 0.1375601233293E+01
 0.1361159078613E+01
 0.1344118981124E+01
 0.1323832609374E+01
 0.1299592778093E+01
 0.1270638431026E+01
 0.1236163638473E+01
 0.1195333120995E+01
 0.1147304529565E+01
 0.1091258701891E+01
 0.1026438340456E+01
 0.9521955435445E+00
 0.8680480448891E+00
 0.7737432072530E+00
 0.6693269650622E+00
 0.5552057236196E+00
 0.4321900062015E+00
 0.3015286102942E+00
 0.1649244298916E+00
 0.2450900016515E-01
-0.1172226527666E+00
-0.2575136067037E+00
-0.3934542887671E+00
 0.1589747260290E+01
 0.1575037604326E+01
 0.1560152285368E+01
 0.1545308361207E+01
 0.1530712593566E+01
 0.1516549938436E+01
 0.1502972829325E+01
 0.1490092272804E+01
 0.1477971552304E+01
 0.1466622519817E+01
 0.1456003978732E+01
 0.1446021512485E+01
 0.1436528010202E+01
 0.1427324279024E+01
 0.1418159302522E+01
 0.1408729851513E+01
 0.1398679329989E+01
 0.1387596262413E+01
 0.1375012090276E+01
 0.1360399181277E+01
 0.1343169815462E+01
 0.1322676003982E+01
 0.1298211774823E+01
 0.1269018441082E+01
 0.1234293748775E+01
 0.1193207590955E+01
 0.1144924745786E+01
 0.1088635661418E+01
 0.1023595549090E+01
 0.9491720758353E+00
 0.8649013816081E+00
 0.7705513446626E+00
 0.6661891854730E+00
 0.5522415897181E+00
 0.4295360044147E+00
 0.2993315265555E+00
 0.1633315503609E+00
 0.2365630666532E-01
-0.1172227546484E+00
-0.2565831156884E+00
-0.3915569199104E+00
 0.1589691589134E+01
 0.1575011922424E+01
 0.1560156559149E+01
 0.1545341191496E+01
 0.1530771015701E+01
 0.1516629483873E+01
 0.1503067777693E+01
 0.1490195999122E+01
 0.1478076879463E+01
 0.1466722011342E+01
 0.1456090137505E+01
 0.1446086878208E+01
 0.1436565167558E+01
 0.1427325799372E+01
 0.1418117646350E+01
 0.1408637258971E+01
 0.1398527724709E+01
 0.1387377193501E+01
 0.1374716731958E+01
 0.1360018411746E+01
 0.1342694396873E+01
 0.1322096880466E+01
 0.1297520509637E+01
 0.1268207796403E+01
 0.1233358340321E+01
 0.1192144637358E+01
 0.1143735045958E+01
 0.1087324833979E+01
 0.1022175475394E+01
 0.9476624182524E+00
 0.8633309838394E+00
 0.7689592615108E+00
 0.6646250392867E+00
 0.5507650392754E+00
 0.4282150460631E+00
 0.2982391801413E+00
 0.1625409845222E+00
 0.2323498842093E-01
-0.1172191259608E+00
-0.2561159495930E+00
-0.3906083253602E+00
 0.1589691589142E+01
 0.1575011922433E+01
 0.1560156559157E+01
 0.1545341191503E+01
 0.1530771015708E+01
 0.1516629483878E+01
 0.1503067777698E+01
 0.1490195999125E+01
 0.1478076879466E+01
 0.1466722011345E+01
 0.1456090137508E+01
 0.1446086878212E+01
 0.1436565167563E+01
 0.1427325799379E+01
 0.1418117646360E+01
 0.1408637258985E+01
 0.1398527724728E+01
 0.1387377193527E+01
 0.1374716731992E+01
 0.1360018411790E+01
 0.1342694396928E+01
 0.1322096880534E+01
 0.1297520509720E+01
 0.1268207796504E+01
 0.1233358340441E+01
 0.1192144637499E+01
 0.1143735046121E+01
 0.1087324834164E+01
 0.1022175475600E+01
 0.9476624184783E+00
 0.8633309840812E+00
 0.7689592617629E+00
 0.6646250395409E+00
 0.5507650395213E+00
 0.4282150462881E+00
 0.2982391803307E+00
 0.1625409846609E+00
 0.2323498849379E-01
-0.1172191259672E+00
-0.2561159496893E+00
-0.3906083255531E+00
 0.1589747260314E+01
 0.1575037604350E+01
 0.1560152285392E+01
 0.1545308361230E+01
 0.1530712593586E+01
 0.1516549938453E+01
 0.1502972829339E+01
 0.1490092272816E+01
 0.1477971552314E+01
 0.1466622519826E+01
 0.1456003978741E+01
 0.1446021512497E+01
 0.1436528010217E+01
 0.1427324279045E+01
 0.1418159302552E+01
 0.1408729851555E+01
 0.1398679330047E+01
 0.1387596262490E+01
 0.1375012090378E+01
 0.1360399181407E+01
 0.1343169815627E+01
 0.1322676004187E+01
 0.1298211775074E+01
 0.1269018441385E+01
 0.1234293749135E+01
 0.1193207591378E+01
 0.1144924746274E+01
 0.1088635661973E+01
 0.1023595549710E+01
 0.9491720765138E+00
 0.8649013823345E+00
 0.7705513454199E+00
 0.6661891862370E+00
 0.5522415904574E+00
 0.4295360050914E+00
 0.2993315271260E+00
 0.1633315507789E+00
 0.2365630688565E-01
-0.1172227546664E+00
-0.2565831159769E+00
-0.3915569204892E+00
 0.1589858748054E+01
 0.1575088989024E+01
 0.1560143565331E+01
 0.1545242304554E+01
 0.1530595136264E+01
 0.1516390051383E+01
 0.1502782000815E+01
 0.1489883801306E+01
 0.1477759832067E+01
 0.1466422450265E+01
 0.1455830565832E+01
 0.1445889675447E+01
 0.1436452568372E+01
 0.1427320072353E+01
 0.1418241390541E+01
 0.1408913735906E+01
 0.1398981150323E+01
 0.1388032915357E+01
 0.1375601233462E+01
 0.1361159078830E+01
 0.1344118981398E+01
 0.1323832609715E+01
 0.1299592778511E+01
 0.1270638431531E+01
 0.1236163639074E+01
 0.1195333121699E+01
 0.1147304530379E+01
 0.1091258702816E+01
 0.1026438341490E+01
 0.9521955446775E+00
 0.8680480461028E+00
 0.7737432085192E+00
 0.6693269663406E+00
 0.5552057248579E+00
 0.4321900073360E+00
 0.3015286112520E+00
 0.1649244305953E+00
 0.2450900053856E-01
-0.1172226527921E+00
-0.2575136071821E+00
-0.3934542897320E+00
 0.1590026357622E+01
 0.1575166128250E+01
 0.1560130058416E+01
 0.1545142228296E+01
 0.1530417412604E+01
 0.1516148223110E+01
 0.1502493421142E+01
 0.1489568540607E+01
 0.1477439582577E+01
 0.1466119627505E+01
 0.1455567707867E+01
 0.1445689157163E+01
 0.1436336590020E+01
 0.1427310849971E+01
 0.1418361464151E+01
 0.1409186312478E+01
 0.1399430405788E+01
 0.1388684181390E+01
 0.1376481011146E+01
 0.1362294815013E+01
 0.1345538542219E+01
 0.1325563400723E+01
 0.1301660447807E+01
 0.1273065144429E+01
 0.1238966125900E+01
 0.1198520437753E+01
 0.1150875124388E+01
 0.1095196681542E+01
 0.1030709092241E+01
 0.9567410871829E+00
 0.8727826843046E+00
 0.7785502416792E+00
 0.6740573873184E+00
 0.5596795844479E+00
 0.4362013432129E+00
 0.3048553719291E+00
 0.1673432985165E+00
 0.2581336058066E-01
-0.1172039516638E+00
-0.2588996433457E+00
-0.3963007725591E+00
 0.1590250583499E+01
 0.1575269125235E+01
 0.1560111265043E+01
 0.1545006940179E+01
 0.1530177563142E+01
 0.1515822036222E+01
 0.1502104265201E+01
 0.1489143409065E+01
 0.1477007588889E+01
 0.1465710783520E+01
 0.1455212118082E+01
 0.1445416646168E+01
 0.1436176702933E+01
 0.1427293124714E+01
 0.1418515860668E+01
 0.1409543687010E+01
 0.1400022929180E+01
 0.1389545602964E+01
 0.1377646691519E+01
 0.1363801442906E+01
 0.1347423448207E+01
 0.1327863400593E+01
 0.1304410130508E+01
 0.1276294588218E+01
 0.1242698309483E+01
 0.1202768263821E+01
 0.1155637512859E+01
 0.1100453570872E+01
 0.1036415548395E+01
 0.9628209990345E+00
 0.8791227945811E+00
 0.7849955266773E+00
 0.6804090441654E+00
 0.5656965732389E+00
 0.4416067515883E+00
 0.3093496162615E+00
 0.1706241183031E+00
 0.2760027184852E-01
-0.1171439684536E+00
-0.2607293058047E+00
-0.4000968264573E+00
 0.1590532154598E+01
 0.1575398165880E+01
 0.1560086540145E+01
 0.1544834845385E+01
 0.1529873084087E+01
 0.1515408233044E+01
 0.1501610730837E+01
 0.1488604268310E+01
 0.1476459544351E+01
 0.1465191551218E+01
 0.1454759413629E+01
 0.1445067733713E+01
 0.1435968421813E+01
 0.1427262259889E+01
 0.1418699708814E+01
 0.1409980676651E+01
 0.1400753168584E+01
 0.1390611233619E+01
 0.1379091952515E+01
 0.1365672340935E+01
 0.1349766924948E+01
 0.1330725913466E+01
 0.1307835540189E+01
 0.1280321330886E+01
 0.1247356184123E+01
 0.1208074729509E+01
 0.1161592810739E+01
 0.1107034449768E+01
 0.1043567817282E+01
 0.9704514772807E+00
 0.8870915759983E+00
 0.7931098226947E+00
 0.6884202123661E+00
 0.5733015827421E+00
 0.4484557844765E+00
 0.3150625024040E+00
 0.1748156949288E+00
 0.2991176206329E-01
-0.1170117368682E+00
-0.2629862252578E+00
-0.4048429453228E+00
 0.1590872095646E+01
 0.1575553561169E+01
 0.1560055110764E+01
 0.1544623940586E+01
 0.1529500804172E+01
 0.1514902684025E+01
 0.1501008006953E+01
 0.1487945896955E+01
 0.1475790033001E+01
 0.1464556456114E+01
 0.1454204115437E+01
 0.1444636919824E+01
 0.1435706158260E+01
 0.1427212480933E+01
 0.1418906939996E+01
 0.1410490818921E+01
 0.1401614192206E+01
 0.1391873636731E+01
 0.1380808872375E+01
 0.1367899192933E+01
 0.1352560440287E+01
 0.1334142474988E+01
 0.1311928688039E+01
 0.1285138409509E+01
 0.1252934522680E+01
 0.1214437227321E+01
 0.1168742095729E+01
 0.1114945316871E+01
 0.1052178175464E+01
 0.9796524480679E+00
 0.8967178096571E+00
 0.8029315444196E+00
 0.6981389699259E+00
 0.5825512948226E+00
 0.4568113023144E+00
 0.3220591999222E+00
 0.1799804305872E+00
 0.3280175471034E-01
-0.1167673632037E+00
-0.2656491435219E+00
-0.4105395488716E+00
 0.1591271808373E+01
 0.1575735802410E+01
 0.1560016098625E+01
 0.1544371805521E+01
 0.1529056853997E+01
 0.1514300346477E+01
 0.1500290232393E+01
 0.1487161957175E+01
 0.1474992507606E+01
 0.1463798906368E+01
 0.1453539648644E+01
 0.1444117621466E+01
 0.1435383233688E+01
 0.1427136890264E+01
 0.1419130302508E+01
 0.1411066382873E+01
 0.1402597694176E+01
 0.1393323883523E+01
 0.1382787917260E+01
 0.1370471962432E+01
 0.1355793662041E+01
 0.1338102789820E+01
 0.1316679796176E+01
 0.1290737215265E+01
 0.1259426729571E+01
 0.1221852231341E+01
 0.1177086193642E+01
 0.1124192849549E+01
 0.1062260817996E+01
 0.9904473355024E+00
 0.9080356913092E+00
 0.8145067155378E+00
 0.7096233339185E+00
 0.5935145529352E+00
 0.4667500991656E+00
 0.3304197357968E+00
 0.1861953005702E+00
 0.3633704433858E-01
-0.1163611847059E+00
-0.2686913269817E+00
-0.4171867816125E+00
 0.1591733172157E+01
 0.1575945629330E+01
 0.1559968545999E+01
 0.1544075589489E+01
 0.1528536624840E+01
 0.1513595210906E+01
 0.1499450443490E+01
 0.1486244952818E+01
 0.1474059262704E+01
 0.1462911181073E+01
 0.1452758343871E+01
 0.1443502183326E+01
 0.1434991895933E+01
 0.1427027486248E+01
 0.1419361379783E+01
 0.1411698383795E+01
 0.1403694002944E+01
 0.1394951552300E+01
 0.1385017928179E+01
 0.1373378863816E+01
 0.1359454409468E+01
 0.1342594659017E+01
 0.1322077196070E+01
 0.1297107357738E+01
 0.1266824666025E+01
 0.1230315079950E+01
 0.1186625418638E+01
 0.1134784108662E+01
 0.1073831546065E+01
 0.1002862766508E+01
 0.9210846068805E+00
 0.8278888862903E+00
 0.7229414006066E+00
 0.6062727952032E+00
 0.4783636597390E+00
 0.3402400374876E+00
 0.1935530658849E+00
 0.4059851048352E-01
-0.1157327191111E+00
-0.2720798051554E+00
-0.4247842244218E+00
 0.1592258669686E+01
 0.1576184113719E+01
 0.1559911446003E+01
 0.1543731992302E+01
 0.1527934715742E+01
 0.1512780233733E+01
 0.1498480509500E+01
 0.1485186178767E+01
 0.1472981402785E+01
 0.1461884417139E+01
 0.1451851439672E+01
 0.1442781891465E+01
 0.1434523339617E+01
 0.1426875186249E+01
 0.1419590612579E+01
 0.1412376601359E+01
 0.1404892092302E+01
 0.1396744729096E+01
 0.1387486107749E+01
 0.1376606331244E+01
 0.1363528599916E+01
 0.1347603899392E+01
 0.1328107214992E+01
 0.1304236512322E+01
 0.1275118452325E+01
 0.1239819727971E+01
 0.1197359274001E+01
 0.1146726194314E+01
 0.1086907397150E+01
 0.1016928214053E+01
 0.9359088514269E+00
 0.8431390149346E+00
 0.7381714912495E+00
 0.6209205587228E+00
 0.4917590703254E+00
 0.3516332092892E+00
 0.2021637660086E+00
 0.4568260742450E-01
-0.1148093776118E+00
-0.2757744081841E+00
-0.4333304345036E+00
 0.1592851540258E+01
 0.1576452759949E+01
 0.1559843776108E+01
 0.1543337236774E+01
 0.1527244865388E+01
 0.1511847253400E+01
 0.1497371054001E+01
 0.1483975660852E+01
 0.1471748805851E+01
 0.1460708595608E+01
 0.1450809087305E+01
 0.1441946990999E+01
 0.1433967731333E+01
 0.1426669854575E+01
 0.1419807325659E+01
 0.1413089601394E+01
 0.1406179594697E+01
 0.1398690008828E+01
 0.1390178005068E+01
 0.1380138982647E+01
 0.1368000186760E+01
 0.1353114249542E+01
 0.1334754043465E+01
 0.1312110241659E+01
 0.1284296235392E+01
 0.1250358453425E+01
 0.1209286094551E+01
 0.1160025828451E+01
 0.1101506187071E+01
 0.1032675540629E+01
 0.9525572459269E+00
 0.8603252618354E+00
 0.7554022512711E+00
 0.6375660099327E+00
 0.5070600564300E+00
 0.3647310396506E+00
 0.2121565081333E+00
 0.5170314665356E-01
-0.1135049333843E+00
-0.2797265635622E+00
-0.4428222188913E+00
 0.1593515964891E+01
 0.1576753624402E+01
 0.1559764533597E+01
 0.1542887029192E+01
 0.1526459864319E+01
 0.1510786885816E+01
 0.1496111359284E+01
 0.1482602084466E+01
 0.1470350081423E+01
 0.1459372527024E+01
 0.1449620357693E+01
 0.1440986707856E+01
 0.1433314239901E+01
 0.1426400335948E+01
 0.1419999760089E+01
 0.1413824763185E+01
 0.1407542819832E+01
 0.1400772501220E+01
 0.1393077504598E+01
 0.1383959586645E+01
 0.1372851098818E+01
 0.1359107275431E+01
 0.1341999599735E+01
 0.1320711810588E+01
 0.1294343944926E+01
 0.1261921545709E+01
 0.1222402660597E+01
 0.1174688896327E+01
 0.1117645996527E+01
 0.1050138473407E+01
 0.9710826807379E+00
 0.8795227224557E+00
 0.7747327289938E+00
 0.6563315334917E+00
 0.5244081964340E+00
 0.3796858133923E+00
 0.2236816383447E+00
 0.5879343054028E-01
-0.1117177449504E+00
-0.2838778503777E+00
-0.4532535350643E+00
 0.1594257293142E+01
 0.1577089458382E+01
 0.1559672773784E+01
 0.1542376505485E+01
 0.1525571444321E+01
 0.1509588396732E+01
 0.1494689252869E+01
 0.1481052712552E+01
 0.1468772524653E+01
 0.1457863837897E+01
 0.1448273252549E+01
 0.1439889276184E+01
 0.1432551072661E+01
 0.1426054494742E+01
 0.1420155110658E+01
 0.1414568310923E+01
 0.1408966776059E+01
 0.1402975837790E+01
 0.1396166813836E+01
 0.1388049025383E+01
 0.1378061172135E+01
 0.1365562264085E+01
 0.1349823377166E+01
 0.1330021977565E+01
 0.1305245017579E+01
 0.1274496950565E+01
 0.1236703753725E+01
 0.1190719910615E+01
 0.1135344557689E+01
 0.1069351956707E+01
 0.9915415206848E+00
 0.9008130252469E+00
 0.7962723566234E+00
 0.6773543101170E+00
 0.5439642695301E+00
 0.3966724386720E+00
 0.2369133523964E+00
 0.6710878429951E-01
-0.1093287567802E+00
-0.2881583329734E+00
-0.4646137043995E+00
 0.1595082314862E+01
 0.1577463875779E+01
 0.1559567646259E+01
 0.1541800155060E+01
 0.1524570136240E+01
 0.1508239543829E+01
 0.1493090971404E+01
 0.1479313290531E+01
 0.1467002065798E+01
 0.1456168958516E+01
 0.1446754720375E+01
 0.1438641972328E+01
 0.1431665518950E+01
 0.1425619261446E+01
 0.1420259570277E+01
 0.1415305351717E+01
 0.1410435197746E+01
 0.1405282183884E+01
 0.1399426454704E+01
 0.1392386259270E+01
 0.1383608081335E+01
 0.1372456113927E+01
 0.1358202284619E+01
 0.1340018774183E+01
 0.1316980102378E+01
 0.1288069886242E+01
 0.1252181669045E+01
 0.1208121411397E+01
 0.1154618550156E+01
 0.1090351384077E+01
 0.1013992864057E+01
 0.9242837758250E+00
 0.8201408076277E+00
 0.7007868584667E+00
 0.5659097333747E+00
 0.4158909420130E+00
 0.2520528668083E+00
 0.7682957919626E-01
-0.1061993667214E+00
-0.2924848348489E+00
-0.4768846608561E+00
 0.1595999592810E+01
 0.1577881552505E+01
 0.1559448429510E+01
 0.1541151717652E+01
 0.1523445090411E+01
 0.1506726384168E+01
 0.1491300999987E+01
 0.1477367938270E+01
 0.1465023216240E+01
 0.1454273113467E+01
 0.1445050678361E+01
 0.1437231155910E+01
 0.1430644000826E+01
 0.1425080686150E+01
 0.1420298381133E+01
 0.1416019920149E+01
 0.1411930578965E+01
 0.1407672256719E+01
 0.1402835260415E+01
 0.1396948296384E+01
 0.1389467274593E+01
 0.1379763227479E+01
 0.1367110487635E+01
 0.1350677283276E+01
 0.1329526760888E+01
 0.1302622447409E+01
 0.1268825703139E+01
 0.1226893322694E+01
 0.1175482826009E+01
 0.1113171725386E+01
 0.1038497663020E+01
 0.9500278448076E+00
 0.8464677219521E+00
 0.7267975358517E+00
 0.5904483427797E+00
 0.4375694191990E+00
 0.2693323682830E+00
 0.8816496981279E-01
-0.1021692797584E+00
-0.2967596056333E+00
-0.4900366743656E+00
 0.1597019867327E+01
 0.1578348461782E+01
 0.1559314558286E+01
 0.1540424042218E+01
 0.1522183848510E+01
 0.1505033039188E+01
 0.1489301883587E+01
 0.1475199029431E+01
 0.1462819013616E+01
 0.1452160318341E+01
 0.1443146043692E+01
 0.1435642321103E+01
 0.1429472133562E+01
 0.1424424000857E+01
 0.1420255893579E+01
 0.1416695029321E+01
 0.1413434212156E+01
 0.1410125346373E+01
 0.1406370372553E+01
 0.1401710158526E+01
 0.1395611900829E+01
 0.1387455391053E+01
 0.1376519230510E+01
 0.1361969390473E+01
 0.1342859131008E+01
 0.1318133158770E+01
 0.1286621571130E+01
 0.1247032207992E+01
 0.1197949492109E+01
 0.1137846457934E+01
 0.1065117591167E+01
 0.9781423579895E+00
 0.8753921361725E+00
 0.7555708351039E+00
 0.6178077532315E+00
 0.4619673524737E+00
 0.2890199396269E+00
 0.1013576522921E+00
-0.9705444365606E-01
-0.3008706327467E+00
-0.5040215270155E+00
 0.1598156550465E+01
 0.1578872151716E+01
 0.1559165637270E+01
 0.1539608894176E+01
 0.1520772052587E+01
 0.1503141406883E+01
 0.1487074004921E+01
 0.1472787056031E+01
 0.1460370965503E+01
 0.1449813382292E+01
 0.1441024773590E+01
 0.1433860157144E+01
 0.1428134795035E+01
 0.1423633690446E+01
 0.1420115633814E+01
 0.1417312731328E+01
 0.1414926237181E+01
 0.1412619348294E+01
 0.1410007250795E+01
 0.1406644860999E+01
 0.1402012751779E+01
 0.1395501670785E+01
 0.1386396676611E+01
 0.1373863556051E+01
 0.1356947612189E+01
 0.1334576548140E+01
 0.1305550834988E+01
 0.1268530518533E+01
 0.1222026951840E+01
 0.1164406407477E+01
 0.1093913756616E+01
 0.1008727480060E+01
 0.9070616760333E+00
 0.7873075577794E+00
 0.6482411763259E+00
 0.4893793346095E+00
 0.3114258173105E+00
 0.1166906887603E+00
-0.9064541622442E-01
-0.3046950015432E+00
-0.5187654845330E+00
 0.1599426339711E+01
 0.1579462075685E+01
 0.1559001435779E+01
 0.1538696696619E+01
 0.1519193077572E+01
 0.1501030813876E+01
 0.1484595328473E+01
 0.1470110482639E+01
 0.1457658998066E+01
 0.1447213922825E+01
 0.1438669919432E+01
 0.1431868622067E+01
 0.1426616206637E+01
 0.1422693573469E+01
 0.1419860380054E+01
 0.1417854185079E+01
 0.1416385696565E+01
 0.1415130800467E+01
 0.1413719685075E+01
 0.1411723391750E+01
 0.1408638199590E+01
 0.1403868299867E+01
 0.1396707735360E+01
 0.1386324568482E+01
 0.1371758525824E+01
 0.1351922684320E+01
 0.1325590278759E+01
 0.1291375757986E+01
 0.1247718814657E+01
 0.1192878384161E+01
 0.1124945120699E+01
 0.1041884794175E+01
 0.9416313359707E+00
 0.8222244813827E+00
 0.6820292172325E+00
 0.5201383869384E+00
 0.3369106310009E+00
 0.1344968726259E+00
-0.8270275073932E-01
-0.3081163772590E+00
-0.5341469470863E+00
 0.1600849976641E+01
 0.1580129979807E+01
 0.1558821846827E+01
 0.1537676177110E+01
 0.1517427561618E+01
 0.1498677591835E+01
 0.1481841104485E+01
 0.1467145590314E+01
 0.1454661412112E+01
 0.1444342395362E+01
 0.1436063696771E+01
 0.1429651030886E+01
 0.1424900026723E+01
 0.1421586894057E+01
 0.1419472249054E+01
 0.1418299734276E+01
 0.1417790600922E+01
 0.1417634930615E+01
 0.1417479817088E+01
 0.1416914698425E+01
 0.1415454140300E+01
 0.1412518569503E+01
 0.1407413891139E+01
 0.1399313298463E+01
 0.1387253773952E+01
 0.1370136707780E+01
 0.1346711263472E+01
 0.1315549600010E+01
 0.1275022709206E+01
 0.1223283643883E+01
 0.1158266622312E+01
 0.1077715276331E+01
 0.9792616604105E+00
 0.8605537724279E+00
 0.7194805243648E+00
 0.5546226582857E+00
 0.3658855960561E+00
 0.1551912639121E+00
-0.7297790564123E-01
-0.3110055657007E+00
-0.5500874067396E+00
 0.1602453210302E+01
 0.1580890351272E+01
 0.1558626806887E+01
 0.1536533884926E+01
 0.1515452812872E+01
 0.1496054565247E+01
 0.1478783532362E+01
 0.1463866314855E+01
 0.1451354851993E+01
 0.1441178141213E+01
 0.1433187572697E+01
 0.1427190157978E+01
 0.1422969455468E+01
 0.1420296423637E+01
 0.1418932792139E+01
 0.1418628995664E+01
 0.1419118006134E+01
 0.1420105716884E+01
 0.1421258176853E+01
 0.1422185691715E+01
 0.1422423954724E+01
 0.1421412739027E+01
 0.1418473054782E+01
 0.1412786480916E+01
 0.1403390532461E+01
 0.1389178400826E+01
 0.1368879120263E+01
 0.1341027029097E+01
 0.1303929081422E+01
 0.1255636256216E+01
 0.1193927091913E+01
 0.1116316860286E+01
 0.1020116482326E+01
 0.9025414100249E+00
 0.7609337132016E+00
 0.5932561237845E+00
 0.3988378473581E+00
 0.1792217513094E+00
-0.6097313726676E-01
-0.3138024260315E+00
-0.5654115686463E+00
 0.1604266755754E+01
 0.1581760601399E+01
 0.1558415404088E+01
 0.1535252701078E+01
 0.1513240858323E+01
 0.1493128857273E+01
 0.1475389403735E+01
 0.1460241753859E+01
 0.1447711694827E+01
 0.1437696709745E+01
 0.1430019615996E+01
 0.1424465751760E+01
 0.1420805085897E+01
 0.1418802852569E+01
 0.1418222165822E+01
 0.1418821086602E+01
 0.1420345623723E+01
 0.1422519264978E+01
 0.1425029280474E+01
 0.1427509600112E+01
 0.1429520250751E+01
 0.1430523898403E+01
 0.1429860381190E+01
 0.1426723415115E+01
 0.1420154832399E+01
 0.1409043697536E+01
 0.1392103653076E+01
 0.1367836870084E+01
 0.1334492684653E+01
 0.1290026292757E+01
 0.1232064541134E+01
 0.1157891791595E+01
 0.1064481511693E+01
 0.9485757636785E+00
 0.8068909794687E+00
 0.6366493197546E+00
 0.4364359748641E+00
 0.2072735841105E+00
-0.4632362375266E-01
-0.3154553373612E+00
-0.5860552166907E+00
 0.1606332815954E+01
 0.1582763924156E+01
 0.1558188492252E+01
 0.1533813898099E+01
 0.1510760770948E+01
 0.1489864863228E+01
 0.1471623874691E+01
 0.1456240649778E+01
 0.1443705030767E+01
 0.1433875064497E+01
 0.1426539631367E+01
 0.1421459274811E+01
 0.1418388893296E+01
 0.1417087624160E+01
 0.1417320342279E+01
 0.1418853663085E+01
 0.1421448037160E+01
 0.1424846432574E+01
 0.1428759751236E+01
 0.1432848518020E+01
 0.1436700599872E+01
 0.1439805482887E+01
 0.1441525986195E+01
 0.1441072157891E+01
 0.1437494378374E+01
 0.1429682169709E+01
 0.1416339276900E+01
 0.1395942601088E+01
 0.1366692290279E+01
 0.1326457118983E+01
 0.1272720612694E+01
 0.1202539317149E+01
 0.1112539009368E+01
 0.9989511667473E+00
 0.8577848106174E+00
 0.6853780646875E+00
 0.4793780523769E+00
 0.2400412382426E+00
-0.2829822386828E-01
-0.3161539229005E+00
-0.6095640459349E+00
 0.1608699466961E+01
 0.1583926153953E+01
 0.1557943622974E+01
 0.1532192124556E+01
 0.1507974350335E+01
 0.1486221124690E+01
 0.1467448538034E+01
 0.1451830444010E+01
 0.1439308428666E+01
 0.1429691839933E+01
 0.1422729757786E+01
 0.1418154751541E+01
 0.1415705277116E+01
 0.1415134138013E+01
 0.1416208453852E+01
 0.1418704390746E+01
 0.1422398284685E+01
 0.1427054503283E+01
 0.1432410052184E+01
 0.1438155146581E+01
 0.1443909212391E+01
 0.1449192779138E+01
 0.1453396141570E+01
 0.1455750207510E+01
 0.1455318437016E+01
 0.1450995743424E+01
 0.1441482072848E+01
 0.1425237110719E+01
 0.1400422314608E+01
 0.1364832810081E+01
 0.1315822421769E+01
 0.1250230454148E+01
 0.1164334043762E+01
 0.1053825761571E+01
 0.9139268810199E+00
 0.7399363051907E+00
 0.5283189792126E+00
 0.2782922224658E+00
-0.6264029763369E-02
-0.3153748288654E+00
-0.6338650623197E+00
 0.1611428406384E+01
 0.1585279567884E+01
 0.1557677457956E+01
 0.1530355971405E+01
 0.1504835561414E+01
 0.1482148894794E+01
 0.1462819182182E+01
 0.1446974211598E+01
 0.1434492106583E+01
 0.1425122929025E+01
 0.1418569755447E+01
 0.1414534102851E+01
 0.1412736837874E+01
 0.1412924407129E+01
 0.1414866820329E+01
 0.1418350899051E+01
 0.1423170382173E+01
 0.1429113025732E+01
 0.1435944517561E+01
 0.1443388047516E+01
 0.1451098623531E+01
 0.1458632455315E+01
 0.1465412270951E+01
 0.1470694788240E+01
 0.1473561402309E+01
 0.1472917643708E+01
 0.1467466246911E+01
 0.1455658747612E+01
 0.1435630335516E+01
 0.1405118585672E+01
 0.1361366624667E+01
 0.1301015251125E+01
 0.1220003163118E+01
 0.1113467567344E+01
 0.9757679568399E+00
 0.8009937089983E+00
 0.5841415872596E+00
 0.3230127307092E+00
 0.2069277273142E-01
-0.3123749653537E+00
-0.6587749230496E+00
 0.1614597060396E+01
 0.1586863238979E+01
 0.1557383675133E+01
 0.1528265269332E+01
 0.1501288535498E+01
 0.1477591491854E+01
 0.1457686431112E+01
 0.1441632230534E+01
 0.1429225061641E+01
 0.1420143894478E+01
 0.1414039489859E+01
 0.1410579522951E+01
 0.1409466465750E+01
 0.1410440660614E+01
 0.1413275840848E+01
 0.1417770700592E+01
 0.1423737960413E+01
 0.1430990799856E+01
 0.1439326247750E+01
 0.1448503926122E+01
 0.1458218761466E+01
 0.1468067733266E+01
 0.1477511474848E+01
 0.1485837906848E+01
 0.1492151485228E+01
 0.1495373741159E+01
 0.1494217091102E+01
 0.1487134819732E+01
 0.1472250068178E+01
 0.1447262281737E+01
 0.1409328584885E+01
 0.1354919298835E+01
 0.1279658845905E+01
 0.1178130297877E+01
 0.1043771091385E+01
 0.8692846107389E+00
 0.6478604557485E+00
 0.3753978273473E+00
 0.5371702043605E-01
-0.3063285659529E+00
-0.6843542694149E+00
 0.1618303205683E+01
 0.1588724266959E+01
 0.1557051051178E+01
 0.1525868006471E+01
 0.1497265081912E+01
 0.1472483001873E+01
 0.1451995413949E+01
 0.1435762150258E+01
 0.1423475394413E+01
 0.1414730290923E+01
 0.1409119206945E+01
 0.1406273707251E+01
 0.1405877533452E+01
 0.1407665515005E+01
 0.1411416155217E+01
 0.1416941350788E+01
 0.1424074426915E+01
 0.1432656037223E+01
 0.1442517254355E+01
 0.1453457737448E+01
 0.1465216988134E+01
 0.1477438348613E+01
 0.1489626417467E+01
 0.1501106192800E+01
 0.1511010529587E+01
 0.1518282330534E+01
 0.1521650655551E+01
 0.1519581022214E+01
 0.1510200321345E+01
 0.1491192461383E+01
 0.1459659023039E+01
 0.1411937953221E+01
 0.1343380277504E+01
 0.1248040342406E+01
 0.1118398633006E+01
 0.9456012972505E+00
 0.7206406519446E+00
 0.4368914661230E+00
 0.9424042158698E-01
-0.2962882470657E+00
-0.7106973058172E+00
 0.1622671275420E+01
 0.1590919152889E+01
 0.1556660458689E+01
 0.1523096078312E+01
 0.1492681581562E+01
 0.1466746913456E+01
 0.1445685613124E+01
 0.1429319351230E+01
 0.1417210759231E+01
 0.1408858056682E+01
 0.1403789844957E+01
 0.1401600100148E+01
 0.1401954100822E+01
 0.1404582154146E+01
 0.1409268813856E+01
 0.1415840618956E+01
 0.1424153144367E+01
 0.1434076545055E+01
 0.1445478635313E+01
 0.1458202823764E+01
 0.1472038164111E+01
 0.1486680521292E+01
 0.1501685213841E+01
 0.1516420744109E+01
 0.1530053859130E+01
 0.1541553980790E+01
 0.1549673537054E+01
 0.1552901026242E+01
 0.1549384157655E+01
 0.1536816762548E+01
 0.1512280859866E+01
 0.1472030465529E+01
 0.1411202961645E+01
 0.1323380611265E+01
 0.1200092371555E+01
 0.1030781272458E+01
 0.8038104272533E+00
 0.5092407239316E+00
 0.1440605340385E+00
-0.2810703204914E+00
-0.7378796728700E+00
 0.1627861133128E+01
 0.1593515216609E+01
 0.1556180169843E+01
 0.1519859395557E+01
 0.1487435176301E+01
 0.1460294812910E+01
 0.1438691024253E+01
 0.1422257557862E+01
 0.1410398955523E+01
 0.1402503974507E+01
 0.1398033379656E+01
 0.1396543159069E+01
 0.1397681127981E+01
 0.1401174514992E+01
 0.1406815454266E+01
 0.1414446669327E+01
 0.1423947625624E+01
 0.1435219936327E+01
 0.1448170785857E+01
 0.1462691091888E+01
 0.1478624745470E+01
 0.1495726939567E+01
 0.1513611314536E+01
 0.1531696975410E+01
 0.1549190159765E+01
 0.1565091473322E+01
 0.1578182815088E+01
 0.1586986275612E+01
 0.1589688330329E+01
 0.1584020603804E+01
 0.1567086482469E+01
 0.1535114391561E+01
 0.1483107742405E+01
 0.1404271071293E+01
 0.1289245867039E+01
 0.1125682806377E+01
 0.8988669391825E+00
 0.5945604496122E+00
 0.2054669541702E+00
-0.2591151655333E+00
-0.7659516263858E+00
 0.1634080537758E+01
 0.1596591826000E+01
 0.1555558461606E+01
 0.1516037696269E+01
 0.1481399230422E+01
 0.1453025388473E+01
 0.1430940812629E+01
 0.1414529766806E+01
 0.1403008666475E+01
 0.1395646197194E+01
 0.1391833198758E+01
 0.1391088631655E+01
 0.1393044694790E+01
 0.1397427477639E+01
 0.1404038482490E+01
 0.1412738250565E+01
 0.1423431744363E+01
 0.1436053867072E+01
 0.1450553650124E+01
 0.1466873238264E+01
 0.1484916918709E+01
 0.1504506754575E+01
 0.1525323373063E+01
 0.1546844447588E+01
 0.1568321381214E+01
 0.1588789824199E+01
 0.1607066141948E+01
 0.1621716005833E+01
 0.1630983025932E+01
 0.1632666322221E+01
 0.1623935610287E+01
 0.1601060700108E+01
 0.1559009966010E+01
 0.1490746612972E+01
 0.1386167375473E+01
 0.1231143261286E+01
 0.1007466965423E+01
 0.6954094478921E+00
 0.2814205854353E+00
-0.2282995032708E+00
-0.7949322642231E+00
 0.1641603274674E+01
 0.1600240914584E+01
 0.1554711845455E+01
 0.1511469168942E+01
 0.1474418213271E+01
 0.1444824184209E+01
 0.1422360697260E+01
 0.1406089530569E+01
 0.1395010334566E+01
 0.1388264828495E+01
 0.1385174499166E+01
 0.1385223841515E+01
 0.1388032223565E+01
 0.1393327057346E+01
 0.1400921257647E+01
 0.1410694891863E+01
 0.1422579959895E+01
 0.1436546301668E+01
 0.1452587019520E+01
 0.1470699033994E+01
 0.1490852785939E+01
 0.1512945586237E+01
 0.1536735079880E+01
 0.1561766654303E+01
 0.1587342640911E+01
 0.1612536390257E+01
 0.1636202001190E+01
 0.1656957506274E+01
 0.1673121942358E+01
 0.1682592811623E+01
 0.1682653938317E+01
 0.1669690027269E+01
 0.1638749853720E+01
 0.1582733819927E+01
 0.1491032914299E+01
 0.1347912966761E+01
 0.1131389403842E+01
 0.8148717859608E+00
 0.3758030909781E+00
-0.1856545559088E+00
-0.8247933916662E+00
 0.1650796268250E+01
 0.1604565641440E+01
 0.1553506065816E+01
 0.1505934731678E+01
 0.1466302558129E+01
 0.1435564831640E+01
 0.1412875299656E+01
 0.1396892581789E+01
 0.1386377143790E+01
 0.1380342544557E+01
 0.1378044696518E+01
 0.1378937975225E+01
 0.1382632700041E+01
 0.1388860594694E+01
 0.1397448276185E+01
 0.1408297102344E+01
 0.1421367553058E+01
 0.1436665805574E+01
 0.1454230884977E+01
 0.1474117688153E+01
 0.1496368622944E+01
 0.1520965549986E+01
 0.1547754948474E+01
 0.1576360739104E+01
 0.1606142117192E+01
 0.1636211073850E+01
 0.1665460172116E+01
 0.1692566670987E+01
 0.1715942748559E+01
 0.1733615741342E+01
 0.1743032751643E+01
 0.1740770528511E+01
 0.1722085356555E+01
 0.1680029549992E+01
 0.1603831551621E+01
 0.1476556942173E+01
 0.1272447226302E+01
 0.9566257471826E+00
 0.4937641373552E+00
-0.1269175137493E+00
-0.8554156159107E+00
 0.1662161489496E+01
 0.1609674678238E+01
 0.1551724873640E+01
 0.1499136671644E+01
 0.1456824935749E+01
 0.1425112855310E+01
 0.1402411587154E+01
 0.1386898696307E+01
 0.1377086071218E+01
 0.1371865240818E+01
 0.1370433835505E+01
 0.1372222364597E+01
 0.1376836889133E+01
 0.1384016941373E+01
 0.1393605353585E+01
 0.1405526570846E+01
 0.1419770868947E+01
 0.1436381861606E+01
 0.1455445847022E+01
 0.1477078309472E+01
 0.1501399239316E+01
 0.1528485314357E+01
 0.1558286022868E+01
 0.1590517087913E+01
 0.1624600890670E+01
 0.1659686619785E+01
 0.1694702418083E+01
 0.1728388854822E+01
 0.1759267917764E+01
 0.1785528341730E+01
 0.1804829608270E+01
 0.1814017625242E+01
 0.1808688454746E+01
 0.1782285217596E+01
 0.1724309580664E+01
 0.1617319371453E+01
 0.1432313356006E+01
 0.1124959558474E+01
 0.6422003676905E+00
-0.4578916252704E-01
-0.8864772563046E+00
 0.1676403431253E+01
 0.1615666472559E+01
 0.1549017597827E+01
 0.1490670840105E+01
 0.1445721193736E+01
 0.1413333423010E+01
 0.1390903182900E+01
 0.1376073606087E+01
 0.1367118984608E+01
 0.1362822680534E+01
 0.1362334984851E+01
 0.1365070756750E+01
 0.1370637539958E+01
 0.1378786637519E+01
 0.1389379799890E+01
 0.1402366361955E+01
 0.1417767560344E+01
 0.1435665201824E+01
 0.1456193583675E+01
 0.1479530492348E+01
 0.1505878490066E+01
 0.1535420217996E+01
 0.1568225472776E+01
 0.1604118724448E+01
 0.1642592686628E+01
 0.1682829013932E+01
 0.1723783446727E+01
 0.1764260084154E+01
 0.1802905947788E+01
 0.1838102711818E+01
 0.1867770147719E+01
 0.1889095997487E+01
 0.1898145322445E+01
 0.1889000414367E+01
 0.1851927214596E+01
 0.1769957207405E+01
 0.1612210147040E+01
 0.1324643544795E+01
 0.8303941391875E+00
 0.6733564893662E-01
-0.9171778010678E+00
 0.1694543560096E+01
 0.1622590192086E+01
 0.1544808936896E+01
 0.1479994377682E+01
 0.1432702648967E+01
 0.1400103946028E+01
 0.1378294598304E+01
 0.1364390833155E+01
 0.1356463790458E+01
 0.1353209099576E+01
 0.1353744605517E+01
 0.1357479565500E+01
 0.1364029575130E+01
 0.1373162077667E+01
 0.1384760586064E+01
 0.1398801104787E+01
 0.1415336825528E+01
 0.1434488142167E+01
 0.1456437365900E+01
 0.1481425053195E+01
 0.1509740013545E+01
 0.1541682500218E+01
 0.1577464026728E+01
 0.1617040389089E+01
 0.1659983438803E+01
 0.1705497987745E+01
 0.1752552197070E+01
 0.1800008671717E+01
 0.1846652965624E+01
 0.1891091526199E+01
 0.1931550829152E+01
 0.1965624266340E+01
 0.1989960481155E+01
 0.1999525934604E+01
 0.1985846906875E+01
 0.1933578617462E+01
 0.1812407662161E+01
 0.1560467427115E+01
 0.1070788195789E+01
 0.2276055173820E+00
-0.9455466485286E+00
 0.1718128257565E+01
 0.1630349752315E+01
 0.1538139874496E+01
 0.1466401234435E+01
 0.1417491767132E+01
 0.1385329394077E+01
 0.1364543738027E+01
 0.1351833760178E+01
 0.1345115545437E+01
 0.1343023710706E+01
 0.1344662897522E+01
 0.1349448093015E+01
 0.1357010262536E+01
 0.1367137663713E+01
 0.1379738499507E+01
 0.1394817172236E+01
 0.1412459635876E+01
 0.1432824903757E+01
 0.1456142592453E+01
 0.1482714932846E+01
 0.1512918310632E+01
 0.1547181754466E+01
 0.1585885175215E+01
 0.1629147105088E+01
 0.1676630552802E+01
 0.1727547637606E+01
 0.1780853520512E+01
 0.1835457303974E+01
 0.1890294686435E+01
 0.1944230007080E+01
 0.1995842049307E+01
 0.2043182364936E+01
 0.2083566878903E+01
 0.2113070069961E+01
 0.2124963463543E+01
 0.2106577680610E+01
 0.2031527619645E+01
 0.1836060601300E+01
 0.1379669477202E+01
 0.4597649958403E+00
-0.9666826547675E+00
 0.1749643544910E+01
 0.1638456975939E+01
 0.1527383216470E+01
 0.1449051766040E+01
 0.1399895971354E+01
 0.1368949053880E+01
 0.1349622761849E+01
 0.1338398739275E+01
 0.1333077017395E+01
 0.1332271199859E+01
 0.1335094097503E+01
 0.1340978707921E+01
 0.1349579368829E+01
 0.1360709938529E+01
 0.1374306285818E+01
 0.1390402845673E+01
 0.1409118949187E+01
 0.1430651906710E+01
 0.1455277289719E+01
 0.1483356241660E+01
 0.1515350339288E+01
 0.1551825839585E+01
 0.1593364065048E+01
 0.1640291913850E+01
 0.1692381711286E+01
 0.1748827237435E+01
 0.1808530363015E+01
 0.1870425766042E+01
 0.1933608783526E+01
 0.1997237963218E+01
 0.2060291455887E+01
 0.2121319473805E+01
 0.2178346990377E+01
 0.2228706359499E+01
 0.2267937574109E+01
 0.2286811548347E+01
 0.2265889321968E+01
 0.2151327665304E+01
 0.1776838362210E+01
 0.8056787699094E+00
-0.9681807473618E+00
 0.1793455925873E+01
 0.1645332094203E+01
 0.1509755150213E+01
 0.1427207042061E+01
 0.1379902999302E+01
 0.1350910450412E+01
 0.1333527786105E+01
 0.1324096842247E+01
 0.1320358553172E+01
 0.1320962514635E+01
 0.1325046534466E+01
 0.1332077049824E+01
 0.1341739264883E+01
 0.1353877707123E+01
 0.1368458772885E+01
 0.1385548462783E+01
 0.1405299903900E+01
 0.1427948039275E+01
 0.1453812503675E+01
 0.1483309308670E+01
 0.1516977847001E+01
 0.1555522751259E+01
 0.1599765983074E+01
 0.1650312172898E+01
 0.1707072999591E+01
 0.1769182397440E+01
 0.1835426617974E+01
 0.1904734266396E+01
 0.1976368284912E+01
 0.2049820772578E+01
 0.2124528172121E+01
 0.2199560070405E+01
 0.2273659162525E+01
 0.2345422343541E+01
 0.2413126432803E+01
 0.2472011171129E+01
 0.2509846041396E+01
 0.2497755850800E+01
 0.2281134005555E+01
 0.1338292349190E+01
-0.9173488411327E+00
 0.1858363810045E+01
 0.1645986289061E+01
 0.1480737690605E+01
 0.1401073708776E+01
 0.1357577380785E+01
 0.1331139330756E+01
 0.1316312861881E+01
 0.1308940829498E+01
 0.1306983485587E+01
 0.1309113545986E+01
 0.1314533229458E+01
 0.1322752002684E+01
 0.1333495050377E+01
 0.1346642119029E+01
 0.1362192976958E+01
 0.1380246544844E+01
 0.1400989976554E+01
 0.1424694916127E+01
 0.1451722575222E+01
 0.1482539337614E+01
 0.1517750564133E+01
 0.1558184634210E+01
 0.1604944334414E+01
 0.1659023153875E+01
 0.1720526150141E+01
 0.1788457004304E+01
 0.1861390747697E+01
 0.1938207652603E+01
 0.2018345444266E+01
 0.2101673067552E+01
 0.2188155955202E+01
 0.2277432937502E+01
 0.2368813345060E+01
 0.2462286569133E+01
 0.2558477845744E+01
 0.2659608762991E+01
 0.2758884945005E+01
 0.2853715980860E+01
 0.2891051916088E+01
 0.2187163330903E+01
-0.7252134532295E+00
 0.1966431294828E+01
 0.1622386933537E+01
 0.1436029419814E+01
 0.1373417999206E+01
 0.1331988954764E+01
 0.1309978168350E+01
 0.1297947614809E+01
 0.1292988299373E+01
 0.1292976405519E+01
 0.1296748448377E+01
 0.1303571112469E+01
 0.1313015969948E+01
 0.1324854556478E+01
 0.1339006753123E+01
 0.1355508185124E+01
 0.1374491902635E+01
 0.1396179126696E+01
 0.1420877029602E+01
 0.1448985603819E+01
 0.1481016036942E+01
 0.1517629317875E+01
 0.1559737060124E+01
 0.1608738205030E+01
 0.1666205661420E+01
 0.1732545431381E+01
 0.1806496511072E+01
 0.1886280495553E+01
 0.1970679767510E+01
 0.2059317996782E+01
 0.2152480379540E+01
 0.2250757100312E+01
 0.2354433020281E+01
 0.2463264584250E+01
 0.2578000868296E+01
 0.2703087394160E+01
 0.2843228445152E+01
 0.3015547326695E+01
 0.3192502601988E+01
 0.3532185056050E+01
 0.3548294952029E+01
-0.8836180535000E-01
 0.2195130691159E+01
 0.1489436373240E+01
 0.1405146235994E+01
 0.1336686353546E+01
 0.1305217423486E+01
 0.1287063240712E+01
 0.1278615669075E+01
 0.1276264776247E+01
 0.1278382576876E+01
 0.1283894709884E+01
 0.1292182226582E+01
 0.1302884576110E+01
 0.1315828450710E+01
 0.1330977643879E+01
 0.1348406033189E+01
 0.1368281711749E+01
 0.1390859916588E+01
 0.1416481895493E+01
 0.1445583541850E+01
 0.1478714688764E+01
 0.1516581169021E+01
 0.1560143294784E+01
 0.1610971412237E+01
 0.1671576060226E+01
 0.1742920684289E+01
 0.1823151407371E+01
 0.1909968682269E+01
 0.2002000413989E+01
 0.2099070068981E+01
 0.2201939021537E+01
 0.2311861159076E+01
 0.2430062157772E+01
 0.2556432366522E+01
 0.2691969085768E+01
 0.2843502654266E+01
 0.3025943894400E+01
 0.3248676287795E+01
 0.3590025811126E+01
 0.3899788101122E+01
 0.5655873807079E+01
 0.1714504752724E+01
 0.2285701409597E+01
 0.2206012981174E+01
 0.2121958519232E+01
 0.2038961144012E+01
 0.1958318871309E+01
 0.1881078770817E+01
 0.1807717530323E+01
 0.1739274629129E+01
 0.1676426718228E+01
 0.1619573631993E+01
 0.1569049006722E+01
 0.1525067013349E+01
 0.1487749832852E+01
 0.1457090920928E+01
 0.1433010311630E+01
 0.1415292548955E+01
 0.1405281496591E+01
 0.1404398185605E+01
 0.1409111323349E+01
 0.1444549690642E+01
 0.2315218448888E+01
 0.2229329886484E+01
 0.2144833801047E+01
 0.2061462688397E+01
 0.1980913867118E+01
 0.1903993580011E+01
 0.1831475911942E+01
 0.1764013782841E+01
 0.1702197664544E+01
 0.1646449472330E+01
 0.1597083403625E+01
 0.1554337809044E+01
 0.1518356573644E+01
 0.1489208119361E+01
 0.1466916409679E+01
 0.1451830887104E+01
 0.1444858168052E+01
 0.1446500248081E+01
 0.1462392486143E+01
 0.1488256176776E+01
 0.2342019005327E+01
 0.2253858299963E+01
 0.2167433071970E+01
 0.2083576528966E+01
 0.2002917483631E+01
 0.1926303055657E+01
 0.1854384864104E+01
 0.1787752491580E+01
 0.1726887752383E+01
 0.1672182238447E+01
 0.1623949278149E+01
 0.1582435021872E+01
 0.1547821742930E+01
 0.1520246706652E+01
 0.1499909979147E+01
 0.1487233853366E+01
 0.1482922339010E+01
 0.1488678273024E+01
 0.1504817846433E+01
 0.1529736057139E+01
 0.2368414331509E+01
 0.2277836303671E+01
 0.2189888269133E+01
 0.2105167764158E+01
 0.2024292282671E+01
 0.1947844261616E+01
 0.1876405186233E+01
 0.1810473603846E+01
 0.1750472354483E+01
 0.1696753877637E+01
 0.1649620738763E+01
 0.1609330019629E+01
 0.1576098146634E+01
 0.1550134822353E+01
 0.1531717266466E+01
 0.1521274961089E+01
 0.1519614017704E+01
 0.1527389299534E+01
 0.1544739068950E+01
 0.1570927204192E+01
 0.2394230182123E+01
 0.2301304336056E+01
 0.2211788387368E+01
 0.2126172428753E+01
 0.2044931131381E+01
 0.1968543618133E+01
 0.1897472549988E+01
 0.1832144441615E+01
 0.1772926146903E+01
 0.1720137631471E+01
 0.1674067885753E+01
 0.1634981149441E+01
 0.1603123326520E+01
 0.1578748449970E+01
 0.1562166061043E+01
 0.1553821336183E+01
 0.1554260671837E+01
 0.1563908200697E+01
 0.1582852902948E+01
 0.1610843017122E+01
 0.2419356202951E+01
 0.2324088006098E+01
 0.2232999047072E+01
 0.2146431519928E+01
 0.2064749638155E+01
 0.1988325468637E+01
 0.1917532782949E+01
 0.1852724193434E+01
 0.1794217755083E+01
 0.1742302612098E+01
 0.1697253893319E+01
 0.1659338750656E+01
 0.1628821084527E+01
 0.1605977595502E+01
 0.1591130995945E+01
 0.1584667765323E+01
 0.1587014064155E+01
 0.1598487993965E+01
 0.1619226773478E+01
 0.1649184905053E+01
 0.2443628836566E+01
 0.2346046905893E+01
 0.2253380149553E+01
 0.2165831300505E+01
 0.2083652266662E+01
 0.2007121696913E+01
 0.1936531856642E+01
 0.1872171121198E+01
 0.1814311557845E+01
 0.1763213553640E+01
 0.1719137303785E+01
 0.1682347941227E+01
 0.1653116859693E+01
 0.1631729808265E+01
 0.1618499988512E+01
 0.1613774107829E+01
 0.1617910572620E+01
 0.1631196332509E+01
 0.1653803336021E+01
 0.1685765026119E+01
 0.2466887011179E+01
 0.2367040574416E+01
 0.2272810476444E+01
 0.2184266617746E+01
 0.2101554525315E+01
 0.2024865147714E+01
 0.1954417756875E+01
 0.1890442574928E+01
 0.1833169829902E+01
 0.1782832275380E+01
 0.1739674015465E+01
 0.1703953646947E+01
 0.1675942558269E+01
 0.1655925431034E+01
 0.1644204832021E+01
 0.1641102239742E+01
 0.1646944830947E+01
 0.1662012107101E+01
 0.1686500626667E+01
 0.1720495779949E+01
 0.2488975109844E+01
 0.2386937263034E+01
 0.2291177793091E+01
 0.2201643126492E+01
 0.2118378463587E+01
 0.2041493220637E+01
 0.1971139913702E+01
 0.1907496236151E+01
 0.1850753964825E+01
 0.1801119458300E+01
 0.1758819683524E+01
 0.1724103449955E+01
 0.1697237085191E+01
 0.1678500778333E+01
 0.1668188900073E+01
 0.1666610403732E+01
 0.1674080185524E+01
 0.1690881942470E+01
 0.1717238227652E+01
 0.1753279307833E+01
 0.2509746838811E+01
 0.2405613925643E+01
 0.2308378888114E+01
 0.2217874499885E+01
 0.2134052729815E+01
 0.2056947439449E+01
 0.1986650104732E+01
 0.1923290665121E+01
 0.1867025574170E+01
 0.1818036022010E+01
 0.1776531355434E+01
 0.1742748608820E+01
 0.1716946691480E+01
 0.1699400635641E+01
 0.1690400178189E+01
 0.1690250093821E+01
 0.1699264209202E+01
 0.1717738678763E+01
 0.1745925717082E+01
 0.1784007356622E+01
 0.2529066796027E+01
 0.2422957133553E+01
 0.2324319149339E+01
 0.2232882009655E+01
 0.2148512048916E+01
 0.2071173751285E+01
 0.2000902934277E+01
 0.1937786165316E+01
 0.1881947486562E+01
 0.1833544322823E+01
 0.1792768514033E+01
 0.1759844577295E+01
 0.1735023277592E+01
 0.1718575125117E+01
 0.1710788240463E+01
 0.1711968714921E+01
 0.1722436469729E+01
 0.1742505896392E+01
 0.1772465363204E+01
 0.1812551142307E+01
 0.2546811011926E+01
 0.2438863280817E+01
 0.2338912390447E+01
 0.2246594061728E+01
 0.2161696938296E+01
 0.2084122486464E+01
 0.2013856153820E+01
 0.1950945310663E+01
 0.1895484452154E+01
 0.1847608866696E+01
 0.1807493582525E+01
 0.1775350756480E+01
 0.1751423239413E+01
 0.1735978038958E+01
 0.1729303939305E+01
 0.1731711921168E+01
 0.1743532515766E+01
 0.1765102599859E+01
 0.1796750837767E+01
 0.1838781265441E+01
 0.2562867482440E+01
 0.2453238846290E+01
 0.2352080906731E+01
 0.2258946139945E+01
 0.2173553682028E+01
 0.2095748518747E+01
 0.2025471022020E+01
 0.1962733481746E+01
 0.1907603755624E+01
 0.1860196874372E+01
 0.1820672215101E+01
 0.1789230334470E+01
 0.1766106884719E+01
 0.1751566408601E+01
 0.1745899944095E+01
 0.1749425549539E+01
 0.1762487088148E+01
 0.1785446187866E+01
 0.1818674595496E+01
 0.1862550803282E+01
 0.2577136342259E+01
 0.2466000496727E+01
 0.2363755477241E+01
 0.2269880755283E+01
 0.2184034317260E+01
 0.2106011365246E+01
 0.2035712551962E+01
 0.1973119227925E+01
 0.1918275621672E+01
 0.1871278613878E+01
 0.1832273436748E+01
 0.1801450178220E+01
 0.1779038226556E+01
 0.1765300563817E+01
 0.1760531477377E+01
 0.1765057260503E+01
 0.1779236351649E+01
 0.1803455729141E+01
 0.1838129776141E+01
 0.1883706006357E+01
 0.2589529993701E+01
 0.2477075163983E+01
 0.2373875398699E+01
 0.2279347459672E+01
 0.2193096675737E+01
 0.2114875303932E+01
 0.2044549721639E+01
 0.1982074548689E+01
 0.1927473508987E+01
 0.1880827632946E+01
 0.1842269755313E+01
 0.1811980842347E+01
 0.1790185024190E+01
 0.1777144438334E+01
 0.1773157114746E+01
 0.1778557899343E+01
 0.1793719826861E+01
 0.1819054117107E+01
 0.1855013846292E+01
 0.1902106135443E+01
 0.2599973238959E+01
 0.2486400122636E+01
 0.2382388548971E+01
 0.2287302903469E+01
 0.2200704463852E+01
 0.2122309503530E+01
 0.2051955662919E+01
 0.1989575123523E+01
 0.1935174341986E+01
 0.1888820949407E+01
 0.1850637292084E+01
 0.1820796677348E+01
 0.1799518976005E+01
 0.1787065998095E+01
 0.1783739577863E+01
 0.1789882731683E+01
 0.1805882064985E+01
 0.1832170418002E+01
 0.1869233936921E+01
 0.1917628472846E+01
 0.2608403286630E+01
 0.2493923013430E+01
 0.2389251400765E+01
 0.2293710857700E+01
 0.2206827306665E+01
 0.2128288104548E+01
 0.2057907782643E+01
 0.1995600459625E+01
 0.1941358660571E+01
 0.1895239181716E+01
 0.1857355894099E+01
 0.1827875963594E+01
 0.1807015955563E+01
 0.1795037679911E+01
 0.1792246469687E+01
 0.1798992549012E+01
 0.1815674220784E+01
 0.1842742369014E+01
 0.1880709792060E+01
 0.1930170128743E+01
 0.2614769870425E+01
 0.2499601912500E+01
 0.2394429094216E+01
 0.2298542288792E+01
 0.2211440835901E+01
 0.2132790328191E+01
 0.2062387893311E+01
 0.2000134035366E+01
 0.1946010762714E+01
 0.1900066682729E+01
 0.1862409268960E+01
 0.1833201082997E+01
 0.1812656280299E+01
 0.1801036830611E+01
 0.1798650959264E+01
 0.1805854676072E+01
 0.1823055508138E+01
 0.1850718229053E+01
 0.1889375613024E+01
 0.1939648648039E+01
 0.2619035243852E+01
 0.2503405344196E+01
 0.2397895448124E+01
 0.2301775379749E+01
 0.2214526724301E+01
 0.2135800528212E+01
 0.2065382281790E+01
 0.2003163380110E+01
 0.1949118788348E+01
 0.1903291626465E+01
 0.1865785086312E+01
 0.1836758664284E+01
 0.1816424945537E+01
 0.1805046085059E+01
 0.1802932364209E+01
 0.1810443825720E+01
 0.1827994346520E+01
 0.1856058111208E+01
 0.1895181170923E+01
 0.1946002191019E+01
 0.2621174226789E+01
 0.2505312310717E+01
 0.2399632993795E+01
 0.2303395567940E+01
 0.2216072731402E+01
 0.2137308246359E+01
 0.2066881773875E+01
 0.2004680144626E+01
 0.1950674792682E+01
 0.1904906086184E+01
 0.1867475071685E+01
 0.1838539714951E+01
 0.1818311827540E+01
 0.1807053681129E+01
 0.1805076623387E+01
 0.1812742765012E+01
 0.1830469215687E+01
 0.1858734908071E+01
 0.1898092532934E+01
 0.1949189380123E+01
 0.2621174226415E+01
 0.2505312310418E+01
 0.2399632993555E+01
 0.2303395567747E+01
 0.2216072731247E+01
 0.2137308246236E+01
 0.2066881773780E+01
 0.2004680144555E+01
 0.1950674792631E+01
 0.1904906086150E+01
 0.1867475071663E+01
 0.1838539714940E+01
 0.1818311827535E+01
 0.1807053681128E+01
 0.1805076623388E+01
 0.1812742765013E+01
 0.1830469215688E+01
 0.1858734908072E+01
 0.1898092532933E+01
 0.1949189380120E+01
 0.2619035242733E+01
 0.2503405343301E+01
 0.2397895447404E+01
 0.2301775379170E+01
 0.2214526723837E+01
 0.2135800527845E+01
 0.2065382281505E+01
 0.2003163379897E+01
 0.1949118788196E+01
 0.1903291626362E+01
 0.1865785086248E+01
 0.1836758664249E+01
 0.1816424945521E+01
 0.1805046085054E+01
 0.1802932364211E+01
 0.1810443825724E+01
 0.1827994346524E+01
 0.1856058111209E+01
 0.1895181170920E+01
 0.1946002191012E+01
 0.2614769868567E+01
 0.2499601911013E+01
 0.2394429093020E+01
 0.2298542287830E+01
 0.2211440835130E+01
 0.2132790327580E+01
 0.2062387892838E+01
 0.2000134035011E+01
 0.1946010762460E+01
 0.1900066682559E+01
 0.1862409268855E+01
 0.1833201082938E+01
 0.1812656280273E+01
 0.1801036830603E+01
 0.1798650959267E+01
 0.1805854676078E+01
 0.1823055508144E+01
 0.1850718229056E+01
 0.1889375613021E+01
 0.1939648648028E+01
 0.2608403284045E+01
 0.2493923011360E+01
 0.2389251399100E+01
 0.2293710856360E+01
 0.2206827305590E+01
 0.2128288103697E+01
 0.2057907781983E+01
 0.1995600459130E+01
 0.1941358660217E+01
 0.1895239181478E+01
 0.1857355893952E+01
 0.1827875963513E+01
 0.1807015955526E+01
 0.1795037679901E+01
 0.1792246469692E+01
 0.1798992549022E+01
 0.1815674220793E+01
 0.1842742369018E+01
 0.1880709792057E+01
 0.1930170128729E+01
 0.2599973235663E+01
 0.2486400119995E+01
 0.2382388546846E+01
 0.2287302901757E+01
 0.2200704462478E+01
 0.2122309502442E+01
 0.2051955662075E+01
 0.1989575122890E+01
 0.1935174341533E+01
 0.1888820949103E+01
 0.1850637291897E+01
 0.1820796677245E+01
 0.1799518975959E+01
 0.1787065998083E+01
 0.1783739577869E+01
 0.1789882731697E+01
 0.1805882064998E+01
 0.1832170418010E+01
 0.1869233936918E+01
 0.1917628472830E+01
 0.2589529989714E+01
 0.2477075160786E+01
 0.2373875396124E+01
 0.2279347457596E+01
 0.2193096674070E+01
 0.2114875302610E+01
 0.2044549720614E+01
 0.1982074547920E+01
 0.1927473508438E+01
 0.1880827632578E+01
 0.1842269755086E+01
 0.1811980842223E+01
 0.1790185024134E+01
 0.1777144438320E+01
 0.1773157114754E+01
 0.1778557899361E+01
 0.1793719826879E+01
 0.1819054117119E+01
 0.1855013846291E+01
 0.1902106135426E+01
 0.2577136337606E+01
 0.2466000492993E+01
 0.2363755474230E+01
 0.2269880752853E+01
 0.2184034315308E+01
 0.2106011363696E+01
 0.2035712550759E+01
 0.1973119227023E+01
 0.1918275621028E+01
 0.1871278613446E+01
 0.1832273436482E+01
 0.1801450178074E+01
 0.1779038226491E+01
 0.1765300563801E+01
 0.1760531477388E+01
 0.1765057260526E+01
 0.1779236351673E+01
 0.1803455729157E+01
 0.1838129776143E+01
 0.1883706006341E+01
 0.2562867477151E+01
 0.2453238842041E+01
 0.2352080903300E+01
 0.2258946137173E+01
 0.2173553679798E+01
 0.2095748516976E+01
 0.2025471020645E+01
 0.1962733480714E+01
 0.1907603754887E+01
 0.1860196873877E+01
 0.1820672214797E+01
 0.1789230334304E+01
 0.1766106884646E+01
 0.1751566408584E+01
 0.1745899944110E+01
 0.1749425549568E+01
 0.1762487088178E+01
 0.1785446187888E+01
 0.1818674595504E+01
 0.1862550803268E+01
 0.2546811006034E+01
 0.2438863276078E+01
 0.2338912386616E+01
 0.2246594058627E+01
 0.2161696935799E+01
 0.2084122484478E+01
 0.2013856152277E+01
 0.1950945309505E+01
 0.1895484451327E+01
 0.1847608866142E+01
 0.1807493582184E+01
 0.1775350756295E+01
 0.1751423239331E+01
 0.1735978038941E+01
 0.1729303939324E+01
 0.1731711921203E+01
 0.1743532515804E+01
 0.1765102599890E+01
 0.1796750837782E+01
 0.1838781265430E+01
 0.2529066789570E+01
 0.2422957128353E+01
 0.2324319145128E+01
 0.2232882006241E+01
 0.2148512046162E+01
 0.2071173749093E+01
 0.2000902932572E+01
 0.1937786164036E+01
 0.1881947485648E+01
 0.1833544322212E+01
 0.1792768513657E+01
 0.1759844577091E+01
 0.1735023277503E+01
 0.1718575125099E+01
 0.1710788240486E+01
 0.1711968714963E+01
 0.1722436469776E+01
 0.1742505896433E+01
 0.1772465363228E+01
 0.1812551142302E+01
 0.2509746831833E+01
 0.2405613920013E+01
 0.2308378883545E+01
 0.2217874496174E+01
 0.2134052726817E+01
 0.2056947437059E+01
 0.1986650102872E+01
 0.1923290663725E+01
 0.1867025573173E+01
 0.1818036021344E+01
 0.1776531355025E+01
 0.1742748608598E+01
 0.1716946691383E+01
 0.1699400635622E+01
 0.1690400178216E+01
 0.1690250093871E+01
 0.1699264209260E+01
 0.1717738678817E+01
 0.1745925717119E+01
 0.1784007356627E+01
 0.2488975102391E+01
 0.2386937257008E+01
 0.2291177788191E+01
 0.2201643122503E+01
 0.2118378460357E+01
 0.2041493218059E+01
 0.1971139911694E+01
 0.1907496234643E+01
 0.1850753963749E+01
 0.1801119457581E+01
 0.1758819683083E+01
 0.1724103449716E+01
 0.1697237085087E+01
 0.1678500778314E+01
 0.1668188900104E+01
 0.1666610403789E+01
 0.1674080185594E+01
 0.1690881942539E+01
 0.1717238227705E+01
 0.1753279307852E+01
 0.2466887003302E+01
 0.2367040568034E+01
 0.2272810471239E+01
 0.2184266613498E+01
 0.2101554521868E+01
 0.2024865144958E+01
 0.1954417754726E+01
 0.1890442573315E+01
 0.1833169828752E+01
 0.1782832274613E+01
 0.1739674014995E+01
 0.1703953646692E+01
 0.1675942558157E+01
 0.1655925431014E+01
 0.1644204832055E+01
 0.1641102239807E+01
 0.1646944831029E+01
 0.1662012107188E+01
 0.1686500626742E+01
 0.1720495779990E+01
 0.2443628828321E+01
 0.2346046899195E+01
 0.2253380144074E+01
 0.2165831296019E+01
 0.2083652263013E+01
 0.2007121693990E+01
 0.1936531854362E+01
 0.1872171119486E+01
 0.1814311556626E+01
 0.1763213552828E+01
 0.1719137303288E+01
 0.1682347940957E+01
 0.1653116859575E+01
 0.1631729808242E+01
 0.1618499988547E+01
 0.1613774107901E+01
 0.1617910572717E+01
 0.1631196332617E+01
 0.1653803336123E+01
 0.1685765026190E+01
 0.2419356194398E+01
 0.2324087999127E+01
 0.2232999041351E+01
 0.2146431515228E+01
 0.2064749634319E+01
 0.1988325465558E+01
 0.1917532780545E+01
 0.1852724191631E+01
 0.1794217753800E+01
 0.1742302611245E+01
 0.1697253892798E+01
 0.1659338750372E+01
 0.1628821084400E+01
 0.1605977595474E+01
 0.1591130995979E+01
 0.1584667765399E+01
 0.1587014064264E+01
 0.1598487994096E+01
 0.1619226773614E+01
 0.1649184905166E+01
 0.2394230173326E+01
 0.2301304328861E+01
 0.2211788381437E+01
 0.2126172423860E+01
 0.2044931127376E+01
 0.1968543614911E+01
 0.1897472547471E+01
 0.1832144439728E+01
 0.1772926145563E+01
 0.1720137630582E+01
 0.1674067885211E+01
 0.1634981149144E+01
 0.1603123326384E+01
 0.1578748449935E+01
 0.1562166061073E+01
 0.1553821336261E+01
 0.1554260671957E+01
 0.1563908200852E+01
 0.1582852903123E+01
 0.1610843017289E+01
 0.2368414322537E+01
 0.2277836296302E+01
 0.2189888263028E+01
 0.2105167759098E+01
 0.2024292278512E+01
 0.1947844258263E+01
 0.1876405183613E+01
 0.1810473601885E+01
 0.1750472353095E+01
 0.1696753876719E+01
 0.1649620738204E+01
 0.1609330019320E+01
 0.1576098146488E+01
 0.1550134822308E+01
 0.1531717266488E+01
 0.1521274961164E+01
 0.1519614017832E+01
 0.1527389299715E+01
 0.1544739069168E+01
 0.1570927204426E+01
 0.2342018996255E+01
 0.2253858292474E+01
 0.2167433065728E+01
 0.2083576523762E+01
 0.2002917479335E+01
 0.1926303052186E+01
 0.1854384861391E+01
 0.1787752489554E+01
 0.1726887750956E+01
 0.1672182237507E+01
 0.1623949277577E+01
 0.1582435021553E+01
 0.1547821742772E+01
 0.1520246706593E+01
 0.1499909979154E+01
 0.1487233853430E+01
 0.1482922339142E+01
 0.1488678273226E+01
 0.1504817846701E+01
 0.1529736057449E+01
 0.2315218439800E+01
 0.2229329878935E+01
 0.2144833794703E+01
 0.2061462683070E+01
 0.1980913862702E+01
 0.1903993576435E+01
 0.1831475909148E+01
 0.1764013780762E+01
 0.1702197663088E+01
 0.1646449471378E+01
 0.1597083403046E+01
 0.1554337808717E+01
 0.1518356573473E+01
 0.1489208119284E+01
 0.1466916409661E+01
 0.1451830887148E+01
 0.1444858168176E+01
 0.1446500248307E+01
 0.1462392486452E+01
 0.1488256177182E+01
 0.2285701400585E+01
 0.2206012973627E+01
 0.2121958512813E+01
 0.2038961138587E+01
 0.1958318866791E+01
 0.1881078767148E+01
 0.1807717527459E+01
 0.1739274627010E+01
 0.1676426716758E+01
 0.1619573631042E+01
 0.1569049006144E+01
 0.1525067013014E+01
 0.1487749832665E+01
 0.1457090920829E+01
 0.1433010311583E+01
 0.1415292548955E+01
 0.1405281496698E+01
 0.1404398185839E+01
 0.1409111323735E+01
 0.1444549691076E+01
 0.6063555039582E+01
 0.1162036175692E+01
 0.8816126373183E+00
 0.6322531013095E+00
 0.4435356019906E+00
 0.2654345594047E+00
 0.1023802009069E+00
-0.1117075784805E-02
-0.6265186409193E-01
-0.1088817918477E+00
-0.1471235977315E+00
-0.1791166225987E+00
-0.2024300574568E+00
-0.2165789216283E+00
-0.2216393223696E+00
-0.2185035924636E+00
-0.1879621694498E+00
-0.1583666026736E+00
-0.1336707872412E+00
-0.1269427561600E+00
 0.3725598492719E+01
 0.2266869038913E+01
 0.1038839606206E+01
 0.7649803498079E+00
 0.5495848927259E+00
 0.3693618690102E+00
 0.2160552292333E+00
 0.1025833821872E+00
 0.2803658530341E-01
-0.2398380058510E-01
-0.6479338474367E-01
-0.9753693616648E-01
-0.1226565083783E+00
-0.1400144157101E+00
-0.1495483873644E+00
-0.1482017046105E+00
-0.1386599805037E+00
-0.1231002176402E+00
-0.1084579678875E+00
-0.1062535259555E+00
 0.3047630465018E+01
 0.2201918655766E+01
 0.1415255996663E+01
 0.9083637429026E+00
 0.6675992504504E+00
 0.4766113811186E+00
 0.3241366033371E+00
 0.2075225999983E+00
 0.1242255144687E+00
 0.6498570549174E-01
 0.2047114240962E-01
-0.1426987758594E-01
-0.4113381153564E-01
-0.6099937366503E-01
-0.7349596788788E-01
-0.7863401981099E-01
-0.7813129482609E-01
-0.7493885104174E-01
-0.6960875150676E-01
-0.6948191691028E-01
 0.2694206941811E+01
 0.2128168057228E+01
 0.1560885104978E+01
 0.1099558719282E+01
 0.7943981993732E+00
 0.5890466168594E+00
 0.4321101853085E+00
 0.3122854449340E+00
 0.2231299887077E+00
 0.1576674430056E+00
 0.1086970030905E+00
 0.7125119055592E-01
 0.4233696837529E-01
 0.2041274659765E-01
 0.4923902188640E-02
-0.4717682187084E-02
-0.1110263812694E-01
-0.1581064465796E-01
-0.1712242717038E-01
-0.1650743790298E-01
 0.2487896686601E+01
 0.2067265943583E+01
 0.1636078333738E+01
 0.1239933460490E+01
 0.9322141271011E+00
 0.7059977944963E+00
 0.5419539888345E+00
 0.4176368955712E+00
 0.3235815987741E+00
 0.2529549271638E+00
 0.1996554080573E+00
 0.1591109994191E+00
 0.1279313363203E+00
 0.1039750603223E+00
 0.8610841965112E-01
 0.7310111407092E-01
 0.6207564941852E-01
 0.5234809769467E-01
 0.4778054903836E-01
 0.5097242805300E-01
 0.2356678598248E+01
 0.2025617660112E+01
 0.1680869450001E+01
 0.1344410970060E+01
 0.1055888188267E+01
 0.8253855106738E+00
 0.6533739739101E+00
 0.5240002774014E+00
 0.4252486115183E+00
 0.3500958705231E+00
 0.2928210387034E+00
 0.2491533138725E+00
 0.2155870920676E+00
 0.1896812421646E+00
 0.1698810979243E+00
 0.1545580292953E+00
 0.1405389099793E+00
 0.1283029103860E+00
 0.1232626668793E+00
 0.1308051979633E+00
 0.2270162438348E+01
 0.1999288733240E+01
 0.1713413014353E+01
 0.1425211476127E+01
 0.1162784374443E+01
 0.9391870458541E+00
 0.7645557116976E+00
 0.6308456109067E+00
 0.5278294857588E+00
 0.4485923136525E+00
 0.3876939428082E+00
 0.3410430782677E+00
 0.3051240011238E+00
 0.2773729042305E+00
 0.2560173225440E+00
 0.2391796601626E+00
 0.2234955297276E+00
 0.2107313241944E+00
 0.2073970350693E+00
 0.2203278489661E+00
 0.2212660566197E+01
 0.1984726398780E+01
 0.1741139673660E+01
 0.1491237567410E+01
 0.1255010680247E+01
 0.1044283949895E+01
 0.8722638625609E+00
 0.7368396840134E+00
 0.6306416317026E+00
 0.5479359082432E+00
 0.4838009947151E+00
 0.4343890114054E+00
 0.3962435329871E+00
 0.3667907907987E+00
 0.3441837635041E+00
 0.3264406533270E+00
 0.3101048511342E+00
 0.2982997165865E+00
 0.2981466147022E+00
 0.3167824282915E+00
 0.2175260486795E+01
 0.1979182356436E+01
 0.1767351511705E+01
 0.1547991937580E+01
 0.1335726825223E+01
 0.1140207789482E+01
 0.9745287047655E+00
 0.8402592015207E+00
 0.7326414396125E+00
 0.6474340913556E+00
 0.5806115986449E+00
 0.5287505582164E+00
 0.4885725238425E+00
 0.4575846407056E+00
 0.4339711797202E+00
 0.4157598449566E+00
 0.3995064733870E+00
 0.3896578189766E+00
 0.3934943812466E+00
 0.4175456623604E+00
 0.2152464822078E+01
 0.1980663533026E+01
 0.1793517850148E+01
 0.1598842285477E+01
 0.1407707511709E+01
 0.1227732118704E+01
 0.1070575513474E+01
 0.9398196395133E+00
 0.8326733708616E+00
 0.7462305425710E+00
 0.6774826114147E+00
 0.6236144789193E+00
 0.5816703340833E+00
 0.5493346712138E+00
 0.5249077606232E+00
 0.5065169785512E+00
 0.4908258937150E+00
 0.4834800414851E+00
 0.4915373619289E+00
 0.5202765248821E+00
 0.2140665881715E+01
 0.1987719310559E+01
 0.1820278338098E+01
 0.1645851007942E+01
 0.1473100740826E+01
 0.1308009670583E+01
 0.1160414029580E+01
 0.1034814658255E+01
 0.9297900025561E+00
 0.8434429020619E+00
 0.7736890126637E+00
 0.7183892624484E+00
 0.6750292233819E+00
 0.6415613047053E+00
 0.6164735874924E+00
 0.5980647908620E+00
 0.5831906082065E+00
 0.5785011714465E+00
 0.5905528556660E+00
 0.6229773999062E+00
 0.2137370421076E+01
 0.1999274841125E+01
 0.1847881811457E+01
 0.1690296709572E+01
 0.1533488438783E+01
 0.1382191643400E+01
 0.1244451115378E+01
 0.1125008666760E+01
 0.1023361523166E+01
 0.9383125856412E+00
 0.8685075111669E+00
 0.8124396796552E+00
 0.7680883990040E+00
 0.7337365276525E+00
 0.7081133840452E+00
 0.6897427874451E+00
 0.6757462902727E+00
 0.6735432937250E+00
 0.6890291695096E+00
 0.7240039939268E+00
 0.2140777736868E+01
 0.2014512429342E+01
 0.1876389533290E+01
 0.1732982915537E+01
 0.1590014756909E+01
 0.1451284442265E+01
 0.1323243860631E+01
 0.1210468439733E+01
 0.1113055188280E+01
 0.1030275413901E+01
 0.9612998473669E+00
 0.9051447409212E+00
 0.8602688548908E+00
 0.8253068042874E+00
 0.7992542248247E+00
 0.7808941177202E+00
 0.7676718469545E+00
 0.7675296957644E+00
 0.7856669126187E+00
 0.8220444043791E+00
 0.2149536180736E+01
 0.2032791028007E+01
 0.1905771352310E+01
 0.1774420641106E+01
 0.1643503462609E+01
 0.1516116638635E+01
 0.1397364356808E+01
 0.1291421514365E+01
 0.1198759741503E+01
 0.1118963964838E+01
 0.1051558666732E+01
 0.9959517387751E+00
 0.9510202002283E+00
 0.9157284497471E+00
 0.8893359101704E+00
 0.8708870354692E+00
 0.8581985253386E+00
 0.8594835954058E+00
 0.8793567493526E+00
 0.9160764631589E+00
 0.2162596011197E+01
 0.2053592051640E+01
 0.1935952034240E+01
 0.1814936759484E+01
 0.1694548503555E+01
 0.1577350061361E+01
 0.1467336215752E+01
 0.1368159304682E+01
 0.1280503777436E+01
 0.1204170531997E+01
 0.1138912917792E+01
 0.1084407554631E+01
 0.1039861608236E+01
 0.1004516220416E+01
 0.9778479046167E+00
 0.9591604999814E+00
 0.9466243917937E+00
 0.9485315669759E+00
 0.9691169167887E+00
 0.1005311303507E+01
 0.2179116801097E+01
 0.2076483005013E+01
 0.1966833840921E+01
 0.1854739018048E+01
 0.1743578981468E+01
 0.1635504758638E+01
 0.1533611611647E+01
 0.1440979996419E+01
 0.1358389430365E+01
 0.1285796342657E+01
 0.1223103099818E+01
 0.1170157614973E+01
 0.1126405285584E+01
 0.1091278972270E+01
 0.1064411176360E+01
 0.1045251387926E+01
 0.1032412285475E+01
 0.1033848313514E+01
 0.1054041565066E+01
 0.1089050651622E+01
 0.2198406793254E+01
 0.2101092659769E+01
 0.1998308784960E+01
 0.1893955648366E+01
 0.1790903612195E+01
 0.1690984606235E+01
 0.1596568752084E+01
 0.1510161110402E+01
 0.1432548479406E+01
 0.1363805245892E+01
 0.1303940535703E+01
 0.1252913573243E+01
 0.1210334275128E+01
 0.1175744933400E+01
 0.1148800129422E+01
 0.1129055768947E+01
 0.1115098745748E+01
 0.1114945191387E+01
 0.1132897475001E+01
 0.1166580588899E+01
 0.2219875221968E+01
 0.2127097368615E+01
 0.2030266367052E+01
 0.1932662100922E+01
 0.1836739162520E+01
 0.1744095340594E+01
 0.1656519318317E+01
 0.1575951010409E+01
 0.1503121950564E+01
 0.1438194854273E+01
 0.1381270819455E+01
 0.1332400241701E+01
 0.1291328869093E+01
 0.1257668424919E+01
 0.1231009842600E+01
 0.1210702382641E+01
 0.1195576000227E+01
 0.1190669510597E+01
 0.1205029950942E+01
 0.1235648058322E+01
 0.2243001142616E+01
 0.2154187471029E+01
 0.2062631516220E+01
 0.1970898791057E+01
 0.1881212940683E+01
 0.1795061873930E+01
 0.1713709331896E+01
 0.1638576635845E+01
 0.1570258663925E+01
 0.1508991229887E+01
 0.1454966395228E+01
 0.1408323755401E+01
 0.1368964125349E+01
 0.1336617317139E+01
 0.1310886639822E+01
 0.1290866874441E+01
 0.1274705699663E+01
 0.1266696733725E+01
 0.1262990617446E+01
 0.1294173726074E+01
 0.2266967901663E+01
 0.2182277374032E+01
 0.2095357673434E+01
 0.2008663742685E+01
 0.1924410106691E+01
 0.1843944742420E+01
 0.1768364040113E+01
 0.1698258920960E+01
 0.1634114030821E+01
 0.1576266224617E+01
 0.1524959342079E+01
 0.1480421141828E+01
 0.1442713130986E+01
 0.1411773858993E+01
 0.1387430456025E+01
 0.1369219640215E+01
 0.1354790002133E+01
 0.1344665969306E+01
 0.1340004054758E+01
 0.1292580859165E+01
 0.2266967893682E+01
 0.2182277367167E+01
 0.2095357667448E+01
 0.2008663737417E+01
 0.1924410102086E+01
 0.1843944738473E+01
 0.1768364036843E+01
 0.1698258918364E+01
 0.1634114028857E+01
 0.1576266223211E+01
 0.1524959341129E+01
 0.1480421141222E+01
 0.1442713130620E+01
 0.1411773858788E+01
 0.1387430455928E+01
 0.1369219640176E+01
 0.1354790002099E+01
 0.1344665969410E+01
 0.1340004055048E+01
 0.1292580859594E+01
 0.2243001135317E+01
 0.2154187464705E+01
 0.2062631510567E+01
 0.1970898785960E+01
 0.1881212936115E+01
 0.1795061869926E+01
 0.1713709328518E+01
 0.1638576633121E+01
 0.1570258661828E+01
 0.1508991228348E+01
 0.1454966394149E+01
 0.1408323754673E+01
 0.1368964124872E+01
 0.1336617316835E+01
 0.1310886639637E+01
 0.1290866874319E+01
 0.1274705699598E+01
 0.1266696733909E+01
 0.1262990617924E+01
 0.1294173726738E+01
 0.2219875215506E+01
 0.2127097362870E+01
 0.2030266361776E+01
 0.1932662096019E+01
 0.1836739158006E+01
 0.1744095336544E+01
 0.1656519314836E+01
 0.1575951007556E+01
 0.1503121948328E+01
 0.1438194852595E+01
 0.1381270818243E+01
 0.1332400240851E+01
 0.1291328868509E+01
 0.1257668424525E+01
 0.1231009842344E+01
 0.1210702382475E+01
 0.1195576000153E+01
 0.1190669510867E+01
 0.1205029951588E+01
 0.1235648059225E+01
 0.2198406787721E+01
 0.2101092654667E+01
 0.1998308780091E+01
 0.1893955643677E+01
 0.1790903607742E+01
 0.1690984602139E+01
 0.1596568748498E+01
 0.1510161107416E+01
 0.1432548477027E+01
 0.1363805244073E+01
 0.1303940534361E+01
 0.1252913572280E+01
 0.1210334274449E+01
 0.1175744932932E+01
 0.1148800129116E+01
 0.1129055768754E+01
 0.1115098745679E+01
 0.1114945191734E+01
 0.1132897475799E+01
 0.1166580590021E+01
 0.2179116796579E+01
 0.2076483000602E+01
 0.1966833836486E+01
 0.1854739013583E+01
 0.1743578977076E+01
 0.1635504754490E+01
 0.1533611607949E+01
 0.1440979993293E+01
 0.1358389427840E+01
 0.1285796340699E+01
 0.1223103098354E+01
 0.1170157613909E+01
 0.1126405284826E+01
 0.1091278971745E+01
 0.1064411176020E+01
 0.1045251387719E+01
 0.1032412285414E+01
 0.1033848313926E+01
 0.1054041565988E+01
 0.1089050652948E+01
 0.2162596007776E+01
 0.2053592047963E+01
 0.1935952030259E+01
 0.1814936755243E+01
 0.1694548499213E+01
 0.1577350057145E+01
 0.1467336211928E+01
 0.1368159301412E+01
 0.1280503774766E+01
 0.1204170529909E+01
 0.1138912916220E+01
 0.1084407553484E+01
 0.1039861607419E+01
 0.1004516219853E+01
 0.9778479042568E+00
 0.9591604997678E+00
 0.9466243917412E+00
 0.9485315674291E+00
 0.9691169178060E+00
 0.1005311305018E+01
 0.2149536178487E+01
 0.2032791025097E+01
 0.1905771348790E+01
 0.1774420637079E+01
 0.1643503458296E+01
 0.1516116634328E+01
 0.1397364352844E+01
 0.1291421510945E+01
 0.1198759738695E+01
 0.1118963962636E+01
 0.1051558665074E+01
 0.9959517375689E+00
 0.9510201993741E+00
 0.9157284491636E+00
 0.8893359098035E+00
 0.8708870352549E+00
 0.8581985252890E+00
 0.8594835958750E+00
 0.8793567504309E+00
 0.9160764648244E+00
 0.2140777735864E+01
 0.2014512427225E+01
 0.1876389530231E+01
 0.1732982911702E+01
 0.1590014752591E+01
 0.1451284437839E+01
 0.1323243856514E+01
 0.1210468436165E+01
 0.1113055185350E+01
 0.1030275411611E+01
 0.9612998456526E+00
 0.9051447396844E+00
 0.8602688540237E+00
 0.8253068037017E+00
 0.7992542244611E+00
 0.7808941175083E+00
 0.7676718469006E+00
 0.7675296962216E+00
 0.7856669137205E+00
 0.8220444061606E+00
 0.2137370421390E+01
 0.1999274839825E+01
 0.1847881808848E+01
 0.1690296705892E+01
 0.1533488434418E+01
 0.1382191638822E+01
 0.1244451111097E+01
 0.1125008663056E+01
 0.1023361520142E+01
 0.9383125832984E+00
 0.8685075094326E+00
 0.8124396784189E+00
 0.7680883981478E+00
 0.7337365270810E+00
 0.7081133836931E+00
 0.6897427872360E+00
 0.6757462902054E+00
 0.6735432941418E+00
 0.6890291705937E+00
 0.7240039957752E+00
 0.2140665883426E+01
 0.1987719310091E+01
 0.1820278335912E+01
 0.1645851004363E+01
 0.1473100736355E+01
 0.1308009665819E+01
 0.1160414025137E+01
 0.1034814654443E+01
 0.9297899994811E+00
 0.8434428997142E+00
 0.7736890109513E+00
 0.7183892612452E+00
 0.6750292225591E+00
 0.6415613041611E+00
 0.6164735871572E+00
 0.5980647906550E+00
 0.5831906081177E+00
 0.5785011717967E+00
 0.5905528566898E+00
 0.6229774017621E+00
 0.2152464825279E+01
 0.1980663533403E+01
 0.1793517848342E+01
 0.1598842281923E+01
 0.1407707507065E+01
 0.1227732113729E+01
 0.1070575508889E+01
 0.9398196356445E+00
 0.8326733677983E+00
 0.7462305402750E+00
 0.6774826097676E+00
 0.6236144777785E+00
 0.5816703333119E+00
 0.5493346707065E+00
 0.5249077603081E+00
 0.5065169783449E+00
 0.4908258935987E+00
 0.4834800417470E+00
 0.4915373628510E+00
 0.5202765266784E+00
 0.2175260491601E+01
 0.1979182357667E+01
 0.1767351510206E+01
 0.1547991933941E+01
 0.1335726820328E+01
 0.1140207784291E+01
 0.9745287000933E+00
 0.8402591976750E+00
 0.7326414366388E+00
 0.6474340891708E+00
 0.5806115971020E+00
 0.5287505571609E+00
 0.4885725231348E+00
 0.4575846402406E+00
 0.4339711794268E+00
 0.4157598447505E+00
 0.3995064732413E+00
 0.3896578191370E+00
 0.3934943820312E+00
 0.4175456640266E+00
 0.2212660572764E+01
 0.1984726400869E+01
 0.1741139672351E+01
 0.1491237563539E+01
 0.1255010675028E+01
 0.1044283944525E+01
 0.8722638579046E+00
 0.7368396803006E+00
 0.6306416289035E+00
 0.5479359062225E+00
 0.4838009933059E+00
 0.4343890104502E+00
 0.3962435323495E+00
 0.3667907903780E+00
 0.3441837632326E+00
 0.3264406531234E+00
 0.3101048509635E+00
 0.2982997166443E+00
 0.2981466153242E+00
 0.3167824297585E+00
 0.2270162446897E+01
 0.1999288736175E+01
 0.1713413013043E+01
 0.1425211471831E+01
 0.1162784368859E+01
 0.9391870404249E+00
 0.7645557072188E+00
 0.6308456074542E+00
 0.5278294832085E+00
 0.4485923118334E+00
 0.3876939415497E+00
 0.3410430774196E+00
 0.3051240005583E+00
 0.2773729038549E+00
 0.2560173222962E+00
 0.2391796599667E+00
 0.2234955295443E+00
 0.2107313241638E+00
 0.2073970355203E+00
 0.2203278501729E+00
 0.2356678609112E+01
 0.2025617663837E+01
 0.1680869448373E+01
 0.1344410965105E+01
 0.1055888182380E+01
 0.8253855054264E+00
 0.6533739698171E+00
 0.5240002743182E+00
 0.4252486092629E+00
 0.3500958689238E+00
 0.2928210376027E+00
 0.2491533131332E+00
 0.2155870915732E+00
 0.1896812418331E+00
 0.1698810977037E+00
 0.1545580291193E+00
 0.1405389098059E+00
 0.1283029103000E+00
 0.1232626671735E+00
 0.1308051988660E+00
 0.2487896700301E+01
 0.2067265947936E+01
 0.1636078331253E+01
 0.1239933454683E+01
 0.9322141212011E+00
 0.7059977898219E+00
 0.5419539853030E+00
 0.4176368929090E+00
 0.3235815968279E+00
 0.2529549257906E+00
 0.1996554071169E+00
 0.1591109987867E+00
 0.1279313358937E+00
 0.1039750600343E+00
 0.8610841946455E-01
 0.7310111393348E-01
 0.6207564928897E-01
 0.5234809760556E-01
 0.4778054921540E-01
 0.5097242863355E-01
 0.2694206959256E+01
 0.2128168061679E+01
 0.1560885100808E+01
 0.1099558712667E+01
 0.7943981942393E+00
 0.5890466131026E+00
 0.4321101823817E+00
 0.3122854426861E+00
 0.2231299870711E+00
 0.1576674418636E+00
 0.1086970023111E+00
 0.7125119002527E-01
 0.4233696801056E-01
 0.2041274635254E-01
 0.4923902046835E-02
-0.4717682257309E-02
-0.1110263816434E-01
-0.1581064467638E-01
-0.1712242704644E-01
-0.1650743763168E-01
 0.3047630487575E+01
 0.2201918659133E+01
 0.1415255989253E+01
 0.9083637370667E+00
 0.6675992468916E+00
 0.4766113782796E+00
 0.3241366009484E+00
 0.2075225981420E+00
 0.1242255131509E+00
 0.6498570459035E-01
 0.2047114178612E-01
-0.1426987802472E-01
-0.4113381184545E-01
-0.6099937386706E-01
-0.7349596796876E-01
-0.7863401977548E-01
-0.7813129470078E-01
-0.7493885089796E-01
-0.6960875135382E-01
-0.6948191691158E-01
 0.3725598525202E+01
 0.2266869033791E+01
 0.1038839598511E+01
 0.7649803469230E+00
 0.5495848905719E+00
 0.3693618669028E+00
 0.2160552273047E+00
 0.1025833807255E+00
 0.2803658433925E-01
-0.2398380124551E-01
-0.6479338522740E-01
-0.9753693652847E-01
-0.1226565086382E+00
-0.1400144158679E+00
-0.1495483873747E+00
-0.1482017044044E+00
-0.1386599801260E+00
-0.1231002172021E+00
-0.1084579676468E+00
-0.1062535261747E+00
 0.6063555067504E+01
 0.1162036164284E+01
 0.8816126359213E+00
 0.6322531004173E+00
 0.4435356008056E+00
 0.2654345579166E+00
 0.1023801993681E+00
-0.1117076747894E-02
-0.6265186468884E-01
-0.1088817922918E+00
-0.1471235980952E+00
-0.1791166229079E+00
-0.2024300576657E+00
-0.2165789217113E+00
-0.2216393223442E+00
-0.2185035920814E+00
-0.1879621684719E+00
-0.1583666019516E+00
-0.1336707868328E+00
-0.1269427565737E+00
 0.1482519585715E+01
 0.1352882308615E+01
 0.1284242669756E+01
 0.1211326036425E+01
 0.1134758232515E+01
 0.1052539103369E+01
 0.9647252012595E+00
 0.8715201750926E+00
 0.7734454373070E+00
 0.6712985908158E+00
 0.5662076474192E+00
 0.4596780881405E+00
 0.3536403240744E+00
 0.2504817247891E+00
 0.1530374510665E+00
 0.6449767478868E-01
-0.1190368941949E-01
-0.7328757234939E-01
-0.1182615035801E+00
-0.1420237671452E+00
 0.1489060554063E+01
 0.1430820061216E+01
 0.1354196840909E+01
 0.1286161613587E+01
 0.1213875333972E+01
 0.1136229805430E+01
 0.1052114586951E+01
 0.9613723425454E+00
 0.8641617689232E+00
 0.7609877242042E+00
 0.6527102287707E+00
 0.5406025620823E+00
 0.4264182886087E+00
 0.3124653344885E+00
 0.2016762313002E+00
 0.9763040335203E-01
 0.4463347251094E-02
-0.7379507283445E-01
-0.1337162539099E+00
-0.1774773126994E+00
 0.1527726602486E+01
 0.1480955018823E+01
 0.1424651836731E+01
 0.1362166773229E+01
 0.1296652556021E+01
 0.1225190200946E+01
 0.1146750566877E+01
 0.1060596651570E+01
 0.9664584938930E+00
 0.8644012030870E+00
 0.7548604775071E+00
 0.6386960876998E+00
 0.5172749919192E+00
 0.3925765829269E+00
 0.2673258937494E+00
 0.1451690271537E+00
 0.3083851562335E-01
-0.6979502481695E-01
-0.1514961483636E+00
-0.2115637756880E+00
 0.1569121045761E+01
 0.1533592535003E+01
 0.1488941778721E+01
 0.1438110656407E+01
 0.1381228769685E+01
 0.1318112858937E+01
 0.1247444914412E+01
 0.1168267900505E+01
 0.1079833837141E+01
 0.9816886464895E+00
 0.8736970577032E+00
 0.7561170354257E+00
 0.6296981776768E+00
 0.4958110851290E+00
 0.3566205811817E+00
 0.2153351489612E+00
 0.7663375647889E-01
-0.5265879302650E-01
-0.1629301564597E+00
-0.2458076701518E+00
 0.1611162514586E+01
 0.1585125526680E+01
 0.1551545507452E+01
 0.1511646953762E+01
 0.1465552973500E+01
 0.1412638611520E+01
 0.1351996502262E+01
 0.1282454421020E+01
 0.1202911842869E+01
 0.1112385554559E+01
 0.1010086045043E+01
 0.8954949410758E+00
 0.7684753563109E+00
 0.6294190392863E+00
 0.4794433205688E+00
 0.3206726747615E+00
 0.1566965979538E+00
-0.6430545996792E-02
-0.1573527478447E+00
-0.2763268156953E+00
 0.1652333134446E+01
 0.1634847746119E+01
 0.1611221025778E+01
 0.1582025978103E+01
 0.1547016884387E+01
 0.1505546110357E+01
 0.1456623221246E+01
 0.1399062592266E+01
 0.1331542422314E+01
 0.1252703884990E+01
 0.1161198553000E+01
 0.1055747062105E+01
 0.9352157112714E+00
 0.7987281467522E+00
 0.6458256572253E+00
 0.4766939670477E+00
 0.2925029952813E+00
 0.9601343432838E-01
-0.1065397245638E+00
-0.2938951735448E+00
 0.1692275009349E+01
 0.1682393410446E+01
 0.1667824105469E+01
 0.1648669557196E+01
 0.1624567542935E+01
 0.1594811757059E+01
 0.1558442176587E+01
 0.1514276632904E+01
 0.1460957552365E+01
 0.1396976813771E+01
 0.1320700568669E+01
 0.1230381993421E+01
 0.1124176352320E+01
 0.1000163901578E+01
 0.8563863744271E+00
 0.6908952329484E+00
 0.5017807882871E+00
 0.2870678966293E+00
 0.4387267895108E-01
-0.2316724170513E+00
 0.1730645547195E+01
 0.1727540128071E+01
 0.1721105932621E+01
 0.1711195449152E+01
 0.1697392495339E+01
 0.1679028859038E+01
 0.1655216380629E+01
 0.1624870509651E+01
 0.1586719273293E+01
 0.1539310690217E+01
 0.1481009879769E+01
 0.1409988520770E+01
 0.1324203488479E+01
 0.1221364657326E+01
 0.1098887069895E+01
 0.9538135801169E+00
 0.7826600825466E+00
 0.5810047679468E+00
 0.3421221581874E+00
 0.4710904043206E-01
 0.1767181282578E+01
 0.1770088969275E+01
 0.1770897336717E+01
 0.1769336086494E+01
 0.1764998129623E+01
 0.1757293397002E+01
 0.1745455855230E+01
 0.1728548566878E+01
 0.1705464623862E+01
 0.1674922039125E+01
 0.1635453848966E+01
 0.1585390597401E+01
 0.1522834296874E+01
 0.1445621522342E+01
 0.1351273249529E+01
 0.1236926649725E+01
 0.1099245592612E+01
 0.9342902956158E+00
 0.7373838055411E+00
 0.5033398628029E+00
 0.1801672121068E+01
 0.1809926553190E+01
 0.1817156460863E+01
 0.1823064946677E+01
 0.1827284790430E+01
 0.1829327443930E+01
 0.1828569802293E+01
 0.1824250122822E+01
 0.1815462260092E+01
 0.1801146777230E+01
 0.1780077412747E+01
 0.1750842002383E+01
 0.1711816123651E+01
 0.1661128117140E+01
 0.1596614356178E+01
 0.1515767792181E+01
 0.1415691425134E+01
 0.1293151062649E+01
 0.1144954077169E+01
 0.9724713267275E+00
 0.1833946498693E+01
 0.1846959873498E+01
 0.1859896541557E+01
 0.1872471644808E+01
 0.1884377092421E+01
 0.1895231006925E+01
 0.1904557184947E+01
 0.1911774881394E+01
 0.1916190609601E+01
 0.1916988412591E+01
 0.1913217188971E+01
 0.1903773741890E+01
 0.1887380309019E+01
 0.1862555116271E+01
 0.1827575064258E+01
 0.1780430393282E+01
 0.1718781700169E+01
 0.1639921593875E+01
 0.1540959508422E+01
 0.1417594257603E+01
 0.1863855162232E+01
 0.1881177235830E+01
 0.1899267406638E+01
 0.1917875221261E+01
 0.1936759888652E+01
 0.1955642960993E+01
 0.1974186175858E+01
 0.1991979203157E+01
 0.2008530783245E+01
 0.2023260145183E+01
 0.2035487009042E+01
 0.2044419049997E+01
 0.2049135682137E+01
 0.2048566874001E+01
 0.2041465138615E+01
 0.2026368722381E+01
 0.2001546734925E+01
 0.1964920050810E+01
 0.1913721899019E+01
 0.1843784795682E+01
 0.1891196207605E+01
 0.1912452464774E+01
 0.1935221766190E+01
 0.1959311176075E+01
 0.1984552081104E+01
 0.2010763828421E+01
 0.2037733645460E+01
 0.2065204854512E+01
 0.2092868780219E+01
 0.2120357964637E+01
 0.2147239341113E+01
 0.2173006469996E+01
 0.2197070058863E+01
 0.2218745756478E+01
 0.2237237702255E+01
 0.2251614316166E+01
 0.2260771687287E+01
 0.2263355298345E+01
 0.2257650475088E+01
 0.2241535859145E+01
 0.1915729435505E+01
 0.1940536759473E+01
 0.1967502769769E+01
 0.1996505269483E+01
 0.2027451126023E+01
 0.2060251599989E+01
 0.2094806925541E+01
 0.2130996592604E+01
 0.2168672902946E+01
 0.2207656268984E+01
 0.2247731371308E+01
 0.2288643662484E+01
 0.2330095871628E+01
 0.2371744150705E+01
 0.2413193127147E+01
 0.2453988730861E+01
 0.2493605785480E+01
 0.2531438246709E+01
 0.2566816579462E+01
 0.2599085162612E+01
 0.1937221208893E+01
 0.1965160745183E+01
 0.1995807182570E+01
 0.2029111660058E+01
 0.2065055402483E+01
 0.2103634559641E+01
 0.2144849687734E+01
 0.2188698818184E+01
 0.2235173037861E+01
 0.2284253816379E+01
 0.2335911633319E+01
 0.2390105743138E+01
 0.2446785154540E+01
 0.2505891087457E+01
 0.2567361337187E+01
 0.2631136993173E+01
 0.2697172712971E+01
 0.2765454334088E+01
 0.2836033776986E+01
 0.2909099988770E+01
 0.1955462763598E+01
 0.1986075202353E+01
 0.2019848409820E+01
 0.2056800890773E+01
 0.2096982176370E+01
 0.2140463865414E+01
 0.2187333119204E+01
 0.2237688352809E+01
 0.2291636749615E+01
 0.2349293285119E+01
 0.2410781107073E+01
 0.2476233326195E+01
 0.2545796529307E+01
 0.2619636662704E+01
 0.2697948386672E+01
 0.2780969517638E+01
 0.2869002771560E+01
 0.2962440335135E+01
 0.3061785099340E+01
 0.3167673131143E+01
 0.1970275664014E+01
 0.2003065366013E+01
 0.2039377623994E+01
 0.2079287287521E+01
 0.2122901957683E+01
 0.2170356584479E+01
 0.2221809694179E+01
 0.2277441103746E+01
 0.2337450954780E+01
 0.2402059941218E+01
 0.2471510684580E+01
 0.2546070348741E+01
 0.2626034792741E+01
 0.2711734882208E+01
 0.2803546075361E+01
 0.2901903303004E+01
 0.3007323366299E+01
 0.3120441658348E+01
 0.3242035283038E+01
 0.3372998596891E+01
 0.1981514321145E+01
 0.2015956763171E+01
 0.2054192686356E+01
 0.2096339747389E+01
 0.2142550570906E+01
 0.2193009138211E+01
 0.2247928639128E+01
 0.2307550495864E+01
 0.2372144403732E+01
 0.2442009260372E+01
 0.2517474907912E+01
 0.2598904673137E+01
 0.2686698784618E+01
 0.2781298900167E+01
 0.2883194291725E+01
 0.2992930733317E+01
 0.3111125521108E+01
 0.3238492797701E+01
 0.3375930364956E+01
 0.3524547966179E+01
 0.1989067931707E+01
 0.2024618709400E+01
 0.2064143544383E+01
 0.2107788392307E+01
 0.2155736259726E+01
 0.2208204389726E+01
 0.2265442860313E+01
 0.2327734332494E+01
 0.2395394643368E+01
 0.2468774053851E+01
 0.2548258985125E+01
 0.2634274069350E+01
 0.2727284301909E+01
 0.2827797016320E+01
 0.2936363287500E+01
 0.3053578381745E+01
 0.3180080593587E+01
 0.3316553212176E+01
 0.3463725341928E+01
 0.3622724211937E+01
 0.1992862608383E+01
 0.2028967469738E+01
 0.2069136987816E+01
 0.2113530578089E+01
 0.2162346490952E+01
 0.2215818707810E+01
 0.2274215837490E+01
 0.2337841160505E+01
 0.2407033451382E+01
 0.2482168326661E+01
 0.2563659885002E+01
 0.2651962352334E+01
 0.2747571319947E+01
 0.2851023932032E+01
 0.2962896968415E+01
 0.3083800932125E+01
 0.3214366656066E+01
 0.3355214830489E+01
 0.3506889584102E+01
 0.3669536921093E+01
 0.1992862608392E+01
 0.2028967469755E+01
 0.2069136987844E+01
 0.2113530578130E+01
 0.2162346491010E+01
 0.2215818707888E+01
 0.2274215837592E+01
 0.2337841160636E+01
 0.2407033451549E+01
 0.2482168326869E+01
 0.2563659885259E+01
 0.2651962352649E+01
 0.2747571320329E+01
 0.2851023932491E+01
 0.2962896968964E+01
 0.3083800932775E+01
 0.3214366656830E+01
 0.3355214831377E+01
 0.3506889585121E+01
 0.3669536922214E+01
 0.1989067931735E+01
 0.2024618709452E+01
 0.2064143544466E+01
 0.2107788392430E+01
 0.2155736259899E+01
 0.2208204389960E+01
 0.2265442860620E+01
 0.2327734332890E+01
 0.2395394643870E+01
 0.2468774054478E+01
 0.2548258985899E+01
 0.2634274070297E+01
 0.2727284303058E+01
 0.2827797017703E+01
 0.2936363289151E+01
 0.3053578383703E+01
 0.3180080595892E+01
 0.3316553214865E+01
 0.3463725345029E+01
 0.3622724215450E+01
 0.1981514321190E+01
 0.2015956763257E+01
 0.2054192686495E+01
 0.2096339747594E+01
 0.2142550571194E+01
 0.2193009138600E+01
 0.2247928639639E+01
 0.2307550496523E+01
 0.2372144404567E+01
 0.2442009261416E+01
 0.2517474909203E+01
 0.2598904674716E+01
 0.2686698786534E+01
 0.2781298902474E+01
 0.2883194294483E+01
 0.2992930736593E+01
 0.3111125524972E+01
 0.3238492802228E+01
 0.3375930370221E+01
 0.3524547972269E+01
 0.1970275664076E+01
 0.2003065366132E+01
 0.2039377624186E+01
 0.2079287287805E+01
 0.2122901958082E+01
 0.2170356585019E+01
 0.2221809694890E+01
 0.2277441104663E+01
 0.2337450955943E+01
 0.2402059942672E+01
 0.2471510686378E+01
 0.2546070350941E+01
 0.2626034795412E+01
 0.2711734885426E+01
 0.2803546079213E+01
 0.2901903307587E+01
 0.3007323371721E+01
 0.3120441664729E+01
 0.3242035290511E+01
 0.3372998605605E+01
 0.1955462763674E+01
 0.1986075202502E+01
 0.2019848410061E+01
 0.2056800891132E+01
 0.2096982176875E+01
 0.2140463866099E+01
 0.2187333120107E+01
 0.2237688353974E+01
 0.2291636751093E+01
 0.2349293286968E+01
 0.2410781109360E+01
 0.2476233328996E+01
 0.2545796532709E+01
 0.2619636666807E+01
 0.2697948391589E+01
 0.2780969523500E+01
 0.2869002778514E+01
 0.2962440343352E+01
 0.3061785109012E+01
 0.3167673142489E+01
 0.1937221208982E+01
 0.1965160745358E+01
 0.1995807182856E+01
 0.2029111660487E+01
 0.2065055403089E+01
 0.2103634560463E+01
 0.2144849688821E+01
 0.2188698819587E+01
 0.2235173039642E+01
 0.2284253818608E+01
 0.2335911636075E+01
 0.2390105746515E+01
 0.2446785158642E+01
 0.2505891092408E+01
 0.2567361343125E+01
 0.2631137000261E+01
 0.2697172721397E+01
 0.2765454344072E+01
 0.2836033788782E+01
 0.2909100002675E+01
 0.1915729435603E+01
 0.1940536759670E+01
 0.1967502770095E+01
 0.1996505269973E+01
 0.2027451126718E+01
 0.2060251600937E+01
 0.2094806926795E+01
 0.2130996594226E+01
 0.2168672905006E+01
 0.2207656271563E+01
 0.2247731374500E+01
 0.2288643666396E+01
 0.2330095876384E+01
 0.2371744156448E+01
 0.2413193134041E+01
 0.2453988739099E+01
 0.2493605795287E+01
 0.2531438258352E+01
 0.2566816593262E+01
 0.2599085178966E+01
 0.1891196207712E+01
 0.1912452464991E+01
 0.1935221766552E+01
 0.1959311176623E+01
 0.1984552081884E+01
 0.2010763829487E+01
 0.2037733646873E+01
 0.2065204856340E+01
 0.2092868782543E+01
 0.2120357967548E+01
 0.2147239344717E+01
 0.2173006474413E+01
 0.2197070064232E+01
 0.2218745762961E+01
 0.2237237710037E+01
 0.2251614325463E+01
 0.2260771698353E+01
 0.2263355311479E+01
 0.2257650490658E+01
 0.2241535877613E+01
 0.1863855162344E+01
 0.1881177236060E+01
 0.1899267407028E+01
 0.1917875221856E+01
 0.1936759889504E+01
 0.1955642962162E+01
 0.1974186177410E+01
 0.1991979205170E+01
 0.2008530785807E+01
 0.2023260148394E+01
 0.2035487013019E+01
 0.2044419054873E+01
 0.2049135688065E+01
 0.2048566881159E+01
 0.2041465147206E+01
 0.2026368732640E+01
 0.2001546747125E+01
 0.1964920065264E+01
 0.1913721916084E+01
 0.1843784815836E+01
 0.1833946498808E+01
 0.1846959873744E+01
 0.1859896541978E+01
 0.1872471645458E+01
 0.1884377093355E+01
 0.1895231008207E+01
 0.1904557186652E+01
 0.1911774883607E+01
 0.1916190612418E+01
 0.1916988416121E+01
 0.1913217193341E+01
 0.1903773747244E+01
 0.1887380315520E+01
 0.1862555124107E+01
 0.1827575073642E+01
 0.1780430404457E+01
 0.1718781713409E+01
 0.1639921609487E+01
 0.1540959526716E+01
 0.1417594278733E+01
 0.1801672121191E+01
 0.1809926553462E+01
 0.1817156461335E+01
 0.1823064947407E+01
 0.1827284791481E+01
 0.1829327445374E+01
 0.1828569804209E+01
 0.1824250125303E+01
 0.1815462263241E+01
 0.1801146781163E+01
 0.1780077417596E+01
 0.1750842008295E+01
 0.1711816130791E+01
 0.1661128125691E+01
 0.1596614366344E+01
 0.1515767804188E+01
 0.1415691439232E+01
 0.1293151079111E+01
 0.1144954096305E+01
 0.9724713486635E+00
 0.1767181282712E+01
 0.1770088969581E+01
 0.1770897337255E+01
 0.1769336087327E+01
 0.1764998130822E+01
 0.1757293398642E+01
 0.1745455857398E+01
 0.1728548569670E+01
 0.1705464627382E+01
 0.1674922043492E+01
 0.1635453854308E+01
 0.1585390603857E+01
 0.1522834304597E+01
 0.1445621531495E+01
 0.1351273260286E+01
 0.1236926662269E+01
 0.1099245607139E+01
 0.9342903123495E+00
 0.7373838247691E+00
 0.5033398855381E+00
 0.1730645547345E+01
 0.1727540128422E+01
 0.1721105933242E+01
 0.1711195450112E+01
 0.1697392496711E+01
 0.1679028860901E+01
 0.1655216383070E+01
 0.1624870512764E+01
 0.1586719277179E+01
 0.1539310694983E+01
 0.1481009885526E+01
 0.1409988527635E+01
 0.1324203496567E+01
 0.1221364666748E+01
 0.1098887080750E+01
 0.9538135924821E+00
 0.7826600964694E+00
 0.5810047834263E+00
 0.3421221752337E+00
 0.4710905906263E-01
 0.1692275009519E+01
 0.1682393410852E+01
 0.1667824106185E+01
 0.1648669558293E+01
 0.1624567544487E+01
 0.1594811759143E+01
 0.1558442179284E+01
 0.1514276636296E+01
 0.1460957556536E+01
 0.1396976818800E+01
 0.1320700574631E+01
 0.1230382000377E+01
 0.1124176360306E+01
 0.1000163910595E+01
 0.8563863844162E+00
 0.6908952437642E+00
 0.5017807996495E+00
 0.2870679080559E+00
 0.4387268955766E-01
-0.2316724092918E+00
 0.1652333134641E+01
 0.1634847746587E+01
 0.1611221026594E+01
 0.1582025979337E+01
 0.1547016886107E+01
 0.1505546112629E+01
 0.1456623224136E+01
 0.1399062595834E+01
 0.1331542426612E+01
 0.1252703890054E+01
 0.1161198558845E+01
 0.1055747068712E+01
 0.9352157185760E+00
 0.7987281546240E+00
 0.6458256654453E+00
 0.4766939752768E+00
 0.2925030030195E+00
 0.9601344083349E-01
-0.1065397204292E+00
-0.2938951737600E+00
 0.1611162514813E+01
 0.1585125527215E+01
 0.1551545508368E+01
 0.1511646955120E+01
 0.1465552975354E+01
 0.1412638613920E+01
 0.1351996505247E+01
 0.1282454424619E+01
 0.1202911847094E+01
 0.1112385559396E+01
 0.1010086050444E+01
 0.8954949469531E+00
 0.7684753625226E+00
 0.6294190456265E+00
 0.4794433267563E+00
 0.3206726804299E+00
 0.1566966026374E+00
-0.6430542867725E-02
-0.1573527469445E+00
-0.2763268171028E+00
 0.1569121046025E+01
 0.1533592535604E+01
 0.1488941779721E+01
 0.1438110657851E+01
 0.1381228771609E+01
 0.1318112861364E+01
 0.1247444917357E+01
 0.1168267903965E+01
 0.1079833841089E+01
 0.9816886508715E+00
 0.8736970624317E+00
 0.7561170403748E+00
 0.6296981826788E+00
 0.4958110899706E+00
 0.3566205856038E+00
 0.2153351526602E+00
 0.7663375911834E-01
-0.5265879178534E-01
-0.1629301567771E+00
-0.2458076718271E+00
 0.1527726602781E+01
 0.1480955019464E+01
 0.1424651837774E+01
 0.1362166774694E+01
 0.1296652557919E+01
 0.1225190203286E+01
 0.1146750569650E+01
 0.1060596654749E+01
 0.9664584974295E+00
 0.8644012069053E+00
 0.7548604815051E+00
 0.6386960917464E+00
 0.5172749958536E+00
 0.3925765865607E+00
 0.2673258968701E+00
 0.1451690295341E+00
 0.3083851704591E-01
-0.6979502449592E-01
-0.1514961491330E+00
-0.2115637773466E+00
 0.1489060554371E+01
 0.1430820061900E+01
 0.1354196841976E+01
 0.1286161615020E+01
 0.1213875335779E+01
 0.1136229807606E+01
 0.1052114589474E+01
 0.9613723453729E+00
 0.8641617719945E+00
 0.7609877274380E+00
 0.6527102320661E+00
 0.5406025653187E+00
 0.4264182916473E+00
 0.3124653371762E+00
 0.2016762334774E+00
 0.9763040486730E-01
 0.4463347990340E-02
-0.7379507291138E-01
-0.1337162547408E+00
-0.1774773141770E+00
 0.1482519586094E+01
 0.1352882309382E+01
 0.1284242670797E+01
 0.1211326037767E+01
 0.1134758234162E+01
 0.1052539105305E+01
 0.9647252034535E+00
 0.8715201774962E+00
 0.7734454398582E+00
 0.6712985934394E+00
 0.5662076500268E+00
 0.4596780906332E+00
 0.3536403263447E+00
 0.2504817267270E+00
 0.1530374525682E+00
 0.6449767577013E-01
-0.1190368900535E-01
-0.7328757249714E-01
-0.1182615042474E+00
-0.1420237682504E+00
</DataArray>
<DataArray type="Float64" Name="S_Oct" NumberOfComponents="1" ComponentName0="S_Oct" format="ascii">
 0.1906051123018E+01
 0.1673465977146E+01
 0.1504582090916E+01
 0.1445668841745E+01
 0.1408967611022E+01
 0.1390118754211E+01
 0.1380903323819E+01
 0.1378432761705E+01
 0.1380731164660E+01
 0.1386697876110E+01
 0.1395654111040E+01
 0.1407215064567E+01
 0.1421193546259E+01
 0.1437550983304E+01
 0.1456367196773E+01
 0.1477823654913E+01
 0.1502195608845E+01
 0.1529851199603E+01
 0.1561260266915E+01
 0.1597015040740E+01
 0.1637874727548E+01
 0.1684872965846E+01
 0.1739583971417E+01
 0.1804247608334E+01
 0.1879700055678E+01
 0.1964220156703E+01
 0.2055435080740E+01
 0.2151717364912E+01
 0.2252563890032E+01
 0.2358387763115E+01
 0.2470040811128E+01
 0.2588237914139E+01
 0.2712842609765E+01
 0.2845128822596E+01
 0.2992605591436E+01
 0.3165554245128E+01
 0.3388131153986E+01
 0.3651437676594E+01
 0.4205726690856E+01
 0.4183322422855E+01
 0.8026391570838E+01
 0.1631342871800E+01
 0.1670660422071E+01
 0.1545862451245E+01
 0.1473058953556E+01
 0.1434956048896E+01
 0.1412122272941E+01
 0.1400151864166E+01
 0.1395263832373E+01
 0.1395558860065E+01
 0.1399810494736E+01
 0.1407280769874E+01
 0.1417527613289E+01
 0.1430318355412E+01
 0.1445574074541E+01
 0.1463337566868E+01
 0.1483754332463E+01
 0.1507062947787E+01
 0.1533592453740E+01
 0.1563768424938E+01
 0.1598129331236E+01
 0.1637361308579E+01
 0.1682363639076E+01
 0.1734207762758E+01
 0.1793788540043E+01
 0.1861233622874E+01
 0.1935670354967E+01
 0.2015716787853E+01
 0.2100165540466E+01
 0.2188312518091E+01
 0.2279897223920E+01
 0.2374804279510E+01
 0.2472821350965E+01
 0.2573895765186E+01
 0.2678967621928E+01
 0.2789888913154E+01
 0.2910890492155E+01
 0.3037074543296E+01
 0.3187400231672E+01
 0.3245629624662E+01
 0.2794599915272E+01
 0.5238738425004E+01
 0.1486615898989E+01
 0.1593953052065E+01
 0.1554285876669E+01
 0.1490926035101E+01
 0.1453251450507E+01
 0.1429879938076E+01
 0.1416354102825E+01
 0.1409917664790E+01
 0.1408698086590E+01
 0.1411543826814E+01
 0.1417709079025E+01
 0.1426736584821E+01
 0.1438369451979E+01
 0.1452501711533E+01
 0.1469146532284E+01
 0.1488417013702E+01
 0.1510515395528E+01
 0.1535728322515E+01
 0.1564428934211E+01
 0.1597085028523E+01
 0.1634273858814E+01
 0.1676662795771E+01
 0.1724815596278E+01
 0.1778938866109E+01
 0.1838849586378E+01
 0.1904012918338E+01
 0.1973585188498E+01
 0.2046619029000E+01
 0.2122257529506E+01
 0.2199735750278E+01
 0.2278245989546E+01
 0.2356952605640E+01
 0.2435251985389E+01
 0.2512355786840E+01
 0.2586531932013E+01
 0.2652538611433E+01
 0.2699606266141E+01
 0.2702460200775E+01
 0.2467960282672E+01
 0.2230481880058E+01
 0.4367680033550E+01
 0.1399310983904E+01
 0.1519778818964E+01
 0.1534873051681E+01
 0.1497367027196E+01
 0.1464763534298E+01
 0.1443039502320E+01
 0.1429451040530E+01
 0.1422272411741E+01
 0.1420064681419E+01
 0.1421827287516E+01
 0.1426885653234E+01
 0.1434802756041E+01
 0.1445320979979E+01
 0.1458320808429E+01
 0.1473793841775E+01
 0.1491824880655E+01
 0.1512580735124E+01
 0.1536303263118E+01
 0.1563306416198E+01
 0.1593973919170E+01
 0.1628745097495E+01
 0.1668031246662E+01
 0.1712012279877E+01
 0.1760526024477E+01
 0.1813235343589E+01
 0.1869735954626E+01
 0.1929442478467E+01
 0.1991542071278E+01
 0.2055055062941E+01
 0.2118853654928E+01
 0.2181643208309E+01
 0.2242050745832E+01
 0.2298598336801E+01
 0.2348859531424E+01
 0.2387766525528E+01
 0.2405253602160E+01
 0.2384188525735E+01
 0.2271927588944E+01
 0.1996521318654E+01
 0.2090610331608E+01
 0.3954021154600E+01
 0.1341996614192E+01
 0.1459068661314E+01
 0.1504395838580E+01
 0.1492816758857E+01
 0.1470041167859E+01
 0.1451797425808E+01
 0.1439425450632E+01
 0.1432304020302E+01
 0.1429614828259E+01
 0.1430622423911E+01
 0.1434778469131E+01
 0.1441703440048E+01
 0.1451160387732E+01
 0.1463029857531E+01
 0.1477290031563E+01
 0.1494001918272E+01
 0.1513298458985E+01
 0.1535375465432E+01
 0.1560483257810E+01
 0.1588912428114E+01
 0.1620953242359E+01
 0.1656786438602E+01
 0.1696324482867E+01
 0.1739201091490E+01
 0.1784993213866E+01
 0.1833331786601E+01
 0.1883734375851E+01
 0.1935438930413E+01
 0.1987368941106E+01
 0.2038148379496E+01
 0.2086137745781E+01
 0.2129482019819E+01
 0.2165886522642E+01
 0.2191571491793E+01
 0.2199454153289E+01
 0.2177672220393E+01
 0.2105398161139E+01
 0.1946205135035E+01
 0.1756284867392E+01
 0.2110690001111E+01
 0.3699338996757E+01
 0.1302081664988E+01
 0.1411077648517E+01
 0.1471756825495E+01
 0.1480857878747E+01
 0.1469697991340E+01
 0.1456548910822E+01
 0.1446397642037E+01
 0.1440049015754E+01
 0.1437351888136E+01
 0.1437919726786E+01
 0.1441377003971E+01
 0.1447432022129E+01
 0.1455888169557E+01
 0.1466638584339E+01
 0.1479656009277E+01
 0.1494982385661E+01
 0.1512719020875E+01
 0.1533015788757E+01
 0.1556057549583E+01
 0.1582038895542E+01
 0.1611107166659E+01
 0.1643255227673E+01
 0.1678215949127E+01
 0.1715508097095E+01
 0.1754655488952E+01
 0.1795280334171E+01
 0.1836923035091E+01
 0.1878826912956E+01
 0.1919846306907E+01
 0.1958449213395E+01
 0.1992761489856E+01
 0.2020558063078E+01
 0.2038945153050E+01
 0.2043346277025E+01
 0.2026134254320E+01
 0.1975787684230E+01
 0.1876275001536E+01
 0.1725945194729E+01
 0.1660936207639E+01
 0.2172781757333E+01
 0.3518496337098E+01
 0.1273032908676E+01
 0.1373236739297E+01
 0.1440807092905E+01
 0.1464853596522E+01
 0.1464882624364E+01
 0.1457756917219E+01
 0.1450597141810E+01
 0.1445603621743E+01
 0.1443319087782E+01
 0.1443737754301E+01
 0.1446690836208E+01
 0.1451997357810E+01
 0.1459517301154E+01
 0.1469167440667E+01
 0.1480922487412E+01
 0.1494810118479E+01
 0.1510902893439E+01
 0.1529306294596E+01
 0.1550140748787E+01
 0.1573508446911E+01
 0.1599430548547E+01
 0.1627755779192E+01
 0.1658099945794E+01
 0.1689917802958E+01
 0.1722698697881E+01
 0.1756039239974E+01
 0.1789467251693E+01
 0.1822214972739E+01
 0.1853098996797E+01
 0.1880509032321E+01
 0.1902442043863E+01
 0.1916460118430E+01
 0.1919379670011E+01
 0.1906501847246E+01
 0.1870871231163E+01
 0.1803760831533E+01
 0.1700192474465E+01
 0.1591617609139E+01
 0.1647441177549E+01
 0.2235255777554E+01
 0.3380211160197E+01
 0.1251157128677E+01
 0.1343159678649E+01
 0.1412932965763E+01
 0.1447161085996E+01
 0.1456880338556E+01
 0.1455986317016E+01
 0.1452312475097E+01
 0.1449116079477E+01
 0.1447593731865E+01
 0.1448120111031E+01
 0.1450748121734E+01
 0.1455422713265E+01
 0.1462072489227E+01
 0.1470646928080E+01
 0.1481129283025E+01
 0.1493537692296E+01
 0.1507919440058E+01
 0.1524338563331E+01
 0.1542854891531E+01
 0.1563486887539E+01
 0.1586150974543E+01
 0.1610590478644E+01
 0.1636348248527E+01
 0.1662846282039E+01
 0.1689553038506E+01
 0.1716038171262E+01
 0.1741808118403E+01
 0.1766087399621E+01
 0.1787689903325E+01
 0.1804997941933E+01
 0.1815988234163E+01
 0.1818192301573E+01
 0.1808483446038E+01
 0.1782665307543E+01
 0.1735490341037E+01
 0.1663020647687E+01
 0.1573129312642E+01
 0.1520730288272E+01
 0.1675567542853E+01
 0.2286742597241E+01
 0.3270106361890E+01
 0.1234226802617E+01
 0.1318973555348E+01
 0.1388409983163E+01
 0.1429238306830E+01
 0.1446827690143E+01
 0.1451847602656E+01
 0.1451870763044E+01
 0.1450770237026E+01
 0.1450281504602E+01
 0.1451131732412E+01
 0.1453593576870E+01
 0.1457744459934E+01
 0.1463589215963E+01
 0.1471116783406E+01
 0.1480324497702E+01
 0.1491225469214E+01
 0.1503845657746E+01
 0.1518211867260E+01
 0.1534329533545E+01
 0.1552145265858E+01
 0.1571493109538E+01
 0.1592043345951E+01
 0.1613297469090E+01
 0.1634665802805E+01
 0.1655608201643E+01
 0.1675675249753E+01
 0.1694358907710E+01
 0.1710891910155E+01
 0.1724123342825E+01
 0.1732495880765E+01
 0.1734075494610E+01
 0.1726551192295E+01
 0.1707180838233E+01
 0.1672788083265E+01
 0.1620617202605E+01
 0.1552461956874E+01
 0.1487641931075E+01
 0.1493859078280E+01
 0.1721937381202E+01
 0.2326270438506E+01
 0.3180324577679E+01
 0.1220827396500E+01
 0.1299276312191E+01
 0.1367049298147E+01
 0.1411910765275E+01
 0.1435614314396E+01
 0.1445925958115E+01
 0.1449616150185E+01
 0.1450771934241E+01
 0.1451509198201E+01
 0.1452855053242E+01
 0.1455286106543E+01
 0.1459010565825E+01
 0.1464112633605E+01
 0.1470625050830E+01
 0.1478563606176E+01
 0.1487940561737E+01
 0.1498764847759E+01
 0.1511031276293E+01
 0.1524698793728E+01
 0.1539655578482E+01
 0.1555674543984E+01
 0.1572379342221E+01
 0.1589253483604E+01
 0.1605711459088E+01
 0.1621216906640E+01
 0.1635314680724E+01
 0.1647498105931E+01
 0.1657031370651E+01
 0.1662838164456E+01
 0.1663486331302E+01
 0.1657236285548E+01
 0.1642109088069E+01
 0.1616021687333E+01
 0.1577198949284E+01
 0.1525810453769E+01
 0.1469299310699E+01
 0.1435530283863E+01
 0.1495960074148E+01
 0.1774040843271E+01
 0.2355834333607E+01
 0.3105989890937E+01
 0.1210021952877E+01
 0.1283030848230E+01
 0.1348496445773E+01
 0.1395599880088E+01
 0.1423886570266E+01
 0.1438735802995E+01
 0.1445887011518E+01
 0.1449337248824E+01
 0.1451417545217E+01
 0.1453385938961E+01
 0.1455896302180E+01
 0.1459278935333E+01
 0.1463696352145E+01
 0.1469227069157E+01
 0.1475908478850E+01
 0.1483755747224E+01
 0.1492765260689E+01
 0.1502905802321E+01
 0.1514098734694E+01
 0.1526187565327E+01
 0.1538903308569E+01
 0.1551844462658E+01
 0.1564494551845E+01
 0.1576285355396E+01
 0.1586697103735E+01
 0.1595285230503E+01
 0.1601564865751E+01
 0.1604858422716E+01
 0.1604203320582E+01
 0.1598352810092E+01
 0.1585856516864E+01
 0.1565214344641E+01
 0.1535206827212E+01
 0.1495686913130E+01
 0.1449822517185E+01
 0.1409926114667E+01
 0.1409154673318E+01
 0.1516122446265E+01
 0.1825698960423E+01
 0.2377853203700E+01
 0.3043806444173E+01
 0.1201167693072E+01
 0.1269468850924E+01
 0.1332364928888E+01
 0.1380482936001E+01
 0.1412089280915E+01
 0.1430702827830E+01
 0.1440997913011E+01
 0.1446682090733E+01
 0.1450154748971E+01
 0.1452829664889E+01
 0.1455503898555E+01
 0.1458615681041E+01
 0.1462401159004E+01
 0.1466984404819E+01
 0.1472426364638E+01
 0.1478748363709E+01
 0.1485938761469E+01
 0.1493946669897E+01
 0.1502665162936E+01
 0.1511906386478E+01
 0.1521376408148E+01
 0.1530666131052E+01
 0.1539273548337E+01
 0.1546659359829E+01
 0.1552333450973E+01
 0.1555879395267E+01
 0.1556856323859E+01
 0.1554672443143E+01
 0.1548515861429E+01
 0.1537378626326E+01
 0.1520178683948E+01
 0.1496005654747E+01
 0.1464632005360E+01
 0.1427612866752E+01
 0.1390895848673E+01
 0.1370526913041E+01
 0.1401958990186E+01
 0.1546820462936E+01
 0.1874172180890E+01
 0.2394414949459E+01
 0.2991413718265E+01
 0.1193810483196E+01
 0.1258017034888E+01
 0.1318292164524E+01
 0.1366596511914E+01
 0.1400514124786E+01
 0.1422164310985E+01
 0.1435228717144E+01
 0.1443013762809E+01
 0.1447870873241E+01
 0.1451297189226E+01
 0.1454195292139E+01
 0.1457093391465E+01
 0.1460293712388E+01
 0.1463963759483E+01
 0.1468188860595E+01
 0.1472999216990E+01
 0.1478379556945E+01
 0.1484265770086E+01
 0.1490531848697E+01
 0.1496970974977E+01
 0.1503278990911E+01
 0.1509053705837E+01
 0.1513819624896E+01
 0.1517077048719E+01
 0.1518378478669E+01
 0.1517353215929E+01
 0.1513626432615E+01
 0.1506718498108E+01
 0.1496001282164E+01
 0.1480750042338E+01
 0.1460311130273E+01
 0.1434435885919E+01
 0.1403943131991E+01
 0.1372032797045E+01
 0.1347019471934E+01
 0.1347442747292E+01
 0.1408598720203E+01
 0.1583070051095E+01
 0.1918494731420E+01
 0.2407138621036E+01
 0.2947049580003E+01
 0.1187621416545E+01
 0.1248243569872E+01
 0.1305959423215E+01
 0.1353900589004E+01
 0.1389342336250E+01
 0.1413378824225E+01
 0.1428820158559E+01
 0.1438524986160E+01
 0.1444713230605E+01
 0.1448901859140E+01
 0.1452061218544E+01
 0.1454789450523E+01
 0.1457445246807E+01
 0.1460235880341E+01
 0.1463270892954E+01
 0.1466591525351E+01
 0.1470183017638E+01
 0.1473974321141E+01
 0.1477829123298E+01
 0.1481532894047E+01
 0.1484783922456E+01
 0.1487199027021E+01
 0.1488339526203E+01
 0.1487755220454E+01
 0.1485053689169E+01
 0.1479926693920E+01
 0.1472086038463E+01
 0.1461187995259E+01
 0.1446816012648E+01
 0.1428562509183E+01
 0.1406241964868E+01
 0.1380301613015E+01
 0.1352595969922E+01
 0.1327813132128E+01
 0.1316118486876E+01
 0.1337362155873E+01
 0.1424877625200E+01
 0.1621681175591E+01
 0.1958567893247E+01
 0.2417226968449E+01
 0.2909355532774E+01
 0.1182357247510E+01
 0.1239819864954E+01
 0.1295095562081E+01
 0.1342317145220E+01
 0.1378678407391E+01
 0.1404539388219E+01
 0.1421974056259E+01
 0.1433390375559E+01
 0.1440822863846E+01
 0.1445756627110E+01
 0.1449194659666E+01
 0.1451784456346E+01
 0.1453930323802E+01
 0.1455874498122E+01
 0.1457749730826E+01
 0.1459609922558E+01
 0.1461444612317E+01
 0.1463181735677E+01
 0.1464682796676E+01
 0.1465735566334E+01
 0.1466051624809E+01
 0.1465276981716E+01
 0.1463018705756E+01
 0.1458885203081E+01
 0.1452550726544E+01
 0.1443784747346E+01
 0.1432403980626E+01
 0.1418220742249E+01
 0.1401051714278E+01
 0.1380829312591E+01
 0.1357855934006E+01
 0.1333274975224E+01
 0.1309913741156E+01
 0.1293726464972E+01
 0.1296180055951E+01
 0.1337403571336E+01
 0.1447596182879E+01
 0.1660674872609E+01
 0.1994682514813E+01
 0.2425560529138E+01
 0.2877255780475E+01
 0.1177834880508E+01
 0.1232493381294E+01
 0.1285473943526E+01
 0.1331752768035E+01
 0.1368575152179E+01
 0.1395786772689E+01
 0.1414856319353E+01
 0.1427764975611E+01
 0.1436332110916E+01
 0.1441971812407E+01
 0.1445689023933E+01
 0.1448160776055E+01
 0.1449825655507E+01
 0.1450955314833E+01
 0.1451704051559E+01
 0.1452139536240E+01
 0.1452258966700E+01
 0.1451994685113E+01
 0.1451213344432E+01
 0.1449713785631E+01
 0.1447230105373E+01
 0.1443446098700E+01
 0.1438022354604E+01
 0.1430634106696E+01
 0.1421032704107E+01
 0.1409078663778E+01
 0.1394709041099E+01
 0.1377908158545E+01
 0.1358741006576E+01
 0.1337491872053E+01
 0.1314952689607E+01
 0.1292935069923E+01
 0.1275138046190E+01
 0.1268524371029E+01
 0.1285330236451E+01
 0.1345132405851E+01
 0.1474370892132E+01
 0.1698862693948E+01
 0.2027272272588E+01
 0.2432785693153E+01
 0.2849878149063E+01
 0.1173914435393E+01
 0.1226068203184E+01
 0.1276906935505E+01
 0.1322111466844E+01
 0.1359051671979E+01
 0.1387221384609E+01
 0.1407601319693E+01
 0.1421784322238E+01
 0.1431363141789E+01
 0.1437653402247E+01
 0.1441636619244E+01
 0.1444001259977E+01
 0.1445209021006E+01
 0.1445555057110E+01
 0.1445213070154E+01
 0.1444265149731E+01
 0.1442719044991E+01
 0.1440516339572E+01
 0.1437535312002E+01
 0.1433593437972E+01
 0.1428455119963E+01
 0.1421849171993E+01
 0.1413496399262E+01
 0.1403146088520E+01
 0.1390635704178E+01
 0.1375927963883E+01
 0.1359092552869E+01
 0.1340297344277E+01
 0.1319864162179E+01
 0.1298430884807E+01
 0.1277265071524E+01
 0.1258796772935E+01
 0.1247470831239E+01
 0.1250989211195E+01
 0.1281875906869E+01
 0.1358539520513E+01
 0.1503459341699E+01
 0.1735558412323E+01
 0.2056785969671E+01
 0.2439383601946E+01
 0.2826499007572E+01
 0.1170487710296E+01
 0.1220391039827E+01
 0.1269239984793E+01
 0.1313301572356E+01
 0.1350105903216E+01
 0.1378913199262E+01
 0.1400316677014E+01
 0.1415565509777E+01
 0.1426027294450E+01
 0.1432901853071E+01
 0.1437127419703E+01
 0.1439388128288E+01
 0.1440158290164E+01
 0.1439750608389E+01
 0.1438355743527E+01
 0.1436070454013E+01
 0.1432915452108E+01
 0.1428845765151E+01
 0.1423756898794E+01
 0.1417491387420E+01
 0.1409850443818E+01
 0.1400613926628E+01
 0.1389568515719E+01
 0.1376543679425E+01
 0.1361470458031E+01
 0.1344422609673E+01
 0.1325611512404E+01
 0.1305395750310E+01
 0.1284356355488E+01
 0.1263477633589E+01
 0.1244476374837E+01
 0.1230335762026E+01
 0.1226107127440E+01
 0.1239968831745E+01
 0.1284322666802E+01
 0.1375998402980E+01
 0.1533608498520E+01
 0.1770389163491E+01
 0.2083619369108E+01
 0.2445714763727E+01
 0.2806495867780E+01
 0.1167470136685E+01
 0.1215341040607E+01
 0.1262346101856E+01
 0.1305239126165E+01
 0.1341723200685E+01
 0.1370909711633E+01
 0.1393087888571E+01
 0.1409208836053E+01
 0.1420425018588E+01
 0.1427811328411E+01
 0.1432248112287E+01
 0.1434402033910E+01
 0.1434750564079E+01
 0.1433618229517E+01
 0.1431210057530E+01
 0.1427637393597E+01
 0.1422935852554E+01
 0.1417077462419E+01
 0.1409979694493E+01
 0.1401515497586E+01
 0.1391528237559E+01
 0.1379853739667E+01
 0.1366349191229E+01
 0.1350929199043E+01
 0.1333624199333E+01
 0.1314625492170E+01
 0.1294292056715E+01
 0.1273176216460E+01
 0.1252115099419E+01
 0.1232424917426E+01
 0.1216235926154E+01
 0.1207009284787E+01
 0.1210259452562E+01
 0.1234398103860E+01
 0.1291376497439E+01
 0.1396212824312E+01
 0.1563931438563E+01
 0.1803178623348E+01
 0.2108082751412E+01
 0.2452036199855E+01
 0.2789267653825E+01
 0.1164795047461E+01
 0.1210822313707E+01
 0.1256121044059E+01
 0.1297849231121E+01
 0.1333882093457E+01
 0.1363242118626E+01
 0.1385982506308E+01
 0.1402799707233E+01
 0.1414646245360E+01
 0.1422469296225E+01
 0.1427081397099E+01
 0.1429121296258E+01
 0.1429061434420E+01
 0.1427232871637E+01
 0.1423852398824E+01
 0.1419045603880E+01
 0.1412864495623E+01
 0.1405301025529E+01
 0.1396298538340E+01
 0.1385764759030E+01
 0.1373589488181E+01
 0.1359668410470E+01
 0.1343932833742E+01
 0.1326386247755E+01
 0.1307162646809E+01
 0.1286575102830E+01
 0.1265133143127E+01
 0.1243582134345E+01
 0.1223007528458E+01
 0.1205037174721E+01
 0.1192172575031E+01
 0.1188272716989E+01
 0.1199175175305E+01
 0.1233310588450E+01
 0.1301934575743E+01
 0.1418163659472E+01
 0.1593808747092E+01
 0.1833883590850E+01
 0.2130387857735E+01
 0.2458568215962E+01
 0.2773862249757E+01
 0.1162409130313E+01
 0.1206758359417E+01
 0.1250479723565E+01
 0.1291067379111E+01
 0.1326559892104E+01
 0.1355932486201E+01
 0.1379056705473E+01
 0.1396413931554E+01
 0.1408774691865E+01
 0.1416960407446E+01
 0.1421709954702E+01
 0.1423626377892E+01
 0.1423170342649E+01
 0.1420674790491E+01
 0.1416365823565E+01
 0.1410382773116E+01
 0.1402795151618E+01
 0.1393617167256E+01
 0.1382821157973E+01
 0.1370353038065E+01
 0.1356152287932E+01
 0.1340177274814E+01
 0.1322435887127E+01
 0.1303022827056E+01
 0.1282177934736E+01
 0.1260337821807E+01
 0.1238162406909E+01
 0.1216585637732E+01
 0.1196929062603E+01
 0.1181106867337E+01
 0.1171944747521E+01
 0.1173617459090E+01
 0.1192154045203E+01
 0.1235824415696E+01
 0.1315023427655E+01
 0.1440988379640E+01
 0.1622730478077E+01
 0.1862442942155E+01
 0.2150766217900E+01
 0.2464691736487E+01
 0.2763922108185E+01
 0.1160271153224E+01
 0.1203088241010E+01
 0.1245352479945E+01
 0.1284837165322E+01
 0.1319731740359E+01
 0.1348992561910E+01
 0.1372352566770E+01
 0.1390113094063E+01
 0.1402881560021E+01
 0.1411358830866E+01
 0.1416207509004E+01
 0.1417989480819E+01
 0.1417148268889E+01
 0.1414014700398E+01
 0.1408821912109E+01
 0.1401722334973E+01
 0.1392803713230E+01
 0.1382104265207E+01
 0.1369627694490E+01
 0.1355360653088E+01
 0.1339294630217E+01
 0.1321452569161E+01
 0.1301920405480E+01
 0.1280885186166E+01
 0.1258693347360E+01
 0.1235904867261E+01
 0.1213327576198E+01
 0.1192076923248E+01
 0.1173695554417E+01
 0.1160356105135E+01
 0.1155160035337E+01
 0.1162518515357E+01
 0.1188534166348E+01
 0.1241173497581E+01
 0.1329874550127E+01
 0.1464088364427E+01
 0.1650441028218E+01
 0.1888935183649E+01
 0.2169537898473E+01
 0.2470194246658E+01
 0.2760557118122E+01
 0.1158346815171E+01
 0.1199761989377E+01
 0.1240680439751E+01
 0.1279107928033E+01
 0.1313370636525E+01
 0.1342425101777E+01
 0.1365899431555E+01
 0.1383945261023E+01
 0.1397025506081E+01
 0.1405727699916E+01
 0.1410638011929E+01
 0.1412273674393E+01
 0.1411056941579E+01
 0.1407313158455E+01
 0.1401280399295E+01
 0.1393123414422E+01
 0.1382948537569E+01
 0.1370819197302E+01
 0.1356772144045E+01
 0.1340836543070E+01
 0.1323057427373E+01
 0.1303523423052E+01
 0.1282399158611E+01
 0.1259964202605E+01
 0.1236671164605E+01
 0.1213201812558E+01
 0.1190507850376E+01
 0.1169877603459E+01
 0.1153058539145E+01
 0.1142453318519E+01
 0.1141392070851E+01
 0.1154449062871E+01
 0.1187699309058E+01
 0.1248699063263E+01
 0.1345887001799E+01
 0.1487062531494E+01
 0.1676836093867E+01
 0.1913567917174E+01
 0.2186785970800E+01
 0.2476362254197E+01
 0.2757445388488E+01
 0.1156608936501E+01
 0.1196739805589E+01
 0.1236416344315E+01
 0.1273838276653E+01
 0.1307454015886E+01
 0.1336232530932E+01
 0.1359723374155E+01
 0.1377954391092E+01
 0.1391261708568E+01
 0.1400128006985E+01
 0.1405064800583E+01
 0.1406542902092E+01
 0.1404960382545E+01
 0.1400634425143E+01
 0.1393806213578E+01
 0.1384651990547E+01
 0.1373296749549E+01
 0.1359829853113E+01
 0.1344322159368E+01
 0.1326846406156E+01
 0.1307501936286E+01
 0.1286443356232E+01
 0.1263913742865E+01
 0.1240284314255E+01
 0.1216112170015E+01
 0.1192197824209E+01
 0.1169631221195E+01
 0.1149863378979E+01
 0.1134829057318E+01
 0.1127132092175E+01
 0.1130285815448E+01
 0.1148960834390E+01
 0.1189120306955E+01
 0.1257836110398E+01
 0.1362548728366E+01
 0.1509562367341E+01
 0.1701813548350E+01
 0.1936418256378E+01
 0.2202819537407E+01
 0.2482848883704E+01
 0.2755034782887E+01
 0.1155035657531E+01
 0.1193989503205E+01
 0.1232521418678E+01
 0.1268993197631E+01
 0.1301961445947E+01
 0.1330415006699E+01
 0.1353845163459E+01
 0.1372177856234E+01
 0.1385638822108E+01
 0.1394614977952E+01
 0.1399546368808E+01
 0.1400857043034E+01
 0.1398919049470E+01
 0.1394039386198E+01
 0.1386460801816E+01
 0.1376370189580E+01
 0.1363911024524E+01
 0.1349198896146E+01
 0.1332339264435E+01
 0.1313448841825E+01
 0.1292681335630E+01
 0.1270256873544E+01
 0.1246495903108E+01
 0.1221859459065E+01
 0.1197006336299E+01
 0.1172851519622E+01
 0.1150616307024E+01
 0.1131903138128E+01
 0.1118815921923E+01
 0.1114131256058E+01
 0.1121502984574E+01
 0.1145639165288E+01
 0.1192324091207E+01
 0.1268100266354E+01
 0.1379442746216E+01
 0.1531326937523E+01
 0.1725310369748E+01
 0.1957595603391E+01
 0.2217787554096E+01
 0.2489426383662E+01
 0.2753394421677E+01
 0.1153609383877E+01
 0.1191485038771E+01
 0.1228963862779E+01
 0.1264543230424E+01
 0.1296874795205E+01
 0.1324971355626E+01
 0.1348281479393E+01
 0.1366647522411E+01
 0.1380199722618E+01
 0.1389238464759E+01
 0.1394136482508E+01
 0.1395271846681E+01
 0.1392989674067E+01
 0.1387585358377E+01
 0.1379301950971E+01
 0.1368336161897E+01
 0.1354849556109E+01
 0.1338983856429E+01
 0.1320879103953E+01
 0.1300695786848E+01
 0.1278641376537E+01
 0.1255000361630E+01
 0.1230168715072E+01
 0.1204694592619E+01
 0.1179334732293E+01
 0.1155113310165E+01
 0.1133375151831E+01
 0.1115862174709E+01
 0.1104829217367E+01
 0.1103198363830E+01
 0.1114724936167E+01
 0.1144104200921E+01
 0.1196891315205E+01
 0.1279078952401E+01
 0.1396231647005E+01
 0.1552160150195E+01
 0.1747297097081E+01
 0.1977196562153E+01
 0.2231756161545E+01
 0.2495952972851E+01
 0.2752477479106E+01
 0.1152315959775E+01
 0.1189205339722E+01
 0.1225717624751E+01
 0.1260463706724E+01
 0.1292178231920E+01
 0.1319899717696E+01
 0.1343045855004E+01
 0.1361390653364E+01
 0.1374982180862E+01
 0.1384043342179E+01
 0.1388884340444E+01
 0.1389838929751E+01
 0.1387225166277E+01
 0.1381325960011E+01
 0.1372383672243E+01
 0.1360604019077E+01
 0.1346166081209E+01
 0.1329237276055E+01
 0.1309991739639E+01
 0.1288632990115E+01
 0.1265421062913E+01
 0.1240703004091E+01
 0.1214947770153E+01
 0.1188787181890E+01
 0.1163071362407E+01
 0.1138927607364E+01
 0.1117815784007E+01
 0.1101605023617E+01
 0.1092683238816E+01
 0.1094092415657E+01
 0.1109654606839E+01
 0.1144011033549E+01
 0.1202452976043E+01
 0.1290422771790E+01
 0.1412643163157E+01
 0.1571915753716E+01
 0.1767764447762E+01
 0.1995295873290E+01
 0.2244757536034E+01
 0.2502331471198E+01
 0.2752195542139E+01
 0.1151144013787E+01
 0.1187133369643E+01
 0.1222761396604E+01
 0.1256734068111E+01
 0.1287858118747E+01
 0.1315197976102E+01
 0.1338149397363E+01
 0.1356430655806E+01
 0.1370019457352E+01
 0.1379069890091E+01
 0.1383834759631E+01
 0.1384605816168E+01
 0.1381674567262E+01
 0.1375311029883E+01
 0.1365756130423E+01
 0.1353223811704E+01
 0.1337909939965E+01
 0.1320006881992E+01
 0.1299721963985E+01
 0.1277300493241E+01
 0.1253053323927E+01
 0.1227387672419E+01
 0.1200842314082E+01
 0.1174128621040E+01
 0.1148184881060E+01
 0.1124234836402E+01
 0.1103844490452E+01
 0.1088997895669E+01
 0.1082198898670E+01
 0.1086585913609E+01
 0.1106017669490E+01
 0.1145049020368E+01
 0.1208686532688E+01
 0.1301837218630E+01
 0.1428458166113E+01
 0.1590485142006E+01
 0.1786713609651E+01
 0.2011950636671E+01
 0.2256808968700E+01
 0.2508490676688E+01
 0.2752447120422E+01
 0.1150084433574E+01
 0.1185255377095E+01
 0.1220077787169E+01
 0.1253337260891E+01
 0.1283902845659E+01
 0.1310864029089E+01
 0.1333601330439E+01
 0.1351787684651E+01
 0.1365340816850E+01
 0.1374354148607E+01
 0.1379028369438E+01
 0.1379616004817E+01
 0.1376383037654E+01
 0.1369586582045E+01
 0.1359465606193E+01
 0.1346241534889E+01
 0.1330126156185E+01
 0.1311335769951E+01
 0.1290109613390E+01
 0.1266733096604E+01
 0.1241565655615E+01
 0.1215071766231E+01
 0.1187856309235E+01
 0.1160705535821E+01
 0.1134640147513E+01
 0.1110973225781E+01
 0.1091367785887E+01
 0.1077910713656E+01
 0.1073205635765E+01
 0.1080466330174E+01
 0.1103563043016E+01
 0.1146940502817E+01
 0.1215311768050E+01
 0.1313075063023E+01
 0.1443500671688E+01
 0.1607787694492E+01
 0.1804151124649E+01
 0.2027205243997E+01
 0.2267921145684E+01
 0.2514374517722E+01
 0.2753127784073E+01
 0.1149129942606E+01
 0.1183560289414E+01
 0.1217652641268E+01
 0.1250259207985E+01
 0.1280302635484E+01
 0.1306895953755E+01
 0.1329409404074E+01
 0.1347479136009E+01
 0.1360971974563E+01
 0.1369928248708E+01
 0.1374501813827E+01
 0.1374909065309E+01
 0.1371391883825E+01
 0.1364194802441E+01
 0.1353554500497E+01
 0.1339699173983E+01
 0.1322855554424E+01
 0.1303262619777E+01
 0.1281189906031E+01
 0.1256960841595E+01
 0.1230980767941E+01
 0.1203768044717E+01
 0.1175989468029E+01
 0.1148501030089E+01
 0.1122399682187E+01
 0.1099080444539E+01
 0.1080294163329E+01
 0.1068218854861E+01
 0.1065542955569E+01
 0.1075537141246E+01
 0.1102062932991E+01
 0.1149439135183E+01
 0.1222086621022E+01
 0.1323929504658E+01
 0.1457629501114E+01
 0.1623763515748E+01
 0.1820086181550E+01
 0.2041095098839E+01
 0.2278101383801E+01
 0.2519935704657E+01
 0.2754135364708E+01
 0.1148274756685E+01
 0.1182039220492E+01
 0.1215474477090E+01
 0.1247488349896E+01
 0.1277049338273E+01
 0.1303292090457E+01
 0.1325580194346E+01
 0.1343520040534E+01
 0.1356935472939E+01
 0.1365820707412E+01
 0.1370287945324E+01
 0.1370520742812E+01
 0.1366738601833E+01
 0.1359174065511E+01
 0.1348061356911E+01
 0.1333634763229E+01
 0.1316134882432E+01
 0.1295821906268E+01
 0.1272993762965E+01
 0.1248009461605E+01
 0.1221317183470E+01
 0.1193485388967E+01
 0.1165238191307E+01
 0.1137495804488E+01
 0.1111424954261E+01
 0.1088495022272E+01
 0.1070535574140E+01
 0.1059804570732E+01
 0.1059061603213E+01
 0.1071618466103E+01
 0.1101312499398E+01
 0.1152327983407E+01
 0.1228803190189E+01
 0.1334228183631E+01
 0.1470731525211E+01
 0.1638368164552E+01
 0.1834529208025E+01
 0.2053649109777E+01
 0.2287354799686E+01
 0.2525132323849E+01
 0.2755372841124E+01
 0.1147514302958E+01
 0.1180685069200E+01
 0.1213534020515E+01
 0.1245015248905E+01
 0.1274136228551E+01
 0.1300051074541E+01
 0.1322119323003E+01
 0.1339923377736E+01
 0.1353251000553E+01
 0.1362056692010E+01
 0.1366416011693E+01
 0.1366483072242E+01
 0.1362456940398E+01
 0.1354558973986E+01
 0.1343020907436E+01
 0.1328082465228E+01
 0.1309996949521E+01
 0.1289044119010E+01
 0.1265548129369E+01
 0.1239900822226E+01
 0.1212589811814E+01
 0.1184229523152E+01
 0.1155596443847E+01
 0.1127669184401E+01
 0.1101677544092E+01
 0.1079157603968E+01
 0.1062008700380E+01
 0.1052558158580E+01
 0.1053624456436E+01
 0.1068547413208E+01
 0.1101129262960E+01
 0.1155417513695E+01
 0.1235283986195E+01
 0.1343827982758E+01
 0.1482716203458E+01
 0.1651568762087E+01
 0.1847491020874E+01
 0.2064891215285E+01
 0.2295684701718E+01
 0.2529926198081E+01
 0.2756750014383E+01
 0.1146844990908E+01
 0.1179492191620E+01
 0.1211823820521E+01
 0.1242832250735E+01
 0.1271557813944E+01
 0.1297171833602E+01
 0.1319031615490E+01
 0.1336700325336E+01
 0.1349935659376E+01
 0.1358658252830E+01
 0.1362911830327E+01
 0.1362824494476E+01
 0.1358576974544E+01
 0.1350380413061E+01
 0.1338464132500E+01
 0.1323072661458E+01
 0.1304470770377E+01
 0.1282955979890E+01
 0.1258876283693E+01
 0.1232653337509E+01
 0.1204810485881E+01
 0.1176003680228E+01
 0.1147056553197E+01
 0.1119000045648E+01
 0.1093120173786E+01
 0.1071012041275E+01
 0.1054636033196E+01
 0.1046378914833E+01
 0.1049107186955E+01
 0.1066178203327E+01
 0.1101352349133E+01
 0.1158543590012E+01
 0.1241378526053E+01
 0.1352610610374E+01
 0.1493511232534E+01
 0.1663341117655E+01
 0.1858982275815E+01
 0.2074841335904E+01
 0.2303092814284E+01
 0.2534282255382E+01
 0.2758184561025E+01
 0.1146264024013E+01
 0.1178456132518E+01
 0.1210337930766E+01
 0.1240933195968E+01
 0.1269309658223E+01
 0.1294653561579E+01
 0.1316321210934E+01
 0.1333860453825E+01
 0.1347004184889E+01
 0.1355644523599E+01
 0.1359797945544E+01
 0.1359569967581E+01
 0.1355125181813E+01
 0.1346665610283E+01
 0.1334418326083E+01
 0.1318632044211E+01
 0.1299581703952E+01
 0.1277580647024E+01
 0.1252998122401E+01
 0.1226282348864E+01
 0.1197988445492E+01
 0.1168809196988E+01
 0.1139609916806E+01
 0.1111467624415E+01
 0.1085717596036E+01
 0.1064006316463E+01
 0.1048346762317E+01
 0.1041175886053E+01
 0.1045398719932E+01
 0.1064382116039E+01
 0.1101841633675E+01
 0.1161565549458E+01
 0.1246960300859E+01
 0.1360478895457E+01
 0.1503059098721E+01
 0.1673667587114E+01
 0.1869013087354E+01
 0.2083516008955E+01
 0.2309579524228E+01
 0.2538168440261E+01
 0.2759602656169E+01
 0.1145769246063E+01
 0.1177573406359E+01
 0.1209071647905E+01
 0.1239313177263E+01
 0.1267388223557E+01
 0.1292495681727E+01
 0.1313991639083E+01
 0.1331411879774E+01
 0.1344469128896E+01
 0.1353031895347E+01
 0.1357093771968E+01
 0.1356741074863E+01
 0.1352124522709E+01
 0.1343438203475E+01
 0.1330907169443E+01
 0.1314783714923E+01
 0.1295351594215E+01
 0.1272937913953E+01
 0.1247930431488E+01
 0.1220800480358E+01
 0.1192130784991E+01
 0.1162646058448E+01
 0.1133247641371E+01
 0.1105052240234E+01
 0.1079437375918E+01
 0.1058093340676E+01
 0.1043077525659E+01
 0.1036868474007E+01
 0.1042401554612E+01
 0.1063047329016E+01
 0.1102476861508E+01
 0.1164364411795E+01
 0.1251924118270E+01
 0.1367353696571E+01
 0.1511314328121E+01
 0.1682535430209E+01
 0.1877592725861E+01
 0.2090928825202E+01
 0.2315144167332E+01
 0.2541555874180E+01
 0.2760939350708E+01
 0.1145359016238E+01
 0.1176841319456E+01
 0.1208021297556E+01
 0.1237968336584E+01
 0.1265790731959E+01
 0.1290697803560E+01
 0.1312045871208E+01
 0.1329361383509E+01
 0.1342341007166E+01
 0.1350834162088E+01
 0.1354815718880E+01
 0.1354356122169E+01
 0.1349594516057E+01
 0.1340718306066E+01
 0.1327950801552E+01
 0.1311547275687E+01
 0.1291798897987E+01
 0.1269044387582E+01
 0.1243687126370E+01
 0.1216217950127E+01
 0.1187242842883E+01
 0.1157513368424E+01
 0.1127961091117E+01
 0.1099735910010E+01
 0.1074250546982E+01
 0.1053231613286E+01
 0.1038773013670E+01
 0.1033386899720E+01
 0.1040031964326E+01
 0.1062078684365E+01
 0.1103156787680E+01
 0.1166841271563E+01
 0.1256183836682E+01
 0.1373171380210E+01
 0.1518241334969E+01
 0.1689935578532E+01
 0.1884729411669E+01
 0.2097090787886E+01
 0.2319785365823E+01
 0.2544419127269E+01
 0.2762138797811E+01
 0.1145032108164E+01
 0.1176257826876E+01
 0.1207184061141E+01
 0.1236895698455E+01
 0.1264515046912E+01
 0.1289259679447E+01
 0.1310486353179E+01
 0.1327714499273E+01
 0.1340628418198E+01
 0.1349062642159E+01
 0.1352977297404E+01
 0.1352430225105E+01
 0.1347551309513E+01
 0.1338522570175E+01
 0.1325565887183E+01
 0.1308938915678E+01
 0.1288938802625E+01
 0.1265913648790E+01
 0.1240279465400E+01
 0.1212542844645E+01
 0.1183328542007E+01
 0.1153409756941E+01
 0.1123742358284E+01
 0.1095502869705E+01
 0.1070132162089E+01
 0.1049385767136E+01
 0.1035386457612E+01
 0.1030672559933E+01
 0.1038220113290E+01
 0.1061397422308E+01
 0.1103798377333E+01
 0.1168915889321E+01
 0.1259670461274E+01
 0.1377881775415E+01
 0.1523812729113E+01
 0.1695861688921E+01
 0.1890430157253E+01
 0.2102010601225E+01
 0.2323501361414E+01
 0.2546736505796E+01
 0.2763154369437E+01
 0.1144787630582E+01
 0.1175821419710E+01
 0.1206557838934E+01
 0.1236093036280E+01
 0.1263559575634E+01
 0.1288181164688E+01
 0.1309315026336E+01
 0.1326475583284E+01
 0.1339338136824E+01
 0.1347726276728E+01
 0.1351589209984E+01
 0.1350975384011E+01
 0.1346007742025E+01
 0.1336864243687E+01
 0.1323765678500E+01
 0.1306971488126E+01
 0.1286783328993E+01
 0.1263556391026E+01
 0.1237716232252E+01
 0.1209781351216E+01
 0.1180390675965E+01
 0.1150333721046E+01
 0.1120584653958E+01
 0.1092340004232E+01
 0.1067061743020E+01
 0.1046527008090E+01
 0.1032880015469E+01
 0.1028678295962E+01
 0.1036910117648E+01
 0.1060940917094E+01
 0.1104336101976E+01
 0.1170525507674E+01
 0.1262330596836E+01
 0.1381446560040E+01
 0.1528008016219E+01
 0.1700309435640E+01
 0.1894700662557E+01
 0.2105694917716E+01
 0.2326290330680E+01
 0.2548490317491E+01
 0.2763948732361E+01
 0.1144624966160E+01
 0.1175531038587E+01
 0.1206141144572E+01
 0.1235558768252E+01
 0.1262923191027E+01
 0.1287462182753E+01
 0.1308533339425E+01
 0.1325647863053E+01
 0.1338475184947E+01
 0.1346831706101E+01
 0.1350659421158E+01
 0.1350000544506E+01
 0.1344973395242E+01
 0.1335753217769E+01
 0.1322560066282E+01
 0.1305654573737E+01
 0.1285341415420E+01
 0.1261980532389E+01
 0.1236003882513E+01
 0.1207937943895E+01
 0.1178431137143E+01
 0.1148283894833E+01
 0.1118482616006E+01
 0.1090237183897E+01
 0.1065023629398E+01
 0.1044633452185E+01
 0.1031225062095E+01
 0.1027368585546E+01
 0.1036060066062E+01
 0.1060662434452E+01
 0.1104721350067E+01
 0.1171623896913E+01
 0.1264125235271E+01
 0.1383838026412E+01
 0.1530812624981E+01
 0.1703275992405E+01
 0.1897545248703E+01
 0.2108148542927E+01
 0.2328150656080E+01
 0.2549667095539E+01
 0.2764493873206E+01
 0.1144543727296E+01
 0.1175386011109E+01
 0.1205933028606E+01
 0.1235291881331E+01
 0.1262605173763E+01
 0.1287102698262E+01
 0.1308142255552E+01
 0.1325233472189E+01
 0.1338042882990E+01
 0.1346383326371E+01
 0.1350193211135E+01
 0.1349511644286E+01
 0.1344454634107E+01
 0.1335196064986E+01
 0.1321955621113E+01
 0.1304994531228E+01
 0.1284618983814E+01
 0.1261191302962E+01
 0.1235146656998E+01
 0.1207015526311E+01
 0.1177451090934E+01
 0.1147259254688E+01
 0.1117432541907E+01
 0.1089187517345E+01
 0.1064007239309E+01
 0.1043690375382E+01
 0.1030402401243E+01
 0.1026719678097E+01
 0.1035642022988E+01
 0.1060530935007E+01
 0.1104921972287E+01
 0.1172180636607E+01
 0.1265028860443E+01
 0.1385038185232E+01
 0.1532217210799E+01
 0.1704759665899E+01
 0.1898966814422E+01
 0.2109374590538E+01
 0.2329081137219E+01
 0.2550257766987E+01
 0.2764771113228E+01
 0.1144543727302E+01
 0.1175386011116E+01
 0.1205933028614E+01
 0.1235291881341E+01
 0.1262605173776E+01
 0.1287102698278E+01
 0.1308142255570E+01
 0.1325233472211E+01
 0.1338042883015E+01
 0.1346383326398E+01
 0.1350193211166E+01
 0.1349511644321E+01
 0.1344454634147E+01
 0.1335196065030E+01
 0.1321955621163E+01
 0.1304994531286E+01
 0.1284618983881E+01
 0.1261191303038E+01
 0.1235146657084E+01
 0.1207015526407E+01
 0.1177451091041E+01
 0.1147259254804E+01
 0.1117432542030E+01
 0.1089187517473E+01
 0.1064007239437E+01
 0.1043690375505E+01
 0.1030402401355E+01
 0.1026719678188E+01
 0.1035642023049E+01
 0.1060530935027E+01
 0.1104921972256E+01
 0.1172180636520E+01
 0.1265028860297E+01
 0.1385038185033E+01
 0.1532217210561E+01
 0.1704759665643E+01
 0.1898966814173E+01
 0.2109374590323E+01
 0.2329081137059E+01
 0.2550257766893E+01
 0.2764771113197E+01
 0.1144624966178E+01
 0.1175531038607E+01
 0.1206141144597E+01
 0.1235558768284E+01
 0.1262923191065E+01
 0.1287462182800E+01
 0.1308533339480E+01
 0.1325647863117E+01
 0.1338475185021E+01
 0.1346831706183E+01
 0.1350659421250E+01
 0.1350000544610E+01
 0.1344973395359E+01
 0.1335753217902E+01
 0.1322560066435E+01
 0.1305654573911E+01
 0.1285341415620E+01
 0.1261980532616E+01
 0.1236003882771E+01
 0.1207937944184E+01
 0.1178431137464E+01
 0.1148283895181E+01
 0.1118482616377E+01
 0.1090237184282E+01
 0.1065023629785E+01
 0.1044633452557E+01
 0.1031225062432E+01
 0.1027368585821E+01
 0.1036060066246E+01
 0.1060662434514E+01
 0.1104721349978E+01
 0.1171623896653E+01
 0.1264125234835E+01
 0.1383838025817E+01
 0.1530812624267E+01
 0.1703275991636E+01
 0.1897545247956E+01
 0.2108148542281E+01
 0.2328150655599E+01
 0.2549667095258E+01
 0.2764493873116E+01
 0.1144787630612E+01
 0.1175821419744E+01
 0.1206557838975E+01
 0.1236093036332E+01
 0.1263559575699E+01
 0.1288181164766E+01
 0.1309315026428E+01
 0.1326475583391E+01
 0.1339338136947E+01
 0.1347726276865E+01
 0.1351589210138E+01
 0.1350975384184E+01
 0.1346007742220E+01
 0.1336864243908E+01
 0.1323765678753E+01
 0.1306971488416E+01
 0.1286783329325E+01
 0.1263556391405E+01
 0.1237716232681E+01
 0.1209781351698E+01
 0.1180390676498E+01
 0.1150333721626E+01
 0.1120584654577E+01
 0.1092340004875E+01
 0.1067061743666E+01
 0.1046527008713E+01
 0.1032880016034E+01
 0.1028678296427E+01
 0.1036910117962E+01
 0.1060940917205E+01
 0.1104336101837E+01
 0.1170525507249E+01
 0.1262330596116E+01
 0.1381446559053E+01
 0.1528008015032E+01
 0.1700309434359E+01
 0.1894700661311E+01
 0.2105694916638E+01
 0.2326290329879E+01
 0.2548490317025E+01
 0.2763948732216E+01
 0.1145032108206E+01
 0.1176257826924E+01
 0.1207184061200E+01
 0.1236895698528E+01
 0.1264515047002E+01
 0.1289259679557E+01
 0.1310486353309E+01
 0.1327714499423E+01
 0.1340628418368E+01
 0.1349062642351E+01
 0.1352977297619E+01
 0.1352430225346E+01
 0.1347551309785E+01
 0.1338522570483E+01
 0.1325565887536E+01
 0.1308938916082E+01
 0.1288938803088E+01
 0.1265913649319E+01
 0.1240279466000E+01
 0.1212542845319E+01
 0.1183328542754E+01
 0.1153409757754E+01
 0.1123742359152E+01
 0.1095502870608E+01
 0.1070132162999E+01
 0.1049385768015E+01
 0.1035386458412E+01
 0.1030672560594E+01
 0.1038220113743E+01
 0.1061397422480E+01
 0.1103798377156E+01
 0.1168915888743E+01
 0.1259670460281E+01
 0.1377881774043E+01
 0.1523812727456E+01
 0.1695861687128E+01
 0.1890430155506E+01
 0.2102010599713E+01
 0.2323501360293E+01
 0.2546736505150E+01
 0.2763154369248E+01
 0.1145359016292E+01
 0.1176841319517E+01
 0.1208021297631E+01
 0.1237968336678E+01
 0.1265790732075E+01
 0.1290697803701E+01
 0.1312045871375E+01
 0.1329361383702E+01
 0.1342341007385E+01
 0.1350834162334E+01
 0.1354815719154E+01
 0.1354356122477E+01
 0.1349594516404E+01
 0.1340718306461E+01
 0.1327950802002E+01
 0.1311547276204E+01
 0.1291798898579E+01
 0.1269044388260E+01
 0.1243687127139E+01
 0.1216217950991E+01
 0.1187242843841E+01
 0.1157513369470E+01
 0.1127961092235E+01
 0.1099735911175E+01
 0.1074250548160E+01
 0.1053231614428E+01
 0.1038773014714E+01
 0.1033386900590E+01
 0.1040031964934E+01
 0.1062078684615E+01
 0.1103156787481E+01
 0.1166841270850E+01
 0.1256183835431E+01
 0.1373171378465E+01
 0.1518241332849E+01
 0.1689935576227E+01
 0.1884729409418E+01
 0.2097090785937E+01
 0.2319785364382E+01
 0.2544419126449E+01
 0.2762138797590E+01
 0.1145769246129E+01
 0.1177573406434E+01
 0.1209071647997E+01
 0.1239313177378E+01
 0.1267388223699E+01
 0.1292495681900E+01
 0.1313991639287E+01
 0.1331411880009E+01
 0.1344469129161E+01
 0.1353031895645E+01
 0.1357093772301E+01
 0.1356741075236E+01
 0.1352124523129E+01
 0.1343438203953E+01
 0.1330907169989E+01
 0.1314783715550E+01
 0.1295351594934E+01
 0.1272937914776E+01
 0.1247930432424E+01
 0.1220800481412E+01
 0.1192130786161E+01
 0.1162646059726E+01
 0.1133247642740E+01
 0.1105052241665E+01
 0.1079437377369E+01
 0.1058093342089E+01
 0.1043077526958E+01
 0.1036868475101E+01
 0.1042401555392E+01
 0.1063047329365E+01
 0.1102476861312E+01
 0.1164364410969E+01
 0.1251924116781E+01
 0.1367353694467E+01
 0.1511314325546E+01
 0.1682535427394E+01
 0.1877592723102E+01
 0.2090928822811E+01
 0.2315144165570E+01
 0.2541555873193E+01
 0.2760939350471E+01
 0.1146264024091E+01
 0.1178456132607E+01
 0.1210337930875E+01
 0.1240933196104E+01
 0.1269309658391E+01
 0.1294653561783E+01
 0.1316321211174E+01
 0.1333860454101E+01
 0.1347004185201E+01
 0.1355644523948E+01
 0.1359797945933E+01
 0.1359569968018E+01
 0.1355125182305E+01
 0.1346665610841E+01
 0.1334418326722E+01
 0.1318632044945E+01
 0.1299581704796E+01
 0.1277580647990E+01
 0.1252998123502E+01
 0.1226282350105E+01
 0.1197988446873E+01
 0.1168809198500E+01
 0.1139609918429E+01
 0.1111467626117E+01
 0.1085717597766E+01
 0.1064006318156E+01
 0.1048346763885E+01
 0.1041175887388E+01
 0.1045398720906E+01
 0.1064382116512E+01
 0.1101841633509E+01
 0.1161565548547E+01
 0.1246960299158E+01
 0.1360478893014E+01
 0.1503059095700E+01
 0.1673667583791E+01
 0.1869013084085E+01
 0.2083516006118E+01
 0.2309579522145E+01
 0.2538168439115E+01
 0.2759602655939E+01
 0.1146844990998E+01
 0.1179492191723E+01
 0.1211823820647E+01
 0.1242832250893E+01
 0.1271557814138E+01
 0.1297171833837E+01
 0.1319031615767E+01
 0.1336700325653E+01
 0.1349935659734E+01
 0.1358658253229E+01
 0.1362911830772E+01
 0.1362824494974E+01
 0.1358576975104E+01
 0.1350380413698E+01
 0.1338464133229E+01
 0.1323072662296E+01
 0.1304470771341E+01
 0.1282955980996E+01
 0.1258876284955E+01
 0.1232653338934E+01
 0.1204810487470E+01
 0.1176003681972E+01
 0.1147056555075E+01
 0.1119000047623E+01
 0.1093120175804E+01
 0.1071012043260E+01
 0.1054636035049E+01
 0.1046378916430E+01
 0.1049107188149E+01
 0.1066178203955E+01
 0.1101352349032E+01
 0.1158543589052E+01
 0.1241378524171E+01
 0.1352610607616E+01
 0.1493511229082E+01
 0.1663341113827E+01
 0.1858982272030E+01
 0.2074841332613E+01
 0.2303092811878E+01
 0.2534282254088E+01
 0.2758184560825E+01
 0.1147514303060E+01
 0.1180685069317E+01
 0.1213534020658E+01
 0.1245015249084E+01
 0.1274136228772E+01
 0.1300051074807E+01
 0.1322119323316E+01
 0.1339923378093E+01
 0.1353251000955E+01
 0.1362056692457E+01
 0.1366416012191E+01
 0.1366483072798E+01
 0.1362456941024E+01
 0.1354558974698E+01
 0.1343020908251E+01
 0.1328082466165E+01
 0.1309996950602E+01
 0.1289044120253E+01
 0.1265548130789E+01
 0.1239900823833E+01
 0.1212589813610E+01
 0.1184229525130E+01
 0.1155596445982E+01
 0.1127669186656E+01
 0.1101677546405E+01
 0.1079157606258E+01
 0.1062008702536E+01
 0.1052558160464E+01
 0.1053624457880E+01
 0.1068547414027E+01
 0.1101129262964E+01
 0.1155417512726E+01
 0.1235283984170E+01
 0.1343827979715E+01
 0.1482716199592E+01
 0.1651568757758E+01
 0.1847491016567E+01
 0.2064891211531E+01
 0.2295684698985E+01
 0.2529926196649E+01
 0.2756750014242E+01
 0.1148274756800E+01
 0.1182039220623E+01
 0.1215474477251E+01
 0.1247488350096E+01
 0.1277049338521E+01
 0.1303292090755E+01
 0.1325580194694E+01
 0.1343520040932E+01
 0.1356935473384E+01
 0.1365820707906E+01
 0.1370287945872E+01
 0.1370520743423E+01
 0.1366738602521E+01
 0.1359174066292E+01
 0.1348061357808E+01
 0.1333634764262E+01
 0.1316134883625E+01
 0.1295821907642E+01
 0.1272993764538E+01
 0.1248009463390E+01
 0.1221317185471E+01
 0.1193485391176E+01
 0.1165238193702E+01
 0.1137495807026E+01
 0.1111424956879E+01
 0.1088495024879E+01
 0.1070535576618E+01
 0.1059804572927E+01
 0.1059061604942E+01
 0.1071618467154E+01
 0.1101312499554E+01
 0.1152327982478E+01
 0.1228803188066E+01
 0.1334228180338E+01
 0.1470731520954E+01
 0.1638368159729E+01
 0.1834529203191E+01
 0.2053649105552E+01
 0.2287354796624E+01
 0.2525132322290E+01
 0.2755372841074E+01
 0.1149129942732E+01
 0.1183560289560E+01
 0.1217652641446E+01
 0.1250259208208E+01
 0.1280302635759E+01
 0.1306895954084E+01
 0.1329409404458E+01
 0.1347479136446E+01
 0.1360971975050E+01
 0.1369928249246E+01
 0.1374501814422E+01
 0.1374909065972E+01
 0.1371391884570E+01
 0.1364194803289E+01
 0.1353554501470E+01
 0.1339699175106E+01
 0.1322855555723E+01
 0.1303262621277E+01
 0.1281189907753E+01
 0.1256960843555E+01
 0.1230980770144E+01
 0.1203768047157E+01
 0.1175989470684E+01
 0.1148501032915E+01
 0.1122399685119E+01
 0.1099080447480E+01
 0.1080294166150E+01
 0.1068218857398E+01
 0.1065542957619E+01
 0.1075537142575E+01
 0.1102062933351E+01
 0.1149439134351E+01
 0.1222086618854E+01
 0.1323929501160E+01
 0.1457629496494E+01
 0.1623763510442E+01
 0.1820086176184E+01
 0.2041095094130E+01
 0.2278101380403E+01
 0.2519935702985E+01
 0.2754135364786E+01
 0.1150084433713E+01
 0.1185255377255E+01
 0.1220077787365E+01
 0.1253337261136E+01
 0.1283902845961E+01
 0.1310864029451E+01
 0.1333601330858E+01
 0.1351787685125E+01
 0.1365340817377E+01
 0.1374354149187E+01
 0.1379028370078E+01
 0.1379616005528E+01
 0.1376383038453E+01
 0.1369586582954E+01
 0.1359465607237E+01
 0.1346241536096E+01
 0.1330126157585E+01
 0.1311335771572E+01
 0.1290109615256E+01
 0.1266733098733E+01
 0.1241565658016E+01
 0.1215071768900E+01
 0.1187856312151E+01
 0.1160705538941E+01
 0.1134640150768E+01
 0.1110973229070E+01
 0.1091367789076E+01
 0.1077910716566E+01
 0.1073205638178E+01
 0.1080466331831E+01
 0.1103563043639E+01
 0.1146940502145E+01
 0.1215311765901E+01
 0.1313075059373E+01
 0.1443500666742E+01
 0.1607787688716E+01
 0.1804151118746E+01
 0.2027205238790E+01
 0.2267921141942E+01
 0.2514374515947E+01
 0.2753127784318E+01
 0.1151144013938E+01
 0.1187133369817E+01
 0.1222761396818E+01
 0.1256734068379E+01
 0.1287858119076E+01
 0.1315197976495E+01
 0.1338149397817E+01
 0.1356430656317E+01
 0.1370019457916E+01
 0.1379069890710E+01
 0.1383834760312E+01
 0.1384605816923E+01
 0.1381674568109E+01
 0.1375311030847E+01
 0.1365756131532E+01
 0.1353223812989E+01
 0.1337909941459E+01
 0.1320006883726E+01
 0.1299721965988E+01
 0.1277300495533E+01
 0.1253053326522E+01
 0.1227387675314E+01
 0.1200842317259E+01
 0.1174128624457E+01
 0.1148184884647E+01
 0.1124234840056E+01
 0.1103844494030E+01
 0.1088997898986E+01
 0.1082198901489E+01
 0.1086585915650E+01
 0.1106017670443E+01
 0.1145049019929E+01
 0.1208686530631E+01
 0.1301837214892E+01
 0.1428458160883E+01
 0.1590485135780E+01
 0.1786713603206E+01
 0.2011950630951E+01
 0.2256808964604E+01
 0.2508490674822E+01
 0.2752447120879E+01
 0.1152315959939E+01
 0.1189205339911E+01
 0.1225717624984E+01
 0.1260463707015E+01
 0.1292178232278E+01
 0.1319899718121E+01
 0.1343045855493E+01
 0.1361390653910E+01
 0.1374982181463E+01
 0.1384043342834E+01
 0.1388884341161E+01
 0.1389838930545E+01
 0.1387225167168E+01
 0.1381325961025E+01
 0.1372383673411E+01
 0.1360604020434E+01
 0.1346166082789E+01
 0.1329237277895E+01
 0.1309991741771E+01
 0.1288632992564E+01
 0.1265421065695E+01
 0.1240703007209E+01
 0.1214947773590E+01
 0.1188787185607E+01
 0.1163071366334E+01
 0.1138927611397E+01
 0.1117815788000E+01
 0.1101605027374E+01
 0.1092683242089E+01
 0.1094092418143E+01
 0.1109654608194E+01
 0.1144011033427E+01
 0.1202452974164E+01
 0.1290422768041E+01
 0.1412643157700E+01
 0.1571915747065E+01
 0.1767764440775E+01
 0.1995295867040E+01
 0.2244757531571E+01
 0.2502331469253E+01
 0.2752195542856E+01
 0.1153609384054E+01
 0.1191485038975E+01
 0.1228963863030E+01
 0.1264543230739E+01
 0.1296874795591E+01
 0.1324971356083E+01
 0.1348281479916E+01
 0.1366647522991E+01
 0.1380199723252E+01
 0.1389238465447E+01
 0.1394136483258E+01
 0.1395271847508E+01
 0.1392989674995E+01
 0.1387585359434E+01
 0.1379301952190E+01
 0.1368336163317E+01
 0.1354849557769E+01
 0.1338983858367E+01
 0.1320879106206E+01
 0.1300695789446E+01
 0.1278641379501E+01
 0.1255000364966E+01
 0.1230168718768E+01
 0.1204694596639E+01
 0.1179334736568E+01
 0.1155113314593E+01
 0.1133375156263E+01
 0.1115862178944E+01
 0.1104829221143E+01
 0.1103198366825E+01
 0.1114724938005E+01
 0.1144104201208E+01
 0.1196891313602E+01
 0.1279078948731E+01
 0.1396231641390E+01
 0.1552160143155E+01
 0.1747297089551E+01
 0.1977196555352E+01
 0.2231756156698E+01
 0.2495952970836E+01
 0.2752477480134E+01
 0.1155035657720E+01
 0.1193989503424E+01
 0.1232521418949E+01
 0.1268993197971E+01
 0.1301961446363E+01
 0.1330415007189E+01
 0.1353845164015E+01
 0.1372177856847E+01
 0.1385638822772E+01
 0.1394614978669E+01
 0.1399546369587E+01
 0.1400857043891E+01
 0.1398919050429E+01
 0.1394039387290E+01
 0.1386460803079E+01
 0.1376370191055E+01
 0.1363911026253E+01
 0.1349198898173E+01
 0.1332339266800E+01
 0.1313448844563E+01
 0.1292681338767E+01
 0.1270256877092E+01
 0.1246495907059E+01
 0.1221859463387E+01
 0.1197006340929E+01
 0.1172851524459E+01
 0.1150616311919E+01
 0.1131903142877E+01
 0.1118815926255E+01
 0.1114131259631E+01
 0.1121502986981E+01
 0.1145639166087E+01
 0.1192324089991E+01
 0.1268100262872E+01
 0.1379442740528E+01
 0.1531326930141E+01
 0.1725310361681E+01
 0.1957595596018E+01
 0.2217787548846E+01
 0.2489426381587E+01
 0.2753394423071E+01
 0.1156608936703E+01
 0.1196739805823E+01
 0.1236416344606E+01
 0.1273838277019E+01
 0.1307454016332E+01
 0.1336232531455E+01
 0.1359723374744E+01
 0.1377954391736E+01
 0.1391261709260E+01
 0.1400128007726E+01
 0.1405064801383E+01
 0.1406542902970E+01
 0.1404960383528E+01
 0.1400634426264E+01
 0.1393806214877E+01
 0.1384651992068E+01
 0.1373296751338E+01
 0.1359829855218E+01
 0.1344322161835E+01
 0.1326846409024E+01
 0.1307501939587E+01
 0.1286443359984E+01
 0.1263913747067E+01
 0.1240284318880E+01
 0.1216112175005E+01
 0.1192197829468E+01
 0.1169631226576E+01
 0.1149863384278E+01
 0.1134829062258E+01
 0.1127132096398E+01
 0.1130285818518E+01
 0.1148960835814E+01
 0.1189120306255E+01
 0.1257836107231E+01
 0.1362548722711E+01
 0.1509562359680E+01
 0.1701813539758E+01
 0.1936418248409E+01
 0.2202819531732E+01
 0.2482848881580E+01
 0.2755034784705E+01
 0.1158346815386E+01
 0.1199761989627E+01
 0.1240680440064E+01
 0.1279107928426E+01
 0.1313370637003E+01
 0.1342425102333E+01
 0.1365899432175E+01
 0.1383945261695E+01
 0.1397025506798E+01
 0.1405727700678E+01
 0.1410638012746E+01
 0.1412273675287E+01
 0.1411056942579E+01
 0.1407313159597E+01
 0.1401280400620E+01
 0.1393123415980E+01
 0.1382948539408E+01
 0.1370819199475E+01
 0.1356772146602E+01
 0.1340836546057E+01
 0.1323057430827E+01
 0.1303523426999E+01
 0.1282399163056E+01
 0.1259964207529E+01
 0.1236671169958E+01
 0.1213201818249E+01
 0.1190507856265E+01
 0.1169877609344E+01
 0.1153058544747E+01
 0.1142453323468E+01
 0.1141392074683E+01
 0.1154449065046E+01
 0.1187699309017E+01
 0.1248699060560E+01
 0.1345886996306E+01
 0.1487062523636E+01
 0.1676836084771E+01
 0.1913567908584E+01
 0.2186785964673E+01
 0.2476362252040E+01
 0.2757445390790E+01
 0.1160271153451E+01
 0.1203088241277E+01
 0.1245352480280E+01
 0.1284837165743E+01
 0.1319731740869E+01
 0.1348992562499E+01
 0.1372352567421E+01
 0.1390113094761E+01
 0.1402881560757E+01
 0.1411358831643E+01
 0.1416207509833E+01
 0.1417989481722E+01
 0.1417148269897E+01
 0.1414014701551E+01
 0.1408821913453E+01
 0.1401722336557E+01
 0.1392803715109E+01
 0.1382104267436E+01
 0.1369627697125E+01
 0.1355360656181E+01
 0.1339294633813E+01
 0.1321452573292E+01
 0.1301920410159E+01
 0.1280885191384E+01
 0.1258693353075E+01
 0.1235904873394E+01
 0.1213327582615E+01
 0.1192076929754E+01
 0.1173695560733E+01
 0.1160356110885E+01
 0.1155160040036E+01
 0.1162518518416E+01
 0.1188534167127E+01
 0.1241173495516E+01
 0.1329874544956E+01
 0.1464088356482E+01
 0.1650441018653E+01
 0.1888935174409E+01
 0.2169537891856E+01
 0.2470194244495E+01
 0.2760557120974E+01
 0.1162409130553E+01
 0.1206758359702E+01
 0.1250479723923E+01
 0.1291067379562E+01
 0.1326559892648E+01
 0.1355932486823E+01
 0.1379056706153E+01
 0.1396413932274E+01
 0.1408774692617E+01
 0.1416960408232E+01
 0.1421709955534E+01
 0.1423626378797E+01
 0.1423170343659E+01
 0.1420674791648E+01
 0.1416365824916E+01
 0.1410382774715E+01
 0.1402795153524E+01
 0.1393617169528E+01
 0.1382821160672E+01
 0.1370353041251E+01
 0.1356152291655E+01
 0.1340177279114E+01
 0.1322435892029E+01
 0.1303022832560E+01
 0.1282177940811E+01
 0.1260337828386E+01
 0.1238162413870E+01
 0.1216585644889E+01
 0.1196929069685E+01
 0.1181106873966E+01
 0.1171944753195E+01
 0.1173617463177E+01
 0.1192154046981E+01
 0.1235824414471E+01
 0.1315023422999E+01
 0.1440988371749E+01
 0.1622730468098E+01
 0.1862442932239E+01
 0.2150766210736E+01
 0.2464691734353E+01
 0.2763922111725E+01
 0.1164795047713E+01
 0.1210822314007E+01
 0.1256121044439E+01
 0.1297849231598E+01
 0.1333882094027E+01
 0.1363242119271E+01
 0.1385982507004E+01
 0.1402799707961E+01
 0.1414646246110E+01
 0.1422469297000E+01
 0.1427081397916E+01
 0.1429121297141E+01
 0.1429061435405E+01
 0.1427232872766E+01
 0.1423852400146E+01
 0.1419045605451E+01
 0.1412864497503E+01
 0.1405301027780E+01
 0.1396298541027E+01
 0.1385764762216E+01
 0.1373589491925E+01
 0.1359668414820E+01
 0.1343932838730E+01
 0.1326386253394E+01
 0.1307162653081E+01
 0.1286575109682E+01
 0.1265133150456E+01
 0.1243582141985E+01
 0.1223007536154E+01
 0.1205037182109E+01
 0.1192172581612E+01
 0.1188272722112E+01
 0.1199175178190E+01
 0.1233310588283E+01
 0.1301934571918E+01
 0.1418163651994E+01
 0.1593808737024E+01
 0.1833883580482E+01
 0.2130387850140E+01
 0.2458568213865E+01
 0.2773862254101E+01
 0.1167470136950E+01
 0.1215341040924E+01
 0.1262346102256E+01
 0.1305239126664E+01
 0.1341723201275E+01
 0.1370909712291E+01
 0.1393087889271E+01
 0.1409208836773E+01
 0.1420425019320E+01
 0.1427811329159E+01
 0.1432248113069E+01
 0.1434402034751E+01
 0.1434750565013E+01
 0.1433618230589E+01
 0.1431210058789E+01
 0.1427637395096E+01
 0.1422935854354E+01
 0.1417077464584E+01
 0.1409979697089E+01
 0.1401515500679E+01
 0.1391528241213E+01
 0.1379853743935E+01
 0.1366349196154E+01
 0.1350929204648E+01
 0.1333624205617E+01
 0.1314625499097E+01
 0.1294292064206E+01
 0.1273176224374E+01
 0.1252115107532E+01
 0.1232424925404E+01
 0.1216235933523E+01
 0.1207009290904E+01
 0.1210259456620E+01
 0.1234398104951E+01
 0.1291376494779E+01
 0.1396212817668E+01
 0.1563931428821E+01
 0.1803178612845E+01
 0.2108082743558E+01
 0.2452036197841E+01
 0.2789267658795E+01
 0.1170487710574E+01
 0.1220391040161E+01
 0.1269239985215E+01
 0.1313301572878E+01
 0.1350105903827E+01
 0.1378913199932E+01
 0.1400316677713E+01
 0.1415565510486E+01
 0.1426027295160E+01
 0.1432901853788E+01
 0.1437127420444E+01
 0.1439388129082E+01
 0.1440158291044E+01
 0.1439750609398E+01
 0.1438355744714E+01
 0.1436070455432E+01
 0.1432915453817E+01
 0.1428845767216E+01
 0.1423756901281E+01
 0.1417491390399E+01
 0.1409850447356E+01
 0.1400613930785E+01
 0.1389568520546E+01
 0.1376543684956E+01
 0.1361470464281E+01
 0.1344422616625E+01
 0.1325611520003E+01
 0.1305395758444E+01
 0.1284356363967E+01
 0.1263477642115E+01
 0.1244476382971E+01
 0.1230335769149E+01
 0.1226107132732E+01
 0.1239968834223E+01
 0.1284322665502E+01
 0.1375998397396E+01
 0.1533608489286E+01
 0.1770389152928E+01
 0.2083619360970E+01
 0.2445714761734E+01
 0.2806495873403E+01
 0.1173914435686E+01
 0.1226068203536E+01
 0.1276906935949E+01
 0.1322111467390E+01
 0.1359051672608E+01
 0.1387221385287E+01
 0.1407601320389E+01
 0.1421784322930E+01
 0.1431363142472E+01
 0.1437653402928E+01
 0.1441636619942E+01
 0.1444001260720E+01
 0.1445209021828E+01
 0.1445555058053E+01
 0.1445213071264E+01
 0.1444265151062E+01
 0.1442719046601E+01
 0.1440516341525E+01
 0.1437535314366E+01
 0.1433593440816E+01
 0.1428455123359E+01
 0.1421849176009E+01
 0.1413496403955E+01
 0.1403146093937E+01
 0.1390635710346E+01
 0.1375927970806E+01
 0.1359092560517E+01
 0.1340297352569E+01
 0.1319864170961E+01
 0.1298430893825E+01
 0.1277265080381E+01
 0.1258796781050E+01
 0.1247470837803E+01
 0.1250989215172E+01
 0.1281875907125E+01
 0.1358539516240E+01
 0.1503459333195E+01
 0.1735558401799E+01
 0.2056785961219E+01
 0.2439383599912E+01
 0.2826499013882E+01
 0.1177834880815E+01
 0.1232493381666E+01
 0.1285473943994E+01
 0.1331752768604E+01
 0.1368575152825E+01
 0.1395786773373E+01
 0.1414856320041E+01
 0.1427764976283E+01
 0.1436332111569E+01
 0.1441971813049E+01
 0.1445689024586E+01
 0.1448160776745E+01
 0.1449825656268E+01
 0.1450955315706E+01
 0.1451704052589E+01
 0.1452139537478E+01
 0.1452258968203E+01
 0.1451994686943E+01
 0.1451213346657E+01
 0.1449713788324E+01
 0.1447230108606E+01
 0.1443446102545E+01
 0.1438022359127E+01
 0.1430634111955E+01
 0.1421032710143E+01
 0.1409078670615E+01
 0.1394709048731E+01
 0.1377908166922E+01
 0.1358741015585E+01
 0.1337491881486E+01
 0.1314952699122E+01
 0.1292935078991E+01
 0.1275138054034E+01
 0.1268524376588E+01
 0.1285330238448E+01
 0.1345132403160E+01
 0.1474370884624E+01
 0.1698862683603E+01
 0.2027272263797E+01
 0.2432785691016E+01
 0.2849878156091E+01
 0.1182357247832E+01
 0.1239819865345E+01
 0.1295095562574E+01
 0.1342317145813E+01
 0.1378678408052E+01
 0.1404539388905E+01
 0.1421974056935E+01
 0.1433390376207E+01
 0.1440822864465E+01
 0.1445756627712E+01
 0.1449194660270E+01
 0.1451784456981E+01
 0.1453930324501E+01
 0.1455874498924E+01
 0.1457749731774E+01
 0.1459609923700E+01
 0.1461444613707E+01
 0.1463181737377E+01
 0.1464682798752E+01
 0.1465735568858E+01
 0.1466051627857E+01
 0.1465276985364E+01
 0.1463018710077E+01
 0.1458885208141E+01
 0.1452550732399E+01
 0.1443784754037E+01
 0.1432403988172E+01
 0.1418220750633E+01
 0.1401051723427E+01
 0.1380829322348E+01
 0.1357855944089E+01
 0.1333274985171E+01
 0.1309913750248E+01
 0.1293726472160E+01
 0.1296180059852E+01
 0.1337403570510E+01
 0.1447596176687E+01
 0.1660674862634E+01
 0.1994682505674E+01
 0.2425560526825E+01
 0.2877255788245E+01
 0.1187621416882E+01
 0.1248243570284E+01
 0.1305959423733E+01
 0.1353900589621E+01
 0.1389342336925E+01
 0.1413378824909E+01
 0.1428820159218E+01
 0.1438524986780E+01
 0.1444713231188E+01
 0.1448901859699E+01
 0.1452061219100E+01
 0.1454789451104E+01
 0.1457445247444E+01
 0.1460235881071E+01
 0.1463270893818E+01
 0.1466591526394E+01
 0.1470183018912E+01
 0.1473974322704E+01
 0.1477829125215E+01
 0.1481532896389E+01
 0.1484783925301E+01
 0.1487199030447E+01
 0.1488339530290E+01
 0.1487755225275E+01
 0.1485053694793E+01
 0.1479926700405E+01
 0.1472086045851E+01
 0.1461188003563E+01
 0.1446816021838E+01
 0.1428562519155E+01
 0.1406241975407E+01
 0.1380301623736E+01
 0.1352595980190E+01
 0.1327813140944E+01
 0.1316118492806E+01
 0.1337362157197E+01
 0.1424877620698E+01
 0.1621681166251E+01
 0.1958567883780E+01
 0.2417226965873E+01
 0.2909355541306E+01
 0.1193810483550E+01
 0.1258017035323E+01
 0.1318292165070E+01
 0.1366596512555E+01
 0.1400514125470E+01
 0.1422164311663E+01
 0.1435228717782E+01
 0.1443013763397E+01
 0.1447870873786E+01
 0.1451297189742E+01
 0.1454195292648E+01
 0.1457093391993E+01
 0.1460293712966E+01
 0.1463963760144E+01
 0.1468188861377E+01
 0.1472999217935E+01
 0.1478379558102E+01
 0.1484265771509E+01
 0.1490531850449E+01
 0.1496970977128E+01
 0.1503278993537E+01
 0.1509053709020E+01
 0.1513819628719E+01
 0.1517077053264E+01
 0.1518378484014E+01
 0.1517353222148E+01
 0.1513626439771E+01
 0.1506718506244E+01
 0.1496001291289E+01
 0.1480750052400E+01
 0.1460311141127E+01
 0.1434435897272E+01
 0.1403943143310E+01
 0.1372032807429E+01
 0.1347019479962E+01
 0.1347442751027E+01
 0.1408598717817E+01
 0.1583070042753E+01
 0.1918494721690E+01
 0.2407138618091E+01
 0.2947049589311E+01
 0.1201167693443E+01
 0.1269468851384E+01
 0.1332364929462E+01
 0.1380482936663E+01
 0.1412089281605E+01
 0.1430702828494E+01
 0.1440997913624E+01
 0.1446682091288E+01
 0.1450154749476E+01
 0.1452829665363E+01
 0.1455503899019E+01
 0.1458615681520E+01
 0.1462401159526E+01
 0.1466984405414E+01
 0.1472426365341E+01
 0.1478748364558E+01
 0.1485938762509E+01
 0.1493946671180E+01
 0.1502665164519E+01
 0.1511906388430E+01
 0.1521376410544E+01
 0.1530666133974E+01
 0.1539273551871E+01
 0.1546659364063E+01
 0.1552333455993E+01
 0.1555879401161E+01
 0.1556856330708E+01
 0.1554672451018E+01
 0.1548515870373E+01
 0.1537378636339E+01
 0.1520178694957E+01
 0.1496005666553E+01
 0.1464632017555E+01
 0.1427612878572E+01
 0.1390895858787E+01
 0.1370526919399E+01
 0.1401958990380E+01
 0.1546820456076E+01
 0.1874172171039E+01
 0.2394414946020E+01
 0.2991413728359E+01
 0.1210021953265E+01
 0.1283030848717E+01
 0.1348496446377E+01
 0.1395599880769E+01
 0.1423886570955E+01
 0.1438735803642E+01
 0.1445887012101E+01
 0.1449337249343E+01
 0.1451417545685E+01
 0.1453385939396E+01
 0.1455896302603E+01
 0.1459278935767E+01
 0.1463696352616E+01
 0.1469227069692E+01
 0.1475908479479E+01
 0.1483755747982E+01
 0.1492765261617E+01
 0.1502905803464E+01
 0.1514098736108E+01
 0.1526187567076E+01
 0.1538903310725E+01
 0.1551844465304E+01
 0.1564494555069E+01
 0.1576285359288E+01
 0.1586697108390E+01
 0.1595285236017E+01
 0.1601564872222E+01
 0.1604858430235E+01
 0.1604203329227E+01
 0.1598352819909E+01
 0.1585856527845E+01
 0.1565214356686E+01
 0.1535206840051E+01
 0.1495686926172E+01
 0.1449822529273E+01
 0.1409926123771E+01
 0.1409154676556E+01
 0.1516122441514E+01
 0.1825698950713E+01
 0.2377853199627E+01
 0.3043806455061E+01
 0.1220827396907E+01
 0.1299276312706E+01
 0.1367049298781E+01
 0.1411910765971E+01
 0.1435614315079E+01
 0.1445925958739E+01
 0.1449616150736E+01
 0.1450771934726E+01
 0.1451509198635E+01
 0.1452855053643E+01
 0.1455286106931E+01
 0.1459010566221E+01
 0.1464112634032E+01
 0.1470625051312E+01
 0.1478563606738E+01
 0.1487940562411E+01
 0.1498764848581E+01
 0.1511031277303E+01
 0.1524698794976E+01
 0.1539655580028E+01
 0.1555674545897E+01
 0.1572379344581E+01
 0.1589253486500E+01
 0.1605711462613E+01
 0.1621216910892E+01
 0.1635314685808E+01
 0.1647498111955E+01
 0.1657031377725E+01
 0.1662838172683E+01
 0.1663486340767E+01
 0.1657236296305E+01
 0.1642109100111E+01
 0.1616021700529E+01
 0.1577198963245E+01
 0.1525810467590E+01
 0.1469299322531E+01
 0.1435530290557E+01
 0.1495960072279E+01
 0.1774040834157E+01
 0.2355834328759E+01
 0.3105989902630E+01
 0.1234226803045E+01
 0.1318973555893E+01
 0.1388409983826E+01
 0.1429238307535E+01
 0.1446827690811E+01
 0.1451847603251E+01
 0.1451870763562E+01
 0.1450770237478E+01
 0.1450281505006E+01
 0.1451131732784E+01
 0.1453593577230E+01
 0.1457744460300E+01
 0.1463589216354E+01
 0.1471116783842E+01
 0.1480324498206E+01
 0.1491225469813E+01
 0.1503845658470E+01
 0.1518211868144E+01
 0.1534329534634E+01
 0.1552145267206E+01
 0.1571493111210E+01
 0.1592043348023E+01
 0.1613297471649E+01
 0.1634665805944E+01
 0.1655608205463E+01
 0.1675675254363E+01
 0.1694358913226E+01
 0.1710891916699E+01
 0.1724123350518E+01
 0.1732495889723E+01
 0.1734075504937E+01
 0.1726551204067E+01
 0.1707180851452E+01
 0.1672788097754E+01
 0.1620617217770E+01
 0.1552461971223E+01
 0.1487641941492E+01
 0.1493859080179E+01
 0.1721937373426E+01
 0.2326270432780E+01
 0.3180324590195E+01
 0.1251157129126E+01
 0.1343159679227E+01
 0.1412932966453E+01
 0.1447161086703E+01
 0.1456880339202E+01
 0.1455986317577E+01
 0.1452312475581E+01
 0.1449116079901E+01
 0.1447593732245E+01
 0.1448120111383E+01
 0.1450748122075E+01
 0.1455422713609E+01
 0.1462072489591E+01
 0.1470646928481E+01
 0.1481129283482E+01
 0.1493537692830E+01
 0.1507919440695E+01
 0.1524338564102E+01
 0.1542854892472E+01
 0.1563486888699E+01
 0.1586150975980E+01
 0.1610590480429E+01
 0.1636348250745E+01
 0.1662846284781E+01
 0.1689553041873E+01
 0.1716038175364E+01
 0.1741808123358E+01
 0.1766087405557E+01
 0.1787689910375E+01
 0.1804997950233E+01
 0.1815988243855E+01
 0.1818192312797E+01
 0.1808483458912E+01
 0.1782665322090E+01
 0.1735490357000E+01
 0.1663020664086E+01
 0.1573129326785E+01
 0.1520730294832E+01
 0.1675567537564E+01
 0.2286742590653E+01
 0.3270106375270E+01
 0.1273032909150E+01
 0.1373236739910E+01
 0.1440807093616E+01
 0.1464853597217E+01
 0.1464882624978E+01
 0.1457756917747E+01
 0.1450597142267E+01
 0.1445603622145E+01
 0.1443319088147E+01
 0.1443737754642E+01
 0.1446690836539E+01
 0.1451997358144E+01
 0.1459517301503E+01
 0.1469167441045E+01
 0.1480922487834E+01
 0.1494810118962E+01
 0.1510902894004E+01
 0.1529306295267E+01
 0.1550140749595E+01
 0.1573508447896E+01
 0.1599430549761E+01
 0.1627755780701E+01
 0.1658099947674E+01
 0.1689917805300E+01
 0.1722698700783E+01
 0.1756039243543E+01
 0.1789467256047E+01
 0.1822214978004E+01
 0.1853099003106E+01
 0.1880509039823E+01
 0.1902442052720E+01
 0.1916460128827E+01
 0.1919379682154E+01
 0.1906501861323E+01
 0.1870871247234E+01
 0.1803760849216E+01
 0.1700192491919E+01
 0.1591617621049E+01
 0.1647441176383E+01
 0.2235255770416E+01
 0.3380211174535E+01
 0.1302081665489E+01
 0.1411077649167E+01
 0.1471756826219E+01
 0.1480857879419E+01
 0.1469697991918E+01
 0.1456548911318E+01
 0.1446397642473E+01
 0.1440049016145E+01
 0.1437351888496E+01
 0.1437919727127E+01
 0.1441377004304E+01
 0.1447432022464E+01
 0.1455888169903E+01
 0.1466638584706E+01
 0.1479656009677E+01
 0.1494982386107E+01
 0.1512719021382E+01
 0.1533015789345E+01
 0.1556057550277E+01
 0.1582038896373E+01
 0.1611107167671E+01
 0.1643255228922E+01
 0.1678215950684E+01
 0.1715508099044E+01
 0.1754655491388E+01
 0.1795280337197E+01
 0.1836923038815E+01
 0.1878826917497E+01
 0.1919846312395E+01
 0.1958449219975E+01
 0.1992761497697E+01
 0.2020558072384E+01
 0.2038945164079E+01
 0.2043346290080E+01
 0.2026134269711E+01
 0.1975787702128E+01
 0.1876275021288E+01
 0.1725945212131E+01
 0.1660936212630E+01
 0.2172781750579E+01
 0.3518496352621E+01
 0.1341996614725E+01
 0.1459068661999E+01
 0.1504395839302E+01
 0.1492816759492E+01
 0.1470041168401E+01
 0.1451797426282E+01
 0.1439425451058E+01
 0.1432304020694E+01
 0.1429614828628E+01
 0.1430622424266E+01
 0.1434778469479E+01
 0.1441703440396E+01
 0.1451160388088E+01
 0.1463029857901E+01
 0.1477290031956E+01
 0.1494001918697E+01
 0.1513298459453E+01
 0.1535375465958E+01
 0.1560483258411E+01
 0.1588912428816E+01
 0.1620953243193E+01
 0.1656786439617E+01
 0.1696324484124E+01
 0.1739201093066E+01
 0.1784993215849E+01
 0.1833331789085E+01
 0.1883734378934E+01
 0.1935438934199E+01
 0.1987368945711E+01
 0.2038148385053E+01
 0.2086137752451E+01
 0.2129482027802E+01
 0.2165886532205E+01
 0.2191571503291E+01
 0.2199454167184E+01
 0.2177672237237E+01
 0.2105398181455E+01
 0.1946205157011E+01
 0.1756284880452E+01
 0.2110689996859E+01
 0.3699339014022E+01
 0.1399310984473E+01
 0.1519778819679E+01
 0.1534873052378E+01
 0.1497367027786E+01
 0.1464763534813E+01
 0.1443039502785E+01
 0.1429451040961E+01
 0.1422272412148E+01
 0.1420064681810E+01
 0.1421827287897E+01
 0.1426885653610E+01
 0.1434802756417E+01
 0.1445320980359E+01
 0.1458320808816E+01
 0.1473793842177E+01
 0.1491824881077E+01
 0.1512580735573E+01
 0.1536303263604E+01
 0.1563306416734E+01
 0.1593973919772E+01
 0.1628745098186E+01
 0.1668031247477E+01
 0.1712012280868E+01
 0.1760526025711E+01
 0.1813235345144E+01
 0.1869735956586E+01
 0.1929442480914E+01
 0.1991542074297E+01
 0.2055055066625E+01
 0.2118853659390E+01
 0.2181643213688E+01
 0.2242050752303E+01
 0.2298598344602E+01
 0.2348859540889E+01
 0.2387766537162E+01
 0.2405253616682E+01
 0.2384188544302E+01
 0.2271927612841E+01
 0.1996521340377E+01
 0.2090610333731E+01
 0.3954021175009E+01
 0.1486615899602E+01
 0.1593953052794E+01
 0.1554285877319E+01
 0.1490926035655E+01
 0.1453251451014E+01
 0.1429879938551E+01
 0.1416354103278E+01
 0.1409917665229E+01
 0.1408698087018E+01
 0.1411543827236E+01
 0.1417709079443E+01
 0.1426736585237E+01
 0.1438369452396E+01
 0.1452501711954E+01
 0.1469146532711E+01
 0.1488417014139E+01
 0.1510515395980E+01
 0.1535728322986E+01
 0.1564428934710E+01
 0.1597085029060E+01
 0.1634273859401E+01
 0.1676662796433E+01
 0.1724815597050E+01
 0.1778938867047E+01
 0.1838849587548E+01
 0.1904012919810E+01
 0.1973585190334E+01
 0.2046619031259E+01
 0.2122257532257E+01
 0.2199735753605E+01
 0.2278245993555E+01
 0.2356952610466E+01
 0.2435251991209E+01
 0.2512355793910E+01
 0.2586531940752E+01
 0.2652538622567E+01
 0.2699606280733E+01
 0.2702460221894E+01
 0.2467960310261E+01
 0.2230481893166E+01
 0.4367680060613E+01
 0.1631342872464E+01
 0.1670660422779E+01
 0.1545862451844E+01
 0.1473058954105E+01
 0.1434956049420E+01
 0.1412122273448E+01
 0.1400151864661E+01
 0.1395263832860E+01
 0.1395558860546E+01
 0.1399810495212E+01
 0.1407280770346E+01
 0.1417527613759E+01
 0.1430318355881E+01
 0.1445574075009E+01
 0.1463337567338E+01
 0.1483754332935E+01
 0.1507062948264E+01
 0.1533592454223E+01
 0.1563768425432E+01
 0.1598129331745E+01
 0.1637361309111E+01
 0.1682363639639E+01
 0.1734207763374E+01
 0.1793788540750E+01
 0.1861233623723E+01
 0.1935670356005E+01
 0.2015716789119E+01
 0.2100165541996E+01
 0.2188312519924E+01
 0.2279897226108E+01
 0.2374804282119E+01
 0.2472821354077E+01
 0.2573895768899E+01
 0.2678967626383E+01
 0.2789888918605E+01
 0.2910890499124E+01
 0.3037074552556E+01
 0.3187400245070E+01
 0.3245629649166E+01
 0.2794599937758E+01
 0.5238738466173E+01
 0.1906051123729E+01
 0.1673465977817E+01
 0.1504582091511E+01
 0.1445668842328E+01
 0.1408967611591E+01
 0.1390118754773E+01
 0.1380903324376E+01
 0.1378432762258E+01
 0.1380731165209E+01
 0.1386697876655E+01
 0.1395654111582E+01
 0.1407215065106E+01
 0.1421193546794E+01
 0.1437550983836E+01
 0.1456367197303E+01
 0.1477823655440E+01
 0.1502195609369E+01
 0.1529851200127E+01
 0.1561260267437E+01
 0.1597015041263E+01
 0.1637874728074E+01
 0.1684872966376E+01
 0.1739583971958E+01
 0.1804247608900E+01
 0.1879700056289E+01
 0.1964220157379E+01
 0.2055435081496E+01
 0.2151717365762E+01
 0.2252563890991E+01
 0.2358387764200E+01
 0.2470040812361E+01
 0.2588237915540E+01
 0.2712842611336E+01
 0.2845128824367E+01
 0.2992605593516E+01
 0.3165554247644E+01
 0.3388131157405E+01
 0.3651437680659E+01
 0.4205726700926E+01
 0.4183322435682E+01
 0.8026391606849E+01
 0.3522500408170E+00
 0.4828961106403E+00
 0.6113408286653E+00
 0.7324024789115E+00
 0.8435925347946E+00
 0.9435768330894E+00
 0.1031783800724E+01
 0.1108374455250E+01
 0.1174005908658E+01
 0.1229549869421E+01
 0.1275942926886E+01
 0.1314114889363E+01
 0.1344907692432E+01
 0.1368998793687E+01
 0.1386889482899E+01
 0.1398924062192E+01
 0.1405035875362E+01
 0.1405250840737E+01
 0.1400873360414E+01
 0.1394324141691E+01
 0.3448939412179E+00
 0.4790329984731E+00
 0.6099536420312E+00
 0.7334791864013E+00
 0.8472274804676E+00
 0.9500107548681E+00
 0.1041354637221E+01
 0.1121340503987E+01
 0.1190495642942E+01
 0.1249599473125E+01
 0.1299528458549E+01
 0.1341180845242E+01
 0.1375398597038E+01
 0.1402902135895E+01
 0.1424275827399E+01
 0.1439906315842E+01
 0.1449701214782E+01
 0.1453696162472E+01
 0.1451394026186E+01
 0.1441113696221E+01
 0.3376699097482E+00
 0.4758687649747E+00
 0.6095692086136E+00
 0.7355517223525E+00
 0.8517962745146E+00
 0.9572448979189E+00
 0.1051486316802E+01
 0.1134591777743E+01
 0.1207017955340E+01
 0.1269468782001E+01
 0.1322769437098E+01
 0.1367788461892E+01
 0.1405362451871E+01
 0.1436230074373E+01
 0.1460985982823E+01
 0.1479975263456E+01
 0.1493110889991E+01
 0.1500050253583E+01
 0.1499867055386E+01
 0.1492110970832E+01
 0.3308136980967E+00
 0.4731796679976E+00
 0.6099131652018E+00
 0.7384206308313E+00
 0.8570983207225E+00
 0.9650730054927E+00
 0.1062012827561E+01
 0.1148004704164E+01
 0.1223471504254E+01
 0.1289065724281E+01
 0.1345569472021E+01
 0.1393821783568E+01
 0.1434643284345E+01
 0.1468762396856E+01
 0.1496745532500E+01
 0.1518890812942E+01
 0.1535060798559E+01
 0.1544841319762E+01
 0.1547729609610E+01
 0.1543934378097E+01
 0.3243601141026E+00
 0.4709386402881E+00
 0.6108105350172E+00
 0.7418900335683E+00
 0.8629454736324E+00
 0.9733168379819E+00
 0.1072776396619E+01
 0.1161447951900E+01
 0.1239744165027E+01
 0.1308285060610E+01
 0.1367818215685E+01
 0.1419152279901E+01
 0.1463081796483E+01
 0.1500307486093E+01
 0.1531358272797E+01
 0.1556491018126E+01
 0.1575592554513E+01
 0.1588403893180E+01
 0.1594802940443E+01
 0.1595380596921E+01
 0.3183214837102E+00
 0.4690967198453E+00
 0.6121416263660E+00
 0.7457941852972E+00
 0.8691657741962E+00
 0.9818124170008E+00
 0.1083627615200E+01
 0.1174789267994E+01
 0.1255717244954E+01
 0.1327013247718E+01
 0.1389397416418E+01
 0.1443647944435E+01
 0.1490527682371E+01
 0.1530704194965E+01
 0.1564673263210E+01
 0.1592683339277E+01
 0.1614707588846E+01
 0.1630672905417E+01
 0.1640742433515E+01
 0.1645725498682E+01
 0.3126993299398E+00
 0.4676059374123E+00
 0.6138028547134E+00
 0.7499933186886E+00
 0.8756053146232E+00
 0.9904081364939E+00
 0.1094424424735E+01
 0.1187898260585E+01
 0.1271269663226E+01
 0.1345132736225E+01
 0.1410186162284E+01
 0.1467179208398E+01
 0.1516842521947E+01
 0.1559812838859E+01
 0.1596566575983E+01
 0.1627372596400E+01
 0.1652307268407E+01
 0.1671464603379E+01
 0.1685204807941E+01
 0.1694460606621E+01
 0.3074916628346E+00
 0.4664190567094E+00
 0.6157025842736E+00
 0.7543645310030E+00
 0.8821264750177E+00
 0.9989642878657E+00
 0.1105032386567E+01
 0.1200648203494E+01
 0.1286281082083E+01
 0.1362525719411E+01
 0.1430064735058E+01
 0.1489621665237E+01
 0.1541898116217E+01
 0.1587506856098E+01
 0.1626918813482E+01
 0.1660438388247E+01
 0.1688241344417E+01
 0.1710556457391E+01
 0.1727875260140E+01
 0.1741186202148E+01
 0.3026953091132E+00
 0.4654915244074E+00
 0.6177582407928E+00
 0.7587982365153E+00
 0.8886051562637E+00
 0.1007352470630E+01
 0.1115325188525E+01
 0.1212917571175E+01
 0.1300634319160E+01
 0.1379076953444E+01
 0.1448917060057E+01
 0.1510856797759E+01
 0.1565573961504E+01
 0.1613665190888E+01
 0.1655605923681E+01
 0.1691741555925E+01
 0.1722334765505E+01
 0.1747717600308E+01
 0.1768463345630E+01
 0.1785564180285E+01
 0.2983070217521E+00
 0.4647821183435E+00
 0.6198952275374E+00
 0.7631959390039E+00
 0.8949290735172E+00
 0.1015454890069E+01
 0.1125185045542E+01
 0.1224591255176E+01
 0.1314217138083E+01
 0.1394675679141E+01
 0.1466632050544E+01
 0.1530771884853E+01
 0.1587754955328E+01
 0.1638168649874E+01
 0.1682499016649E+01
 0.1721132117434E+01
 0.1754402899619E+01
 0.1782719430748E+01
 0.1806699408382E+01
 0.1827299915121E+01
 0.2943239048070E+00
 0.4642532579820E+00
 0.6220462436866E+00
 0.7674689811174E+00
 0.9009966350674E+00
 0.1023163905184E+01
 0.1134503007244E+01
 0.1235561527259E+01
 0.1326923597104E+01
 0.1409216964450E+01
 0.1483104446603E+01
 0.1549259885177E+01
 0.1608330422094E+01
 0.1660899515519E+01
 0.1707466905112E+01
 0.1748456018212E+01
 0.1784259959558E+01
 0.1815340648494E+01
 0.1842332947795E+01
 0.1866132891584E+01
 0.2907435717561E+00
 0.4638710903872E+00
 0.6241508592438E+00
 0.7715377740354E+00
 0.9067162552425E+00
 0.1030381747504E+01
 0.1143179209978E+01
 0.1245728755467E+01
 0.1338655026269E+01
 0.1422602645947E+01
 0.1498235424032E+01
 0.1566219609212E+01
 0.1627194254631E+01
 0.1681742659455E+01
 0.1730379261439E+01
 0.1773560233522E+01
 0.1811724333909E+01
 0.1845370021512E+01
 0.1875130882894E+01
 0.1901826120298E+01
 0.2875641475458E+00
 0.4636054659828E+00
 0.6261552104006E+00
 0.7753313117076E+00
 0.9120059317755E+00
 0.1037020374434E+01
 0.1151123097293E+01
 0.1255001956724E+01
 0.1349320770954E+01
 0.1434742075337E+01
 0.1511933210721E+01
 0.1581556274508E+01
 0.1644245789617E+01
 0.1700587343188E+01
 0.1751109733127E+01
 0.1796296862483E+01
 0.1836622516218E+01
 0.1872608562543E+01
 0.1904875552420E+01
 0.1934159969690E+01
 0.2847842136423E+00
 0.4634298672655E+00
 0.6280117838570E+00
 0.7787868655471E+00
 0.9167930004667E+00
 0.1043001417030E+01
 0.1158253624925E+01
 0.1263299240519E+01
 0.1358838789515E+01
 0.1445552771085E+01
 0.1524113760604E+01
 0.1595182318920E+01
 0.1659391043862E+01
 0.1717329203296E+01
 0.1769538788486E+01
 0.1816526509326E+01
 0.1858792364851E+01
 0.1896871870598E+01
 0.1931365784698E+01
 0.1962931022019E+01
 0.2824027331326E+00
 0.4633213210532E+00
 0.6296792543836E+00
 0.7818497812793E+00
 0.9210139852624E+00
 0.1048256169319E+01
 0.1164499433851E+01
 0.1270548160797E+01
 0.1367136142162E+01
 0.1454961005274E+01
 0.1534701457229E+01
 0.1607018334554E+01
 0.1672544068070E+01
 0.1731872192834E+01
 0.1785556247299E+01
 0.1834121167119E+01
 0.1878086003641E+01
 0.1917992932679E+01
 0.1954420207241E+01
 0.1987954062139E+01
 0.2804189690880E+00
 0.4632603097601E+00
 0.6311223660957E+00
 0.7844733511446E+00
 0.9246145208670E+00
 0.1052725617215E+01
 0.1169799017614E+01
 0.1276686026168E+01
 0.1374149430980E+01
 0.1462902369837E+01
 0.1543629844314E+01
 0.1616994055051E+01
 0.1683628311206E+01
 0.1744130403444E+01
 0.1799063525642E+01
 0.1848966721463E+01
 0.1894372417985E+01
 0.1935824830941E+01
 0.1973880048076E+01
 0.2009065181251E+01
 0.2788324160068E+00
 0.4632306928699E+00
 0.6323118463626E+00
 0.7866187320590E+00
 0.9275493143715E+00
 0.1056360481402E+01
 0.1174100871206E+01
 0.1281660165482E+01
 0.1379825186210E+01
 0.1469322297768E+01
 0.1550842323402E+01
 0.1625049299514E+01
 0.1692577884845E+01
 0.1754029684427E+01
 0.1809975563130E+01
 0.1860965060901E+01
 0.1907539617503E+01
 0.1950242819900E+01
 0.1989611053230E+01
 0.2026124649057E+01
 0.2776427371375E+00
 0.4632196381659E+00
 0.6332243401387E+00
 0.7882548909281E+00
 0.9297821273341E+00
 0.1059121262461E+01
 0.1177363618975E+01
 0.1285428152043E+01
 0.1384120199096E+01
 0.1474176525472E+01
 0.1556292783146E+01
 0.1631134819080E+01
 0.1699338671345E+01
 0.1761509021485E+01
 0.1818222420750E+01
 0.1870035781212E+01
 0.1917496295604E+01
 0.1961145778901E+01
 0.2001504787990E+01
 0.2039019071890E+01
 0.2768497193086E+00
 0.4632175684440E+00
 0.6338423664722E+00
 0.7893585743583E+00
 0.9312857757978E+00
 0.1060978289510E+01
 0.1179556127560E+01
 0.1287957994521E+01
 0.1387001805540E+01
 0.1477431490229E+01
 0.1559946141065E+01
 0.1635213018027E+01
 0.1703869249549E+01
 0.1766521662246E+01
 0.1823750553448E+01
 0.1876117498016E+01
 0.1924173037498E+01
 0.1968457190879E+01
 0.2009479478008E+01
 0.2047662830639E+01
 0.2764532387595E+00
 0.4632181209820E+00
 0.6341542869771E+00
 0.7899142884065E+00
 0.9320421325886E+00
 0.1061911757878E+01
 0.1180657590971E+01
 0.1289228281350E+01
 0.1388448103402E+01
 0.1479064638202E+01
 0.1561778765068E+01
 0.1637258512114E+01
 0.1706141603343E+01
 0.1769035964339E+01
 0.1826523749395E+01
 0.1879168786472E+01
 0.1927523144184E+01
 0.1972125759273E+01
 0.2013480481955E+01
 0.2051998874459E+01
 0.2764532388374E+00
 0.4632181209912E+00
 0.6341542869427E+00
 0.7899142883468E+00
 0.9320421325162E+00
 0.1061911757802E+01
 0.1180657590897E+01
 0.1289228281282E+01
 0.1388448103345E+01
 0.1479064638156E+01
 0.1561778765034E+01
 0.1637258512090E+01
 0.1706141603328E+01
 0.1769035964332E+01
 0.1826523749393E+01
 0.1879168786473E+01
 0.1927523144187E+01
 0.1972125759278E+01
 0.2013480481961E+01
 0.2051998874468E+01
 0.2768497195422E+00
 0.4632175684724E+00
 0.6338423663698E+00
 0.7893585741803E+00
 0.9312857755816E+00
 0.1060978289282E+01
 0.1179556127338E+01
 0.1287957994319E+01
 0.1387001805367E+01
 0.1477431490092E+01
 0.1559946140963E+01
 0.1635213017957E+01
 0.1703869249506E+01
 0.1766521662224E+01
 0.1823750553441E+01
 0.1876117498019E+01
 0.1924173037507E+01
 0.1968457190893E+01
 0.2009479478028E+01
 0.2047662830664E+01
 0.2776427375269E+00
 0.4632196382148E+00
 0.6332243399707E+00
 0.7882548906344E+00
 0.9297821269768E+00
 0.1059121262083E+01
 0.1177363618607E+01
 0.1285428151709E+01
 0.1384120198810E+01
 0.1474176525244E+01
 0.1556292782977E+01
 0.1631134818965E+01
 0.1699338671275E+01
 0.1761509021449E+01
 0.1818222420738E+01
 0.1870035781217E+01
 0.1917496295620E+01
 0.1961145778925E+01
 0.2001504788022E+01
 0.2039019071932E+01
 0.2788324165519E+00
 0.4632306929419E+00
 0.6323118461331E+00
 0.7866187316543E+00
 0.9275493138778E+00
 0.1056360480879E+01
 0.1174100870696E+01
 0.1281660165018E+01
 0.1379825185813E+01
 0.1469322297451E+01
 0.1550842323168E+01
 0.1625049299355E+01
 0.1692577884748E+01
 0.1754029684378E+01
 0.1809975563115E+01
 0.1860965060908E+01
 0.1907539617525E+01
 0.1950242819933E+01
 0.1989611053276E+01
 0.2026124649116E+01
 0.2804189697891E+00
 0.4632603098587E+00
 0.6311223658103E+00
 0.7844733506354E+00
 0.9246145202431E+00
 0.1052725616552E+01
 0.1169799016967E+01
 0.1276686025578E+01
 0.1374149430476E+01
 0.1462902369434E+01
 0.1543629844016E+01
 0.1616994054850E+01
 0.1683628311084E+01
 0.1744130403383E+01
 0.1799063525624E+01
 0.1848966721474E+01
 0.1894372418015E+01
 0.1935824830984E+01
 0.1973880048134E+01
 0.2009065181328E+01
 0.2824027339897E+00
 0.4633213211831E+00
 0.6296792540497E+00
 0.7818497806740E+00
 0.9210139845165E+00
 0.1048256168524E+01
 0.1164499433073E+01
 0.1270548160086E+01
 0.1367136141554E+01
 0.1454961004789E+01
 0.1534701456871E+01
 0.1607018334313E+01
 0.1672544067925E+01
 0.1731872192763E+01
 0.1785556247281E+01
 0.1834121167135E+01
 0.1878086003678E+01
 0.1917992932733E+01
 0.1954420207312E+01
 0.1987954062233E+01
 0.2847842146555E+00
 0.4634298674323E+00
 0.6280117834835E+00
 0.7787868648559E+00
 0.9167929996089E+00
 0.1043001416111E+01
 0.1158253624023E+01
 0.1263299239693E+01
 0.1358838788808E+01
 0.1445552770521E+01
 0.1524113760188E+01
 0.1595182318642E+01
 0.1659391043697E+01
 0.1717329203217E+01
 0.1769538788468E+01
 0.1816526509347E+01
 0.1858792364897E+01
 0.1896871870663E+01
 0.1931365784782E+01
 0.1962931022130E+01
 0.2875641487156E+00
 0.4636054661934E+00
 0.6261552099983E+00
 0.7753313109426E+00
 0.9120059308177E+00
 0.1037020373402E+01
 0.1151123096276E+01
 0.1255001955791E+01
 0.1349320770154E+01
 0.1434742074699E+01
 0.1511933210252E+01
 0.1581556274195E+01
 0.1644245789434E+01
 0.1700587343104E+01
 0.1751109733111E+01
 0.1796296862511E+01
 0.1836622516273E+01
 0.1872608562618E+01
 0.1904875552518E+01
 0.1934159969819E+01
 0.2907435730829E+00
 0.4638710906495E+00
 0.6241508588252E+00
 0.7715377732106E+00
 0.9067162541981E+00
 0.1030381746372E+01
 0.1143179208857E+01
 0.1245728754435E+01
 0.1338655025383E+01
 0.1422602645241E+01
 0.1498235423514E+01
 0.1566219608869E+01
 0.1627194254433E+01
 0.1681742659368E+01
 0.1730379261428E+01
 0.1773560233559E+01
 0.1811724333975E+01
 0.1845370021599E+01
 0.1875130883005E+01
 0.1901826120444E+01
 0.2943239062915E+00
 0.4642532583053E+00
 0.6220462432658E+00
 0.7674689802487E+00
 0.9009966339521E+00
 0.1023163903965E+01
 0.1134503006030E+01
 0.1235561526137E+01
 0.1326923596139E+01
 0.1409216963680E+01
 0.1483104446041E+01
 0.1549259884807E+01
 0.1608330421885E+01
 0.1660899515432E+01
 0.1707466905108E+01
 0.1748456018260E+01
 0.1784259959636E+01
 0.1815340648593E+01
 0.1842332947919E+01
 0.1866132891748E+01
 0.2983070233953E+00
 0.4647821187383E+00
 0.6198952271304E+00
 0.7631959381091E+00
 0.8949290723481E+00
 0.1015454888779E+01
 0.1125185044248E+01
 0.1224591253975E+01
 0.1314217137047E+01
 0.1394675678315E+01
 0.1466632049943E+01
 0.1530771884461E+01
 0.1587754955111E+01
 0.1638168649789E+01
 0.1682499016655E+01
 0.1721132117495E+01
 0.1754402899710E+01
 0.1782719430859E+01
 0.1806699408519E+01
 0.1827299915303E+01
 0.3026953109165E+00
 0.4654915248855E+00
 0.6177582404175E+00
 0.7587982356142E+00
 0.8886051550598E+00
 0.1007352469285E+01
 0.1115325187165E+01
 0.1212917569905E+01
 0.1300634318062E+01
 0.1379076952570E+01
 0.1448917059422E+01
 0.1510856797349E+01
 0.1565573961282E+01
 0.1613665190809E+01
 0.1655605923699E+01
 0.1691741556000E+01
 0.1722334765610E+01
 0.1747717600432E+01
 0.1768463345780E+01
 0.1785564180486E+01
 0.3074916647999E+00
 0.4664190572842E+00
 0.6157025839497E+00
 0.7543645301174E+00
 0.8821264737998E+00
 0.9989642864841E+00
 0.1105032385157E+01
 0.1200648202170E+01
 0.1286281080934E+01
 0.1362525718496E+01
 0.1430064734397E+01
 0.1489621664815E+01
 0.1541898115994E+01
 0.1587506856028E+01
 0.1626918813514E+01
 0.1660438388338E+01
 0.1688241344537E+01
 0.1710556457528E+01
 0.1727875260303E+01
 0.1741186202367E+01
 0.3126993320694E+00
 0.4676059380987E+00
 0.6138028544627E+00
 0.7499933178420E+00
 0.8756053134139E+00
 0.9904081350959E+00
 0.1094424423291E+01
 0.1187898259219E+01
 0.1271269662037E+01
 0.1345132735278E+01
 0.1410186161602E+01
 0.1467179207967E+01
 0.1516842521728E+01
 0.1559812838799E+01
 0.1596566576030E+01
 0.1627372596509E+01
 0.1652307268544E+01
 0.1671464603530E+01
 0.1685204808117E+01
 0.1694460606856E+01
 0.3183214860071E+00
 0.4690967206598E+00
 0.6121416262121E+00
 0.7457941845153E+00
 0.8691657730196E+00
 0.9818124156078E+00
 0.1083627613742E+01
 0.1174789266602E+01
 0.1255717243737E+01
 0.1327013246748E+01
 0.1389397415724E+01
 0.1443647944002E+01
 0.1490527682158E+01
 0.1530704194917E+01
 0.1564673263274E+01
 0.1592683339404E+01
 0.1614707589000E+01
 0.1630672905582E+01
 0.1640742433702E+01
 0.1645725498932E+01
 0.3243601165708E+00
 0.4709386412489E+00
 0.6108105349857E+00
 0.7418900328782E+00
 0.8629454725143E+00
 0.9733168366168E+00
 0.1072776395164E+01
 0.1161447950498E+01
 0.1239744163796E+01
 0.1308285059628E+01
 0.1367818214986E+01
 0.1419152279470E+01
 0.1463081796278E+01
 0.1500307486059E+01
 0.1531358272877E+01
 0.1556491018271E+01
 0.1575592554683E+01
 0.1588403893358E+01
 0.1594802940640E+01
 0.1595380597181E+01
 0.3308137007410E+00
 0.4731796691249E+00
 0.6099131653202E+00
 0.7384206302619E+00
 0.8570983196901E+00
 0.9650730041801E+00
 0.1062012826132E+01
 0.1148004702771E+01
 0.1223471503024E+01
 0.1289065723301E+01
 0.1345569471326E+01
 0.1393821783146E+01
 0.1434643284151E+01
 0.1468762396835E+01
 0.1496745532596E+01
 0.1518890813103E+01
 0.1535060798743E+01
 0.1544841319951E+01
 0.1547729609816E+01
 0.1543934378360E+01
 0.3376699125747E+00
 0.4758687662905E+00
 0.6095692089105E+00
 0.7355517219332E+00
 0.8517962735961E+00
 0.9572448966849E+00
 0.1051486315423E+01
 0.1134591776380E+01
 0.1207017954129E+01
 0.1269468781037E+01
 0.1322769436418E+01
 0.1367788461485E+01
 0.1405362451691E+01
 0.1436230074364E+01
 0.1460985982929E+01
 0.1479975263629E+01
 0.1493110890186E+01
 0.1500050253780E+01
 0.1499867055599E+01
 0.1492110971094E+01
 0.3448939442345E+00
 0.4790330000003E+00
 0.6099536425349E+00
 0.7334791861622E+00
 0.8472274796922E+00
 0.9500107537405E+00
 0.1041354635919E+01
 0.1121340502678E+01
 0.1190495641772E+01
 0.1249599472194E+01
 0.1299528457896E+01
 0.1341180844855E+01
 0.1375398596871E+01
 0.1402902135893E+01
 0.1424275827509E+01
 0.1439906316019E+01
 0.1449701214981E+01
 0.1453696162672E+01
 0.1451394026401E+01
 0.1441113696474E+01
 0.3522500440235E+00
 0.4828961123944E+00
 0.6113408294039E+00
 0.7324024788829E+00
 0.8435925341924E+00
 0.9435768320978E+00
 0.1031783799526E+01
 0.1108374454025E+01
 0.1174005907557E+01
 0.1229549868545E+01
 0.1275942926274E+01
 0.1314114889002E+01
 0.1344907692279E+01
 0.1368998793687E+01
 0.1386889483003E+01
 0.1398924062360E+01
 0.1405035875553E+01
 0.1405250840936E+01
 0.1400873360628E+01
 0.1394324141926E+01
 0.1486035690871E+01
 0.1249248834437E+01
 0.7457012464479E+00
 0.4920228360908E+00
 0.3142185367025E+00
 0.1818847354029E+00
 0.8719103363578E-01
 0.2324120336029E-01
 0.2518599036351E-01
 0.6580875134140E-01
 0.1009974996515E+00
 0.1307341453470E+00
 0.1539587542340E+00
 0.1687792530097E+00
 0.1734102969049E+00
 0.1653672946744E+00
 0.1416681159223E+00
 0.1017936474927E+00
 0.5222713662354E-01
 0.8864187439214E-02
 0.1263258847831E+01
 0.1370562730344E+01
 0.9294220029726E+00
 0.6291463405042E+00
 0.4357972667036E+00
 0.2938375733142E+00
 0.1903331187967E+00
 0.1150698675164E+00
 0.5743073589080E-01
 0.1041298949597E-01
 0.2977593104237E-01
 0.6410157253490E-01
 0.9260465421508E-01
 0.1140532729296E+00
 0.1265366979447E+00
 0.1281832421387E+00
 0.1185141773222E+00
 0.9273236127365E-01
 0.5155568899455E-01
 0.3753505856593E-02
 0.1086736164059E+01
 0.1297286228923E+01
 0.1043587924882E+01
 0.7609537373227E+00
 0.5547738667486E+00
 0.4048593838685E+00
 0.2934791187407E+00
 0.2104724230498E+00
 0.1455329763826E+00
 0.9213891443260E-01
 0.4663129744251E-01
 0.7248310128054E-02
 0.2674027763524E-01
 0.5475392996134E-01
 0.7539333401692E-01
 0.8725677842670E-01
 0.8989094962613E-01
 0.7755198303744E-01
 0.4728584028358E-01
 0.3709745704988E-02
 0.9537500717974E+00
 0.1197644721790E+01
 0.1077871002777E+01
 0.8647584686252E+00
 0.6675373133982E+00
 0.5135261123930E+00
 0.3965518963022E+00
 0.3077565633745E+00
 0.2373356638039E+00
 0.1786102496295E+00
 0.1279944061721E+00
 0.8355783643642E-01
 0.4422302231038E-01
 0.9856213007205E-02
 0.1868297405070E-01
 0.4023169087626E-01
 0.5453199244684E-01
 0.5522367708728E-01
 0.3695893416426E-01
 0.3678777767982E-02
 0.8502756887127E+00
 0.1099617933944E+01
 0.1071114351940E+01
 0.9306984293243E+00
 0.7650020462507E+00
 0.6170495277519E+00
 0.4981975958022E+00
 0.4057509841669E+00
 0.3314259784818E+00
 0.2686276753598E+00
 0.2137368608606E+00
 0.1647895270670E+00
 0.1205150084901E+00
 0.8031517480038E-01
 0.4461465388804E-01
 0.1429572050412E-01
 0.1102522598734E-01
 0.2399983829896E-01
 0.1796753074646E-01
 0.4651816063960E-02
 0.7679554755828E+00
 0.1010766594107E+01
 0.1043530163772E+01
 0.9663712854197E+00
 0.8411896544036E+00
 0.7106661955162E+00
 0.5960101985115E+00
 0.5028673198477E+00
 0.4264632399709E+00
 0.3610003652302E+00
 0.3029734505808E+00
 0.2504252472611E+00
 0.2020070002732E+00
 0.1568253411532E+00
 0.1149227279557E+00
 0.7683873300147E-01
 0.4245553752477E-01
 0.1830780440943E-01
 0.1280796212465E-01
 0.2467778496113E-01
 0.7012731450286E+00
 0.9325151998261E+00
 0.1006150039210E+01
 0.9802474771280E+00
 0.8963876908702E+00
 0.7905225343557E+00
 0.6867872869448E+00
 0.5969567476247E+00
 0.5208524815250E+00
 0.4544209088728E+00
 0.3946394337114E+00
 0.3396838443076E+00
 0.2882199829281E+00
 0.2391887672400E+00
 0.1923504305741E+00
 0.1479866120109E+00
 0.1057608358453E+00
 0.7178783174282E-01
 0.5576526366554E-01
 0.5892736581910E-01
 0.6464570965569E+00
 0.8644299398148E+00
 0.9650123706969E+00
 0.9792225333539E+00
 0.9333971393819E+00
 0.8552918538663E+00
 0.7677375870210E+00
 0.6855798796555E+00
 0.6127038171835E+00
 0.5473741050243E+00
 0.4874807958942E+00
 0.4315442586610E+00
 0.3783672225389E+00
 0.3268446043000E+00
 0.2765475243440E+00
 0.2275526855789E+00
 0.1793664017361E+00
 0.1375589970287E+00
 0.1127025809445E+00
 0.1085115767290E+00
 0.6008183640432E+00
 0.8054990139141E+00
 0.9234664004932E+00
 0.9683932010903E+00
 0.9556760749737E+00
 0.9054627690785E+00
 0.8372940536816E+00
 0.7665926392785E+00
 0.7000416144099E+00
 0.6381747562001E+00
 0.5800574232559E+00
 0.5247682199026E+00
 0.4713916050426E+00
 0.4189012737154E+00
 0.3667739511810E+00
 0.3149392686739E+00
 0.2628045282918E+00
 0.2152530390554E+00
 0.1834349737534E+00
 0.1734407925969E+00
 0.5623774268107E+00
 0.7545856038179E+00
 0.8833493368082E+00
 0.9514000869147E+00
 0.9665136144248E+00
 0.9425156260311E+00
 0.8950621108593E+00
 0.8385514571368E+00
 0.7811233611023E+00
 0.7251276103546E+00
 0.6708139171674E+00
 0.6179428699954E+00
 0.5660064166770E+00
 0.5141783984527E+00
 0.4619375929253E+00
 0.4091268537838E+00
 0.3551076631944E+00
 0.3039738377638E+00
 0.2671409053744E+00
 0.2527784934437E+00
 0.5296391366138E+00
 0.7105904411659E+00
 0.8456202253191E+00
 0.9307968918811E+00
 0.9687383164164E+00
 0.9683317921398E+00
 0.9414973367861E+00
 0.9007748551496E+00
 0.8546631789240E+00
 0.8067231790232E+00
 0.7582077581035E+00
 0.7095627813073E+00
 0.6607565017201E+00
 0.6112606075066E+00
 0.5606464866899E+00
 0.5087289165920E+00
 0.4548650151884E+00
 0.4022912424479E+00
 0.3623504115497E+00
 0.3448477492202E+00
 0.5014512126510E+00
 0.6725073357772E+00
 0.8107139964383E+00
 0.9083469575992E+00
 0.9646585642058E+00
 0.9848424015960E+00
 0.9775682139344E+00
 0.9532227381224E+00
 0.9198975933203E+00
 0.8817786805798E+00
 0.8408464136860E+00
 0.7981394958169E+00
 0.7541041841038E+00
 0.7085691436536E+00
 0.6612742736796E+00
 0.6120603955546E+00
 0.5603068325657E+00
 0.5083481782725E+00
 0.4670898376921E+00
 0.4474384065113E+00
 0.4769116293902E+00
 0.6394369853259E+00
 0.7787470422602E+00
 0.8852419790935E+00
 0.9560958873042E+00
 0.9938417172887E+00
 0.1004491427152E+01
 0.9963167253544E+00
 0.9765419098184E+00
 0.9494948813975E+00
 0.9175897539225E+00
 0.8823110242134E+00
 0.8445297415782E+00
 0.8044500788938E+00
 0.7620384526562E+00
 0.7172135978548E+00
 0.6693932559481E+00
 0.6199773745684E+00
 0.5790365400410E+00
 0.5580002816317E+00
 0.4553058491378E+00
 0.6105846624878E+00
 0.7496407516804E+00
 0.8622593684832E+00
 0.9444489910544E+00
 0.9969007452934E+00
 0.1023548686339E+01
 0.1030766982698E+01
 0.1024693589074E+01
 0.1009444795185E+01
 0.9876020442498E+00
 0.9609287885766E+00
 0.9306311270382E+00
 0.8972725855252E+00
 0.8610890420243E+00
 0.8221364170368E+00
 0.7798960532127E+00
 0.7348106827640E+00
 0.6956699161493E+00
 0.6738178399946E+00
 0.4360628925880E+00
 0.5852521476405E+00
 0.7231981490100E+00
 0.8398751771041E+00
 0.9307624006209E+00
 0.9953378104579E+00
 0.1035970054079E+01
 0.1057429971702E+01
 0.1064721375532E+01
 0.1061520267085E+01
 0.1050358054604E+01
 0.1033112467979E+01
 0.1011212016617E+01
 0.9855322090641E+00
 0.9566073087512E+00
 0.9247112364331E+00
 0.8894599376880E+00
 0.8503624710666E+00
 0.8144092769507E+00
 0.7921693410406E+00
 0.4187236527098E+00
 0.5628282177445E+00
 0.6991529596956E+00
 0.8183458266061E+00
 0.9157897282141E+00
 0.9902198176597E+00
 0.1042865383472E+01
 0.1077201375267E+01
 0.1097160518347E+01
 0.1105857373481E+01
 0.1105613197521E+01
 0.1098270692414E+01
 0.1085351808042E+01
 0.1067960291995E+01
 0.1046926245045E+01
 0.1022843779781E+01
 0.9956372164734E+00
 0.9640488962088E+00
 0.9327201522636E+00
 0.9104756265495E+00
 0.4029172557022E+00
 0.5427793978386E+00
 0.6772023163315E+00
 0.7977682163600E+00
 0.9000484038011E+00
 0.9823788984254E+00
 0.1045188729981E+01
 0.1090940972754E+01
 0.1122623230107E+01
 0.1142754057258E+01
 0.1153345119811E+01
 0.1156082973115E+01
 0.1152446683909E+01
 0.1143635898589E+01
 0.1130705285812E+01
 0.1114618579182E+01
 0.1095903488945E+01
 0.1073098287096E+01
 0.1048099267641E+01
 0.1026466400013E+01
 0.3883421623076E+00
 0.5246420512009E+00
 0.6570304248754E+00
 0.7781253124952E+00
 0.8838650714748E+00
 0.9724348866421E+00
 0.1043724860889E+01
 0.1099424985663E+01
 0.1141729261188E+01
 0.1172590233651E+01
 0.1193672618321E+01
 0.1206432351515E+01
 0.1212187753527E+01
 0.1212066682066E+01
 0.1207156253209E+01
 0.1198681211029E+01
 0.1187857939842E+01
 0.1174207140111E+01
 0.1157814750996E+01
 0.1138264773219E+01
 0.3747491463603E+00
 0.5080138463429E+00
 0.6383336014994E+00
 0.7593232778123E+00
 0.8674082390422E+00
 0.9608171277787E+00
 0.1039089348585E+01
 0.1103323246246E+01
 0.1155061785243E+01
 0.1195763250722E+01
 0.1226766665949E+01
 0.1249285930222E+01
 0.1264424496255E+01
 0.1273109220154E+01
 0.1276205269632E+01
 0.1274791564975E+01
 0.1270429199095E+01
 0.1263646581933E+01
 0.1256948396113E+01
 0.1244510214715E+01
 0.3618988508138E+00
 0.4925773950169E+00
 0.6208625940364E+00
 0.7412194521325E+00
 0.8507074013970E+00
 0.9477658573205E+00
 0.1031741177725E+01
 0.1103203411249E+01
 0.1163152308922E+01
 0.1212656448299E+01
 0.1252788804130E+01
 0.1284566927426E+01
 0.1308913847691E+01
 0.1326563488796E+01
 0.1338087934515E+01
 0.1344042198074E+01
 0.1345300677496E+01
 0.1342394526509E+01
 0.1338270688308E+01
 0.1338670507459E+01
 0.3618988542266E+00
 0.4925773971409E+00
 0.6208625951814E+00
 0.7412194524823E+00
 0.8507074011052E+00
 0.9477658565533E+00
 0.1031741176668E+01
 0.1103203410098E+01
 0.1163152307848E+01
 0.1212656447422E+01
 0.1252788803501E+01
 0.1284566927042E+01
 0.1308913847512E+01
 0.1326563488770E+01
 0.1338087934595E+01
 0.1344042198227E+01
 0.1345300677705E+01
 0.1342394526747E+01
 0.1338270688587E+01
 0.1338670507760E+01
 0.3747491498498E+00
 0.5080138487019E+00
 0.6383336029504E+00
 0.7593232784701E+00
 0.8674082390175E+00
 0.9608171272208E+00
 0.1039089347683E+01
 0.1103323245204E+01
 0.1155061784245E+01
 0.1195763249895E+01
 0.1226766665351E+01
 0.1249285929852E+01
 0.1264424496078E+01
 0.1273109220123E+01
 0.1276205269704E+01
 0.1274791565129E+01
 0.1270429199318E+01
 0.1263646582184E+01
 0.1256948396421E+01
 0.1244510215125E+01
 0.3883421659049E+00
 0.5246420538486E+00
 0.6570304266732E+00
 0.7781253134817E+00
 0.8838650717181E+00
 0.9724348862785E+00
 0.1043724860113E+01
 0.1099424984694E+01
 0.1141729260226E+01
 0.1172590232834E+01
 0.1193672617715E+01
 0.1206432351125E+01
 0.1212187753321E+01
 0.1212066681998E+01
 0.1207156253243E+01
 0.1198681211143E+01
 0.1187857940016E+01
 0.1174207140299E+01
 0.1157814751285E+01
 0.1138264773748E+01
 0.4029172594346E+00
 0.5427794008278E+00
 0.6772023185133E+00
 0.7977682176866E+00
 0.9000484042989E+00
 0.9823788982234E+00
 0.1045188729286E+01
 0.1090940971808E+01
 0.1122623229133E+01
 0.1142754056409E+01
 0.1153345119159E+01
 0.1156082972670E+01
 0.1152446683641E+01
 0.1143635898454E+01
 0.1130705285771E+01
 0.1114618579212E+01
 0.1095903489015E+01
 0.1073098287174E+01
 0.1048099267894E+01
 0.1026466400652E+01
 0.4187236566071E+00
 0.5628282211250E+00
 0.6991529622899E+00
 0.8183458282702E+00
 0.9157897289355E+00
 0.9902198175690E+00
 0.1042865382800E+01
 0.1077201374288E+01
 0.1097160517309E+01
 0.1105857372555E+01
 0.1105613196786E+01
 0.1098270691881E+01
 0.1085351807681E+01
 0.1067960291761E+01
 0.1046926244898E+01
 0.1022843779691E+01
 0.9956372164031E+00
 0.9640488961538E+00
 0.9327201524642E+00
 0.9104756272751E+00
 0.4360628966828E+00
 0.5852521514587E+00
 0.7231981520333E+00
 0.8398751790854E+00
 0.9307624015151E+00
 0.9953378104099E+00
 0.1035970053358E+01
 0.1057429970624E+01
 0.1064721374378E+01
 0.1061520266040E+01
 0.1050358053753E+01
 0.1033112467332E+01
 0.1011212016140E+01
 0.9855322087104E+00
 0.9566073084756E+00
 0.9247112362000E+00
 0.8894599374578E+00
 0.8503624708685E+00
 0.8144092770873E+00
 0.7921693418220E+00
 0.4553058534654E+00
 0.6105846667848E+00
 0.7496407551340E+00
 0.8622593707401E+00
 0.9444489920486E+00
 0.9969007452015E+00
 0.1023548685485E+01
 0.1030766981454E+01
 0.1024693587755E+01
 0.1009444793986E+01
 0.9876020432579E+00
 0.9609287877974E+00
 0.9306311264335E+00
 0.8972725850412E+00
 0.8610890416108E+00
 0.8221364166528E+00
 0.7798960528178E+00
 0.7348106824241E+00
 0.6956699162135E+00
 0.6738178407964E+00
 0.4769116339875E+00
 0.6394369901354E+00
 0.7787470461263E+00
 0.8852419815600E+00
 0.9560958883021E+00
 0.9938417170500E+00
 0.1004491426077E+01
 0.9963167238787E+00
 0.9765419082915E+00
 0.9494948800219E+00
 0.9175897527791E+00
 0.8823110232992E+00
 0.8445297408460E+00
 0.8044500782819E+00
 0.7620384521085E+00
 0.7172135973251E+00
 0.6693932553970E+00
 0.6199773740987E+00
 0.5790365400310E+00
 0.5580002824193E+00
 0.5014512175557E+00
 0.6725073411220E+00
 0.8107140006759E+00
 0.9083469601808E+00
 0.9646585650876E+00
 0.9848424010953E+00
 0.9775682125489E+00
 0.9532227363623E+00
 0.9198975915617E+00
 0.8817786790220E+00
 0.8408464123967E+00
 0.7981394947787E+00
 0.7541041832574E+00
 0.7085691429278E+00
 0.6612742730127E+00
 0.6120603948961E+00
 0.5603068318782E+00
 0.5083481776952E+00
 0.4670898376153E+00
 0.4474384072560E+00
 0.5296391418619E+00
 0.7105904470537E+00
 0.8456202298577E+00
 0.9307968944518E+00
 0.9687383170402E+00
 0.9683317912570E+00
 0.9414973350148E+00
 0.9007748530739E+00
 0.8546631769332E+00
 0.8067231772994E+00
 0.7582077566916E+00
 0.7095627801702E+00
 0.6607565007839E+00
 0.6112606066908E+00
 0.5606464859283E+00
 0.5087289158314E+00
 0.4548650143949E+00
 0.4022912417958E+00
 0.3623504114245E+00
 0.3448477499046E+00
 0.5623774324345E+00
 0.7545856102349E+00
 0.8833493415414E+00
 0.9514000893140E+00
 0.9665136146315E+00
 0.9425156246532E+00
 0.8950621086525E+00
 0.8385514547471E+00
 0.7811233589088E+00
 0.7251276085043E+00
 0.6708139156725E+00
 0.6179428687954E+00
 0.5660064156832E+00
 0.5141783975771E+00
 0.4619375921002E+00
 0.4091268529556E+00
 0.3551076623346E+00
 0.3039738370799E+00
 0.2671409052321E+00
 0.2527784940660E+00
 0.6008183700668E+00
 0.8054990208167E+00
 0.9234664052696E+00
 0.9683932031217E+00
 0.9556760745976E+00
 0.9054627671178E+00
 0.8372940510331E+00
 0.7665926366195E+00
 0.7000416120754E+00
 0.6381747542831E+00
 0.5800574217289E+00
 0.5247682186817E+00
 0.4713916040273E+00
 0.4189012728143E+00
 0.3667739503284E+00
 0.3149392678186E+00
 0.2628045274138E+00
 0.2152530383920E+00
 0.1834349736379E+00
 0.1734407931750E+00
 0.6464571029906E+00
 0.8644299471177E+00
 0.9650123753098E+00
 0.9792225347882E+00
 0.9333971382699E+00
 0.8552918512865E+00
 0.7677375839866E+00
 0.6855798768198E+00
 0.6127038147976E+00
 0.5473741031132E+00
 0.4874807943904E+00
 0.4315442574621E+00
 0.3783672215384E+00
 0.3268446034083E+00
 0.2765475235020E+00
 0.2275526847415E+00
 0.1793664008944E+00
 0.1375589964451E+00
 0.1127025809109E+00
 0.1085115773019E+00
 0.7012731518603E+00
 0.9325152073844E+00
 0.1006150043385E+01
 0.9802474777142E+00
 0.8963876889151E+00
 0.7905225312045E+00
 0.6867872836551E+00
 0.5969567447470E+00
 0.5208524791927E+00
 0.4544209070415E+00
 0.3946394322825E+00
 0.3396838431696E+00
 0.2882199819759E+00
 0.2391887663919E+00
 0.1923504297818E+00
 0.1479866112391E+00
 0.1057608350985E+00
 0.7178783130230E-01
 0.5576526377578E-01
 0.5892736644514E-01
 0.7679554827634E+00
 0.1010766601689E+01
 0.1043530167154E+01
 0.9663712849152E+00
 0.8411896515989E+00
 0.7106661919589E+00
 0.5960101951683E+00
 0.5028673170830E+00
 0.4264632377931E+00
 0.3610003635428E+00
 0.3029734492699E+00
 0.2504252462165E+00
 0.2020069993987E+00
 0.1568253403804E+00
 0.1149227272514E+00
 0.7683873234303E-01
 0.4245553693314E-01
 0.1830780417700E-01
 0.1280796243224E-01
 0.2467778571135E-01
 0.8502756961315E+00
 0.1099617941185E+01
 0.1071114354090E+01
 0.9306984275654E+00
 0.7650020427679E+00
 0.6170495240859E+00
 0.4981975926405E+00
 0.4057509816557E+00
 0.3314259765391E+00
 0.2686276738652E+00
 0.2137368597004E+00
 0.1647895261412E+00
 0.1205150077177E+00
 0.8031517413132E-01
 0.4461465330795E-01
 0.1429572000855E-01
 0.1102522636526E-01
 0.2399983827478E-01
 0.1796753016709E-01
 0.4651816982754E-02
 0.9537500792345E+00
 0.1197644728115E+01
 0.1077871003204E+01
 0.8647584656742E+00
 0.6675373096729E+00
 0.5135261089888E+00
 0.3965518935217E+00
 0.3077565612178E+00
 0.2373356621519E+00
 0.1786102483621E+00
 0.1279944051856E+00
 0.8355783564749E-01
 0.4422302165842E-01
 0.9856212465905E-02
 0.1868297447535E-01
 0.4023169117654E-01
 0.5453199257042E-01
 0.5522367675941E-01
 0.3695893328297E-01
 0.3678776540725E-02
 0.1086736171089E+01
 0.1297286233428E+01
 0.1043587923200E+01
 0.7609537337877E+00
 0.5547738634159E+00
 0.4048593810214E+00
 0.2934791164667E+00
 0.2104724213119E+00
 0.1455329750594E+00
 0.9213891341552E-01
 0.4663129664299E-01
 0.7248309487392E-02
 0.2674027815511E-01
 0.5475393035810E-01
 0.7539333425888E-01
 0.8725677849105E-01
 0.8989094944708E-01
 0.7755198237989E-01
 0.4728583909779E-01
 0.3709744407921E-02
 0.1263258853487E+01
 0.1370562731451E+01
 0.9294219998999E+00
 0.6291463376028E+00
 0.4357972642353E+00
 0.2938375711734E+00
 0.1903331171033E+00
 0.1150698662436E+00
 0.5743073492468E-01
 0.1041298874302E-01
 0.2977593165353E-01
 0.6410157303065E-01
 0.9260465459871E-01
 0.1140532731712E+00
 0.1265366979852E+00
 0.1281832419356E+00
 0.1185141768018E+00
 0.9273236027241E-01
 0.5155568753657E-01
 0.3753506911264E-02
 0.1486035693021E+01
 0.1249248833054E+01
 0.7457012447028E+00
 0.4920228346423E+00
 0.3142185352555E+00
 0.1818847340479E+00
 0.8719103258280E-01
 0.2324120260409E-01
 0.2518599096139E-01
 0.6580875184572E-01
 0.1009975000879E+00
 0.1307341457056E+00
 0.1539587544813E+00
 0.1687792530920E+00
 0.1734102967459E+00
 0.1653672941788E+00
 0.1416681149780E+00
 0.1017936461429E+00
 0.5222713496488E-01
 0.8864189269587E-02
 0.1357597647751E+01
 0.1260597470226E+01
 0.1159788851653E+01
 0.1052587335812E+01
 0.9393082293182E+00
 0.8222404263461E+00
 0.7039266873413E+00
 0.5871473035399E+00
 0.4748310826483E+00
 0.3699690414220E+00
 0.2754803468981E+00
 0.1940352602672E+00
 0.1278332200672E+00
 0.7833771453113E-01
 0.4598066279544E-01
 0.2990157975601E-01
 0.2779590176732E-01
 0.3568652266944E-01
 0.4845690922531E-01
 0.6092937699740E-01
 0.1409529193618E+01
 0.1329254522310E+01
 0.1231252433893E+01
 0.1126003046757E+01
 0.1014679836297E+01
 0.8985324050911E+00
 0.7795793170951E+00
 0.6603248144420E+00
 0.5436360335657E+00
 0.4326304208669E+00
 0.3305523445906E+00
 0.2406074893525E+00
 0.1657401773371E+00
 0.1083422082421E+00
 0.6989225752061E-01
 0.5056181987124E-01
 0.4878804970907E-01
 0.6071918604669E-01
 0.8033152446605E-01
 0.1016690140939E+00
 0.1461072801426E+01
 0.1390773274329E+01
 0.1303125893535E+01
 0.1203741836117E+01
 0.1096602167294E+01
 0.9834130059810E+00
 0.8658964727008E+00
 0.7462033609880E+00
 0.6269357458621E+00
 0.5110990386628E+00
 0.4020215298701E+00
 0.3032341742372E+00
 0.2182886757646E+00
 0.1504907839722E+00
 0.1025285076856E+00
 0.7599064116449E-01
 0.7073372032111E-01
 0.8388702945205E-01
 0.1091711871010E+00
 0.1380561771145E+00
 0.1514384374873E+01
 0.1451597287879E+01
 0.1373687962106E+01
 0.1283143646086E+01
 0.1182917203907E+01
 0.1075158236851E+01
 0.9615625475469E+00
 0.8439870473670E+00
 0.7246695013528E+00
 0.6062918458164E+00
 0.4919805133920E+00
 0.3852634447390E+00
 0.2899732356484E+00
 0.2100700253332E+00
 0.1493481762514E+00
 0.1109857305154E+00
 0.9684956012550E-01
 0.1062448669944E+00
 0.1339538454419E+00
 0.1692279739648E+00
 0.1568366665471E+01
 0.1512368582675E+01
 0.1443646749335E+01
 0.1362745276014E+01
 0.1271466876519E+01
 0.1171535989930E+01
 0.1064513671487E+01
 0.9519917646935E+00
 0.8358188351769E+00
 0.7182259000266E+00
 0.6018925078577E+00
 0.4899769122669E+00
 0.3861128847899E+00
 0.2943585850357E+00
 0.2190672023014E+00
 0.1646302539221E+00
 0.1349978347157E+00
 0.1326583348528E+00
 0.1562036701754E+00
 0.1959054634424E+00
 0.1622180004014E+01
 0.1572691304717E+01
 0.1512646271166E+01
 0.1441527159091E+01
 0.1360172067436E+01
 0.1269752108479E+01
 0.1171494303911E+01
 0.1066705052310E+01
 0.9568753597554E+00
 0.8437899817050E+00
 0.7296086411798E+00
 0.6169251722071E+00
 0.5088105185086E+00
 0.4088393137671E+00
 0.3210922007108E+00
 0.2501168316283E+00
 0.2008092571588E+00
 0.1780750138045E+00
 0.1856384791764E+00
 0.2210778216161E+00
 0.1675111117762E+01
 0.1632042724389E+01
 0.1580237754255E+01
 0.1518686495095E+01
 0.1447563638022E+01
 0.1367529833987E+01
 0.1279451123955E+01
 0.1184335537108E+01
 0.1083367431489E+01
 0.9779714530926E+00
 0.8698779909301E+00
 0.7611787939291E+00
 0.6543718658895E+00
 0.5523965923164E+00
 0.4586603304891E+00
 0.3770603349474E+00
 0.3120147857399E+00
 0.2685345673641E+00
 0.2523927960621E+00
 0.2695269161622E+00
 0.1726519074305E+01
 0.1689830328156E+01
 0.1645878044419E+01
 0.1593511799257E+01
 0.1532501981997E+01
 0.1463115837382E+01
 0.1385892274434E+01
 0.1301560259680E+01
 0.1211036656124E+01
 0.1115462493139E+01
 0.1016253451839E+01
 0.9151526068204E+00
 0.8142795429741E+00
 0.7161732827375E+00
 0.6238281665221E+00
 0.5407258326516E+00
 0.4708814334677E+00
 0.4189766957537E+00
 0.3908557698237E+00
 0.3961734087094E+00
 0.1775844001494E+01
 0.1745479523579E+01
 0.1709023031912E+01
 0.1665377900275E+01
 0.1614106871786E+01
 0.1555204519166E+01
 0.1488943089950E+01
 0.1415801302763E+01
 0.1336450917251E+01
 0.1251778318225E+01
 0.1162926272857E+01
 0.1071346991453E+01
 0.9788619970958E+00
 0.8877268771067E+00
 0.8007007455850E+00
 0.7211225707472E+00
 0.6530024564483E+00
 0.6011580572308E+00
 0.5714994148182E+00
 0.5720496070819E+00
 0.1822606439344E+01
 0.1798470841004E+01
 0.1769170209270E+01
 0.1733754085794E+01
 0.1691711268070E+01
 0.1642867570063E+01
 0.1587294513461E+01
 0.1525258829050E+01
 0.1457208860967E+01
 0.1383788275804E+01
 0.1305869160707E+01
 0.1224599521277E+01
 0.1141462654380E+01
 0.1058347719920E+01
 0.9776319075664E+00
 0.9022745531261E+00
 0.8359213260596E+00
 0.7830013893536E+00
 0.7487492960640E+00
 0.7384064280561E+00
 0.1866404832815E+01
 0.1848351709527E+01
 0.1825866055365E+01
 0.1798177187344E+01
 0.1764780815057E+01
 0.1725412435701E+01
 0.1680003481700E+01
 0.1628651812443E+01
 0.1571612804330E+01
 0.1509309180131E+01
 0.1442356507468E+01
 0.1371602155563E+01
 0.1298176838367E+01
 0.1223559099710E+01
 0.1149653895191E+01
 0.1078886288335E+01
 0.1014308042762E+01
 0.9597050899850E+00
 0.9196362213997E+00
 0.8993338245242E+00
 0.1906872966557E+01
 0.1894674557300E+01
 0.1878635583772E+01
 0.1858160253061E+01
 0.1832790607405E+01
 0.1802223153744E+01
 0.1766296361970E+01
 0.1724977818271E+01
 0.1678360665199E+01
 0.1626671425956E+01
 0.1570288944586E+01
 0.1509773949983E+01
 0.1445909323163E+01
 0.1379751995506E+01
 0.1312698302567E+01
 0.1246565341571E+01
 0.1183691806051E+01
 0.1127062803744E+01
 0.1080488978044E+01
 0.1048991998828E+01
 0.1943672741865E+01
 0.1936988666417E+01
 0.1926959528069E+01
 0.1913137114650E+01
 0.1895122523378E+01
 0.1872602440843E+01
 0.1845354857736E+01
 0.1813247296137E+01
 0.1776237242319E+01
 0.1734378348170E+01
 0.1687833480739E+01
 0.1636894947302E+01
 0.1582012296695E+01
 0.1523828607433E+01
 0.1463227008429E+01
 0.1401390490024E+01
 0.1339880192903E+01
 0.1280743674969E+01
 0.1226679852280E+01
 0.1181286145548E+01
 0.1976507045760E+01
 0.1974882634084E+01
 0.1970337481474E+01
 0.1962536454087E+01
 0.1951137247217E+01
 0.1935830677408E+01
 0.1916354857589E+01
 0.1892499496294E+01
 0.1864108404119E+01
 0.1831083862677E+01
 0.1793394346341E+01
 0.1751086155402E+01
 0.1704299249227E+01
 0.1653287698565E+01
 0.1598445655670E+01
 0.1540340642004E+01
 0.1479757487603E+01
 0.1417757419317E+01
 0.1355751962913E+01
 0.1295577890382E+01
 0.2005119285684E+01
 0.2008000042437E+01
 0.2008325247899E+01
 0.2005840185285E+01
 0.2000249101491E+01
 0.1991251250719E+01
 0.1978557016810E+01
 0.1961894413918E+01
 0.1941011917034E+01
 0.1915680704472E+01
 0.1885697721377E+01
 0.1850890057844E+01
 0.1811120655333E+01
 0.1766295128091E+01
 0.1716369439771E+01
 0.1661358320126E+01
 0.1601344610525E+01
 0.1536489372822E+01
 0.1467039232554E+01
 0.1393318745708E+01
 0.2029291625749E+01
 0.2036041087774E+01
 0.2040544690267E+01
 0.2042601587727E+01
 0.2041950247382E+01
 0.2038297406577E+01
 0.2031332553566E+01
 0.2020734081360E+01
 0.2006171182557E+01
 0.1987303828737E+01
 0.1963781990390E+01
 0.1935244469234E+01
 0.1901317165931E+01
 0.1861610154787E+01
 0.1815712479923E+01
 0.1763183070515E+01
 0.1703535608251E+01
 0.1636215705845E+01
 0.1560572227651E+01
 0.1475825303906E+01
 0.2048843735282E+01
 0.2058760649941E+01
 0.2066684819189E+01
 0.2072449837839E+01
 0.2075817061494E+01
 0.2076497797570E+01
 0.2074164789882E+01
 0.2068456737226E+01
 0.2058978595302E+01
 0.2045299394719E+01
 0.2026948508038E+01
 0.2003410701554E+01
 0.1974119826767E+01
 0.1938450539000E+01
 0.1895706864380E+01
 0.1845105630610E+01
 0.1785751724314E+01
 0.1716600701086E+01
 0.1636407308398E+01
 0.1543677359819E+01
 0.2063632157666E+01
 0.2075965928376E+01
 0.2086500479461E+01
 0.2095090592997E+01
 0.2101511667635E+01
 0.2105476830977E+01
 0.2106645497460E+01
 0.2104625954168E+01
 0.2098973971662E+01
 0.2089188789231E+01
 0.2074707292603E+01
 0.2054896799824E+01
 0.2029046553691E+01
 0.1996357725000E+01
 0.1955931375446E+01
 0.1906753290893E+01
 0.1847673504018E+01
 0.1777376182904E+01
 0.1694326621991E+01
 0.1596682329653E+01
 0.2073549958912E+01
 0.2087514332862E+01
 0.2099810308103E+01
 0.2110305006903E+01
 0.2118781629552E+01
 0.2124953511523E+01
 0.2128470551001E+01
 0.2128920214224E+01
 0.2125824784787E+01
 0.2118636019458E+01
 0.2106728004919E+01
 0.2089388768029E+01
 0.2065811057956E+01
 0.2035082674035E+01
 0.1996176747454E+01
 0.1947942466783E+01
 0.1889096810787E+01
 0.1818217108400E+01
 0.1733732110551E+01
 0.1633859010316E+01
 0.2078526431759E+01
 0.2093311888724E+01
 0.2106494842842E+01
 0.2117948289882E+01
 0.2127458880464E+01
 0.2134739728960E+01
 0.2139435751924E+01
 0.2141123806331E+01
 0.2139309186262E+01
 0.2133419575886E+01
 0.2122797263016E+01
 0.2106690266699E+01
 0.2084243016703E+01
 0.2054487356645E+01
 0.2016334972592E+01
 0.1968572991438E+01
 0.1909865712595E+01
 0.1838768169050E+01
 0.1753763702194E+01
 0.1653375307545E+01
 0.2078526431778E+01
 0.2093311888760E+01
 0.2106494842897E+01
 0.2117948289959E+01
 0.2127458880567E+01
 0.2134739729090E+01
 0.2139435752084E+01
 0.2141123806524E+01
 0.2139309186491E+01
 0.2133419576152E+01
 0.2122797263321E+01
 0.2106690267041E+01
 0.2084243017082E+01
 0.2054487357058E+01
 0.2016334973034E+01
 0.1968572991902E+01
 0.1909865713073E+01
 0.1838768169532E+01
 0.1753763702672E+01
 0.1653375308019E+01
 0.2073549958969E+01
 0.2087514332970E+01
 0.2099810308268E+01
 0.2110305007135E+01
 0.2118781629857E+01
 0.2124953511911E+01
 0.2128470551480E+01
 0.2128920214802E+01
 0.2125824785471E+01
 0.2118636020254E+01
 0.2106728005828E+01
 0.2089388769053E+01
 0.2065811059090E+01
 0.2035082675271E+01
 0.1996176748778E+01
 0.1947942468173E+01
 0.1889096812217E+01
 0.1818217109838E+01
 0.1733732111964E+01
 0.1633859011683E+01
 0.2063632157761E+01
 0.2075965928555E+01
 0.2086500479735E+01
 0.2095090593380E+01
 0.2101511668141E+01
 0.2105476831618E+01
 0.2106645498252E+01
 0.2104625955124E+01
 0.2098973972794E+01
 0.2089188790548E+01
 0.2074707294111E+01
 0.2054896801522E+01
 0.2029046555573E+01
 0.1996357727052E+01
 0.1955931377644E+01
 0.1906753293201E+01
 0.1847673506389E+01
 0.1777376185277E+01
 0.1694326624295E+01
 0.1596682331805E+01
 0.2048843735414E+01
 0.2058760650189E+01
 0.2066684819569E+01
 0.2072449838369E+01
 0.2075817062193E+01
 0.2076497798458E+01
 0.2074164790979E+01
 0.2068456738551E+01
 0.2058978596871E+01
 0.2045299396546E+01
 0.2026948510130E+01
 0.2003410703913E+01
 0.1974119829385E+01
 0.1938450541856E+01
 0.1895706867441E+01
 0.1845105633825E+01
 0.1785751727612E+01
 0.1716600704373E+01
 0.1636407311551E+01
 0.1543677362681E+01
 0.2029291625918E+01
 0.2036041088088E+01
 0.2040544690748E+01
 0.2042601588398E+01
 0.2041950248266E+01
 0.2038297407701E+01
 0.2031332554955E+01
 0.2020734083038E+01
 0.2006171184547E+01
 0.1987303831056E+01
 0.1963781993048E+01
 0.1935244472234E+01
 0.1901317169264E+01
 0.1861610158428E+01
 0.1815712483829E+01
 0.1763183074620E+01
 0.1703535612461E+01
 0.1636215710029E+01
 0.1560572231632E+01
 0.1475825307452E+01
 0.2005119285889E+01
 0.2008000042816E+01
 0.2008325248477E+01
 0.2005840186089E+01
 0.2000249102552E+01
 0.1991251252067E+01
 0.1978557018478E+01
 0.1961894415935E+01
 0.1941011919428E+01
 0.1915680707263E+01
 0.1885697724578E+01
 0.1850890061459E+01
 0.1811120659353E+01
 0.1766295132486E+01
 0.1716369444491E+01
 0.1661358325091E+01
 0.1601344615618E+01
 0.1536489377878E+01
 0.1467039237345E+01
 0.1393318749930E+01
 0.1976507045999E+01
 0.1974882634522E+01
 0.1970337482140E+01
 0.1962536455013E+01
 0.1951137248440E+01
 0.1935830678964E+01
 0.1916354859515E+01
 0.1892499498626E+01
 0.1864108406887E+01
 0.1831083865906E+01
 0.1793394350048E+01
 0.1751086159590E+01
 0.1704299253886E+01
 0.1653287703664E+01
 0.1598445661151E+01
 0.1540340647777E+01
 0.1479757493536E+01
 0.1417757425222E+01
 0.1355751968530E+01
 0.1295577895354E+01
 0.1943672742137E+01
 0.1936988666912E+01
 0.1926959528818E+01
 0.1913137115690E+01
 0.1895122524751E+01
 0.1872602442592E+01
 0.1845354859903E+01
 0.1813247298761E+01
 0.1776237245434E+01
 0.1734378351804E+01
 0.1687833484910E+01
 0.1636894952014E+01
 0.1582012301935E+01
 0.1523828613167E+01
 0.1463227014594E+01
 0.1401390496522E+01
 0.1339880199592E+01
 0.1280743681653E+01
 0.1226679858691E+01
 0.1181286151320E+01
 0.1906872966858E+01
 0.1894674557842E+01
 0.1878635584590E+01
 0.1858160254199E+01
 0.1832790608908E+01
 0.1802223155660E+01
 0.1766296364346E+01
 0.1724977821149E+01
 0.1678360668616E+01
 0.1626671429940E+01
 0.1570288949154E+01
 0.1509773955138E+01
 0.1445909328890E+01
 0.1379752001766E+01
 0.1312698309295E+01
 0.1246565348667E+01
 0.1183691813375E+01
 0.1127062811108E+01
 0.1080488985209E+01
 0.1048992005505E+01
 0.1866404833144E+01
 0.1848351710111E+01
 0.1825866056245E+01
 0.1798177188567E+01
 0.1764780816676E+01
 0.1725412437768E+01
 0.1680003484264E+01
 0.1628651815549E+01
 0.1571612808014E+01
 0.1509309184419E+01
 0.1442356512374E+01
 0.1371602161088E+01
 0.1298176844488E+01
 0.1223559106385E+01
 0.1149653902350E+01
 0.1078886295878E+01
 0.1014308050555E+01
 0.9597050978560E+00
 0.9196362291472E+00
 0.8993338319662E+00
 0.1822606439697E+01
 0.1798470841624E+01
 0.1769170210203E+01
 0.1733754087095E+01
 0.1691711269797E+01
 0.1642867572269E+01
 0.1587294516197E+01
 0.1525258832358E+01
 0.1457208864881E+01
 0.1383788280346E+01
 0.1305869165885E+01
 0.1224599527081E+01
 0.1141462660783E+01
 0.1058347726871E+01
 0.9776319149911E+00
 0.9022745609263E+00
 0.8359213341128E+00
 0.7830013975142E+00
 0.7487493041619E+00
 0.7384064358891E+00
 0.1775844001868E+01
 0.1745479524230E+01
 0.1709023032895E+01
 0.1665377901649E+01
 0.1614106873612E+01
 0.1555204521499E+01
 0.1488943092837E+01
 0.1415801306243E+01
 0.1336450921351E+01
 0.1251778322958E+01
 0.1162926278221E+01
 0.1071346997430E+01
 0.9788620036474E+00
 0.8877268841771E+00
 0.8007007531008E+00
 0.7211225786219E+00
 0.6530024645888E+00
 0.6011580655448E+00
 0.5714994232110E+00
 0.5720496153275E+00
 0.1726519074696E+01
 0.1689830328834E+01
 0.1645878045447E+01
 0.1593511800700E+01
 0.1532501983916E+01
 0.1463115839827E+01
 0.1385892277448E+01
 0.1301560263292E+01
 0.1211036660350E+01
 0.1115462497980E+01
 0.1016253457278E+01
 0.9151526128240E+00
 0.8142795494887E+00
 0.7161732896924E+00
 0.6238281738322E+00
 0.5407258402235E+00
 0.4708814412094E+00
 0.4189767035879E+00
 0.3908557777010E+00
 0.3961734166593E+00
 0.1675111118164E+01
 0.1632042725089E+01
 0.1580237755323E+01
 0.1518686496599E+01
 0.1447563640018E+01
 0.1367529836519E+01
 0.1279451127052E+01
 0.1184335540786E+01
 0.1083367435745E+01
 0.9779714579082E+00
 0.8698779962635E+00
 0.7611787997151E+00
 0.6543718720370E+00
 0.5523965987068E+00
 0.4586603369756E+00
 0.3770603413552E+00
 0.3120147918695E+00
 0.2685345730012E+00
 0.2523928010257E+00
 0.2695269205537E+00
 0.1622180004418E+01
 0.1572691305431E+01
 0.1512646272267E+01
 0.1441527160643E+01
 0.1360172069483E+01
 0.1269752111051E+01
 0.1171494307020E+01
 0.1066705055951E+01
 0.9568753639013E+00
 0.8437899863061E+00
 0.7296086461582E+00
 0.6169251774542E+00
 0.5088105238824E+00
 0.4088393190913E+00
 0.3210922057777E+00
 0.2501168362072E+00
 0.2008092610163E+00
 0.1780750167514E+00
 0.1856384811819E+00
 0.2210778230475E+00
 0.1568366665868E+01
 0.1512368583396E+01
 0.1443646750458E+01
 0.1362745277590E+01
 0.1271466878576E+01
 0.1171535992475E+01
 0.1064513674511E+01
 0.9519917681658E+00
 0.8358188390431E+00
 0.7182259042049E+00
 0.6018925122366E+00
 0.4899769167056E+00
 0.3861128891214E+00
 0.2943585890755E+00
 0.2190672058642E+00
 0.1646302568499E+00
 0.1349978369230E+00
 0.1326583363979E+00
 0.1562036713612E+00
 0.1959054647941E+00
 0.1514384375256E+01
 0.1451597288601E+01
 0.1373687963235E+01
 0.1283143647652E+01
 0.1182917205912E+01
 0.1075158239280E+01
 0.9615625503689E+00
 0.8439870505280E+00
 0.7246695047754E+00
 0.6062918493981E+00
 0.4919805170083E+00
 0.3852634482490E+00
 0.2899732389058E+00
 0.2100700282033E+00
 0.1493481786345E+00
 0.1109857323767E+00
 0.9684956152947E-01
 0.1062448681374E+00
 0.1339538466388E+00
 0.1692279754961E+00
 0.1461072801788E+01
 0.1390773275040E+01
 0.1303125894645E+01
 0.1203741837621E+01
 0.1096602169171E+01
 0.9834130081982E+00
 0.8658964752108E+00
 0.7462033637230E+00
 0.6269357487347E+00
 0.5110990415698E+00
 0.4020215326987E+00
 0.3032341768755E+00
 0.2182886781153E+00
 0.1504907859696E+00
 0.1025285093146E+00
 0.7599064247817E-01
 0.7073372145181E-01
 0.8388703060325E-01
 0.1091711884885E+00
 0.1380561788534E+00
 0.1409529193960E+01
 0.1329254523015E+01
 0.1231252434958E+01
 0.1126003048143E+01
 0.1014679837977E+01
 0.8985324070223E+00
 0.7795793192214E+00
 0.6603248166914E+00
 0.5436360358548E+00
 0.4326304231072E+00
 0.3305523466970E+00
 0.2406074912539E+00
 0.1657401789883E+00
 0.1083422096366E+00
 0.6989225870071E-01
 0.5056182093310E-01
 0.4878805079532E-01
 0.6071918731862E-01
 0.8033152604612E-01
 0.1016690159951E+00
 0.1357597648108E+01
 0.1260597470913E+01
 0.1159788852606E+01
 0.1052587337008E+01
 0.9393082307228E+00
 0.8222404279110E+00
 0.7039266890076E+00
 0.5871473052420E+00
 0.4748310843193E+00
 0.3699690430002E+00
 0.2754803483349E+00
 0.1940352615355E+00
 0.1278332211685E+00
 0.7833771550192E-01
 0.4598066370900E-01
 0.2990158071835E-01
 0.2779590289814E-01
 0.3568652406916E-01
 0.4845691093821E-01
 0.6092937896090E-01
</DataArray>
<DataArray type="Float64" Name="OI" NumberOfComponents="1" ComponentName0="OI" format="ascii">
 0.1906051123018E+01
 0.1673465977146E+01
 0.1504582090916E+01
 0.1445668841745E+01
 0.1408967611022E+01
 0.1390118754211E+01
 0.1380903323819E+01
 0.1378432761705E+01
 0.1380731164660E+01
 0.1386697876110E+01
 0.1395654111040E+01
 0.1407215064567E+01
 0.1421193546259E+01
 0.1437550983304E+01
 0.1456367196773E+01
 0.1477823654913E+01
 0.1502195608845E+01
 0.1529851199603E+01
 0.1561260266915E+01
 0.1597015040740E+01
 0.1637874727548E+01
 0.1684872965846E+01
 0.1739583971417E+01
 0.1804247608334E+01
 0.1879700055678E+01
 0.1964220156703E+01
 0.2055435080740E+01
 0.2151717364912E+01
 0.2252563890032E+01
 0.2358387763115E+01
 0.2470040811128E+01
 0.2588237914139E+01
 0.2712842609765E+01
 0.2845128822596E+01
 0.2992605591436E+01
 0.3165554245128E+01
 0.3388131153986E+01
 0.3651437676594E+01
 0.4205726690856E+01
 0.4183322422855E+01
 0.8026391570838E+01
 0.1631342871800E+01
 0.1670660422071E+01
 0.1545862451245E+01
 0.1473058953556E+01
 0.1434956048896E+01
 0.1412122272941E+01
 0.1400151864166E+01
 0.1395263832373E+01
 0.1395558860065E+01
 0.1399810494736E+01
 0.1407280769874E+01
 0.1417527613289E+01
 0.1430318355412E+01
 0.1445574074541E+01
 0.1463337566868E+01
 0.1483754332463E+01
 0.1507062947787E+01
 0.1533592453740E+01
 0.1563768424938E+01
 0.1598129331236E+01
 0.1637361308579E+01
 0.1682363639076E+01
 0.1734207762758E+01
 0.1793788540043E+01
 0.1861233622874E+01
 0.1935670354967E+01
 0.2015716787853E+01
 0.2100165540466E+01
 0.2188312518091E+01
 0.2279897223920E+01
 0.2374804279510E+01
 0.2472821350965E+01
 0.2573895765186E+01
 0.2678967621928E+01
 0.2789888913154E+01
 0.2910890492155E+01
 0.3037074543296E+01
 0.3187400231672E+01
 0.3245629624662E+01
 0.2794599915272E+01
 0.5238738425004E+01
 0.1486615898989E+01
 0.1593953052065E+01
 0.1554285876669E+01
 0.1490926035101E+01
 0.1453251450507E+01
 0.1429879938076E+01
 0.1416354102825E+01
 0.1409917664790E+01
 0.1408698086590E+01
 0.1411543826814E+01
 0.1417709079025E+01
 0.1426736584821E+01
 0.1438369451979E+01
 0.1452501711533E+01
 0.1469146532284E+01
 0.1488417013702E+01
 0.1510515395528E+01
 0.1535728322515E+01
 0.1564428934211E+01
 0.1597085028523E+01
 0.1634273858814E+01
 0.1676662795771E+01
 0.1724815596278E+01
 0.1778938866109E+01
 0.1838849586378E+01
 0.1904012918338E+01
 0.1973585188498E+01
 0.2046619029000E+01
 0.2122257529506E+01
 0.2199735750278E+01
 0.2278245989546E+01
 0.2356952605640E+01
 0.2435251985389E+01
 0.2512355786840E+01
 0.2586531932013E+01
 0.2652538611433E+01
 0.2699606266141E+01
 0.2702460200775E+01
 0.2467960282672E+01
 0.2230481880058E+01
 0.4367680033550E+01
 0.1399310983904E+01
 0.1519778818964E+01
 0.1534873051681E+01
 0.1497367027196E+01
 0.1464763534298E+01
 0.1443039502320E+01
 0.1429451040530E+01
 0.1422272411741E+01
 0.1420064681419E+01
 0.1421827287516E+01
 0.1426885653234E+01
 0.1434802756041E+01
 0.1445320979979E+01
 0.1458320808429E+01
 0.1473793841775E+01
 0.1491824880655E+01
 0.1512580735124E+01
 0.1536303263118E+01
 0.1563306416198E+01
 0.1593973919170E+01
 0.1628745097495E+01
 0.1668031246662E+01
 0.1712012279877E+01
 0.1760526024477E+01
 0.1813235343589E+01
 0.1869735954626E+01
 0.1929442478467E+01
 0.1991542071278E+01
 0.2055055062941E+01
 0.2118853654928E+01
 0.2181643208309E+01
 0.2242050745832E+01
 0.2298598336801E+01
 0.2348859531424E+01
 0.2387766525528E+01
 0.2405253602160E+01
 0.2384188525735E+01
 0.2271927588944E+01
 0.1996521318654E+01
 0.2090610331608E+01
 0.3954021154600E+01
 0.1341996614192E+01
 0.1459068661314E+01
 0.1504395838580E+01
 0.1492816758857E+01
 0.1470041167859E+01
 0.1451797425808E+01
 0.1439425450632E+01
 0.1432304020302E+01
 0.1429614828259E+01
 0.1430622423911E+01
 0.1434778469131E+01
 0.1441703440048E+01
 0.1451160387732E+01
 0.1463029857531E+01
 0.1477290031563E+01
 0.1494001918272E+01
 0.1513298458985E+01
 0.1535375465432E+01
 0.1560483257810E+01
 0.1588912428114E+01
 0.1620953242359E+01
 0.1656786438602E+01
 0.1696324482867E+01
 0.1739201091490E+01
 0.1784993213866E+01
 0.1833331786601E+01
 0.1883734375851E+01
 0.1935438930413E+01
 0.1987368941106E+01
 0.2038148379496E+01
 0.2086137745781E+01
 0.2129482019819E+01
 0.2165886522642E+01
 0.2191571491793E+01
 0.2199454153289E+01
 0.2177672220393E+01
 0.2105398161139E+01
 0.1946205135035E+01
 0.1756284867392E+01
 0.2110690001111E+01
 0.3699338996757E+01
 0.1302081664988E+01
 0.1411077648517E+01
 0.1471756825495E+01
 0.1480857878747E+01
 0.1469697991340E+01
 0.1456548910822E+01
 0.1446397642037E+01
 0.1440049015754E+01
 0.1437351888136E+01
 0.1437919726786E+01
 0.1441377003971E+01
 0.1447432022129E+01
 0.1455888169557E+01
 0.1466638584339E+01
 0.1479656009277E+01
 0.1494982385661E+01
 0.1512719020875E+01
 0.1533015788757E+01
 0.1556057549583E+01
 0.1582038895542E+01
 0.1611107166659E+01
 0.1643255227673E+01
 0.1678215949127E+01
 0.1715508097095E+01
 0.1754655488952E+01
 0.1795280334171E+01
 0.1836923035091E+01
 0.1878826912956E+01
 0.1919846306907E+01
 0.1958449213395E+01
 0.1992761489856E+01
 0.2020558063078E+01
 0.2038945153050E+01
 0.2043346277025E+01
 0.2026134254320E+01
 0.1975787684230E+01
 0.1876275001536E+01
 0.1725945194729E+01
 0.1660936207639E+01
 0.2172781757333E+01
 0.3518496337098E+01
 0.1273032908676E+01
 0.1373236739297E+01
 0.1440807092905E+01
 0.1464853596522E+01
 0.1464882624364E+01
 0.1457756917219E+01
 0.1450597141810E+01
 0.1445603621743E+01
 0.1443319087782E+01
 0.1443737754301E+01
 0.1446690836208E+01
 0.1451997357810E+01
 0.1459517301154E+01
 0.1469167440667E+01
 0.1480922487412E+01
 0.1494810118479E+01
 0.1510902893439E+01
 0.1529306294596E+01
 0.1550140748787E+01
 0.1573508446911E+01
 0.1599430548547E+01
 0.1627755779192E+01
 0.1658099945794E+01
 0.1689917802958E+01
 0.1722698697881E+01
 0.1756039239974E+01
 0.1789467251693E+01
 0.1822214972739E+01
 0.1853098996797E+01
 0.1880509032321E+01
 0.1902442043863E+01
 0.1916460118430E+01
 0.1919379670011E+01
 0.1906501847246E+01
 0.1870871231163E+01
 0.1803760831533E+01
 0.1700192474465E+01
 0.1591617609139E+01
 0.1647441177549E+01
 0.2235255777554E+01
 0.3380211160197E+01
 0.1251157128677E+01
 0.1343159678649E+01
 0.1412932965763E+01
 0.1447161085996E+01
 0.1456880338556E+01
 0.1455986317016E+01
 0.1452312475097E+01
 0.1449116079477E+01
 0.1447593731865E+01
 0.1448120111031E+01
 0.1450748121734E+01
 0.1455422713265E+01
 0.1462072489227E+01
 0.1470646928080E+01
 0.1481129283025E+01
 0.1493537692296E+01
 0.1507919440058E+01
 0.1524338563331E+01
 0.1542854891531E+01
 0.1563486887539E+01
 0.1586150974543E+01
 0.1610590478644E+01
 0.1636348248527E+01
 0.1662846282039E+01
 0.1689553038506E+01
 0.1716038171262E+01
 0.1741808118403E+01
 0.1766087399621E+01
 0.1787689903325E+01
 0.1804997941933E+01
 0.1815988234163E+01
 0.1818192301573E+01
 0.1808483446038E+01
 0.1782665307543E+01
 0.1735490341037E+01
 0.1663020647687E+01
 0.1573129312642E+01
 0.1520730288272E+01
 0.1675567542853E+01
 0.2286742597241E+01
 0.3270106361890E+01
 0.1234226802617E+01
 0.1318973555348E+01
 0.1388409983163E+01
 0.1429238306830E+01
 0.1446827690143E+01
 0.1451847602656E+01
 0.1451870763044E+01
 0.1450770237026E+01
 0.1450281504602E+01
 0.1451131732412E+01
 0.1453593576870E+01
 0.1457744459934E+01
 0.1463589215963E+01
 0.1471116783406E+01
 0.1480324497702E+01
 0.1491225469214E+01
 0.1503845657746E+01
 0.1518211867260E+01
 0.1534329533545E+01
 0.1552145265858E+01
 0.1571493109538E+01
 0.1592043345951E+01
 0.1613297469090E+01
 0.1634665802805E+01
 0.1655608201643E+01
 0.1675675249753E+01
 0.1694358907710E+01
 0.1710891910155E+01
 0.1724123342825E+01
 0.1732495880765E+01
 0.1734075494610E+01
 0.1726551192295E+01
 0.1707180838233E+01
 0.1672788083265E+01
 0.1620617202605E+01
 0.1552461956874E+01
 0.1487641931075E+01
 0.1493859078280E+01
 0.1721937381202E+01
 0.2326270438506E+01
 0.3180324577679E+01
 0.1220827396500E+01
 0.1299276312191E+01
 0.1367049298147E+01
 0.1411910765275E+01
 0.1435614314396E+01
 0.1445925958115E+01
 0.1449616150185E+01
 0.1450771934241E+01
 0.1451509198201E+01
 0.1452855053242E+01
 0.1455286106543E+01
 0.1459010565825E+01
 0.1464112633605E+01
 0.1470625050830E+01
 0.1478563606176E+01
 0.1487940561737E+01
 0.1498764847759E+01
 0.1511031276293E+01
 0.1524698793728E+01
 0.1539655578482E+01
 0.1555674543984E+01
 0.1572379342221E+01
 0.1589253483604E+01
 0.1605711459088E+01
 0.1621216906640E+01
 0.1635314680724E+01
 0.1647498105931E+01
 0.1657031370651E+01
 0.1662838164456E+01
 0.1663486331302E+01
 0.1657236285548E+01
 0.1642109088069E+01
 0.1616021687333E+01
 0.1577198949284E+01
 0.1525810453769E+01
 0.1469299310699E+01
 0.1435530283863E+01
 0.1495960074148E+01
 0.1774040843271E+01
 0.2355834333607E+01
 0.3105989890937E+01
 0.1210021952877E+01
 0.1283030848230E+01
 0.1348496445773E+01
 0.1395599880088E+01
 0.1423886570266E+01
 0.1438735802995E+01
 0.1445887011518E+01
 0.1449337248824E+01
 0.1451417545217E+01
 0.1453385938961E+01
 0.1455896302180E+01
 0.1459278935333E+01
 0.1463696352145E+01
 0.1469227069157E+01
 0.1475908478850E+01
 0.1483755747224E+01
 0.1492765260689E+01
 0.1502905802321E+01
 0.1514098734694E+01
 0.1526187565327E+01
 0.1538903308569E+01
 0.1551844462658E+01
 0.1564494551845E+01
 0.1576285355396E+01
 0.1586697103735E+01
 0.1595285230503E+01
 0.1601564865751E+01
 0.1604858422716E+01
 0.1604203320582E+01
 0.1598352810092E+01
 0.1585856516864E+01
 0.1565214344641E+01
 0.1535206827212E+01
 0.1495686913130E+01
 0.1449822517185E+01
 0.1409926114667E+01
 0.1409154673318E+01
 0.1516122446265E+01
 0.1825698960423E+01
 0.2377853203700E+01
 0.3043806444173E+01
 0.1201167693072E+01
 0.1269468850924E+01
 0.1332364928888E+01
 0.1380482936001E+01
 0.1412089280915E+01
 0.1430702827830E+01
 0.1440997913011E+01
 0.1446682090733E+01
 0.1450154748971E+01
 0.1452829664889E+01
 0.1455503898555E+01
 0.1458615681041E+01
 0.1462401159004E+01
 0.1466984404819E+01
 0.1472426364638E+01
 0.1478748363709E+01
 0.1485938761469E+01
 0.1493946669897E+01
 0.1502665162936E+01
 0.1511906386478E+01
 0.1521376408148E+01
 0.1530666131052E+01
 0.1539273548337E+01
 0.1546659359829E+01
 0.1552333450973E+01
 0.1555879395267E+01
 0.1556856323859E+01
 0.1554672443143E+01
 0.1548515861429E+01
 0.1537378626326E+01
 0.1520178683948E+01
 0.1496005654747E+01
 0.1464632005360E+01
 0.1427612866752E+01
 0.1390895848673E+01
 0.1370526913041E+01
 0.1401958990186E+01
 0.1546820462936E+01
 0.1874172180890E+01
 0.2394414949459E+01
 0.2991413718265E+01
 0.1193810483196E+01
 0.1258017034888E+01
 0.1318292164524E+01
 0.1366596511914E+01
 0.1400514124786E+01
 0.1422164310985E+01
 0.1435228717144E+01
 0.1443013762809E+01
 0.1447870873241E+01
 0.1451297189226E+01
 0.1454195292139E+01
 0.1457093391465E+01
 0.1460293712388E+01
 0.1463963759483E+01
 0.1468188860595E+01
 0.1472999216990E+01
 0.1478379556945E+01
 0.1484265770086E+01
 0.1490531848697E+01
 0.1496970974977E+01
 0.1503278990911E+01
 0.1509053705837E+01
 0.1513819624896E+01
 0.1517077048719E+01
 0.1518378478669E+01
 0.1517353215929E+01
 0.1513626432615E+01
 0.1506718498108E+01
 0.1496001282164E+01
 0.1480750042338E+01
 0.1460311130273E+01
 0.1434435885919E+01
 0.1403943131991E+01
 0.1372032797045E+01
 0.1347019471934E+01
 0.1347442747292E+01
 0.1408598720203E+01
 0.1583070051095E+01
 0.1918494731420E+01
 0.2407138621036E+01
 0.2947049580003E+01
 0.1187621416545E+01
 0.1248243569872E+01
 0.1305959423215E+01
 0.1353900589004E+01
 0.1389342336250E+01
 0.1413378824225E+01
 0.1428820158559E+01
 0.1438524986160E+01
 0.1444713230605E+01
 0.1448901859140E+01
 0.1452061218544E+01
 0.1454789450523E+01
 0.1457445246807E+01
 0.1460235880341E+01
 0.1463270892954E+01
 0.1466591525351E+01
 0.1470183017638E+01
 0.1473974321141E+01
 0.1477829123298E+01
 0.1481532894047E+01
 0.1484783922456E+01
 0.1487199027021E+01
 0.1488339526203E+01
 0.1487755220454E+01
 0.1485053689169E+01
 0.1479926693920E+01
 0.1472086038463E+01
 0.1461187995259E+01
 0.1446816012648E+01
 0.1428562509183E+01
 0.1406241964868E+01
 0.1380301613015E+01
 0.1352595969922E+01
 0.1327813132128E+01
 0.1316118486876E+01
 0.1337362155873E+01
 0.1424877625200E+01
 0.1621681175591E+01
 0.1958567893247E+01
 0.2417226968449E+01
 0.2909355532774E+01
 0.1182357247510E+01
 0.1239819864954E+01
 0.1295095562081E+01
 0.1342317145220E+01
 0.1378678407391E+01
 0.1404539388219E+01
 0.1421974056259E+01
 0.1433390375559E+01
 0.1440822863846E+01
 0.1445756627110E+01
 0.1449194659666E+01
 0.1451784456346E+01
 0.1453930323802E+01
 0.1455874498122E+01
 0.1457749730826E+01
 0.1459609922558E+01
 0.1461444612317E+01
 0.1463181735677E+01
 0.1464682796676E+01
 0.1465735566334E+01
 0.1466051624809E+01
 0.1465276981716E+01
 0.1463018705756E+01
 0.1458885203081E+01
 0.1452550726544E+01
 0.1443784747346E+01
 0.1432403980626E+01
 0.1418220742249E+01
 0.1401051714278E+01
 0.1380829312591E+01
 0.1357855934006E+01
 0.1333274975224E+01
 0.1309913741156E+01
 0.1293726464972E+01
 0.1296180055951E+01
 0.1337403571336E+01
 0.1447596182879E+01
 0.1660674872609E+01
 0.1994682514813E+01
 0.2425560529138E+01
 0.2877255780475E+01
 0.1177834880508E+01
 0.1232493381294E+01
 0.1285473943526E+01
 0.1331752768035E+01
 0.1368575152179E+01
 0.1395786772689E+01
 0.1414856319353E+01
 0.1427764975611E+01
 0.1436332110916E+01
 0.1441971812407E+01
 0.1445689023933E+01
 0.1448160776055E+01
 0.1449825655507E+01
 0.1450955314833E+01
 0.1451704051559E+01
 0.1452139536240E+01
 0.1452258966700E+01
 0.1451994685113E+01
 0.1451213344432E+01
 0.1449713785631E+01
 0.1447230105373E+01
 0.1443446098700E+01
 0.1438022354604E+01
 0.1430634106696E+01
 0.1421032704107E+01
 0.1409078663778E+01
 0.1394709041099E+01
 0.1377908158545E+01
 0.1358741006576E+01
 0.1337491872053E+01
 0.1314952689607E+01
 0.1292935069923E+01
 0.1275138046190E+01
 0.1268524371029E+01
 0.1285330236451E+01
 0.1345132405851E+01
 0.1474370892132E+01
 0.1698862693948E+01
 0.2027272272588E+01
 0.2432785693153E+01
 0.2849878149063E+01
 0.1173914435393E+01
 0.1226068203184E+01
 0.1276906935505E+01
 0.1322111466844E+01
 0.1359051671979E+01
 0.1387221384609E+01
 0.1407601319693E+01
 0.1421784322238E+01
 0.1431363141789E+01
 0.1437653402247E+01
 0.1441636619244E+01
 0.1444001259977E+01
 0.1445209021006E+01
 0.1445555057110E+01
 0.1445213070154E+01
 0.1444265149731E+01
 0.1442719044991E+01
 0.1440516339572E+01
 0.1437535312002E+01
 0.1433593437972E+01
 0.1428455119963E+01
 0.1421849171993E+01
 0.1413496399262E+01
 0.1403146088520E+01
 0.1390635704178E+01
 0.1375927963883E+01
 0.1359092552869E+01
 0.1340297344277E+01
 0.1319864162179E+01
 0.1298430884807E+01
 0.1277265071524E+01
 0.1258796772935E+01
 0.1247470831239E+01
 0.1250989211195E+01
 0.1281875906869E+01
 0.1358539520513E+01
 0.1503459341699E+01
 0.1735558412323E+01
 0.2056785969671E+01
 0.2439383601946E+01
 0.2826499007572E+01
 0.1170487710296E+01
 0.1220391039827E+01
 0.1269239984793E+01
 0.1313301572356E+01
 0.1350105903216E+01
 0.1378913199262E+01
 0.1400316677014E+01
 0.1415565509777E+01
 0.1426027294450E+01
 0.1432901853071E+01
 0.1437127419703E+01
 0.1439388128288E+01
 0.1440158290164E+01
 0.1439750608389E+01
 0.1438355743527E+01
 0.1436070454013E+01
 0.1432915452108E+01
 0.1428845765151E+01
 0.1423756898794E+01
 0.1417491387420E+01
 0.1409850443818E+01
 0.1400613926628E+01
 0.1389568515719E+01
 0.1376543679425E+01
 0.1361470458031E+01
 0.1344422609673E+01
 0.1325611512404E+01
 0.1305395750310E+01
 0.1284356355488E+01
 0.1263477633589E+01
 0.1244476374837E+01
 0.1230335762026E+01
 0.1226107127440E+01
 0.1239968831745E+01
 0.1284322666802E+01
 0.1375998402980E+01
 0.1533608498520E+01
 0.1770389163491E+01
 0.2083619369108E+01
 0.2445714763727E+01
 0.2806495867780E+01
 0.1167470136685E+01
 0.1215341040607E+01
 0.1262346101856E+01
 0.1305239126165E+01
 0.1341723200685E+01
 0.1370909711633E+01
 0.1393087888571E+01
 0.1409208836053E+01
 0.1420425018588E+01
 0.1427811328411E+01
 0.1432248112287E+01
 0.1434402033910E+01
 0.1434750564079E+01
 0.1433618229517E+01
 0.1431210057530E+01
 0.1427637393597E+01
 0.1422935852554E+01
 0.1417077462419E+01
 0.1409979694493E+01
 0.1401515497586E+01
 0.1391528237559E+01
 0.1379853739667E+01
 0.1366349191229E+01
 0.1350929199043E+01
 0.1333624199333E+01
 0.1314625492170E+01
 0.1294292056715E+01
 0.1273176216460E+01
 0.1252115099419E+01
 0.1232424917426E+01
 0.1216235926154E+01
 0.1207009284787E+01
 0.1210259452562E+01
 0.1234398103860E+01
 0.1291376497439E+01
 0.1396212824312E+01
 0.1563931438563E+01
 0.1803178623348E+01
 0.2108082751412E+01
 0.2452036199855E+01
 0.2789267653825E+01
 0.1164795047461E+01
 0.1210822313707E+01
 0.1256121044059E+01
 0.1297849231121E+01
 0.1333882093457E+01
 0.1363242118626E+01
 0.1385982506308E+01
 0.1402799707233E+01
 0.1414646245360E+01
 0.1422469296225E+01
 0.1427081397099E+01
 0.1429121296258E+01
 0.1429061434420E+01
 0.1427232871637E+01
 0.1423852398824E+01
 0.1419045603880E+01
 0.1412864495623E+01
 0.1405301025529E+01
 0.1396298538340E+01
 0.1385764759030E+01
 0.1373589488181E+01
 0.1359668410470E+01
 0.1343932833742E+01
 0.1326386247755E+01
 0.1307162646809E+01
 0.1286575102830E+01
 0.1265133143127E+01
 0.1243582134345E+01
 0.1223007528458E+01
 0.1205037174721E+01
 0.1192172575031E+01
 0.1188272716989E+01
 0.1199175175305E+01
 0.1233310588450E+01
 0.1301934575743E+01
 0.1418163659472E+01
 0.1593808747092E+01
 0.1833883590850E+01
 0.2130387857735E+01
 0.2458568215962E+01
 0.2773862249757E+01
 0.1162409130313E+01
 0.1206758359417E+01
 0.1250479723565E+01
 0.1291067379111E+01
 0.1326559892104E+01
 0.1355932486201E+01
 0.1379056705473E+01
 0.1396413931554E+01
 0.1408774691865E+01
 0.1416960407446E+01
 0.1421709954702E+01
 0.1423626377892E+01
 0.1423170342649E+01
 0.1420674790491E+01
 0.1416365823565E+01
 0.1410382773116E+01
 0.1402795151618E+01
 0.1393617167256E+01
 0.1382821157973E+01
 0.1370353038065E+01
 0.1356152287932E+01
 0.1340177274814E+01
 0.1322435887127E+01
 0.1303022827056E+01
 0.1282177934736E+01
 0.1260337821807E+01
 0.1238162406909E+01
 0.1216585637732E+01
 0.1196929062603E+01
 0.1181106867337E+01
 0.1171944747521E+01
 0.1173617459090E+01
 0.1192154045203E+01
 0.1235824415696E+01
 0.1315023427655E+01
 0.1440988379640E+01
 0.1622730478077E+01
 0.1862442942155E+01
 0.2150766217900E+01
 0.2464691736487E+01
 0.2763922108185E+01
 0.1160271153224E+01
 0.1203088241010E+01
 0.1245352479945E+01
 0.1284837165322E+01
 0.1319731740359E+01
 0.1348992561910E+01
 0.1372352566770E+01
 0.1390113094063E+01
 0.1402881560021E+01
 0.1411358830866E+01
 0.1416207509004E+01
 0.1417989480819E+01
 0.1417148268889E+01
 0.1414014700398E+01
 0.1408821912109E+01
 0.1401722334973E+01
 0.1392803713230E+01
 0.1382104265207E+01
 0.1369627694490E+01
 0.1355360653088E+01
 0.1339294630217E+01
 0.1321452569161E+01
 0.1301920405480E+01
 0.1280885186166E+01
 0.1258693347360E+01
 0.1235904867261E+01
 0.1213327576198E+01
 0.1192076923248E+01
 0.1173695554417E+01
 0.1160356105135E+01
 0.1155160035337E+01
 0.1162518515357E+01
 0.1188534166348E+01
 0.1241173497581E+01
 0.1329874550127E+01
 0.1464088364427E+01
 0.1650441028218E+01
 0.1888935183649E+01
 0.2169537898473E+01
 0.2470194246658E+01
 0.2760557118122E+01
 0.1158346815171E+01
 0.1199761989377E+01
 0.1240680439751E+01
 0.1279107928033E+01
 0.1313370636525E+01
 0.1342425101777E+01
 0.1365899431555E+01
 0.1383945261023E+01
 0.1397025506081E+01
 0.1405727699916E+01
 0.1410638011929E+01
 0.1412273674393E+01
 0.1411056941579E+01
 0.1407313158455E+01
 0.1401280399295E+01
 0.1393123414422E+01
 0.1382948537569E+01
 0.1370819197302E+01
 0.1356772144045E+01
 0.1340836543070E+01
 0.1323057427373E+01
 0.1303523423052E+01
 0.1282399158611E+01
 0.1259964202605E+01
 0.1236671164605E+01
 0.1213201812558E+01
 0.1190507850376E+01
 0.1169877603459E+01
 0.1153058539145E+01
 0.1142453318519E+01
 0.1141392070851E+01
 0.1154449062871E+01
 0.1187699309058E+01
 0.1248699063263E+01
 0.1345887001799E+01
 0.1487062531494E+01
 0.1676836093867E+01
 0.1913567917174E+01
 0.2186785970800E+01
 0.2476362254197E+01
 0.2757445388488E+01
 0.1156608936501E+01
 0.1196739805589E+01
 0.1236416344315E+01
 0.1273838276653E+01
 0.1307454015886E+01
 0.1336232530932E+01
 0.1359723374155E+01
 0.1377954391092E+01
 0.1391261708568E+01
 0.1400128006985E+01
 0.1405064800583E+01
 0.1406542902092E+01
 0.1404960382545E+01
 0.1400634425143E+01
 0.1393806213578E+01
 0.1384651990547E+01
 0.1373296749549E+01
 0.1359829853113E+01
 0.1344322159368E+01
 0.1326846406156E+01
 0.1307501936286E+01
 0.1286443356232E+01
 0.1263913742865E+01
 0.1240284314255E+01
 0.1216112170015E+01
 0.1192197824209E+01
 0.1169631221195E+01
 0.1149863378979E+01
 0.1134829057318E+01
 0.1127132092175E+01
 0.1130285815448E+01
 0.1148960834390E+01
 0.1189120306955E+01
 0.1257836110398E+01
 0.1362548728366E+01
 0.1509562367341E+01
 0.1701813548350E+01
 0.1936418256378E+01
 0.2202819537407E+01
 0.2482848883704E+01
 0.2755034782887E+01
 0.1155035657531E+01
 0.1193989503205E+01
 0.1232521418678E+01
 0.1268993197631E+01
 0.1301961445947E+01
 0.1330415006699E+01
 0.1353845163459E+01
 0.1372177856234E+01
 0.1385638822108E+01
 0.1394614977952E+01
 0.1399546368808E+01
 0.1400857043034E+01
 0.1398919049470E+01
 0.1394039386198E+01
 0.1386460801816E+01
 0.1376370189580E+01
 0.1363911024524E+01
 0.1349198896146E+01
 0.1332339264435E+01
 0.1313448841825E+01
 0.1292681335630E+01
 0.1270256873544E+01
 0.1246495903108E+01
 0.1221859459065E+01
 0.1197006336299E+01
 0.1172851519622E+01
 0.1150616307024E+01
 0.1131903138128E+01
 0.1118815921923E+01
 0.1114131256058E+01
 0.1121502984574E+01
 0.1145639165288E+01
 0.1192324091207E+01
 0.1268100266354E+01
 0.1379442746216E+01
 0.1531326937523E+01
 0.1725310369748E+01
 0.1957595603391E+01
 0.2217787554096E+01
 0.2489426383662E+01
 0.2753394421677E+01
 0.1153609383877E+01
 0.1191485038771E+01
 0.1228963862779E+01
 0.1264543230424E+01
 0.1296874795205E+01
 0.1324971355626E+01
 0.1348281479393E+01
 0.1366647522411E+01
 0.1380199722618E+01
 0.1389238464759E+01
 0.1394136482508E+01
 0.1395271846681E+01
 0.1392989674067E+01
 0.1387585358377E+01
 0.1379301950971E+01
 0.1368336161897E+01
 0.1354849556109E+01
 0.1338983856429E+01
 0.1320879103953E+01
 0.1300695786848E+01
 0.1278641376537E+01
 0.1255000361630E+01
 0.1230168715072E+01
 0.1204694592619E+01
 0.1179334732293E+01
 0.1155113310165E+01
 0.1133375151831E+01
 0.1115862174709E+01
 0.1104829217367E+01
 0.1103198363830E+01
 0.1114724936167E+01
 0.1144104200921E+01
 0.1196891315205E+01
 0.1279078952401E+01
 0.1396231647005E+01
 0.1552160150195E+01
 0.1747297097081E+01
 0.1977196562153E+01
 0.2231756161545E+01
 0.2495952972851E+01
 0.2752477479106E+01
 0.1152315959775E+01
 0.1189205339722E+01
 0.1225717624751E+01
 0.1260463706724E+01
 0.1292178231920E+01
 0.1319899717696E+01
 0.1343045855004E+01
 0.1361390653364E+01
 0.1374982180862E+01
 0.1384043342179E+01
 0.1388884340444E+01
 0.1389838929751E+01
 0.1387225166277E+01
 0.1381325960011E+01
 0.1372383672243E+01
 0.1360604019077E+01
 0.1346166081209E+01
 0.1329237276055E+01
 0.1309991739639E+01
 0.1288632990115E+01
 0.1265421062913E+01
 0.1240703004091E+01
 0.1214947770153E+01
 0.1188787181890E+01
 0.1163071362407E+01
 0.1138927607364E+01
 0.1117815784007E+01
 0.1101605023617E+01
 0.1092683238816E+01
 0.1094092415657E+01
 0.1109654606839E+01
 0.1144011033549E+01
 0.1202452976043E+01
 0.1290422771790E+01
 0.1412643163157E+01
 0.1571915753716E+01
 0.1767764447762E+01
 0.1995295873290E+01
 0.2244757536034E+01
 0.2502331471198E+01
 0.2752195542139E+01
 0.1151144013787E+01
 0.1187133369643E+01
 0.1222761396604E+01
 0.1256734068111E+01
 0.1287858118747E+01
 0.1315197976102E+01
 0.1338149397363E+01
 0.1356430655806E+01
 0.1370019457352E+01
 0.1379069890091E+01
 0.1383834759631E+01
 0.1384605816168E+01
 0.1381674567262E+01
 0.1375311029883E+01
 0.1365756130423E+01
 0.1353223811704E+01
 0.1337909939965E+01
 0.1320006881992E+01
 0.1299721963985E+01
 0.1277300493241E+01
 0.1253053323927E+01
 0.1227387672419E+01
 0.1200842314082E+01
 0.1174128621040E+01
 0.1148184881060E+01
 0.1124234836402E+01
 0.1103844490452E+01
 0.1088997895669E+01
 0.1082198898670E+01
 0.1086585913609E+01
 0.1106017669490E+01
 0.1145049020368E+01
 0.1208686532688E+01
 0.1301837218630E+01
 0.1428458166113E+01
 0.1590485142006E+01
 0.1786713609651E+01
 0.2011950636671E+01
 0.2256808968700E+01
 0.2508490676688E+01
 0.2752447120422E+01
 0.1150084433574E+01
 0.1185255377095E+01
 0.1220077787169E+01
 0.1253337260891E+01
 0.1283902845659E+01
 0.1310864029089E+01
 0.1333601330439E+01
 0.1351787684651E+01
 0.1365340816850E+01
 0.1374354148607E+01
 0.1379028369438E+01
 0.1379616004817E+01
 0.1376383037654E+01
 0.1369586582045E+01
 0.1359465606193E+01
 0.1346241534889E+01
 0.1330126156185E+01
 0.1311335769951E+01
 0.1290109613390E+01
 0.1266733096604E+01
 0.1241565655615E+01
 0.1215071766231E+01
 0.1187856309235E+01
 0.1160705535821E+01
 0.1134640147513E+01
 0.1110973225781E+01
 0.1091367785887E+01
 0.1077910713656E+01
 0.1073205635765E+01
 0.1080466330174E+01
 0.1103563043016E+01
 0.1146940502817E+01
 0.1215311768050E+01
 0.1313075063023E+01
 0.1443500671688E+01
 0.1607787694492E+01
 0.1804151124649E+01
 0.2027205243997E+01
 0.2267921145684E+01
 0.2514374517722E+01
 0.2753127784073E+01
 0.1149129942606E+01
 0.1183560289414E+01
 0.1217652641268E+01
 0.1250259207985E+01
 0.1280302635484E+01
 0.1306895953755E+01
 0.1329409404074E+01
 0.1347479136009E+01
 0.1360971974563E+01
 0.1369928248708E+01
 0.1374501813827E+01
 0.1374909065309E+01
 0.1371391883825E+01
 0.1364194802441E+01
 0.1353554500497E+01
 0.1339699173983E+01
 0.1322855554424E+01
 0.1303262619777E+01
 0.1281189906031E+01
 0.1256960841595E+01
 0.1230980767941E+01
 0.1203768044717E+01
 0.1175989468029E+01
 0.1148501030089E+01
 0.1122399682187E+01
 0.1099080444539E+01
 0.1080294163329E+01
 0.1068218854861E+01
 0.1065542955569E+01
 0.1075537141246E+01
 0.1102062932991E+01
 0.1149439135183E+01
 0.1222086621022E+01
 0.1323929504658E+01
 0.1457629501114E+01
 0.1623763515748E+01
 0.1820086181550E+01
 0.2041095098839E+01
 0.2278101383801E+01
 0.2519935704657E+01
 0.2754135364708E+01
 0.1148274756685E+01
 0.1182039220492E+01
 0.1215474477090E+01
 0.1247488349896E+01
 0.1277049338273E+01
 0.1303292090457E+01
 0.1325580194346E+01
 0.1343520040534E+01
 0.1356935472939E+01
 0.1365820707412E+01
 0.1370287945324E+01
 0.1370520742812E+01
 0.1366738601833E+01
 0.1359174065511E+01
 0.1348061356911E+01
 0.1333634763229E+01
 0.1316134882432E+01
 0.1295821906268E+01
 0.1272993762965E+01
 0.1248009461605E+01
 0.1221317183470E+01
 0.1193485388967E+01
 0.1165238191307E+01
 0.1137495804488E+01
 0.1111424954261E+01
 0.1088495022272E+01
 0.1070535574140E+01
 0.1059804570732E+01
 0.1059061603213E+01
 0.1071618466103E+01
 0.1101312499398E+01
 0.1152327983407E+01
 0.1228803190189E+01
 0.1334228183631E+01
 0.1470731525211E+01
 0.1638368164552E+01
 0.1834529208025E+01
 0.2053649109777E+01
 0.2287354799686E+01
 0.2525132323849E+01
 0.2755372841124E+01
 0.1147514302958E+01
 0.1180685069200E+01
 0.1213534020515E+01
 0.1245015248905E+01
 0.1274136228551E+01
 0.1300051074541E+01
 0.1322119323003E+01
 0.1339923377736E+01
 0.1353251000553E+01
 0.1362056692010E+01
 0.1366416011693E+01
 0.1366483072242E+01
 0.1362456940398E+01
 0.1354558973986E+01
 0.1343020907436E+01
 0.1328082465228E+01
 0.1309996949521E+01
 0.1289044119010E+01
 0.1265548129369E+01
 0.1239900822226E+01
 0.1212589811814E+01
 0.1184229523152E+01
 0.1155596443847E+01
 0.1127669184401E+01
 0.1101677544092E+01
 0.1079157603968E+01
 0.1062008700380E+01
 0.1052558158580E+01
 0.1053624456436E+01
 0.1068547413208E+01
 0.1101129262960E+01
 0.1155417513695E+01
 0.1235283986195E+01
 0.1343827982758E+01
 0.1482716203458E+01
 0.1651568762087E+01
 0.1847491020874E+01
 0.2064891215285E+01
 0.2295684701718E+01
 0.2529926198081E+01
 0.2756750014383E+01
 0.1146844990908E+01
 0.1179492191620E+01
 0.1211823820521E+01
 0.1242832250735E+01
 0.1271557813944E+01
 0.1297171833602E+01
 0.1319031615490E+01
 0.1336700325336E+01
 0.1349935659376E+01
 0.1358658252830E+01
 0.1362911830327E+01
 0.1362824494476E+01
 0.1358576974544E+01
 0.1350380413061E+01
 0.1338464132500E+01
 0.1323072661458E+01
 0.1304470770377E+01
 0.1282955979890E+01
 0.1258876283693E+01
 0.1232653337509E+01
 0.1204810485881E+01
 0.1176003680228E+01
 0.1147056553197E+01
 0.1119000045648E+01
 0.1093120173786E+01
 0.1071012041275E+01
 0.1054636033196E+01
 0.1046378914833E+01
 0.1049107186955E+01
 0.1066178203327E+01
 0.1101352349133E+01
 0.1158543590012E+01
 0.1241378526053E+01
 0.1352610610374E+01
 0.1493511232534E+01
 0.1663341117655E+01
 0.1858982275815E+01
 0.2074841335904E+01
 0.2303092814284E+01
 0.2534282255382E+01
 0.2758184561025E+01
 0.1146264024013E+01
 0.1178456132518E+01
 0.1210337930766E+01
 0.1240933195968E+01
 0.1269309658223E+01
 0.1294653561579E+01
 0.1316321210934E+01
 0.1333860453825E+01
 0.1347004184889E+01
 0.1355644523599E+01
 0.1359797945544E+01
 0.1359569967581E+01
 0.1355125181813E+01
 0.1346665610283E+01
 0.1334418326083E+01
 0.1318632044211E+01
 0.1299581703952E+01
 0.1277580647024E+01
 0.1252998122401E+01
 0.1226282348864E+01
 0.1197988445492E+01
 0.1168809196988E+01
 0.1139609916806E+01
 0.1111467624415E+01
 0.1085717596036E+01
 0.1064006316463E+01
 0.1048346762317E+01
 0.1041175886053E+01
 0.1045398719932E+01
 0.1064382116039E+01
 0.1101841633675E+01
 0.1161565549458E+01
 0.1246960300859E+01
 0.1360478895457E+01
 0.1503059098721E+01
 0.1673667587114E+01
 0.1869013087354E+01
 0.2083516008955E+01
 0.2309579524228E+01
 0.2538168440261E+01
 0.2759602656169E+01
 0.1145769246063E+01
 0.1177573406359E+01
 0.1209071647905E+01
 0.1239313177263E+01
 0.1267388223557E+01
 0.1292495681727E+01
 0.1313991639083E+01
 0.1331411879774E+01
 0.1344469128896E+01
 0.1353031895347E+01
 0.1357093771968E+01
 0.1356741074863E+01
 0.1352124522709E+01
 0.1343438203475E+01
 0.1330907169443E+01
 0.1314783714923E+01
 0.1295351594215E+01
 0.1272937913953E+01
 0.1247930431488E+01
 0.1220800480358E+01
 0.1192130784991E+01
 0.1162646058448E+01
 0.1133247641371E+01
 0.1105052240234E+01
 0.1079437375918E+01
 0.1058093340676E+01
 0.1043077525659E+01
 0.1036868474007E+01
 0.1042401554612E+01
 0.1063047329016E+01
 0.1102476861508E+01
 0.1164364411795E+01
 0.1251924118270E+01
 0.1367353696571E+01
 0.1511314328121E+01
 0.1682535430209E+01
 0.1877592725861E+01
 0.2090928825202E+01
 0.2315144167332E+01
 0.2541555874180E+01
 0.2760939350708E+01
 0.1145359016238E+01
 0.1176841319456E+01
 0.1208021297556E+01
 0.1237968336584E+01
 0.1265790731959E+01
 0.1290697803560E+01
 0.1312045871208E+01
 0.1329361383509E+01
 0.1342341007166E+01
 0.1350834162088E+01
 0.1354815718880E+01
 0.1354356122169E+01
 0.1349594516057E+01
 0.1340718306066E+01
 0.1327950801552E+01
 0.1311547275687E+01
 0.1291798897987E+01
 0.1269044387582E+01
 0.1243687126370E+01
 0.1216217950127E+01
 0.1187242842883E+01
 0.1157513368424E+01
 0.1127961091117E+01
 0.1099735910010E+01
 0.1074250546982E+01
 0.1053231613286E+01
 0.1038773013670E+01
 0.1033386899720E+01
 0.1040031964326E+01
 0.1062078684365E+01
 0.1103156787680E+01
 0.1166841271563E+01
 0.1256183836682E+01
 0.1373171380210E+01
 0.1518241334969E+01
 0.1689935578532E+01
 0.1884729411669E+01
 0.2097090787886E+01
 0.2319785365823E+01
 0.2544419127269E+01
 0.2762138797811E+01
 0.1145032108164E+01
 0.1176257826876E+01
 0.1207184061141E+01
 0.1236895698455E+01
 0.1264515046912E+01
 0.1289259679447E+01
 0.1310486353179E+01
 0.1327714499273E+01
 0.1340628418198E+01
 0.1349062642159E+01
 0.1352977297404E+01
 0.1352430225105E+01
 0.1347551309513E+01
 0.1338522570175E+01
 0.1325565887183E+01
 0.1308938915678E+01
 0.1288938802625E+01
 0.1265913648790E+01
 0.1240279465400E+01
 0.1212542844645E+01
 0.1183328542007E+01
 0.1153409756941E+01
 0.1123742358284E+01
 0.1095502869705E+01
 0.1070132162089E+01
 0.1049385767136E+01
 0.1035386457612E+01
 0.1030672559933E+01
 0.1038220113290E+01
 0.1061397422308E+01
 0.1103798377333E+01
 0.1168915889321E+01
 0.1259670461274E+01
 0.1377881775415E+01
 0.1523812729113E+01
 0.1695861688921E+01
 0.1890430157253E+01
 0.2102010601225E+01
 0.2323501361414E+01
 0.2546736505796E+01
 0.2763154369437E+01
 0.1144787630582E+01
 0.1175821419710E+01
 0.1206557838934E+01
 0.1236093036280E+01
 0.1263559575634E+01
 0.1288181164688E+01
 0.1309315026336E+01
 0.1326475583284E+01
 0.1339338136824E+01
 0.1347726276728E+01
 0.1351589209984E+01
 0.1350975384011E+01
 0.1346007742025E+01
 0.1336864243687E+01
 0.1323765678500E+01
 0.1306971488126E+01
 0.1286783328993E+01
 0.1263556391026E+01
 0.1237716232252E+01
 0.1209781351216E+01
 0.1180390675965E+01
 0.1150333721046E+01
 0.1120584653958E+01
 0.1092340004232E+01
 0.1067061743020E+01
 0.1046527008090E+01
 0.1032880015469E+01
 0.1028678295962E+01
 0.1036910117648E+01
 0.1060940917094E+01
 0.1104336101976E+01
 0.1170525507674E+01
 0.1262330596836E+01
 0.1381446560040E+01
 0.1528008016219E+01
 0.1700309435640E+01
 0.1894700662557E+01
 0.2105694917716E+01
 0.2326290330680E+01
 0.2548490317491E+01
 0.2763948732361E+01
 0.1144624966160E+01
 0.1175531038587E+01
 0.1206141144572E+01
 0.1235558768252E+01
 0.1262923191027E+01
 0.1287462182753E+01
 0.1308533339425E+01
 0.1325647863053E+01
 0.1338475184947E+01
 0.1346831706101E+01
 0.1350659421158E+01
 0.1350000544506E+01
 0.1344973395242E+01
 0.1335753217769E+01
 0.1322560066282E+01
 0.1305654573737E+01
 0.1285341415420E+01
 0.1261980532389E+01
 0.1236003882513E+01
 0.1207937943895E+01
 0.1178431137143E+01
 0.1148283894833E+01
 0.1118482616006E+01
 0.1090237183897E+01
 0.1065023629398E+01
 0.1044633452185E+01
 0.1031225062095E+01
 0.1027368585546E+01
 0.1036060066062E+01
 0.1060662434452E+01
 0.1104721350067E+01
 0.1171623896913E+01
 0.1264125235271E+01
 0.1383838026412E+01
 0.1530812624981E+01
 0.1703275992405E+01
 0.1897545248703E+01
 0.2108148542927E+01
 0.2328150656080E+01
 0.2549667095539E+01
 0.2764493873206E+01
 0.1144543727296E+01
 0.1175386011109E+01
 0.1205933028606E+01
 0.1235291881331E+01
 0.1262605173763E+01
 0.1287102698262E+01
 0.1308142255552E+01
 0.1325233472189E+01
 0.1338042882990E+01
 0.1346383326371E+01
 0.1350193211135E+01
 0.1349511644286E+01
 0.1344454634107E+01
 0.1335196064986E+01
 0.1321955621113E+01
 0.1304994531228E+01
 0.1284618983814E+01
 0.1261191302962E+01
 0.1235146656998E+01
 0.1207015526311E+01
 0.1177451090934E+01
 0.1147259254688E+01
 0.1117432541907E+01
 0.1089187517345E+01
 0.1064007239309E+01
 0.1043690375382E+01
 0.1030402401243E+01
 0.1026719678097E+01
 0.1035642022988E+01
 0.1060530935007E+01
 0.1104921972287E+01
 0.1172180636607E+01
 0.1265028860443E+01
 0.1385038185232E+01
 0.1532217210799E+01
 0.1704759665899E+01
 0.1898966814422E+01
 0.2109374590538E+01
 0.2329081137219E+01
 0.2550257766987E+01
 0.2764771113228E+01
 0.1144543727302E+01
 0.1175386011116E+01
 0.1205933028614E+01
 0.1235291881341E+01
 0.1262605173776E+01
 0.1287102698278E+01
 0.1308142255570E+01
 0.1325233472211E+01
 0.1338042883015E+01
 0.1346383326398E+01
 0.1350193211166E+01
 0.1349511644321E+01
 0.1344454634147E+01
 0.1335196065030E+01
 0.1321955621163E+01
 0.1304994531286E+01
 0.1284618983881E+01
 0.1261191303038E+01
 0.1235146657084E+01
 0.1207015526407E+01
 0.1177451091041E+01
 0.1147259254804E+01
 0.1117432542030E+01
 0.1089187517473E+01
 0.1064007239437E+01
 0.1043690375505E+01
 0.1030402401355E+01
 0.1026719678188E+01
 0.1035642023049E+01
 0.1060530935027E+01
 0.1104921972256E+01
 0.1172180636520E+01
 0.1265028860297E+01
 0.1385038185033E+01
 0.1532217210561E+01
 0.1704759665643E+01
 0.1898966814173E+01
 0.2109374590323E+01
 0.2329081137059E+01
 0.2550257766893E+01
 0.2764771113197E+01
 0.1144624966178E+01
 0.1175531038607E+01
 0.1206141144597E+01
 0.1235558768284E+01
 0.1262923191065E+01
 0.1287462182800E+01
 0.1308533339480E+01
 0.1325647863117E+01
 0.1338475185021E+01
 0.1346831706183E+01
 0.1350659421250E+01
 0.1350000544610E+01
 0.1344973395359E+01
 0.1335753217902E+01
 0.1322560066435E+01
 0.1305654573911E+01
 0.1285341415620E+01
 0.1261980532616E+01
 0.1236003882771E+01
 0.1207937944184E+01
 0.1178431137464E+01
 0.1148283895181E+01
 0.1118482616377E+01
 0.1090237184282E+01
 0.1065023629785E+01
 0.1044633452557E+01
 0.1031225062432E+01
 0.1027368585821E+01
 0.1036060066246E+01
 0.1060662434514E+01
 0.1104721349978E+01
 0.1171623896653E+01
 0.1264125234835E+01
 0.1383838025817E+01
 0.1530812624267E+01
 0.1703275991636E+01
 0.1897545247956E+01
 0.2108148542281E+01
 0.2328150655599E+01
 0.2549667095258E+01
 0.2764493873116E+01
 0.1144787630612E+01
 0.1175821419744E+01
 0.1206557838975E+01
 0.1236093036332E+01
 0.1263559575699E+01
 0.1288181164766E+01
 0.1309315026428E+01
 0.1326475583391E+01
 0.1339338136947E+01
 0.1347726276865E+01
 0.1351589210138E+01
 0.1350975384184E+01
 0.1346007742220E+01
 0.1336864243908E+01
 0.1323765678753E+01
 0.1306971488416E+01
 0.1286783329325E+01
 0.1263556391405E+01
 0.1237716232681E+01
 0.1209781351698E+01
 0.1180390676498E+01
 0.1150333721626E+01
 0.1120584654577E+01
 0.1092340004875E+01
 0.1067061743666E+01
 0.1046527008713E+01
 0.1032880016034E+01
 0.1028678296427E+01
 0.1036910117962E+01
 0.1060940917205E+01
 0.1104336101837E+01
 0.1170525507249E+01
 0.1262330596116E+01
 0.1381446559053E+01
 0.1528008015032E+01
 0.1700309434359E+01
 0.1894700661311E+01
 0.2105694916638E+01
 0.2326290329879E+01
 0.2548490317025E+01
 0.2763948732216E+01
 0.1145032108206E+01
 0.1176257826924E+01
 0.1207184061200E+01
 0.1236895698528E+01
 0.1264515047002E+01
 0.1289259679557E+01
 0.1310486353309E+01
 0.1327714499423E+01
 0.1340628418368E+01
 0.1349062642351E+01
 0.1352977297619E+01
 0.1352430225346E+01
 0.1347551309785E+01
 0.1338522570483E+01
 0.1325565887536E+01
 0.1308938916082E+01
 0.1288938803088E+01
 0.1265913649319E+01
 0.1240279466000E+01
 0.1212542845319E+01
 0.1183328542754E+01
 0.1153409757754E+01
 0.1123742359152E+01
 0.1095502870608E+01
 0.1070132162999E+01
 0.1049385768015E+01
 0.1035386458412E+01
 0.1030672560594E+01
 0.1038220113743E+01
 0.1061397422480E+01
 0.1103798377156E+01
 0.1168915888743E+01
 0.1259670460281E+01
 0.1377881774043E+01
 0.1523812727456E+01
 0.1695861687128E+01
 0.1890430155506E+01
 0.2102010599713E+01
 0.2323501360293E+01
 0.2546736505150E+01
 0.2763154369248E+01
 0.1145359016292E+01
 0.1176841319517E+01
 0.1208021297631E+01
 0.1237968336678E+01
 0.1265790732075E+01
 0.1290697803701E+01
 0.1312045871375E+01
 0.1329361383702E+01
 0.1342341007385E+01
 0.1350834162334E+01
 0.1354815719154E+01
 0.1354356122477E+01
 0.1349594516404E+01
 0.1340718306461E+01
 0.1327950802002E+01
 0.1311547276204E+01
 0.1291798898579E+01
 0.1269044388260E+01
 0.1243687127139E+01
 0.1216217950991E+01
 0.1187242843841E+01
 0.1157513369470E+01
 0.1127961092235E+01
 0.1099735911175E+01
 0.1074250548160E+01
 0.1053231614428E+01
 0.1038773014714E+01
 0.1033386900590E+01
 0.1040031964934E+01
 0.1062078684615E+01
 0.1103156787481E+01
 0.1166841270850E+01
 0.1256183835431E+01
 0.1373171378465E+01
 0.1518241332849E+01
 0.1689935576227E+01
 0.1884729409418E+01
 0.2097090785937E+01
 0.2319785364382E+01
 0.2544419126449E+01
 0.2762138797590E+01
 0.1145769246129E+01
 0.1177573406434E+01
 0.1209071647997E+01
 0.1239313177378E+01
 0.1267388223699E+01
 0.1292495681900E+01
 0.1313991639287E+01
 0.1331411880009E+01
 0.1344469129161E+01
 0.1353031895645E+01
 0.1357093772301E+01
 0.1356741075236E+01
 0.1352124523129E+01
 0.1343438203953E+01
 0.1330907169989E+01
 0.1314783715550E+01
 0.1295351594934E+01
 0.1272937914776E+01
 0.1247930432424E+01
 0.1220800481412E+01
 0.1192130786161E+01
 0.1162646059726E+01
 0.1133247642740E+01
 0.1105052241665E+01
 0.1079437377369E+01
 0.1058093342089E+01
 0.1043077526958E+01
 0.1036868475101E+01
 0.1042401555392E+01
 0.1063047329365E+01
 0.1102476861312E+01
 0.1164364410969E+01
 0.1251924116781E+01
 0.1367353694467E+01
 0.1511314325546E+01
 0.1682535427394E+01
 0.1877592723102E+01
 0.2090928822811E+01
 0.2315144165570E+01
 0.2541555873193E+01
 0.2760939350471E+01
 0.1146264024091E+01
 0.1178456132607E+01
 0.1210337930875E+01
 0.1240933196104E+01
 0.1269309658391E+01
 0.1294653561783E+01
 0.1316321211174E+01
 0.1333860454101E+01
 0.1347004185201E+01
 0.1355644523948E+01
 0.1359797945933E+01
 0.1359569968018E+01
 0.1355125182305E+01
 0.1346665610841E+01
 0.1334418326722E+01
 0.1318632044945E+01
 0.1299581704796E+01
 0.1277580647990E+01
 0.1252998123502E+01
 0.1226282350105E+01
 0.1197988446873E+01
 0.1168809198500E+01
 0.1139609918429E+01
 0.1111467626117E+01
 0.1085717597766E+01
 0.1064006318156E+01
 0.1048346763885E+01
 0.1041175887388E+01
 0.1045398720906E+01
 0.1064382116512E+01
 0.1101841633509E+01
 0.1161565548547E+01
 0.1246960299158E+01
 0.1360478893014E+01
 0.1503059095700E+01
 0.1673667583791E+01
 0.1869013084085E+01
 0.2083516006118E+01
 0.2309579522145E+01
 0.2538168439115E+01
 0.2759602655939E+01
 0.1146844990998E+01
 0.1179492191723E+01
 0.1211823820647E+01
 0.1242832250893E+01
 0.1271557814138E+01
 0.1297171833837E+01
 0.1319031615767E+01
 0.1336700325653E+01
 0.1349935659734E+01
 0.1358658253229E+01
 0.1362911830772E+01
 0.1362824494974E+01
 0.1358576975104E+01
 0.1350380413698E+01
 0.1338464133229E+01
 0.1323072662296E+01
 0.1304470771341E+01
 0.1282955980996E+01
 0.1258876284955E+01
 0.1232653338934E+01
 0.1204810487470E+01
 0.1176003681972E+01
 0.1147056555075E+01
 0.1119000047623E+01
 0.1093120175804E+01
 0.1071012043260E+01
 0.1054636035049E+01
 0.1046378916430E+01
 0.1049107188149E+01
 0.1066178203955E+01
 0.1101352349032E+01
 0.1158543589052E+01
 0.1241378524171E+01
 0.1352610607616E+01
 0.1493511229082E+01
 0.1663341113827E+01
 0.1858982272030E+01
 0.2074841332613E+01
 0.2303092811878E+01
 0.2534282254088E+01
 0.2758184560825E+01
 0.1147514303060E+01
 0.1180685069317E+01
 0.1213534020658E+01
 0.1245015249084E+01
 0.1274136228772E+01
 0.1300051074807E+01
 0.1322119323316E+01
 0.1339923378093E+01
 0.1353251000955E+01
 0.1362056692457E+01
 0.1366416012191E+01
 0.1366483072798E+01
 0.1362456941024E+01
 0.1354558974698E+01
 0.1343020908251E+01
 0.1328082466165E+01
 0.1309996950602E+01
 0.1289044120253E+01
 0.1265548130789E+01
 0.1239900823833E+01
 0.1212589813610E+01
 0.1184229525130E+01
 0.1155596445982E+01
 0.1127669186656E+01
 0.1101677546405E+01
 0.1079157606258E+01
 0.1062008702536E+01
 0.1052558160464E+01
 0.1053624457880E+01
 0.1068547414027E+01
 0.1101129262964E+01
 0.1155417512726E+01
 0.1235283984170E+01
 0.1343827979715E+01
 0.1482716199592E+01
 0.1651568757758E+01
 0.1847491016567E+01
 0.2064891211531E+01
 0.2295684698985E+01
 0.2529926196649E+01
 0.2756750014242E+01
 0.1148274756800E+01
 0.1182039220623E+01
 0.1215474477251E+01
 0.1247488350096E+01
 0.1277049338521E+01
 0.1303292090755E+01
 0.1325580194694E+01
 0.1343520040932E+01
 0.1356935473384E+01
 0.1365820707906E+01
 0.1370287945872E+01
 0.1370520743423E+01
 0.1366738602521E+01
 0.1359174066292E+01
 0.1348061357808E+01
 0.1333634764262E+01
 0.1316134883625E+01
 0.1295821907642E+01
 0.1272993764538E+01
 0.1248009463390E+01
 0.1221317185471E+01
 0.1193485391176E+01
 0.1165238193702E+01
 0.1137495807026E+01
 0.1111424956879E+01
 0.1088495024879E+01
 0.1070535576618E+01
 0.1059804572927E+01
 0.1059061604942E+01
 0.1071618467154E+01
 0.1101312499554E+01
 0.1152327982478E+01
 0.1228803188066E+01
 0.1334228180338E+01
 0.1470731520954E+01
 0.1638368159729E+01
 0.1834529203191E+01
 0.2053649105552E+01
 0.2287354796624E+01
 0.2525132322290E+01
 0.2755372841074E+01
 0.1149129942732E+01
 0.1183560289560E+01
 0.1217652641446E+01
 0.1250259208208E+01
 0.1280302635759E+01
 0.1306895954084E+01
 0.1329409404458E+01
 0.1347479136446E+01
 0.1360971975050E+01
 0.1369928249246E+01
 0.1374501814422E+01
 0.1374909065972E+01
 0.1371391884570E+01
 0.1364194803289E+01
 0.1353554501470E+01
 0.1339699175106E+01
 0.1322855555723E+01
 0.1303262621277E+01
 0.1281189907753E+01
 0.1256960843555E+01
 0.1230980770144E+01
 0.1203768047157E+01
 0.1175989470684E+01
 0.1148501032915E+01
 0.1122399685119E+01
 0.1099080447480E+01
 0.1080294166150E+01
 0.1068218857398E+01
 0.1065542957619E+01
 0.1075537142575E+01
 0.1102062933351E+01
 0.1149439134351E+01
 0.1222086618854E+01
 0.1323929501160E+01
 0.1457629496494E+01
 0.1623763510442E+01
 0.1820086176184E+01
 0.2041095094130E+01
 0.2278101380403E+01
 0.2519935702985E+01
 0.2754135364786E+01
 0.1150084433713E+01
 0.1185255377255E+01
 0.1220077787365E+01
 0.1253337261136E+01
 0.1283902845961E+01
 0.1310864029451E+01
 0.1333601330858E+01
 0.1351787685125E+01
 0.1365340817377E+01
 0.1374354149187E+01
 0.1379028370078E+01
 0.1379616005528E+01
 0.1376383038453E+01
 0.1369586582954E+01
 0.1359465607237E+01
 0.1346241536096E+01
 0.1330126157585E+01
 0.1311335771572E+01
 0.1290109615256E+01
 0.1266733098733E+01
 0.1241565658016E+01
 0.1215071768900E+01
 0.1187856312151E+01
 0.1160705538941E+01
 0.1134640150768E+01
 0.1110973229070E+01
 0.1091367789076E+01
 0.1077910716566E+01
 0.1073205638178E+01
 0.1080466331831E+01
 0.1103563043639E+01
 0.1146940502145E+01
 0.1215311765901E+01
 0.1313075059373E+01
 0.1443500666742E+01
 0.1607787688716E+01
 0.1804151118746E+01
 0.2027205238790E+01
 0.2267921141942E+01
 0.2514374515947E+01
 0.2753127784318E+01
 0.1151144013938E+01
 0.1187133369817E+01
 0.1222761396818E+01
 0.1256734068379E+01
 0.1287858119076E+01
 0.1315197976495E+01
 0.1338149397817E+01
 0.1356430656317E+01
 0.1370019457916E+01
 0.1379069890710E+01
 0.1383834760312E+01
 0.1384605816923E+01
 0.1381674568109E+01
 0.1375311030847E+01
 0.1365756131532E+01
 0.1353223812989E+01
 0.1337909941459E+01
 0.1320006883726E+01
 0.1299721965988E+01
 0.1277300495533E+01
 0.1253053326522E+01
 0.1227387675314E+01
 0.1200842317259E+01
 0.1174128624457E+01
 0.1148184884647E+01
 0.1124234840056E+01
 0.1103844494030E+01
 0.1088997898986E+01
 0.1082198901489E+01
 0.1086585915650E+01
 0.1106017670443E+01
 0.1145049019929E+01
 0.1208686530631E+01
 0.1301837214892E+01
 0.1428458160883E+01
 0.1590485135780E+01
 0.1786713603206E+01
 0.2011950630951E+01
 0.2256808964604E+01
 0.2508490674822E+01
 0.2752447120879E+01
 0.1152315959939E+01
 0.1189205339911E+01
 0.1225717624984E+01
 0.1260463707015E+01
 0.1292178232278E+01
 0.1319899718121E+01
 0.1343045855493E+01
 0.1361390653910E+01
 0.1374982181463E+01
 0.1384043342834E+01
 0.1388884341161E+01
 0.1389838930545E+01
 0.1387225167168E+01
 0.1381325961025E+01
 0.1372383673411E+01
 0.1360604020434E+01
 0.1346166082789E+01
 0.1329237277895E+01
 0.1309991741771E+01
 0.1288632992564E+01
 0.1265421065695E+01
 0.1240703007209E+01
 0.1214947773590E+01
 0.1188787185607E+01
 0.1163071366334E+01
 0.1138927611397E+01
 0.1117815788000E+01
 0.1101605027374E+01
 0.1092683242089E+01
 0.1094092418143E+01
 0.1109654608194E+01
 0.1144011033427E+01
 0.1202452974164E+01
 0.1290422768041E+01
 0.1412643157700E+01
 0.1571915747065E+01
 0.1767764440775E+01
 0.1995295867040E+01
 0.2244757531571E+01
 0.2502331469253E+01
 0.2752195542856E+01
 0.1153609384054E+01
 0.1191485038975E+01
 0.1228963863030E+01
 0.1264543230739E+01
 0.1296874795591E+01
 0.1324971356083E+01
 0.1348281479916E+01
 0.1366647522991E+01
 0.1380199723252E+01
 0.1389238465447E+01
 0.1394136483258E+01
 0.1395271847508E+01
 0.1392989674995E+01
 0.1387585359434E+01
 0.1379301952190E+01
 0.1368336163317E+01
 0.1354849557769E+01
 0.1338983858367E+01
 0.1320879106206E+01
 0.1300695789446E+01
 0.1278641379501E+01
 0.1255000364966E+01
 0.1230168718768E+01
 0.1204694596639E+01
 0.1179334736568E+01
 0.1155113314593E+01
 0.1133375156263E+01
 0.1115862178944E+01
 0.1104829221143E+01
 0.1103198366825E+01
 0.1114724938005E+01
 0.1144104201208E+01
 0.1196891313602E+01
 0.1279078948731E+01
 0.1396231641390E+01
 0.1552160143155E+01
 0.1747297089551E+01
 0.1977196555352E+01
 0.2231756156698E+01
 0.2495952970836E+01
 0.2752477480134E+01
 0.1155035657720E+01
 0.1193989503424E+01
 0.1232521418949E+01
 0.1268993197971E+01
 0.1301961446363E+01
 0.1330415007189E+01
 0.1353845164015E+01
 0.1372177856847E+01
 0.1385638822772E+01
 0.1394614978669E+01
 0.1399546369587E+01
 0.1400857043891E+01
 0.1398919050429E+01
 0.1394039387290E+01
 0.1386460803079E+01
 0.1376370191055E+01
 0.1363911026253E+01
 0.1349198898173E+01
 0.1332339266800E+01
 0.1313448844563E+01
 0.1292681338767E+01
 0.1270256877092E+01
 0.1246495907059E+01
 0.1221859463387E+01
 0.1197006340929E+01
 0.1172851524459E+01
 0.1150616311919E+01
 0.1131903142877E+01
 0.1118815926255E+01
 0.1114131259631E+01
 0.1121502986981E+01
 0.1145639166087E+01
 0.1192324089991E+01
 0.1268100262872E+01
 0.1379442740528E+01
 0.1531326930141E+01
 0.1725310361681E+01
 0.1957595596018E+01
 0.2217787548846E+01
 0.2489426381587E+01
 0.2753394423071E+01
 0.1156608936703E+01
 0.1196739805823E+01
 0.1236416344606E+01
 0.1273838277019E+01
 0.1307454016332E+01
 0.1336232531455E+01
 0.1359723374744E+01
 0.1377954391736E+01
 0.1391261709260E+01
 0.1400128007726E+01
 0.1405064801383E+01
 0.1406542902970E+01
 0.1404960383528E+01
 0.1400634426264E+01
 0.1393806214877E+01
 0.1384651992068E+01
 0.1373296751338E+01
 0.1359829855218E+01
 0.1344322161835E+01
 0.1326846409024E+01
 0.1307501939587E+01
 0.1286443359984E+01
 0.1263913747067E+01
 0.1240284318880E+01
 0.1216112175005E+01
 0.1192197829468E+01
 0.1169631226576E+01
 0.1149863384278E+01
 0.1134829062258E+01
 0.1127132096398E+01
 0.1130285818518E+01
 0.1148960835814E+01
 0.1189120306255E+01
 0.1257836107231E+01
 0.1362548722711E+01
 0.1509562359680E+01
 0.1701813539758E+01
 0.1936418248409E+01
 0.2202819531732E+01
 0.2482848881580E+01
 0.2755034784705E+01
 0.1158346815386E+01
 0.1199761989627E+01
 0.1240680440064E+01
 0.1279107928426E+01
 0.1313370637003E+01
 0.1342425102333E+01
 0.1365899432175E+01
 0.1383945261695E+01
 0.1397025506798E+01
 0.1405727700678E+01
 0.1410638012746E+01
 0.1412273675287E+01
 0.1411056942579E+01
 0.1407313159597E+01
 0.1401280400620E+01
 0.1393123415980E+01
 0.1382948539408E+01
 0.1370819199475E+01
 0.1356772146602E+01
 0.1340836546057E+01
 0.1323057430827E+01
 0.1303523426999E+01
 0.1282399163056E+01
 0.1259964207529E+01
 0.1236671169958E+01
 0.1213201818249E+01
 0.1190507856265E+01
 0.1169877609344E+01
 0.1153058544747E+01
 0.1142453323468E+01
 0.1141392074683E+01
 0.1154449065046E+01
 0.1187699309017E+01
 0.1248699060560E+01
 0.1345886996306E+01
 0.1487062523636E+01
 0.1676836084771E+01
 0.1913567908584E+01
 0.2186785964673E+01
 0.2476362252040E+01
 0.2757445390790E+01
 0.1160271153451E+01
 0.1203088241277E+01
 0.1245352480280E+01
 0.1284837165743E+01
 0.1319731740869E+01
 0.1348992562499E+01
 0.1372352567421E+01
 0.1390113094761E+01
 0.1402881560757E+01
 0.1411358831643E+01
 0.1416207509833E+01
 0.1417989481722E+01
 0.1417148269897E+01
 0.1414014701551E+01
 0.1408821913453E+01
 0.1401722336557E+01
 0.1392803715109E+01
 0.1382104267436E+01
 0.1369627697125E+01
 0.1355360656181E+01
 0.1339294633813E+01
 0.1321452573292E+01
 0.1301920410159E+01
 0.1280885191384E+01
 0.1258693353075E+01
 0.1235904873394E+01
 0.1213327582615E+01
 0.1192076929754E+01
 0.1173695560733E+01
 0.1160356110885E+01
 0.1155160040036E+01
 0.1162518518416E+01
 0.1188534167127E+01
 0.1241173495516E+01
 0.1329874544956E+01
 0.1464088356482E+01
 0.1650441018653E+01
 0.1888935174409E+01
 0.2169537891856E+01
 0.2470194244495E+01
 0.2760557120974E+01
 0.1162409130553E+01
 0.1206758359702E+01
 0.1250479723923E+01
 0.1291067379562E+01
 0.1326559892648E+01
 0.1355932486823E+01
 0.1379056706153E+01
 0.1396413932274E+01
 0.1408774692617E+01
 0.1416960408232E+01
 0.1421709955534E+01
 0.1423626378797E+01
 0.1423170343659E+01
 0.1420674791648E+01
 0.1416365824916E+01
 0.1410382774715E+01
 0.1402795153524E+01
 0.1393617169528E+01
 0.1382821160672E+01
 0.1370353041251E+01
 0.1356152291655E+01
 0.1340177279114E+01
 0.1322435892029E+01
 0.1303022832560E+01
 0.1282177940811E+01
 0.1260337828386E+01
 0.1238162413870E+01
 0.1216585644889E+01
 0.1196929069685E+01
 0.1181106873966E+01
 0.1171944753195E+01
 0.1173617463177E+01
 0.1192154046981E+01
 0.1235824414471E+01
 0.1315023422999E+01
 0.1440988371749E+01
 0.1622730468098E+01
 0.1862442932239E+01
 0.2150766210736E+01
 0.2464691734353E+01
 0.2763922111725E+01
 0.1164795047713E+01
 0.1210822314007E+01
 0.1256121044439E+01
 0.1297849231598E+01
 0.1333882094027E+01
 0.1363242119271E+01
 0.1385982507004E+01
 0.1402799707961E+01
 0.1414646246110E+01
 0.1422469297000E+01
 0.1427081397916E+01
 0.1429121297141E+01
 0.1429061435405E+01
 0.1427232872766E+01
 0.1423852400146E+01
 0.1419045605451E+01
 0.1412864497503E+01
 0.1405301027780E+01
 0.1396298541027E+01
 0.1385764762216E+01
 0.1373589491925E+01
 0.1359668414820E+01
 0.1343932838730E+01
 0.1326386253394E+01
 0.1307162653081E+01
 0.1286575109682E+01
 0.1265133150456E+01
 0.1243582141985E+01
 0.1223007536154E+01
 0.1205037182109E+01
 0.1192172581612E+01
 0.1188272722112E+01
 0.1199175178190E+01
 0.1233310588283E+01
 0.1301934571918E+01
 0.1418163651994E+01
 0.1593808737024E+01
 0.1833883580482E+01
 0.2130387850140E+01
 0.2458568213865E+01
 0.2773862254101E+01
 0.1167470136950E+01
 0.1215341040924E+01
 0.1262346102256E+01
 0.1305239126664E+01
 0.1341723201275E+01
 0.1370909712291E+01
 0.1393087889271E+01
 0.1409208836773E+01
 0.1420425019320E+01
 0.1427811329159E+01
 0.1432248113069E+01
 0.1434402034751E+01
 0.1434750565013E+01
 0.1433618230589E+01
 0.1431210058789E+01
 0.1427637395096E+01
 0.1422935854354E+01
 0.1417077464584E+01
 0.1409979697089E+01
 0.1401515500679E+01
 0.1391528241213E+01
 0.1379853743935E+01
 0.1366349196154E+01
 0.1350929204648E+01
 0.1333624205617E+01
 0.1314625499097E+01
 0.1294292064206E+01
 0.1273176224374E+01
 0.1252115107532E+01
 0.1232424925404E+01
 0.1216235933523E+01
 0.1207009290904E+01
 0.1210259456620E+01
 0.1234398104951E+01
 0.1291376494779E+01
 0.1396212817668E+01
 0.1563931428821E+01
 0.1803178612845E+01
 0.2108082743558E+01
 0.2452036197841E+01
 0.2789267658795E+01
 0.1170487710574E+01
 0.1220391040161E+01
 0.1269239985215E+01
 0.1313301572878E+01
 0.1350105903827E+01
 0.1378913199932E+01
 0.1400316677713E+01
 0.1415565510486E+01
 0.1426027295160E+01
 0.1432901853788E+01
 0.1437127420444E+01
 0.1439388129082E+01
 0.1440158291044E+01
 0.1439750609398E+01
 0.1438355744714E+01
 0.1436070455432E+01
 0.1432915453817E+01
 0.1428845767216E+01
 0.1423756901281E+01
 0.1417491390399E+01
 0.1409850447356E+01
 0.1400613930785E+01
 0.1389568520546E+01
 0.1376543684956E+01
 0.1361470464281E+01
 0.1344422616625E+01
 0.1325611520003E+01
 0.1305395758444E+01
 0.1284356363967E+01
 0.1263477642115E+01
 0.1244476382971E+01
 0.1230335769149E+01
 0.1226107132732E+01
 0.1239968834223E+01
 0.1284322665502E+01
 0.1375998397396E+01
 0.1533608489286E+01
 0.1770389152928E+01
 0.2083619360970E+01
 0.2445714761734E+01
 0.2806495873403E+01
 0.1173914435686E+01
 0.1226068203536E+01
 0.1276906935949E+01
 0.1322111467390E+01
 0.1359051672608E+01
 0.1387221385287E+01
 0.1407601320389E+01
 0.1421784322930E+01
 0.1431363142472E+01
 0.1437653402928E+01
 0.1441636619942E+01
 0.1444001260720E+01
 0.1445209021828E+01
 0.1445555058053E+01
 0.1445213071264E+01
 0.1444265151062E+01
 0.1442719046601E+01
 0.1440516341525E+01
 0.1437535314366E+01
 0.1433593440816E+01
 0.1428455123359E+01
 0.1421849176009E+01
 0.1413496403955E+01
 0.1403146093937E+01
 0.1390635710346E+01
 0.1375927970806E+01
 0.1359092560517E+01
 0.1340297352569E+01
 0.1319864170961E+01
 0.1298430893825E+01
 0.1277265080381E+01
 0.1258796781050E+01
 0.1247470837803E+01
 0.1250989215172E+01
 0.1281875907125E+01
 0.1358539516240E+01
 0.1503459333195E+01
 0.1735558401799E+01
 0.2056785961219E+01
 0.2439383599912E+01
 0.2826499013882E+01
 0.1177834880815E+01
 0.1232493381666E+01
 0.1285473943994E+01
 0.1331752768604E+01
 0.1368575152825E+01
 0.1395786773373E+01
 0.1414856320041E+01
 0.1427764976283E+01
 0.1436332111569E+01
 0.1441971813049E+01
 0.1445689024586E+01
 0.1448160776745E+01
 0.1449825656268E+01
 0.1450955315706E+01
 0.1451704052589E+01
 0.1452139537478E+01
 0.1452258968203E+01
 0.1451994686943E+01
 0.1451213346657E+01
 0.1449713788324E+01
 0.1447230108606E+01
 0.1443446102545E+01
 0.1438022359127E+01
 0.1430634111955E+01
 0.1421032710143E+01
 0.1409078670615E+01
 0.1394709048731E+01
 0.1377908166922E+01
 0.1358741015585E+01
 0.1337491881486E+01
 0.1314952699122E+01
 0.1292935078991E+01
 0.1275138054034E+01
 0.1268524376588E+01
 0.1285330238448E+01
 0.1345132403160E+01
 0.1474370884624E+01
 0.1698862683603E+01
 0.2027272263797E+01
 0.2432785691016E+01
 0.2849878156091E+01
 0.1182357247832E+01
 0.1239819865345E+01
 0.1295095562574E+01
 0.1342317145813E+01
 0.1378678408052E+01
 0.1404539388905E+01
 0.1421974056935E+01
 0.1433390376207E+01
 0.1440822864465E+01
 0.1445756627712E+01
 0.1449194660270E+01
 0.1451784456981E+01
 0.1453930324501E+01
 0.1455874498924E+01
 0.1457749731774E+01
 0.1459609923700E+01
 0.1461444613707E+01
 0.1463181737377E+01
 0.1464682798752E+01
 0.1465735568858E+01
 0.1466051627857E+01
 0.1465276985364E+01
 0.1463018710077E+01
 0.1458885208141E+01
 0.1452550732399E+01
 0.1443784754037E+01
 0.1432403988172E+01
 0.1418220750633E+01
 0.1401051723427E+01
 0.1380829322348E+01
 0.1357855944089E+01
 0.1333274985171E+01
 0.1309913750248E+01
 0.1293726472160E+01
 0.1296180059852E+01
 0.1337403570510E+01
 0.1447596176687E+01
 0.1660674862634E+01
 0.1994682505674E+01
 0.2425560526825E+01
 0.2877255788245E+01
 0.1187621416882E+01
 0.1248243570284E+01
 0.1305959423733E+01
 0.1353900589621E+01
 0.1389342336925E+01
 0.1413378824909E+01
 0.1428820159218E+01
 0.1438524986780E+01
 0.1444713231188E+01
 0.1448901859699E+01
 0.1452061219100E+01
 0.1454789451104E+01
 0.1457445247444E+01
 0.1460235881071E+01
 0.1463270893818E+01
 0.1466591526394E+01
 0.1470183018912E+01
 0.1473974322704E+01
 0.1477829125215E+01
 0.1481532896389E+01
 0.1484783925301E+01
 0.1487199030447E+01
 0.1488339530290E+01
 0.1487755225275E+01
 0.1485053694793E+01
 0.1479926700405E+01
 0.1472086045851E+01
 0.1461188003563E+01
 0.1446816021838E+01
 0.1428562519155E+01
 0.1406241975407E+01
 0.1380301623736E+01
 0.1352595980190E+01
 0.1327813140944E+01
 0.1316118492806E+01
 0.1337362157197E+01
 0.1424877620698E+01
 0.1621681166251E+01
 0.1958567883780E+01
 0.2417226965873E+01
 0.2909355541306E+01
 0.1193810483550E+01
 0.1258017035323E+01
 0.1318292165070E+01
 0.1366596512555E+01
 0.1400514125470E+01
 0.1422164311663E+01
 0.1435228717782E+01
 0.1443013763397E+01
 0.1447870873786E+01
 0.1451297189742E+01
 0.1454195292648E+01
 0.1457093391993E+01
 0.1460293712966E+01
 0.1463963760144E+01
 0.1468188861377E+01
 0.1472999217935E+01
 0.1478379558102E+01
 0.1484265771509E+01
 0.1490531850449E+01
 0.1496970977128E+01
 0.1503278993537E+01
 0.1509053709020E+01
 0.1513819628719E+01
 0.1517077053264E+01
 0.1518378484014E+01
 0.1517353222148E+01
 0.1513626439771E+01
 0.1506718506244E+01
 0.1496001291289E+01
 0.1480750052400E+01
 0.1460311141127E+01
 0.1434435897272E+01
 0.1403943143310E+01
 0.1372032807429E+01
 0.1347019479962E+01
 0.1347442751027E+01
 0.1408598717817E+01
 0.1583070042753E+01
 0.1918494721690E+01
 0.2407138618091E+01
 0.2947049589311E+01
 0.1201167693443E+01
 0.1269468851384E+01
 0.1332364929462E+01
 0.1380482936663E+01
 0.1412089281605E+01
 0.1430702828494E+01
 0.1440997913624E+01
 0.1446682091288E+01
 0.1450154749476E+01
 0.1452829665363E+01
 0.1455503899019E+01
 0.1458615681520E+01
 0.1462401159526E+01
 0.1466984405414E+01
 0.1472426365341E+01
 0.1478748364558E+01
 0.1485938762509E+01
 0.1493946671180E+01
 0.1502665164519E+01
 0.1511906388430E+01
 0.1521376410544E+01
 0.1530666133974E+01
 0.1539273551871E+01
 0.1546659364063E+01
 0.1552333455993E+01
 0.1555879401161E+01
 0.1556856330708E+01
 0.1554672451018E+01
 0.1548515870373E+01
 0.1537378636339E+01
 0.1520178694957E+01
 0.1496005666553E+01
 0.1464632017555E+01
 0.1427612878572E+01
 0.1390895858787E+01
 0.1370526919399E+01
 0.1401958990380E+01
 0.1546820456076E+01
 0.1874172171039E+01
 0.2394414946020E+01
 0.2991413728359E+01
 0.1210021953265E+01
 0.1283030848717E+01
 0.1348496446377E+01
 0.1395599880769E+01
 0.1423886570955E+01
 0.1438735803642E+01
 0.1445887012101E+01
 0.1449337249343E+01
 0.1451417545685E+01
 0.1453385939396E+01
 0.1455896302603E+01
 0.1459278935767E+01
 0.1463696352616E+01
 0.1469227069692E+01
 0.1475908479479E+01
 0.1483755747982E+01
 0.1492765261617E+01
 0.1502905803464E+01
 0.1514098736108E+01
 0.1526187567076E+01
 0.1538903310725E+01
 0.1551844465304E+01
 0.1564494555069E+01
 0.1576285359288E+01
 0.1586697108390E+01
 0.1595285236017E+01
 0.1601564872222E+01
 0.1604858430235E+01
 0.1604203329227E+01
 0.1598352819909E+01
 0.1585856527845E+01
 0.1565214356686E+01
 0.1535206840051E+01
 0.1495686926172E+01
 0.1449822529273E+01
 0.1409926123771E+01
 0.1409154676556E+01
 0.1516122441514E+01
 0.1825698950713E+01
 0.2377853199627E+01
 0.3043806455061E+01
 0.1220827396907E+01
 0.1299276312706E+01
 0.1367049298781E+01
 0.1411910765971E+01
 0.1435614315079E+01
 0.1445925958739E+01
 0.1449616150736E+01
 0.1450771934726E+01
 0.1451509198635E+01
 0.1452855053643E+01
 0.1455286106931E+01
 0.1459010566221E+01
 0.1464112634032E+01
 0.1470625051312E+01
 0.1478563606738E+01
 0.1487940562411E+01
 0.1498764848581E+01
 0.1511031277303E+01
 0.1524698794976E+01
 0.1539655580028E+01
 0.1555674545897E+01
 0.1572379344581E+01
 0.1589253486500E+01
 0.1605711462613E+01
 0.1621216910892E+01
 0.1635314685808E+01
 0.1647498111955E+01
 0.1657031377725E+01
 0.1662838172683E+01
 0.1663486340767E+01
 0.1657236296305E+01
 0.1642109100111E+01
 0.1616021700529E+01
 0.1577198963245E+01
 0.1525810467590E+01
 0.1469299322531E+01
 0.1435530290557E+01
 0.1495960072279E+01
 0.1774040834157E+01
 0.2355834328759E+01
 0.3105989902630E+01
 0.1234226803045E+01
 0.1318973555893E+01
 0.1388409983826E+01
 0.1429238307535E+01
 0.1446827690811E+01
 0.1451847603251E+01
 0.1451870763562E+01
 0.1450770237478E+01
 0.1450281505006E+01
 0.1451131732784E+01
 0.1453593577230E+01
 0.1457744460300E+01
 0.1463589216354E+01
 0.1471116783842E+01
 0.1480324498206E+01
 0.1491225469813E+01
 0.1503845658470E+01
 0.1518211868144E+01
 0.1534329534634E+01
 0.1552145267206E+01
 0.1571493111210E+01
 0.1592043348023E+01
 0.1613297471649E+01
 0.1634665805944E+01
 0.1655608205463E+01
 0.1675675254363E+01
 0.1694358913226E+01
 0.1710891916699E+01
 0.1724123350518E+01
 0.1732495889723E+01
 0.1734075504937E+01
 0.1726551204067E+01
 0.1707180851452E+01
 0.1672788097754E+01
 0.1620617217770E+01
 0.1552461971223E+01
 0.1487641941492E+01
 0.1493859080179E+01
 0.1721937373426E+01
 0.2326270432780E+01
 0.3180324590195E+01
 0.1251157129126E+01
 0.1343159679227E+01
 0.1412932966453E+01
 0.1447161086703E+01
 0.1456880339202E+01
 0.1455986317577E+01
 0.1452312475581E+01
 0.1449116079901E+01
 0.1447593732245E+01
 0.1448120111383E+01
 0.1450748122075E+01
 0.1455422713609E+01
 0.1462072489591E+01
 0.1470646928481E+01
 0.1481129283482E+01
 0.1493537692830E+01
 0.1507919440695E+01
 0.1524338564102E+01
 0.1542854892472E+01
 0.1563486888699E+01
 0.1586150975980E+01
 0.1610590480429E+01
 0.1636348250745E+01
 0.1662846284781E+01
 0.1689553041873E+01
 0.1716038175364E+01
 0.1741808123358E+01
 0.1766087405557E+01
 0.1787689910375E+01
 0.1804997950233E+01
 0.1815988243855E+01
 0.1818192312797E+01
 0.1808483458912E+01
 0.1782665322090E+01
 0.1735490357000E+01
 0.1663020664086E+01
 0.1573129326785E+01
 0.1520730294832E+01
 0.1675567537564E+01
 0.2286742590653E+01
 0.3270106375270E+01
 0.1273032909150E+01
 0.1373236739910E+01
 0.1440807093616E+01
 0.1464853597217E+01
 0.1464882624978E+01
 0.1457756917747E+01
 0.1450597142267E+01
 0.1445603622145E+01
 0.1443319088147E+01
 0.1443737754642E+01
 0.1446690836539E+01
 0.1451997358144E+01
 0.1459517301503E+01
 0.1469167441045E+01
 0.1480922487834E+01
 0.1494810118962E+01
 0.1510902894004E+01
 0.1529306295267E+01
 0.1550140749595E+01
 0.1573508447896E+01
 0.1599430549761E+01
 0.1627755780701E+01
 0.1658099947674E+01
 0.1689917805300E+01
 0.1722698700783E+01
 0.1756039243543E+01
 0.1789467256047E+01
 0.1822214978004E+01
 0.1853099003106E+01
 0.1880509039823E+01
 0.1902442052720E+01
 0.1916460128827E+01
 0.1919379682154E+01
 0.1906501861323E+01
 0.1870871247234E+01
 0.1803760849216E+01
 0.1700192491919E+01
 0.1591617621049E+01
 0.1647441176383E+01
 0.2235255770416E+01
 0.3380211174535E+01
 0.1302081665489E+01
 0.1411077649167E+01
 0.1471756826219E+01
 0.1480857879419E+01
 0.1469697991918E+01
 0.1456548911318E+01
 0.1446397642473E+01
 0.1440049016145E+01
 0.1437351888496E+01
 0.1437919727127E+01
 0.1441377004304E+01
 0.1447432022464E+01
 0.1455888169903E+01
 0.1466638584706E+01
 0.1479656009677E+01
 0.1494982386107E+01
 0.1512719021382E+01
 0.1533015789345E+01
 0.1556057550277E+01
 0.1582038896373E+01
 0.1611107167671E+01
 0.1643255228922E+01
 0.1678215950684E+01
 0.1715508099044E+01
 0.1754655491388E+01
 0.1795280337197E+01
 0.1836923038815E+01
 0.1878826917497E+01
 0.1919846312395E+01
 0.1958449219975E+01
 0.1992761497697E+01
 0.2020558072384E+01
 0.2038945164079E+01
 0.2043346290080E+01
 0.2026134269711E+01
 0.1975787702128E+01
 0.1876275021288E+01
 0.1725945212131E+01
 0.1660936212630E+01
 0.2172781750579E+01
 0.3518496352621E+01
 0.1341996614725E+01
 0.1459068661999E+01
 0.1504395839302E+01
 0.1492816759492E+01
 0.1470041168401E+01
 0.1451797426282E+01
 0.1439425451058E+01
 0.1432304020694E+01
 0.1429614828628E+01
 0.1430622424266E+01
 0.1434778469479E+01
 0.1441703440396E+01
 0.1451160388088E+01
 0.1463029857901E+01
 0.1477290031956E+01
 0.1494001918697E+01
 0.1513298459453E+01
 0.1535375465958E+01
 0.1560483258411E+01
 0.1588912428816E+01
 0.1620953243193E+01
 0.1656786439617E+01
 0.1696324484124E+01
 0.1739201093066E+01
 0.1784993215849E+01
 0.1833331789085E+01
 0.1883734378934E+01
 0.1935438934199E+01
 0.1987368945711E+01
 0.2038148385053E+01
 0.2086137752451E+01
 0.2129482027802E+01
 0.2165886532205E+01
 0.2191571503291E+01
 0.2199454167184E+01
 0.2177672237237E+01
 0.2105398181455E+01
 0.1946205157011E+01
 0.1756284880452E+01
 0.2110689996859E+01
 0.3699339014022E+01
 0.1399310984473E+01
 0.1519778819679E+01
 0.1534873052378E+01
 0.1497367027786E+01
 0.1464763534813E+01
 0.1443039502785E+01
 0.1429451040961E+01
 0.1422272412148E+01
 0.1420064681810E+01
 0.1421827287897E+01
 0.1426885653610E+01
 0.1434802756417E+01
 0.1445320980359E+01
 0.1458320808816E+01
 0.1473793842177E+01
 0.1491824881077E+01
 0.1512580735573E+01
 0.1536303263604E+01
 0.1563306416734E+01
 0.1593973919772E+01
 0.1628745098186E+01
 0.1668031247477E+01
 0.1712012280868E+01
 0.1760526025711E+01
 0.1813235345144E+01
 0.1869735956586E+01
 0.1929442480914E+01
 0.1991542074297E+01
 0.2055055066625E+01
 0.2118853659390E+01
 0.2181643213688E+01
 0.2242050752303E+01
 0.2298598344602E+01
 0.2348859540889E+01
 0.2387766537162E+01
 0.2405253616682E+01
 0.2384188544302E+01
 0.2271927612841E+01
 0.1996521340377E+01
 0.2090610333731E+01
 0.3954021175009E+01
 0.1486615899602E+01
 0.1593953052794E+01
 0.1554285877319E+01
 0.1490926035655E+01
 0.1453251451014E+01
 0.1429879938551E+01
 0.1416354103278E+01
 0.1409917665229E+01
 0.1408698087018E+01
 0.1411543827236E+01
 0.1417709079443E+01
 0.1426736585237E+01
 0.1438369452396E+01
 0.1452501711954E+01
 0.1469146532711E+01
 0.1488417014139E+01
 0.1510515395980E+01
 0.1535728322986E+01
 0.1564428934710E+01
 0.1597085029060E+01
 0.1634273859401E+01
 0.1676662796433E+01
 0.1724815597050E+01
 0.1778938867047E+01
 0.1838849587548E+01
 0.1904012919810E+01
 0.1973585190334E+01
 0.2046619031259E+01
 0.2122257532257E+01
 0.2199735753605E+01
 0.2278245993555E+01
 0.2356952610466E+01
 0.2435251991209E+01
 0.2512355793910E+01
 0.2586531940752E+01
 0.2652538622567E+01
 0.2699606280733E+01
 0.2702460221894E+01
 0.2467960310261E+01
 0.2230481893166E+01
 0.4367680060613E+01
 0.1631342872464E+01
 0.1670660422779E+01
 0.1545862451844E+01
 0.1473058954105E+01
 0.1434956049420E+01
 0.1412122273448E+01
 0.1400151864661E+01
 0.1395263832860E+01
 0.1395558860546E+01
 0.1399810495212E+01
 0.1407280770346E+01
 0.1417527613759E+01
 0.1430318355881E+01
 0.1445574075009E+01
 0.1463337567338E+01
 0.1483754332935E+01
 0.1507062948264E+01
 0.1533592454223E+01
 0.1563768425432E+01
 0.1598129331745E+01
 0.1637361309111E+01
 0.1682363639639E+01
 0.1734207763374E+01
 0.1793788540750E+01
 0.1861233623723E+01
 0.1935670356005E+01
 0.2015716789119E+01
 0.2100165541996E+01
 0.2188312519924E+01
 0.2279897226108E+01
 0.2374804282119E+01
 0.2472821354077E+01
 0.2573895768899E+01
 0.2678967626383E+01
 0.2789888918605E+01
 0.2910890499124E+01
 0.3037074552556E+01
 0.3187400245070E+01
 0.3245629649166E+01
 0.2794599937758E+01
 0.5238738466173E+01
 0.1906051123729E+01
 0.1673465977817E+01
 0.1504582091511E+01
 0.1445668842328E+01
 0.1408967611591E+01
 0.1390118754773E+01
 0.1380903324376E+01
 0.1378432762258E+01
 0.1380731165209E+01
 0.1386697876655E+01
 0.1395654111582E+01
 0.1407215065106E+01
 0.1421193546794E+01
 0.1437550983836E+01
 0.1456367197303E+01
 0.1477823655440E+01
 0.1502195609369E+01
 0.1529851200127E+01
 0.1561260267437E+01
 0.1597015041263E+01
 0.1637874728074E+01
 0.1684872966376E+01
 0.1739583971958E+01
 0.1804247608900E+01
 0.1879700056289E+01
 0.1964220157379E+01
 0.2055435081496E+01
 0.2151717365762E+01
 0.2252563890991E+01
 0.2358387764200E+01
 0.2470040812361E+01
 0.2588237915540E+01
 0.2712842611336E+01
 0.2845128824367E+01
 0.2992605593516E+01
 0.3165554247644E+01
 0.3388131157405E+01
 0.3651437680659E+01
 0.4205726700926E+01
 0.4183322435682E+01
 0.8026391606849E+01
 0.3522500408170E+00
 0.4828961106403E+00
 0.6113408286653E+00
 0.7324024789115E+00
 0.8435925347946E+00
 0.9435768330894E+00
 0.1031783800724E+01
 0.1108374455250E+01
 0.1174005908658E+01
 0.1229549869421E+01
 0.1275942926886E+01
 0.1314114889363E+01
 0.1344907692432E+01
 0.1368998793687E+01
 0.1386889482899E+01
 0.1398924062192E+01
 0.1405035875362E+01
 0.1405250840737E+01
 0.1400873360414E+01
 0.1394324141691E+01
 0.3448939412179E+00
 0.4790329984731E+00
 0.6099536420312E+00
 0.7334791864013E+00
 0.8472274804676E+00
 0.9500107548681E+00
 0.1041354637221E+01
 0.1121340503987E+01
 0.1190495642942E+01
 0.1249599473125E+01
 0.1299528458549E+01
 0.1341180845242E+01
 0.1375398597038E+01
 0.1402902135895E+01
 0.1424275827399E+01
 0.1439906315842E+01
 0.1449701214782E+01
 0.1453696162472E+01
 0.1451394026186E+01
 0.1441113696221E+01
 0.3376699097482E+00
 0.4758687649747E+00
 0.6095692086136E+00
 0.7355517223525E+00
 0.8517962745146E+00
 0.9572448979189E+00
 0.1051486316802E+01
 0.1134591777743E+01
 0.1207017955340E+01
 0.1269468782001E+01
 0.1322769437098E+01
 0.1367788461892E+01
 0.1405362451871E+01
 0.1436230074373E+01
 0.1460985982823E+01
 0.1479975263456E+01
 0.1493110889991E+01
 0.1500050253583E+01
 0.1499867055386E+01
 0.1492110970832E+01
 0.3308136980967E+00
 0.4731796679976E+00
 0.6099131652018E+00
 0.7384206308313E+00
 0.8570983207225E+00
 0.9650730054927E+00
 0.1062012827561E+01
 0.1148004704164E+01
 0.1223471504254E+01
 0.1289065724281E+01
 0.1345569472021E+01
 0.1393821783568E+01
 0.1434643284345E+01
 0.1468762396856E+01
 0.1496745532500E+01
 0.1518890812942E+01
 0.1535060798559E+01
 0.1544841319762E+01
 0.1547729609610E+01
 0.1543934378097E+01
 0.3243601141026E+00
 0.4709386402881E+00
 0.6108105350172E+00
 0.7418900335683E+00
 0.8629454736324E+00
 0.9733168379819E+00
 0.1072776396619E+01
 0.1161447951900E+01
 0.1239744165027E+01
 0.1308285060610E+01
 0.1367818215685E+01
 0.1419152279901E+01
 0.1463081796483E+01
 0.1500307486093E+01
 0.1531358272797E+01
 0.1556491018126E+01
 0.1575592554513E+01
 0.1588403893180E+01
 0.1594802940443E+01
 0.1595380596921E+01
 0.3183214837102E+00
 0.4690967198453E+00
 0.6121416263660E+00
 0.7457941852972E+00
 0.8691657741962E+00
 0.9818124170008E+00
 0.1083627615200E+01
 0.1174789267994E+01
 0.1255717244954E+01
 0.1327013247718E+01
 0.1389397416418E+01
 0.1443647944435E+01
 0.1490527682371E+01
 0.1530704194965E+01
 0.1564673263210E+01
 0.1592683339277E+01
 0.1614707588846E+01
 0.1630672905417E+01
 0.1640742433515E+01
 0.1645725498682E+01
 0.3126993299398E+00
 0.4676059374123E+00
 0.6138028547134E+00
 0.7499933186886E+00
 0.8756053146232E+00
 0.9904081364939E+00
 0.1094424424735E+01
 0.1187898260585E+01
 0.1271269663226E+01
 0.1345132736225E+01
 0.1410186162284E+01
 0.1467179208398E+01
 0.1516842521947E+01
 0.1559812838859E+01
 0.1596566575983E+01
 0.1627372596400E+01
 0.1652307268407E+01
 0.1671464603379E+01
 0.1685204807941E+01
 0.1694460606621E+01
 0.3074916628346E+00
 0.4664190567094E+00
 0.6157025842736E+00
 0.7543645310030E+00
 0.8821264750177E+00
 0.9989642878657E+00
 0.1105032386567E+01
 0.1200648203494E+01
 0.1286281082083E+01
 0.1362525719411E+01
 0.1430064735058E+01
 0.1489621665237E+01
 0.1541898116217E+01
 0.1587506856098E+01
 0.1626918813482E+01
 0.1660438388247E+01
 0.1688241344417E+01
 0.1710556457391E+01
 0.1727875260140E+01
 0.1741186202148E+01
 0.3026953091132E+00
 0.4654915244074E+00
 0.6177582407928E+00
 0.7587982365153E+00
 0.8886051562637E+00
 0.1007352470630E+01
 0.1115325188525E+01
 0.1212917571175E+01
 0.1300634319160E+01
 0.1379076953444E+01
 0.1448917060057E+01
 0.1510856797759E+01
 0.1565573961504E+01
 0.1613665190888E+01
 0.1655605923681E+01
 0.1691741555925E+01
 0.1722334765505E+01
 0.1747717600308E+01
 0.1768463345630E+01
 0.1785564180285E+01
 0.2983070217521E+00
 0.4647821183435E+00
 0.6198952275374E+00
 0.7631959390039E+00
 0.8949290735172E+00
 0.1015454890069E+01
 0.1125185045542E+01
 0.1224591255176E+01
 0.1314217138083E+01
 0.1394675679141E+01
 0.1466632050544E+01
 0.1530771884853E+01
 0.1587754955328E+01
 0.1638168649874E+01
 0.1682499016649E+01
 0.1721132117434E+01
 0.1754402899619E+01
 0.1782719430748E+01
 0.1806699408382E+01
 0.1827299915121E+01
 0.2943239048070E+00
 0.4642532579820E+00
 0.6220462436866E+00
 0.7674689811174E+00
 0.9009966350674E+00
 0.1023163905184E+01
 0.1134503007244E+01
 0.1235561527259E+01
 0.1326923597104E+01
 0.1409216964450E+01
 0.1483104446603E+01
 0.1549259885177E+01
 0.1608330422094E+01
 0.1660899515519E+01
 0.1707466905112E+01
 0.1748456018212E+01
 0.1784259959558E+01
 0.1815340648494E+01
 0.1842332947795E+01
 0.1866132891584E+01
 0.2907435717561E+00
 0.4638710903872E+00
 0.6241508592438E+00
 0.7715377740354E+00
 0.9067162552425E+00
 0.1030381747504E+01
 0.1143179209978E+01
 0.1245728755467E+01
 0.1338655026269E+01
 0.1422602645947E+01
 0.1498235424032E+01
 0.1566219609212E+01
 0.1627194254631E+01
 0.1681742659455E+01
 0.1730379261439E+01
 0.1773560233522E+01
 0.1811724333909E+01
 0.1845370021512E+01
 0.1875130882894E+01
 0.1901826120298E+01
 0.2875641475458E+00
 0.4636054659828E+00
 0.6261552104006E+00
 0.7753313117076E+00
 0.9120059317755E+00
 0.1037020374434E+01
 0.1151123097293E+01
 0.1255001956724E+01
 0.1349320770954E+01
 0.1434742075337E+01
 0.1511933210721E+01
 0.1581556274508E+01
 0.1644245789617E+01
 0.1700587343188E+01
 0.1751109733127E+01
 0.1796296862483E+01
 0.1836622516218E+01
 0.1872608562543E+01
 0.1904875552420E+01
 0.1934159969690E+01
 0.2847842136423E+00
 0.4634298672655E+00
 0.6280117838570E+00
 0.7787868655471E+00
 0.9167930004667E+00
 0.1043001417030E+01
 0.1158253624925E+01
 0.1263299240519E+01
 0.1358838789515E+01
 0.1445552771085E+01
 0.1524113760604E+01
 0.1595182318920E+01
 0.1659391043862E+01
 0.1717329203296E+01
 0.1769538788486E+01
 0.1816526509326E+01
 0.1858792364851E+01
 0.1896871870598E+01
 0.1931365784698E+01
 0.1962931022019E+01
 0.2824027331326E+00
 0.4633213210532E+00
 0.6296792543836E+00
 0.7818497812793E+00
 0.9210139852624E+00
 0.1048256169319E+01
 0.1164499433851E+01
 0.1270548160797E+01
 0.1367136142162E+01
 0.1454961005274E+01
 0.1534701457229E+01
 0.1607018334554E+01
 0.1672544068070E+01
 0.1731872192834E+01
 0.1785556247299E+01
 0.1834121167119E+01
 0.1878086003641E+01
 0.1917992932679E+01
 0.1954420207241E+01
 0.1987954062139E+01
 0.2804189690880E+00
 0.4632603097601E+00
 0.6311223660957E+00
 0.7844733511446E+00
 0.9246145208670E+00
 0.1052725617215E+01
 0.1169799017614E+01
 0.1276686026168E+01
 0.1374149430980E+01
 0.1462902369837E+01
 0.1543629844314E+01
 0.1616994055051E+01
 0.1683628311206E+01
 0.1744130403444E+01
 0.1799063525642E+01
 0.1848966721463E+01
 0.1894372417985E+01
 0.1935824830941E+01
 0.1973880048076E+01
 0.2009065181251E+01
 0.2788324160068E+00
 0.4632306928699E+00
 0.6323118463626E+00
 0.7866187320590E+00
 0.9275493143715E+00
 0.1056360481402E+01
 0.1174100871206E+01
 0.1281660165482E+01
 0.1379825186210E+01
 0.1469322297768E+01
 0.1550842323402E+01
 0.1625049299514E+01
 0.1692577884845E+01
 0.1754029684427E+01
 0.1809975563130E+01
 0.1860965060901E+01
 0.1907539617503E+01
 0.1950242819900E+01
 0.1989611053230E+01
 0.2026124649057E+01
 0.2776427371375E+00
 0.4632196381659E+00
 0.6332243401387E+00
 0.7882548909281E+00
 0.9297821273341E+00
 0.1059121262461E+01
 0.1177363618975E+01
 0.1285428152043E+01
 0.1384120199096E+01
 0.1474176525472E+01
 0.1556292783146E+01
 0.1631134819080E+01
 0.1699338671345E+01
 0.1761509021485E+01
 0.1818222420750E+01
 0.1870035781212E+01
 0.1917496295604E+01
 0.1961145778901E+01
 0.2001504787990E+01
 0.2039019071890E+01
 0.2768497193086E+00
 0.4632175684440E+00
 0.6338423664722E+00
 0.7893585743583E+00
 0.9312857757978E+00
 0.1060978289510E+01
 0.1179556127560E+01
 0.1287957994521E+01
 0.1387001805540E+01
 0.1477431490229E+01
 0.1559946141065E+01
 0.1635213018027E+01
 0.1703869249549E+01
 0.1766521662246E+01
 0.1823750553448E+01
 0.1876117498016E+01
 0.1924173037498E+01
 0.1968457190879E+01
 0.2009479478008E+01
 0.2047662830639E+01
 0.2764532387595E+00
 0.4632181209820E+00
 0.6341542869771E+00
 0.7899142884065E+00
 0.9320421325886E+00
 0.1061911757878E+01
 0.1180657590971E+01
 0.1289228281350E+01
 0.1388448103402E+01
 0.1479064638202E+01
 0.1561778765068E+01
 0.1637258512114E+01
 0.1706141603343E+01
 0.1769035964339E+01
 0.1826523749395E+01
 0.1879168786472E+01
 0.1927523144184E+01
 0.1972125759273E+01
 0.2013480481955E+01
 0.2051998874459E+01
 0.2764532388374E+00
 0.4632181209912E+00
 0.6341542869427E+00
 0.7899142883468E+00
 0.9320421325162E+00
 0.1061911757802E+01
 0.1180657590897E+01
 0.1289228281282E+01
 0.1388448103345E+01
 0.1479064638156E+01
 0.1561778765034E+01
 0.1637258512090E+01
 0.1706141603328E+01
 0.1769035964332E+01
 0.1826523749393E+01
 0.1879168786473E+01
 0.1927523144187E+01
 0.1972125759278E+01
 0.2013480481961E+01
 0.2051998874468E+01
 0.2768497195422E+00
 0.4632175684724E+00
 0.6338423663698E+00
 0.7893585741803E+00
 0.9312857755816E+00
 0.1060978289282E+01
 0.1179556127338E+01
 0.1287957994319E+01
 0.1387001805367E+01
 0.1477431490092E+01
 0.1559946140963E+01
 0.1635213017957E+01
 0.1703869249506E+01
 0.1766521662224E+01
 0.1823750553441E+01
 0.1876117498019E+01
 0.1924173037507E+01
 0.1968457190893E+01
 0.2009479478028E+01
 0.2047662830664E+01
 0.2776427375269E+00
 0.4632196382148E+00
 0.6332243399707E+00
 0.7882548906344E+00
 0.9297821269768E+00
 0.1059121262083E+01
 0.1177363618607E+01
 0.1285428151709E+01
 0.1384120198810E+01
 0.1474176525244E+01
 0.1556292782977E+01
 0.1631134818965E+01
 0.1699338671275E+01
 0.1761509021449E+01
 0.1818222420738E+01
 0.1870035781217E+01
 0.1917496295620E+01
 0.1961145778925E+01
 0.2001504788022E+01
 0.2039019071932E+01
 0.2788324165519E+00
 0.4632306929419E+00
 0.6323118461331E+00
 0.7866187316543E+00
 0.9275493138778E+00
 0.1056360480879E+01
 0.1174100870696E+01
 0.1281660165018E+01
 0.1379825185813E+01
 0.1469322297451E+01
 0.1550842323168E+01
 0.1625049299355E+01
 0.1692577884748E+01
 0.1754029684378E+01
 0.1809975563115E+01
 0.1860965060908E+01
 0.1907539617525E+01
 0.1950242819933E+01
 0.1989611053276E+01
 0.2026124649116E+01
 0.2804189697891E+00
 0.4632603098587E+00
 0.6311223658103E+00
 0.7844733506354E+00
 0.9246145202431E+00
 0.1052725616552E+01
 0.1169799016967E+01
 0.1276686025578E+01
 0.1374149430476E+01
 0.1462902369434E+01
 0.1543629844016E+01
 0.1616994054850E+01
 0.1683628311084E+01
 0.1744130403383E+01
 0.1799063525624E+01
 0.1848966721474E+01
 0.1894372418015E+01
 0.1935824830984E+01
 0.1973880048134E+01
 0.2009065181328E+01
 0.2824027339897E+00
 0.4633213211831E+00
 0.6296792540497E+00
 0.7818497806740E+00
 0.9210139845165E+00
 0.1048256168524E+01
 0.1164499433073E+01
 0.1270548160086E+01
 0.1367136141554E+01
 0.1454961004789E+01
 0.1534701456871E+01
 0.1607018334313E+01
 0.1672544067925E+01
 0.1731872192763E+01
 0.1785556247281E+01
 0.1834121167135E+01
 0.1878086003678E+01
 0.1917992932733E+01
 0.1954420207312E+01
 0.1987954062233E+01
 0.2847842146555E+00
 0.4634298674323E+00
 0.6280117834835E+00
 0.7787868648559E+00
 0.9167929996089E+00
 0.1043001416111E+01
 0.1158253624023E+01
 0.1263299239693E+01
 0.1358838788808E+01
 0.1445552770521E+01
 0.1524113760188E+01
 0.1595182318642E+01
 0.1659391043697E+01
 0.1717329203217E+01
 0.1769538788468E+01
 0.1816526509347E+01
 0.1858792364897E+01
 0.1896871870663E+01
 0.1931365784782E+01
 0.1962931022130E+01
 0.2875641487156E+00
 0.4636054661934E+00
 0.6261552099983E+00
 0.7753313109426E+00
 0.9120059308177E+00
 0.1037020373402E+01
 0.1151123096276E+01
 0.1255001955791E+01
 0.1349320770154E+01
 0.1434742074699E+01
 0.1511933210252E+01
 0.1581556274195E+01
 0.1644245789434E+01
 0.1700587343104E+01
 0.1751109733111E+01
 0.1796296862511E+01
 0.1836622516273E+01
 0.1872608562618E+01
 0.1904875552518E+01
 0.1934159969819E+01
 0.2907435730829E+00
 0.4638710906495E+00
 0.6241508588252E+00
 0.7715377732106E+00
 0.9067162541981E+00
 0.1030381746372E+01
 0.1143179208857E+01
 0.1245728754435E+01
 0.1338655025383E+01
 0.1422602645241E+01
 0.1498235423514E+01
 0.1566219608869E+01
 0.1627194254433E+01
 0.1681742659368E+01
 0.1730379261428E+01
 0.1773560233559E+01
 0.1811724333975E+01
 0.1845370021599E+01
 0.1875130883005E+01
 0.1901826120444E+01
 0.2943239062915E+00
 0.4642532583053E+00
 0.6220462432658E+00
 0.7674689802487E+00
 0.9009966339521E+00
 0.1023163903965E+01
 0.1134503006030E+01
 0.1235561526137E+01
 0.1326923596139E+01
 0.1409216963680E+01
 0.1483104446041E+01
 0.1549259884807E+01
 0.1608330421885E+01
 0.1660899515432E+01
 0.1707466905108E+01
 0.1748456018260E+01
 0.1784259959636E+01
 0.1815340648593E+01
 0.1842332947919E+01
 0.1866132891748E+01
 0.2983070233953E+00
 0.4647821187383E+00
 0.6198952271304E+00
 0.7631959381091E+00
 0.8949290723481E+00
 0.1015454888779E+01
 0.1125185044248E+01
 0.1224591253975E+01
 0.1314217137047E+01
 0.1394675678315E+01
 0.1466632049943E+01
 0.1530771884461E+01
 0.1587754955111E+01
 0.1638168649789E+01
 0.1682499016655E+01
 0.1721132117495E+01
 0.1754402899710E+01
 0.1782719430859E+01
 0.1806699408519E+01
 0.1827299915303E+01
 0.3026953109165E+00
 0.4654915248855E+00
 0.6177582404175E+00
 0.7587982356142E+00
 0.8886051550598E+00
 0.1007352469285E+01
 0.1115325187165E+01
 0.1212917569905E+01
 0.1300634318062E+01
 0.1379076952570E+01
 0.1448917059422E+01
 0.1510856797349E+01
 0.1565573961282E+01
 0.1613665190809E+01
 0.1655605923699E+01
 0.1691741556000E+01
 0.1722334765610E+01
 0.1747717600432E+01
 0.1768463345780E+01
 0.1785564180486E+01
 0.3074916647999E+00
 0.4664190572842E+00
 0.6157025839497E+00
 0.7543645301174E+00
 0.8821264737998E+00
 0.9989642864841E+00
 0.1105032385157E+01
 0.1200648202170E+01
 0.1286281080934E+01
 0.1362525718496E+01
 0.1430064734397E+01
 0.1489621664815E+01
 0.1541898115994E+01
 0.1587506856028E+01
 0.1626918813514E+01
 0.1660438388338E+01
 0.1688241344537E+01
 0.1710556457528E+01
 0.1727875260303E+01
 0.1741186202367E+01
 0.3126993320694E+00
 0.4676059380987E+00
 0.6138028544627E+00
 0.7499933178420E+00
 0.8756053134139E+00
 0.9904081350959E+00
 0.1094424423291E+01
 0.1187898259219E+01
 0.1271269662037E+01
 0.1345132735278E+01
 0.1410186161602E+01
 0.1467179207967E+01
 0.1516842521728E+01
 0.1559812838799E+01
 0.1596566576030E+01
 0.1627372596509E+01
 0.1652307268544E+01
 0.1671464603530E+01
 0.1685204808117E+01
 0.1694460606856E+01
 0.3183214860071E+00
 0.4690967206598E+00
 0.6121416262121E+00
 0.7457941845153E+00
 0.8691657730196E+00
 0.9818124156078E+00
 0.1083627613742E+01
 0.1174789266602E+01
 0.1255717243737E+01
 0.1327013246748E+01
 0.1389397415724E+01
 0.1443647944002E+01
 0.1490527682158E+01
 0.1530704194917E+01
 0.1564673263274E+01
 0.1592683339404E+01
 0.1614707589000E+01
 0.1630672905582E+01
 0.1640742433702E+01
 0.1645725498932E+01
 0.3243601165708E+00
 0.4709386412489E+00
 0.6108105349857E+00
 0.7418900328782E+00
 0.8629454725143E+00
 0.9733168366168E+00
 0.1072776395164E+01
 0.1161447950498E+01
 0.1239744163796E+01
 0.1308285059628E+01
 0.1367818214986E+01
 0.1419152279470E+01
 0.1463081796278E+01
 0.1500307486059E+01
 0.1531358272877E+01
 0.1556491018271E+01
 0.1575592554683E+01
 0.1588403893358E+01
 0.1594802940640E+01
 0.1595380597181E+01
 0.3308137007410E+00
 0.4731796691249E+00
 0.6099131653202E+00
 0.7384206302619E+00
 0.8570983196901E+00
 0.9650730041801E+00
 0.1062012826132E+01
 0.1148004702771E+01
 0.1223471503024E+01
 0.1289065723301E+01
 0.1345569471326E+01
 0.1393821783146E+01
 0.1434643284151E+01
 0.1468762396835E+01
 0.1496745532596E+01
 0.1518890813103E+01
 0.1535060798743E+01
 0.1544841319951E+01
 0.1547729609816E+01
 0.1543934378360E+01
 0.3376699125747E+00
 0.4758687662905E+00
 0.6095692089105E+00
 0.7355517219332E+00
 0.8517962735961E+00
 0.9572448966849E+00
 0.1051486315423E+01
 0.1134591776380E+01
 0.1207017954129E+01
 0.1269468781037E+01
 0.1322769436418E+01
 0.1367788461485E+01
 0.1405362451691E+01
 0.1436230074364E+01
 0.1460985982929E+01
 0.1479975263629E+01
 0.1493110890186E+01
 0.1500050253780E+01
 0.1499867055599E+01
 0.1492110971094E+01
 0.3448939442345E+00
 0.4790330000003E+00
 0.6099536425349E+00
 0.7334791861622E+00
 0.8472274796922E+00
 0.9500107537405E+00
 0.1041354635919E+01
 0.1121340502678E+01
 0.1190495641772E+01
 0.1249599472194E+01
 0.1299528457896E+01
 0.1341180844855E+01
 0.1375398596871E+01
 0.1402902135893E+01
 0.1424275827509E+01
 0.1439906316019E+01
 0.1449701214981E+01
 0.1453696162672E+01
 0.1451394026401E+01
 0.1441113696474E+01
 0.3522500440235E+00
 0.4828961123944E+00
 0.6113408294039E+00
 0.7324024788829E+00
 0.8435925341924E+00
 0.9435768320978E+00
 0.1031783799526E+01
 0.1108374454025E+01
 0.1174005907557E+01
 0.1229549868545E+01
 0.1275942926274E+01
 0.1314114889002E+01
 0.1344907692279E+01
 0.1368998793687E+01
 0.1386889483003E+01
 0.1398924062360E+01
 0.1405035875553E+01
 0.1405250840936E+01
 0.1400873360628E+01
 0.1394324141926E+01
 0.1486035690871E+01
 0.1249248834437E+01
 0.7457012464479E+00
 0.4920228360908E+00
 0.3142185367025E+00
 0.1818847354029E+00
 0.8719103363578E-01
 0.2324120336029E-01
 0.2518599036351E-01
 0.6580875134140E-01
 0.1009974996515E+00
 0.1307341453470E+00
 0.1539587542340E+00
 0.1687792530097E+00
 0.1734102969049E+00
 0.1653672946744E+00
 0.1416681159223E+00
 0.1017936474927E+00
 0.5222713662354E-01
 0.8864187439214E-02
 0.1263258847831E+01
 0.1370562730344E+01
 0.9294220029726E+00
 0.6291463405042E+00
 0.4357972667036E+00
 0.2938375733142E+00
 0.1903331187967E+00
 0.1150698675164E+00
 0.5743073589080E-01
 0.1041298949597E-01
 0.2977593104237E-01
 0.6410157253490E-01
 0.9260465421508E-01
 0.1140532729296E+00
 0.1265366979447E+00
 0.1281832421387E+00
 0.1185141773222E+00
 0.9273236127365E-01
 0.5155568899455E-01
 0.3753505856593E-02
 0.1086736164059E+01
 0.1297286228923E+01
 0.1043587924882E+01
 0.7609537373227E+00
 0.5547738667486E+00
 0.4048593838685E+00
 0.2934791187407E+00
 0.2104724230498E+00
 0.1455329763826E+00
 0.9213891443260E-01
 0.4663129744251E-01
 0.7248310128054E-02
 0.2674027763524E-01
 0.5475392996134E-01
 0.7539333401692E-01
 0.8725677842670E-01
 0.8989094962613E-01
 0.7755198303744E-01
 0.4728584028358E-01
 0.3709745704988E-02
 0.9537500717974E+00
 0.1197644721790E+01
 0.1077871002777E+01
 0.8647584686252E+00
 0.6675373133982E+00
 0.5135261123930E+00
 0.3965518963022E+00
 0.3077565633745E+00
 0.2373356638039E+00
 0.1786102496295E+00
 0.1279944061721E+00
 0.8355783643642E-01
 0.4422302231038E-01
 0.9856213007205E-02
 0.1868297405070E-01
 0.4023169087626E-01
 0.5453199244684E-01
 0.5522367708728E-01
 0.3695893416426E-01
 0.3678777767982E-02
 0.8502756887127E+00
 0.1099617933944E+01
 0.1071114351940E+01
 0.9306984293243E+00
 0.7650020462507E+00
 0.6170495277519E+00
 0.4981975958022E+00
 0.4057509841669E+00
 0.3314259784818E+00
 0.2686276753598E+00
 0.2137368608606E+00
 0.1647895270670E+00
 0.1205150084901E+00
 0.8031517480038E-01
 0.4461465388804E-01
 0.1429572050412E-01
 0.1102522598734E-01
 0.2399983829896E-01
 0.1796753074646E-01
 0.4651816063960E-02
 0.7679554755828E+00
 0.1010766594107E+01
 0.1043530163772E+01
 0.9663712854197E+00
 0.8411896544036E+00
 0.7106661955162E+00
 0.5960101985115E+00
 0.5028673198477E+00
 0.4264632399709E+00
 0.3610003652302E+00
 0.3029734505808E+00
 0.2504252472611E+00
 0.2020070002732E+00
 0.1568253411532E+00
 0.1149227279557E+00
 0.7683873300147E-01
 0.4245553752477E-01
 0.1830780440943E-01
 0.1280796212465E-01
 0.2467778496113E-01
 0.7012731450286E+00
 0.9325151998261E+00
 0.1006150039210E+01
 0.9802474771280E+00
 0.8963876908702E+00
 0.7905225343557E+00
 0.6867872869448E+00
 0.5969567476247E+00
 0.5208524815250E+00
 0.4544209088728E+00
 0.3946394337114E+00
 0.3396838443076E+00
 0.2882199829281E+00
 0.2391887672400E+00
 0.1923504305741E+00
 0.1479866120109E+00
 0.1057608358453E+00
 0.7178783174282E-01
 0.5576526366554E-01
 0.5892736581910E-01
 0.6464570965569E+00
 0.8644299398148E+00
 0.9650123706969E+00
 0.9792225333539E+00
 0.9333971393819E+00
 0.8552918538663E+00
 0.7677375870210E+00
 0.6855798796555E+00
 0.6127038171835E+00
 0.5473741050243E+00
 0.4874807958942E+00
 0.4315442586610E+00
 0.3783672225389E+00
 0.3268446043000E+00
 0.2765475243440E+00
 0.2275526855789E+00
 0.1793664017361E+00
 0.1375589970287E+00
 0.1127025809445E+00
 0.1085115767290E+00
 0.6008183640432E+00
 0.8054990139141E+00
 0.9234664004932E+00
 0.9683932010903E+00
 0.9556760749737E+00
 0.9054627690785E+00
 0.8372940536816E+00
 0.7665926392785E+00
 0.7000416144099E+00
 0.6381747562001E+00
 0.5800574232559E+00
 0.5247682199026E+00
 0.4713916050426E+00
 0.4189012737154E+00
 0.3667739511810E+00
 0.3149392686739E+00
 0.2628045282918E+00
 0.2152530390554E+00
 0.1834349737534E+00
 0.1734407925969E+00
 0.5623774268107E+00
 0.7545856038179E+00
 0.8833493368082E+00
 0.9514000869147E+00
 0.9665136144248E+00
 0.9425156260311E+00
 0.8950621108593E+00
 0.8385514571368E+00
 0.7811233611023E+00
 0.7251276103546E+00
 0.6708139171674E+00
 0.6179428699954E+00
 0.5660064166770E+00
 0.5141783984527E+00
 0.4619375929253E+00
 0.4091268537838E+00
 0.3551076631944E+00
 0.3039738377638E+00
 0.2671409053744E+00
 0.2527784934437E+00
 0.5296391366138E+00
 0.7105904411659E+00
 0.8456202253191E+00
 0.9307968918811E+00
 0.9687383164164E+00
 0.9683317921398E+00
 0.9414973367861E+00
 0.9007748551496E+00
 0.8546631789240E+00
 0.8067231790232E+00
 0.7582077581035E+00
 0.7095627813073E+00
 0.6607565017201E+00
 0.6112606075066E+00
 0.5606464866899E+00
 0.5087289165920E+00
 0.4548650151884E+00
 0.4022912424479E+00
 0.3623504115497E+00
 0.3448477492202E+00
 0.5014512126510E+00
 0.6725073357772E+00
 0.8107139964383E+00
 0.9083469575992E+00
 0.9646585642058E+00
 0.9848424015960E+00
 0.9775682139344E+00
 0.9532227381224E+00
 0.9198975933203E+00
 0.8817786805798E+00
 0.8408464136860E+00
 0.7981394958169E+00
 0.7541041841038E+00
 0.7085691436536E+00
 0.6612742736796E+00
 0.6120603955546E+00
 0.5603068325657E+00
 0.5083481782725E+00
 0.4670898376921E+00
 0.4474384065113E+00
 0.4769116293902E+00
 0.6394369853259E+00
 0.7787470422602E+00
 0.8852419790935E+00
 0.9560958873042E+00
 0.9938417172887E+00
 0.1004491427152E+01
 0.9963167253544E+00
 0.9765419098184E+00
 0.9494948813975E+00
 0.9175897539225E+00
 0.8823110242134E+00
 0.8445297415782E+00
 0.8044500788938E+00
 0.7620384526562E+00
 0.7172135978548E+00
 0.6693932559481E+00
 0.6199773745684E+00
 0.5790365400410E+00
 0.5580002816317E+00
 0.4553058491378E+00
 0.6105846624878E+00
 0.7496407516804E+00
 0.8622593684832E+00
 0.9444489910544E+00
 0.9969007452934E+00
 0.1023548686339E+01
 0.1030766982698E+01
 0.1024693589074E+01
 0.1009444795185E+01
 0.9876020442498E+00
 0.9609287885766E+00
 0.9306311270382E+00
 0.8972725855252E+00
 0.8610890420243E+00
 0.8221364170368E+00
 0.7798960532127E+00
 0.7348106827640E+00
 0.6956699161493E+00
 0.6738178399946E+00
 0.4360628925880E+00
 0.5852521476405E+00
 0.7231981490100E+00
 0.8398751771041E+00
 0.9307624006209E+00
 0.9953378104579E+00
 0.1035970054079E+01
 0.1057429971702E+01
 0.1064721375532E+01
 0.1061520267085E+01
 0.1050358054604E+01
 0.1033112467979E+01
 0.1011212016617E+01
 0.9855322090641E+00
 0.9566073087512E+00
 0.9247112364331E+00
 0.8894599376880E+00
 0.8503624710666E+00
 0.8144092769507E+00
 0.7921693410406E+00
 0.4187236527098E+00
 0.5628282177445E+00
 0.6991529596956E+00
 0.8183458266061E+00
 0.9157897282141E+00
 0.9902198176597E+00
 0.1042865383472E+01
 0.1077201375267E+01
 0.1097160518347E+01
 0.1105857373481E+01
 0.1105613197521E+01
 0.1098270692414E+01
 0.1085351808042E+01
 0.1067960291995E+01
 0.1046926245045E+01
 0.1022843779781E+01
 0.9956372164734E+00
 0.9640488962088E+00
 0.9327201522636E+00
 0.9104756265495E+00
 0.4029172557022E+00
 0.5427793978386E+00
 0.6772023163315E+00
 0.7977682163600E+00
 0.9000484038011E+00
 0.9823788984254E+00
 0.1045188729981E+01
 0.1090940972754E+01
 0.1122623230107E+01
 0.1142754057258E+01
 0.1153345119811E+01
 0.1156082973115E+01
 0.1152446683909E+01
 0.1143635898589E+01
 0.1130705285812E+01
 0.1114618579182E+01
 0.1095903488945E+01
 0.1073098287096E+01
 0.1048099267641E+01
 0.1026466400013E+01
 0.3883421623076E+00
 0.5246420512009E+00
 0.6570304248754E+00
 0.7781253124952E+00
 0.8838650714748E+00
 0.9724348866421E+00
 0.1043724860889E+01
 0.1099424985663E+01
 0.1141729261188E+01
 0.1172590233651E+01
 0.1193672618321E+01
 0.1206432351515E+01
 0.1212187753527E+01
 0.1212066682066E+01
 0.1207156253209E+01
 0.1198681211029E+01
 0.1187857939842E+01
 0.1174207140111E+01
 0.1157814750996E+01
 0.1138264773219E+01
 0.3747491463603E+00
 0.5080138463429E+00
 0.6383336014994E+00
 0.7593232778123E+00
 0.8674082390422E+00
 0.9608171277787E+00
 0.1039089348585E+01
 0.1103323246246E+01
 0.1155061785243E+01
 0.1195763250722E+01
 0.1226766665949E+01
 0.1249285930222E+01
 0.1264424496255E+01
 0.1273109220154E+01
 0.1276205269632E+01
 0.1274791564975E+01
 0.1270429199095E+01
 0.1263646581933E+01
 0.1256948396113E+01
 0.1244510214715E+01
 0.3618988508138E+00
 0.4925773950169E+00
 0.6208625940364E+00
 0.7412194521325E+00
 0.8507074013970E+00
 0.9477658573205E+00
 0.1031741177725E+01
 0.1103203411249E+01
 0.1163152308922E+01
 0.1212656448299E+01
 0.1252788804130E+01
 0.1284566927426E+01
 0.1308913847691E+01
 0.1326563488796E+01
 0.1338087934515E+01
 0.1344042198074E+01
 0.1345300677496E+01
 0.1342394526509E+01
 0.1338270688308E+01
 0.1338670507459E+01
 0.3618988542266E+00
 0.4925773971409E+00
 0.6208625951814E+00
 0.7412194524823E+00
 0.8507074011052E+00
 0.9477658565533E+00
 0.1031741176668E+01
 0.1103203410098E+01
 0.1163152307848E+01
 0.1212656447422E+01
 0.1252788803501E+01
 0.1284566927042E+01
 0.1308913847512E+01
 0.1326563488770E+01
 0.1338087934595E+01
 0.1344042198227E+01
 0.1345300677705E+01
 0.1342394526747E+01
 0.1338270688587E+01
 0.1338670507760E+01
 0.3747491498498E+00
 0.5080138487019E+00
 0.6383336029504E+00
 0.7593232784701E+00
 0.8674082390175E+00
 0.9608171272208E+00
 0.1039089347683E+01
 0.1103323245204E+01
 0.1155061784245E+01
 0.1195763249895E+01
 0.1226766665351E+01
 0.1249285929852E+01
 0.1264424496078E+01
 0.1273109220123E+01
 0.1276205269704E+01
 0.1274791565129E+01
 0.1270429199318E+01
 0.1263646582184E+01
 0.1256948396421E+01
 0.1244510215125E+01
 0.3883421659049E+00
 0.5246420538486E+00
 0.6570304266732E+00
 0.7781253134817E+00
 0.8838650717181E+00
 0.9724348862785E+00
 0.1043724860113E+01
 0.1099424984694E+01
 0.1141729260226E+01
 0.1172590232834E+01
 0.1193672617715E+01
 0.1206432351125E+01
 0.1212187753321E+01
 0.1212066681998E+01
 0.1207156253243E+01
 0.1198681211143E+01
 0.1187857940016E+01
 0.1174207140299E+01
 0.1157814751285E+01
 0.1138264773748E+01
 0.4029172594346E+00
 0.5427794008278E+00
 0.6772023185133E+00
 0.7977682176866E+00
 0.9000484042989E+00
 0.9823788982234E+00
 0.1045188729286E+01
 0.1090940971808E+01
 0.1122623229133E+01
 0.1142754056409E+01
 0.1153345119159E+01
 0.1156082972670E+01
 0.1152446683641E+01
 0.1143635898454E+01
 0.1130705285771E+01
 0.1114618579212E+01
 0.1095903489015E+01
 0.1073098287174E+01
 0.1048099267894E+01
 0.1026466400652E+01
 0.4187236566071E+00
 0.5628282211250E+00
 0.6991529622899E+00
 0.8183458282702E+00
 0.9157897289355E+00
 0.9902198175690E+00
 0.1042865382800E+01
 0.1077201374288E+01
 0.1097160517309E+01
 0.1105857372555E+01
 0.1105613196786E+01
 0.1098270691881E+01
 0.1085351807681E+01
 0.1067960291761E+01
 0.1046926244898E+01
 0.1022843779691E+01
 0.9956372164031E+00
 0.9640488961538E+00
 0.9327201524642E+00
 0.9104756272751E+00
 0.4360628966828E+00
 0.5852521514587E+00
 0.7231981520333E+00
 0.8398751790854E+00
 0.9307624015151E+00
 0.9953378104099E+00
 0.1035970053358E+01
 0.1057429970624E+01
 0.1064721374378E+01
 0.1061520266040E+01
 0.1050358053753E+01
 0.1033112467332E+01
 0.1011212016140E+01
 0.9855322087104E+00
 0.9566073084756E+00
 0.9247112362000E+00
 0.8894599374578E+00
 0.8503624708685E+00
 0.8144092770873E+00
 0.7921693418220E+00
 0.4553058534654E+00
 0.6105846667848E+00
 0.7496407551340E+00
 0.8622593707401E+00
 0.9444489920486E+00
 0.9969007452015E+00
 0.1023548685485E+01
 0.1030766981454E+01
 0.1024693587755E+01
 0.1009444793986E+01
 0.9876020432579E+00
 0.9609287877974E+00
 0.9306311264335E+00
 0.8972725850412E+00
 0.8610890416108E+00
 0.8221364166528E+00
 0.7798960528178E+00
 0.7348106824241E+00
 0.6956699162135E+00
 0.6738178407964E+00
 0.4769116339875E+00
 0.6394369901354E+00
 0.7787470461263E+00
 0.8852419815600E+00
 0.9560958883021E+00
 0.9938417170500E+00
 0.1004491426077E+01
 0.9963167238787E+00
 0.9765419082915E+00
 0.9494948800219E+00
 0.9175897527791E+00
 0.8823110232992E+00
 0.8445297408460E+00
 0.8044500782819E+00
 0.7620384521085E+00
 0.7172135973251E+00
 0.6693932553970E+00
 0.6199773740987E+00
 0.5790365400310E+00
 0.5580002824193E+00
 0.5014512175557E+00
 0.6725073411220E+00
 0.8107140006759E+00
 0.9083469601808E+00
 0.9646585650876E+00
 0.9848424010953E+00
 0.9775682125489E+00
 0.9532227363623E+00
 0.9198975915617E+00
 0.8817786790220E+00
 0.8408464123967E+00
 0.7981394947787E+00
 0.7541041832574E+00
 0.7085691429278E+00
 0.6612742730127E+00
 0.6120603948961E+00
 0.5603068318782E+00
 0.5083481776952E+00
 0.4670898376153E+00
 0.4474384072560E+00
 0.5296391418619E+00
 0.7105904470537E+00
 0.8456202298577E+00
 0.9307968944518E+00
 0.9687383170402E+00
 0.9683317912570E+00
 0.9414973350148E+00
 0.9007748530739E+00
 0.8546631769332E+00
 0.8067231772994E+00
 0.7582077566916E+00
 0.7095627801702E+00
 0.6607565007839E+00
 0.6112606066908E+00
 0.5606464859283E+00
 0.5087289158314E+00
 0.4548650143949E+00
 0.4022912417958E+00
 0.3623504114245E+00
 0.3448477499046E+00
 0.5623774324345E+00
 0.7545856102349E+00
 0.8833493415414E+00
 0.9514000893140E+00
 0.9665136146315E+00
 0.9425156246532E+00
 0.8950621086525E+00
 0.8385514547471E+00
 0.7811233589088E+00
 0.7251276085043E+00
 0.6708139156725E+00
 0.6179428687954E+00
 0.5660064156832E+00
 0.5141783975771E+00
 0.4619375921002E+00
 0.4091268529556E+00
 0.3551076623346E+00
 0.3039738370799E+00
 0.2671409052321E+00
 0.2527784940660E+00
 0.6008183700668E+00
 0.8054990208167E+00
 0.9234664052696E+00
 0.9683932031217E+00
 0.9556760745976E+00
 0.9054627671178E+00
 0.8372940510331E+00
 0.7665926366195E+00
 0.7000416120754E+00
 0.6381747542831E+00
 0.5800574217289E+00
 0.5247682186817E+00
 0.4713916040273E+00
 0.4189012728143E+00
 0.3667739503284E+00
 0.3149392678186E+00
 0.2628045274138E+00
 0.2152530383920E+00
 0.1834349736379E+00
 0.1734407931750E+00
 0.6464571029906E+00
 0.8644299471177E+00
 0.9650123753098E+00
 0.9792225347882E+00
 0.9333971382699E+00
 0.8552918512865E+00
 0.7677375839866E+00
 0.6855798768198E+00
 0.6127038147976E+00
 0.5473741031132E+00
 0.4874807943904E+00
 0.4315442574621E+00
 0.3783672215384E+00
 0.3268446034083E+00
 0.2765475235020E+00
 0.2275526847415E+00
 0.1793664008944E+00
 0.1375589964451E+00
 0.1127025809109E+00
 0.1085115773019E+00
 0.7012731518603E+00
 0.9325152073844E+00
 0.1006150043385E+01
 0.9802474777142E+00
 0.8963876889151E+00
 0.7905225312045E+00
 0.6867872836551E+00
 0.5969567447470E+00
 0.5208524791927E+00
 0.4544209070415E+00
 0.3946394322825E+00
 0.3396838431696E+00
 0.2882199819759E+00
 0.2391887663919E+00
 0.1923504297818E+00
 0.1479866112391E+00
 0.1057608350985E+00
 0.7178783130230E-01
 0.5576526377578E-01
 0.5892736644514E-01
 0.7679554827634E+00
 0.1010766601689E+01
 0.1043530167154E+01
 0.9663712849152E+00
 0.8411896515989E+00
 0.7106661919589E+00
 0.5960101951683E+00
 0.5028673170830E+00
 0.4264632377931E+00
 0.3610003635428E+00
 0.3029734492699E+00
 0.2504252462165E+00
 0.2020069993987E+00
 0.1568253403804E+00
 0.1149227272514E+00
 0.7683873234303E-01
 0.4245553693314E-01
 0.1830780417700E-01
 0.1280796243224E-01
 0.2467778571135E-01
 0.8502756961315E+00
 0.1099617941185E+01
 0.1071114354090E+01
 0.9306984275654E+00
 0.7650020427679E+00
 0.6170495240859E+00
 0.4981975926405E+00
 0.4057509816557E+00
 0.3314259765391E+00
 0.2686276738652E+00
 0.2137368597004E+00
 0.1647895261412E+00
 0.1205150077177E+00
 0.8031517413132E-01
 0.4461465330795E-01
 0.1429572000855E-01
 0.1102522636526E-01
 0.2399983827478E-01
 0.1796753016709E-01
 0.4651816982754E-02
 0.9537500792345E+00
 0.1197644728115E+01
 0.1077871003204E+01
 0.8647584656742E+00
 0.6675373096729E+00
 0.5135261089888E+00
 0.3965518935217E+00
 0.3077565612178E+00
 0.2373356621519E+00
 0.1786102483621E+00
 0.1279944051856E+00
 0.8355783564749E-01
 0.4422302165842E-01
 0.9856212465905E-02
 0.1868297447535E-01
 0.4023169117654E-01
 0.5453199257042E-01
 0.5522367675941E-01
 0.3695893328297E-01
 0.3678776540725E-02
 0.1086736171089E+01
 0.1297286233428E+01
 0.1043587923200E+01
 0.7609537337877E+00
 0.5547738634159E+00
 0.4048593810214E+00
 0.2934791164667E+00
 0.2104724213119E+00
 0.1455329750594E+00
 0.9213891341552E-01
 0.4663129664299E-01
 0.7248309487392E-02
 0.2674027815511E-01
 0.5475393035810E-01
 0.7539333425888E-01
 0.8725677849105E-01
 0.8989094944708E-01
 0.7755198237989E-01
 0.4728583909779E-01
 0.3709744407921E-02
 0.1263258853487E+01
 0.1370562731451E+01
 0.9294219998999E+00
 0.6291463376028E+00
 0.4357972642353E+00
 0.2938375711734E+00
 0.1903331171033E+00
 0.1150698662436E+00
 0.5743073492468E-01
 0.1041298874302E-01
 0.2977593165353E-01
 0.6410157303065E-01
 0.9260465459871E-01
 0.1140532731712E+00
 0.1265366979852E+00
 0.1281832419356E+00
 0.1185141768018E+00
 0.9273236027241E-01
 0.5155568753657E-01
 0.3753506911264E-02
 0.1486035693021E+01
 0.1249248833054E+01
 0.7457012447028E+00
 0.4920228346423E+00
 0.3142185352555E+00
 0.1818847340479E+00
 0.8719103258280E-01
 0.2324120260409E-01
 0.2518599096139E-01
 0.6580875184572E-01
 0.1009975000879E+00
 0.1307341457056E+00
 0.1539587544813E+00
 0.1687792530920E+00
 0.1734102967459E+00
 0.1653672941788E+00
 0.1416681149780E+00
 0.1017936461429E+00
 0.5222713496488E-01
 0.8864189269587E-02
 0.1357597647751E+01
 0.1260597470226E+01
 0.1159788851653E+01
 0.1052587335812E+01
 0.9393082293182E+00
 0.8222404263461E+00
 0.7039266873413E+00
 0.5871473035399E+00
 0.4748310826483E+00
 0.3699690414220E+00
 0.2754803468981E+00
 0.1940352602672E+00
 0.1278332200672E+00
 0.7833771453113E-01
 0.4598066279544E-01
 0.2990157975601E-01
 0.2779590176732E-01
 0.3568652266944E-01
 0.4845690922531E-01
 0.6092937699740E-01
 0.1409529193618E+01
 0.1329254522310E+01
 0.1231252433893E+01
 0.1126003046757E+01
 0.1014679836297E+01
 0.8985324050911E+00
 0.7795793170951E+00
 0.6603248144420E+00
 0.5436360335657E+00
 0.4326304208669E+00
 0.3305523445906E+00
 0.2406074893525E+00
 0.1657401773371E+00
 0.1083422082421E+00
 0.6989225752061E-01
 0.5056181987124E-01
 0.4878804970907E-01
 0.6071918604669E-01
 0.8033152446605E-01
 0.1016690140939E+00
 0.1461072801426E+01
 0.1390773274329E+01
 0.1303125893535E+01
 0.1203741836117E+01
 0.1096602167294E+01
 0.9834130059810E+00
 0.8658964727008E+00
 0.7462033609880E+00
 0.6269357458621E+00
 0.5110990386628E+00
 0.4020215298701E+00
 0.3032341742372E+00
 0.2182886757646E+00
 0.1504907839722E+00
 0.1025285076856E+00
 0.7599064116449E-01
 0.7073372032111E-01
 0.8388702945205E-01
 0.1091711871010E+00
 0.1380561771145E+00
 0.1514384374873E+01
 0.1451597287879E+01
 0.1373687962106E+01
 0.1283143646086E+01
 0.1182917203907E+01
 0.1075158236851E+01
 0.9615625475469E+00
 0.8439870473670E+00
 0.7246695013528E+00
 0.6062918458164E+00
 0.4919805133920E+00
 0.3852634447390E+00
 0.2899732356484E+00
 0.2100700253332E+00
 0.1493481762514E+00
 0.1109857305154E+00
 0.9684956012550E-01
 0.1062448669944E+00
 0.1339538454419E+00
 0.1692279739648E+00
 0.1568366665471E+01
 0.1512368582675E+01
 0.1443646749335E+01
 0.1362745276014E+01
 0.1271466876519E+01
 0.1171535989930E+01
 0.1064513671487E+01
 0.9519917646935E+00
 0.8358188351769E+00
 0.7182259000266E+00
 0.6018925078577E+00
 0.4899769122669E+00
 0.3861128847899E+00
 0.2943585850357E+00
 0.2190672023014E+00
 0.1646302539221E+00
 0.1349978347157E+00
 0.1326583348528E+00
 0.1562036701754E+00
 0.1959054634424E+00
 0.1622180004014E+01
 0.1572691304717E+01
 0.1512646271166E+01
 0.1441527159091E+01
 0.1360172067436E+01
 0.1269752108479E+01
 0.1171494303911E+01
 0.1066705052310E+01
 0.9568753597554E+00
 0.8437899817050E+00
 0.7296086411798E+00
 0.6169251722071E+00
 0.5088105185086E+00
 0.4088393137671E+00
 0.3210922007108E+00
 0.2501168316283E+00
 0.2008092571588E+00
 0.1780750138045E+00
 0.1856384791764E+00
 0.2210778216161E+00
 0.1675111117762E+01
 0.1632042724389E+01
 0.1580237754255E+01
 0.1518686495095E+01
 0.1447563638022E+01
 0.1367529833987E+01
 0.1279451123955E+01
 0.1184335537108E+01
 0.1083367431489E+01
 0.9779714530926E+00
 0.8698779909301E+00
 0.7611787939291E+00
 0.6543718658895E+00
 0.5523965923164E+00
 0.4586603304891E+00
 0.3770603349474E+00
 0.3120147857399E+00
 0.2685345673641E+00
 0.2523927960621E+00
 0.2695269161622E+00
 0.1726519074305E+01
 0.1689830328156E+01
 0.1645878044419E+01
 0.1593511799257E+01
 0.1532501981997E+01
 0.1463115837382E+01
 0.1385892274434E+01
 0.1301560259680E+01
 0.1211036656124E+01
 0.1115462493139E+01
 0.1016253451839E+01
 0.9151526068204E+00
 0.8142795429741E+00
 0.7161732827375E+00
 0.6238281665221E+00
 0.5407258326516E+00
 0.4708814334677E+00
 0.4189766957537E+00
 0.3908557698237E+00
 0.3961734087094E+00
 0.1775844001494E+01
 0.1745479523579E+01
 0.1709023031912E+01
 0.1665377900275E+01
 0.1614106871786E+01
 0.1555204519166E+01
 0.1488943089950E+01
 0.1415801302763E+01
 0.1336450917251E+01
 0.1251778318225E+01
 0.1162926272857E+01
 0.1071346991453E+01
 0.9788619970958E+00
 0.8877268771067E+00
 0.8007007455850E+00
 0.7211225707472E+00
 0.6530024564483E+00
 0.6011580572308E+00
 0.5714994148182E+00
 0.5720496070819E+00
 0.1822606439344E+01
 0.1798470841004E+01
 0.1769170209270E+01
 0.1733754085794E+01
 0.1691711268070E+01
 0.1642867570063E+01
 0.1587294513461E+01
 0.1525258829050E+01
 0.1457208860967E+01
 0.1383788275804E+01
 0.1305869160707E+01
 0.1224599521277E+01
 0.1141462654380E+01
 0.1058347719920E+01
 0.9776319075664E+00
 0.9022745531261E+00
 0.8359213260596E+00
 0.7830013893536E+00
 0.7487492960640E+00
 0.7384064280561E+00
 0.1866404832815E+01
 0.1848351709527E+01
 0.1825866055365E+01
 0.1798177187344E+01
 0.1764780815057E+01
 0.1725412435701E+01
 0.1680003481700E+01
 0.1628651812443E+01
 0.1571612804330E+01
 0.1509309180131E+01
 0.1442356507468E+01
 0.1371602155563E+01
 0.1298176838367E+01
 0.1223559099710E+01
 0.1149653895191E+01
 0.1078886288335E+01
 0.1014308042762E+01
 0.9597050899850E+00
 0.9196362213997E+00
 0.8993338245242E+00
 0.1906872966557E+01
 0.1894674557300E+01
 0.1878635583772E+01
 0.1858160253061E+01
 0.1832790607405E+01
 0.1802223153744E+01
 0.1766296361970E+01
 0.1724977818271E+01
 0.1678360665199E+01
 0.1626671425956E+01
 0.1570288944586E+01
 0.1509773949983E+01
 0.1445909323163E+01
 0.1379751995506E+01
 0.1312698302567E+01
 0.1246565341571E+01
 0.1183691806051E+01
 0.1127062803744E+01
 0.1080488978044E+01
 0.1048991998828E+01
 0.1943672741865E+01
 0.1936988666417E+01
 0.1926959528069E+01
 0.1913137114650E+01
 0.1895122523378E+01
 0.1872602440843E+01
 0.1845354857736E+01
 0.1813247296137E+01
 0.1776237242319E+01
 0.1734378348170E+01
 0.1687833480739E+01
 0.1636894947302E+01
 0.1582012296695E+01
 0.1523828607433E+01
 0.1463227008429E+01
 0.1401390490024E+01
 0.1339880192903E+01
 0.1280743674969E+01
 0.1226679852280E+01
 0.1181286145548E+01
 0.1976507045760E+01
 0.1974882634084E+01
 0.1970337481474E+01
 0.1962536454087E+01
 0.1951137247217E+01
 0.1935830677408E+01
 0.1916354857589E+01
 0.1892499496294E+01
 0.1864108404119E+01
 0.1831083862677E+01
 0.1793394346341E+01
 0.1751086155402E+01
 0.1704299249227E+01
 0.1653287698565E+01
 0.1598445655670E+01
 0.1540340642004E+01
 0.1479757487603E+01
 0.1417757419317E+01
 0.1355751962913E+01
 0.1295577890382E+01
 0.2005119285684E+01
 0.2008000042437E+01
 0.2008325247899E+01
 0.2005840185285E+01
 0.2000249101491E+01
 0.1991251250719E+01
 0.1978557016810E+01
 0.1961894413918E+01
 0.1941011917034E+01
 0.1915680704472E+01
 0.1885697721377E+01
 0.1850890057844E+01
 0.1811120655333E+01
 0.1766295128091E+01
 0.1716369439771E+01
 0.1661358320126E+01
 0.1601344610525E+01
 0.1536489372822E+01
 0.1467039232554E+01
 0.1393318745708E+01
 0.2029291625749E+01
 0.2036041087774E+01
 0.2040544690267E+01
 0.2042601587727E+01
 0.2041950247382E+01
 0.2038297406577E+01
 0.2031332553566E+01
 0.2020734081360E+01
 0.2006171182557E+01
 0.1987303828737E+01
 0.1963781990390E+01
 0.1935244469234E+01
 0.1901317165931E+01
 0.1861610154787E+01
 0.1815712479923E+01
 0.1763183070515E+01
 0.1703535608251E+01
 0.1636215705845E+01
 0.1560572227651E+01
 0.1475825303906E+01
 0.2048843735282E+01
 0.2058760649941E+01
 0.2066684819189E+01
 0.2072449837839E+01
 0.2075817061494E+01
 0.2076497797570E+01
 0.2074164789882E+01
 0.2068456737226E+01
 0.2058978595302E+01
 0.2045299394719E+01
 0.2026948508038E+01
 0.2003410701554E+01
 0.1974119826767E+01
 0.1938450539000E+01
 0.1895706864380E+01
 0.1845105630610E+01
 0.1785751724314E+01
 0.1716600701086E+01
 0.1636407308398E+01
 0.1543677359819E+01
 0.2063632157666E+01
 0.2075965928376E+01
 0.2086500479461E+01
 0.2095090592997E+01
 0.2101511667635E+01
 0.2105476830977E+01
 0.2106645497460E+01
 0.2104625954168E+01
 0.2098973971662E+01
 0.2089188789231E+01
 0.2074707292603E+01
 0.2054896799824E+01
 0.2029046553691E+01
 0.1996357725000E+01
 0.1955931375446E+01
 0.1906753290893E+01
 0.1847673504018E+01
 0.1777376182904E+01
 0.1694326621991E+01
 0.1596682329653E+01
 0.2073549958912E+01
 0.2087514332862E+01
 0.2099810308103E+01
 0.2110305006903E+01
 0.2118781629552E+01
 0.2124953511523E+01
 0.2128470551001E+01
 0.2128920214224E+01
 0.2125824784787E+01
 0.2118636019458E+01
 0.2106728004919E+01
 0.2089388768029E+01
 0.2065811057956E+01
 0.2035082674035E+01
 0.1996176747454E+01
 0.1947942466783E+01
 0.1889096810787E+01
 0.1818217108400E+01
 0.1733732110551E+01
 0.1633859010316E+01
 0.2078526431759E+01
 0.2093311888724E+01
 0.2106494842842E+01
 0.2117948289882E+01
 0.2127458880464E+01
 0.2134739728960E+01
 0.2139435751924E+01
 0.2141123806331E+01
 0.2139309186262E+01
 0.2133419575886E+01
 0.2122797263016E+01
 0.2106690266699E+01
 0.2084243016703E+01
 0.2054487356645E+01
 0.2016334972592E+01
 0.1968572991438E+01
 0.1909865712595E+01
 0.1838768169050E+01
 0.1753763702194E+01
 0.1653375307545E+01
 0.2078526431778E+01
 0.2093311888760E+01
 0.2106494842897E+01
 0.2117948289959E+01
 0.2127458880567E+01
 0.2134739729090E+01
 0.2139435752084E+01
 0.2141123806524E+01
 0.2139309186491E+01
 0.2133419576152E+01
 0.2122797263321E+01
 0.2106690267041E+01
 0.2084243017082E+01
 0.2054487357058E+01
 0.2016334973034E+01
 0.1968572991902E+01
 0.1909865713073E+01
 0.1838768169532E+01
 0.1753763702672E+01
 0.1653375308019E+01
 0.2073549958969E+01
 0.2087514332970E+01
 0.2099810308268E+01
 0.2110305007135E+01
 0.2118781629857E+01
 0.2124953511911E+01
 0.2128470551480E+01
 0.2128920214802E+01
 0.2125824785471E+01
 0.2118636020254E+01
 0.2106728005828E+01
 0.2089388769053E+01
 0.2065811059090E+01
 0.2035082675271E+01
 0.1996176748778E+01
 0.1947942468173E+01
 0.1889096812217E+01
 0.1818217109838E+01
 0.1733732111964E+01
 0.1633859011683E+01
 0.2063632157761E+01
 0.2075965928555E+01
 0.2086500479735E+01
 0.2095090593380E+01
 0.2101511668141E+01
 0.2105476831618E+01
 0.2106645498252E+01
 0.2104625955124E+01
 0.2098973972794E+01
 0.2089188790548E+01
 0.2074707294111E+01
 0.2054896801522E+01
 0.2029046555573E+01
 0.1996357727052E+01
 0.1955931377644E+01
 0.1906753293201E+01
 0.1847673506389E+01
 0.1777376185277E+01
 0.1694326624295E+01
 0.1596682331805E+01
 0.2048843735414E+01
 0.2058760650189E+01
 0.2066684819569E+01
 0.2072449838369E+01
 0.2075817062193E+01
 0.2076497798458E+01
 0.2074164790979E+01
 0.2068456738551E+01
 0.2058978596871E+01
 0.2045299396546E+01
 0.2026948510130E+01
 0.2003410703913E+01
 0.1974119829385E+01
 0.1938450541856E+01
 0.1895706867441E+01
 0.1845105633825E+01
 0.1785751727612E+01
 0.1716600704373E+01
 0.1636407311551E+01
 0.1543677362681E+01
 0.2029291625918E+01
 0.2036041088088E+01
 0.2040544690748E+01
 0.2042601588398E+01
 0.2041950248266E+01
 0.2038297407701E+01
 0.2031332554955E+01
 0.2020734083038E+01
 0.2006171184547E+01
 0.1987303831056E+01
 0.1963781993048E+01
 0.1935244472234E+01
 0.1901317169264E+01
 0.1861610158428E+01
 0.1815712483829E+01
 0.1763183074620E+01
 0.1703535612461E+01
 0.1636215710029E+01
 0.1560572231632E+01
 0.1475825307452E+01
 0.2005119285889E+01
 0.2008000042816E+01
 0.2008325248477E+01
 0.2005840186089E+01
 0.2000249102552E+01
 0.1991251252067E+01
 0.1978557018478E+01
 0.1961894415935E+01
 0.1941011919428E+01
 0.1915680707263E+01
 0.1885697724578E+01
 0.1850890061459E+01
 0.1811120659353E+01
 0.1766295132486E+01
 0.1716369444491E+01
 0.1661358325091E+01
 0.1601344615618E+01
 0.1536489377878E+01
 0.1467039237345E+01
 0.1393318749930E+01
 0.1976507045999E+01
 0.1974882634522E+01
 0.1970337482140E+01
 0.1962536455013E+01
 0.1951137248440E+01
 0.1935830678964E+01
 0.1916354859515E+01
 0.1892499498626E+01
 0.1864108406887E+01
 0.1831083865906E+01
 0.1793394350048E+01
 0.1751086159590E+01
 0.1704299253886E+01
 0.1653287703664E+01
 0.1598445661151E+01
 0.1540340647777E+01
 0.1479757493536E+01
 0.1417757425222E+01
 0.1355751968530E+01
 0.1295577895354E+01
 0.1943672742137E+01
 0.1936988666912E+01
 0.1926959528818E+01
 0.1913137115690E+01
 0.1895122524751E+01
 0.1872602442592E+01
 0.1845354859903E+01
 0.1813247298761E+01
 0.1776237245434E+01
 0.1734378351804E+01
 0.1687833484910E+01
 0.1636894952014E+01
 0.1582012301935E+01
 0.1523828613167E+01
 0.1463227014594E+01
 0.1401390496522E+01
 0.1339880199592E+01
 0.1280743681653E+01
 0.1226679858691E+01
 0.1181286151320E+01
 0.1906872966858E+01
 0.1894674557842E+01
 0.1878635584590E+01
 0.1858160254199E+01
 0.1832790608908E+01
 0.1802223155660E+01
 0.1766296364346E+01
 0.1724977821149E+01
 0.1678360668616E+01
 0.1626671429940E+01
 0.1570288949154E+01
 0.1509773955138E+01
 0.1445909328890E+01
 0.1379752001766E+01
 0.1312698309295E+01
 0.1246565348667E+01
 0.1183691813375E+01
 0.1127062811108E+01
 0.1080488985209E+01
 0.1048992005505E+01
 0.1866404833144E+01
 0.1848351710111E+01
 0.1825866056245E+01
 0.1798177188567E+01
 0.1764780816676E+01
 0.1725412437768E+01
 0.1680003484264E+01
 0.1628651815549E+01
 0.1571612808014E+01
 0.1509309184419E+01
 0.1442356512374E+01
 0.1371602161088E+01
 0.1298176844488E+01
 0.1223559106385E+01
 0.1149653902350E+01
 0.1078886295878E+01
 0.1014308050555E+01
 0.9597050978560E+00
 0.9196362291472E+00
 0.8993338319662E+00
 0.1822606439697E+01
 0.1798470841624E+01
 0.1769170210203E+01
 0.1733754087095E+01
 0.1691711269797E+01
 0.1642867572269E+01
 0.1587294516197E+01
 0.1525258832358E+01
 0.1457208864881E+01
 0.1383788280346E+01
 0.1305869165885E+01
 0.1224599527081E+01
 0.1141462660783E+01
 0.1058347726871E+01
 0.9776319149911E+00
 0.9022745609263E+00
 0.8359213341128E+00
 0.7830013975142E+00
 0.7487493041619E+00
 0.7384064358891E+00
 0.1775844001868E+01
 0.1745479524230E+01
 0.1709023032895E+01
 0.1665377901649E+01
 0.1614106873612E+01
 0.1555204521499E+01
 0.1488943092837E+01
 0.1415801306243E+01
 0.1336450921351E+01
 0.1251778322958E+01
 0.1162926278221E+01
 0.1071346997430E+01
 0.9788620036474E+00
 0.8877268841771E+00
 0.8007007531008E+00
 0.7211225786219E+00
 0.6530024645888E+00
 0.6011580655448E+00
 0.5714994232110E+00
 0.5720496153275E+00
 0.1726519074696E+01
 0.1689830328834E+01
 0.1645878045447E+01
 0.1593511800700E+01
 0.1532501983916E+01
 0.1463115839827E+01
 0.1385892277448E+01
 0.1301560263292E+01
 0.1211036660350E+01
 0.1115462497980E+01
 0.1016253457278E+01
 0.9151526128240E+00
 0.8142795494887E+00
 0.7161732896924E+00
 0.6238281738322E+00
 0.5407258402235E+00
 0.4708814412094E+00
 0.4189767035879E+00
 0.3908557777010E+00
 0.3961734166593E+00
 0.1675111118164E+01
 0.1632042725089E+01
 0.1580237755323E+01
 0.1518686496599E+01
 0.1447563640018E+01
 0.1367529836519E+01
 0.1279451127052E+01
 0.1184335540786E+01
 0.1083367435745E+01
 0.9779714579082E+00
 0.8698779962635E+00
 0.7611787997151E+00
 0.6543718720370E+00
 0.5523965987068E+00
 0.4586603369756E+00
 0.3770603413552E+00
 0.3120147918695E+00
 0.2685345730012E+00
 0.2523928010257E+00
 0.2695269205537E+00
 0.1622180004418E+01
 0.1572691305431E+01
 0.1512646272267E+01
 0.1441527160643E+01
 0.1360172069483E+01
 0.1269752111051E+01
 0.1171494307020E+01
 0.1066705055951E+01
 0.9568753639013E+00
 0.8437899863061E+00
 0.7296086461582E+00
 0.6169251774542E+00
 0.5088105238824E+00
 0.4088393190913E+00
 0.3210922057777E+00
 0.2501168362072E+00
 0.2008092610163E+00
 0.1780750167514E+00
 0.1856384811819E+00
 0.2210778230475E+00
 0.1568366665868E+01
 0.1512368583396E+01
 0.1443646750458E+01
 0.1362745277590E+01
 0.1271466878576E+01
 0.1171535992475E+01
 0.1064513674511E+01
 0.9519917681658E+00
 0.8358188390431E+00
 0.7182259042049E+00
 0.6018925122366E+00
 0.4899769167056E+00
 0.3861128891214E+00
 0.2943585890755E+00
 0.2190672058642E+00
 0.1646302568499E+00
 0.1349978369230E+00
 0.1326583363979E+00
 0.1562036713612E+00
 0.1959054647941E+00
 0.1514384375256E+01
 0.1451597288601E+01
 0.1373687963235E+01
 0.1283143647652E+01
 0.1182917205912E+01
 0.1075158239280E+01
 0.9615625503689E+00
 0.8439870505280E+00
 0.7246695047754E+00
 0.6062918493981E+00
 0.4919805170083E+00
 0.3852634482490E+00
 0.2899732389058E+00
 0.2100700282033E+00
 0.1493481786345E+00
 0.1109857323767E+00
 0.9684956152947E-01
 0.1062448681374E+00
 0.1339538466388E+00
 0.1692279754961E+00
 0.1461072801788E+01
 0.1390773275040E+01
 0.1303125894645E+01
 0.1203741837621E+01
 0.1096602169171E+01
 0.9834130081982E+00
 0.8658964752108E+00
 0.7462033637230E+00
 0.6269357487347E+00
 0.5110990415698E+00
 0.4020215326987E+00
 0.3032341768755E+00
 0.2182886781153E+00
 0.1504907859696E+00
 0.1025285093146E+00
 0.7599064247817E-01
 0.7073372145181E-01
 0.8388703060325E-01
 0.1091711884885E+00
 0.1380561788534E+00
 0.1409529193960E+01
 0.1329254523015E+01
 0.1231252434958E+01
 0.1126003048143E+01
 0.1014679837977E+01
 0.8985324070223E+00
 0.7795793192214E+00
 0.6603248166914E+00
 0.5436360358548E+00
 0.4326304231072E+00
 0.3305523466970E+00
 0.2406074912539E+00
 0.1657401789883E+00
 0.1083422096366E+00
 0.6989225870071E-01
 0.5056182093310E-01
 0.4878805079532E-01
 0.6071918731862E-01
 0.8033152604612E-01
 0.1016690159951E+00
 0.1357597648108E+01
 0.1260597470913E+01
 0.1159788852606E+01
 0.1052587337008E+01
 0.9393082307228E+00
 0.8222404279110E+00
 0.7039266890076E+00
 0.5871473052420E+00
 0.4748310843193E+00
 0.3699690430002E+00
 0.2754803483349E+00
 0.1940352615355E+00
 0.1278332211685E+00
 0.7833771550192E-01
 0.4598066370900E-01
 0.2990158071835E-01
 0.2779590289814E-01
 0.3568652406916E-01
 0.4845691093821E-01
 0.6092937896090E-01
</DataArray>
<DataArray type="Float64" Name="CK" NumberOfComponents="1" ComponentName0="CK" format="ascii">
 0.0000000000000E+00
 0.0000000000000E+00
 0.0000000000000E+00
 0.0000000000000E+00
 0.0000000000000E+00
 0.0000000000000E+00
 0.0000000000000E+00
 0.0000000000000E+00
 0.0000000000000E+00
 0.0000000000000E+00
 0.0000000000000E+00
 0.0000000000000E+00
 0.0000000000000E+00
 0.0000000000000E+00
 0.0000000000000E+00
 0.0000000000000E+00
 0.0000000000000E+00
 0.0000000000000E+00
 0.0000000000000E+00
 0.0000000000000E+00
 0.0000000000000E+00
 0.0000000000000E+00
 0.0000000000000E+00
 0.0000000000000E+00
 0.0000000000000E+00
 0.0000000000000E+00
 0.0000000000000E+00
 0.0000000000000E+00
 0.0000000000000E+00
 0.0000000000000E+00
 0.0000000000000E+00
 0.0000000000000E+00
 0.0000000000000E+00
 0.0000000000000E+00
 0.0000000000000E+00
 0.0000000000000E+00
 0.0000000000000E+00
 0.0000000000000E+00
 0.0000000000000E+00
 0.0000000000000E+00
 0.0000000000000E+00
 0.0000000000000E+00
 0.0000000000000E+00
 0.0000000000000E+00
 0.0000000000000E+00
 0.0000000000000E+00
 0.0000000000000E+00
 0.0000000000000E+00
 0.0000000000000E+00
 0.0000000000000E+00
 0.0000000000000E+00
 0.0000000000000E+00
 0.0000000000000E+00
 0.0000000000000E+00
 0.0000000000000E+00
 0.0000000000000E+00
 0.0000000000000E+00
 0.0000000000000E+00
 0.0000000000000E+00
 0.0000000000000E+00
 0.0000000000000E+00
 0.0000000000000E+00
 0.0000000000000E+00
 0.0000000000000E+00
 0.0000000000000E+00
 0.0000000000000E+00
 0.0000000000000E+00
 0.0000000000000E+00
 0.0000000000000E+00
 0.0000000000000E+00
 0.0000000000000E+00
 0.0000000000000E+00
 0.0000000000000E+00
 0.0000000000000E+00
 0.0000000000000E+00
 0.0000000000000E+00
 0.0000000000000E+00
 0.0000000000000E+00
 0.0000000000000E+00
 0.0000000000000E+00
 0.0000000000000E+00
 0.0000000000000E+00
 0.0000000000000E+00
 0.0000000000000E+00
 0.0000000000000E+00
 0.0000000000000E+00
 0.0000000000000E+00
 0.0000000000000E+00
 0.0000000000000E+00
 0.0000000000000E+00
 0.0000000000000E+00
 0.0000000000000E+00
 0.0000000000000E+00
 0.0000000000000E+00
 0.0000000000000E+00
 0.0000000000000E+00
 0.0000000000000E+00
 0.0000000000000E+00
 0.0000000000000E+00
 0.0000000000000E+00
 0.0000000000000E+00
 0.0000000000000E+00
 0.0000000000000E+00
 0.0000000000000E+00
 0.0000000000000E+00
 0.0000000000000E+00
 0.0000000000000E+00
 0.0000000000000E+00
 0.0000000000000E+00
 0.0000000000000E+00
 0.0000000000000E+00
 0.0000000000000E+00
 0.0000000000000E+00
 0.0000000000000E+00
 0.0000000000000E+00
 0.0000000000000E+00
 0.0000000000000E+00
 0.0000000000000E+00
 0.0000000000000E+00
 0.0000000000000E+00
 0.0000000000000E+00
 0.0000000000000E+00
 0.0000000000000E+00
 0.0000000000000E+00
 0.0000000000000E+00
 0.0000000000000E+00
 0.0000000000000E+00
 0.0000000000000E+00
 0.0000000000000E+00
 0.0000000000000E+00
 0.0000000000000E+00
 0.0000000000000E+00
 0.0000000000000E+00
 0.0000000000000E+00
 0.0000000000000E+00
 0.0000000000000E+00
 0.0000000000000E+00
 0.0000000000000E+00
 0.0000000000000E+00
 0.0000000000000E+00
 0.0000000000000E+00
 0.0000000000000E+00
 0.0000000000000E+00
 0.0000000000000E+00
 0.0000000000000E+00
 0.0000000000000E+00
 0.0000000000000E+00
 0.0000000000000E+00
 0.0000000000000E+00
 0.0000000000000E+00
 0.0000000000000E+00
 0.0000000000000E+00
 0.0000000000000E+00
 0.0000000000000E+00
 0.0000000000000E+00
 0.0000000000000E+00
 0.0000000000000E+00
 0.0000000000000E+00
 0.0000000000000E+00
 0.0000000000000E+00
 0.0000000000000E+00
 0.0000000000000E+00
 0.0000000000000E+00
 0.0000000000000E+00
 0.0000000000000E+00
 0.0000000000000E+00
 0.0000000000000E+00
 0.0000000000000E+00
 0.0000000000000E+00
 0.0000000000000E+00
 0.0000000000000E+00
 0.0000000000000E+00
 0.0000000000000E+00
 0.0000000000000E+00
 0.0000000000000E+00
 0.0000000000000E+00
 0.0000000000000E+00
 0.0000000000000E+00
 0.0000000000000E+00
 0.0000000000000E+00
 0.0000000000000E+00
 0.0000000000000E+00
 0.0000000000000E+00
 0.0000000000000E+00
 0.0000000000000E+00
 0.0000000000000E+00
 0.0000000000000E+00
 0.0000000000000E+00
 0.0000000000000E+00
 0.0000000000000E+00
 0.0000000000000E+00
 0.0000000000000E+00
 0.0000000000000E+00
 0.0000000000000E+00
 0.0000000000000E+00
 0.0000000000000E+00
 0.0000000000000E+00
 0.0000000000000E+00
 0.0000000000000E+00
 0.0000000000000E+00
 0.0000000000000E+00
 0.0000000000000E+00
 0.0000000000000E+00
 0.0000000000000E+00
 0.0000000000000E+00
 0.0000000000000E+00
 0.0000000000000E+00
 0.0000000000000E+00
 0.0000000000000E+00
 0.0000000000000E+00
 0.0000000000000E+00
 0.0000000000000E+00
 0.0000000000000E+00
 0.0000000000000E+00
 0.0000000000000E+00
 0.0000000000000E+00
 0.0000000000000E+00
 0.0000000000000E+00
 0.0000000000000E+00
 0.0000000000000E+00
 0.0000000000000E+00
 0.0000000000000E+00
 0.0000000000000E+00
 0.0000000000000E+00
 0.0000000000000E+00
 0.0000000000000E+00
 0.0000000000000E+00
 0.0000000000000E+00
 0.0000000000000E+00
 0.0000000000000E+00
 0.0000000000000E+00
 0.0000000000000E+00
 0.0000000000000E+00
 0.0000000000000E+00
 0.0000000000000E+00
 0.0000000000000E+00
 0.0000000000000E+00
 0.0000000000000E+00
 0.0000000000000E+00
 0.0000000000000E+00
 0.0000000000000E+00
 0.0000000000000E+00
 0.0000000000000E+00
 0.0000000000000E+00
 0.0000000000000E+00
 0.0000000000000E+00
 0.0000000000000E+00
 0.0000000000000E+00
 0.0000000000000E+00
 0.0000000000000E+00
 0.0000000000000E+00
 0.0000000000000E+00
 0.0000000000000E+00
 0.0000000000000E+00
 0.0000000000000E+00
 0.0000000000000E+00
 0.0000000000000E+00
 0.0000000000000E+00
 0.0000000000000E+00
 0.0000000000000E+00
 0.0000000000000E+00
 0.0000000000000E+00
 0.0000000000000E+00
 0.0000000000000E+00
 0.0000000000000E+00
 0.0000000000000E+00
 0.0000000000000E+00
 0.0000000000000E+00
 0.0000000000000E+00
 0.0000000000000E+00
 0.0000000000000E+00
 0.0000000000000E+00
 0.0000000000000E+00
 0.0000000000000E+00
 0.0000000000000E+00
 0.0000000000000E+00
 0.0000000000000E+00
 0.0000000000000E+00
 0.0000000000000E+00
 0.0000000000000E+00
 0.0000000000000E+00
 0.0000000000000E+00
 0.0000000000000E+00
 0.0000000000000E+00
 0.0000000000000E+00
 0.0000000000000E+00
 0.0000000000000E+00
 0.0000000000000E+00
 0.0000000000000E+00
 0.0000000000000E+00
 0.0000000000000E+00
 0.0000000000000E+00
 0.0000000000000E+00
 0.0000000000000E+00
 0.0000000000000E+00
 0.0000000000000E+00
 0.0000000000000E+00
 0.0000000000000E+00
 0.0000000000000E+00
 0.0000000000000E+00
 0.0000000000000E+00
 0.0000000000000E+00
 0.0000000000000E+00
 0.0000000000000E+00
 0.0000000000000E+00
 0.0000000000000E+00
 0.0000000000000E+00
 0.0000000000000E+00
 0.0000000000000E+00
 0.0000000000000E+00
 0.0000000000000E+00
 0.0000000000000E+00
 0.0000000000000E+00
 0.0000000000000E+00
 0.0000000000000E+00
 0.0000000000000E+00
 0.0000000000000E+00
 0.0000000000000E+00
 0.0000000000000E+00
 0.0000000000000E+00
 0.0000000000000E+00
 0.0000000000000E+00
 0.0000000000000E+00
 0.0000000000000E+00
 0.0000000000000E+00
 0.0000000000000E+00
 0.0000000000000E+00
 0.0000000000000E+00
 0.0000000000000E+00
 0.0000000000000E+00
 0.0000000000000E+00
 0.0000000000000E+00
 0.0000000000000E+00
 0.0000000000000E+00
 0.0000000000000E+00
 0.0000000000000E+00
 0.0000000000000E+00
 0.0000000000000E+00
 0.0000000000000E+00
 0.0000000000000E+00
 0.0000000000000E+00
 0.0000000000000E+00
 0.0000000000000E+00
 0.0000000000000E+00
 0.0000000000000E+00
 0.0000000000000E+00
 0.0000000000000E+00
 0.0000000000000E+00
 0.0000000000000E+00
 0.0000000000000E+00
 0.0000000000000E+00
 0.0000000000000E+00
 0.0000000000000E+00
 0.0000000000000E+00
 0.0000000000000E+00
 0.0000000000000E+00
 0.0000000000000E+00
 0.0000000000000E+00
 0.0000000000000E+00
 0.0000000000000E+00
 0.0000000000000E+00
 0.0000000000000E+00
 0.0000000000000E+00
 0.0000000000000E+00
 0.0000000000000E+00
 0.0000000000000E+00
 0.0000000000000E+00
 0.0000000000000E+00
 0.0000000000000E+00
 0.0000000000000E+00
 0.0000000000000E+00
 0.0000000000000E+00
 0.0000000000000E+00
 0.0000000000000E+00
 0.0000000000000E+00
 0.0000000000000E+00
 0.0000000000000E+00
 0.0000000000000E+00
 0.0000000000000E+00
 0.0000000000000E+00
 0.0000000000000E+00
 0.0000000000000E+00
 0.0000000000000E+00
 0.0000000000000E+00
 0.0000000000000E+00
 0.0000000000000E+00
 0.0000000000000E+00
 0.0000000000000E+00
 0.0000000000000E+00
 0.0000000000000E+00
 0.0000000000000E+00
 0.0000000000000E+00
 0.0000000000000E+00
 0.0000000000000E+00
 0.0000000000000E+00
 0.0000000000000E+00
 0.0000000000000E+00
 0.0000000000000E+00
 0.0000000000000E+00
 0.0000000000000E+00
 0.0000000000000E+00
 0.0000000000000E+00
 0.0000000000000E+00
 0.0000000000000E+00
 0.0000000000000E+00
 0.0000000000000E+00
 0.0000000000000E+00
 0.0000000000000E+00
 0.0000000000000E+00
 0.0000000000000E+00
 0.0000000000000E+00
 0.0000000000000E+00
 0.0000000000000E+00
 0.0000000000000E+00
 0.0000000000000E+00
 0.0000000000000E+00
 0.0000000000000E+00
 0.0000000000000E+00
 0.0000000000000E+00
 0.0000000000000E+00
 0.0000000000000E+00
 0.0000000000000E+00
 0.0000000000000E+00
 0.0000000000000E+00
 0.0000000000000E+00
 0.0000000000000E+00
 0.0000000000000E+00
 0.0000000000000E+00
 0.0000000000000E+00
 0.0000000000000E+00
 0.0000000000000E+00
 0.0000000000000E+00
 0.0000000000000E+00
 0.0000000000000E+00
 0.0000000000000E+00
 0.0000000000000E+00
 0.0000000000000E+00
 0.0000000000000E+00
 0.0000000000000E+00
 0.0000000000000E+00
 0.0000000000000E+00
 0.0000000000000E+00
 0.0000000000000E+00
 0.0000000000000E+00
 0.0000000000000E+00
 0.0000000000000E+00
 0.0000000000000E+00
 0.0000000000000E+00
 0.0000000000000E+00
 0.0000000000000E+00
 0.0000000000000E+00
 0.0000000000000E+00
 0.0000000000000E+00
 0.0000000000000E+00
 0.0000000000000E+00
 0.0000000000000E+00
 0.0000000000000E+00
 0.0000000000000E+00
 0.0000000000000E+00
 0.0000000000000E+00
 0.0000000000000E+00
 0.0000000000000E+00
 0.0000000000000E+00
 0.0000000000000E+00
 0.0000000000000E+00
 0.0000000000000E+00
 0.0000000000000E+00
 0.0000000000000E+00
 0.0000000000000E+00
 0.0000000000000E+00
 0.0000000000000E+00
 0.0000000000000E+00
 0.0000000000000E+00
 0.0000000000000E+00
 0.0000000000000E+00
 0.0000000000000E+00
 0.0000000000000E+00
 0.0000000000000E+00
 0.0000000000000E+00
 0.0000000000000E+00
 0.0000000000000E+00
 0.0000000000000E+00
 0.0000000000000E+00
 0.0000000000000E+00
 0.0000000000000E+00
 0.0000000000000E+00
 0.0000000000000E+00
 0.0000000000000E+00
 0.0000000000000E+00
 0.0000000000000E+00
 0.0000000000000E+00
 0.0000000000000E+00
 0.0000000000000E+00
 0.0000000000000E+00
 0.0000000000000E+00
 0.0000000000000E+00
 0.0000000000000E+00
 0.0000000000000E+00
 0.0000000000000E+00
 0.0000000000000E+00
 0.0000000000000E+00
 0.0000000000000E+00
 0.0000000000000E+00
 0.0000000000000E+00
 0.0000000000000E+00
 0.0000000000000E+00
 0.0000000000000E+00
 0.0000000000000E+00
 0.0000000000000E+00
 0.0000000000000E+00
 0.0000000000000E+00
 0.0000000000000E+00
 0.0000000000000E+00
 0.0000000000000E+00
 0.0000000000000E+00
 0.0000000000000E+00
 0.0000000000000E+00
 0.0000000000000E+00
 0.0000000000000E+00
 0.0000000000000E+00
 0.0000000000000E+00
 0.0000000000000E+00
 0.0000000000000E+00
 0.0000000000000E+00
 0.0000000000000E+00
 0.0000000000000E+00
 0.0000000000000E+00
 0.0000000000000E+00
 0.0000000000000E+00
 0.0000000000000E+00
 0.0000000000000E+00
 0.0000000000000E+00
 0.0000000000000E+00
 0.0000000000000E+00
 0.0000000000000E+00
 0.0000000000000E+00
 0.0000000000000E+00
 0.0000000000000E+00
 0.0000000000000E+00
 0.0000000000000E+00
 0.0000000000000E+00
 0.0000000000000E+00
 0.0000000000000E+00
 0.0000000000000E+00
 0.0000000000000E+00
 0.0000000000000E+00
 0.0000000000000E+00
 0.0000000000000E+00
 0.0000000000000E+00
 0.0000000000000E+00
 0.0000000000000E+00
 0.0000000000000E+00
 0.0000000000000E+00
 0.0000000000000E+00
 0.0000000000000E+00
 0.0000000000000E+00
 0.0000000000000E+00
 0.0000000000000E+00
 0.0000000000000E+00
 0.0000000000000E+00
 0.0000000000000E+00
 0.0000000000000E+00
 0.0000000000000E+00
 0.0000000000000E+00
 0.0000000000000E+00
 0.0000000000000E+00
 0.0000000000000E+00
 0.0000000000000E+00
 0.0000000000000E+00
 0.0000000000000E+00
 0.0000000000000E+00
 0.0000000000000E+00
 0.0000000000000E+00
 0.0000000000000E+00
 0.0000000000000E+00
 0.0000000000000E+00
 0.0000000000000E+00
 0.0000000000000E+00
 0.0000000000000E+00
 0.0000000000000E+00
 0.0000000000000E+00
 0.0000000000000E+00
 0.0000000000000E+00
 0.0000000000000E+00
 0.0000000000000E+00
 0.0000000000000E+00
 0.0000000000000E+00
 0.0000000000000E+00
 0.0000000000000E+00
 0.0000000000000E+00
 0.0000000000000E+00
 0.0000000000000E+00
 0.0000000000000E+00
 0.0000000000000E+00
 0.0000000000000E+00
 0.0000000000000E+00
 0.0000000000000E+00
 0.0000000000000E+00
 0.0000000000000E+00
 0.0000000000000E+00
 0.0000000000000E+00
 0.0000000000000E+00
 0.0000000000000E+00
 0.0000000000000E+00
 0.0000000000000E+00
 0.0000000000000E+00
 0.0000000000000E+00
 0.0000000000000E+00
 0.0000000000000E+00
 0.0000000000000E+00
 0.0000000000000E+00
 0.0000000000000E+00
 0.0000000000000E+00
 0.0000000000000E+00
 0.0000000000000E+00
 0.0000000000000E+00
 0.0000000000000E+00
 0.0000000000000E+00
 0.0000000000000E+00
 0.0000000000000E+00
 0.0000000000000E+00
 0.0000000000000E+00
 0.0000000000000E+00
 0.0000000000000E+00
 0.0000000000000E+00
 0.0000000000000E+00
 0.0000000000000E+00
 0.0000000000000E+00
 0.0000000000000E+00
 0.0000000000000E+00
 0.0000000000000E+00
 0.0000000000000E+00
 0.0000000000000E+00
 0.0000000000000E+00
 0.0000000000000E+00
 0.0000000000000E+00
 0.0000000000000E+00
 0.0000000000000E+00
 0.0000000000000E+00
 0.0000000000000E+00
 0.0000000000000E+00
 0.0000000000000E+00
 0.0000000000000E+00
 0.0000000000000E+00
 0.0000000000000E+00
 0.0000000000000E+00
 0.0000000000000E+00
 0.0000000000000E+00
 0.0000000000000E+00
 0.0000000000000E+00
 0.0000000000000E+00
 0.0000000000000E+00
 0.0000000000000E+00
 0.0000000000000E+00
 0.0000000000000E+00
 0.0000000000000E+00
 0.0000000000000E+00
 0.0000000000000E+00
 0.0000000000000E+00
 0.0000000000000E+00
 0.0000000000000E+00
 0.0000000000000E+00
 0.0000000000000E+00
 0.0000000000000E+00
 0.0000000000000E+00
 0.0000000000000E+00
 0.0000000000000E+00
 0.0000000000000E+00
 0.0000000000000E+00
 0.0000000000000E+00
 0.0000000000000E+00
 0.0000000000000E+00
 0.0000000000000E+00
 0.0000000000000E+00
 0.0000000000000E+00
 0.0000000000000E+00
 0.0000000000000E+00
 0.0000000000000E+00
 0.0000000000000E+00
 0.0000000000000E+00
 0.0000000000000E+00
 0.0000000000000E+00
 0.0000000000000E+00
 0.0000000000000E+00
 0.0000000000000E+00
 0.0000000000000E+00
 0.0000000000000E+00
 0.0000000000000E+00
 0.0000000000000E+00
 0.0000000000000E+00
 0.0000000000000E+00
 0.0000000000000E+00
 0.0000000000000E+00
 0.0000000000000E+00
 0.0000000000000E+00
 0.0000000000000E+00
 0.0000000000000E+00
 0.0000000000000E+00
 0.0000000000000E+00
 0.0000000000000E+00
 0.0000000000000E+00
 0.0000000000000E+00
 0.0000000000000E+00
 0.0000000000000E+00
 0.0000000000000E+00
 0.0000000000000E+00
 0.0000000000000E+00
 0.0000000000000E+00
 0.0000000000000E+00
 0.0000000000000E+00
 0.0000000000000E+00
 0.0000000000000E+00
 0.0000000000000E+00
 0.0000000000000E+00
 0.0000000000000E+00
 0.0000000000000E+00
 0.0000000000000E+00
 0.0000000000000E+00
 0.0000000000000E+00
 0.0000000000000E+00
 0.0000000000000E+00
 0.0000000000000E+00
 0.0000000000000E+00
 0.0000000000000E+00
 0.0000000000000E+00
 0.0000000000000E+00
 0.0000000000000E+00
 0.0000000000000E+00
 0.0000000000000E+00
 0.0000000000000E+00
 0.0000000000000E+00
 0.0000000000000E+00
 0.0000000000000E+00
 0.0000000000000E+00
 0.0000000000000E+00
 0.0000000000000E+00
 0.0000000000000E+00
 0.0000000000000E+00
 0.0000000000000E+00
 0.0000000000000E+00
 0.0000000000000E+00
 0.0000000000000E+00
 0.0000000000000E+00
 0.0000000000000E+00
 0.0000000000000E+00
 0.0000000000000E+00
 0.0000000000000E+00
 0.0000000000000E+00
 0.0000000000000E+00
 0.0000000000000E+00
 0.0000000000000E+00
 0.0000000000000E+00
 0.0000000000000E+00
 0.0000000000000E+00
 0.0000000000000E+00
 0.0000000000000E+00
 0.0000000000000E+00
 0.0000000000000E+00
 0.0000000000000E+00
 0.0000000000000E+00
 0.0000000000000E+00
 0.0000000000000E+00
 0.0000000000000E+00
 0.0000000000000E+00
 0.0000000000000E+00
 0.0000000000000E+00
 0.0000000000000E+00
 0.0000000000000E+00
 0.0000000000000E+00
 0.0000000000000E+00
 0.0000000000000E+00
 0.0000000000000E+00
 0.0000000000000E+00
 0.0000000000000E+00
 0.0000000000000E+00
 0.0000000000000E+00
 0.0000000000000E+00
 0.0000000000000E+00
 0.0000000000000E+00
 0.0000000000000E+00
 0.0000000000000E+00
 0.0000000000000E+00
 0.0000000000000E+00
 0.0000000000000E+00
 0.0000000000000E+00
 0.0000000000000E+00
 0.0000000000000E+00
 0.0000000000000E+00
 0.0000000000000E+00
 0.0000000000000E+00
 0.0000000000000E+00
 0.0000000000000E+00
 0.0000000000000E+00
 0.0000000000000E+00
 0.0000000000000E+00
 0.0000000000000E+00
 0.0000000000000E+00
 0.0000000000000E+00
 0.0000000000000E+00
 0.0000000000000E+00
 0.0000000000000E+00
 0.0000000000000E+00
 0.0000000000000E+00
 0.0000000000000E+00
 0.0000000000000E+00
 0.0000000000000E+00
 0.0000000000000E+00
 0.0000000000000E+00
 0.0000000000000E+00
 0.0000000000000E+00
 0.0000000000000E+00
 0.0000000000000E+00
 0.0000000000000E+00
 0.0000000000000E+00
 0.0000000000000E+00
 0.0000000000000E+00
 0.0000000000000E+00
 0.0000000000000E+00
 0.0000000000000E+00
 0.0000000000000E+00
 0.0000000000000E+00
 0.0000000000000E+00
 0.0000000000000E+00
 0.0000000000000E+00
 0.0000000000000E+00
 0.0000000000000E+00
 0.0000000000000E+00
 0.0000000000000E+00
 0.0000000000000E+00
 0.0000000000000E+00
 0.0000000000000E+00
 0.0000000000000E+00
 0.0000000000000E+00
 0.0000000000000E+00
 0.0000000000000E+00
 0.0000000000000E+00
 0.0000000000000E+00
 0.0000000000000E+00
 0.0000000000000E+00
 0.0000000000000E+00
 0.0000000000000E+00
 0.0000000000000E+00
 0.0000000000000E+00
 0.0000000000000E+00
 0.0000000000000E+00
 0.0000000000000E+00
 0.0000000000000E+00
 0.0000000000000E+00
 0.0000000000000E+00
 0.0000000000000E+00
 0.0000000000000E+00
 0.0000000000000E+00
 0.0000000000000E+00
 0.0000000000000E+00
 0.0000000000000E+00
 0.0000000000000E+00
 0.0000000000000E+00
 0.0000000000000E+00
 0.0000000000000E+00
 0.0000000000000E+00
 0.0000000000000E+00
 0.0000000000000E+00
 0.0000000000000E+00
 0.0000000000000E+00
 0.0000000000000E+00
 0.0000000000000E+00
 0.0000000000000E+00
 0.0000000000000E+00
 0.0000000000000E+00
 0.0000000000000E+00
 0.0000000000000E+00
 0.0000000000000E+00
 0.0000000000000E+00
 0.0000000000000E+00
 0.0000000000000E+00
 0.0000000000000E+00
 0.0000000000000E+00
 0.0000000000000E+00
 0.0000000000000E+00
 0.0000000000000E+00
 0.0000000000000E+00
 0.0000000000000E+00
 0.0000000000000E+00
 0.0000000000000E+00
 0.0000000000000E+00
 0.0000000000000E+00
 0.0000000000000E+00
 0.0000000000000E+00
 0.0000000000000E+00
 0.0000000000000E+00
 0.0000000000000E+00
 0.0000000000000E+00
 0.0000000000000E+00
 0.0000000000000E+00
 0.0000000000000E+00
 0.0000000000000E+00
 0.0000000000000E+00
 0.0000000000000E+00
 0.0000000000000E+00
 0.0000000000000E+00
 0.0000000000000E+00
 0.0000000000000E+00
 0.0000000000000E+00
 0.0000000000000E+00
 0.0000000000000E+00
 0.0000000000000E+00
 0.0000000000000E+00
 0.0000000000000E+00
 0.0000000000000E+00
 0.0000000000000E+00
 0.0000000000000E+00
 0.0000000000000E+00
 0.0000000000000E+00
 0.0000000000000E+00
 0.0000000000000E+00
 0.0000000000000E+00
 0.0000000000000E+00
 0.0000000000000E+00
 0.0000000000000E+00
 0.0000000000000E+00
 0.0000000000000E+00
 0.0000000000000E+00
 0.0000000000000E+00
 0.0000000000000E+00
 0.0000000000000E+00
 0.0000000000000E+00
 0.0000000000000E+00
 0.0000000000000E+00
 0.0000000000000E+00
 0.0000000000000E+00
 0.0000000000000E+00
 0.0000000000000E+00
 0.0000000000000E+00
 0.0000000000000E+00
 0.0000000000000E+00
 0.0000000000000E+00
 0.0000000000000E+00
 0.0000000000000E+00
 0.0000000000000E+00
 0.0000000000000E+00
 0.0000000000000E+00
 0.0000000000000E+00
 0.0000000000000E+00
 0.0000000000000E+00
 0.0000000000000E+00
 0.0000000000000E+00
 0.0000000000000E+00
 0.0000000000000E+00
 0.0000000000000E+00
 0.0000000000000E+00
 0.0000000000000E+00
 0.0000000000000E+00
 0.0000000000000E+00
 0.0000000000000E+00
 0.0000000000000E+00
 0.0000000000000E+00
 0.0000000000000E+00
 0.0000000000000E+00
 0.0000000000000E+00
 0.0000000000000E+00
 0.0000000000000E+00
 0.0000000000000E+00
 0.0000000000000E+00
 0.0000000000000E+00
 0.0000000000000E+00
 0.0000000000000E+00
 0.0000000000000E+00
 0.0000000000000E+00
 0.0000000000000E+00
 0.0000000000000E+00
 0.0000000000000E+00
 0.0000000000000E+00
 0.0000000000000E+00
 0.0000000000000E+00
 0.0000000000000E+00
 0.0000000000000E+00
 0.0000000000000E+00
 0.0000000000000E+00
 0.0000000000000E+00
 0.0000000000000E+00
 0.0000000000000E+00
 0.0000000000000E+00
 0.0000000000000E+00
 0.0000000000000E+00
 0.0000000000000E+00
 0.0000000000000E+00
 0.0000000000000E+00
 0.0000000000000E+00
 0.0000000000000E+00
 0.0000000000000E+00
 0.0000000000000E+00
 0.0000000000000E+00
 0.0000000000000E+00
 0.0000000000000E+00
 0.0000000000000E+00
 0.0000000000000E+00
 0.0000000000000E+00
 0.0000000000000E+00
 0.0000000000000E+00
 0.0000000000000E+00
 0.0000000000000E+00
 0.0000000000000E+00
 0.0000000000000E+00
 0.0000000000000E+00
 0.0000000000000E+00
 0.0000000000000E+00
 0.0000000000000E+00
 0.0000000000000E+00
 0.0000000000000E+00
 0.0000000000000E+00
 0.0000000000000E+00
 0.0000000000000E+00
 0.0000000000000E+00
 0.0000000000000E+00
 0.0000000000000E+00
 0.0000000000000E+00
 0.0000000000000E+00
 0.0000000000000E+00
 0.0000000000000E+00
 0.0000000000000E+00
 0.0000000000000E+00
 0.0000000000000E+00
 0.0000000000000E+00
 0.0000000000000E+00
 0.0000000000000E+00
 0.0000000000000E+00
 0.0000000000000E+00
 0.0000000000000E+00
 0.0000000000000E+00
 0.0000000000000E+00
 0.0000000000000E+00
 0.0000000000000E+00
 0.0000000000000E+00
 0.0000000000000E+00
 0.0000000000000E+00
 0.0000000000000E+00
 0.0000000000000E+00
 0.0000000000000E+00
 0.0000000000000E+00
 0.0000000000000E+00
 0.0000000000000E+00
 0.0000000000000E+00
 0.0000000000000E+00
 0.0000000000000E+00
 0.0000000000000E+00
 0.0000000000000E+00
 0.0000000000000E+00
 0.0000000000000E+00
 0.0000000000000E+00
 0.0000000000000E+00
 0.0000000000000E+00
 0.0000000000000E+00
 0.0000000000000E+00
 0.0000000000000E+00
 0.0000000000000E+00
 0.0000000000000E+00
 0.0000000000000E+00
 0.0000000000000E+00
 0.0000000000000E+00
 0.0000000000000E+00
 0.0000000000000E+00
 0.0000000000000E+00
 0.0000000000000E+00
 0.0000000000000E+00
 0.0000000000000E+00
 0.0000000000000E+00
 0.0000000000000E+00
 0.0000000000000E+00
 0.0000000000000E+00
 0.0000000000000E+00
 0.0000000000000E+00
 0.0000000000000E+00
 0.0000000000000E+00
 0.0000000000000E+00
 0.0000000000000E+00
 0.0000000000000E+00
 0.0000000000000E+00
 0.0000000000000E+00
 0.0000000000000E+00
 0.0000000000000E+00
 0.0000000000000E+00
 0.0000000000000E+00
 0.0000000000000E+00
 0.0000000000000E+00
 0.0000000000000E+00
 0.0000000000000E+00
 0.0000000000000E+00
 0.0000000000000E+00
 0.0000000000000E+00
 0.0000000000000E+00
 0.0000000000000E+00
 0.0000000000000E+00
 0.0000000000000E+00
 0.0000000000000E+00
 0.0000000000000E+00
 0.0000000000000E+00
 0.0000000000000E+00
 0.0000000000000E+00
 0.0000000000000E+00
 0.0000000000000E+00
 0.0000000000000E+00
 0.0000000000000E+00
 0.0000000000000E+00
 0.0000000000000E+00
 0.0000000000000E+00
 0.0000000000000E+00
 0.0000000000000E+00
 0.0000000000000E+00
 0.0000000000000E+00
 0.0000000000000E+00
 0.0000000000000E+00
 0.0000000000000E+00
 0.0000000000000E+00
 0.0000000000000E+00
 0.0000000000000E+00
 0.0000000000000E+00
 0.0000000000000E+00
 0.0000000000000E+00
 0.0000000000000E+00
 0.0000000000000E+00
 0.0000000000000E+00
 0.0000000000000E+00
 0.0000000000000E+00
 0.0000000000000E+00
 0.0000000000000E+00
 0.0000000000000E+00
 0.0000000000000E+00
 0.0000000000000E+00
 0.0000000000000E+00
 0.0000000000000E+00
 0.0000000000000E+00
 0.0000000000000E+00
 0.0000000000000E+00
 0.0000000000000E+00
 0.0000000000000E+00
 0.0000000000000E+00
 0.0000000000000E+00
 0.0000000000000E+00
 0.0000000000000E+00
 0.0000000000000E+00
 0.0000000000000E+00
 0.0000000000000E+00
 0.0000000000000E+00
 0.0000000000000E+00
 0.0000000000000E+00
 0.0000000000000E+00
 0.0000000000000E+00
 0.0000000000000E+00
 0.0000000000000E+00
 0.0000000000000E+00
 0.0000000000000E+00
 0.0000000000000E+00
 0.0000000000000E+00
 0.0000000000000E+00
 0.0000000000000E+00
 0.0000000000000E+00
 0.0000000000000E+00
 0.0000000000000E+00
 0.0000000000000E+00
 0.0000000000000E+00
 0.0000000000000E+00
 0.0000000000000E+00
 0.0000000000000E+00
 0.0000000000000E+00
 0.0000000000000E+00
 0.0000000000000E+00
 0.0000000000000E+00
 0.0000000000000E+00
 0.0000000000000E+00
 0.0000000000000E+00
 0.0000000000000E+00
 0.0000000000000E+00
 0.0000000000000E+00
 0.0000000000000E+00
 0.0000000000000E+00
 0.0000000000000E+00
 0.0000000000000E+00
 0.0000000000000E+00
 0.0000000000000E+00
 0.0000000000000E+00
 0.0000000000000E+00
 0.0000000000000E+00
 0.0000000000000E+00
 0.0000000000000E+00
 0.0000000000000E+00
 0.0000000000000E+00
 0.0000000000000E+00
 0.0000000000000E+00
 0.0000000000000E+00
 0.0000000000000E+00
 0.0000000000000E+00
 0.0000000000000E+00
 0.0000000000000E+00
 0.0000000000000E+00
 0.0000000000000E+00
 0.0000000000000E+00
 0.0000000000000E+00
 0.0000000000000E+00
 0.0000000000000E+00
 0.0000000000000E+00
 0.0000000000000E+00
 0.0000000000000E+00
 0.0000000000000E+00
 0.0000000000000E+00
 0.0000000000000E+00
 0.0000000000000E+00
 0.0000000000000E+00
 0.0000000000000E+00
 0.0000000000000E+00
 0.0000000000000E+00
 0.0000000000000E+00
 0.0000000000000E+00
 0.0000000000000E+00
 0.0000000000000E+00
 0.0000000000000E+00
 0.0000000000000E+00
 0.0000000000000E+00
 0.0000000000000E+00
 0.0000000000000E+00
 0.0000000000000E+00
 0.0000000000000E+00
 0.0000000000000E+00
 0.0000000000000E+00
 0.0000000000000E+00
 0.0000000000000E+00
 0.0000000000000E+00
 0.0000000000000E+00
 0.0000000000000E+00
 0.0000000000000E+00
 0.0000000000000E+00
 0.0000000000000E+00
 0.0000000000000E+00
 0.0000000000000E+00
 0.0000000000000E+00
 0.0000000000000E+00
 0.0000000000000E+00
 0.0000000000000E+00
 0.0000000000000E+00
 0.0000000000000E+00
 0.0000000000000E+00
 0.0000000000000E+00
 0.0000000000000E+00
 0.0000000000000E+00
 0.0000000000000E+00
 0.0000000000000E+00
 0.0000000000000E+00
 0.0000000000000E+00
 0.0000000000000E+00
 0.0000000000000E+00
 0.0000000000000E+00
 0.0000000000000E+00
 0.0000000000000E+00
 0.0000000000000E+00
 0.0000000000000E+00
 0.0000000000000E+00
 0.0000000000000E+00
 0.0000000000000E+00
 0.0000000000000E+00
 0.0000000000000E+00
 0.0000000000000E+00
 0.0000000000000E+00
 0.0000000000000E+00
 0.0000000000000E+00
 0.0000000000000E+00
 0.0000000000000E+00
 0.0000000000000E+00
 0.0000000000000E+00
 0.0000000000000E+00
 0.0000000000000E+00
 0.0000000000000E+00
 0.0000000000000E+00
 0.0000000000000E+00
 0.0000000000000E+00
 0.0000000000000E+00
 0.0000000000000E+00
 0.0000000000000E+00
 0.0000000000000E+00
 0.0000000000000E+00
 0.0000000000000E+00
 0.0000000000000E+00
 0.0000000000000E+00
 0.0000000000000E+00
 0.0000000000000E+00
 0.0000000000000E+00
 0.0000000000000E+00
 0.0000000000000E+00
 0.0000000000000E+00
 0.0000000000000E+00
 0.0000000000000E+00
 0.0000000000000E+00
 0.0000000000000E+00
 0.0000000000000E+00
 0.0000000000000E+00
 0.0000000000000E+00
 0.0000000000000E+00
 0.0000000000000E+00
 0.0000000000000E+00
 0.0000000000000E+00
 0.0000000000000E+00
 0.0000000000000E+00
 0.0000000000000E+00
 0.0000000000000E+00
 0.0000000000000E+00
 0.0000000000000E+00
 0.0000000000000E+00
 0.0000000000000E+00
 0.0000000000000E+00
 0.0000000000000E+00
 0.0000000000000E+00
 0.0000000000000E+00
 0.0000000000000E+00
 0.0000000000000E+00
 0.0000000000000E+00
 0.0000000000000E+00
 0.0000000000000E+00
 0.0000000000000E+00
 0.0000000000000E+00
 0.0000000000000E+00
 0.0000000000000E+00
 0.0000000000000E+00
 0.0000000000000E+00
 0.0000000000000E+00
 0.0000000000000E+00
 0.0000000000000E+00
 0.0000000000000E+00
 0.0000000000000E+00
 0.0000000000000E+00
 0.0000000000000E+00
 0.0000000000000E+00
 0.0000000000000E+00
 0.0000000000000E+00
 0.0000000000000E+00
 0.0000000000000E+00
 0.0000000000000E+00
 0.0000000000000E+00
 0.0000000000000E+00
 0.0000000000000E+00
 0.0000000000000E+00
 0.0000000000000E+00
 0.0000000000000E+00
 0.0000000000000E+00
 0.0000000000000E+00
 0.0000000000000E+00
 0.0000000000000E+00
 0.0000000000000E+00
 0.0000000000000E+00
 0.0000000000000E+00
 0.0000000000000E+00
 0.0000000000000E+00
 0.0000000000000E+00
 0.0000000000000E+00
 0.0000000000000E+00
 0.0000000000000E+00
 0.0000000000000E+00
 0.0000000000000E+00
 0.0000000000000E+00
 0.0000000000000E+00
 0.0000000000000E+00
 0.0000000000000E+00
 0.0000000000000E+00
 0.0000000000000E+00
 0.0000000000000E+00
 0.0000000000000E+00
 0.0000000000000E+00
 0.0000000000000E+00
 0.0000000000000E+00
 0.0000000000000E+00
 0.0000000000000E+00
 0.0000000000000E+00
 0.0000000000000E+00
 0.0000000000000E+00
 0.0000000000000E+00
 0.0000000000000E+00
 0.0000000000000E+00
 0.0000000000000E+00
 0.0000000000000E+00
 0.0000000000000E+00
 0.0000000000000E+00
 0.0000000000000E+00
 0.0000000000000E+00
 0.0000000000000E+00
 0.0000000000000E+00
 0.0000000000000E+00
 0.0000000000000E+00
 0.0000000000000E+00
 0.0000000000000E+00
 0.0000000000000E+00
 0.0000000000000E+00
 0.0000000000000E+00
 0.0000000000000E+00
 0.0000000000000E+00
 0.0000000000000E+00
 0.0000000000000E+00
 0.0000000000000E+00
 0.0000000000000E+00
 0.0000000000000E+00
 0.0000000000000E+00
 0.0000000000000E+00
 0.0000000000000E+00
 0.0000000000000E+00
 0.0000000000000E+00
 0.0000000000000E+00
 0.0000000000000E+00
 0.0000000000000E+00
 0.0000000000000E+00
 0.0000000000000E+00
 0.0000000000000E+00
 0.0000000000000E+00
 0.0000000000000E+00
 0.0000000000000E+00
 0.0000000000000E+00
 0.0000000000000E+00
 0.0000000000000E+00
 0.0000000000000E+00
 0.0000000000000E+00
 0.0000000000000E+00
 0.0000000000000E+00
 0.0000000000000E+00
 0.0000000000000E+00
 0.0000000000000E+00
 0.0000000000000E+00
 0.0000000000000E+00
 0.0000000000000E+00
 0.0000000000000E+00
 0.0000000000000E+00
 0.0000000000000E+00
 0.0000000000000E+00
 0.0000000000000E+00
 0.0000000000000E+00
 0.0000000000000E+00
 0.0000000000000E+00
 0.0000000000000E+00
 0.0000000000000E+00
 0.0000000000000E+00
 0.0000000000000E+00
 0.0000000000000E+00
 0.0000000000000E+00
 0.0000000000000E+00
 0.0000000000000E+00
 0.0000000000000E+00
 0.0000000000000E+00
 0.0000000000000E+00
 0.0000000000000E+00
 0.0000000000000E+00
 0.0000000000000E+00
 0.0000000000000E+00
 0.0000000000000E+00
 0.0000000000000E+00
 0.0000000000000E+00
 0.0000000000000E+00
 0.0000000000000E+00
 0.0000000000000E+00
 0.0000000000000E+00
 0.0000000000000E+00
 0.0000000000000E+00
 0.0000000000000E+00
 0.0000000000000E+00
 0.0000000000000E+00
 0.0000000000000E+00
 0.0000000000000E+00
 0.0000000000000E+00
 0.0000000000000E+00
 0.0000000000000E+00
 0.0000000000000E+00
 0.0000000000000E+00
 0.0000000000000E+00
 0.0000000000000E+00
 0.0000000000000E+00
 0.0000000000000E+00
 0.0000000000000E+00
 0.0000000000000E+00
 0.0000000000000E+00
 0.0000000000000E+00
 0.0000000000000E+00
 0.0000000000000E+00
 0.0000000000000E+00
 0.0000000000000E+00
 0.0000000000000E+00
 0.0000000000000E+00
 0.0000000000000E+00
 0.0000000000000E+00
 0.0000000000000E+00
 0.0000000000000E+00
 0.0000000000000E+00
 0.0000000000000E+00
 0.0000000000000E+00
 0.0000000000000E+00
 0.0000000000000E+00
 0.0000000000000E+00
 0.0000000000000E+00
 0.0000000000000E+00
 0.0000000000000E+00
 0.0000000000000E+00
 0.0000000000000E+00
 0.0000000000000E+00
 0.0000000000000E+00
 0.0000000000000E+00
 0.0000000000000E+00
 0.0000000000000E+00
 0.0000000000000E+00
 0.0000000000000E+00
 0.0000000000000E+00
 0.0000000000000E+00
 0.0000000000000E+00
 0.0000000000000E+00
 0.0000000000000E+00
 0.0000000000000E+00
 0.0000000000000E+00
 0.0000000000000E+00
 0.0000000000000E+00
 0.0000000000000E+00
 0.0000000000000E+00
 0.0000000000000E+00
 0.0000000000000E+00
 0.0000000000000E+00
 0.0000000000000E+00
 0.0000000000000E+00
 0.0000000000000E+00
 0.0000000000000E+00
 0.0000000000000E+00
 0.0000000000000E+00
 0.0000000000000E+00
 0.0000000000000E+00
 0.0000000000000E+00
 0.0000000000000E+00
 0.0000000000000E+00
 0.0000000000000E+00
 0.0000000000000E+00
 0.0000000000000E+00
 0.0000000000000E+00
 0.0000000000000E+00
 0.0000000000000E+00
 0.0000000000000E+00
 0.0000000000000E+00
 0.0000000000000E+00
 0.0000000000000E+00
 0.0000000000000E+00
 0.0000000000000E+00
 0.0000000000000E+00
 0.0000000000000E+00
 0.0000000000000E+00
 0.0000000000000E+00
 0.0000000000000E+00
 0.0000000000000E+00
 0.0000000000000E+00
 0.0000000000000E+00
 0.0000000000000E+00
 0.0000000000000E+00
 0.0000000000000E+00
 0.0000000000000E+00
 0.0000000000000E+00
 0.0000000000000E+00
 0.0000000000000E+00
 0.0000000000000E+00
 0.0000000000000E+00
 0.0000000000000E+00
 0.0000000000000E+00
 0.0000000000000E+00
 0.0000000000000E+00
 0.0000000000000E+00
 0.0000000000000E+00
 0.0000000000000E+00
 0.0000000000000E+00
 0.0000000000000E+00
 0.0000000000000E+00
 0.0000000000000E+00
 0.0000000000000E+00
 0.0000000000000E+00
 0.0000000000000E+00
 0.0000000000000E+00
 0.0000000000000E+00
 0.0000000000000E+00
 0.0000000000000E+00
 0.0000000000000E+00
 0.0000000000000E+00
 0.0000000000000E+00
 0.0000000000000E+00
 0.0000000000000E+00
 0.0000000000000E+00
 0.0000000000000E+00
 0.0000000000000E+00
 0.0000000000000E+00
 0.0000000000000E+00
 0.0000000000000E+00
 0.0000000000000E+00
 0.0000000000000E+00
 0.0000000000000E+00
 0.0000000000000E+00
 0.0000000000000E+00
 0.0000000000000E+00
 0.0000000000000E+00
 0.0000000000000E+00
 0.0000000000000E+00
 0.0000000000000E+00
 0.0000000000000E+00
 0.0000000000000E+00
 0.0000000000000E+00
 0.0000000000000E+00
 0.0000000000000E+00
 0.0000000000000E+00
 0.0000000000000E+00
 0.0000000000000E+00
 0.0000000000000E+00
 0.0000000000000E+00
 0.0000000000000E+00
 0.0000000000000E+00
 0.0000000000000E+00
 0.0000000000000E+00
 0.0000000000000E+00
 0.0000000000000E+00
 0.0000000000000E+00
 0.0000000000000E+00
 0.0000000000000E+00
 0.0000000000000E+00
 0.0000000000000E+00
 0.0000000000000E+00
 0.0000000000000E+00
 0.0000000000000E+00
 0.0000000000000E+00
 0.0000000000000E+00
 0.0000000000000E+00
 0.0000000000000E+00
 0.0000000000000E+00
 0.0000000000000E+00
 0.0000000000000E+00
 0.0000000000000E+00
 0.0000000000000E+00
 0.0000000000000E+00
 0.0000000000000E+00
 0.0000000000000E+00
 0.0000000000000E+00
 0.0000000000000E+00
 0.0000000000000E+00
 0.0000000000000E+00
 0.0000000000000E+00
 0.0000000000000E+00
 0.0000000000000E+00
 0.0000000000000E+00
 0.0000000000000E+00
 0.0000000000000E+00
 0.0000000000000E+00
 0.0000000000000E+00
 0.0000000000000E+00
 0.0000000000000E+00
 0.0000000000000E+00
 0.0000000000000E+00
 0.0000000000000E+00
 0.0000000000000E+00
 0.0000000000000E+00
 0.0000000000000E+00
 0.0000000000000E+00
 0.0000000000000E+00
 0.0000000000000E+00
 0.0000000000000E+00
 0.0000000000000E+00
 0.0000000000000E+00
 0.0000000000000E+00
 0.0000000000000E+00
 0.0000000000000E+00
 0.0000000000000E+00
 0.0000000000000E+00
 0.0000000000000E+00
 0.0000000000000E+00
 0.0000000000000E+00
 0.0000000000000E+00
 0.0000000000000E+00
 0.0000000000000E+00
 0.0000000000000E+00
 0.0000000000000E+00
 0.0000000000000E+00
 0.0000000000000E+00
 0.0000000000000E+00
 0.0000000000000E+00
 0.0000000000000E+00
 0.0000000000000E+00
 0.0000000000000E+00
 0.0000000000000E+00
 0.0000000000000E+00
 0.0000000000000E+00
 0.0000000000000E+00
 0.0000000000000E+00
 0.0000000000000E+00
 0.0000000000000E+00
 0.0000000000000E+00
 0.0000000000000E+00
 0.0000000000000E+00
 0.0000000000000E+00
 0.0000000000000E+00
 0.0000000000000E+00
 0.0000000000000E+00
 0.0000000000000E+00
 0.0000000000000E+00
 0.0000000000000E+00
 0.0000000000000E+00
 0.0000000000000E+00
 0.0000000000000E+00
 0.0000000000000E+00
 0.0000000000000E+00
 0.0000000000000E+00
 0.0000000000000E+00
 0.0000000000000E+00
 0.0000000000000E+00
 0.0000000000000E+00
 0.0000000000000E+00
 0.0000000000000E+00
 0.0000000000000E+00
 0.0000000000000E+00
 0.0000000000000E+00
 0.0000000000000E+00
 0.0000000000000E+00
 0.0000000000000E+00
 0.0000000000000E+00
 0.0000000000000E+00
 0.0000000000000E+00
 0.0000000000000E+00
 0.0000000000000E+00
 0.0000000000000E+00
 0.0000000000000E+00
 0.0000000000000E+00
 0.0000000000000E+00
 0.0000000000000E+00
 0.0000000000000E+00
 0.0000000000000E+00
 0.0000000000000E+00
 0.0000000000000E+00
 0.0000000000000E+00
 0.0000000000000E+00
 0.0000000000000E+00
 0.0000000000000E+00
 0.0000000000000E+00
 0.0000000000000E+00
 0.0000000000000E+00
 0.0000000000000E+00
 0.0000000000000E+00
 0.0000000000000E+00
 0.0000000000000E+00
 0.0000000000000E+00
 0.0000000000000E+00
 0.0000000000000E+00
 0.0000000000000E+00
 0.0000000000000E+00
 0.0000000000000E+00
 0.0000000000000E+00
 0.0000000000000E+00
 0.0000000000000E+00
 0.0000000000000E+00
 0.0000000000000E+00
 0.0000000000000E+00
 0.0000000000000E+00
 0.0000000000000E+00
 0.0000000000000E+00
 0.0000000000000E+00
 0.0000000000000E+00
 0.0000000000000E+00
 0.0000000000000E+00
 0.0000000000000E+00
 0.0000000000000E+00
 0.0000000000000E+00
 0.0000000000000E+00
 0.0000000000000E+00
 0.0000000000000E+00
 0.0000000000000E+00
 0.0000000000000E+00
 0.0000000000000E+00
 0.0000000000000E+00
 0.0000000000000E+00
 0.0000000000000E+00
 0.0000000000000E+00
 0.0000000000000E+00
 0.0000000000000E+00
 0.0000000000000E+00
 0.0000000000000E+00
 0.0000000000000E+00
 0.0000000000000E+00
 0.0000000000000E+00
 0.0000000000000E+00
 0.0000000000000E+00
 0.0000000000000E+00
 0.0000000000000E+00
 0.0000000000000E+00
 0.0000000000000E+00
 0.0000000000000E+00
 0.0000000000000E+00
 0.0000000000000E+00
 0.0000000000000E+00
 0.0000000000000E+00
 0.0000000000000E+00
 0.0000000000000E+00
 0.0000000000000E+00
 0.0000000000000E+00
 0.0000000000000E+00
 0.0000000000000E+00
 0.0000000000000E+00
 0.0000000000000E+00
 0.0000000000000E+00
 0.0000000000000E+00
 0.0000000000000E+00
 0.0000000000000E+00
 0.0000000000000E+00
 0.0000000000000E+00
 0.0000000000000E+00
 0.0000000000000E+00
 0.0000000000000E+00
 0.0000000000000E+00
 0.0000000000000E+00
 0.0000000000000E+00
 0.0000000000000E+00
 0.0000000000000E+00
 0.0000000000000E+00
 0.0000000000000E+00
 0.0000000000000E+00
 0.0000000000000E+00
 0.0000000000000E+00
 0.0000000000000E+00
 0.0000000000000E+00
 0.0000000000000E+00
 0.0000000000000E+00
 0.0000000000000E+00
 0.0000000000000E+00
 0.0000000000000E+00
 0.0000000000000E+00
 0.0000000000000E+00
 0.0000000000000E+00
 0.0000000000000E+00
 0.0000000000000E+00
 0.0000000000000E+00
 0.0000000000000E+00
 0.0000000000000E+00
 0.0000000000000E+00
 0.0000000000000E+00
 0.0000000000000E+00
 0.0000000000000E+00
 0.0000000000000E+00
 0.0000000000000E+00
 0.0000000000000E+00
 0.0000000000000E+00
 0.0000000000000E+00
 0.0000000000000E+00
 0.0000000000000E+00
 0.0000000000000E+00
 0.0000000000000E+00
 0.0000000000000E+00
 0.0000000000000E+00
 0.0000000000000E+00
 0.0000000000000E+00
 0.0000000000000E+00
 0.0000000000000E+00
 0.0000000000000E+00
 0.0000000000000E+00
 0.0000000000000E+00
 0.0000000000000E+00
 0.0000000000000E+00
 0.0000000000000E+00
 0.0000000000000E+00
 0.0000000000000E+00
 0.0000000000000E+00
 0.0000000000000E+00
 0.0000000000000E+00
 0.0000000000000E+00
 0.0000000000000E+00
 0.0000000000000E+00
 0.0000000000000E+00
 0.0000000000000E+00
 0.0000000000000E+00
 0.0000000000000E+00
 0.0000000000000E+00
 0.0000000000000E+00
 0.0000000000000E+00
 0.0000000000000E+00
 0.0000000000000E+00
 0.0000000000000E+00
 0.0000000000000E+00
 0.0000000000000E+00
 0.0000000000000E+00
 0.0000000000000E+00
 0.0000000000000E+00
 0.0000000000000E+00
 0.0000000000000E+00
 0.0000000000000E+00
 0.0000000000000E+00
 0.0000000000000E+00
 0.0000000000000E+00
 0.0000000000000E+00
 0.0000000000000E+00
 0.0000000000000E+00
 0.0000000000000E+00
 0.0000000000000E+00
 0.0000000000000E+00
 0.0000000000000E+00
 0.0000000000000E+00
 0.0000000000000E+00
 0.0000000000000E+00
 0.0000000000000E+00
 0.0000000000000E+00
 0.0000000000000E+00
 0.0000000000000E+00
 0.0000000000000E+00
 0.0000000000000E+00
 0.0000000000000E+00
 0.0000000000000E+00
 0.0000000000000E+00
 0.0000000000000E+00
 0.0000000000000E+00
 0.0000000000000E+00
 0.0000000000000E+00
 0.0000000000000E+00
 0.0000000000000E+00
 0.0000000000000E+00
 0.0000000000000E+00
 0.0000000000000E+00
 0.0000000000000E+00
 0.0000000000000E+00
 0.0000000000000E+00
 0.0000000000000E+00
 0.0000000000000E+00
 0.0000000000000E+00
 0.0000000000000E+00
 0.0000000000000E+00
 0.0000000000000E+00
 0.0000000000000E+00
 0.0000000000000E+00
 0.0000000000000E+00
 0.0000000000000E+00
 0.0000000000000E+00
 0.0000000000000E+00
 0.0000000000000E+00
 0.0000000000000E+00
 0.0000000000000E+00
 0.0000000000000E+00
 0.0000000000000E+00
 0.0000000000000E+00
 0.0000000000000E+00
 0.0000000000000E+00
 0.0000000000000E+00
 0.0000000000000E+00
 0.0000000000000E+00
 0.0000000000000E+00
 0.0000000000000E+00
 0.0000000000000E+00
 0.0000000000000E+00
 0.0000000000000E+00
 0.0000000000000E+00
 0.0000000000000E+00
 0.0000000000000E+00
 0.0000000000000E+00
 0.0000000000000E+00
 0.0000000000000E+00
 0.0000000000000E+00
 0.0000000000000E+00
 0.0000000000000E+00
 0.0000000000000E+00
 0.0000000000000E+00
 0.0000000000000E+00
 0.0000000000000E+00
 0.0000000000000E+00
 0.0000000000000E+00
 0.0000000000000E+00
 0.0000000000000E+00
 0.0000000000000E+00
 0.0000000000000E+00
 0.0000000000000E+00
 0.0000000000000E+00
 0.0000000000000E+00
 0.0000000000000E+00
 0.0000000000000E+00
 0.0000000000000E+00
 0.0000000000000E+00
 0.0000000000000E+00
 0.0000000000000E+00
 0.0000000000000E+00
 0.0000000000000E+00
 0.0000000000000E+00
 0.0000000000000E+00
 0.0000000000000E+00
 0.0000000000000E+00
 0.0000000000000E+00
 0.0000000000000E+00
 0.0000000000000E+00
 0.0000000000000E+00
 0.0000000000000E+00
 0.0000000000000E+00
 0.0000000000000E+00
 0.0000000000000E+00
 0.0000000000000E+00
 0.0000000000000E+00
 0.0000000000000E+00
 0.0000000000000E+00
 0.0000000000000E+00
 0.0000000000000E+00
 0.0000000000000E+00
 0.0000000000000E+00
 0.0000000000000E+00
 0.0000000000000E+00
 0.0000000000000E+00
 0.0000000000000E+00
 0.0000000000000E+00
 0.0000000000000E+00
 0.0000000000000E+00
 0.0000000000000E+00
 0.0000000000000E+00
 0.0000000000000E+00
 0.0000000000000E+00
 0.0000000000000E+00
 0.0000000000000E+00
 0.0000000000000E+00
 0.0000000000000E+00
 0.0000000000000E+00
 0.0000000000000E+00
 0.0000000000000E+00
 0.0000000000000E+00
 0.0000000000000E+00
 0.0000000000000E+00
 0.0000000000000E+00
 0.0000000000000E+00
 0.0000000000000E+00
 0.0000000000000E+00
 0.0000000000000E+00
 0.0000000000000E+00
 0.0000000000000E+00
 0.0000000000000E+00
 0.0000000000000E+00
 0.0000000000000E+00
 0.0000000000000E+00
 0.0000000000000E+00
 0.0000000000000E+00
 0.0000000000000E+00
 0.0000000000000E+00
 0.0000000000000E+00
 0.0000000000000E+00
 0.0000000000000E+00
 0.0000000000000E+00
 0.0000000000000E+00
 0.0000000000000E+00
 0.0000000000000E+00
 0.0000000000000E+00
 0.0000000000000E+00
 0.0000000000000E+00
 0.0000000000000E+00
 0.0000000000000E+00
 0.0000000000000E+00
 0.0000000000000E+00
 0.0000000000000E+00
 0.0000000000000E+00
 0.0000000000000E+00
 0.0000000000000E+00
 0.0000000000000E+00
 0.0000000000000E+00
 0.0000000000000E+00
 0.0000000000000E+00
 0.0000000000000E+00
 0.0000000000000E+00
 0.0000000000000E+00
 0.0000000000000E+00
 0.0000000000000E+00
 0.0000000000000E+00
 0.0000000000000E+00
 0.0000000000000E+00
 0.0000000000000E+00
 0.0000000000000E+00
 0.0000000000000E+00
 0.0000000000000E+00
 0.0000000000000E+00
 0.0000000000000E+00
 0.0000000000000E+00
 0.0000000000000E+00
 0.0000000000000E+00
 0.0000000000000E+00
 0.0000000000000E+00
 0.0000000000000E+00
 0.0000000000000E+00
 0.0000000000000E+00
 0.0000000000000E+00
 0.0000000000000E+00
 0.0000000000000E+00
 0.0000000000000E+00
 0.0000000000000E+00
 0.0000000000000E+00
 0.0000000000000E+00
 0.0000000000000E+00
 0.0000000000000E+00
 0.0000000000000E+00
 0.0000000000000E+00
 0.0000000000000E+00
 0.0000000000000E+00
 0.0000000000000E+00
 0.0000000000000E+00
 0.0000000000000E+00
 0.0000000000000E+00
 0.0000000000000E+00
 0.0000000000000E+00
 0.0000000000000E+00
 0.0000000000000E+00
 0.0000000000000E+00
 0.0000000000000E+00
 0.0000000000000E+00
 0.0000000000000E+00
 0.0000000000000E+00
 0.0000000000000E+00
 0.0000000000000E+00
 0.0000000000000E+00
 0.0000000000000E+00
 0.0000000000000E+00
 0.0000000000000E+00
 0.0000000000000E+00
 0.0000000000000E+00
 0.0000000000000E+00
 0.0000000000000E+00
 0.0000000000000E+00
 0.0000000000000E+00
 0.0000000000000E+00
 0.0000000000000E+00
 0.0000000000000E+00
 0.0000000000000E+00
 0.0000000000000E+00
 0.0000000000000E+00
 0.0000000000000E+00
 0.0000000000000E+00
 0.0000000000000E+00
 0.0000000000000E+00
 0.0000000000000E+00
 0.0000000000000E+00
 0.0000000000000E+00
 0.0000000000000E+00
 0.0000000000000E+00
 0.0000000000000E+00
 0.0000000000000E+00
 0.0000000000000E+00
 0.0000000000000E+00
 0.0000000000000E+00
 0.0000000000000E+00
 0.0000000000000E+00
 0.0000000000000E+00
 0.0000000000000E+00
 0.0000000000000E+00
 0.0000000000000E+00
 0.0000000000000E+00
 0.0000000000000E+00
 0.0000000000000E+00
 0.0000000000000E+00
 0.0000000000000E+00
 0.0000000000000E+00
 0.0000000000000E+00
 0.0000000000000E+00
 0.0000000000000E+00
 0.0000000000000E+00
 0.0000000000000E+00
 0.0000000000000E+00
 0.0000000000000E+00
 0.0000000000000E+00
 0.0000000000000E+00
 0.0000000000000E+00
 0.0000000000000E+00
 0.0000000000000E+00
 0.0000000000000E+00
 0.0000000000000E+00
 0.0000000000000E+00
 0.0000000000000E+00
 0.0000000000000E+00
 0.0000000000000E+00
 0.0000000000000E+00
 0.0000000000000E+00
 0.0000000000000E+00
 0.0000000000000E+00
 0.0000000000000E+00
 0.0000000000000E+00
 0.0000000000000E+00
 0.0000000000000E+00
 0.0000000000000E+00
 0.0000000000000E+00
 0.0000000000000E+00
 0.0000000000000E+00
 0.0000000000000E+00
 0.0000000000000E+00
 0.0000000000000E+00
 0.0000000000000E+00
 0.0000000000000E+00
 0.0000000000000E+00
 0.0000000000000E+00
 0.0000000000000E+00
 0.0000000000000E+00
 0.0000000000000E+00
 0.0000000000000E+00
 0.0000000000000E+00
 0.0000000000000E+00
 0.0000000000000E+00
 0.0000000000000E+00
 0.0000000000000E+00
 0.0000000000000E+00
 0.0000000000000E+00
 0.0000000000000E+00
 0.0000000000000E+00
 0.0000000000000E+00
 0.0000000000000E+00
 0.0000000000000E+00
 0.0000000000000E+00
 0.0000000000000E+00
 0.0000000000000E+00
 0.0000000000000E+00
 0.0000000000000E+00
 0.0000000000000E+00
 0.0000000000000E+00
 0.0000000000000E+00
 0.0000000000000E+00
 0.0000000000000E+00
 0.0000000000000E+00
 0.0000000000000E+00
 0.0000000000000E+00
 0.0000000000000E+00
 0.0000000000000E+00
 0.0000000000000E+00
 0.0000000000000E+00
 0.0000000000000E+00
 0.0000000000000E+00
 0.0000000000000E+00
 0.0000000000000E+00
 0.0000000000000E+00
 0.0000000000000E+00
 0.0000000000000E+00
 0.0000000000000E+00
 0.0000000000000E+00
 0.0000000000000E+00
 0.0000000000000E+00
 0.0000000000000E+00
 0.0000000000000E+00
 0.0000000000000E+00
 0.0000000000000E+00
 0.0000000000000E+00
 0.0000000000000E+00
 0.0000000000000E+00
 0.0000000000000E+00
 0.0000000000000E+00
 0.0000000000000E+00
 0.0000000000000E+00
 0.0000000000000E+00
 0.0000000000000E+00
 0.0000000000000E+00
 0.0000000000000E+00
 0.0000000000000E+00
 0.0000000000000E+00
 0.0000000000000E+00
 0.0000000000000E+00
 0.0000000000000E+00
 0.0000000000000E+00
 0.0000000000000E+00
 0.0000000000000E+00
 0.0000000000000E+00
 0.0000000000000E+00
 0.0000000000000E+00
 0.0000000000000E+00
 0.0000000000000E+00
 0.0000000000000E+00
 0.0000000000000E+00
 0.0000000000000E+00
 0.0000000000000E+00
 0.0000000000000E+00
 0.0000000000000E+00
 0.0000000000000E+00
 0.0000000000000E+00
 0.0000000000000E+00
 0.0000000000000E+00
 0.0000000000000E+00
 0.0000000000000E+00
 0.0000000000000E+00
 0.0000000000000E+00
 0.0000000000000E+00
 0.0000000000000E+00
 0.0000000000000E+00
 0.0000000000000E+00
 0.0000000000000E+00
 0.0000000000000E+00
 0.0000000000000E+00
 0.0000000000000E+00
 0.0000000000000E+00
 0.0000000000000E+00
 0.0000000000000E+00
 0.0000000000000E+00
 0.0000000000000E+00
 0.0000000000000E+00
 0.0000000000000E+00
 0.0000000000000E+00
 0.0000000000000E+00
 0.0000000000000E+00
 0.0000000000000E+00
 0.0000000000000E+00
 0.0000000000000E+00
 0.0000000000000E+00
 0.0000000000000E+00
 0.0000000000000E+00
 0.0000000000000E+00
 0.0000000000000E+00
 0.0000000000000E+00
 0.0000000000000E+00
 0.0000000000000E+00
 0.0000000000000E+00
 0.0000000000000E+00
 0.0000000000000E+00
 0.0000000000000E+00
 0.0000000000000E+00
 0.0000000000000E+00
 0.0000000000000E+00
 0.0000000000000E+00
 0.0000000000000E+00
 0.0000000000000E+00
 0.0000000000000E+00
 0.0000000000000E+00
 0.0000000000000E+00
 0.0000000000000E+00
 0.0000000000000E+00
 0.0000000000000E+00
 0.0000000000000E+00
 0.0000000000000E+00
 0.0000000000000E+00
 0.0000000000000E+00
 0.0000000000000E+00
 0.0000000000000E+00
 0.0000000000000E+00
 0.0000000000000E+00
 0.0000000000000E+00
 0.0000000000000E+00
 0.0000000000000E+00
 0.0000000000000E+00
 0.0000000000000E+00
 0.0000000000000E+00
 0.0000000000000E+00
 0.0000000000000E+00
 0.0000000000000E+00
 0.0000000000000E+00
 0.0000000000000E+00
 0.0000000000000E+00
 0.0000000000000E+00
 0.0000000000000E+00
 0.0000000000000E+00
 0.0000000000000E+00
 0.0000000000000E+00
 0.0000000000000E+00
 0.0000000000000E+00
 0.0000000000000E+00
 0.0000000000000E+00
 0.0000000000000E+00
 0.0000000000000E+00
 0.0000000000000E+00
 0.0000000000000E+00
 0.0000000000000E+00
 0.0000000000000E+00
 0.0000000000000E+00
 0.0000000000000E+00
 0.0000000000000E+00
 0.0000000000000E+00
 0.0000000000000E+00
 0.0000000000000E+00
 0.0000000000000E+00
 0.0000000000000E+00
 0.0000000000000E+00
 0.0000000000000E+00
 0.0000000000000E+00
 0.0000000000000E+00
 0.0000000000000E+00
 0.0000000000000E+00
 0.0000000000000E+00
 0.0000000000000E+00
 0.0000000000000E+00
 0.0000000000000E+00
 0.0000000000000E+00
 0.0000000000000E+00
 0.0000000000000E+00
 0.0000000000000E+00
 0.0000000000000E+00
 0.0000000000000E+00
 0.0000000000000E+00
 0.0000000000000E+00
 0.0000000000000E+00
 0.0000000000000E+00
 0.0000000000000E+00
 0.0000000000000E+00
 0.0000000000000E+00
 0.0000000000000E+00
 0.0000000000000E+00
 0.0000000000000E+00
 0.0000000000000E+00
 0.0000000000000E+00
 0.0000000000000E+00
 0.0000000000000E+00
 0.0000000000000E+00
 0.0000000000000E+00
 0.0000000000000E+00
 0.0000000000000E+00
 0.0000000000000E+00
 0.0000000000000E+00
 0.0000000000000E+00
 0.0000000000000E+00
 0.0000000000000E+00
 0.0000000000000E+00
 0.0000000000000E+00
 0.0000000000000E+00
 0.0000000000000E+00
 0.0000000000000E+00
 0.0000000000000E+00
 0.0000000000000E+00
 0.0000000000000E+00
 0.0000000000000E+00
 0.0000000000000E+00
 0.0000000000000E+00
 0.0000000000000E+00
 0.0000000000000E+00
 0.0000000000000E+00
 0.0000000000000E+00
 0.0000000000000E+00
 0.0000000000000E+00
 0.0000000000000E+00
 0.0000000000000E+00
 0.0000000000000E+00
 0.0000000000000E+00
 0.0000000000000E+00
 0.0000000000000E+00
 0.0000000000000E+00
 0.0000000000000E+00
 0.0000000000000E+00
 0.0000000000000E+00
 0.0000000000000E+00
 0.0000000000000E+00
 0.0000000000000E+00
 0.0000000000000E+00
 0.0000000000000E+00
 0.0000000000000E+00
 0.0000000000000E+00
 0.0000000000000E+00
 0.0000000000000E+00
 0.0000000000000E+00
 0.0000000000000E+00
 0.0000000000000E+00
 0.0000000000000E+00
 0.0000000000000E+00
 0.0000000000000E+00
 0.0000000000000E+00
 0.0000000000000E+00
 0.0000000000000E+00
 0.0000000000000E+00
 0.0000000000000E+00
 0.0000000000000E+00
 0.0000000000000E+00
 0.0000000000000E+00
 0.0000000000000E+00
 0.0000000000000E+00
 0.0000000000000E+00
 0.0000000000000E+00
 0.0000000000000E+00
 0.0000000000000E+00
 0.0000000000000E+00
 0.0000000000000E+00
 0.0000000000000E+00
 0.0000000000000E+00
 0.0000000000000E+00
 0.0000000000000E+00
 0.0000000000000E+00
 0.0000000000000E+00
 0.0000000000000E+00
 0.0000000000000E+00
 0.0000000000000E+00
 0.0000000000000E+00
 0.0000000000000E+00
 0.0000000000000E+00
 0.0000000000000E+00
 0.0000000000000E+00
 0.0000000000000E+00
 0.0000000000000E+00
 0.0000000000000E+00
 0.0000000000000E+00
 0.0000000000000E+00
 0.0000000000000E+00
 0.0000000000000E+00
 0.0000000000000E+00
 0.0000000000000E+00
 0.0000000000000E+00
 0.0000000000000E+00
 0.0000000000000E+00
 0.0000000000000E+00
 0.0000000000000E+00
 0.0000000000000E+00
 0.0000000000000E+00
 0.0000000000000E+00
 0.0000000000000E+00
 0.0000000000000E+00
 0.0000000000000E+00
 0.0000000000000E+00
 0.0000000000000E+00
 0.0000000000000E+00
 0.0000000000000E+00
 0.0000000000000E+00
 0.0000000000000E+00
 0.0000000000000E+00
 0.0000000000000E+00
 0.0000000000000E+00
 0.0000000000000E+00
 0.0000000000000E+00
 0.0000000000000E+00
 0.0000000000000E+00
 0.0000000000000E+00
 0.0000000000000E+00
 0.0000000000000E+00
 0.0000000000000E+00
 0.0000000000000E+00
 0.0000000000000E+00
 0.0000000000000E+00
 0.0000000000000E+00
 0.0000000000000E+00
 0.0000000000000E+00
 0.0000000000000E+00
 0.0000000000000E+00
 0.0000000000000E+00
 0.0000000000000E+00
 0.0000000000000E+00
 0.0000000000000E+00
 0.0000000000000E+00
 0.0000000000000E+00
 0.0000000000000E+00
 0.0000000000000E+00
 0.0000000000000E+00
 0.0000000000000E+00
 0.0000000000000E+00
 0.0000000000000E+00
 0.0000000000000E+00
 0.0000000000000E+00
 0.0000000000000E+00
 0.0000000000000E+00
 0.0000000000000E+00
 0.0000000000000E+00
 0.0000000000000E+00
 0.0000000000000E+00
 0.0000000000000E+00
 0.0000000000000E+00
 0.0000000000000E+00
 0.0000000000000E+00
 0.0000000000000E+00
 0.0000000000000E+00
 0.0000000000000E+00
 0.0000000000000E+00
 0.0000000000000E+00
 0.0000000000000E+00
 0.0000000000000E+00
 0.0000000000000E+00
 0.0000000000000E+00
 0.0000000000000E+00
 0.0000000000000E+00
 0.0000000000000E+00
 0.0000000000000E+00
 0.0000000000000E+00
 0.0000000000000E+00
 0.0000000000000E+00
 0.0000000000000E+00
 0.0000000000000E+00
 0.0000000000000E+00
 0.0000000000000E+00
 0.0000000000000E+00
 0.0000000000000E+00
 0.0000000000000E+00
 0.0000000000000E+00
 0.0000000000000E+00
 0.0000000000000E+00
 0.0000000000000E+00
 0.0000000000000E+00
 0.0000000000000E+00
 0.0000000000000E+00
 0.0000000000000E+00
 0.0000000000000E+00
 0.0000000000000E+00
 0.0000000000000E+00
 0.0000000000000E+00
 0.0000000000000E+00
 0.0000000000000E+00
 0.0000000000000E+00
 0.0000000000000E+00
 0.0000000000000E+00
 0.0000000000000E+00
 0.0000000000000E+00
 0.0000000000000E+00
 0.0000000000000E+00
 0.0000000000000E+00
 0.0000000000000E+00
 0.0000000000000E+00
 0.0000000000000E+00
 0.0000000000000E+00
 0.0000000000000E+00
 0.0000000000000E+00
 0.0000000000000E+00
 0.0000000000000E+00
 0.0000000000000E+00
 0.0000000000000E+00
 0.0000000000000E+00
 0.0000000000000E+00
 0.0000000000000E+00
 0.0000000000000E+00
 0.0000000000000E+00
 0.0000000000000E+00
 0.0000000000000E+00
 0.0000000000000E+00
 0.0000000000000E+00
 0.0000000000000E+00
 0.0000000000000E+00
 0.0000000000000E+00
 0.0000000000000E+00
 0.0000000000000E+00
 0.0000000000000E+00
 0.0000000000000E+00
 0.0000000000000E+00
 0.0000000000000E+00
 0.0000000000000E+00
 0.0000000000000E+00
 0.0000000000000E+00
 0.0000000000000E+00
 0.0000000000000E+00
 0.0000000000000E+00
 0.0000000000000E+00
 0.0000000000000E+00
 0.0000000000000E+00
 0.0000000000000E+00
 0.0000000000000E+00
 0.0000000000000E+00
 0.0000000000000E+00
 0.0000000000000E+00
 0.0000000000000E+00
 0.0000000000000E+00
 0.0000000000000E+00
 0.0000000000000E+00
 0.0000000000000E+00
 0.0000000000000E+00
 0.0000000000000E+00
 0.0000000000000E+00
 0.0000000000000E+00
 0.0000000000000E+00
 0.0000000000000E+00
 0.0000000000000E+00
 0.0000000000000E+00
 0.0000000000000E+00
 0.0000000000000E+00
 0.0000000000000E+00
 0.0000000000000E+00
 0.0000000000000E+00
 0.0000000000000E+00
 0.0000000000000E+00
 0.0000000000000E+00
 0.0000000000000E+00
 0.0000000000000E+00
 0.0000000000000E+00
 0.0000000000000E+00
 0.0000000000000E+00
 0.0000000000000E+00
 0.0000000000000E+00
 0.0000000000000E+00
 0.0000000000000E+00
 0.0000000000000E+00
 0.0000000000000E+00
 0.0000000000000E+00
 0.0000000000000E+00
 0.0000000000000E+00
 0.0000000000000E+00
 0.0000000000000E+00
 0.0000000000000E+00
 0.0000000000000E+00
 0.0000000000000E+00
 0.0000000000000E+00
 0.0000000000000E+00
 0.0000000000000E+00
 0.0000000000000E+00
 0.0000000000000E+00
 0.0000000000000E+00
 0.0000000000000E+00
 0.0000000000000E+00
 0.0000000000000E+00
 0.0000000000000E+00
 0.0000000000000E+00
 0.0000000000000E+00
 0.0000000000000E+00
 0.0000000000000E+00
 0.0000000000000E+00
 0.0000000000000E+00
 0.0000000000000E+00
 0.0000000000000E+00
 0.0000000000000E+00
 0.0000000000000E+00
 0.0000000000000E+00
 0.0000000000000E+00
 0.0000000000000E+00
 0.0000000000000E+00
 0.0000000000000E+00
 0.0000000000000E+00
 0.0000000000000E+00
 0.0000000000000E+00
 0.0000000000000E+00
 0.0000000000000E+00
 0.0000000000000E+00
 0.0000000000000E+00
 0.0000000000000E+00
 0.0000000000000E+00
 0.0000000000000E+00
 0.0000000000000E+00
 0.0000000000000E+00
 0.0000000000000E+00
 0.0000000000000E+00
 0.0000000000000E+00
 0.0000000000000E+00
 0.0000000000000E+00
 0.0000000000000E+00
 0.0000000000000E+00
 0.0000000000000E+00
 0.0000000000000E+00
 0.0000000000000E+00
 0.0000000000000E+00
 0.0000000000000E+00
 0.0000000000000E+00
 0.0000000000000E+00
 0.0000000000000E+00
 0.0000000000000E+00
 0.0000000000000E+00
 0.0000000000000E+00
 0.0000000000000E+00
 0.0000000000000E+00
 0.0000000000000E+00
 0.0000000000000E+00
 0.0000000000000E+00
 0.0000000000000E+00
 0.0000000000000E+00
 0.0000000000000E+00
 0.0000000000000E+00
 0.0000000000000E+00
 0.0000000000000E+00
 0.0000000000000E+00
 0.0000000000000E+00
 0.0000000000000E+00
 0.0000000000000E+00
 0.0000000000000E+00
 0.0000000000000E+00
 0.0000000000000E+00
 0.0000000000000E+00
 0.0000000000000E+00
 0.0000000000000E+00
 0.0000000000000E+00
 0.0000000000000E+00
 0.0000000000000E+00
 0.0000000000000E+00
 0.0000000000000E+00
 0.0000000000000E+00
 0.0000000000000E+00
 0.0000000000000E+00
 0.0000000000000E+00
 0.0000000000000E+00
 0.0000000000000E+00
 0.0000000000000E+00
 0.0000000000000E+00
 0.0000000000000E+00
 0.0000000000000E+00
 0.0000000000000E+00
 0.0000000000000E+00
 0.0000000000000E+00
 0.0000000000000E+00
 0.0000000000000E+00
 0.0000000000000E+00
 0.0000000000000E+00
 0.0000000000000E+00
 0.0000000000000E+00
 0.0000000000000E+00
 0.0000000000000E+00
 0.0000000000000E+00
 0.0000000000000E+00
 0.0000000000000E+00
 0.0000000000000E+00
 0.0000000000000E+00
 0.0000000000000E+00
 0.0000000000000E+00
 0.0000000000000E+00
 0.0000000000000E+00
 0.0000000000000E+00
 0.0000000000000E+00
 0.0000000000000E+00
 0.0000000000000E+00
 0.0000000000000E+00
 0.0000000000000E+00
 0.0000000000000E+00
 0.0000000000000E+00
 0.0000000000000E+00
 0.0000000000000E+00
 0.0000000000000E+00
 0.0000000000000E+00
 0.0000000000000E+00
 0.0000000000000E+00
 0.0000000000000E+00
 0.0000000000000E+00
 0.0000000000000E+00
 0.0000000000000E+00
 0.0000000000000E+00
 0.0000000000000E+00
 0.0000000000000E+00
 0.0000000000000E+00
 0.0000000000000E+00
 0.0000000000000E+00
 0.0000000000000E+00
 0.0000000000000E+00
 0.0000000000000E+00
 0.0000000000000E+00
 0.0000000000000E+00
 0.0000000000000E+00
 0.0000000000000E+00
 0.0000000000000E+00
 0.0000000000000E+00
 0.0000000000000E+00
 0.0000000000000E+00
 0.0000000000000E+00
 0.0000000000000E+00
 0.0000000000000E+00
 0.0000000000000E+00
 0.0000000000000E+00
 0.0000000000000E+00
 0.0000000000000E+00
 0.0000000000000E+00
 0.0000000000000E+00
 0.0000000000000E+00
 0.0000000000000E+00
 0.0000000000000E+00
 0.0000000000000E+00
 0.0000000000000E+00
 0.0000000000000E+00
 0.0000000000000E+00
 0.0000000000000E+00
 0.0000000000000E+00
 0.0000000000000E+00
 0.0000000000000E+00
 0.0000000000000E+00
 0.0000000000000E+00
 0.0000000000000E+00
 0.0000000000000E+00
 0.0000000000000E+00
 0.0000000000000E+00
 0.0000000000000E+00
 0.0000000000000E+00
 0.0000000000000E+00
 0.0000000000000E+00
 0.0000000000000E+00
 0.0000000000000E+00
 0.0000000000000E+00
 0.0000000000000E+00
 0.0000000000000E+00
 0.0000000000000E+00
 0.0000000000000E+00
 0.0000000000000E+00
 0.0000000000000E+00
 0.0000000000000E+00
 0.0000000000000E+00
 0.0000000000000E+00
 0.0000000000000E+00
 0.0000000000000E+00
 0.0000000000000E+00
 0.0000000000000E+00
 0.0000000000000E+00
 0.0000000000000E+00
 0.0000000000000E+00
 0.0000000000000E+00
 0.0000000000000E+00
 0.0000000000000E+00
 0.0000000000000E+00
 0.0000000000000E+00
 0.0000000000000E+00
 0.0000000000000E+00
 0.0000000000000E+00
 0.0000000000000E+00
 0.0000000000000E+00
 0.0000000000000E+00
 0.0000000000000E+00
 0.0000000000000E+00
 0.0000000000000E+00
 0.0000000000000E+00
 0.0000000000000E+00
 0.0000000000000E+00
 0.0000000000000E+00
 0.0000000000000E+00
 0.0000000000000E+00
 0.0000000000000E+00
 0.0000000000000E+00
 0.0000000000000E+00
 0.0000000000000E+00
 0.0000000000000E+00
 0.0000000000000E+00
 0.0000000000000E+00
 0.0000000000000E+00
 0.0000000000000E+00
 0.0000000000000E+00
 0.0000000000000E+00
 0.0000000000000E+00
 0.0000000000000E+00
 0.0000000000000E+00
 0.0000000000000E+00
 0.0000000000000E+00
 0.0000000000000E+00
 0.0000000000000E+00
 0.0000000000000E+00
 0.0000000000000E+00
 0.0000000000000E+00
 0.0000000000000E+00
 0.0000000000000E+00
 0.0000000000000E+00
 0.0000000000000E+00
 0.0000000000000E+00
 0.0000000000000E+00
 0.0000000000000E+00
 0.0000000000000E+00
 0.0000000000000E+00
 0.0000000000000E+00
 0.0000000000000E+00
 0.0000000000000E+00
 0.0000000000000E+00
 0.0000000000000E+00
 0.0000000000000E+00
 0.0000000000000E+00
 0.0000000000000E+00
 0.0000000000000E+00
 0.0000000000000E+00
 0.0000000000000E+00
 0.0000000000000E+00
 0.0000000000000E+00
 0.0000000000000E+00
 0.0000000000000E+00
 0.0000000000000E+00
 0.0000000000000E+00
 0.0000000000000E+00
 0.0000000000000E+00
 0.0000000000000E+00
 0.0000000000000E+00
 0.0000000000000E+00
 0.0000000000000E+00
 0.0000000000000E+00
 0.0000000000000E+00
 0.0000000000000E+00
 0.0000000000000E+00
 0.0000000000000E+00
 0.0000000000000E+00
 0.0000000000000E+00
 0.0000000000000E+00
 0.0000000000000E+00
 0.0000000000000E+00
 0.0000000000000E+00
 0.0000000000000E+00
 0.0000000000000E+00
 0.0000000000000E+00
 0.0000000000000E+00
 0.0000000000000E+00
 0.0000000000000E+00
 0.0000000000000E+00
 0.0000000000000E+00
 0.0000000000000E+00
 0.0000000000000E+00
 0.0000000000000E+00
 0.0000000000000E+00
 0.0000000000000E+00
 0.0000000000000E+00
 0.0000000000000E+00
 0.0000000000000E+00
 0.0000000000000E+00
 0.0000000000000E+00
 0.0000000000000E+00
 0.0000000000000E+00
 0.0000000000000E+00
 0.0000000000000E+00
 0.0000000000000E+00
 0.0000000000000E+00
 0.0000000000000E+00
 0.0000000000000E+00
 0.0000000000000E+00
 0.0000000000000E+00
 0.0000000000000E+00
 0.0000000000000E+00
 0.0000000000000E+00
 0.0000000000000E+00
 0.0000000000000E+00
 0.0000000000000E+00
 0.0000000000000E+00
 0.0000000000000E+00
 0.0000000000000E+00
 0.0000000000000E+00
 0.0000000000000E+00
 0.0000000000000E+00
 0.0000000000000E+00
 0.0000000000000E+00
 0.0000000000000E+00
 0.0000000000000E+00
 0.0000000000000E+00
 0.0000000000000E+00
 0.0000000000000E+00
 0.0000000000000E+00
 0.0000000000000E+00
 0.0000000000000E+00
 0.0000000000000E+00
 0.0000000000000E+00
 0.0000000000000E+00
 0.0000000000000E+00
 0.0000000000000E+00
 0.0000000000000E+00
 0.0000000000000E+00
 0.0000000000000E+00
 0.0000000000000E+00
 0.0000000000000E+00
 0.0000000000000E+00
 0.0000000000000E+00
 0.0000000000000E+00
 0.0000000000000E+00
 0.0000000000000E+00
 0.0000000000000E+00
 0.0000000000000E+00
 0.0000000000000E+00
 0.0000000000000E+00
 0.0000000000000E+00
 0.0000000000000E+00
 0.0000000000000E+00
 0.0000000000000E+00
 0.0000000000000E+00
 0.0000000000000E+00
 0.0000000000000E+00
 0.0000000000000E+00
 0.0000000000000E+00
 0.0000000000000E+00
 0.0000000000000E+00
 0.0000000000000E+00
 0.0000000000000E+00
 0.0000000000000E+00
 0.0000000000000E+00
 0.0000000000000E+00
 0.0000000000000E+00
 0.0000000000000E+00
 0.0000000000000E+00
 0.0000000000000E+00
 0.0000000000000E+00
 0.0000000000000E+00
 0.0000000000000E+00
 0.0000000000000E+00
 0.0000000000000E+00
 0.0000000000000E+00
 0.0000000000000E+00
 0.0000000000000E+00
 0.0000000000000E+00
 0.0000000000000E+00
 0.0000000000000E+00
 0.0000000000000E+00
 0.0000000000000E+00
 0.0000000000000E+00
 0.0000000000000E+00
 0.0000000000000E+00
 0.0000000000000E+00
 0.0000000000000E+00
 0.0000000000000E+00
 0.0000000000000E+00
 0.0000000000000E+00
 0.0000000000000E+00
 0.0000000000000E+00
 0.0000000000000E+00
 0.0000000000000E+00
 0.0000000000000E+00
 0.0000000000000E+00
 0.0000000000000E+00
 0.0000000000000E+00
 0.0000000000000E+00
 0.0000000000000E+00
 0.0000000000000E+00
 0.0000000000000E+00
 0.0000000000000E+00
 0.0000000000000E+00
 0.0000000000000E+00
 0.0000000000000E+00
 0.0000000000000E+00
 0.0000000000000E+00
 0.0000000000000E+00
 0.0000000000000E+00
 0.0000000000000E+00
 0.0000000000000E+00
 0.0000000000000E+00
 0.0000000000000E+00
 0.0000000000000E+00
 0.0000000000000E+00
 0.0000000000000E+00
 0.0000000000000E+00
 0.0000000000000E+00
 0.0000000000000E+00
 0.0000000000000E+00
 0.0000000000000E+00
 0.0000000000000E+00
 0.0000000000000E+00
 0.0000000000000E+00
 0.0000000000000E+00
 0.0000000000000E+00
 0.0000000000000E+00
 0.0000000000000E+00
 0.0000000000000E+00
 0.0000000000000E+00
 0.0000000000000E+00
 0.0000000000000E+00
 0.0000000000000E+00
 0.0000000000000E+00
 0.0000000000000E+00
 0.0000000000000E+00
 0.0000000000000E+00
 0.0000000000000E+00
 0.0000000000000E+00
 0.0000000000000E+00
 0.0000000000000E+00
 0.0000000000000E+00
 0.0000000000000E+00
 0.0000000000000E+00
 0.0000000000000E+00
 0.0000000000000E+00
 0.0000000000000E+00
 0.0000000000000E+00
 0.0000000000000E+00
 0.0000000000000E+00
 0.0000000000000E+00
 0.0000000000000E+00
 0.0000000000000E+00
 0.0000000000000E+00
 0.0000000000000E+00
 0.0000000000000E+00
 0.0000000000000E+00
 0.0000000000000E+00
 0.0000000000000E+00
 0.0000000000000E+00
 0.0000000000000E+00
 0.0000000000000E+00
 0.0000000000000E+00
 0.0000000000000E+00
 0.0000000000000E+00
 0.0000000000000E+00
 0.0000000000000E+00
 0.0000000000000E+00
 0.0000000000000E+00
 0.0000000000000E+00
 0.0000000000000E+00
 0.0000000000000E+00
 0.0000000000000E+00
 0.0000000000000E+00
 0.0000000000000E+00
 0.0000000000000E+00
 0.0000000000000E+00
 0.0000000000000E+00
 0.0000000000000E+00
 0.0000000000000E+00
 0.0000000000000E+00
 0.0000000000000E+00
 0.0000000000000E+00
 0.0000000000000E+00
 0.0000000000000E+00
 0.0000000000000E+00
 0.0000000000000E+00
 0.0000000000000E+00
 0.0000000000000E+00
 0.0000000000000E+00
 0.0000000000000E+00
 0.0000000000000E+00
 0.0000000000000E+00
 0.0000000000000E+00
 0.0000000000000E+00
 0.0000000000000E+00
 0.0000000000000E+00
 0.0000000000000E+00
 0.0000000000000E+00
 0.0000000000000E+00
 0.0000000000000E+00
 0.0000000000000E+00
 0.0000000000000E+00
 0.0000000000000E+00
 0.0000000000000E+00
 0.0000000000000E+00
 0.0000000000000E+00
 0.0000000000000E+00
 0.0000000000000E+00
 0.0000000000000E+00
 0.0000000000000E+00
 0.0000000000000E+00
 0.0000000000000E+00
 0.0000000000000E+00
 0.0000000000000E+00
 0.0000000000000E+00
 0.0000000000000E+00
 0.0000000000000E+00
 0.0000000000000E+00
 0.0000000000000E+00
 0.0000000000000E+00
 0.0000000000000E+00
 0.0000000000000E+00
 0.0000000000000E+00
 0.0000000000000E+00
 0.0000000000000E+00
 0.0000000000000E+00
 0.0000000000000E+00
 0.0000000000000E+00
 0.0000000000000E+00
 0.0000000000000E+00
 0.0000000000000E+00
 0.0000000000000E+00
 0.0000000000000E+00
 0.0000000000000E+00
 0.0000000000000E+00
 0.0000000000000E+00
 0.0000000000000E+00
 0.0000000000000E+00
 0.0000000000000E+00
 0.0000000000000E+00
 0.0000000000000E+00
 0.0000000000000E+00
 0.0000000000000E+00
 0.0000000000000E+00
 0.0000000000000E+00
 0.0000000000000E+00
 0.0000000000000E+00
 0.0000000000000E+00
 0.0000000000000E+00
 0.0000000000000E+00
 0.0000000000000E+00
 0.0000000000000E+00
 0.0000000000000E+00
 0.0000000000000E+00
 0.0000000000000E+00
 0.0000000000000E+00
 0.0000000000000E+00
 0.0000000000000E+00
 0.0000000000000E+00
 0.0000000000000E+00
 0.0000000000000E+00
 0.0000000000000E+00
 0.0000000000000E+00
 0.0000000000000E+00
 0.0000000000000E+00
 0.0000000000000E+00
 0.0000000000000E+00
 0.0000000000000E+00
 0.0000000000000E+00
 0.0000000000000E+00
 0.0000000000000E+00
 0.0000000000000E+00
 0.0000000000000E+00
 0.0000000000000E+00
 0.0000000000000E+00
 0.0000000000000E+00
 0.0000000000000E+00
 0.0000000000000E+00
 0.0000000000000E+00
 0.0000000000000E+00
 0.0000000000000E+00
 0.0000000000000E+00
 0.0000000000000E+00
 0.0000000000000E+00
 0.0000000000000E+00
 0.0000000000000E+00
 0.0000000000000E+00
 0.0000000000000E+00
 0.0000000000000E+00
 0.0000000000000E+00
 0.0000000000000E+00
 0.0000000000000E+00
 0.0000000000000E+00
 0.0000000000000E+00
 0.0000000000000E+00
 0.0000000000000E+00
 0.0000000000000E+00
 0.0000000000000E+00
 0.0000000000000E+00
 0.0000000000000E+00
 0.0000000000000E+00
 0.0000000000000E+00
 0.0000000000000E+00
 0.0000000000000E+00
 0.0000000000000E+00
 0.0000000000000E+00
 0.0000000000000E+00
 0.0000000000000E+00
 0.0000000000000E+00
 0.0000000000000E+00
 0.0000000000000E+00
 0.0000000000000E+00
 0.0000000000000E+00
 0.0000000000000E+00
 0.0000000000000E+00
 0.0000000000000E+00
 0.0000000000000E+00
 0.0000000000000E+00
 0.0000000000000E+00
 0.0000000000000E+00
 0.0000000000000E+00
 0.0000000000000E+00
 0.0000000000000E+00
 0.0000000000000E+00
 0.0000000000000E+00
 0.0000000000000E+00
 0.0000000000000E+00
 0.0000000000000E+00
 0.0000000000000E+00
 0.0000000000000E+00
 0.0000000000000E+00
 0.0000000000000E+00
 0.0000000000000E+00
 0.0000000000000E+00
 0.0000000000000E+00
 0.0000000000000E+00
 0.0000000000000E+00
 0.0000000000000E+00
 0.0000000000000E+00
 0.0000000000000E+00
 0.0000000000000E+00
 0.0000000000000E+00
 0.0000000000000E+00
 0.0000000000000E+00
 0.0000000000000E+00
 0.0000000000000E+00
 0.0000000000000E+00
 0.0000000000000E+00
 0.0000000000000E+00
 0.0000000000000E+00
 0.0000000000000E+00
 0.0000000000000E+00
 0.0000000000000E+00
 0.0000000000000E+00
 0.0000000000000E+00
 0.0000000000000E+00
 0.0000000000000E+00
 0.0000000000000E+00
 0.0000000000000E+00
 0.0000000000000E+00
 0.0000000000000E+00
 0.0000000000000E+00
 0.0000000000000E+00
 0.0000000000000E+00
 0.0000000000000E+00
 0.0000000000000E+00
 0.0000000000000E+00
 0.0000000000000E+00
 0.0000000000000E+00
 0.0000000000000E+00
 0.0000000000000E+00
 0.0000000000000E+00
 0.0000000000000E+00
 0.0000000000000E+00
 0.0000000000000E+00
 0.0000000000000E+00
 0.0000000000000E+00
 0.0000000000000E+00
 0.0000000000000E+00
 0.0000000000000E+00
 0.0000000000000E+00
 0.0000000000000E+00
 0.0000000000000E+00
 0.0000000000000E+00
 0.0000000000000E+00
 0.0000000000000E+00
 0.0000000000000E+00
 0.0000000000000E+00
 0.0000000000000E+00
 0.0000000000000E+00
 0.0000000000000E+00
 0.0000000000000E+00
 0.0000000000000E+00
 0.0000000000000E+00
 0.0000000000000E+00
 0.0000000000000E+00
 0.0000000000000E+00
 0.0000000000000E+00
 0.0000000000000E+00
 0.0000000000000E+00
 0.0000000000000E+00
 0.0000000000000E+00
 0.0000000000000E+00
 0.0000000000000E+00
 0.0000000000000E+00
 0.0000000000000E+00
 0.0000000000000E+00
 0.0000000000000E+00
 0.0000000000000E+00
 0.0000000000000E+00
 0.0000000000000E+00
 0.0000000000000E+00
 0.0000000000000E+00
 0.0000000000000E+00
 0.0000000000000E+00
 0.0000000000000E+00
 0.0000000000000E+00
 0.0000000000000E+00
 0.0000000000000E+00
 0.0000000000000E+00
 0.0000000000000E+00
 0.0000000000000E+00
 0.0000000000000E+00
 0.0000000000000E+00
 0.0000000000000E+00
 0.0000000000000E+00
 0.0000000000000E+00
 0.0000000000000E+00
 0.0000000000000E+00
 0.0000000000000E+00
 0.0000000000000E+00
 0.0000000000000E+00
 0.0000000000000E+00
 0.0000000000000E+00
 0.0000000000000E+00
 0.0000000000000E+00
 0.0000000000000E+00
 0.0000000000000E+00
 0.0000000000000E+00
 0.0000000000000E+00
 0.0000000000000E+00
 0.0000000000000E+00
 0.0000000000000E+00
 0.0000000000000E+00
 0.0000000000000E+00
 0.0000000000000E+00
 0.0000000000000E+00
 0.0000000000000E+00
 0.0000000000000E+00
 0.0000000000000E+00
 0.0000000000000E+00
 0.0000000000000E+00
 0.0000000000000E+00
 0.0000000000000E+00
 0.0000000000000E+00
 0.0000000000000E+00
 0.0000000000000E+00
 0.0000000000000E+00
 0.0000000000000E+00
 0.0000000000000E+00
 0.0000000000000E+00
 0.0000000000000E+00
 0.0000000000000E+00
 0.0000000000000E+00
 0.0000000000000E+00
 0.0000000000000E+00
 0.0000000000000E+00
 0.0000000000000E+00
 0.0000000000000E+00
 0.0000000000000E+00
 0.0000000000000E+00
 0.0000000000000E+00
 0.0000000000000E+00
 0.0000000000000E+00
 0.0000000000000E+00
 0.0000000000000E+00
 0.0000000000000E+00
 0.0000000000000E+00
 0.0000000000000E+00
 0.0000000000000E+00
 0.0000000000000E+00
 0.0000000000000E+00
 0.0000000000000E+00
 0.0000000000000E+00
 0.0000000000000E+00
 0.0000000000000E+00
 0.0000000000000E+00
 0.0000000000000E+00
 0.0000000000000E+00
 0.0000000000000E+00
 0.0000000000000E+00
 0.0000000000000E+00
 0.0000000000000E+00
 0.0000000000000E+00
 0.0000000000000E+00
 0.0000000000000E+00
 0.0000000000000E+00
 0.0000000000000E+00
 0.0000000000000E+00
 0.0000000000000E+00
 0.0000000000000E+00
 0.0000000000000E+00
 0.0000000000000E+00
 0.0000000000000E+00
 0.0000000000000E+00
 0.0000000000000E+00
 0.0000000000000E+00
 0.0000000000000E+00
 0.0000000000000E+00
 0.0000000000000E+00
 0.0000000000000E+00
 0.0000000000000E+00
 0.0000000000000E+00
 0.0000000000000E+00
 0.0000000000000E+00
 0.0000000000000E+00
 0.0000000000000E+00
 0.0000000000000E+00
 0.0000000000000E+00
 0.0000000000000E+00
 0.0000000000000E+00
 0.0000000000000E+00
 0.0000000000000E+00
 0.0000000000000E+00
 0.0000000000000E+00
 0.0000000000000E+00
 0.0000000000000E+00
 0.0000000000000E+00
 0.0000000000000E+00
 0.0000000000000E+00
 0.0000000000000E+00
 0.0000000000000E+00
 0.0000000000000E+00
 0.0000000000000E+00
 0.0000000000000E+00
 0.0000000000000E+00
 0.0000000000000E+00
 0.0000000000000E+00
 0.0000000000000E+00
 0.0000000000000E+00
 0.0000000000000E+00
 0.0000000000000E+00
 0.0000000000000E+00
 0.0000000000000E+00
 0.0000000000000E+00
 0.0000000000000E+00
 0.0000000000000E+00
 0.0000000000000E+00
 0.0000000000000E+00
 0.0000000000000E+00
 0.0000000000000E+00
 0.0000000000000E+00
 0.0000000000000E+00
 0.0000000000000E+00
 0.0000000000000E+00
 0.0000000000000E+00
 0.0000000000000E+00
 0.0000000000000E+00
 0.0000000000000E+00
 0.0000000000000E+00
 0.0000000000000E+00
 0.0000000000000E+00
 0.0000000000000E+00
 0.0000000000000E+00
 0.0000000000000E+00
 0.0000000000000E+00
 0.0000000000000E+00
 0.0000000000000E+00
 0.0000000000000E+00
 0.0000000000000E+00
 0.0000000000000E+00
 0.0000000000000E+00
 0.0000000000000E+00
 0.0000000000000E+00
 0.0000000000000E+00
 0.0000000000000E+00
 0.0000000000000E+00
 0.0000000000000E+00
 0.0000000000000E+00
 0.0000000000000E+00
 0.0000000000000E+00
 0.0000000000000E+00
 0.0000000000000E+00
 0.0000000000000E+00
 0.0000000000000E+00
 0.0000000000000E+00
 0.0000000000000E+00
 0.0000000000000E+00
 0.0000000000000E+00
 0.0000000000000E+00
 0.0000000000000E+00
 0.0000000000000E+00
 0.0000000000000E+00
 0.0000000000000E+00
 0.0000000000000E+00
 0.0000000000000E+00
 0.0000000000000E+00
 0.0000000000000E+00
 0.0000000000000E+00
 0.0000000000000E+00
 0.0000000000000E+00
 0.0000000000000E+00
 0.0000000000000E+00
 0.0000000000000E+00
 0.0000000000000E+00
 0.0000000000000E+00
 0.0000000000000E+00
 0.0000000000000E+00
 0.0000000000000E+00
 0.0000000000000E+00
 0.0000000000000E+00
 0.0000000000000E+00
 0.0000000000000E+00
 0.0000000000000E+00
 0.0000000000000E+00
 0.0000000000000E+00
 0.0000000000000E+00
 0.0000000000000E+00
 0.0000000000000E+00
 0.0000000000000E+00
 0.0000000000000E+00
 0.0000000000000E+00
 0.0000000000000E+00
 0.0000000000000E+00
 0.0000000000000E+00
 0.0000000000000E+00
 0.0000000000000E+00
 0.0000000000000E+00
 0.0000000000000E+00
 0.0000000000000E+00
 0.0000000000000E+00
 0.0000000000000E+00
 0.0000000000000E+00
 0.0000000000000E+00
 0.0000000000000E+00
 0.0000000000000E+00
 0.0000000000000E+00
 0.0000000000000E+00
 0.0000000000000E+00
 0.0000000000000E+00
 0.0000000000000E+00
 0.0000000000000E+00
 0.0000000000000E+00
 0.0000000000000E+00
 0.0000000000000E+00
 0.0000000000000E+00
 0.0000000000000E+00
 0.0000000000000E+00
 0.0000000000000E+00
 0.0000000000000E+00
 0.0000000000000E+00
 0.0000000000000E+00
 0.0000000000000E+00
 0.0000000000000E+00
 0.0000000000000E+00
 0.0000000000000E+00
 0.0000000000000E+00
 0.0000000000000E+00
 0.0000000000000E+00
 0.0000000000000E+00
 0.0000000000000E+00
 0.0000000000000E+00
 0.0000000000000E+00
 0.0000000000000E+00
 0.0000000000000E+00
 0.0000000000000E+00
 0.0000000000000E+00
 0.0000000000000E+00
 0.0000000000000E+00
 0.0000000000000E+00
 0.0000000000000E+00
 0.0000000000000E+00
 0.0000000000000E+00
 0.0000000000000E+00
 0.0000000000000E+00
 0.0000000000000E+00
 0.0000000000000E+00
 0.0000000000000E+00
 0.0000000000000E+00
 0.0000000000000E+00
 0.0000000000000E+00
 0.0000000000000E+00
 0.0000000000000E+00
 0.0000000000000E+00
 0.0000000000000E+00
 0.0000000000000E+00
 0.0000000000000E+00
 0.0000000000000E+00
 0.0000000000000E+00
 0.0000000000000E+00
 0.0000000000000E+00
 0.0000000000000E+00
 0.0000000000000E+00
 0.0000000000000E+00
 0.0000000000000E+00
 0.0000000000000E+00
 0.0000000000000E+00
 0.0000000000000E+00
 0.0000000000000E+00
 0.0000000000000E+00
 0.0000000000000E+00
 0.0000000000000E+00
 0.0000000000000E+00
 0.0000000000000E+00
 0.0000000000000E+00
 0.0000000000000E+00
 0.0000000000000E+00
 0.0000000000000E+00
 0.0000000000000E+00
 0.0000000000000E+00
 0.0000000000000E+00
 0.0000000000000E+00
 0.0000000000000E+00
 0.0000000000000E+00
 0.0000000000000E+00
 0.0000000000000E+00
 0.0000000000000E+00
 0.0000000000000E+00
 0.0000000000000E+00
 0.0000000000000E+00
 0.0000000000000E+00
 0.0000000000000E+00
 0.0000000000000E+00
 0.0000000000000E+00
 0.0000000000000E+00
 0.0000000000000E+00
 0.0000000000000E+00
 0.0000000000000E+00
 0.0000000000000E+00
 0.0000000000000E+00
 0.0000000000000E+00
 0.0000000000000E+00
 0.0000000000000E+00
 0.0000000000000E+00
 0.0000000000000E+00
 0.0000000000000E+00
 0.0000000000000E+00
 0.0000000000000E+00
 0.0000000000000E+00
 0.0000000000000E+00
 0.0000000000000E+00
 0.0000000000000E+00
 0.0000000000000E+00
 0.0000000000000E+00
 0.0000000000000E+00
 0.0000000000000E+00
 0.0000000000000E+00
 0.0000000000000E+00
 0.0000000000000E+00
 0.0000000000000E+00
 0.0000000000000E+00
 0.0000000000000E+00
 0.0000000000000E+00
 0.0000000000000E+00
 0.0000000000000E+00
 0.0000000000000E+00
 0.0000000000000E+00
 0.0000000000000E+00
 0.0000000000000E+00
 0.0000000000000E+00
 0.0000000000000E+00
 0.0000000000000E+00
 0.0000000000000E+00
 0.0000000000000E+00
 0.0000000000000E+00
 0.0000000000000E+00
 0.0000000000000E+00
 0.0000000000000E+00
 0.0000000000000E+00
 0.0000000000000E+00
 0.0000000000000E+00
 0.0000000000000E+00
 0.0000000000000E+00
 0.0000000000000E+00
 0.0000000000000E+00
 0.0000000000000E+00
 0.0000000000000E+00
 0.0000000000000E+00
 0.0000000000000E+00
 0.0000000000000E+00
 0.0000000000000E+00
 0.0000000000000E+00
 0.0000000000000E+00
 0.0000000000000E+00
 0.0000000000000E+00
 0.0000000000000E+00
 0.0000000000000E+00
 0.0000000000000E+00
 0.0000000000000E+00
 0.0000000000000E+00
 0.0000000000000E+00
 0.0000000000000E+00
 0.0000000000000E+00
 0.0000000000000E+00
 0.0000000000000E+00
 0.0000000000000E+00
 0.0000000000000E+00
 0.0000000000000E+00
 0.0000000000000E+00
 0.0000000000000E+00
 0.0000000000000E+00
 0.0000000000000E+00
 0.0000000000000E+00
 0.0000000000000E+00
 0.0000000000000E+00
 0.0000000000000E+00
 0.0000000000000E+00
 0.0000000000000E+00
 0.0000000000000E+00
 0.0000000000000E+00
 0.0000000000000E+00
 0.0000000000000E+00
 0.0000000000000E+00
 0.0000000000000E+00
 0.0000000000000E+00
 0.0000000000000E+00
 0.0000000000000E+00
 0.0000000000000E+00
 0.0000000000000E+00
 0.0000000000000E+00
 0.0000000000000E+00
 0.0000000000000E+00
 0.0000000000000E+00
 0.0000000000000E+00
 0.0000000000000E+00
 0.0000000000000E+00
 0.0000000000000E+00
 0.0000000000000E+00
 0.0000000000000E+00
 0.0000000000000E+00
 0.0000000000000E+00
 0.0000000000000E+00
 0.0000000000000E+00
 0.0000000000000E+00
 0.0000000000000E+00
 0.0000000000000E+00
 0.0000000000000E+00
 0.0000000000000E+00
 0.0000000000000E+00
 0.0000000000000E+00
 0.0000000000000E+00
 0.0000000000000E+00
 0.0000000000000E+00
 0.0000000000000E+00
 0.0000000000000E+00
 0.0000000000000E+00
 0.0000000000000E+00
 0.0000000000000E+00
 0.0000000000000E+00
 0.0000000000000E+00
 0.0000000000000E+00
 0.0000000000000E+00
 0.0000000000000E+00
 0.0000000000000E+00
 0.0000000000000E+00
 0.0000000000000E+00
 0.0000000000000E+00
 0.0000000000000E+00
 0.0000000000000E+00
 0.0000000000000E+00
 0.0000000000000E+00
 0.0000000000000E+00
 0.0000000000000E+00
 0.0000000000000E+00
 0.0000000000000E+00
 0.0000000000000E+00
 0.0000000000000E+00
 0.0000000000000E+00
 0.0000000000000E+00
 0.0000000000000E+00
 0.0000000000000E+00
 0.0000000000000E+00
 0.0000000000000E+00
 0.0000000000000E+00
 0.0000000000000E+00
 0.0000000000000E+00
 0.0000000000000E+00
 0.0000000000000E+00
 0.0000000000000E+00
 0.0000000000000E+00
 0.0000000000000E+00
 0.0000000000000E+00
 0.0000000000000E+00
 0.0000000000000E+00
 0.0000000000000E+00
 0.0000000000000E+00
 0.0000000000000E+00
 0.0000000000000E+00
 0.0000000000000E+00
 0.0000000000000E+00
 0.0000000000000E+00
 0.0000000000000E+00
 0.0000000000000E+00
 0.0000000000000E+00
 0.0000000000000E+00
 0.0000000000000E+00
 0.0000000000000E+00
 0.0000000000000E+00
 0.0000000000000E+00
 0.0000000000000E+00
 0.0000000000000E+00
 0.0000000000000E+00
 0.0000000000000E+00
 0.0000000000000E+00
 0.0000000000000E+00
 0.0000000000000E+00
 0.0000000000000E+00
 0.0000000000000E+00
 0.0000000000000E+00
 0.0000000000000E+00
 0.0000000000000E+00
 0.0000000000000E+00
 0.0000000000000E+00
 0.0000000000000E+00
 0.0000000000000E+00
 0.0000000000000E+00
 0.0000000000000E+00
 0.0000000000000E+00
 0.0000000000000E+00
 0.0000000000000E+00
 0.0000000000000E+00
 0.0000000000000E+00
 0.0000000000000E+00
 0.0000000000000E+00
 0.0000000000000E+00
 0.0000000000000E+00
 0.0000000000000E+00
 0.0000000000000E+00
 0.0000000000000E+00
 0.0000000000000E+00
 0.0000000000000E+00
 0.0000000000000E+00
 0.0000000000000E+00
 0.0000000000000E+00
 0.0000000000000E+00
 0.0000000000000E+00
 0.0000000000000E+00
 0.0000000000000E+00
 0.0000000000000E+00
 0.0000000000000E+00
 0.0000000000000E+00
 0.0000000000000E+00
 0.0000000000000E+00
 0.0000000000000E+00
 0.0000000000000E+00
 0.0000000000000E+00
 0.0000000000000E+00
 0.0000000000000E+00
 0.0000000000000E+00
 0.0000000000000E+00
 0.0000000000000E+00
 0.0000000000000E+00
 0.0000000000000E+00
 0.0000000000000E+00
 0.0000000000000E+00
 0.0000000000000E+00
 0.0000000000000E+00
 0.0000000000000E+00
 0.0000000000000E+00
 0.0000000000000E+00
 0.0000000000000E+00
 0.0000000000000E+00
 0.0000000000000E+00
 0.0000000000000E+00
 0.0000000000000E+00
 0.0000000000000E+00
 0.0000000000000E+00
 0.0000000000000E+00
 0.0000000000000E+00
 0.0000000000000E+00
 0.0000000000000E+00
 0.0000000000000E+00
 0.0000000000000E+00
 0.0000000000000E+00
 0.0000000000000E+00
 0.0000000000000E+00
 0.0000000000000E+00
 0.0000000000000E+00
 0.0000000000000E+00
 0.0000000000000E+00
 0.0000000000000E+00
 0.0000000000000E+00
 0.0000000000000E+00
 0.0000000000000E+00
 0.0000000000000E+00
 0.0000000000000E+00
 0.0000000000000E+00
 0.0000000000000E+00
 0.0000000000000E+00
 0.0000000000000E+00
 0.0000000000000E+00
 0.0000000000000E+00
 0.0000000000000E+00
 0.0000000000000E+00
 0.0000000000000E+00
 0.0000000000000E+00
 0.0000000000000E+00
 0.0000000000000E+00
 0.0000000000000E+00
 0.0000000000000E+00
 0.0000000000000E+00
 0.0000000000000E+00
 0.0000000000000E+00
 0.0000000000000E+00
 0.0000000000000E+00
 0.0000000000000E+00
 0.0000000000000E+00
 0.0000000000000E+00
 0.0000000000000E+00
 0.0000000000000E+00
 0.0000000000000E+00
 0.0000000000000E+00
 0.0000000000000E+00
 0.0000000000000E+00
 0.0000000000000E+00
 0.0000000000000E+00
 0.0000000000000E+00
 0.0000000000000E+00
 0.0000000000000E+00
 0.0000000000000E+00
 0.0000000000000E+00
 0.0000000000000E+00
 0.0000000000000E+00
 0.0000000000000E+00
 0.0000000000000E+00
 0.0000000000000E+00
 0.0000000000000E+00
 0.0000000000000E+00
 0.0000000000000E+00
 0.0000000000000E+00
 0.0000000000000E+00
 0.0000000000000E+00
 0.0000000000000E+00
 0.0000000000000E+00
 0.0000000000000E+00
 0.0000000000000E+00
 0.0000000000000E+00
 0.0000000000000E+00
 0.0000000000000E+00
 0.0000000000000E+00
 0.0000000000000E+00
 0.0000000000000E+00
 0.0000000000000E+00
 0.0000000000000E+00
 0.0000000000000E+00
 0.0000000000000E+00
 0.0000000000000E+00
 0.0000000000000E+00
 0.0000000000000E+00
 0.0000000000000E+00
 0.0000000000000E+00
 0.0000000000000E+00
 0.0000000000000E+00
 0.0000000000000E+00
 0.0000000000000E+00
 0.0000000000000E+00
 0.0000000000000E+00
 0.0000000000000E+00
 0.0000000000000E+00
 0.0000000000000E+00
 0.0000000000000E+00
 0.0000000000000E+00
 0.0000000000000E+00
 0.0000000000000E+00
 0.0000000000000E+00
 0.0000000000000E+00
 0.0000000000000E+00
 0.0000000000000E+00
 0.0000000000000E+00
 0.0000000000000E+00
 0.0000000000000E+00
 0.0000000000000E+00
 0.0000000000000E+00
 0.0000000000000E+00
 0.0000000000000E+00
 0.0000000000000E+00
 0.0000000000000E+00
 0.0000000000000E+00
 0.0000000000000E+00
 0.0000000000000E+00
 0.0000000000000E+00
 0.0000000000000E+00
 0.0000000000000E+00
 0.0000000000000E+00
 0.0000000000000E+00
 0.0000000000000E+00
 0.0000000000000E+00
 0.0000000000000E+00
 0.0000000000000E+00
 0.0000000000000E+00
 0.0000000000000E+00
 0.0000000000000E+00
 0.0000000000000E+00
 0.0000000000000E+00
 0.0000000000000E+00
 0.0000000000000E+00
 0.0000000000000E+00
 0.0000000000000E+00
 0.0000000000000E+00
 0.0000000000000E+00
 0.0000000000000E+00
 0.0000000000000E+00
 0.0000000000000E+00
 0.0000000000000E+00
 0.0000000000000E+00
 0.0000000000000E+00
 0.0000000000000E+00
 0.0000000000000E+00
 0.0000000000000E+00
 0.0000000000000E+00
 0.0000000000000E+00
 0.0000000000000E+00
 0.0000000000000E+00
 0.0000000000000E+00
 0.0000000000000E+00
 0.0000000000000E+00
 0.0000000000000E+00
 0.0000000000000E+00
 0.0000000000000E+00
 0.0000000000000E+00
 0.0000000000000E+00
 0.0000000000000E+00
 0.0000000000000E+00
 0.0000000000000E+00
 0.0000000000000E+00
 0.0000000000000E+00
 0.0000000000000E+00
 0.0000000000000E+00
 0.0000000000000E+00
 0.0000000000000E+00
 0.0000000000000E+00
 0.0000000000000E+00
 0.0000000000000E+00
 0.0000000000000E+00
 0.0000000000000E+00
 0.0000000000000E+00
 0.0000000000000E+00
 0.0000000000000E+00
 0.0000000000000E+00
 0.0000000000000E+00
 0.0000000000000E+00
 0.0000000000000E+00
 0.0000000000000E+00
 0.0000000000000E+00
 0.0000000000000E+00
 0.0000000000000E+00
 0.0000000000000E+00
 0.0000000000000E+00
 0.0000000000000E+00
 0.0000000000000E+00
 0.0000000000000E+00
 0.0000000000000E+00
 0.0000000000000E+00
 0.0000000000000E+00
 0.0000000000000E+00
 0.0000000000000E+00
 0.0000000000000E+00
 0.0000000000000E+00
 0.0000000000000E+00
 0.0000000000000E+00
 0.0000000000000E+00
 0.0000000000000E+00
 0.0000000000000E+00
 0.0000000000000E+00
 0.0000000000000E+00
 0.0000000000000E+00
 0.0000000000000E+00
 0.0000000000000E+00
 0.0000000000000E+00
 0.0000000000000E+00
 0.0000000000000E+00
 0.0000000000000E+00
 0.0000000000000E+00
 0.0000000000000E+00
 0.0000000000000E+00
 0.0000000000000E+00
 0.0000000000000E+00
 0.0000000000000E+00
 0.0000000000000E+00
 0.0000000000000E+00
 0.0000000000000E+00
 0.0000000000000E+00
 0.0000000000000E+00
 0.0000000000000E+00
 0.0000000000000E+00
 0.0000000000000E+00
 0.0000000000000E+00
 0.0000000000000E+00
 0.0000000000000E+00
 0.0000000000000E+00
 0.0000000000000E+00
 0.0000000000000E+00
 0.0000000000000E+00
 0.0000000000000E+00
 0.0000000000000E+00
 0.0000000000000E+00
 0.0000000000000E+00
 0.0000000000000E+00
 0.0000000000000E+00
 0.0000000000000E+00
 0.0000000000000E+00
 0.0000000000000E+00
 0.0000000000000E+00
 0.0000000000000E+00
 0.0000000000000E+00
 0.0000000000000E+00
 0.0000000000000E+00
 0.0000000000000E+00
 0.0000000000000E+00
 0.0000000000000E+00
 0.0000000000000E+00
 0.0000000000000E+00
 0.0000000000000E+00
 0.0000000000000E+00
 0.0000000000000E+00
 0.0000000000000E+00
 0.0000000000000E+00
 0.0000000000000E+00
 0.0000000000000E+00
 0.0000000000000E+00
 0.0000000000000E+00
 0.0000000000000E+00
 0.0000000000000E+00
 0.0000000000000E+00
 0.0000000000000E+00
 0.0000000000000E+00
 0.0000000000000E+00
 0.0000000000000E+00
 0.0000000000000E+00
 0.0000000000000E+00
 0.0000000000000E+00
 0.0000000000000E+00
 0.0000000000000E+00
 0.0000000000000E+00
 0.0000000000000E+00
 0.0000000000000E+00
 0.0000000000000E+00
 0.0000000000000E+00
 0.0000000000000E+00
 0.0000000000000E+00
 0.0000000000000E+00
 0.0000000000000E+00
 0.0000000000000E+00
 0.0000000000000E+00
 0.0000000000000E+00
 0.0000000000000E+00
 0.0000000000000E+00
 0.0000000000000E+00
 0.0000000000000E+00
 0.0000000000000E+00
 0.0000000000000E+00
 0.0000000000000E+00
 0.0000000000000E+00
 0.0000000000000E+00
 0.0000000000000E+00
 0.0000000000000E+00
 0.0000000000000E+00
 0.0000000000000E+00
 0.0000000000000E+00
 0.0000000000000E+00
 0.0000000000000E+00
 0.0000000000000E+00
 0.0000000000000E+00
 0.0000000000000E+00
 0.0000000000000E+00
 0.0000000000000E+00
 0.0000000000000E+00
 0.0000000000000E+00
 0.0000000000000E+00
 0.0000000000000E+00
 0.0000000000000E+00
 0.0000000000000E+00
 0.0000000000000E+00
 0.0000000000000E+00
 0.0000000000000E+00
 0.0000000000000E+00
 0.0000000000000E+00
 0.0000000000000E+00
 0.0000000000000E+00
 0.0000000000000E+00
 0.0000000000000E+00
 0.0000000000000E+00
 0.0000000000000E+00
 0.0000000000000E+00
 0.0000000000000E+00
 0.0000000000000E+00
 0.0000000000000E+00
 0.0000000000000E+00
 0.0000000000000E+00
 0.0000000000000E+00
 0.0000000000000E+00
 0.0000000000000E+00
 0.0000000000000E+00
 0.0000000000000E+00
 0.0000000000000E+00
 0.0000000000000E+00
 0.0000000000000E+00
 0.0000000000000E+00
 0.0000000000000E+00
 0.0000000000000E+00
 0.0000000000000E+00
 0.0000000000000E+00
 0.0000000000000E+00
 0.0000000000000E+00
 0.0000000000000E+00
 0.0000000000000E+00
 0.0000000000000E+00
 0.0000000000000E+00
 0.0000000000000E+00
 0.0000000000000E+00
 0.0000000000000E+00
 0.0000000000000E+00
 0.0000000000000E+00
 0.0000000000000E+00
 0.0000000000000E+00
 0.0000000000000E+00
 0.0000000000000E+00
 0.0000000000000E+00
 0.0000000000000E+00
 0.0000000000000E+00
 0.0000000000000E+00
 0.0000000000000E+00
 0.0000000000000E+00
 0.0000000000000E+00
 0.0000000000000E+00
 0.0000000000000E+00
 0.0000000000000E+00
 0.0000000000000E+00
 0.0000000000000E+00
 0.0000000000000E+00
 0.0000000000000E+00
 0.0000000000000E+00
 0.0000000000000E+00
 0.0000000000000E+00
 0.0000000000000E+00
 0.0000000000000E+00
 0.0000000000000E+00
 0.0000000000000E+00
 0.0000000000000E+00
 0.0000000000000E+00
 0.0000000000000E+00
 0.0000000000000E+00
 0.0000000000000E+00
 0.0000000000000E+00
 0.0000000000000E+00
 0.0000000000000E+00
 0.0000000000000E+00
 0.0000000000000E+00
 0.0000000000000E+00
 0.0000000000000E+00
 0.0000000000000E+00
 0.0000000000000E+00
 0.0000000000000E+00
 0.0000000000000E+00
 0.0000000000000E+00
 0.0000000000000E+00
 0.0000000000000E+00
 0.0000000000000E+00
 0.0000000000000E+00
 0.0000000000000E+00
 0.0000000000000E+00
 0.0000000000000E+00
 0.0000000000000E+00
 0.0000000000000E+00
 0.0000000000000E+00
 0.0000000000000E+00
 0.0000000000000E+00
 0.0000000000000E+00
 0.0000000000000E+00
 0.0000000000000E+00
 0.0000000000000E+00
 0.0000000000000E+00
 0.0000000000000E+00
 0.0000000000000E+00
 0.0000000000000E+00
 0.0000000000000E+00
 0.0000000000000E+00
 0.0000000000000E+00
 0.0000000000000E+00
 0.0000000000000E+00
 0.0000000000000E+00
 0.0000000000000E+00
 0.0000000000000E+00
 0.0000000000000E+00
 0.0000000000000E+00
 0.0000000000000E+00
 0.0000000000000E+00
 0.0000000000000E+00
 0.0000000000000E+00
 0.0000000000000E+00
 0.0000000000000E+00
 0.0000000000000E+00
 0.0000000000000E+00
 0.0000000000000E+00
 0.0000000000000E+00
 0.0000000000000E+00
 0.0000000000000E+00
 0.0000000000000E+00
 0.0000000000000E+00
 0.0000000000000E+00
 0.0000000000000E+00
 0.0000000000000E+00
 0.0000000000000E+00
 0.0000000000000E+00
 0.0000000000000E+00
 0.0000000000000E+00
 0.0000000000000E+00
 0.0000000000000E+00
 0.0000000000000E+00
 0.0000000000000E+00
 0.0000000000000E+00
 0.0000000000000E+00
 0.0000000000000E+00
 0.0000000000000E+00
 0.0000000000000E+00
 0.0000000000000E+00
 0.0000000000000E+00
 0.0000000000000E+00
 0.0000000000000E+00
 0.0000000000000E+00
 0.0000000000000E+00
 0.0000000000000E+00
 0.0000000000000E+00
 0.0000000000000E+00
 0.0000000000000E+00
 0.0000000000000E+00
 0.0000000000000E+00
 0.0000000000000E+00
 0.0000000000000E+00
 0.0000000000000E+00
 0.0000000000000E+00
 0.0000000000000E+00
 0.0000000000000E+00
 0.0000000000000E+00
 0.0000000000000E+00
 0.0000000000000E+00
 0.0000000000000E+00
 0.0000000000000E+00
 0.0000000000000E+00
 0.0000000000000E+00
 0.0000000000000E+00
 0.0000000000000E+00
 0.0000000000000E+00
 0.0000000000000E+00
 0.0000000000000E+00
 0.0000000000000E+00
 0.0000000000000E+00
 0.0000000000000E+00
 0.0000000000000E+00
 0.0000000000000E+00
 0.0000000000000E+00
 0.0000000000000E+00
 0.0000000000000E+00
 0.0000000000000E+00
 0.0000000000000E+00
 0.0000000000000E+00
 0.0000000000000E+00
 0.0000000000000E+00
 0.0000000000000E+00
 0.0000000000000E+00
 0.0000000000000E+00
 0.0000000000000E+00
 0.0000000000000E+00
 0.0000000000000E+00
 0.0000000000000E+00
 0.0000000000000E+00
 0.0000000000000E+00
 0.0000000000000E+00
 0.0000000000000E+00
 0.0000000000000E+00
 0.0000000000000E+00
 0.0000000000000E+00
 0.0000000000000E+00
 0.0000000000000E+00
 0.0000000000000E+00
 0.0000000000000E+00
 0.0000000000000E+00
 0.0000000000000E+00
 0.0000000000000E+00
 0.0000000000000E+00
 0.0000000000000E+00
 0.0000000000000E+00
 0.0000000000000E+00
 0.0000000000000E+00
 0.0000000000000E+00
 0.0000000000000E+00
 0.0000000000000E+00
 0.0000000000000E+00
 0.0000000000000E+00
 0.0000000000000E+00
 0.0000000000000E+00
 0.0000000000000E+00
 0.0000000000000E+00
 0.0000000000000E+00
 0.0000000000000E+00
 0.0000000000000E+00
 0.0000000000000E+00
 0.0000000000000E+00
 0.0000000000000E+00
 0.0000000000000E+00
 0.0000000000000E+00
 0.0000000000000E+00
 0.0000000000000E+00
 0.0000000000000E+00
 0.0000000000000E+00
 0.0000000000000E+00
 0.0000000000000E+00
 0.0000000000000E+00
 0.0000000000000E+00
 0.0000000000000E+00
 0.0000000000000E+00
 0.0000000000000E+00
 0.0000000000000E+00
 0.0000000000000E+00
 0.0000000000000E+00
 0.0000000000000E+00
 0.0000000000000E+00
 0.0000000000000E+00
 0.0000000000000E+00
 0.0000000000000E+00
 0.0000000000000E+00
 0.0000000000000E+00
 0.0000000000000E+00
 0.0000000000000E+00
 0.0000000000000E+00
 0.0000000000000E+00
 0.0000000000000E+00
 0.0000000000000E+00
 0.0000000000000E+00
 0.0000000000000E+00
 0.0000000000000E+00
 0.0000000000000E+00
 0.0000000000000E+00
 0.0000000000000E+00
 0.0000000000000E+00
 0.0000000000000E+00
 0.0000000000000E+00
 0.0000000000000E+00
 0.0000000000000E+00
 0.0000000000000E+00
 0.0000000000000E+00
 0.0000000000000E+00
 0.0000000000000E+00
 0.0000000000000E+00
 0.0000000000000E+00
 0.0000000000000E+00
 0.0000000000000E+00
 0.0000000000000E+00
 0.0000000000000E+00
 0.0000000000000E+00
 0.0000000000000E+00
 0.0000000000000E+00
 0.0000000000000E+00
 0.0000000000000E+00
 0.0000000000000E+00
 0.0000000000000E+00
 0.0000000000000E+00
 0.0000000000000E+00
 0.0000000000000E+00
 0.0000000000000E+00
 0.0000000000000E+00
 0.0000000000000E+00
 0.0000000000000E+00
 0.0000000000000E+00
 0.0000000000000E+00
 0.0000000000000E+00
 0.0000000000000E+00
 0.0000000000000E+00
 0.0000000000000E+00
 0.0000000000000E+00
 0.0000000000000E+00
 0.0000000000000E+00
 0.0000000000000E+00
 0.0000000000000E+00
 0.0000000000000E+00
 0.0000000000000E+00
 0.0000000000000E+00
 0.0000000000000E+00
 0.0000000000000E+00
 0.0000000000000E+00
 0.0000000000000E+00
 0.0000000000000E+00
 0.0000000000000E+00
 0.0000000000000E+00
 0.0000000000000E+00
 0.0000000000000E+00
 0.0000000000000E+00
 0.0000000000000E+00
 0.0000000000000E+00
 0.0000000000000E+00
 0.0000000000000E+00
 0.0000000000000E+00
 0.0000000000000E+00
 0.0000000000000E+00
 0.0000000000000E+00
 0.0000000000000E+00
 0.0000000000000E+00
 0.0000000000000E+00
 0.0000000000000E+00
 0.0000000000000E+00
 0.0000000000000E+00
 0.0000000000000E+00
 0.0000000000000E+00
 0.0000000000000E+00
 0.0000000000000E+00
 0.0000000000000E+00
 0.0000000000000E+00
 0.0000000000000E+00
 0.0000000000000E+00
 0.0000000000000E+00
 0.0000000000000E+00
 0.0000000000000E+00
 0.0000000000000E+00
 0.0000000000000E+00
 0.0000000000000E+00
 0.0000000000000E+00
 0.0000000000000E+00
 0.0000000000000E+00
 0.0000000000000E+00
 0.0000000000000E+00
 0.0000000000000E+00
 0.0000000000000E+00
 0.0000000000000E+00
 0.0000000000000E+00
 0.0000000000000E+00
 0.0000000000000E+00
 0.0000000000000E+00
 0.0000000000000E+00
 0.0000000000000E+00
 0.0000000000000E+00
 0.0000000000000E+00
 0.0000000000000E+00
 0.0000000000000E+00
 0.0000000000000E+00
 0.0000000000000E+00
 0.0000000000000E+00
 0.0000000000000E+00
 0.0000000000000E+00
 0.0000000000000E+00
 0.0000000000000E+00
 0.0000000000000E+00
 0.0000000000000E+00
 0.0000000000000E+00
 0.0000000000000E+00
 0.0000000000000E+00
 0.0000000000000E+00
 0.0000000000000E+00
 0.0000000000000E+00
 0.0000000000000E+00
 0.0000000000000E+00
 0.0000000000000E+00
 0.0000000000000E+00
 0.0000000000000E+00
 0.0000000000000E+00
 0.0000000000000E+00
 0.0000000000000E+00
 0.0000000000000E+00
 0.0000000000000E+00
 0.0000000000000E+00
 0.0000000000000E+00
 0.0000000000000E+00
 0.0000000000000E+00
 0.0000000000000E+00
 0.0000000000000E+00
 0.0000000000000E+00
 0.0000000000000E+00
 0.0000000000000E+00
 0.0000000000000E+00
 0.0000000000000E+00
 0.0000000000000E+00
 0.0000000000000E+00
 0.0000000000000E+00
 0.0000000000000E+00
 0.0000000000000E+00
 0.0000000000000E+00
 0.0000000000000E+00
 0.0000000000000E+00
 0.0000000000000E+00
 0.0000000000000E+00
 0.0000000000000E+00
 0.0000000000000E+00
 0.0000000000000E+00
 0.0000000000000E+00
 0.0000000000000E+00
 0.0000000000000E+00
 0.0000000000000E+00
 0.0000000000000E+00
 0.0000000000000E+00
 0.0000000000000E+00
 0.0000000000000E+00
 0.0000000000000E+00
 0.0000000000000E+00
 0.0000000000000E+00
 0.0000000000000E+00
 0.0000000000000E+00
 0.0000000000000E+00
 0.0000000000000E+00
 0.0000000000000E+00
 0.0000000000000E+00
 0.0000000000000E+00
 0.0000000000000E+00
 0.0000000000000E+00
 0.0000000000000E+00
 0.0000000000000E+00
 0.0000000000000E+00
 0.0000000000000E+00
 0.0000000000000E+00
 0.0000000000000E+00
 0.0000000000000E+00
 0.0000000000000E+00
 0.0000000000000E+00
 0.0000000000000E+00
 0.0000000000000E+00
 0.0000000000000E+00
 0.0000000000000E+00
 0.0000000000000E+00
 0.0000000000000E+00
 0.0000000000000E+00
 0.0000000000000E+00
 0.0000000000000E+00
 0.0000000000000E+00
 0.0000000000000E+00
 0.0000000000000E+00
 0.0000000000000E+00
 0.0000000000000E+00
 0.0000000000000E+00
 0.0000000000000E+00
 0.0000000000000E+00
 0.0000000000000E+00
 0.0000000000000E+00
 0.0000000000000E+00
 0.0000000000000E+00
 0.0000000000000E+00
 0.0000000000000E+00
 0.0000000000000E+00
 0.0000000000000E+00
 0.0000000000000E+00
 0.0000000000000E+00
 0.0000000000000E+00
 0.0000000000000E+00
 0.0000000000000E+00
 0.0000000000000E+00
 0.0000000000000E+00
 0.0000000000000E+00
 0.0000000000000E+00
 0.0000000000000E+00
 0.0000000000000E+00
 0.0000000000000E+00
 0.0000000000000E+00
 0.0000000000000E+00
 0.0000000000000E+00
 0.0000000000000E+00
 0.0000000000000E+00
 0.0000000000000E+00
 0.0000000000000E+00
 0.0000000000000E+00
 0.0000000000000E+00
 0.0000000000000E+00
 0.0000000000000E+00
 0.0000000000000E+00
 0.0000000000000E+00
 0.0000000000000E+00
 0.0000000000000E+00
 0.0000000000000E+00
 0.0000000000000E+00
 0.0000000000000E+00
 0.0000000000000E+00
 0.0000000000000E+00
 0.0000000000000E+00
 0.0000000000000E+00
 0.0000000000000E+00
 0.0000000000000E+00
 0.0000000000000E+00
 0.0000000000000E+00
 0.0000000000000E+00
 0.0000000000000E+00
 0.0000000000000E+00
 0.0000000000000E+00
 0.0000000000000E+00
 0.0000000000000E+00
 0.0000000000000E+00
 0.0000000000000E+00
 0.0000000000000E+00
 0.0000000000000E+00
 0.0000000000000E+00
 0.0000000000000E+00
 0.0000000000000E+00
 0.0000000000000E+00
 0.0000000000000E+00
 0.0000000000000E+00
 0.0000000000000E+00
 0.0000000000000E+00
 0.0000000000000E+00
 0.0000000000000E+00
 0.0000000000000E+00
 0.0000000000000E+00
 0.0000000000000E+00
 0.0000000000000E+00
 0.0000000000000E+00
 0.0000000000000E+00
 0.0000000000000E+00
 0.0000000000000E+00
 0.0000000000000E+00
 0.0000000000000E+00
 0.0000000000000E+00
 0.0000000000000E+00
 0.0000000000000E+00
 0.0000000000000E+00
 0.0000000000000E+00
 0.0000000000000E+00
 0.0000000000000E+00
 0.0000000000000E+00
 0.0000000000000E+00
 0.0000000000000E+00
 0.0000000000000E+00
 0.0000000000000E+00
 0.0000000000000E+00
 0.0000000000000E+00
 0.0000000000000E+00
 0.0000000000000E+00
 0.0000000000000E+00
 0.0000000000000E+00
 0.0000000000000E+00
 0.0000000000000E+00
 0.0000000000000E+00
 0.0000000000000E+00
 0.0000000000000E+00
 0.0000000000000E+00
 0.0000000000000E+00
 0.0000000000000E+00
 0.0000000000000E+00
 0.0000000000000E+00
 0.0000000000000E+00
 0.0000000000000E+00
 0.0000000000000E+00
 0.0000000000000E+00
 0.0000000000000E+00
 0.0000000000000E+00
 0.0000000000000E+00
 0.0000000000000E+00
 0.0000000000000E+00
 0.0000000000000E+00
 0.0000000000000E+00
 0.0000000000000E+00
 0.0000000000000E+00
 0.0000000000000E+00
 0.0000000000000E+00
 0.0000000000000E+00
 0.0000000000000E+00
 0.0000000000000E+00
 0.0000000000000E+00
 0.0000000000000E+00
 0.0000000000000E+00
 0.0000000000000E+00
 0.0000000000000E+00
 0.0000000000000E+00
 0.0000000000000E+00
 0.0000000000000E+00
 0.0000000000000E+00
 0.0000000000000E+00
 0.0000000000000E+00
 0.0000000000000E+00
 0.0000000000000E+00
 0.0000000000000E+00
 0.0000000000000E+00
 0.0000000000000E+00
 0.0000000000000E+00
 0.0000000000000E+00
 0.0000000000000E+00
 0.0000000000000E+00
 0.0000000000000E+00
 0.0000000000000E+00
 0.0000000000000E+00
 0.0000000000000E+00
 0.0000000000000E+00
 0.0000000000000E+00
 0.0000000000000E+00
 0.0000000000000E+00
 0.0000000000000E+00
 0.0000000000000E+00
 0.0000000000000E+00
 0.0000000000000E+00
 0.0000000000000E+00
 0.0000000000000E+00
 0.0000000000000E+00
 0.0000000000000E+00
 0.0000000000000E+00
 0.0000000000000E+00
 0.0000000000000E+00
 0.0000000000000E+00
 0.0000000000000E+00
 0.0000000000000E+00
 0.0000000000000E+00
 0.0000000000000E+00
 0.0000000000000E+00
 0.0000000000000E+00
 0.0000000000000E+00
 0.0000000000000E+00
 0.0000000000000E+00
 0.0000000000000E+00
 0.0000000000000E+00
 0.0000000000000E+00
 0.0000000000000E+00
 0.0000000000000E+00
 0.0000000000000E+00
 0.0000000000000E+00
 0.0000000000000E+00
 0.0000000000000E+00
 0.0000000000000E+00
 0.0000000000000E+00
 0.0000000000000E+00
 0.0000000000000E+00
 0.0000000000000E+00
 0.0000000000000E+00
 0.0000000000000E+00
 0.0000000000000E+00
 0.0000000000000E+00
 0.0000000000000E+00
 0.0000000000000E+00
 0.0000000000000E+00
 0.0000000000000E+00
 0.0000000000000E+00
 0.0000000000000E+00
 0.0000000000000E+00
 0.0000000000000E+00
 0.0000000000000E+00
 0.0000000000000E+00
 0.0000000000000E+00
 0.0000000000000E+00
 0.0000000000000E+00
 0.0000000000000E+00
 0.0000000000000E+00
 0.0000000000000E+00
 0.0000000000000E+00
 0.0000000000000E+00
 0.0000000000000E+00
 0.0000000000000E+00
 0.0000000000000E+00
 0.0000000000000E+00
 0.0000000000000E+00
 0.0000000000000E+00
 0.0000000000000E+00
 0.0000000000000E+00
 0.0000000000000E+00
 0.0000000000000E+00
 0.0000000000000E+00
 0.0000000000000E+00
 0.0000000000000E+00
 0.0000000000000E+00
 0.0000000000000E+00
 0.0000000000000E+00
 0.0000000000000E+00
 0.0000000000000E+00
 0.0000000000000E+00
 0.0000000000000E+00
 0.0000000000000E+00
 0.0000000000000E+00
 0.0000000000000E+00
 0.0000000000000E+00
 0.0000000000000E+00
 0.0000000000000E+00
 0.0000000000000E+00
 0.0000000000000E+00
 0.0000000000000E+00
 0.0000000000000E+00
 0.0000000000000E+00
 0.0000000000000E+00
 0.0000000000000E+00
 0.0000000000000E+00
 0.0000000000000E+00
 0.0000000000000E+00
 0.0000000000000E+00
 0.0000000000000E+00
 0.0000000000000E+00
 0.0000000000000E+00
 0.0000000000000E+00
 0.0000000000000E+00
 0.0000000000000E+00
 0.0000000000000E+00
 0.0000000000000E+00
 0.0000000000000E+00
 0.0000000000000E+00
 0.0000000000000E+00
 0.0000000000000E+00
 0.0000000000000E+00
 0.0000000000000E+00
 0.0000000000000E+00
 0.0000000000000E+00
 0.0000000000000E+00
 0.0000000000000E+00
 0.0000000000000E+00
 0.0000000000000E+00
 0.0000000000000E+00
 0.0000000000000E+00
 0.0000000000000E+00
 0.0000000000000E+00
 0.0000000000000E+00
 0.0000000000000E+00
 0.0000000000000E+00
 0.0000000000000E+00
 0.0000000000000E+00
 0.0000000000000E+00
 0.0000000000000E+00
 0.0000000000000E+00
 0.0000000000000E+00
 0.0000000000000E+00
 0.0000000000000E+00
 0.0000000000000E+00
 0.0000000000000E+00
 0.0000000000000E+00
 0.0000000000000E+00
 0.0000000000000E+00
 0.0000000000000E+00
 0.0000000000000E+00
 0.0000000000000E+00
 0.0000000000000E+00
 0.0000000000000E+00
 0.0000000000000E+00
 0.0000000000000E+00
 0.0000000000000E+00
 0.0000000000000E+00
 0.0000000000000E+00
 0.0000000000000E+00
 0.0000000000000E+00
 0.0000000000000E+00
 0.0000000000000E+00
 0.0000000000000E+00
 0.0000000000000E+00
 0.0000000000000E+00
 0.0000000000000E+00
 0.0000000000000E+00
 0.0000000000000E+00
 0.0000000000000E+00
 0.0000000000000E+00
 0.0000000000000E+00
 0.0000000000000E+00
 0.0000000000000E+00
 0.0000000000000E+00
 0.0000000000000E+00
 0.0000000000000E+00
 0.0000000000000E+00
 0.0000000000000E+00
 0.0000000000000E+00
 0.0000000000000E+00
 0.0000000000000E+00
 0.0000000000000E+00
 0.0000000000000E+00
 0.0000000000000E+00
 0.0000000000000E+00
 0.0000000000000E+00
 0.0000000000000E+00
 0.0000000000000E+00
 0.0000000000000E+00
 0.0000000000000E+00
 0.0000000000000E+00
 0.0000000000000E+00
 0.0000000000000E+00
 0.0000000000000E+00
 0.0000000000000E+00
 0.0000000000000E+00
 0.0000000000000E+00
 0.0000000000000E+00
 0.0000000000000E+00
 0.0000000000000E+00
 0.0000000000000E+00
 0.0000000000000E+00
 0.0000000000000E+00
 0.0000000000000E+00
 0.0000000000000E+00
 0.0000000000000E+00
 0.0000000000000E+00
 0.0000000000000E+00
 0.0000000000000E+00
 0.0000000000000E+00
 0.0000000000000E+00
 0.0000000000000E+00
 0.0000000000000E+00
 0.0000000000000E+00
 0.0000000000000E+00
 0.0000000000000E+00
 0.0000000000000E+00
 0.0000000000000E+00
 0.0000000000000E+00
 0.0000000000000E+00
 0.0000000000000E+00
 0.0000000000000E+00
 0.0000000000000E+00
 0.0000000000000E+00
 0.0000000000000E+00
 0.0000000000000E+00
 0.0000000000000E+00
 0.0000000000000E+00
 0.0000000000000E+00
 0.0000000000000E+00
 0.0000000000000E+00
 0.0000000000000E+00
 0.0000000000000E+00
 0.0000000000000E+00
 0.0000000000000E+00
 0.0000000000000E+00
 0.0000000000000E+00
 0.0000000000000E+00
 0.0000000000000E+00
 0.0000000000000E+00
 0.0000000000000E+00
 0.0000000000000E+00
 0.0000000000000E+00
 0.0000000000000E+00
 0.0000000000000E+00
 0.0000000000000E+00
 0.0000000000000E+00
 0.0000000000000E+00
 0.0000000000000E+00
 0.0000000000000E+00
 0.0000000000000E+00
 0.0000000000000E+00
 0.0000000000000E+00
 0.0000000000000E+00
 0.0000000000000E+00
 0.0000000000000E+00
 0.0000000000000E+00
 0.0000000000000E+00
 0.0000000000000E+00
 0.0000000000000E+00
 0.0000000000000E+00
 0.0000000000000E+00
 0.0000000000000E+00
 0.0000000000000E+00
 0.0000000000000E+00
 0.0000000000000E+00
 0.0000000000000E+00
 0.0000000000000E+00
 0.0000000000000E+00
 0.0000000000000E+00
 0.0000000000000E+00
 0.0000000000000E+00
 0.0000000000000E+00
 0.0000000000000E+00
 0.0000000000000E+00
 0.0000000000000E+00
 0.0000000000000E+00
 0.0000000000000E+00
 0.0000000000000E+00
 0.0000000000000E+00
 0.0000000000000E+00
 0.0000000000000E+00
 0.0000000000000E+00
 0.0000000000000E+00
 0.0000000000000E+00
 0.0000000000000E+00
 0.0000000000000E+00
 0.0000000000000E+00
 0.0000000000000E+00
 0.0000000000000E+00
 0.0000000000000E+00
 0.0000000000000E+00
 0.0000000000000E+00
 0.0000000000000E+00
 0.0000000000000E+00
 0.0000000000000E+00
 0.0000000000000E+00
 0.0000000000000E+00
 0.0000000000000E+00
 0.0000000000000E+00
 0.0000000000000E+00
 0.0000000000000E+00
 0.0000000000000E+00
 0.0000000000000E+00
 0.0000000000000E+00
 0.0000000000000E+00
 0.0000000000000E+00
 0.0000000000000E+00
 0.0000000000000E+00
 0.0000000000000E+00
 0.0000000000000E+00
 0.0000000000000E+00
 0.0000000000000E+00
 0.0000000000000E+00
 0.0000000000000E+00
 0.0000000000000E+00
 0.0000000000000E+00
 0.0000000000000E+00
 0.0000000000000E+00
 0.0000000000000E+00
 0.0000000000000E+00
 0.0000000000000E+00
 0.0000000000000E+00
 0.0000000000000E+00
 0.0000000000000E+00
 0.0000000000000E+00
 0.0000000000000E+00
 0.0000000000000E+00
 0.0000000000000E+00
 0.0000000000000E+00
 0.0000000000000E+00
 0.0000000000000E+00
 0.0000000000000E+00
 0.0000000000000E+00
 0.0000000000000E+00
 0.0000000000000E+00
 0.0000000000000E+00
 0.0000000000000E+00
 0.0000000000000E+00
 0.0000000000000E+00
 0.0000000000000E+00
 0.0000000000000E+00
 0.0000000000000E+00
 0.0000000000000E+00
 0.0000000000000E+00
 0.0000000000000E+00
 0.0000000000000E+00
 0.0000000000000E+00
 0.0000000000000E+00
 0.0000000000000E+00
 0.0000000000000E+00
 0.0000000000000E+00
 0.0000000000000E+00
 0.0000000000000E+00
 0.0000000000000E+00
 0.0000000000000E+00
 0.0000000000000E+00
 0.0000000000000E+00
 0.0000000000000E+00
 0.0000000000000E+00
 0.0000000000000E+00
 0.0000000000000E+00
 0.0000000000000E+00
 0.0000000000000E+00
 0.0000000000000E+00
 0.0000000000000E+00
 0.0000000000000E+00
 0.0000000000000E+00
 0.0000000000000E+00
 0.0000000000000E+00
 0.0000000000000E+00
 0.0000000000000E+00
 0.0000000000000E+00
 0.0000000000000E+00
 0.0000000000000E+00
 0.0000000000000E+00
 0.0000000000000E+00
 0.0000000000000E+00
 0.0000000000000E+00
 0.0000000000000E+00
 0.0000000000000E+00
 0.0000000000000E+00
 0.0000000000000E+00
 0.0000000000000E+00
 0.0000000000000E+00
 0.0000000000000E+00
 0.0000000000000E+00
 0.0000000000000E+00
 0.0000000000000E+00
 0.0000000000000E+00
 0.0000000000000E+00
 0.0000000000000E+00
 0.0000000000000E+00
 0.0000000000000E+00
 0.0000000000000E+00
 0.0000000000000E+00
 0.0000000000000E+00
 0.0000000000000E+00
 0.0000000000000E+00
 0.0000000000000E+00
 0.0000000000000E+00
 0.0000000000000E+00
 0.0000000000000E+00
 0.0000000000000E+00
 0.0000000000000E+00
 0.0000000000000E+00
 0.0000000000000E+00
 0.0000000000000E+00
 0.0000000000000E+00
 0.0000000000000E+00
 0.0000000000000E+00
 0.0000000000000E+00
 0.0000000000000E+00
 0.0000000000000E+00
 0.0000000000000E+00
 0.0000000000000E+00
 0.0000000000000E+00
 0.0000000000000E+00
 0.0000000000000E+00
 0.0000000000000E+00
 0.0000000000000E+00
 0.0000000000000E+00
 0.0000000000000E+00
 0.0000000000000E+00
 0.0000000000000E+00
 0.0000000000000E+00
 0.0000000000000E+00
 0.0000000000000E+00
 0.0000000000000E+00
 0.0000000000000E+00
 0.0000000000000E+00
 0.0000000000000E+00
 0.0000000000000E+00
 0.0000000000000E+00
 0.0000000000000E+00
 0.0000000000000E+00
 0.0000000000000E+00
 0.0000000000000E+00
 0.0000000000000E+00
 0.0000000000000E+00
 0.0000000000000E+00
 0.0000000000000E+00
 0.0000000000000E+00
 0.0000000000000E+00
 0.0000000000000E+00
 0.0000000000000E+00
 0.0000000000000E+00
 0.0000000000000E+00
 0.0000000000000E+00
 0.0000000000000E+00
 0.0000000000000E+00
 0.0000000000000E+00
 0.0000000000000E+00
 0.0000000000000E+00
 0.0000000000000E+00
 0.0000000000000E+00
 0.0000000000000E+00
 0.0000000000000E+00
 0.0000000000000E+00
 0.0000000000000E+00
 0.0000000000000E+00
 0.0000000000000E+00
 0.0000000000000E+00
 0.0000000000000E+00
 0.0000000000000E+00
 0.0000000000000E+00
 0.0000000000000E+00
 0.0000000000000E+00
 0.0000000000000E+00
 0.0000000000000E+00
 0.0000000000000E+00
 0.0000000000000E+00
 0.0000000000000E+00
 0.0000000000000E+00
 0.0000000000000E+00
 0.0000000000000E+00
 0.0000000000000E+00
 0.0000000000000E+00
 0.0000000000000E+00
 0.0000000000000E+00
 0.0000000000000E+00
 0.0000000000000E+00
 0.0000000000000E+00
 0.0000000000000E+00
 0.0000000000000E+00
 0.0000000000000E+00
 0.0000000000000E+00
 0.0000000000000E+00
 0.0000000000000E+00
 0.0000000000000E+00
 0.0000000000000E+00
 0.0000000000000E+00
 0.0000000000000E+00
 0.0000000000000E+00
 0.0000000000000E+00
 0.0000000000000E+00
 0.0000000000000E+00
 0.0000000000000E+00
 0.0000000000000E+00
 0.0000000000000E+00
 0.0000000000000E+00
 0.0000000000000E+00
 0.0000000000000E+00
 0.0000000000000E+00
 0.0000000000000E+00
 0.0000000000000E+00
 0.0000000000000E+00
 0.0000000000000E+00
 0.0000000000000E+00
 0.0000000000000E+00
 0.0000000000000E+00
 0.0000000000000E+00
 0.0000000000000E+00
 0.0000000000000E+00
 0.0000000000000E+00
 0.0000000000000E+00
 0.0000000000000E+00
 0.0000000000000E+00
 0.0000000000000E+00
 0.0000000000000E+00
 0.0000000000000E+00
 0.0000000000000E+00
 0.0000000000000E+00
 0.0000000000000E+00
 0.0000000000000E+00
 0.0000000000000E+00
 0.0000000000000E+00
 0.0000000000000E+00
 0.0000000000000E+00
 0.0000000000000E+00
 0.0000000000000E+00
 0.0000000000000E+00
 0.0000000000000E+00
 0.0000000000000E+00
 0.0000000000000E+00
 0.0000000000000E+00
 0.0000000000000E+00
 0.0000000000000E+00
 0.0000000000000E+00
 0.0000000000000E+00
 0.0000000000000E+00
 0.0000000000000E+00
 0.0000000000000E+00
 0.0000000000000E+00
 0.0000000000000E+00
 0.0000000000000E+00
 0.0000000000000E+00
 0.0000000000000E+00
 0.0000000000000E+00
 0.0000000000000E+00
 0.0000000000000E+00
 0.0000000000000E+00
 0.0000000000000E+00
 0.0000000000000E+00
 0.0000000000000E+00
 0.0000000000000E+00
 0.0000000000000E+00
 0.0000000000000E+00
 0.0000000000000E+00
 0.0000000000000E+00
 0.0000000000000E+00
 0.0000000000000E+00
 0.0000000000000E+00
 0.0000000000000E+00
 0.0000000000000E+00
 0.0000000000000E+00
 0.0000000000000E+00
 0.0000000000000E+00
 0.0000000000000E+00
 0.0000000000000E+00
 0.0000000000000E+00
 0.0000000000000E+00
 0.0000000000000E+00
 0.0000000000000E+00
 0.0000000000000E+00
 0.0000000000000E+00
 0.0000000000000E+00
 0.0000000000000E+00
 0.0000000000000E+00
 0.0000000000000E+00
 0.0000000000000E+00
 0.0000000000000E+00
 0.0000000000000E+00
 0.0000000000000E+00
 0.0000000000000E+00
 0.0000000000000E+00
 0.0000000000000E+00
 0.0000000000000E+00
 0.0000000000000E+00
 0.0000000000000E+00
 0.0000000000000E+00
 0.0000000000000E+00
 0.0000000000000E+00
 0.0000000000000E+00
 0.0000000000000E+00
 0.0000000000000E+00
 0.0000000000000E+00
 0.0000000000000E+00
 0.0000000000000E+00
 0.0000000000000E+00
 0.0000000000000E+00
 0.0000000000000E+00
 0.0000000000000E+00
 0.0000000000000E+00
 0.0000000000000E+00
 0.0000000000000E+00
 0.0000000000000E+00
 0.0000000000000E+00
 0.0000000000000E+00
 0.0000000000000E+00
 0.0000000000000E+00
 0.0000000000000E+00
 0.0000000000000E+00
 0.0000000000000E+00
 0.0000000000000E+00
 0.0000000000000E+00
 0.0000000000000E+00
 0.0000000000000E+00
 0.0000000000000E+00
 0.0000000000000E+00
 0.0000000000000E+00
 0.0000000000000E+00
 0.0000000000000E+00
 0.0000000000000E+00
 0.0000000000000E+00
 0.0000000000000E+00
 0.0000000000000E+00
 0.0000000000000E+00
 0.0000000000000E+00
 0.0000000000000E+00
 0.0000000000000E+00
 0.0000000000000E+00
 0.0000000000000E+00
 0.0000000000000E+00
 0.0000000000000E+00
 0.0000000000000E+00
 0.0000000000000E+00
 0.0000000000000E+00
 0.0000000000000E+00
 0.0000000000000E+00
 0.0000000000000E+00
 0.0000000000000E+00
 0.0000000000000E+00
 0.0000000000000E+00
 0.0000000000000E+00
 0.0000000000000E+00
 0.0000000000000E+00
 0.0000000000000E+00
 0.0000000000000E+00
 0.0000000000000E+00
 0.0000000000000E+00
 0.0000000000000E+00
 0.0000000000000E+00
 0.0000000000000E+00
 0.0000000000000E+00
 0.0000000000000E+00
 0.0000000000000E+00
 0.0000000000000E+00
 0.0000000000000E+00
 0.0000000000000E+00
 0.0000000000000E+00
 0.0000000000000E+00
 0.0000000000000E+00
 0.0000000000000E+00
 0.0000000000000E+00
 0.0000000000000E+00
 0.0000000000000E+00
 0.0000000000000E+00
 0.0000000000000E+00
 0.0000000000000E+00
 0.0000000000000E+00
 0.0000000000000E+00
 0.0000000000000E+00
 0.0000000000000E+00
 0.0000000000000E+00
 0.0000000000000E+00
 0.0000000000000E+00
 0.0000000000000E+00
 0.0000000000000E+00
 0.0000000000000E+00
 0.0000000000000E+00
 0.0000000000000E+00
 0.0000000000000E+00
 0.0000000000000E+00
 0.0000000000000E+00
 0.0000000000000E+00
 0.0000000000000E+00
 0.0000000000000E+00
 0.0000000000000E+00
 0.0000000000000E+00
 0.0000000000000E+00
 0.0000000000000E+00
 0.0000000000000E+00
 0.0000000000000E+00
 0.0000000000000E+00
 0.0000000000000E+00
 0.0000000000000E+00
 0.0000000000000E+00
 0.0000000000000E+00
 0.0000000000000E+00
 0.0000000000000E+00
 0.0000000000000E+00
 0.0000000000000E+00
 0.0000000000000E+00
 0.0000000000000E+00
 0.0000000000000E+00
 0.0000000000000E+00
 0.0000000000000E+00
 0.0000000000000E+00
 0.0000000000000E+00
 0.0000000000000E+00
 0.0000000000000E+00
 0.0000000000000E+00
 0.0000000000000E+00
 0.0000000000000E+00
 0.0000000000000E+00
 0.0000000000000E+00
 0.0000000000000E+00
 0.0000000000000E+00
 0.0000000000000E+00
 0.0000000000000E+00
 0.0000000000000E+00
 0.0000000000000E+00
 0.0000000000000E+00
 0.0000000000000E+00
 0.0000000000000E+00
 0.0000000000000E+00
 0.0000000000000E+00
 0.0000000000000E+00
 0.0000000000000E+00
 0.0000000000000E+00
 0.0000000000000E+00
 0.0000000000000E+00
 0.0000000000000E+00
 0.0000000000000E+00
 0.0000000000000E+00
 0.0000000000000E+00
 0.0000000000000E+00
 0.0000000000000E+00
 0.0000000000000E+00
 0.0000000000000E+00
 0.0000000000000E+00
 0.0000000000000E+00
 0.0000000000000E+00
 0.0000000000000E+00
 0.0000000000000E+00
 0.0000000000000E+00
 0.0000000000000E+00
 0.0000000000000E+00
 0.0000000000000E+00
 0.0000000000000E+00
 0.0000000000000E+00
 0.0000000000000E+00
 0.0000000000000E+00
 0.0000000000000E+00
 0.0000000000000E+00
 0.0000000000000E+00
 0.0000000000000E+00
 0.0000000000000E+00
 0.0000000000000E+00
 0.0000000000000E+00
 0.0000000000000E+00
 0.0000000000000E+00
 0.0000000000000E+00
 0.0000000000000E+00
 0.0000000000000E+00
 0.0000000000000E+00
 0.0000000000000E+00
 0.0000000000000E+00
 0.0000000000000E+00
 0.0000000000000E+00
 0.0000000000000E+00
 0.0000000000000E+00
 0.0000000000000E+00
 0.0000000000000E+00
 0.0000000000000E+00
 0.0000000000000E+00
 0.0000000000000E+00
 0.0000000000000E+00
 0.0000000000000E+00
 0.0000000000000E+00
 0.0000000000000E+00
 0.0000000000000E+00
 0.0000000000000E+00
 0.0000000000000E+00
 0.0000000000000E+00
 0.0000000000000E+00
 0.0000000000000E+00
 0.0000000000000E+00
 0.0000000000000E+00
 0.0000000000000E+00
 0.0000000000000E+00
 0.0000000000000E+00
 0.0000000000000E+00
 0.0000000000000E+00
 0.0000000000000E+00
 0.0000000000000E+00
 0.0000000000000E+00
 0.0000000000000E+00
 0.0000000000000E+00
 0.0000000000000E+00
 0.0000000000000E+00
 0.0000000000000E+00
 0.0000000000000E+00
 0.0000000000000E+00
 0.0000000000000E+00
 0.0000000000000E+00
 0.0000000000000E+00
 0.0000000000000E+00
 0.0000000000000E+00
 0.0000000000000E+00
 0.0000000000000E+00
 0.0000000000000E+00
 0.0000000000000E+00
 0.0000000000000E+00
 0.0000000000000E+00
 0.0000000000000E+00
 0.0000000000000E+00
 0.0000000000000E+00
 0.0000000000000E+00
 0.0000000000000E+00
 0.0000000000000E+00
 0.0000000000000E+00
 0.0000000000000E+00
 0.0000000000000E+00
 0.0000000000000E+00
 0.0000000000000E+00
 0.0000000000000E+00
 0.0000000000000E+00
 0.0000000000000E+00
 0.0000000000000E+00
 0.0000000000000E+00
 0.0000000000000E+00
 0.0000000000000E+00
 0.0000000000000E+00
 0.0000000000000E+00
 0.0000000000000E+00
 0.0000000000000E+00
 0.0000000000000E+00
 0.0000000000000E+00
 0.0000000000000E+00
 0.0000000000000E+00
 0.0000000000000E+00
 0.0000000000000E+00
 0.0000000000000E+00
 0.0000000000000E+00
 0.0000000000000E+00
 0.0000000000000E+00
 0.0000000000000E+00
 0.0000000000000E+00
 0.0000000000000E+00
 0.0000000000000E+00
 0.0000000000000E+00
 0.0000000000000E+00
 0.0000000000000E+00
 0.0000000000000E+00
</DataArray>
<DataArray type="Int32" Name="Region" format="ascii">
           1
           1
           1
           1
           1
           1
           1
           1
           1
           1
           1
           1
           1
           1
           1
           1
           1
           1
           1
           1
           1
           1
           1
           1
           1
           1
           1
           1
           1
           1
           1
           1
           1
           1
           1
           1
           1
           1
           1
           1
           1
           1
           1
           1
           1
           1
           1
           1
           1
           1
           1
           1
           1
           1
           1
           1
           1
           1
           1
           1
           1
           1
           1
           1
           1
           1
           1
           1
           1
           1
           1
           1
           1
           1
           1
           1
           1
           1
           1
           1
           1
           1
           1
           1
           1
           1
           1
           1
           1
           1
           1
           1
           1
           1
           1
           1
           1
           1
           1
           1
           1
           1
           1
           1
           1
           1
           1
           1
           1
           1
           1
           1
           1
           1
           1
           1
           1
           1
           1
           1
           1
           1
           1
           1
           1
           1
           1
           1
           1
           1
           1
           1
           1
           1
           1
           1
           1
           1
           1
           1
           1
           1
           1
           1
           1
           1
           1
           1
           1
           1
           1
           1
           1
           1
           1
           1
           1
           1
           1
           1
           1
           1
           1
           1
           1
           1
           1
           1
           1
           1
           1
           1
           1
           1
           1
           1
           1
           1
           1
           1
           1
           1
           1
           1
           1
           1
           1
           1
           1
           1
           1
           1
           1
           1
           1
           1
           1
           1
           1
           1
           1
           1
           1
           1
           1
           1
           1
           1
           1
           1
           1
           1
           1
           1
           1
           1
           1
           1
           1
           1
           1
           1
           1
           1
           1
           1
           1
           1
           1
           1
           1
           1
           1
           1
           1
           1
           1
           1
           1
           1
           1
           1
           1
           1
           1
           1
           1
           1
           1
           1
           1
           1
           1
           1
           1
           1
           1
           1
           1
           1
           1
           1
           1
           1
           1
           1
           1
           1
           1
           1
           1
           1
           1
           1
           1
           1
           1
           1
           1
           1
           1
           1
           1
           1
           1
           1
           1
           1
           1
           1
           1
           1
           1
           1
           1
           1
           1
           1
           1
           1
           1
           1
           1
           1
           1
           1
           1
           1
           1
           1
           1
           1
           1
           1
           1
           1
           1
           1
           1
           1
           1
           1
           1
           1
           1
           1
           1
           1
           1
           1
           1
           1
           1
           1
           1
           1
           1
           1
           1
           1
           1
           1
           1
           1
           1
           1
           1
           1
           1
           1
           1
           1
           1
           1
           1
           1
           1
           1
           1
           1
           1
           1
           1
           1
           1
           1
           1
           1
           1
           1
           1
           1
           1
           1
           1
           1
           1
           1
           1
           1
           1
           1
           1
           1
           1
           1
           1
           1
           1
           1
           1
           1
           1
           1
           1
           1
           1
           1
           1
           1
           1
           1
           1
           1
           1
           1
           1
           1
           1
           1
           1
           1
           1
           1
           1
           1
           1
           1
           1
           1
           1
           1
           1
           1
           1
           1
           1
           1
           1
           1
           1
           1
           1
           1
           1
           1
           1
           1
           1
           1
           1
           1
           1
           1
           1
           1
           1
           1
           1
           1
           1
           1
           1
           1
           1
           1
           1
           1
           1
           1
           1
           1
           1
           1
           1
           1
           1
           1
           1
           1
           1
           1
           1
           1
           1
           1
           1
           1
           1
           1
           1
           1
           1
           1
           1
           1
           1
           1
           1
           1
           1
           1
           1
           1
           1
           1
           1
           1
           1
           1
           1
           1
           1
           1
           1
           1
           1
           1
           1
           1
           1
           1
           1
           1
           1
           1
           1
           1
           1
           1
           1
           1
           1
           1
           1
           1
           1
           1
           1
           1
           1
           1
           1
           1
           1
           1
           1
           1
           1
           1
           1
           1
           1
           1
           1
           1
           1
           1
           1
           1
           1
           1
           1
           1
           1
           1
           1
           1
           1
           1
           1
           1
           1
           1
           1
           1
           1
           1
           1
           1
           1
           1
           1
           1
           1
           1
           1
           1
           1
           1
           1
           1
           1
           1
           1
           1
           1
           1
           1
           1
           1
           1
           1
           1
           1
           1
           1
           1
           1
           1
           1
           1
           1
           1
           1
           1
           1
           1
           1
           1
           1
           1
           1
           1
           1
           1
           1
           1
           1
           1
           1
           1
           1
           1
           1
           1
           1
           1
           1
           1
           1
           1
           1
           1
           1
           1
           1
           1
           1
           1
           1
           1
           1
           1
           1
           1
           1
           1
           1
           1
           1
           1
           1
           1
           1
           1
           1
           1
           1
           1
           1
           1
           1
           1
           1
           1
           1
           1
           1
           1
           1
           1
           1
           1
           1
           1
           1
           1
           1
           1
           1
           1
           1
           1
           1
           1
           1
           1
           1
           1
           1
           1
           1
           1
           1
           1
           1
           1
           1
           1
           1
           1
           1
           1
           1
           1
           1
           1
           1
           1
           1
           1
           1
           1
           1
           1
           1
           1
           1
           1
           1
           1
           1
           1
           1
           1
           1
           1
           1
           1
           1
           1
           1
           1
           1
           1
           1
           1
           1
           1
           1
           1
           1
           1
           1
           1
           1
           1
           1
           1
           1
           1
           1
           1
           1
           1
           1
           1
           1
           1
           1
           1
           1
           1
           1
           1
           1
           1
           1
           1
           1
           1
           1
           1
           1
           1
           1
           1
           1
           1
           1
           1
           1
           1
           1
           1
           1
           1
           1
           1
           1
           1
           1
           1
           1
           1
           1
           1
           1
           1
           1
           1
           1
           1
           1
           1
           1
           1
           1
           1
           1
           1
           1
           1
           1
           1
           1
           1
           1
           1
           1
           1
           1
           1
           1
           1
           1
           1
           1
           1
           1
           1
           1
           1
           1
           1
           1
           1
           1
           1
           1
           1
           1
           1
           1
           1
           1
           1
           1
           1
           1
           1
           1
           1
           1
           1
           1
           1
           1
           1
           1
           1
           1
           1
           1
           1
           1
           1
           1
           1
           1
           1
           1
           1
           1
           1
           1
           1
           1
           1
           1
           1
           1
           1
           1
           1
           1
           1
           1
           1
           1
           1
           1
           1
           1
           1
           1
           1
           1
           1
           1
           1
           1
           1
           1
           1
           1
           1
           1
           1
           1
           1
           1
           1
           1
           1
           1
           1
           1
           1
           1
           1
           1
           1
           1
           1
           1
           1
           1
           1
           1
           1
           1
           1
           1
           1
           1
           1
           1
           1
           1
           1
           1
           1
           1
           1
           1
           1
           1
           1
           1
           1
           1
           1
           1
           1
           1
           1
           1
           1
           1
           1
           1
           1
           1
           1
           1
           1
           1
           1
           1
           1
           1
           1
           1
           1
           1
           1
           1
           1
           1
           1
           1
           1
           1
           1
           1
           1
           1
           1
           1
           1
           1
           1
           1
           1
           1
           1
           1
           1
           1
           1
           1
           1
           1
           1
           1
           1
           1
           1
           1
           1
           1
           1
           1
           1
           1
           1
           1
           1
           1
           1
           1
           1
           1
           1
           1
           1
           1
           1
           1
           1
           1
           1
           1
           1
           1
           1
           1
           1
           1
           1
           1
           1
           1
           1
           1
           1
           1
           1
           1
           1
           1
           1
           1
           1
           1
           1
           1
           1
           1
           1
           1
           1
           1
           1
           1
           1
           1
           1
           1
           1
           1
           1
           1
           1
           1
           1
           1
           1
           1
           1
           1
           1
           1
           1
           1
           1
           1
           1
           1
           1
           1
           1
           1
           1
           1
           1
           1
           1
           1
           1
           1
           1
           1
           1
           1
           1
           1
           1
           1
           1
           1
           1
           1
           1
           1
           1
           1
           1
           1
           1
           1
           1
           1
           1
           1
           1
           1
           1
           1
           1
           1
           1
           1
           1
           1
           1
           1
           1
           1
           1
           1
           1
           1
           1
           1
           1
           1
           1
           1
           1
           1
           1
           1
           1
           1
           1
           1
           1
           1
           1
           1
           1
           1
           1
           1
           1
           1
           1
           1
           1
           1
           1
           1
           1
           1
           1
           1
           1
           1
           1
           1
           1
           1
           1
           1
           1
           1
           1
           1
           1
           1
           1
           1
           1
           1
           1
           1
           1
           1
           1
           1
           1
           1
           1
           1
           1
           1
           1
           1
           1
           1
           1
           1
           1
           1
           1
           1
           1
           1
           1
           1
           1
           1
           1
           1
           1
           1
           1
           1
           1
           1
           1
           1
           1
           1
           1
           1
           1
           1
           1
           1
           1
           1
           1
           1
           1
           1
           1
           1
           1
           1
           1
           1
           1
           1
           1
           1
           1
           1
           1
           1
           1
           1
           1
           1
           1
           1
           1
           1
           1
           1
           1
           1
           1
           1
           1
           1
           1
           1
           1
           1
           1
           1
           1
           1
           1
           1
           1
           1
           1
           1
           1
           1
           1
           1
           1
           1
           1
           1
           1
           1
           1
           1
           1
           1
           1
           1
           1
           1
           1
           1
           1
           1
           1
           1
           1
           1
           1
           1
           1
           1
           1
           1
           1
           1
           1
           1
           1
           1
           1
           1
           1
           1
           1
           1
           1
           1
           1
           1
           1
           1
           1
           1
           1
           1
           1
           1
           1
           1
           1
           1
           1
           1
           1
           1
           1
           1
           1
           1
           1
           1
           1
           1
           1
           1
           1
           1
           1
           1
           1
           1
           1
           1
           1
           1
           1
           1
           1
           1
           1
           1
           1
           1
           1
           1
           1
           1
           1
           1
           1
           1
           1
           1
           1
           1
           1
           1
           1
           1
           1
           1
           1
           1
           1
           1
           1
           1
           1
           1
           1
           1
           1
           1
           1
           1
           1
           1
           1
           1
           1
           1
           1
           1
           1
           1
           1
           1
           1
           1
           1
           1
           1
           1
           1
           1
           1
           1
           1
           1
           1
           1
           1
           1
           1
           1
           1
           1
           1
           1
           1
           1
           1
           1
           1
           1
           1
           1
           1
           1
           1
           1
           1
           1
           1
           1
           1
           1
           1
           1
           1
           1
           1
           1
           1
           1
           1
           1
           1
           1
           1
           1
           1
           1
           1
           1
           1
           1
           1
           1
           1
           1
           1
           1
           1
           1
           1
           1
           1
           1
           1
           1
           1
           1
           1
           1
           1
           1
           1
           1
           1
           1
           1
           1
           1
           1
           1
           1
           1
           1
           1
           1
           1
           1
           1
           1
           1
           1
           1
           1
           1
           1
           1
           1
           1
           1
           1
           1
           1
           1
           1
           1
           1
           1
           1
           1
           1
           1
           1
           1
           1
           1
           1
           1
           1
           1
           1
           1
           1
           1
           1
           1
           1
           1
           1
           1
           1
           1
           1
           1
           1
           1
           1
           1
           1
           1
           1
           1
           1
           1
           1
           1
           1
           1
           1
           1
           1
           1
           1
           1
           1
           1
           1
           1
           1
           1
           1
           1
           1
           1
           1
           1
           1
           1
           1
           1
           1
           1
           1
           1
           1
           1
           1
           1
           1
           1
           1
           1
           1
           1
           1
           1
           1
           1
           1
           1
           1
           1
           1
           1
           1
           1
           1
           1
           1
           1
           1
           1
           1
           1
           1
           1
           1
           1
           1
           1
           1
           1
           1
           1
           1
           1
           1
           1
           1
           1
           1
           1
           1
           1
           1
           1
           1
           1
           1
           1
           1
           1
           1
           1
           1
           1
           1
           1
           1
           1
           1
           1
           1
           1
           1
           1
           1
           1
           1
           1
           1
           1
           1
           1
           1
           1
           1
           1
           1
           1
           1
           1
           1
           1
           1
           1
           1
           1
           1
           1
           1
           1
           1
           1
           1
           1
           1
           1
           1
           1
           1
           1
           1
           1
           1
           1
           1
           1
           1
           1
           1
           1
           1
           1
           1
           1
           1
           1
           1
           1
           1
           1
           1
           1
           1
           1
           1
           1
           1
           1
           1
           1
           1
           1
           1
           1
           1
           1
           1
           1
           1
           1
           1
           1
           1
           1
           1
           1
           1
           1
           1
           1
           1
           1
           1
           1
           1
           1
           1
           1
           1
           1
           1
           1
           1
           1
           1
           1
           1
           1
           1
           1
           1
           1
           1
           1
           1
           1
           1
           1
           1
           1
           1
           1
           1
           1
           1
           1
           1
           1
           1
           1
           1
           1
           1
           1
           1
           1
           1
           1
           1
           1
           1
           1
           1
           1
           1
           1
           1
           1
           1
           1
           1
           1
           1
           1
           1
           1
           1
           1
           1
           1
           1
           1
           1
           1
           1
           1
           1
           1
           1
           1
           1
           1
           1
           1
           1
           1
           1
           1
           1
           1
           1
           1
           1
           1
           1
           1
           1
           1
           1
           1
           1
           1
           1
           1
           1
           1
           1
           1
           1
           1
           1
           1
           1
           1
           1
           1
           1
           1
           1
           1
           1
           1
           1
           1
           1
           1
           1
           1
           1
           1
           1
           1
           1
           1
           1
           1
           1
           1
           1
           1
           1
           1
           1
           1
           1
           1
           1
           1
           1
           1
           1
           1
           1
           1
           1
           1
           1
           1
           1
           1
           1
           1
           1
           1
           1
           1
           1
           1
           1
           1
           1
           1
           1
           1
           1
           1
           1
           1
           1
           1
           1
           1
           1
           1
           1
           1
           1
           1
           1
           1
           1
           1
           1
           1
           1
           1
           1
           1
           1
           1
           1
           1
           1
           1
           1
           1
           1
           1
           1
           1
           1
           1
           1
           1
           1
           1
           1
           1
           1
           1
           1
           1
           1
           1
           1
           1
           1
           1
           1
           1
           1
           1
           1
           1
           1
           1
           1
           1
           1
           1
           1
           1
           1
           1
           1
           1
           1
           1
           1
           1
           1
           1
           1
           1
           1
           1
           1
           1
           1
           1
           1
           1
           1
           1
           1
           1
           1
           1
           1
           1
           1
           1
           1
           1
           1
           1
           1
           1
           1
           1
           1
           1
           1
           1
           1
           1
           1
           1
           1
           1
           1
           1
           1
           1
           1
           1
           1
           1
           1
           1
           1
           1
           1
           1
           1
           1
           1
           1
           1
           1
           1
           1
           1
           1
           1
           1
           1
           1
           1
           1
           1
           1
           1
           1
           1
           1
           1
           1
           1
           1
           1
           1
           1
           1
           1
           1
           1
           1
           1
           1
           1
           1
           1
           1
           1
           1
           1
           1
           1
           1
           1
           1
           1
           1
           1
           1
           1
           1
           1
           1
           1
           1
           1
           1
           1
           1
           1
           1
           1
           1
           1
           1
           1
           1
           1
           1
           1
           1
           1
           1
           1
           1
           1
           1
           1
           1
           1
           1
           1
           1
           1
           1
           1
           1
           1
           1
           1
           1
           1
           1
           1
           1
           1
           1
           1
           1
           1
           1
           1
           1
           1
           1
           1
           1
           1
           1
           1
           1
           1
           1
           1
           1
           1
           1
           1
           1
           1
           1
           1
           1
           1
           1
           1
           1
           1
           1
           1
           1
           1
           1
           1
           1
           1
           1
           1
           1
           1
           1
           1
           1
           1
           1
           1
           1
           1
           1
           1
           1
           1
           1
           1
           1
           1
           1
           1
           1
           1
           1
           1
           1
           1
           1
           1
           1
           1
           1
           1
           1
           1
           1
           1
           1
           1
           1
           1
           1
           1
           1
           1
           1
           1
           1
           1
           1
           1
           1
           1
           1
           1
           1
           1
           1
           1
           1
           1
           1
           1
           1
           1
           1
           1
           1
           1
           1
           1
           1
           1
           1
           1
           1
           1
           1
           1
           1
           1
           1
           1
           1
           1
           1
           1
           1
           1
           1
           1
           1
           1
           1
           1
           1
           1
           1
           1
           1
           1
           1
           1
           1
           1
           1
           1
           1
           1
           1
           1
           1
           1
           1
           1
           1
           1
           1
           1
           1
           1
           1
           1
           1
           1
           1
           1
           1
           1
           1
           1
           1
           1
           1
           1
           1
           1
           1
           1
           1
           1
           1
           1
           1
           1
           1
           1
           1
           1
           1
           1
           1
           1
           1
           1
           1
           1
           1
           1
           1
           1
           1
           1
           1
           1
           1
           1
           1
           1
           1
           1
           1
           1
           1
           1
           1
           1
           1
           1
           1
           1
           1
           1
           1
           1
           1
           1
           1
           1
           1
           1
           1
           1
           1
           1
           1
           1
           1
           1
           1
           1
           1
           1
           1
           1
           1
           1
           1
           1
           1
           1
           1
           1
           1
           1
           1
           1
           1
           1
           1
           1
           1
           1
           1
           1
           1
           1
           1
           1
           1
           1
           1
           1
           1
           1
           1
           1
           1
           1
           1
           1
           1
           1
           1
           1
           1
           1
           1
           1
           1
           1
           1
           1
           1
           1
           1
           1
           1
           1
           1
           1
           1
           1
           1
           1
           1
           1
           1
           1
           1
           1
           1
           1
           1
           1
           1
           1
           1
           1
           1
           1
           1
           1
           1
           1
           1
           1
           1
           1
           1
           1
           1
           1
           1
           1
           1
           1
           1
           1
           1
           1
           1
           1
           1
           1
           1
           1
           1
           1
           1
           1
           1
           1
           1
           1
           1
           1
           1
           1
           1
           1
           1
           1
           1
           1
           1
           1
           1
           1
           1
           1
           1
           1
           1
           1
           1
           1
           1
           1
           1
           1
           1
           1
           1
           1
           1
           1
           1
           1
           1
           1
           1
           1
           1
           1
           1
           1
           1
           1
           1
           1
           1
           1
           1
           1
           1
           1
           1
           1
           1
           1
           1
           1
           1
           1
           1
           1
           1
           1
           1
           1
           1
           1
           1
           1
           1
           1
           1
           1
           1
           1
           1
           1
           1
           1
           1
           1
           1
           1
           1
           1
           1
           1
           1
           1
           1
           1
           1
           1
           1
           1
           1
           1
           1
           1
           1
           1
           1
           1
           1
           1
           1
           1
           1
           1
           1
           1
           1
           1
           1
           1
           1
           1
           1
           1
           1
           1
           1
           1
           1
           1
           1
           1
           1
           1
           1
           1
           1
           1
           1
           1
           1
           1
           1
           1
           1
           1
           1
           1
           1
           1
           1
           1
           1
           1
           1
           1
           1
           1
           1
           1
           1
           1
           1
           1
           1
           1
           1
           1
           1
           1
           1
           1
           1
           1
           1
           1
           1
           1
           1
           1
           1
           1
           1
           1
           1
           1
           1
           1
           1
           1
           1
           1
           1
           1
           1
           1
           1
           1
           1
           1
           1
           1
           1
           1
           1
           1
           1
           1
           1
           1
           1
           1
           1
           1
           1
           1
           1
           1
           1
           1
           1
           1
           1
           1
           1
           1
           1
           1
           1
           1
           1
           1
           1
           1
           1
           1
           1
           1
           1
           1
           1
           1
           1
           1
           1
           1
           1
           1
           1
           1
           1
           1
           1
           1
           1
           1
           1
           1
           1
           1
           1
           1
           1
           1
           1
           1
           1
           1
           1
           1
           1
           1
           1
           1
           1
           1
           1
           1
           1
           1
           1
           1
           1
           1
           1
           1
           1
           1
           1
           1
           1
           1
           1
           1
           1
           1
           1
           1
           1
           1
           1
           1
           1
           1
           1
           1
           1
           1
           1
           1
           1
           1
           1
           1
           1
           1
           1
           1
           1
           1
           1
           1
           1
           1
           1
           1
           1
           1
           1
           1
           1
           1
           1
           1
           1
           1
           1
           1
           1
           1
           1
           1
           1
           1
           1
           1
           1
           1
           1
           1
           1
           1
           1
           1
           1
           1
           1
           1
           1
           1
           1
           1
           1
           1
           1
           1
           1
           1
           1
           1
           1
           1
           1
           1
           1
           1
           1
           1
           1
           1
           1
           1
           1
           1
           1
           1
           1
           1
           1
           1
           1
           1
           1
           1
           1
           1
           1
           1
           1
           1
           1
           1
           1
           1
           1
           1
           1
           1
           1
           1
           1
           1
           1
           1
           1
           1
           1
           1
           1
           1
           1
           1
           1
           1
           1
           1
           1
           1
           1
           1
           1
           1
           1
           1
           1
           1
           1
           1
           1
           1
           1
           1
           1
           1
           1
           1
           1
           1
           1
           1
           1
           1
           1
           1
           1
           1
           1
           1
           1
           1
           1
           1
           1
           1
           1
           1
           1
           1
           1
           1
           1
           1
           1
           1
           1
           1
           1
           1
           1
           1
           1
           1
           1
           1
           1
           1
           1
           1
           1
           1
           1
           1
           1
           1
           1
           1
           1
           1
           1
           1
           1
           1
           1
           1
           1
           1
           1
           1
           1
           1
           1
           1
           1
           1
           1
           1
           1
           1
           1
           1
           1
           1
           1
           1
           1
           1
           1
           1
           1
           1
           1
           1
           1
           1
           1
           1
           1
           1
           1
           1
           1
           1
           1
           1
           1
           1
           1
           1
           1
           1
           1
           1
           1
           1
           1
           1
           1
           1
           1
           1
           1
           1
           1
           1
           1
           1
           1
           1
           1
           1
           1
           1
           1
           1
           1
           1
           1
           1
           1
           1
           1
           1
           1
           1
           1
           1
           1
           1
           1
           1
           1
           1
           1
           1
           1
           1
           1
           1
           1
           1
           1
           1
           1
           1
           1
           1
           1
           1
           1
           1
           1
           1
           1
           1
           1
           1
           1
           1
           1
           1
           1
           1
           1
           1
           1
           1
           1
           1
           1
           1
           1
           1
           1
           1
           1
           1
           1
           1
           1
           1
           1
           1
           1
           1
           1
           1
           1
           1
           1
           1
           1
           1
           1
           1
           1
           1
           1
           1
           1
           1
           1
           1
           1
           1
           1
           1
           1
           1
           1
           1
           1
           1
           1
           1
           1
           1
           1
           1
           1
           1
           1
           1
           1
           1
           1
           1
           1
           1
           1
           1
           1
           1
           1
           1
           1
           1
           1
           1
           1
           1
           1
           1
           1
           1
           1
           1
           1
           1
           1
           1
           1
           1
           1
           1
           1
           1
           1
           1
           1
           1
           1
           1
           1
           1
           1
           1
           1
           1
           1
           1
           1
           1
           1
           1
           1
           1
           1
           1
           1
           1
           1
           1
           1
           1
           1
           1
           1
           1
           1
           1
           1
           1
           1
           1
           1
           1
           2
           2
           2
           2
           2
           2
           2
           2
           2
           2
           2
           2
           2
           2
           2
           2
           2
           2
           2
           2
           2
           2
           2
           2
           2
           2
           2
           2
           2
           2
           2
           2
           2
           2
           2
           2
           2
           2
           2
           2
           2
           2
           2
           2
           2
           2
           2
           2
           2
           2
           2
           2
           2
           2
           2
           2
           2
           2
           2
           2
           2
           2
           2
           2
           2
           2
           2
           2
           2
           2
           2
           2
           2
           2
           2
           2
           2
           2
           2
           2
           2
           2
           2
           2
           2
           2
           2
           2
           2
           2
           2
           2
           2
           2
           2
           2
           2
           2
           2
           2
           2
           2
           2
           2
           2
           2
           2
           2
           2
           2
           2
           2
           2
           2
           2
           2
           2
           2
           2
           2
           2
           2
           2
           2
           2
           2
           2
           2
           2
           2
           2
           2
           2
           2
           2
           2
           2
           2
           2
           2
           2
           2
           2
           2
           2
           2
           2
           2
           2
           2
           2
           2
           2
           2
           2
           2
           2
           2
           2
           2
           2
           2
           2
           2
           2
           2
           2
           2
           2
           2
           2
           2
           2
           2
           2
           2
           2
           2
           2
           2
           2
           2
           2
           2
           2
           2
           2
           2
           2
           2
           2
           2
           2
           2
           2
           2
           2
           2
           2
           2
           2
           2
           2
           2
           2
           2
           2
           2
           2
           2
           2
           2
           2
           2
           2
           2
           2
           2
           2
           2
           2
           2
           2
           2
           2
           2
           2
           2
           2
           2
           2
           2
           2
           2
           2
           2
           2
           2
           2
           2
           2
           2
           2
           2
           2
           2
           2
           2
           2
           2
           2
           2
           2
           2
           2
           2
           2
           2
           2
           2
           2
           2
           2
           2
           2
           2
           2
           2
           2
           2
           2
           2
           2
           2
           2
           2
           2
           2
           2
           2
           2
           2
           2
           2
           2
           2
           2
           2
           2
           2
           2
           2
           2
           2
           2
           2
           2
           2
           2
           2
           2
           2
           2
           2
           2
           2
           2
           2
           2
           2
           2
           2
           2
           2
           2
           2
           2
           2
           2
           2
           2
           2
           2
           2
           2
           2
           2
           2
           2
           2
           2
           2
           2
           2
           2
           2
           2
           2
           2
           2
           2
           2
           2
           2
           2
           2
           2
           2
           2
           2
           2
           2
           2
           2
           2
           2
           2
           2
           2
           2
           2
           2
           2
           2
           2
           2
           2
           2
           2
           2
           2
           2
           2
           2
           2
           2
           2
           2
           2
           2
           2
           2
           2
           2
           2
           2
           2
           2
           2
           2
           2
           2
           2
           2
           2
           2
           2
           2
           2
           2
           2
           2
           2
           2
           2
           2
           2
           2
           2
           2
           2
           2
           2
           2
           2
           2
           2
           2
           2
           2
           2
           2
           2
           2
           2
           2
           2
           2
           2
           2
           2
           2
           2
           2
           2
           2
           2
           2
           2
           2
           2
           2
           2
           2
           2
           2
           2
           2
           2
           2
           2
           2
           2
           2
           2
           2
           2
           2
           2
           2
           2
           2
           2
           2
           2
           2
           2
           2
           2
           2
           2
           2
           2
           2
           2
           2
           2
           2
           2
           2
           2
           2
           2
           2
           2
           2
           2
           2
           2
           2
           2
           2
           2
           2
           2
           2
           2
           2
           2
           2
           2
           2
           2
           2
           2
           2
           2
           2
           2
           2
           2
           2
           2
           2
           2
           2
           2
           2
           2
           2
           2
           2
           2
           2
           2
           2
           2
           2
           2
           2
           2
           2
           2
           2
           2
           2
           2
           2
           2
           2
           2
           2
           2
           2
           2
           2
           2
           2
           2
           2
           2
           2
           2
           2
           2
           2
           2
           2
           2
           2
           2
           2
           2
           2
           2
           2
           2
           2
           2
           2
           2
           2
           2
           2
           2
           2
           2
           2
           2
           2
           2
           2
           2
           2
           2
           2
           2
           2
           2
           2
           2
           2
           2
           2
           2
           2
           2
           2
           2
           2
           2
           2
           2
           2
           2
           2
           2
           2
           2
           2
           2
           2
           2
           2
           2
           2
           2
           2
           2
           2
           2
           2
           2
           2
           2
           2
           2
           2
           2
           2
           2
           2
           2
           2
           2
           2
           2
           2
           2
           2
           2
           2
           2
           2
           2
           2
           2
           2
           2
           2
           2
           2
           2
           2
           2
           2
           2
           2
           2
           2
           2
           2
           2
           2
           2
           2
           2
           2
           2
           2
           2
           2
           2
           2
           2
           2
           2
           2
           2
           2
           2
           2
           2
           2
           2
           2
           2
           2
           2
           2
           2
           2
           2
           2
           2
           2
           2
           2
           2
           2
           2
           2
           2
           2
           2
           2
           2
           2
           2
           2
           2
           2
           2
           2
           2
           2
           2
           2
           2
           2
           2
           2
           2
           2
           2
           2
           2
           2
           2
           2
           2
           2
           2
           2
           2
           2
           2
           2
           2
           2
           2
           2
           2
           2
           2
           2
           2
           2
           2
           2
           2
           2
           2
           2
           2
           2
           2
           2
           2
           2
           2
           2
           2
           2
           2
           2
           2
           2
           2
           2
           2
           2
           2
           2
           2
           2
           2
           2
           2
           2
           2
           2
           2
           2
           2
           2
           2
           2
           2
           2
           2
           2
           2
           2
           2
           2
           2
           2
           2
           2
           2
           2
           2
           2
           2
           2
           2
           2
           2
           2
           2
           2
           2
           2
           2
           2
           2
           2
           2
           2
           2
           2
           2
           2
           2
           2
           2
           2
           2
           2
           2
           2
           2
           2
           2
           2
           2
           2
           2
           2
           2
           2
           2
           2
           2
           2
           2
           2
           2
           2
           2
           2
           2
           2
           2
           2
           2
           2
           2
           2
           2
           2
           2
           2
           2
           2
           2
           2
           2
           2
           2
           2
           2
           2
           2
           2
           2
           2
           2
           2
           2
           2
           2
           2
           2
           2
           2
           2
           2
           2
           2
           2
           2
           2
           2
           2
           2
           2
           2
           2
           2
           2
           2
           2
           2
           2
           2
           2
           2
           2
           2
           2
           2
           2
           2
           2
           2
           2
           2
           2
           2
           2
           2
           2
           2
           2
           2
           2
           2
           2
           2
           2
           2
           2
           2
           2
           2
           2
           2
           2
           2
           2
           2
           2
           2
           2
           2
           2
           2
           2
           2
           2
           2
           2
           2
           2
           2
           2
           2
           2
           2
           2
           2
           2
           2
           2
           2
           2
           2
           2
           2
           2
           2
           2
           2
           2
           2
           2
           2
           2
           2
           2
           2
           2
           2
           2
           2
           2
           2
           2
           2
           2
           2
           2
           2
           2
           2
           2
           2
           2
           2
           2
           2
           2
           2
           2
           2
           2
           2
           2
           2
           2
           2
           2
           2
           2
           2
           2
           2
           2
           2
           2
           2
           2
           2
           2
           2
           2
           2
           2
           2
           2
           2
           2
           2
           2
           2
           2
           2
           2
           2
           2
           2
           2
           2
           2
           2
           2
           2
           2
           2
           2
           2
           2
           2
           2
           2
           2
           2
           2
           2
           2
           2
           2
           2
           2
           2
           2
           2
           2
           2
           2
           2
           2
           2
           2
           2
           2
           2
           2
           2
           2
           2
           2
           2
           2
           2
           2
           2
           2
           2
           2
           2
           2
           2
           2
           2
           2
           2
           2
           2
           2
           2
           2
           2
           2
           2
           2
           2
           2
           2
           2
           2
           2
           2
           2
           2
           2
           2
           2
           2
           2
           2
           2
           2
           2
           2
           2
           2
           2
           2
           2
           2
           2
           2
           2
           2
           2
           2
           2
           2
           2
           2
           2
           2
           2
           2
           2
           2
           2
           2
           2
           2
           2
           2
           2
           2
           2
           2
           2
           2
           2
           2
           2
           2
           2
           2
           2
           2
           2
           2
           2
           2
           2
           2
           2
           2
           2
           2
           2
           2
           2
           2
           2
           2
           2
           2
           2
           2
           2
           2
           2
           2
           2
           2
           2
           2
           2
           2
           2
           2
           2
           2
           2
           2
           2
           2
           2
           2
           2
           2
           2
           2
           2
           2
           2
           2
           2
           2
           2
           2
           2
           2
           2
           2
           2
           2
           2
           2
           2
           2
           2
           2
           2
           2
           2
           2
           2
           2
           2
           2
           2
           2
           2
           2
           2
           2
           2
           2
           2
           2
           2
           2
           2
           2
           2
           2
           2
           2
           2
           2
           2
           2
           2
           2
           2
           2
           2
           2
           2
           2
           2
           2
           2
           2
           2
           2
           2
           2
           2
           2
           2
           2
           2
           2
           2
           2
           2
           2
           2
           2
           2
           2
           2
           2
           2
           2
           2
           2
           2
           2
           2
           2
           2
           2
           2
           2
           2
           2
           2
           2
           2
           2
           2
           2
           2
           2
           2
           2
           2
           2
           2
           2
           2
           2
           2
           2
           2
           2
           2
           2
           2
           2
           2
           2
           2
           2
           2
           2
           2
           2
           2
           2
           2
           2
           2
           2
           2
           2
           2
           2
           2
           2
           2
           2
           2
           2
           2
           2
           2
           2
           2
           2
           2
           2
           2
           2
           2
           2
           2
           2
           2
           2
           2
           2
           2
           2
           2
           2
           2
           2
           2
           2
           2
           2
           2
           2
           2
           2
           2
           2
           2
           2
           2
           2
           2
           2
           2
           2
           2
           2
           2
           2
           2
           2
           2
           2
           2
           2
           2
           2
           2
           2
           2
           2
           2
           2
           2
           2
           2
           2
           2
           2
           2
           2
           2
           2
           2
           2
           2
           2
           2
           2
           2
           2
           2
           2
           2
           2
           2
           2
           2
           2
           2
           2
           2
           2
           2
           2
           2
           2
           2
           2
           2
           2
           2
           2
           2
           2
           2
           2
           2
           2
           2
           2
           2
           2
           2
           2
           2
           2
           2
           2
           2
           2
           2
           2
           2
           2
           2
           2
           2
           2
           2
           2
           2
           2
           2
           2
           2
           2
           2
           2
           2
           2
           2
           2
           2
           2
           2
           2
           2
           2
           2
           2
           2
           2
           2
           2
           2
           2
           2
           2
           2
           2
           2
           2
           2
           2
           2
           2
           2
           2
           2
           2
           2
           2
           2
           2
           2
           2
           2
           2
           2
           2
           2
           2
           2
           2
           2
           2
           2
           2
           2
           2
           2
           2
           2
           2
           2
           2
           2
           2
           2
           2
           2
           2
           2
           2
           2
           2
           2
           2
           2
           2
           2
           2
           2
           2
           2
           2
           2
           2
           2
           2
           2
           2
           2
           2
           2
           2
           2
           2
           2
           2
           2
           2
           2
           2
           2
           2
           2
           2
           2
           2
           2
           2
           2
           2
           2
           2
           2
           2
           2
           2
           2
           2
           2
           2
           2
           2
           2
           2
           2
           2
           2
           2
           2
           2
           2
           2
           2
           2
           2
           2
           2
           2
           2
           2
           2
           2
           2
           2
           2
           2
           2
           2
           2
           2
           2
           2
           2
           2
           2
           2
           2
           2
           2
           2
           2
           2
           2
           2
           2
           2
           2
           2
           2
           2
           2
           2
           2
           2
           2
           2
           2
           2
           2
           2
           2
           2
           2
           2
           2
           2
           2
           2
           2
           2
           2
           2
           2
           2
           2
           2
           2
           2
           2
           2
           2
           2
           2
           2
           2
           2
           2
           2
           2
           2
           2
           2
           2
           2
           2
           2
           2
           2
           2
           2
           2
           2
           2
           2
           2
           2
           2
           2
           2
           2
           2
           2
           2
           2
           2
           2
           2
           2
           2
           2
           2
           2
           2
           2
           2
           2
           2
           2
           2
           2
           2
           2
           2
           2
           2
           2
           2
           2
           2
           2
           2
           2
           2
           2
           2
           2
           2
           2
           2
           2
           2
           2
           2
           2
           2
           2
           2
           2
           2
           2
           2
           2
           2
           2
           2
           2
           2
           2
           2
           2
           2
           2
           2
           2
           2
           2
           2
           2
           2
           2
           2
           2
           2
           2
           2
           2
           2
           2
           2
           2
           2
           2
           2
           2
           2
           2
           2
           2
           2
           2
           2
           2
           2
           2
           2
           2
           2
           2
           2
           2
           2
           2
           2
           2
           2
           2
           2
           2
           2
           2
           2
           2
           2
           2
           2
           2
           2
           2
           2
           2
           2
           2
           2
           2
           2
           2
           2
           2
           2
           2
           2
           2
           2
           2
           2
           2
           2
           2
           2
           2
           2
           2
           2
           2
           2
           2
           2
           2
           2
           2
           2
           2
           2
           2
           2
           2
           2
           2
           2
           2
           2
           2
           2
           2
           2
           2
           2
           2
           2
           2
           2
           2
           2
           2
           2
           2
           2
           2
           2
           2
           2
           2
           2
           2
           2
           2
           2
           2
           2
           2
           2
           2
           2
           2
           2
           2
           2
           2
           2
           2
           2
           2
           2
           2
           2
           2
           2
           2
           2
           2
           2
           2
           2
           2
           2
           2
           2
           2
           2
           2
           2
           2
           2
           2
           2
           2
           2
           2
           2
           2
           2
           2
           2
           2
           2
           2
           2
           2
           2
           2
           2
           2
           2
           2
           2
           2
           2
           2
           2
           2
           2
           2
           2
           2
           2
           2
           2
           2
           2
           2
           2
           2
           2
           2
           2
           2
           2
           2
           2
           2
           2
           2
           2
           2
           2
           2
           2
           2
           2
           2
           2
           2
           2
           2
           2
           2
           2
           2
           2
           2
           2
           2
           2
           2
           2
           2
           2
           2
           2
           2
           2
           2
           2
           2
           2
           2
           2
           2
           2
           2
           2
           2
           2
           2
           2
           2
           2
           2
           2
           2
           2
           2
           2
           2
           2
           2
           2
           2
           2
           2
           2
           2
           2
           2
           2
           2
           2
           2
           2
           2
           2
           2
           2
           2
           2
           2
           2
           2
           2
           2
           2
           2
           2
           2
           2
           2
           2
           2
           2
           2
           2
           2
           2
           2
           2
           2
           2
           2
           2
           2
           2
           2
           2
           2
           2
           2
           2
           2
           2
           2
           2
           2
           2
           2
           2
           2
           2
           2
           2
           2
           2
           2
           2
           2
           2
           2
           2
           2
           2
           2
           2
           2
           2
           2
           2
           2
           2
           2
           2
           2
           2
           2
           2
           2
           2
           2
           2
           2
           2
           2
           2
           2
           2
           2
           2
           2
           2
           2
           2
           2
           2
           2
           2
           2
           2
           2
           2
           2
           2
           2
           2
           2
           2
           2
           2
           2
           2
           2
           2
           2
           2
           2
           2
           2
           2
           2
           2
           2
           2
           2
           2
           2
           2
           2
           2
           2
           2
           2
           2
           2
           2
           2
           2
           2
           2
           2
           2
           2
           2
           2
           2
           2
           2
           2
           2
           2
           2
           2
           2
           2
           2
           2
           2
           2
           2
           2
           2
           2
           2
           2
           2
           2
           2
           2
           2
           2
           2
           2
           2
           2
           2
           2
           2
           2
           2
           2
           2
           2
           2
           2
           2
           2
           2
           2
           2
           2
           2
           2
           2
           2
           2
           2
           2
           2
           2
           2
           2
           2
           2
           2
           2
           2
           2
           2
           2
           2
           2
           2
           2
           2
           2
           2
           2
           2
           2
           2
           2
           2
           2
           2
           2
           2
           2
           2
           2
           2
           2
           2
           2
           2
           2
           2
           2
           2
           2
           2
           2
           2
           2
           2
           2
           2
           2
           2
           2
           2
           2
           2
           2
           2
           2
           2
           2
           2
           2
           2
           2
           2
           2
           2
           2
           2
           2
           2
           2
           2
           2
           2
           2
           2
           2
           2
           2
           2
           2
           2
           2
           2
           2
           2
           2
           2
           2
           2
           2
           2
           2
           2
           2
           2
           2
           2
           2
           2
           2
           2
           2
           2
           2
           2
           2
           2
           2
           2
           2
           2
           2
           2
           2
           2
           2
           2
           2
           2
           2
           2
           2
           2
           2
           2
           2
           2
           2
           2
           2
           2
           2
           2
           2
           2
           2
           2
           2
           2
           2
           2
           2
           2
           2
           2
           2
</DataArray>
</CellData>
</Piece>
</UnstructuredGrid>
</VTKFile>
