<VTKFile type="UnstructuredGrid" version="1,0" byte_order="LittleEndian">
<UnstructuredGrid>
<Piece NumberOfPoints="1502" NumberOfCells="1440">
<Points>
<DataArray type="Float64" NumberOfComponents="3" format="ascii">
-0.1100000000000E+01 -0.4304044648606E+01  0.0000000000000E+00
 0.0000000000000E+00 -0.4304044648606E+01  0.0000000000000E+00
 0.1100000000000E+01 -0.4304044648606E+01  0.0000000000000E+00
-0.1426338184892E+01 -0.1495137730994E+01  0.0000000000000E+00
-0.7131690856113E+00 -0.1351817918288E+01  0.0000000000000E+00
 0.7131690992823E+00 -0.1351817920119E+01  0.0000000000000E+00
 0.1426338184892E+01 -0.1495137730994E+01  0.0000000000000E+00
-0.1297471036855E+01  0.8924645033579E+00  0.0000000000000E+00
 0.1297471037589E+01  0.8924645030013E+00  0.0000000000000E+00
-0.7500000000000E+00  0.3449934570704E+00  0.0000000000000E+00
 0.7500000000000E+00  0.3449934570704E+00  0.0000000000000E+00
-0.1045000000000E+01 -0.4304044648606E+01  0.0000000000000E+00
-0.9900000000000E+00 -0.4304044648606E+01  0.0000000000000E+00
-0.9350000000000E+00 -0.4304044648606E+01  0.0000000000000E+00
-0.8800000000000E+00 -0.4304044648606E+01  0.0000000000000E+00
-0.8250000000000E+00 -0.4304044648606E+01  0.0000000000000E+00
-0.7700000000000E+00 -0.4304044648606E+01  0.0000000000000E+00
-0.7150000000000E+00 -0.4304044648606E+01  0.0000000000000E+00
-0.6600000000000E+00 -0.4304044648606E+01  0.0000000000000E+00
-0.6050000000000E+00 -0.4304044648606E+01  0.0000000000000E+00
-0.5500000000000E+00 -0.4304044648606E+01  0.0000000000000E+00
-0.4950000000000E+00 -0.4304044648606E+01  0.0000000000000E+00
-0.4400000000000E+00 -0.4304044648606E+01  0.0000000000000E+00
-0.3850000000000E+00 -0.4304044648606E+01  0.0000000000000E+00
-0.3300000000000E+00 -0.4304044648606E+01  0.0000000000000E+00
-0.2750000000000E+00 -0.4304044648606E+01  0.0000000000000E+00
-0.2200000000000E+00 -0.4304044648606E+01  0.0000000000000E+00
-0.1650000000000E+00 -0.4304044648606E+01  0.0000000000000E+00
-0.1100000000000E+00 -0.4304044648606E+01  0.0000000000000E+00
-0.5500000000000E-01 -0.4304044648606E+01  0.0000000000000E+00
 0.5500000000000E-01 -0.4304044648606E+01  0.0000000000000E+00
 0.1100000000000E+00 -0.4304044648606E+01  0.0000000000000E+00
 0.1650000000000E+00 -0.4304044648606E+01  0.0000000000000E+00
 0.2200000000000E+00 -0.4304044648606E+01  0.0000000000000E+00
 0.2750000000000E+00 -0.4304044648606E+01  0.0000000000000E+00
 0.3300000000000E+00 -0.4304044648606E+01  0.0000000000000E+00
 0.3850000000000E+00 -0.4304044648606E+01  0.0000000000000E+00
 0.4400000000000E+00 -0.4304044648606E+01  0.0000000000000E+00
 0.4950000000000E+00 -0.4304044648606E+01  0.0000000000000E+00
 0.5500000000000E+00 -0.4304044648606E+01  0.0000000000000E+00
 0.6050000000000E+00 -0.4304044648606E+01  0.0000000000000E+00
 0.6600000000000E+00 -0.4304044648606E+01  0.0000000000000E+00
 0.7150000000000E+00 -0.4304044648606E+01  0.0000000000000E+00
 0.7700000000000E+00 -0.4304044648606E+01  0.0000000000000E+00
 0.8250000000000E+00 -0.4304044648606E+01  0.0000000000000E+00
 0.8800000000000E+00 -0.4304044648606E+01  0.0000000000000E+00
 0.9350000000000E+00 -0.4304044648606E+01  0.0000000000000E+00
 0.9900000000000E+00 -0.4304044648606E+01  0.0000000000000E+00
 0.1045000000000E+01 -0.4304044648606E+01  0.0000000000000E+00
-0.1355910848380E+01 -0.1476732672072E+01  0.0000000000000E+00
-0.1285259981017E+01 -0.1459205415754E+01  0.0000000000000E+00
-0.1214394584761E+01 -0.1442566916018E+01  0.0000000000000E+00
-0.1143323993112E+01 -0.1426827745365E+01  0.0000000000000E+00
-0.1072058114862E+01 -0.1411998118171E+01  0.0000000000000E+00
-0.1000607103274E+01 -0.1398087786375E+01  0.0000000000000E+00
-0.9289815514207E+00 -0.1385106053576E+01  0.0000000000000E+00
-0.8571924453329E+00 -0.1373061734396E+01  0.0000000000000E+00
-0.7852510794390E+00 -0.1361963112090E+01  0.0000000000000E+00
-0.6422126030433E+00 -0.1342784468384E+01  0.0000000000000E+00
-0.5711435255488E+00 -0.1334684768748E+01  0.0000000000000E+00
-0.4999736369017E+00 -0.1327524435880E+01  0.0000000000000E+00
-0.4287150862649E+00 -0.1321308491716E+01  0.0000000000000E+00
-0.3573801183139E+00 -0.1316041318931E+01  0.0000000000000E+00
-0.2859812157621E+00 -0.1311726660302E+01  0.0000000000000E+00
-0.2145309892672E+00 -0.1308367596678E+01  0.0000000000000E+00
-0.1430421463503E+00 -0.1305966536203E+01  0.0000000000000E+00
-0.7152752388590E-01 -0.1304525207180E+01  0.0000000000000E+00
 0.6896563986558E-08 -0.1304044648606E+01  0.0000000000000E+00
 0.7152753767778E-01 -0.1304525207365E+01  0.0000000000000E+00
 0.1430421601384E+00 -0.1305966536574E+01  0.0000000000000E+00
 0.2145310030492E+00 -0.1308367597233E+01  0.0000000000000E+00
 0.2859812295354E+00 -0.1311726661042E+01  0.0000000000000E+00
 0.3573801320760E+00 -0.1316041319855E+01  0.0000000000000E+00
 0.4287151000135E+00 -0.1321308492824E+01  0.0000000000000E+00
 0.4999736506343E+00 -0.1327524437170E+01  0.0000000000000E+00
 0.5711435392633E+00 -0.1334684770220E+01  0.0000000000000E+00
 0.6422126167371E+00 -0.1342784470036E+01  0.0000000000000E+00
 0.7852510917199E+00 -0.1361963113902E+01  0.0000000000000E+00
 0.8571924562271E+00 -0.1373061736151E+01  0.0000000000000E+00
 0.9289815609321E+00 -0.1385106055236E+01  0.0000000000000E+00
 0.1000607111408E+01 -0.1398087787904E+01  0.0000000000000E+00
 0.1072058121623E+01 -0.1411998119533E+01  0.0000000000000E+00
 0.1143323998507E+01 -0.1426827746523E+01  0.0000000000000E+00
 0.1214394588795E+01 -0.1442566916938E+01  0.0000000000000E+00
 0.1285259983698E+01 -0.1459205416402E+01  0.0000000000000E+00
 0.1355910849717E+01 -0.1476732672412E+01  0.0000000000000E+00
-0.1579712636672E+01 -0.1257117726587E+01  0.0000000000000E+00
-0.1733164540211E+01 -0.1019175933670E+01  0.0000000000000E+00
-0.1854662117542E+01 -0.7635066404071E+00  0.0000000000000E+00
-0.1941975481337E+01 -0.4942606593644E+00  0.0000000000000E+00
-0.1991516502432E+01 -0.2156092846034E+00  0.0000000000000E+00
-0.1998781287050E+01  0.6736447573279E-01  0.0000000000000E+00
-0.1925316867218E+01  0.3385059547416E+00  0.0000000000000E+00
-0.1756248887890E+01  0.5644442091257E+00  0.0000000000000E+00
-0.1540277150090E+01  0.7471961778048E+00  0.0000000000000E+00
-0.1173981215584E+01  0.9468055532948E+00  0.0000000000000E+00
-0.1048246390832E+01  0.9957805369659E+00  0.0000000000000E+00
-0.9216449825030E+00  0.1042480347406E+01  0.0000000000000E+00
-0.7946812217419E+00  0.1088183183765E+01  0.0000000000000E+00
-0.6661180574429E+00  0.1129122063103E+01  0.0000000000000E+00
-0.5354041844713E+00  0.1162549250252E+01  0.0000000000000E+00
-0.4029695874389E+00  0.1188340213072E+01  0.0000000000000E+00
-0.2693161135181E+00  0.1206817739605E+01  0.0000000000000E+00
-0.1348660417516E+00  0.1218121850014E+01  0.0000000000000E+00
 0.4058846663134E-09  0.1222022719718E+01  0.0000000000000E+00
 0.1348660425620E+00  0.1218121849962E+01  0.0000000000000E+00
 0.2693161143243E+00  0.1206817739504E+01  0.0000000000000E+00
 0.4029695882387E+00  0.1188340212925E+01  0.0000000000000E+00
 0.5354041852619E+00  0.1162549250060E+01  0.0000000000000E+00
 0.6661180582227E+00  0.1129122062868E+01  0.0000000000000E+00
 0.7946812225112E+00  0.1088183183495E+01  0.0000000000000E+00
 0.9216449832687E+00  0.1042480347127E+01  0.0000000000000E+00
 0.1048246391595E+01  0.9957805366789E+00  0.0000000000000E+00
 0.1173981216337E+01  0.9468055529829E+00  0.0000000000000E+00
 0.1540277150686E+01  0.7471961773831E+00  0.0000000000000E+00
 0.1756248888337E+01  0.5644442086587E+00  0.0000000000000E+00
 0.1925316867476E+01  0.3385059542402E+00  0.0000000000000E+00
 0.1998781287072E+01  0.6736447525390E-01  0.0000000000000E+00
 0.1991516502379E+01 -0.2156092849952E+00  0.0000000000000E+00
 0.1941975481197E+01 -0.4942606596555E+00  0.0000000000000E+00
 0.1854662117367E+01 -0.7635066405985E+00  0.0000000000000E+00
 0.1733164540072E+01 -0.1019175933786E+01  0.0000000000000E+00
 0.1579712636620E+01 -0.1257117726658E+01  0.0000000000000E+00
-0.1100000000000E+01 -0.4167858878309E+01  0.0000000000000E+00
-0.1100000000000E+01 -0.4031673085110E+01  0.0000000000000E+00
-0.1100000000000E+01 -0.3895487265942E+01  0.0000000000000E+00
-0.1100000000000E+01 -0.3759301447614E+01  0.0000000000000E+00
-0.1100000000000E+01 -0.3623115632099E+01  0.0000000000000E+00
-0.1100000000000E+01 -0.3486929673705E+01  0.0000000000000E+00
-0.1100000000000E+01 -0.3350743588902E+01  0.0000000000000E+00
-0.1100000000000E+01 -0.3214558196319E+01  0.0000000000000E+00
-0.1100000000000E+01 -0.3078372499853E+01  0.0000000000000E+00
-0.1100009219814E+01 -0.2942186831538E+01  0.0000000000000E+00
-0.1101425067002E+01 -0.2806011978909E+01  0.0000000000000E+00
-0.1107601577287E+01 -0.2669976600093E+01  0.0000000000000E+00
-0.1119747344921E+01 -0.2534345262128E+01  0.0000000000000E+00
-0.1137772499496E+01 -0.2399367495624E+01  0.0000000000000E+00
-0.1161564969771E+01 -0.2265287019052E+01  0.0000000000000E+00
-0.1191325563594E+01 -0.2132404467843E+01  0.0000000000000E+00
-0.1226713953463E+01 -0.2000906688008E+01  0.0000000000000E+00
-0.1267386994665E+01 -0.1870945985496E+01  0.0000000000000E+00
-0.1313508982080E+01 -0.1742820021577E+01  0.0000000000000E+00
-0.1365854654983E+01 -0.1617114507943E+01  0.0000000000000E+00
 0.1365854655064E+01 -0.1617114507984E+01  0.0000000000000E+00
 0.1313508982144E+01 -0.1742820021612E+01  0.0000000000000E+00
 0.1267386994709E+01 -0.1870945985522E+01  0.0000000000000E+00
 0.1226713953493E+01 -0.2000906688028E+01  0.0000000000000E+00
 0.1191325563615E+01 -0.2132404467860E+01  0.0000000000000E+00
 0.1161564969779E+01 -0.2265287019065E+01  0.0000000000000E+00
 0.1137772499496E+01 -0.2399367495636E+01  0.0000000000000E+00
 0.1119747344920E+01 -0.2534345262137E+01  0.0000000000000E+00
 0.1107601577287E+01 -0.2669976600103E+01  0.0000000000000E+00
 0.1101425067003E+01 -0.2806011978917E+01  0.0000000000000E+00
 0.1100009219814E+01 -0.2942186831546E+01  0.0000000000000E+00
 0.1100000000000E+01 -0.3078372499860E+01  0.0000000000000E+00
 0.1100000000000E+01 -0.3214558196326E+01  0.0000000000000E+00
 0.1100000000000E+01 -0.3350743588907E+01  0.0000000000000E+00
 0.1100000000000E+01 -0.3486929673709E+01  0.0000000000000E+00
 0.1100000000000E+01 -0.3623115632103E+01  0.0000000000000E+00
 0.1100000000000E+01 -0.3759301447617E+01  0.0000000000000E+00
 0.1100000000000E+01 -0.3895487265945E+01  0.0000000000000E+00
 0.1100000000000E+01 -0.4031673085112E+01  0.0000000000000E+00
 0.1100000000000E+01 -0.4167858878310E+01  0.0000000000000E+00
-0.6764636662017E+00  0.3637314849837E+00  0.0000000000000E+00
-0.6024837198702E+00  0.3806330875003E+00  0.0000000000000E+00
-0.5280996171512E+00  0.3956556459469E+00  0.0000000000000E+00
-0.4533537451325E+00  0.4087600740826E+00  0.0000000000000E+00
-0.3782916751723E+00  0.4199112310808E+00  0.0000000000000E+00
-0.3029616164712E+00  0.4290784607705E+00  0.0000000000000E+00
-0.2274141490083E+00  0.4362360171118E+00  0.0000000000000E+00
-0.1517018295911E+00  0.4413634482121E+00  0.0000000000000E+00
-0.7587874076696E-01  0.4444459110349E+00  0.0000000000000E+00
-0.3330669073875E-15  0.4454744042321E+00  0.0000000000000E+00
 0.7587874076696E-01  0.4444459110349E+00  0.0000000000000E+00
 0.1517018295911E+00  0.4413634482121E+00  0.0000000000000E+00
 0.2274141490083E+00  0.4362360171118E+00  0.0000000000000E+00
 0.3029616164712E+00  0.4290784607705E+00  0.0000000000000E+00
 0.3782916751723E+00  0.4199112310808E+00  0.0000000000000E+00
 0.4533537451325E+00  0.4087600740826E+00  0.0000000000000E+00
 0.5280996171512E+00  0.3956556459469E+00  0.0000000000000E+00
 0.6024837198702E+00  0.3806330875003E+00  0.0000000000000E+00
 0.6764636662017E+00  0.3637314849837E+00  0.0000000000000E+00
-0.7494610908407E+00  0.1752564208624E+00  0.0000000000000E+00
-0.7476230150202E+00  0.5528898378488E-02  0.0000000000000E+00
-0.7441028539882E+00 -0.1641717347835E+00  0.0000000000000E+00
-0.7386208425271E+00 -0.3338203224162E+00  0.0000000000000E+00
-0.7315845453817E+00 -0.5034122306519E+00  0.0000000000000E+00
-0.7245482478836E+00 -0.6730041388732E+00  0.0000000000000E+00
-0.7190662355151E+00 -0.8426527264768E+00  0.0000000000000E+00
-0.7155460732803E+00 -0.1012353359614E+01  0.0000000000000E+00
-0.7137079961342E+00 -0.1182080882084E+01  0.0000000000000E+00
 0.7494610908447E+00  0.1752564207090E+00  0.0000000000000E+00
 0.7476230150664E+00  0.5528898070996E-02  0.0000000000000E+00
 0.7441028541992E+00 -0.1641717352482E+00  0.0000000000000E+00
 0.7386208431973E+00 -0.3338203230495E+00  0.0000000000000E+00
 0.7315845470645E+00 -0.5034122314810E+00  0.0000000000000E+00
 0.7245482512846E+00 -0.6730041399270E+00  0.0000000000000E+00
 0.7190662411903E+00 -0.8426527277573E+00  0.0000000000000E+00
 0.7155460815261E+00 -0.1012353361101E+01  0.0000000000000E+00
 0.7137080070737E+00 -0.1182080883753E+01  0.0000000000000E+00
-0.8047471036855E+00  0.3997405616991E+00  0.0000000000000E+00
-0.8594942073710E+00  0.4544876663279E+00  0.0000000000000E+00
-0.9142413110566E+00  0.5092347709566E+00  0.0000000000000E+00
-0.9689884147421E+00  0.5639818755854E+00  0.0000000000000E+00
-0.1023735518428E+01  0.6187289802141E+00  0.0000000000000E+00
-0.1078482622113E+01  0.6734760848429E+00  0.0000000000000E+00
-0.1133229725799E+01  0.7282231894716E+00  0.0000000000000E+00
-0.1187976829484E+01  0.7829702941004E+00  0.0000000000000E+00
-0.1242723933170E+01  0.8377173987291E+00  0.0000000000000E+00
 0.8047471037588E+00  0.3997405616635E+00  0.0000000000000E+00
 0.8594942075177E+00  0.4544876662566E+00  0.0000000000000E+00
 0.9142413112766E+00  0.5092347708497E+00  0.0000000000000E+00
 0.9689884150354E+00  0.5639818754428E+00  0.0000000000000E+00
 0.1023735518794E+01  0.6187289800359E+00  0.0000000000000E+00
 0.1078482622553E+01  0.6734760846289E+00  0.0000000000000E+00
 0.1133229726312E+01  0.7282231892220E+00  0.0000000000000E+00
 0.1187976830071E+01  0.7829702938151E+00  0.0000000000000E+00
 0.1242723933830E+01  0.8377173984082E+00  0.0000000000000E+00
-0.1045046222997E+01 -0.4166982403859E+01  0.0000000000000E+00
-0.1045092446001E+01 -0.4029920136063E+01  0.0000000000000E+00
-0.1045138669014E+01 -0.3892857842130E+01  0.0000000000000E+00
-0.1045184892027E+01 -0.3755795549043E+01  0.0000000000000E+00
-0.1045231115039E+01 -0.3618733258786E+01  0.0000000000000E+00
-0.1045277338100E+01 -0.3481670824732E+01  0.0000000000000E+00
-0.1045323561203E+01 -0.3344608263454E+01  0.0000000000000E+00
-0.1045369784072E+01 -0.3207546398853E+01  0.0000000000000E+00
-0.1045416007044E+01 -0.3070484228411E+01  0.0000000000000E+00
-0.1045470986539E+01 -0.2933422086301E+01  0.0000000000000E+00
-0.1046861911460E+01 -0.2796370782116E+01  0.0000000000000E+00
-0.1052774281503E+01 -0.2659458994789E+01  0.0000000000000E+00
-0.1064355962771E+01 -0.2522951257624E+01  0.0000000000000E+00
-0.1081521601846E+01 -0.2387097079535E+01  0.0000000000000E+00
-0.1104164757923E+01 -0.2252140197233E+01  0.0000000000000E+00
-0.1132476148650E+01 -0.2118381244796E+01  0.0000000000000E+00
-0.1166132548346E+01 -0.1986007050998E+01  0.0000000000000E+00
-0.1204808054195E+01 -0.1855169932722E+01  0.0000000000000E+00
-0.1248658704703E+01 -0.1726167566747E+01  0.0000000000000E+00
-0.1298420308522E+01 -0.1599585687799E+01  0.0000000000000E+00
-0.9900818008859E+00 -0.4166147731587E+01  0.0000000000000E+00
-0.9901636017856E+00 -0.4028250791379E+01  0.0000000000000E+00
-0.9902454027008E+00 -0.3890353824875E+01  0.0000000000000E+00
-0.9903272036156E+00 -0.3752456859222E+01  0.0000000000000E+00
-0.9904090045286E+00 -0.3614559896416E+01  0.0000000000000E+00
-0.9904908055275E+00 -0.3476662788937E+01  0.0000000000000E+00
-0.9905726066023E+00 -0.3338765553460E+01  0.0000000000000E+00
-0.9906544072614E+00 -0.3200869018902E+01  0.0000000000000E+00
-0.9907362081029E+00 -0.3062972176641E+01  0.0000000000000E+00
-0.9908263021799E+00 -0.2925075362882E+01  0.0000000000000E+00
-0.9921816600285E+00 -0.2787189408229E+01  0.0000000000000E+00
-0.9978192456255E+00 -0.2649443011423E+01  0.0000000000000E+00
-0.1008826196536E+01 -0.2512100673648E+01  0.0000000000000E+00
-0.1025121676066E+01 -0.2375411883154E+01  0.0000000000000E+00
-0.1046604874068E+01 -0.2239620394023E+01  0.0000000000000E+00
-0.1073456417974E+01 -0.2105026839044E+01  0.0000000000000E+00
-0.1105370183713E+01 -0.1971818030576E+01  0.0000000000000E+00
-0.1142037510489E+01 -0.1840146295916E+01  0.0000000000000E+00
-0.1183606180628E+01 -0.1710309326612E+01  0.0000000000000E+00
-0.1230773072450E+01 -0.1582892879321E+01  0.0000000000000E+00
-0.9351071623717E+00 -0.4165355383137E+01  0.0000000000000E+00
-0.9352143247615E+00 -0.4026666094346E+01  0.0000000000000E+00
-0.9353214871716E+00 -0.3887976779108E+01  0.0000000000000E+00
-0.9354286495812E+00 -0.3749287464725E+01  0.0000000000000E+00
-0.9355358119885E+00 -0.3610598153207E+01  0.0000000000000E+00
-0.9356429745082E+00 -0.3471908696183E+01  0.0000000000000E+00
-0.9357501371274E+00 -0.3333219110427E+01  0.0000000000000E+00
-0.9358572992019E+00 -0.3194530229616E+01  0.0000000000000E+00
-0.9359644615155E+00 -0.3055841039335E+01  0.0000000000000E+00
-0.9360794537788E+00 -0.2917151877718E+01  0.0000000000000E+00
-0.9373890284398E+00 -0.2778473595312E+01  0.0000000000000E+00
-0.9427416140514E+00 -0.2639934909666E+01  0.0000000000000E+00
-0.9531636192662E+00 -0.2501800291468E+01  0.0000000000000E+00
-0.9685787238578E+00 -0.2364319209355E+01  0.0000000000000E+00
-0.9888917485491E+00 -0.2227735433899E+01  0.0000000000000E+00
-0.1014273230545E+01 -0.2092349596663E+01  0.0000000000000E+00
-0.1044434147173E+01 -0.1958348494428E+01  0.0000000000000E+00
-0.1079083079785E+01 -0.1825884464371E+01  0.0000000000000E+00
-0.1118359554707E+01 -0.1695255212063E+01  0.0000000000000E+00
-0.1162921520209E+01 -0.1567046514983E+01  0.0000000000000E+00
-0.8801227524380E+00 -0.4164605861986E+01  0.0000000000000E+00
-0.8802455048967E+00 -0.4025167051918E+01  0.0000000000000E+00
-0.8803682573788E+00 -0.3885728215260E+01  0.0000000000000E+00
-0.8804910098601E+00 -0.3746289379463E+01  0.0000000000000E+00
-0.8806137623389E+00 -0.3606850546545E+01  0.0000000000000E+00
-0.8807365149465E+00 -0.3467411567335E+01  0.0000000000000E+00
-0.8808592676680E+00 -0.3327972458697E+01  0.0000000000000E+00
-0.8809820197656E+00 -0.3188534058815E+01  0.0000000000000E+00
-0.8811047721371E+00 -0.3049095347789E+01  0.0000000000000E+00
-0.8812348911742E+00 -0.2909656665581E+01  0.0000000000000E+00
-0.8824889114589E+00 -0.2770228881603E+01  0.0000000000000E+00
-0.8875467262934E+00 -0.2630940731194E+01  0.0000000000000E+00
-0.8973740150205E+00 -0.2492056656196E+01  0.0000000000000E+00
-0.9118989736425E+00 -0.2353826106691E+01  0.0000000000000E+00
-0.9310320539568E+00 -0.2216492868851E+01  0.0000000000000E+00
-0.9549337029221E+00 -0.2080357573080E+01  0.0000000000000E+00
-0.9833319990803E+00 -0.1945607001420E+01  0.0000000000000E+00
-0.1015952766056E+01 -0.1812393500398E+01  0.0000000000000E+00
-0.1052927274348E+01 -0.1681014788849E+01  0.0000000000000E+00
-0.1094874542418E+01 -0.1552056663945E+01  0.0000000000000E+00
-0.8251290423813E+00 -0.4163899654558E+01  0.0000000000000E+00
-0.8252580847842E+00 -0.4023754636942E+01  0.0000000000000E+00
-0.8253871272118E+00 -0.3883609592602E+01  0.0000000000000E+00
-0.8255161696385E+00 -0.3743464549126E+01  0.0000000000000E+00
-0.8256452120626E+00 -0.3603319508545E+01  0.0000000000000E+00
-0.8257742546221E+00 -0.3463174320931E+01  0.0000000000000E+00
-0.8259032973014E+00 -0.3323029003233E+01  0.0000000000000E+00
-0.8260323393247E+00 -0.3182884397881E+01  0.0000000000000E+00
-0.8261613816360E+00 -0.3042739479809E+01  0.0000000000000E+00
-0.8262973273311E+00 -0.2902594590699E+01  0.0000000000000E+00
-0.8274864933868E+00 -0.2762460617739E+01  0.0000000000000E+00
-0.8322402381418E+00 -0.2622466313031E+01  0.0000000000000E+00
-0.8414635112943E+00 -0.2482876091236E+01  0.0000000000000E+00
-0.8550890248433E+00 -0.2343939384954E+01  0.0000000000000E+00
-0.8730328618520E+00 -0.2205899995056E+01  0.0000000000000E+00
-0.8954453790228E+00 -0.2069058550854E+01  0.0000000000000E+00
-0.9220717559223E+00 -0.1933601820502E+01  0.0000000000000E+00
-0.9526550585576E+00 -0.1799682159337E+01  0.0000000000000E+00
-0.9873183017666E+00 -0.1667597298689E+01  0.0000000000000E+00
-0.1026641574463E+01 -0.1537933054292E+01  0.0000000000000E+00
-0.7701265160660E+00 -0.4163237225252E+01  0.0000000000000E+00
-0.7702530321532E+00 -0.4022429778218E+01  0.0000000000000E+00
-0.7703795482645E+00 -0.3881622304334E+01  0.0000000000000E+00
-0.7705060643751E+00 -0.3740814831319E+01  0.0000000000000E+00
-0.7706325804831E+00 -0.3600007361211E+01  0.0000000000000E+00
-0.7707590967238E+00 -0.3459199743377E+01  0.0000000000000E+00
-0.7708856130819E+00 -0.3318391994843E+01  0.0000000000000E+00
-0.7710121287970E+00 -0.3177584962021E+01  0.0000000000000E+00
-0.7711386447943E+00 -0.3036777615003E+01  0.0000000000000E+00
-0.7712716008954E+00 -0.2895970297081E+01  0.0000000000000E+00
-0.7723870966897E+00 -0.2755173912119E+01  0.0000000000000E+00
-0.7768279557508E+00 -0.2614517227940E+01  0.0000000000000E+00
-0.7854383977895E+00 -0.2474264633712E+01  0.0000000000000E+00
-0.7981556505838E+00 -0.2334665545637E+01  0.0000000000000E+00
-0.8149014286464E+00 -0.2195963778370E+01  0.0000000000000E+00
-0.8358159984089E+00 -0.2058459960202E+01  0.0000000000000E+00
-0.8606616402904E+00 -0.1922340846260E+01  0.0000000000000E+00
-0.8891986627916E+00 -0.1787758800143E+01  0.0000000000000E+00
-0.9215418252451E+00 -0.1655011564905E+01  0.0000000000000E+00
-0.9582322872467E+00 -0.1524684973684E+01  0.0000000000000E+00
-0.7151156779294E+00 -0.4162619017118E+01  0.0000000000000E+00
-0.7152313558782E+00 -0.4021193361848E+01  0.0000000000000E+00
-0.7153470338491E+00 -0.3879767679609E+01  0.0000000000000E+00
-0.7154627118192E+00 -0.3738341998242E+01  0.0000000000000E+00
-0.7155783897870E+00 -0.3596916319797E+01  0.0000000000000E+00
-0.7156940678761E+00 -0.3455490492975E+01  0.0000000000000E+00
-0.7158097460726E+00 -0.3314064534880E+01  0.0000000000000E+00
-0.7159254236812E+00 -0.3172639295640E+01  0.0000000000000E+00
-0.7160411015478E+00 -0.3031213740824E+01  0.0000000000000E+00
-0.7161627562398E+00 -0.2889788215231E+01  0.0000000000000E+00
-0.7171962701658E+00 -0.2748373638284E+01  0.0000000000000E+00
-0.7213159323257E+00 -0.2607098792480E+01  0.0000000000000E+00
-0.7293052321208E+00 -0.2466228043196E+01  0.0000000000000E+00
-0.7411059129022E+00 -0.2326010791328E+01  0.0000000000000E+00
-0.7566453208056E+00 -0.2186690864400E+01  0.0000000000000E+00
-0.7760536319784E+00 -0.2048568889744E+01  0.0000000000000E+00
-0.7991102275296E+00 -0.1911831610333E+01  0.0000000000000E+00
-0.8255926585574E+00 -0.1776631397476E+01  0.0000000000000E+00
-0.8556074290363E+00 -0.1643266005168E+01  0.0000000000000E+00
-0.8896567694607E+00 -0.1512321282791E+01  0.0000000000000E+00
-0.6600970509584E+00 -0.4162045449923E+01  0.0000000000000E+00
-0.6601941019331E+00 -0.4020046227361E+01  0.0000000000000E+00
-0.6602911529263E+00 -0.3878046977720E+01  0.0000000000000E+00
-0.6603882039189E+00 -0.3736047728956E+01  0.0000000000000E+00
-0.6604852549095E+00 -0.3594048483124E+01  0.0000000000000E+00
-0.6605823060019E+00 -0.3452049088315E+01  0.0000000000000E+00
-0.6606793571844E+00 -0.3310049561700E+01  0.0000000000000E+00
-0.6607764078736E+00 -0.3168050756855E+01  0.0000000000000E+00
-0.6608734587794E+00 -0.3026051635154E+01  0.0000000000000E+00
-0.6609760232337E+00 -0.2884052542794E+01  0.0000000000000E+00
-0.6619197666746E+00 -0.2742064413634E+01  0.0000000000000E+00
-0.6657104437464E+00 -0.2600216043785E+01  0.0000000000000E+00
-0.6730708132532E+00 -0.2458771776549E+01  0.0000000000000E+00
-0.6839471339256E+00 -0.2317980998624E+01  0.0000000000000E+00
-0.6982723836829E+00 -0.2178087549471E+01  0.0000000000000E+00
-0.7161666483788E+00 -0.2039392055537E+01  0.0000000000000E+00
-0.7374264096551E+00 -0.1902081248514E+01  0.0000000000000E+00
-0.7618464613018E+00 -0.1766307506865E+01  0.0000000000000E+00
-0.7895250520744E+00 -0.1632368594737E+01  0.0000000000000E+00
-0.8209254835783E+00 -0.1500850376583E+01  0.0000000000000E+00
-0.6050711730871E+00 -0.4161516918125E+01  0.0000000000000E+00
-0.6051423461862E+00 -0.4018989163676E+01  0.0000000000000E+00
-0.6052135192989E+00 -0.3876461382048E+01  0.0000000000000E+00
-0.6052846924112E+00 -0.3733933601299E+01  0.0000000000000E+00
-0.6053558655219E+00 -0.3591405823494E+01  0.0000000000000E+00
-0.6054270387074E+00 -0.3448877896157E+01  0.0000000000000E+00
-0.6054982119589E+00 -0.3306349836524E+01  0.0000000000000E+00
-0.6055693848486E+00 -0.3163822501347E+01  0.0000000000000E+00
-0.6056405578972E+00 -0.3021294848134E+01  0.0000000000000E+00
-0.6057167812191E+00 -0.2878767224371E+01  0.0000000000000E+00
-0.6065635034711E+00 -0.2736250577219E+01  0.0000000000000E+00
-0.6100179451307E+00 -0.2593873715334E+01  0.0000000000000E+00
-0.6167421341316E+00 -0.2451900961678E+01  0.0000000000000E+00
-0.6266868444039E+00 -0.2310581689864E+01  0.0000000000000E+00
-0.6397906858014E+00 -0.2170159750353E+01  0.0000000000000E+00
-0.6561636538731E+00 -0.2030935768775E+01  0.0000000000000E+00
-0.6756193306500E+00 -0.1893096466429E+01  0.0000000000000E+00
-0.6979697527023E+00 -0.1756794228372E+01  0.0000000000000E+00
-0.7233049136956E+00 -0.1622326828101E+01  0.0000000000000E+00
-0.7520491865408E+00 -0.1490280143960E+01  0.0000000000000E+00
-0.5500385982869E+00 -0.4161033789916E+01  0.0000000000000E+00
-0.5500771965804E+00 -0.4018022907176E+01  0.0000000000000E+00
-0.5501157948812E+00 -0.3875011997166E+01  0.0000000000000E+00
-0.5501543931817E+00 -0.3732001088037E+01  0.0000000000000E+00
-0.5501929914815E+00 -0.3588990181862E+01  0.0000000000000E+00
-0.5502315898217E+00 -0.3445979125648E+01  0.0000000000000E+00
-0.5502701881978E+00 -0.3302967936690E+01  0.0000000000000E+00
-0.5503087863777E+00 -0.3159957474644E+01  0.0000000000000E+00
-0.5503473846437E+00 -0.3016946693484E+01  0.0000000000000E+00
-0.5503905699093E+00 -0.2873935941872E+01  0.0000000000000E+00
-0.5511335742212E+00 -0.2730936179131E+01  0.0000000000000E+00
-0.5542450840560E+00 -0.2588076225384E+01  0.0000000000000E+00
-0.5603263962216E+00 -0.2445620384998E+01  0.0000000000000E+00
-0.5693327996820E+00 -0.2303818019626E+01  0.0000000000000E+00
-0.5812085363640E+00 -0.2162912989786E+01  0.0000000000000E+00
-0.5960535115026E+00 -0.2023205920360E+01  0.0000000000000E+00
-0.6136984073852E+00 -0.1884883523146E+01  0.0000000000000E+00
-0.6339725034451E+00 -0.1748098189228E+01  0.0000000000000E+00
-0.6569575383771E+00 -0.1613147700654E+01  0.0000000000000E+00
-0.6830389565749E+00 -0.1480617948461E+01  0.0000000000000E+00
-0.4950519026787E+00 -0.4160603604494E+01  0.0000000000000E+00
-0.4951038053660E+00 -0.4017162536260E+01  0.0000000000000E+00
-0.4951557080633E+00 -0.3873721440673E+01  0.0000000000000E+00
-0.4952076107603E+00 -0.3730280345971E+01  0.0000000000000E+00
-0.4952595134562E+00 -0.3586839254232E+01  0.0000000000000E+00
-0.4953114162065E+00 -0.3443398012002E+01  0.0000000000000E+00
-0.4953633190051E+00 -0.3299956636628E+01  0.0000000000000E+00
-0.4954152215398E+00 -0.3156515990354E+01  0.0000000000000E+00
-0.4954671241903E+00 -0.3013075024005E+01  0.0000000000000E+00
-0.4955231551368E+00 -0.2869634087292E+01  0.0000000000000E+00
-0.4962090227682E+00 -0.2726204150367E+01  0.0000000000000E+00
-0.4990265444554E+00 -0.2582914043561E+01  0.0000000000000E+00
-0.5045168879682E+00 -0.2440028054687E+01  0.0000000000000E+00
-0.5126398137999E+00 -0.2297795534748E+01  0.0000000000000E+00
-0.5233451393291E+00 -0.2156460353215E+01  0.0000000000000E+00
-0.5367227792908E+00 -0.2016323134305E+01  0.0000000000000E+00
-0.5526203480869E+00 -0.1877570581358E+01  0.0000000000000E+00
-0.5708841969978E+00 -0.1740355090822E+01  0.0000000000000E+00
-0.5915878905426E+00 -0.1604974452359E+01  0.0000000000000E+00
-0.6150783282135E+00 -0.1472014568309E+01  0.0000000000000E+00
-0.4400598448564E+00 -0.4160217885556E+01  0.0000000000000E+00
-0.4401196897229E+00 -0.4016391098319E+01  0.0000000000000E+00
-0.4401795346009E+00 -0.3872564283656E+01  0.0000000000000E+00
-0.4402393794784E+00 -0.3728737469879E+01  0.0000000000000E+00
-0.4402992243547E+00 -0.3584910659074E+01  0.0000000000000E+00
-0.4403590692938E+00 -0.3441083697373E+01  0.0000000000000E+00
-0.4404189142884E+00 -0.3297256602171E+01  0.0000000000000E+00
-0.4404787589789E+00 -0.3153430238028E+01  0.0000000000000E+00
-0.4405386038029E+00 -0.3009603552950E+01  0.0000000000000E+00
-0.4406021182205E+00 -0.2865776897587E+01  0.0000000000000E+00
-0.4412254871236E+00 -0.2721961251799E+01  0.0000000000000E+00
-0.4437436589671E+00 -0.2578285455073E+01  0.0000000000000E+00
-0.4486376722979E+00 -0.2435013780377E+01  0.0000000000000E+00
-0.4558717590049E+00 -0.2292395569166E+01  0.0000000000000E+00
-0.4654013120275E+00 -0.2150674698937E+01  0.0000000000000E+00
-0.4773062555965E+00 -0.2010151793313E+01  0.0000000000000E+00
-0.4914511361163E+00 -0.1871013548046E+01  0.0000000000000E+00
-0.5076993767752E+00 -0.1733412364399E+01  0.0000000000000E+00
-0.5261163680144E+00 -0.1597646038857E+01  0.0000000000000E+00
-0.5470104645797E+00 -0.1464300483898E+01  0.0000000000000E+00
-0.3850629864597E+00 -0.4159876900567E+01  0.0000000000000E+00
-0.3851259729300E+00 -0.4015709128284E+01  0.0000000000000E+00
-0.3851889594123E+00 -0.3871541328509E+01  0.0000000000000E+00
-0.3852519458942E+00 -0.3727373529624E+01  0.0000000000000E+00
-0.3853149323749E+00 -0.3583205733716E+01  0.0000000000000E+00
-0.3853779189216E+00 -0.3439037786555E+01  0.0000000000000E+00
-0.3854409055267E+00 -0.3294869705576E+01  0.0000000000000E+00
-0.3855038918118E+00 -0.3150702357390E+01  0.0000000000000E+00
-0.3855668782373E+00 -0.3006534687509E+01  0.0000000000000E+00
-0.3856330755550E+00 -0.2862367047411E+01  0.0000000000000E+00
-0.3861891452633E+00 -0.2718210425541E+01  0.0000000000000E+00
-0.3884031669730E+00 -0.2574193669479E+01  0.0000000000000E+00
-0.3926960498090E+00 -0.2430581039070E+01  0.0000000000000E+00
-0.3990364969378E+00 -0.2287621867327E+01  0.0000000000000E+00
-0.4073854769611E+00 -0.2145560038844E+01  0.0000000000000E+00
-0.4178129235952E+00 -0.2004696176717E+01  0.0000000000000E+00
-0.4302003151572E+00 -0.1865216969994E+01  0.0000000000000E+00
-0.4444281468073E+00 -0.1727274824189E+01  0.0000000000000E+00
-0.4605536349915E+00 -0.1591167541823E+01  0.0000000000000E+00
-0.4788465898261E+00 -0.1457481044333E+01  0.0000000000000E+00
-0.3300619056673E+00 -0.4159580888679E+01  0.0000000000000E+00
-0.3301238113451E+00 -0.4015117104458E+01  0.0000000000000E+00
-0.3301857170347E+00 -0.3870653292689E+01  0.0000000000000E+00
-0.3302476227239E+00 -0.3726189481811E+01  0.0000000000000E+00
-0.3303095284118E+00 -0.3581725673917E+01  0.0000000000000E+00
-0.3303714341646E+00 -0.3437261714459E+01  0.0000000000000E+00
-0.3304333399749E+00 -0.3292797620909E+01  0.0000000000000E+00
-0.3304952454706E+00 -0.3148334261655E+01  0.0000000000000E+00
-0.3305571511044E+00 -0.3003870580046E+01  0.0000000000000E+00
-0.3306218089298E+00 -0.2859406928281E+01  0.0000000000000E+00
-0.3311063571750E+00 -0.2714954302256E+01  0.0000000000000E+00
-0.3330120067481E+00 -0.2570641556575E+01  0.0000000000000E+00
-0.3366995372036E+00 -0.2426732939691E+01  0.0000000000000E+00
-0.3421421228802E+00 -0.2283477777292E+01  0.0000000000000E+00
-0.3493063081284E+00 -0.2141119960130E+01  0.0000000000000E+00
-0.3582520361460E+00 -0.1999960110844E+01  0.0000000000000E+00
-0.3688777170754E+00 -0.1860184912661E+01  0.0000000000000E+00
-0.3810809180974E+00 -0.1721946774789E+01  0.0000000000000E+00
-0.3949106817397E+00 -0.1585543504984E+01  0.0000000000000E+00
-0.4105982736091E+00 -0.1451561032464E+01  0.0000000000000E+00
-0.2750571858516E+00 -0.4159330058600E+01  0.0000000000000E+00
-0.2751143717129E+00 -0.4014615444259E+01  0.0000000000000E+00
-0.2751715575851E+00 -0.3869900802322E+01  0.0000000000000E+00
-0.2752287434569E+00 -0.3725186161277E+01  0.0000000000000E+00
-0.2752859293275E+00 -0.3580471523221E+01  0.0000000000000E+00
-0.2753431152582E+00 -0.3435756733339E+01  0.0000000000000E+00
-0.2754003012419E+00 -0.3291041809131E+01  0.0000000000000E+00
-0.2754574869349E+00 -0.3146327620495E+01  0.0000000000000E+00
-0.2755146727556E+00 -0.3001613108943E+01  0.0000000000000E+00
-0.2755741520680E+00 -0.2856898627288E+01  0.0000000000000E+00
-0.2759835399151E+00 -0.2712195177736E+01  0.0000000000000E+00
-0.2775771785720E+00 -0.2567631620847E+01  0.0000000000000E+00
-0.2806557178774E+00 -0.2423472195421E+01  0.0000000000000E+00
-0.2851968032522E+00 -0.2279966220933E+01  0.0000000000000E+00
-0.2911725548721E+00 -0.2137357593360E+01  0.0000000000000E+00
-0.2986329254098E+00 -0.1995946934950E+01  0.0000000000000E+00
-0.3074932567632E+00 -0.1855920924000E+01  0.0000000000000E+00
-0.3176681881805E+00 -0.1717431972844E+01  0.0000000000000E+00
-0.3291985883348E+00 -0.1580777893680E+01  0.0000000000000E+00
-0.3422771784154E+00 -0.1446544622314E+01  0.0000000000000E+00
-0.2200494213304E+00 -0.4159124588568E+01  0.0000000000000E+00
-0.2200988426691E+00 -0.4014204504160E+01  0.0000000000000E+00
-0.2201482640172E+00 -0.3869284392117E+01  0.0000000000000E+00
-0.2201976853651E+00 -0.3724364280968E+01  0.0000000000000E+00
-0.2202471067119E+00 -0.3579444172811E+01  0.0000000000000E+00
-0.2202965281105E+00 -0.3434523912613E+01  0.0000000000000E+00
-0.2203459495550E+00 -0.3289603517898E+01  0.0000000000000E+00
-0.2203953707484E+00 -0.3144683859800E+01  0.0000000000000E+00
-0.2204447920520E+00 -0.2999763878328E+01  0.0000000000000E+00
-0.2204960481482E+00 -0.2854843926793E+01  0.0000000000000E+00
-0.2208272309758E+00 -0.2709935012576E+01  0.0000000000000E+00
-0.2221058142604E+00 -0.2565166001113E+01  0.0000000000000E+00
-0.2245723180114E+00 -0.2420801123295E+01  0.0000000000000E+00
-0.2282088586565E+00 -0.2277089693513E+01  0.0000000000000E+00
-0.2329931322596E+00 -0.2134275612017E+01  0.0000000000000E+00
-0.2389651009641E+00 -0.1992659500741E+01  0.0000000000000E+00
-0.2460570383625E+00 -0.1852428033938E+01  0.0000000000000E+00
-0.2542006558072E+00 -0.1713733626508E+01  0.0000000000000E+00
-0.2634286481713E+00 -0.1576874094283E+01  0.0000000000000E+00
-0.2738951923088E+00 -0.1442435378469E+01  0.0000000000000E+00
-0.1650392126324E+00 -0.4158964625296E+01  0.0000000000000E+00
-0.1650784252713E+00 -0.4013884577590E+01  0.0000000000000E+00
-0.1651176379177E+00 -0.3868804502217E+01  0.0000000000000E+00
-0.1651568505639E+00 -0.3723724427740E+01  0.0000000000000E+00
-0.1651960632093E+00 -0.3578644356259E+01  0.0000000000000E+00
-0.1652352758958E+00 -0.3433564132568E+01  0.0000000000000E+00
-0.1652744886187E+00 -0.3288483774212E+01  0.0000000000000E+00
-0.1653137011423E+00 -0.3143404153285E+01  0.0000000000000E+00
-0.1653529137534E+00 -0.2998324208628E+01  0.0000000000000E+00
-0.1653935024586E+00 -0.2853244293941E+01  0.0000000000000E+00
-0.1656440361591E+00 -0.2708175420631E+01  0.0000000000000E+00
-0.1666051201020E+00 -0.2563246457930E+01  0.0000000000000E+00
-0.1684571443782E+00 -0.2418721630574E+01  0.0000000000000E+00
-0.1711866963610E+00 -0.2274850248994E+01  0.0000000000000E+00
-0.1747770480530E+00 -0.2131876216768E+01  0.0000000000000E+00
-0.1792581710655E+00 -0.1990100155583E+01  0.0000000000000E+00
-0.1845792706359E+00 -0.1849708736549E+01  0.0000000000000E+00
-0.1906891302505E+00 -0.1710854376557E+01  0.0000000000000E+00
-0.1976122710256E+00 -0.1573834894273E+01  0.0000000000000E+00
-0.2054643255476E+00 -0.1439236235106E+01  0.0000000000000E+00
-0.1100271650341E+00 -0.4158850283464E+01  0.0000000000000E+00
-0.1100543300728E+00 -0.4013655893906E+01  0.0000000000000E+00
-0.1100814951167E+00 -0.3868461476660E+01  0.0000000000000E+00
-0.1101086601604E+00 -0.3723267060310E+01  0.0000000000000E+00
-0.1101358252036E+00 -0.3578072646959E+01  0.0000000000000E+00
-0.1101629902752E+00 -0.3432878081278E+01  0.0000000000000E+00
-0.1101901553721E+00 -0.3287683380826E+01  0.0000000000000E+00
-0.1102173203309E+00 -0.3142489418384E+01  0.0000000000000E+00
-0.1102444853503E+00 -0.2997295131957E+01  0.0000000000000E+00
-0.1102725677655E+00 -0.2852100875523E+01  0.0000000000000E+00
-0.1104406134806E+00 -0.2706917663368E+01  0.0000000000000E+00
-0.1110823592933E+00 -0.2561874367437E+01  0.0000000000000E+00
-0.1123180652995E+00 -0.2417235208066E+01  0.0000000000000E+00
-0.1141387897736E+00 -0.2273249492854E+01  0.0000000000000E+00
-0.1165333806953E+00 -0.2130161127761E+01  0.0000000000000E+00
-0.1195218191400E+00 -0.1988270734297E+01  0.0000000000000E+00
-0.1230702419557E+00 -0.1847764981321E+01  0.0000000000000E+00
-0.1271445047865E+00 -0.1708796287153E+01  0.0000000000000E+00
-0.1317609550242E+00 -0.1571662472481E+01  0.0000000000000E+00
-0.1369966810324E+00 -0.1436949485720E+01  0.0000000000000E+00
-0.5501388973120E-01 -0.4158781645376E+01  0.0000000000000E+00
-0.5502777946474E-01 -0.4013518617717E+01  0.0000000000000E+00
-0.5504166920092E-01 -0.3868255562359E+01  0.0000000000000E+00
-0.5505555893702E-01 -0.3722992507896E+01  0.0000000000000E+00
-0.5506944867283E-01 -0.3577729456434E+01  0.0000000000000E+00
-0.5508333842322E-01 -0.3432466252569E+01  0.0000000000000E+00
-0.5509722818649E-01 -0.3287202913870E+01  0.0000000000000E+00
-0.5511111787917E-01 -0.3141940313530E+01  0.0000000000000E+00
-0.5512500760284E-01 -0.2996677389052E+01  0.0000000000000E+00
-0.5513935602430E-01 -0.2851414494581E+01  0.0000000000000E+00
-0.5522368608569E-01 -0.2706162646130E+01  0.0000000000000E+00
-0.5554486617438E-01 -0.2561050717274E+01  0.0000000000000E+00
-0.5616302634812E-01 -0.2416342925707E+01  0.0000000000000E+00
-0.5707369575115E-01 -0.2272288577330E+01  0.0000000000000E+00
-0.5827129836579E-01 -0.2129131579530E+01  0.0000000000000E+00
-0.5976582473046E-01 -0.1987172553712E+01  0.0000000000000E+00
-0.6154034327819E-01 -0.1846598167384E+01  0.0000000000000E+00
-0.6357778182533E-01 -0.1707560839724E+01  0.0000000000000E+00
-0.6588631406154E-01 -0.1570358392634E+01  0.0000000000000E+00
-0.6850448416199E-01 -0.1435576776330E+01  0.0000000000000E+00
 0.2862823369523E-09 -0.4158758760510E+01  0.0000000000000E+00
 0.5725642989217E-09 -0.4013472847981E+01  0.0000000000000E+00
 0.8588466427077E-09 -0.3868186907748E+01  0.0000000000000E+00
 0.1145129137124E-08 -0.3722900968411E+01  0.0000000000000E+00
 0.1431411291690E-08 -0.3577615032075E+01  0.0000000000000E+00
 0.1717693957354E-08 -0.3432328943313E+01  0.0000000000000E+00
 0.2003976567042E-08 -0.3287042719694E+01  0.0000000000000E+00
 0.2290258229023E-08 -0.3141757234552E+01  0.0000000000000E+00
 0.2576540540582E-08 -0.2996471425219E+01  0.0000000000000E+00
 0.2862908882798E-08 -0.2851185645899E+01  0.0000000000000E+00
 0.3153507500703E-08 -0.2705910913180E+01  0.0000000000000E+00
 0.3456098328546E-08 -0.2560776101180E+01  0.0000000000000E+00
 0.3774700689739E-08 -0.2416045426712E+01  0.0000000000000E+00
 0.4110245087960E-08 -0.2271968195110E+01  0.0000000000000E+00
 0.4465088130623E-08 -0.2128788314238E+01  0.0000000000000E+00
 0.4838883325138E-08 -0.1986806405465E+01  0.0000000000000E+00
 0.5225485939100E-08 -0.1846209135851E+01  0.0000000000000E+00
 0.5628719591881E-08 -0.1707148924857E+01  0.0000000000000E+00
 0.6050320966622E-08 -0.1569923594790E+01  0.0000000000000E+00
 0.6487104863030E-08 -0.1435119096470E+01  0.0000000000000E+00
 0.5501389030371E-01 -0.4158781645385E+01  0.0000000000000E+00
 0.5502778060975E-01 -0.4013518617735E+01  0.0000000000000E+00
 0.5504167091844E-01 -0.3868255562385E+01  0.0000000000000E+00
 0.5505556122704E-01 -0.3722992507932E+01  0.0000000000000E+00
 0.5506945153536E-01 -0.3577729456478E+01  0.0000000000000E+00
 0.5508334185825E-01 -0.3432466252622E+01  0.0000000000000E+00
 0.5509723219403E-01 -0.3287202913932E+01  0.0000000000000E+00
 0.5511112245921E-01 -0.3141940313601E+01  0.0000000000000E+00
 0.5512501275539E-01 -0.2996677389131E+01  0.0000000000000E+00
 0.5513936174952E-01 -0.2851414494669E+01  0.0000000000000E+00
 0.5522369239205E-01 -0.2706162646227E+01  0.0000000000000E+00
 0.5554487308587E-01 -0.2561050717381E+01  0.0000000000000E+00
 0.5616303389675E-01 -0.2416342925823E+01  0.0000000000000E+00
 0.5707370397081E-01 -0.2272288577454E+01  0.0000000000000E+00
 0.5827130729508E-01 -0.2129131579663E+01  0.0000000000000E+00
 0.5976583440727E-01 -0.1987172553854E+01  0.0000000000000E+00
 0.6154035372815E-01 -0.1846598167536E+01  0.0000000000000E+00
 0.6357779308170E-01 -0.1707560839884E+01  0.0000000000000E+00
 0.6588632616105E-01 -0.1570358392803E+01  0.0000000000000E+00
 0.6850449713501E-01 -0.1435576776509E+01  0.0000000000000E+00
 0.1100271656065E+00 -0.4158850283482E+01  0.0000000000000E+00
 0.1100543312175E+00 -0.4013655893941E+01  0.0000000000000E+00
 0.1100814968337E+00 -0.3868461476714E+01  0.0000000000000E+00
 0.1101086624497E+00 -0.3723267060381E+01  0.0000000000000E+00
 0.1101358280652E+00 -0.3578072647048E+01  0.0000000000000E+00
 0.1101629937092E+00 -0.3432878081384E+01  0.0000000000000E+00
 0.1101901593784E+00 -0.3287683380950E+01  0.0000000000000E+00
 0.1102173249095E+00 -0.3142489418526E+01  0.0000000000000E+00
 0.1102444905012E+00 -0.2997295132116E+01  0.0000000000000E+00
 0.1102725734889E+00 -0.2852100875700E+01  0.0000000000000E+00
 0.1104406197850E+00 -0.2706917663563E+01  0.0000000000000E+00
 0.1110823662026E+00 -0.2561874367650E+01  0.0000000000000E+00
 0.1123180728459E+00 -0.2417235208296E+01  0.0000000000000E+00
 0.1141387979908E+00 -0.2273249493102E+01  0.0000000000000E+00
 0.1165333896219E+00 -0.2130161128027E+01  0.0000000000000E+00
 0.1195218288140E+00 -0.1988270734580E+01  0.0000000000000E+00
 0.1230702524027E+00 -0.1847764981623E+01  0.0000000000000E+00
 0.1271445160396E+00 -0.1708796287473E+01  0.0000000000000E+00
 0.1317609671203E+00 -0.1571662472820E+01  0.0000000000000E+00
 0.1369966940019E+00 -0.1436949486077E+01  0.0000000000000E+00
 0.1650392132044E+00 -0.4158964625323E+01  0.0000000000000E+00
 0.1650784264154E+00 -0.4013884577643E+01  0.0000000000000E+00
 0.1651176396338E+00 -0.3868804502297E+01  0.0000000000000E+00
 0.1651568528521E+00 -0.3723724427846E+01  0.0000000000000E+00
 0.1651960660695E+00 -0.3578644356392E+01  0.0000000000000E+00
 0.1652352793280E+00 -0.3433564132727E+01  0.0000000000000E+00
 0.1652744926230E+00 -0.3288483774398E+01  0.0000000000000E+00
 0.1653137057186E+00 -0.3143404153498E+01  0.0000000000000E+00
 0.1653529189017E+00 -0.2998324208867E+01  0.0000000000000E+00
 0.1653935081791E+00 -0.2853244294207E+01  0.0000000000000E+00
 0.1656440424602E+00 -0.2708175420923E+01  0.0000000000000E+00
 0.1666051270078E+00 -0.2563246458249E+01  0.0000000000000E+00
 0.1684571519207E+00 -0.2418721630920E+01  0.0000000000000E+00
 0.1711867045741E+00 -0.2274850249366E+01  0.0000000000000E+00
 0.1747770569752E+00 -0.2131876217167E+01  0.0000000000000E+00
 0.1792581807348E+00 -0.1990100156009E+01  0.0000000000000E+00
 0.1845792810779E+00 -0.1849708737001E+01  0.0000000000000E+00
 0.1906891414983E+00 -0.1710854377037E+01  0.0000000000000E+00
 0.1976122831161E+00 -0.1573834894781E+01  0.0000000000000E+00
 0.2054643385111E+00 -0.1439236235641E+01  0.0000000000000E+00
 0.2200494219020E+00 -0.4159124588604E+01  0.0000000000000E+00
 0.2200988438123E+00 -0.4014204504231E+01  0.0000000000000E+00
 0.2201482657321E+00 -0.3869284392223E+01  0.0000000000000E+00
 0.2201976876515E+00 -0.3724364281109E+01  0.0000000000000E+00
 0.2202471095699E+00 -0.3579444172988E+01  0.0000000000000E+00
 0.2202965315402E+00 -0.3434523912825E+01  0.0000000000000E+00
 0.2203459535564E+00 -0.3289603518146E+01  0.0000000000000E+00
 0.2203953753213E+00 -0.3144683860083E+01  0.0000000000000E+00
 0.2204447971965E+00 -0.2999763878646E+01  0.0000000000000E+00
 0.2204960538646E+00 -0.2854843927147E+01  0.0000000000000E+00
 0.2208272372724E+00 -0.2709935012966E+01  0.0000000000000E+00
 0.2221058211612E+00 -0.2565166001538E+01  0.0000000000000E+00
 0.2245723255485E+00 -0.2420801123755E+01  0.0000000000000E+00
 0.2282088668637E+00 -0.2277089694009E+01  0.0000000000000E+00
 0.2329931411755E+00 -0.2134275612548E+01  0.0000000000000E+00
 0.2389651106267E+00 -0.1992659501308E+01  0.0000000000000E+00
 0.2460570487974E+00 -0.1852428034541E+01  0.0000000000000E+00
 0.2542006670476E+00 -0.1713733627147E+01  0.0000000000000E+00
 0.2634286602540E+00 -0.1576874094959E+01  0.0000000000000E+00
 0.2738952052641E+00 -0.1442435379182E+01  0.0000000000000E+00
 0.2750571864227E+00 -0.4159330058645E+01  0.0000000000000E+00
 0.2751143728551E+00 -0.4014615444347E+01  0.0000000000000E+00
 0.2751715592983E+00 -0.3869900802454E+01  0.0000000000000E+00
 0.2752287457413E+00 -0.3725186161454E+01  0.0000000000000E+00
 0.2752859321830E+00 -0.3580471523442E+01  0.0000000000000E+00
 0.2753431186847E+00 -0.3435756733604E+01  0.0000000000000E+00
 0.2754003052395E+00 -0.3291041809440E+01  0.0000000000000E+00
 0.2754574915036E+00 -0.3146327620849E+01  0.0000000000000E+00
 0.2755146778954E+00 -0.3001613109341E+01  0.0000000000000E+00
 0.2755741577791E+00 -0.2856898627730E+01  0.0000000000000E+00
 0.2759835462059E+00 -0.2712195178222E+01  0.0000000000000E+00
 0.2775771854665E+00 -0.2567631621378E+01  0.0000000000000E+00
 0.2806557254076E+00 -0.2423472195995E+01  0.0000000000000E+00
 0.2851968114520E+00 -0.2279966221552E+01  0.0000000000000E+00
 0.2911725637801E+00 -0.2137357594023E+01  0.0000000000000E+00
 0.2986329350640E+00 -0.1995946935658E+01  0.0000000000000E+00
 0.3074932671891E+00 -0.1855920924753E+01  0.0000000000000E+00
 0.3176681994114E+00 -0.1717431973642E+01  0.0000000000000E+00
 0.3291986004074E+00 -0.1580777894524E+01  0.0000000000000E+00
 0.3422771913601E+00 -0.1446544623204E+01  0.0000000000000E+00
 0.3300619062378E+00 -0.4159580888732E+01  0.0000000000000E+00
 0.3301238124860E+00 -0.4015117104564E+01  0.0000000000000E+00
 0.3301857187460E+00 -0.3870653292848E+01  0.0000000000000E+00
 0.3302476250056E+00 -0.3726189482023E+01  0.0000000000000E+00
 0.3303095312640E+00 -0.3581725674181E+01  0.0000000000000E+00
 0.3303714375873E+00 -0.3437261714777E+01  0.0000000000000E+00
 0.3304333439680E+00 -0.3292797621279E+01  0.0000000000000E+00
 0.3304952500341E+00 -0.3148334262079E+01  0.0000000000000E+00
 0.3305571562384E+00 -0.3003870580523E+01  0.0000000000000E+00
 0.3306218146344E+00 -0.2859406928811E+01  0.0000000000000E+00
 0.3311063634587E+00 -0.2714954302838E+01  0.0000000000000E+00
 0.3330120136349E+00 -0.2570641557211E+01  0.0000000000000E+00
 0.3366995447255E+00 -0.2426732940380E+01  0.0000000000000E+00
 0.3421421310710E+00 -0.2283477778033E+01  0.0000000000000E+00
 0.3493063170268E+00 -0.2141119960924E+01  0.0000000000000E+00
 0.3582520457899E+00 -0.1999960111693E+01  0.0000000000000E+00
 0.3688777274904E+00 -0.1860184913564E+01  0.0000000000000E+00
 0.3810809293167E+00 -0.1721946775745E+01  0.0000000000000E+00
 0.3949106938001E+00 -0.1585543505997E+01  0.0000000000000E+00
 0.4105982865409E+00 -0.1451561033531E+01  0.0000000000000E+00
 0.3850629870294E+00 -0.4159876900628E+01  0.0000000000000E+00
 0.3851259740694E+00 -0.4015709128407E+01  0.0000000000000E+00
 0.3851889611214E+00 -0.3871541328694E+01  0.0000000000000E+00
 0.3852519481730E+00 -0.3727373529871E+01  0.0000000000000E+00
 0.3853149352233E+00 -0.3583205734024E+01  0.0000000000000E+00
 0.3853779223397E+00 -0.3439037786925E+01  0.0000000000000E+00
 0.3854409095145E+00 -0.3294869706008E+01  0.0000000000000E+00
 0.3855038963692E+00 -0.3150702357884E+01  0.0000000000000E+00
 0.3855668833645E+00 -0.3006534688064E+01  0.0000000000000E+00
 0.3856330812520E+00 -0.2862367048028E+01  0.0000000000000E+00
 0.3861891515386E+00 -0.2718210426220E+01  0.0000000000000E+00
 0.3884031738507E+00 -0.2574193670220E+01  0.0000000000000E+00
 0.3926960573210E+00 -0.2430581039871E+01  0.0000000000000E+00
 0.3990365051180E+00 -0.2287621868191E+01  0.0000000000000E+00
 0.4073854858481E+00 -0.2145560039770E+01  0.0000000000000E+00
 0.4178129332270E+00 -0.2004696177705E+01  0.0000000000000E+00
 0.4302003255592E+00 -0.1865216971045E+01  0.0000000000000E+00
 0.4444281580129E+00 -0.1727274825304E+01  0.0000000000000E+00
 0.4605536470375E+00 -0.1591167543002E+01  0.0000000000000E+00
 0.4788466027428E+00 -0.1457481045576E+01  0.0000000000000E+00
 0.4400598454253E+00 -0.4160217885626E+01  0.0000000000000E+00
 0.4401196908606E+00 -0.4016391098460E+01  0.0000000000000E+00
 0.4401795363073E+00 -0.3872564283867E+01  0.0000000000000E+00
 0.4402393817537E+00 -0.3728737470161E+01  0.0000000000000E+00
 0.4402992271988E+00 -0.3584910659426E+01  0.0000000000000E+00
 0.4403590727067E+00 -0.3441083697795E+01  0.0000000000000E+00
 0.4404189182702E+00 -0.3297256602663E+01  0.0000000000000E+00
 0.4404787635294E+00 -0.3153430238591E+01  0.0000000000000E+00
 0.4405386089222E+00 -0.3009603553584E+01  0.0000000000000E+00
 0.4406021239088E+00 -0.2865776898291E+01  0.0000000000000E+00
 0.4412254933894E+00 -0.2721961252573E+01  0.0000000000000E+00
 0.4437436658343E+00 -0.2578285455918E+01  0.0000000000000E+00
 0.4486376797985E+00 -0.2435013781291E+01  0.0000000000000E+00
 0.4558717671729E+00 -0.2292395570152E+01  0.0000000000000E+00
 0.4654013209015E+00 -0.2150674699993E+01  0.0000000000000E+00
 0.4773062652143E+00 -0.2010151794440E+01  0.0000000000000E+00
 0.4914511465035E+00 -0.1871013549246E+01  0.0000000000000E+00
 0.5076993879652E+00 -0.1733412365671E+01  0.0000000000000E+00
 0.5261163800438E+00 -0.1597646040203E+01  0.0000000000000E+00
 0.5470104774790E+00 -0.1464300485316E+01  0.0000000000000E+00
 0.4950519032465E+00 -0.4160603604573E+01  0.0000000000000E+00
 0.4951038065017E+00 -0.4017162536418E+01  0.0000000000000E+00
 0.4951557097668E+00 -0.3873721440910E+01  0.0000000000000E+00
 0.4952076130316E+00 -0.3730280346287E+01  0.0000000000000E+00
 0.4952595162954E+00 -0.3586839254627E+01  0.0000000000000E+00
 0.4953114196136E+00 -0.3443398012476E+01  0.0000000000000E+00
 0.4953633229799E+00 -0.3299956637182E+01  0.0000000000000E+00
 0.4954152260825E+00 -0.3156515990986E+01  0.0000000000000E+00
 0.4954671293008E+00 -0.3013075024716E+01  0.0000000000000E+00
 0.4955231608153E+00 -0.2869634088082E+01  0.0000000000000E+00
 0.4962090290232E+00 -0.2726204151236E+01  0.0000000000000E+00
 0.4990265513109E+00 -0.2582914044509E+01  0.0000000000000E+00
 0.5045168954561E+00 -0.2440028055714E+01  0.0000000000000E+00
 0.5126398219542E+00 -0.2297795535855E+01  0.0000000000000E+00
 0.5233451481883E+00 -0.2156460354401E+01  0.0000000000000E+00
 0.5367227888929E+00 -0.2016323135572E+01  0.0000000000000E+00
 0.5526203584575E+00 -0.1877570582705E+01  0.0000000000000E+00
 0.5708842081701E+00 -0.1740355092250E+01  0.0000000000000E+00
 0.5915879025534E+00 -0.1604974453869E+01  0.0000000000000E+00
 0.6150783410931E+00 -0.1472014569901E+01  0.0000000000000E+00
 0.5500385988537E+00 -0.4161033790003E+01  0.0000000000000E+00
 0.5500771977139E+00 -0.4018022907351E+01  0.0000000000000E+00
 0.5501157965814E+00 -0.3875011997428E+01  0.0000000000000E+00
 0.5501543954487E+00 -0.3732001088388E+01  0.0000000000000E+00
 0.5501929943152E+00 -0.3588990182300E+01  0.0000000000000E+00
 0.5502315932222E+00 -0.3445979126174E+01  0.0000000000000E+00
 0.5502701921651E+00 -0.3302967937304E+01  0.0000000000000E+00
 0.5503087909117E+00 -0.3159957475345E+01  0.0000000000000E+00
 0.5503473897445E+00 -0.3016946694273E+01  0.0000000000000E+00
 0.5503905755770E+00 -0.2873935942748E+01  0.0000000000000E+00
 0.5511335804643E+00 -0.2730936180095E+01  0.0000000000000E+00
 0.5542450908984E+00 -0.2588076226435E+01  0.0000000000000E+00
 0.5603264036954E+00 -0.2445620386136E+01  0.0000000000000E+00
 0.5693328078211E+00 -0.2303818020853E+01  0.0000000000000E+00
 0.5812085452069E+00 -0.2162912991101E+01  0.0000000000000E+00
 0.5960535210873E+00 -0.2023205921764E+01  0.0000000000000E+00
 0.6136984177373E+00 -0.1884883524639E+01  0.0000000000000E+00
 0.6339725145979E+00 -0.1748098190811E+01  0.0000000000000E+00
 0.6569575503672E+00 -0.1613147702329E+01  0.0000000000000E+00
 0.6830389694328E+00 -0.1480617950226E+01  0.0000000000000E+00
 0.6050711735961E+00 -0.4161516918212E+01  0.0000000000000E+00
 0.6051423472042E+00 -0.4018989163849E+01  0.0000000000000E+00
 0.6052135208259E+00 -0.3876461382308E+01  0.0000000000000E+00
 0.6052846944471E+00 -0.3733933601646E+01  0.0000000000000E+00
 0.6053558680668E+00 -0.3591405823928E+01  0.0000000000000E+00
 0.6054270417613E+00 -0.3448877896677E+01  0.0000000000000E+00
 0.6054982155217E+00 -0.3306349837131E+01  0.0000000000000E+00
 0.6055693889205E+00 -0.3163822502041E+01  0.0000000000000E+00
 0.6056405624780E+00 -0.3021294848915E+01  0.0000000000000E+00
 0.6057167863091E+00 -0.2878767225238E+01  0.0000000000000E+00
 0.6065635090779E+00 -0.2736250578173E+01  0.0000000000000E+00
 0.6100179512757E+00 -0.2593873716375E+01  0.0000000000000E+00
 0.6167421408437E+00 -0.2451900962805E+01  0.0000000000000E+00
 0.6266868517137E+00 -0.2310581691079E+01  0.0000000000000E+00
 0.6397906937444E+00 -0.2170159751654E+01  0.0000000000000E+00
 0.6561636624840E+00 -0.2030935770165E+01  0.0000000000000E+00
 0.6756193399513E+00 -0.1893096467907E+01  0.0000000000000E+00
 0.6979697627244E+00 -0.1756794229939E+01  0.0000000000000E+00
 0.7233049244723E+00 -0.1622326829760E+01  0.0000000000000E+00
 0.7520491980992E+00 -0.1490280145708E+01  0.0000000000000E+00
 0.6600970514097E+00 -0.4162045450007E+01  0.0000000000000E+00
 0.6601941028358E+00 -0.4020046227529E+01  0.0000000000000E+00
 0.6602911542804E+00 -0.3878046977972E+01  0.0000000000000E+00
 0.6603882057244E+00 -0.3736047729292E+01  0.0000000000000E+00
 0.6604852571663E+00 -0.3594048483544E+01  0.0000000000000E+00
 0.6605823087101E+00 -0.3452049088819E+01  0.0000000000000E+00
 0.6606793603440E+00 -0.3310049562288E+01  0.0000000000000E+00
 0.6607764114846E+00 -0.3168050757527E+01  0.0000000000000E+00
 0.6608734628417E+00 -0.3026051635910E+01  0.0000000000000E+00
 0.6609760277476E+00 -0.2884052543634E+01  0.0000000000000E+00
 0.6619197716469E+00 -0.2742064414558E+01  0.0000000000000E+00
 0.6657104491960E+00 -0.2600216044793E+01  0.0000000000000E+00
 0.6730708192057E+00 -0.2458771777641E+01  0.0000000000000E+00
 0.6839471404084E+00 -0.2317980999801E+01  0.0000000000000E+00
 0.6982723907284E+00 -0.2178087550732E+01  0.0000000000000E+00
 0.7161666560184E+00 -0.2039392056884E+01  0.0000000000000E+00
 0.7374264179084E+00 -0.1902081249946E+01  0.0000000000000E+00
 0.7618464701962E+00 -0.1766307508384E+01  0.0000000000000E+00
 0.7895250616408E+00 -0.1632368596345E+01  0.0000000000000E+00
 0.8209254938403E+00 -0.1500850378279E+01  0.0000000000000E+00
 0.7151156783233E+00 -0.4162619017198E+01  0.0000000000000E+00
 0.7152313566661E+00 -0.4021193362007E+01  0.0000000000000E+00
 0.7153470350309E+00 -0.3879767679848E+01  0.0000000000000E+00
 0.7154627133950E+00 -0.3738341998561E+01  0.0000000000000E+00
 0.7155783917567E+00 -0.3596916320194E+01  0.0000000000000E+00
 0.7156940702398E+00 -0.3455490493452E+01  0.0000000000000E+00
 0.7158097488303E+00 -0.3314064535437E+01  0.0000000000000E+00
 0.7159254268328E+00 -0.3172639296277E+01  0.0000000000000E+00
 0.7160411050934E+00 -0.3031213741540E+01  0.0000000000000E+00
 0.7161627601794E+00 -0.2889788216026E+01  0.0000000000000E+00
 0.7171962745057E+00 -0.2748373639159E+01  0.0000000000000E+00
 0.7213159370821E+00 -0.2607098793435E+01  0.0000000000000E+00
 0.7293052373161E+00 -0.2466228044230E+01  0.0000000000000E+00
 0.7411059185607E+00 -0.2326010792442E+01  0.0000000000000E+00
 0.7566453269564E+00 -0.2186690865594E+01  0.0000000000000E+00
 0.7760536386498E+00 -0.2048568891020E+01  0.0000000000000E+00
 0.7991102347380E+00 -0.1911831611690E+01  0.0000000000000E+00
 0.8255926663275E+00 -0.1776631398915E+01  0.0000000000000E+00
 0.8556074373960E+00 -0.1643266006692E+01  0.0000000000000E+00
 0.8896567784302E+00 -0.1512321284399E+01  0.0000000000000E+00
 0.7701265164027E+00 -0.4163237225325E+01  0.0000000000000E+00
 0.7702530328267E+00 -0.4022429778365E+01  0.0000000000000E+00
 0.7703795492748E+00 -0.3881622304554E+01  0.0000000000000E+00
 0.7705060657221E+00 -0.3740814831612E+01  0.0000000000000E+00
 0.7706325821669E+00 -0.3600007361578E+01  0.0000000000000E+00
 0.7707590987443E+00 -0.3459199743817E+01  0.0000000000000E+00
 0.7708856154392E+00 -0.3318391995356E+01  0.0000000000000E+00
 0.7710121314910E+00 -0.3177584962608E+01  0.0000000000000E+00
 0.7711386478251E+00 -0.3036777615663E+01  0.0000000000000E+00
 0.7712716042631E+00 -0.2895970297815E+01  0.0000000000000E+00
 0.7723871003997E+00 -0.2755173912926E+01  0.0000000000000E+00
 0.7768279598168E+00 -0.2614517228821E+01  0.0000000000000E+00
 0.7854384022306E+00 -0.2474264634665E+01  0.0000000000000E+00
 0.7981556554211E+00 -0.2334665546664E+01  0.0000000000000E+00
 0.8149014339060E+00 -0.2195963779472E+01  0.0000000000000E+00
 0.8358160041157E+00 -0.2058459961379E+01  0.0000000000000E+00
 0.8606616464579E+00 -0.1922340847513E+01  0.0000000000000E+00
 0.8891986694414E+00 -0.1787758801471E+01  0.0000000000000E+00
 0.9215418324023E+00 -0.1655011566313E+01  0.0000000000000E+00
 0.9582322949282E+00 -0.1524684975170E+01  0.0000000000000E+00
 0.8251290426611E+00 -0.4163899654623E+01  0.0000000000000E+00
 0.8252580853438E+00 -0.4023754637073E+01  0.0000000000000E+00
 0.8253871280512E+00 -0.3883609592798E+01  0.0000000000000E+00
 0.8255161707578E+00 -0.3743464549388E+01  0.0000000000000E+00
 0.8256452134617E+00 -0.3603319508872E+01  0.0000000000000E+00
 0.8257742563010E+00 -0.3463174321324E+01  0.0000000000000E+00
 0.8259032992601E+00 -0.3323029003691E+01  0.0000000000000E+00
 0.8260323415633E+00 -0.3182884398404E+01  0.0000000000000E+00
 0.8261613841544E+00 -0.3042739480398E+01  0.0000000000000E+00
 0.8262973301294E+00 -0.2902594591353E+01  0.0000000000000E+00
 0.8274864964698E+00 -0.2762460618459E+01  0.0000000000000E+00
 0.8322402415205E+00 -0.2622466313816E+01  0.0000000000000E+00
 0.8414635149845E+00 -0.2482876092086E+01  0.0000000000000E+00
 0.8550890288630E+00 -0.2343939385871E+01  0.0000000000000E+00
 0.8730328662242E+00 -0.2205899996038E+01  0.0000000000000E+00
 0.8954453837691E+00 -0.2069058551904E+01  0.0000000000000E+00
 0.9220717610531E+00 -0.1933601821620E+01  0.0000000000000E+00
 0.9526550640919E+00 -0.1799682160523E+01  0.0000000000000E+00
 0.9873183077263E+00 -0.1667597299948E+01  0.0000000000000E+00
 0.1026641580862E+01 -0.1537933055620E+01  0.0000000000000E+00
 0.8801227526612E+00 -0.4164605862042E+01  0.0000000000000E+00
 0.8802455053430E+00 -0.4025167052030E+01  0.0000000000000E+00
 0.8803682580483E+00 -0.3885728215428E+01  0.0000000000000E+00
 0.8804910107528E+00 -0.3746289379686E+01  0.0000000000000E+00
 0.8806137634548E+00 -0.3606850546824E+01  0.0000000000000E+00
 0.8807365162855E+00 -0.3467411567670E+01  0.0000000000000E+00
 0.8808592692302E+00 -0.3327972459088E+01  0.0000000000000E+00
 0.8809820215509E+00 -0.3188534059261E+01  0.0000000000000E+00
 0.8811047741456E+00 -0.3049095348291E+01  0.0000000000000E+00
 0.8812348934061E+00 -0.2909656666139E+01  0.0000000000000E+00
 0.8824889139179E+00 -0.2770228882217E+01  0.0000000000000E+00
 0.8875467289882E+00 -0.2630940731864E+01  0.0000000000000E+00
 0.8973740179636E+00 -0.2492056656920E+01  0.0000000000000E+00
 0.9118989768486E+00 -0.2353826107473E+01  0.0000000000000E+00
 0.9310320574458E+00 -0.2216492869689E+01  0.0000000000000E+00
 0.9549337067125E+00 -0.2080357573977E+01  0.0000000000000E+00
 0.9833320031794E+00 -0.1945607002375E+01  0.0000000000000E+00
 0.1015952770480E+01 -0.1812393501412E+01  0.0000000000000E+00
 0.1052927279116E+01 -0.1681014789925E+01  0.0000000000000E+00
 0.1094874547539E+01 -0.1552056665082E+01  0.0000000000000E+00
 0.9351071625386E+00 -0.4165355383182E+01  0.0000000000000E+00
 0.9352143250951E+00 -0.4026666094435E+01  0.0000000000000E+00
 0.9353214876721E+00 -0.3887976779241E+01  0.0000000000000E+00
 0.9354286502485E+00 -0.3749287464903E+01  0.0000000000000E+00
 0.9355358128226E+00 -0.3610598153429E+01  0.0000000000000E+00
 0.9356429755092E+00 -0.3471908696450E+01  0.0000000000000E+00
 0.9357501382952E+00 -0.3333219110738E+01  0.0000000000000E+00
 0.9358573005366E+00 -0.3194530229972E+01  0.0000000000000E+00
 0.9359644630170E+00 -0.3055841039736E+01  0.0000000000000E+00
 0.9360794554472E+00 -0.2917151878163E+01  0.0000000000000E+00
 0.9373890302784E+00 -0.2778473595801E+01  0.0000000000000E+00
 0.9427416160660E+00 -0.2639934910201E+01  0.0000000000000E+00
 0.9531636214662E+00 -0.2501800292046E+01  0.0000000000000E+00
 0.9685787262547E+00 -0.2364319209979E+01  0.0000000000000E+00
 0.9888917511598E+00 -0.2227735434568E+01  0.0000000000000E+00
 0.1014273233385E+01 -0.2092349597379E+01  0.0000000000000E+00
 0.1044434150246E+01 -0.1958348495191E+01  0.0000000000000E+00
 0.1079083083104E+01 -0.1825884465182E+01  0.0000000000000E+00
 0.1118359558289E+01 -0.1695255212926E+01  0.0000000000000E+00
 0.1162921524060E+01 -0.1567046515895E+01  0.0000000000000E+00
 0.9900818009967E+00 -0.4166147731619E+01  0.0000000000000E+00
 0.9901636020073E+00 -0.4028250791442E+01  0.0000000000000E+00
 0.9902454030334E+00 -0.3890353824970E+01  0.0000000000000E+00
 0.9903272040590E+00 -0.3752456859348E+01  0.0000000000000E+00
 0.9904090050829E+00 -0.3614559896574E+01  0.0000000000000E+00
 0.9904908061926E+00 -0.3476662789126E+01  0.0000000000000E+00
 0.9905726073782E+00 -0.3338765553681E+01  0.0000000000000E+00
 0.9906544081481E+00 -0.3200869019154E+01  0.0000000000000E+00
 0.9907362091005E+00 -0.3062972176925E+01  0.0000000000000E+00
 0.9908263032885E+00 -0.2925075363198E+01  0.0000000000000E+00
 0.9921816612505E+00 -0.2787189408576E+01  0.0000000000000E+00
 0.9978192469641E+00 -0.2649443011802E+01  0.0000000000000E+00
 0.1008826197998E+01 -0.2512100674057E+01  0.0000000000000E+00
 0.1025121677659E+01 -0.2375411883596E+01  0.0000000000000E+00
 0.1046604875805E+01 -0.2239620394497E+01  0.0000000000000E+00
 0.1073456419869E+01 -0.2105026839552E+01  0.0000000000000E+00
 0.1105370185765E+01 -0.1971818031119E+01  0.0000000000000E+00
 0.1142037512709E+01 -0.1840146296494E+01  0.0000000000000E+00
 0.1183606183030E+01 -0.1710309327229E+01  0.0000000000000E+00
 0.1230773075037E+01 -0.1582892879975E+01  0.0000000000000E+00
 0.1045046223052E+01 -0.4166982403876E+01  0.0000000000000E+00
 0.1045092446112E+01 -0.4029920136097E+01  0.0000000000000E+00
 0.1045138669180E+01 -0.3892857842181E+01  0.0000000000000E+00
 0.1045184892248E+01 -0.3755795549111E+01  0.0000000000000E+00
 0.1045231115316E+01 -0.3618733258871E+01  0.0000000000000E+00
 0.1045277338431E+01 -0.3481670824833E+01  0.0000000000000E+00
 0.1045323561590E+01 -0.3344608263573E+01  0.0000000000000E+00
 0.1045369784514E+01 -0.3207546398988E+01  0.0000000000000E+00
 0.1045416007541E+01 -0.3070484228564E+01  0.0000000000000E+00
 0.1045470987091E+01 -0.2933422086471E+01  0.0000000000000E+00
 0.1046861912070E+01 -0.2796370782303E+01  0.0000000000000E+00
 0.1052774282170E+01 -0.2659458994993E+01  0.0000000000000E+00
 0.1064355963499E+01 -0.2522951257843E+01  0.0000000000000E+00
 0.1081521602640E+01 -0.2387097079773E+01  0.0000000000000E+00
 0.1104164758793E+01 -0.2252140197489E+01  0.0000000000000E+00
 0.1132476149605E+01 -0.2118381245072E+01  0.0000000000000E+00
 0.1166132549384E+01 -0.1986007051293E+01  0.0000000000000E+00
 0.1204808055323E+01 -0.1855169933038E+01  0.0000000000000E+00
 0.1248658705933E+01 -0.1726167567089E+01  0.0000000000000E+00
 0.1298420309852E+01 -0.1599585688162E+01  0.0000000000000E+00
-0.6428079475289E+00 -0.1172076972089E+01  0.0000000000000E+00
-0.6445725414276E+00 -0.1001378991910E+01  0.0000000000000E+00
-0.6478510113258E+00 -0.8307079029823E+00  0.0000000000000E+00
-0.6528951459130E+00 -0.6600888595986E+00  0.0000000000000E+00
-0.6593381371986E+00 -0.4895264917391E+00  0.0000000000000E+00
-0.6657811281315E+00 -0.3189641238667E+00  0.0000000000000E+00
-0.6708252618112E+00 -0.1483450804569E+00  0.0000000000000E+00
-0.6741037305066E+00  0.2232600849347E-01  0.0000000000000E+00
-0.6758683230797E+00  0.1930239886852E+00  0.0000000000000E+00
-0.5717622019252E+00 -0.1163097080089E+01  0.0000000000000E+00
-0.5734202106823E+00 -0.9915189097050E+00  0.0000000000000E+00
-0.5764238865398E+00 -0.8199676323119E+00  0.0000000000000E+00
-0.5809970417873E+00 -0.6484684004727E+00  0.0000000000000E+00
-0.5868136252857E+00 -0.4770258406587E+00  0.0000000000000E+00
-0.5926302084314E+00 -0.3055832808331E+00  0.0000000000000E+00
-0.5972033627714E+00 -0.1340840489707E+00  0.0000000000000E+00
-0.6002070374260E+00  0.3746722844213E-01  0.0000000000000E+00
-0.6018650448575E+00  0.2090453988374E+00  0.0000000000000E+00
-0.5005853102949E+00 -0.1155150522808E+01  0.0000000000000E+00
-0.5021063992260E+00 -0.9827861299403E+00  0.0000000000000E+00
-0.5048049465676E+00 -0.8104486316177E+00  0.0000000000000E+00
-0.5088767881748E+00 -0.6381631788575E+00  0.0000000000000E+00
-0.5140366296026E+00 -0.4659343949968E+00  0.0000000000000E+00
-0.5191964706777E+00 -0.2937056111261E+00  0.0000000000000E+00
-0.5232683113774E+00 -0.1214201583456E+00  0.0000000000000E+00
-0.5259668575162E+00  0.5091733999426E-01  0.0000000000000E+00
-0.5274879451216E+00  0.2232817328716E+00  0.0000000000000E+00
-0.4292924458054E+00 -0.1148245728622E+01  0.0000000000000E+00
-0.4306493041388E+00 -0.9751924874222E+00  0.0000000000000E+00
-0.4330154122864E+00 -0.8021661421289E+00  0.0000000000000E+00
-0.4365586296214E+00 -0.6291918424054E+00  0.0000000000000E+00
-0.4410344182749E+00 -0.4562742088428E+00  0.0000000000000E+00
-0.4455102065756E+00 -0.2833565752716E+00  0.0000000000000E+00
-0.4490534230032E+00 -0.1103822755307E+00  0.0000000000000E+00
-0.4514195299479E+00  0.6264406977736E-01  0.0000000000000E+00
-0.4527763869556E+00  0.2356973109854E+00  0.0000000000000E+00
-0.3578991857854E+00 -0.1142390156027E+01  0.0000000000000E+00
-0.3590678354036E+00 -0.9687485164622E+00  0.0000000000000E+00
-0.3610775263391E+00 -0.7951337739660E+00  0.0000000000000E+00
-0.3640681414448E+00 -0.6215710770455E+00  0.0000000000000E+00
-0.3678358993193E+00 -0.4480650439469E+00  0.0000000000000E+00
-0.3716036568411E+00 -0.2745590108411E+00  0.0000000000000E+00
-0.3745942710393E+00 -0.1009963139061E+00  0.0000000000000E+00
-0.3766039607719E+00  0.7261842860244E-01  0.0000000000000E+00
-0.3777726090644E+00  0.2462600681747E+00  0.0000000000000E+00
-0.2864215855890E+00 -0.1137590239147E+01  0.0000000000000E+00
-0.2873816210134E+00 -0.9634633425220E+00  0.0000000000000E+00
-0.2890144893591E+00 -0.7893633439243E+00  0.0000000000000E+00
-0.2914320969289E+00 -0.6153153909072E+00  0.0000000000000E+00
-0.2944714186929E+00 -0.4413240997829E+00  0.0000000000000E+00
-0.2975107401042E+00 -0.2673328086529E+00  0.0000000000000E+00
-0.2999283467665E+00 -0.9328485562423E-01  0.0000000000000E+00
-0.3015612139093E+00  0.8081514298333E-01  0.0000000000000E+00
-0.3025212480080E+00  0.2549420396143E+00  0.0000000000000E+00
-0.2148760528319E+00 -0.1133851325356E+01  0.0000000000000E+00
-0.2156108655255E+00 -0.9593445794947E+00  0.0000000000000E+00
-0.2168503028290E+00 -0.7848647324114E+00  0.0000000000000E+00
-0.2186782944709E+00 -0.6104369309123E+00  0.0000000000000E+00
-0.2209725717140E+00 -0.4360657897959E+00  0.0000000000000E+00
-0.2232668486044E+00 -0.2616946486752E+00  0.0000000000000E+00
-0.2250948393388E+00 -0.8726684716740E-01  0.0000000000000E+00
-0.2263342754395E+00  0.8721299992331E-01  0.0000000000000E+00
-0.2270690868073E+00  0.2617197457887E+00  0.0000000000000E+00
-0.1432792800287E+00 -0.1131177627176E+01  0.0000000000000E+00
-0.1437762464154E+00 -0.9563982442783E+00  0.0000000000000E+00
-0.1446096291476E+00 -0.7816457606963E+00  0.0000000000000E+00
-0.1458353813581E+00 -0.6069453227008E+00  0.0000000000000E+00
-0.1473719905470E+00 -0.4323015440042E+00  0.0000000000000E+00
-0.1489085993831E+00 -0.2576577653047E+00  0.0000000000000E+00
-0.1501343506860E+00 -0.8295732730341E-01  0.0000000000000E+00
-0.1509677322153E+00  0.9179515628351E-01  0.0000000000000E+00
-0.1514646972764E+00  0.2665745391843E+00  0.0000000000000E+00
-0.7164822860673E-01 -0.1129572184387E+01  0.0000000000000E+00
-0.7189884966313E-01 -0.9546286881243E+00  0.0000000000000E+00
-0.7231767885223E-01 -0.7797120915013E+00  0.0000000000000E+00
-0.7293269270050E-01 -0.6048475404658E+00  0.0000000000000E+00
-0.7370313490275E-01 -0.4300396480768E+00  0.0000000000000E+00
-0.7447357675223E-01 -0.2552317556864E+00  0.0000000000000E+00
-0.7508858969298E-01 -0.8036720464800E-01  0.0000000000000E+00
-0.7550741767918E-01  0.9454939197745E-01  0.0000000000000E+00
-0.7575803740985E-01  0.2694928882412E+00  0.0000000000000E+00
 0.5524736011661E-08 -0.1129036832222E+01  0.0000000000000E+00
 0.4171790811275E-08 -0.9540385425029E+00  0.0000000000000E+00
 0.2880364772908E-08 -0.7790671525299E+00  0.0000000000000E+00
 0.1737109607311E-08 -0.6041478081441E+00  0.0000000000000E+00
 0.8719450676882E-09 -0.4292851221871E+00  0.0000000000000E+00
 0.3595448458221E-09 -0.2544224362301E+00  0.0000000000000E+00
 0.1238229648589E-09 -0.7950309184428E-01  0.0000000000000E+00
 0.3529816344305E-10  0.9546829812865E-01  0.0000000000000E+00
 0.8104325914218E-11  0.2704665878481E+00  0.0000000000000E+00
 0.7164823965508E-01 -0.1129572184556E+01  0.0000000000000E+00
 0.7189885800572E-01 -0.9546286882748E+00  0.0000000000000E+00
 0.7231768461208E-01 -0.7797120916309E+00  0.0000000000000E+00
 0.7293269617397E-01 -0.6048475405725E+00  0.0000000000000E+00
 0.7370313664601E-01 -0.4300396481608E+00  0.0000000000000E+00
 0.7447357747082E-01 -0.2552317557506E+00  0.0000000000000E+00
 0.7508858994025E-01 -0.8036720469512E-01  0.0000000000000E+00
 0.7550741774953E-01  0.9454939194626E-01  0.0000000000000E+00
 0.7575803742593E-01  0.2694928882256E+00  0.0000000000000E+00
 0.1432792910737E+00 -0.1131177627514E+01  0.0000000000000E+00
 0.1437762547550E+00 -0.9563982445790E+00  0.0000000000000E+00
 0.1446096349048E+00 -0.7816457609553E+00  0.0000000000000E+00
 0.1458353848293E+00 -0.6069453229140E+00  0.0000000000000E+00
 0.1473719922884E+00 -0.4323015441721E+00  0.0000000000000E+00
 0.1489086001002E+00 -0.2576577654331E+00  0.0000000000000E+00
 0.1501343509322E+00 -0.8295732739760E-01  0.0000000000000E+00
 0.1509677322849E+00  0.9179515622118E-01  0.0000000000000E+00
 0.1514646972921E+00  0.2665745391532E+00  0.0000000000000E+00
 0.2148760638713E+00 -0.1133851325862E+01  0.0000000000000E+00
 0.2156108738601E+00 -0.9593445799456E+00  0.0000000000000E+00
 0.2168503085819E+00 -0.7848647327997E+00  0.0000000000000E+00
 0.2186782979384E+00 -0.6104369312320E+00  0.0000000000000E+00
 0.2209725734523E+00 -0.4360657900476E+00  0.0000000000000E+00
 0.2232668493190E+00 -0.2616946488676E+00  0.0000000000000E+00
 0.2250948395831E+00 -0.8726684730858E-01  0.0000000000000E+00
 0.2263342755078E+00  0.8721299982987E-01  0.0000000000000E+00
 0.2270690868224E+00  0.2617197457421E+00  0.0000000000000E+00
 0.2864215966206E+00 -0.1137590239822E+01  0.0000000000000E+00
 0.2873816293411E+00 -0.9634633431226E+00  0.0000000000000E+00
 0.2890144951059E+00 -0.7893633444416E+00  0.0000000000000E+00
 0.2914321003912E+00 -0.6153153913331E+00  0.0000000000000E+00
 0.2944714204269E+00 -0.4413241001183E+00  0.0000000000000E+00
 0.2975107408153E+00 -0.2673328089091E+00  0.0000000000000E+00
 0.2999283470082E+00 -0.9328485581228E-01  0.0000000000000E+00
 0.3015612139760E+00  0.8081514285887E-01  0.0000000000000E+00
 0.3025212480222E+00  0.2549420395522E+00  0.0000000000000E+00
 0.3578991968070E+00 -0.1142390156869E+01  0.0000000000000E+00
 0.3590678437224E+00 -0.9687485172122E+00  0.0000000000000E+00
 0.3610775320781E+00 -0.7951337746119E+00  0.0000000000000E+00
 0.3640681449004E+00 -0.6215710775773E+00  0.0000000000000E+00
 0.3678359010477E+00 -0.4480650443656E+00  0.0000000000000E+00
 0.3716036575478E+00 -0.2745590111610E+00  0.0000000000000E+00
 0.3745942712777E+00 -0.1009963141409E+00  0.0000000000000E+00
 0.3766039608363E+00  0.7261842844706E-01  0.0000000000000E+00
 0.3777726090775E+00  0.2462600680972E+00  0.0000000000000E+00
 0.4292924568149E+00 -0.1148245729631E+01  0.0000000000000E+00
 0.4306493124468E+00 -0.9751924883211E+00  0.0000000000000E+00
 0.4330154180159E+00 -0.8021661429030E+00  0.0000000000000E+00
 0.4365586330689E+00 -0.6291918430427E+00  0.0000000000000E+00
 0.4410344199965E+00 -0.4562742093445E+00  0.0000000000000E+00
 0.4455102072769E+00 -0.2833565756550E+00  0.0000000000000E+00
 0.4490534232375E+00 -0.1103822758120E+00  0.0000000000000E+00
 0.4514195300096E+00  0.6264406959120E-01  0.0000000000000E+00
 0.4527763869673E+00  0.2356973108925E+00  0.0000000000000E+00
 0.5005853212899E+00 -0.1155150523983E+01  0.0000000000000E+00
 0.5021064075213E+00 -0.9827861309873E+00  0.0000000000000E+00
 0.5048049522860E+00 -0.8104486325194E+00  0.0000000000000E+00
 0.5088767916127E+00 -0.6381631795998E+00  0.0000000000000E+00
 0.5140366313163E+00 -0.4659343955811E+00  0.0000000000000E+00
 0.5191964713726E+00 -0.2937056115725E+00  0.0000000000000E+00
 0.5232683116069E+00 -0.1214201586732E+00  0.0000000000000E+00
 0.5259668575747E+00  0.5091733977747E-01  0.0000000000000E+00
 0.5274879451318E+00  0.2232817327634E+00  0.0000000000000E+00
 0.5717622129039E+00 -0.1163097081430E+01  0.0000000000000E+00
 0.5734202189629E+00 -0.9915189108996E+00  0.0000000000000E+00
 0.5764238922454E+00 -0.8199676333406E+00  0.0000000000000E+00
 0.5809970452143E+00 -0.6484684013195E+00  0.0000000000000E+00
 0.5868136269902E+00 -0.4770258413251E+00  0.0000000000000E+00
 0.5926302091190E+00 -0.3055832813422E+00  0.0000000000000E+00
 0.5972033629954E+00 -0.1340840493443E+00  0.0000000000000E+00
 0.6002070374809E+00  0.3746722819490E-01  0.0000000000000E+00
 0.6018650448658E+00  0.2090453987140E+00  0.0000000000000E+00
 0.6428079584890E+00 -0.1172076973595E+01  0.0000000000000E+00
 0.6445725496918E+00 -0.1001378993252E+01  0.0000000000000E+00
 0.6478510170170E+00 -0.8307079041373E+00  0.0000000000000E+00
 0.6528951493277E+00 -0.6600888605492E+00  0.0000000000000E+00
 0.6593381388929E+00 -0.4895264924872E+00  0.0000000000000E+00
 0.6657811288108E+00 -0.3189641244382E+00  0.0000000000000E+00
 0.6708252620291E+00 -0.1483450808761E+00  0.0000000000000E+00
 0.6741037305573E+00  0.2232600821599E-01  0.0000000000000E+00
 0.6758683230860E+00  0.1930239885468E+00  0.0000000000000E+00
-0.1493912699900E+01 -0.1245948640961E+01  0.0000000000000E+00
-0.1632114179481E+01 -0.1015235929788E+01  0.0000000000000E+00
-0.1741724987958E+01 -0.7685711016251E+00  0.0000000000000E+00
-0.1820766194995E+01 -0.5096924415063E+00  0.0000000000000E+00
-0.1865967729498E+01 -0.2423545704136E+00  0.0000000000000E+00
-0.1873120644158E+01  0.2887340610501E-01  0.0000000000000E+00
-0.1807462272798E+01  0.2894599333017E+00  0.0000000000000E+00
-0.1655564266959E+01  0.5093676183748E+00  0.0000000000000E+00
-0.1461284529476E+01  0.6904096839716E+00  0.0000000000000E+00
-0.1407911610363E+01 -0.1235569498233E+01  0.0000000000000E+00
-0.1530885042842E+01 -0.1011998013791E+01  0.0000000000000E+00
-0.1628631455275E+01 -0.7742498073865E+00  0.0000000000000E+00
-0.1699422876353E+01 -0.5256506283837E+00  0.0000000000000E+00
-0.1740307292582E+01 -0.2695384262787E+00  0.0000000000000E+00
-0.1747370706685E+01 -0.9968389857222E-02  0.0000000000000E+00
-0.1689540644756E+01  0.2401506118249E+00  0.0000000000000E+00
-0.1554834933667E+01  0.4541153997418E+00  0.0000000000000E+00
-0.1382269552347E+01  0.6335353740062E+00  0.0000000000000E+00
-0.1321717468671E+01 -0.1225990155986E+01  0.0000000000000E+00
-0.1429484329607E+01 -0.1009470946930E+01  0.0000000000000E+00
-0.1515387817702E+01 -0.7805504227981E+00  0.0000000000000E+00
-0.1577950922623E+01 -0.5421417890339E+00  0.0000000000000E+00
-0.1614539688037E+01 -0.2971663252531E+00  0.0000000000000E+00
-0.1621535070117E+01 -0.4916528912248E-01  0.0000000000000E+00
-0.1571554682145E+01  0.1905747042462E+00  0.0000000000000E+00
-0.1454062688287E+01  0.3986853612403E+00  0.0000000000000E+00
-0.1303233118844E+01  0.5765721518443E+00  0.0000000000000E+00
-0.1235338664721E+01 -0.1217220128470E+01  0.0000000000000E+00
-0.1327919486188E+01 -0.1007663185251E+01  0.0000000000000E+00
-0.1402000580163E+01 -0.7874803468363E+00  0.0000000000000E+00
-0.1456355899294E+01 -0.5591722661683E+00  0.0000000000000E+00
-0.1488669544153E+01 -0.3252435543734E+00  0.0000000000000E+00
-0.1495617427797E+01 -0.8872152318509E-01  0.0000000000000E+00
-0.1453507152202E+01  0.1407290302321E+00  0.0000000000000E+00
-0.1353249374514E+01  0.3430753791977E+00  0.0000000000000E+00
-0.1224176150134E+01  0.5195189545757E+00  0.0000000000000E+00
-0.1148784126122E+01 -0.1209268607751E+01  0.0000000000000E+00
-0.1226198458988E+01 -0.1006582898571E+01  0.0000000000000E+00
-0.1288476705889E+01 -0.7950467260992E+00  0.0000000000000E+00
-0.1334643784206E+01 -0.5767481823590E+00  0.0000000000000E+00
-0.1362701850985E+01 -0.3537752116567E+00  0.0000000000000E+00
-0.1369621779253E+01 -0.1286411651334E+00  0.0000000000000E+00
-0.1335401063674E+01  0.9061053604662E-01  0.0000000000000E+00
-0.1252397001676E+01  0.2872834192639E+00  0.0000000000000E+00
-0.1145099651710E+01  0.4623747661662E+00  0.0000000000000E+00
-0.1062062983396E+01 -0.1202144369658E+01  0.0000000000000E+00
-0.1124329355888E+01 -0.1006237886659E+01  0.0000000000000E+00
-0.1174823281550E+01 -0.8032563851118E+00  0.0000000000000E+00
-0.1212820644252E+01 -0.5948753874537E+00  0.0000000000000E+00
-0.1236641657216E+01 -0.3827661726965E+00  0.0000000000000E+00
-0.1243552156475E+01 -0.1689281163730E+00  0.0000000000000E+00
-0.1217239439725E+01  0.4021629028167E-01  0.0000000000000E+00
-0.1151507584842E+01  0.2313075245172E+00  0.0000000000000E+00
-0.1066004630648E+01  0.4051386074055E+00  0.0000000000000E+00
-0.9751847697070E+00 -0.1195855786589E+01  0.0000000000000E+00
-0.1022320650200E+01 -0.1006635590763E+01  0.0000000000000E+00
-0.1061047720681E+01 -0.8121158340625E+00  0.0000000000000E+00
-0.1090892833159E+01 -0.6135594605944E+00  0.0000000000000E+00
-0.1110494256751E+01 -0.4122210856250E+00  0.0000000000000E+00
-0.1117412793346E+01 -0.2095860939228E+00  0.0000000000000E+00
-0.1099025459080E+01 -0.1045649741365E-01  0.0000000000000E+00
-0.1050583244399E+01  0.1751458337972E+00  0.0000000000000E+00
-0.9868921472004E+00  0.3478095477247E+00  0.0000000000000E+00
-0.8881593748716E+00 -0.1190410790924E+01  0.0000000000000E+00
-0.9201811355569E+00 -0.1007783061068E+01  0.0000000000000E+00
-0.9471577202152E+00 -0.8216312407101E+00  0.0000000000000E+00
-0.9688669504882E+00 -0.6328056868796E+00  0.0000000000000E+00
-0.9842651510562E+00 -0.4421443527462E+00  0.0000000000000E+00
-0.9912080922863E+00 -0.2506186171164E+00  0.0000000000000E+00
-0.9807624287546E+00 -0.6141046782172E-01  0.0000000000000E+00
-0.9496261869906E+00  0.1187965864475E+00  0.0000000000000E+00
-0.9077633049796E+00  0.2903867071423E+00  0.0000000000000E+00
-0.8009969614158E+00 -0.1185816836835E+01  0.0000000000000E+00
-0.8179198426556E+00 -0.1009686922706E+01  0.0000000000000E+00
-0.8331611794591E+00 -0.8318084014129E+00  0.0000000000000E+00
-0.8467497645126E+00 -0.6526190340470E+00  0.0000000000000E+00
-0.8579599777782E+00 -0.4725401133079E+00  0.0000000000000E+00
-0.8649425605567E+00 -0.2920289966644E+00  0.0000000000000E+00
-0.8624537316589E+00 -0.1126481069538E+00  0.0000000000000E+00
-0.8486386687954E+00  0.6225812387342E-01  0.0000000000000E+00
-0.8286192320009E+00  0.2328692561765E+00  0.0000000000000E+00
 0.8009969712356E+00 -0.1185816838491E+01  0.0000000000000E+00
 0.8179198500446E+00 -0.1009686924186E+01  0.0000000000000E+00
 0.8331611845332E+00 -0.8318084026986E+00  0.0000000000000E+00
 0.8467497675458E+00 -0.6526190351224E+00  0.0000000000000E+00
 0.8579599792759E+00 -0.4725401141749E+00  0.0000000000000E+00
 0.8649425611529E+00 -0.2920289973475E+00  0.0000000000000E+00
 0.8624537318677E+00 -0.1126481074711E+00  0.0000000000000E+00
 0.8486386688771E+00  0.6225812351732E-01  0.0000000000000E+00
 0.8286192320618E+00  0.2328692559799E+00  0.0000000000000E+00
 0.8881593835745E+00 -0.1190410792534E+01  0.0000000000000E+00
 0.9201811420918E+00 -0.1007783062512E+01  0.0000000000000E+00
 0.9471577246905E+00 -0.8216312419750E+00  0.0000000000000E+00
 0.9688669531555E+00 -0.6328056879542E+00  0.0000000000000E+00
 0.9842651523705E+00 -0.4421443536322E+00  0.0000000000000E+00
 0.9912080928098E+00 -0.2506186178343E+00  0.0000000000000E+00
 0.9807624289621E+00 -0.6141046838041E-01  0.0000000000000E+00
 0.9496261871083E+00  0.1187965860503E+00  0.0000000000000E+00
 0.9077633050977E+00  0.2903867069063E+00  0.0000000000000E+00
 0.9751847772968E+00 -0.1195855788119E+01  0.0000000000000E+00
 0.1022320655883E+01 -0.1006635592141E+01  0.0000000000000E+00
 0.1061047724560E+01 -0.8121158352806E+00  0.0000000000000E+00
 0.1090892835463E+01 -0.6135594616459E+00  0.0000000000000E+00
 0.1110494257883E+01 -0.4122210865117E+00  0.0000000000000E+00
 0.1117412793798E+01 -0.2095860946607E+00  0.0000000000000E+00
 0.1099025459288E+01 -0.1045649800265E-01  0.0000000000000E+00
 0.1050583244554E+01  0.1751458333663E+00  0.0000000000000E+00
 0.9868921473761E+00  0.3478095474530E+00  0.0000000000000E+00
 0.1062062989877E+01 -0.1202144371075E+01  0.0000000000000E+00
 0.1124329360724E+01 -0.1006237887942E+01  0.0000000000000E+00
 0.1174823284836E+01 -0.8032563862574E+00  0.0000000000000E+00
 0.1212820646195E+01 -0.5948753884603E+00  0.0000000000000E+00
 0.1236641658170E+01 -0.3827661735655E+00  0.0000000000000E+00
 0.1243552156858E+01 -0.1689281171164E+00  0.0000000000000E+00
 0.1217239439933E+01  0.4021628967337E-01  0.0000000000000E+00
 0.1151507585035E+01  0.2313075240599E+00  0.0000000000000E+00
 0.1066004630881E+01  0.4051386071018E+00  0.0000000000000E+00
 0.1148784131499E+01 -0.1209268609022E+01  0.0000000000000E+00
 0.1226198462982E+01 -0.1006582899729E+01  0.0000000000000E+00
 0.1288476708587E+01 -0.7950467271470E+00  0.0000000000000E+00
 0.1334643785792E+01 -0.5767481832988E+00  0.0000000000000E+00
 0.1362701851763E+01 -0.3537752124899E+00  0.0000000000000E+00
 0.1369621779569E+01 -0.1286411658677E+00  0.0000000000000E+00
 0.1335401063885E+01  0.9061053542988E-01  0.0000000000000E+00
 0.1252397001908E+01  0.2872834187875E+00  0.0000000000000E+00
 0.1145099652002E+01  0.4623747658340E+00  0.0000000000000E+00
 0.1235338668999E+01 -0.1217220129564E+01  0.0000000000000E+00
 0.1327919489344E+01 -0.1007663186256E+01  0.0000000000000E+00
 0.1402000582276E+01 -0.7874803477613E+00  0.0000000000000E+00
 0.1456355900526E+01 -0.5591722670199E+00  0.0000000000000E+00
 0.1488669544757E+01 -0.3252435551529E+00  0.0000000000000E+00
 0.1495617428049E+01 -0.8872152389594E-01  0.0000000000000E+00
 0.1453507152418E+01  0.1407290296177E+00  0.0000000000000E+00
 0.1353249374785E+01  0.3430753787092E+00  0.0000000000000E+00
 0.1224176150486E+01  0.5195189542187E+00  0.0000000000000E+00
 0.1321717471856E+01 -0.1225990156871E+01  0.0000000000000E+00
 0.1429484331930E+01 -0.1009470947754E+01  0.0000000000000E+00
 0.1515387819235E+01 -0.7805504235757E+00  0.0000000000000E+00
 0.1577950923506E+01 -0.5421417897762E+00  0.0000000000000E+00
 0.1614539688471E+01 -0.2971663259614E+00  0.0000000000000E+00
 0.1621535070306E+01 -0.4916528979589E-01  0.0000000000000E+00
 0.1571554682369E+01  0.1905747036446E+00  0.0000000000000E+00
 0.1454062688600E+01  0.3986853607469E+00  0.0000000000000E+00
 0.1303233119256E+01  0.5765721514660E+00  0.0000000000000E+00
 0.1407911612462E+01 -0.1235569498876E+01  0.0000000000000E+00
 0.1530885044338E+01 -0.1011998014406E+01  0.0000000000000E+00
 0.1628631456233E+01 -0.7742498079925E+00  0.0000000000000E+00
 0.1699422876890E+01 -0.5256506289959E+00  0.0000000000000E+00
 0.1740307292850E+01 -0.2695384268984E+00  0.0000000000000E+00
 0.1747370706816E+01 -0.9968390479329E-02  0.0000000000000E+00
 0.1689540644988E+01  0.2401506112465E+00  0.0000000000000E+00
 0.1554834934023E+01  0.4541153992504E+00  0.0000000000000E+00
 0.1382269552819E+01  0.6335353736101E+00  0.0000000000000E+00
 0.1493912700920E+01 -0.1245948641334E+01  0.0000000000000E+00
 0.1632114180156E+01 -0.1015235930167E+01  0.0000000000000E+00
 0.1741724988346E+01 -0.7685711020355E+00  0.0000000000000E+00
 0.1820766195191E+01 -0.5096924419680E+00  0.0000000000000E+00
 0.1865967729603E+01 -0.2423545709277E+00  0.0000000000000E+00
 0.1873120644233E+01  0.2887340554782E-01  0.0000000000000E+00
 0.1807462273042E+01  0.2894599327568E+00  0.0000000000000E+00
 0.1655564267360E+01  0.5093676178923E+00  0.0000000000000E+00
 0.1461284530009E+01  0.6904096835610E+00  0.0000000000000E+00
-0.7262154211400E+00  0.4220388918148E+00  0.0000000000000E+00
-0.7759671760782E+00  0.4803462986459E+00  0.0000000000000E+00
-0.8257189310165E+00  0.5386537054770E+00  0.0000000000000E+00
-0.8754706859548E+00  0.5969611123081E+00  0.0000000000000E+00
-0.9252224408930E+00  0.6552685191392E+00  0.0000000000000E+00
-0.9749741958313E+00  0.7135759259704E+00  0.0000000000000E+00
-0.1024725950770E+01  0.7718833328015E+00  0.0000000000000E+00
-0.1074477705708E+01  0.8301907396326E+00  0.0000000000000E+00
-0.1124229460646E+01  0.8884981464637E+00  0.0000000000000E+00
-0.6470599869664E+00  0.4421478324469E+00  0.0000000000000E+00
-0.6916362540626E+00  0.5036625773935E+00  0.0000000000000E+00
-0.7362125211588E+00  0.5651773223400E+00  0.0000000000000E+00
-0.7807887882550E+00  0.6266920672866E+00  0.0000000000000E+00
-0.8253650553512E+00  0.6882068122331E+00  0.0000000000000E+00
-0.8699413224474E+00  0.7497215571797E+00  0.0000000000000E+00
-0.9145175895436E+00  0.8112363021263E+00  0.0000000000000E+00
-0.9590938566398E+00  0.8727510470728E+00  0.0000000000000E+00
-0.1003670123736E+01  0.9342657920194E+00  0.0000000000000E+00
-0.5674541536864E+00  0.4603381160929E+00  0.0000000000000E+00
-0.6068086902216E+00  0.5250205862388E+00  0.0000000000000E+00
-0.6461632267567E+00  0.5897030563848E+00  0.0000000000000E+00
-0.6855177632919E+00  0.6543855265307E+00  0.0000000000000E+00
-0.7248722998271E+00  0.7190679966767E+00  0.0000000000000E+00
-0.7642268363623E+00  0.7837504668226E+00  0.0000000000000E+00
-0.8035813728974E+00  0.8484329369686E+00  0.0000000000000E+00
-0.8429359094326E+00  0.9131154071145E+00  0.0000000000000E+00
-0.8822904459678E+00  0.9777978772605E+00  0.0000000000000E+00
-0.4874864927934E+00  0.4767023850508E+00  0.0000000000000E+00
-0.5216192404544E+00  0.5446446960190E+00  0.0000000000000E+00
-0.5557519881153E+00  0.6125870069873E+00  0.0000000000000E+00
-0.5898847357762E+00  0.6805293179555E+00  0.0000000000000E+00
-0.6240174834372E+00  0.7484716289237E+00  0.0000000000000E+00
-0.6581502310981E+00  0.8164139398920E+00  0.0000000000000E+00
-0.6922829787591E+00  0.8843562508602E+00  0.0000000000000E+00
-0.7264157264200E+00  0.9522985618284E+00  0.0000000000000E+00
-0.7605484740810E+00  0.1020240872797E+01  0.0000000000000E+00
-0.4070743133994E+00  0.4908323142830E+00  0.0000000000000E+00
-0.4358569516264E+00  0.5617533974853E+00  0.0000000000000E+00
-0.4646395898535E+00  0.6326744806875E+00  0.0000000000000E+00
-0.4934222280806E+00  0.7035955638897E+00  0.0000000000000E+00
-0.5222048663076E+00  0.7745166470919E+00  0.0000000000000E+00
-0.5509875045347E+00  0.8454377302941E+00  0.0000000000000E+00
-0.5797701427618E+00  0.9163588134963E+00  0.0000000000000E+00
-0.6085527809888E+00  0.9872798966986E+00  0.0000000000000E+00
-0.6373354192159E+00  0.1058200979901E+01  0.0000000000000E+00
-0.3262058732712E+00  0.5024255397187E+00  0.0000000000000E+00
-0.3494501300712E+00  0.5757726186668E+00  0.0000000000000E+00
-0.3726943868712E+00  0.6491196976150E+00  0.0000000000000E+00
-0.3959386436712E+00  0.7224667765632E+00  0.0000000000000E+00
-0.4191829004712E+00  0.7958138555114E+00  0.0000000000000E+00
-0.4424271572712E+00  0.8691609344596E+00  0.0000000000000E+00
-0.4656714140712E+00  0.9425080134077E+00  0.0000000000000E+00
-0.4889156708712E+00  0.1015855092356E+01  0.0000000000000E+00
-0.5121599276713E+00  0.1089202171304E+01  0.0000000000000E+00
-0.2449696928514E+00  0.5114464367078E+00  0.0000000000000E+00
-0.2625252366944E+00  0.5866568563038E+00  0.0000000000000E+00
-0.2800807805375E+00  0.6618672758998E+00  0.0000000000000E+00
-0.2976363243805E+00  0.7370776954957E+00  0.0000000000000E+00
-0.3151918682236E+00  0.8122881150917E+00  0.0000000000000E+00
-0.3327474120667E+00  0.8874985346877E+00  0.0000000000000E+00
-0.3503029559097E+00  0.9627089542837E+00  0.0000000000000E+00
-0.3678584997528E+00  0.1037919373880E+01  0.0000000000000E+00
-0.3854140435958E+00  0.1113129793476E+01  0.0000000000000E+00
-0.1634632579838E+00  0.5179088773513E+00  0.0000000000000E+00
-0.1752246863765E+00  0.5944543064906E+00  0.0000000000000E+00
-0.1869861147692E+00  0.6709997356298E+00  0.0000000000000E+00
-0.1987475431619E+00  0.7475451647691E+00  0.0000000000000E+00
-0.2105089715546E+00  0.8240905939083E+00  0.0000000000000E+00
-0.2222703999473E+00  0.9006360230476E+00  0.0000000000000E+00
-0.2340318283400E+00  0.9771814521868E+00  0.0000000000000E+00
-0.2457932567327E+00  0.1053726881326E+01  0.0000000000000E+00
-0.2575546851254E+00  0.1130272310465E+01  0.0000000000000E+00
-0.8177747086543E-01  0.5218135049328E+00  0.0000000000000E+00
-0.8767620096390E-01  0.5991810988308E+00  0.0000000000000E+00
-0.9357493106237E-01  0.6765486927287E+00  0.0000000000000E+00
-0.9947366116083E-01  0.7539162866266E+00  0.0000000000000E+00
-0.1053723912593E+00  0.8312838805245E+00  0.0000000000000E+00
-0.1112711213578E+00  0.9086514744224E+00  0.0000000000000E+00
-0.1171698514562E+00  0.9860190683204E+00  0.0000000000000E+00
-0.1230685815547E+00  0.1063386662218E+01  0.0000000000000E+00
-0.1289673116532E+00  0.1140754256116E+01  0.0000000000000E+00
 0.4058808316585E-10  0.5231292357807E+00  0.0000000000000E+00
 0.8117646714002E-10  0.6007840673293E+00  0.0000000000000E+00
 0.1217649898921E-09  0.6784388988780E+00  0.0000000000000E+00
 0.1623534571330E-09  0.7560937304266E+00  0.0000000000000E+00
 0.2029419521295E-09  0.8337485619753E+00  0.0000000000000E+00
 0.2435305581482E-09  0.9114033935239E+00  0.0000000000000E+00
 0.2841190531447E-09  0.9890582250725E+00  0.0000000000000E+00
 0.3247077701858E-09  0.1066713056621E+01  0.0000000000000E+00
 0.3652960431377E-09  0.1144367888170E+01  0.0000000000000E+00
 0.8177747094646E-01  0.5218135049277E+00  0.0000000000000E+00
 0.8767620112596E-01  0.5991810988204E+00  0.0000000000000E+00
 0.9357493130547E-01  0.6765486927132E+00  0.0000000000000E+00
 0.9947366148497E-01  0.7539162866059E+00  0.0000000000000E+00
 0.1053723916645E+00  0.8312838804987E+00  0.0000000000000E+00
 0.1112711218440E+00  0.9086514743914E+00  0.0000000000000E+00
 0.1171698520235E+00  0.9860190682842E+00  0.0000000000000E+00
 0.1230685822030E+00  0.1063386662177E+01  0.0000000000000E+00
 0.1289673123825E+00  0.1140754256070E+01  0.0000000000000E+00
 0.1634632580644E+00  0.5179088773413E+00  0.0000000000000E+00
 0.1752246865377E+00  0.5944543064706E+00  0.0000000000000E+00
 0.1869861150110E+00  0.6709997355998E+00  0.0000000000000E+00
 0.1987475434844E+00  0.7475451647290E+00  0.0000000000000E+00
 0.2105089719577E+00  0.8240905938582E+00  0.0000000000000E+00
 0.2222704004310E+00  0.9006360229875E+00  0.0000000000000E+00
 0.2340318289043E+00  0.9771814521167E+00  0.0000000000000E+00
 0.2457932573776E+00  0.1053726881246E+01  0.0000000000000E+00
 0.2575546858510E+00  0.1130272310375E+01  0.0000000000000E+00
 0.2449696929314E+00  0.5114464366931E+00  0.0000000000000E+00
 0.2625252368544E+00  0.5866568562744E+00  0.0000000000000E+00
 0.2800807807774E+00  0.6618672758557E+00  0.0000000000000E+00
 0.2976363247005E+00  0.7370776954370E+00  0.0000000000000E+00
 0.3151918686235E+00  0.8122881150183E+00  0.0000000000000E+00
 0.3327474125465E+00  0.8874985345996E+00  0.0000000000000E+00
 0.3503029564696E+00  0.9627089541809E+00  0.0000000000000E+00
 0.3678585003926E+00  0.1037919373762E+01  0.0000000000000E+00
 0.3854140443156E+00  0.1113129793344E+01  0.0000000000000E+00
 0.3262058733503E+00  0.5024255396995E+00  0.0000000000000E+00
 0.3494501302294E+00  0.5757726186284E+00  0.0000000000000E+00
 0.3726943871084E+00  0.6491196975574E+00  0.0000000000000E+00
 0.3959386439875E+00  0.7224667764863E+00  0.0000000000000E+00
 0.4191829008666E+00  0.7958138554153E+00  0.0000000000000E+00
 0.4424271577456E+00  0.8691609343443E+00  0.0000000000000E+00
 0.4656714146247E+00  0.9425080132732E+00  0.0000000000000E+00
 0.4889156715038E+00  0.1015855092202E+01  0.0000000000000E+00
 0.5121599283828E+00  0.1089202171131E+01  0.0000000000000E+00
 0.4070743134774E+00  0.4908323142595E+00  0.0000000000000E+00
 0.4358569517824E+00  0.5617533974382E+00  0.0000000000000E+00
 0.4646395900874E+00  0.6326744806169E+00  0.0000000000000E+00
 0.4934222283925E+00  0.7035955637956E+00  0.0000000000000E+00
 0.5222048666975E+00  0.7745166469743E+00  0.0000000000000E+00
 0.5509875050026E+00  0.8454377301529E+00  0.0000000000000E+00
 0.5797701433076E+00  0.9163588133316E+00  0.0000000000000E+00
 0.6085527816127E+00  0.9872798965103E+00  0.0000000000000E+00
 0.6373354199177E+00  0.1058200979689E+01  0.0000000000000E+00
 0.4874864928703E+00  0.4767023850238E+00  0.0000000000000E+00
 0.5216192406082E+00  0.5446446959651E+00  0.0000000000000E+00
 0.5557519883461E+00  0.6125870069063E+00  0.0000000000000E+00
 0.5898847360840E+00  0.6805293178476E+00  0.0000000000000E+00
 0.6240174838218E+00  0.7484716287888E+00  0.0000000000000E+00
 0.6581502315597E+00  0.8164139397300E+00  0.0000000000000E+00
 0.6922829792976E+00  0.8843562506713E+00  0.0000000000000E+00
 0.7264157270354E+00  0.9522985616125E+00  0.0000000000000E+00
 0.7605484747733E+00  0.1020240872554E+01  0.0000000000000E+00
 0.5674541537630E+00  0.4603381160649E+00  0.0000000000000E+00
 0.6068086903747E+00  0.5250205861830E+00  0.0000000000000E+00
 0.6461632269865E+00  0.5897030563010E+00  0.0000000000000E+00
 0.6855177635982E+00  0.6543855264191E+00  0.0000000000000E+00
 0.7248723002099E+00  0.7190679965371E+00  0.0000000000000E+00
 0.7642268368217E+00  0.7837504666552E+00  0.0000000000000E+00
 0.8035813734334E+00  0.8484329367732E+00  0.0000000000000E+00
 0.8429359100452E+00  0.9131154068912E+00  0.0000000000000E+00
 0.8822904466569E+00  0.9777978770093E+00  0.0000000000000E+00
 0.6470599870427E+00  0.4421478324182E+00  0.0000000000000E+00
 0.6916362542152E+00  0.5036625773361E+00  0.0000000000000E+00
 0.7362125213877E+00  0.5651773222539E+00  0.0000000000000E+00
 0.7807887885601E+00  0.6266920671718E+00  0.0000000000000E+00
 0.8253650557326E+00  0.6882068120896E+00  0.0000000000000E+00
 0.8699413229051E+00  0.7497215570075E+00  0.0000000000000E+00
 0.9145175900776E+00  0.8112363019254E+00  0.0000000000000E+00
 0.9590938572500E+00  0.8727510468432E+00  0.0000000000000E+00
 0.1003670124423E+01  0.9342657917611E+00  0.0000000000000E+00
 0.7262154212153E+00  0.4220388917836E+00  0.0000000000000E+00
 0.7759671762288E+00  0.4803462985835E+00  0.0000000000000E+00
 0.8257189312424E+00  0.5386537053834E+00  0.0000000000000E+00
 0.8754706862560E+00  0.5969611121833E+00  0.0000000000000E+00
 0.9252224412695E+00  0.6552685189833E+00  0.0000000000000E+00
 0.9749741962831E+00  0.7135759257832E+00  0.0000000000000E+00
 0.1024725951297E+01  0.7718833325831E+00  0.0000000000000E+00
 0.1074477706310E+01  0.8301907393830E+00  0.0000000000000E+00
 0.1124229461324E+01  0.8884981461829E+00  0.0000000000000E+00
</DataArray>
</Points>
<Cells>
<DataArray type="Int64" Name="connectivity" format="ascii">
0 11 218 123
123 218 219 124
124 219 220 125
125 220 221 126
126 221 222 127
127 222 223 128
128 223 224 129
129 224 225 130
130 225 226 131
131 226 227 132
132 227 228 133
133 228 229 134
134 229 230 135
135 230 231 136
136 231 232 137
137 232 233 138
138 233 234 139
139 234 235 140
140 235 236 141
141 236 237 142
142 237 49 3
11 12 238 218
218 238 239 219
219 239 240 220
220 240 241 221
221 241 242 222
222 242 243 223
223 243 244 224
224 244 245 225
225 245 246 226
226 246 247 227
227 247 248 228
228 248 249 229
229 249 250 230
230 250 251 231
231 251 252 232
232 252 253 233
233 253 254 234
234 254 255 235
235 255 256 236
236 256 257 237
237 257 50 49
12 13 258 238
238 258 259 239
239 259 260 240
240 260 261 241
241 261 262 242
242 262 263 243
243 263 264 244
244 264 265 245
245 265 266 246
246 266 267 247
247 267 268 248
248 268 269 249
249 269 270 250
250 270 271 251
251 271 272 252
252 272 273 253
253 273 274 254
254 274 275 255
255 275 276 256
256 276 277 257
257 277 51 50
13 14 278 258
258 278 279 259
259 279 280 260
260 280 281 261
261 281 282 262
262 282 283 263
263 283 284 264
264 284 285 265
265 285 286 266
266 286 287 267
267 287 288 268
268 288 289 269
269 289 290 270
270 290 291 271
271 291 292 272
272 292 293 273
273 293 294 274
274 294 295 275
275 295 296 276
276 296 297 277
277 297 52 51
14 15 298 278
278 298 299 279
279 299 300 280
280 300 301 281
281 301 302 282
282 302 303 283
283 303 304 284
284 304 305 285
285 305 306 286
286 306 307 287
287 307 308 288
288 308 309 289
289 309 310 290
290 310 311 291
291 311 312 292
292 312 313 293
293 313 314 294
294 314 315 295
295 315 316 296
296 316 317 297
297 317 53 52
15 16 318 298
298 318 319 299
299 319 320 300
300 320 321 301
301 321 322 302
302 322 323 303
303 323 324 304
304 324 325 305
305 325 326 306
306 326 327 307
307 327 328 308
308 328 329 309
309 329 330 310
310 330 331 311
311 331 332 312
312 332 333 313
313 333 334 314
314 334 335 315
315 335 336 316
316 336 337 317
317 337 54 53
16 17 338 318
318 338 339 319
319 339 340 320
320 340 341 321
321 341 342 322
322 342 343 323
323 343 344 324
324 344 345 325
325 345 346 326
326 346 347 327
327 347 348 328
328 348 349 329
329 349 350 330
330 350 351 331
331 351 352 332
332 352 353 333
333 353 354 334
334 354 355 335
335 355 356 336
336 356 357 337
337 357 55 54
17 18 358 338
338 358 359 339
339 359 360 340
340 360 361 341
341 361 362 342
342 362 363 343
343 363 364 344
344 364 365 345
345 365 366 346
346 366 367 347
347 367 368 348
348 368 369 349
349 369 370 350
350 370 371 351
351 371 372 352
352 372 373 353
353 373 374 354
354 374 375 355
355 375 376 356
356 376 377 357
357 377 56 55
18 19 378 358
358 378 379 359
359 379 380 360
360 380 381 361
361 381 382 362
362 382 383 363
363 383 384 364
364 384 385 365
365 385 386 366
366 386 387 367
367 387 388 368
368 388 389 369
369 389 390 370
370 390 391 371
371 391 392 372
372 392 393 373
373 393 394 374
374 394 395 375
375 395 396 376
376 396 397 377
377 397 57 56
19 20 398 378
378 398 399 379
379 399 400 380
380 400 401 381
381 401 402 382
382 402 403 383
383 403 404 384
384 404 405 385
385 405 406 386
386 406 407 387
387 407 408 388
388 408 409 389
389 409 410 390
390 410 411 391
391 411 412 392
392 412 413 393
393 413 414 394
394 414 415 395
395 415 416 396
396 416 417 397
397 417 4 57
20 21 418 398
398 418 419 399
399 419 420 400
400 420 421 401
401 421 422 402
402 422 423 403
403 423 424 404
404 424 425 405
405 425 426 406
406 426 427 407
407 427 428 408
408 428 429 409
409 429 430 410
410 430 431 411
411 431 432 412
412 432 433 413
413 433 434 414
414 434 435 415
415 435 436 416
416 436 437 417
417 437 58 4
21 22 438 418
418 438 439 419
419 439 440 420
420 440 441 421
421 441 442 422
422 442 443 423
423 443 444 424
424 444 445 425
425 445 446 426
426 446 447 427
427 447 448 428
428 448 449 429
429 449 450 430
430 450 451 431
431 451 452 432
432 452 453 433
433 453 454 434
434 454 455 435
435 455 456 436
436 456 457 437
437 457 59 58
22 23 458 438
438 458 459 439
439 459 460 440
440 460 461 441
441 461 462 442
442 462 463 443
443 463 464 444
444 464 465 445
445 465 466 446
446 466 467 447
447 467 468 448
448 468 469 449
449 469 470 450
450 470 471 451
451 471 472 452
452 472 473 453
453 473 474 454
454 474 475 455
455 475 476 456
456 476 477 457
457 477 60 59
23 24 478 458
458 478 479 459
459 479 480 460
460 480 481 461
461 481 482 462
462 482 483 463
463 483 484 464
464 484 485 465
465 485 486 466
466 486 487 467
467 487 488 468
468 488 489 469
469 489 490 470
470 490 491 471
471 491 492 472
472 492 493 473
473 493 494 474
474 494 495 475
475 495 496 476
476 496 497 477
477 497 61 60
24 25 498 478
478 498 499 479
479 499 500 480
480 500 501 481
481 501 502 482
482 502 503 483
483 503 504 484
484 504 505 485
485 505 506 486
486 506 507 487
487 507 508 488
488 508 509 489
489 509 510 490
490 510 511 491
491 511 512 492
492 512 513 493
493 513 514 494
494 514 515 495
495 515 516 496
496 516 517 497
497 517 62 61
25 26 518 498
498 518 519 499
499 519 520 500
500 520 521 501
501 521 522 502
502 522 523 503
503 523 524 504
504 524 525 505
505 525 526 506
506 526 527 507
507 527 528 508
508 528 529 509
509 529 530 510
510 530 531 511
511 531 532 512
512 532 533 513
513 533 534 514
514 534 535 515
515 535 536 516
516 536 537 517
517 537 63 62
26 27 538 518
518 538 539 519
519 539 540 520
520 540 541 521
521 541 542 522
522 542 543 523
523 543 544 524
524 544 545 525
525 545 546 526
526 546 547 527
527 547 548 528
528 548 549 529
529 549 550 530
530 550 551 531
531 551 552 532
532 552 553 533
533 553 554 534
534 554 555 535
535 555 556 536
536 556 557 537
537 557 64 63
27 28 558 538
538 558 559 539
539 559 560 540
540 560 561 541
541 561 562 542
542 562 563 543
543 563 564 544
544 564 565 545
545 565 566 546
546 566 567 547
547 567 568 548
548 568 569 549
549 569 570 550
550 570 571 551
551 571 572 552
552 572 573 553
553 573 574 554
554 574 575 555
555 575 576 556
556 576 577 557
557 577 65 64
28 29 578 558
558 578 579 559
559 579 580 560
560 580 581 561
561 581 582 562
562 582 583 563
563 583 584 564
564 584 585 565
565 585 586 566
566 586 587 567
567 587 588 568
568 588 589 569
569 589 590 570
570 590 591 571
571 591 592 572
572 592 593 573
573 593 594 574
574 594 595 575
575 595 596 576
576 596 597 577
577 597 66 65
29 1 598 578
578 598 599 579
579 599 600 580
580 600 601 581
581 601 602 582
582 602 603 583
583 603 604 584
584 604 605 585
585 605 606 586
586 606 607 587
587 607 608 588
588 608 609 589
589 609 610 590
590 610 611 591
591 611 612 592
592 612 613 593
593 613 614 594
594 614 615 595
595 615 616 596
596 616 617 597
597 617 67 66
1 30 618 598
598 618 619 599
599 619 620 600
600 620 621 601
601 621 622 602
602 622 623 603
603 623 624 604
604 624 625 605
605 625 626 606
606 626 627 607
607 627 628 608
608 628 629 609
609 629 630 610
610 630 631 611
611 631 632 612
612 632 633 613
613 633 634 614
614 634 635 615
615 635 636 616
616 636 637 617
617 637 68 67
30 31 638 618
618 638 639 619
619 639 640 620
620 640 641 621
621 641 642 622
622 642 643 623
623 643 644 624
624 644 645 625
625 645 646 626
626 646 647 627
627 647 648 628
628 648 649 629
629 649 650 630
630 650 651 631
631 651 652 632
632 652 653 633
633 653 654 634
634 654 655 635
635 655 656 636
636 656 657 637
637 657 69 68
31 32 658 638
638 658 659 639
639 659 660 640
640 660 661 641
641 661 662 642
642 662 663 643
643 663 664 644
644 664 665 645
645 665 666 646
646 666 667 647
647 667 668 648
648 668 669 649
649 669 670 650
650 670 671 651
651 671 672 652
652 672 673 653
653 673 674 654
654 674 675 655
655 675 676 656
656 676 677 657
657 677 70 69
32 33 678 658
658 678 679 659
659 679 680 660
660 680 681 661
661 681 682 662
662 682 683 663
663 683 684 664
664 684 685 665
665 685 686 666
666 686 687 667
667 687 688 668
668 688 689 669
669 689 690 670
670 690 691 671
671 691 692 672
672 692 693 673
673 693 694 674
674 694 695 675
675 695 696 676
676 696 697 677
677 697 71 70
33 34 698 678
678 698 699 679
679 699 700 680
680 700 701 681
681 701 702 682
682 702 703 683
683 703 704 684
684 704 705 685
685 705 706 686
686 706 707 687
687 707 708 688
688 708 709 689
689 709 710 690
690 710 711 691
691 711 712 692
692 712 713 693
693 713 714 694
694 714 715 695
695 715 716 696
696 716 717 697
697 717 72 71
34 35 718 698
698 718 719 699
699 719 720 700
700 720 721 701
701 721 722 702
702 722 723 703
703 723 724 704
704 724 725 705
705 725 726 706
706 726 727 707
707 727 728 708
708 728 729 709
709 729 730 710
710 730 731 711
711 731 732 712
712 732 733 713
713 733 734 714
714 734 735 715
715 735 736 716
716 736 737 717
717 737 73 72
35 36 738 718
718 738 739 719
719 739 740 720
720 740 741 721
721 741 742 722
722 742 743 723
723 743 744 724
724 744 745 725
725 745 746 726
726 746 747 727
727 747 748 728
728 748 749 729
729 749 750 730
730 750 751 731
731 751 752 732
732 752 753 733
733 753 754 734
734 754 755 735
735 755 756 736
736 756 757 737
737 757 74 73
36 37 758 738
738 758 759 739
739 759 760 740
740 760 761 741
741 761 762 742
742 762 763 743
743 763 764 744
744 764 765 745
745 765 766 746
746 766 767 747
747 767 768 748
748 768 769 749
749 769 770 750
750 770 771 751
751 771 772 752
752 772 773 753
753 773 774 754
754 774 775 755
755 775 776 756
756 776 777 757
757 777 75 74
37 38 778 758
758 778 779 759
759 779 780 760
760 780 781 761
761 781 782 762
762 782 783 763
763 783 784 764
764 784 785 765
765 785 786 766
766 786 787 767
767 787 788 768
768 788 789 769
769 789 790 770
770 790 791 771
771 791 792 772
772 792 793 773
773 793 794 774
774 794 795 775
775 795 796 776
776 796 797 777
777 797 76 75
38 39 798 778
778 798 799 779
779 799 800 780
780 800 801 781
781 801 802 782
782 802 803 783
783 803 804 784
784 804 805 785
785 805 806 786
786 806 807 787
787 807 808 788
788 808 809 789
789 809 810 790
790 810 811 791
791 811 812 792
792 812 813 793
793 813 814 794
794 814 815 795
795 815 816 796
796 816 817 797
797 817 5 76
39 40 818 798
798 818 819 799
799 819 820 800
800 820 821 801
801 821 822 802
802 822 823 803
803 823 824 804
804 824 825 805
805 825 826 806
806 826 827 807
807 827 828 808
808 828 829 809
809 829 830 810
810 830 831 811
811 831 832 812
812 832 833 813
813 833 834 814
814 834 835 815
815 835 836 816
816 836 837 817
817 837 77 5
40 41 838 818
818 838 839 819
819 839 840 820
820 840 841 821
821 841 842 822
822 842 843 823
823 843 844 824
824 844 845 825
825 845 846 826
826 846 847 827
827 847 848 828
828 848 849 829
829 849 850 830
830 850 851 831
831 851 852 832
832 852 853 833
833 853 854 834
834 854 855 835
835 855 856 836
836 856 857 837
837 857 78 77
41 42 858 838
838 858 859 839
839 859 860 840
840 860 861 841
841 861 862 842
842 862 863 843
843 863 864 844
844 864 865 845
845 865 866 846
846 866 867 847
847 867 868 848
848 868 869 849
849 869 870 850
850 870 871 851
851 871 872 852
852 872 873 853
853 873 874 854
854 874 875 855
855 875 876 856
856 876 877 857
857 877 79 78
42 43 878 858
858 878 879 859
859 879 880 860
860 880 881 861
861 881 882 862
862 882 883 863
863 883 884 864
864 884 885 865
865 885 886 866
866 886 887 867
867 887 888 868
868 888 889 869
869 889 890 870
870 890 891 871
871 891 892 872
872 892 893 873
873 893 894 874
874 894 895 875
875 895 896 876
876 896 897 877
877 897 80 79
43 44 898 878
878 898 899 879
879 899 900 880
880 900 901 881
881 901 902 882
882 902 903 883
883 903 904 884
884 904 905 885
885 905 906 886
886 906 907 887
887 907 908 888
888 908 909 889
889 909 910 890
890 910 911 891
891 911 912 892
892 912 913 893
893 913 914 894
894 914 915 895
895 915 916 896
896 916 917 897
897 917 81 80
44 45 918 898
898 918 919 899
899 919 920 900
900 920 921 901
901 921 922 902
902 922 923 903
903 923 924 904
904 924 925 905
905 925 926 906
906 926 927 907
907 927 928 908
908 928 929 909
909 929 930 910
910 930 931 911
911 931 932 912
912 932 933 913
913 933 934 914
914 934 935 915
915 935 936 916
916 936 937 917
917 937 82 81
45 46 938 918
918 938 939 919
919 939 940 920
920 940 941 921
921 941 942 922
922 942 943 923
923 943 944 924
924 944 945 925
925 945 946 926
926 946 947 927
927 947 948 928
928 948 949 929
929 949 950 930
930 950 951 931
931 951 952 932
932 952 953 933
933 953 954 934
934 954 955 935
935 955 956 936
936 956 957 937
937 957 83 82
46 47 958 938
938 958 959 939
939 959 960 940
940 960 961 941
941 961 962 942
942 962 963 943
943 963 964 944
944 964 965 945
945 965 966 946
946 966 967 947
947 967 968 948
948 968 969 949
949 969 970 950
950 970 971 951
951 971 972 952
952 972 973 953
953 973 974 954
954 974 975 955
955 975 976 956
956 976 977 957
957 977 84 83
47 48 978 958
958 978 979 959
959 979 980 960
960 980 981 961
961 981 982 962
962 982 983 963
963 983 984 964
964 984 985 965
965 985 986 966
966 986 987 967
967 987 988 968
968 988 989 969
969 989 990 970
970 990 991 971
971 991 992 972
972 992 993 973
973 993 994 974
974 994 995 975
975 995 996 976
976 996 997 977
977 997 85 84
48 2 162 978
978 162 161 979
979 161 160 980
980 160 159 981
981 159 158 982
982 158 157 983
983 157 156 984
984 156 155 985
985 155 154 986
986 154 153 987
987 153 152 988
988 152 151 989
989 151 150 990
990 150 149 991
991 149 148 992
992 148 147 993
993 147 146 994
994 146 145 995
995 145 144 996
996 144 143 997
997 143 6 85
4 58 998 190
190 998 999 189
189 999 1000 188
188 1000 1001 187
187 1001 1002 186
186 1002 1003 185
185 1003 1004 184
184 1004 1005 183
183 1005 1006 182
182 1006 163 9
58 59 1007 998
998 1007 1008 999
999 1008 1009 1000
1000 1009 1010 1001
1001 1010 1011 1002
1002 1011 1012 1003
1003 1012 1013 1004
1004 1013 1014 1005
1005 1014 1015 1006
1006 1015 164 163
59 60 1016 1007
1007 1016 1017 1008
1008 1017 1018 1009
1009 1018 1019 1010
1010 1019 1020 1011
1011 1020 1021 1012
1012 1021 1022 1013
1013 1022 1023 1014
1014 1023 1024 1015
1015 1024 165 164
60 61 1025 1016
1016 1025 1026 1017
1017 1026 1027 1018
1018 1027 1028 1019
1019 1028 1029 1020
1020 1029 1030 1021
1021 1030 1031 1022
1022 1031 1032 1023
1023 1032 1033 1024
1024 1033 166 165
61 62 1034 1025
1025 1034 1035 1026
1026 1035 1036 1027
1027 1036 1037 1028
1028 1037 1038 1029
1029 1038 1039 1030
1030 1039 1040 1031
1031 1040 1041 1032
1032 1041 1042 1033
1033 1042 167 166
62 63 1043 1034
1034 1043 1044 1035
1035 1044 1045 1036
1036 1045 1046 1037
1037 1046 1047 1038
1038 1047 1048 1039
1039 1048 1049 1040
1040 1049 1050 1041
1041 1050 1051 1042
1042 1051 168 167
63 64 1052 1043
1043 1052 1053 1044
1044 1053 1054 1045
1045 1054 1055 1046
1046 1055 1056 1047
1047 1056 1057 1048
1048 1057 1058 1049
1049 1058 1059 1050
1050 1059 1060 1051
1051 1060 169 168
64 65 1061 1052
1052 1061 1062 1053
1053 1062 1063 1054
1054 1063 1064 1055
1055 1064 1065 1056
1056 1065 1066 1057
1057 1066 1067 1058
1058 1067 1068 1059
1059 1068 1069 1060
1060 1069 170 169
65 66 1070 1061
1061 1070 1071 1062
1062 1071 1072 1063
1063 1072 1073 1064
1064 1073 1074 1065
1065 1074 1075 1066
1066 1075 1076 1067
1067 1076 1077 1068
1068 1077 1078 1069
1069 1078 171 170
66 67 1079 1070
1070 1079 1080 1071
1071 1080 1081 1072
1072 1081 1082 1073
1073 1082 1083 1074
1074 1083 1084 1075
1075 1084 1085 1076
1076 1085 1086 1077
1077 1086 1087 1078
1078 1087 172 171
67 68 1088 1079
1079 1088 1089 1080
1080 1089 1090 1081
1081 1090 1091 1082
1082 1091 1092 1083
1083 1092 1093 1084
1084 1093 1094 1085
1085 1094 1095 1086
1086 1095 1096 1087
1087 1096 173 172
68 69 1097 1088
1088 1097 1098 1089
1089 1098 1099 1090
1090 1099 1100 1091
1091 1100 1101 1092
1092 1101 1102 1093
1093 1102 1103 1094
1094 1103 1104 1095
1095 1104 1105 1096
1096 1105 174 173
69 70 1106 1097
1097 1106 1107 1098
1098 1107 1108 1099
1099 1108 1109 1100
1100 1109 1110 1101
1101 1110 1111 1102
1102 1111 1112 1103
1103 1112 1113 1104
1104 1113 1114 1105
1105 1114 175 174
70 71 1115 1106
1106 1115 1116 1107
1107 1116 1117 1108
1108 1117 1118 1109
1109 1118 1119 1110
1110 1119 1120 1111
1111 1120 1121 1112
1112 1121 1122 1113
1113 1122 1123 1114
1114 1123 176 175
71 72 1124 1115
1115 1124 1125 1116
1116 1125 1126 1117
1117 1126 1127 1118
1118 1127 1128 1119
1119 1128 1129 1120
1120 1129 1130 1121
1121 1130 1131 1122
1122 1131 1132 1123
1123 1132 177 176
72 73 1133 1124
1124 1133 1134 1125
1125 1134 1135 1126
1126 1135 1136 1127
1127 1136 1137 1128
1128 1137 1138 1129
1129 1138 1139 1130
1130 1139 1140 1131
1131 1140 1141 1132
1132 1141 178 177
73 74 1142 1133
1133 1142 1143 1134
1134 1143 1144 1135
1135 1144 1145 1136
1136 1145 1146 1137
1137 1146 1147 1138
1138 1147 1148 1139
1139 1148 1149 1140
1140 1149 1150 1141
1141 1150 179 178
74 75 1151 1142
1142 1151 1152 1143
1143 1152 1153 1144
1144 1153 1154 1145
1145 1154 1155 1146
1146 1155 1156 1147
1147 1156 1157 1148
1148 1157 1158 1149
1149 1158 1159 1150
1150 1159 180 179
75 76 1160 1151
1151 1160 1161 1152
1152 1161 1162 1153
1153 1162 1163 1154
1154 1163 1164 1155
1155 1164 1165 1156
1156 1165 1166 1157
1157 1166 1167 1158
1158 1167 1168 1159
1159 1168 181 180
76 5 199 1160
1160 199 198 1161
1161 198 197 1162
1162 197 196 1163
1163 196 195 1164
1164 195 194 1165
1165 194 193 1166
1166 193 192 1167
1167 192 191 1168
1168 191 10 181
3 49 1169 86
86 1169 1170 87
87 1170 1171 88
88 1171 1172 89
89 1172 1173 90
90 1173 1174 91
91 1174 1175 92
92 1175 1176 93
93 1176 1177 94
94 1177 208 7
49 50 1178 1169
1169 1178 1179 1170
1170 1179 1180 1171
1171 1180 1181 1172
1172 1181 1182 1173
1173 1182 1183 1174
1174 1183 1184 1175
1175 1184 1185 1176
1176 1185 1186 1177
1177 1186 207 208
50 51 1187 1178
1178 1187 1188 1179
1179 1188 1189 1180
1180 1189 1190 1181
1181 1190 1191 1182
1182 1191 1192 1183
1183 1192 1193 1184
1184 1193 1194 1185
1185 1194 1195 1186
1186 1195 206 207
51 52 1196 1187
1187 1196 1197 1188
1188 1197 1198 1189
1189 1198 1199 1190
1190 1199 1200 1191
1191 1200 1201 1192
1192 1201 1202 1193
1193 1202 1203 1194
1194 1203 1204 1195
1195 1204 205 206
52 53 1205 1196
1196 1205 1206 1197
1197 1206 1207 1198
1198 1207 1208 1199
1199 1208 1209 1200
1200 1209 1210 1201
1201 1210 1211 1202
1202 1211 1212 1203
1203 1212 1213 1204
1204 1213 204 205
53 54 1214 1205
1205 1214 1215 1206
1206 1215 1216 1207
1207 1216 1217 1208
1208 1217 1218 1209
1209 1218 1219 1210
1210 1219 1220 1211
1211 1220 1221 1212
1212 1221 1222 1213
1213 1222 203 204
54 55 1223 1214
1214 1223 1224 1215
1215 1224 1225 1216
1216 1225 1226 1217
1217 1226 1227 1218
1218 1227 1228 1219
1219 1228 1229 1220
1220 1229 1230 1221
1221 1230 1231 1222
1222 1231 202 203
55 56 1232 1223
1223 1232 1233 1224
1224 1233 1234 1225
1225 1234 1235 1226
1226 1235 1236 1227
1227 1236 1237 1228
1228 1237 1238 1229
1229 1238 1239 1230
1230 1239 1240 1231
1231 1240 201 202
56 57 1241 1232
1232 1241 1242 1233
1233 1242 1243 1234
1234 1243 1244 1235
1235 1244 1245 1236
1236 1245 1246 1237
1237 1246 1247 1238
1238 1247 1248 1239
1239 1248 1249 1240
1240 1249 200 201
57 4 190 1241
1241 190 189 1242
1242 189 188 1243
1243 188 187 1244
1244 187 186 1245
1245 186 185 1246
1246 185 184 1247
1247 184 183 1248
1248 183 182 1249
1249 182 9 200
5 77 1250 199
199 1250 1251 198
198 1251 1252 197
197 1252 1253 196
196 1253 1254 195
195 1254 1255 194
194 1255 1256 193
193 1256 1257 192
192 1257 1258 191
191 1258 209 10
77 78 1259 1250
1250 1259 1260 1251
1251 1260 1261 1252
1252 1261 1262 1253
1253 1262 1263 1254
1254 1263 1264 1255
1255 1264 1265 1256
1256 1265 1266 1257
1257 1266 1267 1258
1258 1267 210 209
78 79 1268 1259
1259 1268 1269 1260
1260 1269 1270 1261
1261 1270 1271 1262
1262 1271 1272 1263
1263 1272 1273 1264
1264 1273 1274 1265
1265 1274 1275 1266
1266 1275 1276 1267
1267 1276 211 210
79 80 1277 1268
1268 1277 1278 1269
1269 1278 1279 1270
1270 1279 1280 1271
1271 1280 1281 1272
1272 1281 1282 1273
1273 1282 1283 1274
1274 1283 1284 1275
1275 1284 1285 1276
1276 1285 212 211
80 81 1286 1277
1277 1286 1287 1278
1278 1287 1288 1279
1279 1288 1289 1280
1280 1289 1290 1281
1281 1290 1291 1282
1282 1291 1292 1283
1283 1292 1293 1284
1284 1293 1294 1285
1285 1294 213 212
81 82 1295 1286
1286 1295 1296 1287
1287 1296 1297 1288
1288 1297 1298 1289
1289 1298 1299 1290
1290 1299 1300 1291
1291 1300 1301 1292
1292 1301 1302 1293
1293 1302 1303 1294
1294 1303 214 213
82 83 1304 1295
1295 1304 1305 1296
1296 1305 1306 1297
1297 1306 1307 1298
1298 1307 1308 1299
1299 1308 1309 1300
1300 1309 1310 1301
1301 1310 1311 1302
1302 1311 1312 1303
1303 1312 215 214
83 84 1313 1304
1304 1313 1314 1305
1305 1314 1315 1306
1306 1315 1316 1307
1307 1316 1317 1308
1308 1317 1318 1309
1309 1318 1319 1310
1310 1319 1320 1311
1311 1320 1321 1312
1312 1321 216 215
84 85 1322 1313
1313 1322 1323 1314
1314 1323 1324 1315
1315 1324 1325 1316
1316 1325 1326 1317
1317 1326 1327 1318
1318 1327 1328 1319
1319 1328 1329 1320
1320 1329 1330 1321
1321 1330 217 216
85 6 122 1322
1322 122 121 1323
1323 121 120 1324
1324 120 119 1325
1325 119 118 1326
1326 118 117 1327
1327 117 116 1328
1328 116 115 1329
1329 115 114 1330
1330 114 8 217
9 163 1331 200
200 1331 1332 201
201 1332 1333 202
202 1333 1334 203
203 1334 1335 204
204 1335 1336 205
205 1336 1337 206
206 1337 1338 207
207 1338 1339 208
208 1339 95 7
163 164 1340 1331
1331 1340 1341 1332
1332 1341 1342 1333
1333 1342 1343 1334
1334 1343 1344 1335
1335 1344 1345 1336
1336 1345 1346 1337
1337 1346 1347 1338
1338 1347 1348 1339
1339 1348 96 95
164 165 1349 1340
1340 1349 1350 1341
1341 1350 1351 1342
1342 1351 1352 1343
1343 1352 1353 1344
1344 1353 1354 1345
1345 1354 1355 1346
1346 1355 1356 1347
1347 1356 1357 1348
1348 1357 97 96
165 166 1358 1349
1349 1358 1359 1350
1350 1359 1360 1351
1351 1360 1361 1352
1352 1361 1362 1353
1353 1362 1363 1354
1354 1363 1364 1355
1355 1364 1365 1356
1356 1365 1366 1357
1357 1366 98 97
166 167 1367 1358
1358 1367 1368 1359
1359 1368 1369 1360
1360 1369 1370 1361
1361 1370 1371 1362
1362 1371 1372 1363
1363 1372 1373 1364
1364 1373 1374 1365
1365 1374 1375 1366
1366 1375 99 98
167 168 1376 1367
1367 1376 1377 1368
1368 1377 1378 1369
1369 1378 1379 1370
1370 1379 1380 1371
1371 1380 1381 1372
1372 1381 1382 1373
1373 1382 1383 1374
1374 1383 1384 1375
1375 1384 100 99
168 169 1385 1376
1376 1385 1386 1377
1377 1386 1387 1378
1378 1387 1388 1379
1379 1388 1389 1380
1380 1389 1390 1381
1381 1390 1391 1382
1382 1391 1392 1383
1383 1392 1393 1384
1384 1393 101 100
169 170 1394 1385
1385 1394 1395 1386
1386 1395 1396 1387
1387 1396 1397 1388
1388 1397 1398 1389
1389 1398 1399 1390
1390 1399 1400 1391
1391 1400 1401 1392
1392 1401 1402 1393
1393 1402 102 101
170 171 1403 1394
1394 1403 1404 1395
1395 1404 1405 1396
1396 1405 1406 1397
1397 1406 1407 1398
1398 1407 1408 1399
1399 1408 1409 1400
1400 1409 1410 1401
1401 1410 1411 1402
1402 1411 103 102
171 172 1412 1403
1403 1412 1413 1404
1404 1413 1414 1405
1405 1414 1415 1406
1406 1415 1416 1407
1407 1416 1417 1408
1408 1417 1418 1409
1409 1418 1419 1410
1410 1419 1420 1411
1411 1420 104 103
172 173 1421 1412
1412 1421 1422 1413
1413 1422 1423 1414
1414 1423 1424 1415
1415 1424 1425 1416
1416 1425 1426 1417
1417 1426 1427 1418
1418 1427 1428 1419
1419 1428 1429 1420
1420 1429 105 104
173 174 1430 1421
1421 1430 1431 1422
1422 1431 1432 1423
1423 1432 1433 1424
1424 1433 1434 1425
1425 1434 1435 1426
1426 1435 1436 1427
1427 1436 1437 1428
1428 1437 1438 1429
1429 1438 106 105
174 175 1439 1430
1430 1439 1440 1431
1431 1440 1441 1432
1432 1441 1442 1433
1433 1442 1443 1434
1434 1443 1444 1435
1435 1444 1445 1436
1436 1445 1446 1437
1437 1446 1447 1438
1438 1447 107 106
175 176 1448 1439
1439 1448 1449 1440
1440 1449 1450 1441
1441 1450 1451 1442
1442 1451 1452 1443
1443 1452 1453 1444
1444 1453 1454 1445
1445 1454 1455 1446
1446 1455 1456 1447
1447 1456 108 107
176 177 1457 1448
1448 1457 1458 1449
1449 1458 1459 1450
1450 1459 1460 1451
1451 1460 1461 1452
1452 1461 1462 1453
1453 1462 1463 1454
1454 1463 1464 1455
1455 1464 1465 1456
1456 1465 109 108
177 178 1466 1457
1457 1466 1467 1458
1458 1467 1468 1459
1459 1468 1469 1460
1460 1469 1470 1461
1461 1470 1471 1462
1462 1471 1472 1463
1463 1472 1473 1464
1464 1473 1474 1465
1465 1474 110 109
178 179 1475 1466
1466 1475 1476 1467
1467 1476 1477 1468
1468 1477 1478 1469
1469 1478 1479 1470
1470 1479 1480 1471
1471 1480 1481 1472
1472 1481 1482 1473
1473 1482 1483 1474
1474 1483 111 110
179 180 1484 1475
1475 1484 1485 1476
1476 1485 1486 1477
1477 1486 1487 1478
1478 1487 1488 1479
1479 1488 1489 1480
1480 1489 1490 1481
1481 1490 1491 1482
1482 1491 1492 1483
1483 1492 112 111
180 181 1493 1484
1484 1493 1494 1485
1485 1494 1495 1486
1486 1495 1496 1487
1487 1496 1497 1488
1488 1497 1498 1489
1489 1498 1499 1490
1490 1499 1500 1491
1491 1500 1501 1492
1492 1501 113 112
181 10 209 1493
1493 209 210 1494
1494 210 211 1495
1495 211 212 1496
1496 212 213 1497
1497 213 214 1498
1498 214 215 1499
1499 215 216 1500
1500 216 217 1501
1501 217 8 113
</DataArray>
<DataArray type="Int64" Name="offsets" format="ascii">
4
8
12
16
20
24
28
32
36
40
44
48
52
56
60
64
68
72
76
80
84
88
92
96
100
104
108
112
116
120
124
128
132
136
140
144
148
152
156
160
164
168
172
176
180
184
188
192
196
200
204
208
212
216
220
224
228
232
236
240
244
248
252
256
260
264
268
272
276
280
284
288
292
296
300
304
308
312
316
320
324
328
332
336
340
344
348
352
356
360
364
368
372
376
380
384
388
392
396
400
404
408
412
416
420
424
428
432
436
440
444
448
452
456
460
464
468
472
476
480
484
488
492
496
500
504
508
512
516
520
524
528
532
536
540
544
548
552
556
560
564
568
572
576
580
584
588
592
596
600
604
608
612
616
620
624
628
632
636
640
644
648
652
656
660
664
668
672
676
680
684
688
692
696
700
704
708
712
716
720
724
728
732
736
740
744
748
752
756
760
764
768
772
776
780
784
788
792
796
800
804
808
812
816
820
824
828
832
836
840
844
848
852
856
860
864
868
872
876
880
884
888
892
896
900
904
908
912
916
920
924
928
932
936
940
944
948
952
956
960
964
968
972
976
980
984
988
992
996
1000
1004
1008
1012
1016
1020
1024
1028
1032
1036
1040
1044
1048
1052
1056
1060
1064
1068
1072
1076
1080
1084
1088
1092
1096
1100
1104
1108
1112
1116
1120
1124
1128
1132
1136
1140
1144
1148
1152
1156
1160
1164
1168
1172
1176
1180
1184
1188
1192
1196
1200
1204
1208
1212
1216
1220
1224
1228
1232
1236
1240
1244
1248
1252
1256
1260
1264
1268
1272
1276
1280
1284
1288
1292
1296
1300
1304
1308
1312
1316
1320
1324
1328
1332
1336
1340
1344
1348
1352
1356
1360
1364
1368
1372
1376
1380
1384
1388
1392
1396
1400
1404
1408
1412
1416
1420
1424
1428
1432
1436
1440
1444
1448
1452
1456
1460
1464
1468
1472
1476
1480
1484
1488
1492
1496
1500
1504
1508
1512
1516
1520
1524
1528
1532
1536
1540
1544
1548
1552
1556
1560
1564
1568
1572
1576
1580
1584
1588
1592
1596
1600
1604
1608
1612
1616
1620
1624
1628
1632
1636
1640
1644
1648
1652
1656
1660
1664
1668
1672
1676
1680
1684
1688
1692
1696
1700
1704
1708
1712
1716
1720
1724
1728
1732
1736
1740
1744
1748
1752
1756
1760
1764
1768
1772
1776
1780
1784
1788
1792
1796
1800
1804
1808
1812
1816
1820
1824
1828
1832
1836
1840
1844
1848
1852
1856
1860
1864
1868
1872
1876
1880
1884
1888
1892
1896
1900
1904
1908
1912
1916
1920
1924
1928
1932
1936
1940
1944
1948
1952
1956
1960
1964
1968
1972
1976
1980
1984
1988
1992
1996
2000
2004
2008
2012
2016
2020
2024
2028
2032
2036
2040
2044
2048
2052
2056
2060
2064
2068
2072
2076
2080
2084
2088
2092
2096
2100
2104
2108
2112
2116
2120
2124
2128
2132
2136
2140
2144
2148
2152
2156
2160
2164
2168
2172
2176
2180
2184
2188
2192
2196
2200
2204
2208
2212
2216
2220
2224
2228
2232
2236
2240
2244
2248
2252
2256
2260
2264
2268
2272
2276
2280
2284
2288
2292
2296
2300
2304
2308
2312
2316
2320
2324
2328
2332
2336
2340
2344
2348
2352
2356
2360
2364
2368
2372
2376
2380
2384
2388
2392
2396
2400
2404
2408
2412
2416
2420
2424
2428
2432
2436
2440
2444
2448
2452
2456
2460
2464
2468
2472
2476
2480
2484
2488
2492
2496
2500
2504
2508
2512
2516
2520
2524
2528
2532
2536
2540
2544
2548
2552
2556
2560
2564
2568
2572
2576
2580
2584
2588
2592
2596
2600
2604
2608
2612
2616
2620
2624
2628
2632
2636
2640
2644
2648
2652
2656
2660
2664
2668
2672
2676
2680
2684
2688
2692
2696
2700
2704
2708
2712
2716
2720
2724
2728
2732
2736
2740
2744
2748
2752
2756
2760
2764
2768
2772
2776
2780
2784
2788
2792
2796
2800
2804
2808
2812
2816
2820
2824
2828
2832
2836
2840
2844
2848
2852
2856
2860
2864
2868
2872
2876
2880
2884
2888
2892
2896
2900
2904
2908
2912
2916
2920
2924
2928
2932
2936
2940
2944
2948
2952
2956
2960
2964
2968
2972
2976
2980
2984
2988
2992
2996
3000
3004
3008
3012
3016
3020
3024
3028
3032
3036
3040
3044
3048
3052
3056
3060
3064
3068
3072
3076
3080
3084
3088
3092
3096
3100
3104
3108
3112
3116
3120
3124
3128
3132
3136
3140
3144
3148
3152
3156
3160
3164
3168
3172
3176
3180
3184
3188
3192
3196
3200
3204
3208
3212
3216
3220
3224
3228
3232
3236
3240
3244
3248
3252
3256
3260
3264
3268
3272
3276
3280
3284
3288
3292
3296
3300
3304
3308
3312
3316
3320
3324
3328
3332
3336
3340
3344
3348
3352
3356
3360
3364
3368
3372
3376
3380
3384
3388
3392
3396
3400
3404
3408
3412
3416
3420
3424
3428
3432
3436
3440
3444
3448
3452
3456
3460
3464
3468
3472
3476
3480
3484
3488
3492
3496
3500
3504
3508
3512
3516
3520
3524
3528
3532
3536
3540
3544
3548
3552
3556
3560
3564
3568
3572
3576
3580
3584
3588
3592
3596
3600
3604
3608
3612
3616
3620
3624
3628
3632
3636
3640
3644
3648
3652
3656
3660
3664
3668
3672
3676
3680
3684
3688
3692
3696
3700
3704
3708
3712
3716
3720
3724
3728
3732
3736
3740
3744
3748
3752
3756
3760
3764
3768
3772
3776
3780
3784
3788
3792
3796
3800
3804
3808
3812
3816
3820
3824
3828
3832
3836
3840
3844
3848
3852
3856
3860
3864
3868
3872
3876
3880
3884
3888
3892
3896
3900
3904
3908
3912
3916
3920
3924
3928
3932
3936
3940
3944
3948
3952
3956
3960
3964
3968
3972
3976
3980
3984
3988
3992
3996
4000
4004
4008
4012
4016
4020
4024
4028
4032
4036
4040
4044
4048
4052
4056
4060
4064
4068
4072
4076
4080
4084
4088
4092
4096
4100
4104
4108
4112
4116
4120
4124
4128
4132
4136
4140
4144
4148
4152
4156
4160
4164
4168
4172
4176
4180
4184
4188
4192
4196
4200
4204
4208
4212
4216
4220
4224
4228
4232
4236
4240
4244
4248
4252
4256
4260
4264
4268
4272
4276
4280
4284
4288
4292
4296
4300
4304
4308
4312
4316
4320
4324
4328
4332
4336
4340
4344
4348
4352
4356
4360
4364
4368
4372
4376
4380
4384
4388
4392
4396
4400
4404
4408
4412
4416
4420
4424
4428
4432
4436
4440
4444
4448
4452
4456
4460
4464
4468
4472
4476
4480
4484
4488
4492
4496
4500
4504
4508
4512
4516
4520
4524
4528
4532
4536
4540
4544
4548
4552
4556
4560
4564
4568
4572
4576
4580
4584
4588
4592
4596
4600
4604
4608
4612
4616
4620
4624
4628
4632
4636
4640
4644
4648
4652
4656
4660
4664
4668
4672
4676
4680
4684
4688
4692
4696
4700
4704
4708
4712
4716
4720
4724
4728
4732
4736
4740
4744
4748
4752
4756
4760
4764
4768
4772
4776
4780
4784
4788
4792
4796
4800
4804
4808
4812
4816
4820
4824
4828
4832
4836
4840
4844
4848
4852
4856
4860
4864
4868
4872
4876
4880
4884
4888
4892
4896
4900
4904
4908
4912
4916
4920
4924
4928
4932
4936
4940
4944
4948
4952
4956
4960
4964
4968
4972
4976
4980
4984
4988
4992
4996
5000
5004
5008
5012
5016
5020
5024
5028
5032
5036
5040
5044
5048
5052
5056
5060
5064
5068
5072
5076
5080
5084
5088
5092
5096
5100
5104
5108
5112
5116
5120
5124
5128
5132
5136
5140
5144
5148
5152
5156
5160
5164
5168
5172
5176
5180
5184
5188
5192
5196
5200
5204
5208
5212
5216
5220
5224
5228
5232
5236
5240
5244
5248
5252
5256
5260
5264
5268
5272
5276
5280
5284
5288
5292
5296
5300
5304
5308
5312
5316
5320
5324
5328
5332
5336
5340
5344
5348
5352
5356
5360
5364
5368
5372
5376
5380
5384
5388
5392
5396
5400
5404
5408
5412
5416
5420
5424
5428
5432
5436
5440
5444
5448
5452
5456
5460
5464
5468
5472
5476
5480
5484
5488
5492
5496
5500
5504
5508
5512
5516
5520
5524
5528
5532
5536
5540
5544
5548
5552
5556
5560
5564
5568
5572
5576
5580
5584
5588
5592
5596
5600
5604
5608
5612
5616
5620
5624
5628
5632
5636
5640
5644
5648
5652
5656
5660
5664
5668
5672
5676
5680
5684
5688
5692
5696
5700
5704
5708
5712
5716
5720
5724
5728
5732
5736
5740
5744
5748
5752
5756
5760
</DataArray>
<DataArray type="Int64" Name="types" format="ascii">
9
9
9
9
9
9
9
9
9
9
9
9
9
9
9
9
9
9
9
9
9
9
9
9
9
9
9
9
9
9
9
9
9
9
9
9
9
9
9
9
9
9
9
9
9
9
9
9
9
9
9
9
9
9
9
9
9
9
9
9
9
9
9
9
9
9
9
9
9
9
9
9
9
9
9
9
9
9
9
9
9
9
9
9
9
9
9
9
9
9
9
9
9
9
9
9
9
9
9
9
9
9
9
9
9
9
9
9
9
9
9
9
9
9
9
9
9
9
9
9
9
9
9
9
9
9
9
9
9
9
9
9
9
9
9
9
9
9
9
9
9
9
9
9
9
9
9
9
9
9
9
9
9
9
9
9
9
9
9
9
9
9
9
9
9
9
9
9
9
9
9
9
9
9
9
9
9
9
9
9
9
9
9
9
9
9
9
9
9
9
9
9
9
9
9
9
9
9
9
9
9
9
9
9
9
9
9
9
9
9
9
9
9
9
9
9
9
9
9
9
9
9
9
9
9
9
9
9
9
9
9
9
9
9
9
9
9
9
9
9
9
9
9
9
9
9
9
9
9
9
9
9
9
9
9
9
9
9
9
9
9
9
9
9
9
9
9
9
9
9
9
9
9
9
9
9
9
9
9
9
9
9
9
9
9
9
9
9
9
9
9
9
9
9
9
9
9
9
9
9
9
9
9
9
9
9
9
9
9
9
9
9
9
9
9
9
9
9
9
9
9
9
9
9
9
9
9
9
9
9
9
9
9
9
9
9
9
9
9
9
9
9
9
9
9
9
9
9
9
9
9
9
9
9
9
9
9
9
9
9
9
9
9
9
9
9
9
9
9
9
9
9
9
9
9
9
9
9
9
9
9
9
9
9
9
9
9
9
9
9
9
9
9
9
9
9
9
9
9
9
9
9
9
9
9
9
9
9
9
9
9
9
9
9
9
9
9
9
9
9
9
9
9
9
9
9
9
9
9
9
9
9
9
9
9
9
9
9
9
9
9
9
9
9
9
9
9
9
9
9
9
9
9
9
9
9
9
9
9
9
9
9
9
9
9
9
9
9
9
9
9
9
9
9
9
9
9
9
9
9
9
9
9
9
9
9
9
9
9
9
9
9
9
9
9
9
9
9
9
9
9
9
9
9
9
9
9
9
9
9
9
9
9
9
9
9
9
9
9
9
9
9
9
9
9
9
9
9
9
9
9
9
9
9
9
9
9
9
9
9
9
9
9
9
9
9
9
9
9
9
9
9
9
9
9
9
9
9
9
9
9
9
9
9
9
9
9
9
9
9
9
9
9
9
9
9
9
9
9
9
9
9
9
9
9
9
9
9
9
9
9
9
9
9
9
9
9
9
9
9
9
9
9
9
9
9
9
9
9
9
9
9
9
9
9
9
9
9
9
9
9
9
9
9
9
9
9
9
9
9
9
9
9
9
9
9
9
9
9
9
9
9
9
9
9
9
9
9
9
9
9
9
9
9
9
9
9
9
9
9
9
9
9
9
9
9
9
9
9
9
9
9
9
9
9
9
9
9
9
9
9
9
9
9
9
9
9
9
9
9
9
9
9
9
9
9
9
9
9
9
9
9
9
9
9
9
9
9
9
9
9
9
9
9
9
9
9
9
9
9
9
9
9
9
9
9
9
9
9
9
9
9
9
9
9
9
9
9
9
9
9
9
9
9
9
9
9
9
9
9
9
9
9
9
9
9
9
9
9
9
9
9
9
9
9
9
9
9
9
9
9
9
9
9
9
9
9
9
9
9
9
9
9
9
9
9
9
9
9
9
9
9
9
9
9
9
9
9
9
9
9
9
9
9
9
9
9
9
9
9
9
9
9
9
9
9
9
9
9
9
9
9
9
9
9
9
9
9
9
9
9
9
9
9
9
9
9
9
9
9
9
9
9
9
9
9
9
9
9
9
9
9
9
9
9
9
9
9
9
9
9
9
9
9
9
9
9
9
9
9
9
9
9
9
9
9
9
9
9
9
9
9
9
9
9
9
9
9
9
9
9
9
9
9
9
9
9
9
9
9
9
9
9
9
9
9
9
9
9
9
9
9
9
9
9
9
9
9
9
9
9
9
9
9
9
9
9
9
9
9
9
9
9
9
9
9
9
9
9
9
9
9
9
9
9
9
9
9
9
9
9
9
9
9
9
9
9
9
9
9
9
9
9
9
9
9
9
9
9
9
9
9
9
9
9
9
9
9
9
9
9
9
9
9
9
9
9
9
9
9
9
9
9
9
9
9
9
9
9
9
9
9
9
9
9
9
9
9
9
9
9
9
9
9
9
9
9
9
9
9
9
9
9
9
9
9
9
9
9
9
9
9
9
9
9
9
9
9
9
9
9
9
9
9
9
9
9
9
9
9
9
9
9
9
9
9
9
9
9
9
9
9
9
9
9
9
9
9
9
9
9
9
9
9
9
9
9
9
9
9
9
9
9
9
9
9
9
9
9
9
9
9
9
9
9
9
9
9
9
9
9
9
9
9
9
9
9
9
9
9
9
9
9
9
9
9
9
9
9
9
9
9
9
9
9
9
9
9
9
9
9
9
9
9
9
9
9
9
9
9
9
9
9
9
9
9
9
9
9
9
9
9
9
9
9
9
9
9
9
9
9
9
9
9
9
9
9
9
9
9
9
9
9
9
9
9
9
9
9
9
9
9
9
9
9
9
9
9
9
9
9
9
9
9
9
9
9
9
9
9
9
9
9
9
9
9
9
9
9
9
9
9
9
9
9
9
9
9
9
9
9
9
9
9
9
9
9
9
9
9
9
9
9
9
9
9
9
9
9
9
9
9
9
9
9
9
9
9
9
9
9
9
9
9
9
9
9
9
9
9
9
9
9
9
9
9
9
9
9
9
9
9
9
9
9
9
9
9
9
9
9
9
9
9
9
9
9
9
9
9
9
9
9
9
9
9
9
9
9
9
9
9
9
9
9
9
9
9
9
9
9
9
9
9
9
9
9
9
9
9
9
9
9
9
9
9
9
9
9
9
9
9
9
9
9
9
9
9
9
9
9
9
9
9
9
9
9
9
9
9
9
9
9
9
9
9
9
9
9
9
9
9
9
9
9
9
9
9
9
9
9
9
9
9
9
9
9
9
9
9
9
9
9
9
9
9
9
9
9
9
9
9
9
9
9
9
9
9
9
9
9
9
9
9
9
9
9
9
9
9
9
9
9
9
9
9
9
9
9
9
9
9
9
9
9
9
9
9
9
9
9
9
9
9
9
9
9
9
9
9
</DataArray>
</Cells>
<PointData Vectors="'U'">
<DataArray type="Float64" Name="U" NumberOfComponents="2" ComponentName0="U1" ComponentName1="U2" format="ascii">
-0.8726214318962E-37 -0.2276884042241E-36
-0.8082688196216E-37 -0.8440406601761E-37
-0.8907937621482E-37  0.2323086307628E-36
-0.4734870207635E-01 -0.5935089885244E-01
-0.4108533013789E-01 -0.2563781624397E-01
-0.2739788216440E-01 -0.9174268965082E-02
-0.1864085939672E-01 -0.1830387612331E-01
-0.7220305727346E+00 -0.3017059041549E+00
-0.2205284005720E+00 -0.4642584569739E+00
-0.7096614337460E+00 -0.3552258839384E+00
-0.1286552349859E+00 -0.6666904582373E+00
-0.9875103779007E-37 -0.4346271149259E-36
-0.1010620172828E-36 -0.3808870030317E-36
-0.9854426412457E-37 -0.3459010967061E-36
-0.9576339991682E-37 -0.3187531764827E-36
-0.9336214655589E-37 -0.2959063177980E-36
-0.9138012404056E-37 -0.2757843020624E-36
-0.8975468643017E-37 -0.2575470316694E-36
-0.8841537442404E-37 -0.2406939517674E-36
-0.8730188280467E-37 -0.2249025852390E-36
-0.8636876310286E-37 -0.2099539752232E-36
-0.8557502433579E-37 -0.1957657904960E-36
-0.8488428326350E-37 -0.1821401883951E-36
-0.8427374896958E-37 -0.1689807455184E-36
-0.8372236008269E-37 -0.1562092277556E-36
-0.8321241421888E-37 -0.1437588680297E-36
-0.8272887516901E-37 -0.1315706202676E-36
-0.8225886322205E-37 -0.1195905955931E-36
-0.8179129958379E-37 -0.1077682692939E-36
-0.8131666987731E-37 -0.9605519798291E-37
-0.8031520047451E-37 -0.7276795803384E-37
-0.7977624629718E-37 -0.6109976224014E-37
-0.7920605470636E-37 -0.4935163623605E-37
-0.7860218925925E-37 -0.3747447313347E-37
-0.7796391358483E-37 -0.2541729224341E-37
-0.7729242602706E-37 -0.1312648846567E-37
-0.7659116697392E-37 -0.5448232149633E-39
-0.7586621447607E-37  0.1238999567933E-37
-0.7512677521593E-37  0.2574736806593E-37
-0.7438175373786E-37  0.3960883536056E-37
-0.7365839301162E-37  0.5414521911969E-37
-0.7297826907716E-37  0.6939421900919E-37
-0.7237005423674E-37  0.8550369722496E-37
-0.7187266467145E-37  0.1026757928143E-36
-0.7153330096415E-37  0.1212018800239E-36
-0.7140176951331E-37  0.1415336167415E-36
-0.7150030502855E-37  0.1644428466355E-36
-0.7167151422907E-37  0.1914642939361E-36
-0.7062008332311E-37  0.2266419328591E-36
-0.4709813631313E-01 -0.5004978310273E-01
-0.4634102183863E-01 -0.4448805835263E-01
-0.4556123270785E-01 -0.4047433173763E-01
-0.4484249016312E-01 -0.3731462729519E-01
-0.4417482174166E-01 -0.3469114656087E-01
-0.4353895502380E-01 -0.3243707868905E-01
-0.4291976579150E-01 -0.3045602283020E-01
-0.4230753967224E-01 -0.2868753047712E-01
-0.4169684666556E-01 -0.2709111666622E-01
-0.4048156014318E-01 -0.2433118934627E-01
-0.3986764818265E-01 -0.2312296412513E-01
-0.3924602933173E-01 -0.2199879825904E-01
-0.3861643144159E-01 -0.2094726684110E-01
-0.3797850680558E-01 -0.1995822015848E-01
-0.3733191177055E-01 -0.1902290164663E-01
-0.3667640404246E-01 -0.1813375687579E-01
-0.3601186675685E-01 -0.1728431180607E-01
-0.3533831401418E-01 -0.1646909092650E-01
-0.3465588088674E-01 -0.1568357087467E-01
-0.3396480363108E-01 -0.1492416464079E-01
-0.3326539010455E-01 -0.1418822970160E-01
-0.3255798235032E-01 -0.1347409748001E-01
-0.3184291427973E-01 -0.1278112315674E-01
-0.3112046676329E-01 -0.1210975374841E-01
-0.3039082723947E-01 -0.1146161435088E-01
-0.2965405226029E-01 -0.1083959540730E-01
-0.2891003538093E-01 -0.1024790251557E-01
-0.2815833009207E-01 -0.9691813714251E-02
-0.2661391986282E-01 -0.8717901761583E-02
-0.2580342746866E-01 -0.8350720827147E-02
-0.2497026132278E-01 -0.8092503340942E-02
-0.2411170119374E-01 -0.7974667189444E-02
-0.2322086403620E-01 -0.8044979606202E-02
-0.2228713606478E-01 -0.8379913695119E-02
-0.2129870768880E-01 -0.9110361750711E-02
-0.2025542918979E-01 -0.1048067944750E-01
-0.1923649040118E-01 -0.1301106540859E-01
-0.2673993315585E+00 -0.2248971839345E+00
-0.3989055231571E+00 -0.3296250691146E+00
-0.5095265309894E+00 -0.3732716233555E+00
-0.5950170001608E+00 -0.3870163266463E+00
-0.6591638834818E+00 -0.3836813513280E+00
-0.7049519800796E+00 -0.3712938319181E+00
-0.7335712158586E+00 -0.3504606133519E+00
-0.7448213332104E+00 -0.3255936764480E+00
-0.7407246582171E+00 -0.3068494305277E+00
-0.7085959671800E+00 -0.3072534556427E+00
-0.6925519873543E+00 -0.3201583669713E+00
-0.6738427662794E+00 -0.3409859351989E+00
-0.6521155501653E+00 -0.3711516747998E+00
-0.6282819707643E+00 -0.4135643148492E+00
-0.6037640784240E+00 -0.4729351813385E+00
-0.5794071490373E+00 -0.5585589843598E+00
-0.5555991625472E+00 -0.6841628542027E+00
-0.5372422314475E+00 -0.8358298639409E+00
-0.5291807878234E+00 -0.9795682730736E+00
-0.5306722921783E+00 -0.1095449303204E+01
-0.5368820961229E+00 -0.1172220611694E+01
-0.5418894107373E+00 -0.1203834433334E+01
-0.5394802128701E+00 -0.1188152117194E+01
-0.5233571019630E+00 -0.1126585134439E+01
-0.4879877539858E+00 -0.1024231032089E+01
-0.4326103715654E+00 -0.8902413505953E+00
-0.3632326401921E+00 -0.7372785169567E+00
-0.2875610357691E+00 -0.5852365378415E+00
-0.1008958500210E+00 -0.3035083081059E+00
-0.2312822917742E-02 -0.2133820523978E+00
 0.8575634229085E-01 -0.1682601797294E+00
 0.1598831609332E+00 -0.1639569993004E+00
 0.2103931875716E+00 -0.1788994560934E+00
 0.2349147308848E+00 -0.1953727543758E+00
 0.2313251273178E+00 -0.2036171782763E+00
 0.1968283458264E+00 -0.1911013489773E+00
 0.1324136354015E+00 -0.1315510594822E+00
-0.1539896487321E-02 -0.2773513918376E-02
-0.2645869016357E-02 -0.4840098817635E-02
-0.3713009120581E-02 -0.6785912315880E-02
-0.4792629739343E-02 -0.8647882912639E-02
-0.5918571899525E-02 -0.1045269575714E-01
-0.7102213368218E-02 -0.1221419919351E-01
-0.8349048631385E-02 -0.1394299954313E-01
-0.9659825581404E-02 -0.1565038992291E-01
-0.1103249705399E-01 -0.1735199808659E-01
-0.1246614824301E-01 -0.1907961497042E-01
-0.1397595630892E-01 -0.2089471224282E-01
-0.1559066178897E-01 -0.2285001001435E-01
-0.1732747982751E-01 -0.2494584039960E-01
-0.1919789995888E-01 -0.2718706977046E-01
-0.2122212309163E-01 -0.2960634221274E-01
-0.2343567939246E-01 -0.3225864136200E-01
-0.2589790424209E-01 -0.3521894833468E-01
-0.2869411410582E-01 -0.3863065907541E-01
-0.3206203691357E-01 -0.4281432074280E-01
-0.3617586322669E-01 -0.4877069492464E-01
-0.2423461538468E-01 -0.1173965191083E-01
-0.2441359127086E-01 -0.8328521887220E-02
-0.2387154975966E-01 -0.6130889283102E-02
-0.2279520885614E-01 -0.4457663873348E-02
-0.2139304230818E-01 -0.3102255921556E-02
-0.1976108328558E-01 -0.1973986560179E-02
-0.1798042080073E-01 -0.1027168237539E-02
-0.1611940088947E-01 -0.2375083123385E-03
-0.1423451133235E-01  0.4172966348268E-03
-0.1237390987340E-01  0.9517051281772E-03
-0.1057988123293E-01  0.1364556186465E-02
-0.8884297023256E-02  0.1641283215162E-02
-0.7304518171026E-02  0.1796432066966E-02
-0.5851264582056E-02  0.1849733375939E-02
-0.4534477334512E-02  0.1813240994310E-02
-0.3364051913451E-02  0.1695594730893E-02
-0.2349841914838E-02  0.1503291171449E-02
-0.1502271378121E-02  0.1241256937242E-02
-0.8304434106617E-03  0.9124287715514E-03
-0.3470591482957E-03  0.5215352350181E-03
-0.7058264637327E+00 -0.3764769588891E+00
-0.7007498071703E+00 -0.4016719949500E+00
-0.6939136445727E+00 -0.4304471043736E+00
-0.6849544290309E+00 -0.4625333144189E+00
-0.6734640719639E+00 -0.4975584662873E+00
-0.6589857668244E+00 -0.5349559889923E+00
-0.6410442754351E+00 -0.5738852465286E+00
-0.6192086920577E+00 -0.6131895706049E+00
-0.5931818911384E+00 -0.6514030159125E+00
-0.5628726156079E+00 -0.6869075790850E+00
-0.5284127759821E+00 -0.7181335914554E+00
-0.4901375634368E+00 -0.7436621728967E+00
-0.4485557757249E+00 -0.7623042954992E+00
-0.4043162288796E+00 -0.7731535902353E+00
-0.3581748336409E+00 -0.7756250519972E+00
-0.3109624283417E+00 -0.7694820547717E+00
-0.2635551046043E+00 -0.7548328493164E+00
-0.2168430747019E+00 -0.7321327406565E+00
-0.1716819235736E+00 -0.7022633429075E+00
-0.6794220566538E+00 -0.3322759690971E+00
-0.6404487271056E+00 -0.3047665975825E+00
-0.5943384399860E+00 -0.2730748724244E+00
-0.5420050139192E+00 -0.2379131204217E+00
-0.4829379708929E+00 -0.2001800916353E+00
-0.4164242516261E+00 -0.1611892198317E+00
-0.3414858643743E+00 -0.1226544723783E+00
-0.2560905609816E+00 -0.8633550349138E-01
-0.1571881348027E+00 -0.5372600387502E-01
-0.9020923040189E-01 -0.5742325617574E+00
-0.5829204899339E-01 -0.4873164662432E+00
-0.3099312409850E-01 -0.4054721332456E+00
-0.7712729336201E-02 -0.3284695061247E+00
 0.1073569307528E-01 -0.2562964038583E+00
 0.2339484392822E-01 -0.1895059871071E+00
 0.2915868069221E-01 -0.1292797138070E+00
 0.2557034830330E-01 -0.7737156557319E-01
 0.8776677479593E-02 -0.3615539815141E-01
-0.7225135943255E+00 -0.3482259884784E+00
-0.7319184283562E+00 -0.3400638796996E+00
-0.7377940777958E+00 -0.3314835861518E+00
-0.7404814566153E+00 -0.3231308286646E+00
-0.7404903496112E+00 -0.3155680191387E+00
-0.7384221862039E+00 -0.3092581835293E+00
-0.7349163318425E+00 -0.3045484728246E+00
-0.7306085673757E+00 -0.3016622740046E+00
-0.7260930980612E+00 -0.3007000531527E+00
-0.1141058025635E+00 -0.6759442363255E+00
-0.1018906071421E+00 -0.6793447858128E+00
-0.9303643766598E-01 -0.6760924095499E+00
-0.8858168227183E-01 -0.6656542256470E+00
-0.8967729828732E-01 -0.6476960930972E+00
-0.9759997923806E-01 -0.6221852131120E+00
-0.1137112595352E+00 -0.5895228437110E+00
-0.1393071237159E+00 -0.5507384918002E+00
-0.1753111273388E+00 -0.5077476738058E+00
-0.1282434422128E-02 -0.2304918952450E-02
-0.2467670910578E-02 -0.4464924520296E-02
-0.3542049287857E-02 -0.6407155680212E-02
-0.4638591691184E-02 -0.8262288521610E-02
-0.5778073520329E-02 -0.1005329557554E-01
-0.6975648244804E-02 -0.1179832683763E-01
-0.8236115480213E-02 -0.1350956116834E-01
-0.9560050528326E-02 -0.1519935336151E-01
-0.1094470900798E-01 -0.1688391550505E-01
-0.1238926480917E-01 -0.1858567443551E-01
-0.1391103621077E-01 -0.2033967879986E-01
-0.1554258629018E-01 -0.2219240520817E-01
-0.1730287181264E-01 -0.2416148422660E-01
-0.1920347816846E-01 -0.2625498015690E-01
-0.2126661856152E-01 -0.2849326844223E-01
-0.2353223187544E-01 -0.3091671343759E-01
-0.2606078608949E-01 -0.3357586745809E-01
-0.2897475259431E-01 -0.3654834085999E-01
-0.3244761429725E-01 -0.4001225425896E-01
-0.3753411623017E-01 -0.4403681441302E-01
-0.1109183977513E-02 -0.2060453522560E-02
-0.2279744118837E-02 -0.4125386468403E-02
-0.3377766878982E-02 -0.6060208722095E-02
-0.4486199640824E-02 -0.7894441160799E-02
-0.5639641301592E-02 -0.9665426106383E-02
-0.6850529194843E-02 -0.1138859232909E-01
-0.8124328959643E-02 -0.1307698742249E-01
-0.9461201791381E-02 -0.1474266998409E-01
-0.1085874637874E-01 -0.1639926686170E-01
-0.1231847722331E-01 -0.1806002984788E-01
-0.1385930029622E-01 -0.1974738898398E-01
-0.1551292790399E-01 -0.2150379667474E-01
-0.1729935658669E-01 -0.2335102235316E-01
-0.1923323413531E-01 -0.2529729588869E-01
-0.2134016442784E-01 -0.2735497617080E-01
-0.2366346088183E-01 -0.2954995682255E-01
-0.2627713815056E-01 -0.3190506707489E-01
-0.2930902785238E-01 -0.3445251182927E-01
-0.3306653890146E-01 -0.3719226673235E-01
-0.3848931521992E-01 -0.4021719321635E-01
-0.9868743629102E-03 -0.1900320212221E-02
-0.2110963775799E-02 -0.3851212287104E-02
-0.3218201352699E-02 -0.5740592220171E-02
-0.4338560743229E-02 -0.7546145281475E-02
-0.5504184521323E-02 -0.9289229780316E-02
-0.6727984937059E-02 -0.1098511590586E-01
-0.8014870607069E-02 -0.1264520407799E-01
-0.9365100324305E-02 -0.1428014886025E-01
-0.1077738066906E-01 -0.1589979259310E-01
-0.1225574988105E-01 -0.1751073769617E-01
-0.1381969739900E-01 -0.1912849948459E-01
-0.1549899375294E-01 -0.2079167968221E-01
-0.1731437146623E-01 -0.2252145521351E-01
-0.1928408485635E-01 -0.2432435446704E-01
-0.2143738813973E-01 -0.2620666512707E-01
-0.2382299061981E-01 -0.2818153725283E-01
-0.2652289268962E-01 -0.3025345317455E-01
-0.2968758463700E-01 -0.3241381762160E-01
-0.3364862421535E-01 -0.3464727531076E-01
-0.3897459579052E-01 -0.3713894705585E-01
-0.8957900009375E-03 -0.1781148015881E-02
-0.1965952765192E-02 -0.3625872975704E-02
-0.3068151732492E-02 -0.5451079649787E-02
-0.4196759600649E-02 -0.7216289192493E-02
-0.5373088642268E-02 -0.8924970544728E-02
-0.6609013965307E-02 -0.1058793943635E-01
-0.7908929762826E-02 -0.1221442602751E-01
-0.9273289594234E-02 -0.1381258057058E-01
-0.1070221445884E-01 -0.1538852940949E-01
-0.1220175639880E-01 -0.1694427069830E-01
-0.1379132004359E-01 -0.1849097189575E-01
-0.1549865725765E-01 -0.2006334215040E-01
-0.1734507297599E-01 -0.2168025651893E-01
-0.1935202162241E-01 -0.2334596890162E-01
-0.2155247052923E-01 -0.2506205706927E-01
-0.2399933134551E-01 -0.2683332366075E-01
-0.2678088445560E-01 -0.2865240966474E-01
-0.3005421753677E-01 -0.3050200804845E-01
-0.3408897302779E-01 -0.3240309429581E-01
-0.3914637749325E-01 -0.3455951049112E-01
-0.8249088993013E-03 -0.1684908465906E-02
-0.1842589472589E-02 -0.3434485988318E-02
-0.2930387399960E-02 -0.5188721270565E-02
-0.4062265536856E-02 -0.6904300855294E-02
-0.5247394484201E-02 -0.8572293866301E-02
-0.6494600430728E-02 -0.1019718827396E-01
-0.7807534733840E-02 -0.1178513561704E-01
-0.9186887079491E-02 -0.1334138854715E-01
-0.1063407001565E-01 -0.1486875312922E-01
-0.1215653147181E-01 -0.1636602448644E-01
-0.1377318877573E-01 -0.1784130173910E-01
-0.1550993635886E-01 -0.1932546274378E-01
-0.1738843822773E-01 -0.2083466362795E-01
-0.1943268830889E-01 -0.2237105668752E-01
-0.2167853860378E-01 -0.2393329779499E-01
-0.2418135949746E-01 -0.2552172087576E-01
-0.2703048150159E-01 -0.2712622040301E-01
-0.3036793283122E-01 -0.2874015437886E-01
-0.3437660430808E-01 -0.3041546476909E-01
-0.3912138444416E-01 -0.3233251852700E-01
-0.7678180454618E-03 -0.1602719268864E-02
-0.1737408705627E-02 -0.3266800918143E-02
-0.2805640312266E-02 -0.4948896133385E-02
-0.3936237968342E-02 -0.6608874003260E-02
-0.5127975699288E-02 -0.8230734805012E-02
-0.6385564718848E-02 -0.9812948944460E-02
-0.7711499065234E-02 -0.1135803662200E-01
-0.9106600392249E-02 -0.1286827072221E-01
-0.1057325475189E-01 -0.1434362275305E-01
-0.1211973129984E-01 -0.1578060791626E-01
-0.1376420263851E-01 -0.1718499024753E-01
-0.1553084358033E-01 -0.1858400862396E-01
-0.1744139227416E-01 -0.1999125851320E-01
-0.1952152733423E-01 -0.2140744419394E-01
-0.2180870939369E-01 -0.2283006463882E-01
-0.2435833220636E-01 -0.2425862095636E-01
-0.2725408268268E-01 -0.2568718417457E-01
-0.3061013360060E-01 -0.2712434073807E-01
-0.3453029264906E-01 -0.2863681981234E-01
-0.3896959414390E-01 -0.3036895191133E-01
-0.7205899943714E-03 -0.1529699468641E-02
-0.1647137417064E-02 -0.3115976640084E-02
-0.2693481779389E-02 -0.4727179034186E-02
-0.3819290176605E-02 -0.6328201411312E-02
-0.5015493976908E-02 -0.7899691560165E-02
-0.6282531994514E-02 -0.9435307310873E-02
-0.7621389650373E-02 -0.1093393598998E-01
-0.9032796289962E-02 -0.1239498443561E-01
-0.1051972305893E-01 -0.1381605099392E-01
-0.1209076380477E-01 -0.1519200234241E-01
-0.1376314595424E-01 -0.1652675652348E-01
-0.1555937239056E-01 -0.1784419730756E-01
-0.1750088346617E-01 -0.1915578464758E-01
-0.1961408443482E-01 -0.2046160009555E-01
-0.2193654724359E-01 -0.2175957800005E-01
-0.2452095425909E-01 -0.2305120528583E-01
-0.2744010256896E-01 -0.2433786514998E-01
-0.3077671798288E-01 -0.2564073474729E-01
-0.3457375822973E-01 -0.2702879721528E-01
-0.3873182251220E-01 -0.2861146734191E-01
-0.6806972900201E-03 -0.1462952598813E-02
-0.1569045520672E-02 -0.2977406351849E-02
-0.2592945827740E-02 -0.4519870192021E-02
-0.3711548149161E-02 -0.6060361646886E-02
-0.4910352312950E-02 -0.7578455181511E-02
-0.6185918169526E-02 -0.9064339531887E-02
-0.7537533020515E-02 -0.1051365866469E-01
-0.8965566879203E-02 -0.1192321835187E-01
-0.1047318019320E-01 -0.1328865634722E-01
-0.1206886726243E-01 -0.1460364936577E-01
-0.1376872235827E-01 -0.1587064075673E-01
-0.1559352804918E-01 -0.1711049329047E-01
-0.1756398436638E-01 -0.1833304791139E-01
-0.1970623704861E-01 -0.1953857158341E-01
-0.2205643969998E-01 -0.2072669558965E-01
-0.2466217200089E-01 -0.2190252740966E-01
-0.2758253332358E-01 -0.2307505185175E-01
-0.3087095755623E-01 -0.2427352149073E-01
-0.3452802067353E-01 -0.2556211602172E-01
-0.3843227605315E-01 -0.2702101793296E-01
-0.6464371109586E-03 -0.1400657867757E-02
-0.1500943512603E-02 -0.2847930804536E-02
-0.2502876015698E-02 -0.4324034431140E-02
-0.3612783923642E-02 -0.5803554710756E-02
-0.4812695541345E-02 -0.7266277809929E-02
-0.6095928669742E-02 -0.8700096078950E-02
-0.7460038315508E-02 -0.1009798718958E-01
-0.8904786042723E-02 -0.1145452082736E-01
-0.1043315273282E-01 -0.1276374586010E-01
-0.1205316711558E-01 -0.1401850250709E-01
-0.1377959727937E-01 -0.1522006471806E-01
-0.1563137831665E-01 -0.1638662137302E-01
-0.1762798757899E-01 -0.1752690019267E-01
-0.1979436095340E-01 -0.1864203203982E-01
-0.2216386180990E-01 -0.1973417049885E-01
-0.2477730246430E-01 -0.2081260379094E-01
-0.2767944459669E-01 -0.2189274794574E-01
-0.3089920232095E-01 -0.2300785724460E-01
-0.3440985212563E-01 -0.2421435801439E-01
-0.3808578965850E-01 -0.2556955027544E-01
-0.6166126759174E-03 -0.1341618143256E-02
-0.1441090546802E-02 -0.2725339692828E-02
-0.2422098310493E-02 -0.4137392758741E-02
-0.3522538434902E-02 -0.5556202450433E-02
-0.4722442282326E-02 -0.6962430250892E-02
-0.6012571724630E-02 -0.8342593132300E-02
-0.7388825736636E-02 -0.9687621609014E-02
-0.8850156131551E-02 -0.1099026118053E-01
-0.1039903984842E-01 -0.1224331178335E-01
-0.1204272105338E-01 -0.1343906254791E-01
-0.1379444105476E-01 -0.1457787619432E-01
-0.1567110650283E-01 -0.1567559851263E-01
-0.1769048305024E-01 -0.1674028127561E-01
-0.1987544029550E-01 -0.1777440866423E-01
-0.2225546789433E-01 -0.1878304753049E-01
-0.2486374686195E-01 -0.1977949276024E-01
-0.2773152797326E-01 -0.2078393973548E-01
-0.3086866204821E-01 -0.2183075976905E-01
-0.3423218245589E-01 -0.2296782582734E-01
-0.3770165299843E-01 -0.2423598139416E-01
-0.5903368986568E-03 -0.1284996680813E-02
-0.1388107418942E-02 -0.2608145598552E-02
-0.2349562256448E-02 -0.3958506800398E-02
-0.3440329513750E-02 -0.5317636047102E-02
-0.4639476303275E-02 -0.6667359724843E-02
-0.5935827396440E-02 -0.7993497432663E-02
-0.7323755877965E-02 -0.9285513043030E-02
-0.8801250399111E-02 -0.1053474895618E-01
-0.1037000608458E-01 -0.1173307372659E-01
-0.1203620525596E-01 -0.1287246533066E-01
-0.1381137193190E-01 -0.1395259972146E-01
-0.1571020033965E-01 -0.1498729289748E-01
-0.1774831508583E-01 -0.1598425794714E-01
-0.1994585322024E-01 -0.1694758895607E-01
-0.2232777489158E-01 -0.1788525249662E-01
-0.2491958480239E-01 -0.1881391141687E-01
-0.2774088212815E-01 -0.1975690582649E-01
-0.3078773952303E-01 -0.2074790760677E-01
-0.3400903429406E-01 -0.2182696868685E-01
-0.3729284708117E-01 -0.2302248228516E-01
-0.5669658133657E-03 -0.1230252488159E-02
-0.1340857414315E-02 -0.2495135759778E-02
-0.2284174481409E-02 -0.3785723282704E-02
-0.3365359187642E-02 -0.5086093956563E-02
-0.4563238495368E-02 -0.6379338049795E-02
-0.5865233439091E-02 -0.7651067295163E-02
-0.7264354625046E-02 -0.8889778573739E-02
-0.8757532053175E-02 -0.1008579501625E-01
-0.1034546057646E-01 -0.1123032701685E-01
-0.1203302517935E-01 -0.1231522902041E-01
-0.1382984186117E-01 -0.1333965700366E-01
-0.1574818464560E-01 -0.1431563220715E-01
-0.1780113334815E-01 -0.1525075071301E-01
-0.2000554780590E-01 -0.1615081196122E-01
-0.2238144984642E-01 -0.1702648327963E-01
-0.2494696244001E-01 -0.1789709859064E-01
-0.2771193006748E-01 -0.1878789632186E-01
-0.3066285015284E-01 -0.1973091365576E-01
-0.3374538216848E-01 -0.2075940126296E-01
-0.3685848520129E-01 -0.2189253649713E-01
-0.5459789824606E-03 -0.1176964413118E-02
-0.1298416974704E-02 -0.2385456697018E-02
-0.2225009045992E-02 -0.3617984785696E-02
-0.3296927754736E-02 -0.4860652284037E-02
-0.4493234762412E-02 -0.6097804328852E-02
-0.5800374804110E-02 -0.7315187473619E-02
-0.7210161725555E-02 -0.8500746145634E-02
-0.8718412244660E-02 -0.9644126652734E-02
-0.1032464959839E-01 -0.1073612193968E-01
-0.1203226120905E-01 -0.1176861468371E-01
-0.1384877782866E-01 -0.1274036819676E-01
-0.1578385571555E-01 -0.1366179239740E-01
-0.1784768639722E-01 -0.1454049060996E-01
-0.2005345716990E-01 -0.1538392309834E-01
-0.2241609703579E-01 -0.1620512652848E-01
-0.2494692444719E-01 -0.1702541997733E-01
-0.2764794440680E-01 -0.1787102085196E-01
-0.3049941193043E-01 -0.1877196311474E-01
-0.3344722460424E-01 -0.1975577739228E-01
-0.3640114976468E-01 -0.2083515504167E-01
-0.5269556715974E-03 -0.1124817464416E-02
-0.1260013507723E-02 -0.2278457585192E-02
-0.2171228384349E-02 -0.3454452078351E-02
-0.3234329152939E-02 -0.4640532596701E-02
-0.4428905037431E-02 -0.5822240287939E-02
-0.5740752007368E-02 -0.6985692499696E-02
-0.7160641063109E-02 -0.8118614635957E-02
-0.8683252272659E-02 -0.9210269978958E-02
-0.1030680828117E-01 -0.1025123958806E-01
-0.1203303351031E-01 -0.1123355138471E-01
-0.1386721674915E-01 -0.1215566399078E-01
-0.1581622109984E-01 -0.1302650743815E-01
-0.1788707238072E-01 -0.1385373124344E-01
-0.2008902362482E-01 -0.1464631062911E-01
-0.2243194266497E-01 -0.1541926226429E-01
-0.2492106145673E-01 -0.1619528827342E-01
-0.2755229305778E-01 -0.1700096911327E-01
-0.3030226475464E-01 -0.1786429209095E-01
-0.3311925231345E-01 -0.1880821027519E-01
-0.3592357616668E-01 -0.1984058188429E-01
-0.5095464203090E-03 -0.1073568025189E-02
-0.1224990385089E-02 -0.2173627965041E-02
-0.2122075304415E-02 -0.3294442993585E-02
-0.3176868432282E-02 -0.4425064514670E-02
-0.4369649084504E-02 -0.5552153697351E-02
-0.5685805698706E-02 -0.6662359810804E-02
-0.7115202089209E-02 -0.7743451726187E-02
-0.8651381719600E-02 -0.8784553906915E-02
-0.1029117533500E-01 -0.9776204881939E-02
-0.1203451343574E-01 -0.1071066101396E-01
-0.1388431194015E-01 -0.1158612628645E-01
-0.1584449501733E-01 -0.1241013330017E-01
-0.1791871046994E-01 -0.1319034694850E-01
-0.2011212424497E-01 -0.1393704527039E-01
-0.2242969552457E-01 -0.1466682678327E-01
-0.2487131723826E-01 -0.1540328780601E-01
-0.2742832400480E-01 -0.1617299200109E-01
-0.3007568265280E-01 -0.1700205621489E-01
-0.3276541667950E-01 -0.1790982632216E-01
-0.3542793786239E-01 -0.1890060707775E-01
-0.4934543390366E-03 -0.1023020557440E-02
-0.1192781758991E-02 -0.2070553528439E-02
-0.2076864861803E-02 -0.3137385328881E-02
-0.3123873316518E-02 -0.4213652512687E-02
-0.4314847159316E-02 -0.5287061198545E-02
-0.5634937966450E-02 -0.6344902822523E-02
-0.7073218439480E-02 -0.7375193422246E-02
-0.8622113308048E-02 -0.8367116242713E-02
-0.1027700373710E-01 -0.9311301200783E-02
-0.1203592956408E-01 -0.1020028414108E-01
-0.1389933221251E-01 -0.1103202920291E-01
-0.1586808444064E-01 -0.1181271007103E-01
-0.1794230300007E-01 -0.1254992218937E-01
-0.2012299550979E-01 -0.1325499545564E-01
-0.2241042794840E-01 -0.1394573215619E-01
-0.2479985902625E-01 -0.1464624532957E-01
-0.2727929373999E-01 -0.1538288396027E-01
-0.2982349338578E-01 -0.1618017484300E-01
-0.3238908461832E-01 -0.1705468927338E-01
-0.3491605480199E-01 -0.1800814305404E-01
-0.4784227882017E-03 -0.9730114314017E-03
-0.1162894774902E-02 -0.1968884204885E-02
-0.2034977430097E-02 -0.2982780362346E-02
-0.3074702171377E-02 -0.4005747335401E-02
-0.4263876477318E-02 -0.5026471551269E-02
-0.5587530385390E-02 -0.6032963568619E-02
-0.7034043744832E-02 -0.7013643458485E-02
-0.8594754779311E-02 -0.7957909453344E-02
-0.1026356784766E-01 -0.8856583782759E-02
-0.1203656906415E-01 -0.9702503351627E-02
-0.1391165489241E-01 -0.1049337567501E-01
-0.1588656834165E-01 -0.1123401602439E-01
-0.1795779293694E-01 -0.1193182550803E-01
-0.2012216182152E-01 -0.1259891560972E-01
-0.2237548022182E-01 -0.1325394680406E-01
-0.2470898759131E-01 -0.1392126909838E-01
-0.2710834678495E-01 -0.1462694671760E-01
-0.2954916489375E-01 -0.1539424584249E-01
-0.3199319325295E-01 -0.1623767018605E-01
-0.3438949751769E-01 -0.1715707587106E-01
-0.4642273507571E-03 -0.9233973890484E-03
-0.1134897326652E-02 -0.1868310755427E-02
-0.1995853484851E-02 -0.2830174590921E-02
-0.3028749927500E-02 -0.3800822088845E-02
-0.4216124490811E-02 -0.4769870437887E-02
-0.5542959178274E-02 -0.5726105733551E-02
-0.6997024876682E-02 -0.6658472930362E-02
-0.8568618119732E-02 -0.7556706358791E-02
-0.1025016735432E-01 -0.8411892272503E-02
-0.1203577495367E-01 -0.9217164476990E-02
-0.1392075377045E-01 -0.9969929927575E-02
-0.1589967190513E-01 -0.1067361398637E-01
-0.1796531919230E-01 -0.1133526987028E-01
-0.2011037026688E-01 -0.1196751316707E-01
-0.2232638440007E-01 -0.1258955133323E-01
-0.2460107918059E-01 -0.1322576881249E-01
-0.2691851700192E-01 -0.1390196098288E-01
-0.2925588523297E-01 -0.1464048004275E-01
-0.3158036691391E-01 -0.1545436366103E-01
-0.3384967585402E-01 -0.1634215781345E-01
-0.4506707720035E-03 -0.8740471260958E-03
-0.1108409972962E-02 -0.1768547340878E-02
-0.1958990183060E-02 -0.2679137766585E-02
-0.2985452923003E-02 -0.3598352538898E-02
-0.4170999793915E-02 -0.4516707158455E-02
-0.5500607936628E-02 -0.5423808299604E-02
-0.6961512947528E-02 -0.6309219977119E-02
-0.8543026515917E-02 -0.7163105294621E-02
-0.1023612855819E-01 -0.7976861775413E-02
-0.1203294001372E-01 -0.8743894835278E-02
-0.1392618316392E-01 -0.9461244683539E-02
-0.1590723739059E-01 -0.1013088897503E-01
-0.1796517168340E-01 -0.1075935956679E-01
-0.2008853197831E-01 -0.1135949781073E-01
-0.2226480429792E-01 -0.1195077624175E-01
-0.2447854903171E-01 -0.1255746630334E-01
-0.2671274230937E-01 -0.1320516443653E-01
-0.2894663383210E-01 -0.1391565624986E-01
-0.3115301050653E-01 -0.1470103149262E-01
-0.3329790351936E-01 -0.1555894127373E-01
-0.4375800036080E-03 -0.8248350207469E-03
-0.1083101001849E-02 -0.1669318324896E-02
-0.1923939622732E-02 -0.2529245691533E-02
-0.2944293252940E-02 -0.3397800930073E-02
-0.4127941293648E-02 -0.4266383109039E-02
-0.5459878346863E-02 -0.5125459695200E-02
-0.6926872425861E-02 -0.5965289102628E-02
-0.8517319450816E-02 -0.6776534021573E-02
-0.1022080356063E-01 -0.7550931406428E-02
-0.1202749816371E-01 -0.8282117168273E-02
-0.1392755920484E-01 -0.8966681569834E-02
-0.1590919295652E-01 -0.9605075732591E-02
-0.1795774705737E-01 -0.1020312336982E-01
-0.2005766935902E-01 -0.1077361466954E-01
-0.2219248747667E-01 -0.1133602553803E-01
-0.2434382907088E-01 -0.1191440023727E-01
-0.2649388632798E-01 -0.1253423544517E-01
-0.2862424483723E-01 -0.1321709111912E-01
-0.3071338392886E-01 -0.1397456707193E-01
-0.3273544334541E-01 -0.1480373930122E-01
-0.4248047842360E-03 -0.7756363711212E-03
-0.1058683922427E-02 -0.1570348147310E-02
-0.1890308627760E-02 -0.2380066703410E-02
-0.2904803023109E-02 -0.3198602878891E-02
-0.4086426197106E-02 -0.4018242178794E-02
-0.5420199408622E-02 -0.4830352829127E-02
-0.6892488809434E-02 -0.5625950544511E-02
-0.8490856428111E-02 -0.6396252767511E-02
-0.1020356795842E-01 -0.7133350702223E-02
-0.1201891408294E-01 -0.7831059652969E-02
-0.1392453929745E-01 -0.8485425230902E-02
-0.1590552032163E-01 -0.9095277146100E-02
-0.1794350529105E-01 -0.9665536042095E-02
-0.2001886773244E-01 -0.1020866525753E-01
-0.2211122539732E-01 -0.1074389142163E-01
-0.2419935457022E-01 -0.1129492958538E-01
-0.2626476394296E-01 -0.1188728481036E-01
-0.2829146502276E-01 -0.1254262386173E-01
-0.3026366406981E-01 -0.1327247863957E-01
-0.3216353917533E-01 -0.1407360964348E-01
-0.4122173824954E-03 -0.7263236926261E-03
-0.1034916867734E-02 -0.1471353391376E-02
-0.1857759875706E-02 -0.2231150921529E-02
-0.2866568721243E-02 -0.3000156737761E-02
-0.4045977198071E-02 -0.3771562812549E-02
-0.5381035545057E-02 -0.4537680890087E-02
-0.6857775272239E-02 -0.5290339500757E-02
-0.8463019822881E-02 -0.6021356043019E-02
-0.1018381769802E-01 -0.6723183336294E-02
-0.1200667191307E-01 -0.7389761232743E-02
-0.1391680067627E-01 -0.8016490289843E-02
-0.1589622197732E-01 -0.8600472820321E-02
-0.1792292703348E-01 -0.9145527945239E-02
-0.1997322962737E-01 -0.9663516644587E-02
-0.2202281798155E-01 -0.1017316096586E-01
-0.2404755526174E-01 -0.1069773626173E-01
-0.2602816833021E-01 -0.1126285444641E-01
-0.2795100784370E-01 -0.1189061301802E-01
-0.2980599822950E-01 -0.1259288736300E-01
-0.3158343744616E-01 -0.1336635688466E-01
-0.3997132626801E-03 -0.6767637463459E-03
-0.1011603558606E-02 -0.1372036398587E-02
-0.1826014214368E-02 -0.2082021557102E-02
-0.2829235834357E-02 -0.2801814992269E-02
-0.4006169163990E-02 -0.3525551645135E-02
-0.5341893977521E-02 -0.4246534042576E-02
-0.6822178716416E-02 -0.4957455419314E-02
-0.8433217388723E-02 -0.5650773418810E-02
-0.1016096576412E-01 -0.6319308270745E-02
-0.1199026386200E-01 -0.6957072350238E-02
-0.1390401890705E-01 -0.7558721238725E-02
-0.1588128847553E-01 -0.8119517995556E-02
-0.1789647129936E-01 -0.8641983200611E-02
-0.1992182974748E-01 -0.9137099648046E-02
-0.2192903903190E-01 -0.9622815800884E-02
-0.2389084713688E-01 -0.1012182786093E-01
-0.2578689804716E-01 -0.1065992357059E-01
-0.2760560613694E-01 -0.1125994523935E-01
-0.2934255357382E-01 -0.1193453932088E-01
-0.3099640231767E-01 -0.1268055113696E-01
-0.3872125353897E-03 -0.6268150353687E-03
-0.9885956082165E-03 -0.1272079907831E-02
-0.1794854040213E-02 -0.1932167710351E-02
-0.2792513768519E-02 -0.2602877321462E-02
-0.3966635535271E-02 -0.3279338643523E-02
-0.5302331685640E-02 -0.3955897191545E-02
-0.6785185652093E-02 -0.4626161638428E-02
-0.8400884972849E-02 -0.5283269578114E-02
-0.1013443941299E-01 -0.5920418636394E-02
-0.1196917956529E-01 -0.6531651332641E-02
-0.1388584719528E-01 -0.7110785458808E-02
-0.1586066632235E-01 -0.7651132939570E-02
-0.1786453312607E-01 -0.8153726411265E-02
-0.1986566870951E-01 -0.8628395878297E-02
-0.2183159903407E-01 -0.9092024505406E-02
-0.2373162121688E-01 -0.9566540458114E-02
-0.2554378290619E-01 -0.1007792310905E-01
-0.2725806638823E-01 -0.1065005706474E-01
-0.2887556758768E-01 -0.1129683156884E-01
-0.3040372787461E-01 -0.1201556289583E-01
-0.3746621376992E-03 -0.5763255247094E-03
-0.9657960454075E-03 -0.1171142220516E-02
-0.1764127615514E-02 -0.1781038078807E-02
-0.2756181032336E-02 -0.2402584894657E-02
-0.3927074521033E-02 -0.3031973569922E-02
-0.5261962163544E-02 -0.3664648811480E-02
-0.6746328248577E-02 -0.4295185447103E-02
-0.8365489935968E-02 -0.4917443697754E-02
-0.1010367862389E-01 -0.5525018323794E-02
-0.1194289703844E-01 -0.6111956299294E-02
-0.1386189737131E-01 -0.6671159060663E-02
-0.1583422705680E-01 -0.7193882173092E-02
-0.1782740088769E-01 -0.7679496721466E-02
-0.1980562365352E-01 -0.8136411637779E-02
-0.2173210159243E-01 -0.8580125083829E-02
-0.2357222471710E-01 -0.9031539159247E-02
-0.2530170614902E-01 -0.9516757905770E-02
-0.2691132709719E-01 -0.1006097099218E-01
-0.2840740456910E-01 -0.1067985239916E-01
-0.2980674901029E-01 -0.1137161286093E-01
-0.3620387765476E-03 -0.5251303453179E-03
-0.9431640516673E-03 -0.1068852444523E-02
-0.1733754249103E-02 -0.1628035147244E-02
-0.2720090630445E-02 -0.2200115747220E-02
-0.3887255157882E-02 -0.2782423985744E-02
-0.5220462202921E-02 -0.3371561404002E-02
-0.6705190962520E-02 -0.3963119394379E-02
-0.8326535864681E-02 -0.4551729182342E-02
-0.1006813654745E-01 -0.5131417455721E-02
-0.1191087618029E-01 -0.5696233856538E-02
-0.1383172360566E-01 -0.6238106793134E-02
-0.1580173840778E-01 -0.6746144509351E-02
-0.1778521344603E-01 -0.7217909460122E-02
-0.1974239437042E-01 -0.7660137776700E-02
-0.2163199009235E-01 -0.8086595721104E-02
-0.2341492973646E-01 -0.8516814838059E-02
-0.2506361978463E-01 -0.8976838592916E-02
-0.2656852550619E-01 -0.9493352808513E-02
-0.2794062858364E-01 -0.1008444199624E-01
-0.2920685462862E-01 -0.1074983854739E-01
-0.3493527623684E-03 -0.4730491775651E-03
-0.9207209859147E-03 -0.9648052317477E-03
-0.1703730219479E-02 -0.1472509252943E-02
-0.2684175461903E-02 -0.1994580852737E-02
-0.3847023110101E-02 -0.2529574690953E-02
-0.5177578751282E-02 -0.3075303682163E-02
-0.6661417986831E-02 -0.3628424057163E-02
-0.8283569026480E-02 -0.4184393997906E-02
-0.1002728262205E-01 -0.4737726963429E-02
-0.1187255572695E-01 -0.5282504710026E-02
-0.1379480994860E-01 -0.5809655928952E-02
-0.1576283862945E-01 -0.6306073238089E-02
-0.1773791772870E-01 -0.6767403471332E-02
-0.1967644387775E-01 -0.7198491462219E-02
-0.2153248067917E-01 -0.7611007934162E-02
-0.2326188272090E-01 -0.8022670576138E-02
-0.2483254518299E-01 -0.8459119236492E-02
-0.2623307359641E-01 -0.8948598343302E-02
-0.2747810741327E-01 -0.9512283357861E-02
-0.2860550468604E-01 -0.1015237589649E-01
-0.3366529950075E-03 -0.4198829092078E-03
-0.8985578865118E-03 -0.8585542977558E-03
-0.1674135296743E-02 -0.1313751900060E-02
-0.2648453419419E-02 -0.1785020640006E-02
-0.3806305994692E-02 -0.2272228736198E-02
-0.5133135828352E-02 -0.2774444909513E-02
-0.6614721724114E-02 -0.3289432913406E-02
-0.8236186995749E-02 -0.3813542417724E-02
-0.9980609019862E-02 -0.4341853187461E-02
-0.1182735457953E-01 -0.4868547161364E-02
-0.1375056290400E-01 -0.5383565012766E-02
-0.1571701550330E-01 -0.5871546934018E-02
-0.1768522803753E-01 -0.6326173215759E-02
-0.1960793357177E-01 -0.6750236525121E-02
-0.2143447764549E-01 -0.7152954702932E-02
-0.2311502751267E-01 -0.7549691720264E-02
-0.2461154768182E-01 -0.7965131415549E-02
-0.2590873480801E-01 -0.8428958649150E-02
-0.2702317988991E-01 -0.8966065118467E-02
-0.2800425766139E-01 -0.9582448333917E-02
-0.3240335724485E-03 -0.3654089741973E-03
-0.8768447908449E-03 -0.7496038241562E-03
-0.1645139690990E-02 -0.1150987710324E-02
-0.2613031805067E-02 -0.1570401983741E-02
-0.3765117993545E-02 -0.2009110610782E-02
-0.5087041530416E-02 -0.2467462427542E-02
-0.6564892590515E-02 -0.2944360754608E-02
-0.8184050036254E-02 -0.3437119986079E-02
-0.9927641294218E-02 -0.3941494608788E-02
-0.1177467869081E-01 -0.4451880812569E-02
-0.1369831064203E-01 -0.4957289936061E-02
-0.1566359211708E-01 -0.5440113158750E-02
-0.1762658980017E-01 -0.5892086885535E-02
-0.1953665438641E-01 -0.6313879848646E-02
-0.2133847043723E-01 -0.6711947801191E-02
-0.2297598840549E-01 -0.7098684098053E-02
-0.2440368439350E-01 -0.7497025089977E-02
-0.2559966077749E-01 -0.7937650210494E-02
-0.2657992428980E-01 -0.8449861598798E-02
-0.2740491949328E-01 -0.9044512943139E-02
-0.3116427851202E-03 -0.3093742883930E-03
-0.8558422729402E-03 -0.6373963345633E-03
-0.1617010965981E-02 -0.9833637868452E-03
-0.2578110231636E-02 -0.1349615131347E-02
-0.3723563073735E-02 -0.1738871313434E-02
-0.5039294658212E-02 -0.2152752082271E-02
-0.6511809893770E-02 -0.2591315355348E-02
-0.8126895225580E-02 -0.3052921414518E-02
-0.9867953480940E-02 -0.3534140314272E-02
-0.1171393408309E-01 -0.4029749886534E-02
-0.1363730986066E-01 -0.4527946537678E-02
-0.1560172126594E-01 -0.5008924017948E-02
-0.1756115041474E-01 -0.5462588147872E-02
-0.1946195782217E-01 -0.5887538159147E-02
-0.2124440802206E-01 -0.6287267516641E-02
-0.2284591141882E-01 -0.6670567556095E-02
-0.2421186367084E-01 -0.7057560666559E-02
-0.2531049778715E-01 -0.7479076649597E-02
-0.2615312927365E-01 -0.7969198088018E-02
-0.2681052970054E-01 -0.8546263488493E-02
-0.2996640883506E-03 -0.2514249150408E-03
-0.8358110367408E-03 -0.5210501676533E-03
-0.1589915945113E-02 -0.8093984980013E-03
-0.2543653724349E-02 -0.1120540630922E-02
-0.3681365351775E-02 -0.1458687189900E-02
-0.4989361002222E-02 -0.1826688681446E-02
-0.6454657232204E-02 -0.2225772288546E-02
-0.8063591824303E-02 -0.2655459876491E-02
-0.9800074807421E-02 -0.3113345148516E-02
-0.1164330784318E-01 -0.3594848723793E-02
-0.1356543089316E-01 -0.4087554243078E-02
-0.1552899962072E-01 -0.4569571190663E-02
-0.1748630698960E-01 -0.5029200065515E-02
-0.1938119771056E-01 -0.5463185360946E-02
-0.2114992801960E-01 -0.5872020454913E-02
-0.2272327076023E-01 -0.6260299561156E-02
-0.2403597305490E-01 -0.6643961182048E-02
-0.2504213333119E-01 -0.7052433430998E-02
-0.2574243096899E-01 -0.7524988083349E-02
-0.2621401297451E-01 -0.8089337617343E-02
-0.2884267540914E-03 -0.1912726132987E-03
-0.8173407921374E-03 -0.4000585399713E-03
-0.1564527228781E-02 -0.6285470325860E-03
-0.2510349098768E-02 -0.8827850658666E-03
-0.3639237881841E-02 -0.1168413801645E-02
-0.4937995834622E-02 -0.1489386860979E-02
-0.6394214367819E-02 -0.1848062152771E-02
-0.7994887560076E-02 -0.2245215370340E-02
-0.9724640024338E-02 -0.2679680789513E-02
-0.1156324002080E-01 -0.3147827306943E-02
-0.1348285419768E-01 -0.3636891623776E-02
-0.1544530928847E-01 -0.4123078032604E-02
-0.1740166916671E-01 -0.4593431961577E-02
-0.1929389914196E-01 -0.5043276893574E-02
-0.2105500746977E-01 -0.5470399134079E-02
-0.2260968029000E-01 -0.5874949103097E-02
-0.2388119561905E-01 -0.6267281508816E-02
-0.2480519753255E-01 -0.6673050613514E-02
-0.2536280969548E-01 -0.7136039080796E-02
-0.2563181729538E-01 -0.7698585736248E-02
-0.2783463324936E-03 -0.1284862484035E-03
-0.8010703189954E-03 -0.2735302511554E-03
-0.1541437093138E-02 -0.4396170643182E-03
-0.2478666849674E-02 -0.6349910629028E-03
-0.3597559560553E-02 -0.8665337298249E-03
-0.4885511617664E-02 -0.1139088078008E-02
-0.6330712649847E-02 -0.1456069712583E-02
-0.7920875424324E-02 -0.1819594764774E-02
-0.9641518131150E-02 -0.2229986424058E-02
-0.1147328662853E-01 -0.2684943240054E-02
-0.1338874251883E-01 -0.3171710490177E-02
-0.1534933953912E-01 -0.3664835335739E-02
-0.1730538685253E-01 -0.4150581036439E-02
-0.1919768755892E-01 -0.4623500684425E-02
-0.2095700514915E-01 -0.5079340311818E-02
-0.2250311414317E-01 -0.5514121266339E-02
-0.2374813287016E-01 -0.5931545123527E-02
-0.2460528374864E-01 -0.6350252407700E-02
-0.2502449991245E-01 -0.6816116728448E-02
-0.2506884908286E-01 -0.7392957746227E-02
-0.2699973349625E-03 -0.6250281352256E-04
-0.7878122078946E-03 -0.1403623519732E-03
-0.1521336575456E-02 -0.2412511467850E-03
-0.2449143871367E-02 -0.3757267563819E-03
-0.3556788981438E-02 -0.5515143383101E-03
-0.4832330926871E-02 -0.7740446441311E-03
-0.6264528325259E-02 -0.1047686677143E-02
-0.7841820684056E-02 -0.1375963995442E-02
-0.9550753808306E-02 -0.1760957007386E-02
-0.1137314752388E-01 -0.2202157045108E-02
-0.1328232881673E-01 -0.2687280254581E-02
-0.1523972238329E-01 -0.3189540491794E-02
-0.1719534911957E-01 -0.3695009075442E-02
-0.1908961029058E-01 -0.4198325341905E-02
-0.2085218906076E-01 -0.4694258189720E-02
-0.2239972674354E-01 -0.5175831225341E-02
-0.2363513320336E-01 -0.5640108051521E-02
-0.2444722369947E-01 -0.6095016096523E-02
-0.2474006788450E-01 -0.6583329602039E-02
-0.2453618364138E-01 -0.7194360043626E-02
-0.2641882251524E-03  0.7457091898862E-05
-0.7785796478018E-03  0.8605546610657E-06
-0.1504988158340E-02 -0.3189727821176E-04
-0.2422358671968E-02 -0.1035035213703E-03
-0.3517453775793E-02 -0.2218346836369E-03
-0.4778984457966E-02 -0.3925554254214E-03
-0.6196192880530E-02 -0.6208630445041E-03
-0.7758190412513E-02 -0.9117097484099E-03
-0.9452616743611E-02 -0.1269197074707E-02
-0.1126273028579E-01 -0.1695157361503E-02
-0.1316298865167E-01 -0.2178373779322E-02
-0.1511510867511E-01 -0.2691140827697E-02
-0.1706925989745E-01 -0.3220030826867E-02
-0.1896620549287E-01 -0.3760796985095E-02
-0.2073575912453E-01 -0.4308630627425E-02
-0.2229355003843E-01 -0.4855599464337E-02
-0.2353713793908E-01 -0.5394233493894E-02
-0.2433321760228E-01 -0.5919410672379E-02
-0.2452535613016E-01 -0.6461012091986E-02
-0.2405270078598E-01 -0.7133860235909E-02
-0.2620912879064E-03  0.8255462663290E-04
-0.7745993394605E-03  0.1520228943555E-03
-0.1493166799739E-02  0.1902019309211E-03
-0.2398900389808E-02  0.1831864026896E-03
-0.3480139318972E-02  0.1239861476869E-03
-0.4726103899208E-02  0.6996732734178E-05
-0.6126397472689E-02 -0.1736679157233E-03
-0.7670682192187E-02 -0.4243218215908E-03
-0.9347658953497E-02 -0.7513004284096E-03
-0.1114222897424E-01 -0.1159404894597E-02
-0.1303033028862E-01 -0.1639262434660E-02
-0.1497426350652E-01 -0.2162785974324E-02
-0.1692474105460E-01 -0.2717821362824E-02
-0.1882361671898E-01 -0.3302363754577E-02
-0.2060198815846E-01 -0.3913658988001E-02
-0.2217649397606E-01 -0.4545490708971E-02
-0.2344441214704E-01 -0.5190783678446E-02
-0.2425956105454E-01 -0.5834246546230E-02
-0.2439828113227E-01 -0.6479944007271E-02
-0.2365029813629E-01 -0.7257616081753E-02
-0.2654776544541E-03  0.1646873514740E-03
-0.7772649721885E-03  0.3157107879223E-03
-0.1486551296644E-02  0.4269465313374E-03
-0.2379344429503E-02  0.4858100088735E-03
-0.3445478884573E-02  0.4873678466096E-03
-0.4674407369302E-02  0.4261070876518E-03
-0.6055987431658E-02  0.2956432345234E-03
-0.7580246971239E-02  0.8849849506940E-04
-0.9236780468160E-02 -0.2039691793112E-03
-0.1101222245613E-01 -0.5902020613365E-03
-0.1288430611386E-01 -0.1063719218960E-02
-0.1481617946867E-01 -0.1596786846300E-02
-0.1675945857332E-01 -0.2179350863742E-02
-0.1865775561059E-01 -0.2812746609456E-02
-0.2044444059979E-01 -0.3498013674051E-02
-0.2203881731267E-01 -0.4233502267594E-02
-0.2334204039843E-01 -0.5019111376188E-02
-0.2421115536079E-01 -0.5843173091239E-02
-0.2437289014624E-01 -0.6678738966818E-02
-0.2338323824935E-01 -0.7637397704432E-02
-0.2771592172302E-03  0.2573649080967E-03
-0.7878893331154E-03  0.4954699392879E-03
-0.1485568525452E-02  0.6801065212596E-03
-0.2364269058526E-02  0.8057603977765E-03
-0.3414137510168E-02  0.8696567683264E-03
-0.4624677981034E-02  0.8661090339483E-03
-0.5985942080791E-02  0.7885661178252E-03
-0.7488095309966E-02  0.6286993847762E-03
-0.9121302111565E-02  0.3758035087175E-03
-0.1087380347842E-01  0.1719719467519E-04
-0.1272534936673E-01 -0.4450173227268E-03
-0.1464020978749E-01 -0.9845858792614E-03
-0.1657125407414E-01 -0.1594331847686E-02
-0.1846452268910E-01 -0.2279917415021E-02
-0.2025624194672E-01 -0.3047608469698E-02
-0.2186979264599E-01 -0.3903494513362E-02
-0.2321191307155E-01 -0.4859172683213E-02
-0.2415531339299E-01 -0.5929942668270E-02
-0.2444055086981E-01 -0.7094729680813E-02
-0.2334091337890E-01 -0.8390256258796E-02
-0.3018156380456E-03  0.3683969244024E-03
-0.8068044220720E-03  0.6953996640724E-03
-0.1490375842587E-02  0.9507075747306E-03
-0.2354335710100E-02  0.1144567539037E-02
-0.3386754457130E-02  0.1272025892363E-02
-0.4577755091470E-02  0.1328170284651E-02
-0.5917329160197E-02  0.1306299068535E-02
-0.7395666418029E-02  0.1197726790938E-02
-0.9003034179063E-02  0.9904409059520E-03
-0.1072876076822E-01  0.6674093707151E-03
-0.1255455132630E-01  0.2241144627374E-03
-0.1444618867222E-01 -0.3167104487063E-03
-0.1635833118678E-01 -0.9512490014257E-03
-0.1823990963536E-01 -0.1689979112442E-02
-0.2003075989802E-01 -0.2545974428600E-02
-0.2165758630090E-01 -0.3534258438251E-02
-0.2303729632483E-01 -0.4684834730038E-02
-0.2404655488408E-01 -0.6043541065289E-02
-0.2452191517873E-01 -0.7714566951978E-02
-0.2364151963196E-01 -0.9708266441057E-02
-0.1538937612087E+00 -0.5172363690320E-01
-0.2501849786104E+00 -0.8467986265161E-01
-0.3335736190362E+00 -0.1223378306676E+00
-0.4072120865341E+00 -0.1630357713422E+00
-0.4731559143228E+00 -0.2048745221808E+00
-0.5324016989393E+00 -0.2459938653505E+00
-0.5855633585302E+00 -0.2848956900581E+00
-0.6329090734569E+00 -0.3204986439853E+00
-0.6733395911926E+00 -0.3516461160030E+00
-0.1499764983638E+00 -0.4982643675790E-01
-0.2432667946419E+00 -0.8342666720169E-01
-0.3243185921518E+00 -0.1226938859244E+00
-0.3963978027762E+00 -0.1658067188269E+00
-0.4615792537035E+00 -0.2107223856699E+00
-0.5208793470304E+00 -0.2554725087828E+00
-0.5748229209148E+00 -0.2984198487744E+00
-0.6234824785284E+00 -0.3381876610266E+00
-0.6658816644130E+00 -0.3731148609842E+00
-0.1453864616684E+00 -0.4809454462564E-01
-0.2352419399388E+00 -0.8251204488767E-01
-0.3136368175273E+00 -0.1236081382217E+00
-0.3839005951199E+00 -0.1693384358258E+00
-0.4481191637860E+00 -0.2175388597562E+00
-0.5073224928216E+00 -0.2661583426917E+00
-0.5619731007720E+00 -0.3134315196055E+00
-0.6120561008340E+00 -0.3577246755775E+00
-0.6565857893869E+00 -0.3972645723069E+00
-0.1400869628090E+00 -0.4651561550300E-01
-0.2260561039139E+00 -0.8189117493760E-01
-0.3014695781048E+00 -0.1249668849107E+00
-0.3696596678789E+00 -0.1734662096319E+00
-0.4326975703687E+00 -0.2251166042663E+00
-0.4916216645203E+00 -0.2778111903087E+00
-0.5468669768149E+00 -0.3296946231947E+00
-0.5983534956869E+00 -0.3790077020323E+00
-0.6450460504867E+00 -0.4238775080667E+00
-0.1340569098092E+00 -0.4507873881290E-01
-0.2156823622231E+00 -0.8151152300595E-01
-0.2877877982960E+00 -0.1266594815310E+00
-0.3536381543376E+00 -0.1780163907482E+00
-0.4152561562376E+00 -0.2332238836624E+00
-0.4736804996031E+00 -0.2901514515869E+00
-0.5293344778555E+00 -0.3469146495635E+00
-0.5820961533092E+00 -0.4016982095233E+00
-0.6308897324860E+00 -0.4525642605082E+00
-0.1272933331541E+00 -0.4377347297762E-01
-0.2041208244414E+00 -0.8132065916397E-01
-0.2725922480673E+00 -0.1285721661012E+00
-0.3358283160944E+00 -0.1828061542977E+00
-0.3957636984865E+00 -0.2416056896352E+00
-0.4534221792099E+00 -0.3028549482290E+00
-0.5092243934911E+00 -0.3646917865585E+00
-0.5630309466585E+00 -0.4253093438844E+00
-0.6137564834684E+00 -0.4827581099976E+00
-0.1198119875200E+00 -0.4259094114351E-01
-0.1913991075825E+00 -0.8126655769662E-01
-0.2559150187395E+00 -0.1305892757601E+00
-0.3162555720516E+00 -0.1876443810231E+00
-0.3742230745227E+00 -0.2499860726664E+00
-0.4308064534754E+00 -0.3155489730837E+00
-0.4864272627740E+00 -0.3825400331630E+00
-0.5409501221372E+00 -0.4492223169777E+00
-0.5933162400773E+00 -0.5137074807045E+00
-0.1116473862088E+00 -0.4152348525929E-01
-0.1775725390514E+00 -0.8129846362633E-01
-0.2378208031869E+00 -0.1325951066590E+00
-0.2949819410457E+00 -0.1923353244372E+00
-0.3506791028860E+00 -0.2580729817443E+00
-0.4058428962275E+00 -0.3278243888458E+00
-0.4608938084518E+00 -0.3999063077946E+00
-0.5157153203327E+00 -0.4727081131198E+00
-0.5693064485922E+00 -0.5444776526272E+00
-0.1028522389582E+00 -0.4056437467100E-01
-0.1627237419385E+00 -0.8136786868568E-01
-0.2184074482027E+00 -0.1344768974860E+00
-0.2721087162450E+00 -0.1966840941410E+00
-0.3252244381722E+00 -0.2655683196570E+00
-0.3786009811141E+00 -0.3392523239764E+00
-0.4326503168898E+00 -0.4161955427361E+00
-0.4872825867936E+00 -0.4949587579795E+00
-0.5415788175893E+00 -0.5739821307359E+00
-0.9349626550948E-01 -0.3970759425428E-01
-0.1469613522788E+00 -0.8142983249299E-01
-0.1978054410071E+00 -0.1361285944155E+00
-0.2477775231281E+00 -0.2005040591223E+00
-0.2980029644791E+00 -0.2721806864824E+00
-0.3492166571638E+00 -0.3494044830617E+00
-0.4018099685561E+00 -0.4308006613094E+00
-0.4557221815079E+00 -0.5151315059639E+00
-0.5101384523096E+00 -0.6010577956422E+00
-0.8366436872147E-01 -0.3894777477230E-01
-0.1304177879504E+00 -0.8144456515079E-01
-0.1761760765137E+00 -0.1374552044455E+00
-0.2221694459234E+00 -0.2036252648567E+00
-0.2692103676680E+00 -0.2776396767795E+00
-0.3178950248405E+00 -0.3578756024334E+00
-0.3685785281757E+00 -0.4431365276838E+00
-0.4212284486076E+00 -0.5324017281286E+00
-0.4751572206281E+00 -0.6245606331796E+00
-0.7345414931373E-01 -0.3828025799377E-01
-0.1132459898824E+00 -0.8137915226132E-01
-0.1537081562893E+00 -0.1383773136264E+00
-0.1955020213958E+00 -0.2059031094242E+00
-0.2390916486961E+00 -0.2817105902829E+00
-0.2849086443491E+00 -0.3643067306450E+00
-0.3332534761935E+00 -0.4526754665986E+00
-0.3841182781100E+00 -0.5460170723100E+00
-0.4369661804575E+00 -0.6434459272509E+00
-0.6297280554289E-01 -0.3770128043968E-01
-0.9561517963886E-01 -0.8120923923354E-01
-0.1306132403521E+00 -0.1388353258178E+00
-0.1680240961176E+00 -0.2072264960639E+00
-0.2079355212060E+00 -0.2842084225236E+00
-0.2505913542583E+00 -0.3684075985264E+00
-0.2962166015234E+00 -0.4589812842455E+00
-0.3448203292036E+00 -0.5553465535838E+00
-0.3960379609067E+00 -0.6568330115364E+00
-0.5233351425707E-01 -0.3720825196475E-01
-0.7770577444173E-01 -0.8092049443866E-01
-0.1071196084832E+00 -0.1387929791769E+00
-0.1400086996442E+00 -0.2075246923033E+00
-0.1760658471699E+00 -0.2850099428675E+00
-0.2153278736657E+00 -0.3699762187816E+00
-0.2579209311617E+00 -0.4617386796547E+00
-0.3038577541471E+00 -0.5599210932084E+00
-0.3529632748362E+00 -0.6640555352367E+00
-0.4165140792803E-01 -0.3680012489300E-01
-0.5970365278730E-01 -0.8050970789216E-01
-0.8346517651355E-01 -0.1382397486241E+00
-0.1117442039191E+00 -0.2067721390898E+00
-0.1438304211524E+00 -0.2840626910166E+00
-0.1795397284919E+00 -0.3689140543939E+00
-0.2188731888709E+00 -0.4607759909169E+00
-0.2618262033708E+00 -0.5594642162461E+00
-0.3084239119416E+00 -0.6646990834655E+00
-0.3103932603734E-01 -0.3647786935715E-01
-0.4179411938880E-01 -0.7998551156746E-01
-0.5988984582633E-01 -0.1371918088568E+00
-0.8352431200075E-01 -0.2049905306603E+00
-0.1115876825166E+00 -0.2813897624054E+00
-0.1436682308409E+00 -0.3652354501451E+00
-0.1796129313593E+00 -0.4560802857548E+00
-0.2193687021561E+00 -0.5539121197951E+00
-0.2631629138617E+00 -0.6586252876569E+00
-0.2060345605290E-01 -0.3624517078747E-01
-0.2415584642663E-01 -0.7936877901363E-01
-0.3662786995009E-01 -0.1356916720303E+00
-0.5563755172083E-01 -0.2022473330094E+00
-0.7969195108723E-01 -0.2770894868036E+00
-0.1081551637347E+00 -0.3590702304712E+00
-0.1406890520423E+00 -0.4478042211808E+00
-0.1771488051836E+00 -0.5434240174426E+00
-0.2179543517450E+00 -0.6459798374939E+00
-0.1043888822423E-01 -0.3610882995059E-01
-0.6955018429421E-02 -0.7869343898776E-01
-0.1390090625438E-01 -0.1338066909673E+00
-0.2835769286674E-01 -0.1986511993118E+00
-0.4847783689684E-01 -0.2713269729093E+00
-0.7342133812023E-01 -0.3506599721331E+00
-0.1026347534820E+00 -0.4362644139384E+00
-0.1358217257782E+00 -0.5283823994209E+00
-0.1735746647433E+00 -0.6271969522997E+00
-0.6256783244282E-03 -0.3608077397865E-01
 0.9660671068733E-02 -0.7800446238382E-01
 0.8087935988232E-02 -0.1316312061898E+00
-0.1937257002838E-02 -0.1943439930074E+00
-0.1824703696956E-01 -0.2643172730886E+00
-0.3983995362277E-01 -0.3403358539629E+00
-0.6593988517923E-01 -0.4219468705898E+00
-0.9600987255355E-01 -0.5093797960662E+00
-0.1307623658564E+00 -0.6029872223249E+00
-0.2609831474140E+00 -0.1669615663817E+00
-0.3993990802471E+00 -0.2751090017285E+00
-0.5088525750039E+00 -0.3320309891716E+00
-0.5939971178774E+00 -0.3557633401146E+00
-0.6580657429844E+00 -0.3599907105554E+00
-0.7039060912682E+00 -0.3529096918933E+00
-0.7325178023954E+00 -0.3362438652290E+00
-0.7440492175819E+00 -0.3158488613195E+00
-0.7414984074256E+00 -0.3019371024324E+00
-0.2467459492148E+00 -0.1354116944732E+00
-0.3913617276646E+00 -0.2265965156579E+00
-0.5029379338987E+00 -0.2891314582150E+00
-0.5890151159730E+00 -0.3219350909390E+00
-0.6539857815237E+00 -0.3341853335716E+00
-0.7007408142196E+00 -0.3335701232243E+00
-0.7302231872285E+00 -0.3224387333077E+00
-0.7429016703784E+00 -0.3075546729756E+00
-0.7423920324937E+00 -0.2987726972423E+00
-0.2328483729180E+00 -0.1140524437298E+00
-0.3776287745322E+00 -0.1902900899311E+00
-0.4913647798651E+00 -0.2499870041510E+00
-0.5794352844166E+00 -0.2881550702538E+00
-0.6461822932631E+00 -0.3076846003418E+00
-0.6947007987870E+00 -0.3140005284871E+00
-0.7259657221114E+00 -0.3094504394711E+00
-0.7407134567266E+00 -0.3009008619835E+00
-0.7429415827630E+00 -0.2976163859336E+00
-0.2200118310977E+00 -0.9854764850125E-01
-0.3615902353647E+00 -0.1626800457666E+00
-0.4755857996451E+00 -0.2173920074277E+00
-0.5653484757561E+00 -0.2572673071427E+00
-0.6342831777592E+00 -0.2822898325390E+00
-0.6851955165710E+00 -0.2952180654822E+00
-0.7190544448096E+00 -0.2977708844607E+00
-0.7367811534493E+00 -0.2961324514426E+00
-0.7424512989320E+00 -0.2985305833718E+00
-0.2082334349778E+00 -0.8673858333943E-01
-0.3446276816754E+00 -0.1414452545043E+00
-0.4570350666824E+00 -0.1910303248174E+00
-0.5474406920970E+00 -0.2308419124410E+00
-0.6182992927480E+00 -0.2596084093697E+00
-0.6718540910168E+00 -0.2783197066676E+00
-0.7088814886125E+00 -0.2879415994781E+00
-0.7303564796594E+00 -0.2933981973026E+00
-0.7401514013829E+00 -0.3014398303628E+00
-0.1972875912460E+00 -0.7743391679101E-01
-0.3273295364784E+00 -0.1249198531742E+00
-0.4365798119755E+00 -0.1700667167884E+00
-0.5263671729069E+00 -0.2091784839531E+00
-0.5984463088283E+00 -0.2405720391954E+00
-0.6544737079498E+00 -0.2641720657986E+00
-0.6949380072544E+00 -0.2803957272838E+00
-0.7207195456163E+00 -0.2927001315887E+00
-0.7352549922054E+00 -0.3060942475747E+00
-0.1869207807586E+00 -0.6989599531813E-01
-0.3098776376821E+00 -0.1119254946643E+00
-0.4146802396599E+00 -0.1535787561467E+00
-0.5025689916271E+00 -0.1920027643388E+00
-0.5749239867442E+00 -0.2254447401279E+00
-0.6329296328478E+00 -0.2532145979504E+00
-0.6768102301670E+00 -0.2753242546130E+00
-0.7072519542733E+00 -0.2938448291107E+00
-0.7270503102757E+00 -0.3120531599874E+00
-0.1769009871570E+00 -0.6363978117276E-01
-0.2922572379258E+00 -0.1015920777873E+00
-0.3915264756352E+00 -0.1407035030174E+00
-0.4762802830356E+00 -0.1787597226198E+00
-0.5478406639197E+00 -0.2140364315645E+00
-0.6071014433553E+00 -0.2454558017743E+00
-0.6541795149805E+00 -0.2726508207275E+00
-0.6895210815241E+00 -0.2964576286181E+00
-0.7150263151135E+00 -0.3187142656578E+00
-0.1670371592535E+00 -0.5832605919014E-01
-0.2743663789268E+00 -0.9325031248118E-01
-0.3671473608657E+00 -0.1306456256825E+00
-0.4475755788518E+00 -0.1687539297027E+00
-0.5172046305140E+00 -0.2058527043058E+00
-0.5768485973344E+00 -0.2405584583144E+00
-0.6267690551681E+00 -0.2720832583513E+00
-0.6673437738841E+00 -0.3002051919813E+00
-0.6990363962856E+00 -0.3254110648031E+00
 0.2157241123480E-01 -0.3842670709058E-01
 0.4894888444184E-01 -0.8167805871406E-01
 0.6128208643846E-01 -0.1348536091784E+00
 0.6193607241765E-01 -0.1955488877710E+00
 0.5310368481124E-01 -0.2621461746047E+00
 0.3578365249533E-01 -0.3338103543474E+00
 0.1004025159324E-01 -0.4104730186251E+00
-0.2367929971126E-01 -0.4922276578697E+00
-0.6495749324408E-01 -0.5802195841085E+00
 0.3456761815961E-01 -0.4087641489345E-01
 0.7208607955268E-01 -0.8594494376698E-01
 0.9239371455077E-01 -0.1396249678031E+00
 0.9856434037418E-01 -0.1993604312494E+00
 0.9267914921448E-01 -0.2637564449292E+00
 0.7573388841318E-01 -0.3324923232244E+00
 0.4717439532068E-01 -0.4068358569737E+00
 0.7378532055570E-02 -0.4882852962210E+00
-0.4212897481313E-01 -0.5786516563166E+00
 0.4763432413484E-01 -0.4374320689262E-01
 0.9467564135563E-01 -0.9054776171364E-01
 0.1219229622739E+00 -0.1440020521220E+00
 0.1324171915129E+00 -0.2013205372780E+00
 0.1283050811716E+00 -0.2614099731871E+00
 0.1107049300212E+00 -0.3247018818112E+00
 0.7882502563901E-01 -0.3945661210120E+00
 0.3346021168430E-01 -0.4749829014213E+00
-0.2339372140347E-01 -0.5681706535395E+00
 0.6072155945329E-01 -0.4723906384802E-01
 0.1164237235464E+00 -0.9592385134796E-01
 0.1493065753907E+00 -0.1485261406563E+00
 0.1626756433146E+00 -0.2019878925019E+00
 0.1589350251221E+00 -0.2556693722486E+00
 0.1394448605660E+00 -0.3110055098430E+00
 0.1035298685097E+00 -0.3740754597268E+00
 0.5286052820572E-01 -0.4523138724877E+00
-0.1037899355091E-01 -0.5485218975667E+00
 0.7383203038705E-01 -0.5166889627685E-01
 0.1370386215419E+00 -0.1026467977528E+00
 0.1739755722917E+00 -0.1538615441536E+00
 0.1885797479032E+00 -0.2020260289921E+00
 0.1836881946829E+00 -0.2472578221516E+00
 0.1609727402074E+00 -0.2923192952334E+00
 0.1201119551990E+00 -0.3464065028304E+00
 0.6415098217596E-01 -0.4211206580063E+00
-0.4549405446077E-02 -0.5200252676833E+00
 0.8700425659092E-01 -0.5750806975182E-01
 0.1561611958793E+00 -0.1115072942315E+00
 0.1953038456231E+00 -0.1607614081374E+00
 0.2094303174554E+00 -0.2020449147994E+00
 0.2019147305056E+00 -0.2368781496023E+00
 0.1747097367787E+00 -0.2697914660996E+00
 0.1279517989614E+00 -0.3132104689328E+00
 0.6643646744482E-01 -0.3830010132731E+00
-0.7086538587712E-02 -0.4836357679027E+00
 0.1002748693326E+00 -0.6554191197604E-01
 0.1732219345731E+00 -0.1236259355131E+00
 0.2125223934138E+00 -0.1699330146097E+00
 0.2246023496938E+00 -0.2023285226054E+00
 0.2132872348812E+00 -0.2249464323638E+00
 0.1806198189170E+00 -0.2446326019919E+00
 0.1271707071568E+00 -0.2766045171626E+00
 0.5958941412275E-01 -0.3402594338602E+00
-0.1869267211046E-01 -0.4410138671396E+00
 0.1135390530541E+00 -0.7721760066890E-01
 0.1871743484326E+00 -0.1405500635714E+00
 0.2246110203228E+00 -0.1817030147682E+00
 0.2336713196811E+00 -0.2022850411480E+00
 0.2179551161485E+00 -0.2114453496564E+00
 0.1792883536141E+00 -0.2179880663607E+00
 0.1187121971236E+00 -0.2389227684839E+00
 0.4445988231490E-01 -0.2957748439159E+00
-0.3929476834967E-01 -0.3945946053795E+00
 0.1261977092831E+00 -0.9547532933318E-01
 0.1956509958874E+00 -0.1646010561793E+00
 0.2306858442115E+00 -0.1941714334879E+00
 0.2368312932707E+00 -0.2004112220797E+00
 0.2166096527460E+00 -0.1961508350729E+00
 0.1718747894702E+00 -0.1908225011916E+00
 0.1042448503532E+00 -0.2023596540750E+00
 0.2290661164163E-01 -0.2525647417310E+00
-0.6755125563011E-01 -0.3476461662021E+00
-0.7201035055246E+00 -0.3694513239437E+00
-0.7302403059177E+00 -0.3613668734781E+00
-0.7362990823432E+00 -0.3523255130415E+00
-0.7386518848551E+00 -0.3428309993848E+00
-0.7377939021057E+00 -0.3334916854890E+00
-0.7343341322476E+00 -0.3249150162738E+00
-0.7289639609126E+00 -0.3176412101940E+00
-0.7224137739519E+00 -0.3120970570240E+00
-0.7154115855481E+00 -0.3085753998951E+00
-0.7160400554818E+00 -0.3952867995185E+00
-0.7272594044730E+00 -0.3874361930274E+00
-0.7340900414804E+00 -0.3782045207309E+00
-0.7366513689008E+00 -0.3679552012458E+00
-0.7352910950573E+00 -0.3572681569454E+00
-0.7305304077613E+00 -0.3468265689426E+00
-0.7230506262303E+00 -0.3373307911462E+00
-0.7136616614541E+00 -0.3294171375608E+00
-0.7032238428748E+00 -0.3235868493506E+00
-0.7104981711805E+00 -0.4257621915788E+00
-0.7230306931121E+00 -0.4189535468018E+00
-0.7309816394891E+00 -0.4101668492908E+00
-0.7341629437939E+00 -0.3997236929622E+00
-0.7326485266208E+00 -0.3881643734308E+00
-0.7267436286321E+00 -0.3762118166977E+00
-0.7170008549957E+00 -0.3647070965641E+00
-0.7042358840203E+00 -0.3545208375392E+00
-0.6894811789603E+00 -0.3464285249354E+00
-0.7031775195778E+00 -0.4607267054103E+00
-0.7173401553494E+00 -0.4561227519861E+00
-0.7267568847835E+00 -0.4488413388050E+00
-0.7309549596750E+00 -0.4391428300170E+00
-0.7296712779715E+00 -0.4274995727603E+00
-0.7228713673254E+00 -0.4146177124618E+00
-0.7108145906644E+00 -0.4014284467776E+00
-0.6941633550461E+00 -0.3890440375646E+00
-0.6740772676717E+00 -0.3786299792278E+00
-0.6934850074541E+00 -0.4998985175258E+00
-0.7095410547825E+00 -0.4989110694066E+00
-0.7208124188372E+00 -0.4946041864290E+00
-0.7265641338249E+00 -0.4871041286769E+00
-0.7261679908681E+00 -0.4767349695777E+00
-0.7191428304867E+00 -0.4640788443567E+00
-0.7052480926069E+00 -0.4500281276877E+00
-0.6846654280436E+00 -0.4358318073212E+00
-0.6583296904053E+00 -0.4231015678680E+00
-0.6807100112690E+00 -0.5427432867272E+00
-0.6987367885409E+00 -0.5469621565967E+00
-0.7121538516781E+00 -0.5474622866683E+00
-0.7200150189865E+00 -0.5441746386576E+00
-0.7213518957464E+00 -0.5371878866347E+00
-0.7151976148292E+00 -0.5268259825734E+00
-0.7006511640521E+00 -0.5137422797836E+00
-0.6770299544554E+00 -0.4990526344850E+00
-0.6442301567347E+00 -0.4845432539902E+00
-0.6641234616675E+00 -0.5883366237127E+00
-0.6839194232186E+00 -0.5993869469573E+00
-0.6994854023635E+00 -0.6067481397756E+00
-0.7097384734702E+00 -0.6101661752405E+00
-0.7134471463658E+00 -0.6094823523329E+00
-0.7092125130746E+00 -0.6047037227273E+00
-0.6954553850940E+00 -0.5961001262217E+00
-0.6704237569714E+00 -0.5843612284645E+00
-0.6322576033429E+00 -0.5708915293422E+00
-0.6430314619392E+00 -0.6352364592971E+00
-0.6640618944572E+00 -0.6544998826730E+00
-0.6813620501022E+00 -0.6706446484642E+00
-0.6937793079119E+00 -0.6833409410531E+00
-0.6999040703433E+00 -0.6923073597944E+00
-0.6980024413084E+00 -0.6973640920720E+00
-0.6859162416076E+00 -0.6985061676278E+00
-0.6608995143671E+00 -0.6960174446047E+00
-0.6193010298618E+00 -0.6906706406111E+00
-0.6169339599393E+00 -0.6813977669487E+00
-0.6383965220800E+00 -0.7095373520731E+00
-0.6566755543727E+00 -0.7355172446625E+00
-0.6706135340438E+00 -0.7590219130705E+00
-0.6787217295460E+00 -0.7797501138480E+00
-0.6790786844044E+00 -0.7974454436917E+00
-0.6691790567128E+00 -0.8119307434580E+00
-0.6456896437533E+00 -0.8231405027628E+00
-0.6040022648927E+00 -0.8311268834317E+00
-0.5856348282299E+00 -0.7244323551830E+00
-0.6065931133552E+00 -0.7610890870819E+00
-0.6249462262936E+00 -0.7966086778407E+00
-0.6396201996576E+00 -0.8306785347140E+00
-0.6491902132174E+00 -0.8629448312182E+00
-0.6517735510170E+00 -0.8930115329431E+00
-0.6448845499976E+00 -0.9204265305061E+00
-0.6252388672145E+00 -0.9446334748279E+00
-0.5884918666716E+00 -0.9648278117962E+00
-0.5492542245375E+00 -0.7620185578213E+00
-0.5687548647699E+00 -0.8058695221889E+00
-0.5862732243829E+00 -0.8494207473559E+00
-0.6009315963576E+00 -0.8923140326090E+00
-0.6115466133106E+00 -0.9340778389963E+00
-0.6165441061012E+00 -0.9740970544390E+00
-0.6138625010280E+00 -0.1011563541774E+01
-0.6008625942391E+00 -0.1045390445558E+01
-0.5743263948539E+00 -0.1074061365172E+01
-0.5082081303057E+00 -0.7921371622915E+00
-0.5253746207985E+00 -0.8411121543322E+00
-0.5412238234286E+00 -0.8902860107096E+00
-0.5551838144610E+00 -0.9392123394760E+00
-0.5664770703503E+00 -0.9872618091445E+00
-0.5740720975463E+00 -0.1033573396826E+01
-0.5766415343712E+00 -0.1076990236591E+01
-0.5725537939949E+00 -0.1115979276117E+01
-0.5599428927311E+00 -0.1148551667913E+01
-0.4631292726278E+00 -0.8131573780041E+00
-0.4772012186834E+00 -0.8646655402196E+00
-0.4906405881803E+00 -0.9164624677859E+00
-0.5032610355663E+00 -0.9679926896289E+00
-0.5148027169039E+00 -0.1018467430366E+01
-0.5249231117397E+00 -0.1066809597149E+01
-0.5331975651754E+00 -0.1111588279390E+01
-0.5391334204091E+00 -0.1150955401781E+01
-0.5422020171622E+00 -0.1182611624380E+01
-0.4148140865166E+00 -0.8238908077423E+00
-0.4251656213306E+00 -0.8750400753111E+00
-0.4355486794441E+00 -0.9261530548930E+00
-0.4461933051446E+00 -0.9765653542571E+00
-0.4573915372381E+00 -0.1025358121197E+01
-0.4695254969625E+00 -0.1071307040248E+01
-0.4831017173843E+00 -0.1112819170431E+01
-0.4987710780499E+00 -0.1147868532029E+01
-0.5173008751866E+00 -0.1173958143260E+01
-0.3641896038346E+00 -0.8236505043511E+00
-0.3703524260546E+00 -0.8714783051638E+00
-0.3771434529262E+00 -0.9185705397761E+00
-0.3851820557710E+00 -0.9641652051201E+00
-0.3952574075281E+00 -0.1007256721004E+01
-0.4083926249562E+00 -0.1046560739792E+01
-0.4259202531384E+00 -0.1080454035841E+01
-0.4495381121234E+00 -0.1106892614356E+01
-0.4812879362537E+00 -0.1123316367057E+01
-0.3122939781364E+00 -0.8123270944247E+00
-0.3140008764277E+00 -0.8540734743883E+00
-0.3168371654967E+00 -0.8940881142746E+00
-0.3217308566235E+00 -0.9315158140079E+00
-0.3298304980057E+00 -0.9653048988345E+00
-0.3426051246091E+00 -0.9941953067641E+00
-0.3619692393067E+00 -0.1016673628351E+01
-0.3904187718965E+00 -0.1030880488583E+01
-0.4311435995565E+00 -0.1034447645778E+01
-0.2602515163818E+00 -0.7904937299872E+00
-0.2575106490543E+00 -0.8239784671698E+00
-0.2563420849135E+00 -0.8545234100512E+00
-0.2578746918801E+00 -0.8811718388107E+00
-0.2634351242162E+00 -0.9028503530171E+00
-0.2746893781015E+00 -0.9183971905339E+00
-0.2938015147607E+00 -0.9265354526437E+00
-0.3236416547137E+00 -0.9258262817189E+00
-0.3681109556380E+00 -0.9145313225939E+00
-0.2091836843239E+00 -0.7592757194761E+00
-0.2023275215308E+00 -0.7831158171890E+00
-0.1975757388564E+00 -0.8027046996899E+00
-0.1961161454057E+00 -0.8169526991754E+00
-0.1992770646938E+00 -0.8248424318242E+00
-0.2087143721666E+00 -0.8253898666017E+00
-0.2265232055227E+00 -0.8176606422774E+00
-0.2554062701559E+00 -0.8008214908705E+00
-0.2990819786844E+00 -0.7742155498305E+00
-0.1600734923273E+00 -0.7201774882208E+00
-0.1498724426705E+00 -0.7338380915687E+00
-0.1424860497276E+00 -0.7418392150060E+00
-0.1389344881245E+00 -0.7432245599820E+00
-0.1404794041285E+00 -0.7371979956981E+00
-0.1486230860444E+00 -0.7231108594453E+00
-0.1651388453192E+00 -0.7005300907173E+00
-0.1920943210295E+00 -0.6693870678024E+00
-0.2318325820330E+00 -0.6302937648856E+00
</DataArray>
</PointData>
   <DataArray type="Float64" Name="Load" NumberOfComponents="1"    ComponentName0="Load" format="ascii">
 0.8294836507194E+01
 0.7465316815601E+01
 0.6774416199800E+01
 0.6495217831312E+01
 0.6279705837302E+01
 0.6124669502454E+01
 0.6008258617135E+01
 0.5933391105358E+01
 0.5913680755172E+01
 0.5984158706673E+01
 0.6158840099759E+01
 0.6335543080106E+01
 0.6410864381168E+01
 0.6407463175131E+01
 0.6375670496875E+01
 0.6330542214553E+01
 0.6307033067489E+01
 0.6306126366027E+01
 0.6562780995710E+01
 0.5652132918288E+01
 0.1053799798330E+02
 0.6981885704230E+01
 0.7236548946346E+01
 0.6724720107461E+01
 0.6392152372868E+01
 0.6178056193960E+01
 0.6015310215633E+01
 0.5896133751509E+01
 0.5818117899326E+01
 0.5788727244739E+01
 0.5810354804286E+01
 0.5863407197035E+01
 0.5906698430422E+01
 0.5902897683845E+01
 0.5838826695067E+01
 0.5718858061599E+01
 0.5548925368809E+01
 0.5307692847753E+01
 0.4974683380241E+01
 0.4221267890368E+01
 0.3026488722816E+01
 0.8794963626526E+01
 0.6223643706324E+01
 0.6715486235911E+01
 0.6549351152196E+01
 0.6256565523378E+01
 0.6048370739069E+01
 0.5887700737334E+01
 0.5765198100153E+01
 0.5678841897673E+01
 0.5626217096946E+01
 0.5593899175701E+01
 0.5560425969544E+01
 0.5511452260502E+01
 0.5433174351112E+01
 0.5304498535804E+01
 0.5110217839277E+01
 0.4837138492335E+01
 0.4455790304289E+01
 0.3885481721579E+01
 0.2981211318156E+01
 0.2863975465638E+01
 0.8165575985759E+01
 0.5705713825387E+01
 0.6222039094311E+01
 0.6270054930426E+01
 0.6080825780189E+01
 0.5894207321297E+01
 0.5740772366443E+01
 0.5615907583036E+01
 0.5517244861480E+01
 0.5436406335996E+01
 0.5355392696907E+01
 0.5257521728800E+01
 0.5140202456217E+01
 0.4998889586947E+01
 0.4813117196967E+01
 0.4560417149715E+01
 0.4221415400355E+01
 0.3767706961812E+01
 0.3155693291498E+01
 0.2560358155500E+01
 0.3434392290981E+01
 0.7634592481000E+01
 0.5313360381701E+01
 0.5794597464942E+01
 0.5955725206628E+01
 0.5866996456427E+01
 0.5718042441330E+01
 0.5575909567503E+01
 0.5449628258099E+01
 0.5337215023517E+01
 0.5228449510328E+01
 0.5106310431724E+01
 0.4959363140198E+01
 0.4790350065172E+01
 0.4599124002118E+01
 0.4368731469588E+01
 0.4077665581616E+01
 0.3709802802165E+01
 0.3254268665548E+01
 0.2754865267801E+01
 0.2591035097210E+01
 0.3962769276788E+01
 0.7213600312306E+01
 0.4994633930584E+01
 0.5426522152489E+01
 0.5640768308383E+01
 0.5629524503851E+01
 0.5522743570149E+01
 0.5395547855203E+01
 0.5268811458091E+01
 0.5143199243692E+01
 0.5009418722371E+01
 0.4853764242145E+01
 0.4669348752884E+01
 0.4461711790114E+01
 0.4233601617256E+01
 0.3973055769958E+01
 0.3664439683556E+01
 0.3301537052815E+01
 0.2903235176645E+01
 0.2590992093027E+01
 0.2811319346503E+01
 0.4331513047883E+01
 0.6886317596725E+01
 0.4722713096309E+01
 0.5105442066205E+01
 0.5339146804356E+01
 0.5381446432766E+01
 0.5313265108448E+01
 0.5202557200252E+01
 0.5076525453303E+01
 0.4939443259419E+01
 0.4784661699056E+01
 0.4602538085911E+01
 0.4390067617439E+01
 0.4154747891751E+01
 0.3901989167071E+01
 0.3625700624265E+01
 0.3318713351066E+01
 0.2988756676301E+01
 0.2685147614049E+01
 0.2577458739890E+01
 0.3072753498016E+01
 0.4570577858532E+01
 0.6630687932437E+01
 0.4482433669063E+01
 0.4820577007075E+01
 0.5055327246762E+01
 0.5131677146968E+01
 0.5094996142456E+01
 0.5000236224507E+01
 0.4875976207766E+01
 0.4729733459995E+01
 0.4558253535385E+01
 0.4356019727030E+01
 0.4123444936264E+01
 0.3869845598149E+01
 0.3603468589424E+01
 0.3324493811488E+01
 0.3035284991132E+01
 0.2758312470654E+01
 0.2566945450706E+01
 0.2647352986884E+01
 0.3314272436036E+01
 0.4722221909156E+01
 0.6427444749293E+01
 0.4264614839744E+01
 0.4563665235397E+01
 0.4789695442752E+01
 0.4885650762421E+01
 0.4872686179585E+01
 0.4791983265066E+01
 0.4670267478740E+01
 0.4517328245880E+01
 0.4333335614359E+01
 0.4116659785092E+01
 0.3870815336285E+01
 0.3607029387533E+01
 0.3336582784712E+01
 0.3065920923241E+01
 0.2806839392977E+01
 0.2594939808511E+01
 0.2518765312978E+01
 0.2755254752666E+01
 0.3518395981961E+01
 0.4818676886342E+01
 0.6262335625244E+01
 0.4063387753592E+01
 0.4328588564707E+01
 0.4541039464844E+01
 0.4646426403402E+01
 0.4650098781236E+01
 0.4580968339320E+01
 0.4462252999620E+01
 0.4304975419663E+01
 0.4112340674268E+01
 0.3886221636524E+01
 0.3632986185252E+01
 0.3365875801784E+01
 0.3099276907745E+01
 0.2845557498308E+01
 0.2625042943665E+01
 0.2483660423754E+01
 0.2516161575665E+01
 0.2873879143598E+01
 0.3684301135026E+01
 0.4882307746457E+01
 0.6125617223133E+01
 0.3874843843463E+01
 0.4110970956115E+01
 0.4307892096931E+01
 0.4415923358911E+01
 0.4430486542781E+01
 0.4370485810507E+01
 0.4255087221566E+01
 0.4095701823677E+01
 0.3898000751309E+01
 0.3666896733997E+01
 0.3411355436351E+01
 0.3146639267868E+01
 0.2890122726562E+01
 0.2659464598972E+01
 0.2482146607096E+01
 0.2411222005919E+01
 0.2539953474544E+01
 0.2987403978704E+01
 0.3815428775328E+01
 0.4924881312886E+01
 0.6022805084828E+01
 0.3696263795339E+01
 0.3907478992046E+01
 0.4088509784905E+01
 0.4194792047289E+01
 0.4215818044658E+01
 0.4162769819374E+01
 0.4050866991684E+01
 0.3891316468238E+01
 0.3691662914817E+01
 0.3459375504343E+01
 0.3205740041008E+01
 0.2947944909718E+01
 0.2706097573703E+01
 0.2502396678569E+01
 0.2370027184216E+01
 0.2366131767897E+01
 0.2576944527849E+01
 0.3089064543527E+01
 0.3918938432130E+01
 0.4951283350145E+01
 0.5956198039756E+01
 0.3525642990142E+01
 0.3715447072839E+01
 0.3881012774461E+01
 0.3982765129694E+01
 0.4006937399788E+01
 0.3958994624191E+01
 0.3850635189517E+01
 0.3692491749408E+01
 0.3493444717382E+01
 0.3263050687374E+01
 0.3014616604664E+01
 0.2767082348282E+01
 0.2542961045099E+01
 0.2368257145819E+01
 0.2280545842206E+01
 0.2338510140174E+01
 0.2617982715424E+01
 0.3176637695177E+01
 0.3999738120480E+01
 0.4970313524754E+01
 0.5895450843805E+01
 0.3361509643697E+01
 0.3532959711982E+01
 0.3684000444899E+01
 0.3779663123614E+01
 0.3804682406900E+01
 0.3760456208775E+01
 0.3655720625146E+01
 0.3500338993601E+01
 0.3304070152822E+01
 0.3078110008582E+01
 0.2837457794067E+01
 0.2602557537029E+01
 0.2397948870557E+01
 0.2252746274398E+01
 0.2207760274906E+01
 0.2321192614343E+01
 0.2657076046441E+01
 0.3248981330756E+01
 0.4062058705134E+01
 0.4982457338475E+01
 0.5844757867902E+01
 0.3202727940444E+01
 0.3358513295583E+01
 0.3496249458295E+01
 0.3585122283361E+01
 0.3609518102369E+01
 0.3568067238948E+01
 0.3467115547225E+01
 0.3315678365726E+01
 0.3124015871202E+01
 0.2904543650704E+01
 0.2673604735619E+01
 0.2452852863846E+01
 0.2268460154217E+01
 0.2152030777315E+01
 0.2146648253224E+01
 0.2308630907252E+01
 0.2690266106975E+01
 0.3306088781089E+01
 0.4108600044963E+01
 0.4988999200835E+01
 0.5803547538281E+01
 0.3048388302273E+01
 0.3190894423023E+01
 0.3316683825995E+01
 0.3398666265146E+01
 0.3421624478504E+01
 0.3382414833650E+01
 0.3285513833035E+01
 0.3139077081437E+01
 0.2953556665004E+01
 0.2742198979912E+01
 0.2522334548168E+01
 0.2316508744310E+01
 0.2152142619288E+01
 0.2062795920096E+01
 0.2093071867479E+01
 0.2296615513743E+01
 0.2715012519701E+01
 0.3348329084210E+01
 0.4141336868511E+01
 0.4990830726834E+01
 0.5770237399470E+01
 0.2897733414546E+01
 0.3029090946570E+01
 0.3144340364560E+01
 0.3219744557973E+01
 0.3240960714573E+01
 0.3203813362119E+01
 0.3111350350744E+01
 0.2970885856954E+01
 0.2792805887095E+01
 0.2590828667376E+01
 0.2382918556981E+01
 0.2192189106340E+01
 0.2046949927174E+01
 0.1982263975642E+01
 0.2043709125693E+01
 0.2282022080401E+01
 0.2729702443082E+01
 0.3376185008383E+01
 0.4161706879617E+01
 0.4988388828709E+01
 0.5743080065417E+01
 0.2750106695103E+01
 0.2872226621093E+01
 0.2978335389837E+01
 0.3047751447687E+01
 0.3067311144541E+01
 0.3032349603163E+01
 0.2944838011765E+01
 0.2811272363942E+01
 0.2641750710621E+01
 0.2450131519502E+01
 0.2254669821378E+01
 0.2078730557358E+01
 0.1951177482799E+01
 0.1908192294216E+01
 0.1995976972541E+01
 0.2262585698751E+01
 0.2733324011755E+01
 0.3390124242092E+01
 0.4170712239593E+01
 0.4981786433138E+01
 0.5720380652555E+01
 0.2604915384590E+01
 0.2719512528293E+01
 0.2817835068695E+01
 0.2882033725753E+01
 0.2900317684686E+01
 0.2867919887076E+01
 0.2786000785038E+01
 0.2660250904040E+01
 0.2500282118479E+01
 0.2319785800998E+01
 0.2136979879147E+01
 0.1975177092174E+01
 0.1863482964649E+01
 0.1838862242680E+01
 0.1947957079148E+01
 0.2236719450211E+01
 0.2725254168670E+01
 0.3390531989021E+01
 0.4169010121802E+01
 0.4970925459560E+01
 0.5700592579970E+01
 0.2461603407396E+01
 0.2570210369529E+01
 0.2662029887413E+01
 0.2721891905253E+01
 0.2739502248678E+01
 0.2710259604301E+01
 0.2634701652727E+01
 0.2517707453210E+01
 0.2368219109528E+01
 0.2199474668354E+01
 0.2029344881232E+01
 0.1880802270720E+01
 0.1782896489128E+01
 0.1773065965773E+01
 0.1898333373122E+01
 0.2203380674216E+01
 0.2705123378591E+01
 0.3377681145562E+01
 0.4156985570095E+01
 0.4955588943062E+01
 0.5682379713957E+01
 0.2319630874345E+01
 0.2423604155426E+01
 0.2510112909874E+01
 0.2566577782022E+01
 0.2584281866510E+01
 0.2558965952742E+01
 0.2490665190254E+01
 0.2383419578100E+01
 0.2245326789114E+01
 0.2088903658535E+01
 0.1931381738553E+01
 0.1795120789983E+01
 0.1708823830212E+01
 0.1710095436854E+01
 0.1846347747888E+01
 0.2161982592134E+01
 0.2672735117472E+01
 0.3351722148755E+01
 0.4134807087802E+01
 0.4935512305307E+01
 0.5664667923441E+01
 0.2178458126299E+01
 0.2278977788278E+01
 0.2361261205642E+01
 0.2415290033741E+01
 0.2433978569662E+01
 0.2413514938922E+01
 0.2353494837792E+01
 0.2257070958239E+01
 0.2131328138132E+01
 0.1987810350354E+01
 0.1842835028947E+01
 0.1717890943680E+01
 0.1641044527345E+01
 0.1649736287241E+01
 0.1791777938022E+01
 0.2112348852146E+01
 0.2628026506051E+01
 0.3312682366513E+01
 0.4102464504831E+01
 0.4910435888191E+01
 0.5646692720776E+01
 0.2037532826107E+01
 0.2135596653326E+01
 0.2214619737490E+01
 0.2267168862498E+01
 0.2287825594475E+01
 0.2273273599016E+01
 0.2222685073827E+01
 0.2138260327691E+01
 0.2025909255524E+01
 0.1895966295355E+01
 0.1763575277365E+01
 0.1649108834054E+01
 0.1579705191989E+01
 0.1592266760251E+01
 0.1734939637269E+01
 0.2054710027362E+01
 0.2571063577651E+01
 0.3260469467081E+01
 0.4059787706429E+01
 0.4880140031683E+01
 0.5628042811304E+01
 0.1896278966079E+01
 0.1992691756089E+01
 0.2069287073669E+01
 0.2121290411510E+01
 0.2144971243453E+01
 0.2137508465202E+01
 0.2097628910287E+01
 0.2026504842255E+01
 0.1928717997028E+01
 0.1813171386885E+01
 0.1693589193011E+01
 0.1588994876009E+01
 0.1525307268991E+01
 0.1538460011988E+01
 0.1676713071517E+01
 0.1989743581602E+01
 0.2502071504436E+01
 0.3194876810147E+01
 0.4006442734260E+01
 0.4844462493793E+01
 0.5608697284323E+01
 0.1754086834819E+01
 0.1849445155721E+01
 0.1924302360138E+01
 0.1976661562516E+01
 0.2004481602705E+01
 0.2005391274598E+01
 0.1977621172975E+01
 0.1921237893456E+01
 0.1839355859870E+01
 0.1739240663543E+01
 0.1632962216479E+01
 0.1537972891396E+01
 0.1478687829216E+01
 0.1489585618672E+01
 0.1618591426801E+01
 0.1918661126256E+01
 0.2421507769750E+01
 0.3115593377084E+01
 0.3941897615968E+01
 0.4803294888978E+01
 0.5589053490183E+01
 0.1610303018316E+01
 0.1704975535405E+01
 0.1778633132496E+01
 0.1832215841859E+01
 0.1865343408139E+01
 0.1876003041726E+01
 0.1861858182703E+01
 0.1821801500631E+01
 0.1757362949908E+01
 0.1673983366499E+01
 0.1581853489812E+01
 0.1496642135239E+01
 0.1440992131984E+01
 0.1447404170723E+01
 0.1562744244855E+01
 0.1843347455564E+01
 0.2330195795813E+01
 0.3022230101332E+01
 0.3865343281010E+01
 0.4756545929237E+01
 0.5569941786754E+01
 0.1464219398660E+01
 0.1558322682442E+01
 0.1631163698247E+01
 0.1686811406056E+01
 0.1726468522254E+01
 0.1748337721116E+01
 0.1749434540939E+01
 0.1727433441593E+01
 0.1682195733489E+01
 0.1617173688396E+01
 0.1540462837179E+01
 0.1465742526275E+01
 0.1413637771547E+01
 0.1414147984777E+01
 0.1512082954921E+01
 0.1766552430830E+01
 0.2229545610517E+01
 0.2914397280205E+01
 0.3775547811683E+01
 0.4704030635788E+01
 0.5552618995220E+01
 0.1315059797491E+01
 0.1408429411790E+01
 0.1480684017319E+01
 0.1539232470345E+01
 0.1586701724452E+01
 0.1621306777158E+01
 0.1639337784974E+01
 0.1637249287679E+01
 0.1613197084366E+01
 0.1568512106881E+01
 0.1508988442850E+01
 0.1446112758390E+01
 0.1398271759093E+01
 0.1392483214266E+01
 0.1470307450557E+01
 0.1692130981041E+01
 0.2121882997338E+01
 0.2791915709317E+01
 0.3670646192393E+01
 0.4645150278938E+01
 0.5538685019092E+01
 0.1161962303310E+01
 0.1254119155682E+01
 0.1325879472926E+01
 0.1388196340224E+01
 0.1444834042554E+01
 0.1493746272937E+01
 0.1530441996848E+01
 0.1550219801188E+01
 0.1549558185682E+01
 0.1527575784689E+01
 0.1487572791268E+01
 0.1438639548004E+01
 0.1396722694128E+01
 0.1385455421305E+01
 0.1441907190571E+01
 0.1625309568952E+01
 0.2010916439752E+01
 0.2655198012132E+01
 0.3548201440527E+01
 0.4577818450404E+01
 0.5529777905959E+01
 0.1003954108794E+01
 0.1094067149137E+01
 0.1165322363487E+01
 0.1232369243510E+01
 0.1299624094899E+01
 0.1364427989139E+01
 0.1421501496484E+01
 0.1465144254174E+01
 0.1490271733274E+01
 0.1493755935924E+01
 0.1476233054918E+01
 0.1444193320857E+01
 0.1410948633240E+01
 0.1396427232823E+01
 0.1432104934464E+01
 0.1572898453261E+01
 0.1902449204976E+01
 0.2505661188273E+01
 0.3405938497638E+01
 0.4498236744853E+01
 0.5519225434229E+01
 0.8399073903756E+00
 0.9266357097334E+00
 0.9972575589393E+00
 0.1070108691281E+01
 0.1149487538044E+01
 0.1231704998591E+01
 0.1310779378051E+01
 0.1380296479594E+01
 0.1433834723086E+01
 0.1466057295285E+01
 0.1474790494788E+01
 0.1463708896735E+01
 0.1443266689109E+01
 0.1429387008124E+01
 0.1447054994001E+01
 0.1543453842822E+01
 0.1804618398574E+01
 0.2345946457747E+01
 0.3239366725111E+01
 0.4404617923412E+01
 0.5513383800313E+01
 0.6684653393497E+00
 0.7500440156583E+00
 0.8199991257625E+00
 0.9000580793364E+00
 0.9931991192400E+00
 0.1094251140104E+01
 0.1196758337769E+01
 0.1294030589252E+01
 0.1378674670221E+01
 0.1443291590597E+01
 0.1482813943802E+01
 0.1497908097293E+01
 0.1495939548722E+01
 0.1488534010821E+01
 0.1493581957622E+01
 0.1547579641611E+01
 0.1730352664568E+01
 0.2183014987281E+01
 0.3046761268849E+01
 0.4288959950089E+01
 0.5578928362831E+01
 0.4880552238288E+00
 0.5623207231039E+00
 0.6319967501611E+00
 0.7212517293777E+00
 0.8299629439403E+00
 0.9510857666702E+00
 0.1078122238554E+01
 0.1204702172199E+01
 0.1322990884542E+01
 0.1423833390622E+01
 0.1499297114797E+01
 0.1546916791730E+01
 0.1570777136139E+01
 0.1577939254482E+01
 0.1578877977691E+01
 0.1597583154901E+01
 0.1698269793560E+01
 0.2032923980855E+01
 0.2827440458943E+01
 0.4157771395559E+01
 0.5670697589748E+01
 0.2966385867111E+00
 0.3609478093451E+00
 0.4315073382451E+00
 0.5327070834821E+00
 0.6588487702181E+00
 0.8009328990982E+00
 0.9531200175088E+00
 0.1110085474522E+01
 0.1264269336056E+01
 0.1405282518179E+01
 0.1522504511136E+01
 0.1610289704317E+01
 0.1669280371264E+01
 0.1701694318506E+01
 0.1710424472085E+01
 0.1706306531541E+01
 0.1730531894354E+01
 0.1920789938576E+01
 0.2586302869058E+01
 0.3994606006874E+01
 0.5793707055096E+01
 0.9171501425263E-01
 0.1429103186143E+00
 0.2170001841601E+00
 0.3338867294279E+00
 0.4791687356839E+00
 0.6425946128529E+00
 0.8199382447273E+00
 0.1007670743743E+01
 0.1199431753008E+01
 0.1384439022451E+01
 0.1549795291430E+01
 0.1686720088006E+01
 0.1792271094195E+01
 0.1863555583475E+01
 0.1895867461317E+01
 0.1887413426467E+01
 0.1852682679434E+01
 0.1886891213443E+01
 0.2340267743356E+01
 0.3772356781899E+01
 0.5958380780108E+01
 0.1324585251011E+00
 0.9631570519551E-01
 0.1398015606351E-01
 0.1250701990013E+00
 0.2905042393792E+00
 0.4749880895728E+00
 0.6767736466382E+00
 0.8947034583713E+00
 0.1124765304080E+01
 0.1357104747685E+01
 0.1577356848855E+01
 0.1773760265823E+01
 0.1939564215497E+01
 0.2066495836799E+01
 0.2142468458588E+01
 0.2154768443481E+01
 0.2092599274151E+01
 0.1987474259349E+01
 0.2138911736571E+01
 0.3458007458485E+01
 0.6176659811484E+01
 0.3795720223711E+00
 0.3597903351000E+00
 0.2565141378430E+00
 0.9419246052439E-01
 0.9275061051246E-01
 0.2971997328051E+00
 0.5219448392466E+00
 0.7682918360371E+00
 0.1035886058644E+01
 0.1317833659498E+01
 0.1599870537645E+01
 0.1867527754427E+01
 0.2109668228133E+01
 0.2312166911211E+01
 0.2456290909565E+01
 0.2520883360688E+01
 0.2478080434711E+01
 0.2291618476579E+01
 0.2099102025120E+01
 0.3029185887090E+01
 0.6457891563378E+01
 0.6620627555879E+00
 0.6524556921053E+00
 0.5105448863984E+00
 0.3198584642878E+00
 0.1153711611697E+00
 0.1086105954471E+00
 0.3540196333679E+00
 0.6256391950237E+00
 0.9277962659301E+00
 0.1259591840553E+01
 0.1610042709192E+01
 0.1962424456428E+01
 0.2299563988098E+01
 0.2600475029404E+01
 0.2841070241365E+01
 0.2995465829857E+01
 0.3029071280195E+01
 0.2874514174115E+01
 0.2425553743568E+01
 0.2571642965423E+01
 0.6797352129718E+01
 0.1001864458870E+01
 0.9715368511621E+00
 0.7648343227464E+00
 0.5536817469594E+00
 0.3321329817088E+00
 0.9143404366370E-01
 0.1719519975673E+00
 0.4644543811816E+00
 0.7952056650788E+00
 0.1173264412733E+01
 0.1597796250407E+01
 0.2050975918208E+01
 0.2504589620152E+01
 0.2929394409837E+01
 0.3297251751140E+01
 0.3583686660930E+01
 0.3752598251445E+01
 0.3774840202464E+01
 0.3405541907325E+01
 0.2645871951410E+01
 0.7149554200475E+01
 0.1454908725799E+01
 0.1269499307642E+01
 0.1016679723838E+01
 0.7962187261641E+00
 0.5576785292020E+00
 0.3028505161134E+00
 0.2479560726143E-01
 0.2834356981319E+00
 0.6336263088322E+00
 0.1046971863582E+01
 0.1548515343866E+01
 0.2123999919058E+01
 0.2718976702977E+01
 0.3293714103398E+01
 0.3824241823547E+01
 0.4279599648096E+01
 0.4653471709326E+01
 0.4928921564981E+01
 0.5267796086763E+01
 0.4619245553628E+01
 0.8165776014416E+01
 0.9964959795891E+00
 0.1209989277363E+01
 0.1391231276763E+01
 0.1510305718747E+01
 0.1559380022942E+01
 0.1536984860598E+01
 0.1450961775748E+01
 0.1316168852126E+01
 0.1137562171760E+01
 0.9003052508428E+00
 0.9530282584211E+00
 0.1217116166460E+01
 0.1439222518895E+01
 0.1592969119531E+01
 0.1670263436845E+01
 0.1669870818802E+01
 0.1598770357962E+01
 0.1469138463845E+01
 0.1274344151320E+01
 0.1010320978766E+01
 0.9130105140577E+00
 0.1234049040162E+01
 0.1497424544360E+01
 0.1684314980479E+01
 0.1788848356695E+01
 0.1810941799049E+01
 0.1756576987983E+01
 0.1632405760919E+01
 0.1433311998643E+01
 0.1169123104724E+01
 0.8773153215166E+00
 0.1258072222699E+01
 0.1563352056713E+01
 0.1782575016392E+01
 0.1914074542247E+01
 0.1959624576109E+01
 0.1924206053305E+01
 0.1812185461740E+01
 0.1621446055419E+01
 0.1360626860220E+01
 0.8459578268319E+00
 0.1287716715132E+01
 0.1634657133063E+01
 0.1885670328527E+01
 0.2044240454734E+01
 0.2114640274239E+01
 0.2101952086080E+01
 0.2009671981128E+01
 0.1835743131362E+01
 0.1584456519575E+01
 0.8189382046330E+00
 0.1321425108408E+01
 0.1709128307759E+01
 0.1991247742694E+01
 0.2177119193495E+01
 0.2274120524596E+01
 0.2288272331832E+01
 0.2222538387593E+01
 0.2073874481394E+01
 0.1841331426591E+01
 0.7962669063560E+00
 0.1357636926574E+01
 0.1784487753082E+01
 0.2096743858088E+01
 0.2310029027440E+01
 0.2435261340234E+01
 0.2479921589818E+01
 0.2446910129544E+01
 0.2332144750844E+01
 0.2129964447873E+01
 0.7779685243323E+00
 0.1394792754606E+01
 0.1858408139388E+01
 0.2199410586239E+01
 0.2439851654075E+01
 0.2594417037881E+01
 0.2672455394161E+01
 0.2677356087041E+01
 0.2604548322021E+01
 0.2444886911314E+01
 0.7640699706578E+00
 0.1431369207599E+01
 0.1928558607912E+01
 0.2296378421673E+01
 0.2563137690415E+01
 0.2747338098520E+01
 0.2860496318759E+01
 0.2906992999646E+01
 0.2882346358557E+01
 0.2775062535654E+01
 0.7545909118147E+00
 0.1465922134335E+01
 0.1992675198163E+01
 0.2384757330529E+01
 0.2676269701828E+01
 0.2889406040536E+01
 0.3038026783956E+01
 0.3127831503283E+01
 0.3154619748905E+01
 0.3105039175506E+01
 0.7495387492108E+00
 0.1497137647804E+01
 0.2048646812249E+01
 0.2461763162144E+01
 0.2775644198438E+01
 0.3015885254398E+01
 0.3198736149089E+01
 0.3331355448343E+01
 0.3409688612475E+01
 0.3418509347492E+01
 0.7489084335174E+00
 0.1523887104233E+01
 0.2094608625611E+01
 0.2524853706267E+01
 0.2857864134085E+01
 0.3122190878271E+01
 0.3336409721270E+01
 0.3509174538160E+01
 0.3636358163871E+01
 0.3700665189159E+01
 0.7526863590270E+00
 0.1545281166718E+01
 0.2129033798599E+01
 0.2571864305354E+01
 0.2919933193430E+01
 0.3204162690007E+01
 0.3445320185042E+01
 0.3653587598581E+01
 0.3824601117926E+01
 0.3938787213898E+01
 0.7608572492955E+00
 0.1560717427715E+01
 0.2150814921646E+01
 0.2601133290489E+01
 0.2959441591416E+01
 0.3258327176332E+01
 0.3520579966877E+01
 0.3758006901085E+01
 0.3965952474143E+01
 0.4122465958834E+01
 0.7734133666874E+00
 0.1569916429383E+01
 0.2159326537961E+01
 0.2611606572661E+01
 0.2974731857735E+01
 0.3282132027690E+01
 0.3558432693166E+01
 0.3817271383772E+01
 0.4053761913562E+01
 0.4243589196644E+01
 0.7903666049279E+00
 0.1572942684440E+01
 0.2154458864965E+01
 0.2602909134443E+01
 0.2965032319443E+01
 0.3274146273785E+01
 0.3556489837098E+01
 0.3827872222056E+01
 0.4083381337530E+01
 0.4296364495342E+01
 0.8117661278184E+00
 0.1570209657161E+01
 0.2136615182104E+01
 0.2575361670867E+01
 0.2930549483509E+01
 0.3234224782696E+01
 0.3513934204191E+01
 0.3788120418494E+01
 0.4052212315134E+01
 0.4277154363758E+01
 0.8377212883863E+00
 0.1562485587430E+01
 0.2106667185613E+01
 0.2529916637852E+01
 0.2872471096441E+01
 0.3163689496208E+01
 0.3431691561078E+01
 0.3698302965511E+01
 0.3959749600806E+01
 0.4184335577305E+01
 0.8684404796731E+00
 0.1550861683517E+01
 0.2065967755985E+01
 0.2467945868369E+01
 0.2792765407114E+01
 0.3065480170547E+01
 0.3312965962125E+01
 0.3560496112241E+01
 0.3807874361165E+01
 0.4019960469073E+01
 0.9041084306023E+00
 0.1537214219849E+01
 0.2016203768519E+01
 0.2391144217501E+01
 0.2693479795027E+01
 0.2943790962028E+01
 0.3164520252424E+01
 0.3380061116698E+01
 0.3597800534054E+01
 0.3797940743308E+01
 0.1761709557940E+01
 0.5316341928630E+00
 0.2669994565063E-01
 0.1734488912575E+00
 0.2500087146564E+00
 0.2631591709211E+00
 0.2120774035379E+00
 0.1020311281996E+00
 0.3028402149935E-01
 0.1668369011674E+00
 0.1862542256217E+01
 0.1213328549229E+01
 0.4402923114037E+00
 0.1094408239308E+00
 0.5326115230902E-01
 0.1293216147227E+00
 0.1310453638715E+00
 0.6869640468918E-01
 0.1959323280490E-01
 0.1057354149587E+00
 0.1724810657156E+01
 0.1399579136480E+01
 0.8298601767287E+00
 0.4215755353340E+00
 0.1786505176697E+00
 0.4038750362337E-01
 0.1814146088776E-01
 0.9878601560047E-02
 0.2631054949604E-01
 0.6262679946642E-01
 0.1581488320940E+01
 0.1423638032863E+01
 0.1037859861335E+01
 0.6815926539046E+00
 0.4128867183036E+00
 0.2301774786818E+00
 0.1211662390975E+00
 0.7475401465500E-01
 0.5946601320987E-01
 0.4722520106017E-01
 0.1453622259129E+01
 0.1390991027083E+01
 0.1146263962054E+01
 0.8691461266739E+00
 0.6216492115263E+00
 0.4235267535492E+00
 0.2791783629291E+00
 0.1861303987831E+00
 0.1246384241033E+00
 0.6765540235425E-01
 0.1344709690162E+01
 0.1342519943640E+01
 0.1203863552036E+01
 0.1007128906653E+01
 0.8012769616885E+00
 0.6114839924633E+00
 0.4505461902082E+00
 0.3245588845323E+00
 0.2268240666515E+00
 0.1299039739531E+00
 0.1252607495262E+01
 0.1295801685228E+01
 0.1239746026743E+01
 0.1117153251124E+01
 0.9611054537958E+00
 0.7944460355044E+00
 0.6331156166781E+00
 0.4894922496298E+00
 0.3682778434643E+00
 0.2384387624972E+00
 0.1174216092569E+01
 0.1258299061497E+01
 0.1270497107466E+01
 0.1215579060972E+01
 0.1112011202758E+01
 0.9773350906170E+00
 0.8270133150534E+00
 0.6777900275889E+00
 0.5454223419310E+00
 0.3936722044635E+00
 0.1106365386774E+01
 0.1232408542601E+01
 0.1305099876763E+01
 0.1313479805700E+01
 0.1263411405292E+01
 0.1165976994547E+01
 0.1034314823374E+01
 0.8845045509161E+00
 0.7441065055914E+00
 0.5889041208332E+00
 0.1046295176014E+01
 0.1217048152642E+01
 0.1347600227869E+01
 0.1417721576522E+01
 0.1422644894621E+01
 0.1365880051156E+01
 0.1257517759061E+01
 0.1112920171392E+01
 0.9513010759132E+00
 0.7937758063197E+00
 0.9568618024135E+00
 0.1536420538173E+01
 0.1965077073803E+01
 0.2298022038453E+01
 0.2563875913957E+01
 0.2784179548240E+01
 0.2976431385984E+01
 0.3165271612909E+01
 0.3372037199970E+01
 0.3617558559416E+01
 0.1012493156627E+01
 0.1536592023788E+01
 0.1903816324664E+01
 0.2178234052153E+01
 0.2391978936986E+01
 0.2567762879796E+01
 0.2721918847513E+01
 0.2889358949794E+01
 0.3118383021240E+01
 0.3390836643857E+01
 0.1065540507985E+01
 0.1523570989639E+01
 0.1817716076972E+01
 0.2020677393348E+01
 0.2169570374631E+01
 0.2288210444663E+01
 0.2395460468635E+01
 0.2538924870885E+01
 0.2775155817071E+01
 0.3079908730739E+01
 0.1119684990119E+01
 0.1499702849484E+01
 0.1706576671722E+01
 0.1826205042754E+01
 0.1900526827586E+01
 0.1954048180241E+01
 0.2007996184153E+01
 0.2116849762771E+01
 0.2347478588172E+01
 0.2696767864487E+01
 0.1177206909391E+01
 0.1466208890437E+01
 0.1569363005044E+01
 0.1595366891151E+01
 0.1590320991002E+01
 0.1576950904911E+01
 0.1576682006388E+01
 0.1646129531969E+01
 0.1860670667182E+01
 0.2250791231428E+01
 0.1240112705519E+01
 0.1420802908406E+01
 0.1400809357182E+01
 0.1326703483402E+01
 0.1245713207161E+01
 0.1173228569423E+01
 0.1127721619488E+01
 0.1161095861551E+01
 0.1347602196167E+01
 0.1759094323015E+01
 0.1309572731829E+01
 0.1354198016416E+01
 0.1187368626074E+01
 0.1015868934061E+01
 0.8758218809963E+00
 0.7649178173398E+00
 0.6937809125920E+00
 0.7028030463184E+00
 0.8503212914471E+00
 0.1250351270088E+01
 0.1382608559568E+01
 0.1240898784347E+01
 0.9020020696246E+00
 0.6576564251366E+00
 0.4984809195702E+00
 0.3800639083207E+00
 0.3095441495209E+00
 0.3149072438824E+00
 0.4198139910596E+00
 0.7694905297345E+00
 0.1443610668082E+01
 0.1010508272572E+01
 0.4948340989956E+00
 0.2767317137041E+00
 0.1460761298230E+00
 0.4712436320895E-01
 0.4605899935385E-02
 0.3359876509603E-01
 0.1121166895771E+00
 0.3837663728841E+00
 0.1326467867038E+01
 0.4335743884818E+00
 0.5059479930610E-01
 0.6129835519695E-01
 0.1504406841297E+00
 0.2132014147305E+00
 0.2104953943088E+00
 0.1232381956480E+00
 0.3645078918108E-01
 0.1896171992501E+00
 0.6804202973561E+00
 0.4878497194007E+00
 0.3362054069956E+00
 0.2200098430251E+00
 0.1398709230727E+00
 0.9740151565353E-01
 0.9250411828756E-01
 0.1225851959575E+00
 0.1822226179731E+00
 0.2685372463058E+00
 0.8028290388941E+00
 0.6079144125958E+00
 0.4153104967565E+00
 0.2541648946254E+00
 0.1369554386841E+00
 0.6993831253959E-01
 0.5515498395091E-01
 0.9220902639144E-01
 0.1751130602447E+00
 0.2935405861534E+00
 0.9386872215166E+00
 0.7310176451917E+00
 0.5176037396242E+00
 0.3229892052227E+00
 0.1677063750057E+00
 0.6638286269271E-01
 0.2719107723007E-01
 0.5328196052292E-01
 0.1459188063089E+00
 0.2901187528778E+00
 0.1109576734417E+01
 0.8807811725751E+00
 0.6453442564425E+00
 0.4200016979536E+00
 0.2252914045329E+00
 0.8191685009930E-01
 0.1895068601895E-01
 0.9281622448944E-02
 0.9676128875050E-01
 0.2672131400046E+00
 0.1322576339164E+01
 0.1075127252290E+01
 0.8171130561160E+00
 0.5602930735324E+00
 0.3228458155681E+00
 0.1276854776693E+00
 0.3051037399980E-01
 0.5357469066142E-01
 0.2625627107760E-01
 0.2282367824292E+00
 0.1582126275215E+01
 0.1327232809778E+01
 0.1054915680301E+01
 0.7728342347457E+00
 0.4954195570426E+00
 0.2437444834676E+00
 0.5560101432977E-01
 0.8251420159003E-01
 0.5357822297140E-01
 0.1672106535571E+00
 0.1889729232907E+01
 0.1644943654743E+01
 0.1376226446604E+01
 0.1087406075938E+01
 0.7882627442921E+00
 0.4950864879860E+00
 0.2336472030850E+00
 0.5683208836571E-01
 0.4986303316304E-01
 0.1368550716657E+00
 0.2240690880893E+01
 0.2026153428006E+01
 0.1784767444454E+01
 0.1517946037454E+01
 0.1231763008903E+01
 0.9377624077608E+00
 0.6550912410527E+00
 0.4149549350119E+00
 0.2692100857778E+00
 0.3233772090124E+00
 0.2619755563534E+01
 0.2450517670733E+01
 0.2254589645012E+01
 0.2031785119369E+01
 0.1785006210152E+01
 0.1520883132538E+01
 0.1250774124158E+01
 0.9922953524020E+00
 0.7712984109543E+00
 0.6185296667375E+00
 0.3004396318570E+01
 0.2886421435442E+01
 0.2742243311064E+01
 0.2569290816489E+01
 0.2366186280050E+01
 0.2132807761251E+01
 0.1869815141283E+01
 0.1576837639924E+01
 0.1246630735751E+01
 0.8424936763406E+00
 0.3371684289058E+01
 0.3303352298754E+01
 0.3207917455066E+01
 0.3079149572252E+01
 0.2910040382800E+01
 0.2692256798012E+01
 0.2414699559194E+01
 0.2060368827401E+01
 0.1599394340740E+01
 0.9831760059906E+00
 0.3702025042827E+01
 0.3677085703561E+01
 0.3622655025510E+01
 0.3528174463680E+01
 0.3380667482717E+01
 0.3163861265969E+01
 0.2856693655397E+01
 0.2431111308255E+01
 0.1850344160221E+01
 0.1078051768431E+01
 0.3979595354061E+01
 0.3989305607438E+01
 0.3966339474950E+01
 0.3896021398789E+01
 0.3760279086760E+01
 0.3536660876893E+01
 0.3197250468578E+01
 0.2708359765070E+01
 0.2033268081217E+01
 0.1147423174075E+01
 0.4192534872287E+01
 0.4226987782861E+01
 0.4225506207641E+01
 0.4170271827919E+01
 0.4039938763460E+01
 0.3808482270345E+01
 0.3444270666746E+01
 0.2910602557097E+01
 0.2170063039169E+01
 0.1202142852355E+01
 0.4332609666054E+01
 0.4381251215482E+01
 0.4390906857369E+01
 0.4342111362111E+01
 0.4212727224411E+01
 0.3976331620965E+01
 0.3600615744052E+01
 0.3047009958261E+01
 0.2273600589906E+01
 0.1251779255619E+01
 0.4394726545384E+01
 0.4446190826918E+01
 0.4455358873320E+01
 0.4402743850320E+01
 0.4268549850840E+01
 0.4029602022646E+01
 0.3656594476529E+01
 0.3111540363977E+01
 0.2346173507766E+01
 0.1309691781007E+01
 0.4377020632808E+01
 0.4419128658013E+01
 0.4413040811952E+01
 0.4341671085035E+01
 0.4191054362510E+01
 0.3945035269651E+01
 0.3581399926829E+01
 0.3068521888589E+01
 0.2358275506891E+01
 0.1376425638624E+01
 0.4281398818399E+01
 0.4299883963606E+01
 0.4257160015794E+01
 0.4142901770735E+01
 0.3954111405181E+01
 0.3682740167394E+01
 0.3316645577038E+01
 0.2839231009215E+01
 0.2222297144939E+01
 0.1403156288896E+01
 0.4115344143262E+01
 0.4088012787510E+01
 0.3972692997134E+01
 0.3786963281026E+01
 0.3533254952842E+01
 0.3208396800644E+01
 0.2810414116444E+01
 0.2341760365044E+01
 0.1814736920773E+01
 0.1244592612941E+01
 0.3886634553655E+01
 0.3753001927766E+01
 0.3546229786959E+01
 0.3277334462886E+01
 0.2942948032592E+01
 0.2543828960071E+01
 0.2085536758236E+01
 0.1584124152853E+01
 0.1077738100192E+01
 0.6810873651354E+00
</DataArray>
<CellData Tensors="'E_Centroid','S_Centroid'">
<DataArray type="Float64" Name="E_Centroid" NumberOfComponents="4" ComponentName0="E11" ComponentName1="E22" ComponentName2="E33" ComponentName3="E12" format="ascii">
 0.2423879053801E-02 -0.1858468773031E-01  0.0000000000000E+00 -0.5918525736621E-02
 0.4166218094239E-02 -0.1546659959416E-01  0.0000000000000E+00 -0.3338935555810E-03
 0.3493714778624E-02 -0.1422773201456E-01  0.0000000000000E+00 -0.4003051645286E-03
 0.3408721073872E-02 -0.1360209266497E-01  0.0000000000000E+00 -0.2334294737981E-03
 0.3284526338720E-02 -0.1315816990868E-01  0.0000000000000E+00 -0.1795855627608E-03
 0.3206425250114E-02 -0.1283132268551E-01  0.0000000000000E+00 -0.1380905765843E-03
 0.3144852436669E-02 -0.1258785827289E-01  0.0000000000000E+00 -0.1008977636973E-03
 0.3105655714426E-02 -0.1243101019954E-01  0.0000000000000E+00 -0.5484720166266E-04
 0.3094021566226E-02 -0.1239059322684E-01  0.0000000000000E+00  0.1576827900354E-04
 0.3116421595014E-02 -0.1254790254436E-01  0.0000000000000E+00  0.1983461446154E-03
 0.3166118490459E-02 -0.1294161372458E-01  0.0000000000000E+00  0.7350147602073E-03
 0.3198591965241E-02 -0.1335155715286E-01  0.0000000000000E+00  0.1794195942106E-02
 0.3159367234189E-02 -0.1356115814156E-01  0.0000000000000E+00  0.3203736200762E-02
 0.3038167855327E-02 -0.1363206517196E-01  0.0000000000000E+00  0.4734960331561E-02
 0.2847207532175E-02 -0.1367802866205E-01  0.0000000000000E+00  0.6352969236752E-02
 0.2581443858104E-02 -0.1373720263485E-01  0.0000000000000E+00  0.8092785215168E-02
 0.2264605854961E-02 -0.1387698713562E-01  0.0000000000000E+00  0.1003316578722E-01
 0.1721781136798E-02 -0.1420018000287E-01  0.0000000000000E+00  0.1241404657424E-01
 0.1416163887087E-02 -0.1499477145469E-01  0.0000000000000E+00  0.1603706665209E-01
-0.3403532257367E-02 -0.1494277933136E-01  0.0000000000000E+00  0.2298361682485E-01
 0.1247531128603E-01 -0.1662977779477E-01  0.0000000000000E+00  0.2745177989109E-01
 0.1641529635594E-02 -0.1587534820114E-01  0.0000000000000E+00 -0.6353689516710E-02
 0.3481806633463E-02 -0.1536305466334E-01  0.0000000000000E+00 -0.2901842871135E-02
 0.3507265771064E-02 -0.1409730503683E-01  0.0000000000000E+00 -0.1112583117844E-02
 0.3312224034429E-02 -0.1341449663029E-01  0.0000000000000E+00 -0.7907269406707E-03
 0.3222626680902E-02 -0.1295099651281E-01  0.0000000000000E+00 -0.5604053612449E-03
 0.3138080923356E-02 -0.1260960296385E-01  0.0000000000000E+00 -0.4247918807978E-03
 0.3075658265503E-02 -0.1235994589034E-01  0.0000000000000E+00 -0.3013794911759E-03
 0.3030850760975E-02 -0.1219914041818E-01  0.0000000000000E+00 -0.1568871966539E-03
 0.3001675905494E-02 -0.1214674017724E-01  0.0000000000000E+00  0.6319395088283E-04
 0.2965809548867E-02 -0.1222336625227E-01  0.0000000000000E+00  0.4533209168284E-03
 0.2902039053069E-02 -0.1239491132639E-01  0.0000000000000E+00  0.1102813953420E-02
 0.2816063165776E-02 -0.1255669109775E-01  0.0000000000000E+00  0.2039422393621E-02
 0.2704158372475E-02 -0.1261997308818E-01  0.0000000000000E+00  0.3223323391036E-02
 0.2535574539465E-02 -0.1257228046925E-01  0.0000000000000E+00  0.4570242318399E-02
 0.2285777443174E-02 -0.1243886967751E-01  0.0000000000000E+00  0.6004770608991E-02
 0.1949837606144E-02 -0.1223501306258E-01  0.0000000000000E+00  0.7503881684063E-02
 0.1467156890138E-02 -0.1194135840643E-01  0.0000000000000E+00  0.9105070606571E-02
 0.8417608818237E-03 -0.1149608369167E-01  0.0000000000000E+00  0.1080093247052E-01
-0.6560977068748E-03 -0.1044314565713E-01  0.0000000000000E+00  0.1283068285665E-01
-0.1566351781236E-02 -0.7918958861931E-02  0.0000000000000E+00  0.1000420877713E-01
 0.1442554513825E-01 -0.9801095789262E-02  0.0000000000000E+00  0.6170962998760E-02
 0.1166756755011E-02 -0.1431915020585E-01  0.0000000000000E+00 -0.6018261831838E-02
 0.2827465787081E-02 -0.1451633773478E-01  0.0000000000000E+00 -0.4029503678451E-02
 0.3275817447746E-02 -0.1382240205014E-01  0.0000000000000E+00 -0.2068171814848E-02
 0.3204141199437E-02 -0.1315506585946E-01  0.0000000000000E+00 -0.1309901980048E-02
 0.3123501377510E-02 -0.1270007485096E-01  0.0000000000000E+00 -0.9574395650197E-03
 0.3050510411207E-02 -0.1235607418701E-01  0.0000000000000E+00 -0.7130656129606E-03
 0.2984815640461E-02 -0.1210046568971E-01  0.0000000000000E+00 -0.5035151171794E-03
 0.2928348328334E-02 -0.1192702577813E-01  0.0000000000000E+00 -0.2618580150070E-03
 0.2868343868437E-02 -0.1183829316875E-01  0.0000000000000E+00  0.7817947014946E-04
 0.2775632412770E-02 -0.1182059541037E-01  0.0000000000000E+00  0.5803507499005E-03
 0.2635616483978E-02 -0.1183056679458E-01  0.0000000000000E+00  0.1260748521031E-02
 0.2471884650515E-02 -0.1181716884599E-01  0.0000000000000E+00  0.2109408611156E-02
 0.2297014358603E-02 -0.1173848020147E-01  0.0000000000000E+00  0.3125212175352E-02
 0.2081670107953E-02 -0.1156167132937E-01  0.0000000000000E+00  0.4271601606008E-02
 0.1794159791601E-02 -0.1126862039602E-01  0.0000000000000E+00  0.5466236868672E-02
 0.1411059240228E-02 -0.1083910719481E-01  0.0000000000000E+00  0.6638406952248E-02
 0.9085680827517E-03 -0.1021062598522E-01  0.0000000000000E+00  0.7690203372112E-02
 0.1998966938157E-03 -0.9223600778721E-02  0.0000000000000E+00  0.8445587291462E-02
-0.6693736047294E-03 -0.7466071731439E-02  0.0000000000000E+00  0.7619802476879E-02
 0.1608778853938E-02 -0.5926467923948E-02  0.0000000000000E+00  0.2153129915645E-02
 0.1431626236687E-01 -0.8018853740516E-02  0.0000000000000E+00  0.9360429101233E-03
 0.8742818276333E-03 -0.1323562417147E-01  0.0000000000000E+00 -0.5594598059642E-02
 0.2308534322592E-02 -0.1364418955208E-01  0.0000000000000E+00 -0.4475168607011E-02
 0.2955023852725E-02 -0.1335141751278E-01  0.0000000000000E+00 -0.2802523949276E-02
 0.3041766899607E-02 -0.1283338589934E-01  0.0000000000000E+00 -0.1834633061325E-02
 0.3000934887633E-02 -0.1240485059769E-01  0.0000000000000E+00 -0.1338037603774E-02
 0.2940602606085E-02 -0.1207015272149E-01  0.0000000000000E+00 -0.1002369901024E-02
 0.2873594470693E-02 -0.1180964113833E-01  0.0000000000000E+00 -0.7095804937767E-03
 0.2801029396575E-02 -0.1161678240875E-01  0.0000000000000E+00 -0.3838910838745E-03
 0.2707545685852E-02 -0.1148117545815E-01  0.0000000000000E+00  0.3987019824370E-04
 0.2566943751148E-02 -0.1137576312729E-01  0.0000000000000E+00  0.5959434117740E-03
 0.2373738855340E-02 -0.1126259898322E-01  0.0000000000000E+00  0.1268829206721E-02
 0.2156846547535E-02 -0.1111583335463E-01  0.0000000000000E+00  0.2037870454479E-02
 0.1934260614369E-02 -0.1091268555553E-01  0.0000000000000E+00  0.2907170423945E-02
 0.1685242769524E-02 -0.1061629164670E-01  0.0000000000000E+00  0.3848429148021E-02
 0.1380617968264E-02 -0.1018918877504E-01  0.0000000000000E+00  0.4773002034250E-02
 0.1005630560355E-02 -0.9591080660947E-02  0.0000000000000E+00  0.5556156032299E-02
 0.5573505621363E-03 -0.8750929770638E-02  0.0000000000000E+00  0.6009535487887E-02
 0.8445325881390E-04 -0.7531084131696E-02  0.0000000000000E+00  0.5655591191541E-02
 0.2876857610588E-03 -0.5995963878567E-02  0.0000000000000E+00  0.3186291915193E-02
 0.3963879355969E-02 -0.5511740060838E-02  0.0000000000000E+00 -0.1698026628084E-02
 0.1359498326425E-01 -0.7242289624813E-02  0.0000000000000E+00 -0.8946202091392E-03
 0.6839211219732E-03 -0.1239634189091E-01  0.0000000000000E+00 -0.5199340990007E-02
 0.1909981736459E-02 -0.1285332440273E-01  0.0000000000000E+00 -0.4603127194847E-02
 0.2626006234138E-02 -0.1279866180323E-01  0.0000000000000E+00 -0.3293597013479E-02
 0.2839449838595E-02 -0.1244468396039E-01  0.0000000000000E+00 -0.2299704229335E-02
 0.2854702303329E-02 -0.1207142734579E-01  0.0000000000000E+00 -0.1700386061647E-02
 0.2811606348077E-02 -0.1175299517633E-01  0.0000000000000E+00 -0.1285767371214E-02
 0.2743711605457E-02 -0.1148960201401E-01  0.0000000000000E+00 -0.9228916110626E-03
 0.2654355704230E-02 -0.1127418618101E-01  0.0000000000000E+00 -0.5313170425803E-03
 0.2529930311060E-02 -0.1109055554222E-01  0.0000000000000E+00 -0.5564984022621E-04
 0.2351391563010E-02 -0.1090907971872E-01  0.0000000000000E+00  0.5182755098889E-03
 0.2120853608715E-02 -0.1069947601659E-01  0.0000000000000E+00  0.1162069850848E-02
 0.1868292354352E-02 -0.1044827215100E-01  0.0000000000000E+00  0.1850972248682E-02
 0.1614515791653E-02 -0.1014172325378E-01  0.0000000000000E+00  0.2581903436338E-02
 0.1348926780473E-02 -0.9745209846249E-02  0.0000000000000E+00  0.3319638296756E-02
 0.1054199865590E-02 -0.9216619657193E-02  0.0000000000000E+00  0.3962719670379E-02
 0.7331002048601E-03 -0.8514311995771E-02  0.0000000000000E+00  0.4349882995069E-02
 0.4302669666306E-03 -0.7586217479823E-02  0.0000000000000E+00  0.4215051421429E-02
 0.3707740930004E-03 -0.6418487814067E-02  0.0000000000000E+00  0.3011917543473E-02
 0.1443667820733E-02 -0.5369669497616E-02  0.0000000000000E+00  0.3819603093613E-04
 0.5482319490114E-02 -0.5499624354165E-02  0.0000000000000E+00 -0.3557529466971E-02
 0.1285150209372E-01 -0.6835346255497E-02  0.0000000000000E+00 -0.1806646857641E-02
 0.5531313911994E-03 -0.1170098059823E-01  0.0000000000000E+00 -0.4850904200771E-02
 0.1602848470975E-02 -0.1214804294330E-01  0.0000000000000E+00 -0.4580995940691E-02
 0.2320990538122E-02 -0.1222729661940E-01  0.0000000000000E+00 -0.3599548733348E-02
 0.2618713964243E-02 -0.1200980438600E-01  0.0000000000000E+00 -0.2679161877845E-02
 0.2689165319054E-02 -0.1170380058774E-01  0.0000000000000E+00 -0.2033799042671E-02
 0.2666604390397E-02 -0.1140842734794E-01  0.0000000000000E+00 -0.1560895105853E-02
 0.2598641101426E-02 -0.1114395290910E-01  0.0000000000000E+00 -0.1144427345550E-02
 0.2493906230460E-02 -0.1090630635182E-01  0.0000000000000E+00 -0.7071190773766E-03
 0.2343377408634E-02 -0.1067839428485E-01  0.0000000000000E+00 -0.2049372400446E-03
 0.2136083074396E-02 -0.1043316969693E-01  0.0000000000000E+00  0.3633679609261E-03
 0.1880179774205E-02 -0.1014742218849E-01  0.0000000000000E+00  0.9645403098986E-03
 0.1605865831485E-02 -0.9814481084507E-02  0.0000000000000E+00  0.1570739556713E-02
 0.1336683594680E-02 -0.9426143941098E-02  0.0000000000000E+00  0.2168033668240E-02
 0.1073190543129E-02 -0.8953335633670E-02  0.0000000000000E+00  0.2708929319424E-02
 0.8142459568742E-03 -0.8359216840742E-02  0.0000000000000E+00  0.3080040488462E-02
 0.5870316995198E-03 -0.7613847292127E-02  0.0000000000000E+00  0.3098423214939E-02
 0.4939976499460E-03 -0.6707619500295E-02  0.0000000000000E+00  0.2475589339535E-02
 0.8629769244476E-03 -0.5741818258122E-02  0.0000000000000E+00  0.7919547009331E-03
 0.2494872905827E-02 -0.5144430408165E-02  0.0000000000000E+00 -0.2065984334954E-02
 0.6425001042652E-02 -0.5568653854606E-02  0.0000000000000E+00 -0.4485769917332E-02
 0.1220705550104E-01 -0.6600327561953E-02  0.0000000000000E+00 -0.2423810622084E-02
 0.4589369831518E-03 -0.1109807240020E-01  0.0000000000000E+00 -0.4547173694213E-02
 0.1362844159160E-02 -0.1151466317170E-01  0.0000000000000E+00 -0.4488743738999E-02
 0.2049748361308E-02 -0.1166552667528E-01  0.0000000000000E+00 -0.3777826379072E-02
 0.2395572478397E-02 -0.1154997151212E-01  0.0000000000000E+00 -0.2974674170545E-02
 0.2511344069846E-02 -0.1130932665344E-01  0.0000000000000E+00 -0.2331074787918E-02
 0.2509367503612E-02 -0.1104088175017E-01  0.0000000000000E+00 -0.1825587439308E-02
 0.2442382931679E-02 -0.1077746147747E-01  0.0000000000000E+00 -0.1374049136728E-02
 0.2324806515173E-02 -0.1052004130874E-01  0.0000000000000E+00 -0.9104040147950E-03
 0.2153658367970E-02 -0.1025387802294E-01  0.0000000000000E+00 -0.4016755946701E-03
 0.1925691477556E-02 -0.9956628617152E-02  0.0000000000000E+00  0.1450875203201E-03
 0.1654071800045E-02 -0.9611294955109E-02  0.0000000000000E+00  0.6948600821187E-03
 0.1369642749831E-02 -0.9215773385033E-02  0.0000000000000E+00  0.1216722649047E-02
 0.1099441460833E-02 -0.8766523892848E-02  0.0000000000000E+00  0.1685830363455E-02
 0.8555832040557E-03 -0.8242285924070E-02  0.0000000000000E+00  0.2042848016713E-02
 0.6546572508291E-03 -0.7617379806853E-02  0.0000000000000E+00  0.2167008144648E-02
 0.5504294470585E-03 -0.6881944607615E-02  0.0000000000000E+00  0.1872447097774E-02
 0.6894834564802E-03 -0.6071889914131E-02  0.0000000000000E+00  0.9062825499534E-03
 0.1421240182315E-02 -0.5351593063277E-02  0.0000000000000E+00 -0.9577571572384E-03
 0.3359966792812E-02 -0.5096285238812E-02  0.0000000000000E+00 -0.3446424707470E-02
 0.7002691646334E-02 -0.5639178285013E-02  0.0000000000000E+00 -0.4978630555278E-02
 0.1167067461654E-01 -0.6456562712009E-02  0.0000000000000E+00 -0.2913612379032E-02
 0.3883735438576E-03 -0.1055839495850E-01  0.0000000000000E+00 -0.4282099969384E-02
 0.1172145501495E-02 -0.1093869283909E-01  0.0000000000000E+00 -0.4365969189793E-02
 0.1812753590913E-02 -0.1112441392748E-01  0.0000000000000E+00 -0.3871546246420E-02
 0.2179829981957E-02 -0.1108057112311E-01  0.0000000000000E+00 -0.3198875662537E-02
 0.2328230742733E-02 -0.1089649259560E-01  0.0000000000000E+00 -0.2590826540305E-02
 0.2344219859198E-02 -0.1065548841102E-01  0.0000000000000E+00 -0.2078134022958E-02
 0.2278972617978E-02 -0.1039522404075E-01  0.0000000000000E+00 -0.1610554941549E-02
 0.2151490739664E-02 -0.1012165151912E-01  0.0000000000000E+00 -0.1138146613332E-02
 0.1965060447398E-02 -0.9824102617283E-02  0.0000000000000E+00 -0.6385470152414E-03
 0.1723414841768E-02 -0.9485652183960E-02  0.0000000000000E+00 -0.1244027601829E-03
 0.1444120465024E-02 -0.9094864176312E-02  0.0000000000000E+00  0.3685866130409E-03
 0.1159436521357E-02 -0.8653474100331E-02  0.0000000000000E+00  0.8065511822147E-03
 0.9006921842777E-03 -0.8162730257412E-02  0.0000000000000E+00  0.1155455656105E-02
 0.6913650515718E-03 -0.7610605774760E-02  0.0000000000000E+00  0.1347317737662E-02
 0.5652655509086E-03 -0.6985584136284E-02  0.0000000000000E+00  0.1260714529827E-02
 0.5988560554399E-03 -0.6300175434331E-02  0.0000000000000E+00  0.7257631338304E-03
 0.9600991703524E-03 -0.5624252251231E-02  0.0000000000000E+00 -0.4413443363327E-03
 0.1966896136393E-02 -0.5137607578836E-02  0.0000000000000E+00 -0.2289188752392E-02
 0.4041992628007E-02 -0.5121613591692E-02  0.0000000000000E+00 -0.4348676384680E-02
 0.7353663163915E-02 -0.5697983435172E-02  0.0000000000000E+00 -0.5262046779130E-02
 0.1122320331600E-01 -0.6367011227797E-02  0.0000000000000E+00 -0.3323933623608E-02
 0.3337881507729E-03 -0.1006409866607E-01  0.0000000000000E+00 -0.4049629438788E-02
 0.1018133370777E-02 -0.1040818143484E-01  0.0000000000000E+00 -0.4232784430673E-02
 0.1607064635602E-02 -0.1060717401094E-01  0.0000000000000E+00 -0.3910620885227E-02
 0.1976809875302E-02 -0.1061150747345E-01  0.0000000000000E+00 -0.3366676037271E-02
 0.2145613833159E-02 -0.1047307301185E-01  0.0000000000000E+00 -0.2815677445677E-02
 0.2175494621433E-02 -0.1025764359617E-01  0.0000000000000E+00 -0.2317712945849E-02
 0.2112234027285E-02 -0.1000225110850E-01  0.0000000000000E+00 -0.1852047581484E-02
 0.1977683829415E-02 -0.9716605362155E-02  0.0000000000000E+00 -0.1386268210348E-02
 0.1780802975660E-02 -0.9394620144499E-02  0.0000000000000E+00 -0.9080902773392E-03
 0.1531449448103E-02 -0.9024835580356E-02  0.0000000000000E+00 -0.4342625915957E-03
 0.1251223546481E-02 -0.8600932955623E-02  0.0000000000000E+00 -0.7529399951856E-06
 0.9745136571892E-03 -0.8128377222116E-02  0.0000000000000E+00  0.3561371170788E-03
 0.7374522143682E-03 -0.7613564494175E-02  0.0000000000000E+00  0.5957181066077E-03
 0.5741205038444E-03 -0.7054332469068E-02  0.0000000000000E+00  0.6456491346128E-03
 0.5332427902700E-03 -0.6453945561413E-02  0.0000000000000E+00  0.3910644178129E-03
 0.7064565761500E-03 -0.5844503083530E-02  0.0000000000000E+00 -0.3084813062165E-03
 0.1262407371039E-02 -0.5314148720049E-02  0.0000000000000E+00 -0.1559635126698E-02
 0.2462494640168E-02 -0.5028043369730E-02  0.0000000000000E+00 -0.3279925970035E-02
 0.4569566685064E-02 -0.5174638272707E-02  0.0000000000000E+00 -0.4936071445309E-02
 0.7564098688110E-02 -0.5748610406830E-02  0.0000000000000E+00 -0.5436863936806E-02
 0.1084280946582E-01 -0.6313762704806E-02  0.0000000000000E+00 -0.3674528863287E-02
 0.2904725963989E-03 -0.9603649337249E-02  0.0000000000000E+00 -0.3844549368855E-02
 0.8919291766450E-03 -0.9913891497455E-02  0.0000000000000E+00 -0.4099481433832E-02
 0.1428838067222E-02 -0.1011360036006E-01  0.0000000000000E+00 -0.3915188714822E-02
 0.1789019275735E-02 -0.1014875986337E-01  0.0000000000000E+00 -0.3491676739579E-02
 0.1967842658963E-02 -0.1004542990440E-01  0.0000000000000E+00 -0.3010148170011E-02
 0.2007108902312E-02 -0.9852494393796E-02  0.0000000000000E+00 -0.2544314492373E-02
 0.1945613291867E-02 -0.9603220245788E-02  0.0000000000000E+00 -0.2096339653849E-02
 0.1806461917693E-02 -0.9309580946365E-02  0.0000000000000E+00 -0.1650276684733E-02
 0.1603303655373E-02 -0.8969807400886E-02  0.0000000000000E+00 -0.1203093488327E-02
 0.1351250218557E-02 -0.8577604151385E-02  0.0000000000000E+00 -0.7747496297575E-03
 0.1075658842671E-02 -0.8131431757237E-02  0.0000000000000E+00 -0.4012094438997E-03
 0.8135403312718E-03 -0.7640548960649E-02  0.0000000000000E+00 -0.1203396531686E-03
 0.6059700748427E-03 -0.7116744096259E-02  0.0000000000000E+00  0.2329603606388E-04
 0.4963568103371E-03 -0.6567617962979E-02  0.0000000000000E+00 -0.4262713974559E-04
 0.5448613058514E-03 -0.6009976802998E-02  0.0000000000000E+00 -0.4204540978992E-03
 0.8500451523329E-03 -0.5490129630221E-02  0.0000000000000E+00 -0.1215122018986E-02
 0.1566923564944E-02 -0.5100883632144E-02  0.0000000000000E+00 -0.2464119659451E-02
 0.2894129009454E-02 -0.4978734874817E-02  0.0000000000000E+00 -0.4003654588335E-02
 0.4974094459953E-02 -0.5235028900989E-02  0.0000000000000E+00 -0.5310860168760E-02
 0.7688055859191E-02 -0.5798122201712E-02  0.0000000000000E+00 -0.5545400439013E-02
 0.1051237392598E-01 -0.6287254913781E-02  0.0000000000000E+00 -0.3980353431828E-02
 0.2553791198726E-03 -0.9169305431514E-02  0.0000000000000E+00 -0.3662698868369E-02
 0.7872613328491E-03 -0.9449114817561E-02  0.0000000000000E+00 -0.3971383750503E-02
 0.1274443363591E-02 -0.9642639591198E-02  0.0000000000000E+00 -0.3898776753763E-02
 0.1617535736712E-02 -0.9696462631117E-02  0.0000000000000E+00 -0.3585056654654E-02
 0.1798304247140E-02 -0.9619347404921E-02  0.0000000000000E+00 -0.3179012308282E-02
 0.1842768510697E-02 -0.9445667202745E-02  0.0000000000000E+00 -0.2758038028766E-02
 0.1782586236970E-02 -0.9203557533430E-02  0.0000000000000E+00 -0.2340609763805E-02
 0.1640923669744E-02 -0.8905956959344E-02  0.0000000000000E+00 -0.1924799902960E-02
 0.1435041155027E-02 -0.8554765757300E-02  0.0000000000000E+00 -0.1515635268024E-02
 0.1184437965321E-02 -0.8148350150029E-02  0.0000000000000E+00 -0.1135577248308E-02
 0.9179197316262E-03 -0.7689609353212E-02  0.0000000000000E+00 -0.8202314532809E-03
 0.6753223381556E-03 -0.7191592837583E-02  0.0000000000000E+00 -0.6079460277009E-03
 0.5024095510315E-03 -0.6671429890483E-02  0.0000000000000E+00 -0.5444815809535E-03
 0.4502089080478E-03 -0.6145691054154E-02  0.0000000000000E+00 -0.6983874112559E-03
 0.5863900354644E-03 -0.5642271978952E-02  0.0000000000000E+00 -0.1155893954175E-02
 0.1009414005352E-02 -0.5215817806012E-02  0.0000000000000E+00 -0.1986863303273E-02
 0.1852849906403E-02 -0.4954481885308E-02  0.0000000000000E+00 -0.3175462819762E-02
 0.3257513787456E-02 -0.4962680626489E-02  0.0000000000000E+00 -0.4516905974009E-02
 0.5279440926416E-02 -0.5294182061083E-02  0.0000000000000E+00 -0.5538350068683E-02
 0.7758178607913E-02 -0.5845295790163E-02  0.0000000000000E+00 -0.5594915734450E-02
 0.1023453130731E-01 -0.6301143202446E-02  0.0000000000000E+00 -0.4258855098392E-02
 0.2266070848762E-03 -0.8755558601623E-02  0.0000000000000E+00 -0.3500151927402E-02
 0.6997121022120E-03 -0.9008495353359E-02  0.0000000000000E+00 -0.3850642910206E-02
 0.1140636824144E-02 -0.9192256342043E-02  0.0000000000000E+00 -0.3869919776084E-02
 0.1462291396864E-02 -0.9256389185092E-02  0.0000000000000E+00 -0.3655284293064E-02
 0.1638998088019E-02 -0.9198407221500E-02  0.0000000000000E+00 -0.3326722801459E-02
 0.1685030817745E-02 -0.9040983093742E-02  0.0000000000000E+00 -0.2959421542484E-02
 0.1625532555940E-02 -0.8806853677896E-02  0.0000000000000E+00 -0.2582537117272E-02
 0.1482951203756E-02 -0.8508959135966E-02  0.0000000000000E+00 -0.2205224500147E-02
 0.1277164364603E-02 -0.8152099203159E-02  0.0000000000000E+00 -0.1839145416143E-02
 0.1031250184686E-02 -0.7738702196051E-02  0.0000000000000E+00 -0.1508576438532E-02
 0.7771145121323E-03 -0.7275727493532E-02  0.0000000000000E+00 -0.1248295276110E-02
 0.5573847468811E-03 -0.6779889358764E-02  0.0000000000000E+00 -0.1095992113917E-02
 0.4219900795010E-03 -0.6273348919409E-02  0.0000000000000E+00 -0.1096324794145E-02
 0.4277412271923E-03 -0.5780446335790E-02  0.0000000000000E+00 -0.1311335554883E-02
 0.6462295966584E-03 -0.5337351334474E-02  0.0000000000000E+00 -0.1809911390863E-02
 0.1170790025684E-02 -0.5002069203149E-02  0.0000000000000E+00 -0.2631276556294E-02
 0.2110865891515E-02 -0.4852890702689E-02  0.0000000000000E+00 -0.3723075900693E-02
 0.3557883535649E-02 -0.4964192563964E-02  0.0000000000000E+00 -0.4868374588281E-02
 0.5510657564174E-02 -0.5349424275952E-02  0.0000000000000E+00 -0.5657739586325E-02
 0.7786672614049E-02 -0.5891007776659E-02  0.0000000000000E+00 -0.5603677140237E-02
 0.1002975404354E-01 -0.6338381809779E-02  0.0000000000000E+00 -0.4432556534267E-02
 0.2027742100937E-03 -0.8358333649534E-02  0.0000000000000E+00 -0.3354017504083E-02
 0.6259491893917E-03 -0.8587605810106E-02  0.0000000000000E+00 -0.3738074230135E-02
 0.1024464231086E-02 -0.8759848217706E-02  0.0000000000000E+00 -0.3834295453004E-02
 0.1322449962958E-02 -0.8828552316038E-02  0.0000000000000E+00 -0.3708939936293E-02
 0.1490797950518E-02 -0.8784191475495E-02  0.0000000000000E+00 -0.3457483373359E-02
 0.1535402358115E-02 -0.8640383776418E-02  0.0000000000000E+00 -0.3149670689055E-02
 0.1475850845072E-02 -0.8414788540324E-02  0.0000000000000E+00 -0.2820900809973E-02
 0.1333437174814E-02 -0.8119700046240E-02  0.0000000000000E+00 -0.2488510237981E-02
 0.1129822337259E-02 -0.7762066973880E-02  0.0000000000000E+00 -0.2169274394337E-02
 0.8909359695387E-03 -0.7347751754804E-02  0.0000000000000E+00 -0.1888549371818E-02
 0.6514000948880E-03 -0.6887353338637E-02  0.0000000000000E+00 -0.1679720603849E-02
 0.4564349170242E-03 -0.6401005738338E-02  0.0000000000000E+00 -0.1578727695636E-02
 0.3594863418842E-03 -0.5915417730413E-02  0.0000000000000E+00 -0.1627280363436E-02
 0.4214400994006E-03 -0.5461366756465E-02  0.0000000000000E+00 -0.1879205127500E-02
 0.7149411692581E-03 -0.5080706231307E-02  0.0000000000000E+00 -0.2386569349634E-02
 0.1325196833732E-02 -0.4831234225505E-02  0.0000000000000E+00 -0.3164067272075E-02
 0.2337729022405E-02 -0.4779189658810E-02  0.0000000000000E+00 -0.4137500800532E-02
 0.3804233513668E-02 -0.4973213897483E-02  0.0000000000000E+00 -0.5096387069249E-02
 0.5684191876682E-02 -0.5398984420221E-02  0.0000000000000E+00 -0.5696439088801E-02
 0.7795106392359E-02 -0.5937200140508E-02  0.0000000000000E+00 -0.5573806312756E-02
 0.9834393822446E-02 -0.6381477646311E-02  0.0000000000000E+00 -0.4540617010927E-02
 0.1829405415724E-03 -0.7974597116712E-02  0.0000000000000E+00 -0.3221719216946E-02
 0.5635924943363E-03 -0.8183247515442E-02  0.0000000000000E+00 -0.3633640008387E-02
 0.9236594932595E-03 -0.8343512363989E-02  0.0000000000000E+00 -0.3795393799274E-02
 0.1197240155653E-02 -0.8413121018394E-02  0.0000000000000E+00 -0.3750544369279E-02
 0.1354379585196E-02 -0.8378402164896E-02  0.0000000000000E+00 -0.3574207164923E-02
 0.1395267674321E-02 -0.8246205353336E-02  0.0000000000000E+00 -0.3329178908320E-02
 0.1334989303870E-02 -0.8029728031003E-02  0.0000000000000E+00 -0.3053790940795E-02
 0.1193496073679E-02 -0.7740238503634E-02  0.0000000000000E+00 -0.2770940557799E-02
 0.9935579395264E-03 -0.7386168361573E-02  0.0000000000000E+00 -0.2500980710236E-02
 0.7632934658852E-03 -0.6976183262401E-02  0.0000000000000E+00 -0.2269537122090E-02
 0.5396085123047E-03 -0.6524041311945E-02  0.0000000000000E+00 -0.2107961702981E-02
 0.3699817850071E-03 -0.6052923528847E-02  0.0000000000000E+00 -0.2049441928209E-02
 0.3106549360566E-03 -0.5593458047519E-02  0.0000000000000E+00 -0.2131350478225E-02
 0.4250831056664E-03 -0.5181501947603E-02  0.0000000000000E+00 -0.2398502433371E-02
 0.7848809745439E-03 -0.4862404402585E-02  0.0000000000000E+00 -0.2887903308923E-02
 0.1465711378038E-02 -0.4691466780374E-02  0.0000000000000E+00 -0.3596319726501E-02
 0.2531322542807E-02 -0.4722678297428E-02  0.0000000000000E+00 -0.4439730393758E-02
 0.4002189357306E-02 -0.4983798131105E-02  0.0000000000000E+00 -0.5225201412047E-02
 0.5812894504620E-02 -0.5442177910115E-02  0.0000000000000E+00 -0.5670577484043E-02
 0.7786001347346E-02 -0.5982471633097E-02  0.0000000000000E+00 -0.5502983522772E-02
 0.9660920816975E-02 -0.6428688681104E-02  0.0000000000000E+00 -0.4598895691135E-02
 0.1664318084824E-03 -0.7601979688182E-02  0.0000000000000E+00 -0.3101014064433E-02
 0.5108565882070E-03 -0.7792853016120E-02  0.0000000000000E+00 -0.3536793953917E-02
 0.8363502476167E-03 -0.7941504788070E-02  0.0000000000000E+00 -0.3755254219432E-02
 0.1085785486486E-02 -0.8009865236898E-02  0.0000000000000E+00 -0.3783164819168E-02
 0.1230001617051E-02 -0.7982102131055E-02  0.0000000000000E+00 -0.3678966542436E-02
 0.1265541858927E-02 -0.7860165031053E-02  0.0000000000000E+00 -0.3498056565763E-02
 0.1203985783046E-02 -0.7653498715532E-02  0.0000000000000E+00 -0.3279349485069E-02
 0.1063910017233E-02 -0.7372152565591E-02  0.0000000000000E+00 -0.3049083992994E-02
 0.8686581331521E-03 -0.7025473344137E-02  0.0000000000000E+00 -0.2829735027161E-02
 0.6479372193916E-03 -0.6624315096206E-02  0.0000000000000E+00 -0.2646352673661E-02
 0.4404731951814E-03 -0.6185066086432E-02  0.0000000000000E+00 -0.2527584389728E-02
 0.2955871642364E-03 -0.5733484973796E-02  0.0000000000000E+00 -0.2502991957183E-02
 0.2716037324544E-03 -0.5303419013744E-02  0.0000000000000E+00 -0.2604643769422E-02
 0.4333368032669E-03 -0.4934553452530E-02  0.0000000000000E+00 -0.2868255610825E-02
 0.8500498995765E-03 -0.4674064199548E-02  0.0000000000000E+00 -0.3318179987567E-02
 0.1587686712315E-02 -0.4573553771487E-02  0.0000000000000E+00 -0.3939498067261E-02
 0.2691176884311E-02 -0.4675736842512E-02  0.0000000000000E+00 -0.4647477653680E-02
 0.4157327319048E-02 -0.4992089986889E-02  0.0000000000000E+00 -0.5273128017728E-02
 0.5905024963164E-02 -0.5478396956849E-02  0.0000000000000E+00 -0.5589712939617E-02
 0.7764552595420E-02 -0.6024834481232E-02  0.0000000000000E+00 -0.5394114817016E-02
 0.9508316569447E-02 -0.6479605233465E-02  0.0000000000000E+00 -0.4607434505474E-02
 0.1527493050439E-03 -0.7238561256553E-02  0.0000000000000E+00 -0.2989919827376E-02
 0.4663700120159E-03 -0.7414303740696E-02  0.0000000000000E+00 -0.3446697342189E-02
 0.7609739844558E-03 -0.7552226596846E-02  0.0000000000000E+00 -0.3714911513934E-02
 0.9871697209647E-03 -0.7618288708947E-02  0.0000000000000E+00 -0.3808735307591E-02
 0.1117615779736E-02 -0.7595852287954E-02  0.0000000000000E+00 -0.3773074495721E-02
 0.1146752299734E-02 -0.7483442398128E-02  0.0000000000000E+00 -0.3656101933267E-02
 0.1083523674374E-02 -0.7287438968209E-02  0.0000000000000E+00 -0.3495734989029E-02
 0.9451800293410E-03 -0.7016595032693E-02  0.0000000000000E+00 -0.3319765201601E-02
 0.7552112259596E-03 -0.6680693390283E-02  0.0000000000000E+00 -0.3151479810587E-02
 0.5443681154818E-03 -0.6292186585736E-02  0.0000000000000E+00 -0.3014520402841E-02
 0.3527193226314E-03 -0.5869531526211E-02  0.0000000000000E+00 -0.2934171120467E-02
 0.2309760663080E-03 -0.5440533313810E-02  0.0000000000000E+00 -0.2935632538847E-02
 0.2388995246070E-03 -0.5041547256976E-02  0.0000000000000E+00 -0.3045047559985E-02
 0.4417761104886E-03 -0.4715016835327E-02  0.0000000000000E+00 -0.3289411555968E-02
 0.9058753285144E-03 -0.4508797277740E-02  0.0000000000000E+00 -0.3683027969315E-02
 0.1688088645526E-02 -0.4470422567341E-02  0.0000000000000E+00 -0.4204687075892E-02
 0.2817813437345E-02 -0.4632913649580E-02  0.0000000000000E+00 -0.4775607077283E-02
 0.4274313319621E-02 -0.4995501796513E-02  0.0000000000000E+00 -0.5253743160399E-02
 0.5966901097021E-02 -0.5506834149977E-02  0.0000000000000E+00 -0.5461083246389E-02
 0.7734206059592E-02 -0.6063097236282E-02  0.0000000000000E+00 -0.5248368366448E-02
 0.9374827566649E-02 -0.6531647736546E-02  0.0000000000000E+00 -0.4567517559408E-02
 0.1415107645872E-03 -0.6882724952940E-02  0.0000000000000E+00 -0.2886661985586E-02
 0.4290475623844E-03 -0.7045792782771E-02  0.0000000000000E+00 -0.3362347927937E-02
 0.6962017244612E-03 -0.7174191694060E-02  0.0000000000000E+00 -0.3674701831819E-02
 0.9004652238217E-03 -0.7237704757060E-02  0.0000000000000E+00 -0.3828316413305E-02
 0.1016944487646E-02 -0.7219813984567E-02  0.0000000000000E+00 -0.3857188686165E-02
 0.1039110071023E-02 -0.7116756085077E-02  0.0000000000000E+00 -0.3802802211117E-02
 0.9739867224749E-03 -0.6932453954063E-02  0.0000000000000E+00 -0.3701091660787E-02
 0.8375744459601E-03 -0.6674346754495E-02  0.0000000000000E+00 -0.3580024397044E-02
 0.6531584212806E-03 -0.6352244269967E-02  0.0000000000000E+00 -0.3462574693891E-02
 0.4520357195657E-03 -0.5979635426643E-02  0.0000000000000E+00 -0.3370198483665E-02
 0.2751415596638E-03 -0.5576467712818E-02  0.0000000000000E+00 -0.3324201626168E-02
 0.1741231172752E-03 -0.5172030865112E-02  0.0000000000000E+00 -0.3344816895323E-02
 0.2096303860784E-03 -0.4804509048738E-02  0.0000000000000E+00 -0.3451891331746E-02
 0.4468502107451E-03 -0.4518243132861E-02  0.0000000000000E+00 -0.3664321817349E-02
 0.9489620908730E-03 -0.4361081589563E-02  0.0000000000000E+00 -0.3988826343775E-02
 0.1765027592460E-02 -0.4376709250370E-02  0.0000000000000E+00 -0.4402293476916E-02
 0.2912172286662E-02 -0.4590300058916E-02  0.0000000000000E+00 -0.4836523214940E-02
 0.4356993561382E-02 -0.4992175215018E-02  0.0000000000000E+00 -0.5177521594433E-02
 0.6003198792533E-02 -0.5526781200494E-02  0.0000000000000E+00 -0.5289968691719E-02
 0.7697277266975E-02 -0.6096003934812E-02  0.0000000000000E+00 -0.5066735518667E-02
 0.9258303434392E-02 -0.6582215881580E-02  0.0000000000000E+00 -0.4480546553599E-02
 0.1324105234167E-03 -0.6533054618974E-02  0.0000000000000E+00 -0.2789637282972E-02
 0.3979989025754E-03 -0.6685721885527E-02  0.0000000000000E+00 -0.3282659985137E-02
 0.6408727829192E-03 -0.6805988825322E-02  0.0000000000000E+00 -0.3634474922276E-02
 0.8247405469233E-03 -0.6867277831141E-02  0.0000000000000E+00 -0.3842300546433E-02
 0.9275340573290E-03 -0.6853823504109E-02  0.0000000000000E+00 -0.3931416227408E-02
 0.9425688754039E-03 -0.6760430663602E-02  0.0000000000000E+00 -0.3937350958873E-02
 0.8755089382312E-03 -0.6589068553837E-02  0.0000000000000E+00 -0.3893523740486E-02
 0.7411729247076E-03 -0.6345865764858E-02  0.0000000000000E+00 -0.3827070912544E-02
 0.5623392596469E-03 -0.6040300830739E-02  0.0000000000000E+00 -0.3759730911444E-02
 0.3703918863502E-03 -0.5686364297996E-02  0.0000000000000E+00 -0.3710086121842E-02
 0.2066678483024E-03 -0.5304912910599E-02  0.0000000000000E+00 -0.3694914587220E-02
 0.1233157534708E-03 -0.4926152308876E-02  0.0000000000000E+00 -0.3728983130873E-02
 0.1814356496094E-03 -0.4589471262972E-02  0.0000000000000E+00 -0.3825628280626E-02
 0.4458175459532E-03 -0.4340449053403E-02  0.0000000000000E+00 -0.3996325472139E-02
 0.9768722484315E-03 -0.4226613530154E-02  0.0000000000000E+00 -0.4242319160591E-02
 0.1817389801414E-02 -0.4288415312989E-02  0.0000000000000E+00 -0.4541956975148E-02
 0.2975309340171E-02 -0.4545085788786E-02  0.0000000000000E+00 -0.4840713008707E-02
 0.4408420923220E-02 -0.4980754196763E-02  0.0000000000000E+00 -0.5052742791063E-02
 0.6017331489148E-02 -0.5537565798182E-02  0.0000000000000E+00 -0.5080433608648E-02
 0.7655216627595E-02 -0.6122319014339E-02  0.0000000000000E+00 -0.4850216927536E-02
 0.9156644686114E-02 -0.6628816551939E-02  0.0000000000000E+00 -0.4348424205755E-02
 0.1251919590236E-03 -0.6188260777031E-02  0.0000000000000E+00 -0.2697390164009E-02
 0.3724621677086E-03 -0.6332623485555E-02  0.0000000000000E+00 -0.3206516533994E-02
 0.5939406498139E-03 -0.6446244507641E-02  0.0000000000000E+00 -0.3593743347023E-02
 0.7590568433432E-03 -0.6506044665021E-02  0.0000000000000E+00 -0.3850571483498E-02
 0.8487902611251E-03 -0.6497445690451E-02  0.0000000000000E+00 -0.3995408911417E-02
 0.8568718839283E-03 -0.6414452597494E-02  0.0000000000000E+00 -0.4058672525938E-02
 0.7880177461715E-03 -0.6257475277194E-02  0.0000000000000E+00 -0.4071074048290E-02
 0.6559049204836E-03 -0.6031331038647E-02  0.0000000000000E+00 -0.4058233702744E-02
 0.4825303612868E-03 -0.5744843654595E-02  0.0000000000000E+00 -0.4039937209984E-02
 0.2989349839417E-03 -0.5411996169384E-02  0.0000000000000E+00 -0.4031317981696E-02
 0.1464091956505E-03 -0.5053979570270E-02  0.0000000000000E+00 -0.4044155307239E-02
 0.7719790666558E-04 -0.4701354617728E-02  0.0000000000000E+00 -0.4087336426275E-02
 0.1525140757506E-03 -0.4394151304415E-02  0.0000000000000E+00 -0.4167544968483E-02
 0.4366742222144E-03 -0.4178699783939E-02  0.0000000000000E+00 -0.4289425711530E-02
 0.9879401302859E-03 -0.4102171000824E-02  0.0000000000000E+00 -0.4450383273404E-02
 0.1844577647569E-02 -0.4202643778472E-02  0.0000000000000E+00 -0.4632615399740E-02
 0.3008211965841E-02 -0.4495275237164E-02  0.0000000000000E+00 -0.4797223716826E-02
 0.4430915278903E-02 -0.4960231593178E-02  0.0000000000000E+00 -0.4886183656845E-02
 0.6011714531473E-02 -0.5538555193321E-02  0.0000000000000E+00 -0.4835794980081E-02
 0.7608869951027E-02 -0.6140865413280E-02  0.0000000000000E+00 -0.4599999363825E-02
 0.9067947577571E-02 -0.6669175731386E-02  0.0000000000000E+00 -0.4173626497278E-02
 0.1196279003572E-03 -0.5847125793784E-02  0.0000000000000E+00 -0.2608599041741E-02
 0.3517548329271E-03 -0.5985100925608E-02  0.0000000000000E+00 -0.3132805448653E-02
 0.5544285440420E-03 -0.6093589360539E-02  0.0000000000000E+00 -0.3551788788556E-02
 0.7024585129894E-03 -0.6152923307280E-02  0.0000000000000E+00 -0.3852626998347E-02
 0.7800011380883E-03 -0.6150012037160E-02  0.0000000000000E+00 -0.4048445011317E-02
 0.7815876369686E-03 -0.6078515403622E-02  0.0000000000000E+00 -0.4165447993038E-02
 0.7112694648890E-03 -0.5937575269726E-02  0.0000000000000E+00 -0.4231705683487E-02
 0.5815815747011E-03 -0.5730679386805E-02  0.0000000000000E+00 -0.4270910885908E-02
 0.4134766066216E-03 -0.5465696594202E-02  0.0000000000000E+00 -0.4300380115180E-02
 0.2372440815352E-03 -0.5156117209387E-02  0.0000000000000E+00 -0.4331349385548E-02
 0.9369605921547E-04 -0.4822903712608E-02  0.0000000000000E+00 -0.4370214807636E-02
 0.3479799996803E-04 -0.4496425862735E-02  0.0000000000000E+00 -0.4419633612096E-02
 0.1216203402417E-03 -0.4216844915602E-02  0.0000000000000E+00 -0.4479502249115E-02
 0.4180888112433E-03 -0.4030881986749E-02  0.0000000000000E+00 -0.4548042145360E-02
 0.9811313630758E-03 -0.3985500996866E-02  0.0000000000000E+00 -0.4619906991557E-02
 0.1846333043867E-02 -0.4117412462208E-02  0.0000000000000E+00 -0.4682644479712E-02
 0.3011692839674E-02 -0.4439503750752E-02  0.0000000000000E+00 -0.4714090975720E-02
 0.4426124475077E-02 -0.4929860922500E-02  0.0000000000000E+00 -0.4683640682040E-02
 0.5987962342420E-02 -0.5529168360883E-02  0.0000000000000E+00 -0.4558954287823E-02
 0.7558672542077E-02 -0.6150574935210E-02  0.0000000000000E+00 -0.4317539918732E-02
 0.8990609662056E-02 -0.6701296180999E-02  0.0000000000000E+00 -0.3959245533477E-02
 0.1155062703830E-03 -0.5508462209634E-02  0.0000000000000E+00 -0.2522070196891E-02
 0.3352365027385E-03 -0.5641781841768E-02  0.0000000000000E+00 -0.3060446094002E-02
 0.5213928093806E-03 -0.5746628558971E-02  0.0000000000000E+00 -0.3507738703742E-02
 0.6539611074065E-03 -0.5806715171169E-02  0.0000000000000E+00 -0.3847672318479E-02
 0.7203507113704E-03 -0.5810647511666E-02  0.0000000000000E+00 -0.4089497126737E-02
 0.7161365413205E-03 -0.5752055164460E-02  0.0000000000000E+00 -0.4256139790591E-02
 0.6448769803398E-03 -0.5629011739458E-02  0.0000000000000E+00 -0.4373286201618E-02
 0.5179203549299E-03 -0.5443634584670E-02  0.0000000000000E+00 -0.4462519897191E-02
 0.3549140678259E-03 -0.5202554426436E-02  0.0000000000000E+00 -0.4538361174383E-02
 0.1850027625124E-03 -0.4918306651125E-02  0.0000000000000E+00 -0.4607835638800E-02
 0.4810224381707E-04 -0.4611077868380E-02  0.0000000000000E+00 -0.4671664196062E-02
-0.4455023907002E-05 -0.4310515691080E-02  0.0000000000000E+00 -0.4725972701481E-02
 0.8805717253058E-04 -0.4056439545385E-02  0.0000000000000E+00 -0.4763702743260E-02
 0.3893522594151E-03 -0.3895678351186E-02  0.0000000000000E+00 -0.4776818852666E-02
 0.9559465426771E-03 -0.3875239885458E-02  0.0000000000000E+00 -0.4757739291353E-02
 0.1822626833686E-02 -0.4031533493574E-02  0.0000000000000E+00 -0.4700035598414E-02
 0.2986332762098E-02 -0.4376927111130E-02  0.0000000000000E+00 -0.4598722832934E-02
 0.4395075802648E-02 -0.4889108702387E-02  0.0000000000000E+00 -0.4450342936075E-02
 0.5947027106627E-02 -0.5508894049317E-02  0.0000000000000E+00 -0.4252632539186E-02
 0.7504793061890E-02 -0.6150533550795E-02  0.0000000000000E+00 -0.4004601260930E-02
 0.8923413452227E-02 -0.6723509643802E-02  0.0000000000000E+00 -0.3708991722229E-02
 0.1126191686370E-03 -0.5171080158394E-02  0.0000000000000E+00 -0.2436737663598E-02
 0.3222798569785E-03 -0.5301281048829E-02  0.0000000000000E+00 -0.2988410252514E-02
 0.4938923701074E-03 -0.5403916290418E-02  0.0000000000000E+00 -0.3460621937982E-02
 0.6125381654536E-03 -0.5466103338474E-02  0.0000000000000E+00 -0.3834690601852E-02
 0.6689263103966E-03 -0.5478289465185E-02  0.0000000000000E+00 -0.4117287132974E-02
 0.6598095383604E-03 -0.5434277897284E-02  0.0000000000000E+00 -0.4329013969370E-02
 0.5883298864192E-03 -0.5331195820132E-02  0.0000000000000E+00 -0.4493574222631E-02
 0.4645620614231E-03 -0.5169728219807E-02  0.0000000000000E+00 -0.4630449788488E-02
 0.3065841530019E-03 -0.4955000028538E-02  0.0000000000000E+00 -0.4751213753347E-02
 0.1420123345379E-03 -0.4698153173974E-02  0.0000000000000E+00 -0.4858508574537E-02
 0.9457146086717E-05 -0.4418067924186E-02  0.0000000000000E+00 -0.4947186930640E-02
-0.4072484012196E-04 -0.4143149843102E-02  0.0000000000000E+00 -0.5006586838033E-02
 0.5166811340623E-04 -0.3912418628460E-02  0.0000000000000E+00 -0.5022476306013E-02
 0.3503477318846E-03 -0.3772550817517E-02  0.0000000000000E+00 -0.4980466677610E-02
 0.9123685272756E-03 -0.3770869622554E-02  0.0000000000000E+00 -0.4870678379376E-02
 0.1773602585205E-02 -0.3944551760880E-02  0.0000000000000E+00 -0.4692590618032E-02
 0.2932456083401E-02 -0.4307167881833E-02  0.0000000000000E+00 -0.4458254821855E-02
 0.4338210990280E-02 -0.4837634379046E-02  0.0000000000000E+00 -0.4191300120194E-02
 0.5889286223454E-02 -0.5477308549993E-02  0.0000000000000E+00 -0.3919545498299E-02
 0.7447233511524E-02 -0.6140020898968E-02  0.0000000000000E+00 -0.3663251266915E-02
 0.8865603262767E-02 -0.6734526106976E-02  0.0000000000000E+00 -0.3427169580412E-02
 0.1107541399862E-03 -0.4833760968529E-02  0.0000000000000E+00 -0.2351668014409E-02
 0.3122469925573E-03 -0.4962170101262E-02  0.0000000000000E+00 -0.2915739459954E-02
 0.4709626440455E-03 -0.5063933695857E-02  0.0000000000000E+00 -0.3409408830037E-02
 0.5771078962656E-03 -0.5129649148313E-02  0.0000000000000E+00 -0.3812495191099E-02
 0.6247215298848E-03 -0.5151701193303E-02  0.0000000000000E+00 -0.4130330060181E-02
 0.6117804240108E-03 -0.5124180260180E-02  0.0000000000000E+00 -0.4382160445815E-02
 0.5410075735676E-03 -0.5043325145808E-02  0.0000000000000E+00 -0.4590209259111E-02
 0.4210800008321E-03 -0.4908311872260E-02  0.0000000000000E+00 -0.4772017613199E-02
 0.2682385088494E-03 -0.4722510448274E-02  0.0000000000000E+00 -0.4936222248240E-02
 0.1081941534780E-03 -0.4495257230643E-02  0.0000000000000E+00 -0.5081053470496E-02
-0.2215326382421E-04 -0.4243613826681E-02  0.0000000000000E+00 -0.5195410967001E-02
-0.7376853203236E-04 -0.3994229843890E-02  0.0000000000000E+00 -0.5261640521271E-02
 0.1283342917080E-04 -0.3784859465256E-02  0.0000000000000E+00 -0.5258073060613E-02
 0.3015425002775E-03 -0.3661735740431E-02  0.0000000000000E+00 -0.5163618691656E-02
 0.8508522741415E-03 -0.3672710931259E-02  0.0000000000000E+00 -0.4965473855843E-02
 0.1699568977485E-02 -0.3856738524794E-02  0.0000000000000E+00 -0.4668121433851E-02
 0.2850130852250E-02 -0.4230311219510E-02  0.0000000000000E+00 -0.4299894170496E-02
 0.4255400575405E-02 -0.4775290582991E-02  0.0000000000000E+00 -0.3911625076589E-02
 0.5814580271303E-02 -0.5434088629728E-02  0.0000000000000E+00 -0.3562546728038E-02
 0.7385890456626E-02 -0.6118542103460E-02  0.0000000000000E+00 -0.3295837161058E-02
 0.8816954628041E-02 -0.6733479952282E-02  0.0000000000000E+00 -0.3118632197873E-02
 0.1096866906915E-03 -0.4495234729625E-02  0.0000000000000E+00 -0.2266069342731E-02
 0.3044690307755E-03 -0.4622951321305E-02  0.0000000000000E+00 -0.2841559815795E-02
 0.4515925482895E-03 -0.4725069756300E-02  0.0000000000000E+00 -0.3353039096803E-02
 0.5465203017811E-03 -0.4795788609571E-02  0.0000000000000E+00 -0.3779767034298E-02
 0.5866365122286E-03 -0.4829482418567E-02  0.0000000000000E+00 -0.4126968911428E-02
 0.5711132761320E-03 -0.4820565256056E-02  0.0000000000000E+00 -0.4413512364021E-02
 0.5021859436259E-03 -0.4764395844362E-02  0.0000000000000E+00 -0.4660706161114E-02
 0.3869813523337E-03 -0.4658560662818E-02  0.0000000000000E+00 -0.4884431085218E-02
 0.2396343784302E-03 -0.4504451569777E-02  0.0000000000000E+00 -0.5090546591446E-02
 0.8358073526241E-04 -0.4309218934141E-02  0.0000000000000E+00 -0.5272989245695E-02
-0.4639684612721E-04 -0.4087613887129E-02  0.0000000000000E+00 -0.5414742112735E-02
-0.1029448700289E-03 -0.3864017910364E-02  0.0000000000000E+00 -0.5491024863469E-02
-0.2753049856952E-04 -0.3674425062182E-02  0.0000000000000E+00 -0.5472452475142E-02
 0.2440019648522E-03 -0.3564251367788E-02  0.0000000000000E+00 -0.5330677770782E-02
 0.7723568867792E-03 -0.3581953490076E-02  0.0000000000000E+00 -0.5048818441188E-02
 0.1601040557771E-02 -0.3769140540122E-02  0.0000000000000E+00 -0.4634643921296E-02
 0.2739193406815E-02 -0.4146951024459E-02  0.0000000000000E+00 -0.4131272817456E-02
 0.4145935027984E-02 -0.4702141877173E-02  0.0000000000000E+00 -0.3616871548176E-02
 0.5722197878824E-02 -0.5379013882720E-02  0.0000000000000E+00 -0.3184764830562E-02
 0.7320579331259E-02 -0.6085849284755E-02  0.0000000000000E+00 -0.2904936773245E-02
 0.8777832401111E-02 -0.6719970312593E-02  0.0000000000000E+00 -0.2788722255186E-02
 0.1091732671964E-03 -0.4154159947161E-02  0.0000000000000E+00 -0.2179304058104E-02
 0.2982271993684E-03 -0.4282034381706E-02  0.0000000000000E+00 -0.2765094541901E-02
 0.4347034374181E-03 -0.4385604585546E-02  0.0000000000000E+00 -0.3290438999792E-02
 0.5195452435736E-03 -0.4462829885222E-02  0.0000000000000E+00 -0.3735079410335E-02
 0.5534770796026E-03 -0.4510078698330E-02  0.0000000000000E+00 -0.4105402389313E-02
 0.5367664189147E-03 -0.4522054542950E-02  0.0000000000000E+00 -0.4420866355108E-02
 0.4710385290337E-03 -0.4493208750702E-02  0.0000000000000E+00 -0.4702456243771E-02
 0.3617008767298E-03 -0.4419468301849E-02  0.0000000000000E+00 -0.4964760196259E-02
 0.2205201695816E-03 -0.4300061096065E-02  0.0000000000000E+00 -0.5211155297957E-02
 0.6829518102644E-04 -0.4139610965811E-02  0.0000000000000E+00 -0.5431555148589E-02
-0.6271783203608E-04 -0.3950091847724E-02  0.0000000000000E+00 -0.5603200223945E-02
-0.1272313592920E-03 -0.3753105663922E-02  0.0000000000000E+00 -0.5694149047587E-02
-0.6797021610083E-04 -0.3582347692450E-02  0.0000000000000E+00 -0.5667057424076E-02
 0.1794239598851E-03 -0.3481915038923E-02  0.0000000000000E+00 -0.5485635478864E-02
 0.6784200963740E-03 -0.3500721953346E-02  0.0000000000000E+00 -0.5127304190504E-02
 0.1478831983565E-02 -0.3683688422412E-02  0.0000000000000E+00 -0.4600552273660E-02
 0.2599305611016E-02 -0.4058296356809E-02  0.0000000000000E+00 -0.3960827364331E-02
 0.4008492211567E-02 -0.4618507412666E-02  0.0000000000000E+00 -0.3313437017705E-02
 0.5610795443477E-02 -0.5311949047141E-02  0.0000000000000E+00 -0.2789767855131E-02
 0.7251019842020E-02 -0.6041945318671E-02  0.0000000000000E+00 -0.2493278066208E-02
 0.8749233434167E-02 -0.6694091228582E-02  0.0000000000000E+00 -0.2443205745375E-02
 0.1089439046956E-03 -0.3809103485455E-02  0.0000000000000E+00 -0.2090905477286E-02
 0.2927336891378E-03 -0.3937713688827E-02  0.0000000000000E+00 -0.2685673874067E-02
 0.4191289882717E-03 -0.4043694795183E-02  0.0000000000000E+00 -0.3220527733046E-02
 0.4948620855244E-03 -0.4128953253247E-02  0.0000000000000E+00 -0.3676910984361E-02
 0.5239543015024E-03 -0.4191791899330E-02  0.0000000000000E+00 -0.4063707409612E-02
 0.5075944324893E-03 -0.4227099180253E-02  0.0000000000000E+00 -0.4401905980899E-02
 0.4466329293328E-03 -0.4228370958075E-02  0.0000000000000E+00 -0.4712737727449E-02
 0.3445872709986E-03 -0.4189834111462E-02  0.0000000000000E+00 -0.5009920880625E-02
 0.2106110851053E-03 -0.4108419846421E-02  0.0000000000000E+00 -0.5294770554071E-02
 0.6251834571680E-04 -0.3985936075781E-02  0.0000000000000E+00 -0.5553607392006E-02
-0.7037278835603E-04 -0.3831145573725E-02  0.0000000000000E+00 -0.5758260367296E-02
-0.1452526669585E-03 -0.3662364116875E-02  0.0000000000000E+00 -0.5869726185947E-02
-0.1064968490526E-03 -0.3510399538383E-02  0.0000000000000E+00 -0.5842563375790E-02
 0.1101893007610E-03 -0.3417364403226E-02  0.0000000000000E+00 -0.5631841059305E-02
 0.5712752044394E-03 -0.3432174967218E-02  0.0000000000000E+00 -0.5207314658023E-02
 0.1334215420100E-02 -0.3603369768680E-02  0.0000000000000E+00 -0.4574750260044E-02
 0.2430064274720E-02 -0.3966358657071E-02  0.0000000000000E+00 -0.3798215436288E-02
 0.3841087914301E-02 -0.4525047695380E-02  0.0000000000000E+00 -0.3009098250654E-02
 0.5478224779340E-02 -0.5232791496783E-02  0.0000000000000E+00 -0.2381817956746E-02
 0.7176772979811E-02 -0.5987044983593E-02  0.0000000000000E+00 -0.2063596486045E-02
 0.8732811584582E-02 -0.6656442793435E-02  0.0000000000000E+00 -0.2088193765701E-02
 0.1086936432804E-03 -0.3458518787427E-02  0.0000000000000E+00 -0.2000598429032E-02
 0.2871104530719E-03 -0.3588144728730E-02  0.0000000000000E+00 -0.2602740947050E-02
 0.4035952145724E-03 -0.3697360829296E-02  0.0000000000000E+00 -0.3142211224504E-02
 0.4710518609833E-03 -0.3792215267066E-02  0.0000000000000E+00 -0.3603647080737E-02
 0.4966863033918E-03 -0.3872794072214E-02  0.0000000000000E+00 -0.3999858170991E-02
 0.4823498369804E-03 -0.3933990759310E-02  0.0000000000000E+00 -0.4354231093285E-02
 0.4279235855344E-03 -0.3968293977548E-02  0.0000000000000E+00 -0.4688738668365E-02
 0.3348825810737E-03 -0.3968242665959E-02  0.0000000000000E+00 -0.5016674320277E-02
 0.2095547285646E-03 -0.3928411487085E-02  0.0000000000000E+00 -0.5337829329374E-02
 0.6644311325160E-04 -0.3847568738246E-02  0.0000000000000E+00 -0.5635529792350E-02
-0.6848171629324E-04 -0.3730875962469E-02  0.0000000000000E+00 -0.5876702284301E-02
-0.1553241513652E-03 -0.3592871388177E-02  0.0000000000000E+00 -0.6015553945062E-02
-0.1405969164351E-03 -0.3460843504750E-02  0.0000000000000E+00 -0.5998595957488E-02
 0.3942146067312E-04 -0.3374072729189E-02  0.0000000000000E+00 -0.5771699399982E-02
 0.4540095535721E-03 -0.3380631702646E-02  0.0000000000000E+00 -0.5294818633397E-02
 0.1169152432316E-02 -0.3532472141490E-02  0.0000000000000E+00 -0.4566704662920E-02
 0.2231196829882E-02 -0.3874246550303E-02  0.0000000000000E+00 -0.3654749722706E-02
 0.3641037356783E-02 -0.4422951009807E-02  0.0000000000000E+00 -0.2713766035058E-02
 0.5321221024999E-02 -0.5141368753893E-02  0.0000000000000E+00 -0.1966361026955E-02
 0.7097085899645E-02 -0.5921423140617E-02  0.0000000000000E+00 -0.1618387521791E-02
 0.8730908342070E-02 -0.6608073890208E-02  0.0000000000000E+00 -0.1729955517246E-02
 0.1080714685784E-03 -0.3100719778989E-02  0.0000000000000E+00 -0.1908324494299E-02
 0.2803637009543E-03 -0.3231317227559E-02  0.0000000000000E+00 -0.2515851037150E-02
 0.3866999813865E-03 -0.3344476506281E-02  0.0000000000000E+00 -0.3054359507586E-02
 0.4465934483249E-03 -0.3450559368533E-02  0.0000000000000E+00 -0.3513568032275E-02
 0.4702044963580E-03 -0.3551147304879E-02  0.0000000000000E+00 -0.3911743648731E-02
 0.4596862465843E-03 -0.3640874888322E-02  0.0000000000000E+00 -0.4275396339907E-02
 0.4137420349718E-03 -0.3711189810671E-02  0.0000000000000E+00 -0.4627596080565E-02
 0.3316952114270E-03 -0.3753036765708E-02  0.0000000000000E+00 -0.4981646032937E-02
 0.2168866954506E-03 -0.3758670826123E-02  0.0000000000000E+00 -0.5336465075107E-02
 0.8021513407638E-04 -0.3723680463805E-02  0.0000000000000E+00 -0.5673163265583E-02
-0.5609613095918E-04 -0.3649294486009E-02  0.0000000000000E+00 -0.5954472909754E-02
-0.1555151832508E-03 -0.3545814091186E-02  0.0000000000000E+00 -0.6128293754387E-02
-0.1672608013177E-03 -0.3436354973139E-02  0.0000000000000E+00 -0.6133414116925E-02
-0.2895729769506E-04 -0.3356344279487E-02  0.0000000000000E+00 -0.5906282038758E-02
 0.3307617436627E-03 -0.3351711478210E-02  0.0000000000000E+00 -0.5395016407574E-02
 0.9866117144859E-03 -0.3476907975269E-02  0.0000000000000E+00 -0.4586381724858E-02
 0.2002878570806E-02 -0.3786578043207E-02  0.0000000000000E+00 -0.3543790512966E-02
 0.3405023019331E-02 -0.4314329311752E-02  0.0000000000000E+00 -0.2440476803867E-02
 0.5134874092535E-02 -0.5037363267449E-02  0.0000000000000E+00 -0.1551160705568E-02
 0.7010524495226E-02 -0.5844890476266E-02  0.0000000000000E+00 -0.1159507413851E-02
 0.8746548896154E-02 -0.6550237602065E-02  0.0000000000000E+00 -0.1374346672655E-02
 0.1066649053554E-03 -0.2733846733946E-02  0.0000000000000E+00 -0.1814272863860E-02
 0.2713511093815E-03 -0.2865022705859E-02  0.0000000000000E+00 -0.2424659384641E-02
 0.3668917398172E-03 -0.2982761896281E-02  0.0000000000000E+00 -0.2955761236026E-02
 0.4198661224086E-03 -0.3101836477830E-02  0.0000000000000E+00 -0.3404822620442E-02
 0.4429669751338E-03 -0.3224832925437E-02  0.0000000000000E+00 -0.3797185904541E-02
 0.4381650089638E-03 -0.3345769455600E-02  0.0000000000000E+00 -0.4162962651191E-02
 0.4027859704147E-03 -0.3455066811982E-02  0.0000000000000E+00 -0.4526455391498E-02
 0.3339672666735E-03 -0.3542285097242E-02  0.0000000000000E+00 -0.4901369415809E-02
 0.2319762740909E-03 -0.3597521309931E-02  0.0000000000000E+00 -0.5286515144272E-02
 0.1038594965460E-03 -0.3613148637189E-02  0.0000000000000E+00 -0.5661759533211E-02
-0.3228600440297E-04 -0.3586208219453E-02  0.0000000000000E+00 -0.5986567932074E-02
-0.1437366778576E-03 -0.3522358634453E-02  0.0000000000000E+00 -0.6203254907541E-02
-0.1830405892999E-03 -0.3439904627480E-02  0.0000000000000E+00 -0.6243564609370E-02
-0.9018706962008E-04 -0.3369269117860E-02  0.0000000000000E+00 -0.6034834411386E-02
 0.2069341833188E-03 -0.3352466746907E-02  0.0000000000000E+00 -0.5511805074708E-02
 0.7910190226078E-03 -0.3444609293859E-02  0.0000000000000E+00 -0.4643926946586E-02
 0.1746145516420E-02 -0.3710095706473E-02  0.0000000000000E+00 -0.3481209433065E-02
 0.3129458017555E-02 -0.4202706308126E-02  0.0000000000000E+00 -0.2206155003523E-02
 0.4912046213707E-02 -0.4921016719549E-02  0.0000000000000E+00 -0.1148894497988E-02
 0.6913637883665E-02 -0.5755140587784E-02  0.0000000000000E+00 -0.6886843159016E-03
 0.8783906304755E-02 -0.6482975769082E-02  0.0000000000000E+00 -0.1023599868871E-02
 0.1039774148552E-03 -0.2355817958919E-02  0.0000000000000E+00 -0.1718917381764E-02
 0.2587377057671E-03 -0.2486814013900E-02  0.0000000000000E+00 -0.2328888946789E-02
 0.3424478678964E-03 -0.2609781299171E-02  0.0000000000000E+00 -0.2845045454785E-02
 0.3891621664889E-03 -0.2743840638550E-02  0.0000000000000E+00 -0.3275383703192E-02
 0.4133824729624E-03 -0.2891793474750E-02  0.0000000000000E+00 -0.3653962754602E-02
 0.4162673983298E-03 -0.3046589679457E-02  0.0000000000000E+00 -0.4014565884509E-02
 0.3936085956810E-03 -0.3197727087906E-02  0.0000000000000E+00 -0.4382554491161E-02
 0.3404371902278E-03 -0.3333745962320E-02  0.0000000000000E+00 -0.4772359000987E-02
 0.2539625326957E-03 -0.3442902206561E-02  0.0000000000000E+00 -0.5183559973634E-02
 0.1371928353225E-03 -0.3514448489100E-02  0.0000000000000E+00 -0.5595965367059E-02
 0.3753123378802E-05 -0.3541081288004E-02  0.0000000000000E+00 -0.5966939432150E-02
-0.1178575827140E-03 -0.3523489614441E-02  0.0000000000000E+00 -0.6234194367192E-02
-0.1841465027385E-03 -0.3474592671712E-02  0.0000000000000E+00 -0.6323519390601E-02
-0.1386805281233E-03 -0.3418612987293E-02  0.0000000000000E+00 -0.6154189419613E-02
 0.8942177154950E-04 -0.3391468422447E-02  0.0000000000000E+00 -0.5646981598313E-02
 0.5887536491302E-03 -0.3445987048276E-02  0.0000000000000E+00 -0.4749074659609E-02
 0.1463777605285E-02 -0.3654483182919E-02  0.0000000000000E+00 -0.3485401789008E-02
 0.2810312203508E-02 -0.4093919820031E-02  0.0000000000000E+00 -0.2033611541782E-02
 0.4644966473708E-02 -0.4793457838065E-02  0.0000000000000E+00 -0.7761693310062E-03
 0.6796800588797E-02 -0.5651529962648E-02  0.0000000000000E+00 -0.2218210734955E-03
 0.8843962562851E-02 -0.6385354098779E-02  0.0000000000000E+00 -0.6573304340262E-03
 0.9946466938798E-04 -0.1964204106564E-02  0.0000000000000E+00 -0.1622896664331E-02
 0.2409313727306E-03 -0.2093650302886E-02  0.0000000000000E+00 -0.2228094595205E-02
 0.3114192348465E-03 -0.2222464886986E-02  0.0000000000000E+00 -0.2720279683473E-02
 0.3526497779762E-03 -0.2373712850652E-02  0.0000000000000E+00 -0.3122595837052E-02
 0.3797677612765E-03 -0.2549211734725E-02  0.0000000000000E+00 -0.3479317408650E-02
 0.3923412975799E-03 -0.2740329166558E-02  0.0000000000000E+00 -0.3827350792237E-02
 0.3845723355819E-03 -0.2935904904862E-02  0.0000000000000E+00 -0.4192559891394E-02
 0.3496262302126E-03 -0.3124031985709E-02  0.0000000000000E+00 -0.4590353210933E-02
 0.2817972747844E-03 -0.3291640244599E-02  0.0000000000000E+00 -0.5022102301199E-02
 0.1799326232921E-03 -0.3425118957563E-02  0.0000000000000E+00 -0.5469000807890E-02
 0.5285823684960E-04 -0.3512772049576E-02  0.0000000000000E+00 -0.5887762427937E-02
-0.7554889040517E-04 -0.3550066466831E-02  0.0000000000000E+00 -0.6212764836041E-02
-0.1663805944131E-03 -0.3544032117008E-02  0.0000000000000E+00 -0.6365368874710E-02
-0.1681346361910E-03 -0.3511504567403E-02  0.0000000000000E+00 -0.6258686855497E-02
-0.1376567344802E-04 -0.3479794369746E-02  0.0000000000000E+00 -0.5800348850595E-02
 0.3875936636849E-03 -0.3495252785337E-02  0.0000000000000E+00 -0.4911514862704E-02
 0.1158810014190E-02 -0.3633807493811E-02  0.0000000000000E+00 -0.3578713163992E-02
 0.2441950909269E-02 -0.3997033181125E-02  0.0000000000000E+00 -0.1952362940209E-02
 0.4318166602885E-02 -0.4656899360206E-02  0.0000000000000E+00 -0.4588411410238E-03
 0.6655205337517E-02 -0.5534055083990E-02  0.0000000000000E+00  0.2408965242510E-03
 0.8936180461024E-02 -0.6264921429777E-02  0.0000000000000E+00 -0.4473363782116E-03
 0.9220448241922E-04 -0.1556226128365E-02  0.0000000000000E+00 -0.1527727170501E-02
 0.2159572787015E-03 -0.1682385056347E-02  0.0000000000000E+00 -0.2122028639727E-02
 0.2716322048809E-03 -0.1818071744852E-02  0.0000000000000E+00 -0.2579428153775E-02
 0.3085153138266E-03 -0.1989294519969E-02  0.0000000000000E+00 -0.2943919130652E-02
 0.3405298991304E-03 -0.2195099680701E-02  0.0000000000000E+00 -0.3271007761406E-02
 0.3647526947727E-03 -0.2424759523618E-02  0.0000000000000E+00 -0.3599236507574E-02
 0.3739135924370E-03 -0.2666950928213E-02  0.0000000000000E+00 -0.3953957586063E-02
 0.3597628298294E-03 -0.2910124318625E-02  0.0000000000000E+00 -0.4351717385931E-02
 0.3139940413326E-03 -0.3140629461461E-02  0.0000000000000E+00 -0.4796816418374E-02
 0.2312768904116E-03 -0.3342465841072E-02  0.0000000000000E+00 -0.5273553792058E-02
 0.1153714506360E-03 -0.3499664884298E-02  0.0000000000000E+00 -0.5739771063630E-02
-0.1478970951188E-04 -0.3602351480345E-02  0.0000000000000E+00 -0.6128098563601E-02
-0.1254049055794E-03 -0.3651314390550E-02  0.0000000000000E+00 -0.6357469430419E-02
-0.1712246109803E-03 -0.3655015145006E-02  0.0000000000000E+00 -0.6337711936115E-02
-0.9199527894227E-04 -0.3629708872917E-02  0.0000000000000E+00 -0.5966103245620E-02
 0.2000438901302E-03 -0.3610126666986E-02  0.0000000000000E+00 -0.5137018749253E-02
 0.8405830096718E-03 -0.3668253275244E-02  0.0000000000000E+00 -0.3785755816875E-02
 0.2021394346822E-02 -0.3927426696154E-02  0.0000000000000E+00 -0.2004128366143E-02
 0.3918435975948E-02 -0.4517900140754E-02  0.0000000000000E+00 -0.2337772435060E-03
 0.6465659689135E-02 -0.5404453075799E-02  0.0000000000000E+00  0.6615301602753E-03
 0.9164111428545E-02 -0.6201778541102E-02  0.0000000000000E+00 -0.2892913224315E-03
 0.8119904303244E-04 -0.1128620285043E-02  0.0000000000000E+00 -0.1434986184771E-02
 0.1814174524106E-03 -0.1249684596987E-02  0.0000000000000E+00 -0.2009971059106E-02
 0.2207977839790E-03 -0.1394292054525E-02  0.0000000000000E+00 -0.2419600634980E-02
 0.2551201578581E-03 -0.1589286059414E-02  0.0000000000000E+00 -0.2736530637300E-02
 0.2942777847456E-03 -0.1828401578347E-02  0.0000000000000E+00 -0.3027243655083E-02
 0.3319182307352E-03 -0.2098475066233E-02  0.0000000000000E+00 -0.3329116415299E-02
 0.3596915503859E-03 -0.2388828684052E-02  0.0000000000000E+00 -0.3665536899044E-02
 0.3686243799663E-03 -0.2689294824887E-02  0.0000000000000E+00 -0.4054239203694E-02
 0.3483400882073E-03 -0.2986644811188E-02  0.0000000000000E+00 -0.4503617398649E-02
 0.2894838306886E-03 -0.3263249600418E-02  0.0000000000000E+00 -0.5003026220428E-02
 0.1906042289542E-03 -0.3499222829746E-02  0.0000000000000E+00 -0.5513537344745E-02
 0.6551818067141E-04 -0.3679407606239E-02  0.0000000000000E+00 -0.5967935602003E-02
-0.5738225104363E-04 -0.3798228710201E-02  0.0000000000000E+00 -0.6285159717838E-02
-0.1401538037290E-03 -0.3855185533057E-02  0.0000000000000E+00 -0.6375488992864E-02
-0.1321488977948E-03 -0.3853652992391E-02  0.0000000000000E+00 -0.6130757689308E-02
 0.4478377191092E-04 -0.3811611535987E-02  0.0000000000000E+00 -0.5422726515001E-02
 0.5281479074659E-03 -0.3786028242964E-02  0.0000000000000E+00 -0.4127967773896E-02
 0.1555912827338E-02 -0.3911304068144E-02  0.0000000000000E+00 -0.2241192808807E-02
 0.3427401690493E-02 -0.4388556529627E-02  0.0000000000000E+00 -0.1609228597967E-03
 0.6229520127727E-02 -0.5279779380322E-02  0.0000000000000E+00  0.1016739047752E-02
 0.9420233713181E-02 -0.6183350486775E-02  0.0000000000000E+00 -0.1010259458399E-03
 0.6497415896688E-04 -0.6772183594156E-03  0.0000000000000E+00 -0.1346946517010E-02
 0.1342262634568E-03 -0.7913269743624E-03  0.0000000000000E+00 -0.1890328089259E-02
 0.1564323453702E-03 -0.9485021597531E-03  0.0000000000000E+00 -0.2236561260149E-02
 0.1910166819251E-03 -0.1172241263045E-02  0.0000000000000E+00 -0.2496984339687E-02
 0.2397782583442E-03 -0.1447653663278E-02  0.0000000000000E+00 -0.2746230537758E-02
 0.2922586521146E-03 -0.1759373570706E-02  0.0000000000000E+00 -0.3016088228784E-02
 0.3398163411982E-03 -0.2098570440513E-02  0.0000000000000E+00 -0.3326355232357E-02
 0.3736753063393E-03 -0.2457640391968E-02  0.0000000000000E+00 -0.3695913823462E-02
 0.3821607030572E-03 -0.2825062251048E-02  0.0000000000000E+00 -0.4138330295672E-02
 0.3522564321256E-03 -0.3182724831779E-02  0.0000000000000E+00 -0.4650204089819E-02
 0.2772742498636E-03 -0.3507475110166E-02  0.0000000000000E+00 -0.5198361158826E-02
 0.1658714652525E-03 -0.3779088963604E-02  0.0000000000000E+00 -0.5718001575087E-02
 0.4092876543085E-04 -0.3985651714489E-02  0.0000000000000E+00 -0.6130866056382E-02
-0.6766492747765E-04 -0.4117478413741E-02  0.0000000000000E+00 -0.6351968107472E-02
-0.1210435748180E-03 -0.4164201870184E-02  0.0000000000000E+00 -0.6274065690516E-02
-0.5706452670087E-04 -0.4123369746758E-02  0.0000000000000E+00 -0.5755979135008E-02
 0.2476978479907E-03 -0.4023884250770E-02  0.0000000000000E+00 -0.4619841047698E-02
 0.1058778543983E-02 -0.3988395680097E-02  0.0000000000000E+00 -0.2724901790755E-02
 0.2826451972283E-02 -0.4290877913976E-02  0.0000000000000E+00 -0.3284008772923E-03
 0.5897853873215E-02 -0.5164216881239E-02  0.0000000000000E+00  0.1295216706555E-02
 0.9729466605716E-02 -0.6196427094338E-02  0.0000000000000E+00  0.6585433683380E-04
 0.4135889348977E-04 -0.1965028504212E-03  0.0000000000000E+00 -0.1266574604729E-02
 0.7036186993310E-04 -0.3023475154309E-03  0.0000000000000E+00 -0.1759767950189E-02
 0.7607863816529E-04 -0.4785767204762E-03  0.0000000000000E+00 -0.2024150757176E-02
 0.1152471787119E-03 -0.7374646912934E-03  0.0000000000000E+00 -0.2221496261326E-02
 0.1761171312223E-03 -0.1051787254944E-02  0.0000000000000E+00 -0.2426698471167E-02
 0.2442941588013E-03 -0.1405499680439E-02  0.0000000000000E+00 -0.2660009295093E-02
 0.3121012166445E-03 -0.1793150586814E-02  0.0000000000000E+00 -0.2936445410848E-02
 0.3720062163502E-03 -0.2210852008096E-02  0.0000000000000E+00 -0.3275833647775E-02
 0.4120898350098E-03 -0.2650383434579E-02  0.0000000000000E+00 -0.3697614321617E-02
 0.4163568802714E-03 -0.3094852375597E-02  0.0000000000000E+00 -0.4207991060105E-02
 0.3730347355092E-03 -0.3518935215730E-02  0.0000000000000E+00 -0.4782640072575E-02
 0.2857095254138E-03 -0.3897704560721E-02  0.0000000000000E+00 -0.5361952911923E-02
 0.1718335566695E-03 -0.4212958947016E-02  0.0000000000000E+00 -0.5873616635973E-02
 0.5280110594943E-04 -0.4445899095855E-02  0.0000000000000E+00 -0.6241889560484E-02
-0.4553487676043E-04 -0.4572678470034E-02  0.0000000000000E+00 -0.6367161354093E-02
-0.8121998252905E-04 -0.4569856084823E-02  0.0000000000000E+00 -0.6109096453542E-02
 0.3701661401295E-04 -0.4427814571890E-02  0.0000000000000E+00 -0.5257819233801E-02
 0.5627438736804E-03 -0.4220866870823E-02  0.0000000000000E+00 -0.3521587041926E-02
 0.2095741729104E-02 -0.4267444180427E-02  0.0000000000000E+00 -0.8655419906477E-03
 0.5400203963142E-02 -0.5052126101280E-02  0.0000000000000E+00  0.1413075308584E-02
 0.1010992805128E-01 -0.6251462194606E-02  0.0000000000000E+00  0.1761454501520E-03
 0.6978496165322E-05  0.3213322573937E-03  0.0000000000000E+00 -0.1197567115986E-02
-0.1549660812092E-04  0.2230194805319E-03  0.0000000000000E+00 -0.1611386392320E-02
-0.2225869725251E-04  0.1633289165317E-04  0.0000000000000E+00 -0.1773507552619E-02
 0.2768711680201E-04 -0.2853657046015E-03  0.0000000000000E+00 -0.1906423551294E-02
 0.1027516415086E-03 -0.6401323895950E-03  0.0000000000000E+00 -0.2068230469476E-02
 0.1866866148247E-03 -0.1035105147015E-02  0.0000000000000E+00 -0.2261590859696E-02
 0.2743449086278E-03 -0.1469613518563E-02  0.0000000000000E+00 -0.2497028586485E-02
 0.3603664501027E-03 -0.1944304732750E-02  0.0000000000000E+00 -0.2794632158866E-02
 0.4339742675311E-03 -0.2456158662049E-02  0.0000000000000E+00 -0.3179533538043E-02
 0.4773790697272E-03 -0.2992017161290E-02  0.0000000000000E+00 -0.3669858902549E-02
 0.4741798925816E-03 -0.3526227712930E-02  0.0000000000000E+00 -0.4254055809425E-02
 0.4231119675679E-03 -0.4029669199523E-02  0.0000000000000E+00 -0.4881384925601E-02
 0.3363544955059E-03 -0.4477653913709E-02  0.0000000000000E+00 -0.5489065153283E-02
 0.2265892633309E-03 -0.4842411791449E-02  0.0000000000000E+00 -0.6014844735451E-02
 0.1063128737220E-03 -0.5087943525617E-02  0.0000000000000E+00 -0.6372738086288E-02
-0.3082004476906E-05 -0.5172984590647E-02  0.0000000000000E+00 -0.6436649139589E-02
-0.5438183232612E-04 -0.5049208360106E-02  0.0000000000000E+00 -0.6005026054923E-02
 0.1326877006899E-03 -0.4702210043598E-02  0.0000000000000E+00 -0.4678922067628E-02
 0.1234594832875E-02 -0.4403509880291E-02  0.0000000000000E+00 -0.1970272615554E-02
 0.4627938428686E-02 -0.4953331352241E-02  0.0000000000000E+00  0.1180113818126E-02
 0.1057190414566E-01 -0.6372805209198E-02  0.0000000000000E+00  0.1775201570908E-03
-0.4371595345229E-04  0.8883278454243E-03  0.0000000000000E+00 -0.1143999398575E-02
-0.1303536871486E-03  0.7909088249316E-03  0.0000000000000E+00 -0.1430853261617E-02
-0.1390908612475E-03  0.5341891450809E-03  0.0000000000000E+00 -0.1472593976860E-02
-0.7057815427974E-04  0.1823528957578E-03  0.0000000000000E+00 -0.1549558293845E-02
 0.1942577839570E-04 -0.2122519546827E-03  0.0000000000000E+00 -0.1671528182428E-02
 0.1182876237994E-03 -0.6467410757855E-03  0.0000000000000E+00 -0.1822358503554E-02
 0.2244718076511E-03 -0.1125255698213E-02  0.0000000000000E+00 -0.2010686501723E-02
 0.3352715117417E-03 -0.1653260585495E-02  0.0000000000000E+00 -0.2255000804897E-02
 0.4428039129992E-03 -0.2234971127596E-02  0.0000000000000E+00 -0.2584390673937E-02
 0.5294600279667E-03 -0.2864656970784E-02  0.0000000000000E+00 -0.3030525985438E-02
 0.5752682095194E-03 -0.3519597669769E-02  0.0000000000000E+00 -0.3599787505762E-02
 0.5744765785771E-03 -0.4167130767869E-02  0.0000000000000E+00 -0.4255760958513E-02
 0.5339279875684E-03 -0.4775081523096E-02  0.0000000000000E+00 -0.4949586023311E-02
 0.4573067399952E-03 -0.5306396784775E-02  0.0000000000000E+00 -0.5635660315977E-02
 0.3443274468877E-03 -0.5715387695975E-02  0.0000000000000E+00 -0.6245767781844E-02
 0.1981347077845E-03 -0.5948618977986E-02  0.0000000000000E+00 -0.6677598667096E-02
 0.2720646469939E-04 -0.5933743154357E-02  0.0000000000000E+00 -0.6775714383554E-02
-0.1186123123747E-03 -0.5558231167934E-02  0.0000000000000E+00 -0.6173116812233E-02
 0.3073632640431E-03 -0.4877126139136E-02  0.0000000000000E+00 -0.3903925349991E-02
 0.3418797432207E-02 -0.4930438561173E-02  0.0000000000000E+00  0.1924938596427E-03
 0.1109382188744E-01 -0.6615016188935E-02  0.0000000000000E+00 -0.7407142300153E-04
-0.1203551400502E-03  0.1525350747160E-02  0.0000000000000E+00 -0.1108119167306E-02
-0.2828612264659E-03  0.1405183467534E-02  0.0000000000000E+00 -0.1187929788815E-02
-0.2711655730936E-03  0.1067010643567E-02  0.0000000000000E+00 -0.1108065842276E-02
-0.1772433665469E-03  0.6635358486475E-03  0.0000000000000E+00 -0.1152701404668E-02
-0.7414600053746E-04  0.2322693212347E-03  0.0000000000000E+00 -0.1238018362967E-02
 0.3825735673012E-04 -0.2394225684765E-03  0.0000000000000E+00 -0.1344577821290E-02
 0.1607153842653E-03 -0.7578118349897E-03  0.0000000000000E+00 -0.1481410561486E-02
 0.2932484398585E-03 -0.1333277325149E-02  0.0000000000000E+00 -0.1662184067890E-02
 0.4327275696318E-03 -0.1978585465229E-02  0.0000000000000E+00 -0.1915986756238E-02
 0.5648763613272E-03 -0.2700737729551E-02  0.0000000000000E+00 -0.2287077534153E-02
 0.6686073836601E-03 -0.3486168968127E-02  0.0000000000000E+00 -0.2806651115636E-02
 0.7341529312121E-03 -0.4299630816748E-02  0.0000000000000E+00 -0.3462193202360E-02
 0.7622526679517E-03 -0.5098205452621E-02  0.0000000000000E+00 -0.4224215739671E-02
 0.7463155020600E-03 -0.5834425470522E-02  0.0000000000000E+00 -0.5065459453694E-02
 0.6754567253749E-03 -0.6455702019699E-02  0.0000000000000E+00 -0.5934172476078E-02
 0.5373873706402E-03 -0.6905344847131E-02  0.0000000000000E+00 -0.6760923368105E-02
 0.3193693914185E-03 -0.7104823140507E-02  0.0000000000000E+00 -0.7441759627273E-02
-0.3292024323728E-04 -0.6915235247377E-02  0.0000000000000E+00 -0.7810466619493E-02
-0.4524846960919E-03 -0.6034367218837E-02  0.0000000000000E+00 -0.6877145436825E-02
 0.1575886478682E-02 -0.5231219358863E-02  0.0000000000000E+00 -0.2388592297505E-02
 0.1154982935941E-01 -0.7112524921182E-02  0.0000000000000E+00 -0.1070069774833E-02
-0.2402038418514E-03  0.2275357367733E-02  0.0000000000000E+00 -0.1078584587432E-02
-0.4806569870731E-03  0.2053902895584E-02  0.0000000000000E+00 -0.8173768373132E-03
-0.4068979269304E-03  0.1598012013669E-02  0.0000000000000E+00 -0.6780767106724E-03
-0.2906907559396E-03  0.1159426555786E-02  0.0000000000000E+00 -0.7233812608116E-03
-0.1784495641733E-03  0.6927699538062E-03  0.0000000000000E+00 -0.7679071223443E-03
-0.5369688752972E-04  0.1876093498539E-03  0.0000000000000E+00 -0.8319050148837E-03
 0.8172682020888E-04 -0.3657067379906E-03  0.0000000000000E+00 -0.9141004933408E-03
 0.2313529426489E-03 -0.9808598080490E-03  0.0000000000000E+00 -0.1024274742199E-02
 0.3972965595134E-03 -0.1678574245048E-02  0.0000000000000E+00 -0.1183491240031E-02
 0.5734534844821E-03 -0.2484967289688E-02  0.0000000000000E+00 -0.1441082649711E-02
 0.7433718070653E-03 -0.3408599443025E-02  0.0000000000000E+00 -0.1861013713739E-02
 0.8942410782053E-03 -0.4413918707932E-02  0.0000000000000E+00 -0.2474482343583E-02
 0.1016920043801E-02 -0.5437690648106E-02  0.0000000000000E+00 -0.3279263617763E-02
 0.1093362917178E-02 -0.6419810029837E-02  0.0000000000000E+00 -0.4261225479955E-02
 0.1100991834065E-02 -0.7305255423413E-02  0.0000000000000E+00 -0.5384597867964E-02
 0.1027539249585E-02 -0.8040919660484E-02  0.0000000000000E+00 -0.6600762297412E-02
 0.8258970901748E-03 -0.8564840951659E-02  0.0000000000000E+00 -0.7883846090253E-02
 0.5009078057508E-03 -0.8798770915147E-02  0.0000000000000E+00 -0.9171232745670E-02
-0.4590246936559E-03 -0.8393139905164E-02  0.0000000000000E+00 -0.1055268014827E-01
-0.8835368140652E-03 -0.6745592588551E-02  0.0000000000000E+00 -0.8125307239144E-02
 0.1142755762827E-01 -0.8303606034019E-02  0.0000000000000E+00 -0.4689287886622E-02
-0.4304061966049E-03  0.3256625970984E-02  0.0000000000000E+00 -0.9558893207486E-03
-0.7135644583635E-03  0.2626688817006E-02  0.0000000000000E+00 -0.1847335423434E-03
-0.5217519500303E-03  0.2136953070835E-02  0.0000000000000E+00 -0.2508564826214E-03
-0.4178729326395E-03  0.1667408601693E-02  0.0000000000000E+00 -0.2504087139165E-03
-0.2909771756717E-03  0.1169003706117E-02  0.0000000000000E+00 -0.2670553679280E-03
-0.1583625186670E-03  0.6346038437400E-03  0.0000000000000E+00 -0.2874239565580E-03
-0.1302611609479E-04  0.5191737721978E-04  0.0000000000000E+00 -0.3145946250965E-03
 0.1478484288248E-03 -0.5941624662870E-03  0.0000000000000E+00 -0.3512519421097E-03
 0.3304613025291E-03 -0.1328300249247E-02  0.0000000000000E+00 -0.4039603440041E-03
 0.5416282484170E-03 -0.2197748947821E-02  0.0000000000000E+00 -0.5034106858275E-03
 0.7838840295565E-03 -0.3261966456441E-02  0.0000000000000E+00 -0.7479589999631E-03
 0.1044521151866E-02 -0.4494437100928E-02  0.0000000000000E+00 -0.1260343387349E-02
 0.1292126162908E-02 -0.5782819662005E-02  0.0000000000000E+00 -0.2079602255607E-02
 0.1494135809151E-02 -0.7051222414143E-02  0.0000000000000E+00 -0.3177639860401E-02
 0.1624455720768E-02 -0.8257493918739E-02  0.0000000000000E+00 -0.4537443882671E-02
 0.1654777683512E-02 -0.9343182871279E-02  0.0000000000000E+00 -0.6129192479345E-02
 0.1588294998833E-02 -0.1028915669275E-01  0.0000000000000E+00 -0.7930577731765E-02
 0.1296510150104E-02 -0.1112774930929E-01  0.0000000000000E+00 -0.1002777645940E-01
 0.1117022666959E-02 -0.1204713532143E-01  0.0000000000000E+00 -0.1291690480181E-01
-0.2335378550415E-02 -0.1206783146291E-01  0.0000000000000E+00 -0.1797131417443E-01
 0.9473485634267E-02 -0.1306117886957E-01  0.0000000000000E+00 -0.2025672191802E-01
 0.1179004125664E+00 -0.1628147566550E+00  0.0000000000000E+00 -0.6285935674239E+00
 0.1493959782365E+00 -0.1920259806593E+00  0.0000000000000E+00 -0.5176226574644E+00
 0.1765414210073E+00 -0.2163679292836E+00  0.0000000000000E+00 -0.4436080583227E+00
 0.1947926265324E+00 -0.2319368033395E+00  0.0000000000000E+00 -0.4009710314309E+00
 0.2030238595201E+00 -0.2376734754697E+00  0.0000000000000E+00 -0.3825480647148E+00
 0.2009396985921E+00 -0.2334700160711E+00  0.0000000000000E+00 -0.3816597893294E+00
 0.1896501105266E+00 -0.2204441363979E+00  0.0000000000000E+00 -0.3940808686496E+00
 0.1713971588749E+00 -0.2005680700839E+00  0.0000000000000E+00 -0.4142669620545E+00
 0.1470342175466E+00 -0.1743960149140E+00  0.0000000000000E+00 -0.4293261557447E+00
 0.1130284487863E+00 -0.1411513104508E+00  0.0000000000000E+00 -0.4249414773376E+00
 0.1103162906262E+00 -0.1578939966168E+00  0.0000000000000E+00 -0.6117879647363E+00
 0.1493865263966E+00 -0.1939739830519E+00  0.0000000000000E+00 -0.5045360774217E+00
 0.1823745904226E+00 -0.2240714920486E+00  0.0000000000000E+00 -0.4384929316485E+00
 0.2055754297939E+00 -0.2445169531740E+00  0.0000000000000E+00 -0.4038183343678E+00
 0.2177687038216E+00 -0.2542810854061E+00  0.0000000000000E+00 -0.3928038526364E+00
 0.2187542237597E+00 -0.2532353075463E+00  0.0000000000000E+00 -0.3989976680192E+00
 0.2095325003468E+00 -0.2423648480321E+00  0.0000000000000E+00 -0.4182537973802E+00
 0.1919202184988E+00 -0.2233062385560E+00  0.0000000000000E+00 -0.4440921364913E+00
 0.1648034202517E+00 -0.1952809399129E+00  0.0000000000000E+00 -0.4639613383507E+00
 0.1283794638533E+00 -0.1569651060632E+00  0.0000000000000E+00 -0.4767296030401E+00
 0.1032956482813E+00 -0.1533732438870E+00  0.0000000000000E+00 -0.5919911389711E+00
 0.1506991561606E+00 -0.1973737561586E+00  0.0000000000000E+00 -0.4894195378102E+00
 0.1896822198188E+00 -0.2331960287884E+00  0.0000000000000E+00 -0.4307319286168E+00
 0.2176070434315E+00 -0.2583086148888E+00  0.0000000000000E+00 -0.4038802495623E+00
 0.2336411477360E+00 -0.2719435786820E+00  0.0000000000000E+00 -0.4003204912488E+00
 0.2377571407375E+00 -0.2741306609853E+00  0.0000000000000E+00 -0.4138636907955E+00
 0.2308248242085E+00 -0.2657054529283E+00  0.0000000000000E+00 -0.4402011643972E+00
 0.2138134826846E+00 -0.2475849772047E+00  0.0000000000000E+00 -0.4731170856619E+00
 0.1861973415585E+00 -0.2188504741256E+00  0.0000000000000E+00 -0.5042054887411E+00
 0.1496202539877E+00 -0.1806413083618E+00  0.0000000000000E+00 -0.5296014598184E+00
 0.9688026473410E-01 -0.1494508303125E+00  0.0000000000000E+00 -0.5684682311166E+00
 0.1530427583273E+00 -0.2017550070662E+00  0.0000000000000E+00 -0.4718438163358E+00
 0.1981017989658E+00 -0.2433991532723E+00  0.0000000000000E+00 -0.4206215120497E+00
 0.2306567317582E+00 -0.2730425450394E+00  0.0000000000000E+00 -0.4013075968957E+00
 0.2504929179310E+00 -0.2905088133086E+00  0.0000000000000E+00 -0.4050133313406E+00
 0.2578702321298E+00 -0.2960718475622E+00  0.0000000000000E+00 -0.4257661161191E+00
 0.2535126148102E+00 -0.2904309594146E+00  0.0000000000000E+00 -0.4594579981094E+00
 0.2381261623970E+00 -0.2741226472238E+00  0.0000000000000E+00 -0.5010443063964E+00
 0.2115491893191E+00 -0.2467111085096E+00  0.0000000000000E+00 -0.5433168917424E+00
 0.1752310564210E+00 -0.2091927723312E+00  0.0000000000000E+00 -0.5800153579441E+00
 0.9109785802896E-01 -0.1461081995512E+00  0.0000000000000E+00 -0.5411039917942E+00
 0.1562197648127E+00 -0.2069003881354E+00  0.0000000000000E+00 -0.4517645581699E+00
 0.2073262741123E+00 -0.2543241545422E+00  0.0000000000000E+00 -0.4082169458260E+00
 0.2444366628727E+00 -0.2884178665838E+00  0.0000000000000E+00 -0.3961533467127E+00
 0.2680924811882E+00 -0.3097267091483E+00  0.0000000000000E+00 -0.4066834522488E+00
 0.2789203987646E+00 -0.3188699871456E+00  0.0000000000000E+00 -0.4342405216632E+00
 0.2776759268443E+00 -0.3165461257850E+00  0.0000000000000E+00 -0.4752298633010E+00
 0.2649308625392E+00 -0.3031795916598E+00  0.0000000000000E+00 -0.5254356259836E+00
 0.2405161807424E+00 -0.2783587610719E+00  0.0000000000000E+00 -0.5784371878316E+00
 0.2052318381935E+00 -0.2424968588561E+00  0.0000000000000E+00 -0.6267208246301E+00
 0.8597363630074E-01 -0.1433267718146E+00  0.0000000000000E+00 -0.5098612696144E+00
 0.1600284371696E+00 -0.2125719865559E+00  0.0000000000000E+00 -0.4292230869434E+00
 0.2170557144846E+00 -0.2656449833742E+00  0.0000000000000E+00 -0.3935615479581E+00
 0.2586259552403E+00 -0.3040894244584E+00  0.0000000000000E+00 -0.3883763713941E+00
 0.2861333999417E+00 -0.3292733605549E+00  0.0000000000000E+00 -0.4050963246788E+00
 0.3006583451019E+00 -0.3422458566215E+00  0.0000000000000E+00 -0.4387393280738E+00
 0.3030912567455E+00 -0.3438371404918E+00  0.0000000000000E+00 -0.4862927151294E+00
 0.2939166753140E+00 -0.3344083058487E+00  0.0000000000000E+00 -0.5443270135699E+00
 0.2728008300284E+00 -0.3134324713913E+00  0.0000000000000E+00 -0.6072931209168E+00
 0.2397773699677E+00 -0.2806047072178E+00  0.0000000000000E+00 -0.6674096252458E+00
 0.8153745981251E-01 -0.1410884726398E+00  0.0000000000000E+00 -0.4747993553047E+00
 0.1642648551330E+00 -0.2185327579159E+00  0.0000000000000E+00 -0.4042947749289E+00
 0.2269807369629E+00 -0.2770262263558E+00  0.0000000000000E+00 -0.3766941264295E+00
 0.2728722688175E+00 -0.3196839594379E+00  0.0000000000000E+00 -0.3779153813877E+00
 0.3042469870709E+00 -0.3487585084709E+00  0.0000000000000E+00 -0.4000003078805E+00
 0.3226953795304E+00 -0.3657945098394E+00  0.0000000000000E+00 -0.4386631977027E+00
 0.3293126954300E+00 -0.3718315614207E+00  0.0000000000000E+00 -0.4915340859654E+00
 0.3245577047208E+00 -0.3672384342322E+00  0.0000000000000E+00 -0.5560102468577E+00
 0.3079218358104E+00 -0.3513687047726E+00  0.0000000000000E+00 -0.6275814896953E+00
 0.2787317174581E+00 -0.3232893082002E+00  0.0000000000000E+00 -0.6989289551602E+00
 0.7782145660412E-01 -0.1393786375525E+00  0.0000000000000E+00 -0.4360641902125E+00
 0.1687246123820E+00 -0.2245461746925E+00  0.0000000000000E+00 -0.3770820241297E+00
 0.2367837743128E+00 -0.2881265916404E+00  0.0000000000000E+00 -0.3576612197955E+00
 0.2867967975645E+00 -0.3348024460454E+00  0.0000000000000E+00 -0.3647212090539E+00
 0.3220012756562E+00 -0.3677315919567E+00  0.0000000000000E+00 -0.3911728653276E+00
 0.3445268110258E+00 -0.3889889599066E+00  0.0000000000000E+00 -0.4335092761560E+00
 0.3557276632251E+00 -0.3998843765107E+00  0.0000000000000E+00 -0.4900437102050E+00
 0.3561131914164E+00 -0.4008742191357E+00  0.0000000000000E+00 -0.5590289573911E+00
 0.3450720094109E+00 -0.3912759232315E+00  0.0000000000000E+00 -0.6370590033670E+00
 0.3213792127614E+00 -0.3697199598686E+00  0.0000000000000E+00 -0.7176709806267E+00
 0.7485738602259E-01 -0.1381846579567E+00  0.0000000000000E+00 -0.3938871498927E+00
 0.1732071879806E+00 -0.2303818020099E+00  0.0000000000000E+00 -0.3477158230088E+00
 0.2461458295603E+00 -0.2986052258523E+00  0.0000000000000E+00 -0.3365300850245E+00
 0.3000025452690E+00 -0.3490297076551E+00  0.0000000000000E+00 -0.3487848063984E+00
 0.3389174842805E+00 -0.3856952316087E+00  0.0000000000000E+00 -0.3784797021041E+00
 0.3655632703677E+00 -0.4112161047984E+00  0.0000000000000E+00 -0.4229425578677E+00
 0.3815933741741E+00 -0.4272168921739E+00  0.0000000000000E+00 -0.4811803132246E+00
 0.3876368620313E+00 -0.4343145244803E+00  0.0000000000000E+00 -0.5522792844725E+00
 0.3830577237533E+00 -0.4318755127072E+00  0.0000000000000E+00 -0.6338393257664E+00
 0.3662237591328E+00 -0.4182706666092E+00  0.0000000000000E+00 -0.7201855656617E+00
 0.7267415992463E-01 -0.1374948263199E+00  0.0000000000000E+00 -0.3485815229524E+00
 0.1775218040167E+00 -0.2358217408477E+00  0.0000000000000E+00 -0.3163595952728E+00
 0.2547562045781E+00 -0.3081319347582E+00  0.0000000000000E+00 -0.3134012960217E+00
 0.3120887823281E+00 -0.3619485350657E+00  0.0000000000000E+00 -0.3301636144179E+00
 0.3544926252912E+00 -0.4021287513385E+00  0.0000000000000E+00 -0.3619139495941E+00
 0.3851633118764E+00 -0.4318105839899E+00  0.0000000000000E+00 -0.4068435648087E+00
 0.4060764650213E+00 -0.4529599169447E+00  0.0000000000000E+00 -0.4646311082161E+00
 0.4180256964110E+00 -0.4664020353486E+00  0.0000000000000E+00 -0.5351387547842E+00
 0.4203746016285E+00 -0.4715826244650E+00  0.0000000000000E+00 -0.6168116839942E+00
 0.4111554656242E+00 -0.4666800413858E+00  0.0000000000000E+00 -0.7045341730180E+00
 0.7129604244173E-01 -0.1372976381550E+00  0.0000000000000E+00 -0.3005367224263E+00
 0.1814943656681E+00 -0.2406681908612E+00  0.0000000000000E+00 -0.2832126506242E+00
 0.2623245656106E+00 -0.3163994624586E+00  0.0000000000000E+00 -0.2884197333860E+00
 0.3226687655522E+00 -0.3731577398494E+00  0.0000000000000E+00 -0.3090000037443E+00
 0.3682249369302E+00 -0.4165142409930E+00  0.0000000000000E+00 -0.3416214384257E+00
 0.4026682815893E+00 -0.4500911515638E+00  0.0000000000000E+00 -0.3853403048935E+00
 0.4283016084909E+00 -0.4762033606874E+00  0.0000000000000E+00 -0.4404594773980E+00
 0.4461020229553E+00 -0.4959051300054E+00  0.0000000000000E+00 -0.5075588861479E+00
 0.4554138279499E+00 -0.5087018843874E+00  0.0000000000000E+00 -0.5858461079496E+00
 0.4539424486882E+00 -0.5125669514852E+00  0.0000000000000E+00 -0.6707067757910E+00
 0.7074158236155E-01 -0.1375817267043E+00  0.0000000000000E+00 -0.2502096541883E+00
 0.1849750214576E+00 -0.2447515010063E+00  0.0000000000000E+00 -0.2485123071699E+00
 0.2685940231224E+00 -0.3231368524360E+00  0.0000000000000E+00 -0.2617817499127E+00
 0.3313888190202E+00 -0.3822915700456E+00  0.0000000000000E+00 -0.2855315590186E+00
 0.3796407486191E+00 -0.4283641490446E+00  0.0000000000000E+00 -0.3179135935336E+00
 0.4174396916445E+00 -0.4653990840775E+00  0.0000000000000E+00 -0.3588254548687E+00
 0.4474059594914E+00 -0.4960518465055E+00  0.0000000000000E+00 -0.4091291344582E+00
 0.4707058480012E+00 -0.5216102298576E+00  0.0000000000000E+00 -0.4700867411683E+00
 0.4866365025633E+00 -0.5416055053768E+00  0.0000000000000E+00 -0.5416803894758E+00
 0.4925578912024E+00 -0.5537696686304E+00  0.0000000000000E+00 -0.6198387699881E+00
 0.7102328993632E-01 -0.1383363860319E+00  0.0000000000000E+00 -0.1981131615547E+00
 0.1878456315967E+00 -0.2479380392069E+00  0.0000000000000E+00 -0.2125339634661E+00
 0.2733539969540E+00 -0.3281225372137E+00  0.0000000000000E+00 -0.2337377723466E+00
 0.3379473542495E+00 -0.3890390567195E+00  0.0000000000000E+00 -0.2600929385634E+00
 0.3883216463849E+00 -0.4372490792273E+00  0.0000000000000E+00 -0.2912680308425E+00
 0.4288974212072E+00 -0.4771374587689E+00  0.0000000000000E+00 -0.3279559563007E+00
 0.4625936917575E+00 -0.5116809011171E+00  0.0000000000000E+00 -0.3714981748165E+00
 0.4907726192628E+00 -0.5424033411167E+00  0.0000000000000E+00 -0.4238245343022E+00
 0.5126648006088E+00 -0.5688349840823E+00  0.0000000000000E+00 -0.4857724758793E+00
 0.5252622071091E+00 -0.5884301415546E+00  0.0000000000000E+00 -0.5539334544708E+00
 0.7214799689226E-01 -0.1395525874517E+00  0.0000000000000E+00 -0.1448017357774E+00
 0.1900263780033E+00 -0.2501370838256E+00  0.0000000000000E+00 -0.1755890332037E+00
 0.2764516768384E+00 -0.3311959251164E+00  0.0000000000000E+00 -0.2045901156985E+00
 0.3421124990386E+00 -0.3931618722169E+00  0.0000000000000E+00 -0.2331090491218E+00
 0.3939304585599E+00 -0.4428243641451E+00  0.0000000000000E+00 -0.2623160896305E+00
 0.4365561789058E+00 -0.4848088202830E+00  0.0000000000000E+00 -0.2936335833418E+00
 0.4731846624539E+00 -0.5223879488068E+00  0.0000000000000E+00 -0.3287831765045E+00
 0.5053907069885E+00 -0.5573325417695E+00  0.0000000000000E+00 -0.3703538363612E+00
 0.5323349533452E+00 -0.5891597020486E+00  0.0000000000000E+00 -0.4201583225851E+00
 0.5506327929060E+00 -0.6150268221555E+00  0.0000000000000E+00 -0.4756009260650E+00
 0.7411784985019E-01 -0.1412244353307E+00  0.0000000000000E+00 -0.9085500472157E-01
 0.1914807993830E+00 -0.2513059934831E+00  0.0000000000000E+00 -0.1380211473977E+00
 0.2778008723265E+00 -0.3322662426004E+00  0.0000000000000E+00 -0.1746862740316E+00
 0.3437368676781E+00 -0.3945091516366E+00  0.0000000000000E+00 -0.2050792821488E+00
 0.3962344494269E+00 -0.4448537685826E+00  0.0000000000000E+00 -0.2318167037776E+00
 0.4400580045625E+00 -0.4880490033187E+00  0.0000000000000E+00 -0.2569675864834E+00
 0.4786543604182E+00 -0.5276347850766E+00  0.0000000000000E+00 -0.2825026960784E+00
 0.5138439450164E+00 -0.5656540037830E+00  0.0000000000000E+00 -0.3116476903950E+00
 0.5447302750002E+00 -0.6016152156976E+00  0.0000000000000E+00 -0.3473326575842E+00
 0.5675596949584E+00 -0.6323752431934E+00  0.0000000000000E+00 -0.3879168236096E+00
 0.7693203998693E-01 -0.1433511273061E+00  0.0000000000000E+00 -0.3685966091500E-01
 0.1922187136052E+00 -0.2514532266170E+00  0.0000000000000E+00 -0.1002019073479E+00
 0.2773869397490E+00 -0.3313171535855E+00  0.0000000000000E+00 -0.1444087579532E+00
 0.3427677462046E+00 -0.3930275367672E+00  0.0000000000000E+00 -0.1765529227993E+00
 0.3951241003934E+00 -0.4432284716178E+00  0.0000000000000E+00 -0.2006161701638E+00
 0.4391999282109E+00 -0.4866560775856E+00  0.0000000000000E+00 -0.2192212618968E+00
 0.4786661806051E+00 -0.5270822198324E+00  0.0000000000000E+00 -0.2344097491224E+00
 0.5156422579762E+00 -0.5668651477029E+00  0.0000000000000E+00 -0.2499792825824E+00
 0.5492067908177E+00 -0.6055306642699E+00  0.0000000000000E+00 -0.2701316639292E+00
 0.5752444003952E+00 -0.6396354497413E+00  0.0000000000000E+00 -0.2943193294288E+00
 0.8058946726174E-01 -0.1459398822257E+00  0.0000000000000E+00  0.1660895587973E-01
 0.1922970020526E+00 -0.2506389526350E+00  0.0000000000000E+00 -0.6252786119005E-01
 0.2752663991620E+00 -0.3284063920521E+00  0.0000000000000E+00 -0.1141652577809E+00
 0.3392501641985E+00 -0.3887628388503E+00  0.0000000000000E+00 -0.1480962274616E+00
 0.3906259924234E+00 -0.4379803159438E+00  0.0000000000000E+00 -0.1695920794191E+00
 0.4339568920681E+00 -0.4806139584549E+00  0.0000000000000E+00 -0.1817434087662E+00
 0.4730991767325E+00 -0.5206198671403E+00  0.0000000000000E+00 -0.1864156424122E+00
 0.5105436329895E+00 -0.5607300354772E+00  0.0000000000000E+00 -0.1878402367562E+00
 0.5454001164386E+00 -0.6005353181681E+00  0.0000000000000E+00 -0.1916102249627E+00
 0.5731756262597E+00 -0.6362895311778E+00  0.0000000000000E+00 -0.1983782399360E+00
 0.8509324357696E-01 -0.1490088967948E+00  0.0000000000000E+00  0.6901020671383E-01
 0.1918195349680E+00 -0.2489766717270E+00  0.0000000000000E+00 -0.2541996691587E-01
 0.2715613182256E+00 -0.3236587671696E+00  0.0000000000000E+00 -0.8438538903821E-01
 0.3333177742714E+00 -0.3818510480675E+00  0.0000000000000E+00 -0.1202607356723E+00
 0.3829060593480E+00 -0.4292795220188E+00  0.0000000000000E+00 -0.1395693266068E+00
 0.4245044607028E+00 -0.4701208846991E+00  0.0000000000000E+00 -0.1458788940877E+00
 0.4620723562236E+00 -0.5083904125384E+00  0.0000000000000E+00 -0.1405178787711E+00
 0.4985765851218E+00 -0.5473011034569E+00  0.0000000000000E+00 -0.1278571240206E+00
 0.5332257734034E+00 -0.5865703930776E+00  0.0000000000000E+00 -0.1150140987151E+00
 0.5611233688612E+00 -0.6221082397387E+00  0.0000000000000E+00 -0.1038787964241E+00
 0.9045431771573E-01 -0.1525952335988E+00  0.0000000000000E+00  0.1198484444901E+00
 0.1909370805499E+00 -0.2466246052311E+00  0.0000000000000E+00  0.1068896937515E-01
 0.2664548269950E+00 -0.3172739074309E+00  0.0000000000000E+00 -0.5553385935106E-01
 0.3251678029858E+00 -0.3724834791288E+00  0.0000000000000E+00 -0.9358274929130E-01
 0.3722410627523E+00 -0.4174063928429E+00  0.0000000000000E+00 -0.1112166686593E+00
 0.4112496213132E+00 -0.4556015957960E+00  0.0000000000000E+00 -0.1127665367009E+00
 0.4459993515289E+00 -0.4908857732517E+00  0.0000000000000E+00 -0.9877570869759E-01
 0.4800267669684E+00 -0.5268800955873E+00  0.0000000000000E+00 -0.7279628136165E-01
 0.5129347706341E+00 -0.5639168942119E+00  0.0000000000000E+00 -0.4360724562396E-01
 0.5393382453907E+00 -0.5974206210161E+00  0.0000000000000E+00 -0.1533624941272E-01
 0.9671124116167E-01 -0.1567062246115E+00  0.0000000000000E+00  0.1688993808420E+00
 0.1898778420701E+00 -0.2438833520512E+00  0.0000000000000E+00  0.4541106737932E-01
 0.2601965807790E+00 -0.3094805867529E+00  0.0000000000000E+00 -0.2817123000056E-01
 0.3150245088594E+00 -0.3609150287615E+00  0.0000000000000E+00 -0.6862627534148E-01
 0.3589389413267E+00 -0.4026331850611E+00  0.0000000000000E+00 -0.8501734349599E-01
 0.3947790012388E+00 -0.4376562580545E+00  0.0000000000000E+00 -0.8298816291234E-01
 0.4258021869802E+00 -0.4690967309846E+00  0.0000000000000E+00 -0.6283758244399E-01
 0.4555211924830E+00 -0.5003532278084E+00  0.0000000000000E+00 -0.2631721111966E-01
 0.4848303625916E+00 -0.5326192460424E+00  0.0000000000000E+00  0.1932280301645E-01
 0.5098074546883E+00 -0.5641775324719E+00  0.0000000000000E+00  0.6241308789749E-01
 0.1949575395636E+00 -0.2997472270130E+00  0.0000000000000E+00 -0.3173300249463E+00
 0.7451975556032E-01 -0.7587837954268E-01  0.0000000000000E+00  0.7838736165693E-01
-0.1462640806955E-02  0.5686355139521E-02  0.0000000000000E+00  0.8740515492432E-02
-0.2164527182874E-01  0.2731441743695E-01  0.0000000000000E+00 -0.1791510017929E-01
-0.3251965740176E-01  0.3813390217825E-01  0.0000000000000E+00 -0.1129455836140E-01
-0.3463462761910E-01  0.3975481768775E-01  0.0000000000000E+00  0.1157763482824E-01
-0.2748489510859E-01  0.3244379853027E-01  0.0000000000000E+00  0.4509806252466E-01
-0.1190762483977E-01  0.1681760997907E-01  0.0000000000000E+00  0.7513196557024E-01
 0.6678326224109E-02 -0.1308439988829E-02  0.0000000000000E+00  0.9150173512137E-01
 0.2636418084075E-01 -0.2072169156624E-01  0.0000000000000E+00  0.1019452351152E+00
 0.2341974436242E+00 -0.2916728692693E+00  0.0000000000000E+00 -0.4884907076264E+00
 0.1576875537707E+00 -0.1851974143193E+00  0.0000000000000E+00 -0.9128717682599E-01
 0.6019518846726E-01 -0.6434122218753E-01  0.0000000000000E+00 -0.4733364545646E-02
 0.1577037213525E-01 -0.1518879472847E-01  0.0000000000000E+00 -0.6857574913033E-02
-0.6557826309892E-02  0.8469368624382E-02  0.0000000000000E+00 -0.4688107973414E-02
-0.1711509319532E-01  0.1944545486878E-01  0.0000000000000E+00  0.9769544268305E-02
-0.1723683050718E-01  0.1980642106249E-01  0.0000000000000E+00  0.3360249461925E-01
-0.8314736112615E-02  0.1105508122076E-01  0.0000000000000E+00  0.5605080193329E-01
 0.4103757566108E-02 -0.1174987191186E-02  0.0000000000000E+00  0.6733035915929E-01
 0.1666826951285E-01 -0.1317643870259E-01  0.0000000000000E+00  0.7390179727392E-01
 0.2211763349052E+00 -0.2660860337429E+00  0.0000000000000E+00 -0.5591787867155E+00
 0.1835159485320E+00 -0.2120835936363E+00  0.0000000000000E+00 -0.2402837751486E+00
 0.1101720526134E+00 -0.1244519377099E+00  0.0000000000000E+00 -0.9012545221213E-01
 0.5691196623445E-01 -0.6231168802741E-01  0.0000000000000E+00 -0.3736094714130E-01
 0.2406650283803E-01 -0.2645520043032E-01  0.0000000000000E+00 -0.2004828534241E-01
 0.5205824735206E-02 -0.6205285357120E-02  0.0000000000000E+00 -0.6101676616931E-02
-0.2700547735081E-02  0.2429311482663E-02  0.0000000000000E+00  0.1100067663260E-01
-0.1341190728627E-02  0.1452739597187E-02  0.0000000000000E+00  0.2630840377720E-01
 0.3900411263494E-02 -0.3539976598989E-02  0.0000000000000E+00  0.3288321326519E-01
 0.9266561007329E-02 -0.8444301403018E-02  0.0000000000000E+00  0.3459735599722E-01
 0.2036527285753E+00 -0.2431707669371E+00  0.0000000000000E+00 -0.5988192484665E+00
 0.1865265818912E+00 -0.2158665507663E+00  0.0000000000000E+00 -0.3428235529142E+00
 0.1371018910670E+00 -0.1563010454030E+00  0.0000000000000E+00 -0.1818792466835E+00
 0.9055883728018E-01 -0.1021486982938E+00  0.0000000000000E+00 -0.9860009107049E-01
 0.5480289135837E-01 -0.6193091532521E-01  0.0000000000000E+00 -0.5928479203228E-01
 0.3011939562966E-01 -0.3493871559351E-01  0.0000000000000E+00 -0.3827786292592E-01
 0.1532444735133E-01 -0.1889174900005E-01  0.0000000000000E+00 -0.2386903974218E-01
 0.9097935243271E-02 -0.1198433654535E-01  0.0000000000000E+00 -0.1456617703358E-01
 0.7108481445806E-02 -0.9650414785646E-02  0.0000000000000E+00 -0.1252291120393E-01
 0.5592825388172E-02 -0.7711163635246E-02  0.0000000000000E+00 -0.1480760274530E-01
 0.1865946442267E+00 -0.2240679479299E+00  0.0000000000000E+00 -0.6225424739184E+00
 0.1814116895024E+00 -0.2117128759689E+00  0.0000000000000E+00 -0.4138215596922E+00
 0.1506210175376E+00 -0.1733923137886E+00  0.0000000000000E+00 -0.2609459037055E+00
 0.1146269681755E+00 -0.1310724981325E+00  0.0000000000000E+00 -0.1672244786996E+00
 0.8189426483918E-01 -0.9383611107619E-01  0.0000000000000E+00 -0.1143393401349E+00
 0.5536303694438E-01 -0.6434119404406E-01  0.0000000000000E+00 -0.8501893328231E-01
 0.3581119050263E-01 -0.4305792648198E-01  0.0000000000000E+00 -0.7046104709692E-01
 0.2314057370076E-01 -0.2939217178469E-01  0.0000000000000E+00 -0.6571154247664E-01
 0.1468020193833E-01 -0.2042392838485E-01  0.0000000000000E+00 -0.6765595622844E-01
 0.6789214573331E-02 -0.1210312038748E-01  0.0000000000000E+00 -0.7296042062814E-01
 0.1713356864954E+00 -0.2084799374282E+00  0.0000000000000E+00 -0.6369754220102E+00
 0.1738253824991E+00 -0.2055342254088E+00  0.0000000000000E+00 -0.4624242648162E+00
 0.1572191930228E+00 -0.1830296076791E+00  0.0000000000000E+00 -0.3246980581033E+00
 0.1320398400939E+00 -0.1526304542154E+00  0.0000000000000E+00 -0.2323155275944E+00
 0.1050368575110E+00 -0.1214476056876E+00  0.0000000000000E+00 -0.1749015381615E+00
 0.7977395636615E-01 -0.9304606916418E-01  0.0000000000000E+00 -0.1410717959616E+00
 0.5804720536917E-01 -0.6924886756659E-01  0.0000000000000E+00 -0.1259780878485E+00
 0.4085854022993E-01 -0.5078081618554E-01  0.0000000000000E+00 -0.1245656502955E+00
 0.2737297942534E-01 -0.3657558002879E-01  0.0000000000000E+00 -0.1298432580842E+00
 0.1384878519598E-01 -0.2255581742151E-01  0.0000000000000E+00 -0.1374047715646E+00
 0.1579214660977E+00 -0.1957688897186E+00  0.0000000000000E+00 -0.6449927496072E+00
 0.1662915178340E+00 -0.1997825821086E+00  0.0000000000000E+00 -0.4947533328896E+00
 0.1608118490074E+00 -0.1895223968508E+00  0.0000000000000E+00 -0.3739029765330E+00
 0.1456948986035E+00 -0.1700369496285E+00  0.0000000000000E+00 -0.2893760727181E+00
 0.1255191515567E+00 -0.1461189093409E+00  0.0000000000000E+00 -0.2342979184740E+00
 0.1034932312140E+00 -0.1210287069091E+00  0.0000000000000E+00 -0.2006117426608E+00
 0.8179163413905E-01 -0.9709961883009E-01  0.0000000000000E+00 -0.1862390074196E+00
 0.6222116312058E-01 -0.7602738992990E-01  0.0000000000000E+00 -0.1872593531197E+00
 0.4555012206526E-01 -0.5837291913404E-01  0.0000000000000E+00 -0.1949552240102E+00
 0.2744536647556E-01 -0.3964086070834E-01  0.0000000000000E+00 -0.2045102404478E+00
 0.1461025505554E+00 -0.1853128261672E+00  0.0000000000000E+00 -0.6478560247632E+00
 0.1599035579420E+00 -0.1954782730694E+00  0.0000000000000E+00 -0.5147086796069E+00
 0.1636776442226E+00 -0.1952845249860E+00  0.0000000000000E+00 -0.4100391525884E+00
 0.1578039074195E+00 -0.1857078212008E+00  0.0000000000000E+00 -0.3365941305468E+00
 0.1448358082023E+00 -0.1694332701836E+00  0.0000000000000E+00 -0.2884592138510E+00
 0.1272373605837E+00 -0.1489675441415E+00  0.0000000000000E+00 -0.2589781588656E+00
 0.1070974022572E+00 -0.1265950468280E+00  0.0000000000000E+00 -0.2471383549053E+00
 0.8684473644245E-01 -0.1046280895370E+00  0.0000000000000E+00 -0.2496581587655E+00
 0.6876545555272E-01 -0.8524190624996E-01  0.0000000000000E+00 -0.2580340427403E+00
 0.4771982500758E-01 -0.6328741350218E-01  0.0000000000000E+00 -0.2694955131988E+00
 0.1355480762884E+00 -0.1765480901905E+00  0.0000000000000E+00 -0.6459665460518E+00
 0.1550363644140E+00 -0.1929270319438E+00  0.0000000000000E+00 -0.5247320124599E+00
 0.1670714570605E+00 -0.2016047095924E+00  0.0000000000000E+00 -0.4343711036565E+00
 0.1698815496954E+00 -0.2012620847917E+00  0.0000000000000E+00 -0.3731411125088E+00
 0.1642829151414E+00 -0.1927598895339E+00  0.0000000000000E+00 -0.3347793014166E+00
 0.1518282595767E+00 -0.1776904112409E+00  0.0000000000000E+00 -0.3126476148864E+00
 0.1342957162158E+00 -0.1579935857899E+00  0.0000000000000E+00 -0.3053799568092E+00
 0.1139670051664E+00 -0.1359390154568E+00  0.0000000000000E+00 -0.3095167691835E+00
 0.9515553936335E-01 -0.1150401238742E+00  0.0000000000000E+00 -0.3151774611156E+00
 0.7389204231537E-01 -0.9236804823051E-01  0.0000000000000E+00 -0.3265038585683E+00
 0.1259197591683E+00 -0.1690305181536E+00  0.0000000000000E+00 -0.6394140760464E+00
 0.1516048513528E+00 -0.1919126825013E+00  0.0000000000000E+00 -0.5262726162206E+00
 0.1715561073078E+00 -0.2090665824950E+00  0.0000000000000E+00 -0.4475496547447E+00
 0.1828888973819E+00 -0.2176834450504E+00  0.0000000000000E+00 -0.3983224942590E+00
 0.1848751593320E+00 -0.2171614983903E+00  0.0000000000000E+00 -0.3712252312483E+00
 0.1780389860422E+00 -0.2079837543715E+00  0.0000000000000E+00 -0.3588348020500E+00
 0.1637580443757E+00 -0.1916316095192E+00  0.0000000000000E+00 -0.3578888661852E+00
 0.1441817156334E+00 -0.1703037951634E+00  0.0000000000000E+00 -0.3652101578721E+00
 0.1222235567543E+00 -0.1465347966201E+00  0.0000000000000E+00 -0.3705758894809E+00
 0.1025866150919E+00 -0.1217024831090E+00  0.0000000000000E+00 -0.3723554608274E+00
 0.1060169265585E+00 -0.1626956593540E+00  0.0000000000000E+00  0.2133495097434E+00
 0.1913910863942E+00 -0.2422710050229E+00  0.0000000000000E+00  0.8128228144764E-01
 0.2543951031285E+00 -0.3008801993281E+00  0.0000000000000E+00  0.5211048356668E-02
 0.3031771936528E+00 -0.3464566133781E+00  0.0000000000000E+00 -0.3459610771895E-01
 0.3418415369943E+00 -0.3830920388202E+00  0.0000000000000E+00 -0.4814858934310E-01
 0.3734696606613E+00 -0.4138344375093E+00  0.0000000000000E+00 -0.4240603523155E-01
 0.4003591983197E+00 -0.4413455287201E+00  0.0000000000000E+00 -0.1783501971995E-01
 0.4259384790690E+00 -0.4691740333046E+00  0.0000000000000E+00  0.2200040535712E-01
 0.4533747880425E+00 -0.5001969390192E+00  0.0000000000000E+00  0.6610182217364E-01
 0.4872487912970E+00 -0.5357807777735E+00  0.0000000000000E+00  0.1093052374285E+00
 0.1151349415233E+00 -0.1695715415707E+00  0.0000000000000E+00  0.2577552650816E+00
 0.1929441519176E+00 -0.2408784037815E+00  0.0000000000000E+00  0.1156860762902E+00
 0.2474466169352E+00 -0.2905703522019E+00  0.0000000000000E+00  0.3540645704776E-01
 0.2880489751582E+00 -0.3277505363655E+00  0.0000000000000E+00 -0.3804314584742E-02
 0.3194073518037E+00 -0.3569403411285E+00  0.0000000000000E+00 -0.1230511536088E-01
 0.3447180983948E+00 -0.3813974689620E+00  0.0000000000000E+00  0.2269830661477E-02
 0.3661201358518E+00 -0.4036108685230E+00  0.0000000000000E+00  0.3867519094351E-01
 0.3885300673339E+00 -0.4285477051191E+00  0.0000000000000E+00  0.8734022209632E-01
 0.4191399660792E+00 -0.4626971762993E+00  0.0000000000000E+00  0.1340579126165E+00
 0.4545656010890E+00 -0.5042781454186E+00  0.0000000000000E+00  0.1791577281550E+00
 0.1240633181519E+00 -0.1758910144339E+00  0.0000000000000E+00  0.2960178307899E+00
 0.1927272274921E+00 -0.2375170639722E+00  0.0000000000000E+00  0.1414938219226E+00
 0.2371117855932E+00 -0.2766169896362E+00  0.0000000000000E+00  0.5608394915522E-01
 0.2677637432137E+00 -0.3035163897922E+00  0.0000000000000E+00  0.1752517172825E-01
 0.2900489973742E+00 -0.3234234668355E+00  0.0000000000000E+00  0.1421341173779E-01
 0.3073386014165E+00 -0.3397296834512E+00  0.0000000000000E+00  0.3719906524627E-01
 0.3220808235666E+00 -0.3553269612548E+00  0.0000000000000E+00  0.8403376334559E-01
 0.3409943098238E+00 -0.3769712764709E+00  0.0000000000000E+00  0.1425487823738E+00
 0.3719965260531E+00 -0.4127469778648E+00  0.0000000000000E+00  0.1979244299987E+00
 0.4111801459858E+00 -0.4596809830906E+00  0.0000000000000E+00  0.2429467180141E+00
 0.1331507380101E+00 -0.1823345978328E+00  0.0000000000000E+00  0.3280295876012E+00
 0.1910517103406E+00 -0.2325399593914E+00  0.0000000000000E+00  0.1582847666099E+00
 0.2233501193167E+00 -0.2590041671048E+00  0.0000000000000E+00  0.6636973722870E-01
 0.2424236335858E+00 -0.2738931733009E+00  0.0000000000000E+00  0.2820653229970E-01
 0.2543118481318E+00 -0.2830934464042E+00  0.0000000000000E+00  0.2968225679776E-01
 0.2624994030537E+00 -0.2900747129391E+00  0.0000000000000E+00  0.5988323068715E-01
 0.2697453649765E+00 -0.2980843591613E+00  0.0000000000000E+00  0.1148024734833E+00
 0.2836422347637E+00 -0.3149452484651E+00  0.0000000000000E+00  0.1815250769475E+00
 0.3134522363094E+00 -0.3503122244158E+00  0.0000000000000E+00  0.2442501534345E+00
 0.3581527574262E+00 -0.4043018689714E+00  0.0000000000000E+00  0.2913806280850E+00
 0.1426174613238E+00 -0.1893228225180E+00  0.0000000000000E+00  0.3531690550458E+00
 0.1880342860130E+00 -0.2261737142803E+00  0.0000000000000E+00  0.1643326270200E+00
 0.2060109009000E+00 -0.2375899375035E+00  0.0000000000000E+00  0.6511021321171E-01
 0.2121162513915E+00 -0.2389496750924E+00  0.0000000000000E+00  0.2762490028885E-01
 0.2129573767544E+00 -0.2367374910270E+00  0.0000000000000E+00  0.3354589582749E-01
 0.2118123073418E+00 -0.2341236661180E+00  0.0000000000000E+00  0.6898588165111E-01
 0.2114867745177E+00 -0.2343635444858E+00  0.0000000000000E+00  0.1274845374900E+00
 0.2198291988826E+00 -0.2456253166683E+00  0.0000000000000E+00  0.1973219062150E+00
 0.2470904793801E+00 -0.2789743166036E+00  0.0000000000000E+00  0.2655133780867E+00
 0.2968478287555E+00 -0.3394299018488E+00  0.0000000000000E+00  0.3185631832707E+00
 0.1526011554612E+00 -0.1972791797365E+00  0.0000000000000E+00  0.3703791501914E+00
 0.1833059956788E+00 -0.2181380689449E+00  0.0000000000000E+00  0.1569526657237E+00
 0.1843739578134E+00 -0.2116053030074E+00  0.0000000000000E+00  0.5114573544669E-01
 0.1766789477121E+00 -0.1984373442984E+00  0.0000000000000E+00  0.1636128625538E-01
 0.1669339544566E+00 -0.1853204288951E+00  0.0000000000000E+00  0.2711785141091E-01
 0.1575201459270E+00 -0.1742475964556E+00  0.0000000000000E+00  0.6507725210917E-01
 0.1509479965229E+00 -0.1679354994999E+00  0.0000000000000E+00  0.1206322555151E+00
 0.1543592554520E+00 -0.1739224125557E+00  0.0000000000000E+00  0.1863122048106E+00
 0.1775919761002E+00 -0.2033565729188E+00  0.0000000000000E+00  0.2565781723570E+00
 0.2297619729791E+00 -0.2674136735374E+00  0.0000000000000E+00  0.3178587965699E+00
 0.1630172183002E+00 -0.2066072679754E+00  0.0000000000000E+00  0.3776292070512E+00
 0.1755114755232E+00 -0.2071574251489E+00  0.0000000000000E+00  0.1321042342257E+00
 0.1566416033276E+00 -0.1790183855977E+00  0.0000000000000E+00  0.2408483977092E-01
 0.1355804241589E+00 -0.1516605627013E+00  0.0000000000000E+00 -0.2587637922056E-02
 0.1175149104863E+00 -0.1301491325681E+00  0.0000000000000E+00  0.1456527751140E-01
 0.1026252288422E+00 -0.1136771739464E+00  0.0000000000000E+00  0.5132100217451E-01
 0.9262629344771E-01 -0.1035442116348E+00  0.0000000000000E+00  0.9572074200020E-01
 0.9293726578963E-01 -0.1057492177026E+00  0.0000000000000E+00  0.1482864534182E+00
 0.1108902576795E+00 -0.1294287932591E+00  0.0000000000000E+00  0.2148218085390E+00
 0.1610764107923E+00 -0.1921934844322E+00  0.0000000000000E+00  0.2825359695077E+00
 0.1728574236383E+00 -0.2174370628808E+00  0.0000000000000E+00  0.3704372239739E+00
 0.1611248408791E+00 -0.1895438038748E+00  0.0000000000000E+00  0.8390763410987E-01
 0.1192560207659E+00 -0.1357442119617E+00  0.0000000000000E+00 -0.1379103831159E-01
 0.8827343037534E-01 -0.9769904294816E-01  0.0000000000000E+00 -0.2123654465192E-01
 0.6703676912101E-01 -0.7392815738656E-01  0.0000000000000E+00  0.3665543468194E-02
 0.5096245666644E-01 -0.5651051925561E-01  0.0000000000000E+00  0.3261634701106E-01
 0.4128891981431E-01 -0.4623505179686E-01  0.0000000000000E+00  0.5697433631991E-01
 0.4155578237014E-01 -0.4746660458810E-01  0.0000000000000E+00  0.8717967089693E-01
 0.5412519773722E-01 -0.6449001185502E-01  0.0000000000000E+00  0.1413630808644E+00
 0.9728085934277E-01 -0.1200132662841E+00  0.0000000000000E+00  0.2070344196205E+00
 0.1785329756689E+00 -0.2288330063499E+00  0.0000000000000E+00  0.3385994781689E+00
 0.1303419217890E+00 -0.1551728245392E+00  0.0000000000000E+00  0.2783161205638E-02
 0.6651563328285E-01 -0.7341702352372E-01  0.0000000000000E+00 -0.4842415477691E-01
 0.3765199355886E-01 -0.4061714009555E-01  0.0000000000000E+00 -0.2259638106423E-01
 0.1990948658419E-01 -0.2140664784453E-01  0.0000000000000E+00  0.1315269860770E-02
 0.6470271222063E-02 -0.6859394919392E-02  0.0000000000000E+00  0.1339069157590E-01
 0.9370307059994E-03 -0.3156206688022E-03  0.0000000000000E+00  0.1083868512196E-01
 0.5130266522647E-02 -0.4364593777250E-02  0.0000000000000E+00  0.1170989855664E-01
 0.1490990575029E-01 -0.1678951887347E-01  0.0000000000000E+00  0.4393735161240E-01
 0.4806698438470E-01 -0.6027222171782E-01  0.0000000000000E+00  0.8937641717579E-01
 0.1461287186011E+00 -0.2262679077385E+00  0.0000000000000E+00  0.2339826012915E+00
 0.5966321908985E-01 -0.6298072738922E-01  0.0000000000000E+00 -0.9147839405578E-01
 0.7780894788106E-02 -0.6513747712994E-02  0.0000000000000E+00 -0.3311038452028E-01
-0.7269048230749E-02  0.1000050214783E-01  0.0000000000000E+00  0.1024789835384E-02
-0.1953173871731E-01  0.2298154521526E-01  0.0000000000000E+00  0.7843058841946E-02
-0.2804110374134E-01  0.3222552187583E-01  0.0000000000000E+00 -0.3880780290628E-02
-0.2681142883333E-01  0.3264281246435E-01  0.0000000000000E+00 -0.3499174475884E-01
-0.1412152701037E-01  0.2054495543145E-01  0.0000000000000E+00 -0.6459592744153E-01
-0.1425043688143E-02  0.8132236838448E-02  0.0000000000000E+00 -0.6258369074389E-01
 0.2623529675318E-01 -0.2740347823468E-01  0.0000000000000E+00 -0.5777773798325E-01
 0.8469722693863E-01 -0.1073499701058E+00  0.0000000000000E+00 -0.4120342223290E+00
 0.6008681662247E-01 -0.7755757534989E-01  0.0000000000000E+00 -0.3566904459682E+00
 0.4037043544473E-01 -0.5439722886511E-01  0.0000000000000E+00 -0.2957291636716E+00
 0.2547343610733E-01 -0.3644455892147E-01  0.0000000000000E+00 -0.2312537308963E+00
 0.1562263164051E-01 -0.2367315078973E-01  0.0000000000000E+00 -0.1654051215402E+00
 0.1113068029834E-01 -0.1626448938809E-01  0.0000000000000E+00 -0.1008677452883E+00
 0.1196939200532E-01 -0.1416933286854E-01  0.0000000000000E+00 -0.4043086777548E-01
 0.1770826966063E-01 -0.1696865320835E-01  0.0000000000000E+00  0.1337785518145E-01
 0.2756612802568E-01 -0.2394247790696E-01  0.0000000000000E+00  0.5854591206960E-01
 0.4128330013917E-01 -0.3458791452874E-01  0.0000000000000E+00  0.9393485000580E-01
 0.1002506619940E+00 -0.1263698100628E+00  0.0000000000000E+00 -0.4705353017631E+00
 0.7479110312260E-01 -0.9672213226573E-01  0.0000000000000E+00 -0.4111496928250E+00
 0.4951956099478E-01 -0.6751231921621E-01  0.0000000000000E+00 -0.3480646546727E+00
 0.2852257831070E-01 -0.4290031949094E-01  0.0000000000000E+00 -0.2823633352048E+00
 0.1370840850605E-01 -0.2452948739186E-01  0.0000000000000E+00 -0.2141599714715E+00
 0.6043747117133E-02 -0.1329404437314E-01  0.0000000000000E+00 -0.1451420296061E+00
 0.5899480472240E-02 -0.9560155223314E-02  0.0000000000000E+00 -0.7803728849623E-01
 0.1299331633946E-01 -0.1309270456994E-01  0.0000000000000E+00 -0.1604938903402E-01
 0.2646279875436E-01 -0.2303748336371E-01  0.0000000000000E+00  0.3797485010811E-01
 0.4489074514760E-01 -0.3805863090309E-01  0.0000000000000E+00  0.8257926166790E-01
 0.1179408876769E+00 -0.1470817595167E+00  0.0000000000000E+00 -0.5271851409430E+00
 0.9025075626665E-01 -0.1160194890446E+00  0.0000000000000E+00 -0.4772927643551E+00
 0.6188872178253E-01 -0.8398542323004E-01  0.0000000000000E+00 -0.4169306755973E+00
 0.3623299255406E-01 -0.5452858153191E-01  0.0000000000000E+00 -0.3499380298167E+00
 0.1617827759470E-01 -0.3053632335615E-01  0.0000000000000E+00 -0.2774308631759E+00
 0.3790228720603E-02 -0.1403400548115E-01  0.0000000000000E+00 -0.2008820843993E+00
 0.4399745033004E-03 -0.6430921068143E-02  0.0000000000000E+00 -0.1231155349310E+00
 0.6673314546189E-02 -0.8368434254195E-02  0.0000000000000E+00 -0.4824708079575E-01
 0.2188740024596E-01 -0.1936762565320E-01  0.0000000000000E+00  0.1918220743561E-01
 0.4428637575129E-01 -0.3770056996484E-01  0.0000000000000E+00  0.7555802586172E-01
 0.1403980585831E+00 -0.1729402302419E+00  0.0000000000000E+00 -0.5851032883609E+00
 0.1094286464434E+00 -0.1391540631961E+00  0.0000000000000E+00 -0.5470849726573E+00
 0.7773804117574E-01 -0.1041909736967E+00  0.0000000000000E+00 -0.4945671484254E+00
 0.4765568712054E-01 -0.7043348047732E-01  0.0000000000000E+00 -0.4304322150237E+00
 0.2205911688493E-01 -0.4075546293977E-01  0.0000000000000E+00 -0.3559677910809E+00
 0.3745122614859E-02 -0.1793325907109E-01  0.0000000000000E+00 -0.2724360960152E+00
-0.4757998360121E-02 -0.4518573183616E-02  0.0000000000000E+00 -0.1824518298012E+00
-0.1483988662272E-02 -0.2618000157157E-02  0.0000000000000E+00 -0.9088389331111E-01
 0.1422650841062E-01 -0.1314023269534E-01  0.0000000000000E+00 -0.4960637425517E-02
 0.4080399194108E-01 -0.3470909617363E-01  0.0000000000000E+00  0.6765155554387E-01
 0.1686079925995E+00 -0.2049618486123E+00  0.0000000000000E+00 -0.6429174962842E+00
 0.1346968136751E+00 -0.1688197327558E+00  0.0000000000000E+00 -0.6180682834065E+00
 0.9954772752306E-01 -0.1309048677647E+00  0.0000000000000E+00 -0.5769937830147E+00
 0.6482662299027E-01 -0.9285312290094E-01  0.0000000000000E+00 -0.5205809782581E+00
 0.3310272160886E-01 -0.5716789264894E-01  0.0000000000000E+00 -0.4489562455810E+00
 0.7477763379514E-02 -0.2686642424780E-01  0.0000000000000E+00 -0.3622613535056E+00
-0.8530831001488E-02 -0.5403369408824E-02  0.0000000000000E+00 -0.2618680842004E+00
-0.1110823538194E-01  0.3375716277259E-02  0.0000000000000E+00 -0.1519326280706E+00
 0.3141971194830E-02 -0.4257972606185E-02  0.0000000000000E+00 -0.4153979130506E-01
 0.3488618486877E-01 -0.2961048985053E-01  0.0000000000000E+00  0.5453661631471E-01
 0.2031979471368E+00 -0.2437746452824E+00  0.0000000000000E+00 -0.6973994335267E+00
 0.1678647648186E+00 -0.2069334284592E+00  0.0000000000000E+00 -0.6874160634839E+00
 0.1303284842405E+00 -0.1673427712542E+00  0.0000000000000E+00 -0.6613315192048E+00
 0.9170772730666E-01 -0.1260285571715E+00  0.0000000000000E+00 -0.6181059373334E+00
 0.5408188730818E-01 -0.8493642164108E-01  0.0000000000000E+00 -0.5561371113380E+00
 0.2040457296647E-01 -0.4684074747660E-01  0.0000000000000E+00 -0.4736005960524E+00
-0.5359601375516E-02 -0.1548689477699E-01  0.0000000000000E+00 -0.3692821307055E+00
-0.1789236629585E-01  0.4037777852767E-02  0.0000000000000E+00 -0.2440673075199E+00
-0.1008406440909E-01  0.4758123800408E-02  0.0000000000000E+00 -0.1041104634239E+00
 0.2553287022315E-01 -0.2172004841096E-01  0.0000000000000E+00  0.3131742121005E-01
 0.2444213664559E+00 -0.2895507983410E+00  0.0000000000000E+00 -0.7436867241334E+00
 0.2100571384846E+00 -0.2545893144798E+00  0.0000000000000E+00 -0.7496567331044E+00
 0.1725340872708E+00 -0.2159932668315E+00  0.0000000000000E+00 -0.7414915125422E+00
 0.1324445719031E+00 -0.1742366630470E+00  0.0000000000000E+00 -0.7167827099445E+00
 0.9124416420006E-01 -0.1305962484172E+00  0.0000000000000E+00 -0.6724278460517E+00
 0.5131619077981E-01 -0.8720355442955E-01  0.0000000000000E+00 -0.6045876513061E+00
 0.1628983404052E-01 -0.4733306672861E-01  0.0000000000000E+00 -0.5089034825261E+00
-0.8224527340277E-02 -0.1607645129172E-01  0.0000000000000E+00 -0.3810551227486E+00
-0.1302283389862E-01 -0.1816118202720E-02  0.0000000000000E+00 -0.2182541914916E+00
 0.1868786399659E-01 -0.2002100753532E-01  0.0000000000000E+00 -0.2639848851170E-01
 0.2916733286273E+00 -0.3415669224095E+00  0.0000000000000E+00 -0.7758424160702E+00
 0.2610477730338E+00 -0.3114161999406E+00  0.0000000000000E+00 -0.7966055958121E+00
 0.2267565751973E+00 -0.2773126594569E+00  0.0000000000000E+00 -0.8064560107886E+00
 0.1890510073834E+00 -0.2393936505848E+00  0.0000000000000E+00 -0.8023993345757E+00
 0.1488656522228E+00 -0.1984253800185E+00  0.0000000000000E+00 -0.7806458801573E+00
 0.1079412684911E+00 -0.1559040826564E+00  0.0000000000000E+00 -0.7362452872446E+00
 0.6914522557533E-01 -0.1143354257896E+00  0.0000000000000E+00 -0.6627025755324E+00
 0.3717323704094E-01 -0.7784560324463E-01  0.0000000000000E+00 -0.5512852461221E+00
 0.2014085253700E-01 -0.5353787198009E-01  0.0000000000000E+00 -0.3894596291330E+00
 0.3505094858477E-01 -0.5565619500602E-01  0.0000000000000E+00 -0.1559436382310E+00
 0.3428957577103E+00 -0.3975649545505E+00  0.0000000000000E+00 -0.7878043997203E+00
 0.3180848062038E+00 -0.3744075745511E+00  0.0000000000000E+00 -0.8184716101582E+00
 0.2894895375989E+00 -0.3474588502710E+00  0.0000000000000E+00 -0.8408517177609E+00
 0.2571125099964E+00 -0.3166539397943E+00  0.0000000000000E+00 -0.8515911924553E+00
 0.2214068351112E+00 -0.2823471467620E+00  0.0000000000000E+00 -0.8463538072756E+00
 0.1833729231639E+00 -0.2453947383839E+00  0.0000000000000E+00 -0.8192774161738E+00
 0.1447096439839E+00 -0.2072870999883E+00  0.0000000000000E+00 -0.7622183927898E+00
 0.1080536497689E+00 -0.1703543835944E+00  0.0000000000000E+00 -0.6633075802970E+00
 0.7731741801225E-01 -0.1380485615048E+00  0.0000000000000E+00 -0.5036708152837E+00
 0.5720138490033E-01 -0.1146134916541E+00  0.0000000000000E+00 -0.2468865418636E+00
 0.3950149050998E+00 -0.4542455006127E+00  0.0000000000000E+00 -0.7764309996002E+00
 0.3768544473851E+00 -0.4389319646516E+00  0.0000000000000E+00 -0.8099274042649E+00
 0.3548172049123E+00 -0.4200530805626E+00  0.0000000000000E+00 -0.8361813128915E+00
 0.3285316119470E+00 -0.3972416148902E+00  0.0000000000000E+00 -0.8513361510890E+00
 0.2977925146882E+00 -0.3702953592612E+00  0.0000000000000E+00 -0.8502538219724E+00
 0.2625671688404E+00 -0.3391839696717E+00  0.0000000000000E+00 -0.8259467680675E+00
 0.2229169143933E+00 -0.3039822264014E+00  0.0000000000000E+00 -0.7687942265424E+00
 0.1787007172817E+00 -0.2646224043997E+00  0.0000000000000E+00 -0.6652733692214E+00
 0.1286160819643E+00 -0.2200817814934E+00  0.0000000000000E+00 -0.4956208453295E+00
 0.6610920355520E-01 -0.1652574261107E+00  0.0000000000000E+00 -0.2311036428611E+00
 0.4449009021473E+00 -0.5082525613898E+00  0.0000000000000E+00 -0.7422294610727E+00
 0.4332098288908E+00 -0.5005058998944E+00  0.0000000000000E+00 -0.7721640738105E+00
 0.4173627497317E+00 -0.4892137337439E+00  0.0000000000000E+00 -0.7951428171857E+00
 0.3964317532316E+00 -0.4735267468638E+00  0.0000000000000E+00 -0.8071189227865E+00
 0.3693628516670E+00 -0.4524921158168E+00  0.0000000000000E+00 -0.8026538624131E+00
 0.3348887308250E+00 -0.4249770715076E+00  0.0000000000000E+00 -0.7744995463661E+00
 0.2912998777295E+00 -0.3894673308789E+00  0.0000000000000E+00 -0.7131243130212E+00
 0.2359392321124E+00 -0.3436176659800E+00  0.0000000000000E+00 -0.6062609192844E+00
 0.1639905085243E+00 -0.2832143041756E+00  0.0000000000000E+00 -0.4389959323985E+00
 0.6688290432890E-01 -0.2003688922156E+00  0.0000000000000E+00 -0.1973018118713E+00
 0.4898904526637E+00 -0.5567077514311E+00  0.0000000000000E+00 -0.6870199114134E+00
 0.4838902594034E+00 -0.5555404448300E+00  0.0000000000000E+00 -0.7083065372236E+00
 0.4732761619697E+00 -0.5506059163710E+00  0.0000000000000E+00 -0.7229445241368E+00
 0.4564777503633E+00 -0.5404698794854E+00  0.0000000000000E+00 -0.7272271876194E+00
 0.4315574936173E+00 -0.5233687869774E+00  0.0000000000000E+00 -0.7162036325825E+00
 0.3960752200983E+00 -0.4970844303971E+00  0.0000000000000E+00 -0.6834877411564E+00
 0.3468537554493E+00 -0.4587244406846E+00  0.0000000000000E+00 -0.6211516948206E+00
 0.2796062895469E+00 -0.4043761737432E+00  0.0000000000000E+00 -0.5199900576616E+00
 0.1885287878637E+00 -0.3286477444496E+00  0.0000000000000E+00 -0.3709131234902E+00
 0.6634493390158E-01 -0.2246250388779E+00  0.0000000000000E+00 -0.1678159344715E+00
 0.5278361266240E+00 -0.5972836821777E+00  0.0000000000000E+00 -0.6133846728687E+00
 0.5264395521104E+00 -0.6013133145110E+00  0.0000000000000E+00 -0.6223933169308E+00
 0.5199072831686E+00 -0.6011947412182E+00  0.0000000000000E+00 -0.6255294832460E+00
 0.5060688803473E+00 -0.5949273241400E+00  0.0000000000000E+00 -0.6199128561845E+00
 0.4822449501131E+00 -0.5800445455799E+00  0.0000000000000E+00 -0.6017562779139E+00
 0.4450988997522E+00 -0.5534699665076E+00  0.0000000000000E+00 -0.5663841807367E+00
 0.3904656968845E+00 -0.5113452416974E+00  0.0000000000000E+00 -0.5083134648251E+00
 0.3132676774474E+00 -0.4489185193135E+00  0.0000000000000E+00 -0.4216466449693E+00
 0.2077065536574E+00 -0.3606869153574E+00  0.0000000000000E+00 -0.3010270462912E+00
 0.6788432652484E-01 -0.2409605458071E+00  0.0000000000000E+00 -0.1430453547667E+00
 0.5571301924110E+00 -0.6282341168806E+00  0.0000000000000E+00 -0.5242620019765E+00
 0.5591171822357E+00 -0.6358829467684E+00  0.0000000000000E+00 -0.5187514741358E+00
 0.5554945440156E+00 -0.6389369114245E+00  0.0000000000000E+00 -0.5087789329913E+00
 0.5436441373583E+00 -0.6349541405068E+00  0.0000000000000E+00 -0.4925638061732E+00
 0.5204209802830E+00 -0.6210078943994E+00  0.0000000000000E+00 -0.4678665020481E+00
 0.4819833880372E+00 -0.5935164572131E+00  0.0000000000000E+00 -0.4321697767368E+00
 0.4236471222961E+00 -0.5480902077966E+00  0.0000000000000E+00 -0.3827479033113E+00
 0.3399196917688E+00 -0.4795393276641E+00  0.0000000000000E+00 -0.3166647281350E+00
 0.2249198659845E+00 -0.3822383942067E+00  0.0000000000000E+00 -0.2307245500269E+00
 0.7327528652218E-01 -0.2509697698599E+00  0.0000000000000E+00 -0.1215663795388E+00
 0.5766534950606E+00 -0.6483496837491E+00  0.0000000000000E+00 -0.4228710477076E+00
 0.5807307728769E+00 -0.6579306865534E+00  0.0000000000000E+00 -0.4019066490258E+00
 0.5788150022710E+00 -0.6624410563377E+00  0.0000000000000E+00 -0.3784459776833E+00
 0.5680655755407E+00 -0.6591974798283E+00  0.0000000000000E+00 -0.3517722466916E+00
 0.5452414935276E+00 -0.6451492137265E+00  0.0000000000000E+00 -0.3212102537977E+00
 0.5064637483867E+00 -0.6166468081875E+00  0.0000000000000E+00 -0.2864974833776E+00
 0.4469748021542E+00 -0.5691980841184E+00  0.0000000000000E+00 -0.2477832212838E+00
 0.3610349004308E+00 -0.4973679659766E+00  0.0000000000000E+00 -0.2051903378048E+00
 0.2421451943429E+00 -0.3949788422952E+00  0.0000000000000E+00 -0.1577230293156E+00
 0.8398943729716E-01 -0.2559408158800E+00  0.0000000000000E+00 -0.1015659931548E+00
 0.5857035139703E+00 -0.6568922445589E+00  0.0000000000000E+00 -0.3127422432923E+00
 0.5904622661099E+00 -0.6666039462516E+00  0.0000000000000E+00 -0.2766283079067E+00
 0.5888640660168E+00 -0.6706788149539E+00  0.0000000000000E+00 -0.2403511262758E+00
 0.5780934032298E+00 -0.6664059761754E+00  0.0000000000000E+00 -0.2037815294906E+00
 0.5552639725845E+00 -0.6510488100423E+00  0.0000000000000E+00 -0.1674685356252E+00
 0.5169994065780E+00 -0.6213873341107E+00  0.0000000000000E+00 -0.1332389890866E+00
 0.4590141662280E+00 -0.5733345900232E+00  0.0000000000000E+00 -0.1041949386081E+00
 0.3757011444923E+00 -0.5015546314354E+00  0.0000000000000E+00 -0.8420390344833E-01
 0.2597167811744E+00 -0.3991215859832E+00  0.0000000000000E+00 -0.7640768307474E-01
 0.1019514309837E+00 -0.2575123152509E+00  0.0000000000000E+00 -0.7969952389909E-01
 0.5839963158133E+00 -0.6536173878698E+00  0.0000000000000E+00 -0.1974115887306E+00
 0.5878676117107E+00 -0.6615863952087E+00  0.0000000000000E+00 -0.1476850091871E+00
 0.5847262051384E+00 -0.6629138586205E+00  0.0000000000000E+00 -0.1003503143706E+00
 0.5720901180735E+00 -0.6552372536090E+00  0.0000000000000E+00 -0.5485732039709E-01
 0.5479478992955E+00 -0.6366028711756E+00  0.0000000000000E+00 -0.1251023582029E-01
 0.5099636729078E+00 -0.6047507190713E+00  0.0000000000000E+00  0.2296951355756E-01
 0.4549534823689E+00 -0.5565316657863E+00  0.0000000000000E+00  0.4556277236569E-01
 0.3783284737111E+00 -0.4874713105977E+00  0.0000000000000E+00  0.4694112904346E-01
 0.2729383473748E+00 -0.3907455187541E+00  0.0000000000000E+00  0.1674438430387E-01
 0.1269108496327E+00 -0.2553555583819E+00  0.0000000000000E+00 -0.5485340625244E-01
 0.5717042425660E+00 -0.6388891952033E+00  0.0000000000000E+00 -0.8101156645026E-01
 0.5728257993839E+00 -0.6429445675676E+00  0.0000000000000E+00 -0.2120354535378E-01
 0.5652675870497E+00 -0.6383505623675E+00  0.0000000000000E+00  0.3345916981332E-01
 0.5475784472831E+00 -0.6236324036759E+00  0.0000000000000E+00  0.8566143738568E-01
 0.5192427463971E+00 -0.5984467601182E+00  0.0000000000000E+00  0.1330782011494E+00
 0.4791930341583E+00 -0.5615739382554E+00  0.0000000000000E+00  0.1699563537216E+00
 0.4257809347424E+00 -0.5112063646234E+00  0.0000000000000E+00  0.1880268771566E+00
 0.3567639655996E+00 -0.4448475881383E+00  0.0000000000000E+00  0.1753434342311E+00
 0.2681750762031E+00 -0.3583567095409E+00  0.0000000000000E+00  0.1135661899538E+00
 0.1507213451261E+00 -0.2426682291963E+00  0.0000000000000E+00 -0.2531147108303E-01
 0.5498548338124E+00 -0.6137972823878E+00  0.0000000000000E+00  0.2996394965554E-01
 0.5450795372170E+00 -0.6108032741659E+00  0.0000000000000E+00  0.9157887076408E-01
 0.5284275535792E+00 -0.5948002947699E+00  0.0000000000000E+00  0.1483732218528E+00
 0.5016943085967E+00 -0.5689400711009E+00  0.0000000000000E+00  0.2038452445358E+00
 0.4654772073238E+00 -0.5333186767370E+00  0.0000000000000E+00  0.2519944477182E+00
 0.4194479720463E+00 -0.4873653160977E+00  0.0000000000000E+00  0.2856952828903E+00
 0.3635119410268E+00 -0.4306143519398E+00  0.0000000000000E+00  0.2956907259707E+00
 0.2982784760208E+00 -0.3631497966183E+00  0.0000000000000E+00  0.2691455890174E+00
 0.2261112852425E+00 -0.2861107411626E+00  0.0000000000000E+00  0.1857852596001E+00
 0.1500047366145E+00 -0.2008659076773E+00  0.0000000000000E+00  0.5836013251976E-02
 0.5183669134337E+00 -0.5805814766102E+00  0.0000000000000E+00  0.1203681182802E+00
 0.5010280027096E+00 -0.5601534630102E+00  0.0000000000000E+00  0.1779152089440E+00
 0.4722167649822E+00 -0.5304538326521E+00  0.0000000000000E+00  0.2356125018059E+00
 0.4347697896732E+00 -0.4918084605832E+00  0.0000000000000E+00  0.2876559460305E+00
 0.3883559969632E+00 -0.4435976868530E+00  0.0000000000000E+00  0.3271150088300E+00
 0.3332607256582E+00 -0.3857541855162E+00  0.0000000000000E+00  0.3461175025980E+00
 0.2704522323070E+00 -0.3188864721912E+00  0.0000000000000E+00  0.3350621612224E+00
 0.2025143626746E+00 -0.2449662227980E+00  0.0000000000000E+00  0.2821706674111E+00
 0.1353207559128E+00 -0.1689541236976E+00  0.0000000000000E+00  0.1732470992053E+00
 0.8754642675698E-01 -0.1048744043730E+00  0.0000000000000E+00 -0.1301099014311E-01
</DataArray>
<DataArray type="Float64" Name="S_Centroid" NumberOfComponents="4" ComponentName0="S11" ComponentName1="S22" ComponentName2="S33" ComponentName3="S12" format="ascii">
-0.1234607207554E+01 -0.9988176679194E+01 -0.2244556810796E+01 -0.1233026192067E+01
 0.1664267359957E+00 -0.8013913947190E+01 -0.1569497465626E+01 -0.6956115723995E-01
-0.3512127305862E-01 -0.7419057418548E+01 -0.1490835760536E+01 -0.8339690906968E-01
 0.4554357954983E-02 -0.7083284682295E+01 -0.1415746085964E+01 -0.4863114025383E-01
-0.2786777633383E-02 -0.6853910197034E+01 -0.1371339415368E+01 -0.3741365881559E-01
-0.7808227890485E-03 -0.6683175779371E+01 -0.1336791340352E+01 -0.2876887005028E-01
-0.1173438987365E-02 -0.6556469551688E+01 -0.1311528617678E+01 -0.2102036738474E-01
-0.1164940752038E-02 -0.6474775722160E+01 -0.1295188151882E+01 -0.1142650031801E-01
-0.2014887886042E-02 -0.6453937702305E+01 -0.1291190537278E+01  0.3285058117579E-02
-0.1141894421299E-01 -0.6538220652743E+01 -0.1309927938911E+01  0.4132211335892E-01
-0.3849166733816E-01 -0.6750046740271E+01 -0.1357707701753E+01  0.1531280746629E+00
-0.7738743648187E-01 -0.6973282885233E+01 -0.1410134085356E+01  0.3737908203437E+00
-0.1282902028948E+00 -0.7095175758821E+01 -0.1444693213871E+01  0.6674450401678E+00
-0.2054713902889E+00 -0.7151401801074E+01 -0.1471374660198E+01  0.9864500666253E+00
-0.3179442773125E+00 -0.7203459341138E+01 -0.1504280746106E+01  0.1323535254370E+01
-0.4738093709746E+00 -0.7273245392819E+01 -0.1549410975847E+01  0.1685996915640E+01
-0.6692449989175E+00 -0.7394908728289E+01 -0.1612830769474E+01  0.2090242867147E+01
-0.1015702187141E+01 -0.7649852645525E+01 -0.1733110992359E+01  0.2586259696544E+01
-0.1295849475056E+01 -0.8133739183814E+01 -0.1885917759876E+01  0.3341055544221E+01
-0.3966237325770E+01 -0.8774256927994E+01 -0.2548098888722E+01  0.4788253493285E+01
 0.4621037106048E+01 -0.7506083314169E+01 -0.5770092502224E+00  0.5719120796440E+01
-0.1292948609603E+01 -0.8591647690114E+01 -0.1976919289402E+01 -0.1323685312694E+01
-0.1994206140274E+00 -0.8051446134862E+01 -0.1650173374367E+01 -0.6045505966518E+00
-0.9478085473946E-02 -0.7344715903880E+01 -0.1470838819788E+01 -0.2317881489752E+00
-0.2300010320196E-01 -0.6992467029525E+01 -0.1403093447453E+01 -0.1647347788973E+00
-0.8401393147553E-02 -0.6747411040459E+01 -0.1351162506855E+01 -0.1167511166361E+00
-0.7955486876434E-02 -0.6569490423582E+01 -0.1315489201694E+01 -0.8849830827976E-01
-0.7960147049910E-02 -0.6439461862676E+01 -0.1289484421160E+01 -0.6278739383905E-01
-0.1051911135953E-01 -0.6356348753581E+01 -0.1273373591963E+01 -0.3268483255505E-01
-0.1944955305996E-01 -0.6331289571856E+01 -0.1270147843910E+01  0.1316540640123E-01
-0.5001781747578E-01 -0.6378841052233E+01 -0.1285771793101E+01  0.9444185743804E-01
-0.1092715760998E+00 -0.6483000885045E+01 -0.1318454511875E+01  0.2297529063919E+00
-0.1795053712983E+00 -0.6584819631861E+01 -0.1352865020791E+01  0.4248796642826E+00
-0.2504638666764E+00 -0.6635518626094E+01 -0.1377196519076E+01  0.6715257047980E+00
-0.3374975770307E+00 -0.6632437148361E+01 -0.1393986965850E+01  0.9521338139686E+00
-0.4577444651079E+00 -0.6593014083487E+01 -0.1410151730732E+01  0.1250993873766E+01
-0.6160642892256E+00 -0.6526418719849E+01 -0.1428496623101E+01  0.1563308680297E+01
-0.8434348737395E+00 -0.6430316233434E+01 -0.1454750243112E+01  0.1896889704991E+01
-0.1129033390109E+01 -0.6269801949631E+01 -0.1479767089998E+01  0.2250194259104E+01
-0.1814935656643E+01 -0.5892872292454E+01 -0.1541561612790E+01  0.2673058921829E+01
-0.1970050859336E+01 -0.4616970469718E+01 -0.1317404285442E+01  0.2084210156726E+01
 0.6652928438839E+01 -0.3441505255890E+01  0.6422846461607E+00  0.1285617288215E+01
-0.1340572706733E+01 -0.7793033924401E+01 -0.1826721353447E+01 -0.1253804545186E+01
-0.4453437317765E+00 -0.7671928514605E+01 -0.1623454473468E+01 -0.8394799309257E+00
-0.9987951656888E-01 -0.7224137622995E+01 -0.1464803449740E+01 -0.4308691270233E+00
-0.4701407055631E-01 -0.6863350328168E+01 -0.1382072900339E+01 -0.2728962451657E+00
-0.2862077475602E-01 -0.6621777520243E+01 -0.1330079678820E+01 -0.1994665755504E+00
-0.2139344068089E-01 -0.6440803673995E+01 -0.1292439442194E+01 -0.1485553356645E+00
-0.2238935470180E-01 -0.6307923226661E+01 -0.1266062535138E+01 -0.1048989824852E+00
-0.2967120663093E-01 -0.6219410402284E+01 -0.1249816340407E+01 -0.5455375299097E-01
-0.5068304400877E-01 -0.6178448460951E+01 -0.1245826319556E+01  0.1628738957402E-01
-0.9973138640786E-01 -0.6181492964277E+01 -0.1256244888856E+01  0.1209064059290E+00
-0.1789029283093E+00 -0.6206479279405E+01 -0.1277076460573E+01  0.2626559412292E+00
-0.2680042321157E+00 -0.6221776507541E+01 -0.1297956167272E+01  0.4394601262328E+00
-0.3542254160011E+00 -0.6202348134842E+01 -0.1311314729709E+01  0.6510858682481E+00
-0.4493043229119E+00 -0.6134029907680E+01 -0.1316666865738E+01  0.8899169990416E+00
-0.5683307576047E+00 -0.6011155822262E+01 -0.1315897335582E+01  0.1138799344812E+01
-0.7215097854363E+00 -0.5825745787358E+01 -0.1309451134071E+01  0.1383001444950E+01
-0.9133824817921E+00 -0.5546379998609E+01 -0.1291952515332E+01  0.1602125698544E+01
-0.1170001973145E+01 -0.5096459243617E+01 -0.1253292262028E+01  0.1759497348018E+01
-0.1408828656557E+01 -0.4240786202319E+01 -0.1129922988612E+01  0.1587458845407E+01
 0.7064546990432E-01 -0.3069040679751E+01 -0.5996790509052E+00  0.4485687313121E+00
 0.6839749411260E+01 -0.2466548943707E+01  0.8746401065439E+00  0.1950089391247E+00
-0.1352569047743E+01 -0.7231696532767E+01 -0.1716853141685E+01 -0.1165541259531E+01
-0.6125072961501E+00 -0.7259475560755E+01 -0.1574396594841E+01 -0.9323267908118E+00
-0.2126836605942E+00 -0.7007034212682E+01 -0.1443943596172E+01 -0.5838591546492E+00
-0.9254424200487E-01 -0.6707191225138E+01 -0.1359947113693E+01 -0.3822152201602E+00
-0.5570989996055E-01 -0.6474787169571E+01 -0.1306099433369E+01 -0.2787578334274E+00
-0.4274201709986E-01 -0.6297223388055E+01 -0.1267993099926E+01 -0.2088270621947E+00
-0.4378659398658E-01 -0.6161801415884E+01 -0.1241117620468E+01 -0.1478292691697E+00
-0.5731458893994E-01 -0.6064736159573E+01 -0.1224410167948E+01 -0.7997730894190E-01
-0.9041568486307E-01 -0.6002382813513E+01 -0.1218559717833E+01  0.8306291280141E-02
-0.1538872692659E+00 -0.5963348454187E+01 -0.1223447162921E+01  0.1241548771446E+00
-0.2455060803095E+00 -0.5927313498932E+01 -0.1234563934245E+01  0.2643394174105E+00
-0.3456176917792E+00 -0.5875900970614E+01 -0.1244303751020E+01  0.4245563436286E+00
-0.4410615712709E+00 -0.5793955795436E+01 -0.1247003491923E+01  0.6056605034844E+00
-0.5382389973311E+00 -0.5663878324695E+01 -0.1240423482889E+01  0.8017560705132E+00
-0.6481551540491E+00 -0.5468907951785E+01 -0.1223412639397E+01  0.9943754213325E+00
-0.7734109192941E+00 -0.5188707250538E+01 -0.1192423651735E+01  0.1157532503854E+01
-0.9057677374148E+00 -0.4784217866439E+01 -0.1137997137728E+01  0.1251986556867E+01
-0.9990654532660E+00 -0.4172206024765E+01 -0.1034254311018E+01  0.1178248161978E+01
-0.6729473561202E+00 -0.3291134699462E+01 -0.7928164229303E+00  0.6638108140167E+00
 0.1436635735959E+01 -0.2511539011238E+01 -0.2149806582593E+00 -0.3537555466390E+00
 0.6546894926789E+01 -0.2135302088757E+01  0.8823185807539E+00 -0.1863792097744E+00
-0.1341758009708E+01 -0.6791867584872E+01 -0.1626725143156E+01 -0.1083196036895E+01
-0.7240830160737E+00 -0.6875460558794E+01 -0.1519908737622E+01 -0.9589848298781E+00
-0.3186995991144E+00 -0.6745644598724E+01 -0.1412868860621E+01 -0.6861660427707E+00
-0.1509562280351E+00 -0.6519345295128E+01 -0.1334060324512E+01 -0.4791050465882E+00
-0.9064143885498E-01 -0.6309862110544E+01 -0.1280100728955E+01 -0.3542470952966E+00
-0.7035694511494E-01 -0.6138940898548E+01 -0.1241859587238E+01 -0.2678682016711E+00
-0.7149386223776E-01 -0.6002041188954E+01 -0.1214707028339E+01 -0.1922690851605E+00
-0.9121716340751E-01 -0.5894776267845E+01 -0.1197198704090E+01 -0.1106910502627E+00
-0.1348381261357E+00 -0.5810040550909E+01 -0.1188975753126E+01 -0.1159371668500E-01
-0.2088213438163E+00 -0.5734017697481E+01 -0.1188567825971E+01  0.1079740642920E+00
-0.3077863596218E+00 -0.5649590356898E+01 -0.1191475361058E+01  0.2420978849921E+00
-0.4132087415683E+00 -0.5545110606054E+01 -0.1191663887282E+01  0.3856192175177E+00
-0.5116194846934E+00 -0.5410052408124E+01 -0.1184334396211E+01  0.5378965479011E+00
-0.6040976280666E+00 -0.5226654544387E+01 -0.1166150451868E+01  0.6915913101065E+00
-0.6944194979353E+00 -0.4973927621800E+01 -0.1133669440840E+01  0.8255665959454E+00
-0.7752654660717E+00 -0.4628353873432E+01 -0.1080723884005E+01  0.9062256217220E+00
-0.8146041356186E+00 -0.4154805980012E+01 -0.9938820379361E+00  0.8781357106169E+00
-0.6854710527784E+00 -0.3514330173698E+01 -0.8399602578116E+00  0.6274828199986E+00
 0.5625023427875E-01 -0.2782640307983E+01 -0.5452780228661E+00  0.7957506425265E-02
 0.2281896328480E+01 -0.2293913595272E+01 -0.2403453394144E-02 -0.7411519704449E+00
 0.6190369744180E+01 -0.2012483714288E+01  0.8355772184295E+00 -0.3763847610738E+00
-0.1317841012046E+01 -0.6423720994961E+01 -0.1548312424473E+01 -0.1010605039317E+01
-0.7967568482002E+00 -0.6526294923250E+01 -0.1464610376114E+01 -0.9543741519405E+00
-0.4087964868934E+00 -0.6470582787474E+01 -0.1375875875376E+01 -0.7499059842518E+00
-0.2131873275622E+00 -0.6308403291693E+01 -0.1304318143287E+01 -0.5581587231648E+00
-0.1315471573682E+00 -0.6128616270304E+01 -0.1252032704191E+01 -0.4237081328374E+00
-0.1030569446695E+00 -0.5967653487746E+01 -0.1214142104575E+01 -0.3251864795785E+00
-0.1040817658005E+00 -0.5830162589300E+01 -0.1186848888706E+01 -0.2384223630640E+00
-0.1292613384161E+00 -0.5712683233833E+01 -0.1168388931860E+01 -0.1473164740876E+00
-0.1812340075099E+00 -0.5606972199652E+01 -0.1157641258683E+01 -0.4269525823659E-01
-0.2623385556554E+00 -0.5499527197368E+01 -0.1152373167776E+01  0.7570165833827E-01
-0.3648199014531E+00 -0.5376320706796E+01 -0.1148228138760E+01  0.2009458973965E+00
-0.4709747158345E+00 -0.5229452585680E+01 -0.1140085477292E+01  0.3272374068359E+00
-0.5665846879377E+00 -0.5051096150041E+01 -0.1123536184338E+01  0.4516736797615E+00
-0.6473018951783E+00 -0.4825021125136E+01 -0.1094464620372E+01  0.5643602734784E+00
-0.7086434983271E+00 -0.4530919654508E+01 -0.1047912646182E+01  0.6416751001693E+00
-0.7313500910394E+00 -0.4148382995739E+01 -0.9759466318985E+00  0.6455048348425E+00
-0.6571707004274E+00 -0.3657844505576E+01 -0.8630030540604E+00  0.5157477777889E+00
-0.3180431494183E+00 -0.3070041135321E+01 -0.6776168670452E+00  0.1649905622846E+00
 0.6715362690737E+00 -0.2511506770517E+01 -0.3679941057723E+00 -0.4304134020464E+00
 0.2796020873232E+01 -0.2201335321547E+01  0.1189371121093E+00 -0.9345353971231E+00
 0.5864985343967E+01 -0.1971424246150E+01  0.7787122311672E+00 -0.5049605450133E+00
-0.1286433987336E+01 -0.6101854551775E+01 -0.1477657729841E+01 -0.9473278506083E+00
-0.8421231627949E+00 -0.6207751203993E+01 -0.1409974894368E+01 -0.9351549433023E+00
-0.4814629805897E+00 -0.6196160898308E+01 -0.1335524795680E+01 -0.7870471603521E+00
-0.2732891418059E+00 -0.6083932456759E+01 -0.1271444338659E+01 -0.6197237839912E+00
-0.1755486929749E+00 -0.5934161480044E+01 -0.1221942052812E+01 -0.4856405796101E+00
-0.1393627701545E+00 -0.5785299945208E+01 -0.1184932560729E+01 -0.3803307155780E+00
-0.1399902715638E+00 -0.5648258761698E+01 -0.1157649823903E+01 -0.2862602361074E+00
-0.1695577011870E+00 -0.5521577614526E+01 -0.1138227080103E+01 -0.1896675026112E+00
-0.2276728816897E+00 -0.5397479698398E+01 -0.1125030532782E+01 -0.8368241534845E-01
-0.3130365139972E+00 -0.5264003207830E+01 -0.1115407960986E+01  0.3022656665828E-01
-0.4159733257099E+00 -0.5109876128700E+01 -0.1105169907350E+01  0.1447625167485E+00
-0.5190559126789E+00 -0.4929645957918E+01 -0.1089740390358E+01  0.2534838845885E+00
-0.6067719762612E+00 -0.4717590863419E+01 -0.1064872583804E+01  0.3512146581809E+00
-0.6694379554621E+00 -0.4460216749433E+01 -0.1025930956267E+01  0.4255933357583E+00
-0.6942709672282E+00 -0.4140953066036E+01 -0.9670448210629E+00  0.4514600290139E+00
-0.6500315229170E+00 -0.3746854038007E+01 -0.8793771252885E+00  0.3900931444008E+00
-0.4602716963408E+00 -0.3277510593766E+01 -0.7475564691607E+00  0.1888088641047E+00
 0.4630105104749E-01 -0.2775712794274E+01 -0.5458823567796E+00 -0.1995327405958E+00
 0.1158830815082E+01 -0.2364607522677E+01 -0.2411553451125E+00 -0.7180051456064E+00
 0.3107165038698E+01 -0.2160280752948E+01  0.1893768599720E+00 -0.1037214696440E+01
 0.5586963303296E+01 -0.1966052231507E+01  0.7241822251491E+00 -0.6070025774575E+00
-0.1250680696289E+01 -0.5811834227610E+01 -0.1412503005828E+01 -0.8921041580727E+00
-0.8680709805752E+00 -0.5914253609954E+01 -0.1356464938319E+01 -0.9095769122812E+00
-0.5379721924254E+00 -0.5928458645033E+01 -0.1293286186763E+01 -0.8065721326676E+00
-0.3279515847875E+00 -0.5853118698177E+01 -0.1236214075014E+01 -0.6664324280402E+00
-0.2199402546573E+00 -0.5730241631946E+01 -0.1190036395054E+01 -0.5397555278897E+00
-0.1775846079818E+00 -0.5594129707123E+01 -0.1154342880222E+01 -0.4329445870410E+00
-0.1776852454487E+00 -0.5458600506804E+01 -0.1127257167248E+01 -0.3355322786560E+00
-0.2105123270344E+00 -0.5324321588829E+01 -0.1106966799668E+01 -0.2371138771885E+00
-0.2727584747213E+00 -0.5184909739473E+01 -0.1091533659104E+01 -0.1330306278449E+00
-0.3599990282259E+00 -0.5030443610680E+01 -0.1078088543846E+01 -0.2591724164041E-01
-0.4608864580534E+00 -0.4852130047704E+01 -0.1062603316986E+01  0.7678887752614E-01
-0.5577400265342E+00 -0.4646452775416E+01 -0.1040838575900E+01  0.1680314958774E+00
-0.6333280124071E+00 -0.4409754020399E+01 -0.1008616421591E+01  0.2407199277574E+00
-0.6729369067057E+00 -0.4132091409087E+01 -0.9610056774785E+00  0.2806911946492E+00
-0.6561836222730E+00 -0.3802370984123E+01 -0.8917109345667E+00  0.2626488597282E+00
-0.5423265756205E+00 -0.3416923022553E+01 -0.7918499314341E+00  0.1512006525058E+00
-0.2477577335037E+00 -0.2991237485683E+01 -0.6477990534904E+00 -0.9194673650762E-01
 0.3791634557236E+00 -0.2581046418270E+01 -0.4403765990714E+00 -0.4769143222306E+00
 0.1534216231401E+01 -0.2283953017324E+01 -0.1499473594189E+00 -0.9059742445583E+00
 0.3293981833709E+01 -0.2144204235738E+01  0.2299555230208E+00 -0.1096259742930E+01
 0.5350805841823E+01 -0.1978450199890E+01  0.6744711384371E+00 -0.6924861698651E+00
-0.1212353650411E+01 -0.5544806480003E+01 -0.1351432046221E+01 -0.8436727976523E+00
-0.8799511346113E+00 -0.5640915625127E+01 -0.1304173371381E+01 -0.8818300875336E+00
-0.5804049557884E+00 -0.5669671045875E+01 -0.1250015218959E+01 -0.8147126823989E+00
-0.3755928027741E+00 -0.5620725018396E+01 -0.1199263582104E+01 -0.7013908393562E+00
-0.2625858168517E+00 -0.5520371989214E+01 -0.1156591578448E+01 -0.5865994663926E+00
-0.2160646260133E+00 -0.5396538870482E+01 -0.1122520716026E+01 -0.4828568625194E+00
-0.2157382210354E+00 -0.5263440348410E+01 -0.1095835730218E+01 -0.3858432451842E+00
-0.2508153100287E+00 -0.5123435794415E+01 -0.1074850236905E+01 -0.2888058764385E+00
-0.3154733924040E+00 -0.4971899680906E+01 -0.1057474630420E+01 -0.1891854739758E+00
-0.4026441620616E+00 -0.4801096246329E+01 -0.1040748097187E+01 -0.9047137302441E-01
-0.4994498532359E+00 -0.4604515052251E+01 -0.1020792996308E+01 -0.1568624986074E-03
-0.5875448278501E+00 -0.4380416018141E+01 -0.9935921840039E+00  0.7419523254048E-01
-0.6477438605402E+00 -0.4127334147125E+01 -0.9550156157638E+00  0.1241079385684E+00
-0.6608125837239E+00 -0.3839334647877E+01 -0.9000294597317E+00  0.1345102360436E+00
-0.6001353523117E+00 -0.3511463824949E+01 -0.8223198477057E+00  0.8147175350868E-01
-0.4192606804220E+00 -0.3148827198510E+01 -0.7136175864201E+00 -0.6426693863549E-01
-0.3673879664746E-01 -0.2776970494462E+01 -0.5627418666074E+00 -0.3249239839218E+00
 0.6697132104517E+00 -0.2451344285921E+01 -0.3563262204036E+00 -0.6833179087268E+00
 0.1819948391664E+01 -0.2240136997324E+01 -0.8403772238439E-01 -0.1028348215219E+01
 0.3403858934699E+01 -0.2143103174417E+01  0.2521511558139E+00 -0.1132679984021E+01
 0.5146871552627E+01 -0.2001700167380E+01  0.6290342864228E+00 -0.7655268446170E+00
-0.1172466550275E+01 -0.5295017345724E+01 -0.1293496798474E+01 -0.8009477831889E+00
-0.8814131943302E+00 -0.5383838464023E+01 -0.1253050350343E+01 -0.8540586299273E+00
-0.6108678188804E+00 -0.5420217151637E+01 -0.1206217012078E+01 -0.8156643135623E+00
-0.4156504111967E+00 -0.5389725040138E+01 -0.1161075107568E+01 -0.7274326522724E+00
-0.3019527032998E+00 -0.5307482925602E+01 -0.1121887142498E+01 -0.6271142005282E+00
-0.2533415242863E+00 -0.5194842885392E+01 -0.1089636898173E+01 -0.5300655179279E+00
-0.2528843422187E+00 -0.5064898304291E+01 -0.1063556545150E+01 -0.4367374268006E+00
-0.2894074245503E+00 -0.4921091939738E+01 -0.1042099888386E+01 -0.3438076417989E+00
-0.3550823549994E+00 -0.4760545284166E+01 -0.1023125543079E+01 -0.2506444761124E+00
-0.4406393678814E+00 -0.4577662011750E+01 -0.1003660290882E+01 -0.1614061724653E+00
-0.5317772989274E+00 -0.4368065039362E+01 -0.9799684822605E+00 -0.8358530060485E-01
-0.6092205269748E+00 -0.4131757723194E+01 -0.9481956641629E+00 -0.2507076101453E-01
-0.6517866592959E+00 -0.3869584222597E+01 -0.9042741898533E+00  0.4853340834588E-02
-0.6364153973656E+00 -0.3579738212271E+01 -0.8432307344924E+00 -0.8880654091610E-02
-0.5320182924732E+00 -0.3263200831044E+01 -0.7590438360141E+00 -0.8759460351146E-01
-0.2902707126301E+00 -0.2932010198800E+01 -0.6444561918892E+00 -0.2531504199933E+00
 0.1620570190232E+00 -0.2616195972864E+01 -0.4908277980820E+00 -0.5133582611106E+00
 0.9163584853949E+00 -0.2364001458238E+01 -0.2895285988829E+00 -0.8340947038317E+00
 0.2036298457768E+01 -0.2217502932060E+01 -0.3624089539834E-01 -0.1106429199077E+01
 0.3465847391669E+01 -0.2153393453085E+01  0.2624907916281E+00 -0.1155291755258E+01
 0.4966977889759E+01 -0.2032867442758E+01  0.5868220981444E+00 -0.8292402962381E+00
-0.1131637382384E+01 -0.5058589269043E+01 -0.1238045348734E+01 -0.7630622623485E+00
-0.8750096785608E+00 -0.5140166397306E+01 -0.1203035233100E+01 -0.8273716126333E+00
-0.6312314351906E+00 -0.5180015988389E+01 -0.1162249502035E+01 -0.8122451550167E+00
-0.4480999829024E+00 -0.5162265957790E+01 -0.1122073204859E+01 -0.7468868011981E+00
-0.3369625839686E+00 -0.5094317427179E+01 -0.1086256018416E+01 -0.6622942292472E+00
-0.2881379643923E+00 -0.4991652833312E+01 -0.1055958175276E+01 -0.5745912545659E+00
-0.2879462173197E+00 -0.4865506110285E+01 -0.1030690480879E+01 -0.4876270329150E+00
-0.3253142298584E+00 -0.4719847814398E+01 -0.1009032423887E+01 -0.4009999787873E+00
-0.3909168481977E+00 -0.4553336384663E+01 -0.9888506613072E+00 -0.3157573467207E+00
-0.4736942296147E+00 -0.4362355934686E+01 -0.9672100472728E+00 -0.2365785928099E+00
-0.5580459145701E+00 -0.4144516357679E+01 -0.9405124684645E+00 -0.1708815523425E+00
-0.6236532827280E+00 -0.3901534597812E+01 -0.9050375895940E+00 -0.1266554221231E+00
-0.6474710872206E+00 -0.3636570847095E+01 -0.8568083996305E+00 -0.1134336624169E+00
-0.6034521600863E+00 -0.3351743804178E+01 -0.7910392046403E+00 -0.1454973769836E+00
-0.4578766603432E+00 -0.3053152493238E+01 -0.7022058411800E+00 -0.2408112398550E+00
-0.1636335952977E+00 -0.2757480176924E+01 -0.5842227631500E+00 -0.4139298538206E+00
 0.3412385634963E+00 -0.2495149676006E+01 -0.4307822289211E+00 -0.6615547524741E+00
 0.1120468675132E+01 -0.2304612322172E+01 -0.2368287329371E+00 -0.9410220755814E+00
 0.2197719667349E+01 -0.2207956566500E+01 -0.2047379860620E-02 -0.1153822928110E+01
 0.3498252587006E+01 -0.2169861731449E+01  0.2656781750703E+00 -0.1165607441782E+01
 0.4810691949785E+01 -0.2079172412168E+01  0.5463039156638E+00 -0.8872614766281E+00
-0.1090157007562E+01 -0.4832726034308E+01 -0.1184576626026E+01 -0.7291983163978E+00
-0.8624509910333E+00 -0.4907537420808E+01 -0.1153997699564E+01 -0.8022172709672E+00
-0.6430151713797E+00 -0.4948387313265E+01 -0.1118280513593E+01 -0.8062332846819E+00
-0.4732255253810E+00 -0.4939342423437E+01 -0.1082513605894E+01 -0.7615175591638E+00
-0.3670020903615E+00 -0.4882587624780E+01 -0.1049917958673E+01 -0.6930672485826E+00
-0.3195638888519E+00 -0.4788736340872E+01 -0.1021660061169E+01 -0.6165461531530E+00
-0.3201005037172E+00 -0.4666928090353E+01 -0.9974057336766E+00 -0.5380285647621E+00
-0.3579381234771E+00 -0.4521234088022E+01 -0.9758344568408E+00 -0.4594217697230E+00
-0.4227002649901E+00 -0.4351560075133E+01 -0.9548520822531E+00 -0.3831552940782E+00
-0.5019030020716E+00 -0.4156049818303E+01 -0.9315905779568E+00 -0.3142867572471E+00
-0.5787874438955E+00 -0.3934138271256E+01 -0.9025851564798E+00 -0.2600615152103E+00
-0.6319931270107E+00 -0.3689190663437E+01 -0.8642367709677E+00 -0.2283316898323E+00
-0.6368595465746E+00 -0.3426584122526E+01 -0.8126887459300E+00 -0.2284009982130E+00
-0.5652057708125E+00 -0.3151950582298E+01 -0.7434312817000E+00 -0.2731949065888E+00
-0.3822823690986E+00 -0.2875441084212E+01 -0.6515447003709E+00 -0.3770648721601E+00
-0.4429294371807E-01 -0.2616317616011E+01 -0.5321221198751E+00 -0.5481826145332E+00
 0.4986906647715E+00 -0.2402874575607E+01 -0.3808367878421E+00 -0.7756408107180E+00
 0.1287130766762E+01 -0.2263734265924E+01 -0.1953207027429E+00 -0.1014244703373E+01
 0.2318500825457E+01 -0.2206533263358E+01  0.2239351275351E-01 -0.1178695744224E+01
 0.3507733703318E+01 -0.2191299778656E+01  0.2632867888556E+00 -0.1167432734650E+01
 0.4691754773909E+01 -0.2128301814701E+01  0.5126905994812E+00 -0.9234492756788E+00
-0.1048227360133E+01 -0.4615355626119E+01 -0.1132716614129E+01 -0.6987536449486E+00
-0.8449735048833E+00 -0.4683954745140E+01 -0.1105785666482E+01 -0.7787654626774E+00
-0.6474988158187E+00 -0.4724295659357E+01 -0.1074358911044E+01 -0.7988115507253E+00
-0.4914934224766E+00 -0.4721077694888E+01 -0.1042514239008E+01 -0.7726958181421E+00
-0.3918055343820E+00 -0.4673051117922E+01 -0.1012971345555E+01 -0.7203090343275E+00
-0.3470520158621E+00 -0.4586962894721E+01 -0.9868029968211E+00 -0.6561813919235E+00
-0.3488035175180E+00 -0.4469903251198E+01 -0.9637413681041E+00 -0.5876876672848E+00
-0.3869377095280E+00 -0.4325744875185E+01 -0.9425365309875E+00 -0.5184396316251E+00
-0.4503858029869E+00 -0.4155339673427E+01 -0.9211451090089E+00 -0.4519321643645E+00
-0.5255566705012E+00 -0.3958343213785E+01 -0.8967799902204E+00 -0.3934477848183E+00
-0.5946879310170E+00 -0.3735835187185E+01 -0.8661046365463E+00 -0.3499417915994E+00
-0.6354536397936E+00 -0.3492720572432E+01 -0.8256348547480E+00 -0.3289016024407E+00
-0.6218711791305E+00 -0.3236414536094E+01 -0.7716571545436E+00 -0.3390167415405E+00
-0.5243897881463E+00 -0.2975559305336E+01 -0.6999898291271E+00 -0.3915010672569E+00
-0.3084641190533E+00 -0.2723317196625E+01 -0.6063562721710E+00 -0.4972019466056E+00
 0.6521569738688E-01 -0.2499963904258E+01 -0.4869496486303E+00 -0.6591806800452E+00
 0.6349619942808E+00 -0.2330420782194E+01 -0.3390917626355E+00 -0.8619793313034E+00
 0.1422738903155E+01 -0.2234530842408E+01 -0.1623583902699E+00 -0.1061747303457E+01
 0.2408025423685E+01 -0.2209964688556E+01  0.3961214761609E-01 -0.1186758140553E+01
 0.3506003529497E+01 -0.2215790844988E+01  0.2580425407470E+00 -0.1161209645607E+01
 0.4577235784359E+01 -0.2179377310844E+01  0.4795717018492E+00 -0.9459618749271E+00
-0.1005949323048E+01 -0.4404923338891E+01 -0.1082174548513E+01 -0.6711915018635E+00
-0.8234552378623E+00 -0.4467971899552E+01 -0.1058285443253E+01 -0.7570083332005E+00
-0.6456770227333E+00 -0.4506998620331E+01 -0.1030535143969E+01 -0.7907070395516E+00
-0.5033556341650E+00 -0.4507672780073E+01 -0.1002205697782E+01 -0.7813634083259E+00
-0.4112338876668E+00 -0.4466559606800E+01 -0.9755587134304E+00 -0.7446264908430E+00
-0.3701576138300E+00 -0.4387438032043E+01 -0.9515191433534E+00 -0.6935789375107E+00
-0.3735793020986E+00 -0.4275544848605E+01 -0.9298248439962E+00 -0.6362064444190E+00
-0.4119797727974E+00 -0.4134369170767E+01 -0.9092698022620E+00 -0.5772792814412E+00
-0.4738801046883E+00 -0.3965432721475E+01 -0.8878625784629E+00 -0.5210376466718E+00
-0.5448624365856E+00 -0.3769644398696E+01 -0.8629013799146E+00 -0.4728202325944E+00
-0.6063343611818E+00 -0.3549521780643E+01 -0.8311712407504E+00 -0.4391586870305E+00
-0.6351384053609E+00 -0.3311348946154E+01 -0.7892974820643E+00 -0.4269670673165E+00
-0.6042831144011E+00 -0.3064330184781E+01 -0.7337226707698E+00 -0.4440313485274E+00
-0.4834957825582E+00 -0.2819572882286E+01 -0.6606137428127E+00 -0.4996880057114E+00
-0.2392889724163E+00 -0.2592324540376E+01 -0.5663227109974E+00 -0.6016465211982E+00
 0.1626914789938E+00 -0.2402799413973E+01 -0.4480215936718E+00 -0.7492332744936E+00
 0.7503627508275E+00 -0.2272137591764E+01 -0.3043549727225E+00 -0.9249438297358E+00
 0.1531244339772E+01 -0.2212917104433E+01 -0.1363345549637E+00 -0.1088583624806E+01
 0.2473527787964E+01 -0.2216085706529E+01  0.5148841705432E-01 -0.1181370306242E+01
 0.3494657463693E+01 -0.2242206263911E+01  0.2504902436890E+00 -0.1146454897730E+01
 0.4474304803758E+01 -0.2229699137125E+01  0.4489211400162E+00 -0.9581032666069E+00
-0.9633684196792E+00 -0.4200206535251E+01 -0.1032715006375E+01 -0.6460445951523E+00
-0.7985315041477E+00 -0.4258410497358E+01 -0.1011388415372E+01 -0.7368320719028E+00
-0.6383477725899E+00 -0.4295787361709E+01 -0.9868270415647E+00 -0.7823446271054E+00
-0.5092671463620E+00 -0.4299121605027E+01 -0.9616777646078E+00 -0.7881593353694E+00
-0.4252910865190E+00 -0.4263667638697E+01 -0.9377917590174E+00 -0.7664513611039E+00
-0.3886107989133E+00 -0.4190988660295E+01 -0.9159199054899E+00 -0.7287617827240E+00
-0.3941049633997E+00 -0.4084723495308E+01 -0.8957657050895E+00 -0.6831978076925E+00
-0.4328489785533E+00 -0.3947875046000E+01 -0.8761448179663E+00 -0.6352258302962E+00
-0.4931723549466E+00 -0.3782393795648E+01 -0.8551132428611E+00 -0.5895281291945E+00
-0.5600786607014E+00 -0.3590183784675E+01 -0.8300525014440E+00 -0.5513234723101E+00
-0.6143296440819E+00 -0.3374971004565E+01 -0.7978601416183E+00 -0.5265800798856E+00
-0.6321022834165E+00 -0.3144215668024E+01 -0.7552636015425E+00 -0.5214566564514E+00
-0.5856950275584E+00 -0.2908621166039E+01 -0.6988632491333E+00 -0.5426341172819E+00
-0.4446119921251E+00 -0.2681232926486E+01 -0.6251689930379E+00 -0.5975532507712E+00
-0.1769256518123E+00 -0.2478639854065E+01 -0.5311131090896E+00 -0.6912874956929E+00
 0.2468323610005E+00 -0.2320351167541E+01 -0.4147037674877E+00 -0.8207287619744E+00
 0.8456903653225E+00 -0.2223857013231E+01 -0.2756333336889E+00 -0.9682245087787E+00
 0.1616280449954E+01 -0.2195976751385E+01 -0.1159392620138E+00 -0.1098568334298E+01
 0.2519680952965E+01 -0.2223411501928E+01  0.5925389109041E-01 -0.1164523526195E+01
 0.3476857761317E+01 -0.2268720173018E+01  0.2416275212603E+00 -0.1123773917421E+01
 0.4382452922386E+01 -0.2279181145617E+01  0.4206543616220E+00 -0.9598821862565E+00
-0.9204950272077E+00 -0.4000207753558E+01 -0.9841405708179E+00 -0.6228999624898E+00
-0.7706699793618E+00 -0.4054284034837E+01 -0.9649908172192E+00 -0.7180619445061E+00
-0.6261570578457E+00 -0.4089990624785E+01 -0.9432295505814E+00 -0.7739398968141E+00
-0.5096680528695E+00 -0.4095275723094E+01 -0.9209887689166E+00 -0.7934865204442E+00
-0.4340818502965E+00 -0.4064693536151E+01 -0.8997550906969E+00 -0.7860571846563E+00
-0.4022824096350E+00 -0.3998196858147E+01 -0.8800958666708E+00 -0.7616879008724E+00
-0.4101867246463E+00 -0.3898087817060E+01 -0.8616549211810E+00 -0.7282781209056E+00
-0.4494270913997E+00 -0.3766833359008E+01 -0.8432521026470E+00 -0.6916177486160E+00
-0.5083123089606E+00 -0.3606605891367E+01 -0.8229836523289E+00 -0.6565582922417E+00
-0.5714880911581E+00 -0.3420052542924E+01 -0.7983081387122E+00 -0.6280250823655E+00
-0.6192575502255E+00 -0.3211862064137E+01 -0.7662239342902E+00 -0.6112856485792E+00
-0.6273096064919E+00 -0.2990438509006E+01 -0.7235496338813E+00 -0.6115901107408E+00
-0.5674929538438E+00 -0.2767679107373E+01 -0.6670344221829E+00 -0.6343849067547E+00
-0.4094322905804E+00 -0.2558096012667E+01 -0.5935056694935E+00 -0.6852940724580E+00
-0.1229577848561E+00 -0.2379071365193E+01 -0.5004058374663E+00 -0.7672974917016E+00
 0.3169349916660E+00 -0.2249111340656E+01 -0.3864352755562E+00 -0.8759764719686E+00
 0.9219916719770E+00 -0.2182477939865E+01 -0.2520972573341E+00 -0.9949181386297E+00
 0.1680798810278E+01 -0.2181624145185E+01 -0.1001650684739E+00 -0.1094529822365E+01
 0.2550106972768E+01 -0.2230616034941E+01  0.6389818851768E-01 -0.1137725673505E+01
 0.3454684303029E+01 -0.2294192055974E+01  0.2320984528697E+00 -0.1093410073628E+01
 0.4301064239410E+01 -0.2326633787128E+01  0.3948860963407E+00 -0.9515661558468E+00
-0.8773169508783E+00 -0.3804081825913E+01 -0.9362797693099E+00 -0.6013879121701E+00
-0.7402225950453E+00 -0.3854739397792E+01 -0.9189924122615E+00 -0.7004891499138E+00
-0.6096367980829E+00 -0.3888967380989E+01 -0.8997208492213E+00 -0.7655628797276E+00
-0.5049783347404E+00 -0.3895882485020E+01 -0.8801721770676E+00 -0.7975659174577E+00
-0.4377828028064E+00 -0.3869765491038E+01 -0.8615096716064E+00 -0.8035809742886E+00
-0.4111549923019E+00 -0.3809432548904E+01 -0.8441175208194E+00 -0.7922504586817E+00
-0.4217371117503E+00 -0.3716087385459E+01 -0.8275649117736E+00 -0.7710607607489E+00
-0.4616734871330E+00 -0.3591640646216E+01 -0.8106628387496E+00 -0.7458384141986E+00
-0.5193903773743E+00 -0.3438308158145E+01 -0.7915397188987E+00 -0.7213697261023E+00
-0.5793739826805E+00 -0.3259236953612E+01 -0.7677221986984E+00 -0.7021246823531E+00
-0.6216529992648E+00 -0.3059823523410E+01 -0.7362953155067E+00 -0.6925420037317E+00
-0.6216025706973E+00 -0.2849166724493E+01 -0.6941538693818E+00 -0.6968368514616E+00
-0.5508316123180E+00 -0.2640056371636E+01 -0.6381776063004E+00 -0.7191440256610E+00
-0.3792836644740E+00 -0.2448072552505E+01 -0.5654712518221E+00 -0.7634003767184E+00
-0.7850462630669E-01 -0.2291022820994E+01 -0.4739054965218E+00 -0.8310054862225E+00
 0.3726945899921E+00 -0.2186362421498E+01 -0.3627335717064E+00 -0.9171444720797E+00
 0.9803318095175E+00 -0.2145698326710E+01 -0.2330733069115E+00 -0.1007609000610E+01
 0.1727194303313E+01 -0.2168292677179E+01 -0.8821967608787E-01 -0.1078650329495E+01
 0.2567501935494E+01 -0.2236656383002E+01  0.6616911148443E-01 -0.1102076808038E+01
 0.3429597932157E+01 -0.2317602554314E+01  0.2223990788826E+00 -0.1055569897101E+01
 0.4229305256503E+01 -0.2370911108760E+01  0.3716788350871E+00 -0.9334471963483E+00
-0.8338073151888E+00 -0.3611084450954E+01 -0.8889783664754E+00 -0.5811744325091E+00
-0.7074620026017E+00 -0.3659012323648E+01 -0.8732948782630E+00 -0.6838874952050E+00
-0.5892358105862E+00 -0.3692094806314E+01 -0.8562661361394E+00 -0.7571822735936E+00
-0.4955994145353E+00 -0.3700607064103E+01 -0.8392413082333E+00 -0.8004792785188E+00
-0.4366232519675E+00 -0.3678855561181E+01 -0.8230957748948E+00 -0.8190450453426E+00
-0.4152993470901E+00 -0.3624882480372E+01 -0.8080363775330E+00 -0.8202814477279E+00
-0.4287545743254E+00 -0.3538995188296E+01 -0.7935499643491E+00 -0.8111507772534E+00
-0.4696075273368E+00 -0.3422540307322E+01 -0.7784295785313E+00 -0.7973064381332E+00
-0.5265199887198E+00 -0.3277620019548E+01 -0.7608280129908E+00 -0.7832772712723E+00
-0.5839995658578E+00 -0.3107647969735E+01 -0.7383295181205E+00 -0.7729346067974E+00
-0.6219780045671E+00 -0.2918469981739E+01 -0.7080896078126E+00 -0.7697738704258E+00
-0.6156790837865E+00 -0.2719624104539E+01 -0.6670606476051E+00 -0.7768714836691E+00
-0.5366289950574E+00 -0.2524506870363E+01 -0.6122271822069E+00 -0.7970058898177E+00
-0.3551637444394E+00 -0.2349441489218E+01 -0.5409210547919E+00 -0.8325678046280E+00
-0.4432286338109E-01 -0.2212441932407E+01 -0.4513529658833E+00 -0.8838164895948E+00
 0.4140477533186E+00 -0.2130037704698E+01 -0.3431979953899E+00 -0.9462410341392E+00
 0.1021687710367E+01 -0.2111810252249E+01 -0.2180245116253E+00 -0.1008481874309E+01
 0.1757351312567E+01 -0.2154804977711E+01 -0.7949073421329E-01 -0.1052654745524E+01
 0.2573855572820E+01 -0.2240684951611E+01  0.6663412523470E-01 -0.1058423665840E+01
 0.3402576037954E+01 -0.2338063798595E+01  0.2129024510443E+00 -0.1010461857394E+01
 0.4166355858444E+01 -0.2410919641077E+01  0.3510872487051E+00 -0.9059217072825E+00
-0.7899295940819E+00 -0.3420534894238E+01 -0.8420929102122E+00 -0.5619562827729E+00
-0.6726076320438E+00 -0.3466393313965E+01 -0.8278002015370E+00 -0.6680242762564E+00
-0.5653447282805E+00 -0.3498755203268E+01 -0.8128199984217E+00 -0.7486965287705E+00
-0.4819190869110E+00 -0.3509044707878E+01 -0.7981927708519E+00 -0.8022023904032E+00
-0.4308728859072E+00 -0.3491804524795E+01 -0.7845354938310E+00 -0.8323768544779E+00
-0.4148562767203E+00 -0.3444574803122E+01 -0.7718862274704E+00 -0.8455567741372E+00
-0.4313061695321E+00 -0.3366928255310E+01 -0.7596468962881E+00 -0.8481404246206E+00
-0.4732932613541E+00 -0.3259641570738E+01 -0.7465869775435E+00 -0.8454653526386E+00
-0.5298225459257E+00 -0.3124561712766E+01 -0.7308768626292E+00 -0.8416535833230E+00
-0.5855911597403E+00 -0.2965145801050E+01 -0.7101474027400E+00 -0.8398579107674E+00
-0.6206031803405E+00 -0.2787431827426E+01 -0.6816070117101E+00 -0.8425323535823E+00
-0.6100782076387E+00 -0.2601141754525E+01 -0.6422440020028E+00 -0.8515284200258E+00
-0.5255687635217E+00 -0.2420012667219E+01 -0.5891162949267E+00 -0.8682385329443E+00
-0.3377781919410E+00 -0.2260850689729E+01 -0.5197257840785E+00 -0.8936303543494E+00
-0.2089035509022E-01 -0.2141769987785E+01 -0.4325320750204E+00 -0.9271631796566E+00
 0.4410648257434E+00 -0.2078610762182E+01 -0.3275091921680E+00 -0.9651282058822E+00
 0.1046885079243E+01 -0.2079567914245E+01 -0.2065365700780E+00 -0.9994216051899E+00
 0.1772698538554E+01 -0.2140279315095E+01 -0.7351615640350E-01 -0.1017954925981E+01
 0.2570597624772E+01 -0.2242014748607E+01  0.6571657621224E-01 -0.1007457285015E+01
 0.3374251995410E+01 -0.2354804392157E+01  0.2038895236888E+00 -0.9583331984169E+00
 0.4111474245132E+01 -0.2445660450648E+01  0.3331627638613E+00 -0.8695055181068E+00
-0.7456408779536E+00 -0.3231788244338E+01 -0.7954858363120E+00 -0.5434581323463E+00
-0.6358446836716E+00 -0.3276201243171E+01 -0.7824091970272E+00 -0.6526678001818E+00
-0.5383160155989E+00 -0.3308323468962E+01 -0.7693279083760E+00 -0.7399559957780E+00
-0.4643179697755E+00 -0.3320727054461E+01 -0.7570090161275E+00 -0.8026306226622E+00
-0.4208343903677E+00 -0.3308339872883E+01 -0.7458348637640E+00 -0.8434260419297E+00
-0.4100229138843E+00 -0.3268399173698E+01 -0.7356844284791E+00 -0.8678016630611E+00
-0.4295135461509E+00 -0.3199865512027E+01 -0.7258758224519E+00 -0.8816053485369E+00
-0.4728268343646E+00 -0.3102935561794E+01 -0.7151524898882E+00 -0.8897730990211E+00
-0.5294153171836E+00 -0.2979070811443E+01 -0.7016972361814E+00 -0.8959125217709E+00
-0.5843251381888E+00 -0.2831559003825E+01 -0.6831768385829E+00 -0.9023644530814E+00
-0.6177943864097E+00 -0.2666377619582E+01 -0.6568344109859E+00 -0.9104614159963E+00
-0.6051713837289E+00 -0.2493181321833E+01 -0.6196705503462E+00 -0.9207570002332E+00
-0.5181060620939E+00 -0.2325799914206E+01 -0.5687812037354E+00 -0.9332296329146E+00
-0.3275731702282E+00 -0.2181310998121E+01 -0.5017768411469E+00 -0.9475087779301E+00
-0.8468835975787E-02 -0.2077898980812E+01 -0.4172735695754E+00 -0.9624806208508E+00
 0.4538777289920E+00 -0.2031016225701E+01 -0.3154277040421E+00 -0.9755509308506E+00
 0.1056564937999E+01 -0.2048100300301E+01 -0.1983070754155E+00 -0.9821022841692E+00
 0.1774255129663E+01 -0.2124072109646E+01 -0.6996339703924E-01 -0.9757584730016E+00
 0.2558705690894E+01 -0.2240098756897E+01  0.6372138774883E-01 -0.9497821409377E+00
 0.3345016001147E+01 -0.2367170433537E+01  0.1955691164362E+00 -0.8994874808353E+00
 0.4064047562696E+01 -0.2474246522339E+01  0.3179602128093E+00 -0.8248428174259E+00
-0.7008940624312E+00 -0.3044214256619E+01 -0.7490216749713E+00 -0.5254312897140E+00
-0.5973383266559E+00 -0.3087762630682E+01 -0.7370202024500E+00 -0.6375929346668E+00
-0.5084802002954E+00 -0.3120155763956E+01 -0.7257272036644E+00 -0.7307788947980E+00
-0.4431765085539E+00 -0.3135124951275E+01 -0.7156603026299E+00 -0.8015983976923E+00
-0.4068395535179E+00 -0.3128088806358E+01 -0.7069856825102E+00 -0.8519785659543E+00
-0.4010429329271E+00 -0.3096122803642E+01 -0.6994331577363E+00 -0.8866957875044E+00
-0.4235422130982E+00 -0.3037662506522E+01 -0.6922409542392E+00 -0.9111012897411E+00
-0.4683268442928E+00 -0.2952308062957E+01 -0.6841269916443E+00 -0.9296916429392E+00
-0.5254025369624E+00 -0.2841014403820E+01 -0.6732833981893E+00 -0.9454919089816E+00
-0.5803188483682E+00 -0.2706697765436E+01 -0.6574033325570E+00 -0.9599657556991E+00
-0.6137040271474E+00 -0.2555029069075E+01 -0.6337466286880E+00 -0.9732633717624E+00
-0.6011577615447E+00 -0.2395349701744E+01 -0.5993015015880E+00 -0.9845776436966E+00
-0.5144737423082E+00 -0.2241347370484E+01 -0.5511642307715E+00 -0.9924380690478E+00
-0.3247596381665E+00 -0.2110189054816E+01 -0.4869897458533E+00 -0.9951705918339E+00
-0.7146359322624E-02 -0.2020140699379E+01 -0.4054574177822E+00 -0.9911956832369E+00
 0.4526352469744E+00 -0.1986598216659E+01 -0.3067925985086E+00 -0.9791740805711E+00
 0.1051167206102E+01 -0.2016857733457E+01 -0.1931381083491E+00 -0.9580672544818E+00
 0.1762665897836E+01 -0.2105744302988E+01 -0.6861568205297E-01 -0.9271547760464E+00
 0.2538779769816E+01 -0.2234520699973E+01  0.6085181487538E-01 -0.8859651101301E+00
 0.3315088704322E+01 -0.2374630703499E+01  0.1880916029674E+00 -0.8342919272884E+00
 0.4023631131638E+01 -0.2495920142183E+01  0.3055422024440E+00 -0.7727066068788E+00
-0.6556393885764E+00 -0.2857180769372E+01 -0.7025640420586E+00 -0.5076536786555E+00
-0.5572446853619E+00 -0.2900395056962E+01 -0.6915279587694E+00 -0.6225854677275E+00
-0.4761592949188E+00 -0.2933579564035E+01 -0.6819477819525E+00 -0.7209629019556E+00
-0.4188820541263E+00 -0.2951649341139E+01 -0.6741062890981E+00 -0.7988938734017E+00
-0.3892478244556E+00 -0.2950587724587E+01 -0.6679671197619E+00 -0.8577681505727E+00
-0.3881999799272E+00 -0.2927403071806E+01 -0.6631206202279E+00 -0.9018779080456E+00
-0.4135939423403E+00 -0.2880062980611E+01 -0.6587313944061E+00 -0.9361612940565E+00
-0.4599277892700E+00 -0.2807548733952E+01 -0.6534953143822E+00 -0.9646770368725E+00
-0.5178699337104E+00 -0.2710196670574E+01 -0.6456133304772E+00 -0.9898361961556E+00
-0.5736255470442E+00 -0.2590361170582E+01 -0.6327973529547E+00 -0.1012189283848E+01
-0.6083665886736E+00 -0.2453168696706E+01 -0.6123070661999E+00 -0.1030663941324E+01
-0.5980624023338E+00 -0.2307406149330E+01 -0.5810937189918E+00 -0.1043038922000E+01
-0.5146869807660E+00 -0.2166389785775E+01 -0.5362153612984E+00 -0.1046349227821E+01
-0.3293277734835E+00 -0.2047202164801E+01 -0.4753059947395E+00 -0.1037597221925E+01
-0.1686049779744E-01 -0.1968209722047E+01 -0.3970140498848E+00 -0.1014724659850E+01
 0.4374803497500E+00 -0.1945083955201E+01 -0.3015207255833E+00 -0.9776230429953E+00
 0.1030924499888E+01 -0.1985585478134E+01 -0.1909321984943E+00 -0.9288030855798E+00
 0.1738223547026E+01 -0.2085045347364E+01 -0.6936436110124E-01 -0.8731875228718E+00
 0.2511088376271E+01 -0.2224992767570E+01  0.5721912259291E-01 -0.8165719767844E+00
 0.3284571266786E+01 -0.2376784723525E+01  0.1815573113576E+00 -0.7631773453787E+00
 0.3989984295232E+01 -0.2510069592684E+01  0.2959829449200E+00 -0.7139936608126E+00
-0.6098256270801E+00 -0.2670040250512E+01 -0.6559731852931E+00 -0.4899308351184E+00
-0.5157197551796E+00 -0.2713393538813E+01 -0.6458226684221E+00 -0.6074457193152E+00
-0.4416782258118E+00 -0.2747885028377E+01 -0.6379126603434E+00 -0.7102935044936E+00
-0.3918357874039E+00 -0.2769651216740E+01 -0.6322974102507E+00 -0.7942698295063E+00
-0.3684465527229E+00 -0.2775289348074E+01 -0.6287471895284E+00 -0.8604854270674E+00
-0.3718137041049E+00 -0.2761797316582E+01 -0.6267222134763E+00 -0.9129500906108E+00
-0.3999020772505E+00 -0.2726707371212E+01 -0.6253218990105E+00 -0.9562935932731E+00
-0.4477766628287E+00 -0.2668356604436E+01 -0.6232266627397E+00 -0.9941703336141E+00
-0.5068828492271E+00 -0.2586361576197E+01 -0.6186488943035E+00 -0.1028379632496E+01
-0.5642334327216E+00 -0.2482338171342E+01 -0.6093143298921E+00 -0.1058552803724E+01
-0.6016981912723E+00 -0.2360640088094E+01 -0.5924676647018E+00 -0.1082377282104E+01
-0.5957366753329E+00 -0.2229262217883E+01 -0.5649997870624E+00 -0.1096175105876E+01
-0.5185452545805E+00 -0.2100917289995E+01 -0.5238925167218E+00 -0.1095431884907E+01
-0.3410508078713E+00 -0.1992416737398E+01 -0.4666935160082E+00 -0.1075753891423E+01
-0.3740304223695E-01 -0.1922221039806E+01 -0.3919248222488E+00 -0.1034473717398E+01
 0.4085468505924E+00 -0.1906581269607E+01 -0.2996068882675E+00 -0.9725252963037E+00
 0.9958627968616E+00 -0.1954321392378E+01 -0.1916917219597E+00 -0.8958112832953E+00
 0.1700876621570E+01 -0.2061911351750E+01 -0.7220694711198E-01 -0.8149218889321E+00
 0.2475587836204E+01 -0.2211357527585E+01  0.5284606251111E-01 -0.7421972331645E+00
 0.3253474957825E+01 -0.2373371928236E+01  0.1760206085408E+00 -0.6866327401818E+00
 0.3963102575106E+01 -0.2516245150604E+01  0.2893714892123E+00 -0.6497150396100E+00
-0.5634011202362E+00 -0.2482118373936E+01 -0.6091039079108E+00 -0.4720977785631E+00
-0.4729271245828E+00 -0.2526018932851E+01 -0.5997892204242E+00 -0.5919916268204E+00
-0.4053749530591E+00 -0.2562317574614E+01 -0.5935385143791E+00 -0.6985498100991E+00
-0.3624593752079E+00 -0.2588421416076E+01 -0.5901761670511E+00 -0.7874514635231E+00
-0.3448522873415E+00 -0.2601568502902E+01 -0.5892841668297E+00 -0.8597851877455E+00
-0.3522378126063E+00 -0.2598770528772E+01 -0.5902016770703E+00 -0.9194817402209E+00
-0.3827294678984E+00 -0.2577138540777E+01 -0.5919736105562E+00 -0.9709804478205E+00
-0.4320326877561E+00 -0.2534341855515E+01 -0.5932749174947E+00 -0.1017589806893E+01
-0.4924880768289E+00 -0.2469190550339E+01 -0.5923357342601E+00 -0.1060530537251E+01
-0.5520689011340E+00 -0.2382402092173E+01 -0.5868942074069E+00 -0.1098539423458E+01
-0.5935001894021E+00 -0.2277340618971E+01 -0.5741681702304E+00 -0.1128071270685E+01
-0.5938607608862E+00 -0.2160974523800E+01 -0.5509670651474E+00 -0.1143963510382E+01
-0.5256315470833E+00 -0.2045170944815E+01 -0.5141605060412E+00 -0.1140094262823E+01
-0.3594782756126E+00 -0.1946250493605E+01 -0.4611457607152E+00 -0.1110557866155E+01
-0.6840639048789E-01 -0.1882702376338E+01 -0.3902217591800E+00 -0.1051837172635E+01
 0.3659752264685E+00 -0.1871600225430E+01 -0.3011250042794E+00 -0.9655508145386E+00
 0.9458086876285E+00 -0.1923418151610E+01 -0.1955218957098E+00 -0.8606818348325E+00
 0.1650221971033E+01 -0.2036476730293E+01 -0.7725095300301E-01 -0.7535149039987E+00
 0.2431913555224E+01 -0.2193591333932E+01  0.4766444496869E-01 -0.6634926713860E+00
 0.3221731668519E+01 -0.2364280240947E+01  0.1714902880697E+00 -0.6051951595897E+00
 0.3943244343395E+01 -0.2514173437944E+01  0.2858141853492E+00 -0.5809838017208E+00
-0.5163148568891E+00 -0.2292703691793E+01 -0.5618037181080E+00 -0.4540216776441E+00
-0.4290452327083E+00 -0.2337487553416E+01 -0.5533065654699E+00 -0.5760613614655E+00
-0.3676098510308E+00 -0.2376071522278E+01 -0.5487362828385E+00 -0.6855081232542E+00
-0.3312012504079E+00 -0.2407190882250E+01 -0.5476784346927E+00 -0.7781415418873E+00
-0.3189125656222E+00 -0.2428727467854E+01 -0.5495280148839E+00 -0.8552921623161E+00
-0.3298595778290E+00 -0.2437701640038E+01 -0.5535122518213E+00 -0.9210138216934E+00
-0.3623687122193E+00 -0.2430805073639E+01 -0.5586347654959E+00 -0.9796783816859E+00
-0.4128701233782E+00 -0.2405023942838E+01 -0.5635788216413E+00 -0.1034325038319E+01
-0.4747195153564E+00 -0.2358295038031E+01 -0.5666029191206E+00 -0.1085657351045E+01
-0.5370042129465E+00 -0.2290298436441E+01 -0.5654605383035E+00 -0.1131573986479E+01
-0.5834671201520E+00 -0.2203206289332E+01 -0.5573346902018E+00 -0.1167333377089E+01
-0.5919487759548E+00 -0.2102729732465E+01 -0.5389357097148E+00 -0.1186281048635E+01
-0.5353095330469E+00 -0.1999633477889E+01 -0.5069886097419E+00 -0.1180636960417E+01
-0.3839193436855E+00 -0.1909477256067E+01 -0.4586793267853E+00 -0.1142840721925E+01
-0.1093113383317E+00 -0.1850620521390E+01 -0.3919863777855E+00 -0.1068188370369E+01
 0.3099499238259E+00 -0.1841100239989E+01 -0.3062300677958E+00 -0.9584483879655E+00
 0.8804063937883E+00 -0.1893594419249E+01 -0.2026376081117E+00 -0.8251723655197E+00
 0.1585480748625E+01 -0.2009102419211E+01 -0.8472433537975E-01 -0.6902993769741E+00
 0.2379337873839E+01 -0.2171805652616E+01  0.4150644486319E-01 -0.5812016350423E+00
 0.3189185280890E+01 -0.2349550188976E+01  0.1679270208853E+00 -0.5194329291700E+00
 0.3930950345672E+01 -0.2503768247827E+01  0.2854364238224E+00 -0.5090011956890E+00
-0.4685177708597E+00 -0.2101037512702E+01 -0.5139110643701E+00 -0.4356053066861E+00
-0.3842748633234E+00 -0.2146961266431E+01 -0.5062472334945E+00 -0.5595153890410E+00
-0.3287748508658E+00 -0.2188284756020E+01 -0.5034119288787E+00 -0.6709432760516E+00
-0.2985423605645E+00 -0.2225132080268E+01 -0.5047348956876E+00 -0.7660231198395E+00
-0.2911076082232E+00 -0.2256001853690E+01 -0.5094218999737E+00 -0.8466057082332E+00
-0.3051002135022E+00 -0.2277889213912E+01 -0.5165978931808E+00 -0.9170637437431E+00
-0.3391443511944E+00 -0.2287062632777E+01 -0.5252414046209E+00 -0.9818203574469E+00
-0.3904840438864E+00 -0.2279826281886E+01 -0.5340620731126E+00 -0.1043733514205E+01
-0.4536077214849E+00 -0.2253203938485E+01 -0.5413623400609E+00 -0.1103077196025E+01
-0.5188698307049E+00 -0.2205725835473E+01 -0.5449191413555E+00 -0.1157001537128E+01
-0.5711995574764E+00 -0.2138188214155E+01 -0.5418775624009E+00 -0.1199637573541E+01
-0.5893576206575E+00 -0.2054820721150E+01 -0.5288356762417E+00 -0.1222859619035E+01
-0.5467204187006E+00 -0.1965013202399E+01 -0.5023467317055E+00 -0.1217200700267E+01
-0.4134176770729E+00 -0.1883231716751E+01 -0.4593298856092E+00 -0.1173300217775E+01
-0.1593158635643E+00 -0.1827420097612E+01 -0.3973471981563E+00 -0.1084857217727E+01
 0.2407627570919E+00 -0.1816564399790E+01 -0.3151603332359E+00 -0.9530729684756E+00
 0.7991525540783E+00 -0.1866023660882E+01 -0.2133742245402E+00 -0.7912948805948E+00
 0.1505458877489E+01 -0.1980430951221E+01 -0.9499441616196E-01 -0.6268954673294E+00
 0.2316681609062E+01 -0.2146241828239E+01  0.3408795667261E-01 -0.4962120730898E+00
 0.3155562070663E+01 -0.2329362067134E+01  0.1652400031681E+00 -0.4299159335250E+00
 0.3927056045311E+01 -0.2485133262938E+01  0.2883845607718E+00 -0.4350403667739E+00
-0.4199644847207E+00 -0.1906302993824E+01 -0.4652535026417E+00 -0.4167913383466E+00
-0.3388476378286E+00 -0.1953537292903E+01 -0.4584769929781E+00 -0.5422376959554E+00
-0.2893027843937E+00 -0.1998034465095E+01 -0.4574674567145E+00 -0.6546273368125E+00
-0.2650010973439E+00 -0.2041362396286E+01 -0.4612727055995E+00 -0.7507598066224E+00
-0.2619512413624E+00 -0.2082568060010E+01 -0.4689038672616E+00 -0.8333037835535E+00
-0.2784154850184E+00 -0.2118557395569E+01 -0.4793945832611E+00 -0.9071314755149E+00
-0.3134166274628E+00 -0.2145173940864E+01 -0.4917181209926E+00 -0.9768205534835E+00
-0.3650989479683E+00 -0.2158067796446E+01 -0.5046333564025E+00 -0.1045140480796E+01
-0.4291934246543E+00 -0.2153346010226E+01 -0.5165078946726E+00 -0.1112047774191E+01
-0.4974717180902E+00 -0.2128309985497E+01 -0.5251563485430E+00 -0.1174068703824E+01
-0.5562226266742E+00 -0.2082220225458E+01 -0.5276885782895E+00 -0.1224312972855E+01
-0.5853011217027E+00 -0.2017612466817E+01 -0.5205827254613E+00 -0.1253240402109E+01
-0.5587821180475E+00 -0.1942218193076E+01 -0.5002000696783E+00 -0.1249707488040E+01
-0.4467204112951E+00 -0.1869009653539E+01 -0.4631460198681E+00 -0.1202437372010E+01
-0.2173046607160E+00 -0.1815071846839E+01 -0.4064753075679E+00 -0.1103087212551E+01
 0.1589079897553E+00 -0.1800102244465E+01 -0.3282388558331E+00 -0.9513968024121E+00
 0.7014639883162E+00 -0.1842470747109E+01 -0.2282013551591E+00 -0.7614061903394E+00
 0.1408499773989E+01 -0.1951495370412E+01 -0.1085991209029E+00 -0.5653679225663E+00
 0.2242154904233E+01 -0.2117257492812E+01  0.2497948265642E-01 -0.4096585462649E+00
 0.3120405615467E+01 -0.2303973137837E+01  0.1632864979592E+00 -0.3371640662025E+00
 0.3932716591732E+01 -0.2458525989178E+01  0.2948381249043E+00 -0.3604073985311E+00
-0.3706158294961E+00 -0.1707612179329E+01 -0.4156456079586E+00 -0.3975676019915E+00
-0.2930364571930E+00 -0.1756236840440E+01 -0.4098546656339E+00 -0.5241356314380E+00
-0.2496773124622E+00 -0.1804334178463E+01 -0.4108023043064E+00 -0.6363248958334E+00
-0.2311368952367E+00 -0.1854950564895E+01 -0.4172174982433E+00 -0.7319933382393E+00
-0.2319901933076E+00 -0.1907553439662E+01 -0.4279087329702E+00 -0.8149465914616E+00
-0.2502958300715E+00 -0.1958862965372E+01 -0.4418317656726E+00 -0.8907075686019E+00
-0.2855863538292E+00 -0.2004307951912E+01 -0.4579788679727E+00 -0.9640825143900E+00
-0.3369799998533E+00 -0.2038951652766E+01 -0.4751863376046E+00 -0.1037842920951E+01
-0.4015450173752E+00 -0.2058027313917E+01 -0.4919144735885E+00 -0.1111763554553E+01
-0.4726138902132E+00 -0.2057570385394E+01 -0.5060368626620E+00 -0.1181909010728E+01
-0.5380109850346E+00 -0.2035176962587E+01 -0.5146375971930E+00 -0.1240515186451E+01
-0.5788715146892E+00 -0.1991496056154E+01 -0.5140735218289E+00 -0.1276727862327E+01
-0.5701942024598E+00 -0.1932316770669E+01 -0.5005022020839E+00 -0.1277794604519E+01
-0.4822463257943E+00 -0.1868657564764E+01 -0.4701807851180E+00 -0.1230475421685E+01
-0.2817589685482E+00 -0.1816122807185E+01 -0.4195763613988E+00 -0.1123961748787E+01
 0.6521372495298E-01 -0.1794586141159E+01 -0.3458744883952E+00 -0.9554961903057E+00
 0.5867966923924E+00 -0.1825476890789E+01 -0.2477360433708E+00 -0.7382896883676E+00
 0.1292467044427E+01 -0.1923929752202E+01 -0.1262925434369E+00 -0.5084326662096E+00
 0.2153074037030E+01 -0.2085358185771E+01  0.1354317045354E-01 -0.3231584795241E+00
 0.3082945483120E+01 -0.2273477408366E+01  0.1618936173631E+00 -0.2415640439523E+00
 0.3949438606455E+01 -0.2424222418640E+01  0.3050432421085E+00 -0.2863222227588E+00
-0.3204426627835E+00 -0.1503989176220E+01 -0.3648863732378E+00 -0.3779735123655E+00
-0.2471692122678E+00 -0.1553991632039E+01 -0.3602321742293E+00 -0.5051373705457E+00
-0.2104437497521E+00 -0.1606132761327E+01 -0.3633153076296E+00 -0.6157835893095E+00
-0.1975516737875E+00 -0.1664927753576E+01 -0.3724958910233E+00 -0.7093380441637E+00
-0.2018007069974E+00 -0.1730050661773E+01 -0.3863702795115E+00 -0.7910803948147E+00
-0.2212652066666E+00 -0.1797904562986E+01 -0.4038339599481E+00 -0.8672838835108E+00
-0.2561004168817E+00 -0.1863539072222E+01 -0.4239279041377E+00 -0.9430115375535E+00
-0.3064466812149E+00 -0.1921551828835E+01 -0.4455997086500E+00 -0.1021118625758E+01
-0.3707800403503E+00 -0.1966404029730E+01 -0.4674368209814E+00 -0.1101357318988E+01
-0.4441264903081E+00 -0.1992879875518E+01 -0.4874012804281E+00 -0.1179533233156E+01
-0.5160211552367E+00 -0.1996822074497E+01 -0.5025686534355E+00 -0.1247201649418E+01
-0.5690701981606E+00 -0.1976829343246E+01 -0.5091799158686E+00 -0.1292344769195E+01
-0.5794537589298E+00 -0.1936480438135E+01 -0.5031868469110E+00 -0.1300742623722E+01
-0.5180579823602E+00 -0.1884342165734E+01 -0.4804800367784E+00 -0.1257257165916E+01
-0.3506569563170E+00 -0.1833740673561E+01 -0.4368795324857E+00 -0.1148292721046E+01
-0.3896295397686E-01 -0.1803808081455E+01 -0.3685542125782E+00 -0.9674847781361E+00
 0.4547897642083E+00 -0.1818644073018E+01 -0.2727708658265E+00 -0.7252519634207E+00
 0.1154878571499E+01 -0.1900189889948E+01 -0.1490622659111E+00 -0.4596156245924E+00
 0.2045440013678E+01 -0.2051669531670E+01 -0.1245903617099E-02 -0.2393530198198E+00
 0.3041584850175E+01 -0.2237072833153E+01  0.1609024058020E+00 -0.1434758987899E+00
 0.3979534643878E+01 -0.2381666204422E+01  0.3195736926531E+00 -0.2132499721519E+00
-0.2694317153619E+00 -0.1294346451889E+01 -0.3127556381106E+00 -0.3581077869782E+00
-0.2016476725779E+00 -0.1345627552931E+01 -0.3094550497131E+00 -0.4851851960428E+00
-0.1722208167800E+00 -0.1402316300003E+01 -0.3149074280491E+00 -0.5927178016082E+00
-0.1648877816841E+00 -0.1470305613875E+01 -0.3270386839851E+00 -0.6823716031369E+00
-0.1719810613025E+00 -0.1549137702763E+01 -0.3442237579423E+00 -0.7612422386515E+00
-0.1918777983377E+00 -0.1634734910499E+01 -0.3653225472111E+00 -0.8363678905288E+00
-0.2254573292766E+00 -0.1721847193722E+01 -0.3894609104030E+00 -0.9130321833911E+00
-0.2738885098404E+00 -0.1804798152933E+01 -0.4157373387497E+00 -0.9942414560698E+00
-0.3370905762428E+00 -0.1877450880441E+01 -0.4429082979366E+00 -0.1079908325158E+01
-0.4118996144888E+00 -0.1933416829219E+01 -0.4690632957312E+00 -0.1165826115242E+01
-0.4897317879975E+00 -0.1966746122405E+01 -0.4912955894014E+00 -0.1243112378611E+01
-0.5548500035847E+00 -0.1973863346613E+01 -0.5057426775758E+00 -0.1298790489939E+01
-0.5848859393158E+00 -0.1955905172983E+01 -0.5081582300320E+00 -0.1317399869770E+01
-0.5518521080922E+00 -0.1918490629352E+01 -0.4940685548510E+00 -0.1282122792568E+01
-0.4213585292670E+00 -0.1871729439830E+01 -0.4586176006534E+00 -0.1176454496727E+01
-0.1515239611120E+00 -0.1832665914189E+01 -0.3968379809736E+00 -0.9893905516280E+00
 0.3056426636598E+00 -0.1826965992796E+01 -0.3042646703611E+00 -0.7261253709067E+00
 0.9926845756069E+00 -0.1884078760390E+01 -0.1782788396131E+00 -0.4236690701525E+00
 0.1914778891505E+01 -0.2017897895300E+01 -0.2062380106620E-01 -0.1617019435580E+00
 0.2991065606597E+01 -0.2195738776957E+01  0.1590653682983E+00 -0.4621272353012E-01
 0.4026457797457E+01 -0.2319090795797E+01  0.3414734054203E+00 -0.1369438400820E+00
-0.2175479821436E+00 -0.1077409969988E+01 -0.2589915942856E+00 -0.3381034708960E+00
-0.1569340076625E+00 -0.1129676370087E+01 -0.2573220793843E+00 -0.4641863728481E+00
-0.1356649989771E+00 -0.1191450047119E+01 -0.2654230131743E+00 -0.5667249326495E+00
-0.1337658036874E+00 -0.1269750229461E+01 -0.2807032108125E+00 -0.6505407977702E+00
-0.1430751029082E+00 -0.1363483223211E+01 -0.3013116697138E+00 -0.7248577916686E+00
-0.1626338932838E+00 -0.1467913250100E+01 -0.3261094335361E+00 -0.7973647464024E+00
-0.1941132808926E+00 -0.1577645460975E+01 -0.3543517536538E+00 -0.8734499752045E+00
-0.2396565457606E+00 -0.1687014132133E+01 -0.3853341413208E+00 -0.9563235832360E+00
-0.3006182242828E+00 -0.1789550520328E+01 -0.4180337551513E+00 -0.1046271310151E+01
-0.3757484080931E+00 -0.1877853229719E+01 -0.4507203342786E+00 -0.1139375165481E+01
-0.4585193305426E+00 -0.1944198612864E+01 -0.4805435958419E+00 -0.1226617169441E+01
-0.5350364040178E+00 -0.1982752057267E+01 -0.5035576997605E+00 -0.1294326004294E+01
-0.5846603578271E+00 -0.1992015155413E+01 -0.5153351103271E+00 -0.1326118512271E+01
-0.5811171101612E+00 -0.1974187911373E+01 -0.5110610119222E+00 -0.1303893091657E+01
-0.4909523807670E+00 -0.1935131000638E+01 -0.4852166835113E+00 -0.1208406007540E+01
-0.2701219726315E+00 -0.1887974655706E+01 -0.4316193320991E+00 -0.1023232260522E+01
 0.1390878470827E+00 -0.1857836109625E+01 -0.3437496576307E+00 -0.7455652406468E+00
 0.8014958893055E+00 -0.1881414141696E+01 -0.2159836536965E+00 -0.4067422782000E+00
 0.1752189862721E+01 -0.1987420945946E+01 -0.4704621734610E-01 -0.9559190414256E-01
 0.2928717533549E+01 -0.2150140962799E+01  0.1557153164704E+00  0.5018677576098E-01
 0.4094416723257E+01 -0.2239375715514E+01  0.3710082070770E+00 -0.9319507856264E-01
-0.1649178100137E+00 -0.8517638961345E+00 -0.2033363442596E+00 -0.3182764930639E+00
-0.1136883299900E+00 -0.9046643009626E+00 -0.2036705292254E+00 -0.4420892988452E+00
-0.1016031891553E+00 -0.9723131660484E+00 -0.2147832742412E+00 -0.5373808640352E+00
-0.1048935145181E+00 -0.1062314276222E+01 -0.2334415616265E+00 -0.6133164840293E+00
-0.1156916844680E+00 -0.1172204006774E+01 -0.2575791420866E+00 -0.6814599486004E+00
-0.1341317768458E+00 -0.1296428531622E+01 -0.2861120659570E+00 -0.7498409372156E+00
-0.1626800850701E+00 -0.1429706965528E+01 -0.3184774148652E+00 -0.8237411617174E+00
-0.2043157026379E+00 -0.1566768677777E+01 -0.3542168813612E+00 -0.9066077864840E+00
-0.2617574113403E+00 -0.1701183867263E+01 -0.3925882615706E+00 -0.9993367513460E+00
-0.3357442153735E+00 -0.1824803683127E+01 -0.4321095861391E+00 -0.1098657037284E+01
-0.4219693275359E+00 -0.1928234463351E+01 -0.4700407651815E+00 -0.1195785635286E+01
-0.5085431109905E+00 -0.2003360511792E+01 -0.5023807320426E+00 -0.1276687197580E+01
-0.5767964022707E+00 -0.2045925350693E+01 -0.5245443584090E+00 -0.1324472794715E+01
-0.6027657879409E+00 -0.2054345173513E+01 -0.5314222002096E+00 -0.1320356650078E+01
-0.5552347321094E+00 -0.2029282059272E+01 -0.5169033659786E+00 -0.1242938173084E+01
-0.3902709978023E+00 -0.1977842059325E+01 -0.4736226184829E+00 -0.1070212236770E+01
-0.4248907028099E-01 -0.1921170850997E+01 -0.3927319901077E+00 -0.7886991265569E+00
 0.5775209213151E+00 -0.1901154507102E+01 -0.2647267211021E+00 -0.4175267419095E+00
 0.1549422738950E+01 -0.1965717300945E+01 -0.8325891363967E-01 -0.4870359227612E-01
 0.2841414674485E+01 -0.2104465631955E+01  0.1473898107022E+00  0.1378187830484E+00
 0.4229814884863E+01 -0.2172639253256E+01  0.4114351324523E+00 -0.6026902535689E-01
-0.1116422412403E+00 -0.6157336266865E+00 -0.1454751757531E+00 -0.2989554544182E+00
-0.7277983507969E-01 -0.6690723541810E+00 -0.1483704400630E+00 -0.4187439696071E+00
-0.7098624256723E-01 -0.7439403402728E+00 -0.1629853189967E+00 -0.5040834643690E+00
-0.7900075829219E-01 -0.8475033469138E+00 -0.1853008238024E+00 -0.5701105480216E+00
-0.9045701053435E-01 -0.9749067429596E+00 -0.2130727538738E+00 -0.6306757599093E+00
-0.1070558590626E+00 -0.1119719730284E+01 -0.2453551215254E+00 -0.6935659181314E+00
-0.1319531292420E+00 -0.1277169890747E+01 -0.2818246081973E+00 -0.7636535187376E+00
-0.1687218555055E+00 -0.1442854854363E+01 -0.3223153467767E+00 -0.8446331653386E+00
-0.2212895166562E+00 -0.1610866554620E+01 -0.3664312197155E+00 -0.9382536223883E+00
-0.2924047703179E+00 -0.1772710362936E+01 -0.4130230328053E+00 -0.1042297126667E+01
-0.3801119429587E+00 -0.1917539880265E+01 -0.4595303714924E+00 -0.1148653610636E+01
-0.4746298562248E+00 -0.2035015596896E+01 -0.5019290981034E+00 -0.1243319913996E+01
-0.5594108055733E+00 -0.2118096826351E+01 -0.5355015343645E+00 -0.1309408271298E+01
-0.6133056716988E+00 -0.2161235555074E+01 -0.5549082536234E+00 -0.1328226870215E+01
-0.6086456488438E+00 -0.2159272351075E+01 -0.5535836082327E+00 -0.1277241182100E+01
-0.5045106295655E+00 -0.2111342003866E+01 -0.5231705344821E+00 -0.1129734687820E+01
-0.2324217624798E+00 -0.2029995154028E+01 -0.4524833900440E+00 -0.8599932840926E+00
 0.3211593301344E+00 -0.1956847703992E+01 -0.3271376796463E+00 -0.4669151673420E+00
 0.1294590303517E+01 -0.1962058946778E+01 -0.1334937306414E+00 -0.3352559570772E-01
 0.2727541820194E+01 -0.2067999629583E+01  0.1319084400879E+00  0.2118206344223E+00
 0.4374664495571E+01 -0.2126828904931E+01  0.4495671248272E+00 -0.2104707199772E-01
-0.5796135246068E-01 -0.3672082343520E+00 -0.8503391862964E-01 -0.2806138570136E+00
-0.3533638003090E-01 -0.4209835614978E+00 -0.9126398966568E-01 -0.3938183509508E+00
-0.4482955515858E-01 -0.5052189311499E+00 -0.1100096989010E+00 -0.4659502613739E+00
-0.5669091093049E-01 -0.6247150532573E+00 -0.1362811948683E+00 -0.5202050694762E+00
-0.6785286926186E-01 -0.7709495015248E+00 -0.1677604766572E+00 -0.5721313606120E+00
-0.8199152739130E-01 -0.9368382847768E+00 -0.2037659654700E+00 -0.6283517127695E+00
-0.1026812663282E+00 -0.1118675756184E+01 -0.2442714081424E+00 -0.6929906716866E+00
-0.1337415577743E+00 -0.1313456429139E+01 -0.2894396016957E+00 -0.7699820446424E+00
-0.1800582633707E+00 -0.1516401157596E+01 -0.3392918892491E+00 -0.8621521427906E+00
-0.2463471068288E+00 -0.1719255963131E+01 -0.3931206198499E+00 -0.9687925163062E+00
-0.3331080812469E+00 -0.1910086977343E+01 -0.4486390184031E+00 -0.1082991905399E+01
-0.4327226645266E+00 -0.2076456172468E+01 -0.5018357748768E+00 -0.1191250325185E+01
-0.5308245473947E+00 -0.2208566409861E+01 -0.5478781996152E+00 -0.1277263758574E+01
-0.6094636412074E+00 -0.2296885922960E+01 -0.5812699214950E+00 -0.1323326685770E+01
-0.6456078144912E+00 -0.2330257100043E+01 -0.5951729917757E+00 -0.1307097015611E+01
-0.6043927703579E+00 -0.2298686607841E+01 -0.5806158842916E+00 -0.1199162316815E+01
-0.4212629090358E+00 -0.2201088779099E+01 -0.5244703454422E+00 -0.9624668825468E+00
 0.3426644756457E-01 -0.2068722807246E+01 -0.4068912779994E+00 -0.5676878716641E+00
 0.9742958224118E+00 -0.1991258289498E+01 -0.2033924964479E+00 -0.6841684926598E-01
 0.2559333136677E+01 -0.2049862999565E+01  0.1018940289408E+00  0.2698368131954E+00
 0.4544644352084E+01 -0.2091144673125E+01  0.4906999431038E+00  0.1371965347297E-01
-0.4314900033060E-02 -0.1034239597498E+00 -0.2154777227767E-01 -0.2638697086633E+00
-0.2902783528888E-02 -0.1581983603782E+00 -0.3222022926154E-01 -0.3666183220455E+00
-0.2420308019144E-01 -0.2553094790514E+00 -0.5590251268159E-01 -0.4216980733644E+00
-0.3839944322390E-01 -0.3936960548437E+00 -0.8641910090127E-01 -0.4628117199602E+00
-0.4823871540829E-01 -0.5598655417068E+00 -0.1216208532353E+00 -0.5055621802375E+00
-0.5948931569569E-01 -0.7469034136719E+00 -0.1612785482768E+00 -0.5541686017681E+00
-0.7565913273129E-01 -0.9528473819938E+00 -0.2057013060102E+00 -0.6117594590741E+00
-0.1003926648012E+00 -0.1176583588981E+01 -0.2553952545621E+00 -0.6824653415916E+00
-0.1391700205055E+00 -0.1415200546332E+01 -0.3108741179998E+00 -0.7703363150905E+00
-0.1985312385393E+00 -0.1661535091518E+01 -0.3720132715548E+00 -0.8766648020113E+00
-0.2814994926095E+00 -0.1903153634932E+01 -0.4369306320190E+00 -0.9963833459786E+00
-0.3826203530457E+00 -0.2125709551273E+01 -0.5016659883392E+00 -0.1117073520543E+01
-0.4896701127701E+00 -0.2316666984768E+01 -0.5612674278712E+00 -0.1223670129455E+01
-0.5881520514784E+00 -0.2462610464242E+01 -0.6101525122360E+00 -0.1300393655205E+01
-0.6603913999947E+00 -0.2546701225841E+01 -0.6414185347249E+00 -0.1326491945475E+01
-0.6798244608742E+00 -0.2550089498852E+01 -0.6459828015711E+00 -0.1272728424660E+01
-0.5944094742023E+00 -0.2454755797042E+01 -0.6098330633360E+00 -0.1095379004322E+01
-0.2735960363971E+00 -0.2266767174990E+01 -0.5080726498483E+00 -0.7336639652459E+00
 0.5716003710881E+00 -0.2079727084632E+01 -0.3016253472034E+00 -0.1803212476038E+00
 0.2298429127616E+01 -0.2056708388410E+01  0.4834414856144E-01  0.2943906885573E+00
 0.4748368058530E+01 -0.2068877860323E+01  0.5358980476268E+00  0.3669696869053E-01
 0.4850642351962E-01  0.1794871570395E+00  0.4559871679129E-01 -0.2494931485441E+00
 0.2236570177808E-01  0.1217474051366E+00  0.2882262181243E-01 -0.3357054975662E+00
-0.1009748573937E-01  0.5982342931391E-02 -0.8230285738602E-03 -0.3694807392114E+00
-0.2425239491102E-01 -0.1546910701719E+00 -0.3578869354987E-01 -0.3971715722000E+00
-0.3182303282465E-01 -0.3413580450157E+00 -0.7463621668024E-01 -0.4308813467374E+00
-0.4004982056529E-01 -0.5491297200673E+00 -0.1178359098824E+00 -0.4711647612666E+00
-0.5169915455719E-01 -0.7783484974152E+00 -0.1660095328682E+00 -0.5202142875591E+00
-0.6983874589272E-01 -0.1030118403030E+01 -0.2199914330626E+00 -0.5822150316511E+00
-0.1000363389386E+00 -0.1304258389940E+01 -0.2808589499608E+00 -0.6624028187804E+00
-0.1503473530757E+00 -0.1595929112410E+01 -0.3492552983014E+00 -0.7645539361323E+00
-0.2263205853271E+00 -0.1893157083484E+01 -0.4238955400787E+00 -0.8862616247625E+00
-0.3246140851413E+00 -0.2179939566822E+01 -0.5009107378567E+00 -0.1016955190308E+01
-0.4350327814940E+00 -0.2440869613685E+01 -0.5751804876068E+00 -0.1143555237427E+01
-0.5466742837480E+00 -0.2658758051328E+01 -0.6410864765680E+00 -0.1253092650107E+01
-0.6475961309541E+00 -0.2811869625304E+01 -0.6918931615616E+00 -0.1327653764679E+01
-0.7201823228091E+00 -0.2874308395030E+01 -0.7188981542803E+00 -0.1340968567417E+01
-0.7314910837611E+00 -0.2812668798501E+01 -0.7088319870148E+00 -0.1251047091669E+01
-0.5793693533283E+00 -0.2593910075112E+01 -0.6346558951451E+00 -0.9747754283349E+00
 0.7428741266388E-01 -0.2274922878654E+01 -0.4401270997565E+00 -0.4104734605544E+00
 0.1883114211215E+01 -0.2109081520923E+01 -0.4519346261501E-01  0.2458570448323E+00
 0.4988168248405E+01 -0.2072127298583E+01  0.5832081986549E+00  0.3698336596873E-01
 0.9909222928046E-01  0.4874438111812E+00  0.1173072098403E+00 -0.2383332074446E+00
 0.3742973501016E-01  0.4212891140903E+00  0.9174377118717E-01 -0.2980944287632E+00
-0.3079762505803E-02  0.2774535727677E+00  0.5487476287007E-01 -0.3067904110840E+00
-0.1388329421346E-01  0.9150464304046E-01  0.1552426999673E-01 -0.3228246437493E+00
-0.1868733966037E-01 -0.1152197282033E+00 -0.2678141397181E-01 -0.3482350371411E+00
-0.2410980462235E-01 -0.3428717619911E+00 -0.7339631441638E-01 -0.3796580206309E+00
-0.3157895686325E-01 -0.5939654162434E+00 -0.1251088764856E+00 -0.4188930201520E+00
-0.4335757923405E-01 -0.8719126176915E+00 -0.1830540421128E+00 -0.4697918331868E+00
-0.6441048874396E-01 -0.1180150086221E+01 -0.2489121187021E+00 -0.5384147223998E+00
-0.1037245715358E+00 -0.1517939984170E+01 -0.3243329159740E+00 -0.6313595787316E+00
-0.1692395696928E+00 -0.1875433681826E+01 -0.4089346563973E+00 -0.7499557285045E+00
-0.2596145191865E+00 -0.2235284241966E+01 -0.4989797596658E+00 -0.8866168641550E+00
-0.3665791210553E+00 -0.2578666411672E+01 -0.5890491153229E+00 -0.1031163752296E+01
-0.4829402689703E+00 -0.2884483398327E+01 -0.6734847434951E+00 -0.1174095896246E+01
-0.6025108376447E+00 -0.3127392140900E+01 -0.7459806068250E+00 -0.1301201617986E+01
-0.7161222606746E+00 -0.3277269623385E+01 -0.7986783887132E+00 -0.1391166385523E+01
-0.8090163094144E+00 -0.3292745311186E+01 -0.8203523363443E+00 -0.1411607159735E+01
-0.8378722976995E+00 -0.3104380148554E+01 -0.7884505009995E+00 -0.1286065999355E+01
-0.5066212760272E+00 -0.2666825188654E+01 -0.6346893023938E+00 -0.8133177792282E+00
 0.1214548765055E+01 -0.2264299556880E+01 -0.2099501614936E+00  0.4010288732596E-01
 0.5244482135871E+01 -0.2134200377626E+01  0.6220563609185E+00 -0.1543154642033E-01
 0.1449903082306E+00  0.8307010928654E+00  0.1951382831270E+00 -0.2308581592820E+00
 0.3801924845327E-01  0.7413712025397E+00  0.1558780925214E+00 -0.2474853720551E+00
-0.2451615138672E-02  0.5551218070852E+00  0.1105340400364E+00 -0.2308470499009E+00
-0.6310778520828E-02  0.3440138936068E+00  0.6754062402363E-01 -0.2401461253761E+00
-0.8932594003940E-02  0.1187404564174E+00  0.2196157280994E-01 -0.2579204916442E+00
-0.1199904810243E-01 -0.1276990166512E+00 -0.2793961336705E-01 -0.2801203787396E+00
-0.1596532117668E-01 -0.3986849949158E+00 -0.8293006445424E-01 -0.3086271995431E+00
-0.2226160988143E-01 -0.6999806769513E+00 -0.1444484595190E+00 -0.3462883466171E+00
-0.3439933673313E-01 -0.1039113098763E+01 -0.2147024902986E+00 -0.3991639065582E+00
-0.6128226891543E-01 -0.1421954803402E+01 -0.2966474188839E+00 -0.4764744850986E+00
-0.1127415974231E+00 -0.1843898406368E+01 -0.3913280065895E+00 -0.5847189809720E+00
-0.1893082190367E+00 -0.2286718108811E+01 -0.4952052729487E+00 -0.7212902487004E+00
-0.2846104004735E+00 -0.2726467944648E+01 -0.6022156779979E+00 -0.8800449435792E+00
-0.3957171641070E+00 -0.3137692562540E+01 -0.7066819558597E+00 -0.1055304050232E+01
-0.5213715628375E+00 -0.3492687699239E+01 -0.8028118643781E+00 -0.1236285929446E+01
-0.6605271542929E+00 -0.3761665570662E+01 -0.8844385581702E+00 -0.1408525698190E+01
-0.8093535734555E+00 -0.3902767120742E+01 -0.9424241528827E+00 -0.1550366585165E+01
-0.9787383854700E+00 -0.3846369630073E+01 -0.9650216174886E+00 -0.1627180541687E+01
-0.1089486964559E+01 -0.3415271343260E+01 -0.9009516749890E+00 -0.1432738629114E+01
 0.1489342308917E+00 -0.2687359861042E+01 -0.5076851335951E+00 -0.4976233940778E+00
 0.5428721184665E+01 -0.2347259746270E+01  0.6162922968625E+00 -0.2229312025366E+00
 0.1825752843898E+00  0.1230725785780E+01  0.2826602182460E+00 -0.2247051218236E+00
 0.1823263694959E-01  0.1074299252100E+01  0.2185063810660E+00 -0.1702868406840E+00
-0.4108286721928E-02  0.8312708531197E+00  0.1654325157447E+00 -0.1412659810393E+00
-0.4633953318129E-03  0.6037521497198E+00  0.1206577526755E+00 -0.1507044289615E+00
-0.2920595841896E-02  0.3600875357480E+00  0.7143338904566E-01 -0.1599806500911E+00
-0.3774749565522E-02  0.9676951576126E-01  0.1859895351629E-01 -0.1733135443370E+00
-0.5388814459916E-02 -0.1918194632467E+00 -0.3944165612905E-01 -0.1904376023064E+00
-0.7701118879136E-02 -0.5127897637489E+00 -0.1040981780768E+00 -0.2133905707616E+00
-0.1241500536026E-01 -0.8773611717796E+00 -0.1779552380797E+00 -0.2465606743941E+00
-0.2654908316080E-01 -0.1300891069233E+01 -0.2654880344349E+00 -0.3002255512775E+00
-0.6043226109379E-01 -0.1790420277668E+01 -0.3701705132684E+00 -0.3877111893994E+00
-0.1162436778394E+00 -0.2327976916570E+01 -0.4888441261663E+00 -0.5155171536327E+00
-0.1902792471239E+00 -0.2879700362072E+01 -0.6139959309885E+00 -0.6831799186707E+00
-0.2842164567121E+00 -0.3414705176860E+01 -0.7397843377381E+00 -0.8877553061192E+00
-0.4029566991712E+00 -0.3905559714422E+01 -0.8617032955590E+00 -0.1121791219707E+01
-0.5459392814670E+00 -0.4324463817945E+01 -0.9740806343973E+00 -0.1375158808546E+01
-0.7307295514017E+00 -0.4643537059115E+01 -0.1074853338120E+01 -0.1642467931390E+01
-0.9437694279649E+00 -0.4818635552049E+01 -0.1152481013176E+01 -0.1910673483936E+01
-0.1420727621421E+01 -0.4726608951339E+01 -0.1229467332872E+01 -0.2198475025430E+01
-0.1427741667882E+01 -0.3870264901185E+01 -0.1059601329603E+01 -0.1692772337284E+01
 0.5195364508854E+01 -0.3025953663349E+01  0.4338821755663E+00 -0.9769349739534E+00
 0.2131946181865E+00  0.1749458017533E+01  0.3925305329931E+00 -0.1991436079947E+00
-0.3160680116250E-01  0.1360165393452E+01  0.2657117224172E+00 -0.3848615455929E-01
 0.6936848708854E-02  0.1114730604651E+01  0.2243334940149E+00 -0.5226176708300E-01
-0.5670969197782E-03  0.8683002068942E+00  0.1735466245809E+00 -0.5216848193638E-01
 0.7076423920874E-03  0.6090330082931E+00  0.1219481319542E+00 -0.5563653484682E-01
 0.1602473467784E-03  0.3305628975291E+00  0.6614462996081E-01 -0.5987999080087E-01
-0.2598419348001E-04  0.2703380462039E-01  0.5401564165871E-02 -0.6554054673234E-01
-0.3845502868516E-03 -0.3095557558156E+00 -0.6198806214418E-01 -0.7317748775778E-01
-0.8965366521805E-03 -0.6920471815089E+00 -0.1385887456974E+00 -0.8415840479184E-01
-0.4338332667458E-02 -0.1145745494932E+01 -0.2300167689474E+00 -0.1048772259536E+00
-0.1755977770063E-01 -0.1703330809346E+01 -0.3441781225380E+00 -0.1558247912720E+00
-0.4393785810513E-01 -0.2351837124371E+01 -0.4791550036352E+00 -0.2625715383789E+00
-0.8532154449637E-01 -0.3033215630889E+01 -0.6237074443710E+00 -0.4332504688422E+00
-0.1492610156780E+00 -0.3709826933208E+01 -0.7718176012781E+00 -0.6620083026061E+00
-0.2443987772263E+00 -0.4361877783462E+01 -0.9212553258653E+00 -0.9453008065421E+00
-0.3783433779736E+00 -0.4960826931089E+01 -0.1067834077725E+01 -0.1276915096692E+01
-0.5466634588519E+00 -0.5495601651389E+01 -0.1208453040056E+01 -0.1652203690014E+01
-0.8252373525382E+00 -0.6002012114428E+01 -0.1365449913740E+01 -0.2089120090521E+01
-0.1052645125865E+01 -0.6537710940740E+01 -0.1518071235942E+01 -0.2691021827028E+01
-0.2973520273487E+01 -0.7028708976954E+01 -0.2000445879897E+01 -0.3744023777041E+01
 0.3448994932878E+01 -0.5940448587071E+01 -0.4982907382637E+00 -0.4220150389107E+01
-0.9548106181420E+00 -0.2100586819975E+01 -0.1436036792273E+01 -0.1282844016191E+01
-0.7532205174499E+00 -0.2146779534481E+01 -0.1363000020951E+01 -0.1056372771192E+01
-0.5527872683499E+00 -0.2156498903491E+01 -0.1273364497535E+01 -0.9053225687396E+00
-0.3925309370097E+00 -0.2134283713410E+01 -0.1187602882685E+01 -0.8183082280735E+00
-0.2791760027227E+00 -0.2077940636793E+01 -0.1107844817762E+01 -0.7807103367858E+00
-0.2199229017631E+00 -0.1993023779377E+01 -0.1040084937498E+01 -0.7788975298752E+00
-0.2104887699737E+00 -0.1884342840410E+01 -0.9845708543833E+00 -0.8042466713657E+00
-0.2330951128517E+00 -0.1751320538404E+01 -0.9326753537248E+00 -0.8454427803887E+00
-0.2746932768378E+00 -0.1586653410394E+01 -0.8748329407799E+00 -0.8761758287609E+00
-0.4378256803818E+00 -0.1475294086272E+01 -0.8991662880468E+00 -0.8672275054740E+00
-0.1070921322823E+01 -0.2165657190009E+01 -0.1521191897173E+01 -0.1248546867821E+01
-0.8158443651710E+00 -0.2217315833444E+01 -0.1425585289733E+01 -0.1029665464961E+01
-0.5887801032249E+00 -0.2247743706494E+01 -0.1333166187186E+01 -0.8948835347023E+00
-0.4059856756554E+00 -0.2243097444361E+01 -0.1245069063250E+01 -0.8241190503986E+00
-0.2785507750539E+00 -0.2205284610199E+01 -0.1167402628108E+01 -0.8016405162347E+00
-0.2095819912629E+00 -0.2136069875707E+01 -0.1102456374679E+01 -0.8142809558016E+00
-0.1945069892027E+00 -0.2038985963673E+01 -0.1049741685189E+01 -0.8535791790191E+00
-0.2201507276185E+00 -0.1914952594522E+01 -0.1003498558861E+01 -0.9063104833703E+00
-0.3017842465114E+00 -0.1771516330008E+01 -0.9744512684924E+00 -0.9468598749530E+00
-0.3899648601438E+00 -0.1554636575033E+01 -0.9139626722150E+00 -0.9729175580138E+00
-0.1179505446050E+01 -0.2227133578199E+01 -0.1601120337336E+01 -0.1208145182553E+01
-0.8772184838464E+00 -0.2297924249567E+01 -0.1492317080919E+01 -0.9988153840961E+00
-0.6170446373734E+00 -0.2343078306557E+01 -0.1391257780119E+01 -0.8790447529921E+00
-0.4131506921989E+00 -0.2355663584877E+01 -0.1301342706925E+01 -0.8242454079385E+00
-0.2709981580058E+00 -0.2334609287916E+01 -0.1224635496477E+01 -0.8169805950479E+00
-0.1925255341374E+00 -0.2281863502047E+01 -0.1162962844057E+01 -0.8446197778187E+00
-0.1730887996493E+00 -0.2199742993688E+01 -0.1115230940040E+01 -0.8983697239882E+00
-0.2070607343442E+00 -0.2090319755828E+01 -0.1079768827642E+01 -0.9655450735624E+00
-0.2840225284115E+00 -0.1937278920299E+01 -0.1044011678246E+01 -0.1028990794184E+01
-0.3811346737952E+00 -0.1729141051825E+01 -0.9918295885259E+00 -0.1080819306628E+01
-0.1285397884943E+01 -0.2290830926765E+01 -0.1680827537240E+01 -0.1160139248118E+01
-0.9328020714946E+00 -0.2380956217132E+01 -0.1557466391704E+01 -0.9629465647314E+00
-0.6397039247452E+00 -0.2441748629220E+01 -0.1448282696690E+01 -0.8584112497771E+00
-0.4137365645898E+00 -0.2469651981757E+01 -0.1355192613346E+01 -0.8189950963697E+00
-0.2569996571169E+00 -0.2465169990498E+01 -0.1279419731134E+01 -0.8265578197327E+00
-0.1688805828883E+00 -0.2429868665097E+01 -0.1221412143455E+01 -0.8689104417640E+00
-0.1456370301839E+00 -0.2365814885963E+01 -0.1180382397595E+01 -0.9376693846572E+00
-0.1789644497766E+00 -0.2269775919312E+01 -0.1150907970553E+01 -0.1022539401638E+01
-0.2607585010146E+00 -0.2131208697751E+01 -0.1124224580568E+01 -0.1108809984047E+01
-0.3706219334800E+00 -0.1939698786802E+01 -0.1085850735779E+01 -0.1183704813091E+01
-0.1387005983489E+01 -0.2355193974397E+01 -0.1758833975746E+01 -0.1104293861700E+01
-0.9827691209299E+00 -0.2464892195389E+01 -0.1620400814560E+01 -0.9219684868086E+00
-0.6564235666224E+00 -0.2540711032046E+01 -0.1502653257563E+01 -0.8330958084838E+00
-0.4085010274077E+00 -0.2583417475932E+01 -0.1406201693003E+01 -0.8084762184367E+00
-0.2369073092241E+00 -0.2595352985980E+01 -0.1331162335370E+01 -0.8299662297522E+00
-0.1388491034800E+00 -0.2578809864276E+01 -0.1277299711606E+01 -0.8862051469701E+00
-0.1094174911883E+00 -0.2534813626336E+01 -0.1242788622084E+01 -0.9698568646661E+00
-0.1415680391864E+00 -0.2460386221471E+01 -0.1222918499407E+01 -0.1072317604918E+01
-0.2282340925993E+00 -0.2346090999681E+01 -0.1209932790303E+01 -0.1180484057757E+01
-0.3537856247375E+00 -0.2181249695809E+01 -0.1191466597635E+01 -0.1279022092119E+01
-0.1482826829365E+01 -0.2418746863248E+01 -0.1833739630877E+01 -0.1040533204139E+01
-0.1026786459162E+01 -0.2547604516417E+01 -0.1679963754261E+01 -0.8759654842683E+00
-0.6675926905852E+00 -0.2637799622219E+01 -0.1553534383078E+01 -0.8031868332189E+00
-0.3979777088138E+00 -0.2694775178834E+01 -0.1453593853508E+01 -0.7926048402225E+00
-0.2114133766709E+00 -0.2723277707265E+01 -0.1379304805952E+01 -0.8267271938924E+00
-0.1024917607522E+00 -0.2726590545425E+01 -0.1329668680531E+01 -0.8953863845501E+00
-0.6565232294302E-01 -0.2706176395441E+01 -0.1302759494336E+01 -0.9924341133139E+00
-0.9497041014432E-01 -0.2659562172072E+01 -0.1294630310358E+01 -0.1110871457166E+01
-0.1856340703263E+00 -0.2578423057653E+01 -0.1299106846855E+01 -0.1239373717162E+01
-0.3266806464081E+00 -0.2450689126439E+01 -0.1305363789927E+01 -0.1362060460790E+01
-0.1571205937118E+01 -0.2479883213171E+01 -0.1904011895806E+01 -0.9689782769178E+00
-0.1064627342483E+01 -0.2627066580685E+01 -0.1735096139488E+01 -0.8250913780750E+00
-0.6736418238530E+00 -0.2730813104373E+01 -0.1600093812208E+01 -0.7687635239488E+00
-0.3829358868717E+00 -0.2801532738855E+01 -0.1496700250295E+01 -0.7712558810085E+00
-0.1813329899019E+00 -0.2846661545295E+01 -0.1423157427933E+01 -0.8163271596018E+00
-0.6087534814873E-01 -0.2871038164182E+01 -0.1377999347300E+01 -0.8952310164458E+00
-0.1531322756823E-01 -0.2877126523157E+01 -0.1359446679393E+01 -0.1003130788498E+01
-0.3989658092559E-01 -0.2863554293228E+01 -0.1364621907391E+01 -0.1134714790426E+01
-0.1322937008130E+00 -0.2823275501293E+01 -0.1389117521467E+01 -0.1280778551437E+01
-0.2869499128885E+00 -0.2744178591038E+01 -0.1424630393232E+01 -0.1426385623933E+01
-0.1650516084770E+01 -0.2537047082047E+01 -0.1968154683412E+01 -0.8899269195226E+00
-0.1096099078031E+01 -0.2701285965351E+01 -0.1784770965862E+01 -0.7695551519091E+00
-0.6751086172235E+00 -0.2817599908566E+01 -0.1641573002957E+01 -0.7299208573175E+00
-0.3642752369214E+00 -0.2901415008815E+01 -0.1534874411603E+01 -0.7443289986728E+00
-0.1478347765337E+00 -0.2963070973155E+01 -0.1462125698645E+01 -0.7983119707037E+00
-0.1534696797407E-01 -0.3009288892575E+01 -0.1421578850853E+01 -0.8847128091992E+00
 0.4013642360967E-01 -0.3043994353323E+01 -0.1411813223385E+01 -0.1000089205311E+01
 0.2238839091854E-01 -0.3067356144453E+01 -0.1431134840531E+01 -0.1140875424172E+01
-0.6881074924192E-01 -0.3074312517566E+01 -0.1477267931653E+01 -0.1300120416089E+01
-0.2338365589823E+00 -0.3054649510780E+01 -0.1545588448868E+01 -0.1464634655528E+01
-0.1719209075509E+01 -0.2588768439395E+01 -0.2024749426870E+01 -0.8038513269635E+00
-0.1121063686553E+01 -0.2768365687850E+01 -0.1828031801333E+01 -0.7096241291648E+00
-0.6725962890735E+00 -0.2896069986438E+01 -0.1677273145236E+01 -0.6867960924436E+00
-0.3430348731527E+00 -0.2992146111726E+01 -0.1567535058917E+01 -0.7118057279209E+00
-0.1122783169642E+00 -0.3069881241360E+01 -0.1495614988619E+01 -0.7724075559408E+00
 0.3244659503645E-01 -0.3138081469437E+01 -0.1459648387266E+01 -0.8631480779811E+00
 0.9881291824440E-01 -0.3202453477690E+01 -0.1458711059239E+01 -0.9820006400302E+00
 0.8977627886632E-01 -0.3265127342269E+01 -0.1492414996014E+01 -0.1127100581470E+01
 0.2660107948449E-02 -0.3323598002751E+01 -0.1560840806598E+01 -0.1293549645470E+01
-0.1692938730506E+00 -0.3371311939900E+01 -0.1664084727866E+01 -0.1469766461726E+01
-0.1775868186639E+01 -0.2633700784251E+01 -0.2072497411062E+01 -0.7113908637451E+00
-0.1139432715974E+01 -0.2826549226993E+01 -0.1864011508467E+01 -0.6456318276109E+00
-0.6667496501654E+00 -0.2964252261564E+01 -0.1706570894184E+01 -0.6395944821956E+00
-0.3203235279038E+00 -0.3071496254191E+01 -0.1594155293541E+01 -0.6738032952769E+00
-0.7615107341410E-01 -0.3164401592775E+01 -0.1523059749246E+01 -0.7385998977297E+00
 0.8065181952331E-01 -0.3253935513247E+01 -0.1491443332267E+01 -0.8302929900788E+00
 0.1584603014047E+00 -0.3347810648239E+01 -0.1498994659210E+01 -0.9482267522303E+00
 0.1595009147651E+00 -0.3450408197385E+01 -0.1546726418908E+01 -0.1092119908608E+01
 0.7855145462056E-01 -0.3562090287489E+01 -0.1637263247296E+01 -0.1258799356111E+01
-0.9708990261769E-01 -0.3680091974952E+01 -0.1775275477955E+01 -0.1437824844060E+01
-0.1819250758440E+01 -0.2670653537076E+01 -0.2110255013540E+01 -0.6133402503469E+00
-0.1151158825763E+01 -0.2874271302790E+01 -0.1891952155621E+01 -0.5779850017425E+00
-0.6582126881224E+00 -0.3020351580117E+01 -0.1728925201687E+01 -0.5886117012651E+00
-0.2972578902721E+00 -0.3137366077888E+01 -0.1614273260941E+01 -0.6306122530509E+00
-0.4098474386108E-01 -0.3244001799206E+01 -0.1543943671326E+01 -0.6971866095975E+00
 0.1273026497294E+00 -0.3353348100657E+01 -0.1516241358090E+01 -0.7864087861348E+00
 0.2166172742457E+00 -0.3475239745802E+01 -0.1531552557747E+01 -0.8988968933779E+00
 0.2284804119732E+00 -0.3616446746086E+01 -0.1592344172994E+01 -0.1035834462366E+01
 0.1550642321062E+00 -0.3780101943890E+01 -0.1703767720217E+01 -0.1195604302908E+01
-0.2156246454473E-01 -0.3966498794982E+01 -0.1874388787224E+01 -0.1368789339459E+01
-0.1848324598193E+01 -0.2698623819560E+01 -0.2137065750923E+01 -0.5106319477372E+00
-0.1156220607249E+01 -0.2910206414646E+01 -0.1911220695443E+01 -0.5071679742275E+00
-0.6475841710274E+00 -0.3062812236490E+01 -0.1743886307110E+01 -0.5342484696429E+00
-0.2748954307939E+00 -0.3187876613017E+01 -0.1627502856463E+01 -0.5827174678574E+00
-0.8268864959918E-02 -0.3306248041772E+01 -0.1557822942213E+01 -0.6488032526356E+00
 0.1704400006834E+00 -0.3432983576614E+01 -0.1533395476798E+01 -0.7322968472648E+00
 0.2708021525546E+00 -0.3580046038311E+01 -0.1555344622360E+01 -0.8349574179387E+00
 0.2936933620701E+00 -0.3756576346761E+01 -0.1627554998677E+01 -0.9593606970399E+00
 0.2287591786595E+00 -0.3968146979602E+01 -0.1757512261985E+01 -0.1105470183500E+01
 0.5332920393246E-01 -0.4217395533542E+01 -0.1957111169953E+01 -0.1264977082634E+01
-0.1862296357386E+01 -0.2716825647745E+01 -0.2152187336953E+01 -0.4043125749293E+00
-0.1154604932028E+01 -0.2933313793893E+01 -0.1921321796310E+01 -0.4337427829355E+00
-0.6353723145750E+00 -0.3090378578475E+01 -0.1751102915292E+01 -0.4770158623186E+00
-0.2541672036621E+00 -0.3221458679411E+01 -0.1633544160901E+01 -0.5308019158659E+00
 0.2063988568316E-01 -0.3349036548120E+01 -0.1564346427377E+01 -0.5944245532218E+00
 0.2082332366916E+00 -0.3489868317230E+01 -0.1542368483941E+01 -0.6692978705443E+00
 0.3186825908500E+00 -0.3657948403700E+01 -0.1569454928059E+01 -0.7581595410567E+00
 0.3523754363562E+00 -0.3864669303306E+01 -0.1650778113280E+01 -0.8649480298896E+00
 0.2965920356118E+00 -0.4117692803442E+01 -0.1795917356325E+01 -0.9913724005576E+00
 0.1242724145382E+00 -0.4421410644918E+01 -0.2019654963156E+01 -0.1130476438612E+01
-0.1860631049823E+01 -0.2724715068254E+01 -0.2155112670030E+01 -0.2955137467242E+00
-0.1146288971132E+01 -0.2942874531074E+01 -0.1921906841162E+01 -0.3583449660124E+00
-0.6219520408243E+00 -0.3102146336529E+01 -0.1750326232916E+01 -0.4175308487028E+00
-0.2358132272131E+00 -0.3236933112323E+01 -0.1632190775442E+01 -0.4757327536955E+00
 0.4460495649856E-01 -0.3370720853230E+01 -0.1563274467499E+01 -0.5353389588637E+00
 0.2390904931039E+00 -0.3521582976023E+01 -0.1542771463059E+01 -0.5992522113875E+00
 0.3581997376337E+00 -0.3705361944277E+01 -0.1573166233132E+01 -0.6709860750430E+00
 0.4020939529945E+00 -0.3935551963821E+01 -0.1660725260876E+01 -0.7558241564522E+00
 0.3559500981878E+00 -0.4221579111213E+01 -0.1816845631514E+01 -0.8574659651548E+00
 0.1886241570572E+00 -0.4569170193991E+01 -0.2058856632137E+01 -0.9706141356137E+00
-0.1843062780511E+01 -0.2722010884003E+01 -0.2145584616879E+01 -0.1854183771332E+00
-0.1131223951631E+01 -0.2938516985203E+01 -0.1912778235460E+01 -0.2816758112440E+00
-0.6075286132161E+00 -0.3097598472080E+01 -0.1741409725672E+01 -0.3565026003537E+00
-0.2203238363046E+00 -0.3233572897176E+01 -0.1623331460618E+01 -0.4185291475818E+00
 0.6278829449930E-01 -0.3370224843017E+01 -0.1554495173861E+01 -0.4730953142155E+00
 0.2617491030576E+00 -0.3526442768917E+01 -0.1534406019062E+01 -0.5244236463098E+00
 0.3876505451321E+00 -0.3719652092872E+01 -0.1566040723465E+01 -0.5765361149133E+00
 0.4408102119251E+00 -0.3965303868380E+01 -0.1656512014332E+01 -0.6360156951995E+00
 0.4046187419900E+00 -0.4274342448326E+01 -0.1818770137365E+01 -0.7088421589100E+00
 0.2442364161727E+00 -0.4653457212908E+01 -0.2072333769209E+01 -0.7916669876003E+00
-0.1809595057328E+01 -0.2708710026600E+01 -0.2123603384060E+01 -0.7522379784671E-01
-0.1109326335753E+01 -0.2920232215679E+01 -0.1893892514370E+01 -0.2044936886310E+00
-0.5921076907330E+00 -0.3076614196154E+01 -0.1724299282463E+01 -0.2947117511638E+00
-0.2078935915683E+00 -0.3211139646949E+01 -0.1606945618028E+01 -0.3603120876377E+00
 0.7472057855602E-01 -0.3347126656918E+01 -0.1538030852929E+01 -0.4094207557682E+00
 0.2753473763740E+00 -0.3503656731982E+01 -0.1517305393287E+01 -0.4473903307644E+00
 0.4057437664115E+00 -0.3699351748907E+01 -0.1547995747847E+01 -0.4783872434949E+00
 0.4669236959402E+00 -0.3951473881843E+01 -0.1637738583221E+01 -0.5101618016023E+00
 0.4408291191031E+00 -0.4272384987118E+01 -0.1800831253399E+01 -0.5512891105066E+00
 0.2891749737284E+00 -0.4669518296156E+01 -0.2058761356319E+01 -0.6006516931989E+00
-0.1760498348296E+01 -0.2685107938791E+01 -0.2089434949631E+01  0.3389582835346E-01
-0.1080469081923E+01 -0.2888370939257E+01 -0.1865354805224E+01 -0.1276078800832E+00
-0.5754973918175E+00 -0.3039467970200E+01 -0.1699033715839E+01 -0.2329903221907E+00
-0.1983636906845E+00 -0.3169845338192E+01 -0.1583058239557E+01 -0.3022371991464E+00
 0.8034207024679E-01 -0.3301724497260E+01 -0.1514049736856E+01 -0.3461062848094E+00
 0.2794961396349E+00 -0.3453446110425E+01 -0.1491756482488E+01 -0.3709049161502E+00
 0.4116480994100E+00 -0.3644348001319E+01 -0.1519368950044E+01 -0.3804400868641E+00
 0.4792523682314E+00 -0.3893293220893E+01 -0.1604599196681E+01 -0.3833474222623E+00
 0.4632968213899E+00 -0.4213990670594E+01 -0.1762826104655E+01 -0.3910412757512E+00
 0.3215648654343E+00 -0.4615027617905E+01 -0.2017927488543E+01 -0.4048535512181E+00
-0.1696242254972E+01 -0.2651761196040E+01 -0.2043561616792E+01  0.1408371566730E+00
-0.1044536126223E+01 -0.2843704318274E+01 -0.1827473004279E+01 -0.5187748354384E-01
-0.5572871348102E+00 -0.2986756873088E+01 -0.1665700679487E+01 -0.1722150798095E+00
-0.1912633514204E+00 -0.3110319771497E+01 -0.1551744063835E+01 -0.2454300729997E+00
 0.8019299509597E-01 -0.3234850196844E+01 -0.1482688881061E+01 -0.2848353606530E+00
 0.2741870254079E+00 -0.3377344999602E+01 -0.1458484244172E+01 -0.2977120289919E+00
 0.4050922333725E+00 -0.3555980295399E+01 -0.1480917385396E+01 -0.2867711813980E+00
 0.4771477866378E+00 -0.3791740741635E+01 -0.1557858684897E+01 -0.2609329063760E+00
 0.4708555253604E+00 -0.4099741076228E+01 -0.1705576204582E+01 -0.2347226506293E+00
 0.3404431316292E+00 -0.4489073642083E+01 -0.1949856334968E+01 -0.2119975438945E+00
-0.1617617019507E+01 -0.2609656005269E+01 -0.1986818316605E+01  0.2445886624230E+00
-0.1001150385900E+01 -0.2787116451761E+01 -0.1780485409185E+01  0.2181422323227E-01
-0.5372569511509E+00 -0.2919823216046E+01 -0.1624827674461E+01 -0.1133344069308E+00
-0.1855985489930E+00 -0.3033154804831E+01 -0.1512814072460E+01 -0.1909852027902E+00
 0.7528976331990E-01 -0.3147761078458E+01 -0.1444061514452E+01 -0.2269727933662E+00
 0.2605136160678E+00 -0.3277654619900E+01 -0.1418056268205E+01 -0.2301357893721E+00
 0.3852614815279E+00 -0.3438759439045E+01 -0.1435144036393E+01 -0.2015830791381E+00
 0.4612613948026E+00 -0.3648562537329E+01 -0.1498031533188E+01 -0.1485638396341E+00
 0.4635706921714E+00 -0.3931742229132E+01 -0.1630040618237E+01 -0.8899437889658E-01
 0.3443251250065E+00 -0.4295506986539E+01 -0.1857055470210E+01 -0.3129846821460E-01
-0.1523467114142E+01 -0.2557824118136E+01 -0.1918206874305E+01  0.3446926142428E+00
-0.9516951092019E+00 -0.2722148964194E+01 -0.1726706710117E+01  0.9267564778806E-01
-0.5137202032576E+00 -0.2838933133845E+01 -0.1575747064441E+01 -0.5749230617022E-01
-0.1814335314845E+00 -0.2940370421970E+01 -0.1467247854402E+01 -0.1400536232595E+00
 0.6803012199931E-01 -0.3040427539247E+01 -0.1397026782563E+01 -0.1735047827856E+00
 0.2404374303215E+00 -0.3157257508325E+01 -0.1370905433185E+01 -0.1693635979176E+00
 0.3537208436155E+00 -0.3298927804101E+01 -0.1384247267917E+01 -0.1282399642754E+00
 0.4258650232539E+00 -0.3475663225998E+01 -0.1433405151654E+01 -0.5370859416531E-01
 0.4509556114617E+00 -0.3701899937351E+01 -0.1527943829292E+01  0.3943429190228E-01
 0.3424837964170E+00 -0.4041128399628E+01 -0.1738362959100E+01  0.1273736488737E+00
-0.2554673379312E+01 -0.4573876509834E+01 -0.3350418439401E+01 -0.6476122963340E+00
 0.2607232715653E+00 -0.3531466681284E+00 -0.4343899627446E-01  0.1599742075929E+00
 0.1290739595585E+00  0.1582535348739E+00  0.1350439220407E+00  0.1783778673371E-01
 0.9291034112965E-01  0.2927458076823E+00  0.1812583894819E+00 -0.3656142896698E-01
 0.4676976121496E-01  0.3351516372856E+00  0.1795030568400E+00 -0.2305011912359E-01
 0.2234092337812E-01  0.3259713126319E+00  0.1637067505095E+00  0.2362782619925E-01
 0.4636672134001E-01  0.2909736343500E+00  0.1585499667722E+00  0.9203686236986E-01
 0.1083833625050E+00  0.2256292190035E+00  0.1569859129108E+00  0.1533305421044E+00
 0.1989487074632E+00  0.1663496616697E+00  0.1716902330570E+00  0.1867382350930E+00
 0.2880150136592E+00  0.9582777918913E-01  0.1804061121812E+00  0.2080515004038E+00
-0.8817416533550E+00 -0.3028151095478E+01 -0.1837649587290E+01 -0.9969198122910E+00
-0.2359442644814E+00 -0.1635474747616E+01 -0.8795669334550E+00 -0.1863003610204E+00
 0.1131343906960E+00 -0.3951774899399E+00 -0.1325602563084E+00 -0.9659927652008E-02
 0.8296351692100E-01 -0.4340042956402E-01  0.1859465101062E-01 -0.1399505085427E-01
 0.3435069875155E-01  0.9568618832894E-01  0.6111733677281E-01 -0.9567567300440E-02
 0.4650635956625E-02  0.1538773628699E+00  0.7450815925946E-01  0.1993784546169E-01
 0.1180256324179E-01  0.1629995085467E+00  0.8215697353223E-01  0.6857651968673E-01
 0.5367877416765E-01  0.1327392531435E+00  0.8761647261401E-01  0.1143893917933E+00
 0.1103909845787E+00  0.8884508759265E-01  0.9364095368302E-01  0.1374088963549E+00
 0.1796773186639E+00  0.5786218299194E-01  0.1116435654951E+00  0.1508199945589E+00
-0.5331277192876E+00 -0.2521953715382E+01 -0.1435888270653E+01 -0.1141181198304E+01
-0.1643425660881E+00 -0.1779034576248E+01 -0.9133872545812E+00 -0.4903750517213E+00
-0.6885888090743E-02 -0.9645348289622E+00 -0.4565677358568E+00 -0.1839294944596E+00
 0.5964958090961E-01 -0.4269775797375E+00 -0.1726441590112E+00 -0.7624683096244E-01
 0.2185730269585E-01 -0.1843537312197E+00 -0.7637332121251E-01 -0.4091486807892E-01
-0.1070727812634E-01 -0.5728323772463E-01 -0.3195554236890E-01 -0.1245240126914E-01
-0.1969482296512E-01  0.1243377940606E-02 -0.8672179139528E-02  0.2245036049289E-01
-0.1907719573700E-02  0.9496077683770E-02  0.3566528302687E-02  0.5369061999700E-01
 0.2744414702674E-01 -0.2924783048841E-02  0.1152410104038E-01  0.6710859855480E-01
 0.6411262985669E-01 -0.8176604529878E-02  0.2628993183692E-01  0.7060684903117E-01
-0.4322662269071E+00 -0.2256035597824E+01 -0.1263501854419E+01 -0.1222080099902E+01
-0.1767476106810E+00 -0.1819168561635E+01 -0.9380805986093E+00 -0.6996399044739E+00
-0.5425093150242E-01 -0.1251813938473E+01 -0.6138504873317E+00 -0.3711821363898E+00
-0.9322591371763E-03 -0.7874936294646E+00 -0.3705601667030E+00 -0.2012246758172E+00
-0.4217526621884E-02 -0.4806820440841E+00 -0.2279027976538E+00 -0.1209893715926E+00
-0.3115078570420E-01 -0.2966940970345E+00 -0.1540870944964E+00 -0.7811808766728E-01
-0.5150781384734E-01 -0.1911657582519E+00 -0.1140565785974E+00 -0.4871232604395E-01
-0.5515186671353E-01 -0.1412019557164E+00 -0.9228629630802E-01 -0.2972689192938E-01
-0.5225848524462E-01 -0.1206621433876E+00 -0.8127269525103E-01 -0.2555696166140E-01
-0.4490132049539E-01 -0.9920331655338E-01 -0.6772917924113E-01 -0.3021959746389E-01
-0.4365151937133E+00 -0.2112689040610E+01 -0.1198125987093E+01 -0.1270494845762E+01
-0.2283575285580E+00 -0.1832947593008E+01 -0.9688134046786E+00 -0.8445337959752E+00
-0.1132821588203E+00 -0.1435785553061E+01 -0.7280618227376E+00 -0.5325426610553E+00
-0.5794426280123E-01 -0.1060799228137E+01 -0.5258094394073E+00 -0.3412744466025E+00
-0.4755180981979E-01 -0.7648186508724E+00 -0.3818141155569E+00 -0.2333455923014E+00
-0.6108513214506E-01 -0.5496738304533E+00 -0.2870567116931E+00 -0.1735080272475E+00
-0.8553022701894E-01 -0.4074449904825E+00 -0.2316983516380E+00 -0.1437980554165E+00
-0.1054296975817E+00 -0.3198490670840E+00 -0.1998810188859E+00 -0.1341051888366E+00
-0.1237237551648E+00 -0.2670059198654E+00 -0.1836429467984E+00 -0.1380733801700E+00
-0.1421893030182E+00 -0.2193008743493E+00 -0.1699003829318E+00 -0.1488988177292E+00
-0.4882759194910E+00 -0.2038543773497E+01 -0.1187605252692E+01 -0.1299949841891E+01
-0.3043287477012E+00 -0.1852735311846E+01 -0.1013820105416E+01 -0.9437229901861E+00
-0.1835199181282E+00 -0.1572290534364E+01 -0.8252309105784E+00 -0.6626490987073E+00
-0.1194012125029E+00 -0.1281320782055E+01 -0.6583393357723E+00 -0.4741133220057E+00
-0.9597550118849E-01 -0.1020401882341E+01 -0.5246973689278E+00 -0.3569419149048E+00
-0.9873846058429E-01 -0.8041263204638E+00 -0.4243464460163E+00 -0.2879016246448E+00
-0.1212209992874E+00 -0.6407968076098E+00 -0.3581483683333E+00 -0.2570981386747E+00
-0.1504732714284E+00 -0.5245114611826E+00 -0.3172428235225E+00 -0.2542156130542E+00
-0.1825063494853E+00 -0.4435208780812E+00 -0.2942327962100E+00 -0.2649862412031E+00
-0.2218624397206E+00 -0.3704526546064E+00 -0.2783880936276E+00 -0.2804179013797E+00
-0.5655102306627E+00 -0.2009144337206E+01 -0.1210087643829E+01 -0.1316311734960E+01
-0.3920618012461E+00 -0.1886241802224E+01 -0.1070802690915E+01 -0.1009700680185E+01
-0.2615813590922E+00 -0.1691517057632E+01 -0.9179562535321E+00 -0.7630672996658E+00
-0.1836101757907E+00 -0.1472311598191E+01 -0.7782832317972E+00 -0.5905634141894E+00
-0.1463086161662E+00 -0.1255035396239E+01 -0.6586316841600E+00 -0.4781590176817E+00
-0.1382366909614E+00 -0.1054652765676E+01 -0.5606580431976E+00 -0.4094117200479E+00
-0.1555955410989E+00 -0.8857639211569E+00 -0.4894389460189E+00 -0.3800796072870E+00
-0.1874596286443E+00 -0.7517394374712E+00 -0.4414235599547E+00 -0.3821619454523E+00
-0.2240617038310E+00 -0.6482373825395E+00 -0.4099805695543E+00 -0.3978678044251E+00
-0.2779020450262E+00 -0.5517233806928E+00 -0.3899239490989E+00 -0.4173678379870E+00
-0.6573248797952E+00 -0.2010040704250E+01 -0.1253661821321E+01 -0.1322155153650E+01
-0.4847552334941E+00 -0.1935293320431E+01 -0.1137422817460E+01 -0.1050425877601E+01
-0.3424880735755E+00 -0.1807639785819E+01 -0.1010560091352E+01 -0.8368145977978E+00
-0.2480683320159E+00 -0.1650157021399E+01 -0.8921659138422E+00 -0.6869267975913E+00
-0.1952828675293E+00 -0.1478013800757E+01 -0.7864494320997E+00 -0.5886922736427E+00
-0.1754383814634E+00 -0.1302805340440E+01 -0.6947745475323E+00 -0.5285268552563E+00
-0.1862617978031E+00 -0.1140108529537E+01 -0.6233940522685E+00 -0.5043639900117E+00
-0.2141150623904E+00 -0.9956368017161E+00 -0.5685833746879E+00 -0.5095064468733E+00
-0.2461227326609E+00 -0.8747242099163E+00 -0.5267980616752E+00 -0.5266000876521E+00
-0.3029644072326E+00 -0.7560551770277E+00 -0.4977392033399E+00 -0.5499908437089E+00
-0.7576272891917E+00 -0.2031489194220E+01 -0.1310884743879E+01 -0.1318299074644E+01
-0.5786687842345E+00 -0.1998927546030E+01 -0.1211470272152E+01 -0.1070881658950E+01
-0.4222000398169E+00 -0.1927000721253E+01 -0.1104124354902E+01 -0.8864716408341E+00
-0.3099291084201E+00 -0.1824801087147E+01 -0.1003323189372E+01 -0.7615124751253E+00
-0.2399457478262E+00 -0.1697263319111E+01 -0.9104882591513E+00 -0.6832230646696E+00
-0.2071779045055E+00 -0.1552152072198E+01 -0.8268850869536E+00 -0.6380563574285E+00
-0.2095411740518E+00 -0.1402558734226E+01 -0.7576869549689E+00 -0.6232244021569E+00
-0.2373349722987E+00 -0.1257359547098E+01 -0.7025064223346E+00 -0.6316668763969E+00
-0.2473756439567E+00 -0.1105317127255E+01 -0.6357656008568E+00 -0.6432193089209E+00
-0.2891292433711E+00 -0.9677418583944E+00 -0.5907294163315E+00 -0.6663344057817E+00
-0.8644129473997E+00 -0.2068291631322E+01 -0.1378371148503E+01 -0.1304926686867E+01
-0.6699584194408E+00 -0.2072070803656E+01 -0.1288753731587E+01 -0.1074025748260E+01
-0.4990854530763E+00 -0.2052647453531E+01 -0.1199314463064E+01 -0.9133666430768E+00
-0.3659933928134E+00 -0.2000982546924E+01 -0.1112478688855E+01 -0.8129030501674E+00
-0.2776917795441E+00 -0.1918657730762E+01 -0.1032284267225E+01 -0.7576025133659E+00
-0.2307279836785E+00 -0.1806331007053E+01 -0.9574177232154E+00 -0.7323159231449E+00
-0.2227954016150E+00 -0.1673365418689E+01 -0.8911955832825E+00 -0.7303854417867E+00
-0.2466989064667E+00 -0.1530313237290E+01 -0.8351957054475E+00 -0.7453268534045E+00
-0.2784264525126E+00 -0.1375399324318E+01 -0.7772981131389E+00 -0.7562773260846E+00
-0.1924667132678E+00 -0.1107932420953E+01 -0.6111875915333E+00 -0.7599091043456E+00
-0.1379454946304E+01 -0.2476241012143E+01 -0.1812177095874E+01  0.4354071630948E+00
-0.8455847327241E+00 -0.2615634086882E+01 -0.1626772841089E+01  0.1658822071705E+00
-0.4479107556399E+00 -0.2714340563423E+01 -0.1486258116190E+01  0.1063479257325E-01
-0.1463057682702E+00 -0.2797872329731E+01 -0.1383763702551E+01 -0.7060430152450E-01
 0.7637803958765E-01 -0.2882534517157E+01 -0.1318893541112E+01 -0.9826242731051E-01
 0.2337915187654E+00 -0.2979694598822E+01 -0.1290574444353E+01 -0.8654292911416E-01
 0.3236719339579E+00 -0.3111857566950E+01 -0.1310447244182E+01 -0.3639799945798E-01
 0.3561632052174E+00 -0.3297357256413E+01 -0.1382361200556E+01  0.4489878647951E-01
 0.3534746434023E+00 -0.3538654857965E+01 -0.1497034697047E+01  0.1349016780148E+00
 0.4370676736930E+00 -0.3738563223859E+01 -0.1551702904642E+01  0.2230719133002E+00
-0.1270551324116E+01 -0.2432618602993E+01 -0.1740489861327E+01  0.5260311536544E+00
-0.7450645113958E+00 -0.2515768821808E+01 -0.1532591662718E+01  0.2360940334367E+00
-0.3687998440022E+00 -0.2564787474914E+01 -0.1378786036394E+01  0.7225807566628E-01
-0.9365948777254E-01 -0.2607126883785E+01 -0.1269369591413E+01 -0.7763907322096E-02
 0.1036691750005E+00 -0.2656933655533E+01 -0.1200034302807E+01 -0.2511248034869E-01
 0.2342709162332E+00 -0.2729466095790E+01 -0.1172741731417E+01  0.4632307476160E-02
 0.2956846628602E+00 -0.2846074541217E+01 -0.1198683239788E+01  0.7892896117321E-01
 0.3063615700480E+00 -0.3028649748791E+01 -0.1279475440764E+01  0.1782453513615E+00
 0.3181299340490E+00 -0.3281205343884E+01 -0.1392645439090E+01  0.2735875769903E+00
 0.2659211715198E+00 -0.3647726776583E+01 -0.1589448630348E+01  0.3656280169393E+00
-0.1150695044042E+01 -0.2374998443345E+01 -0.1657075934869E+01  0.6041180225101E+00
-0.6454141914236E+00 -0.2401513341681E+01 -0.1432055936927E+01  0.2887629021171E+00
-0.2952882981792E+00 -0.2392140443673E+01 -0.1263091505467E+01  0.1144570391851E+00
-0.5019854349107E-01 -0.2381954190304E+01 -0.1143111781984E+01  0.3576565661728E-01
 0.1167986299377E+00 -0.2387170613765E+01 -0.1067074829692E+01  0.2900696275370E-01
 0.2188100799195E+00 -0.2422284962499E+01 -0.1035633192185E+01  0.7591645974783E-01
 0.2516439023168E+00 -0.2513285833890E+01 -0.1062971705143E+01  0.1714974763546E+00
 0.2415295906788E+00 -0.2688942192493E+01 -0.1150283919935E+01  0.2909158826315E+00
 0.2154476206735E+00 -0.2987587091793E+01 -0.1302905548122E+01  0.4039274084882E+00
 0.1275793391166E+00 -0.3426955884486E+01 -0.1550706972390E+01  0.4958096290023E+00
-0.1029072712322E+01 -0.2316767961705E+01 -0.1572545112804E+01  0.6694481385045E+00
-0.5466920826959E+00 -0.2275637674841E+01 -0.1326494982678E+01  0.3230301362005E+00
-0.2283261629741E+00 -0.2197119170373E+01 -0.1139959303782E+01  0.1354484434337E+00
-0.1668469563822E-01 -0.2124100235660E+01 -0.1006168915158E+01  0.5756435167872E-01
 0.1177796104149E+00 -0.2075711389470E+01 -0.9202279338220E+00  0.6057603433026E-01
 0.1897666045731E+00 -0.2065637952328E+01 -0.8816595312087E+00  0.1222106749708E+00
 0.1949248433408E+00 -0.2122747501958E+01 -0.9060766472521E+00  0.2342907624009E+00
 0.1568787938733E+00 -0.2286335425368E+01 -0.1000844614264E+01  0.3704593410096E+00
 0.1008803062652E+00 -0.2608362392769E+01 -0.1178516577668E+01  0.4984697012909E+00
-0.1366775945248E-01 -0.3125727461558E+01 -0.1475515750133E+01  0.5946543435128E+00
-0.9111885146094E+00 -0.2266046817103E+01 -0.1493300602117E+01  0.7207531741473E+00
-0.4519369641151E+00 -0.2142581864642E+01 -0.1219423846423E+01  0.3353727084761E+00
-0.1688090152553E+00 -0.1979424683676E+01 -0.1009669835937E+01  0.1328779862541E+00
 0.7841256957620E-02 -0.1833244158755E+01 -0.8579393616689E+00  0.5637734757399E-01
 0.1088972361134E+00 -0.1726592021626E+01 -0.7603165472624E+00  0.6846101194836E-01
 0.1511836912086E+00 -0.1668963140716E+01 -0.7133563394590E+00  0.1407875136879E+00
 0.1317772137513E+00 -0.1688020008147E+01 -0.7314341115108E+00  0.2601725257008E+00
 0.7248823721376E-01 -0.1827326113514E+01 -0.8247737997693E+00  0.4026977681122E+00
-0.1088259175910E-01 -0.2158085842413E+01 -0.1019415161475E+01  0.5418640373511E+00
-0.1498437948488E+00 -0.2746895758605E+01 -0.1361467586670E+01  0.6501289459776E+00
-0.8056191295006E+00 -0.2233702131465E+01 -0.1428480989031E+01  0.7558758173302E+00
-0.3654907487498E+00 -0.2004037952625E+01 -0.1113678486821E+01  0.3203115629612E+00
-0.1181152539270E+00 -0.1734357136139E+01 -0.8706620211227E+00  0.1043790520167E+00
 0.2546196597249E-01 -0.1505624941435E+01 -0.6956765967027E+00  0.3339038014009E-01
 0.9349623453883E-01 -0.1344276759900E+01 -0.5878668454285E+00  0.5534255394469E-01
 0.1081161456354E+00 -0.1246037906004E+01 -0.5348232260168E+00  0.1328107186978E+00
 0.7297644425808E-01 -0.1228588846686E+01 -0.5431378277637E+00  0.2461882767612E+00
 0.4549107287032E-02 -0.1335376069341E+01 -0.6254886705789E+00  0.3802289897178E+00
-0.9890077741533E-01 -0.1653792815488E+01 -0.8237659865753E+00  0.5236289236022E+00
-0.2660258597785E+00 -0.2295314214553E+01 -0.1203829831882E+01  0.6486914220973E+00
-0.7283190062556E+00 -0.2236990380033E+01 -0.1393695408021E+01  0.7706718517498E+00
-0.2954358617314E+00 -0.1857349743292E+01 -0.1011809231795E+01  0.2696004782302E+00
-0.7609462745602E-01 -0.1446135399690E+01 -0.7154481109442E+00  0.4915273426622E-01
 0.3926262956303E-01 -0.1133149562654E+01 -0.5141268572486E+00 -0.5280893722764E-02
 0.7570139473893E-01 -0.9351722512006E+00 -0.4039513015124E+00  0.2972505616982E-01
 0.6551698992575E-01 -0.8173499609479E+00 -0.3533614954842E+00  0.1047367392166E+00
 0.2899022287146E-01 -0.7717057168901E+00 -0.3490762813034E+00  0.1953484532200E+00
-0.3029804064742E-01 -0.8412632800487E+00 -0.4096338196882E+00  0.3026254153846E+00
-0.1401153670064E+00 -0.1121009453265E+01 -0.5927286640243E+00  0.4384118545168E+00
-0.3374448536712E+00 -0.1779362794532E+01 -0.9948995921322E+00  0.5766040198712E+00
-0.7197948400370E+00 -0.2312833561815E+01 -0.1425335345255E+01  0.7559943352538E+00
-0.2509810607888E+00 -0.1682281652782E+01 -0.9086334730734E+00  0.1712400697509E+00
-0.4041416931619E-01 -0.1081231446599E+01 -0.5271734381431E+00 -0.2814497616892E-01
 0.5893660552843E-01 -0.7001347147749E+00 -0.3013631105815E+00 -0.4333988707988E-01
 0.5328257142918E-01 -0.5220844760071E+00 -0.2203368945927E+00  0.7480700961564E-02
 0.3062299956938E-01 -0.4080422086315E+00 -0.1773870278093E+00  0.6656397354594E-01
 0.1038457520127E-01 -0.3468561255422E+00 -0.1581416282591E+00  0.1162741558492E+00
-0.1937002605621E-01 -0.3827267078130E+00 -0.1889854644392E+00  0.1779176958523E+00
-0.1104728276542E+00 -0.5946165406682E+00 -0.3313920022710E+00  0.2884960836306E+00
-0.3297536907581E+00 -0.1216668489954E+01 -0.7268184230914E+00  0.4225192240579E+00
-0.8795261830672E+00 -0.2542244478370E+01 -0.1608232206796E+01  0.6910193437622E+00
-0.2619053398004E+00 -0.1427271652289E+01 -0.7939131842684E+00  0.5679920832439E-02
 0.5083569533912E-01 -0.5203180063754E+00 -0.2206566856274E+00 -0.9882480574730E-01
 0.5887760550354E-01 -0.2605882464062E+00 -0.9480400098378E-01 -0.4611506343378E-01
 0.3339479134923E-01 -0.1352424921701E+00 -0.4786841926439E-01  0.2684224207830E-02
 0.1396790091677E-01 -0.4043889970472E-01 -0.1244136939878E-01  0.2732794201379E-01
 0.2369282637951E-01  0.1857996362107E-01  0.1986821124988E-01  0.2211976557295E-01
 0.4542055557987E-01  0.6666023712124E-02  0.2448069220514E-01  0.2389775217579E-01
 0.7602866992227E-03 -0.1286251200333E+00 -0.6009647151459E-01  0.8966806458781E-01
-0.1940436900205E+00 -0.6362445316138E+00 -0.3902354631783E+00  0.1824008515271E+00
-0.1965829538076E+01 -0.3485815769266E+01 -0.2562273287952E+01  0.4775155132270E+00
 0.1374533545743E+00 -0.3631341824809E+00 -0.1060699888471E+00 -0.1866906002652E+00
 0.7227297879420E-01  0.1392749915055E-01  0.4051422453127E-01 -0.6757221336149E-01
 0.5766261180963E-01  0.1281505725957E+00  0.8733219644900E-01  0.2091407829011E-02
 0.3057854849107E-01  0.2041021565198E+00  0.1102999310754E+00  0.1600624254756E-01
 0.1933402828722E-01  0.2653202554956E+00  0.1337875130386E+00 -0.7919959783214E-02
 0.7701118786673E-01  0.3196815607071E+00  0.1864455913568E+00 -0.7141172405555E-01
 0.1477360279880E+00  0.2892318748041E+00  0.2053749137914E+00 -0.1318284234570E+00
 0.2086311584069E+00  0.2476404667104E+00  0.2144476632612E+00 -0.1277218179482E+00
 0.6973282536929E-01 -0.1492009502689E+00 -0.3735001860808E-01 -0.1179137510818E+00
-0.3785683827670E+00 -0.1162434493788E+01 -0.7242713501438E+00 -0.8408861687003E+00
-0.3133365483786E+00 -0.8751503936193E+00 -0.5585888613222E+00 -0.7279396862397E+00
-0.2836984017409E+00 -0.6705051951560E+00 -0.4484756894040E+00 -0.6035289059418E+00
-0.2468041728688E+00 -0.4995306833954E+00 -0.3507773815545E+00 -0.4719463899670E+00
-0.1936316968750E+00 -0.3540226456999E+00 -0.2573975403574E+00 -0.3375614728048E+00
-0.1187108403877E+00 -0.2305278596067E+00 -0.1641421885810E+00 -0.2058525415716E+00
-0.2148358108469E-01 -0.1281722541257E+00 -0.7033824237050E-01 -0.8251197511891E-01
 0.9592625160956E-01 -0.4561220919493E-01  0.2364759987490E-01  0.2730174529041E-01
 0.2283730046304E+00  0.1813379657164E-01  0.1158581962711E+00  0.1194814533001E+00
 0.3825734093052E+00  0.7289498183808E-01  0.2140701432944E+00  0.1917037756775E+00
-0.4259156026402E+00 -0.1350897121989E+01 -0.8351019784578E+00 -0.9602761268260E+00
-0.3959263318983E+00 -0.1095980354459E+01 -0.7011961408095E+00 -0.8390810064457E+00
-0.3731579830852E+00 -0.8508391271909E+00 -0.5752786403707E+00 -0.7103360305204E+00
-0.3432777805784E+00 -0.6347998126582E+00 -0.4596964676552E+00 -0.5762517049668E+00
-0.2900273710497E+00 -0.4461004156575E+00 -0.3459800588749E+00 -0.4370611666228E+00
-0.2071438599805E+00 -0.2860736212292E+00 -0.2318122155806E+00 -0.2962082239261E+00
-0.9296246483316E-01 -0.1560630187437E+00 -0.1170419769843E+00 -0.1592597725704E+00
 0.4985622548400E-01 -0.5661732933460E-01 -0.3177718801721E-02 -0.3275385519803E-01
 0.2175283056739E+00  0.1548633768114E-01  0.1095168820991E+00  0.7749969416103E-01
 0.4016692702598E+00  0.6310038814572E-01  0.2184417388966E+00  0.1685291055814E+00
-0.4503235326857E+00 -0.1532048624149E+01 -0.9317149113492E+00 -0.1075888043613E+01
-0.4555277906859E+00 -0.1297447159986E+01 -0.8238982247261E+00 -0.9740668668207E+00
-0.4538861183514E+00 -0.1049290792355E+01 -0.7064931462400E+00 -0.8508789304804E+00
-0.4370712182352E+00 -0.8075266229681E+00 -0.5849609838819E+00 -0.7141592451030E+00
-0.3930329640554E+00 -0.5837048048257E+00 -0.4590667502097E+00 -0.5661854355119E+00
-0.3120517792120E+00 -0.3848037556047E+00 -0.3275221005331E+00 -0.4099634378820E+00
-0.1897514488783E+00 -0.2177959206212E+00 -0.1915472631789E+00 -0.2512561939405E+00
-0.2695968412474E-01 -0.8835457723732E-01 -0.5419770270270E-01 -0.9846343027525E-01
 0.1699005459401E+00  0.1512684990591E-02  0.8056421833307E-01  0.3914736214524E-01
 0.3913272883351E+00  0.5668669330401E-01  0.2105665708363E+00  0.1542000529041E+00
-0.4674106478678E+00 -0.1746342440027E+01 -0.1040463948672E+01 -0.1194088344562E+01
-0.5037569049370E+00 -0.1518380210411E+01 -0.9504044418030E+00 -0.1116499945104E+01
-0.5284758704111E+00 -0.1271043278656E+01 -0.8457739979164E+00 -0.1009320711891E+01
-0.5337565445078E+00 -0.1015753147339E+01 -0.7282695533208E+00 -0.8784330925974E+00
-0.5077370930114E+00 -0.7641231333201E+00 -0.5977743048596E+00 -0.7264648803461E+00
-0.4383480612837E+00 -0.5268312519103E+00 -0.4536342760506E+00 -0.5559920331349E+00
-0.3160182548723E+00 -0.3150410092531E+00 -0.2965978533866E+00 -0.3723506733656E+00
-0.1372091146262E+00 -0.1418377329764E+00 -0.1311520180406E+00 -0.1854773334384E+00
 0.9279864424122E-01 -0.1890233995533E-01  0.3473126292627E-01 -0.1012374985620E-01
 0.3614177149920E+00  0.5320102855955E-01  0.1948708089750E+00  0.1380643991811E+00
-0.4741382349254E+00 -0.1998913098251E+01 -0.1162334123645E+01 -0.1312076524093E+01
-0.5412219371366E+00 -0.1780064984798E+01 -0.1091004850542E+01 -0.1261363844710E+01
-0.5962579351205E+00 -0.1536880773792E+01 -0.1002575190646E+01 -0.1177538333638E+01
-0.6314868727407E+00 -0.1275077672819E+01 -0.8960853341401E+00 -0.1062410160572E+01
-0.6343174572611E+00 -0.1002768944326E+01 -0.7694306067945E+00 -0.9162372366226E+00
-0.5893880562676E+00 -0.7295684140438E+00 -0.6199095394740E+00 -0.7393088853049E+00
-0.4803349511438E+00 -0.4675698017756E+00 -0.4455152327422E+00 -0.5344246620669E+00
-0.2925699287056E+00 -0.2334517586201E+00 -0.2472301924160E+00 -0.3100665881507E+00
-0.2285730406438E-01 -0.5306115633791E-01 -0.3568167629857E-01 -0.8477508436478E-01
 0.3110712686794E+00  0.4781953491775E-01  0.1686786772628E+00  0.1112992170591E+00
-0.4679707822871E+00 -0.2292348712008E+01 -0.1297350159028E+01 -0.1423264151209E+01
-0.5639717858797E+00 -0.2093760331111E+01 -0.1249134091817E+01 -0.1402889926615E+01
-0.6514969465546E+00 -0.1866481663845E+01 -0.1183449943886E+01 -0.1349656162737E+01
-0.7230153554278E+00 -0.1611734884631E+01 -0.1097332610044E+01 -0.1261440689458E+01
-0.7657630812296E+00 -0.1333184750870E+01 -0.9865054785849E+00 -0.1134973697529E+01
-0.7619542262327E+00 -0.1036424922141E+01 -0.8452381975919E+00 -0.9665318294621E+00
-0.6883965216486E+00 -0.7297324131167E+00 -0.6665205976492E+00 -0.7536370020509E+00
-0.5159998827814E+00 -0.4264890902654E+00 -0.4429698162085E+00 -0.4980965463630E+00
-0.2114446154645E+00 -0.1508642553766E+00 -0.1702851688634E+00 -0.2124703336905E+00
 0.2261223395959E+00  0.3325328379008E-01  0.1219065426822E+00  0.6391310456214E-01
-0.4452755175047E+00 -0.2624753742933E+01 -0.1442913748746E+01 -0.1517728009666E+01
-0.5664417367790E+00 -0.2462957872866E+01 -0.1423817812922E+01 -0.1529911701454E+01
-0.6852903606815E+00 -0.2271116297079E+01 -0.1389511125623E+01 -0.1513247986007E+01
-0.7956195716043E+00 -0.2047379715273E+01 -0.1336209661443E+01 -0.1462821858216E+01
-0.8857706774657E+00 -0.1791241750107E+01 -0.1258195837768E+01 -0.1372301727749E+01
-0.9379652222278E+00 -0.1503351937827E+01 -0.1147419062315E+01 -0.1233852350605E+01
-0.9260495724651E+00 -0.1185734881937E+01 -0.9925386910518E+00 -0.1038578536610E+01
-0.8105395322655E+00 -0.8425882014811E+00 -0.7769700328902E+00 -0.7776635164441E+00
-0.5275970906810E+00 -0.4818553939260E+00 -0.4744426665620E+00 -0.4454167176910E+00
 0.3365268050889E-01 -0.1243427136271E+00 -0.4262431545743E-01 -0.5387446639409E-01
-0.4047339029608E+00 -0.2989387990921E+01 -0.1595237286078E+01 -0.1583351870815E+01
-0.5449179095186E+00 -0.2881505556207E+01 -0.1610419024806E+01 -0.1625725707057E+01
-0.6908819111525E+00 -0.2748307360389E+01 -0.1616418953525E+01 -0.1645828594781E+01
-0.8379578824091E+00 -0.2586711589820E+01 -0.1609594647865E+01 -0.1637549663727E+01
-0.9769477522156E+00 -0.2394462170676E+01 -0.1584562659740E+01 -0.1593154858756E+01
-0.1092928272677E+01 -0.2169848074153E+01 -0.1533504879121E+01 -0.1502541403759E+01
-0.1162631270897E+01 -0.1911531889320E+01 -0.1444856681637E+01 -0.1352454236877E+01
-0.1148681435298E+01 -0.1618146089906E+01 -0.1300408933548E+01 -0.1125071931774E+01
-0.9855882540304E+00 -0.1286317742099E+01 -0.1067795815473E+01 -0.7948155703037E+00
-0.5157420748070E+00 -0.8859753142533E+00 -0.6588071711874E+00 -0.3182523231785E+00
-0.3483521068200E+00 -0.3370640730744E+01 -0.1747926629222E+01 -0.1607764082366E+01
-0.5024905876162E+00 -0.3328990103193E+01 -0.1800795920113E+01 -0.1670350226167E+01
-0.6718505820578E+00 -0.3271639922411E+01 -0.1853440532399E+01 -0.1716023915189E+01
-0.8542666824778E+00 -0.3196170561074E+01 -0.1903705499641E+01 -0.1737941210502E+01
-0.1044730283733E+01 -0.3100868986925E+01 -0.1948431652267E+01 -0.1727252669310E+01
-0.1234549424901E+01 -0.2984621514271E+01 -0.1983010336381E+01 -0.1671994728241E+01
-0.1410124112689E+01 -0.2846845517822E+01 -0.2000775721265E+01 -0.1555547741649E+01
-0.1550892836228E+01 -0.2687252157000E+01 -0.1991928141765E+01 -0.1353688940479E+01
-0.1626162664866E+01 -0.2505207479934E+01 -0.1941743963131E+01 -0.1027899623861E+01
-0.1602150065216E+01 -0.2303435276211E+01 -0.1835625105815E+01 -0.5038500858445E+00
-0.2814615245999E+00 -0.3747830530319E+01 -0.1893767261009E+01 -0.1584553061694E+01
-0.4466098669456E+00 -0.3776350326938E+01 -0.1984791286091E+01 -0.1652913071269E+01
-0.6375393178497E+00 -0.3800275179495E+01 -0.2085772808462E+01 -0.1706492476673E+01
-0.8559049871766E+00 -0.3818244690955E+01 -0.2196850343150E+01 -0.1737420717917E+01
-0.1102638410928E+01 -0.3829527694566E+01 -0.2318118063703E+01 -0.1735211882984E+01
-0.1377949983300E+01 -0.3834077081260E+01 -0.2449652714130E+01 -0.1685605650484E+01
-0.1682019060518E+01 -0.3832627800200E+01 -0.2591884017963E+01 -0.1568967810543E+01
-0.2017765185411E+01 -0.3827247316190E+01 -0.2747155868785E+01 -0.1357700754614E+01
-0.2399449800826E+01 -0.3822706387522E+01 -0.2924413401106E+01 -0.1011471113738E+01
-0.2900211595405E+01 -0.3844565186644E+01 -0.3170045079523E+01 -0.4716400878542E+00
-0.2096071060518E+00 -0.4100029409358E+01 -0.2025529157105E+01 -0.1514754003418E+01
-0.3834396126363E+00 -0.4194524223013E+01 -0.2151642997298E+01 -0.1575845049871E+01
-0.5937548354674E+00 -0.4294067015920E+01 -0.2297276264325E+01 -0.1622740444552E+01
-0.8468530810624E+00 -0.4397704104740E+01 -0.2464941871075E+01 -0.1647181476410E+01
-0.1150270844384E+01 -0.4504780918467E+01 -0.2657874321799E+01 -0.1638069108294E+01
-0.1513482619013E+01 -0.4614975692273E+01 -0.2880375398999E+01 -0.1580611320396E+01
-0.1949708053690E+01 -0.4728349723733E+01 -0.3138687147428E+01 -0.1455355742040E+01
-0.2479762440899E+01 -0.4845300802378E+01 -0.3442779715608E+01 -0.1237267183216E+01
-0.3142568102948E+01 -0.4967893870550E+01 -0.3811917117875E+01 -0.8959100668459E+00
-0.3994927717176E+01 -0.5085751377426E+01 -0.4267919163638E+01 -0.4026567592475E+00
-0.1367824445566E+00 -0.4408611852489E+01 -0.2136335314193E+01 -0.1402081453001E+01
-0.3157938888773E+00 -0.4558368195312E+01 -0.2290856173758E+01 -0.1445523546527E+01
-0.5407083891465E+00 -0.4719818916375E+01 -0.2472447827324E+01 -0.1475396989231E+01
-0.8222880276581E+00 -0.4891462030340E+01 -0.2685462520448E+01 -0.1484137118794E+01
-0.1174003840278E+01 -0.5071662131581E+01 -0.2935462999328E+01 -0.1461640067680E+01
-0.1612912492985E+01 -0.5258462089800E+01 -0.3229546045717E+01 -0.1394872942267E+01
-0.2161088063722E+01 -0.5449162336323E+01 -0.3576817678949E+01 -0.1267656521070E+01
-0.2847990867647E+01 -0.5639756026197E+01 -0.3989241029989E+01 -0.1061204200170E+01
-0.3710488407067E+01 -0.5821413030466E+01 -0.4479993664277E+01 -0.7569655587572E+00
-0.4789860558990E+01 -0.5977493101910E+01 -0.5060656207788E+01 -0.3424814991992E+00
-0.6599878460932E-01 -0.4658324538545E+01 -0.2220431956250E+01 -0.1251805455849E+01
-0.2451900487764E+00 -0.4848262977495E+01 -0.2393922916276E+01 -0.1270190443746E+01
-0.4769161009442E+00 -0.5052842734805E+01 -0.2598986646210E+01 -0.1276590783170E+01
-0.7754648983325E+00 -0.5269326961109E+01 -0.2841052166731E+01 -0.1265128278954E+01
-0.1158578975055E+01 -0.5494454471196E+01 -0.3126925711807E+01 -0.1228074037555E+01
-0.1648194915403E+01 -0.5723986209564E+01 -0.3464925119946E+01 -0.1155886084074E+01
-0.2271118494854E+01 -0.5951979471643E+01 -0.3864856034451E+01 -0.1037374418852E+01
-0.3058491998064E+01 -0.6169456068998E+01 -0.4337135580518E+01 -0.8605033577780E+00
-0.4043426788322E+01 -0.6363400133121E+01 -0.4891208640673E+01 -0.6143409112966E+00
-0.5256650346608E+01 -0.6517241663271E+01 -0.5533729230607E+01 -0.2919292956789E+00
 0.6100990896201E-03 -0.4837611575412E+01 -0.2273390688105E+01 -0.1069922453881E+01
-0.1723045491876E+00 -0.5049856100099E+01 -0.2454415498939E+01 -0.1058676478687E+01
-0.4005604345703E+00 -0.5275790868892E+01 -0.2667885105861E+01 -0.1038324353885E+01
-0.7004796892843E+00 -0.5511084908962E+01 -0.2919435353771E+01 -0.1005232258311E+01
-0.1091876791311E+01 -0.5750770161140E+01 -0.3216044059495E+01 -0.9548295967909E+00
-0.1598744015887E+01 -0.5988539306183E+01 -0.3566023152328E+01 -0.8819791369128E+00
-0.2249620435501E+01 -0.6215895255422E+01 -0.3978792364642E+01 -0.7811181706566E+00
-0.3076601675327E+01 -0.6421332369603E+01 -0.4464028989795E+01 -0.6462545477384E+00
-0.4111871648214E+01 -0.6590068630596E+01 -0.5029911918283E+01 -0.4708664290082E+00
-0.5382305204837E+01 -0.6705754415633E+01 -0.5681388007211E+01 -0.2480946523212E+00
 0.6136071056225E-01 -0.4938652268226E+01 -0.2292327026288E+01 -0.8630021388786E+00
-0.9796677025125E-01 -0.5153727833251E+01 -0.2468296457385E+01 -0.8202176517382E+00
-0.3112478651221E+00 -0.5377599128858E+01 -0.2673758080389E+01 -0.7723387305922E+00
-0.5951060325981E+00 -0.5604342997350E+01 -0.2913741036685E+01 -0.7179025448507E+00
-0.9688528509084E+00 -0.5827590435478E+01 -0.3194328336499E+01 -0.6555311307311E+00
-0.1455660614383E+01 -0.6039785338811E+01 -0.3522859589066E+01 -0.5846887420612E+00
-0.2083432108192E+01 -0.6231076545321E+01 -0.3907819057239E+01 -0.5056800438464E+00
-0.2885336333767E+01 -0.6389021505618E+01 -0.4358948173455E+01 -0.4187557917779E+00
-0.3898170060334E+01 -0.6498676334435E+01 -0.4886517793147E+01 -0.3218837335582E+00
-0.5154950907565E+01 -0.6542421329822E+01 -0.5497764937628E+01 -0.2072775372187E+00
 0.1145244134243E+00 -0.4957295013257E+01 -0.2276102176148E+01 -0.6382494766243E+00
-0.2441171343471E-01 -0.5155294217030E+01 -0.2434461781144E+01 -0.5645475676144E+00
-0.2123188038421E+00 -0.5353310158912E+01 -0.2615845605860E+01 -0.4905125030014E+00
-0.4640342409206E+00 -0.5543623548735E+01 -0.2823599153976E+01 -0.4158806727671E+00
-0.7961247181316E+00 -0.5719850365499E+01 -0.3062508281539E+01 -0.3417725219613E+00
-0.1227371393628E+01 -0.5873847890003E+01 -0.3337573054841E+01 -0.2719163044788E+00
-0.1781615439455E+01 -0.5995283835735E+01 -0.3655142650069E+01 -0.2126427320257E+00
-0.2490412770266E+01 -0.6071048593283E+01 -0.4023886830662E+01 -0.1718447010543E+00
-0.3397091745609E+01 -0.6086227940269E+01 -0.4457160241058E+01 -0.1559340472178E+00
-0.4557586851034E+01 -0.6024785816447E+01 -0.4973715141101E+01 -0.1626520897219E+00
 0.1576786712494E+00 -0.4893805837676E+01 -0.2225979762575E+01 -0.4028807936544E+00
 0.4246462066521E-01 -0.5057347656611E+01 -0.2356995020916E+01 -0.3013979781773E+00
-0.1132396786501E+00 -0.5205648106285E+01 -0.2499877252579E+01 -0.2047965601060E+00
-0.3233840115062E+00 -0.5332883491824E+01 -0.2658445719822E+01 -0.1119537151869E+00
-0.5980245626976E+00 -0.5432925670582E+01 -0.2834546602452E+01 -0.2553109353150E-01
-0.9491217313236E+00 -0.5498976396152E+01 -0.3030606112227E+01  0.4687655831875E-01
-0.1390784711731E+01 -0.5519295523875E+01 -0.3247737702497E+01  0.9298524980131E-01
-0.1945402909439E+01 -0.5479279582954E+01 -0.3489600762574E+01  0.9579822261537E-01
-0.2652589618829E+01 -0.5361503360328E+01 -0.3766623690650E+01  0.3417221289274E-01
-0.3588731947278E+01 -0.5149003001664E+01 -0.4106735415586E+01 -0.1119457271366E+00
 0.1853964728895E+00 -0.4755801236298E+01 -0.2148090233354E+01 -0.1653297275836E+00
 0.9617199394445E-01 -0.4866156038453E+01 -0.2241892495233E+01 -0.4327254157341E-01
-0.2945181800906E-01 -0.4942178962471E+01 -0.2336666460899E+01  0.6828402008256E-01
-0.1966429359787E+00 -0.4977095392749E+01 -0.2431657008335E+01  0.1748192601125E+00
-0.4130149725416E+00 -0.4975012962018E+01 -0.2532373122820E+01  0.2715881658312E+00
-0.6780572277195E+00 -0.4926085689996E+01 -0.2633947164646E+01  0.3468497017540E+00
-0.9934077737498E+00 -0.4817845733447E+01 -0.2731289141455E+01  0.3837283210390E+00
-0.1360099518597E+01 -0.4631983414058E+01 -0.2816278971204E+01  0.3578437436190E+00
-0.1788766076609E+01 -0.4346038673557E+01 -0.2883358225265E+01  0.2317677347875E+00
-0.2324609048050E+01 -0.3930280781280E+01 -0.2939798212329E+01 -0.5165606347664E-01
 0.1998871068757E+00 -0.4549713371263E+01 -0.2044418339076E+01  0.6115091771396E-01
 0.1234433451906E+00 -0.4594445684688E+01 -0.2101371094234E+01  0.1868956547721E+00
 0.3472559008508E-01 -0.4549877876283E+01 -0.2122121569130E+01  0.3028024938227E+00
-0.1023026208381E+00 -0.4472238868046E+01 -0.2150034494322E+01  0.4160107034717E+00
-0.2691739347018E+00 -0.4345891832134E+01 -0.2169080904911E+01  0.5142743835153E+00
-0.4594742882622E+00 -0.4160753018382E+01 -0.2171506828615E+01  0.5830515982081E+00
-0.6617289348442E+00 -0.3903060745500E+01 -0.2145451144320E+01  0.6034504616540E+00
-0.8566537987018E+00 -0.3556361036153E+01 -0.2074116967121E+01  0.5492767127257E+00
-0.9954466658288E+00 -0.3086148816117E+01 -0.1918349871649E+01  0.3791535913281E+00
-0.1013909197568E+01 -0.2446034277472E+01 -0.1626173429144E+01  0.1191023113614E-01
 0.1266102959642E+00 -0.4358893340506E+01 -0.1989173025889E+01  0.2456492211793E+00
 0.1546064624391E+00 -0.4176746462379E+01 -0.1890405795177E+01  0.3630922634455E+00
 0.6541396271706E-01 -0.4027119092171E+01 -0.1862001406120E+01  0.4808418408101E+00
-0.4911474929557E-01 -0.3831066794226E+01 -0.1823685320829E+01  0.5870529515587E+00
-0.1811043085050E+00 -0.3576833632957E+01 -0.1766230828008E+01  0.6675816512149E+00
-0.3181143914706E+00 -0.3252869133338E+01 -0.1678362252403E+01  0.7063622507728E+00
-0.4446910102158E+00 -0.2850155112159E+01 -0.1548577673588E+01  0.6838003295798E+00
-0.5307150789392E+00 -0.2357166449696E+01 -0.1357304315016E+01  0.5758585053877E+00
-0.5230229144305E+00 -0.1764961199562E+01 -0.1075352530849E+01  0.3535655088690E+00
-0.1966913967471E+00 -0.9820825448534E+00 -0.5540237511470E+00 -0.2655304112992E-01
</DataArray>
<DataArray type="Float64" Name="S_Mises" NumberOfComponents="1" ComponentName0="S_Mises" format="ascii">
 0.8294836507194E+01
 0.7465316815601E+01
 0.6774416199800E+01
 0.6495217831312E+01
 0.6279705837302E+01
 0.6124669502454E+01
 0.6008258617135E+01
 0.5933391105358E+01
 0.5913680755172E+01
 0.5984158706673E+01
 0.6158840099759E+01
 0.6335543080106E+01
 0.6410864381168E+01
 0.6407463175131E+01
 0.6375670496875E+01
 0.6330542214553E+01
 0.6307033067489E+01
 0.6306126366027E+01
 0.6562780995710E+01
 0.5652132918288E+01
 0.1053799798330E+02
 0.6981885704230E+01
 0.7236548946346E+01
 0.6724720107461E+01
 0.6392152372868E+01
 0.6178056193960E+01
 0.6015310215633E+01
 0.5896133751509E+01
 0.5818117899326E+01
 0.5788727244739E+01
 0.5810354804286E+01
 0.5863407197035E+01
 0.5906698430422E+01
 0.5902897683845E+01
 0.5838826695067E+01
 0.5718858061599E+01
 0.5548925368809E+01
 0.5307692847753E+01
 0.4974683380241E+01
 0.4221267890368E+01
 0.3026488722816E+01
 0.8794963626526E+01
 0.6223643706324E+01
 0.6715486235911E+01
 0.6549351152196E+01
 0.6256565523378E+01
 0.6048370739069E+01
 0.5887700737334E+01
 0.5765198100153E+01
 0.5678841897673E+01
 0.5626217096946E+01
 0.5593899175701E+01
 0.5560425969544E+01
 0.5511452260502E+01
 0.5433174351112E+01
 0.5304498535804E+01
 0.5110217839277E+01
 0.4837138492335E+01
 0.4455790304289E+01
 0.3885481721579E+01
 0.2981211318156E+01
 0.2863975465638E+01
 0.8165575985759E+01
 0.5705713825387E+01
 0.6222039094311E+01
 0.6270054930426E+01
 0.6080825780189E+01
 0.5894207321297E+01
 0.5740772366443E+01
 0.5615907583036E+01
 0.5517244861480E+01
 0.5436406335996E+01
 0.5355392696907E+01
 0.5257521728800E+01
 0.5140202456217E+01
 0.4998889586947E+01
 0.4813117196967E+01
 0.4560417149715E+01
 0.4221415400355E+01
 0.3767706961812E+01
 0.3155693291498E+01
 0.2560358155500E+01
 0.3434392290981E+01
 0.7634592481000E+01
 0.5313360381701E+01
 0.5794597464942E+01
 0.5955725206628E+01
 0.5866996456427E+01
 0.5718042441330E+01
 0.5575909567503E+01
 0.5449628258099E+01
 0.5337215023517E+01
 0.5228449510328E+01
 0.5106310431724E+01
 0.4959363140198E+01
 0.4790350065172E+01
 0.4599124002118E+01
 0.4368731469588E+01
 0.4077665581616E+01
 0.3709802802165E+01
 0.3254268665548E+01
 0.2754865267801E+01
 0.2591035097210E+01
 0.3962769276788E+01
 0.7213600312306E+01
 0.4994633930584E+01
 0.5426522152489E+01
 0.5640768308383E+01
 0.5629524503851E+01
 0.5522743570149E+01
 0.5395547855203E+01
 0.5268811458091E+01
 0.5143199243692E+01
 0.5009418722371E+01
 0.4853764242145E+01
 0.4669348752884E+01
 0.4461711790114E+01
 0.4233601617256E+01
 0.3973055769958E+01
 0.3664439683556E+01
 0.3301537052815E+01
 0.2903235176645E+01
 0.2590992093027E+01
 0.2811319346503E+01
 0.4331513047883E+01
 0.6886317596725E+01
 0.4722713096309E+01
 0.5105442066205E+01
 0.5339146804356E+01
 0.5381446432766E+01
 0.5313265108448E+01
 0.5202557200252E+01
 0.5076525453303E+01
 0.4939443259419E+01
 0.4784661699056E+01
 0.4602538085911E+01
 0.4390067617439E+01
 0.4154747891751E+01
 0.3901989167071E+01
 0.3625700624265E+01
 0.3318713351066E+01
 0.2988756676301E+01
 0.2685147614049E+01
 0.2577458739890E+01
 0.3072753498016E+01
 0.4570577858532E+01
 0.6630687932437E+01
 0.4482433669063E+01
 0.4820577007075E+01
 0.5055327246762E+01
 0.5131677146968E+01
 0.5094996142456E+01
 0.5000236224507E+01
 0.4875976207766E+01
 0.4729733459995E+01
 0.4558253535385E+01
 0.4356019727030E+01
 0.4123444936264E+01
 0.3869845598149E+01
 0.3603468589424E+01
 0.3324493811488E+01
 0.3035284991132E+01
 0.2758312470654E+01
 0.2566945450706E+01
 0.2647352986884E+01
 0.3314272436036E+01
 0.4722221909156E+01
 0.6427444749293E+01
 0.4264614839744E+01
 0.4563665235397E+01
 0.4789695442752E+01
 0.4885650762421E+01
 0.4872686179585E+01
 0.4791983265066E+01
 0.4670267478740E+01
 0.4517328245880E+01
 0.4333335614359E+01
 0.4116659785092E+01
 0.3870815336285E+01
 0.3607029387533E+01
 0.3336582784712E+01
 0.3065920923241E+01
 0.2806839392977E+01
 0.2594939808511E+01
 0.2518765312978E+01
 0.2755254752666E+01
 0.3518395981961E+01
 0.4818676886342E+01
 0.6262335625244E+01
 0.4063387753592E+01
 0.4328588564707E+01
 0.4541039464844E+01
 0.4646426403402E+01
 0.4650098781236E+01
 0.4580968339320E+01
 0.4462252999620E+01
 0.4304975419663E+01
 0.4112340674268E+01
 0.3886221636524E+01
 0.3632986185252E+01
 0.3365875801784E+01
 0.3099276907745E+01
 0.2845557498308E+01
 0.2625042943665E+01
 0.2483660423754E+01
 0.2516161575665E+01
 0.2873879143598E+01
 0.3684301135026E+01
 0.4882307746457E+01
 0.6125617223133E+01
 0.3874843843463E+01
 0.4110970956115E+01
 0.4307892096931E+01
 0.4415923358911E+01
 0.4430486542781E+01
 0.4370485810507E+01
 0.4255087221566E+01
 0.4095701823677E+01
 0.3898000751309E+01
 0.3666896733997E+01
 0.3411355436351E+01
 0.3146639267868E+01
 0.2890122726562E+01
 0.2659464598972E+01
 0.2482146607096E+01
 0.2411222005919E+01
 0.2539953474544E+01
 0.2987403978704E+01
 0.3815428775328E+01
 0.4924881312886E+01
 0.6022805084828E+01
 0.3696263795339E+01
 0.3907478992046E+01
 0.4088509784905E+01
 0.4194792047289E+01
 0.4215818044658E+01
 0.4162769819374E+01
 0.4050866991684E+01
 0.3891316468238E+01
 0.3691662914817E+01
 0.3459375504343E+01
 0.3205740041008E+01
 0.2947944909718E+01
 0.2706097573703E+01
 0.2502396678569E+01
 0.2370027184216E+01
 0.2366131767897E+01
 0.2576944527849E+01
 0.3089064543527E+01
 0.3918938432130E+01
 0.4951283350145E+01
 0.5956198039756E+01
 0.3525642990142E+01
 0.3715447072839E+01
 0.3881012774461E+01
 0.3982765129694E+01
 0.4006937399788E+01
 0.3958994624191E+01
 0.3850635189517E+01
 0.3692491749408E+01
 0.3493444717382E+01
 0.3263050687374E+01
 0.3014616604664E+01
 0.2767082348282E+01
 0.2542961045099E+01
 0.2368257145819E+01
 0.2280545842206E+01
 0.2338510140174E+01
 0.2617982715424E+01
 0.3176637695177E+01
 0.3999738120480E+01
 0.4970313524754E+01
 0.5895450843805E+01
 0.3361509643697E+01
 0.3532959711982E+01
 0.3684000444899E+01
 0.3779663123614E+01
 0.3804682406900E+01
 0.3760456208775E+01
 0.3655720625146E+01
 0.3500338993601E+01
 0.3304070152822E+01
 0.3078110008582E+01
 0.2837457794067E+01
 0.2602557537029E+01
 0.2397948870557E+01
 0.2252746274398E+01
 0.2207760274906E+01
 0.2321192614343E+01
 0.2657076046441E+01
 0.3248981330756E+01
 0.4062058705134E+01
 0.4982457338475E+01
 0.5844757867902E+01
 0.3202727940444E+01
 0.3358513295583E+01
 0.3496249458295E+01
 0.3585122283361E+01
 0.3609518102369E+01
 0.3568067238948E+01
 0.3467115547225E+01
 0.3315678365726E+01
 0.3124015871202E+01
 0.2904543650704E+01
 0.2673604735619E+01
 0.2452852863846E+01
 0.2268460154217E+01
 0.2152030777315E+01
 0.2146648253224E+01
 0.2308630907252E+01
 0.2690266106975E+01
 0.3306088781089E+01
 0.4108600044963E+01
 0.4988999200835E+01
 0.5803547538281E+01
 0.3048388302273E+01
 0.3190894423023E+01
 0.3316683825995E+01
 0.3398666265146E+01
 0.3421624478504E+01
 0.3382414833650E+01
 0.3285513833035E+01
 0.3139077081437E+01
 0.2953556665004E+01
 0.2742198979912E+01
 0.2522334548168E+01
 0.2316508744310E+01
 0.2152142619288E+01
 0.2062795920096E+01
 0.2093071867479E+01
 0.2296615513743E+01
 0.2715012519701E+01
 0.3348329084210E+01
 0.4141336868511E+01
 0.4990830726834E+01
 0.5770237399470E+01
 0.2897733414546E+01
 0.3029090946570E+01
 0.3144340364560E+01
 0.3219744557973E+01
 0.3240960714573E+01
 0.3203813362119E+01
 0.3111350350744E+01
 0.2970885856954E+01
 0.2792805887095E+01
 0.2590828667376E+01
 0.2382918556981E+01
 0.2192189106340E+01
 0.2046949927174E+01
 0.1982263975642E+01
 0.2043709125693E+01
 0.2282022080401E+01
 0.2729702443082E+01
 0.3376185008383E+01
 0.4161706879617E+01
 0.4988388828709E+01
 0.5743080065417E+01
 0.2750106695103E+01
 0.2872226621093E+01
 0.2978335389837E+01
 0.3047751447687E+01
 0.3067311144541E+01
 0.3032349603163E+01
 0.2944838011765E+01
 0.2811272363942E+01
 0.2641750710621E+01
 0.2450131519502E+01
 0.2254669821378E+01
 0.2078730557358E+01
 0.1951177482799E+01
 0.1908192294216E+01
 0.1995976972541E+01
 0.2262585698751E+01
 0.2733324011755E+01
 0.3390124242092E+01
 0.4170712239593E+01
 0.4981786433138E+01
 0.5720380652555E+01
 0.2604915384590E+01
 0.2719512528293E+01
 0.2817835068695E+01
 0.2882033725753E+01
 0.2900317684686E+01
 0.2867919887076E+01
 0.2786000785038E+01
 0.2660250904040E+01
 0.2500282118479E+01
 0.2319785800998E+01
 0.2136979879147E+01
 0.1975177092174E+01
 0.1863482964649E+01
 0.1838862242680E+01
 0.1947957079148E+01
 0.2236719450211E+01
 0.2725254168670E+01
 0.3390531989021E+01
 0.4169010121802E+01
 0.4970925459560E+01
 0.5700592579970E+01
 0.2461603407396E+01
 0.2570210369529E+01
 0.2662029887413E+01
 0.2721891905253E+01
 0.2739502248678E+01
 0.2710259604301E+01
 0.2634701652727E+01
 0.2517707453210E+01
 0.2368219109528E+01
 0.2199474668354E+01
 0.2029344881232E+01
 0.1880802270720E+01
 0.1782896489128E+01
 0.1773065965773E+01
 0.1898333373122E+01
 0.2203380674216E+01
 0.2705123378591E+01
 0.3377681145562E+01
 0.4156985570095E+01
 0.4955588943062E+01
 0.5682379713957E+01
 0.2319630874345E+01
 0.2423604155426E+01
 0.2510112909874E+01
 0.2566577782022E+01
 0.2584281866510E+01
 0.2558965952742E+01
 0.2490665190254E+01
 0.2383419578100E+01
 0.2245326789114E+01
 0.2088903658535E+01
 0.1931381738553E+01
 0.1795120789983E+01
 0.1708823830212E+01
 0.1710095436854E+01
 0.1846347747888E+01
 0.2161982592134E+01
 0.2672735117472E+01
 0.3351722148755E+01
 0.4134807087802E+01
 0.4935512305307E+01
 0.5664667923441E+01
 0.2178458126299E+01
 0.2278977788278E+01
 0.2361261205642E+01
 0.2415290033741E+01
 0.2433978569662E+01
 0.2413514938922E+01
 0.2353494837792E+01
 0.2257070958239E+01
 0.2131328138132E+01
 0.1987810350354E+01
 0.1842835028947E+01
 0.1717890943680E+01
 0.1641044527345E+01
 0.1649736287241E+01
 0.1791777938022E+01
 0.2112348852146E+01
 0.2628026506051E+01
 0.3312682366513E+01
 0.4102464504831E+01
 0.4910435888191E+01
 0.5646692720776E+01
 0.2037532826107E+01
 0.2135596653326E+01
 0.2214619737490E+01
 0.2267168862498E+01
 0.2287825594475E+01
 0.2273273599016E+01
 0.2222685073827E+01
 0.2138260327691E+01
 0.2025909255524E+01
 0.1895966295355E+01
 0.1763575277365E+01
 0.1649108834054E+01
 0.1579705191989E+01
 0.1592266760251E+01
 0.1734939637269E+01
 0.2054710027362E+01
 0.2571063577651E+01
 0.3260469467081E+01
 0.4059787706429E+01
 0.4880140031683E+01
 0.5628042811304E+01
 0.1896278966079E+01
 0.1992691756089E+01
 0.2069287073669E+01
 0.2121290411510E+01
 0.2144971243453E+01
 0.2137508465202E+01
 0.2097628910287E+01
 0.2026504842255E+01
 0.1928717997028E+01
 0.1813171386885E+01
 0.1693589193011E+01
 0.1588994876009E+01
 0.1525307268991E+01
 0.1538460011988E+01
 0.1676713071517E+01
 0.1989743581602E+01
 0.2502071504436E+01
 0.3194876810147E+01
 0.4006442734260E+01
 0.4844462493793E+01
 0.5608697284323E+01
 0.1754086834819E+01
 0.1849445155721E+01
 0.1924302360138E+01
 0.1976661562516E+01
 0.2004481602705E+01
 0.2005391274598E+01
 0.1977621172975E+01
 0.1921237893456E+01
 0.1839355859870E+01
 0.1739240663543E+01
 0.1632962216479E+01
 0.1537972891396E+01
 0.1478687829216E+01
 0.1489585618672E+01
 0.1618591426801E+01
 0.1918661126256E+01
 0.2421507769750E+01
 0.3115593377084E+01
 0.3941897615968E+01
 0.4803294888978E+01
 0.5589053490183E+01
 0.1610303018316E+01
 0.1704975535405E+01
 0.1778633132496E+01
 0.1832215841859E+01
 0.1865343408139E+01
 0.1876003041726E+01
 0.1861858182703E+01
 0.1821801500631E+01
 0.1757362949908E+01
 0.1673983366499E+01
 0.1581853489812E+01
 0.1496642135239E+01
 0.1440992131984E+01
 0.1447404170723E+01
 0.1562744244855E+01
 0.1843347455564E+01
 0.2330195795813E+01
 0.3022230101332E+01
 0.3865343281010E+01
 0.4756545929237E+01
 0.5569941786754E+01
 0.1464219398660E+01
 0.1558322682442E+01
 0.1631163698247E+01
 0.1686811406056E+01
 0.1726468522254E+01
 0.1748337721116E+01
 0.1749434540939E+01
 0.1727433441593E+01
 0.1682195733489E+01
 0.1617173688396E+01
 0.1540462837179E+01
 0.1465742526275E+01
 0.1413637771547E+01
 0.1414147984777E+01
 0.1512082954921E+01
 0.1766552430830E+01
 0.2229545610517E+01
 0.2914397280205E+01
 0.3775547811683E+01
 0.4704030635788E+01
 0.5552618995220E+01
 0.1315059797491E+01
 0.1408429411790E+01
 0.1480684017319E+01
 0.1539232470345E+01
 0.1586701724452E+01
 0.1621306777158E+01
 0.1639337784974E+01
 0.1637249287679E+01
 0.1613197084366E+01
 0.1568512106881E+01
 0.1508988442850E+01
 0.1446112758390E+01
 0.1398271759093E+01
 0.1392483214266E+01
 0.1470307450557E+01
 0.1692130981041E+01
 0.2121882997338E+01
 0.2791915709317E+01
 0.3670646192393E+01
 0.4645150278938E+01
 0.5538685019092E+01
 0.1161962303310E+01
 0.1254119155682E+01
 0.1325879472926E+01
 0.1388196340224E+01
 0.1444834042554E+01
 0.1493746272937E+01
 0.1530441996848E+01
 0.1550219801188E+01
 0.1549558185682E+01
 0.1527575784689E+01
 0.1487572791268E+01
 0.1438639548004E+01
 0.1396722694128E+01
 0.1385455421305E+01
 0.1441907190571E+01
 0.1625309568952E+01
 0.2010916439752E+01
 0.2655198012132E+01
 0.3548201440527E+01
 0.4577818450404E+01
 0.5529777905959E+01
 0.1003954108794E+01
 0.1094067149137E+01
 0.1165322363487E+01
 0.1232369243510E+01
 0.1299624094899E+01
 0.1364427989139E+01
 0.1421501496484E+01
 0.1465144254174E+01
 0.1490271733274E+01
 0.1493755935924E+01
 0.1476233054918E+01
 0.1444193320857E+01
 0.1410948633240E+01
 0.1396427232823E+01
 0.1432104934464E+01
 0.1572898453261E+01
 0.1902449204976E+01
 0.2505661188273E+01
 0.3405938497638E+01
 0.4498236744853E+01
 0.5519225434229E+01
 0.8399073903756E+00
 0.9266357097334E+00
 0.9972575589393E+00
 0.1070108691281E+01
 0.1149487538044E+01
 0.1231704998591E+01
 0.1310779378051E+01
 0.1380296479594E+01
 0.1433834723086E+01
 0.1466057295285E+01
 0.1474790494788E+01
 0.1463708896735E+01
 0.1443266689109E+01
 0.1429387008124E+01
 0.1447054994001E+01
 0.1543453842822E+01
 0.1804618398574E+01
 0.2345946457747E+01
 0.3239366725111E+01
 0.4404617923412E+01
 0.5513383800313E+01
 0.6684653393497E+00
 0.7500440156583E+00
 0.8199991257625E+00
 0.9000580793364E+00
 0.9931991192400E+00
 0.1094251140104E+01
 0.1196758337769E+01
 0.1294030589252E+01
 0.1378674670221E+01
 0.1443291590597E+01
 0.1482813943802E+01
 0.1497908097293E+01
 0.1495939548722E+01
 0.1488534010821E+01
 0.1493581957622E+01
 0.1547579641611E+01
 0.1730352664568E+01
 0.2183014987281E+01
 0.3046761268849E+01
 0.4288959950089E+01
 0.5578928362831E+01
 0.4880552238288E+00
 0.5623207231039E+00
 0.6319967501611E+00
 0.7212517293777E+00
 0.8299629439403E+00
 0.9510857666702E+00
 0.1078122238554E+01
 0.1204702172199E+01
 0.1322990884542E+01
 0.1423833390622E+01
 0.1499297114797E+01
 0.1546916791730E+01
 0.1570777136139E+01
 0.1577939254482E+01
 0.1578877977691E+01
 0.1597583154901E+01
 0.1698269793560E+01
 0.2032923980855E+01
 0.2827440458943E+01
 0.4157771395559E+01
 0.5670697589748E+01
 0.2966385867111E+00
 0.3609478093451E+00
 0.4315073382451E+00
 0.5327070834821E+00
 0.6588487702181E+00
 0.8009328990982E+00
 0.9531200175088E+00
 0.1110085474522E+01
 0.1264269336056E+01
 0.1405282518179E+01
 0.1522504511136E+01
 0.1610289704317E+01
 0.1669280371264E+01
 0.1701694318506E+01
 0.1710424472085E+01
 0.1706306531541E+01
 0.1730531894354E+01
 0.1920789938576E+01
 0.2586302869058E+01
 0.3994606006874E+01
 0.5793707055096E+01
 0.9171501425263E-01
 0.1429103186143E+00
 0.2170001841601E+00
 0.3338867294279E+00
 0.4791687356839E+00
 0.6425946128529E+00
 0.8199382447273E+00
 0.1007670743743E+01
 0.1199431753008E+01
 0.1384439022451E+01
 0.1549795291430E+01
 0.1686720088006E+01
 0.1792271094195E+01
 0.1863555583475E+01
 0.1895867461317E+01
 0.1887413426467E+01
 0.1852682679434E+01
 0.1886891213443E+01
 0.2340267743356E+01
 0.3772356781899E+01
 0.5958380780108E+01
 0.1324585251011E+00
 0.9631570519551E-01
 0.1398015606351E-01
 0.1250701990013E+00
 0.2905042393792E+00
 0.4749880895728E+00
 0.6767736466382E+00
 0.8947034583713E+00
 0.1124765304080E+01
 0.1357104747685E+01
 0.1577356848855E+01
 0.1773760265823E+01
 0.1939564215497E+01
 0.2066495836799E+01
 0.2142468458588E+01
 0.2154768443481E+01
 0.2092599274151E+01
 0.1987474259349E+01
 0.2138911736571E+01
 0.3458007458485E+01
 0.6176659811484E+01
 0.3795720223711E+00
 0.3597903351000E+00
 0.2565141378430E+00
 0.9419246052439E-01
 0.9275061051246E-01
 0.2971997328051E+00
 0.5219448392466E+00
 0.7682918360371E+00
 0.1035886058644E+01
 0.1317833659498E+01
 0.1599870537645E+01
 0.1867527754427E+01
 0.2109668228133E+01
 0.2312166911211E+01
 0.2456290909565E+01
 0.2520883360688E+01
 0.2478080434711E+01
 0.2291618476579E+01
 0.2099102025120E+01
 0.3029185887090E+01
 0.6457891563378E+01
 0.6620627555879E+00
 0.6524556921053E+00
 0.5105448863984E+00
 0.3198584642878E+00
 0.1153711611697E+00
 0.1086105954471E+00
 0.3540196333679E+00
 0.6256391950237E+00
 0.9277962659301E+00
 0.1259591840553E+01
 0.1610042709192E+01
 0.1962424456428E+01
 0.2299563988098E+01
 0.2600475029404E+01
 0.2841070241365E+01
 0.2995465829857E+01
 0.3029071280195E+01
 0.2874514174115E+01
 0.2425553743568E+01
 0.2571642965423E+01
 0.6797352129718E+01
 0.1001864458870E+01
 0.9715368511621E+00
 0.7648343227464E+00
 0.5536817469594E+00
 0.3321329817088E+00
 0.9143404366370E-01
 0.1719519975673E+00
 0.4644543811816E+00
 0.7952056650788E+00
 0.1173264412733E+01
 0.1597796250407E+01
 0.2050975918208E+01
 0.2504589620152E+01
 0.2929394409837E+01
 0.3297251751140E+01
 0.3583686660930E+01
 0.3752598251445E+01
 0.3774840202464E+01
 0.3405541907325E+01
 0.2645871951410E+01
 0.7149554200475E+01
 0.1454908725799E+01
 0.1269499307642E+01
 0.1016679723838E+01
 0.7962187261641E+00
 0.5576785292020E+00
 0.3028505161134E+00
 0.2479560726143E-01
 0.2834356981319E+00
 0.6336263088322E+00
 0.1046971863582E+01
 0.1548515343866E+01
 0.2123999919058E+01
 0.2718976702977E+01
 0.3293714103398E+01
 0.3824241823547E+01
 0.4279599648096E+01
 0.4653471709326E+01
 0.4928921564981E+01
 0.5267796086763E+01
 0.4619245553628E+01
 0.8165776014416E+01
 0.9964959795891E+00
 0.1209989277363E+01
 0.1391231276763E+01
 0.1510305718747E+01
 0.1559380022942E+01
 0.1536984860598E+01
 0.1450961775748E+01
 0.1316168852126E+01
 0.1137562171760E+01
 0.9003052508428E+00
 0.9530282584211E+00
 0.1217116166460E+01
 0.1439222518895E+01
 0.1592969119531E+01
 0.1670263436845E+01
 0.1669870818802E+01
 0.1598770357962E+01
 0.1469138463845E+01
 0.1274344151320E+01
 0.1010320978766E+01
 0.9130105140577E+00
 0.1234049040162E+01
 0.1497424544360E+01
 0.1684314980479E+01
 0.1788848356695E+01
 0.1810941799049E+01
 0.1756576987983E+01
 0.1632405760919E+01
 0.1433311998643E+01
 0.1169123104724E+01
 0.8773153215166E+00
 0.1258072222699E+01
 0.1563352056713E+01
 0.1782575016392E+01
 0.1914074542247E+01
 0.1959624576109E+01
 0.1924206053305E+01
 0.1812185461740E+01
 0.1621446055419E+01
 0.1360626860220E+01
 0.8459578268319E+00
 0.1287716715132E+01
 0.1634657133063E+01
 0.1885670328527E+01
 0.2044240454734E+01
 0.2114640274239E+01
 0.2101952086080E+01
 0.2009671981128E+01
 0.1835743131362E+01
 0.1584456519575E+01
 0.8189382046330E+00
 0.1321425108408E+01
 0.1709128307759E+01
 0.1991247742694E+01
 0.2177119193495E+01
 0.2274120524596E+01
 0.2288272331832E+01
 0.2222538387593E+01
 0.2073874481394E+01
 0.1841331426591E+01
 0.7962669063560E+00
 0.1357636926574E+01
 0.1784487753082E+01
 0.2096743858088E+01
 0.2310029027440E+01
 0.2435261340234E+01
 0.2479921589818E+01
 0.2446910129544E+01
 0.2332144750844E+01
 0.2129964447873E+01
 0.7779685243323E+00
 0.1394792754606E+01
 0.1858408139388E+01
 0.2199410586239E+01
 0.2439851654075E+01
 0.2594417037881E+01
 0.2672455394161E+01
 0.2677356087041E+01
 0.2604548322021E+01
 0.2444886911314E+01
 0.7640699706578E+00
 0.1431369207599E+01
 0.1928558607912E+01
 0.2296378421673E+01
 0.2563137690415E+01
 0.2747338098520E+01
 0.2860496318759E+01
 0.2906992999646E+01
 0.2882346358557E+01
 0.2775062535654E+01
 0.7545909118147E+00
 0.1465922134335E+01
 0.1992675198163E+01
 0.2384757330529E+01
 0.2676269701828E+01
 0.2889406040536E+01
 0.3038026783956E+01
 0.3127831503283E+01
 0.3154619748905E+01
 0.3105039175506E+01
 0.7495387492108E+00
 0.1497137647804E+01
 0.2048646812249E+01
 0.2461763162144E+01
 0.2775644198438E+01
 0.3015885254398E+01
 0.3198736149089E+01
 0.3331355448343E+01
 0.3409688612475E+01
 0.3418509347492E+01
 0.7489084335174E+00
 0.1523887104233E+01
 0.2094608625611E+01
 0.2524853706267E+01
 0.2857864134085E+01
 0.3122190878271E+01
 0.3336409721270E+01
 0.3509174538160E+01
 0.3636358163871E+01
 0.3700665189159E+01
 0.7526863590270E+00
 0.1545281166718E+01
 0.2129033798599E+01
 0.2571864305354E+01
 0.2919933193430E+01
 0.3204162690007E+01
 0.3445320185042E+01
 0.3653587598581E+01
 0.3824601117926E+01
 0.3938787213898E+01
 0.7608572492955E+00
 0.1560717427715E+01
 0.2150814921646E+01
 0.2601133290489E+01
 0.2959441591416E+01
 0.3258327176332E+01
 0.3520579966877E+01
 0.3758006901085E+01
 0.3965952474143E+01
 0.4122465958834E+01
 0.7734133666874E+00
 0.1569916429383E+01
 0.2159326537961E+01
 0.2611606572661E+01
 0.2974731857735E+01
 0.3282132027690E+01
 0.3558432693166E+01
 0.3817271383772E+01
 0.4053761913562E+01
 0.4243589196644E+01
 0.7903666049279E+00
 0.1572942684440E+01
 0.2154458864965E+01
 0.2602909134443E+01
 0.2965032319443E+01
 0.3274146273785E+01
 0.3556489837098E+01
 0.3827872222056E+01
 0.4083381337530E+01
 0.4296364495342E+01
 0.8117661278184E+00
 0.1570209657161E+01
 0.2136615182104E+01
 0.2575361670867E+01
 0.2930549483509E+01
 0.3234224782696E+01
 0.3513934204191E+01
 0.3788120418494E+01
 0.4052212315134E+01
 0.4277154363758E+01
 0.8377212883863E+00
 0.1562485587430E+01
 0.2106667185613E+01
 0.2529916637852E+01
 0.2872471096441E+01
 0.3163689496208E+01
 0.3431691561078E+01
 0.3698302965511E+01
 0.3959749600806E+01
 0.4184335577305E+01
 0.8684404796731E+00
 0.1550861683517E+01
 0.2065967755985E+01
 0.2467945868369E+01
 0.2792765407114E+01
 0.3065480170547E+01
 0.3312965962125E+01
 0.3560496112241E+01
 0.3807874361165E+01
 0.4019960469073E+01
 0.9041084306023E+00
 0.1537214219849E+01
 0.2016203768519E+01
 0.2391144217501E+01
 0.2693479795027E+01
 0.2943790962028E+01
 0.3164520252424E+01
 0.3380061116698E+01
 0.3597800534054E+01
 0.3797940743308E+01
 0.1761709557940E+01
 0.5316341928630E+00
 0.2669994565063E-01
 0.1734488912575E+00
 0.2500087146564E+00
 0.2631591709211E+00
 0.2120774035379E+00
 0.1020311281996E+00
 0.3028402149935E-01
 0.1668369011674E+00
 0.1862542256217E+01
 0.1213328549229E+01
 0.4402923114037E+00
 0.1094408239308E+00
 0.5326115230902E-01
 0.1293216147227E+00
 0.1310453638715E+00
 0.6869640468918E-01
 0.1959323280490E-01
 0.1057354149587E+00
 0.1724810657156E+01
 0.1399579136480E+01
 0.8298601767287E+00
 0.4215755353340E+00
 0.1786505176697E+00
 0.4038750362337E-01
 0.1814146088776E-01
 0.9878601560047E-02
 0.2631054949604E-01
 0.6262679946642E-01
 0.1581488320940E+01
 0.1423638032863E+01
 0.1037859861335E+01
 0.6815926539046E+00
 0.4128867183036E+00
 0.2301774786818E+00
 0.1211662390975E+00
 0.7475401465500E-01
 0.5946601320987E-01
 0.4722520106017E-01
 0.1453622259129E+01
 0.1390991027083E+01
 0.1146263962054E+01
 0.8691461266739E+00
 0.6216492115263E+00
 0.4235267535492E+00
 0.2791783629291E+00
 0.1861303987831E+00
 0.1246384241033E+00
 0.6765540235425E-01
 0.1344709690162E+01
 0.1342519943640E+01
 0.1203863552036E+01
 0.1007128906653E+01
 0.8012769616885E+00
 0.6114839924633E+00
 0.4505461902082E+00
 0.3245588845323E+00
 0.2268240666515E+00
 0.1299039739531E+00
 0.1252607495262E+01
 0.1295801685228E+01
 0.1239746026743E+01
 0.1117153251124E+01
 0.9611054537958E+00
 0.7944460355044E+00
 0.6331156166781E+00
 0.4894922496298E+00
 0.3682778434643E+00
 0.2384387624972E+00
 0.1174216092569E+01
 0.1258299061497E+01
 0.1270497107466E+01
 0.1215579060972E+01
 0.1112011202758E+01
 0.9773350906170E+00
 0.8270133150534E+00
 0.6777900275889E+00
 0.5454223419310E+00
 0.3936722044635E+00
 0.1106365386774E+01
 0.1232408542601E+01
 0.1305099876763E+01
 0.1313479805700E+01
 0.1263411405292E+01
 0.1165976994547E+01
 0.1034314823374E+01
 0.8845045509161E+00
 0.7441065055914E+00
 0.5889041208332E+00
 0.1046295176014E+01
 0.1217048152642E+01
 0.1347600227869E+01
 0.1417721576522E+01
 0.1422644894621E+01
 0.1365880051156E+01
 0.1257517759061E+01
 0.1112920171392E+01
 0.9513010759132E+00
 0.7937758063197E+00
 0.9568618024135E+00
 0.1536420538173E+01
 0.1965077073803E+01
 0.2298022038453E+01
 0.2563875913957E+01
 0.2784179548240E+01
 0.2976431385984E+01
 0.3165271612909E+01
 0.3372037199970E+01
 0.3617558559416E+01
 0.1012493156627E+01
 0.1536592023788E+01
 0.1903816324664E+01
 0.2178234052153E+01
 0.2391978936986E+01
 0.2567762879796E+01
 0.2721918847513E+01
 0.2889358949794E+01
 0.3118383021240E+01
 0.3390836643857E+01
 0.1065540507985E+01
 0.1523570989639E+01
 0.1817716076972E+01
 0.2020677393348E+01
 0.2169570374631E+01
 0.2288210444663E+01
 0.2395460468635E+01
 0.2538924870885E+01
 0.2775155817071E+01
 0.3079908730739E+01
 0.1119684990119E+01
 0.1499702849484E+01
 0.1706576671722E+01
 0.1826205042754E+01
 0.1900526827586E+01
 0.1954048180241E+01
 0.2007996184153E+01
 0.2116849762771E+01
 0.2347478588172E+01
 0.2696767864487E+01
 0.1177206909391E+01
 0.1466208890437E+01
 0.1569363005044E+01
 0.1595366891151E+01
 0.1590320991002E+01
 0.1576950904911E+01
 0.1576682006388E+01
 0.1646129531969E+01
 0.1860670667182E+01
 0.2250791231428E+01
 0.1240112705519E+01
 0.1420802908406E+01
 0.1400809357182E+01
 0.1326703483402E+01
 0.1245713207161E+01
 0.1173228569423E+01
 0.1127721619488E+01
 0.1161095861551E+01
 0.1347602196167E+01
 0.1759094323015E+01
 0.1309572731829E+01
 0.1354198016416E+01
 0.1187368626074E+01
 0.1015868934061E+01
 0.8758218809963E+00
 0.7649178173398E+00
 0.6937809125920E+00
 0.7028030463184E+00
 0.8503212914471E+00
 0.1250351270088E+01
 0.1382608559568E+01
 0.1240898784347E+01
 0.9020020696246E+00
 0.6576564251366E+00
 0.4984809195702E+00
 0.3800639083207E+00
 0.3095441495209E+00
 0.3149072438824E+00
 0.4198139910596E+00
 0.7694905297345E+00
 0.1443610668082E+01
 0.1010508272572E+01
 0.4948340989956E+00
 0.2767317137041E+00
 0.1460761298230E+00
 0.4712436320895E-01
 0.4605899935385E-02
 0.3359876509603E-01
 0.1121166895771E+00
 0.3837663728841E+00
 0.1326467867038E+01
 0.4335743884818E+00
 0.5059479930610E-01
 0.6129835519695E-01
 0.1504406841297E+00
 0.2132014147305E+00
 0.2104953943088E+00
 0.1232381956480E+00
 0.3645078918108E-01
 0.1896171992501E+00
 0.6804202973561E+00
 0.4878497194007E+00
 0.3362054069956E+00
 0.2200098430251E+00
 0.1398709230727E+00
 0.9740151565353E-01
 0.9250411828756E-01
 0.1225851959575E+00
 0.1822226179731E+00
 0.2685372463058E+00
 0.8028290388941E+00
 0.6079144125958E+00
 0.4153104967565E+00
 0.2541648946254E+00
 0.1369554386841E+00
 0.6993831253959E-01
 0.5515498395091E-01
 0.9220902639144E-01
 0.1751130602447E+00
 0.2935405861534E+00
 0.9386872215166E+00
 0.7310176451917E+00
 0.5176037396242E+00
 0.3229892052227E+00
 0.1677063750057E+00
 0.6638286269271E-01
 0.2719107723007E-01
 0.5328196052292E-01
 0.1459188063089E+00
 0.2901187528778E+00
 0.1109576734417E+01
 0.8807811725751E+00
 0.6453442564425E+00
 0.4200016979536E+00
 0.2252914045329E+00
 0.8191685009930E-01
 0.1895068601895E-01
 0.9281622448944E-02
 0.9676128875050E-01
 0.2672131400046E+00
 0.1322576339164E+01
 0.1075127252290E+01
 0.8171130561160E+00
 0.5602930735324E+00
 0.3228458155681E+00
 0.1276854776693E+00
 0.3051037399980E-01
 0.5357469066142E-01
 0.2625627107760E-01
 0.2282367824292E+00
 0.1582126275215E+01
 0.1327232809778E+01
 0.1054915680301E+01
 0.7728342347457E+00
 0.4954195570426E+00
 0.2437444834676E+00
 0.5560101432977E-01
 0.8251420159003E-01
 0.5357822297140E-01
 0.1672106535571E+00
 0.1889729232907E+01
 0.1644943654743E+01
 0.1376226446604E+01
 0.1087406075938E+01
 0.7882627442921E+00
 0.4950864879860E+00
 0.2336472030850E+00
 0.5683208836571E-01
 0.4986303316304E-01
 0.1368550716657E+00
 0.2240690880893E+01
 0.2026153428006E+01
 0.1784767444454E+01
 0.1517946037454E+01
 0.1231763008903E+01
 0.9377624077608E+00
 0.6550912410527E+00
 0.4149549350119E+00
 0.2692100857778E+00
 0.3233772090124E+00
 0.2619755563534E+01
 0.2450517670733E+01
 0.2254589645012E+01
 0.2031785119369E+01
 0.1785006210152E+01
 0.1520883132538E+01
 0.1250774124158E+01
 0.9922953524020E+00
 0.7712984109543E+00
 0.6185296667375E+00
 0.3004396318570E+01
 0.2886421435442E+01
 0.2742243311064E+01
 0.2569290816489E+01
 0.2366186280050E+01
 0.2132807761251E+01
 0.1869815141283E+01
 0.1576837639924E+01
 0.1246630735751E+01
 0.8424936763406E+00
 0.3371684289058E+01
 0.3303352298754E+01
 0.3207917455066E+01
 0.3079149572252E+01
 0.2910040382800E+01
 0.2692256798012E+01
 0.2414699559194E+01
 0.2060368827401E+01
 0.1599394340740E+01
 0.9831760059906E+00
 0.3702025042827E+01
 0.3677085703561E+01
 0.3622655025510E+01
 0.3528174463680E+01
 0.3380667482717E+01
 0.3163861265969E+01
 0.2856693655397E+01
 0.2431111308255E+01
 0.1850344160221E+01
 0.1078051768431E+01
 0.3979595354061E+01
 0.3989305607438E+01
 0.3966339474950E+01
 0.3896021398789E+01
 0.3760279086760E+01
 0.3536660876893E+01
 0.3197250468578E+01
 0.2708359765070E+01
 0.2033268081217E+01
 0.1147423174075E+01
 0.4192534872287E+01
 0.4226987782861E+01
 0.4225506207641E+01
 0.4170271827919E+01
 0.4039938763460E+01
 0.3808482270345E+01
 0.3444270666746E+01
 0.2910602557097E+01
 0.2170063039169E+01
 0.1202142852355E+01
 0.4332609666054E+01
 0.4381251215482E+01
 0.4390906857369E+01
 0.4342111362111E+01
 0.4212727224411E+01
 0.3976331620965E+01
 0.3600615744052E+01
 0.3047009958261E+01
 0.2273600589906E+01
 0.1251779255619E+01
 0.4394726545384E+01
 0.4446190826918E+01
 0.4455358873320E+01
 0.4402743850320E+01
 0.4268549850840E+01
 0.4029602022646E+01
 0.3656594476529E+01
 0.3111540363977E+01
 0.2346173507766E+01
 0.1309691781007E+01
 0.4377020632808E+01
 0.4419128658013E+01
 0.4413040811952E+01
 0.4341671085035E+01
 0.4191054362510E+01
 0.3945035269651E+01
 0.3581399926829E+01
 0.3068521888589E+01
 0.2358275506891E+01
 0.1376425638624E+01
 0.4281398818399E+01
 0.4299883963606E+01
 0.4257160015794E+01
 0.4142901770735E+01
 0.3954111405181E+01
 0.3682740167394E+01
 0.3316645577038E+01
 0.2839231009215E+01
 0.2222297144939E+01
 0.1403156288896E+01
 0.4115344143262E+01
 0.4088012787510E+01
 0.3972692997134E+01
 0.3786963281026E+01
 0.3533254952842E+01
 0.3208396800644E+01
 0.2810414116444E+01
 0.2341760365044E+01
 0.1814736920773E+01
 0.1244592612941E+01
 0.3886634553655E+01
 0.3753001927766E+01
 0.3546229786959E+01
 0.3277334462886E+01
 0.2942948032592E+01
 0.2543828960071E+01
 0.2085536758236E+01
 0.1584124152853E+01
 0.1077738100192E+01
 0.6810873651354E+00
</DataArray>
<DataArray type="Float64" Name="S_Hyd" NumberOfComponents="1" ComponentName0="S_Hyd" format="ascii">
 0.4489113565848E+01
 0.3138994892273E+01
 0.2981671484048E+01
 0.2831492136768E+01
 0.2742678796678E+01
 0.2673582647504E+01
 0.2623057202785E+01
 0.2590376271598E+01
 0.2582381042490E+01
 0.2619855845289E+01
 0.2715415369787E+01
 0.2820268135690E+01
 0.2889386391862E+01
 0.2942749283854E+01
 0.3008561454852E+01
 0.3098821913213E+01
 0.3225661498894E+01
 0.3466221941675E+01
 0.3771835472915E+01
 0.5096197714162E+01
 0.1154018486115E+01
 0.3953838529706E+01
 0.3300346707752E+01
 0.2941677603047E+01
 0.2806186860060E+01
 0.2702324980154E+01
 0.2630978370717E+01
 0.2578968810295E+01
 0.2546747152301E+01
 0.2540295656275E+01
 0.2571543554270E+01
 0.2636908991007E+01
 0.2705730007983E+01
 0.2754393003949E+01
 0.2787973897081E+01
 0.2820303426442E+01
 0.2856993210725E+01
 0.2909500450095E+01
 0.2959534143246E+01
 0.3083123187296E+01
 0.2634808538165E+01
-0.1284569276370E+01
 0.3653442661527E+01
 0.3246908906617E+01
 0.2929606863101E+01
 0.2764145766355E+01
 0.2660159324606E+01
 0.2584878852290E+01
 0.2532125038834E+01
 0.2499632649774E+01
 0.2491652608172E+01
 0.2512489746514E+01
 0.2554152889429E+01
 0.2595912302310E+01
 0.2622629426851E+01
 0.2633333698777E+01
 0.2631794638483E+01
 0.2618902235622E+01
 0.2583904998578E+01
 0.2506584492930E+01
 0.2259845949163E+01
 0.1199358086917E+01
-0.1749280191366E+01
 0.3433706240731E+01
 0.3148793150582E+01
 0.2887887156483E+01
 0.2719894193612E+01
 0.2612198834300E+01
 0.2535986168360E+01
 0.2482235210113E+01
 0.2448820305487E+01
 0.2437119405403E+01
 0.2446894295458E+01
 0.2469127837829E+01
 0.2488607471138E+01
 0.2494006952877E+01
 0.2480846934972E+01
 0.2446825248410E+01
 0.2384847273856E+01
 0.2275994247194E+01
 0.2068508596349E+01
 0.1585632826171E+01
 0.4299613111794E+00
-0.1764637139595E+01
 0.3253450245912E+01
 0.3039817437496E+01
 0.2825737686153E+01
 0.2668120615891E+01
 0.2560201426118E+01
 0.2483719143633E+01
 0.2429414026510E+01
 0.2394397378447E+01
 0.2377951476724E+01
 0.2377135622423E+01
 0.2382950692526E+01
 0.2383327744968E+01
 0.2368668763009E+01
 0.2332300874774E+01
 0.2267338853525E+01
 0.2161447741170E+01
 0.1987764051189E+01
 0.1679920494763E+01
 0.1090556032190E+01
 0.4806906728597E-02
-0.1671154416107E+01
 0.3096624810493E+01
 0.2929220715855E+01
 0.2751751716581E+01
 0.2608636254181E+01
 0.2504065377288E+01
 0.2428284178997E+01
 0.2373697747935E+01
 0.2336777834703E+01
 0.2315282488615E+01
 0.2304746306933E+01
 0.2296456249003E+01
 0.2280170926269E+01
 0.2247072340772E+01
 0.2188929213562E+01
 0.2095825266339E+01
 0.1951893239559E+01
 0.1726006086688E+01
 0.1355233717262E+01
 0.7359882024053E+00
-0.2378742212648E+00
-0.1557424442995E+01
 0.2955315422984E+01
 0.2819949753719E+01
 0.2671049558193E+01
 0.2542888645741E+01
 0.2443884075277E+01
 0.2369865092031E+01
 0.2315299619055E+01
 0.2276454131939E+01
 0.2250061037623E+01
 0.2230815894271E+01
 0.2210339787253E+01
 0.2179480753652E+01
 0.2129745141161E+01
 0.2051861887054E+01
 0.1934089618109E+01
 0.1758754228737E+01
 0.1495112919756E+01
 0.1091764700002E+01
 0.4823106842358E+00
-0.3787537152407E+00
-0.1448364432313E+01
 0.2825005976576E+01
 0.2712929842949E+01
 0.2586572341407E+01
 0.2472428119326E+01
 0.2380072760552E+01
 0.2308685731775E+01
 0.2254514306500E+01
 0.2213933571844E+01
 0.2183067291099E+01
 0.2156177060917E+01
 0.2125206607581E+01
 0.2081677125950E+01
 0.2017232818132E+01
 0.1922011331090E+01
 0.1783421846988E+01
 0.1583699843202E+01
 0.1295598090893E+01
 0.8807531872059E+00
 0.2998947151139E+00
-0.4599110403307E+00
-0.1348942260124E+01
 0.2702864058878E+01
 0.2608346710373E+01
 0.2500030406874E+01
 0.2398527134425E+01
 0.2313183128171E+01
 0.2245041404174E+01
 0.2191671433221E+01
 0.2149700447116E+01
 0.2114949234577E+01
 0.2081496168526E+01
 0.2041585967265E+01
 0.1987184343332E+01
 0.1910031207810E+01
 0.1800058897111E+01
 0.1644639674989E+01
 0.1427235155117E+01
 0.1125483719239E+01
 0.7126524319578E+00
 0.1680754426817E+00
-0.5043023053655E+00
-0.1258068557223E+01
 0.2586993564825E+01
 0.2506100669565E+01
 0.2412433994198E+01
 0.2322150186301E+01
 0.2243774257133E+01
 0.2179273769284E+01
 0.2127113063887E+01
 0.2084199750892E+01
 0.2046251060748E+01
 0.2007320556838E+01
 0.1959936940183E+01
 0.1896391304777E+01
 0.1808548357249E+01
 0.1686461448043E+01
 0.1518087653177E+01
 0.1288912367773E+01
 0.9816555839742E+00
 0.5790571905753E+00
 0.7248178989662E-01
-0.5249815767373E+00
-0.1173644181715E+01
 0.2476090666720E+01
 0.2406070436322E+01
 0.2324498975205E+01
 0.2244146381850E+01
 0.2172512009854E+01
 0.2111916324327E+01
 0.2061380936161E+01
 0.2018064822714E+01
 0.1977701298056E+01
 0.1934420070525E+01
 0.1881024913571E+01
 0.1810075156711E+01
 0.1713616777982E+01
 0.1582078389635E+01
 0.1404411664920E+01
 0.1168445511791E+01
 0.8615644471435E+00
 0.4736574599925E+00
 0.4094759670392E-02
-0.5313563435425E+00
-0.1092607817760E+01
 0.2369153222632E+01
 0.2307995370469E+01
 0.2236560999412E+01
 0.2165027184904E+01
 0.2099835891271E+01
 0.2043320096964E+01
 0.1994811442582E+01
 0.1951668889447E+01
 0.1909704140792E+01
 0.1863181132777E+01
 0.1805170290544E+01
 0.1728473520472E+01
 0.1625377471677E+01
 0.1486862544937E+01
 0.1303089384560E+01
 0.1064244226535E+01
 0.7616735662260E+00
 0.3906414006349E+00
-0.4478702495088E-01
-0.5265735711725E+00
-0.1025381186230E+01
 0.2265433200127E+01
 0.2211571305502E+01
 0.2148717795407E+01
 0.2085028452124E+01
 0.2025942665953E+01
 0.1973605969135E+01
 0.1927482712274E+01
 0.1885073038567E+01
 0.1842290195141E+01
 0.1793559958169E+01
 0.1732209251583E+01
 0.1651269688991E+01
 0.1543314289923E+01
 0.1399979640870E+01
 0.1212712529283E+01
 0.9738992851671E+00
 0.6781835168496E+00
 0.3247167765076E+00
-0.7922429424840E-01
-0.5160850750854E+00
-0.9591433917880E+00
 0.2164349070151E+01
 0.2116570860222E+01
 0.2061070262344E+01
 0.2004411370673E+01
 0.1951117402632E+01
 0.1903038263076E+01
 0.1859649664900E+01
 0.1818539581942E+01
 0.1775725134875E+01
 0.1725802738399E+01
 0.1662342460858E+01
 0.1578594944526E+01
 0.1467445323317E+01
 0.1321227469219E+01
 0.1132645407930E+01
 0.8960431762169E+00
 0.6087099378864E+00
 0.2726691065416E+00
-0.1029768328299E+00
-0.5009804811570E+00
-0.8978422688834E+00
 0.2065429987102E+01
 0.2022776805626E+01
 0.1973654058621E+01
 0.1923355505332E+01
 0.1875583494745E+01
 0.1831839788233E+01
 0.1791531387932E+01
 0.1752289614173E+01
 0.1710226464485E+01
 0.1660104982273E+01
 0.1595720263422E+01
 0.1510527184328E+01
 0.1397726480910E+01
 0.1250337970550E+01
 0.1062226204989E+01
 0.8294075246761E+00
 0.5512666605323E+00
 0.2318785211483E+00
-0.1185077807092E+00
-0.4832550365198E+00
-0.8413087127970E+00
 0.1968281117195E+01
 0.1929981610473E+01
 0.1886459077738E+01
 0.1841977514960E+01
 0.1799510159048E+01
 0.1760191711484E+01
 0.1723309820963E+01
 0.1686504184352E+01
 0.1645967284219E+01
 0.1596616257598E+01
 0.1532447849551E+01
 0.1447099249793E+01
 0.1334068827800E+01
 0.1187011324247E+01
 0.1000811662505E+01
 0.7728705415153E+00
 0.5041945084073E+00
 0.2003301344601E+00
-0.1277963754484E+00
-0.4641968999751E+00
-0.7897721828743E+00
 0.1872559515367E+01
 0.1837984801700E+01
 0.1799441676098E+01
 0.1760344332276E+01
 0.1723019321817E+01
 0.1688235020675E+01
 0.1655129802994E+01
 0.1621325657366E+01
 0.1583079418139E+01
 0.1535444378330E+01
 0.1472590612727E+01
 0.1388307721524E+01
 0.1276355196752E+01
 0.1130942489601E+01
 0.9478109812740E+00
 0.7254671344043E+00
 0.4661466080346E+00
 0.1764393499848E+00
-0.1323382213255E+00
-0.4447981522419E+00
-0.7433576609435E+00
 0.1777956710873E+01
 0.1746589734837E+01
 0.1712532251013E+01
 0.1678482595624E+01
 0.1646191529348E+01
 0.1616072734998E+01
 0.1587099908990E+01
 0.1556859137730E+01
 0.1521656007086E+01
 0.1476659017904E+01
 0.1416179198040E+01
 0.1334121278644E+01
 0.1224454349209E+01
 0.1081842096150E+01
 0.9027059205572E+00
 0.6863959822563E+00
 0.4360490178358E+00
 0.1589814664524E+00
-0.1332682488145E+00
-0.4258048968010E+00
-0.7021744886909E+00
 0.1684185799511E+01
 0.1655600382515E+01
 0.1625639976657E+01
 0.1596385521880E+01
 0.1569070968178E+01
 0.1543772435771E+01
 0.1519293773710E+01
 0.1493173936545E+01
 0.1461753707107E+01
 0.1420294787843E+01
 0.1363214006492E+01
 0.1284487988055E+01
 0.1178232575222E+01
 0.1039451555249E+01
 0.8650641392987E+00
 0.6550183762023E+00
 0.4130731350266E+00
 0.1470323109812E+00
-0.1314331507924E+00
-0.4077790423140E+00
-0.6663255194485E+00
 0.1590971652868E+01
 0.1564818374623E+01
 0.1538655797646E+01
 0.1514018013455E+01
 0.1491669709005E+01
 0.1471368838687E+01
 0.1451751626877E+01
 0.1430304962015E+01
 0.1403394454936E+01
 0.1366353660199E+01
 0.1313668805659E+01
 0.1239341085303E+01
 0.1137562393345E+01
 0.1003553669832E+01
 0.8345471287877E+00
 0.6308554002504E+00
 0.3966141459060E+00
 0.1399267923409E+00
-0.1274427739151E+00
-0.3911382280153E+00
-0.6359204177221E+00
 0.1498043331340E+01
 0.1474040386596E+01
 0.1451454389305E+01
 0.1431320587486E+01
 0.1413971347462E+01
 0.1398866298102E+01
 0.1384481891286E+01
 0.1368253966298E+01
 0.1346566779657E+01
 0.1314806648787E+01
 0.1267493241637E+01
 0.1198602988292E+01
 0.1102328447855E+01
 0.9739794796120E+00
 0.8109148254948E+00
 0.6135851893979E+00
 0.3862762119016E+00
 0.1372313624018E+00
-0.1217036282395E+00
-0.3761832012634E+00
-0.6110843972997E+00
 0.1405128066669E+01
 0.1383055900365E+01
 0.1363895546969E+01
 0.1348212561455E+01
 0.1335934222935E+01
 0.1326241223987E+01
 0.1317462772452E+01
 0.1306990612535E+01
 0.1291226644920E+01
 0.1265594690194E+01
 0.1224614117193E+01
 0.1162187423552E+01
 0.1072430709280E+01
 0.9506119776747E+00
 0.7940280899097E+00
 0.6030414436782E+00
 0.3818643922468E+00
 0.1387287204798E+00
-0.1144382437648E+00
-0.3631146182063E+00
-0.5919658824893E+00
 0.1311946354295E+01
 0.1291645320805E+01
 0.1275825304844E+01
 0.1264594804798E+01
 0.1257494363442E+01
 0.1253444411388E+01
 0.1250643782491E+01
 0.1246453310001E+01
 0.1237297773243E+01
 0.1218628644652E+01
 0.1184935314689E+01
 0.1129999560093E+01
 0.1047785020433E+01
 0.9333870204260E+00
 0.7838496347640E+00
 0.5992137690942E+00
 0.3833834391587E+00
 0.1444138924307E+00
-0.1056921237098E+00
-0.3520412127100E+00
-0.5787429712380E+00
 0.1218207800694E+01
 0.1199578425953E+01
 0.1187077014018E+01
 0.1180352319445E+01
 0.1178568319024E+01
 0.1180403339483E+01
 0.1183947206410E+01
 0.1186549820255E+01
 0.1184671453809E+01
 0.1173788400238E+01
 0.1148336326201E+01
 0.1101934116611E+01
 0.1028320999313E+01
 0.9222915099777E+00
 0.7804435086687E+00
 0.6022500010803E+00
 0.3910437865637E+00
 0.1545019040875E+00
-0.9532888875363E-01
-0.3429805718804E+00
-0.5716283636000E+00
 0.1123607422263E+01
 0.1106613117198E+01
 0.1097472552049E+01
 0.1095356855784E+01
 0.1099056016120E+01
 0.1107024489896E+01
 0.1117269517118E+01
 0.1127157629286E+01
 0.1133205824169E+01
 0.1130921062564E+01
 0.1114669366562E+01
 0.1077871406045E+01
 0.1013977206893E+01
 0.9173586421793E+00
 0.7839727458358E+00
 0.6124601279863E+00
 0.4052752111909E+00
 0.1694486686553E+00
-0.8301288869556E-01
-0.3358540376000E+00
-0.5708728405558E+00
 0.1027822115977E+01
 0.1012494454416E+01
 0.1006823845255E+01
 0.1009469778840E+01
 0.1018843787296E+01
 0.1033195773532E+01
 0.1050482796197E+01
 0.1068124132962E+01
 0.1082724666677E+01
 0.1089838269178E+01
 0.1083755111344E+01
 0.1057671339350E+01
 0.1004693450935E+01
 0.9186597598109E+00
 0.7946943864443E+00
 0.6303206586448E+00
 0.4267484437813E+00
 0.1899888299647E+00
-0.6817591249864E-01
-0.3304800022323E+00
-0.5767691143814E+00
 0.9305069937288E+00
 0.9169539745698E+00
 0.9149349020677E+00
 0.9225453997431E+00
 0.9378077228779E+00
 0.9587891546163E+00
 0.9834362297733E+00
 0.1009266700272E+01
 0.1033015776518E+01
 0.1050312684044E+01
 0.1055377143474E+01
 0.1041165437994E+01
 0.1000400126934E+01
 0.9262920282339E+00
 0.8129506050409E+00
 0.6564777035143E+00
 0.4564027046508E+00
 0.2171982391087E+00
-0.4995896469247E-01
-0.3265729918632E+00
-0.5896762424862E+00
 0.8312912055945E+00
 0.8197093210889E+00
 0.8216045984105E+00
 0.8344349861249E+00
 0.8558174553132E+00
 0.8836635203721E+00
 0.9159577245713E+00
 0.9503726634079E+00
 0.9838289349602E+00
 0.1012073712756E+01
 0.1029275181605E+01
 0.1028147030891E+01
 0.1001004391738E+01
 0.9403615585589E+00
 0.8391527123772E+00
 0.6917489682005E+00
 0.4954720805890E+00
 0.2525850837373E+00
-0.2708634057073E-01
-0.3237872307055E+00
-0.6100864766412E+00
 0.7297727374136E+00
 0.7204643395122E+00
 0.7266306062362E+00
 0.7449917727956E+00
 0.7727405494274E+00
 0.8076679098669E+00
 0.8478557977469E+00
 0.8911994062334E+00
 0.9348736303539E+00
 0.9748025487514E+00
 0.1005137294390E+01
 0.1018359819092E+01
 0.1006373681325E+01
 0.9609600616240E+00
 0.8737590541213E+00
 0.7371084160033E+00
 0.5455417248787E+00
 0.2981245281202E+00
 0.2491807203256E-02
-0.3218048076080E+00
-0.6391473773695E+00
 0.6255112684538E+00
 0.6189100917407E+00
 0.6298148482775E+00
 0.6540773598481E+00
 0.6884475073358E+00
 0.7306450853493E+00
 0.7789218111337E+00
 0.8314746671744E+00
 0.8858165848734E+00
 0.9381265798131E+00
 0.9825911666014E+00
 0.1011485342591E+01
 0.1016316447444E+01
 0.9881370974318E+00
 0.9172351899169E+00
 0.7936759520917E+00
 0.6085293331657E+00
 0.3565576747986E+00
 0.4124760162020E-01
-0.3181307326461E+00
-0.6829468023601E+00
 0.5179831821391E+00
 0.5146441523779E+00
 0.5308460197567E+00
 0.5614064146537E+00
 0.6026233319444E+00
 0.6522188589732E+00
 0.7087034985071E+00
 0.7706682730716E+00
 0.8360674999207E+00
 0.9014406573635E+00
 0.9610871797493E+00
 0.1007115387015E+01
 0.1030670207856E+01
 0.1022122011152E+01
 0.9704333549721E+00
 0.8632386534788E+00
 0.6874993067243E+00
 0.4319673020290E+00
 0.9409243352380E-01
-0.3114306290735E+00
-0.7420164049399E+00
 0.4066726834693E+00
 0.4073410533927E+00
 0.4295665431483E+00
 0.4668831174555E+00
 0.5151582777762E+00
 0.5722241248083E+00
 0.6369548218210E+00
 0.7084337539254E+00
 0.7851765133912E+00
 0.8642191615465E+00
 0.9400815186894E+00
 0.1004761451608E+01
 0.1049088703791E+01
 0.1062844387221E+01
 0.1033806719120E+01
 0.9472452252033E+00
 0.7854639704618E+00
 0.5294534356297E+00
 0.1665178252116E+00
-0.2947796177439E+00
-0.8228702546865E+00
 0.2909503478933E+00
 0.2967408764413E+00
 0.3259706339456E+00
 0.3706016430028E+00
 0.4261455024559E+00
 0.4907102369574E+00
 0.5636492093954E+00
 0.6446306855485E+00
 0.7328624303306E+00
 0.8260460553530E+00
 0.9190607315722E+00
 0.1003858183741E+01
 0.1071003055430E+01
 0.1109816493466E+01
 0.1107167202717E+01
 0.1046341055971E+01
 0.9049667688506E+00
 0.6542753511681E+00
 0.2669874579674E+00
-0.2638168768998E+00
-0.8991342384893E+00
 0.1700678351474E+00
 0.1825279770648E+00
 0.2200193950698E+00
 0.2725623863520E+00
 0.3355209491479E+00
 0.4075319258793E+00
 0.4885428102184E+00
 0.5788791962030E+00
 0.6785837700718E+00
 0.7862412299366E+00
 0.8972780256642E+00
 0.1003671537290E+01
 0.1095756385624E+01
 0.1162539828554E+01
 0.1190345968770E+01
 0.1161231754163E+01
 0.1048940677859E+01
 0.8137825458936E+00
 0.4067849878446E+00
-0.2037880553510E+00
-0.9813998740209E+00
 0.4309554402019E-01
 0.6444045772288E-01
 0.1118050239748E+00
 0.1728381996563E+00
 0.2432417034501E+00
 0.3225570925481E+00
 0.4114026069118E+00
 0.5107905027815E+00
 0.6217482282790E+00
 0.7440265338706E+00
 0.8738612531867E+00
 0.1003331964219E+01
 0.1122534841803E+01
 0.1220305009319E+01
 0.1282837053520E+01
 0.1291965587099E+01
 0.1219666111527E+01
 0.1016145287079E+01
 0.6032506869158E+00
-0.9668829592223E-01
-0.1071796081945E+01
-0.9119743245013E-01
-0.5764524290903E-01
 0.1646057127280E-02
 0.7157738621092E-01
 0.1492724315069E+00
 0.2356718168383E+00
 0.3320190616135E+00
 0.4399828606616E+00
 0.5617178929463E+00
 0.6985105879289E+00
 0.8477910696299E+00
 0.1001821463273E+01
 0.1150360960929E+01
 0.1282172937215E+01
 0.1383786305940E+01
 0.1437796290707E+01
 0.1417663956426E+01
 0.1269311774528E+01
 0.8802541885822E+00
 0.9038692410763E-01
-0.1166416382826E+01
-0.2346144167673E+00
-0.1834875400959E+00
-0.1097495243773E+00
-0.3104853960791E-01
 0.5356282727849E-01
 0.1467926270099E+00
 0.2502177498641E+00
 0.3661080796795E+00
 0.4978242312224E+00
 0.6486658238931E+00
 0.8178693026386E+00
 0.9979595069393E+00
 0.1178098216017E+01
 0.1346969470264E+01
 0.1491961195123E+01
 0.1597356757591E+01
 0.1640704652315E+01
 0.1576900982418E+01
 0.1269378589025E+01
 0.4199003177730E+00
-0.1244112706388E+01
-0.3902765614077E+00
-0.3117561811714E+00
-0.2210680773276E+00
-0.1350812463699E+00
-0.4392314507446E-01
 0.5587922604022E-01
 0.1658601268489E+00
 0.2888969154506E+00
 0.4294049752650E+00
 0.5932948304005E+00
 0.7826560034604E+00
 0.9904105335989E+00
 0.1204431341040E+01
 0.1413363894169E+01
 0.1605623708818E+01
 0.1768877094375E+01
 0.1884848282360E+01
 0.1930043211011E+01
 0.1801903327603E+01
 0.1015370254582E+01
-0.1232584578419E+01
-0.5653204294720E+00
-0.4370127567053E+00
-0.3308650273808E+00
-0.2413155023545E+00
-0.1428667763173E+00
-0.3719790657068E-01
 0.7888331127855E-01
 0.2081963535683E+00
 0.3559104717398E+00
 0.5309760622764E+00
 0.7403410173436E+00
 0.9776882401920E+00
 0.1227991846728E+01
 0.1479568657104E+01
 0.1723406569717E+01
 0.1948161244603E+01
 0.2149706649545E+01
 0.2304961997730E+01
 0.2458934635211E+01
 0.2119202632890E+01
-0.8677643403571E+00
-0.7850610562376E+00
-0.5314234382355E+00
-0.4486669824584E+00
-0.3470932448518E+00
-0.2438962608798E+00
-0.1322892582789E+00
-0.1080312819759E-01
 0.1239761227489E+00
 0.2771774879528E+00
 0.4600335321823E+00
 0.6883562365283E+00
 0.9583099953705E+00
 0.1247414873252E+01
 0.1543635183388E+01
 0.1842510628851E+01
 0.2135668128929E+01
 0.2416906050099E+01
 0.2730899793569E+01
 0.3036142434182E+01
 0.4000891710113E+01
 0.9965814641522E+00
 0.1497144743463E+01
 0.1421000024294E+01
 0.1327550223125E+01
 0.1238139177701E+01
 0.1154987152426E+01
 0.1084343872879E+01
 0.1026467488256E+01
 0.9723636683270E+00
 0.9120598760038E+00
 0.9374286849003E+00
 0.1585923470002E+01
 0.1486248496116E+01
 0.1389896665635E+01
 0.1298050727755E+01
 0.1217079337787E+01
 0.1149369413883E+01
 0.1094411546022E+01
 0.1046200627001E+01
 0.1015917281671E+01
 0.9528547024640E+00
 0.1669253120528E+01
 0.1555819938111E+01
 0.1450460241350E+01
 0.1356718994667E+01
 0.1276747647466E+01
 0.1212450626747E+01
 0.1162687577792E+01
 0.1125716439271E+01
 0.1088437708986E+01
 0.1034035104715E+01
 0.1752352116316E+01
 0.1623741560110E+01
 0.1509911750218E+01
 0.1412860386564E+01
 0.1333863126250E+01
 0.1273387130480E+01
 0.1230611437914E+01
 0.1199882779880E+01
 0.1172063926444E+01
 0.1132057152020E+01
 0.1833677977877E+01
 0.1689354043627E+01
 0.1566595952077E+01
 0.1466040065448E+01
 0.1387807543524E+01
 0.1331652893120E+01
 0.1295673246536E+01
 0.1274957586688E+01
 0.1261419294194E+01
 0.1242167306061E+01
 0.1911771107830E+01
 0.1751451576614E+01
 0.1619642231961E+01
 0.1515448913719E+01
 0.1437998629963E+01
 0.1386250328902E+01
 0.1358196070907E+01
 0.1349720964191E+01
 0.1354387991612E+01
 0.1360911187591E+01
 0.1985033682032E+01
 0.1808930020885E+01
 0.1668182913478E+01
 0.1560389625341E+01
 0.1483717321043E+01
 0.1436637619877E+01
 0.1417295476706E+01
 0.1422690927181E+01
 0.1448228907858E+01
 0.1485252965719E+01
 0.2051905950077E+01
 0.1860718669748E+01
 0.1711427176249E+01
 0.1600188219113E+01
 0.1524343816111E+01
 0.1482071570467E+01
 0.1471890384366E+01
 0.1492034198022E+01
 0.1540130399487E+01
 0.1611358172877E+01
 0.2110908980592E+01
 0.1905820391912E+01
 0.1748646473583E+01
 0.1634238681265E+01
 0.1559258182314E+01
 0.1521761087222E+01
 0.1520783872895E+01
 0.1555922019806E+01
 0.1627259567134E+01
 0.1734896846939E+01
 0.2160688793984E+01
 0.1943331150478E+01
 0.1779190935305E+01
 0.1661991691879E+01
 0.1587870805145E+01
 0.1554909008664E+01
 0.1562781668681E+01
 0.1612544567176E+01
 0.1706934026721E+01
 0.1850819118508E+01
 0.2200053103019E+01
 0.1972460761391E+01
 0.1802496489975E+01
 0.1682965743034E+01
 0.1609643404798E+01
 0.1580762269673E+01
 0.1596725009768E+01
 0.1660103502369E+01
 0.1776268477334E+01
 0.1954150015584E+01
 0.2228004722892E+01
 0.1992549239113E+01
 0.1818094238209E+01
 0.1696758300091E+01
 0.1624113282981E+01
 0.1598646350910E+01
 0.1621529502706E+01
 0.1696812661122E+01
 0.1832300020976E+01
 0.2040392499854E+01
 0.2243769780694E+01
 0.2003080174077E+01
 0.1825617936114E+01
 0.1703056681325E+01
 0.1630914363271E+01
 0.1608001188160E+01
 0.1636240246969E+01
 0.1721023993410E+01
 0.1872339374718E+01
 0.2105597731179E+01
 0.2246819596036E+01
 0.2003690114456E+01
 0.1824808203423E+01
 0.1701645704993E+01
 0.1629796788077E+01
 0.1608421315326E+01
 0.1640109479925E+01
 0.1731394423901E+01
 0.1894158214846E+01
 0.2146467556357E+01
 0.2236886093798E+01
 0.1994173057431E+01
 0.1815512270323E+01
 0.1692409398033E+01
 0.1620643907459E+01
 0.1599699894974E+01
 0.1632680757068E+01
 0.1727001890262E+01
 0.1896164614567E+01
 0.2160518188648E+01
 0.2213969489330E+01
 0.1974483688601E+01
 0.1797673723117E+01
 0.1675326285515E+01
 0.1603478977097E+01
 0.1581871582965E+01
 0.1613867910114E+01
 0.1707429589708E+01
 0.1877462373805E+01
 0.2146368226249E+01
 0.2178347078906E+01
 0.1944731608801E+01
 0.1771333025952E+01
 0.1650422422811E+01
 0.1578477387956E+01
 0.1555235484426E+01
 0.1584022950651E+01
 0.1672880016448E+01
 0.1837839984619E+01
 0.2103796747005E+01
 0.2130521689268E+01
 0.1905237816259E+01
 0.1736581562462E+01
 0.1617775728918E+01
 0.1545782027603E+01
 0.1520547406122E+01
 0.1543935149141E+01
 0.1624150546631E+01
 0.1778153918483E+01
 0.2032828948474E+01
 0.2071363780460E+01
 0.1856250748949E+01
 0.1693969280553E+01
 0.1577189142095E+01
 0.1505510943197E+01
 0.1478399090679E+01
 0.1496213997970E+01
 0.1561777558571E+01
 0.1699404051733E+01
 0.1936079110581E+01
 0.1999832702194E+01
 0.1800183594504E+01
 0.1642800133848E+01
 0.1529683935952E+01
 0.1456474733270E+01
 0.1429241837063E+01
 0.1443151409467E+01
 0.1494401118133E+01
 0.1592962718394E+01
 0.1812335854104E+01
 0.3492989442849E+01
 0.4528746427917E-01
-0.1407904721577E+00
-0.1889715127646E+00
-0.1871414851135E+00
-0.1706729955065E+00
-0.1652967741541E+00
-0.1636661648065E+00
-0.1789962007300E+00
-0.1880829683432E+00
 0.1915847445374E+01
 0.9169953151842E+00
 0.1382011185175E+00
-0.1938591278920E-01
-0.6371807461777E-01
-0.7767871936198E-01
-0.8565301510692E-01
-0.9134483330839E-01
-0.9762567528478E-01
-0.1163943557170E+00
 0.1496989901774E+01
 0.9522547989724E+00
 0.4759961509699E+00
 0.1799907192797E+00
 0.7962324991213E-01
 0.3331535273996E-01
 0.9041208054682E-02
-0.3718295470919E-02
-0.1201448833943E-01
-0.2740865238791E-01
 0.1317267893050E+01
 0.9779989236419E+00
 0.6399717857692E+00
 0.3863286851016E+00
 0.2376007894532E+00
 0.1606439924117E+00
 0.1189100502322E+00
 0.9621337291267E-01
 0.8473110796110E-01
 0.7061127209663E-01
 0.1249110073805E+01
 0.1010039508748E+01
 0.7590431782063E+00
 0.5481843101152E+00
 0.3980615254164E+00
 0.2992718914305E+00
 0.2415578563798E+00
 0.2083865945172E+00
 0.1914575406095E+00
 0.1771301867664E+00
 0.1238141648560E+01
 0.1056961388321E+01
 0.8603471210236E+00
 0.6863537767767E+00
 0.5470249174856E+00
 0.4424037423548E+00
 0.3733887250769E+00
 0.3307425187111E+00
 0.3067533412588E+00
 0.2902343959849E+00
 0.1261580737233E+01
 0.1116368764795E+01
 0.9570182234188E+00
 0.8114016685929E+00
 0.6866585655218E+00
 0.5845158332784E+00
 0.5102661360916E+00
 0.4602075420234E+00
 0.4274265519749E+00
 0.4065164582727E+00
 0.1307009135122E+01
 0.1185823790462E+01
 0.1053562650249E+01
 0.9301304224190E+00
 0.8199153667952E+00
 0.7243394231452E+00
 0.6499214598694E+00
 0.5927784129315E+00
 0.5492150014175E+00
 0.5189195958667E+00
 0.1366667075764E+01
 0.1263022200805E+01
 0.1151108371991E+01
 0.1046017794980E+01
 0.9492324420296E+00
 0.8620716878858E+00
 0.7899289544156E+00
 0.7324003139104E+00
 0.6628194573560E+00
 0.6158668393657E+00
 0.1437025242408E+01
 0.1343594318228E+01
 0.1250349123224E+01
 0.1159818209531E+01
 0.1076211259177E+01
 0.9981589046489E+00
 0.9291188011955E+00
 0.8707359497349E+00
 0.8103746299899E+00
 0.6371955752512E+00
 0.1889291018107E+01
 0.1695997220232E+01
 0.1549503145084E+01
 0.1442647266850E+01
 0.1375016672894E+01
 0.1345492508137E+01
 0.1366210959058E+01
 0.1441185083917E+01
 0.1560738303870E+01
 0.1617732818269E+01
 0.1814553262812E+01
 0.1597808331974E+01
 0.1437457785103E+01
 0.1323385320990E+01
 0.1251099594446E+01
 0.1222645636991E+01
 0.1249691039382E+01
 0.1333921206502E+01
 0.1451906949642E+01
 0.1657084745137E+01
 0.1727589807419E+01
 0.1492994490011E+01
 0.1316840082440E+01
 0.1191754838593E+01
 0.1112482271173E+01
 0.1079702691588E+01
 0.1108204545572E+01
 0.1199232173916E+01
 0.1358348339747E+01
 0.1616694505920E+01
 0.1639461928943E+01
 0.1382941580071E+01
 0.1188468212376E+01
 0.1048984615485E+01
 0.9593865709591E+00
 0.9191769596546E+00
 0.9446331019566E+00
 0.1043433748586E+01
 0.1228666221390E+01
 0.1538303657048E+01
 0.1556845311277E+01
 0.1271314225060E+01
 0.1052634511623E+01
 0.8944474211556E+00
 0.7926704442583E+00
 0.7437119296553E+00
 0.7625589686355E+00
 0.8598705586899E+00
 0.1062794531883E+01
 0.1419402380041E+01
 0.1489267416666E+01
 0.1161069062732E+01
 0.9077114703962E+00
 0.7252798573883E+00
 0.6128824569297E+00
 0.5575816621285E+00
 0.5662500767306E+00
 0.6521052108776E+00
 0.8588198598263E+00
 0.1255056635405E+01
 0.1453001598103E+01
 0.1054864945606E+01
 0.7458927126969E+00
 0.5360045967798E+00
 0.4211407193247E+00
 0.3683981555021E+00
 0.3639305917740E+00
 0.4270650467948E+00
 0.6179511614320E+00
 0.1037235746779E+01
 0.1485987915702E+01
 0.9472987288812E+00
 0.5496063513528E+00
 0.3141870732760E+00
 0.2297129330569E+00
 0.1849354122904E+00
 0.1648710595334E+00
 0.1970273994362E+00
 0.3454937901978E+00
 0.7577468679347E+00
 0.1676667622744E+01
 0.8276967254526E+00
 0.2300463322212E+00
 0.9883821396214E-01
 0.4990537336175E-01
 0.1297078939557E-01
-0.2071366708348E-01
-0.2552242383238E-01
 0.6265376828289E-01
 0.4068412282709E+00
 0.2671306198431E+01
 0.1105836055846E+00
-0.4223823415867E-01
-0.9104846028477E-01
-0.1149935453621E+00
-0.1394805989405E+00
-0.1943794466435E+00
-0.2141142721945E+00
-0.2235730961262E+00
 0.3893938116923E-01
 0.7550914088996E+00
 0.5823586011067E+00
 0.4675597621003E+00
 0.3657040792729E+00
 0.2683506276441E+00
 0.1711269628585E+00
 0.7333135919365E-01
-0.2465388076318E-01
-0.1207883324911E+00
-0.2231795114792E+00
 0.8706382343625E+00
 0.7310342757223E+00
 0.5997585835489E+00
 0.4792580202973E+00
 0.3607026151940E+00
 0.2416765655968E+00
 0.1220224868537E+00
 0.3312940884106E-02
-0.1141771751514E+00
-0.2277371324340E+00
 0.9713623560613E+00
 0.8589577251327E+00
 0.7365566856488E+00
 0.6098529416951E+00
 0.4786015063636E+00
 0.3414592117832E+00
 0.1996982108928E+00
 0.5650398802158E-01
-0.8399248308791E-01
-0.2195268508251E+00
 0.1084739012189E+01
 0.9908471857171E+00
 0.8817643823279E+00
 0.7592597483891E+00
 0.6232115103970E+00
 0.4729378630815E+00
 0.3092190391707E+00
 0.1367329552144E+00
-0.3620918907072E-01
-0.2031631841755E+00
 0.1211795152274E+01
 0.1137430590826E+01
 0.1045237966520E+01
 0.9342166265665E+00
 0.8021723361273E+00
 0.6462886699285E+00
 0.4644733285539E+00
 0.2577506265806E+00
 0.3720004556695E-01
-0.1758564936200E+00
 0.1352556551108E+01
 0.1302288736269E+01
 0.1233809518095E+01
 0.1144027616701E+01
 0.1028484436895E+01
 0.8812057819886E+00
 0.6948831774715E+00
 0.4618195964184E+00
 0.1775313465681E+00
-0.1270940553561E+00
 0.1504314336394E+01
 0.1484405807522E+01
 0.1448639261128E+01
 0.1393069649440E+01
 0.1311736088447E+01
 0.1196245407457E+01
 0.1034774381818E+01
 0.8100325888789E+00
 0.4946317170563E+00
 0.4443811619187E-01
 0.1663119726653E+01
 0.1678947496844E+01
 0.1685202741689E+01
 0.1678088040031E+01
 0.1651990860877E+01
 0.1598760408650E+01
 0.1506339947284E+01
 0.1355745486251E+01
 0.1113233937201E+01
 0.6868415200826E+00
 0.1822306488928E+01
 0.1877425536974E+01
 0.1932310345623E+01
 0.1984714247731E+01
 0.2031343640975E+01
 0.2067393758518E+01
 0.2085915117259E+01
 0.2076691044997E+01
 0.2024371369311E+01
 0.1913736815747E+01
 0.1974353105309E+01
 0.2069250493325E+01
 0.2174529101936E+01
 0.2290333340427E+01
 0.2416761389732E+01
 0.2553893259563E+01
 0.2702176959560E+01
 0.2864056123462E+01
 0.3048856529818E+01
 0.3304940620524E+01
 0.2111721890838E+01
 0.2243202277649E+01
 0.2395032705237E+01
 0.2569833018959E+01
 0.2770975361550E+01
 0.3002944570095E+01
 0.3272248308284E+01
 0.3589280986295E+01
 0.3974126363791E+01
 0.4449532752747E+01
 0.2227243203746E+01
 0.2388339419316E+01
 0.2577658377615E+01
 0.2799737526149E+01
 0.3060376323729E+01
 0.3366973542834E+01
 0.3729022692998E+01
 0.4158995974611E+01
 0.4670631700603E+01
 0.5276003289563E+01
 0.2314918426468E+01
 0.2495791980849E+01
 0.2709581827320E+01
 0.2961948008724E+01
 0.3259986386019E+01
 0.3612368748304E+01
 0.4029318000316E+01
 0.4521694549193E+01
 0.5099345187372E+01
 0.5769207080162E+01
 0.2370130721476E+01
 0.2558858716075E+01
 0.2781412136441E+01
 0.3043666650672E+01
 0.3352897003982E+01
 0.3717768824800E+01
 0.4148102685188E+01
 0.4653987678241E+01
 0.5243950732364E+01
 0.5923149209227E+01
 0.2389872861317E+01
 0.2573330353629E+01
 0.2787535024790E+01
 0.3037730022211E+01
 0.3330257207628E+01
 0.3672768514087E+01
 0.4074109236917E+01
 0.4544435337614E+01
 0.5094454729305E+01
 0.5731712391672E+01
 0.2372957591994E+01
 0.2538055903870E+01
 0.2727158189538E+01
 0.2943752314544E+01
 0.3192827788390E+01
 0.3479597446158E+01
 0.3810680641753E+01
 0.4195116064737E+01
 0.4646826642312E+01
 0.5185362602861E+01
 0.2320702309667E+01
 0.2457292685621E+01
 0.2606255012505E+01
 0.2771571074384E+01
 0.2955165611911E+01
 0.3159568079901E+01
 0.3385939312701E+01
 0.3638094418322E+01
 0.3926905556602E+01
 0.4281490121509E+01
 0.2239498332254E+01
 0.2337292179914E+01
 0.2436099080460E+01
 0.2535131779021E+01
 0.2640133685793E+01
 0.2746030027454E+01
 0.2847514216217E+01
 0.2936120634620E+01
 0.3006054325144E+01
 0.3064896013886E+01
 0.2131414867821E+01
 0.2190791144577E+01
 0.2212424618443E+01
 0.2241525327735E+01
 0.2261382223916E+01
 0.2263911378420E+01
 0.2236746941555E+01
 0.2162377267325E+01
 0.1999981784531E+01
 0.1695372301395E+01
 0.2073818690144E+01
 0.1970848598372E+01
 0.1941235511858E+01
 0.1901288954784E+01
 0.1841389589823E+01
 0.1749781925737E+01
 0.1614474598654E+01
 0.1415061947884E+01
 0.1121112214947E+01
 0.5775992309158E+00
</DataArray>
<DataArray type="Float64" Name="S_Oct" NumberOfComponents="1" ComponentName0="S_Oct" format="ascii">
 0.3910223428714E+01
 0.3519184096012E+01
 0.3193490422306E+01
 0.3061875049203E+01
 0.2960281720942E+01
 0.2887196891808E+01
 0.2832320274199E+01
 0.2797027390687E+01
 0.2787735842503E+01
 0.2820959467457E+01
 0.2903305065855E+01
 0.2986603649628E+01
 0.3022110451461E+01
 0.3020507107559E+01
 0.3005519895301E+01
 0.2984246218999E+01
 0.2973163900793E+01
 0.2972736477625E+01
 0.3093724630339E+01
 0.2664441009793E+01
 0.4967659889414E+01
 0.3291292484620E+01
 0.3411341888233E+01
 0.3170063459712E+01
 0.3013289526155E+01
 0.2912363619534E+01
 0.2835644429610E+01
 0.2779464105650E+01
 0.2742687080237E+01
 0.2728832192796E+01
 0.2739027522140E+01
 0.2764036659921E+01
 0.2784444343050E+01
 0.2782652653932E+01
 0.2752449300170E+01
 0.2695895544000E+01
 0.2615788504389E+01
 0.2502070403401E+01
 0.2345088234950E+01
 0.1989924766990E+01
 0.1426700466059E+01
 0.4145985613737E+01
 0.2933853778954E+01
 0.3165710570918E+01
 0.3087393741393E+01
 0.2949373272346E+01
 0.2851229309818E+01
 0.2775488744644E+01
 0.2717740447668E+01
 0.2677031743420E+01
 0.2652224174452E+01
 0.2636989360275E+01
 0.2621209939567E+01
 0.2598123511725E+01
 0.2561222951360E+01
 0.2500564590307E+01
 0.2408979791662E+01
 0.2280248952979E+01
 0.2100479693139E+01
 0.1831633649003E+01
 0.1405356492812E+01
 0.1350090981936E+01
 0.3849289434549E+01
 0.2689699291627E+01
 0.2933097357597E+01
 0.2955732239811E+01
 0.2866528762924E+01
 0.2778555977739E+01
 0.2706226046373E+01
 0.2647364222988E+01
 0.2600854170013E+01
 0.2562746523646E+01
 0.2524556327933E+01
 0.2478419511114E+01
 0.2423114675642E+01
 0.2356499150222E+01
 0.2268925205747E+01
 0.2149801261069E+01
 0.1989994303864E+01
 0.1776114094814E+01
 0.1487608083842E+01
 0.1206964409347E+01
 0.1618988052138E+01
 0.3598981409940E+01
 0.2504742104526E+01
 0.2731599441138E+01
 0.2807555786994E+01
 0.2765728653025E+01
 0.2695511056918E+01
 0.2628508977643E+01
 0.2568979397499E+01
 0.2515987290520E+01
 0.2464714735896E+01
 0.2407137822077E+01
 0.2337866204534E+01
 0.2258192676894E+01
 0.2168047846277E+01
 0.2059439764886E+01
 0.1922229989448E+01
 0.1748817812184E+01
 0.1534076960808E+01
 0.1298655941412E+01
 0.1221425658353E+01
 0.1868067351930E+01
 0.3400523798401E+01
 0.2354493014573E+01
 0.2558087074856E+01
 0.2659083681307E+01
 0.2653783301019E+01
 0.2603446286138E+01
 0.2543485651087E+01
 0.2483741540540E+01
 0.2424527374805E+01
 0.2361462632261E+01
 0.2288086406601E+01
 0.2201152111259E+01
 0.2103271108326E+01
 0.1995738941603E+01
 0.1872916451313E+01
 0.1727433432994E+01
 0.1556359492256E+01
 0.1368598187190E+01
 0.1221405385987E+01
 0.1325268649329E+01
 0.2041894832637E+01
 0.3246241246699E+01
 0.2226308303999E+01
 0.2406728470646E+01
 0.2516897940741E+01
 0.2536838176801E+01
 0.2504697192283E+01
 0.2452508983873E+01
 0.2393097048598E+01
 0.2328475882681E+01
 0.2255511155391E+01
 0.2169657260811E+01
 0.2069497721439E+01
 0.1958566938918E+01
 0.1839415333435E+01
 0.1709171665313E+01
 0.1564456476902E+01
 0.1408913408753E+01
 0.1265790724254E+01
 0.1215025702136E+01
 0.1448509890241E+01
 0.2154591065139E+01
 0.3125736267306E+01
 0.2113039495742E+01
 0.2272441793957E+01
 0.2383104118201E+01
 0.2419095806321E+01
 0.2401804214966E+01
 0.2357133961255E+01
 0.2298557227610E+01
 0.2229617735178E+01
 0.2148781323492E+01
 0.2053447391977E+01
 0.1943810584188E+01
 0.1824262709731E+01
 0.1698691383583E+01
 0.1567181412077E+01
 0.1430847066709E+01
 0.1300280968420E+01
 0.1210069690087E+01
 0.1247974166147E+01
 0.1562363009480E+01
 0.2226076756155E+01
 0.3029926511951E+01
 0.2010358714888E+01
 0.2151332423343E+01
 0.2257884084926E+01
 0.2303117856411E+01
 0.2297006293453E+01
 0.2258962574707E+01
 0.2201585202781E+01
 0.2129488957005E+01
 0.2042753998714E+01
 0.1940612033251E+01
 0.1824719848672E+01
 0.1700369959909E+01
 0.1572880208707E+01
 0.1445288983604E+01
 0.1323156778983E+01
 0.1223266356913E+01
 0.1187357355350E+01
 0.1298839546338E+01
 0.1658587771829E+01
 0.2271546068453E+01
 0.2952093324451E+01
 0.1915499356770E+01
 0.2040516218047E+01
 0.2140666532818E+01
 0.2190346412087E+01
 0.2192077587600E+01
 0.2159489184756E+01
 0.2103526236934E+01
 0.2029384874723E+01
 0.1938575984883E+01
 0.1831982448254E+01
 0.1712606111699E+01
 0.1586689069382E+01
 0.1461013145494E+01
 0.1341408668873E+01
 0.1237457110914E+01
 0.1170808751867E+01
 0.1186129941809E+01
 0.1354759620499E+01
 0.1736796211007E+01
 0.2301541943573E+01
 0.2887643651620E+01
 0.1826618905168E+01
 0.1937930293553E+01
 0.2030759809573E+01
 0.2081686234857E+01
 0.2088551385571E+01
 0.2060266769126E+01
 0.2005867352606E+01
 0.1930732355493E+01
 0.1837535176214E+01
 0.1728591697680E+01
 0.1608128374721E+01
 0.1483339976172E+01
 0.1362416918942E+01
 0.1253683634839E+01
 0.1170095131851E+01
 0.1136660954221E+01
 0.1197345550499E+01
 0.1408275740990E+01
 0.1798610373446E+01
 0.2321611315253E+01
 0.2839177544831E+01
 0.1742435463159E+01
 0.1842003261747E+01
 0.1927341995903E+01
 0.1977443934870E+01
 0.1987355685084E+01
 0.1962348511866E+01
 0.1909597013003E+01
 0.1834384174956E+01
 0.1740266587281E+01
 0.1630765251861E+01
 0.1511200347812E+01
 0.1389674557484E+01
 0.1275666629945E+01
 0.1179641107090E+01
 0.1117241529037E+01
 0.1115405212174E+01
 0.1214783300256E+01
 0.1456198990834E+01
 0.1847405293608E+01
 0.2334057354976E+01
 0.2807778682668E+01
 0.1662004044248E+01
 0.1751478546896E+01
 0.1829526967129E+01
 0.1877493487387E+01
 0.1888888404786E+01
 0.1866287963631E+01
 0.1815206836255E+01
 0.1740657303654E+01
 0.1646825632907E+01
 0.1538216845598E+01
 0.1421103895890E+01
 0.1304415128381E+01
 0.1198763332855E+01
 0.1116407124935E+01
 0.1075059619887E+01
 0.1102384251994E+01
 0.1234128887404E+01
 0.1497481370422E+01
 0.1885494631975E+01
 0.2343028265318E+01
 0.2779142179871E+01
 0.1584630842721E+01
 0.1665453180001E+01
 0.1736654464321E+01
 0.1781750283539E+01
 0.1793544486787E+01
 0.1772696057053E+01
 0.1723323229443E+01
 0.1650075625885E+01
 0.1557553607051E+01
 0.1451034973538E+01
 0.1337590431677E+01
 0.1226857388574E+01
 0.1130403938206E+01
 0.1061954777946E+01
 0.1040748174413E+01
 0.1094220692028E+01
 0.1252557660378E+01
 0.1531584487284E+01
 0.1914872837319E+01
 0.2348752914005E+01
 0.2755245281858E+01
 0.1509780429989E+01
 0.1583218350675E+01
 0.1648147800453E+01
 0.1690042851965E+01
 0.1701543151334E+01
 0.1682003026926E+01
 0.1634413943067E+01
 0.1563025771092E+01
 0.1472675204707E+01
 0.1369215007777E+01
 0.1260349359179E+01
 0.1156285928852E+01
 0.1069362371932E+01
 0.1014477037308E+01
 0.1011939691118E+01
 0.1088299046517E+01
 0.1268203604959E+01
 0.1558505197542E+01
 0.1936812635318E+01
 0.2351836777497E+01
 0.2735818546171E+01
 0.1437024026818E+01
 0.1504202056380E+01
 0.1563499749609E+01
 0.1602146642050E+01
 0.1612969247616E+01
 0.1594485643773E+01
 0.1548806074014E+01
 0.1479775127301E+01
 0.1392319964296E+01
 0.1292684996039E+01
 0.1189039908954E+01
 0.1092012694520E+01
 0.1014529760120E+01
 0.9724113222026E+00
 0.9866835406701E+00
 0.1082634935697E+01
 0.1279869175791E+01
 0.1578417467393E+01
 0.1952244921935E+01
 0.2352700167132E+01
 0.2720115996148E+01
 0.1366004631664E+01
 0.1427927166100E+01
 0.1482256262759E+01
 0.1517802140421E+01
 0.1527803532556E+01
 0.1510292102674E+01
 0.1466704621105E+01
 0.1400489023722E+01
 0.1316541320868E+01
 0.1221328346396E+01
 0.1123318580438E+01
 0.1033407855158E+01
 0.9649414495027E+00
 0.9344481995191E+00
 0.9634137210336E+00
 0.1075755525246E+01
 0.1286794072083E+01
 0.1591548875979E+01
 0.1961847437259E+01
 0.2351549045317E+01
 0.2707313906103E+01
 0.1296412728729E+01
 0.1353980613920E+01
 0.1404000767201E+01
 0.1436723810687E+01
 0.1445944340209E+01
 0.1429463311550E+01
 0.1388209951743E+01
 0.1325246501537E+01
 0.1245333227790E+01
 0.1155003074826E+01
 0.1062861546689E+01
 0.9799229822452E+00
 0.9197938862569E+00
 0.8995304740319E+00
 0.9409125682507E+00
 0.1066593127068E+01
 0.1288501295928E+01
 0.1598119893765E+01
 0.1966092604663E+01
 0.2348436646197E+01
 0.2696613300260E+01
 0.1227968888574E+01
 0.1281990500185E+01
 0.1328340190226E+01
 0.1358603727392E+01
 0.1367222868291E+01
 0.1351950400034E+01
 0.1313333364994E+01
 0.1254054302603E+01
 0.1178644293904E+01
 0.1093557513857E+01
 0.1007381975869E+01
 0.9311074106138E+00
 0.8784542939528E+00
 0.8668479743113E+00
 0.9182757734170E+00
 0.1054399660571E+01
 0.1284697135415E+01
 0.1598312107511E+01
 0.1965290218641E+01
 0.2343316734152E+01
 0.2687285113386E+01
 0.1160410974641E+01
 0.1211608787580E+01
 0.1254892923407E+01
 0.1283112149241E+01
 0.1291413744744E+01
 0.1277628629985E+01
 0.1242010270031E+01
 0.1186858675473E+01
 0.1116389194455E+01
 0.1036842302028E+01
 0.9566423512570E+00
 0.8866186931314E+00
 0.8404654650772E+00
 0.8358313119261E+00
 0.8948829340580E+00
 0.1038683610849E+01
 0.1275207389965E+01
 0.1592254161809E+01
 0.1959621790606E+01
 0.2336087030941E+01
 0.2678699486011E+01
 0.1093484480732E+01
 0.1142497955476E+01
 0.1183278573411E+01
 0.1209896369407E+01
 0.1218242154871E+01
 0.1206308118673E+01
 0.1174110830463E+01
 0.1123554764058E+01
 0.1058457199042E+01
 0.9847186281304E+00
 0.9104620829271E+00
 0.8462280557641E+00
 0.8055472787975E+00
 0.8061467199170E+00
 0.8703766753067E+00
 0.1019168367803E+01
 0.1259939417253E+01
 0.1580016973359E+01
 0.1949166753789E+01
 0.2326622813142E+01
 0.2670350067890E+01
 0.1026935009091E+01
 0.1074320432177E+01
 0.1113109207108E+01
 0.1138578640927E+01
 0.1147388501247E+01
 0.1137741853204E+01
 0.1109448106193E+01
 0.1063993453460E+01
 0.1004717719605E+01
 0.9370627856319E+00
 0.8687207637178E+00
 0.8098215570765E+00
 0.7735958090100E+00
 0.7776931439185E+00
 0.8446522202372E+00
 0.9957707983894E+00
 0.1238863575711E+01
 0.1561613443519E+01
 0.1933920313962E+01
 0.2314801676748E+01
 0.2661876476091E+01
 0.9605021854870E+00
 0.1006729916964E+01
 0.1043981756086E+01
 0.1068753651178E+01
 0.1078491328017E+01
 0.1071631451571E+01
 0.1047783792097E+01
 0.1007985585102E+01
 0.9550227817666E+00
 0.8937670828978E+00
 0.8313573585049E+00
 0.7773973596493E+00
 0.7446801690206E+00
 0.7506017490876E+00
 0.8178583883082E+00
 0.9685995958131E+00
 0.1212010993746E+01
 0.1537000046683E+01
 0.1913802278263E+01
 0.2300520073029E+01
 0.2653084824454E+01
 0.8939144772905E+00
 0.9393639023635E+00
 0.9754712813422E+00
 0.9999858898963E+00
 0.1011149141131E+01
 0.1007631153725E+01
 0.9888317512515E+00
 0.9553035440441E+00
 0.9092063831299E+00
 0.8547371887464E+00
 0.7983656019481E+00
 0.7490593680646E+00
 0.7190367421978E+00
 0.7252370047075E+00
 0.7904101219826E+00
 0.9379741195819E+00
 0.1179487818534E+01
 0.1506079371674E+01
 0.1888655217221E+01
 0.2283701520377E+01
 0.2643965255578E+01
 0.8268844637937E+00
 0.8718368073620E+00
 0.9071248319377E+00
 0.9318071966437E+00
 0.9449216893574E+00
 0.9453505128004E+00
 0.9322595613527E+00
 0.9056802284902E+00
 0.8670806676861E+00
 0.8198859115378E+00
 0.7697857711293E+00
 0.7250073738580E+00
 0.6970601275309E+00
 0.7021973947474E+00
 0.7630113159074E+00
 0.9044655287831E+00
 0.1141509709791E+01
 0.1468704802904E+01
 0.1858228356663E+01
 0.2264294925357E+01
 0.2634705082215E+01
 0.7591041226774E+00
 0.8037331752280E+00
 0.8384556994874E+00
 0.8637148309173E+00
 0.8793313154246E+00
 0.8843563148874E+00
 0.8776883643979E+00
 0.8588054633811E+00
 0.8284288392571E+00
 0.7891233266969E+00
 0.7456928863263E+00
 0.7055238685579E+00
 0.6792902054417E+00
 0.6823128694907E+00
 0.7366847018648E+00
 0.8689623239417E+00
 0.1098464832475E+01
 0.1424692932639E+01
 0.1822140297078E+01
 0.2242257254392E+01
 0.2625695738819E+01
 0.6902396439582E+00
 0.7346003573545E+00
 0.7689379415040E+00
 0.7951705225366E+00
 0.8138650663938E+00
 0.8241743056034E+00
 0.8246913514268E+00
 0.8143199337327E+00
 0.7929946736221E+00
 0.7623429876144E+00
 0.7261811455566E+00
 0.6909576532016E+00
 0.6663952362683E+00
 0.6666357530912E+00
 0.7128027407610E+00
 0.8327608021076E+00
 0.1051017880108E+01
 0.1373860053270E+01
 0.1779810306890E+01
 0.2217501307650E+01
 0.2617529696577E+01
 0.6199251336477E+00
 0.6639399919330E+00
 0.6980011396273E+00
 0.7256011450688E+00
 0.7479783660535E+00
 0.7642913443416E+00
 0.7727912429402E+00
 0.7718067158740E+00
 0.7604683984971E+00
 0.7394036980992E+00
 0.7113439737811E+00
 0.6817040918788E+00
 0.6591516285310E+00
 0.6564228823306E+00
 0.6931095791451E+00
 0.7976781942334E+00
 0.1000265237535E+01
 0.1316121687040E+01
 0.1730359209319E+01
 0.2189744841245E+01
 0.2610961157238E+01
 0.5477542827690E+00
 0.5911974395990E+00
 0.6250255775613E+00
 0.6544020305270E+00
 0.6811012994526E+00
 0.7041587459771E+00
 0.7214572761225E+00
 0.7307806225000E+00
 0.7304687339594E+00
 0.7201061307531E+00
 0.7012485388093E+00
 0.6781811867180E+00
 0.6584213923035E+00
 0.6531099489574E+00
 0.6797215681965E+00
 0.7661782784889E+00
 0.9479551006323E+00
 0.1251672346514E+01
 0.1672638199742E+01
 0.2158004312881E+01
 0.2606762303839E+01
 0.4732685055520E+00
 0.5157482001523E+00
 0.5493382303267E+00
 0.5809444326745E+00
 0.6126486736645E+00
 0.6431975223742E+00
 0.6701022317537E+00
 0.6906756250286E+00
 0.7025208322725E+00
 0.7041633011528E+00
 0.6959029358293E+00
 0.6807992603483E+00
 0.6651275643132E+00
 0.6582821105087E+00
 0.6751007403534E+00
 0.7414714416124E+00
 0.8968231558009E+00
 0.1181180011723E+01
 0.1605574805323E+01
 0.2120489137112E+01
 0.2601787820961E+01
 0.3959361408689E+00
 0.4368202626947E+00
 0.4701117216770E+00
 0.5044540748078E+00
 0.5418736220267E+00
 0.5806313046168E+00
 0.6179073245729E+00
 0.6506780005128E+00
 0.6759161705300E+00
 0.6911060367358E+00
 0.6952229064626E+00
 0.6899989910428E+00
 0.6803624419532E+00
 0.6738194975895E+00
 0.6821482660051E+00
 0.7275911191385E+00
 0.8507052713904E+00
 0.1105889765716E+01
 0.1527052118717E+01
 0.2076356801454E+01
 0.2599034048324E+01
 0.3151175829615E+00
 0.3535741397736E+00
 0.3865512949291E+00
 0.4242914475737E+00
 0.4681985548554E+00
 0.5158349343256E+00
 0.5641572907186E+00
 0.6100118698152E+00
 0.6499134722423E+00
 0.6803741806270E+00
 0.6990051966004E+00
 0.7061206487932E+00
 0.7051926660978E+00
 0.7017016620524E+00
 0.7040812869951E+00
 0.7295360393397E+00
 0.8156960686404E+00
 0.1029083133959E+01
 0.1436257035907E+01
 0.2021835109963E+01
 0.2629932051408E+01
 0.2300714389086E+00
 0.2650805310056E+00
 0.2979261251512E+00
 0.3400013258570E+00
 0.3912482838625E+00
 0.4483461300683E+00
 0.5082316972197E+00
 0.5679020501814E+00
 0.6236638839384E+00
 0.6712014971923E+00
 0.7067754379241E+00
 0.7292235689093E+00
 0.7404714431313E+00
 0.7438476980966E+00
 0.7442902164610E+00
 0.7531079215602E+00
 0.8005720582069E+00
 0.9583295549998E+00
 0.1332868214613E+01
 0.1959992232282E+01
 0.2673192479846E+01
 0.1398367708167E+00
 0.1701524290949E+00
 0.2034145100033E+00
 0.2511205274109E+00
 0.3105842887984E+00
 0.3775633894852E+00
 0.4493050851101E+00
 0.5232993111539E+00
 0.5959822805142E+00
 0.6624565320581E+00
 0.7177155094743E+00
 0.7590978463984E+00
 0.7869063134817E+00
 0.8021863947479E+00
 0.8063018286126E+00
 0.8043606128237E+00
 0.8157805583717E+00
 0.9054690605348E+00
 0.1219194864609E+01
 0.1883075330419E+01
 0.2731179697911E+01
 0.4323487234310E-01
 0.6736857026248E-01
 0.1022948678256E+00
 0.1573957136844E+00
 0.2258823082231E+00
 0.3029220055348E+00
 0.3865225953339E+00
 0.4750205440691E+00
 0.5654175507484E+00
 0.6526308139429E+00
 0.7305805066809E+00
 0.7951274747951E+00
 0.8448846962867E+00
 0.8784885267955E+00
 0.8937204920857E+00
 0.8897352218382E+00
 0.8733629906763E+00
 0.8894890482581E+00
 0.1103212794080E+01
 0.1778306041024E+01
 0.2808807636337E+01
 0.6244154754996E-01
 0.4540365885234E-01
 0.6590308769705E-02
 0.5895865722545E-01
 0.1369450117523E+00
 0.2239115327465E+00
 0.3190341565775E+00
 0.4217672550436E+00
 0.5302194491721E+00
 0.6397453132455E+00
 0.7435731494511E+00
 0.8361586081085E+00
 0.9143193395498E+00
 0.9741554796631E+00
 0.1009969317030E+01
 0.1015767585515E+01
 0.9864607580390E+00
 0.9369043508128E+00
 0.1008292662193E+01
 0.1630120348859E+01
 0.2911705358522E+01
 0.1789319673115E+00
 0.1696067905030E+00
 0.1209219242260E+00
 0.4440275171563E-01
 0.4372305710170E-01
 0.1401012976222E+00
 0.2460471568244E+00
 0.3621762447947E+00
 0.4883213710690E+00
 0.6212327447381E+00
 0.7541862041263E+00
 0.8803610261396E+00
 0.9945071401111E+00
 0.1089965934768E+01
 0.1157906639147E+01
 0.1188355812615E+01
 0.1168178319807E+01
 0.1080279309787E+01
 0.9895261842433E+00
 0.1427971921491E+01
 0.3044279277755E+01
 0.3120993760315E+00
 0.3075705628743E+00
 0.2406731675150E+00
 0.1507827260786E+00
 0.5438648694433E-01
 0.5119952569956E-01
 0.1668864556184E+00
 0.2949291449182E+00
 0.4373673541325E+00
 0.5937772879884E+00
 0.7589814117797E+00
 0.9250957604712E+00
 0.1084024859838E+01
 0.1225875685065E+01
 0.1339293355664E+01
 0.1412076134070E+01
 0.1427917895282E+01
 0.1355058976756E+01
 0.1143417000140E+01
 0.1212284119761E+01
 0.3204302523358E+01
 0.4722834351312E+00
 0.4579868637529E+00
 0.3605463573988E+00
 0.2610080785962E+00
 0.1565689890813E+00
 0.4310242153727E-01
 0.8105894901228E-01
 0.2189458949902E+00
 0.3748635454768E+00
 0.5530821482458E+00
 0.7532083757449E+00
 0.9668393198769E+00
 0.1180674869666E+01
 0.1380929767977E+01
 0.1554339381674E+01
 0.1689366093061E+01
 0.1768991780444E+01
 0.1779476736705E+01
 0.1605387850856E+01
 0.1247275999329E+01
 0.3370332171744E+01
 0.6858505506800E+00
 0.5984477127634E+00
 0.4792674180137E+00
 0.3753411070522E+00
 0.2628921798139E+00
 0.1427651024197E+00
 0.1168876135880E-01
 0.1336128694529E+00
 0.2986943064756E+00
 0.4935472696334E+00
 0.7299771336128E+00
 0.1001263164004E+01
 0.1281737909709E+01
 0.1552671718535E+01
 0.1802764884218E+01
 0.2017422621288E+01
 0.2193667601150E+01
 0.2323515908356E+01
 0.2483262889905E+01
 0.2177533236624E+01
 0.3849383728963E+01
 0.4697527097284E+00
 0.5703944154578E+00
 0.6558327133321E+00
 0.7119649435937E+00
 0.7350987924461E+00
 0.7245416116735E+00
 0.6839899405824E+00
 0.6204479470166E+00
 0.5362519504485E+00
 0.4244079653392E+00
 0.4492618294613E+00
 0.5737540631970E+00
 0.6784560018312E+00
 0.7509328444273E+00
 0.7873697350405E+00
 0.7871846531205E+00
 0.7536675744501E+00
 0.6925585135244E+00
 0.6007315939759E+00
 0.4762698768405E+00
 0.4303972838565E+00
 0.5817362964101E+00
 0.7058926997549E+00
 0.7939936962339E+00
 0.8432712023554E+00
 0.8536861509610E+00
 0.8280583332527E+00
 0.7695234554627E+00
 0.6756697558645E+00
 0.5511299169281E+00
 0.4135704087222E+00
 0.5930609332619E+00
 0.7369712271227E+00
 0.8403139213761E+00
 0.9023033923464E+00
 0.9237758842309E+00
 0.9070794324612E+00
 0.8542724191758E+00
 0.7643570007432E+00
 0.6414056530176E+00
 0.3987883439671E+00
 0.6070354810115E+00
 0.7705847624693E+00
 0.8889135175890E+00
 0.9636641919455E+00
 0.9968509851231E+00
 0.9908697158640E+00
 0.9473684572108E+00
 0.8653776111351E+00
 0.7469199663243E+00
 0.3860511719125E+00
 0.6229257699903E+00
 0.8056908108895E+00
 0.9386831879211E+00
 0.1026303830114E+01
 0.1072030696118E+01
 0.1078701922027E+01
 0.1047714643543E+01
 0.9776338060824E+00
 0.8680119587697E+00
 0.3753638194125E+00
 0.6399961847800E+00
 0.8412155940990E+00
 0.9884145336434E+00
 0.1088958126694E+01
 0.1147993205094E+01
 0.1169046248647E+01
 0.1153484497037E+01
 0.1099383578687E+01
 0.1004074869851E+01
 0.3667378794034E+00
 0.6575116100877E+00
 0.8760619983823E+00
 0.1036812093429E+01
 0.1150157099791E+01
 0.1223019920474E+01
 0.1259807554420E+01
 0.1262117763198E+01
 0.1227795853619E+01
 0.1152530742816E+01
 0.3601860383687E+00
 0.6747539153833E+00
 0.9091312463803E+00
 0.1082523169424E+01
 0.1208274694672E+01
 0.1295107599784E+01
 0.1348450896369E+01
 0.1370369641941E+01
 0.1358751103909E+01
 0.1308177024785E+01
 0.3557175671773E+00
 0.6910423212534E+00
 0.9393560968824E+00
 0.1124185386601E+01
 0.1261605636298E+01
 0.1362079069910E+01
 0.1432139560241E+01
 0.1474473910920E+01
 0.1487102011010E+01
 0.1463729504567E+01
 0.3533359548860E+00
 0.7057574554212E+00
 0.9657413687985E+00
 0.1160486283751E+01
 0.1308451223251E+01
 0.1421701943110E+01
 0.1507898681498E+01
 0.1570416018711E+01
 0.1607342626410E+01
 0.1611500760774E+01
 0.3530388212186E+00
 0.7183672701108E+00
 0.9874079754009E+00
 0.1190227451470E+01
 0.1347210072614E+01
 0.1471814894789E+01
 0.1572798625818E+01
 0.1654240741533E+01
 0.1714195677664E+01
 0.1744510300104E+01
 0.3548197523831E+00
 0.7284525278839E+00
 0.1003636157577E+01
 0.1212388460405E+01
 0.1376469707791E+01
 0.1510456777419E+01
 0.1624139510801E+01
 0.1722317711077E+01
 0.1802934257213E+01
 0.1856762099065E+01
 0.3586715469945E+00
 0.7357292511022E+00
 0.1013903877449E+01
 0.1226185992316E+01
 0.1395094145211E+01
 0.1535990161139E+01
 0.1659617312192E+01
 0.1771541442335E+01
 0.1869567925553E+01
 0.1943349089802E+01
 0.3645905574966E+00
 0.7400657020753E+00
 0.1017916291859E+01
 0.1231123144880E+01
 0.1402302045877E+01
 0.1547211875686E+01
 0.1677461258489E+01
 0.1799478987397E+01
 0.1910961692263E+01
 0.2000447131678E+01
 0.3725823906453E+00
 0.7414922923900E+00
 0.1015621648803E+01
 0.1227023133185E+01
 0.1397729639677E+01
 0.1543447355193E+01
 0.1676545387355E+01
 0.1804476270488E+01
 0.1924924422625E+01
 0.2025325646070E+01
 0.3826702224786E+00
 0.7402039309755E+00
 0.1007210056035E+01
 0.1214037134319E+01
 0.1381474274928E+01
 0.1524628183817E+01
 0.1656484469618E+01
 0.1785737090579E+01
 0.1910231204559E+01
 0.2016269903196E+01
 0.3949056025082E+00
 0.7365627695852E+00
 0.9930924351002E+00
 0.1192614140308E+01
 0.1354095860704E+01
 0.1491377530891E+01
 0.1617714915852E+01
 0.1743396737197E+01
 0.1866643863021E+01
 0.1972514707649E+01
 0.4093867681558E+00
 0.7310832087314E+00
 0.9739065399800E+00
 0.1163400839417E+01
 0.1316522238422E+01
 0.1445081210791E+01
 0.1561747131773E+01
 0.1678433963569E+01
 0.1795049188458E+01
 0.1895027538522E+01
 0.4262008014712E+00
 0.7246497326611E+00
 0.9504475713158E+00
 0.1127196193994E+01
 0.1269718552035E+01
 0.1387716367764E+01
 0.1491769153128E+01
 0.1593376090962E+01
 0.1696019436658E+01
 0.1790366436092E+01
 0.8304778499335E+00
 0.2506147619227E+00
 0.1258647508458E-01
 0.8176459146500E-01
 0.1178552383262E+00
 0.1240544228598E+00
 0.9997424678540E-01
 0.4809793509468E-01
 0.1427602464253E-01
 0.7864766944509E-01
 0.8780108397452E+00
 0.5719685633116E+00
 0.2075557860652E+00
 0.5159089916008E-01
 0.2510754798101E-01
 0.6096279381629E-01
 0.6177537695773E-01
 0.3238379573257E-01
 0.9236338521143E-02
 0.4984415261925E-01
 0.8130835412920E+00
 0.6597679321416E+00
 0.3911998389343E+00
 0.1987326132113E+00
 0.8421666167115E-01
 0.1903885179152E-01
 0.8551966676243E-02
 0.4656817434499E-02
 0.1240291197693E-01
 0.2952255639115E-01
 0.7455207440692E+00
 0.6711094046618E+00
 0.4892518305811E+00
 0.3213058583886E+00
 0.1946366655829E+00
 0.1085067040349E+00
 0.5711831287782E-01
 0.3523938045564E-01
 0.2803254746055E-01
 0.2226217327503E-01
 0.6852441044758E+00
 0.6557194585467E+00
 0.5403540137321E+00
 0.4097194133421E+00
 0.2930482486597E+00
 0.1996524262990E+00
 0.1316059423918E+00
 0.8774271144299E-01
 0.5875511658654E-01
 0.3189306252573E-01
 0.6339022270938E+00
 0.6328699706838E+00
 0.5675067208455E+00
 0.4747651196157E+00
 0.3777255821457E+00
 0.2882563184386E+00
 0.2123895108893E+00
 0.1529985254314E+00
 0.1069258904437E+00
 0.6123732059021E-01
 0.5904848360430E+00
 0.6108467724653E+00
 0.5844218816393E+00
 0.5266310929964E+00
 0.4530694558762E+00
 0.3745054526613E+00
 0.2984535638854E+00
 0.2307488593676E+00
 0.1736078403163E+00
 0.1124011105730E+00
 0.5535307744228E+00
 0.5931678660966E+00
 0.5989180801112E+00
 0.5730294647210E+00
 0.5242071081506E+00
 0.4607201800446E+00
 0.3898578154705E+00
 0.3195132831525E+00
 0.2571145577267E+00
 0.1855788568939E+00
 0.5215456449719E+00
 0.5809629584436E+00
 0.6152299819899E+00
 0.6191803183747E+00
 0.5955778480738E+00
 0.5496468263678E+00
 0.4875806836599E+00
 0.4169594439621E+00
 0.3507751706858E+00
 0.2776120648733E+00
 0.4932282760546E+00
 0.5737220011756E+00
 0.6352648396366E+00
 0.6683203603954E+00
 0.6706412348045E+00
 0.6438820309731E+00
 0.5927995565963E+00
 0.5246356000737E+00
 0.4484476278188E+00
 0.3741895035937E+00
 0.4510689794300E+00
 0.7242755875309E+00
 0.9263462162935E+00
 0.1083297977804E+01
 0.1208622696586E+01
 0.1312474825734E+01
 0.1403103211177E+01
 0.1492123347857E+01
 0.1589593580342E+01
 0.1705333459135E+01
 0.4772938513039E+00
 0.7243564266250E+00
 0.8974676222022E+00
 0.1026829379526E+01
 0.1127589684532E+01
 0.1210455029855E+01
 0.1283124849944E+01
 0.1362056871121E+01
 0.1470019853770E+01
 0.1598455723178E+01
 0.5023006125501E+00
 0.7182182522617E+00
 0.8568795761991E+00
 0.9525564582843E+00
 0.1022745282775E+01
 0.1078672748135E+01
 0.1129230894291E+01
 0.1196860662084E+01
 0.1308220998067E+01
 0.1451882899294E+01
 0.5278245662039E+00
 0.7069667030902E+00
 0.8044879581262E+00
 0.8608813130458E+00
 0.8959169384086E+00
 0.9211471460090E+00
 0.9465784789408E+00
 0.9978925480057E+00
 0.1106612018924E+01
 0.1271268562843E+01
 0.5549406589933E+00
 0.6911774993762E+00
 0.7398048153401E+00
 0.7520631648088E+00
 0.7496845046671E+00
 0.7433817856405E+00
 0.7432550256610E+00
 0.7759929031776E+00
 0.8771285642131E+00
 0.1061033161852E+01
 0.5845947356723E+00
 0.6697729141758E+00
 0.6603478637419E+00
 0.6254140198251E+00
 0.5872348374646E+00
 0.5530652515473E+00
 0.5316130696205E+00
 0.5473458382068E+00
 0.6352657675010E+00
 0.8292450163673E+00
 0.6173385060889E+00
 0.6383750669850E+00
 0.5597309381766E+00
 0.4788852080474E+00
 0.4128663941094E+00
 0.3605857171276E+00
 0.3270514586344E+00
 0.3313045332602E+00
 0.4008453009130E+00
 0.5894212412963E+00
 0.6517679254649E+00
 0.5849652967853E+00
 0.4252078533839E+00
 0.3100222119367E+00
 0.2349861590134E+00
 0.1791638445719E+00
 0.1459205114686E+00
 0.1484486983960E+00
 0.1979022132768E+00
 0.3627413144227E+00
 0.6805245951962E+00
 0.4763581679872E+00
 0.2332670313081E+00
 0.1304525808863E+00
 0.6886094797822E-01
 0.2221463785610E-01
 0.2171242051851E-02
 0.1583860975926E-01
 0.5285231432275E-01
 0.1809092031051E+00
 0.6253029492056E+00
 0.2043889268295E+00
 0.2385061712141E-01
 0.2889632175690E-01
 0.7091841860963E-01
 0.1005041107430E+00
 0.9922848048285E-01
 0.5809504256259E-01
 0.1718306680636E-01
 0.8938640494621E-01
 0.3207532042116E+00
 0.2299745631921E+00
 0.1584887487721E+00
 0.1037136346206E+00
 0.6593578546370E-01
 0.4591551481097E-01
 0.4360685955254E-01
 0.5778721555641E-01
 0.8590056590291E-01
 0.1265896719093E+00
 0.3784572383570E+00
 0.2865736023517E+00
 0.1957792457030E+00
 0.1198144803528E+00
 0.6456141294260E-01
 0.3296923670766E-01
 0.2600030877862E-01
 0.4346775189867E-01
 0.8254908824892E-01
 0.1383763593484E+00
 0.4425013998317E+00
 0.3446050227214E+00
 0.2440007428372E+00
 0.1522585715087E+00
 0.7905754334314E-01
 0.3129318157639E-01
 0.1281799673144E-01
 0.2511735706711E-01
 0.6878678496246E-01
 0.1367632916729E+00
 0.5230594887685E+00
 0.4152042265795E+00
 0.3042181999535E+00
 0.1979906991552E+00
 0.1062033865922E+00
 0.3861597346577E-01
 0.8933439061424E-02
 0.4375398782708E-02
 0.4561370895455E-01
 0.1259654822129E+00
 0.6234684653732E+00
 0.5068198471550E+00
 0.3851907886504E+00
 0.2641246878311E+00
 0.1521909769773E+00
 0.6019151141269E-01
 0.1438272823453E-01
 0.2525535137777E-01
 0.1237732488509E-01
 0.1075918510479E+00
 0.7458214785985E+00
 0.6256635466716E+00
 0.4972920207471E+00
 0.3643175520812E+00
 0.2335430188782E+00
 0.1149022514245E+00
 0.2621056951562E-01
 0.3889756765900E-01
 0.2525701652467E-01
 0.7882385801123E-01
 0.8908269034634E+00
 0.7754338752925E+00
 0.6487593685611E+00
 0.5126081401328E+00
 0.3715906212304E+00
 0.2333860086192E+00
 0.1101423478045E+00
 0.2679090338159E-01
 0.2350565925341E-01
 0.6451409947638E-01
 0.1056271810948E+01
 0.9551378857783E+00
 0.8413474418763E+00
 0.7155666243724E+00
 0.5806586509402E+00
 0.4420654384463E+00
 0.3088129725629E+00
 0.1956116322891E+00
 0.1269068514782E+00
 0.1524414782492E+00
 0.1234964616017E+01
 0.1155185108262E+01
 0.1062823751187E+01
 0.9577926905464E+00
 0.8414599971057E+00
 0.7169511842732E+00
 0.5896205766167E+00
 0.4677725150822E+00
 0.3635935578028E+00
 0.2915776811434E+00
 0.1416286006822E+01
 0.1360672113575E+01
 0.1292705893945E+01
 0.1211175306120E+01
 0.1115430909449E+01
 0.1005415220632E+01
 0.8814393106442E+00
 0.7433283920135E+00
 0.5876673645899E+00
 0.3971553277648E+00
 0.1589427216542E+01
 0.1557215207398E+01
 0.1512226790643E+01
 0.1451525028551E+01
 0.1371806192136E+01
 0.1269142025713E+01
 0.1138300288556E+01
 0.9712671797337E+00
 0.7539617227524E+00
 0.4634736139572E+00
 0.1745151341270E+01
 0.1733394823995E+01
 0.1707735956292E+01
 0.1663197392318E+01
 0.1593661934644E+01
 0.1491458503933E+01
 0.1346658303669E+01
 0.1146036861257E+01
 0.8722606021476E+00
 0.5081984772853E+00
 0.1875999240823E+01
 0.1880576698163E+01
 0.1869750359484E+01
 0.1836602100488E+01
 0.1772612560935E+01
 0.1667197925872E+01
 0.1507198324989E+01
 0.1276733037183E+01
 0.9584917654657E+00
 0.5409004715193E+00
 0.1976379892370E+01
 0.1992621150169E+01
 0.1991922728913E+01
 0.1965884992608E+01
 0.1904445396814E+01
 0.1795335759593E+01
 0.1623644763132E+01
 0.1372071203642E+01
 0.1022977527066E+01
 0.5666955752368E+00
 0.2042411783401E+01
 0.2065341629700E+01
 0.2069893342936E+01
 0.2046890925877E+01
 0.1985898658447E+01
 0.1874460702287E+01
 0.1697346539377E+01
 0.1436374269219E+01
 0.1071785596555E+01
 0.5900944001313E+00
 0.2071693961134E+01
 0.2095954456109E+01
 0.2100276314629E+01
 0.2075473354926E+01
 0.2012213696908E+01
 0.1899572610464E+01
 0.1723735166935E+01
 0.1466794194203E+01
 0.1105996798121E+01
 0.6173946264096E+00
 0.2063347313901E+01
 0.2083197227344E+01
 0.2080327389190E+01
 0.2046683377273E+01
 0.1975681973368E+01
 0.1859707460793E+01
 0.1688288116268E+01
 0.1446515090427E+01
 0.1111701735219E+01
 0.6488532685799E+00
 0.2018270758303E+01
 0.2026984739321E+01
 0.2006844477176E+01
 0.1952982623918E+01
 0.1863985992114E+01
 0.1736060363808E+01
 0.1563481718877E+01
 0.1338426333314E+01
 0.1047600920665E+01
 0.6614542179621E+00
 0.1939991833744E+01
 0.1927107709084E+01
 0.1872745438564E+01
 0.1785191610745E+01
 0.1665592357877E+01
 0.1512452756315E+01
 0.1324841919787E+01
 0.1103916422691E+01
 0.8554751884986E+00
 0.5867065842836E+00
 0.1832177099255E+01
 0.1769182075286E+01
 0.1671708753336E+01
 0.1544950281949E+01
 0.1387319007017E+01
 0.1199172471897E+01
 0.9831314561082E+00
 0.7467632871493E+00
 0.5080506126593E+00
 0.3210676629785E+00
</DataArray>
<DataArray type="Float64" Name="OI" NumberOfComponents="1" ComponentName0="OI" format="ascii">
 0.3910223428714E+01
 0.3519184096012E+01
 0.3193490422306E+01
 0.3061875049203E+01
 0.2960281720942E+01
 0.2887196891808E+01
 0.2832320274199E+01
 0.2797027390687E+01
 0.2787735842503E+01
 0.2820959467457E+01
 0.2903305065855E+01
 0.2986603649628E+01
 0.3022110451461E+01
 0.3020507107559E+01
 0.3005519895301E+01
 0.2984246218999E+01
 0.2973163900793E+01
 0.2972736477625E+01
 0.3093724630339E+01
 0.2664441009793E+01
 0.4967659889414E+01
 0.3291292484620E+01
 0.3411341888233E+01
 0.3170063459712E+01
 0.3013289526155E+01
 0.2912363619534E+01
 0.2835644429610E+01
 0.2779464105650E+01
 0.2742687080237E+01
 0.2728832192796E+01
 0.2739027522140E+01
 0.2764036659921E+01
 0.2784444343050E+01
 0.2782652653932E+01
 0.2752449300170E+01
 0.2695895544000E+01
 0.2615788504389E+01
 0.2502070403401E+01
 0.2345088234950E+01
 0.1989924766990E+01
 0.1426700466059E+01
 0.4145985613737E+01
 0.2933853778954E+01
 0.3165710570918E+01
 0.3087393741393E+01
 0.2949373272346E+01
 0.2851229309818E+01
 0.2775488744644E+01
 0.2717740447668E+01
 0.2677031743420E+01
 0.2652224174452E+01
 0.2636989360275E+01
 0.2621209939567E+01
 0.2598123511725E+01
 0.2561222951360E+01
 0.2500564590307E+01
 0.2408979791662E+01
 0.2280248952979E+01
 0.2100479693139E+01
 0.1831633649003E+01
 0.1405356492812E+01
 0.1350090981936E+01
 0.3849289434549E+01
 0.2689699291627E+01
 0.2933097357597E+01
 0.2955732239811E+01
 0.2866528762924E+01
 0.2778555977739E+01
 0.2706226046373E+01
 0.2647364222988E+01
 0.2600854170013E+01
 0.2562746523646E+01
 0.2524556327933E+01
 0.2478419511114E+01
 0.2423114675642E+01
 0.2356499150222E+01
 0.2268925205747E+01
 0.2149801261069E+01
 0.1989994303864E+01
 0.1776114094814E+01
 0.1487608083842E+01
 0.1206964409347E+01
 0.1618988052138E+01
 0.3598981409940E+01
 0.2504742104526E+01
 0.2731599441138E+01
 0.2807555786994E+01
 0.2765728653025E+01
 0.2695511056918E+01
 0.2628508977643E+01
 0.2568979397499E+01
 0.2515987290520E+01
 0.2464714735896E+01
 0.2407137822077E+01
 0.2337866204534E+01
 0.2258192676894E+01
 0.2168047846277E+01
 0.2059439764886E+01
 0.1922229989448E+01
 0.1748817812184E+01
 0.1534076960808E+01
 0.1298655941412E+01
 0.1221425658353E+01
 0.1868067351930E+01
 0.3400523798401E+01
 0.2354493014573E+01
 0.2558087074856E+01
 0.2659083681307E+01
 0.2653783301019E+01
 0.2603446286138E+01
 0.2543485651087E+01
 0.2483741540540E+01
 0.2424527374805E+01
 0.2361462632261E+01
 0.2288086406601E+01
 0.2201152111259E+01
 0.2103271108326E+01
 0.1995738941603E+01
 0.1872916451313E+01
 0.1727433432994E+01
 0.1556359492256E+01
 0.1368598187190E+01
 0.1221405385987E+01
 0.1325268649329E+01
 0.2041894832637E+01
 0.3246241246699E+01
 0.2226308303999E+01
 0.2406728470646E+01
 0.2516897940741E+01
 0.2536838176801E+01
 0.2504697192283E+01
 0.2452508983873E+01
 0.2393097048598E+01
 0.2328475882681E+01
 0.2255511155391E+01
 0.2169657260811E+01
 0.2069497721439E+01
 0.1958566938918E+01
 0.1839415333435E+01
 0.1709171665313E+01
 0.1564456476902E+01
 0.1408913408753E+01
 0.1265790724254E+01
 0.1215025702136E+01
 0.1448509890241E+01
 0.2154591065139E+01
 0.3125736267306E+01
 0.2113039495742E+01
 0.2272441793957E+01
 0.2383104118201E+01
 0.2419095806321E+01
 0.2401804214966E+01
 0.2357133961255E+01
 0.2298557227610E+01
 0.2229617735178E+01
 0.2148781323492E+01
 0.2053447391977E+01
 0.1943810584188E+01
 0.1824262709731E+01
 0.1698691383583E+01
 0.1567181412077E+01
 0.1430847066709E+01
 0.1300280968420E+01
 0.1210069690087E+01
 0.1247974166147E+01
 0.1562363009480E+01
 0.2226076756155E+01
 0.3029926511951E+01
 0.2010358714888E+01
 0.2151332423343E+01
 0.2257884084926E+01
 0.2303117856411E+01
 0.2297006293453E+01
 0.2258962574707E+01
 0.2201585202781E+01
 0.2129488957005E+01
 0.2042753998714E+01
 0.1940612033251E+01
 0.1824719848672E+01
 0.1700369959909E+01
 0.1572880208707E+01
 0.1445288983604E+01
 0.1323156778983E+01
 0.1223266356913E+01
 0.1187357355350E+01
 0.1298839546338E+01
 0.1658587771829E+01
 0.2271546068453E+01
 0.2952093324451E+01
 0.1915499356770E+01
 0.2040516218047E+01
 0.2140666532818E+01
 0.2190346412087E+01
 0.2192077587600E+01
 0.2159489184756E+01
 0.2103526236934E+01
 0.2029384874723E+01
 0.1938575984883E+01
 0.1831982448254E+01
 0.1712606111699E+01
 0.1586689069382E+01
 0.1461013145494E+01
 0.1341408668873E+01
 0.1237457110914E+01
 0.1170808751867E+01
 0.1186129941809E+01
 0.1354759620499E+01
 0.1736796211007E+01
 0.2301541943573E+01
 0.2887643651620E+01
 0.1826618905168E+01
 0.1937930293553E+01
 0.2030759809573E+01
 0.2081686234857E+01
 0.2088551385571E+01
 0.2060266769126E+01
 0.2005867352606E+01
 0.1930732355493E+01
 0.1837535176214E+01
 0.1728591697680E+01
 0.1608128374721E+01
 0.1483339976172E+01
 0.1362416918942E+01
 0.1253683634839E+01
 0.1170095131851E+01
 0.1136660954221E+01
 0.1197345550499E+01
 0.1408275740990E+01
 0.1798610373446E+01
 0.2321611315253E+01
 0.2839177544831E+01
 0.1742435463159E+01
 0.1842003261747E+01
 0.1927341995903E+01
 0.1977443934870E+01
 0.1987355685084E+01
 0.1962348511866E+01
 0.1909597013003E+01
 0.1834384174956E+01
 0.1740266587281E+01
 0.1630765251861E+01
 0.1511200347812E+01
 0.1389674557484E+01
 0.1275666629945E+01
 0.1179641107090E+01
 0.1117241529037E+01
 0.1115405212174E+01
 0.1214783300256E+01
 0.1456198990834E+01
 0.1847405293608E+01
 0.2334057354976E+01
 0.2807778682668E+01
 0.1662004044248E+01
 0.1751478546896E+01
 0.1829526967129E+01
 0.1877493487387E+01
 0.1888888404786E+01
 0.1866287963631E+01
 0.1815206836255E+01
 0.1740657303654E+01
 0.1646825632907E+01
 0.1538216845598E+01
 0.1421103895890E+01
 0.1304415128381E+01
 0.1198763332855E+01
 0.1116407124935E+01
 0.1075059619887E+01
 0.1102384251994E+01
 0.1234128887404E+01
 0.1497481370422E+01
 0.1885494631975E+01
 0.2343028265318E+01
 0.2779142179871E+01
 0.1584630842721E+01
 0.1665453180001E+01
 0.1736654464321E+01
 0.1781750283539E+01
 0.1793544486787E+01
 0.1772696057053E+01
 0.1723323229443E+01
 0.1650075625885E+01
 0.1557553607051E+01
 0.1451034973538E+01
 0.1337590431677E+01
 0.1226857388574E+01
 0.1130403938206E+01
 0.1061954777946E+01
 0.1040748174413E+01
 0.1094220692028E+01
 0.1252557660378E+01
 0.1531584487284E+01
 0.1914872837319E+01
 0.2348752914005E+01
 0.2755245281858E+01
 0.1509780429989E+01
 0.1583218350675E+01
 0.1648147800453E+01
 0.1690042851965E+01
 0.1701543151334E+01
 0.1682003026926E+01
 0.1634413943067E+01
 0.1563025771092E+01
 0.1472675204707E+01
 0.1369215007777E+01
 0.1260349359179E+01
 0.1156285928852E+01
 0.1069362371932E+01
 0.1014477037308E+01
 0.1011939691118E+01
 0.1088299046517E+01
 0.1268203604959E+01
 0.1558505197542E+01
 0.1936812635318E+01
 0.2351836777497E+01
 0.2735818546171E+01
 0.1437024026818E+01
 0.1504202056380E+01
 0.1563499749609E+01
 0.1602146642050E+01
 0.1612969247616E+01
 0.1594485643773E+01
 0.1548806074014E+01
 0.1479775127301E+01
 0.1392319964296E+01
 0.1292684996039E+01
 0.1189039908954E+01
 0.1092012694520E+01
 0.1014529760120E+01
 0.9724113222026E+00
 0.9866835406701E+00
 0.1082634935697E+01
 0.1279869175791E+01
 0.1578417467393E+01
 0.1952244921935E+01
 0.2352700167132E+01
 0.2720115996148E+01
 0.1366004631664E+01
 0.1427927166100E+01
 0.1482256262759E+01
 0.1517802140421E+01
 0.1527803532556E+01
 0.1510292102674E+01
 0.1466704621105E+01
 0.1400489023722E+01
 0.1316541320868E+01
 0.1221328346396E+01
 0.1123318580438E+01
 0.1033407855158E+01
 0.9649414495027E+00
 0.9344481995191E+00
 0.9634137210336E+00
 0.1075755525246E+01
 0.1286794072083E+01
 0.1591548875979E+01
 0.1961847437259E+01
 0.2351549045317E+01
 0.2707313906103E+01
 0.1296412728729E+01
 0.1353980613920E+01
 0.1404000767201E+01
 0.1436723810687E+01
 0.1445944340209E+01
 0.1429463311550E+01
 0.1388209951743E+01
 0.1325246501537E+01
 0.1245333227790E+01
 0.1155003074826E+01
 0.1062861546689E+01
 0.9799229822452E+00
 0.9197938862569E+00
 0.8995304740319E+00
 0.9409125682507E+00
 0.1066593127068E+01
 0.1288501295928E+01
 0.1598119893765E+01
 0.1966092604663E+01
 0.2348436646197E+01
 0.2696613300260E+01
 0.1227968888574E+01
 0.1281990500185E+01
 0.1328340190226E+01
 0.1358603727392E+01
 0.1367222868291E+01
 0.1351950400034E+01
 0.1313333364994E+01
 0.1254054302603E+01
 0.1178644293904E+01
 0.1093557513857E+01
 0.1007381975869E+01
 0.9311074106138E+00
 0.8784542939528E+00
 0.8668479743113E+00
 0.9182757734170E+00
 0.1054399660571E+01
 0.1284697135415E+01
 0.1598312107511E+01
 0.1965290218641E+01
 0.2343316734152E+01
 0.2687285113386E+01
 0.1160410974641E+01
 0.1211608787580E+01
 0.1254892923407E+01
 0.1283112149241E+01
 0.1291413744744E+01
 0.1277628629985E+01
 0.1242010270031E+01
 0.1186858675473E+01
 0.1116389194455E+01
 0.1036842302028E+01
 0.9566423512570E+00
 0.8866186931314E+00
 0.8404654650772E+00
 0.8358313119261E+00
 0.8948829340580E+00
 0.1038683610849E+01
 0.1275207389965E+01
 0.1592254161809E+01
 0.1959621790606E+01
 0.2336087030941E+01
 0.2678699486011E+01
 0.1093484480732E+01
 0.1142497955476E+01
 0.1183278573411E+01
 0.1209896369407E+01
 0.1218242154871E+01
 0.1206308118673E+01
 0.1174110830463E+01
 0.1123554764058E+01
 0.1058457199042E+01
 0.9847186281304E+00
 0.9104620829271E+00
 0.8462280557641E+00
 0.8055472787975E+00
 0.8061467199170E+00
 0.8703766753067E+00
 0.1019168367803E+01
 0.1259939417253E+01
 0.1580016973359E+01
 0.1949166753789E+01
 0.2326622813142E+01
 0.2670350067890E+01
 0.1026935009091E+01
 0.1074320432177E+01
 0.1113109207108E+01
 0.1138578640927E+01
 0.1147388501247E+01
 0.1137741853204E+01
 0.1109448106193E+01
 0.1063993453460E+01
 0.1004717719605E+01
 0.9370627856319E+00
 0.8687207637178E+00
 0.8098215570765E+00
 0.7735958090100E+00
 0.7776931439185E+00
 0.8446522202372E+00
 0.9957707983894E+00
 0.1238863575711E+01
 0.1561613443519E+01
 0.1933920313962E+01
 0.2314801676748E+01
 0.2661876476091E+01
 0.9605021854870E+00
 0.1006729916964E+01
 0.1043981756086E+01
 0.1068753651178E+01
 0.1078491328017E+01
 0.1071631451571E+01
 0.1047783792097E+01
 0.1007985585102E+01
 0.9550227817666E+00
 0.8937670828978E+00
 0.8313573585049E+00
 0.7773973596493E+00
 0.7446801690206E+00
 0.7506017490876E+00
 0.8178583883082E+00
 0.9685995958131E+00
 0.1212010993746E+01
 0.1537000046683E+01
 0.1913802278263E+01
 0.2300520073029E+01
 0.2653084824454E+01
 0.8939144772905E+00
 0.9393639023635E+00
 0.9754712813422E+00
 0.9999858898963E+00
 0.1011149141131E+01
 0.1007631153725E+01
 0.9888317512515E+00
 0.9553035440441E+00
 0.9092063831299E+00
 0.8547371887464E+00
 0.7983656019481E+00
 0.7490593680646E+00
 0.7190367421978E+00
 0.7252370047075E+00
 0.7904101219826E+00
 0.9379741195819E+00
 0.1179487818534E+01
 0.1506079371674E+01
 0.1888655217221E+01
 0.2283701520377E+01
 0.2643965255578E+01
 0.8268844637937E+00
 0.8718368073620E+00
 0.9071248319377E+00
 0.9318071966437E+00
 0.9449216893574E+00
 0.9453505128004E+00
 0.9322595613527E+00
 0.9056802284902E+00
 0.8670806676861E+00
 0.8198859115378E+00
 0.7697857711293E+00
 0.7250073738580E+00
 0.6970601275309E+00
 0.7021973947474E+00
 0.7630113159074E+00
 0.9044655287831E+00
 0.1141509709791E+01
 0.1468704802904E+01
 0.1858228356663E+01
 0.2264294925357E+01
 0.2634705082215E+01
 0.7591041226774E+00
 0.8037331752280E+00
 0.8384556994874E+00
 0.8637148309173E+00
 0.8793313154246E+00
 0.8843563148874E+00
 0.8776883643979E+00
 0.8588054633811E+00
 0.8284288392571E+00
 0.7891233266969E+00
 0.7456928863263E+00
 0.7055238685579E+00
 0.6792902054417E+00
 0.6823128694907E+00
 0.7366847018648E+00
 0.8689623239417E+00
 0.1098464832475E+01
 0.1424692932639E+01
 0.1822140297078E+01
 0.2242257254392E+01
 0.2625695738819E+01
 0.6902396439582E+00
 0.7346003573545E+00
 0.7689379415040E+00
 0.7951705225366E+00
 0.8138650663938E+00
 0.8241743056034E+00
 0.8246913514268E+00
 0.8143199337327E+00
 0.7929946736221E+00
 0.7623429876144E+00
 0.7261811455566E+00
 0.6909576532016E+00
 0.6663952362683E+00
 0.6666357530912E+00
 0.7128027407610E+00
 0.8327608021076E+00
 0.1051017880108E+01
 0.1373860053270E+01
 0.1779810306890E+01
 0.2217501307650E+01
 0.2617529696577E+01
 0.6199251336477E+00
 0.6639399919330E+00
 0.6980011396273E+00
 0.7256011450688E+00
 0.7479783660535E+00
 0.7642913443416E+00
 0.7727912429402E+00
 0.7718067158740E+00
 0.7604683984971E+00
 0.7394036980992E+00
 0.7113439737811E+00
 0.6817040918788E+00
 0.6591516285310E+00
 0.6564228823306E+00
 0.6931095791451E+00
 0.7976781942334E+00
 0.1000265237535E+01
 0.1316121687040E+01
 0.1730359209319E+01
 0.2189744841245E+01
 0.2610961157238E+01
 0.5477542827690E+00
 0.5911974395990E+00
 0.6250255775613E+00
 0.6544020305270E+00
 0.6811012994526E+00
 0.7041587459771E+00
 0.7214572761225E+00
 0.7307806225000E+00
 0.7304687339594E+00
 0.7201061307531E+00
 0.7012485388093E+00
 0.6781811867180E+00
 0.6584213923035E+00
 0.6531099489574E+00
 0.6797215681965E+00
 0.7661782784889E+00
 0.9479551006323E+00
 0.1251672346514E+01
 0.1672638199742E+01
 0.2158004312881E+01
 0.2606762303839E+01
 0.4732685055520E+00
 0.5157482001523E+00
 0.5493382303267E+00
 0.5809444326745E+00
 0.6126486736645E+00
 0.6431975223742E+00
 0.6701022317537E+00
 0.6906756250286E+00
 0.7025208322725E+00
 0.7041633011528E+00
 0.6959029358293E+00
 0.6807992603483E+00
 0.6651275643132E+00
 0.6582821105087E+00
 0.6751007403534E+00
 0.7414714416124E+00
 0.8968231558009E+00
 0.1181180011723E+01
 0.1605574805323E+01
 0.2120489137112E+01
 0.2601787820961E+01
 0.3959361408689E+00
 0.4368202626947E+00
 0.4701117216770E+00
 0.5044540748078E+00
 0.5418736220267E+00
 0.5806313046168E+00
 0.6179073245729E+00
 0.6506780005128E+00
 0.6759161705300E+00
 0.6911060367358E+00
 0.6952229064626E+00
 0.6899989910428E+00
 0.6803624419532E+00
 0.6738194975895E+00
 0.6821482660051E+00
 0.7275911191385E+00
 0.8507052713904E+00
 0.1105889765716E+01
 0.1527052118717E+01
 0.2076356801454E+01
 0.2599034048324E+01
 0.3151175829615E+00
 0.3535741397736E+00
 0.3865512949291E+00
 0.4242914475737E+00
 0.4681985548554E+00
 0.5158349343256E+00
 0.5641572907186E+00
 0.6100118698152E+00
 0.6499134722423E+00
 0.6803741806270E+00
 0.6990051966004E+00
 0.7061206487932E+00
 0.7051926660978E+00
 0.7017016620524E+00
 0.7040812869951E+00
 0.7295360393397E+00
 0.8156960686404E+00
 0.1029083133959E+01
 0.1436257035907E+01
 0.2021835109963E+01
 0.2629932051408E+01
 0.2300714389086E+00
 0.2650805310056E+00
 0.2979261251512E+00
 0.3400013258570E+00
 0.3912482838625E+00
 0.4483461300683E+00
 0.5082316972197E+00
 0.5679020501814E+00
 0.6236638839384E+00
 0.6712014971923E+00
 0.7067754379241E+00
 0.7292235689093E+00
 0.7404714431313E+00
 0.7438476980966E+00
 0.7442902164610E+00
 0.7531079215602E+00
 0.8005720582069E+00
 0.9583295549998E+00
 0.1332868214613E+01
 0.1959992232282E+01
 0.2673192479846E+01
 0.1398367708167E+00
 0.1701524290949E+00
 0.2034145100033E+00
 0.2511205274109E+00
 0.3105842887984E+00
 0.3775633894852E+00
 0.4493050851101E+00
 0.5232993111539E+00
 0.5959822805142E+00
 0.6624565320581E+00
 0.7177155094743E+00
 0.7590978463984E+00
 0.7869063134817E+00
 0.8021863947479E+00
 0.8063018286126E+00
 0.8043606128237E+00
 0.8157805583717E+00
 0.9054690605348E+00
 0.1219194864609E+01
 0.1883075330419E+01
 0.2731179697911E+01
 0.4323487234310E-01
 0.6736857026248E-01
 0.1022948678256E+00
 0.1573957136844E+00
 0.2258823082231E+00
 0.3029220055348E+00
 0.3865225953339E+00
 0.4750205440691E+00
 0.5654175507484E+00
 0.6526308139429E+00
 0.7305805066809E+00
 0.7951274747951E+00
 0.8448846962867E+00
 0.8784885267955E+00
 0.8937204920857E+00
 0.8897352218382E+00
 0.8733629906763E+00
 0.8894890482581E+00
 0.1103212794080E+01
 0.1778306041024E+01
 0.2808807636337E+01
 0.6244154754996E-01
 0.4540365885234E-01
 0.6590308769705E-02
 0.5895865722545E-01
 0.1369450117523E+00
 0.2239115327465E+00
 0.3190341565775E+00
 0.4217672550436E+00
 0.5302194491721E+00
 0.6397453132455E+00
 0.7435731494511E+00
 0.8361586081085E+00
 0.9143193395498E+00
 0.9741554796631E+00
 0.1009969317030E+01
 0.1015767585515E+01
 0.9864607580390E+00
 0.9369043508128E+00
 0.1008292662193E+01
 0.1630120348859E+01
 0.2911705358522E+01
 0.1789319673115E+00
 0.1696067905030E+00
 0.1209219242260E+00
 0.4440275171563E-01
 0.4372305710170E-01
 0.1401012976222E+00
 0.2460471568244E+00
 0.3621762447947E+00
 0.4883213710690E+00
 0.6212327447381E+00
 0.7541862041263E+00
 0.8803610261396E+00
 0.9945071401111E+00
 0.1089965934768E+01
 0.1157906639147E+01
 0.1188355812615E+01
 0.1168178319807E+01
 0.1080279309787E+01
 0.9895261842433E+00
 0.1427971921491E+01
 0.3044279277755E+01
 0.3120993760315E+00
 0.3075705628743E+00
 0.2406731675150E+00
 0.1507827260786E+00
 0.5438648694433E-01
 0.5119952569956E-01
 0.1668864556184E+00
 0.2949291449182E+00
 0.4373673541325E+00
 0.5937772879884E+00
 0.7589814117797E+00
 0.9250957604712E+00
 0.1084024859838E+01
 0.1225875685065E+01
 0.1339293355664E+01
 0.1412076134070E+01
 0.1427917895282E+01
 0.1355058976756E+01
 0.1143417000140E+01
 0.1212284119761E+01
 0.3204302523358E+01
 0.4722834351312E+00
 0.4579868637529E+00
 0.3605463573988E+00
 0.2610080785962E+00
 0.1565689890813E+00
 0.4310242153727E-01
 0.8105894901228E-01
 0.2189458949902E+00
 0.3748635454768E+00
 0.5530821482458E+00
 0.7532083757449E+00
 0.9668393198769E+00
 0.1180674869666E+01
 0.1380929767977E+01
 0.1554339381674E+01
 0.1689366093061E+01
 0.1768991780444E+01
 0.1779476736705E+01
 0.1605387850856E+01
 0.1247275999329E+01
 0.3370332171744E+01
 0.6858505506800E+00
 0.5984477127634E+00
 0.4792674180137E+00
 0.3753411070522E+00
 0.2628921798139E+00
 0.1427651024197E+00
 0.1168876135880E-01
 0.1336128694529E+00
 0.2986943064756E+00
 0.4935472696334E+00
 0.7299771336128E+00
 0.1001263164004E+01
 0.1281737909709E+01
 0.1552671718535E+01
 0.1802764884218E+01
 0.2017422621288E+01
 0.2193667601150E+01
 0.2323515908356E+01
 0.2483262889905E+01
 0.2177533236624E+01
 0.3849383728963E+01
 0.4697527097284E+00
 0.5703944154578E+00
 0.6558327133321E+00
 0.7119649435937E+00
 0.7350987924461E+00
 0.7245416116735E+00
 0.6839899405824E+00
 0.6204479470166E+00
 0.5362519504485E+00
 0.4244079653392E+00
 0.4492618294613E+00
 0.5737540631970E+00
 0.6784560018312E+00
 0.7509328444273E+00
 0.7873697350405E+00
 0.7871846531205E+00
 0.7536675744501E+00
 0.6925585135244E+00
 0.6007315939759E+00
 0.4762698768405E+00
 0.4303972838565E+00
 0.5817362964101E+00
 0.7058926997549E+00
 0.7939936962339E+00
 0.8432712023554E+00
 0.8536861509610E+00
 0.8280583332527E+00
 0.7695234554627E+00
 0.6756697558645E+00
 0.5511299169281E+00
 0.4135704087222E+00
 0.5930609332619E+00
 0.7369712271227E+00
 0.8403139213761E+00
 0.9023033923464E+00
 0.9237758842309E+00
 0.9070794324612E+00
 0.8542724191758E+00
 0.7643570007432E+00
 0.6414056530176E+00
 0.3987883439671E+00
 0.6070354810115E+00
 0.7705847624693E+00
 0.8889135175890E+00
 0.9636641919455E+00
 0.9968509851231E+00
 0.9908697158640E+00
 0.9473684572108E+00
 0.8653776111351E+00
 0.7469199663243E+00
 0.3860511719125E+00
 0.6229257699903E+00
 0.8056908108895E+00
 0.9386831879211E+00
 0.1026303830114E+01
 0.1072030696118E+01
 0.1078701922027E+01
 0.1047714643543E+01
 0.9776338060824E+00
 0.8680119587697E+00
 0.3753638194125E+00
 0.6399961847800E+00
 0.8412155940990E+00
 0.9884145336434E+00
 0.1088958126694E+01
 0.1147993205094E+01
 0.1169046248647E+01
 0.1153484497037E+01
 0.1099383578687E+01
 0.1004074869851E+01
 0.3667378794034E+00
 0.6575116100877E+00
 0.8760619983823E+00
 0.1036812093429E+01
 0.1150157099791E+01
 0.1223019920474E+01
 0.1259807554420E+01
 0.1262117763198E+01
 0.1227795853619E+01
 0.1152530742816E+01
 0.3601860383687E+00
 0.6747539153833E+00
 0.9091312463803E+00
 0.1082523169424E+01
 0.1208274694672E+01
 0.1295107599784E+01
 0.1348450896369E+01
 0.1370369641941E+01
 0.1358751103909E+01
 0.1308177024785E+01
 0.3557175671773E+00
 0.6910423212534E+00
 0.9393560968824E+00
 0.1124185386601E+01
 0.1261605636298E+01
 0.1362079069910E+01
 0.1432139560241E+01
 0.1474473910920E+01
 0.1487102011010E+01
 0.1463729504567E+01
 0.3533359548860E+00
 0.7057574554212E+00
 0.9657413687985E+00
 0.1160486283751E+01
 0.1308451223251E+01
 0.1421701943110E+01
 0.1507898681498E+01
 0.1570416018711E+01
 0.1607342626410E+01
 0.1611500760774E+01
 0.3530388212186E+00
 0.7183672701108E+00
 0.9874079754009E+00
 0.1190227451470E+01
 0.1347210072614E+01
 0.1471814894789E+01
 0.1572798625818E+01
 0.1654240741533E+01
 0.1714195677664E+01
 0.1744510300104E+01
 0.3548197523831E+00
 0.7284525278839E+00
 0.1003636157577E+01
 0.1212388460405E+01
 0.1376469707791E+01
 0.1510456777419E+01
 0.1624139510801E+01
 0.1722317711077E+01
 0.1802934257213E+01
 0.1856762099065E+01
 0.3586715469945E+00
 0.7357292511022E+00
 0.1013903877449E+01
 0.1226185992316E+01
 0.1395094145211E+01
 0.1535990161139E+01
 0.1659617312192E+01
 0.1771541442335E+01
 0.1869567925553E+01
 0.1943349089802E+01
 0.3645905574966E+00
 0.7400657020753E+00
 0.1017916291859E+01
 0.1231123144880E+01
 0.1402302045877E+01
 0.1547211875686E+01
 0.1677461258489E+01
 0.1799478987397E+01
 0.1910961692263E+01
 0.2000447131678E+01
 0.3725823906453E+00
 0.7414922923900E+00
 0.1015621648803E+01
 0.1227023133185E+01
 0.1397729639677E+01
 0.1543447355193E+01
 0.1676545387355E+01
 0.1804476270488E+01
 0.1924924422625E+01
 0.2025325646070E+01
 0.3826702224786E+00
 0.7402039309755E+00
 0.1007210056035E+01
 0.1214037134319E+01
 0.1381474274928E+01
 0.1524628183817E+01
 0.1656484469618E+01
 0.1785737090579E+01
 0.1910231204559E+01
 0.2016269903196E+01
 0.3949056025082E+00
 0.7365627695852E+00
 0.9930924351002E+00
 0.1192614140308E+01
 0.1354095860704E+01
 0.1491377530891E+01
 0.1617714915852E+01
 0.1743396737197E+01
 0.1866643863021E+01
 0.1972514707649E+01
 0.4093867681558E+00
 0.7310832087314E+00
 0.9739065399800E+00
 0.1163400839417E+01
 0.1316522238422E+01
 0.1445081210791E+01
 0.1561747131773E+01
 0.1678433963569E+01
 0.1795049188458E+01
 0.1895027538522E+01
 0.4262008014712E+00
 0.7246497326611E+00
 0.9504475713158E+00
 0.1127196193994E+01
 0.1269718552035E+01
 0.1387716367764E+01
 0.1491769153128E+01
 0.1593376090962E+01
 0.1696019436658E+01
 0.1790366436092E+01
 0.8304778499335E+00
 0.2506147619227E+00
 0.1258647508458E-01
 0.8176459146500E-01
 0.1178552383262E+00
 0.1240544228598E+00
 0.9997424678540E-01
 0.4809793509468E-01
 0.1427602464253E-01
 0.7864766944509E-01
 0.8780108397452E+00
 0.5719685633116E+00
 0.2075557860652E+00
 0.5159089916008E-01
 0.2510754798101E-01
 0.6096279381629E-01
 0.6177537695773E-01
 0.3238379573257E-01
 0.9236338521143E-02
 0.4984415261925E-01
 0.8130835412920E+00
 0.6597679321416E+00
 0.3911998389343E+00
 0.1987326132113E+00
 0.8421666167115E-01
 0.1903885179152E-01
 0.8551966676243E-02
 0.4656817434499E-02
 0.1240291197693E-01
 0.2952255639115E-01
 0.7455207440692E+00
 0.6711094046618E+00
 0.4892518305811E+00
 0.3213058583886E+00
 0.1946366655829E+00
 0.1085067040349E+00
 0.5711831287782E-01
 0.3523938045564E-01
 0.2803254746055E-01
 0.2226217327503E-01
 0.6852441044758E+00
 0.6557194585467E+00
 0.5403540137321E+00
 0.4097194133421E+00
 0.2930482486597E+00
 0.1996524262990E+00
 0.1316059423918E+00
 0.8774271144299E-01
 0.5875511658654E-01
 0.3189306252573E-01
 0.6339022270938E+00
 0.6328699706838E+00
 0.5675067208455E+00
 0.4747651196157E+00
 0.3777255821457E+00
 0.2882563184386E+00
 0.2123895108893E+00
 0.1529985254314E+00
 0.1069258904437E+00
 0.6123732059021E-01
 0.5904848360430E+00
 0.6108467724653E+00
 0.5844218816393E+00
 0.5266310929964E+00
 0.4530694558762E+00
 0.3745054526613E+00
 0.2984535638854E+00
 0.2307488593676E+00
 0.1736078403163E+00
 0.1124011105730E+00
 0.5535307744228E+00
 0.5931678660966E+00
 0.5989180801112E+00
 0.5730294647210E+00
 0.5242071081506E+00
 0.4607201800446E+00
 0.3898578154705E+00
 0.3195132831525E+00
 0.2571145577267E+00
 0.1855788568939E+00
 0.5215456449719E+00
 0.5809629584436E+00
 0.6152299819899E+00
 0.6191803183747E+00
 0.5955778480738E+00
 0.5496468263678E+00
 0.4875806836599E+00
 0.4169594439621E+00
 0.3507751706858E+00
 0.2776120648733E+00
 0.4932282760546E+00
 0.5737220011756E+00
 0.6352648396366E+00
 0.6683203603954E+00
 0.6706412348045E+00
 0.6438820309731E+00
 0.5927995565963E+00
 0.5246356000737E+00
 0.4484476278188E+00
 0.3741895035937E+00
 0.4510689794300E+00
 0.7242755875309E+00
 0.9263462162935E+00
 0.1083297977804E+01
 0.1208622696586E+01
 0.1312474825734E+01
 0.1403103211177E+01
 0.1492123347857E+01
 0.1589593580342E+01
 0.1705333459135E+01
 0.4772938513039E+00
 0.7243564266250E+00
 0.8974676222022E+00
 0.1026829379526E+01
 0.1127589684532E+01
 0.1210455029855E+01
 0.1283124849944E+01
 0.1362056871121E+01
 0.1470019853770E+01
 0.1598455723178E+01
 0.5023006125501E+00
 0.7182182522617E+00
 0.8568795761991E+00
 0.9525564582843E+00
 0.1022745282775E+01
 0.1078672748135E+01
 0.1129230894291E+01
 0.1196860662084E+01
 0.1308220998067E+01
 0.1451882899294E+01
 0.5278245662039E+00
 0.7069667030902E+00
 0.8044879581262E+00
 0.8608813130458E+00
 0.8959169384086E+00
 0.9211471460090E+00
 0.9465784789408E+00
 0.9978925480057E+00
 0.1106612018924E+01
 0.1271268562843E+01
 0.5549406589933E+00
 0.6911774993762E+00
 0.7398048153401E+00
 0.7520631648088E+00
 0.7496845046671E+00
 0.7433817856405E+00
 0.7432550256610E+00
 0.7759929031776E+00
 0.8771285642131E+00
 0.1061033161852E+01
 0.5845947356723E+00
 0.6697729141758E+00
 0.6603478637419E+00
 0.6254140198251E+00
 0.5872348374646E+00
 0.5530652515473E+00
 0.5316130696205E+00
 0.5473458382068E+00
 0.6352657675010E+00
 0.8292450163673E+00
 0.6173385060889E+00
 0.6383750669850E+00
 0.5597309381766E+00
 0.4788852080474E+00
 0.4128663941094E+00
 0.3605857171276E+00
 0.3270514586344E+00
 0.3313045332602E+00
 0.4008453009130E+00
 0.5894212412963E+00
 0.6517679254649E+00
 0.5849652967853E+00
 0.4252078533839E+00
 0.3100222119367E+00
 0.2349861590134E+00
 0.1791638445719E+00
 0.1459205114686E+00
 0.1484486983960E+00
 0.1979022132768E+00
 0.3627413144227E+00
 0.6805245951962E+00
 0.4763581679872E+00
 0.2332670313081E+00
 0.1304525808863E+00
 0.6886094797822E-01
 0.2221463785610E-01
 0.2171242051851E-02
 0.1583860975926E-01
 0.5285231432275E-01
 0.1809092031051E+00
 0.6253029492056E+00
 0.2043889268295E+00
 0.2385061712141E-01
 0.2889632175690E-01
 0.7091841860963E-01
 0.1005041107430E+00
 0.9922848048285E-01
 0.5809504256259E-01
 0.1718306680636E-01
 0.8938640494621E-01
 0.3207532042116E+00
 0.2299745631921E+00
 0.1584887487721E+00
 0.1037136346206E+00
 0.6593578546370E-01
 0.4591551481097E-01
 0.4360685955254E-01
 0.5778721555641E-01
 0.8590056590291E-01
 0.1265896719093E+00
 0.3784572383570E+00
 0.2865736023517E+00
 0.1957792457030E+00
 0.1198144803528E+00
 0.6456141294260E-01
 0.3296923670766E-01
 0.2600030877862E-01
 0.4346775189867E-01
 0.8254908824892E-01
 0.1383763593484E+00
 0.4425013998317E+00
 0.3446050227214E+00
 0.2440007428372E+00
 0.1522585715087E+00
 0.7905754334314E-01
 0.3129318157639E-01
 0.1281799673144E-01
 0.2511735706711E-01
 0.6878678496246E-01
 0.1367632916729E+00
 0.5230594887685E+00
 0.4152042265795E+00
 0.3042181999535E+00
 0.1979906991552E+00
 0.1062033865922E+00
 0.3861597346577E-01
 0.8933439061424E-02
 0.4375398782708E-02
 0.4561370895455E-01
 0.1259654822129E+00
 0.6234684653732E+00
 0.5068198471550E+00
 0.3851907886504E+00
 0.2641246878311E+00
 0.1521909769773E+00
 0.6019151141269E-01
 0.1438272823453E-01
 0.2525535137777E-01
 0.1237732488509E-01
 0.1075918510479E+00
 0.7458214785985E+00
 0.6256635466716E+00
 0.4972920207471E+00
 0.3643175520812E+00
 0.2335430188782E+00
 0.1149022514245E+00
 0.2621056951562E-01
 0.3889756765900E-01
 0.2525701652467E-01
 0.7882385801123E-01
 0.8908269034634E+00
 0.7754338752925E+00
 0.6487593685611E+00
 0.5126081401328E+00
 0.3715906212304E+00
 0.2333860086192E+00
 0.1101423478045E+00
 0.2679090338159E-01
 0.2350565925341E-01
 0.6451409947638E-01
 0.1056271810948E+01
 0.9551378857783E+00
 0.8413474418763E+00
 0.7155666243724E+00
 0.5806586509402E+00
 0.4420654384463E+00
 0.3088129725629E+00
 0.1956116322891E+00
 0.1269068514782E+00
 0.1524414782492E+00
 0.1234964616017E+01
 0.1155185108262E+01
 0.1062823751187E+01
 0.9577926905464E+00
 0.8414599971057E+00
 0.7169511842732E+00
 0.5896205766167E+00
 0.4677725150822E+00
 0.3635935578028E+00
 0.2915776811434E+00
 0.1416286006822E+01
 0.1360672113575E+01
 0.1292705893945E+01
 0.1211175306120E+01
 0.1115430909449E+01
 0.1005415220632E+01
 0.8814393106442E+00
 0.7433283920135E+00
 0.5876673645899E+00
 0.3971553277648E+00
 0.1589427216542E+01
 0.1557215207398E+01
 0.1512226790643E+01
 0.1451525028551E+01
 0.1371806192136E+01
 0.1269142025713E+01
 0.1138300288556E+01
 0.9712671797337E+00
 0.7539617227524E+00
 0.4634736139572E+00
 0.1745151341270E+01
 0.1733394823995E+01
 0.1707735956292E+01
 0.1663197392318E+01
 0.1593661934644E+01
 0.1491458503933E+01
 0.1346658303669E+01
 0.1146036861257E+01
 0.8722606021476E+00
 0.5081984772853E+00
 0.1875999240823E+01
 0.1880576698163E+01
 0.1869750359484E+01
 0.1836602100488E+01
 0.1772612560935E+01
 0.1667197925872E+01
 0.1507198324989E+01
 0.1276733037183E+01
 0.9584917654657E+00
 0.5409004715193E+00
 0.1976379892370E+01
 0.1992621150169E+01
 0.1991922728913E+01
 0.1965884992608E+01
 0.1904445396814E+01
 0.1795335759593E+01
 0.1623644763132E+01
 0.1372071203642E+01
 0.1022977527066E+01
 0.5666955752368E+00
 0.2042411783401E+01
 0.2065341629700E+01
 0.2069893342936E+01
 0.2046890925877E+01
 0.1985898658447E+01
 0.1874460702287E+01
 0.1697346539377E+01
 0.1436374269219E+01
 0.1071785596555E+01
 0.5900944001313E+00
 0.2071693961134E+01
 0.2095954456109E+01
 0.2100276314629E+01
 0.2075473354926E+01
 0.2012213696908E+01
 0.1899572610464E+01
 0.1723735166935E+01
 0.1466794194203E+01
 0.1105996798121E+01
 0.6173946264096E+00
 0.2063347313901E+01
 0.2083197227344E+01
 0.2080327389190E+01
 0.2046683377273E+01
 0.1975681973368E+01
 0.1859707460793E+01
 0.1688288116268E+01
 0.1446515090427E+01
 0.1111701735219E+01
 0.6488532685799E+00
 0.2018270758303E+01
 0.2026984739321E+01
 0.2006844477176E+01
 0.1952982623918E+01
 0.1863985992114E+01
 0.1736060363808E+01
 0.1563481718877E+01
 0.1338426333314E+01
 0.1047600920665E+01
 0.6614542179621E+00
 0.1939991833744E+01
 0.1927107709084E+01
 0.1872745438564E+01
 0.1785191610745E+01
 0.1665592357877E+01
 0.1512452756315E+01
 0.1324841919787E+01
 0.1103916422691E+01
 0.8554751884986E+00
 0.5867065842836E+00
 0.1832177099255E+01
 0.1769182075286E+01
 0.1671708753336E+01
 0.1544950281949E+01
 0.1387319007017E+01
 0.1199172471897E+01
 0.9831314561082E+00
 0.7467632871493E+00
 0.5080506126593E+00
 0.3210676629785E+00
</DataArray>
<DataArray type="Float64" Name="CK" NumberOfComponents="1" ComponentName0="CK" format="ascii">
 0.0000000000000E+00
 0.0000000000000E+00
 0.0000000000000E+00
 0.0000000000000E+00
 0.0000000000000E+00
 0.0000000000000E+00
 0.0000000000000E+00
 0.0000000000000E+00
 0.0000000000000E+00
 0.0000000000000E+00
 0.0000000000000E+00
 0.0000000000000E+00
 0.0000000000000E+00
 0.0000000000000E+00
 0.0000000000000E+00
 0.0000000000000E+00
 0.0000000000000E+00
 0.0000000000000E+00
 0.0000000000000E+00
 0.0000000000000E+00
 0.0000000000000E+00
 0.0000000000000E+00
 0.0000000000000E+00
 0.0000000000000E+00
 0.0000000000000E+00
 0.0000000000000E+00
 0.0000000000000E+00
 0.0000000000000E+00
 0.0000000000000E+00
 0.0000000000000E+00
 0.0000000000000E+00
 0.0000000000000E+00
 0.0000000000000E+00
 0.0000000000000E+00
 0.0000000000000E+00
 0.0000000000000E+00
 0.0000000000000E+00
 0.0000000000000E+00
 0.0000000000000E+00
 0.0000000000000E+00
 0.0000000000000E+00
 0.0000000000000E+00
 0.0000000000000E+00
 0.0000000000000E+00
 0.0000000000000E+00
 0.0000000000000E+00
 0.0000000000000E+00
 0.0000000000000E+00
 0.0000000000000E+00
 0.0000000000000E+00
 0.0000000000000E+00
 0.0000000000000E+00
 0.0000000000000E+00
 0.0000000000000E+00
 0.0000000000000E+00
 0.0000000000000E+00
 0.0000000000000E+00
 0.0000000000000E+00
 0.0000000000000E+00
 0.0000000000000E+00
 0.0000000000000E+00
 0.0000000000000E+00
 0.0000000000000E+00
 0.0000000000000E+00
 0.0000000000000E+00
 0.0000000000000E+00
 0.0000000000000E+00
 0.0000000000000E+00
 0.0000000000000E+00
 0.0000000000000E+00
 0.0000000000000E+00
 0.0000000000000E+00
 0.0000000000000E+00
 0.0000000000000E+00
 0.0000000000000E+00
 0.0000000000000E+00
 0.0000000000000E+00
 0.0000000000000E+00
 0.0000000000000E+00
 0.0000000000000E+00
 0.0000000000000E+00
 0.0000000000000E+00
 0.0000000000000E+00
 0.0000000000000E+00
 0.0000000000000E+00
 0.0000000000000E+00
 0.0000000000000E+00
 0.0000000000000E+00
 0.0000000000000E+00
 0.0000000000000E+00
 0.0000000000000E+00
 0.0000000000000E+00
 0.0000000000000E+00
 0.0000000000000E+00
 0.0000000000000E+00
 0.0000000000000E+00
 0.0000000000000E+00
 0.0000000000000E+00
 0.0000000000000E+00
 0.0000000000000E+00
 0.0000000000000E+00
 0.0000000000000E+00
 0.0000000000000E+00
 0.0000000000000E+00
 0.0000000000000E+00
 0.0000000000000E+00
 0.0000000000000E+00
 0.0000000000000E+00
 0.0000000000000E+00
 0.0000000000000E+00
 0.0000000000000E+00
 0.0000000000000E+00
 0.0000000000000E+00
 0.0000000000000E+00
 0.0000000000000E+00
 0.0000000000000E+00
 0.0000000000000E+00
 0.0000000000000E+00
 0.0000000000000E+00
 0.0000000000000E+00
 0.0000000000000E+00
 0.0000000000000E+00
 0.0000000000000E+00
 0.0000000000000E+00
 0.0000000000000E+00
 0.0000000000000E+00
 0.0000000000000E+00
 0.0000000000000E+00
 0.0000000000000E+00
 0.0000000000000E+00
 0.0000000000000E+00
 0.0000000000000E+00
 0.0000000000000E+00
 0.0000000000000E+00
 0.0000000000000E+00
 0.0000000000000E+00
 0.0000000000000E+00
 0.0000000000000E+00
 0.0000000000000E+00
 0.0000000000000E+00
 0.0000000000000E+00
 0.0000000000000E+00
 0.0000000000000E+00
 0.0000000000000E+00
 0.0000000000000E+00
 0.0000000000000E+00
 0.0000000000000E+00
 0.0000000000000E+00
 0.0000000000000E+00
 0.0000000000000E+00
 0.0000000000000E+00
 0.0000000000000E+00
 0.0000000000000E+00
 0.0000000000000E+00
 0.0000000000000E+00
 0.0000000000000E+00
 0.0000000000000E+00
 0.0000000000000E+00
 0.0000000000000E+00
 0.0000000000000E+00
 0.0000000000000E+00
 0.0000000000000E+00
 0.0000000000000E+00
 0.0000000000000E+00
 0.0000000000000E+00
 0.0000000000000E+00
 0.0000000000000E+00
 0.0000000000000E+00
 0.0000000000000E+00
 0.0000000000000E+00
 0.0000000000000E+00
 0.0000000000000E+00
 0.0000000000000E+00
 0.0000000000000E+00
 0.0000000000000E+00
 0.0000000000000E+00
 0.0000000000000E+00
 0.0000000000000E+00
 0.0000000000000E+00
 0.0000000000000E+00
 0.0000000000000E+00
 0.0000000000000E+00
 0.0000000000000E+00
 0.0000000000000E+00
 0.0000000000000E+00
 0.0000000000000E+00
 0.0000000000000E+00
 0.0000000000000E+00
 0.0000000000000E+00
 0.0000000000000E+00
 0.0000000000000E+00
 0.0000000000000E+00
 0.0000000000000E+00
 0.0000000000000E+00
 0.0000000000000E+00
 0.0000000000000E+00
 0.0000000000000E+00
 0.0000000000000E+00
 0.0000000000000E+00
 0.0000000000000E+00
 0.0000000000000E+00
 0.0000000000000E+00
 0.0000000000000E+00
 0.0000000000000E+00
 0.0000000000000E+00
 0.0000000000000E+00
 0.0000000000000E+00
 0.0000000000000E+00
 0.0000000000000E+00
 0.0000000000000E+00
 0.0000000000000E+00
 0.0000000000000E+00
 0.0000000000000E+00
 0.0000000000000E+00
 0.0000000000000E+00
 0.0000000000000E+00
 0.0000000000000E+00
 0.0000000000000E+00
 0.0000000000000E+00
 0.0000000000000E+00
 0.0000000000000E+00
 0.0000000000000E+00
 0.0000000000000E+00
 0.0000000000000E+00
 0.0000000000000E+00
 0.0000000000000E+00
 0.0000000000000E+00
 0.0000000000000E+00
 0.0000000000000E+00
 0.0000000000000E+00
 0.0000000000000E+00
 0.0000000000000E+00
 0.0000000000000E+00
 0.0000000000000E+00
 0.0000000000000E+00
 0.0000000000000E+00
 0.0000000000000E+00
 0.0000000000000E+00
 0.0000000000000E+00
 0.0000000000000E+00
 0.0000000000000E+00
 0.0000000000000E+00
 0.0000000000000E+00
 0.0000000000000E+00
 0.0000000000000E+00
 0.0000000000000E+00
 0.0000000000000E+00
 0.0000000000000E+00
 0.0000000000000E+00
 0.0000000000000E+00
 0.0000000000000E+00
 0.0000000000000E+00
 0.0000000000000E+00
 0.0000000000000E+00
 0.0000000000000E+00
 0.0000000000000E+00
 0.0000000000000E+00
 0.0000000000000E+00
 0.0000000000000E+00
 0.0000000000000E+00
 0.0000000000000E+00
 0.0000000000000E+00
 0.0000000000000E+00
 0.0000000000000E+00
 0.0000000000000E+00
 0.0000000000000E+00
 0.0000000000000E+00
 0.0000000000000E+00
 0.0000000000000E+00
 0.0000000000000E+00
 0.0000000000000E+00
 0.0000000000000E+00
 0.0000000000000E+00
 0.0000000000000E+00
 0.0000000000000E+00
 0.0000000000000E+00
 0.0000000000000E+00
 0.0000000000000E+00
 0.0000000000000E+00
 0.0000000000000E+00
 0.0000000000000E+00
 0.0000000000000E+00
 0.0000000000000E+00
 0.0000000000000E+00
 0.0000000000000E+00
 0.0000000000000E+00
 0.0000000000000E+00
 0.0000000000000E+00
 0.0000000000000E+00
 0.0000000000000E+00
 0.0000000000000E+00
 0.0000000000000E+00
 0.0000000000000E+00
 0.0000000000000E+00
 0.0000000000000E+00
 0.0000000000000E+00
 0.0000000000000E+00
 0.0000000000000E+00
 0.0000000000000E+00
 0.0000000000000E+00
 0.0000000000000E+00
 0.0000000000000E+00
 0.0000000000000E+00
 0.0000000000000E+00
 0.0000000000000E+00
 0.0000000000000E+00
 0.0000000000000E+00
 0.0000000000000E+00
 0.0000000000000E+00
 0.0000000000000E+00
 0.0000000000000E+00
 0.0000000000000E+00
 0.0000000000000E+00
 0.0000000000000E+00
 0.0000000000000E+00
 0.0000000000000E+00
 0.0000000000000E+00
 0.0000000000000E+00
 0.0000000000000E+00
 0.0000000000000E+00
 0.0000000000000E+00
 0.0000000000000E+00
 0.0000000000000E+00
 0.0000000000000E+00
 0.0000000000000E+00
 0.0000000000000E+00
 0.0000000000000E+00
 0.0000000000000E+00
 0.0000000000000E+00
 0.0000000000000E+00
 0.0000000000000E+00
 0.0000000000000E+00
 0.0000000000000E+00
 0.0000000000000E+00
 0.0000000000000E+00
 0.0000000000000E+00
 0.0000000000000E+00
 0.0000000000000E+00
 0.0000000000000E+00
 0.0000000000000E+00
 0.0000000000000E+00
 0.0000000000000E+00
 0.0000000000000E+00
 0.0000000000000E+00
 0.0000000000000E+00
 0.0000000000000E+00
 0.0000000000000E+00
 0.0000000000000E+00
 0.0000000000000E+00
 0.0000000000000E+00
 0.0000000000000E+00
 0.0000000000000E+00
 0.0000000000000E+00
 0.0000000000000E+00
 0.0000000000000E+00
 0.0000000000000E+00
 0.0000000000000E+00
 0.0000000000000E+00
 0.0000000000000E+00
 0.0000000000000E+00
 0.0000000000000E+00
 0.0000000000000E+00
 0.0000000000000E+00
 0.0000000000000E+00
 0.0000000000000E+00
 0.0000000000000E+00
 0.0000000000000E+00
 0.0000000000000E+00
 0.0000000000000E+00
 0.0000000000000E+00
 0.0000000000000E+00
 0.0000000000000E+00
 0.0000000000000E+00
 0.0000000000000E+00
 0.0000000000000E+00
 0.0000000000000E+00
 0.0000000000000E+00
 0.0000000000000E+00
 0.0000000000000E+00
 0.0000000000000E+00
 0.0000000000000E+00
 0.0000000000000E+00
 0.0000000000000E+00
 0.0000000000000E+00
 0.0000000000000E+00
 0.0000000000000E+00
 0.0000000000000E+00
 0.0000000000000E+00
 0.0000000000000E+00
 0.0000000000000E+00
 0.0000000000000E+00
 0.0000000000000E+00
 0.0000000000000E+00
 0.0000000000000E+00
 0.0000000000000E+00
 0.0000000000000E+00
 0.0000000000000E+00
 0.0000000000000E+00
 0.0000000000000E+00
 0.0000000000000E+00
 0.0000000000000E+00
 0.0000000000000E+00
 0.0000000000000E+00
 0.0000000000000E+00
 0.0000000000000E+00
 0.0000000000000E+00
 0.0000000000000E+00
 0.0000000000000E+00
 0.0000000000000E+00
 0.0000000000000E+00
 0.0000000000000E+00
 0.0000000000000E+00
 0.0000000000000E+00
 0.0000000000000E+00
 0.0000000000000E+00
 0.0000000000000E+00
 0.0000000000000E+00
 0.0000000000000E+00
 0.0000000000000E+00
 0.0000000000000E+00
 0.0000000000000E+00
 0.0000000000000E+00
 0.0000000000000E+00
 0.0000000000000E+00
 0.0000000000000E+00
 0.0000000000000E+00
 0.0000000000000E+00
 0.0000000000000E+00
 0.0000000000000E+00
 0.0000000000000E+00
 0.0000000000000E+00
 0.0000000000000E+00
 0.0000000000000E+00
 0.0000000000000E+00
 0.0000000000000E+00
 0.0000000000000E+00
 0.0000000000000E+00
 0.0000000000000E+00
 0.0000000000000E+00
 0.0000000000000E+00
 0.0000000000000E+00
 0.0000000000000E+00
 0.0000000000000E+00
 0.0000000000000E+00
 0.0000000000000E+00
 0.0000000000000E+00
 0.0000000000000E+00
 0.0000000000000E+00
 0.0000000000000E+00
 0.0000000000000E+00
 0.0000000000000E+00
 0.0000000000000E+00
 0.0000000000000E+00
 0.0000000000000E+00
 0.0000000000000E+00
 0.0000000000000E+00
 0.0000000000000E+00
 0.0000000000000E+00
 0.0000000000000E+00
 0.0000000000000E+00
 0.0000000000000E+00
 0.0000000000000E+00
 0.0000000000000E+00
 0.0000000000000E+00
 0.0000000000000E+00
 0.0000000000000E+00
 0.0000000000000E+00
 0.0000000000000E+00
 0.0000000000000E+00
 0.0000000000000E+00
 0.0000000000000E+00
 0.0000000000000E+00
 0.0000000000000E+00
 0.0000000000000E+00
 0.0000000000000E+00
 0.0000000000000E+00
 0.0000000000000E+00
 0.0000000000000E+00
 0.0000000000000E+00
 0.0000000000000E+00
 0.0000000000000E+00
 0.0000000000000E+00
 0.0000000000000E+00
 0.0000000000000E+00
 0.0000000000000E+00
 0.0000000000000E+00
 0.0000000000000E+00
 0.0000000000000E+00
 0.0000000000000E+00
 0.0000000000000E+00
 0.0000000000000E+00
 0.0000000000000E+00
 0.0000000000000E+00
 0.0000000000000E+00
 0.0000000000000E+00
 0.0000000000000E+00
 0.0000000000000E+00
 0.0000000000000E+00
 0.0000000000000E+00
 0.0000000000000E+00
 0.0000000000000E+00
 0.0000000000000E+00
 0.0000000000000E+00
 0.0000000000000E+00
 0.0000000000000E+00
 0.0000000000000E+00
 0.0000000000000E+00
 0.0000000000000E+00
 0.0000000000000E+00
 0.0000000000000E+00
 0.0000000000000E+00
 0.0000000000000E+00
 0.0000000000000E+00
 0.0000000000000E+00
 0.0000000000000E+00
 0.0000000000000E+00
 0.0000000000000E+00
 0.0000000000000E+00
 0.0000000000000E+00
 0.0000000000000E+00
 0.0000000000000E+00
 0.0000000000000E+00
 0.0000000000000E+00
 0.0000000000000E+00
 0.0000000000000E+00
 0.0000000000000E+00
 0.0000000000000E+00
 0.0000000000000E+00
 0.0000000000000E+00
 0.0000000000000E+00
 0.0000000000000E+00
 0.0000000000000E+00
 0.0000000000000E+00
 0.0000000000000E+00
 0.0000000000000E+00
 0.0000000000000E+00
 0.0000000000000E+00
 0.0000000000000E+00
 0.0000000000000E+00
 0.0000000000000E+00
 0.0000000000000E+00
 0.0000000000000E+00
 0.0000000000000E+00
 0.0000000000000E+00
 0.0000000000000E+00
 0.0000000000000E+00
 0.0000000000000E+00
 0.0000000000000E+00
 0.0000000000000E+00
 0.0000000000000E+00
 0.0000000000000E+00
 0.0000000000000E+00
 0.0000000000000E+00
 0.0000000000000E+00
 0.0000000000000E+00
 0.0000000000000E+00
 0.0000000000000E+00
 0.0000000000000E+00
 0.0000000000000E+00
 0.0000000000000E+00
 0.0000000000000E+00
 0.0000000000000E+00
 0.0000000000000E+00
 0.0000000000000E+00
 0.0000000000000E+00
 0.0000000000000E+00
 0.0000000000000E+00
 0.0000000000000E+00
 0.0000000000000E+00
 0.0000000000000E+00
 0.0000000000000E+00
 0.0000000000000E+00
 0.0000000000000E+00
 0.0000000000000E+00
 0.0000000000000E+00
 0.0000000000000E+00
 0.0000000000000E+00
 0.0000000000000E+00
 0.0000000000000E+00
 0.0000000000000E+00
 0.0000000000000E+00
 0.0000000000000E+00
 0.0000000000000E+00
 0.0000000000000E+00
 0.0000000000000E+00
 0.0000000000000E+00
 0.0000000000000E+00
 0.0000000000000E+00
 0.0000000000000E+00
 0.0000000000000E+00
 0.0000000000000E+00
 0.0000000000000E+00
 0.0000000000000E+00
 0.0000000000000E+00
 0.0000000000000E+00
 0.0000000000000E+00
 0.0000000000000E+00
 0.0000000000000E+00
 0.0000000000000E+00
 0.0000000000000E+00
 0.0000000000000E+00
 0.0000000000000E+00
 0.0000000000000E+00
 0.0000000000000E+00
 0.0000000000000E+00
 0.0000000000000E+00
 0.0000000000000E+00
 0.0000000000000E+00
 0.0000000000000E+00
 0.0000000000000E+00
 0.0000000000000E+00
 0.0000000000000E+00
 0.0000000000000E+00
 0.0000000000000E+00
 0.0000000000000E+00
 0.0000000000000E+00
 0.0000000000000E+00
 0.0000000000000E+00
 0.0000000000000E+00
 0.0000000000000E+00
 0.0000000000000E+00
 0.0000000000000E+00
 0.0000000000000E+00
 0.0000000000000E+00
 0.0000000000000E+00
 0.0000000000000E+00
 0.0000000000000E+00
 0.0000000000000E+00
 0.0000000000000E+00
 0.0000000000000E+00
 0.0000000000000E+00
 0.0000000000000E+00
 0.0000000000000E+00
 0.0000000000000E+00
 0.0000000000000E+00
 0.0000000000000E+00
 0.0000000000000E+00
 0.0000000000000E+00
 0.0000000000000E+00
 0.0000000000000E+00
 0.0000000000000E+00
 0.0000000000000E+00
 0.0000000000000E+00
 0.0000000000000E+00
 0.0000000000000E+00
 0.0000000000000E+00
 0.0000000000000E+00
 0.0000000000000E+00
 0.0000000000000E+00
 0.0000000000000E+00
 0.0000000000000E+00
 0.0000000000000E+00
 0.0000000000000E+00
 0.0000000000000E+00
 0.0000000000000E+00
 0.0000000000000E+00
 0.0000000000000E+00
 0.0000000000000E+00
 0.0000000000000E+00
 0.0000000000000E+00
 0.0000000000000E+00
 0.0000000000000E+00
 0.0000000000000E+00
 0.0000000000000E+00
 0.0000000000000E+00
 0.0000000000000E+00
 0.0000000000000E+00
 0.0000000000000E+00
 0.0000000000000E+00
 0.0000000000000E+00
 0.0000000000000E+00
 0.0000000000000E+00
 0.0000000000000E+00
 0.0000000000000E+00
 0.0000000000000E+00
 0.0000000000000E+00
 0.0000000000000E+00
 0.0000000000000E+00
 0.0000000000000E+00
 0.0000000000000E+00
 0.0000000000000E+00
 0.0000000000000E+00
 0.0000000000000E+00
 0.0000000000000E+00
 0.0000000000000E+00
 0.0000000000000E+00
 0.0000000000000E+00
 0.0000000000000E+00
 0.0000000000000E+00
 0.0000000000000E+00
 0.0000000000000E+00
 0.0000000000000E+00
 0.0000000000000E+00
 0.0000000000000E+00
 0.0000000000000E+00
 0.0000000000000E+00
 0.0000000000000E+00
 0.0000000000000E+00
 0.0000000000000E+00
 0.0000000000000E+00
 0.0000000000000E+00
 0.0000000000000E+00
 0.0000000000000E+00
 0.0000000000000E+00
 0.0000000000000E+00
 0.0000000000000E+00
 0.0000000000000E+00
 0.0000000000000E+00
 0.0000000000000E+00
 0.0000000000000E+00
 0.0000000000000E+00
 0.0000000000000E+00
 0.0000000000000E+00
 0.0000000000000E+00
 0.0000000000000E+00
 0.0000000000000E+00
 0.0000000000000E+00
 0.0000000000000E+00
 0.0000000000000E+00
 0.0000000000000E+00
 0.0000000000000E+00
 0.0000000000000E+00
 0.0000000000000E+00
 0.0000000000000E+00
 0.0000000000000E+00
 0.0000000000000E+00
 0.0000000000000E+00
 0.0000000000000E+00
 0.0000000000000E+00
 0.0000000000000E+00
 0.0000000000000E+00
 0.0000000000000E+00
 0.0000000000000E+00
 0.0000000000000E+00
 0.0000000000000E+00
 0.0000000000000E+00
 0.0000000000000E+00
 0.0000000000000E+00
 0.0000000000000E+00
 0.0000000000000E+00
 0.0000000000000E+00
 0.0000000000000E+00
 0.0000000000000E+00
 0.0000000000000E+00
 0.0000000000000E+00
 0.0000000000000E+00
 0.0000000000000E+00
 0.0000000000000E+00
 0.0000000000000E+00
 0.0000000000000E+00
 0.0000000000000E+00
 0.0000000000000E+00
 0.0000000000000E+00
 0.0000000000000E+00
 0.0000000000000E+00
 0.0000000000000E+00
 0.0000000000000E+00
 0.0000000000000E+00
 0.0000000000000E+00
 0.0000000000000E+00
 0.0000000000000E+00
 0.0000000000000E+00
 0.0000000000000E+00
 0.0000000000000E+00
 0.0000000000000E+00
 0.0000000000000E+00
 0.0000000000000E+00
 0.0000000000000E+00
 0.0000000000000E+00
 0.0000000000000E+00
 0.0000000000000E+00
 0.0000000000000E+00
 0.0000000000000E+00
 0.0000000000000E+00
 0.0000000000000E+00
 0.0000000000000E+00
 0.0000000000000E+00
 0.0000000000000E+00
 0.0000000000000E+00
 0.0000000000000E+00
 0.0000000000000E+00
 0.0000000000000E+00
 0.0000000000000E+00
 0.0000000000000E+00
 0.0000000000000E+00
 0.0000000000000E+00
 0.0000000000000E+00
 0.0000000000000E+00
 0.0000000000000E+00
 0.0000000000000E+00
 0.0000000000000E+00
 0.0000000000000E+00
 0.0000000000000E+00
 0.0000000000000E+00
 0.0000000000000E+00
 0.0000000000000E+00
 0.0000000000000E+00
 0.0000000000000E+00
 0.0000000000000E+00
 0.0000000000000E+00
 0.0000000000000E+00
 0.0000000000000E+00
 0.0000000000000E+00
 0.0000000000000E+00
 0.0000000000000E+00
 0.0000000000000E+00
 0.0000000000000E+00
 0.0000000000000E+00
 0.0000000000000E+00
 0.0000000000000E+00
 0.0000000000000E+00
 0.0000000000000E+00
 0.0000000000000E+00
 0.0000000000000E+00
 0.0000000000000E+00
 0.0000000000000E+00
 0.0000000000000E+00
 0.0000000000000E+00
 0.0000000000000E+00
 0.0000000000000E+00
 0.0000000000000E+00
 0.0000000000000E+00
 0.0000000000000E+00
 0.0000000000000E+00
 0.0000000000000E+00
 0.0000000000000E+00
 0.0000000000000E+00
 0.0000000000000E+00
 0.0000000000000E+00
 0.0000000000000E+00
 0.0000000000000E+00
 0.0000000000000E+00
 0.0000000000000E+00
 0.0000000000000E+00
 0.0000000000000E+00
 0.0000000000000E+00
 0.0000000000000E+00
 0.0000000000000E+00
 0.0000000000000E+00
 0.0000000000000E+00
 0.0000000000000E+00
 0.0000000000000E+00
 0.0000000000000E+00
 0.0000000000000E+00
 0.0000000000000E+00
 0.0000000000000E+00
 0.0000000000000E+00
 0.0000000000000E+00
 0.0000000000000E+00
 0.0000000000000E+00
 0.0000000000000E+00
 0.0000000000000E+00
 0.0000000000000E+00
 0.0000000000000E+00
 0.0000000000000E+00
 0.0000000000000E+00
 0.0000000000000E+00
 0.0000000000000E+00
 0.0000000000000E+00
 0.0000000000000E+00
 0.0000000000000E+00
 0.0000000000000E+00
 0.0000000000000E+00
 0.0000000000000E+00
 0.0000000000000E+00
 0.0000000000000E+00
 0.0000000000000E+00
 0.0000000000000E+00
 0.0000000000000E+00
 0.0000000000000E+00
 0.0000000000000E+00
 0.0000000000000E+00
 0.0000000000000E+00
 0.0000000000000E+00
 0.0000000000000E+00
 0.0000000000000E+00
 0.0000000000000E+00
 0.0000000000000E+00
 0.0000000000000E+00
 0.0000000000000E+00
 0.0000000000000E+00
 0.0000000000000E+00
 0.0000000000000E+00
 0.0000000000000E+00
 0.0000000000000E+00
 0.0000000000000E+00
 0.0000000000000E+00
 0.0000000000000E+00
 0.0000000000000E+00
 0.0000000000000E+00
 0.0000000000000E+00
 0.0000000000000E+00
 0.0000000000000E+00
 0.0000000000000E+00
 0.0000000000000E+00
 0.0000000000000E+00
 0.0000000000000E+00
 0.0000000000000E+00
 0.0000000000000E+00
 0.0000000000000E+00
 0.0000000000000E+00
 0.0000000000000E+00
 0.0000000000000E+00
 0.0000000000000E+00
 0.0000000000000E+00
 0.0000000000000E+00
 0.0000000000000E+00
 0.0000000000000E+00
 0.0000000000000E+00
 0.0000000000000E+00
 0.0000000000000E+00
 0.0000000000000E+00
 0.0000000000000E+00
 0.0000000000000E+00
 0.0000000000000E+00
 0.0000000000000E+00
 0.0000000000000E+00
 0.0000000000000E+00
 0.0000000000000E+00
 0.0000000000000E+00
 0.0000000000000E+00
 0.0000000000000E+00
 0.0000000000000E+00
 0.0000000000000E+00
 0.0000000000000E+00
 0.0000000000000E+00
 0.0000000000000E+00
 0.0000000000000E+00
 0.0000000000000E+00
 0.0000000000000E+00
 0.0000000000000E+00
 0.0000000000000E+00
 0.0000000000000E+00
 0.0000000000000E+00
 0.0000000000000E+00
 0.0000000000000E+00
 0.0000000000000E+00
 0.0000000000000E+00
 0.0000000000000E+00
 0.0000000000000E+00
 0.0000000000000E+00
 0.0000000000000E+00
 0.0000000000000E+00
 0.0000000000000E+00
 0.0000000000000E+00
 0.0000000000000E+00
 0.0000000000000E+00
 0.0000000000000E+00
 0.0000000000000E+00
 0.0000000000000E+00
 0.0000000000000E+00
 0.0000000000000E+00
 0.0000000000000E+00
 0.0000000000000E+00
 0.0000000000000E+00
 0.0000000000000E+00
 0.0000000000000E+00
 0.0000000000000E+00
 0.0000000000000E+00
 0.0000000000000E+00
 0.0000000000000E+00
 0.0000000000000E+00
 0.0000000000000E+00
 0.0000000000000E+00
 0.0000000000000E+00
 0.0000000000000E+00
 0.0000000000000E+00
 0.0000000000000E+00
 0.0000000000000E+00
 0.0000000000000E+00
 0.0000000000000E+00
 0.0000000000000E+00
 0.0000000000000E+00
 0.0000000000000E+00
 0.0000000000000E+00
 0.0000000000000E+00
 0.0000000000000E+00
 0.0000000000000E+00
 0.0000000000000E+00
 0.0000000000000E+00
 0.0000000000000E+00
 0.0000000000000E+00
 0.0000000000000E+00
 0.0000000000000E+00
 0.0000000000000E+00
 0.0000000000000E+00
 0.0000000000000E+00
 0.0000000000000E+00
 0.0000000000000E+00
 0.0000000000000E+00
 0.0000000000000E+00
 0.0000000000000E+00
 0.0000000000000E+00
 0.0000000000000E+00
 0.0000000000000E+00
 0.0000000000000E+00
 0.0000000000000E+00
 0.0000000000000E+00
 0.0000000000000E+00
 0.0000000000000E+00
 0.0000000000000E+00
 0.0000000000000E+00
 0.0000000000000E+00
 0.0000000000000E+00
 0.0000000000000E+00
 0.0000000000000E+00
 0.0000000000000E+00
 0.0000000000000E+00
 0.0000000000000E+00
 0.0000000000000E+00
 0.0000000000000E+00
 0.0000000000000E+00
 0.0000000000000E+00
 0.0000000000000E+00
 0.0000000000000E+00
 0.0000000000000E+00
 0.0000000000000E+00
 0.0000000000000E+00
 0.0000000000000E+00
 0.0000000000000E+00
 0.0000000000000E+00
 0.0000000000000E+00
 0.0000000000000E+00
 0.0000000000000E+00
 0.0000000000000E+00
 0.0000000000000E+00
 0.0000000000000E+00
 0.0000000000000E+00
 0.0000000000000E+00
 0.0000000000000E+00
 0.0000000000000E+00
 0.0000000000000E+00
 0.0000000000000E+00
 0.0000000000000E+00
 0.0000000000000E+00
 0.0000000000000E+00
 0.0000000000000E+00
 0.0000000000000E+00
 0.0000000000000E+00
 0.0000000000000E+00
 0.0000000000000E+00
 0.0000000000000E+00
 0.0000000000000E+00
 0.0000000000000E+00
 0.0000000000000E+00
 0.0000000000000E+00
 0.0000000000000E+00
 0.0000000000000E+00
 0.0000000000000E+00
 0.0000000000000E+00
 0.0000000000000E+00
 0.0000000000000E+00
 0.0000000000000E+00
 0.0000000000000E+00
 0.0000000000000E+00
 0.0000000000000E+00
 0.0000000000000E+00
 0.0000000000000E+00
 0.0000000000000E+00
 0.0000000000000E+00
 0.0000000000000E+00
 0.0000000000000E+00
 0.0000000000000E+00
 0.0000000000000E+00
 0.0000000000000E+00
 0.0000000000000E+00
 0.0000000000000E+00
 0.0000000000000E+00
 0.0000000000000E+00
 0.0000000000000E+00
 0.0000000000000E+00
 0.0000000000000E+00
 0.0000000000000E+00
 0.0000000000000E+00
 0.0000000000000E+00
 0.0000000000000E+00
 0.0000000000000E+00
 0.0000000000000E+00
 0.0000000000000E+00
 0.0000000000000E+00
 0.0000000000000E+00
 0.0000000000000E+00
 0.0000000000000E+00
 0.0000000000000E+00
 0.0000000000000E+00
 0.0000000000000E+00
 0.0000000000000E+00
 0.0000000000000E+00
 0.0000000000000E+00
 0.0000000000000E+00
 0.0000000000000E+00
 0.0000000000000E+00
 0.0000000000000E+00
 0.0000000000000E+00
 0.0000000000000E+00
 0.0000000000000E+00
 0.0000000000000E+00
 0.0000000000000E+00
 0.0000000000000E+00
 0.0000000000000E+00
 0.0000000000000E+00
 0.0000000000000E+00
 0.0000000000000E+00
 0.0000000000000E+00
 0.0000000000000E+00
 0.0000000000000E+00
 0.0000000000000E+00
 0.0000000000000E+00
 0.0000000000000E+00
 0.0000000000000E+00
 0.0000000000000E+00
 0.0000000000000E+00
 0.0000000000000E+00
 0.0000000000000E+00
 0.0000000000000E+00
 0.0000000000000E+00
 0.0000000000000E+00
 0.0000000000000E+00
 0.0000000000000E+00
 0.0000000000000E+00
 0.0000000000000E+00
 0.0000000000000E+00
 0.0000000000000E+00
 0.0000000000000E+00
 0.0000000000000E+00
 0.0000000000000E+00
 0.0000000000000E+00
 0.0000000000000E+00
 0.0000000000000E+00
 0.0000000000000E+00
 0.0000000000000E+00
 0.0000000000000E+00
 0.0000000000000E+00
 0.0000000000000E+00
 0.0000000000000E+00
 0.0000000000000E+00
 0.0000000000000E+00
 0.0000000000000E+00
 0.0000000000000E+00
 0.0000000000000E+00
 0.0000000000000E+00
 0.0000000000000E+00
 0.0000000000000E+00
 0.0000000000000E+00
 0.0000000000000E+00
 0.0000000000000E+00
 0.0000000000000E+00
 0.0000000000000E+00
 0.0000000000000E+00
 0.0000000000000E+00
 0.0000000000000E+00
 0.0000000000000E+00
 0.0000000000000E+00
 0.0000000000000E+00
 0.0000000000000E+00
 0.0000000000000E+00
 0.0000000000000E+00
 0.0000000000000E+00
 0.0000000000000E+00
 0.0000000000000E+00
 0.0000000000000E+00
 0.0000000000000E+00
 0.0000000000000E+00
 0.0000000000000E+00
 0.0000000000000E+00
 0.0000000000000E+00
 0.0000000000000E+00
 0.0000000000000E+00
 0.0000000000000E+00
 0.0000000000000E+00
 0.0000000000000E+00
 0.0000000000000E+00
 0.0000000000000E+00
 0.0000000000000E+00
 0.0000000000000E+00
 0.0000000000000E+00
 0.0000000000000E+00
 0.0000000000000E+00
 0.0000000000000E+00
 0.0000000000000E+00
 0.0000000000000E+00
 0.0000000000000E+00
 0.0000000000000E+00
 0.0000000000000E+00
 0.0000000000000E+00
 0.0000000000000E+00
 0.0000000000000E+00
 0.0000000000000E+00
 0.0000000000000E+00
 0.0000000000000E+00
 0.0000000000000E+00
 0.0000000000000E+00
 0.0000000000000E+00
 0.0000000000000E+00
 0.0000000000000E+00
 0.0000000000000E+00
 0.0000000000000E+00
 0.0000000000000E+00
 0.0000000000000E+00
 0.0000000000000E+00
 0.0000000000000E+00
 0.0000000000000E+00
 0.0000000000000E+00
 0.0000000000000E+00
 0.0000000000000E+00
 0.0000000000000E+00
 0.0000000000000E+00
 0.0000000000000E+00
 0.0000000000000E+00
 0.0000000000000E+00
 0.0000000000000E+00
 0.0000000000000E+00
 0.0000000000000E+00
 0.0000000000000E+00
 0.0000000000000E+00
 0.0000000000000E+00
 0.0000000000000E+00
 0.0000000000000E+00
 0.0000000000000E+00
 0.0000000000000E+00
 0.0000000000000E+00
 0.0000000000000E+00
 0.0000000000000E+00
 0.0000000000000E+00
 0.0000000000000E+00
 0.0000000000000E+00
 0.0000000000000E+00
 0.0000000000000E+00
 0.0000000000000E+00
 0.0000000000000E+00
 0.0000000000000E+00
 0.0000000000000E+00
 0.0000000000000E+00
 0.0000000000000E+00
 0.0000000000000E+00
 0.0000000000000E+00
 0.0000000000000E+00
 0.0000000000000E+00
 0.0000000000000E+00
 0.0000000000000E+00
 0.0000000000000E+00
 0.0000000000000E+00
 0.0000000000000E+00
 0.0000000000000E+00
 0.0000000000000E+00
 0.0000000000000E+00
 0.0000000000000E+00
 0.0000000000000E+00
 0.0000000000000E+00
 0.0000000000000E+00
 0.0000000000000E+00
 0.0000000000000E+00
 0.0000000000000E+00
 0.0000000000000E+00
 0.0000000000000E+00
 0.0000000000000E+00
 0.0000000000000E+00
 0.0000000000000E+00
 0.0000000000000E+00
 0.0000000000000E+00
 0.0000000000000E+00
 0.0000000000000E+00
 0.0000000000000E+00
 0.0000000000000E+00
 0.0000000000000E+00
 0.0000000000000E+00
 0.0000000000000E+00
 0.0000000000000E+00
 0.0000000000000E+00
 0.0000000000000E+00
 0.0000000000000E+00
 0.0000000000000E+00
 0.0000000000000E+00
 0.0000000000000E+00
 0.0000000000000E+00
 0.0000000000000E+00
 0.0000000000000E+00
 0.0000000000000E+00
 0.0000000000000E+00
 0.0000000000000E+00
 0.0000000000000E+00
 0.0000000000000E+00
 0.0000000000000E+00
 0.0000000000000E+00
 0.0000000000000E+00
 0.0000000000000E+00
 0.0000000000000E+00
 0.0000000000000E+00
 0.0000000000000E+00
 0.0000000000000E+00
 0.0000000000000E+00
 0.0000000000000E+00
 0.0000000000000E+00
 0.0000000000000E+00
 0.0000000000000E+00
 0.0000000000000E+00
 0.0000000000000E+00
 0.0000000000000E+00
 0.0000000000000E+00
 0.0000000000000E+00
 0.0000000000000E+00
 0.0000000000000E+00
 0.0000000000000E+00
 0.0000000000000E+00
 0.0000000000000E+00
 0.0000000000000E+00
 0.0000000000000E+00
 0.0000000000000E+00
 0.0000000000000E+00
 0.0000000000000E+00
 0.0000000000000E+00
 0.0000000000000E+00
 0.0000000000000E+00
 0.0000000000000E+00
 0.0000000000000E+00
 0.0000000000000E+00
 0.0000000000000E+00
 0.0000000000000E+00
 0.0000000000000E+00
 0.0000000000000E+00
 0.0000000000000E+00
 0.0000000000000E+00
 0.0000000000000E+00
 0.0000000000000E+00
 0.0000000000000E+00
 0.0000000000000E+00
 0.0000000000000E+00
 0.0000000000000E+00
 0.0000000000000E+00
 0.0000000000000E+00
 0.0000000000000E+00
 0.0000000000000E+00
 0.0000000000000E+00
 0.0000000000000E+00
 0.0000000000000E+00
 0.0000000000000E+00
 0.0000000000000E+00
 0.0000000000000E+00
 0.0000000000000E+00
 0.0000000000000E+00
 0.0000000000000E+00
 0.0000000000000E+00
 0.0000000000000E+00
 0.0000000000000E+00
 0.0000000000000E+00
 0.0000000000000E+00
 0.0000000000000E+00
 0.0000000000000E+00
 0.0000000000000E+00
 0.0000000000000E+00
 0.0000000000000E+00
 0.0000000000000E+00
 0.0000000000000E+00
 0.0000000000000E+00
 0.0000000000000E+00
 0.0000000000000E+00
 0.0000000000000E+00
 0.0000000000000E+00
 0.0000000000000E+00
 0.0000000000000E+00
 0.0000000000000E+00
 0.0000000000000E+00
 0.0000000000000E+00
 0.0000000000000E+00
 0.0000000000000E+00
 0.0000000000000E+00
 0.0000000000000E+00
 0.0000000000000E+00
 0.0000000000000E+00
 0.0000000000000E+00
 0.0000000000000E+00
 0.0000000000000E+00
 0.0000000000000E+00
 0.0000000000000E+00
 0.0000000000000E+00
 0.0000000000000E+00
 0.0000000000000E+00
 0.0000000000000E+00
 0.0000000000000E+00
 0.0000000000000E+00
 0.0000000000000E+00
 0.0000000000000E+00
 0.0000000000000E+00
 0.0000000000000E+00
 0.0000000000000E+00
 0.0000000000000E+00
 0.0000000000000E+00
 0.0000000000000E+00
 0.0000000000000E+00
 0.0000000000000E+00
 0.0000000000000E+00
 0.0000000000000E+00
 0.0000000000000E+00
 0.0000000000000E+00
 0.0000000000000E+00
 0.0000000000000E+00
 0.0000000000000E+00
 0.0000000000000E+00
 0.0000000000000E+00
 0.0000000000000E+00
 0.0000000000000E+00
 0.0000000000000E+00
 0.0000000000000E+00
 0.0000000000000E+00
 0.0000000000000E+00
 0.0000000000000E+00
 0.0000000000000E+00
 0.0000000000000E+00
 0.0000000000000E+00
 0.0000000000000E+00
 0.0000000000000E+00
 0.0000000000000E+00
 0.0000000000000E+00
 0.0000000000000E+00
 0.0000000000000E+00
 0.0000000000000E+00
 0.0000000000000E+00
 0.0000000000000E+00
 0.0000000000000E+00
 0.0000000000000E+00
 0.0000000000000E+00
 0.0000000000000E+00
 0.0000000000000E+00
 0.0000000000000E+00
 0.0000000000000E+00
 0.0000000000000E+00
 0.0000000000000E+00
 0.0000000000000E+00
 0.0000000000000E+00
 0.0000000000000E+00
 0.0000000000000E+00
 0.0000000000000E+00
 0.0000000000000E+00
 0.0000000000000E+00
 0.0000000000000E+00
 0.0000000000000E+00
 0.0000000000000E+00
 0.0000000000000E+00
 0.0000000000000E+00
 0.0000000000000E+00
</DataArray>
<DataArray type="Int32" Name="Region" format="ascii">
           1
           1
           1
           1
           1
           1
           1
           1
           1
           1
           1
           1
           1
           1
           1
           1
           1
           1
           1
           1
           1
           1
           1
           1
           1
           1
           1
           1
           1
           1
           1
           1
           1
           1
           1
           1
           1
           1
           1
           1
           1
           1
           1
           1
           1
           1
           1
           1
           1
           1
           1
           1
           1
           1
           1
           1
           1
           1
           1
           1
           1
           1
           1
           1
           1
           1
           1
           1
           1
           1
           1
           1
           1
           1
           1
           1
           1
           1
           1
           1
           1
           1
           1
           1
           1
           1
           1
           1
           1
           1
           1
           1
           1
           1
           1
           1
           1
           1
           1
           1
           1
           1
           1
           1
           1
           1
           1
           1
           1
           1
           1
           1
           1
           1
           1
           1
           1
           1
           1
           1
           1
           1
           1
           1
           1
           1
           1
           1
           1
           1
           1
           1
           1
           1
           1
           1
           1
           1
           1
           1
           1
           1
           1
           1
           1
           1
           1
           1
           1
           1
           1
           1
           1
           1
           1
           1
           1
           1
           1
           1
           1
           1
           1
           1
           1
           1
           1
           1
           1
           1
           1
           1
           1
           1
           1
           1
           1
           1
           1
           1
           1
           1
           1
           1
           1
           1
           1
           1
           1
           1
           1
           1
           1
           1
           1
           1
           1
           1
           1
           1
           1
           1
           1
           1
           1
           1
           1
           1
           1
           1
           1
           1
           1
           1
           1
           1
           1
           1
           1
           1
           1
           1
           1
           1
           1
           1
           1
           1
           1
           1
           1
           1
           1
           1
           1
           1
           1
           1
           1
           1
           1
           1
           1
           1
           1
           1
           1
           1
           1
           1
           1
           1
           1
           1
           1
           1
           1
           1
           1
           1
           1
           1
           1
           1
           1
           1
           1
           1
           1
           1
           1
           1
           1
           1
           1
           1
           1
           1
           1
           1
           1
           1
           1
           1
           1
           1
           1
           1
           1
           1
           1
           1
           1
           1
           1
           1
           1
           1
           1
           1
           1
           1
           1
           1
           1
           1
           1
           1
           1
           1
           1
           1
           1
           1
           1
           1
           1
           1
           1
           1
           1
           1
           1
           1
           1
           1
           1
           1
           1
           1
           1
           1
           1
           1
           1
           1
           1
           1
           1
           1
           1
           1
           1
           1
           1
           1
           1
           1
           1
           1
           1
           1
           1
           1
           1
           1
           1
           1
           1
           1
           1
           1
           1
           1
           1
           1
           1
           1
           1
           1
           1
           1
           1
           1
           1
           1
           1
           1
           1
           1
           1
           1
           1
           1
           1
           1
           1
           1
           1
           1
           1
           1
           1
           1
           1
           1
           1
           1
           1
           1
           1
           1
           1
           1
           1
           1
           1
           1
           1
           1
           1
           1
           1
           1
           1
           1
           1
           1
           1
           1
           1
           1
           1
           1
           1
           1
           1
           1
           1
           1
           1
           1
           1
           1
           1
           1
           1
           1
           1
           1
           1
           1
           1
           1
           1
           1
           1
           1
           1
           1
           1
           1
           1
           1
           1
           1
           1
           1
           1
           1
           1
           1
           1
           1
           1
           1
           1
           1
           1
           1
           1
           1
           1
           1
           1
           1
           1
           1
           1
           1
           1
           1
           1
           1
           1
           1
           1
           1
           1
           1
           1
           1
           1
           1
           1
           1
           1
           1
           1
           1
           1
           1
           1
           1
           1
           1
           1
           1
           1
           1
           1
           1
           1
           1
           1
           1
           1
           1
           1
           1
           1
           1
           1
           1
           1
           1
           1
           1
           1
           1
           1
           1
           1
           1
           1
           1
           1
           1
           1
           1
           1
           1
           1
           1
           1
           1
           1
           1
           1
           1
           1
           1
           1
           1
           1
           1
           1
           1
           1
           1
           1
           1
           1
           1
           1
           1
           1
           1
           1
           1
           1
           1
           1
           1
           1
           1
           1
           1
           1
           1
           1
           1
           1
           1
           1
           1
           1
           1
           1
           1
           1
           1
           1
           1
           1
           1
           1
           1
           1
           1
           1
           1
           1
           1
           1
           1
           1
           1
           1
           1
           1
           1
           1
           1
           1
           1
           1
           1
           1
           1
           1
           1
           1
           1
           1
           1
           1
           1
           1
           1
           1
           1
           1
           1
           1
           1
           1
           1
           1
           1
           1
           1
           1
           1
           1
           1
           1
           1
           1
           1
           1
           1
           1
           1
           1
           1
           1
           1
           1
           1
           1
           1
           1
           1
           1
           1
           1
           1
           1
           1
           1
           1
           1
           1
           1
           1
           1
           1
           1
           1
           1
           1
           1
           1
           1
           1
           1
           1
           1
           1
           1
           1
           1
           1
           1
           1
           1
           1
           1
           1
           1
           1
           1
           1
           1
           1
           1
           1
           1
           1
           1
           1
           1
           1
           1
           1
           1
           1
           1
           1
           1
           1
           1
           1
           1
           1
           1
           1
           1
           1
           1
           1
           1
           1
           1
           1
           1
           1
           1
           1
           1
           1
           1
           1
           1
           1
           1
           1
           1
           1
           1
           1
           1
           1
           1
           1
           1
           1
           1
           1
           1
           1
           1
           1
           1
           1
           1
           1
           1
           1
           1
           1
           1
           1
           1
           1
           1
           1
           1
           1
           1
           1
           1
           1
           1
           1
           1
           1
           1
           1
           1
           1
           1
           1
           1
           1
           1
           1
           1
           1
           1
           1
           1
           1
           1
           1
           1
           1
           1
           1
           1
           1
           1
           1
           1
           1
           1
           1
           1
           1
           1
           1
           1
           1
           1
           1
           1
           1
           1
           1
           1
           1
           1
           1
           1
           1
           1
           1
           1
           1
           2
           2
           2
           2
           2
           2
           2
           2
           2
           2
           2
           2
           2
           2
           2
           2
           2
           2
           2
           2
           2
           2
           2
           2
           2
           2
           2
           2
           2
           2
           2
           2
           2
           2
           2
           2
           2
           2
           2
           2
           2
           2
           2
           2
           2
           2
           2
           2
           2
           2
           2
           2
           2
           2
           2
           2
           2
           2
           2
           2
           2
           2
           2
           2
           2
           2
           2
           2
           2
           2
           2
           2
           2
           2
           2
           2
           2
           2
           2
           2
           2
           2
           2
           2
           2
           2
           2
           2
           2
           2
           2
           2
           2
           2
           2
           2
           2
           2
           2
           2
           2
           2
           2
           2
           2
           2
           2
           2
           2
           2
           2
           2
           2
           2
           2
           2
           2
           2
           2
           2
           2
           2
           2
           2
           2
           2
           2
           2
           2
           2
           2
           2
           2
           2
           2
           2
           2
           2
           2
           2
           2
           2
           2
           2
           2
           2
           2
           2
           2
           2
           2
           2
           2
           2
           2
           2
           2
           2
           2
           2
           2
           2
           2
           2
           2
           2
           2
           2
           2
           2
           2
           2
           2
           2
           2
           2
           2
           2
           2
           2
           2
           2
           2
           2
           2
           2
           2
           2
           2
           2
           2
           2
           2
           2
           2
           2
           2
           2
           2
           2
           2
           2
           2
           2
           2
           2
           2
           2
           2
           2
           2
           2
           2
           2
           2
           2
           2
           2
           2
           2
           2
           2
           2
           2
           2
           2
           2
           2
           2
           2
           2
           2
           2
           2
           2
           2
           2
           2
           2
           2
           2
           2
           2
           2
           2
           2
           2
           2
           2
           2
           2
           2
           2
           2
           2
           2
           2
           2
           2
           2
           2
           2
           2
           2
           2
           2
           2
           2
           2
           2
           2
           2
           2
           2
           2
           2
           2
           2
           2
           2
           2
           2
           2
           2
           2
           2
           2
           2
           2
           2
           2
           2
           2
           2
           2
           2
           2
           2
           2
           2
           2
           2
           2
           2
           2
           2
           2
           2
           2
           2
           2
           2
           2
           2
           2
           2
           2
           2
           2
           2
           2
           2
           2
           2
           2
           2
           2
           2
           2
           2
           2
           2
           2
           2
           2
           2
           2
           2
           2
           2
           2
           2
           2
           2
           2
           2
           2
           2
           2
           2
           2
           2
           2
           2
           2
           2
           2
           2
           2
           2
           2
           2
           2
           2
           2
           2
           2
           2
           2
           2
           2
           2
           2
           2
           2
           2
           2
           2
           2
           2
           2
           2
           2
           2
           2
           2
           2
           2
           2
           2
           2
           2
           2
           2
           2
           2
           2
           2
           2
           2
           2
           2
           2
           2
           2
           2
           2
           2
           2
           2
           2
           2
           2
           2
           2
           2
           2
           2
           2
           2
           2
           2
           2
           2
           2
           2
           2
           2
           2
           2
           2
           2
           2
           2
           2
           2
           2
           2
           2
           2
           2
           2
           2
           2
           2
           2
           2
           2
           2
           2
           2
           2
           2
           2
           2
           2
           2
           2
           2
           2
           2
           2
           2
           2
           2
           2
           2
           2
           2
           2
           2
           2
           2
           2
           2
           2
           2
           2
           2
           2
           2
           2
           2
           2
           2
           2
           2
           2
           2
           2
           2
           2
           2
           2
           2
           2
           2
           2
           2
           2
           2
           2
           2
           2
           2
           2
           2
           2
           2
           2
           2
           2
           2
           2
           2
           2
           2
           2
           2
           2
           2
           2
           2
           2
           2
           2
           2
           2
           2
           2
           2
           2
           2
           2
           2
           2
           2
           2
           2
           2
           2
           2
           2
           2
           2
           2
           2
           2
           2
           2
           2
           2
           2
           2
           2
           2
           2
           2
           2
           2
           2
           2
           2
           2
           2
           2
           2
           2
           2
           2
           2
           2
           2
           2
           2
           2
           2
           2
           2
           2
           2
           2
           2
           2
           2
           2
           2
           2
           2
           2
           2
           2
           2
           2
           2
           2
           2
           2
           2
           2
</DataArray>
</CellData>
</Piece>
</UnstructuredGrid>
</VTKFile>
